ODB Name,Step,Frame,Part Instance Name,    Node Label,X,Y,Z,Section Name,Material Name,Section Point,       S-Mises,S-Max. In-Plane Principal (Abs),S-Max. Principal (Abs)
C:/temp/Job-4.odb,Step-1,Increment      1: Step Time =    1.000,"P-4-1",             1,       97.8787,       102.121,            0.,NA,NA,"",   1.07425E+06,   1.05214E+06,   1.05214E+06
C:/temp/Job-4.odb,Step-1,Increment      1: Step Time =    1.000,"P-4-1",             2,           97.,          100.,            0.,NA,NA,"",   619.512E+03,   511.198E+03,   511.198E+03
C:/temp/Job-4.odb,Step-1,Increment      1: Step Time =    1.000,"P-4-1",             3,       97.8787,       97.8787,            0.,NA,NA,"",   1.08410E+06,   1.06470E+06,   1.06470E+06
C:/temp/Job-4.odb,Step-1,Increment      1: Step Time =    1.000,"P-4-1",             4,          100.,           97.,            0.,NA,NA,"",   1.41687E+06,   1.50699E+06,   1.50699E+06
C:/temp/Job-4.odb,Step-1,Increment      1: Step Time =    1.000,"P-4-1",             5,       102.121,       97.8787,            0.,NA,NA,"",   1.06472E+06,   1.04139E+06,   1.04139E+06
C:/temp/Job-4.odb,Step-1,Increment      1: Step Time =    1.000,"P-4-1",             6,          103.,          100.,            0.,NA,NA,"",   631.906E+03,   525.057E+03,   525.057E+03
C:/temp/Job-4.odb,Step-1,Increment      1: Step Time =    1.000,"P-4-1",             7,       102.121,       102.121,            0.,NA,NA,"",   1.10292E+06,   1.08302E+06,   1.08302E+06
C:/temp/Job-4.odb,Step-1,Increment      1: Step Time =    1.000,"P-4-1",             8,          100.,          103.,            0.,NA,NA,"",   1.43101E+06,   1.52259E+06,   1.52259E+06
C:/temp/Job-4.odb,Step-1,Increment      1: Step Time =    1.000,"P-4-1",             9,          190.,            0.,            0.,NA,NA,"",   999.910E+03,   999.869E+03,   999.869E+03
C:/temp/Job-4.odb,Step-1,Increment      1: Step Time =    1.000,"P-4-1",            10,          180.,            0.,            0.,NA,NA,"",   998.748E+03,   998.694E+03,   998.694E+03
C:/temp/Job-4.odb,Step-1,Increment      1: Step Time =    1.000,"P-4-1",            11,          170.,            0.,            0.,NA,NA,"",   996.180E+03,   996.126E+03,   996.126E+03
C:/temp/Job-4.odb,Step-1,Increment      1: Step Time =    1.000,"P-4-1",            12,          160.,            0.,            0.,NA,NA,"",   992.388E+03,   992.368E+03,   992.368E+03
C:/temp/Job-4.odb,Step-1,Increment      1: Step Time =    1.000,"P-4-1",            13,          150.,            0.,            0.,NA,NA,"",   987.551E+03,   987.540E+03,   987.540E+03
C:/temp/Job-4.odb,Step-1,Increment      1: Step Time =    1.000,"P-4-1",            14,          140.,            0.,            0.,NA,NA,"",   981.613E+03,   981.593E+03,   981.593E+03
C:/temp/Job-4.odb,Step-1,Increment      1: Step Time =    1.000,"P-4-1",            15,          130.,            0.,            0.,NA,NA,"",   975.018E+03,   974.981E+03,   974.981E+03
C:/temp/Job-4.odb,Step-1,Increment      1: Step Time =    1.000,"P-4-1",            16,          120.,            0.,            0.,NA,NA,"",   967.916E+03,   967.882E+03,   967.882E+03
C:/temp/Job-4.odb,Step-1,Increment      1: Step Time =    1.000,"P-4-1",            17,          110.,            0.,            0.,NA,NA,"",   960.364E+03,   960.369E+03,   960.369E+03
C:/temp/Job-4.odb,Step-1,Increment      1: Step Time =    1.000,"P-4-1",            18,          100.,            0.,            0.,NA,NA,"",   952.734E+03,   952.741E+03,   952.741E+03
C:/temp/Job-4.odb,Step-1,Increment      1: Step Time =    1.000,"P-4-1",            19,           90.,            0.,            0.,NA,NA,"",   945.504E+03,   945.525E+03,   945.525E+03
C:/temp/Job-4.odb,Step-1,Increment      1: Step Time =    1.000,"P-4-1",            20,           80.,            0.,            0.,NA,NA,"",   939.273E+03,   939.284E+03,   939.284E+03
C:/temp/Job-4.odb,Step-1,Increment      1: Step Time =    1.000,"P-4-1",            21,           70.,            0.,            0.,NA,NA,"",   934.771E+03,   934.798E+03,   934.798E+03
C:/temp/Job-4.odb,Step-1,Increment      1: Step Time =    1.000,"P-4-1",            22,           60.,            0.,            0.,NA,NA,"",   933.813E+03,   933.896E+03,   933.896E+03
C:/temp/Job-4.odb,Step-1,Increment      1: Step Time =    1.000,"P-4-1",            23,           50.,            0.,            0.,NA,NA,"",   935.486E+03,   935.622E+03,   935.622E+03
C:/temp/Job-4.odb,Step-1,Increment      1: Step Time =    1.000,"P-4-1",            24,           40.,            0.,            0.,NA,NA,"",   943.569E+03,   943.796E+03,   943.796E+03
C:/temp/Job-4.odb,Step-1,Increment      1: Step Time =    1.000,"P-4-1",            25,           30.,            0.,            0.,NA,NA,"",   967.090E+03,   967.474E+03,   967.474E+03
C:/temp/Job-4.odb,Step-1,Increment      1: Step Time =    1.000,"P-4-1",            26,           20.,            0.,            0.,NA,NA,"",   1.02288E+06,   1.02391E+06,   1.02391E+06
C:/temp/Job-4.odb,Step-1,Increment      1: Step Time =    1.000,"P-4-1",            27,           10.,            0.,            0.,NA,NA,"",   1.16910E+06,   1.17167E+06,   1.17167E+06
C:/temp/Job-4.odb,Step-1,Increment      1: Step Time =    1.000,"P-4-1",            28,          200.,            0.,            0.,NA,NA,"",   1.00001E+06,   1.00001E+06,   1.00001E+06
C:/temp/Job-4.odb,Step-1,Increment      1: Step Time =    1.000,"P-4-1",            29,            0.,            0.,            0.,NA,NA,"",   1.51024E+06,   1.58187E+06,   1.58187E+06
C:/temp/Job-4.odb,Step-1,Increment      1: Step Time =    1.000,"P-4-1",            30,          200.,          190.,            0.,NA,NA,"",   999.987E+03,   999.920E+03,   999.920E+03
C:/temp/Job-4.odb,Step-1,Increment      1: Step Time =    1.000,"P-4-1",            31,          200.,          180.,            0.,NA,NA,"",   1.00055E+06,   999.917E+03,   999.917E+03
C:/temp/Job-4.odb,Step-1,Increment      1: Step Time =    1.000,"P-4-1",            32,          200.,          170.,            0.,NA,NA,"",   1.00174E+06,   999.940E+03,   999.940E+03
C:/temp/Job-4.odb,Step-1,Increment      1: Step Time =    1.000,"P-4-1",            33,          200.,          160.,            0.,NA,NA,"",   1.00328E+06,   1.00001E+06,   1.00001E+06
C:/temp/Job-4.odb,Step-1,Increment      1: Step Time =    1.000,"P-4-1",            34,          200.,          150.,            0.,NA,NA,"",   1.00488E+06,   1.00004E+06,   1.00004E+06
C:/temp/Job-4.odb,Step-1,Increment      1: Step Time =    1.000,"P-4-1",            35,          200.,          140.,            0.,NA,NA,"",   1.00628E+06,   1.00003E+06,   1.00003E+06
C:/temp/Job-4.odb,Step-1,Increment      1: Step Time =    1.000,"P-4-1",            36,          200.,          130.,            0.,NA,NA,"",   1.00737E+06,   1.00004E+06,   1.00004E+06
C:/temp/Job-4.odb,Step-1,Increment      1: Step Time =    1.000,"P-4-1",            37,          200.,          120.,            0.,NA,NA,"",   1.00810E+06,   1.00004E+06,   1.00004E+06
C:/temp/Job-4.odb,Step-1,Increment      1: Step Time =    1.000,"P-4-1",            38,          200.,          110.,            0.,NA,NA,"",   1.00853E+06,   1.00003E+06,   1.00003E+06
C:/temp/Job-4.odb,Step-1,Increment      1: Step Time =    1.000,"P-4-1",            39,          200.,          100.,            0.,NA,NA,"",   1.00866E+06,   1.00003E+06,   1.00003E+06
C:/temp/Job-4.odb,Step-1,Increment      1: Step Time =    1.000,"P-4-1",            40,          200.,           90.,            0.,NA,NA,"",   1.00855E+06,   1.00003E+06,   1.00003E+06
C:/temp/Job-4.odb,Step-1,Increment      1: Step Time =    1.000,"P-4-1",            41,          200.,           80.,            0.,NA,NA,"",   1.00816E+06,   1.00004E+06,   1.00004E+06
C:/temp/Job-4.odb,Step-1,Increment      1: Step Time =    1.000,"P-4-1",            42,          200.,           70.,            0.,NA,NA,"",   1.00742E+06,   1.00006E+06,   1.00006E+06
C:/temp/Job-4.odb,Step-1,Increment      1: Step Time =    1.000,"P-4-1",            43,          200.,           60.,            0.,NA,NA,"",   1.00632E+06,   1.00013E+06,   1.00013E+06
C:/temp/Job-4.odb,Step-1,Increment      1: Step Time =    1.000,"P-4-1",            44,          200.,           50.,            0.,NA,NA,"",   1.00469E+06,   999.932E+03,   999.932E+03
C:/temp/Job-4.odb,Step-1,Increment      1: Step Time =    1.000,"P-4-1",            45,          200.,           40.,            0.,NA,NA,"",   1.00320E+06,   999.987E+03,   999.987E+03
C:/temp/Job-4.odb,Step-1,Increment      1: Step Time =    1.000,"P-4-1",            46,          200.,           30.,            0.,NA,NA,"",   1.00169E+06,   999.956E+03,   999.956E+03
C:/temp/Job-4.odb,Step-1,Increment      1: Step Time =    1.000,"P-4-1",            47,          200.,           20.,            0.,NA,NA,"",   1.00055E+06,   999.936E+03,   999.936E+03
C:/temp/Job-4.odb,Step-1,Increment      1: Step Time =    1.000,"P-4-1",            48,          200.,           10.,            0.,NA,NA,"",   999.986E+03,   999.925E+03,   999.925E+03
C:/temp/Job-4.odb,Step-1,Increment      1: Step Time =    1.000,"P-4-1",            49,          200.,          200.,            0.,NA,NA,"",   1.00001E+06,   1.00001E+06,   1.00001E+06
C:/temp/Job-4.odb,Step-1,Increment      1: Step Time =    1.000,"P-4-1",            50,           10.,          200.,            0.,NA,NA,"",   1.17074E+06,   1.17331E+06,   1.17331E+06
C:/temp/Job-4.odb,Step-1,Increment      1: Step Time =    1.000,"P-4-1",            51,           20.,          200.,            0.,NA,NA,"",   1.02568E+06,   1.02675E+06,   1.02675E+06
C:/temp/Job-4.odb,Step-1,Increment      1: Step Time =    1.000,"P-4-1",            52,           30.,          200.,            0.,NA,NA,"",   969.646E+03,   970.302E+03,   970.302E+03
C:/temp/Job-4.odb,Step-1,Increment      1: Step Time =    1.000,"P-4-1",            53,           40.,          200.,            0.,NA,NA,"",   944.153E+03,   944.653E+03,   944.653E+03
C:/temp/Job-4.odb,Step-1,Increment      1: Step Time =    1.000,"P-4-1",            54,           50.,          200.,            0.,NA,NA,"",   933.576E+03,   933.752E+03,   933.752E+03
C:/temp/Job-4.odb,Step-1,Increment      1: Step Time =    1.000,"P-4-1",            55,           60.,          200.,            0.,NA,NA,"",   931.144E+03,   931.178E+03,   931.178E+03
C:/temp/Job-4.odb,Step-1,Increment      1: Step Time =    1.000,"P-4-1",            56,           70.,          200.,            0.,NA,NA,"",   933.689E+03,   933.720E+03,   933.720E+03
C:/temp/Job-4.odb,Step-1,Increment      1: Step Time =    1.000,"P-4-1",            57,           80.,          200.,            0.,NA,NA,"",   938.969E+03,   938.988E+03,   938.988E+03
C:/temp/Job-4.odb,Step-1,Increment      1: Step Time =    1.000,"P-4-1",            58,           90.,          200.,            0.,NA,NA,"",   945.557E+03,   945.587E+03,   945.587E+03
C:/temp/Job-4.odb,Step-1,Increment      1: Step Time =    1.000,"P-4-1",            59,          100.,          200.,            0.,NA,NA,"",   952.715E+03,   952.710E+03,   952.710E+03
C:/temp/Job-4.odb,Step-1,Increment      1: Step Time =    1.000,"P-4-1",            60,          110.,          200.,            0.,NA,NA,"",   960.171E+03,   960.138E+03,   960.138E+03
C:/temp/Job-4.odb,Step-1,Increment      1: Step Time =    1.000,"P-4-1",            61,          120.,          200.,            0.,NA,NA,"",   967.649E+03,   967.631E+03,   967.631E+03
C:/temp/Job-4.odb,Step-1,Increment      1: Step Time =    1.000,"P-4-1",            62,          130.,          200.,            0.,NA,NA,"",   974.883E+03,   974.879E+03,   974.879E+03
C:/temp/Job-4.odb,Step-1,Increment      1: Step Time =    1.000,"P-4-1",            63,          140.,          200.,            0.,NA,NA,"",   981.818E+03,   981.862E+03,   981.862E+03
C:/temp/Job-4.odb,Step-1,Increment      1: Step Time =    1.000,"P-4-1",            64,          150.,          200.,            0.,NA,NA,"",   987.899E+03,   987.758E+03,   987.758E+03
C:/temp/Job-4.odb,Step-1,Increment      1: Step Time =    1.000,"P-4-1",            65,          160.,          200.,            0.,NA,NA,"",   992.638E+03,   992.601E+03,   992.601E+03
C:/temp/Job-4.odb,Step-1,Increment      1: Step Time =    1.000,"P-4-1",            66,          170.,          200.,            0.,NA,NA,"",   996.353E+03,   996.318E+03,   996.318E+03
C:/temp/Job-4.odb,Step-1,Increment      1: Step Time =    1.000,"P-4-1",            67,          180.,          200.,            0.,NA,NA,"",   998.789E+03,   998.751E+03,   998.751E+03
C:/temp/Job-4.odb,Step-1,Increment      1: Step Time =    1.000,"P-4-1",            68,          190.,          200.,            0.,NA,NA,"",   999.911E+03,   999.873E+03,   999.873E+03
C:/temp/Job-4.odb,Step-1,Increment      1: Step Time =    1.000,"P-4-1",            69,            0.,          200.,            0.,NA,NA,"",   1.51078E+06,   1.58276E+06,   1.58276E+06
C:/temp/Job-4.odb,Step-1,Increment      1: Step Time =    1.000,"P-4-1",            70,            0.,           10.,            0.,NA,NA,"",   1.09796E+06,   1.19335E+06,   1.19335E+06
C:/temp/Job-4.odb,Step-1,Increment      1: Step Time =    1.000,"P-4-1",            71,            0.,           20.,            0.,NA,NA,"",   966.144E+03,   1.06513E+06,   1.06513E+06
C:/temp/Job-4.odb,Step-1,Increment      1: Step Time =    1.000,"P-4-1",            72,            0.,           30.,            0.,NA,NA,"",   909.435E+03,   1.01007E+06,   1.01007E+06
C:/temp/Job-4.odb,Step-1,Increment      1: Step Time =    1.000,"P-4-1",            73,            0.,           40.,            0.,NA,NA,"",   878.005E+03,   980.183E+03,   980.183E+03
C:/temp/Job-4.odb,Step-1,Increment      1: Step Time =    1.000,"P-4-1",            74,            0.,           50.,            0.,NA,NA,"",   858.070E+03,   961.511E+03,   961.511E+03
C:/temp/Job-4.odb,Step-1,Increment      1: Step Time =    1.000,"P-4-1",            75,            0.,           60.,            0.,NA,NA,"",   845.182E+03,   949.458E+03,   949.458E+03
C:/temp/Job-4.odb,Step-1,Increment      1: Step Time =    1.000,"P-4-1",            76,            0.,           70.,            0.,NA,NA,"",   836.872E+03,   941.485E+03,   941.485E+03
C:/temp/Job-4.odb,Step-1,Increment      1: Step Time =    1.000,"P-4-1",            77,            0.,           80.,            0.,NA,NA,"",   831.300E+03,    936.22E+03,    936.22E+03
C:/temp/Job-4.odb,Step-1,Increment      1: Step Time =    1.000,"P-4-1",            78,            0.,           90.,            0.,NA,NA,"",   827.882E+03,   933.053E+03,   933.053E+03
C:/temp/Job-4.odb,Step-1,Increment      1: Step Time =    1.000,"P-4-1",            79,            0.,          100.,            0.,NA,NA,"",   826.680E+03,   931.977E+03,   931.977E+03
C:/temp/Job-4.odb,Step-1,Increment      1: Step Time =    1.000,"P-4-1",            80,            0.,          110.,            0.,NA,NA,"",   827.694E+03,   932.940E+03,   932.940E+03
C:/temp/Job-4.odb,Step-1,Increment      1: Step Time =    1.000,"P-4-1",            81,            0.,          120.,            0.,NA,NA,"",   830.878E+03,   935.944E+03,   935.944E+03
C:/temp/Job-4.odb,Step-1,Increment      1: Step Time =    1.000,"P-4-1",            82,            0.,          130.,            0.,NA,NA,"",   836.562E+03,   941.310E+03,   941.310E+03
C:/temp/Job-4.odb,Step-1,Increment      1: Step Time =    1.000,"P-4-1",            83,            0.,          140.,            0.,NA,NA,"",   847.196E+03,   950.584E+03,   950.584E+03
C:/temp/Job-4.odb,Step-1,Increment      1: Step Time =    1.000,"P-4-1",            84,            0.,          150.,            0.,NA,NA,"",   860.613E+03,   963.237E+03,   963.237E+03
C:/temp/Job-4.odb,Step-1,Increment      1: Step Time =    1.000,"P-4-1",            85,            0.,          160.,            0.,NA,NA,"",   877.676E+03,   980.340E+03,   980.340E+03
C:/temp/Job-4.odb,Step-1,Increment      1: Step Time =    1.000,"P-4-1",            86,            0.,          170.,            0.,NA,NA,"",   908.118E+03,   1.00960E+06,   1.00960E+06
C:/temp/Job-4.odb,Step-1,Increment      1: Step Time =    1.000,"P-4-1",            87,            0.,          180.,            0.,NA,NA,"",   964.546E+03,   1.06408E+06,   1.06408E+06
C:/temp/Job-4.odb,Step-1,Increment      1: Step Time =    1.000,"P-4-1",            88,            0.,          190.,            0.,NA,NA,"",   1.09659E+06,   1.19238E+06,   1.19238E+06
C:/temp/Job-4.odb,Step-1,Increment      1: Step Time =    1.000,"P-4-1",            89,       106.608,       94.0054,            0.,NA,NA,"",   1.14528E+06,   1.10174E+06,   1.10174E+06
C:/temp/Job-4.odb,Step-1,Increment      1: Step Time =    1.000,"P-4-1",            90,       189.868,       94.9697,            0.,NA,NA,"",   1.00752E+06,   1.00027E+06,   1.00027E+06
C:/temp/Job-4.odb,Step-1,Increment      1: Step Time =    1.000,"P-4-1",            91,       189.697,       104.857,            0.,NA,NA,"",   1.00752E+06,   1.00030E+06,   1.00030E+06
C:/temp/Job-4.odb,Step-1,Increment      1: Step Time =    1.000,"P-4-1",            92,       179.348,       104.798,            0.,NA,NA,"",   1.00673E+06,   1.00098E+06,   1.00098E+06
C:/temp/Job-4.odb,Step-1,Increment      1: Step Time =    1.000,"P-4-1",            93,       168.984,       105.335,            0.,NA,NA,"",   1.00645E+06,   1.00187E+06,   1.00187E+06
C:/temp/Job-4.odb,Step-1,Increment      1: Step Time =    1.000,"P-4-1",            94,       157.905,       105.988,            0.,NA,NA,"",   1.00617E+06,   1.00269E+06,   1.00269E+06
C:/temp/Job-4.odb,Step-1,Increment      1: Step Time =    1.000,"P-4-1",            95,       150.781,       105.037,            0.,NA,NA,"",   1.00544E+06,   1.00273E+06,   1.00273E+06
C:/temp/Job-4.odb,Step-1,Increment      1: Step Time =    1.000,"P-4-1",            96,       136.011,       106.050,            0.,NA,NA,"",   1.00085E+06,   1.00045E+06,   1.00045E+06
C:/temp/Job-4.odb,Step-1,Increment      1: Step Time =    1.000,"P-4-1",            97,       125.183,       104.623,            0.,NA,NA,"",   988.788E+03,   990.925E+03,   990.925E+03
C:/temp/Job-4.odb,Step-1,Increment      1: Step Time =    1.000,"P-4-1",            98,       117.621,       103.346,            0.,NA,NA,"",   960.991E+03,   966.473E+03,   966.473E+03
C:/temp/Job-4.odb,Step-1,Increment      1: Step Time =    1.000,"P-4-1",            99,       105.959,       106.702,            0.,NA,NA,"",   1.16433E+06,   1.12632E+06,   1.12632E+06
C:/temp/Job-4.odb,Step-1,Increment      1: Step Time =    1.000,"P-4-1",           100,       93.8469,       105.891,            0.,NA,NA,"",   1.16005E+06,   1.11854E+06,   1.11854E+06
C:/temp/Job-4.odb,Step-1,Increment      1: Step Time =    1.000,"P-4-1",           101,       81.6141,       104.456,            0.,NA,NA,"",   957.445E+03,   979.302E+03,   979.302E+03
C:/temp/Job-4.odb,Step-1,Increment      1: Step Time =    1.000,"P-4-1",           102,       73.9856,       104.785,            0.,NA,NA,"",   969.703E+03,   995.785E+03,   995.785E+03
C:/temp/Job-4.odb,Step-1,Increment      1: Step Time =    1.000,"P-4-1",           103,       65.8556,       105.911,            0.,NA,NA,"",   968.661E+03,   1.00123E+06,   1.00123E+06
C:/temp/Job-4.odb,Step-1,Increment      1: Step Time =    1.000,"P-4-1",           104,       52.9304,       104.609,            0.,NA,NA,"",   952.234E+03,   998.756E+03,   998.756E+03
C:/temp/Job-4.odb,Step-1,Increment      1: Step Time =    1.000,"P-4-1",           105,       38.7218,       105.938,            0.,NA,NA,"",   923.305E+03,   987.370E+03,   987.370E+03
C:/temp/Job-4.odb,Step-1,Increment      1: Step Time =    1.000,"P-4-1",           106,       28.2024,       104.867,            0.,NA,NA,"",   896.480E+03,   974.026E+03,   974.026E+03
C:/temp/Job-4.odb,Step-1,Increment      1: Step Time =    1.000,"P-4-1",           107,       18.9521,       104.980,            0.,NA,NA,"",   871.345E+03,   960.140E+03,   960.140E+03
C:/temp/Job-4.odb,Step-1,Increment      1: Step Time =    1.000,"P-4-1",           108,       9.60241,       105.010,            0.,NA,NA,"",   845.727E+03,   944.572E+03,   944.572E+03
C:/temp/Job-4.odb,Step-1,Increment      1: Step Time =    1.000,"P-4-1",           109,       9.53015,       95.3253,            0.,NA,NA,"",   845.574E+03,   944.467E+03,   944.467E+03
C:/temp/Job-4.odb,Step-1,Increment      1: Step Time =    1.000,"P-4-1",           110,       23.0699,       96.1480,            0.,NA,NA,"",   882.569E+03,   966.481E+03,   966.481E+03
C:/temp/Job-4.odb,Step-1,Increment      1: Step Time =    1.000,"P-4-1",           111,       31.2345,       92.3298,            0.,NA,NA,"",   905.404E+03,   978.744E+03,   978.744E+03
C:/temp/Job-4.odb,Step-1,Increment      1: Step Time =    1.000,"P-4-1",           112,       44.1523,       91.8369,            0.,NA,NA,"",   936.565E+03,   993.398E+03,   993.398E+03
C:/temp/Job-4.odb,Step-1,Increment      1: Step Time =    1.000,"P-4-1",           113,       49.3785,       97.0900,            0.,NA,NA,"",   946.005E+03,   996.596E+03,   996.596E+03
C:/temp/Job-4.odb,Step-1,Increment      1: Step Time =    1.000,"P-4-1",           114,       58.7308,       94.9418,            0.,NA,NA,"",   960.762E+03,   1.00095E+06,   1.00095E+06
C:/temp/Job-4.odb,Step-1,Increment      1: Step Time =    1.000,"P-4-1",           115,       71.5081,       94.6111,            0.,NA,NA,"",   970.001E+03,   997.808E+03,   997.808E+03
C:/temp/Job-4.odb,Step-1,Increment      1: Step Time =    1.000,"P-4-1",           116,       84.3776,       94.1088,            0.,NA,NA,"",   971.882E+03,   985.036E+03,   985.036E+03
C:/temp/Job-4.odb,Step-1,Increment      1: Step Time =    1.000,"P-4-1",           117,       93.9391,       93.5340,            0.,NA,NA,"",   1.15403E+06,   1.11927E+06,   1.11927E+06
C:/temp/Job-4.odb,Step-1,Increment      1: Step Time =    1.000,"P-4-1",           118,       118.347,       94.5037,            0.,NA,NA,"",   981.195E+03,   981.614E+03,   981.614E+03
C:/temp/Job-4.odb,Step-1,Increment      1: Step Time =    1.000,"P-4-1",           119,       126.981,       94.3615,            0.,NA,NA,"",   993.106E+03,   994.227E+03,   994.227E+03
C:/temp/Job-4.odb,Step-1,Increment      1: Step Time =    1.000,"P-4-1",           120,       138.210,       95.2600,            0.,NA,NA,"",   1.00162E+06,   1.00070E+06,   1.00070E+06
C:/temp/Job-4.odb,Step-1,Increment      1: Step Time =    1.000,"P-4-1",           121,       158.507,       97.0309,            0.,NA,NA,"",   1.00600E+06,   1.00250E+06,   1.00250E+06
C:/temp/Job-4.odb,Step-1,Increment      1: Step Time =    1.000,"P-4-1",           122,       170.985,       91.9957,            0.,NA,NA,"",   1.00656E+06,   1.00175E+06,   1.00175E+06
C:/temp/Job-4.odb,Step-1,Increment      1: Step Time =    1.000,"P-4-1",           123,       178.330,       94.0741,            0.,NA,NA,"",   1.00670E+06,   1.00108E+06,   1.00108E+06
C:/temp/Job-4.odb,Step-1,Increment      1: Step Time =    1.000,"P-4-1",           124,       190.025,       10.1086,            0.,NA,NA,"",   999.702E+03,   999.389E+03,   999.389E+03
C:/temp/Job-4.odb,Step-1,Increment      1: Step Time =    1.000,"P-4-1",           125,       180.049,       10.2889,            0.,NA,NA,"",   998.382E+03,   998.021E+03,   998.021E+03
C:/temp/Job-4.odb,Step-1,Increment      1: Step Time =    1.000,"P-4-1",           126,       169.516,       11.3085,            0.,NA,NA,"",   996.150E+03,   995.766E+03,   995.766E+03
C:/temp/Job-4.odb,Step-1,Increment      1: Step Time =    1.000,"P-4-1",           127,       158.684,       11.7467,            0.,NA,NA,"",   993.239E+03,   992.872E+03,   992.872E+03
C:/temp/Job-4.odb,Step-1,Increment      1: Step Time =    1.000,"P-4-1",           128,       148.116,       13.3375,            0.,NA,NA,"",   990.104E+03,   989.693E+03,   989.693E+03
C:/temp/Job-4.odb,Step-1,Increment      1: Step Time =    1.000,"P-4-1",           129,       135.163,       9.04276,            0.,NA,NA,"",   982.323E+03,   982.159E+03,   982.159E+03
C:/temp/Job-4.odb,Step-1,Increment      1: Step Time =    1.000,"P-4-1",           130,       125.619,       9.83496,            0.,NA,NA,"",   977.891E+03,   977.740E+03,   977.740E+03
C:/temp/Job-4.odb,Step-1,Increment      1: Step Time =    1.000,"P-4-1",           131,       115.502,       10.4517,            0.,NA,NA,"",   973.137E+03,   973.050E+03,   973.050E+03
C:/temp/Job-4.odb,Step-1,Increment      1: Step Time =    1.000,"P-4-1",           132,       105.157,       10.0198,            0.,NA,NA,"",   967.364E+03,   967.433E+03,   967.433E+03
C:/temp/Job-4.odb,Step-1,Increment      1: Step Time =    1.000,"P-4-1",           133,       95.3208,       9.93022,            0.,NA,NA,"",   962.409E+03,   962.584E+03,   962.584E+03
C:/temp/Job-4.odb,Step-1,Increment      1: Step Time =    1.000,"P-4-1",           134,       85.5775,       9.57594,            0.,NA,NA,"",   958.084E+03,   958.430E+03,   958.430E+03
C:/temp/Job-4.odb,Step-1,Increment      1: Step Time =    1.000,"P-4-1",           135,       75.9224,       9.75574,            0.,NA,NA,"",   956.055E+03,   956.523E+03,   956.523E+03
C:/temp/Job-4.odb,Step-1,Increment      1: Step Time =    1.000,"P-4-1",           136,       66.4859,       10.3432,            0.,NA,NA,"",   957.407E+03,   958.336E+03,   958.336E+03
C:/temp/Job-4.odb,Step-1,Increment      1: Step Time =    1.000,"P-4-1",           137,       51.4580,       11.7678,            0.,NA,NA,"",   970.563E+03,   972.973E+03,   972.973E+03
C:/temp/Job-4.odb,Step-1,Increment      1: Step Time =    1.000,"P-4-1",           138,       38.9658,       9.57982,            0.,NA,NA,"",   980.958E+03,   984.701E+03,   984.701E+03
C:/temp/Job-4.odb,Step-1,Increment      1: Step Time =    1.000,"P-4-1",           139,       29.6059,       9.61422,            0.,NA,NA,"",   1.00965E+06,   1.01628E+06,   1.01628E+06
C:/temp/Job-4.odb,Step-1,Increment      1: Step Time =    1.000,"P-4-1",           140,       19.9447,       9.76563,            0.,NA,NA,"",   1.06204E+06,   1.07652E+06,   1.07652E+06
C:/temp/Job-4.odb,Step-1,Increment      1: Step Time =    1.000,"P-4-1",           141,       10.1055,       10.0289,            0.,NA,NA,"",   1.14459E+06,   1.18365E+06,   1.18365E+06
C:/temp/Job-4.odb,Step-1,Increment      1: Step Time =    1.000,"P-4-1",           142,       190.380,       24.7549,            0.,NA,NA,"",   1.00099E+06,   999.567E+03,   999.567E+03
C:/temp/Job-4.odb,Step-1,Increment      1: Step Time =    1.000,"P-4-1",           143,       180.088,       20.3060,            0.,NA,NA,"",   999.361E+03,   998.271E+03,   998.271E+03
C:/temp/Job-4.odb,Step-1,Increment      1: Step Time =    1.000,"P-4-1",           144,       171.686,       19.7589,            0.,NA,NA,"",   997.993E+03,   996.994E+03,   996.994E+03
C:/temp/Job-4.odb,Step-1,Increment      1: Step Time =    1.000,"P-4-1",           145,       158.931,       19.6960,            0.,NA,NA,"",   995.401E+03,   994.534E+03,   994.534E+03
C:/temp/Job-4.odb,Step-1,Increment      1: Step Time =    1.000,"P-4-1",           146,       145.789,       22.2925,            0.,NA,NA,"",   993.411E+03,   992.487E+03,   992.487E+03
C:/temp/Job-4.odb,Step-1,Increment      1: Step Time =    1.000,"P-4-1",           147,       137.354,       22.5002,            0.,NA,NA,"",   991.638E+03,   990.845E+03,   990.845E+03
C:/temp/Job-4.odb,Step-1,Increment      1: Step Time =    1.000,"P-4-1",           148,       127.313,       20.7519,            0.,NA,NA,"",   987.564E+03,   987.114E+03,   987.114E+03
C:/temp/Job-4.odb,Step-1,Increment      1: Step Time =    1.000,"P-4-1",           149,       115.553,       22.1548,            0.,NA,NA,"",   984.979E+03,   984.868E+03,   984.868E+03
C:/temp/Job-4.odb,Step-1,Increment      1: Step Time =    1.000,"P-4-1",           150,       106.507,       23.9447,            0.,NA,NA,"",   985.108E+03,   985.563E+03,   985.563E+03
C:/temp/Job-4.odb,Step-1,Increment      1: Step Time =    1.000,"P-4-1",           151,       95.5034,       21.2629,            0.,NA,NA,"",   980.255E+03,   981.183E+03,   981.183E+03
C:/temp/Job-4.odb,Step-1,Increment      1: Step Time =    1.000,"P-4-1",           152,       85.7999,       18.4999,            0.,NA,NA,"",   975.172E+03,   976.337E+03,   976.337E+03
C:/temp/Job-4.odb,Step-1,Increment      1: Step Time =    1.000,"P-4-1",           153,       75.4354,       18.4672,            0.,NA,NA,"",   975.168E+03,   976.917E+03,   976.917E+03
C:/temp/Job-4.odb,Step-1,Increment      1: Step Time =    1.000,"P-4-1",           154,       64.0792,       21.5214,            0.,NA,NA,"",   984.257E+03,   988.689E+03,   988.689E+03
C:/temp/Job-4.odb,Step-1,Increment      1: Step Time =    1.000,"P-4-1",           155,       52.9486,       21.8664,            0.,NA,NA,"",   990.839E+03,   998.559E+03,   998.559E+03
C:/temp/Job-4.odb,Step-1,Increment      1: Step Time =    1.000,"P-4-1",           156,       39.0776,       19.8631,            0.,NA,NA,"",   1.00314E+06,   1.01691E+06,   1.01691E+06
C:/temp/Job-4.odb,Step-1,Increment      1: Step Time =    1.000,"P-4-1",           157,       33.4070,       21.0740,            0.,NA,NA,"",   1.01249E+06,   1.03249E+06,   1.03249E+06
C:/temp/Job-4.odb,Step-1,Increment      1: Step Time =    1.000,"P-4-1",           158,       21.1391,       20.3184,            0.,NA,NA,"",   1.02839E+06,   1.06524E+06,   1.06524E+06
C:/temp/Job-4.odb,Step-1,Increment      1: Step Time =    1.000,"P-4-1",           159,       10.2076,       20.0520,            0.,NA,NA,"",   1.00878E+06,   1.08050E+06,   1.08050E+06
C:/temp/Job-4.odb,Step-1,Increment      1: Step Time =    1.000,"P-4-1",           160,       190.486,       33.9539,            0.,NA,NA,"",   1.00227E+06,   999.820E+03,   999.820E+03
C:/temp/Job-4.odb,Step-1,Increment      1: Step Time =    1.000,"P-4-1",           161,       180.644,       32.0107,            0.,NA,NA,"",   1.00152E+06,   999.318E+03,   999.318E+03
C:/temp/Job-4.odb,Step-1,Increment      1: Step Time =    1.000,"P-4-1",           162,       170.543,       31.9637,            0.,NA,NA,"",   1.00072E+06,   998.677E+03,   998.677E+03
C:/temp/Job-4.odb,Step-1,Increment      1: Step Time =    1.000,"P-4-1",           163,       157.631,       31.9025,            0.,NA,NA,"",   999.599E+03,   997.750E+03,   997.750E+03
C:/temp/Job-4.odb,Step-1,Increment      1: Step Time =    1.000,"P-4-1",           164,       146.472,       32.9510,            0.,NA,NA,"",   999.389E+03,   997.628E+03,   997.628E+03
C:/temp/Job-4.odb,Step-1,Increment      1: Step Time =    1.000,"P-4-1",           165,       133.774,       33.7212,            0.,NA,NA,"",   998.586E+03,   997.319E+03,   997.319E+03
C:/temp/Job-4.odb,Step-1,Increment      1: Step Time =    1.000,"P-4-1",           166,       124.048,       32.9151,            0.,NA,NA,"",   996.600E+03,   996.077E+03,   996.077E+03
C:/temp/Job-4.odb,Step-1,Increment      1: Step Time =    1.000,"P-4-1",           167,       114.798,       29.4237,            0.,NA,NA,"",   992.054E+03,   992.171E+03,   992.171E+03
C:/temp/Job-4.odb,Step-1,Increment      1: Step Time =    1.000,"P-4-1",           168,       104.378,       30.2550,            0.,NA,NA,"",   991.721E+03,   992.940E+03,   992.940E+03
C:/temp/Job-4.odb,Step-1,Increment      1: Step Time =    1.000,"P-4-1",           169,       91.9255,       32.5391,            0.,NA,NA,"",   993.328E+03,   996.243E+03,   996.243E+03
C:/temp/Job-4.odb,Step-1,Increment      1: Step Time =    1.000,"P-4-1",           170,       84.6296,       32.2635,            0.,NA,NA,"",   993.617E+03,   997.583E+03,   997.583E+03
C:/temp/Job-4.odb,Step-1,Increment      1: Step Time =    1.000,"P-4-1",           171,       72.9272,       30.8660,            0.,NA,NA,"",   993.522E+03,   999.464E+03,   999.464E+03
C:/temp/Job-4.odb,Step-1,Increment      1: Step Time =    1.000,"P-4-1",           172,       62.9162,       31.0859,            0.,NA,NA,"",   995.337E+03,   1.00490E+06,   1.00490E+06
C:/temp/Job-4.odb,Step-1,Increment      1: Step Time =    1.000,"P-4-1",           173,       53.7891,       31.8358,            0.,NA,NA,"",   997.754E+03,   1.01243E+06,   1.01243E+06
C:/temp/Job-4.odb,Step-1,Increment      1: Step Time =    1.000,"P-4-1",           174,       41.6308,       32.5400,            0.,NA,NA,"",   995.707E+03,   1.02216E+06,   1.02216E+06
C:/temp/Job-4.odb,Step-1,Increment      1: Step Time =    1.000,"P-4-1",           175,       32.2498,       33.1547,            0.,NA,NA,"",   990.525E+03,   1.02910E+06,   1.02910E+06
C:/temp/Job-4.odb,Step-1,Increment      1: Step Time =    1.000,"P-4-1",           176,       19.1035,       29.8981,            0.,NA,NA,"",   976.372E+03,   1.03782E+06,   1.03782E+06
C:/temp/Job-4.odb,Step-1,Increment      1: Step Time =    1.000,"P-4-1",           177,       10.2079,       29.9091,            0.,NA,NA,"",   945.734E+03,   1.02865E+06,   1.02865E+06
C:/temp/Job-4.odb,Step-1,Increment      1: Step Time =    1.000,"P-4-1",           178,       188.863,       43.0425,            0.,NA,NA,"",   1.00357E+06,   1.00005E+06,   1.00005E+06
C:/temp/Job-4.odb,Step-1,Increment      1: Step Time =    1.000,"P-4-1",           179,       181.750,       42.3026,            0.,NA,NA,"",   1.00330E+06,   1.00008E+06,   1.00008E+06
C:/temp/Job-4.odb,Step-1,Increment      1: Step Time =    1.000,"P-4-1",           180,       168.456,       43.3055,            0.,NA,NA,"",   1.00342E+06,   1.00045E+06,   1.00045E+06
C:/temp/Job-4.odb,Step-1,Increment      1: Step Time =    1.000,"P-4-1",           181,       158.361,       43.4162,            0.,NA,NA,"",   1.00388E+06,   1.00107E+06,   1.00107E+06
C:/temp/Job-4.odb,Step-1,Increment      1: Step Time =    1.000,"P-4-1",           182,       149.721,       43.2234,            0.,NA,NA,"",   1.00415E+06,   1.00157E+06,   1.00157E+06
C:/temp/Job-4.odb,Step-1,Increment      1: Step Time =    1.000,"P-4-1",           183,       140.653,       41.1245,            0.,NA,NA,"",   1.00348E+06,   1.00139E+06,   1.00139E+06
C:/temp/Job-4.odb,Step-1,Increment      1: Step Time =    1.000,"P-4-1",           184,       122.201,       43.5172,            0.,NA,NA,"",   1.00431E+06,   1.00395E+06,   1.00395E+06
C:/temp/Job-4.odb,Step-1,Increment      1: Step Time =    1.000,"P-4-1",           185,       115.112,       39.9121,            0.,NA,NA,"",   1.00084E+06,   1.00153E+06,   1.00153E+06
C:/temp/Job-4.odb,Step-1,Increment      1: Step Time =    1.000,"P-4-1",           186,       108.281,       42.1150,            0.,NA,NA,"",   1.00154E+06,   1.00358E+06,   1.00358E+06
C:/temp/Job-4.odb,Step-1,Increment      1: Step Time =    1.000,"P-4-1",           187,       93.6558,       43.0131,            0.,NA,NA,"",   1.00155E+06,   1.00644E+06,   1.00644E+06
C:/temp/Job-4.odb,Step-1,Increment      1: Step Time =    1.000,"P-4-1",           188,       84.1469,       43.0691,            0.,NA,NA,"",   1.00163E+06,   1.00873E+06,   1.00873E+06
C:/temp/Job-4.odb,Step-1,Increment      1: Step Time =    1.000,"P-4-1",           189,       70.2363,       45.4337,            0.,NA,NA,"",   1.00187E+06,   1.01495E+06,   1.01495E+06
C:/temp/Job-4.odb,Step-1,Increment      1: Step Time =    1.000,"P-4-1",           190,       61.7971,       43.8523,            0.,NA,NA,"",   998.802E+03,   1.01620E+06,   1.01620E+06
C:/temp/Job-4.odb,Step-1,Increment      1: Step Time =    1.000,"P-4-1",           191,       53.0853,       43.8793,            0.,NA,NA,"",   993.725E+03,   1.01797E+06,   1.01797E+06
C:/temp/Job-4.odb,Step-1,Increment      1: Step Time =    1.000,"P-4-1",           192,       44.0138,       41.4529,            0.,NA,NA,"",   988.009E+03,   1.01976E+06,   1.01976E+06
C:/temp/Job-4.odb,Step-1,Increment      1: Step Time =    1.000,"P-4-1",           193,       32.2600,       44.2183,            0.,NA,NA,"",   964.456E+03,   1.01577E+06,   1.01577E+06
C:/temp/Job-4.odb,Step-1,Increment      1: Step Time =    1.000,"P-4-1",           194,       20.2685,       42.0124,            0.,NA,NA,"",   937.033E+03,   1.00869E+06,   1.00869E+06
C:/temp/Job-4.odb,Step-1,Increment      1: Step Time =    1.000,"P-4-1",           195,       11.8622,       40.6516,            0.,NA,NA,"",   912.526E+03,   998.829E+03,   998.829E+03
C:/temp/Job-4.odb,Step-1,Increment      1: Step Time =    1.000,"P-4-1",           196,       187.961,       51.8716,            0.,NA,NA,"",   1.00465E+06,   1.00024E+06,   1.00024E+06
C:/temp/Job-4.odb,Step-1,Increment      1: Step Time =    1.000,"P-4-1",           197,       178.575,       53.2773,            0.,NA,NA,"",   1.00493E+06,   1.00086E+06,   1.00086E+06
C:/temp/Job-4.odb,Step-1,Increment      1: Step Time =    1.000,"P-4-1",           198,       168.106,       53.5399,            0.,NA,NA,"",   1.00569E+06,   1.00194E+06,   1.00194E+06
C:/temp/Job-4.odb,Step-1,Increment      1: Step Time =    1.000,"P-4-1",           199,       158.184,       52.8584,            0.,NA,NA,"",   1.00665E+06,   1.00318E+06,   1.00318E+06
C:/temp/Job-4.odb,Step-1,Increment      1: Step Time =    1.000,"P-4-1",           200,       147.929,       51.3174,            0.,NA,NA,"",   1.00771E+06,   1.00462E+06,   1.00462E+06
C:/temp/Job-4.odb,Step-1,Increment      1: Step Time =    1.000,"P-4-1",           201,       140.342,       51.9475,            0.,NA,NA,"",   1.00904E+06,   1.00625E+06,   1.00625E+06
C:/temp/Job-4.odb,Step-1,Increment      1: Step Time =    1.000,"P-4-1",           202,       126.184,       52.6377,            0.,NA,NA,"",   1.01055E+06,   1.00937E+06,   1.00937E+06
C:/temp/Job-4.odb,Step-1,Increment      1: Step Time =    1.000,"P-4-1",           203,       114.548,       49.9337,            0.,NA,NA,"",   1.00738E+06,   1.00864E+06,   1.00864E+06
C:/temp/Job-4.odb,Step-1,Increment      1: Step Time =    1.000,"P-4-1",           204,       105.860,       51.6245,            0.,NA,NA,"",   1.00670E+06,   1.01078E+06,   1.01078E+06
C:/temp/Job-4.odb,Step-1,Increment      1: Step Time =    1.000,"P-4-1",           205,       94.4846,       55.3461,            0.,NA,NA,"",   1.00724E+06,   1.01530E+06,   1.01530E+06
C:/temp/Job-4.odb,Step-1,Increment      1: Step Time =    1.000,"P-4-1",           206,       76.0435,       51.8739,            0.,NA,NA,"",   1.00488E+06,   1.01745E+06,   1.01745E+06
C:/temp/Job-4.odb,Step-1,Increment      1: Step Time =    1.000,"P-4-1",           207,       60.7017,       51.2999,            0.,NA,NA,"",   996.017E+03,   1.01828E+06,   1.01828E+06
C:/temp/Job-4.odb,Step-1,Increment      1: Step Time =    1.000,"P-4-1",           208,       55.4165,       52.3276,            0.,NA,NA,"",   990.701E+03,   1.01823E+06,   1.01823E+06
C:/temp/Job-4.odb,Step-1,Increment      1: Step Time =    1.000,"P-4-1",           209,       45.3641,       50.7272,            0.,NA,NA,"",   978.513E+03,   1.01620E+06,   1.01620E+06
C:/temp/Job-4.odb,Step-1,Increment      1: Step Time =    1.000,"P-4-1",           210,       32.5239,       54.7590,            0.,NA,NA,"",   944.355E+03,   1.00393E+06,   1.00393E+06
C:/temp/Job-4.odb,Step-1,Increment      1: Step Time =    1.000,"P-4-1",           211,       20.5741,       53.9716,            0.,NA,NA,"",   913.264E+03,   990.681E+03,   990.681E+03
C:/temp/Job-4.odb,Step-1,Increment      1: Step Time =    1.000,"P-4-1",           212,       9.59967,       50.3971,            0.,NA,NA,"",   881.398E+03,   975.522E+03,   975.522E+03
C:/temp/Job-4.odb,Step-1,Increment      1: Step Time =    1.000,"P-4-1",           213,       189.762,       66.4748,            0.,NA,NA,"",   1.00636E+06,   1.00040E+06,   1.00040E+06
C:/temp/Job-4.odb,Step-1,Increment      1: Step Time =    1.000,"P-4-1",           214,       179.245,       63.8510,            0.,NA,NA,"",   1.00612E+06,   1.00126E+06,   1.00126E+06
C:/temp/Job-4.odb,Step-1,Increment      1: Step Time =    1.000,"P-4-1",           215,       170.453,       63.0250,            0.,NA,NA,"",   1.00677E+06,   1.00240E+06,   1.00240E+06
C:/temp/Job-4.odb,Step-1,Increment      1: Step Time =    1.000,"P-4-1",           216,       157.632,       61.4345,            0.,NA,NA,"",   1.00847E+06,   1.00458E+06,   1.00458E+06
C:/temp/Job-4.odb,Step-1,Increment      1: Step Time =    1.000,"P-4-1",           217,       146.439,       64.1300,            0.,NA,NA,"",   1.01170E+06,   1.00797E+06,   1.00797E+06
C:/temp/Job-4.odb,Step-1,Increment      1: Step Time =    1.000,"P-4-1",           218,       126.402,       65.7620,            0.,NA,NA,"",   1.01871E+06,   1.01645E+06,   1.01645E+06
C:/temp/Job-4.odb,Step-1,Increment      1: Step Time =    1.000,"P-4-1",           219,       116.154,       61.1379,            0.,NA,NA,"",   1.01482E+06,   1.01631E+06,   1.01631E+06
C:/temp/Job-4.odb,Step-1,Increment      1: Step Time =    1.000,"P-4-1",           220,       103.345,       63.6273,            0.,NA,NA,"",   1.01080E+06,   1.01869E+06,   1.01869E+06
C:/temp/Job-4.odb,Step-1,Increment      1: Step Time =    1.000,"P-4-1",           221,       93.1675,       64.2172,            0.,NA,NA,"",   1.00965E+06,   1.02077E+06,   1.02077E+06
C:/temp/Job-4.odb,Step-1,Increment      1: Step Time =    1.000,"P-4-1",           222,       83.6907,       62.1835,            0.,NA,NA,"",   1.00967E+06,   1.02206E+06,   1.02206E+06
C:/temp/Job-4.odb,Step-1,Increment      1: Step Time =    1.000,"P-4-1",           223,       71.8856,       60.7893,            0.,NA,NA,"",   1.00447E+06,   1.02189E+06,   1.02189E+06
C:/temp/Job-4.odb,Step-1,Increment      1: Step Time =    1.000,"P-4-1",           224,       51.9338,       60.0558,            0.,NA,NA,"",   979.218E+03,   1.01500E+06,   1.01500E+06
C:/temp/Job-4.odb,Step-1,Increment      1: Step Time =    1.000,"P-4-1",           225,       41.8980,       61.9279,            0.,NA,NA,"",   957.308E+03,   1.00708E+06,   1.00708E+06
C:/temp/Job-4.odb,Step-1,Increment      1: Step Time =    1.000,"P-4-1",           226,       32.8267,       63.2251,            0.,NA,NA,"",   934.361E+03,   997.334E+03,   997.334E+03
C:/temp/Job-4.odb,Step-1,Increment      1: Step Time =    1.000,"P-4-1",           227,       19.7204,       64.2727,            0.,NA,NA,"",    894.11E+03,   977.306E+03,   977.306E+03
C:/temp/Job-4.odb,Step-1,Increment      1: Step Time =    1.000,"P-4-1",           228,       10.0512,       64.6922,            0.,NA,NA,"",   864.034E+03,   959.954E+03,   959.954E+03
C:/temp/Job-4.odb,Step-1,Increment      1: Step Time =    1.000,"P-4-1",           229,       190.555,       75.7090,            0.,NA,NA,"",   1.00702E+06,   1.00032E+06,   1.00032E+06
C:/temp/Job-4.odb,Step-1,Increment      1: Step Time =    1.000,"P-4-1",           230,       180.941,       73.0900,            0.,NA,NA,"",   1.00659E+06,   1.00113E+06,   1.00113E+06
C:/temp/Job-4.odb,Step-1,Increment      1: Step Time =    1.000,"P-4-1",           231,       168.449,       75.2301,            0.,NA,NA,"",   1.00735E+06,   1.00276E+06,   1.00276E+06
C:/temp/Job-4.odb,Step-1,Increment      1: Step Time =    1.000,"P-4-1",           232,       155.153,       75.3340,            0.,NA,NA,"",   1.00918E+06,   1.00525E+06,   1.00525E+06
C:/temp/Job-4.odb,Step-1,Increment      1: Step Time =    1.000,"P-4-1",           233,       145.831,       71.1448,            0.,NA,NA,"",   1.01214E+06,   1.00833E+06,   1.00833E+06
C:/temp/Job-4.odb,Step-1,Increment      1: Step Time =    1.000,"P-4-1",           234,       137.046,       70.8120,            0.,NA,NA,"",   1.01598E+06,   1.01221E+06,   1.01221E+06
C:/temp/Job-4.odb,Step-1,Increment      1: Step Time =    1.000,"P-4-1",           235,       127.138,       73.8718,            0.,NA,NA,"",   1.02220E+06,   1.01871E+06,   1.01871E+06
C:/temp/Job-4.odb,Step-1,Increment      1: Step Time =    1.000,"P-4-1",           236,       116.523,       69.6917,            0.,NA,NA,"",   1.02232E+06,   1.02295E+06,   1.02295E+06
C:/temp/Job-4.odb,Step-1,Increment      1: Step Time =    1.000,"P-4-1",           237,       104.885,       70.9456,            0.,NA,NA,"",   1.01296E+06,   1.02277E+06,   1.02277E+06
C:/temp/Job-4.odb,Step-1,Increment      1: Step Time =    1.000,"P-4-1",           238,       95.0766,       70.0278,            0.,NA,NA,"",   1.00941E+06,   1.02234E+06,   1.02234E+06
C:/temp/Job-4.odb,Step-1,Increment      1: Step Time =    1.000,"P-4-1",           239,       83.0926,       70.5376,            0.,NA,NA,"",   1.01399E+06,   1.02744E+06,   1.02744E+06
C:/temp/Job-4.odb,Step-1,Increment      1: Step Time =    1.000,"P-4-1",           240,       72.9136,       71.9786,            0.,NA,NA,"",   1.00543E+06,   1.02428E+06,   1.02428E+06
C:/temp/Job-4.odb,Step-1,Increment      1: Step Time =    1.000,"P-4-1",           241,       60.6460,       75.1894,            0.,NA,NA,"",   982.444E+03,   1.01467E+06,   1.01467E+06
C:/temp/Job-4.odb,Step-1,Increment      1: Step Time =    1.000,"P-4-1",           242,       52.4680,       72.6637,            0.,NA,NA,"",   968.399E+03,   1.00958E+06,   1.00958E+06
C:/temp/Job-4.odb,Step-1,Increment      1: Step Time =    1.000,"P-4-1",           243,       43.4770,       74.1552,            0.,NA,NA,"",   947.597E+03,   1.00079E+06,   1.00079E+06
C:/temp/Job-4.odb,Step-1,Increment      1: Step Time =    1.000,"P-4-1",           244,       37.0666,       74.7867,            0.,NA,NA,"",   932.009E+03,   993.857E+03,   993.857E+03
C:/temp/Job-4.odb,Step-1,Increment      1: Step Time =    1.000,"P-4-1",           245,       23.0732,       75.6015,            0.,NA,NA,"",   892.408E+03,   973.863E+03,   973.863E+03
C:/temp/Job-4.odb,Step-1,Increment      1: Step Time =    1.000,"P-4-1",           246,       10.5271,       74.9889,            0.,NA,NA,"",   856.252E+03,   952.999E+03,   952.999E+03
C:/temp/Job-4.odb,Step-1,Increment      1: Step Time =    1.000,"P-4-1",           247,       190.500,       85.2622,            0.,NA,NA,"",   1.00742E+06,   1.00029E+06,   1.00029E+06
C:/temp/Job-4.odb,Step-1,Increment      1: Step Time =    1.000,"P-4-1",           248,       181.754,       84.6367,            0.,NA,NA,"",   1.00678E+06,   1.00086E+06,   1.00086E+06
C:/temp/Job-4.odb,Step-1,Increment      1: Step Time =    1.000,"P-4-1",           249,       170.253,       80.6876,            0.,NA,NA,"",   1.00702E+06,   1.00229E+06,   1.00229E+06
C:/temp/Job-4.odb,Step-1,Increment      1: Step Time =    1.000,"P-4-1",           250,       158.042,       84.0932,            0.,NA,NA,"",   1.00756E+06,   1.00375E+06,   1.00375E+06
C:/temp/Job-4.odb,Step-1,Increment      1: Step Time =    1.000,"P-4-1",           251,       145.872,       87.5399,            0.,NA,NA,"",   1.00712E+06,   1.00440E+06,   1.00440E+06
C:/temp/Job-4.odb,Step-1,Increment      1: Step Time =    1.000,"P-4-1",           252,       138.987,       83.8481,            0.,NA,NA,"",   1.01015E+06,   1.00731E+06,   1.00731E+06
C:/temp/Job-4.odb,Step-1,Increment      1: Step Time =    1.000,"P-4-1",           253,       126.310,       82.3131,            0.,NA,NA,"",   1.01956E+06,   1.01580E+06,   1.01580E+06
C:/temp/Job-4.odb,Step-1,Increment      1: Step Time =    1.000,"P-4-1",           254,       114.655,       86.1883,            0.,NA,NA,"",   1.05100E+06,   1.03954E+06,   1.03954E+06
C:/temp/Job-4.odb,Step-1,Increment      1: Step Time =    1.000,"P-4-1",           255,       107.159,       83.8327,            0.,NA,NA,"",   1.03864E+06,   1.04681E+06,   1.04681E+06
C:/temp/Job-4.odb,Step-1,Increment      1: Step Time =    1.000,"P-4-1",           256,       93.2079,       82.1710,            0.,NA,NA,"",   1.02719E+06,   1.04291E+06,   1.04291E+06
C:/temp/Job-4.odb,Step-1,Increment      1: Step Time =    1.000,"P-4-1",           257,       82.4979,       83.0267,            0.,NA,NA,"",   1.02473E+06,   1.03449E+06,   1.03449E+06
C:/temp/Job-4.odb,Step-1,Increment      1: Step Time =    1.000,"P-4-1",           258,       61.7843,       83.6030,            0.,NA,NA,"",   975.839E+03,   1.00962E+06,   1.00962E+06
C:/temp/Job-4.odb,Step-1,Increment      1: Step Time =    1.000,"P-4-1",           259,       52.4212,       79.8487,            0.,NA,NA,"",   961.960E+03,   1.00567E+06,   1.00567E+06
C:/temp/Job-4.odb,Step-1,Increment      1: Step Time =    1.000,"P-4-1",           260,       42.2514,       83.1167,            0.,NA,NA,"",   937.841E+03,   995.093E+03,   995.093E+03
C:/temp/Job-4.odb,Step-1,Increment      1: Step Time =    1.000,"P-4-1",           261,       33.2862,       81.7795,            0.,NA,NA,"",   914.667E+03,   984.447E+03,   984.447E+03
C:/temp/Job-4.odb,Step-1,Increment      1: Step Time =    1.000,"P-4-1",           262,       23.0395,       87.5882,            0.,NA,NA,"",   885.304E+03,   968.483E+03,   968.483E+03
C:/temp/Job-4.odb,Step-1,Increment      1: Step Time =    1.000,"P-4-1",           263,       9.81160,       85.3736,            0.,NA,NA,"",   848.903E+03,   947.118E+03,   947.118E+03
C:/temp/Job-4.odb,Step-1,Increment      1: Step Time =    1.000,"P-4-1",           264,       189.577,       114.970,            0.,NA,NA,"",   1.00733E+06,   1.00034E+06,   1.00034E+06
C:/temp/Job-4.odb,Step-1,Increment      1: Step Time =    1.000,"P-4-1",           265,       179.503,       114.385,            0.,NA,NA,"",   1.00678E+06,   1.00111E+06,   1.00111E+06
C:/temp/Job-4.odb,Step-1,Increment      1: Step Time =    1.000,"P-4-1",           266,       164.829,       113.952,            0.,NA,NA,"",   1.00700E+06,   1.00272E+06,   1.00272E+06
C:/temp/Job-4.odb,Step-1,Increment      1: Step Time =    1.000,"P-4-1",           267,       156.822,       114.201,            0.,NA,NA,"",   1.00742E+06,   1.00372E+06,   1.00372E+06
C:/temp/Job-4.odb,Step-1,Increment      1: Step Time =    1.000,"P-4-1",           268,       147.544,       115.963,            0.,NA,NA,"",   1.00869E+06,   1.00552E+06,   1.00552E+06
C:/temp/Job-4.odb,Step-1,Increment      1: Step Time =    1.000,"P-4-1",           269,       136.307,       116.978,            0.,NA,NA,"",   1.01168E+06,   1.00875E+06,   1.00875E+06
C:/temp/Job-4.odb,Step-1,Increment      1: Step Time =    1.000,"P-4-1",           270,       126.873,       116.797,            0.,NA,NA,"",   1.01828E+06,   1.01463E+06,   1.01463E+06
C:/temp/Job-4.odb,Step-1,Increment      1: Step Time =    1.000,"P-4-1",           271,       117.186,       114.624,            0.,NA,NA,"",   1.03532E+06,   1.02839E+06,   1.02839E+06
C:/temp/Job-4.odb,Step-1,Increment      1: Step Time =    1.000,"P-4-1",           272,       106.154,       116.884,            0.,NA,NA,"",   1.03237E+06,   1.04415E+06,   1.04415E+06
C:/temp/Job-4.odb,Step-1,Increment      1: Step Time =    1.000,"P-4-1",           273,       93.8264,       114.774,            0.,NA,NA,"",   1.03832E+06,   1.05403E+06,   1.05403E+06
C:/temp/Job-4.odb,Step-1,Increment      1: Step Time =    1.000,"P-4-1",           274,       84.1331,       116.013,            0.,NA,NA,"",   1.03035E+06,   1.03785E+06,   1.03785E+06
C:/temp/Job-4.odb,Step-1,Increment      1: Step Time =    1.000,"P-4-1",           275,       74.4123,       114.926,            0.,NA,NA,"",   996.476E+03,   1.01647E+06,   1.01647E+06
C:/temp/Job-4.odb,Step-1,Increment      1: Step Time =    1.000,"P-4-1",           276,       62.3421,       117.007,            0.,NA,NA,"",   977.034E+03,   1.01016E+06,   1.01016E+06
C:/temp/Job-4.odb,Step-1,Increment      1: Step Time =    1.000,"P-4-1",           277,       50.5151,       116.512,            0.,NA,NA,"",   954.882E+03,   1.00198E+06,   1.00198E+06
C:/temp/Job-4.odb,Step-1,Increment      1: Step Time =    1.000,"P-4-1",           278,       40.7353,       115.112,            0.,NA,NA,"",   933.042E+03,   992.761E+03,   992.761E+03
C:/temp/Job-4.odb,Step-1,Increment      1: Step Time =    1.000,"P-4-1",           279,       33.4820,       117.086,            0.,NA,NA,"",   915.541E+03,   984.731E+03,   984.731E+03
C:/temp/Job-4.odb,Step-1,Increment      1: Step Time =    1.000,"P-4-1",           280,       19.3585,       114.186,            0.,NA,NA,"",   875.365E+03,   963.026E+03,   963.026E+03
C:/temp/Job-4.odb,Step-1,Increment      1: Step Time =    1.000,"P-4-1",           281,       9.72385,       114.652,            0.,NA,NA,"",   848.457E+03,   946.873E+03,   946.873E+03
C:/temp/Job-4.odb,Step-1,Increment      1: Step Time =    1.000,"P-4-1",           282,       189.164,       125.320,            0.,NA,NA,"",   1.00690E+06,   1.00042E+06,   1.00042E+06
C:/temp/Job-4.odb,Step-1,Increment      1: Step Time =    1.000,"P-4-1",           283,       178.270,       122.813,            0.,NA,NA,"",   1.00676E+06,   1.00139E+06,   1.00139E+06
C:/temp/Job-4.odb,Step-1,Increment      1: Step Time =    1.000,"P-4-1",           284,       169.082,       123.537,            0.,NA,NA,"",   1.00723E+06,   1.00260E+06,   1.00260E+06
C:/temp/Job-4.odb,Step-1,Increment      1: Step Time =    1.000,"P-4-1",           285,       158.927,       123.765,            0.,NA,NA,"",   1.00850E+06,   1.00442E+06,   1.00442E+06
C:/temp/Job-4.odb,Step-1,Increment      1: Step Time =    1.000,"P-4-1",           286,       149.038,       126.811,            0.,NA,NA,"",   1.01099E+06,   1.00715E+06,   1.00715E+06
C:/temp/Job-4.odb,Step-1,Increment      1: Step Time =    1.000,"P-4-1",           287,       140.379,       125.548,            0.,NA,NA,"",   1.01362E+06,   1.00998E+06,   1.00998E+06
C:/temp/Job-4.odb,Step-1,Increment      1: Step Time =    1.000,"P-4-1",           288,       129.069,       124.749,            0.,NA,NA,"",   1.02073E+06,   1.01681E+06,   1.01681E+06
C:/temp/Job-4.odb,Step-1,Increment      1: Step Time =    1.000,"P-4-1",           289,       115.155,       126.739,            0.,NA,NA,"",   1.02553E+06,   1.02644E+06,   1.02644E+06
C:/temp/Job-4.odb,Step-1,Increment      1: Step Time =    1.000,"P-4-1",           290,       105.251,       127.291,            0.,NA,NA,"",   1.01361E+06,   1.02386E+06,   1.02386E+06
C:/temp/Job-4.odb,Step-1,Increment      1: Step Time =    1.000,"P-4-1",           291,       95.2241,       128.849,            0.,NA,NA,"",   1.01127E+06,   1.02469E+06,   1.02469E+06
C:/temp/Job-4.odb,Step-1,Increment      1: Step Time =    1.000,"P-4-1",           292,       84.0742,       127.054,            0.,NA,NA,"",   1.01688E+06,   1.02983E+06,   1.02983E+06
C:/temp/Job-4.odb,Step-1,Increment      1: Step Time =    1.000,"P-4-1",           293,       71.7489,       125.418,            0.,NA,NA,"",   1.00230E+06,   1.02289E+06,   1.02289E+06
C:/temp/Job-4.odb,Step-1,Increment      1: Step Time =    1.000,"P-4-1",           294,       60.9521,       126.279,            0.,NA,NA,"",   983.858E+03,   1.01539E+06,   1.01539E+06
C:/temp/Job-4.odb,Step-1,Increment      1: Step Time =    1.000,"P-4-1",           295,       40.4640,       123.215,            0.,NA,NA,"",   938.056E+03,   996.047E+03,   996.047E+03
C:/temp/Job-4.odb,Step-1,Increment      1: Step Time =    1.000,"P-4-1",           296,       30.2757,       127.463,            0.,NA,NA,"",   915.666E+03,   986.393E+03,   986.393E+03
C:/temp/Job-4.odb,Step-1,Increment      1: Step Time =    1.000,"P-4-1",           297,       19.8879,       127.363,            0.,NA,NA,"",   886.443E+03,   971.196E+03,   971.196E+03
C:/temp/Job-4.odb,Step-1,Increment      1: Step Time =    1.000,"P-4-1",           298,       9.89519,       124.225,            0.,NA,NA,"",   853.930E+03,   951.488E+03,   951.488E+03
C:/temp/Job-4.odb,Step-1,Increment      1: Step Time =    1.000,"P-4-1",           299,       189.873,       135.505,            0.,NA,NA,"",   1.00617E+06,   1.00036E+06,   1.00036E+06
C:/temp/Job-4.odb,Step-1,Increment      1: Step Time =    1.000,"P-4-1",           300,       180.194,       136.514,            0.,NA,NA,"",   1.00605E+06,   1.00113E+06,   1.00113E+06
C:/temp/Job-4.odb,Step-1,Increment      1: Step Time =    1.000,"P-4-1",           301,       168.379,       136.361,            0.,NA,NA,"",   1.00706E+06,   1.00277E+06,   1.00277E+06
C:/temp/Job-4.odb,Step-1,Increment      1: Step Time =    1.000,"P-4-1",           302,       156.612,       138.027,            0.,NA,NA,"",   1.00879E+06,   1.00490E+06,   1.00490E+06
C:/temp/Job-4.odb,Step-1,Increment      1: Step Time =    1.000,"P-4-1",           303,       149.274,       135.803,            0.,NA,NA,"",   1.01087E+06,   1.00707E+06,   1.00707E+06
C:/temp/Job-4.odb,Step-1,Increment      1: Step Time =    1.000,"P-4-1",           304,       137.233,       136.491,            0.,NA,NA,"",   1.01439E+06,   1.01106E+06,   1.01106E+06
C:/temp/Job-4.odb,Step-1,Increment      1: Step Time =    1.000,"P-4-1",           305,       126.185,       138.756,            0.,NA,NA,"",   1.01621E+06,   1.01448E+06,   1.01448E+06
C:/temp/Job-4.odb,Step-1,Increment      1: Step Time =    1.000,"P-4-1",           306,       117.567,       136.984,            0.,NA,NA,"",   1.01655E+06,   1.01737E+06,   1.01737E+06
C:/temp/Job-4.odb,Step-1,Increment      1: Step Time =    1.000,"P-4-1",           307,       103.691,       139.620,            0.,NA,NA,"",   1.00977E+06,   1.01648E+06,   1.01648E+06
C:/temp/Job-4.odb,Step-1,Increment      1: Step Time =    1.000,"P-4-1",           308,       96.3063,       141.602,            0.,NA,NA,"",   1.00815E+06,   1.01659E+06,   1.01659E+06
C:/temp/Job-4.odb,Step-1,Increment      1: Step Time =    1.000,"P-4-1",           309,       84.8896,       138.880,            0.,NA,NA,"",   1.00948E+06,   1.02128E+06,   1.02128E+06
C:/temp/Job-4.odb,Step-1,Increment      1: Step Time =    1.000,"P-4-1",           310,       73.1779,       137.495,            0.,NA,NA,"",   1.00532E+06,   1.02249E+06,   1.02249E+06
C:/temp/Job-4.odb,Step-1,Increment      1: Step Time =    1.000,"P-4-1",           311,       61.0756,       138.473,            0.,NA,NA,"",   992.115E+03,   1.01882E+06,   1.01882E+06
C:/temp/Job-4.odb,Step-1,Increment      1: Step Time =    1.000,"P-4-1",           312,       53.7057,       136.959,            0.,NA,NA,"",   979.687E+03,   1.01493E+06,   1.01493E+06
C:/temp/Job-4.odb,Step-1,Increment      1: Step Time =    1.000,"P-4-1",           313,       44.9144,       137.656,            0.,NA,NA,"",   963.246E+03,   1.00924E+06,   1.00924E+06
C:/temp/Job-4.odb,Step-1,Increment      1: Step Time =    1.000,"P-4-1",           314,       30.2767,       135.192,            0.,NA,NA,"",   924.191E+03,   992.141E+03,   992.141E+03
C:/temp/Job-4.odb,Step-1,Increment      1: Step Time =    1.000,"P-4-1",           315,       20.3805,       136.700,            0.,NA,NA,"",   898.058E+03,   979.556E+03,   979.556E+03
C:/temp/Job-4.odb,Step-1,Increment      1: Step Time =    1.000,"P-4-1",           316,       10.3998,       133.573,            0.,NA,NA,"",   863.055E+03,   958.943E+03,   958.943E+03
C:/temp/Job-4.odb,Step-1,Increment      1: Step Time =    1.000,"P-4-1",           317,       190.389,       149.565,            0.,NA,NA,"",   1.00462E+06,   1.00020E+06,   1.00020E+06
C:/temp/Job-4.odb,Step-1,Increment      1: Step Time =    1.000,"P-4-1",           318,       179.006,       146.299,            0.,NA,NA,"",   1.00503E+06,   1.00089E+06,   1.00089E+06
C:/temp/Job-4.odb,Step-1,Increment      1: Step Time =    1.000,"P-4-1",           319,       169.473,       147.779,            0.,NA,NA,"",   1.00538E+06,   1.00166E+06,   1.00166E+06
C:/temp/Job-4.odb,Step-1,Increment      1: Step Time =    1.000,"P-4-1",           320,       157.579,       148.410,            0.,NA,NA,"",   1.00643E+06,   1.00307E+06,   1.00307E+06
C:/temp/Job-4.odb,Step-1,Increment      1: Step Time =    1.000,"P-4-1",           321,       137.976,       149.098,            0.,NA,NA,"",   1.00886E+06,   1.00630E+06,   1.00630E+06
C:/temp/Job-4.odb,Step-1,Increment      1: Step Time =    1.000,"P-4-1",           322,       125.266,       145.514,            0.,NA,NA,"",   1.01183E+06,   1.01075E+06,   1.01075E+06
C:/temp/Job-4.odb,Step-1,Increment      1: Step Time =    1.000,"P-4-1",           323,       115.593,       146.604,            0.,NA,NA,"",   1.01000E+06,   1.01144E+06,   1.01144E+06
C:/temp/Job-4.odb,Step-1,Increment      1: Step Time =    1.000,"P-4-1",           324,       108.848,       141.477,            0.,NA,NA,"",   1.01073E+06,   1.01516E+06,   1.01516E+06
C:/temp/Job-4.odb,Step-1,Increment      1: Step Time =    1.000,"P-4-1",           325,       97.5978,       150.291,            0.,NA,NA,"",   1.00500E+06,   1.01065E+06,   1.01065E+06
C:/temp/Job-4.odb,Step-1,Increment      1: Step Time =    1.000,"P-4-1",           326,       83.9997,       150.434,            0.,NA,NA,"",   1.00511E+06,   1.01404E+06,   1.01404E+06
C:/temp/Job-4.odb,Step-1,Increment      1: Step Time =    1.000,"P-4-1",           327,       73.8025,       146.299,            0.,NA,NA,"",   1.00451E+06,   1.01879E+06,   1.01879E+06
C:/temp/Job-4.odb,Step-1,Increment      1: Step Time =    1.000,"P-4-1",           328,       65.1416,       149.666,            0.,NA,NA,"",   999.868E+03,   1.01809E+06,   1.01809E+06
C:/temp/Job-4.odb,Step-1,Increment      1: Step Time =    1.000,"P-4-1",           329,       50.0596,       145.622,            0.,NA,NA,"",   981.479E+03,   1.01622E+06,   1.01622E+06
C:/temp/Job-4.odb,Step-1,Increment      1: Step Time =    1.000,"P-4-1",           330,       41.4994,       145.332,            0.,NA,NA,"",   966.290E+03,   1.01192E+06,   1.01192E+06
C:/temp/Job-4.odb,Step-1,Increment      1: Step Time =    1.000,"P-4-1",           331,       31.2191,       146.045,            0.,NA,NA,"",   943.096E+03,   1.00385E+06,   1.00385E+06
C:/temp/Job-4.odb,Step-1,Increment      1: Step Time =    1.000,"P-4-1",           332,       20.1775,       147.883,            0.,NA,NA,"",   914.127E+03,   991.847E+03,   991.847E+03
C:/temp/Job-4.odb,Step-1,Increment      1: Step Time =    1.000,"P-4-1",           333,       13.1052,       148.667,            0.,NA,NA,"",   892.654E+03,   981.174E+03,   981.174E+03
C:/temp/Job-4.odb,Step-1,Increment      1: Step Time =    1.000,"P-4-1",           334,       187.998,       159.166,            0.,NA,NA,"",   1.00319E+06,   999.977E+03,   999.977E+03
C:/temp/Job-4.odb,Step-1,Increment      1: Step Time =    1.000,"P-4-1",           335,       179.826,       157.417,            0.,NA,NA,"",   1.00335E+06,   1.00012E+06,   1.00012E+06
C:/temp/Job-4.odb,Step-1,Increment      1: Step Time =    1.000,"P-4-1",           336,       168.456,       159.537,            0.,NA,NA,"",   1.00274E+06,   1.00001E+06,   1.00001E+06
C:/temp/Job-4.odb,Step-1,Increment      1: Step Time =    1.000,"P-4-1",           337,       157.035,       158.369,            0.,NA,NA,"",   1.00329E+06,   1.00065E+06,   1.00065E+06
C:/temp/Job-4.odb,Step-1,Increment      1: Step Time =    1.000,"P-4-1",           338,       146.561,       156.090,            0.,NA,NA,"",   1.00474E+06,   1.00220E+06,   1.00220E+06
C:/temp/Job-4.odb,Step-1,Increment      1: Step Time =    1.000,"P-4-1",           339,       136.386,       157.063,            0.,NA,NA,"",   1.00452E+06,   1.00260E+06,   1.00260E+06
C:/temp/Job-4.odb,Step-1,Increment      1: Step Time =    1.000,"P-4-1",           340,       128.035,       159.560,            0.,NA,NA,"",   1.00277E+06,   1.00171E+06,   1.00171E+06
C:/temp/Job-4.odb,Step-1,Increment      1: Step Time =    1.000,"P-4-1",           341,       115.521,       163.347,            0.,NA,NA,"",   998.312E+03,   998.712E+03,   998.712E+03
C:/temp/Job-4.odb,Step-1,Increment      1: Step Time =    1.000,"P-4-1",           342,       104.440,       159.012,            0.,NA,NA,"",   1.00045E+06,   1.00308E+06,   1.00308E+06
C:/temp/Job-4.odb,Step-1,Increment      1: Step Time =    1.000,"P-4-1",           343,       94.6414,       158.641,            0.,NA,NA,"",   1.00045E+06,   1.00476E+06,   1.00476E+06
C:/temp/Job-4.odb,Step-1,Increment      1: Step Time =    1.000,"P-4-1",           344,       83.8872,       158.562,            0.,NA,NA,"",   1.00114E+06,   1.00769E+06,   1.00769E+06
C:/temp/Job-4.odb,Step-1,Increment      1: Step Time =    1.000,"P-4-1",           345,       73.0299,       156.391,            0.,NA,NA,"",   1.00180E+06,   1.01282E+06,   1.01282E+06
C:/temp/Job-4.odb,Step-1,Increment      1: Step Time =    1.000,"P-4-1",           346,       60.8740,       158.389,            0.,NA,NA,"",   998.483E+03,   1.01510E+06,   1.01510E+06
C:/temp/Job-4.odb,Step-1,Increment      1: Step Time =    1.000,"P-4-1",           347,       52.1578,       160.116,            0.,NA,NA,"",   995.213E+03,   1.01733E+06,   1.01733E+06
C:/temp/Job-4.odb,Step-1,Increment      1: Step Time =    1.000,"P-4-1",           348,       42.5797,       158.581,            0.,NA,NA,"",   986.049E+03,   1.01985E+06,   1.01985E+06
C:/temp/Job-4.odb,Step-1,Increment      1: Step Time =    1.000,"P-4-1",           349,       33.0128,       155.763,            0.,NA,NA,"",   966.499E+03,   1.01676E+06,   1.01676E+06
C:/temp/Job-4.odb,Step-1,Increment      1: Step Time =    1.000,"P-4-1",           350,       24.3774,       157.808,            0.,NA,NA,"",   950.634E+03,   1.01335E+06,   1.01335E+06
C:/temp/Job-4.odb,Step-1,Increment      1: Step Time =    1.000,"P-4-1",           351,       10.0254,       156.794,            0.,NA,NA,"",   898.858E+03,   989.727E+03,   989.727E+03
C:/temp/Job-4.odb,Step-1,Increment      1: Step Time =    1.000,"P-4-1",           352,       189.460,       169.932,            0.,NA,NA,"",   1.00161E+06,   999.631E+03,   999.631E+03
C:/temp/Job-4.odb,Step-1,Increment      1: Step Time =    1.000,"P-4-1",           353,       179.831,       170.305,            0.,NA,NA,"",   1.00099E+06,   999.019E+03,   999.019E+03
C:/temp/Job-4.odb,Step-1,Increment      1: Step Time =    1.000,"P-4-1",           354,       165.783,       172.677,            0.,NA,NA,"",   998.985E+03,   997.416E+03,   997.416E+03
C:/temp/Job-4.odb,Step-1,Increment      1: Step Time =    1.000,"P-4-1",           355,       156.748,       168.824,            0.,NA,NA,"",   999.326E+03,   997.540E+03,   997.540E+03
C:/temp/Job-4.odb,Step-1,Increment      1: Step Time =    1.000,"P-4-1",           356,       146.048,       169.035,            0.,NA,NA,"",   998.226E+03,   996.654E+03,   996.654E+03
C:/temp/Job-4.odb,Step-1,Increment      1: Step Time =    1.000,"P-4-1",           357,       135.299,       170.149,            0.,NA,NA,"",   996.101E+03,   994.988E+03,   994.988E+03
C:/temp/Job-4.odb,Step-1,Increment      1: Step Time =    1.000,"P-4-1",           358,       128.604,       168.962,            0.,NA,NA,"",   995.836E+03,   994.991E+03,   994.991E+03
C:/temp/Job-4.odb,Step-1,Increment      1: Step Time =    1.000,"P-4-1",           359,       116.450,       172.362,            0.,NA,NA,"",   990.768E+03,   990.778E+03,   990.778E+03
C:/temp/Job-4.odb,Step-1,Increment      1: Step Time =    1.000,"P-4-1",           360,       107.837,       169.461,            0.,NA,NA,"",   992.179E+03,   993.068E+03,   993.068E+03
C:/temp/Job-4.odb,Step-1,Increment      1: Step Time =    1.000,"P-4-1",           361,       95.9845,       169.846,            0.,NA,NA,"",   991.000E+03,   992.903E+03,   992.903E+03
C:/temp/Job-4.odb,Step-1,Increment      1: Step Time =    1.000,"P-4-1",           362,       81.8910,       168.982,            0.,NA,NA,"",   992.683E+03,   996.766E+03,   996.766E+03
C:/temp/Job-4.odb,Step-1,Increment      1: Step Time =    1.000,"P-4-1",           363,       69.7275,       166.413,            0.,NA,NA,"",   996.537E+03,   1.00461E+06,   1.00461E+06
C:/temp/Job-4.odb,Step-1,Increment      1: Step Time =    1.000,"P-4-1",           364,       61.7603,       167.427,            0.,NA,NA,"",   996.463E+03,   1.00739E+06,   1.00739E+06
C:/temp/Job-4.odb,Step-1,Increment      1: Step Time =    1.000,"P-4-1",           365,       53.7354,       168.909,            0.,NA,NA,"",   996.972E+03,   1.01119E+06,   1.01119E+06
C:/temp/Job-4.odb,Step-1,Increment      1: Step Time =    1.000,"P-4-1",           366,       40.5875,       168.529,            0.,NA,NA,"",   997.972E+03,   1.02340E+06,   1.02340E+06
C:/temp/Job-4.odb,Step-1,Increment      1: Step Time =    1.000,"P-4-1",           367,       30.1732,       166.780,            0.,NA,NA,"",   988.822E+03,   1.03113E+06,   1.03113E+06
C:/temp/Job-4.odb,Step-1,Increment      1: Step Time =    1.000,"P-4-1",           368,       20.9913,       164.687,            0.,NA,NA,"",   963.716E+03,   1.02646E+06,   1.02646E+06
C:/temp/Job-4.odb,Step-1,Increment      1: Step Time =    1.000,"P-4-1",           369,       8.98093,       170.471,            0.,NA,NA,"",   941.624E+03,   1.02744E+06,   1.02744E+06
C:/temp/Job-4.odb,Step-1,Increment      1: Step Time =    1.000,"P-4-1",           370,       189.778,       179.895,            0.,NA,NA,"",   1.00040E+06,   999.395E+03,   999.395E+03
C:/temp/Job-4.odb,Step-1,Increment      1: Step Time =    1.000,"P-4-1",           371,       179.507,       179.631,            0.,NA,NA,"",   999.298E+03,   998.204E+03,   998.204E+03
C:/temp/Job-4.odb,Step-1,Increment      1: Step Time =    1.000,"P-4-1",           372,       167.667,       180.663,            0.,NA,NA,"",   997.008E+03,   996.114E+03,   996.114E+03
C:/temp/Job-4.odb,Step-1,Increment      1: Step Time =    1.000,"P-4-1",           373,       157.680,       181.710,            0.,NA,NA,"",   994.678E+03,   993.894E+03,   993.894E+03
C:/temp/Job-4.odb,Step-1,Increment      1: Step Time =    1.000,"P-4-1",           374,       146.327,       178.408,            0.,NA,NA,"",   993.326E+03,   992.429E+03,   992.429E+03
C:/temp/Job-4.odb,Step-1,Increment      1: Step Time =    1.000,"P-4-1",           375,       136.218,       179.630,            0.,NA,NA,"",   989.795E+03,   989.149E+03,   989.149E+03
C:/temp/Job-4.odb,Step-1,Increment      1: Step Time =    1.000,"P-4-1",           376,       127.280,       181.003,            0.,NA,NA,"",   986.311E+03,   985.895E+03,   985.895E+03
C:/temp/Job-4.odb,Step-1,Increment      1: Step Time =    1.000,"P-4-1",           377,       114.604,       181.080,            0.,NA,NA,"",   981.869E+03,   981.863E+03,   981.863E+03
C:/temp/Job-4.odb,Step-1,Increment      1: Step Time =    1.000,"P-4-1",           378,       106.021,       179.940,            0.,NA,NA,"",   980.582E+03,   980.863E+03,   980.863E+03
C:/temp/Job-4.odb,Step-1,Increment      1: Step Time =    1.000,"P-4-1",           379,       97.6304,       177.993,            0.,NA,NA,"",   981.454E+03,   982.315E+03,   982.315E+03
C:/temp/Job-4.odb,Step-1,Increment      1: Step Time =    1.000,"P-4-1",           380,       83.4676,       180.224,            0.,NA,NA,"",   977.291E+03,   978.730E+03,   978.730E+03
C:/temp/Job-4.odb,Step-1,Increment      1: Step Time =    1.000,"P-4-1",           381,       74.4661,       175.912,            0.,NA,NA,"",   985.167E+03,   988.554E+03,   988.554E+03
C:/temp/Job-4.odb,Step-1,Increment      1: Step Time =    1.000,"P-4-1",           382,       61.8948,       176.743,            0.,NA,NA,"",   988.221E+03,   994.026E+03,   994.026E+03
C:/temp/Job-4.odb,Step-1,Increment      1: Step Time =    1.000,"P-4-1",           383,       53.2652,       178.278,            0.,NA,NA,"",   991.477E+03,   999.287E+03,   999.287E+03
C:/temp/Job-4.odb,Step-1,Increment      1: Step Time =    1.000,"P-4-1",           384,       41.7310,       179.779,            0.,NA,NA,"",   999.968E+03,   1.01199E+06,   1.01199E+06
C:/temp/Job-4.odb,Step-1,Increment      1: Step Time =    1.000,"P-4-1",           385,       31.4244,       182.307,            0.,NA,NA,"",   1.01576E+06,   1.03160E+06,   1.03160E+06
C:/temp/Job-4.odb,Step-1,Increment      1: Step Time =    1.000,"P-4-1",           386,       19.2456,       179.282,            0.,NA,NA,"",   1.02807E+06,   1.07074E+06,   1.07074E+06
C:/temp/Job-4.odb,Step-1,Increment      1: Step Time =    1.000,"P-4-1",           387,       9.57453,       179.910,            0.,NA,NA,"",   1.00511E+06,   1.07932E+06,   1.07932E+06
C:/temp/Job-4.odb,Step-1,Increment      1: Step Time =    1.000,"P-4-1",           388,       189.901,       189.952,            0.,NA,NA,"",   999.691E+03,   999.378E+03,   999.378E+03
C:/temp/Job-4.odb,Step-1,Increment      1: Step Time =    1.000,"P-4-1",           389,       175.207,       190.271,            0.,NA,NA,"",   997.393E+03,   997.083E+03,   997.083E+03
C:/temp/Job-4.odb,Step-1,Increment      1: Step Time =    1.000,"P-4-1",           390,       166.003,       190.446,            0.,NA,NA,"",   994.954E+03,   994.692E+03,   994.692E+03
C:/temp/Job-4.odb,Step-1,Increment      1: Step Time =    1.000,"P-4-1",           391,       156.924,       188.812,            0.,NA,NA,"",   992.305E+03,   991.969E+03,   991.969E+03
C:/temp/Job-4.odb,Step-1,Increment      1: Step Time =    1.000,"P-4-1",           392,       148.095,       187.845,            0.,NA,NA,"",   989.622E+03,   989.250E+03,   989.250E+03
C:/temp/Job-4.odb,Step-1,Increment      1: Step Time =    1.000,"P-4-1",           393,       133.519,       189.835,            0.,NA,NA,"",   982.177E+03,   982.008E+03,   982.008E+03
C:/temp/Job-4.odb,Step-1,Increment      1: Step Time =    1.000,"P-4-1",           394,       124.164,       190.467,            0.,NA,NA,"",   976.843E+03,   976.738E+03,   976.738E+03
C:/temp/Job-4.odb,Step-1,Increment      1: Step Time =    1.000,"P-4-1",           395,       114.589,       190.455,            0.,NA,NA,"",   971.673E+03,   971.634E+03,   971.634E+03
C:/temp/Job-4.odb,Step-1,Increment      1: Step Time =    1.000,"P-4-1",           396,       104.899,       189.914,            0.,NA,NA,"",   967.383E+03,   967.410E+03,   967.410E+03
C:/temp/Job-4.odb,Step-1,Increment      1: Step Time =    1.000,"P-4-1",           397,       94.7410,       189.214,            0.,NA,NA,"",   963.720E+03,   963.925E+03,   963.925E+03
C:/temp/Job-4.odb,Step-1,Increment      1: Step Time =    1.000,"P-4-1",           398,       84.5768,       190.057,            0.,NA,NA,"",   958.749E+03,   959.077E+03,   959.077E+03
C:/temp/Job-4.odb,Step-1,Increment      1: Step Time =    1.000,"P-4-1",           399,       74.9332,       190.623,            0.,NA,NA,"",   955.247E+03,   955.726E+03,   955.726E+03
C:/temp/Job-4.odb,Step-1,Increment      1: Step Time =    1.000,"P-4-1",           400,       65.4040,       190.904,            0.,NA,NA,"",   954.359E+03,   955.147E+03,   955.147E+03
C:/temp/Job-4.odb,Step-1,Increment      1: Step Time =    1.000,"P-4-1",           401,       52.5333,       186.263,            0.,NA,NA,"",   975.800E+03,   978.978E+03,   978.978E+03
C:/temp/Job-4.odb,Step-1,Increment      1: Step Time =    1.000,"P-4-1",           402,       41.5904,       187.962,            0.,NA,NA,"",   984.796E+03,   989.476E+03,   989.476E+03
C:/temp/Job-4.odb,Step-1,Increment      1: Step Time =    1.000,"P-4-1",           403,       30.5604,       188.212,            0.,NA,NA,"",   1.01243E+06,   1.02150E+06,   1.02150E+06
C:/temp/Job-4.odb,Step-1,Increment      1: Step Time =    1.000,"P-4-1",           404,       19.9004,       189.470,            0.,NA,NA,"",   1.06246E+06,   1.07863E+06,   1.07863E+06
C:/temp/Job-4.odb,Step-1,Increment      1: Step Time =    1.000,"P-4-1",           405,       9.95790,       189.844,            0.,NA,NA,"",   1.14316E+06,   1.18379E+06,   1.18379E+06
C:/temp/Job-4.odb,Step-1,Increment      1: Step Time =    1.000,"P-4-1",           406,          195.,            0.,            0.,NA,NA,"",   1.00001E+06,   1.00000E+06,   1.00000E+06
C:/temp/Job-4.odb,Step-1,Increment      1: Step Time =    1.000,"P-4-1",           407,          185.,            0.,            0.,NA,NA,"",   999.511E+03,   999.461E+03,   999.461E+03
C:/temp/Job-4.odb,Step-1,Increment      1: Step Time =    1.000,"P-4-1",           408,          175.,            0.,            0.,NA,NA,"",   997.624E+03,   997.571E+03,   997.571E+03
C:/temp/Job-4.odb,Step-1,Increment      1: Step Time =    1.000,"P-4-1",           409,          165.,            0.,            0.,NA,NA,"",   994.408E+03,   994.372E+03,   994.372E+03
C:/temp/Job-4.odb,Step-1,Increment      1: Step Time =    1.000,"P-4-1",           410,          155.,            0.,            0.,NA,NA,"",   990.136E+03,   990.119E+03,   990.119E+03
C:/temp/Job-4.odb,Step-1,Increment      1: Step Time =    1.000,"P-4-1",           411,          145.,            0.,            0.,NA,NA,"",   984.677E+03,   984.668E+03,   984.668E+03
C:/temp/Job-4.odb,Step-1,Increment      1: Step Time =    1.000,"P-4-1",           412,          135.,            0.,            0.,NA,NA,"",   978.386E+03,   978.362E+03,   978.362E+03
C:/temp/Job-4.odb,Step-1,Increment      1: Step Time =    1.000,"P-4-1",           413,          125.,            0.,            0.,NA,NA,"",   971.498E+03,   971.476E+03,   971.476E+03
C:/temp/Job-4.odb,Step-1,Increment      1: Step Time =    1.000,"P-4-1",           414,          115.,            0.,            0.,NA,NA,"",   964.206E+03,    964.18E+03,    964.18E+03
C:/temp/Job-4.odb,Step-1,Increment      1: Step Time =    1.000,"P-4-1",           415,          105.,            0.,            0.,NA,NA,"",   956.518E+03,   956.534E+03,   956.534E+03
C:/temp/Job-4.odb,Step-1,Increment      1: Step Time =    1.000,"P-4-1",           416,           95.,            0.,            0.,NA,NA,"",   949.014E+03,   949.048E+03,   949.048E+03
C:/temp/Job-4.odb,Step-1,Increment      1: Step Time =    1.000,"P-4-1",           417,           85.,            0.,            0.,NA,NA,"",   942.202E+03,   942.257E+03,   942.257E+03
C:/temp/Job-4.odb,Step-1,Increment      1: Step Time =    1.000,"P-4-1",           418,           75.,            0.,            0.,NA,NA,"",   936.648E+03,   936.753E+03,   936.753E+03
C:/temp/Job-4.odb,Step-1,Increment      1: Step Time =    1.000,"P-4-1",           419,           65.,            0.,            0.,NA,NA,"",   933.525E+03,   933.770E+03,   933.770E+03
C:/temp/Job-4.odb,Step-1,Increment      1: Step Time =    1.000,"P-4-1",           420,           55.,            0.,            0.,NA,NA,"",   934.432E+03,   934.502E+03,   934.502E+03
C:/temp/Job-4.odb,Step-1,Increment      1: Step Time =    1.000,"P-4-1",           421,           45.,            0.,            0.,NA,NA,"",   937.953E+03,   938.380E+03,   938.380E+03
C:/temp/Job-4.odb,Step-1,Increment      1: Step Time =    1.000,"P-4-1",           422,           35.,            0.,            0.,NA,NA,"",   952.238E+03,   953.053E+03,   953.053E+03
C:/temp/Job-4.odb,Step-1,Increment      1: Step Time =    1.000,"P-4-1",           423,           25.,            0.,            0.,NA,NA,"",   987.943E+03,   989.777E+03,   989.777E+03
C:/temp/Job-4.odb,Step-1,Increment      1: Step Time =    1.000,"P-4-1",           424,           15.,            0.,            0.,NA,NA,"",   1.07487E+06,   1.08013E+06,   1.08013E+06
C:/temp/Job-4.odb,Step-1,Increment      1: Step Time =    1.000,"P-4-1",           425,            5.,            0.,            0.,NA,NA,"",   1.37323E+06,   1.40467E+06,   1.40467E+06
C:/temp/Job-4.odb,Step-1,Increment      1: Step Time =    1.000,"P-4-1",           426,          200.,          195.,            0.,NA,NA,"",   999.973E+03,   999.972E+03,   999.972E+03
C:/temp/Job-4.odb,Step-1,Increment      1: Step Time =    1.000,"P-4-1",           427,          200.,          185.,            0.,NA,NA,"",   1.00018E+06,   999.910E+03,   999.910E+03
C:/temp/Job-4.odb,Step-1,Increment      1: Step Time =    1.000,"P-4-1",           428,          200.,          175.,            0.,NA,NA,"",   1.00107E+06,   999.922E+03,   999.922E+03
C:/temp/Job-4.odb,Step-1,Increment      1: Step Time =    1.000,"P-4-1",           429,          200.,          165.,            0.,NA,NA,"",   1.00251E+06,   999.981E+03,   999.981E+03
C:/temp/Job-4.odb,Step-1,Increment      1: Step Time =    1.000,"P-4-1",           430,          200.,          155.,            0.,NA,NA,"",   1.00407E+06,   1.00002E+06,   1.00002E+06
C:/temp/Job-4.odb,Step-1,Increment      1: Step Time =    1.000,"P-4-1",           431,          200.,          145.,            0.,NA,NA,"",   1.00562E+06,   1.00004E+06,   1.00004E+06
C:/temp/Job-4.odb,Step-1,Increment      1: Step Time =    1.000,"P-4-1",           432,          200.,          135.,            0.,NA,NA,"",   1.00687E+06,   1.00004E+06,   1.00004E+06
C:/temp/Job-4.odb,Step-1,Increment      1: Step Time =    1.000,"P-4-1",           433,          200.,          125.,            0.,NA,NA,"",   1.00777E+06,   1.00004E+06,   1.00004E+06
C:/temp/Job-4.odb,Step-1,Increment      1: Step Time =    1.000,"P-4-1",           434,          200.,          115.,            0.,NA,NA,"",   1.00836E+06,   1.00005E+06,   1.00005E+06
C:/temp/Job-4.odb,Step-1,Increment      1: Step Time =    1.000,"P-4-1",           435,          200.,          105.,            0.,NA,NA,"",   1.00863E+06,   1.00004E+06,   1.00004E+06
C:/temp/Job-4.odb,Step-1,Increment      1: Step Time =    1.000,"P-4-1",           436,          200.,           95.,            0.,NA,NA,"",   1.00864E+06,   1.00003E+06,   1.00003E+06
C:/temp/Job-4.odb,Step-1,Increment      1: Step Time =    1.000,"P-4-1",           437,          200.,           85.,            0.,NA,NA,"",   1.00839E+06,   1.00003E+06,   1.00003E+06
C:/temp/Job-4.odb,Step-1,Increment      1: Step Time =    1.000,"P-4-1",           438,          200.,           75.,            0.,NA,NA,"",   1.00782E+06,   1.00004E+06,   1.00004E+06
C:/temp/Job-4.odb,Step-1,Increment      1: Step Time =    1.000,"P-4-1",           439,          200.,           65.,            0.,NA,NA,"",   1.00692E+06,   1.00009E+06,   1.00009E+06
C:/temp/Job-4.odb,Step-1,Increment      1: Step Time =    1.000,"P-4-1",           440,          200.,           55.,            0.,NA,NA,"",   1.00553E+06,   1.00004E+06,   1.00004E+06
C:/temp/Job-4.odb,Step-1,Increment      1: Step Time =    1.000,"P-4-1",           441,          200.,           45.,            0.,NA,NA,"",   1.00395E+06,   999.968E+03,   999.968E+03
C:/temp/Job-4.odb,Step-1,Increment      1: Step Time =    1.000,"P-4-1",           442,          200.,           35.,            0.,NA,NA,"",   1.00241E+06,   999.966E+03,   999.966E+03
C:/temp/Job-4.odb,Step-1,Increment      1: Step Time =    1.000,"P-4-1",           443,          200.,           25.,            0.,NA,NA,"",   1.00106E+06,   999.955E+03,   999.955E+03
C:/temp/Job-4.odb,Step-1,Increment      1: Step Time =    1.000,"P-4-1",           444,          200.,           15.,            0.,NA,NA,"",   1.00017E+06,   999.919E+03,   999.919E+03
C:/temp/Job-4.odb,Step-1,Increment      1: Step Time =    1.000,"P-4-1",           445,          200.,            5.,            0.,NA,NA,"",   999.973E+03,   999.974E+03,   999.974E+03
C:/temp/Job-4.odb,Step-1,Increment      1: Step Time =    1.000,"P-4-1",           446,            5.,          200.,            0.,NA,NA,"",   1.37419E+06,   1.40589E+06,   1.40589E+06
C:/temp/Job-4.odb,Step-1,Increment      1: Step Time =    1.000,"P-4-1",           447,           15.,          200.,            0.,NA,NA,"",   1.07685E+06,   1.08229E+06,   1.08229E+06
C:/temp/Job-4.odb,Step-1,Increment      1: Step Time =    1.000,"P-4-1",           448,           25.,          200.,            0.,NA,NA,"",   990.846E+03,   992.806E+03,   992.806E+03
C:/temp/Job-4.odb,Step-1,Increment      1: Step Time =    1.000,"P-4-1",           449,           35.,          200.,            0.,NA,NA,"",   954.174E+03,   955.083E+03,   955.083E+03
C:/temp/Job-4.odb,Step-1,Increment      1: Step Time =    1.000,"P-4-1",           450,           45.,          200.,            0.,NA,NA,"",   937.513E+03,   937.953E+03,   937.953E+03
C:/temp/Job-4.odb,Step-1,Increment      1: Step Time =    1.000,"P-4-1",           451,           55.,          200.,            0.,NA,NA,"",   931.346E+03,   931.602E+03,   931.602E+03
C:/temp/Job-4.odb,Step-1,Increment      1: Step Time =    1.000,"P-4-1",           452,           65.,          200.,            0.,NA,NA,"",   931.867E+03,   932.015E+03,   932.015E+03
C:/temp/Job-4.odb,Step-1,Increment      1: Step Time =    1.000,"P-4-1",           453,           75.,          200.,            0.,NA,NA,"",   936.046E+03,   936.131E+03,   936.131E+03
C:/temp/Job-4.odb,Step-1,Increment      1: Step Time =    1.000,"P-4-1",           454,           85.,          200.,            0.,NA,NA,"",   942.104E+03,   942.168E+03,   942.168E+03
C:/temp/Job-4.odb,Step-1,Increment      1: Step Time =    1.000,"P-4-1",           455,           95.,          200.,            0.,NA,NA,"",   949.142E+03,   949.137E+03,   949.137E+03
C:/temp/Job-4.odb,Step-1,Increment      1: Step Time =    1.000,"P-4-1",           456,          105.,          200.,            0.,NA,NA,"",   956.367E+03,   956.377E+03,   956.377E+03
C:/temp/Job-4.odb,Step-1,Increment      1: Step Time =    1.000,"P-4-1",           457,          115.,          200.,            0.,NA,NA,"",   963.899E+03,   963.900E+03,   963.900E+03
C:/temp/Job-4.odb,Step-1,Increment      1: Step Time =    1.000,"P-4-1",           458,          125.,          200.,            0.,NA,NA,"",   971.301E+03,   971.301E+03,   971.301E+03
C:/temp/Job-4.odb,Step-1,Increment      1: Step Time =    1.000,"P-4-1",           459,          135.,          200.,            0.,NA,NA,"",   978.362E+03,   978.395E+03,   978.395E+03
C:/temp/Job-4.odb,Step-1,Increment      1: Step Time =    1.000,"P-4-1",           460,          145.,          200.,            0.,NA,NA,"",   985.007E+03,   984.949E+03,   984.949E+03
C:/temp/Job-4.odb,Step-1,Increment      1: Step Time =    1.000,"P-4-1",           461,          155.,          200.,            0.,NA,NA,"",   990.433E+03,   990.365E+03,   990.365E+03
C:/temp/Job-4.odb,Step-1,Increment      1: Step Time =    1.000,"P-4-1",           462,          165.,          200.,            0.,NA,NA,"",   994.652E+03,   994.608E+03,   994.608E+03
C:/temp/Job-4.odb,Step-1,Increment      1: Step Time =    1.000,"P-4-1",           463,          175.,          200.,            0.,NA,NA,"",   997.725E+03,   997.694E+03,   997.694E+03
C:/temp/Job-4.odb,Step-1,Increment      1: Step Time =    1.000,"P-4-1",           464,          185.,          200.,            0.,NA,NA,"",   999.523E+03,   999.480E+03,   999.480E+03
C:/temp/Job-4.odb,Step-1,Increment      1: Step Time =    1.000,"P-4-1",           465,          195.,          200.,            0.,NA,NA,"",   1.00001E+06,   1.00000E+06,   1.00000E+06
C:/temp/Job-4.odb,Step-1,Increment      1: Step Time =    1.000,"P-4-1",           466,            0.,            5.,            0.,NA,NA,"",   1.32945E+06,   1.41192E+06,   1.41192E+06
C:/temp/Job-4.odb,Step-1,Increment      1: Step Time =    1.000,"P-4-1",           467,            0.,           15.,            0.,NA,NA,"",   1.01657E+06,   1.11428E+06,   1.11428E+06
C:/temp/Job-4.odb,Step-1,Increment      1: Step Time =    1.000,"P-4-1",           468,            0.,           25.,            0.,NA,NA,"",   933.130E+03,   1.03316E+06,   1.03316E+06
C:/temp/Job-4.odb,Step-1,Increment      1: Step Time =    1.000,"P-4-1",           469,            0.,           35.,            0.,NA,NA,"",   891.326E+03,   992.802E+03,   992.802E+03
C:/temp/Job-4.odb,Step-1,Increment      1: Step Time =    1.000,"P-4-1",           470,            0.,           45.,            0.,NA,NA,"",   867.203E+03,   970.029E+03,   970.029E+03
C:/temp/Job-4.odb,Step-1,Increment      1: Step Time =    1.000,"P-4-1",           471,            0.,           55.,            0.,NA,NA,"",    850.88E+03,   954.917E+03,   954.917E+03
C:/temp/Job-4.odb,Step-1,Increment      1: Step Time =    1.000,"P-4-1",           472,            0.,           65.,            0.,NA,NA,"",   840.576E+03,   945.038E+03,   945.038E+03
C:/temp/Job-4.odb,Step-1,Increment      1: Step Time =    1.000,"P-4-1",           473,            0.,           75.,            0.,NA,NA,"",   833.864E+03,   938.603E+03,   938.603E+03
C:/temp/Job-4.odb,Step-1,Increment      1: Step Time =    1.000,"P-4-1",           474,            0.,           85.,            0.,NA,NA,"",   829.310E+03,    934.36E+03,    934.36E+03
C:/temp/Job-4.odb,Step-1,Increment      1: Step Time =    1.000,"P-4-1",           475,            0.,           95.,            0.,NA,NA,"",   827.000E+03,   932.264E+03,   932.264E+03
C:/temp/Job-4.odb,Step-1,Increment      1: Step Time =    1.000,"P-4-1",           476,            0.,          105.,            0.,NA,NA,"",   826.917E+03,   932.205E+03,   932.205E+03
C:/temp/Job-4.odb,Step-1,Increment      1: Step Time =    1.000,"P-4-1",           477,            0.,          115.,            0.,NA,NA,"",   829.010E+03,   934.183E+03,   934.183E+03
C:/temp/Job-4.odb,Step-1,Increment      1: Step Time =    1.000,"P-4-1",           478,            0.,          125.,            0.,NA,NA,"",   833.355E+03,   938.287E+03,   938.287E+03
C:/temp/Job-4.odb,Step-1,Increment      1: Step Time =    1.000,"P-4-1",           479,            0.,          135.,            0.,NA,NA,"",   841.010E+03,   945.339E+03,   945.339E+03
C:/temp/Job-4.odb,Step-1,Increment      1: Step Time =    1.000,"P-4-1",           480,            0.,          145.,            0.,NA,NA,"",   854.000E+03,   956.538E+03,   956.538E+03
C:/temp/Job-4.odb,Step-1,Increment      1: Step Time =    1.000,"P-4-1",           481,            0.,          155.,            0.,NA,NA,"",   867.945E+03,   970.880E+03,   970.880E+03
C:/temp/Job-4.odb,Step-1,Increment      1: Step Time =    1.000,"P-4-1",           482,            0.,          165.,            0.,NA,NA,"",   890.616E+03,   992.941E+03,   992.941E+03
C:/temp/Job-4.odb,Step-1,Increment      1: Step Time =    1.000,"P-4-1",           483,            0.,          175.,            0.,NA,NA,"",   931.685E+03,   1.03246E+06,   1.03246E+06
C:/temp/Job-4.odb,Step-1,Increment      1: Step Time =    1.000,"P-4-1",           484,            0.,          185.,            0.,NA,NA,"",   1.01547E+06,   1.11361E+06,   1.11361E+06
C:/temp/Job-4.odb,Step-1,Increment      1: Step Time =    1.000,"P-4-1",           485,            0.,          195.,            0.,NA,NA,"",   1.32858E+06,   1.41135E+06,   1.41135E+06
C:/temp/Job-4.odb,Step-1,Increment      1: Step Time =    1.000,"P-4-1",           486,       102.797,       106.477,            0.,NA,NA,"",   1.21399E+06,   1.24278E+06,   1.24278E+06
C:/temp/Job-4.odb,Step-1,Increment      1: Step Time =    1.000,"P-4-1",           487,       106.166,       103.323,            0.,NA,NA,"",   961.644E+03,   902.836E+03,   902.836E+03
C:/temp/Job-4.odb,Step-1,Increment      1: Step Time =    1.000,"P-4-1",           488,       106.569,       97.1944,            0.,NA,NA,"",   891.294E+03,   843.675E+03,   843.675E+03
C:/temp/Job-4.odb,Step-1,Increment      1: Step Time =    1.000,"P-4-1",           489,       103.191,       93.8294,            0.,NA,NA,"",   1.23081E+06,   1.24304E+06,   1.24304E+06
C:/temp/Job-4.odb,Step-1,Increment      1: Step Time =    1.000,"P-4-1",           490,       97.1317,       93.5253,            0.,NA,NA,"",   1.21152E+06,   1.23950E+06,   1.23950E+06
C:/temp/Job-4.odb,Step-1,Increment      1: Step Time =    1.000,"P-4-1",           491,       93.8801,       96.8878,            0.,NA,NA,"",   932.890E+03,   881.457E+03,   881.457E+03
C:/temp/Job-4.odb,Step-1,Increment      1: Step Time =    1.000,"P-4-1",           492,       93.8110,       102.826,            0.,NA,NA,"",   899.092E+03,   849.961E+03,   849.961E+03
C:/temp/Job-4.odb,Step-1,Increment      1: Step Time =    1.000,"P-4-1",           493,       96.9626,       106.034,            0.,NA,NA,"",   1.24174E+06,   1.25871E+06,   1.25871E+06
C:/temp/Job-4.odb,Step-1,Increment      1: Step Time =    1.000,"P-4-1",           494,       109.255,       104.425,            0.,NA,NA,"",   960.460E+03,   940.939E+03,   940.939E+03
C:/temp/Job-4.odb,Step-1,Increment      1: Step Time =    1.000,"P-4-1",           495,       96.0715,       108.960,            0.,NA,NA,"",   1.10535E+06,   1.13035E+06,   1.13035E+06
C:/temp/Job-4.odb,Step-1,Increment      1: Step Time =    1.000,"P-4-1",           496,       90.8153,       96.0677,            0.,NA,NA,"",   932.507E+03,   923.707E+03,   923.707E+03
C:/temp/Job-4.odb,Step-1,Increment      1: Step Time =    1.000,"P-4-1",           497,       104.176,       90.7171,            0.,NA,NA,"",   1.10079E+06,   1.12030E+06,   1.12030E+06
C:/temp/Job-4.odb,Step-1,Increment      1: Step Time =    1.000,"P-4-1",           498,       103.310,       109.865,            0.,NA,NA,"",   1.07301E+06,   1.10170E+06,   1.10170E+06
C:/temp/Job-4.odb,Step-1,Increment      1: Step Time =    1.000,"P-4-1",           499,       110.145,       96.5983,            0.,NA,NA,"",   912.765E+03,   906.599E+03,   906.599E+03
C:/temp/Job-4.odb,Step-1,Increment      1: Step Time =    1.000,"P-4-1",           500,       96.4995,       90.0244,            0.,NA,NA,"",   1.07521E+06,   1.10392E+06,   1.10392E+06
C:/temp/Job-4.odb,Step-1,Increment      1: Step Time =    1.000,"P-4-1",           501,       90.6546,       103.467,            0.,NA,NA,"",   911.892E+03,   908.160E+03,   908.160E+03
C:/temp/Job-4.odb,Step-1,Increment      1: Step Time =    1.000,"P-4-1",           502,       107.256,       100.361,            0.,NA,NA,"",   751.613E+03,   720.949E+03,   720.949E+03
C:/temp/Job-4.odb,Step-1,Increment      1: Step Time =    1.000,"P-4-1",           503,       99.7845,       107.086,            0.,NA,NA,"",   1.17704E+06,   1.24622E+06,   1.24622E+06
C:/temp/Job-4.odb,Step-1,Increment      1: Step Time =    1.000,"P-4-1",           504,       100.238,       92.7556,            0.,NA,NA,"",   1.17281E+06,   1.23946E+06,   1.23946E+06
C:/temp/Job-4.odb,Step-1,Increment      1: Step Time =    1.000,"P-4-1",           505,       92.9790,       99.8065,            0.,NA,NA,"",   732.179E+03,   706.013E+03,   706.013E+03
C:/temp/Job-4.odb,Step-1,Increment      1: Step Time =    1.000,"P-4-1",           506,       95.1717,       4.92076,            0.,NA,NA,"",   953.570E+03,   953.624E+03,   953.624E+03
C:/temp/Job-4.odb,Step-1,Increment      1: Step Time =    1.000,"P-4-1",           507,       105.113,       5.04732,            0.,NA,NA,"",   960.213E+03,   960.237E+03,   960.237E+03
C:/temp/Job-4.odb,Step-1,Increment      1: Step Time =    1.000,"P-4-1",           508,       124.611,       195.224,            0.,NA,NA,"",   973.131E+03,   973.097E+03,   973.097E+03
C:/temp/Job-4.odb,Step-1,Increment      1: Step Time =    1.000,"P-4-1",           509,       114.760,       195.222,            0.,NA,NA,"",   966.479E+03,   966.462E+03,   966.462E+03
C:/temp/Job-4.odb,Step-1,Increment      1: Step Time =    1.000,"P-4-1",           510,       15.0289,       194.801,            0.,NA,NA,"",   1.09301E+06,   1.10272E+06,   1.10272E+06
C:/temp/Job-4.odb,Step-1,Increment      1: Step Time =    1.000,"P-4-1",           511,       5.01044,       194.957,            0.,NA,NA,"",   1.28738E+06,   1.33648E+06,   1.33648E+06
C:/temp/Job-4.odb,Step-1,Increment      1: Step Time =    1.000,"P-4-1",           512,       5.06652,       10.0325,            0.,NA,NA,"",   1.12852E+06,   1.20329E+06,   1.20329E+06
C:/temp/Job-4.odb,Step-1,Increment      1: Step Time =    1.000,"P-4-1",           513,       5.09170,       15.0462,            0.,NA,NA,"",   1.03145E+06,   1.11720E+06,   1.11720E+06
C:/temp/Job-4.odb,Step-1,Increment      1: Step Time =    1.000,"P-4-1",           514,       5.12625,       25.0119,            0.,NA,NA,"",   946.552E+03,   1.03965E+06,   1.03965E+06
C:/temp/Job-4.odb,Step-1,Increment      1: Step Time =    1.000,"P-4-1",           515,       5.43159,       35.1714,            0.,NA,NA,"",   903.443E+03,   999.585E+03,   999.585E+03
C:/temp/Job-4.odb,Step-1,Increment      1: Step Time =    1.000,"P-4-1",           516,       5.13117,       45.1695,            0.,NA,NA,"",   876.169E+03,   975.189E+03,   975.189E+03
C:/temp/Job-4.odb,Step-1,Increment      1: Step Time =    1.000,"P-4-1",           517,       4.88991,       184.964,            0.,NA,NA,"",   1.02944E+06,   1.11623E+06,   1.11623E+06
C:/temp/Job-4.odb,Step-1,Increment      1: Step Time =    1.000,"P-4-1",           518,       15.0080,       4.94319,            0.,NA,NA,"",   1.09167E+06,   1.10084E+06,   1.10084E+06
C:/temp/Job-4.odb,Step-1,Increment      1: Step Time =    1.000,"P-4-1",           519,       24.8655,       4.79136,            0.,NA,NA,"",   1.00637E+06,   1.00990E+06,   1.00990E+06
C:/temp/Job-4.odb,Step-1,Increment      1: Step Time =    1.000,"P-4-1",           520,       34.6525,       4.74954,            0.,NA,NA,"",   968.045E+03,   969.564E+03,   969.564E+03
C:/temp/Job-4.odb,Step-1,Increment      1: Step Time =    1.000,"P-4-1",           521,       44.3164,       4.84742,            0.,NA,NA,"",   950.046E+03,   951.035E+03,   951.035E+03
C:/temp/Job-4.odb,Step-1,Increment      1: Step Time =    1.000,"P-4-1",           522,       54.9133,       6.98361,            0.,NA,NA,"",   950.491E+03,   951.246E+03,   951.246E+03
C:/temp/Job-4.odb,Step-1,Increment      1: Step Time =    1.000,"P-4-1",           523,       65.5897,       5.21292,            0.,NA,NA,"",   941.624E+03,   941.994E+03,   941.994E+03
C:/temp/Job-4.odb,Step-1,Increment      1: Step Time =    1.000,"P-4-1",           524,       75.4090,       4.85400,            0.,NA,NA,"",   943.412E+03,   943.573E+03,   943.573E+03
C:/temp/Job-4.odb,Step-1,Increment      1: Step Time =    1.000,"P-4-1",           525,       85.2959,       4.79594,            0.,NA,NA,"",   947.650E+03,   947.765E+03,   947.765E+03
C:/temp/Job-4.odb,Step-1,Increment      1: Step Time =    1.000,"P-4-1",           526,       115.234,       5.16120,            0.,NA,NA,"",   967.157E+03,   967.109E+03,   967.109E+03
C:/temp/Job-4.odb,Step-1,Increment      1: Step Time =    1.000,"P-4-1",           527,       134.404,       194.824,            0.,NA,NA,"",   979.530E+03,   979.506E+03,   979.506E+03
C:/temp/Job-4.odb,Step-1,Increment      1: Step Time =    1.000,"P-4-1",           528,       125.207,       4.86391,            0.,NA,NA,"",   973.595E+03,   973.536E+03,   973.536E+03
C:/temp/Job-4.odb,Step-1,Increment      1: Step Time =    1.000,"P-4-1",           529,       145.016,       192.839,            0.,NA,NA,"",   986.419E+03,   986.249E+03,   986.249E+03
C:/temp/Job-4.odb,Step-1,Increment      1: Step Time =    1.000,"P-4-1",           530,       135.012,       4.48359,            0.,NA,NA,"",   979.619E+03,   979.559E+03,   979.559E+03
C:/temp/Job-4.odb,Step-1,Increment      1: Step Time =    1.000,"P-4-1",           531,       155.802,       194.548,            0.,NA,NA,"",   990.912E+03,   990.782E+03,   990.782E+03
C:/temp/Job-4.odb,Step-1,Increment      1: Step Time =    1.000,"P-4-1",           532,       144.748,       4.41938,            0.,NA,NA,"",   985.291E+03,   985.235E+03,   985.235E+03
C:/temp/Job-4.odb,Step-1,Increment      1: Step Time =    1.000,"P-4-1",           533,       154.547,       5.09873,            0.,NA,NA,"",   990.362E+03,   990.279E+03,   990.279E+03
C:/temp/Job-4.odb,Step-1,Increment      1: Step Time =    1.000,"P-4-1",           534,       165.478,       195.233,            0.,NA,NA,"",   994.710E+03,   994.607E+03,   994.607E+03
C:/temp/Job-4.odb,Step-1,Increment      1: Step Time =    1.000,"P-4-1",           535,       164.474,       5.48343,            0.,NA,NA,"",   994.409E+03,   994.285E+03,   994.285E+03
C:/temp/Job-4.odb,Step-1,Increment      1: Step Time =    1.000,"P-4-1",           536,       175.152,       195.203,            0.,NA,NA,"",   997.514E+03,   997.411E+03,   997.411E+03
C:/temp/Job-4.odb,Step-1,Increment      1: Step Time =    1.000,"P-4-1",           537,       174.870,       5.39316,            0.,NA,NA,"",   997.448E+03,   997.306E+03,   997.306E+03
C:/temp/Job-4.odb,Step-1,Increment      1: Step Time =    1.000,"P-4-1",           538,       184.974,       195.032,            0.,NA,NA,"",   999.296E+03,   999.174E+03,   999.174E+03
C:/temp/Job-4.odb,Step-1,Increment      1: Step Time =    1.000,"P-4-1",           539,       184.979,       5.13511,            0.,NA,NA,"",   999.298E+03,   999.165E+03,   999.165E+03
C:/temp/Job-4.odb,Step-1,Increment      1: Step Time =    1.000,"P-4-1",           540,       194.853,       104.950,            0.,NA,NA,"",   1.00822E+06,   1.00010E+06,   1.00010E+06
C:/temp/Job-4.odb,Step-1,Increment      1: Step Time =    1.000,"P-4-1",           541,       194.751,       115.030,            0.,NA,NA,"",   1.00797E+06,   1.00012E+06,   1.00012E+06
C:/temp/Job-4.odb,Step-1,Increment      1: Step Time =    1.000,"P-4-1",           542,       194.663,       125.146,            0.,NA,NA,"",   1.00743E+06,   1.00013E+06,   1.00013E+06
C:/temp/Job-4.odb,Step-1,Increment      1: Step Time =    1.000,"P-4-1",           543,       194.939,       135.178,            0.,NA,NA,"",   1.00659E+06,   1.00013E+06,   1.00013E+06
C:/temp/Job-4.odb,Step-1,Increment      1: Step Time =    1.000,"P-4-1",           544,       195.166,       144.990,            0.,NA,NA,"",   1.00544E+06,   1.00009E+06,   1.00009E+06
C:/temp/Job-4.odb,Step-1,Increment      1: Step Time =    1.000,"P-4-1",           545,       194.976,       194.985,            0.,NA,NA,"",   999.951E+03,   999.902E+03,   999.902E+03
C:/temp/Job-4.odb,Step-1,Increment      1: Step Time =    1.000,"P-4-1",           546,       194.996,       5.03201,            0.,NA,NA,"",   999.953E+03,   999.905E+03,   999.905E+03
C:/temp/Job-4.odb,Step-1,Increment      1: Step Time =    1.000,"P-4-1",           547,       195.079,       15.0212,            0.,NA,NA,"",   1.00018E+06,   999.771E+03,   999.771E+03
C:/temp/Job-4.odb,Step-1,Increment      1: Step Time =    1.000,"P-4-1",           548,       195.252,       24.8414,            0.,NA,NA,"",   1.00109E+06,   999.854E+03,   999.854E+03
C:/temp/Job-4.odb,Step-1,Increment      1: Step Time =    1.000,"P-4-1",           549,       195.259,       34.5076,            0.,NA,NA,"",   1.00237E+06,   999.922E+03,   999.922E+03
C:/temp/Job-4.odb,Step-1,Increment      1: Step Time =    1.000,"P-4-1",           550,       194.578,       44.1759,            0.,NA,NA,"",   1.00383E+06,   999.995E+03,   999.995E+03
C:/temp/Job-4.odb,Step-1,Increment      1: Step Time =    1.000,"P-4-1",           551,       192.869,       54.9746,            0.,NA,NA,"",   1.00529E+06,   1.00015E+06,   1.00015E+06
C:/temp/Job-4.odb,Step-1,Increment      1: Step Time =    1.000,"P-4-1",           552,       194.813,       65.5791,            0.,NA,NA,"",   1.00670E+06,   1.00017E+06,   1.00017E+06
C:/temp/Job-4.odb,Step-1,Increment      1: Step Time =    1.000,"P-4-1",           553,       195.258,       75.3187,            0.,NA,NA,"",   1.00751E+06,   1.00011E+06,   1.00011E+06
C:/temp/Job-4.odb,Step-1,Increment      1: Step Time =    1.000,"P-4-1",           554,       195.238,       85.1787,            0.,NA,NA,"",   1.00803E+06,   1.00010E+06,   1.00010E+06
C:/temp/Job-4.odb,Step-1,Increment      1: Step Time =    1.000,"P-4-1",           555,       194.994,       95.0352,            0.,NA,NA,"",   1.00823E+06,   1.00009E+06,   1.00009E+06
C:/temp/Job-4.odb,Step-1,Increment      1: Step Time =    1.000,"P-4-1",           556,       104.858,       194.956,            0.,NA,NA,"",   960.117E+03,   960.119E+03,   960.119E+03
C:/temp/Job-4.odb,Step-1,Increment      1: Step Time =    1.000,"P-4-1",           557,       94.8670,       194.719,            0.,NA,NA,"",   953.966E+03,   953.994E+03,   953.994E+03
C:/temp/Job-4.odb,Step-1,Increment      1: Step Time =    1.000,"P-4-1",           558,       84.8740,       195.025,            0.,NA,NA,"",   947.843E+03,   947.955E+03,   947.955E+03
C:/temp/Job-4.odb,Step-1,Increment      1: Step Time =    1.000,"P-4-1",           559,       75.0047,       195.339,            0.,NA,NA,"",   942.657E+03,   942.810E+03,   942.810E+03
C:/temp/Job-4.odb,Step-1,Increment      1: Step Time =    1.000,"P-4-1",           560,       65.2123,         195.5,            0.,NA,NA,"",   939.607E+03,   939.880E+03,   939.880E+03
C:/temp/Job-4.odb,Step-1,Increment      1: Step Time =    1.000,"P-4-1",           561,       55.4836,       195.447,            0.,NA,NA,"",   940.602E+03,   941.066E+03,   941.066E+03
C:/temp/Job-4.odb,Step-1,Increment      1: Step Time =    1.000,"P-4-1",           562,       45.6215,       194.755,            0.,NA,NA,"",   950.150E+03,   951.161E+03,   951.161E+03
C:/temp/Job-4.odb,Step-1,Increment      1: Step Time =    1.000,"P-4-1",           563,       35.5991,       194.316,            0.,NA,NA,"",   970.243E+03,   972.463E+03,   972.463E+03
C:/temp/Job-4.odb,Step-1,Increment      1: Step Time =    1.000,"P-4-1",           564,       25.1649,       194.430,            0.,NA,NA,"",   1.01006E+06,   1.01414E+06,   1.01414E+06
C:/temp/Job-4.odb,Step-1,Increment      1: Step Time =    1.000,"P-4-1",           565,       4.60458,       175.125,            0.,NA,NA,"",   943.988E+03,   1.03853E+06,   1.03853E+06
C:/temp/Job-4.odb,Step-1,Increment      1: Step Time =    1.000,"P-4-1",           566,       4.50408,       165.371,            0.,NA,NA,"",   900.937E+03,   998.945E+03,   998.945E+03
C:/temp/Job-4.odb,Step-1,Increment      1: Step Time =    1.000,"P-4-1",           567,       5.13751,       155.647,            0.,NA,NA,"",   877.865E+03,   977.006E+03,   977.006E+03
C:/temp/Job-4.odb,Step-1,Increment      1: Step Time =    1.000,"P-4-1",           568,       7.43750,       145.182,            0.,NA,NA,"",   867.778E+03,   965.196E+03,   965.196E+03
C:/temp/Job-4.odb,Step-1,Increment      1: Step Time =    1.000,"P-4-1",           569,       5.30836,       134.425,            0.,NA,NA,"",   848.112E+03,   949.797E+03,   949.797E+03
C:/temp/Job-4.odb,Step-1,Increment      1: Step Time =    1.000,"P-4-1",           570,       4.93388,       124.649,            0.,NA,NA,"",   840.135E+03,   942.718E+03,   942.718E+03
C:/temp/Job-4.odb,Step-1,Increment      1: Step Time =    1.000,"P-4-1",           571,       4.84331,       114.836,            0.,NA,NA,"",   835.417E+03,   938.436E+03,   938.436E+03
C:/temp/Job-4.odb,Step-1,Increment      1: Step Time =    1.000,"P-4-1",           572,       4.80151,       105.010,            0.,NA,NA,"",   833.136E+03,   936.361E+03,   936.361E+03
C:/temp/Job-4.odb,Step-1,Increment      1: Step Time =    1.000,"P-4-1",           573,       4.80335,       95.1396,            0.,NA,NA,"",   833.179E+03,   936.388E+03,   936.388E+03
C:/temp/Job-4.odb,Step-1,Increment      1: Step Time =    1.000,"P-4-1",           574,       4.97660,       85.1087,            0.,NA,NA,"",   835.901E+03,   938.725E+03,   938.725E+03
C:/temp/Job-4.odb,Step-1,Increment      1: Step Time =    1.000,"P-4-1",           575,       5.19787,       74.9659,            0.,NA,NA,"",   841.061E+03,   943.330E+03,   943.330E+03
C:/temp/Job-4.odb,Step-1,Increment      1: Step Time =    1.000,"P-4-1",           576,       5.02297,       64.8901,            0.,NA,NA,"",   848.264E+03,   950.019E+03,   950.019E+03
C:/temp/Job-4.odb,Step-1,Increment      1: Step Time =    1.000,"P-4-1",           577,       4.83919,       55.0248,            0.,NA,NA,"",   858.591E+03,   959.748E+03,   959.748E+03
C:/temp/Job-4.odb,Step-1,Increment      1: Step Time =    1.000,"P-4-1",           578,       194.845,       154.804,            0.,NA,NA,"",   1.00403E+06,   1.00005E+06,   1.00005E+06
C:/temp/Job-4.odb,Step-1,Increment      1: Step Time =    1.000,"P-4-1",           579,       194.450,       164.777,            0.,NA,NA,"",   1.00248E+06,   999.924E+03,   999.924E+03
C:/temp/Job-4.odb,Step-1,Increment      1: Step Time =    1.000,"P-4-1",           580,       194.803,       174.921,            0.,NA,NA,"",   1.00109E+06,   999.806E+03,   999.806E+03
C:/temp/Job-4.odb,Step-1,Increment      1: Step Time =    1.000,"P-4-1",           581,       194.909,       184.941,            0.,NA,NA,"",   1.00017E+06,   999.754E+03,   999.754E+03
C:/temp/Job-4.odb,Step-1,Increment      1: Step Time =    1.000,"P-4-1",           582,       189.993,       5.07327,            0.,NA,NA,"",   999.770E+03,   999.657E+03,   999.657E+03
C:/temp/Job-4.odb,Step-1,Increment      1: Step Time =    1.000,"P-4-1",           583,       179.965,       5.21954,            0.,NA,NA,"",   998.530E+03,   998.392E+03,   998.392E+03
C:/temp/Job-4.odb,Step-1,Increment      1: Step Time =    1.000,"P-4-1",           584,       169.717,       5.57627,            0.,NA,NA,"",   996.095E+03,   995.952E+03,   995.952E+03
C:/temp/Job-4.odb,Step-1,Increment      1: Step Time =    1.000,"P-4-1",           585,       159.411,       5.52046,            0.,NA,NA,"",   992.491E+03,   992.388E+03,   992.388E+03
C:/temp/Job-4.odb,Step-1,Increment      1: Step Time =    1.000,"P-4-1",           586,       149.639,       4.65421,            0.,NA,NA,"",   987.921E+03,   987.859E+03,   987.859E+03
C:/temp/Job-4.odb,Step-1,Increment      1: Step Time =    1.000,"P-4-1",           587,       139.882,       4.38148,            0.,NA,NA,"",   982.514E+03,   982.457E+03,   982.457E+03
C:/temp/Job-4.odb,Step-1,Increment      1: Step Time =    1.000,"P-4-1",           588,       130.118,       4.66001,            0.,NA,NA,"",   976.656E+03,   976.588E+03,   976.588E+03
C:/temp/Job-4.odb,Step-1,Increment      1: Step Time =    1.000,"P-4-1",           589,       120.240,       5.05426,            0.,NA,NA,"",   970.423E+03,   970.368E+03,   970.368E+03
C:/temp/Job-4.odb,Step-1,Increment      1: Step Time =    1.000,"P-4-1",           590,       110.183,       5.12643,            0.,NA,NA,"",   963.730E+03,   963.726E+03,   963.726E+03
C:/temp/Job-4.odb,Step-1,Increment      1: Step Time =    1.000,"P-4-1",           591,       100.109,       4.97505,            0.,NA,NA,"",   956.808E+03,   956.844E+03,   956.844E+03
C:/temp/Job-4.odb,Step-1,Increment      1: Step Time =    1.000,"P-4-1",           592,       90.2450,       4.84988,            0.,NA,NA,"",   950.476E+03,   950.568E+03,   950.568E+03
C:/temp/Job-4.odb,Step-1,Increment      1: Step Time =    1.000,"P-4-1",           593,       80.3362,       4.78917,            0.,NA,NA,"",   945.311E+03,   945.428E+03,   945.428E+03
C:/temp/Job-4.odb,Step-1,Increment      1: Step Time =    1.000,"P-4-1",           594,       70.4729,       4.97559,            0.,NA,NA,"",   942.125E+03,   942.375E+03,   942.375E+03
C:/temp/Job-4.odb,Step-1,Increment      1: Step Time =    1.000,"P-4-1",           595,       60.5842,       5.72990,            0.,NA,NA,"",   943.605E+03,   944.029E+03,   944.029E+03
C:/temp/Job-4.odb,Step-1,Increment      1: Step Time =    1.000,"P-4-1",           596,       49.2986,       5.39175,            0.,NA,NA,"",   947.634E+03,   948.407E+03,   948.407E+03
C:/temp/Job-4.odb,Step-1,Increment      1: Step Time =    1.000,"P-4-1",           597,       39.4749,       4.74291,            0.,NA,NA,"",   957.143E+03,   958.376E+03,   958.376E+03
C:/temp/Job-4.odb,Step-1,Increment      1: Step Time =    1.000,"P-4-1",           598,       29.7958,       4.75625,            0.,NA,NA,"",   983.597E+03,    985.88E+03,    985.88E+03
C:/temp/Job-4.odb,Step-1,Increment      1: Step Time =    1.000,"P-4-1",           599,       19.9362,       4.85289,            0.,NA,NA,"",   1.04210E+06,   1.04718E+06,   1.04718E+06
C:/temp/Job-4.odb,Step-1,Increment      1: Step Time =    1.000,"P-4-1",           600,       10.0363,       4.99438,            0.,NA,NA,"",   1.18242E+06,   1.19593E+06,   1.19593E+06
C:/temp/Job-4.odb,Step-1,Increment      1: Step Time =    1.000,"P-4-1",           601,       194.942,       189.963,            0.,NA,NA,"",   999.949E+03,   999.776E+03,   999.776E+03
C:/temp/Job-4.odb,Step-1,Increment      1: Step Time =    1.000,"P-4-1",           602,       194.870,       179.932,            0.,NA,NA,"",   1.00057E+06,   999.776E+03,   999.776E+03
C:/temp/Job-4.odb,Step-1,Increment      1: Step Time =    1.000,"P-4-1",           603,       194.662,       169.872,            0.,NA,NA,"",   1.00173E+06,   999.853E+03,   999.853E+03
C:/temp/Job-4.odb,Step-1,Increment      1: Step Time =    1.000,"P-4-1",           604,       194.377,       159.743,            0.,NA,NA,"",   1.00324E+06,   999.993E+03,   999.993E+03
C:/temp/Job-4.odb,Step-1,Increment      1: Step Time =    1.000,"P-4-1",           605,       195.132,       149.840,            0.,NA,NA,"",   1.00479E+06,   1.00009E+06,   1.00009E+06
C:/temp/Job-4.odb,Step-1,Increment      1: Step Time =    1.000,"P-4-1",           606,       195.077,       140.126,            0.,NA,NA,"",   1.00604E+06,   1.00010E+06,   1.00010E+06
C:/temp/Job-4.odb,Step-1,Increment      1: Step Time =    1.000,"P-4-1",           607,       194.774,       130.160,            0.,NA,NA,"",   1.00706E+06,   1.00014E+06,   1.00014E+06
C:/temp/Job-4.odb,Step-1,Increment      1: Step Time =    1.000,"P-4-1",           608,       194.677,       120.107,            0.,NA,NA,"",   1.00773E+06,   1.00013E+06,   1.00013E+06
C:/temp/Job-4.odb,Step-1,Increment      1: Step Time =    1.000,"P-4-1",           609,       194.810,       109.974,            0.,NA,NA,"",   1.00812E+06,   1.00011E+06,   1.00011E+06
C:/temp/Job-4.odb,Step-1,Increment      1: Step Time =    1.000,"P-4-1",           610,       194.909,       99.9695,            0.,NA,NA,"",   1.00825E+06,   1.00009E+06,   1.00009E+06
C:/temp/Job-4.odb,Step-1,Increment      1: Step Time =    1.000,"P-4-1",           611,       195.122,       90.1142,            0.,NA,NA,"",   1.00816E+06,   1.00009E+06,   1.00009E+06
C:/temp/Job-4.odb,Step-1,Increment      1: Step Time =    1.000,"P-4-1",           612,       195.303,       80.2406,            0.,NA,NA,"",   1.00782E+06,   1.00011E+06,   1.00011E+06
C:/temp/Job-4.odb,Step-1,Increment      1: Step Time =    1.000,"P-4-1",           613,       195.095,       70.4286,            0.,NA,NA,"",   1.00713E+06,   1.00013E+06,   1.00013E+06
C:/temp/Job-4.odb,Step-1,Increment      1: Step Time =    1.000,"P-4-1",           614,       194.253,       60.6006,            0.,NA,NA,"",   1.00615E+06,   1.00021E+06,   1.00021E+06
C:/temp/Job-4.odb,Step-1,Increment      1: Step Time =    1.000,"P-4-1",           615,       194.210,       49.2119,            0.,NA,NA,"",   1.00453E+06,   1.00001E+06,   1.00001E+06
C:/temp/Job-4.odb,Step-1,Increment      1: Step Time =    1.000,"P-4-1",           616,       195.050,       39.3500,            0.,NA,NA,"",   1.00310E+06,   999.970E+03,   999.970E+03
C:/temp/Job-4.odb,Step-1,Increment      1: Step Time =    1.000,"P-4-1",           617,       195.305,       29.6880,            0.,NA,NA,"",   1.00170E+06,   999.893E+03,   999.893E+03
C:/temp/Job-4.odb,Step-1,Increment      1: Step Time =    1.000,"P-4-1",           618,       195.165,       19.9605,            0.,NA,NA,"",   1.00057E+06,   999.805E+03,   999.805E+03
C:/temp/Job-4.odb,Step-1,Increment      1: Step Time =    1.000,"P-4-1",           619,       195.027,       10.0377,            0.,NA,NA,"",   999.953E+03,   999.784E+03,   999.784E+03
C:/temp/Job-4.odb,Step-1,Increment      1: Step Time =    1.000,"P-4-1",           620,       10.0103,       194.897,            0.,NA,NA,"",   1.18314E+06,   1.19725E+06,   1.19725E+06
C:/temp/Job-4.odb,Step-1,Increment      1: Step Time =    1.000,"P-4-1",           621,       20.0438,       194.658,            0.,NA,NA,"",   1.04452E+06,   1.05019E+06,   1.05019E+06
C:/temp/Job-4.odb,Step-1,Increment      1: Step Time =    1.000,"P-4-1",           622,       30.3329,       194.209,            0.,NA,NA,"",   987.349E+03,   990.267E+03,   990.267E+03
C:/temp/Job-4.odb,Step-1,Increment      1: Step Time =    1.000,"P-4-1",           623,       40.7115,       194.305,            0.,NA,NA,"",   958.357E+03,   960.046E+03,   960.046E+03
C:/temp/Job-4.odb,Step-1,Increment      1: Step Time =    1.000,"P-4-1",           624,       50.5913,       195.202,            0.,NA,NA,"",   943.908E+03,   944.574E+03,   944.574E+03
C:/temp/Job-4.odb,Step-1,Increment      1: Step Time =    1.000,"P-4-1",           625,       60.3403,       195.519,            0.,NA,NA,"",   939.461E+03,   939.776E+03,   939.776E+03
C:/temp/Job-4.odb,Step-1,Increment      1: Step Time =    1.000,"P-4-1",           626,       70.1022,       195.439,            0.,NA,NA,"",   940.803E+03,   941.008E+03,   941.008E+03
C:/temp/Job-4.odb,Step-1,Increment      1: Step Time =    1.000,"P-4-1",           627,       79.9234,       195.207,            0.,NA,NA,"",   945.059E+03,   945.174E+03,   945.174E+03
C:/temp/Job-4.odb,Step-1,Increment      1: Step Time =    1.000,"P-4-1",           628,       89.8724,       194.832,            0.,NA,NA,"",   950.881E+03,   950.973E+03,   950.973E+03
C:/temp/Job-4.odb,Step-1,Increment      1: Step Time =    1.000,"P-4-1",           629,       99.8549,       194.796,            0.,NA,NA,"",   957.007E+03,   957.037E+03,   957.037E+03
C:/temp/Job-4.odb,Step-1,Increment      1: Step Time =    1.000,"P-4-1",           630,       109.821,       195.118,            0.,NA,NA,"",   963.264E+03,   963.238E+03,   963.238E+03
C:/temp/Job-4.odb,Step-1,Increment      1: Step Time =    1.000,"P-4-1",           631,       119.687,       195.266,            0.,NA,NA,"",   969.795E+03,   969.768E+03,   969.768E+03
C:/temp/Job-4.odb,Step-1,Increment      1: Step Time =    1.000,"P-4-1",           632,       129.524,       195.088,            0.,NA,NA,"",   976.408E+03,   976.367E+03,   976.367E+03
C:/temp/Job-4.odb,Step-1,Increment      1: Step Time =    1.000,"P-4-1",           633,       139.394,       194.259,            0.,NA,NA,"",   982.724E+03,   982.692E+03,   982.692E+03
C:/temp/Job-4.odb,Step-1,Increment      1: Step Time =    1.000,"P-4-1",           634,       150.763,       194.166,            0.,NA,NA,"",   988.747E+03,   988.568E+03,   988.568E+03
C:/temp/Job-4.odb,Step-1,Increment      1: Step Time =    1.000,"P-4-1",           635,       160.633,       195.028,            0.,NA,NA,"",   992.917E+03,   992.813E+03,   992.813E+03
C:/temp/Job-4.odb,Step-1,Increment      1: Step Time =    1.000,"P-4-1",           636,       170.302,       195.267,            0.,NA,NA,"",   996.219E+03,   996.122E+03,   996.122E+03
C:/temp/Job-4.odb,Step-1,Increment      1: Step Time =    1.000,"P-4-1",           637,       180.031,       195.110,            0.,NA,NA,"",   998.545E+03,   998.430E+03,   998.430E+03
C:/temp/Job-4.odb,Step-1,Increment      1: Step Time =    1.000,"P-4-1",           638,       189.964,       194.993,            0.,NA,NA,"",   999.766E+03,   999.655E+03,   999.655E+03
C:/temp/Job-4.odb,Step-1,Increment      1: Step Time =    1.000,"P-4-1",           639,       5.10061,       20.0252,            0.,NA,NA,"",   983.286E+03,   1.07321E+06,   1.07321E+06
C:/temp/Job-4.odb,Step-1,Increment      1: Step Time =    1.000,"P-4-1",           640,       5.21745,       30.0408,            0.,NA,NA,"",   922.515E+03,   1.01735E+06,   1.01735E+06
C:/temp/Job-4.odb,Step-1,Increment      1: Step Time =    1.000,"P-4-1",           641,       5.55462,       40.2099,            0.,NA,NA,"",   889.068E+03,   986.477E+03,   986.477E+03
C:/temp/Job-4.odb,Step-1,Increment      1: Step Time =    1.000,"P-4-1",           642,       4.86815,       50.1520,            0.,NA,NA,"",   866.022E+03,   966.422E+03,   966.422E+03
C:/temp/Job-4.odb,Step-1,Increment      1: Step Time =    1.000,"P-4-1",           643,       4.91664,       59.9165,            0.,NA,NA,"",   852.968E+03,   954.480E+03,   954.480E+03
C:/temp/Job-4.odb,Step-1,Increment      1: Step Time =    1.000,"P-4-1",           644,       5.14341,       69.9298,            0.,NA,NA,"",   844.381E+03,   946.377E+03,   946.377E+03
C:/temp/Job-4.odb,Step-1,Increment      1: Step Time =    1.000,"P-4-1",           645,       5.11290,       80.0196,            0.,NA,NA,"",   838.285E+03,   940.824E+03,   940.824E+03
C:/temp/Job-4.odb,Step-1,Increment      1: Step Time =    1.000,"P-4-1",           646,       4.85653,       90.1492,            0.,NA,NA,"",   834.180E+03,   937.247E+03,   937.247E+03
C:/temp/Job-4.odb,Step-1,Increment      1: Step Time =    1.000,"P-4-1",           647,       4.77806,       100.084,            0.,NA,NA,"",   832.853E+03,   936.105E+03,   936.105E+03
C:/temp/Job-4.odb,Step-1,Increment      1: Step Time =    1.000,"P-4-1",           648,       4.81116,       109.926,            0.,NA,NA,"",   833.990E+03,   937.137E+03,   937.137E+03
C:/temp/Job-4.odb,Step-1,Increment      1: Step Time =    1.000,"P-4-1",           649,       4.86698,       119.748,            0.,NA,NA,"",   837.439E+03,   940.274E+03,   940.274E+03
C:/temp/Job-4.odb,Step-1,Increment      1: Step Time =    1.000,"P-4-1",           650,       5.06098,       129.546,            0.,NA,NA,"",   843.625E+03,   945.873E+03,   945.873E+03
C:/temp/Job-4.odb,Step-1,Increment      1: Step Time =    1.000,"P-4-1",           651,       5.90345,       139.445,            0.,NA,NA,"",   855.061E+03,   955.429E+03,   955.429E+03
C:/temp/Job-4.odb,Step-1,Increment      1: Step Time =    1.000,"P-4-1",           652,       5.95449,       150.718,            0.,NA,NA,"",   871.462E+03,   970.188E+03,   970.188E+03
C:/temp/Job-4.odb,Step-1,Increment      1: Step Time =    1.000,"P-4-1",           653,       4.69534,       160.495,            0.,NA,NA,"",   887.828E+03,   986.652E+03,   986.652E+03
C:/temp/Job-4.odb,Step-1,Increment      1: Step Time =    1.000,"P-4-1",           654,       4.48801,       170.263,            0.,NA,NA,"",   919.896E+03,   1.01645E+06,   1.01645E+06
C:/temp/Job-4.odb,Step-1,Increment      1: Step Time =    1.000,"P-4-1",           655,       4.74582,       180.023,            0.,NA,NA,"",   980.961E+03,   1.07211E+06,   1.07211E+06
C:/temp/Job-4.odb,Step-1,Increment      1: Step Time =    1.000,"P-4-1",           656,       4.96497,       189.947,            0.,NA,NA,"",   1.12668E+06,   1.20232E+06,   1.20232E+06
C:/temp/Job-4.odb,Step-1,Increment      1: Step Time =    1.000,"P-4-1",           657,       93.5485,       108.896,            0.,NA,NA,"",   1.13845E+06,   1.13131E+06,   1.13131E+06
C:/temp/Job-4.odb,Step-1,Increment      1: Step Time =    1.000,"P-4-1",           658,       106.161,       110.103,            0.,NA,NA,"",   1.11636E+06,   1.11395E+06,   1.11395E+06
C:/temp/Job-4.odb,Step-1,Increment      1: Step Time =    1.000,"P-4-1",           659,       90.7475,       106.197,            0.,NA,NA,"",   1.04253E+06,   1.01587E+06,   1.01587E+06
C:/temp/Job-4.odb,Step-1,Increment      1: Step Time =    1.000,"P-4-1",           660,       109.169,       107.265,            0.,NA,NA,"",   1.06764E+06,   1.03367E+06,   1.03367E+06
C:/temp/Job-4.odb,Step-1,Increment      1: Step Time =    1.000,"P-4-1",           661,       90.7522,       93.2710,            0.,NA,NA,"",   1.04618E+06,   1.02215E+06,   1.02215E+06
C:/temp/Job-4.odb,Step-1,Increment      1: Step Time =    1.000,"P-4-1",           662,       110.249,       93.6321,            0.,NA,NA,"",   1.03476E+06,   1.00523E+06,   1.00523E+06
C:/temp/Job-4.odb,Step-1,Increment      1: Step Time =    1.000,"P-4-1",           663,       93.5943,       90.0133,            0.,NA,NA,"",   1.11652E+06,   1.11644E+06,   1.11644E+06
C:/temp/Job-4.odb,Step-1,Increment      1: Step Time =    1.000,"P-4-1",           664,       106.929,       90.8452,            0.,NA,NA,"",   1.13274E+06,   1.11977E+06,   1.11977E+06
C:/temp/Job-4.odb,Step-1,Increment      1: Step Time =    1.000,"P-4-1",           665,       102.186,       89.5873,            0.,NA,NA,"",   1.02900E+06,   1.06935E+06,   1.06935E+06
C:/temp/Job-4.odb,Step-1,Increment      1: Step Time =    1.000,"P-4-1",           666,       98.7680,       89.8828,            0.,NA,NA,"",   1.00654E+06,   1.05718E+06,   1.05718E+06
C:/temp/Job-4.odb,Step-1,Increment      1: Step Time =    1.000,"P-4-1",           667,       110.161,       98.9738,            0.,NA,NA,"",   835.714E+03,   856.453E+03,   856.453E+03
C:/temp/Job-4.odb,Step-1,Increment      1: Step Time =    1.000,"P-4-1",           668,       89.8973,       98.0948,            0.,NA,NA,"",   857.954E+03,   877.198E+03,   877.198E+03
C:/temp/Job-4.odb,Step-1,Increment      1: Step Time =    1.000,"P-4-1",           669,       110.346,       102.428,            0.,NA,NA,"",   885.741E+03,   893.981E+03,   893.981E+03
C:/temp/Job-4.odb,Step-1,Increment      1: Step Time =    1.000,"P-4-1",           670,       90.4179,       101.310,            0.,NA,NA,"",   822.797E+03,   848.367E+03,   848.367E+03
C:/temp/Job-4.odb,Step-1,Increment      1: Step Time =    1.000,"P-4-1",           671,       101.144,       109.891,            0.,NA,NA,"",   1.00450E+06,   1.05650E+06,   1.05650E+06
C:/temp/Job-4.odb,Step-1,Increment      1: Step Time =    1.000,"P-4-1",           672,       97.9327,       110.009,            0.,NA,NA,"",   1.02999E+06,   1.07468E+06,   1.07468E+06
C:/temp/Job-4.odb,Step-1,Increment      1: Step Time =    1.000,"P-4-1",           673,       139.830,       8.80621,            0.,NA,NA,"",   984.529E+03,   984.354E+03,   984.354E+03
C:/temp/Job-4.odb,Step-1,Increment      1: Step Time =    1.000,"P-4-1",           674,       130.420,       9.42480,            0.,NA,NA,"",   980.098E+03,   979.940E+03,   979.940E+03
C:/temp/Job-4.odb,Step-1,Increment      1: Step Time =    1.000,"P-4-1",           675,       120.634,       10.2068,            0.,NA,NA,"",   975.625E+03,   975.496E+03,   975.496E+03
C:/temp/Job-4.odb,Step-1,Increment      1: Step Time =    1.000,"P-4-1",           676,       110.304,       10.2092,            0.,NA,NA,"",   970.276E+03,   970.262E+03,   970.262E+03
C:/temp/Job-4.odb,Step-1,Increment      1: Step Time =    1.000,"P-4-1",           677,       100.193,       9.96988,            0.,NA,NA,"",   964.778E+03,   964.897E+03,   964.897E+03
C:/temp/Job-4.odb,Step-1,Increment      1: Step Time =    1.000,"P-4-1",           678,       80.7223,       9.55997,            0.,NA,NA,"",   956.667E+03,   957.035E+03,   957.035E+03
C:/temp/Job-4.odb,Step-1,Increment      1: Step Time =    1.000,"P-4-1",           679,       71.0810,       9.93400,            0.,NA,NA,"",   956.264E+03,   956.964E+03,   956.964E+03
C:/temp/Job-4.odb,Step-1,Increment      1: Step Time =    1.000,"P-4-1",           680,       62.0434,       10.7920,            0.,NA,NA,"",   960.782E+03,    962.13E+03,    962.13E+03
C:/temp/Job-4.odb,Step-1,Increment      1: Step Time =    1.000,"P-4-1",           681,       190.082,       140.387,            0.,NA,NA,"",   1.00567E+06,   1.00029E+06,   1.00029E+06
C:/temp/Job-4.odb,Step-1,Increment      1: Step Time =    1.000,"P-4-1",           682,       189.513,       130.450,            0.,NA,NA,"",   1.00659E+06,   1.00041E+06,   1.00041E+06
C:/temp/Job-4.odb,Step-1,Increment      1: Step Time =    1.000,"P-4-1",           683,       189.346,       120.126,            0.,NA,NA,"",   1.00714E+06,   1.00039E+06,   1.00039E+06
C:/temp/Job-4.odb,Step-1,Increment      1: Step Time =    1.000,"P-4-1",           684,       189.670,       109.885,            0.,NA,NA,"",   1.00745E+06,   1.00031E+06,   1.00031E+06
C:/temp/Job-4.odb,Step-1,Increment      1: Step Time =    1.000,"P-4-1",           685,       190.194,       90.1095,            0.,NA,NA,"",   1.00750E+06,   1.00028E+06,   1.00028E+06
C:/temp/Job-4.odb,Step-1,Increment      1: Step Time =    1.000,"P-4-1",           686,       190.668,       80.4580,            0.,NA,NA,"",   1.00726E+06,    1.0003E+06,    1.0003E+06
C:/temp/Job-4.odb,Step-1,Increment      1: Step Time =    1.000,"P-4-1",           687,       190.211,       71.0279,            0.,NA,NA,"",   1.00671E+06,   1.00035E+06,   1.00035E+06
C:/temp/Job-4.odb,Step-1,Increment      1: Step Time =    1.000,"P-4-1",           688,       189.299,       62.0909,            0.,NA,NA,"",   1.00594E+06,   1.00043E+06,   1.00043E+06
C:/temp/Job-4.odb,Step-1,Increment      1: Step Time =    1.000,"P-4-1",           689,       60.7139,       190.953,            0.,NA,NA,"",   955.176E+03,   956.144E+03,   956.144E+03
C:/temp/Job-4.odb,Step-1,Increment      1: Step Time =    1.000,"P-4-1",           690,       70.1672,       190.795,            0.,NA,NA,"",   954.397E+03,   955.035E+03,   955.035E+03
C:/temp/Job-4.odb,Step-1,Increment      1: Step Time =    1.000,"P-4-1",           691,       79.7315,       190.394,            0.,NA,NA,"",   956.707E+03,   957.087E+03,   957.087E+03
C:/temp/Job-4.odb,Step-1,Increment      1: Step Time =    1.000,"P-4-1",           692,       89.6044,       189.602,            0.,NA,NA,"",   961.260E+03,   961.542E+03,   961.542E+03
C:/temp/Job-4.odb,Step-1,Increment      1: Step Time =    1.000,"P-4-1",           693,       99.8750,       189.506,            0.,NA,NA,"",   965.644E+03,   965.740E+03,   965.740E+03
C:/temp/Job-4.odb,Step-1,Increment      1: Step Time =    1.000,"P-4-1",           694,       109.782,       190.253,            0.,NA,NA,"",   969.384E+03,   969.373E+03,   969.373E+03
C:/temp/Job-4.odb,Step-1,Increment      1: Step Time =    1.000,"P-4-1",           695,       119.382,       190.544,            0.,NA,NA,"",   974.171E+03,   974.107E+03,   974.107E+03
C:/temp/Job-4.odb,Step-1,Increment      1: Step Time =    1.000,"P-4-1",           696,       9.90062,       59.7555,            0.,NA,NA,"",   869.042E+03,   964.487E+03,   964.487E+03
C:/temp/Job-4.odb,Step-1,Increment      1: Step Time =    1.000,"P-4-1",           697,       10.3216,       69.8342,            0.,NA,NA,"",   859.889E+03,   956.189E+03,   956.189E+03
C:/temp/Job-4.odb,Step-1,Increment      1: Step Time =    1.000,"P-4-1",           698,       10.1782,       80.2147,            0.,NA,NA,"",   852.341E+03,   949.811E+03,   949.811E+03
C:/temp/Job-4.odb,Step-1,Increment      1: Step Time =    1.000,"P-4-1",           699,       9.58800,       90.4158,            0.,NA,NA,"",   846.698E+03,   945.381E+03,   945.381E+03
C:/temp/Job-4.odb,Step-1,Increment      1: Step Time =    1.000,"P-4-1",           700,       9.51413,       100.190,            0.,NA,NA,"",   845.294E+03,   944.227E+03,   944.227E+03
C:/temp/Job-4.odb,Step-1,Increment      1: Step Time =    1.000,"P-4-1",           701,       9.63540,       109.839,            0.,NA,NA,"",   846.786E+03,   945.455E+03,   945.455E+03
C:/temp/Job-4.odb,Step-1,Increment      1: Step Time =    1.000,"P-4-1",           702,       9.76949,       119.451,            0.,NA,NA,"",   850.786E+03,   948.855E+03,   948.855E+03
C:/temp/Job-4.odb,Step-1,Increment      1: Step Time =    1.000,"P-4-1",           703,       10.1171,       128.965,            0.,NA,NA,"",   858.095E+03,   954.926E+03,   954.926E+03
C:/temp/Job-4.odb,Step-1,Increment      1: Step Time =    1.000,"P-4-1",           704,       10.8397,       137.982,            0.,NA,NA,"",   870.147E+03,   964.380E+03,   964.380E+03
C:/temp/Job-4.odb,Step-1,Increment      1: Step Time =    1.000,"P-4-1",           705,       90.4733,       9.74194,            0.,NA,NA,"",   960.102E+03,   960.376E+03,   960.376E+03
C:/temp/Job-4.odb,Step-1,Increment      1: Step Time =    1.000,"P-4-1",           706,       189.730,       99.8648,            0.,NA,NA,"",   1.00754E+06,   1.00028E+06,   1.00028E+06
C:/temp/Job-4.odb,Step-1,Increment      1: Step Time =    1.000,"P-4-1",           707,       128.908,       190.210,            0.,NA,NA,"",   979.586E+03,   979.442E+03,   979.442E+03
C:/temp/Job-4.odb,Step-1,Increment      1: Step Time =    1.000,"P-4-1",           708,       137.904,       189.361,            0.,NA,NA,"",   984.720E+03,   984.500E+03,   984.500E+03
C:/temp/Job-4.odb,Step-1,Increment      1: Step Time =    1.000,"P-4-1",           709,       100.121,       86.7122,            0.,NA,NA,"",   1.01134E+06,   1.04637E+06,   1.04637E+06
C:/temp/Job-4.odb,Step-1,Increment      1: Step Time =    1.000,"P-4-1",           710,       113.129,       100.466,            0.,NA,NA,"",   902.494E+03,   914.804E+03,   914.804E+03
C:/temp/Job-4.odb,Step-1,Increment      1: Step Time =    1.000,"P-4-1",           711,       87.4599,       100.232,            0.,NA,NA,"",   881.925E+03,   906.038E+03,   906.038E+03
C:/temp/Job-4.odb,Step-1,Increment      1: Step Time =    1.000,"P-4-1",           712,       99.8182,       112.762,            0.,NA,NA,"",   1.01169E+06,   1.04883E+06,   1.04883E+06
C:/temp/Job-4.odb,Step-1,Increment      1: Step Time =    1.000,"P-4-1",           713,       96.0045,       111.308,            0.,NA,NA,"",   1.04366E+06,   1.07217E+06,   1.07217E+06
C:/temp/Job-4.odb,Step-1,Increment      1: Step Time =    1.000,"P-4-1",           714,       111.770,       104.599,            0.,NA,NA,"",   952.455E+03,   951.244E+03,   951.244E+03
C:/temp/Job-4.odb,Step-1,Increment      1: Step Time =    1.000,"P-4-1",           715,       103.118,       113.243,            0.,NA,NA,"",   1.03004E+06,   1.05475E+06,   1.05475E+06
C:/temp/Job-4.odb,Step-1,Increment      1: Step Time =    1.000,"P-4-1",           716,       104.309,       88.1069,            0.,NA,NA,"",   1.04386E+06,   1.06686E+06,   1.06686E+06
C:/temp/Job-4.odb,Step-1,Increment      1: Step Time =    1.000,"P-4-1",           717,       88.3491,       96.1460,            0.,NA,NA,"",   927.933E+03,   938.387E+03,   938.387E+03
C:/temp/Job-4.odb,Step-1,Increment      1: Step Time =    1.000,"P-4-1",           718,       87.5273,       103.538,            0.,NA,NA,"",   929.673E+03,   944.287E+03,   944.287E+03
C:/temp/Job-4.odb,Step-1,Increment      1: Step Time =    1.000,"P-4-1",           719,       113.806,       96.7832,            0.,NA,NA,"",   938.369E+03,   944.538E+03,   944.538E+03
C:/temp/Job-4.odb,Step-1,Increment      1: Step Time =    1.000,"P-4-1",           720,       96.5992,       86.3051,            0.,NA,NA,"",   1.02705E+06,   1.05277E+06,   1.05277E+06
C:/temp/Job-4.odb,Step-1,Increment      1: Step Time =    1.000,"P-4-1",           721,       90.6878,       109.143,            0.,NA,NA,"",   1.09798E+06,   1.08035E+06,   1.08035E+06
C:/temp/Job-4.odb,Step-1,Increment      1: Step Time =    1.000,"P-4-1",           722,       109.365,       110.506,            0.,NA,NA,"",   1.09613E+06,   1.07643E+06,   1.07643E+06
C:/temp/Job-4.odb,Step-1,Increment      1: Step Time =    1.000,"P-4-1",           723,       110.031,       90.6300,            0.,NA,NA,"",   1.09567E+06,   1.07121E+06,   1.07121E+06
C:/temp/Job-4.odb,Step-1,Increment      1: Step Time =    1.000,"P-4-1",           724,       90.4049,       89.9849,            0.,NA,NA,"",   1.08733E+06,   1.07474E+06,   1.07474E+06
C:/temp/Job-4.odb,Step-1,Increment      1: Step Time =    1.000,"P-4-1",           725,       14.9412,       59.5444,            0.,NA,NA,"",   885.788E+03,   974.231E+03,   974.231E+03
C:/temp/Job-4.odb,Step-1,Increment      1: Step Time =    1.000,"P-4-1",           726,       185.030,       140.785,            0.,NA,NA,"",   1.00556E+06,   1.00063E+06,   1.00063E+06
C:/temp/Job-4.odb,Step-1,Increment      1: Step Time =    1.000,"P-4-1",           727,       60.4917,       17.0895,            0.,NA,NA,"",   977.009E+03,   980.184E+03,   980.184E+03
C:/temp/Job-4.odb,Step-1,Increment      1: Step Time =    1.000,"P-4-1",           728,       139.390,       183.364,            0.,NA,NA,"",   988.417E+03,   987.918E+03,   987.918E+03
C:/temp/Job-4.odb,Step-1,Increment      1: Step Time =    1.000,"P-4-1",           729,       139.952,       13.2436,            0.,NA,NA,"",   986.918E+03,   986.563E+03,   986.563E+03
C:/temp/Job-4.odb,Step-1,Increment      1: Step Time =    1.000,"P-4-1",           730,       183.229,       60.5753,            0.,NA,NA,"",   1.00574E+06,   1.00080E+06,   1.00080E+06
C:/temp/Job-4.odb,Step-1,Increment      1: Step Time =    1.000,"P-4-1",           731,       16.7895,       139.540,            0.,NA,NA,"",   889.901E+03,   975.980E+03,   975.980E+03
C:/temp/Job-4.odb,Step-1,Increment      1: Step Time =    1.000,"P-4-1",           732,       61.0651,       186.273,            0.,NA,NA,"",   969.039E+03,   971.106E+03,   971.106E+03
C:/temp/Job-4.odb,Step-1,Increment      1: Step Time =    1.000,"P-4-1",           733,       87.6722,       106.463,            0.,NA,NA,"",   988.471E+03,   992.327E+03,   992.327E+03
C:/temp/Job-4.odb,Step-1,Increment      1: Step Time =    1.000,"P-4-1",           734,       106.206,       113.533,            0.,NA,NA,"",   1.04412E+06,   1.05536E+06,   1.05536E+06
C:/temp/Job-4.odb,Step-1,Increment      1: Step Time =    1.000,"P-4-1",           735,       114.640,       93.0757,            0.,NA,NA,"",   994.089E+03,   990.562E+03,   990.562E+03
C:/temp/Job-4.odb,Step-1,Increment      1: Step Time =    1.000,"P-4-1",           736,       93.3664,       86.2170,            0.,NA,NA,"",   1.04110E+06,   1.05592E+06,   1.05592E+06
C:/temp/Job-4.odb,Step-1,Increment      1: Step Time =    1.000,"P-4-1",           737,       93.4913,       111.788,            0.,NA,NA,"",   1.05430E+06,   1.06672E+06,   1.06672E+06
C:/temp/Job-4.odb,Step-1,Increment      1: Step Time =    1.000,"P-4-1",           738,       112.337,       107.495,            0.,NA,NA,"",   1.01198E+06,   1.00387E+06,   1.00387E+06
C:/temp/Job-4.odb,Step-1,Increment      1: Step Time =    1.000,"P-4-1",           739,       107.104,       87.5994,            0.,NA,NA,"",   1.05550E+06,   1.06084E+06,   1.06084E+06
C:/temp/Job-4.odb,Step-1,Increment      1: Step Time =    1.000,"P-4-1",           740,       87.6185,       93.3857,            0.,NA,NA,"",   986.834E+03,   992.440E+03,   992.440E+03
C:/temp/Job-4.odb,Step-1,Increment      1: Step Time =    1.000,"P-4-1",           741,       114.514,       103.863,            0.,NA,NA,"",   960.258E+03,   961.147E+03,   961.147E+03
C:/temp/Job-4.odb,Step-1,Increment      1: Step Time =    1.000,"P-4-1",           742,       84.4701,       103.921,            0.,NA,NA,"",   947.976E+03,   964.953E+03,   964.953E+03
C:/temp/Job-4.odb,Step-1,Increment      1: Step Time =    1.000,"P-4-1",           743,       96.7690,       114.035,            0.,NA,NA,"",   1.03314E+06,   1.05696E+06,   1.05696E+06
C:/temp/Job-4.odb,Step-1,Increment      1: Step Time =    1.000,"P-4-1",           744,       103.091,       116.697,            0.,NA,NA,"",   1.01965E+06,   1.04013E+06,   1.04013E+06
C:/temp/Job-4.odb,Step-1,Increment      1: Step Time =    1.000,"P-4-1",           745,       103.457,       85.1574,            0.,NA,NA,"",   1.03303E+06,   1.05224E+06,   1.05224E+06
C:/temp/Job-4.odb,Step-1,Increment      1: Step Time =    1.000,"P-4-1",           746,       85.6538,       97.2229,            0.,NA,NA,"",   933.296E+03,   950.357E+03,   950.357E+03
C:/temp/Job-4.odb,Step-1,Increment      1: Step Time =    1.000,"P-4-1",           747,       117.097,       97.2794,            0.,NA,NA,"",   957.281E+03,   962.590E+03,   962.590E+03
C:/temp/Job-4.odb,Step-1,Increment      1: Step Time =    1.000,"P-4-1",           748,       65.6092,       186.214,            0.,NA,NA,"",   967.273E+03,   968.998E+03,   968.998E+03
C:/temp/Job-4.odb,Step-1,Increment      1: Step Time =    1.000,"P-4-1",           749,       16.0000,       133.165,            0.,NA,NA,"",   880.624E+03,   969.175E+03,   969.175E+03
C:/temp/Job-4.odb,Step-1,Increment      1: Step Time =    1.000,"P-4-1",           750,       135.554,       13.6629,            0.,NA,NA,"",   985.430E+03,   985.089E+03,   985.089E+03
C:/temp/Job-4.odb,Step-1,Increment      1: Step Time =    1.000,"P-4-1",           751,       184.117,       67.0475,            0.,NA,NA,"",   1.00626E+06,   1.00083E+06,   1.00083E+06
C:/temp/Job-4.odb,Step-1,Increment      1: Step Time =    1.000,"P-4-1",           752,       133.012,       184.369,            0.,NA,NA,"",   985.736E+03,   985.346E+03,   985.346E+03
C:/temp/Job-4.odb,Step-1,Increment      1: Step Time =    1.000,"P-4-1",           753,       184.928,       135.995,            0.,NA,NA,"",   1.00601E+06,   1.00071E+06,   1.00071E+06
C:/temp/Job-4.odb,Step-1,Increment      1: Step Time =    1.000,"P-4-1",           754,       14.9923,       64.4889,            0.,NA,NA,"",   879.634E+03,   969.198E+03,   969.198E+03
C:/temp/Job-4.odb,Step-1,Increment      1: Step Time =    1.000,"P-4-1",           755,       67.2104,       16.3028,            0.,NA,NA,"",   972.697E+03,   974.833E+03,   974.833E+03
C:/temp/Job-4.odb,Step-1,Increment      1: Step Time =    1.000,"P-4-1",           756,       70.2134,       186.070,            0.,NA,NA,"",   966.597E+03,   967.968E+03,   967.968E+03
C:/temp/Job-4.odb,Step-1,Increment      1: Step Time =    1.000,"P-4-1",           757,       15.1563,       128.299,            0.,NA,NA,"",   872.614E+03,   963.507E+03,   963.507E+03
C:/temp/Job-4.odb,Step-1,Increment      1: Step Time =    1.000,"P-4-1",           758,       130.983,       14.3130,            0.,NA,NA,"",   983.941E+03,   983.628E+03,   983.628E+03
C:/temp/Job-4.odb,Step-1,Increment      1: Step Time =    1.000,"P-4-1",           759,       185.437,       71.8317,            0.,NA,NA,"",   1.00652E+06,   1.00066E+06,   1.00066E+06
C:/temp/Job-4.odb,Step-1,Increment      1: Step Time =    1.000,"P-4-1",           760,       128.182,       185.466,            0.,NA,NA,"",   982.883E+03,   982.600E+03,   982.600E+03
C:/temp/Job-4.odb,Step-1,Increment      1: Step Time =    1.000,"P-4-1",           761,       15.4065,       69.5724,            0.,NA,NA,"",   875.550E+03,   965.603E+03,   965.603E+03
C:/temp/Job-4.odb,Step-1,Increment      1: Step Time =    1.000,"P-4-1",           762,       184.416,       131.069,            0.,NA,NA,"",   1.00638E+06,   1.00081E+06,   1.00081E+06
C:/temp/Job-4.odb,Step-1,Increment      1: Step Time =    1.000,"P-4-1",           763,       71.7559,       14.6144,            0.,NA,NA,"",   968.064E+03,   969.197E+03,   969.197E+03
C:/temp/Job-4.odb,Step-1,Increment      1: Step Time =    1.000,"P-4-1",           764,       79.4524,       185.551,            0.,NA,NA,"",   967.237E+03,   968.126E+03,   968.126E+03
C:/temp/Job-4.odb,Step-1,Increment      1: Step Time =    1.000,"P-4-1",           765,       14.6670,       119.114,            0.,NA,NA,"",   864.468E+03,   957.207E+03,   957.207E+03
C:/temp/Job-4.odb,Step-1,Increment      1: Step Time =    1.000,"P-4-1",           766,       121.281,       15.3548,            0.,NA,NA,"",   980.766E+03,   980.554E+03,   980.554E+03
C:/temp/Job-4.odb,Step-1,Increment      1: Step Time =    1.000,"P-4-1",           767,       119.118,       185.893,            0.,NA,NA,"",   978.670E+03,   978.560E+03,   978.560E+03
C:/temp/Job-4.odb,Step-1,Increment      1: Step Time =    1.000,"P-4-1",           768,       186.254,       80.6062,            0.,NA,NA,"",   1.00694E+06,   1.00059E+06,   1.00059E+06
C:/temp/Job-4.odb,Step-1,Increment      1: Step Time =    1.000,"P-4-1",           769,       15.0504,       80.8449,            0.,NA,NA,"",   865.783E+03,   957.929E+03,   957.929E+03
C:/temp/Job-4.odb,Step-1,Increment      1: Step Time =    1.000,"P-4-1",           770,       184.117,       119.826,            0.,NA,NA,"",   1.00684E+06,   1.00075E+06,   1.00075E+06
C:/temp/Job-4.odb,Step-1,Increment      1: Step Time =    1.000,"P-4-1",           771,       81.2129,       14.1688,            0.,NA,NA,"",   966.736E+03,   967.472E+03,   967.472E+03
C:/temp/Job-4.odb,Step-1,Increment      1: Step Time =    1.000,"P-4-1",           772,       90.6592,       112.191,            0.,NA,NA,"",   1.06930E+06,   1.06984E+06,   1.06984E+06
C:/temp/Job-4.odb,Step-1,Increment      1: Step Time =    1.000,"P-4-1",           773,       87.6785,       109.431,            0.,NA,NA,"",   1.03894E+06,   1.03460E+06,   1.03460E+06
C:/temp/Job-4.odb,Step-1,Increment      1: Step Time =    1.000,"P-4-1",           774,       112.827,       110.806,            0.,NA,NA,"",   1.04913E+06,   1.03555E+06,   1.03555E+06
C:/temp/Job-4.odb,Step-1,Increment      1: Step Time =    1.000,"P-4-1",           775,       109.500,       113.907,            0.,NA,NA,"",   1.06197E+06,   1.05875E+06,   1.05875E+06
C:/temp/Job-4.odb,Step-1,Increment      1: Step Time =    1.000,"P-4-1",           776,       109.907,       87.5070,            0.,NA,NA,"",   1.07453E+06,   1.06569E+06,   1.06569E+06
C:/temp/Job-4.odb,Step-1,Increment      1: Step Time =    1.000,"P-4-1",           777,       112.538,       87.3268,            0.,NA,NA,"",   1.06875E+06,   1.05401E+06,   1.05401E+06
C:/temp/Job-4.odb,Step-1,Increment      1: Step Time =    1.000,"P-4-1",           778,       86.9982,       90.1519,            0.,NA,NA,"",   1.03182E+06,   1.03057E+06,   1.03057E+06
C:/temp/Job-4.odb,Step-1,Increment      1: Step Time =    1.000,"P-4-1",           779,       90.0479,       86.2844,            0.,NA,NA,"",   1.05740E+06,   1.06109E+06,   1.06109E+06
C:/temp/Job-4.odb,Step-1,Increment      1: Step Time =    1.000,"P-4-1",           780,       99.7190,       82.3147,            0.,NA,NA,"",   1.00747E+06,   1.03217E+06,   1.03217E+06
C:/temp/Job-4.odb,Step-1,Increment      1: Step Time =    1.000,"P-4-1",           781,       102.736,       81.8617,            0.,NA,NA,"",   1.01339E+06,   1.03396E+06,   1.03396E+06
C:/temp/Job-4.odb,Step-1,Increment      1: Step Time =    1.000,"P-4-1",           782,       119.544,       97.8682,            0.,NA,NA,"",   966.408E+03,   971.736E+03,   971.736E+03
C:/temp/Job-4.odb,Step-1,Increment      1: Step Time =    1.000,"P-4-1",           783,       82.4290,       98.3030,            0.,NA,NA,"",   937.435E+03,   960.940E+03,   960.940E+03
C:/temp/Job-4.odb,Step-1,Increment      1: Step Time =    1.000,"P-4-1",           784,       100.148,       116.779,            0.,NA,NA,"",   1.00800E+06,   1.03427E+06,   1.03427E+06
C:/temp/Job-4.odb,Step-1,Increment      1: Step Time =    1.000,"P-4-1",           785,       56.7326,       181.248,            0.,NA,NA,"",   983.734E+03,   988.531E+03,   988.531E+03
C:/temp/Job-4.odb,Step-1,Increment      1: Step Time =    1.000,"P-4-1",           786,       22.7984,       140.664,            0.,NA,NA,"",   910.397E+03,   986.977E+03,   986.977E+03
C:/temp/Job-4.odb,Step-1,Increment      1: Step Time =    1.000,"P-4-1",           787,       144.286,       17.4038,            0.,NA,NA,"",   990.615E+03,   990.004E+03,   990.004E+03
C:/temp/Job-4.odb,Step-1,Increment      1: Step Time =    1.000,"P-4-1",           788,       177.178,       59.0253,            0.,NA,NA,"",   1.00577E+06,   1.00133E+06,   1.00133E+06
C:/temp/Job-4.odb,Step-1,Increment      1: Step Time =    1.000,"P-4-1",           789,       74.8398,       185.840,            0.,NA,NA,"",   966.618E+03,   967.736E+03,   967.736E+03
C:/temp/Job-4.odb,Step-1,Increment      1: Step Time =    1.000,"P-4-1",           790,       14.8152,       123.714,            0.,NA,NA,"",   867.879E+03,   959.903E+03,   959.903E+03
C:/temp/Job-4.odb,Step-1,Increment      1: Step Time =    1.000,"P-4-1",           791,       140.621,       177.290,            0.,NA,NA,"",   992.453E+03,   991.591E+03,   991.591E+03
C:/temp/Job-4.odb,Step-1,Increment      1: Step Time =    1.000,"P-4-1",           792,       180.161,       141.000,            0.,NA,NA,"",   1.00565E+06,   1.00104E+06,   1.00104E+06
C:/temp/Job-4.odb,Step-1,Increment      1: Step Time =    1.000,"P-4-1",           793,       19.8512,       59.5693,            0.,NA,NA,"",   901.164E+03,   982.462E+03,   982.462E+03
C:/temp/Job-4.odb,Step-1,Increment      1: Step Time =    1.000,"P-4-1",           794,       59.1069,       23.4265,            0.,NA,NA,"",   989.322E+03,   996.142E+03,   996.142E+03
C:/temp/Job-4.odb,Step-1,Increment      1: Step Time =    1.000,"P-4-1",           795,       126.316,       14.9969,            0.,NA,NA,"",   982.398E+03,   982.126E+03,   982.126E+03
C:/temp/Job-4.odb,Step-1,Increment      1: Step Time =    1.000,"P-4-1",           796,       186.052,       76.1848,            0.,NA,NA,"",   1.00677E+06,   1.00063E+06,   1.00063E+06
C:/temp/Job-4.odb,Step-1,Increment      1: Step Time =    1.000,"P-4-1",           797,       123.698,       185.817,            0.,NA,NA,"",   980.705E+03,   980.505E+03,   980.505E+03
C:/temp/Job-4.odb,Step-1,Increment      1: Step Time =    1.000,"P-4-1",           798,       183.006,       125.503,            0.,NA,NA,"",   1.00668E+06,   1.00095E+06,   1.00095E+06
C:/temp/Job-4.odb,Step-1,Increment      1: Step Time =    1.000,"P-4-1",           799,       16.5008,       75.2268,            0.,NA,NA,"",   873.939E+03,   963.545E+03,   963.545E+03
C:/temp/Job-4.odb,Step-1,Increment      1: Step Time =    1.000,"P-4-1",           800,       76.5938,       14.8408,            0.,NA,NA,"",   967.528E+03,   968.602E+03,   968.602E+03
C:/temp/Job-4.odb,Step-1,Increment      1: Step Time =    1.000,"P-4-1",           801,       84.0960,       185.159,            0.,NA,NA,"",   968.380E+03,   969.136E+03,   969.136E+03
C:/temp/Job-4.odb,Step-1,Increment      1: Step Time =    1.000,"P-4-1",           802,       14.5396,       114.435,            0.,NA,NA,"",   861.842E+03,   955.108E+03,   955.108E+03
C:/temp/Job-4.odb,Step-1,Increment      1: Step Time =    1.000,"P-4-1",           803,       117.647,       90.1406,            0.,NA,NA,"",   1.01245E+06,   1.00847E+06,   1.00847E+06
C:/temp/Job-4.odb,Step-1,Increment      1: Step Time =    1.000,"P-4-1",           804,       110.449,       84.4232,            0.,NA,NA,"",   1.04805E+06,   1.04662E+06,   1.04662E+06
C:/temp/Job-4.odb,Step-1,Increment      1: Step Time =    1.000,"P-4-1",           805,       115.708,       16.2142,            0.,NA,NA,"",   979.495E+03,   979.383E+03,   979.383E+03
C:/temp/Job-4.odb,Step-1,Increment      1: Step Time =    1.000,"P-4-1",           806,       185.964,       85.1387,            0.,NA,NA,"",   1.00701E+06,   1.00055E+06,   1.00055E+06
C:/temp/Job-4.odb,Step-1,Increment      1: Step Time =    1.000,"P-4-1",           807,       114.527,       185.756,            0.,NA,NA,"",   976.834E+03,   976.797E+03,   976.797E+03
C:/temp/Job-4.odb,Step-1,Increment      1: Step Time =    1.000,"P-4-1",           808,       14.4169,       85.9406,            0.,NA,NA,"",   861.398E+03,   954.787E+03,   954.787E+03
C:/temp/Job-4.odb,Step-1,Increment      1: Step Time =    1.000,"P-4-1",           809,       184.494,       114.732,            0.,NA,NA,"",   1.00696E+06,   1.00067E+06,   1.00067E+06
C:/temp/Job-4.odb,Step-1,Increment      1: Step Time =    1.000,"P-4-1",           810,       85.8250,       14.2005,            0.,NA,NA,"",   967.275E+03,   967.983E+03,   967.983E+03
C:/temp/Job-4.odb,Step-1,Increment      1: Step Time =    1.000,"P-4-1",           811,       109.453,       117.321,            0.,NA,NA,"",   1.03947E+06,   1.04292E+06,   1.04292E+06
C:/temp/Job-4.odb,Step-1,Increment      1: Step Time =    1.000,"P-4-1",           812,       113.055,       84.9918,            0.,NA,NA,"",   1.05624E+06,   1.04770E+06,   1.04770E+06
C:/temp/Job-4.odb,Step-1,Increment      1: Step Time =    1.000,"P-4-1",           813,       113.131,       114.337,            0.,NA,NA,"",   1.05430E+06,   1.04564E+06,   1.04564E+06
C:/temp/Job-4.odb,Step-1,Increment      1: Step Time =    1.000,"P-4-1",           814,       115.858,       88.2329,            0.,NA,NA,"",   1.02890E+06,   1.02181E+06,   1.02181E+06
C:/temp/Job-4.odb,Step-1,Increment      1: Step Time =    1.000,"P-4-1",           815,       87.5939,       112.539,            0.,NA,NA,"",   1.05255E+06,   1.05176E+06,   1.05176E+06
C:/temp/Job-4.odb,Step-1,Increment      1: Step Time =    1.000,"P-4-1",           816,       86.4982,       86.5349,            0.,NA,NA,"",   1.04416E+06,   1.04640E+06,   1.04640E+06
C:/temp/Job-4.odb,Step-1,Increment      1: Step Time =    1.000,"P-4-1",           817,       90.7617,       115.354,            0.,NA,NA,"",   1.04141E+06,   1.05069E+06,   1.05069E+06
C:/temp/Job-4.odb,Step-1,Increment      1: Step Time =    1.000,"P-4-1",           818,       84.6789,       106.730,            0.,NA,NA,"",   980.472E+03,   991.627E+03,   991.627E+03
C:/temp/Job-4.odb,Step-1,Increment      1: Step Time =    1.000,"P-4-1",           819,       115.568,       107.197,            0.,NA,NA,"",   998.380E+03,   994.595E+03,   994.595E+03
C:/temp/Job-4.odb,Step-1,Increment      1: Step Time =    1.000,"P-4-1",           820,       83.3296,       90.6490,            0.,NA,NA,"",   1.00027E+06,   1.01088E+06,   1.01088E+06
C:/temp/Job-4.odb,Step-1,Increment      1: Step Time =    1.000,"P-4-1",           821,       105.531,       81.0878,            0.,NA,NA,"",   1.02633E+06,   1.03715E+06,   1.03715E+06
C:/temp/Job-4.odb,Step-1,Increment      1: Step Time =    1.000,"P-4-1",           822,       116.909,       100.308,            0.,NA,NA,"",   944.717E+03,   953.383E+03,   953.383E+03
C:/temp/Job-4.odb,Step-1,Increment      1: Step Time =    1.000,"P-4-1",           823,       96.5984,       82.2531,            0.,NA,NA,"",   1.01724E+06,   1.03859E+06,   1.03859E+06
C:/temp/Job-4.odb,Step-1,Increment      1: Step Time =    1.000,"P-4-1",           824,       80.8772,       95.1387,            0.,NA,NA,"",   962.594E+03,   982.532E+03,   982.532E+03
C:/temp/Job-4.odb,Step-1,Increment      1: Step Time =    1.000,"P-4-1",           825,       121.835,       96.1210,            0.,NA,NA,"",   977.775E+03,   981.676E+03,   981.676E+03
C:/temp/Job-4.odb,Step-1,Increment      1: Step Time =    1.000,"P-4-1",           826,       103.126,       120.163,            0.,NA,NA,"",   1.01401E+06,   1.03095E+06,   1.03095E+06
C:/temp/Job-4.odb,Step-1,Increment      1: Step Time =    1.000,"P-4-1",           827,       99.8880,       78.2901,            0.,NA,NA,"",   1.01176E+06,   1.02944E+06,   1.02944E+06
C:/temp/Job-4.odb,Step-1,Increment      1: Step Time =    1.000,"P-4-1",           828,       109.366,       80.5065,            0.,NA,NA,"",   1.03306E+06,   1.03834E+06,   1.03834E+06
C:/temp/Job-4.odb,Step-1,Increment      1: Step Time =    1.000,"P-4-1",           829,       109.175,       120.753,            0.,NA,NA,"",   1.02996E+06,   1.03584E+06,   1.03584E+06
C:/temp/Job-4.odb,Step-1,Increment      1: Step Time =    1.000,"P-4-1",           830,       120.430,       91.6296,            0.,NA,NA,"",   1.00015E+06,   998.499E+03,   998.499E+03
C:/temp/Job-4.odb,Step-1,Increment      1: Step Time =    1.000,"P-4-1",           831,       24.4414,       60.3535,            0.,NA,NA,"",   914.732E+03,   989.035E+03,   989.035E+03
C:/temp/Job-4.odb,Step-1,Increment      1: Step Time =    1.000,"P-4-1",           832,       60.7113,       26.5373,            0.,NA,NA,"",   992.196E+03,   1.00006E+06,   1.00006E+06
C:/temp/Job-4.odb,Step-1,Increment      1: Step Time =    1.000,"P-4-1",           833,       176.380,       140.458,            0.,NA,NA,"",   1.00581E+06,   1.00138E+06,   1.00138E+06
C:/temp/Job-4.odb,Step-1,Increment      1: Step Time =    1.000,"P-4-1",           834,       138.813,       174.519,            0.,NA,NA,"",   993.794E+03,   992.806E+03,   992.806E+03
C:/temp/Job-4.odb,Step-1,Increment      1: Step Time =    1.000,"P-4-1",           835,       174.419,       60.6133,            0.,NA,NA,"",   1.00611E+06,   1.00170E+06,   1.00170E+06
C:/temp/Job-4.odb,Step-1,Increment      1: Step Time =    1.000,"P-4-1",           836,       140.893,       22.0414,            0.,NA,NA,"",   992.260E+03,   991.413E+03,   991.413E+03
C:/temp/Job-4.odb,Step-1,Increment      1: Step Time =    1.000,"P-4-1",           837,       25.6490,       138.899,            0.,NA,NA,"",   915.813E+03,   989.160E+03,   989.160E+03
C:/temp/Job-4.odb,Step-1,Increment      1: Step Time =    1.000,"P-4-1",           838,       58.1961,       176.574,            0.,NA,NA,"",   990.612E+03,   997.609E+03,   997.609E+03
C:/temp/Job-4.odb,Step-1,Increment      1: Step Time =    1.000,"P-4-1",           839,       56.7035,       186.305,            0.,NA,NA,"",   971.559E+03,   974.069E+03,   974.069E+03
C:/temp/Job-4.odb,Step-1,Increment      1: Step Time =    1.000,"P-4-1",           840,       16.0458,       145.357,            0.,NA,NA,"",   895.815E+03,   981.381E+03,   981.381E+03
C:/temp/Job-4.odb,Step-1,Increment      1: Step Time =    1.000,"P-4-1",           841,       89.6917,       82.1202,            0.,NA,NA,"",   1.03187E+06,   1.04258E+06,   1.04258E+06
C:/temp/Job-4.odb,Step-1,Increment      1: Step Time =    1.000,"P-4-1",           842,       70.2334,       181.246,            0.,NA,NA,"",   977.042E+03,   979.535E+03,   979.535E+03
C:/temp/Job-4.odb,Step-1,Increment      1: Step Time =    1.000,"P-4-1",           843,       20.3806,       131.082,            0.,NA,NA,"",   892.111E+03,   974.909E+03,   974.909E+03
C:/temp/Job-4.odb,Step-1,Increment      1: Step Time =    1.000,"P-4-1",           844,       144.134,       13.0618,            0.,NA,NA,"",   988.431E+03,   988.063E+03,   988.063E+03
C:/temp/Job-4.odb,Step-1,Increment      1: Step Time =    1.000,"P-4-1",           845,       184.743,       54.8135,            0.,NA,NA,"",   1.00500E+06,   1.00049E+06,   1.00049E+06
C:/temp/Job-4.odb,Step-1,Increment      1: Step Time =    1.000,"P-4-1",           846,       131.991,       19.2340,            0.,NA,NA,"",   987.865E+03,   987.349E+03,   987.349E+03
C:/temp/Job-4.odb,Step-1,Increment      1: Step Time =    1.000,"P-4-1",           847,       14.4102,       109.727,            0.,NA,NA,"",   859.877E+03,   953.562E+03,   953.562E+03
C:/temp/Job-4.odb,Step-1,Increment      1: Step Time =    1.000,"P-4-1",           848,       19.5246,       118.747,            0.,NA,NA,"",   878.345E+03,   965.246E+03,   965.246E+03
C:/temp/Job-4.odb,Step-1,Increment      1: Step Time =    1.000,"P-4-1",           849,       180.609,       69.7088,            0.,NA,NA,"",   1.00647E+06,   1.00121E+06,   1.00121E+06
C:/temp/Job-4.odb,Step-1,Increment      1: Step Time =    1.000,"P-4-1",           850,       145.101,       184.657,            0.,NA,NA,"",   989.843E+03,   989.335E+03,   989.335E+03
C:/temp/Job-4.odb,Step-1,Increment      1: Step Time =    1.000,"P-4-1",           851,       185.087,       145.419,            0.,NA,NA,"",   1.00502E+06,   1.00051E+06,   1.00051E+06
C:/temp/Job-4.odb,Step-1,Increment      1: Step Time =    1.000,"P-4-1",           852,       14.8616,       54.7211,            0.,NA,NA,"",   892.475E+03,   979.774E+03,   979.774E+03
C:/temp/Job-4.odb,Step-1,Increment      1: Step Time =    1.000,"P-4-1",           853,       54.3701,       15.2406,            0.,NA,NA,"",   977.256E+03,   980.640E+03,   980.640E+03
C:/temp/Job-4.odb,Step-1,Increment      1: Step Time =    1.000,"P-4-1",           854,       130.614,       180.973,            0.,NA,NA,"",   987.427E+03,   986.951E+03,   986.951E+03
C:/temp/Job-4.odb,Step-1,Increment      1: Step Time =    1.000,"P-4-1",           855,       178.308,       128.508,            0.,NA,NA,"",   1.00665E+06,   1.00147E+06,   1.00147E+06
C:/temp/Job-4.odb,Step-1,Increment      1: Step Time =    1.000,"P-4-1",           856,       21.6506,       72.5742,            0.,NA,NA,"",   891.162E+03,   973.669E+03,   973.669E+03
C:/temp/Job-4.odb,Step-1,Increment      1: Step Time =    1.000,"P-4-1",           857,       118.206,       20.9322,            0.,NA,NA,"",   984.822E+03,   984.661E+03,   984.661E+03
C:/temp/Job-4.odb,Step-1,Increment      1: Step Time =    1.000,"P-4-1",           858,       70.7441,       20.0655,            0.,NA,NA,"",   979.585E+03,   982.488E+03,   982.488E+03
C:/temp/Job-4.odb,Step-1,Increment      1: Step Time =    1.000,"P-4-1",           859,       185.265,       89.8392,            0.,NA,NA,"",   1.00703E+06,   1.00057E+06,   1.00057E+06
C:/temp/Job-4.odb,Step-1,Increment      1: Step Time =    1.000,"P-4-1",           860,       182.292,       80.6768,            0.,NA,NA,"",   1.00678E+06,   1.00092E+06,   1.00092E+06
C:/temp/Job-4.odb,Step-1,Increment      1: Step Time =    1.000,"P-4-1",           861,       109.933,       185.430,            0.,NA,NA,"",   975.341E+03,   975.364E+03,   975.364E+03
C:/temp/Job-4.odb,Step-1,Increment      1: Step Time =    1.000,"P-4-1",           862,       118.953,       181.385,            0.,NA,NA,"",   983.104E+03,   982.961E+03,   982.961E+03
C:/temp/Job-4.odb,Step-1,Increment      1: Step Time =    1.000,"P-4-1",           863,       19.5283,       82.2654,            0.,NA,NA,"",   878.256E+03,   965.030E+03,   965.030E+03
C:/temp/Job-4.odb,Step-1,Increment      1: Step Time =    1.000,"P-4-1",           864,       179.148,       118.886,            0.,NA,NA,"",   1.00677E+06,   1.00122E+06,   1.00122E+06
C:/temp/Job-4.odb,Step-1,Increment      1: Step Time =    1.000,"P-4-1",           865,       118.769,       106.610,            0.,NA,NA,"",   989.505E+03,   989.385E+03,   989.385E+03
C:/temp/Job-4.odb,Step-1,Increment      1: Step Time =    1.000,"P-4-1",           866,       90.9306,       118.639,            0.,NA,NA,"",   1.03036E+06,   1.04271E+06,   1.04271E+06
C:/temp/Job-4.odb,Step-1,Increment      1: Step Time =    1.000,"P-4-1",           867,       81.7431,       106.934,            0.,NA,NA,"",   976.046E+03,   992.425E+03,   992.425E+03
C:/temp/Job-4.odb,Step-1,Increment      1: Step Time =    1.000,"P-4-1",           868,       100.359,       120.341,            0.,NA,NA,"",   1.01100E+06,   1.03005E+06,   1.03005E+06
C:/temp/Job-4.odb,Step-1,Increment      1: Step Time =    1.000,"P-4-1",           869,       106.036,       120.372,            0.,NA,NA,"",   1.02224E+06,   1.03411E+06,   1.03411E+06
C:/temp/Job-4.odb,Step-1,Increment      1: Step Time =    1.000,"P-4-1",           870,       87.5095,       115.804,            0.,NA,NA,"",   1.04082E+06,   1.04698E+06,   1.04698E+06
C:/temp/Job-4.odb,Step-1,Increment      1: Step Time =    1.000,"P-4-1",           871,       79.4352,       91.5344,            0.,NA,NA,"",   984.670E+03,   1.00203E+06,   1.00203E+06
C:/temp/Job-4.odb,Step-1,Increment      1: Step Time =    1.000,"P-4-1",           872,       84.6429,       109.628,            0.,NA,NA,"",   1.00923E+06,   1.01647E+06,   1.01647E+06
C:/temp/Job-4.odb,Step-1,Increment      1: Step Time =    1.000,"P-4-1",           873,       80.8622,       102.288,            0.,NA,NA,"",   950.085E+03,   974.429E+03,   974.429E+03
C:/temp/Job-4.odb,Step-1,Increment      1: Step Time =    1.000,"P-4-1",           874,       119.947,       100.059,            0.,NA,NA,"",   966.942E+03,   972.293E+03,   972.293E+03
C:/temp/Job-4.odb,Step-1,Increment      1: Step Time =    1.000,"P-4-1",           875,       97.2108,       117.354,            0.,NA,NA,"",   1.01303E+06,   1.03666E+06,   1.03666E+06
C:/temp/Job-4.odb,Step-1,Increment      1: Step Time =    1.000,"P-4-1",           876,       79.0737,       99.7394,            0.,NA,NA,"",   952.422E+03,   976.704E+03,   976.704E+03
C:/temp/Job-4.odb,Step-1,Increment      1: Step Time =    1.000,"P-4-1",           877,       93.3273,       77.7125,            0.,NA,NA,"",   1.01717E+06,   1.03268E+06,   1.03268E+06
C:/temp/Job-4.odb,Step-1,Increment      1: Step Time =    1.000,"P-4-1",           878,       100.612,       74.1517,            0.,NA,NA,"",   1.01077E+06,   1.02519E+06,   1.02519E+06
C:/temp/Job-4.odb,Step-1,Increment      1: Step Time =    1.000,"P-4-1",           879,       111.948,       81.3526,            0.,NA,NA,"",   1.04033E+06,   1.03995E+06,   1.03995E+06
C:/temp/Job-4.odb,Step-1,Increment      1: Step Time =    1.000,"P-4-1",           880,       174.251,       122.334,            0.,NA,NA,"",   1.00690E+06,   1.00185E+06,   1.00185E+06
C:/temp/Job-4.odb,Step-1,Increment      1: Step Time =    1.000,"P-4-1",           881,       23.6858,       83.6659,            0.,NA,NA,"",   889.148E+03,   970.933E+03,   970.933E+03
C:/temp/Job-4.odb,Step-1,Increment      1: Step Time =    1.000,"P-4-1",           882,       122.907,       176.813,            0.,NA,NA,"",   988.321E+03,   987.960E+03,   987.960E+03
C:/temp/Job-4.odb,Step-1,Increment      1: Step Time =    1.000,"P-4-1",           883,       177.605,       78.0451,            0.,NA,NA,"",   1.00675E+06,   1.00142E+06,   1.00142E+06
C:/temp/Job-4.odb,Step-1,Increment      1: Step Time =    1.000,"P-4-1",           884,       118.822,       25.1597,            0.,NA,NA,"",   989.048E+03,   988.872E+03,   988.872E+03
C:/temp/Job-4.odb,Step-1,Increment      1: Step Time =    1.000,"P-4-1",           885,       24.4079,       118.364,            0.,NA,NA,"",   892.114E+03,   972.821E+03,   972.821E+03
C:/temp/Job-4.odb,Step-1,Increment      1: Step Time =    1.000,"P-4-1",           886,       116.514,       110.764,            0.,NA,NA,"",   1.02255E+06,   1.01650E+06,   1.01650E+06
C:/temp/Job-4.odb,Step-1,Increment      1: Step Time =    1.000,"P-4-1",           887,       123.714,       93.0078,            0.,NA,NA,"",   992.649E+03,   993.526E+03,   993.526E+03
C:/temp/Job-4.odb,Step-1,Increment      1: Step Time =    1.000,"P-4-1",           888,       105.301,       78.5101,            0.,NA,NA,"",   1.02124E+06,   1.03260E+06,   1.03260E+06
C:/temp/Job-4.odb,Step-1,Increment      1: Step Time =    1.000,"P-4-1",           889,       19.1159,       109.582,            0.,NA,NA,"",   872.994E+03,   961.304E+03,   961.304E+03
C:/temp/Job-4.odb,Step-1,Increment      1: Step Time =    1.000,"P-4-1",           890,       180.586,       88.9081,            0.,NA,NA,"",   1.00677E+06,   1.00092E+06,   1.00092E+06
C:/temp/Job-4.odb,Step-1,Increment      1: Step Time =    1.000,"P-4-1",           891,       110.350,       180.551,            0.,NA,NA,"",   981.055E+03,   981.170E+03,   981.170E+03
C:/temp/Job-4.odb,Step-1,Increment      1: Step Time =    1.000,"P-4-1",           892,       96.8291,       78.0481,            0.,NA,NA,"",   1.01242E+06,   1.03020E+06,   1.03020E+06
C:/temp/Job-4.odb,Step-1,Increment      1: Step Time =    1.000,"P-4-1",           893,       69.1758,       23.9912,            0.,NA,NA,"",   985.959E+03,   990.331E+03,   990.331E+03
C:/temp/Job-4.odb,Step-1,Increment      1: Step Time =    1.000,"P-4-1",           894,       27.0702,       71.0179,            0.,NA,NA,"",   908.345E+03,   983.125E+03,   983.125E+03
C:/temp/Job-4.odb,Step-1,Increment      1: Step Time =    1.000,"P-4-1",           895,       176.418,       133.210,            0.,NA,NA,"",   1.00646E+06,   1.00163E+06,   1.00163E+06
C:/temp/Job-4.odb,Step-1,Increment      1: Step Time =    1.000,"P-4-1",           896,       132.845,       175.070,            0.,NA,NA,"",   992.044E+03,   991.260E+03,   991.260E+03
C:/temp/Job-4.odb,Step-1,Increment      1: Step Time =    1.000,"P-4-1",           897,       173.256,       67.6754,            0.,NA,NA,"",   1.00674E+06,   1.00208E+06,   1.00208E+06
C:/temp/Job-4.odb,Step-1,Increment      1: Step Time =    1.000,"P-4-1",           898,       130.178,       25.5175,            0.,NA,NA,"",   992.027E+03,   991.304E+03,   991.304E+03
C:/temp/Job-4.odb,Step-1,Increment      1: Step Time =    1.000,"P-4-1",           899,       24.4209,       130.471,            0.,NA,NA,"",   902.297E+03,   980.119E+03,   980.119E+03
C:/temp/Job-4.odb,Step-1,Increment      1: Step Time =    1.000,"P-4-1",           900,       70.1880,       176.334,            0.,NA,NA,"",   985.584E+03,   989.577E+03,   989.577E+03
C:/temp/Job-4.odb,Step-1,Increment      1: Step Time =    1.000,"P-4-1",           901,       56.1036,       190.879,            0.,NA,NA,"",   957.373E+03,   958.625E+03,   958.625E+03
C:/temp/Job-4.odb,Step-1,Increment      1: Step Time =    1.000,"P-4-1",           902,       144.420,       8.79751,            0.,NA,NA,"",   986.696E+03,   986.513E+03,   986.513E+03
C:/temp/Job-4.odb,Step-1,Increment      1: Step Time =    1.000,"P-4-1",           903,       190.253,       145.063,            0.,NA,NA,"",   1.00516E+06,   1.00024E+06,   1.00024E+06
C:/temp/Job-4.odb,Step-1,Increment      1: Step Time =    1.000,"P-4-1",           904,       9.75262,       55.0023,            0.,NA,NA,"",   874.709E+03,   969.609E+03,   969.609E+03
C:/temp/Job-4.odb,Step-1,Increment      1: Step Time =    1.000,"P-4-1",           905,       62.0160,       172.036,            0.,NA,NA,"",   993.553E+03,   1.00180E+06,   1.00180E+06
C:/temp/Job-4.odb,Step-1,Increment      1: Step Time =    1.000,"P-4-1",           906,       25.3612,       136.019,            0.,NA,NA,"",   911.467E+03,   986.361E+03,   986.361E+03
C:/temp/Job-4.odb,Step-1,Increment      1: Step Time =    1.000,"P-4-1",           907,       135.649,       27.8052,            0.,NA,NA,"",   994.849E+03,   993.807E+03,   993.807E+03
C:/temp/Job-4.odb,Step-1,Increment      1: Step Time =    1.000,"P-4-1",           908,       174.384,       63.8045,            0.,NA,NA,"",   1.00636E+06,   1.00180E+06,   1.00180E+06
C:/temp/Job-4.odb,Step-1,Increment      1: Step Time =    1.000,"P-4-1",           909,       135.807,       174.802,            0.,NA,NA,"",   992.982E+03,   992.087E+03,   992.087E+03
C:/temp/Job-4.odb,Step-1,Increment      1: Step Time =    1.000,"P-4-1",           910,       175.057,       136.773,            0.,NA,NA,"",   1.00627E+06,   1.00170E+06,   1.00170E+06
C:/temp/Job-4.odb,Step-1,Increment      1: Step Time =    1.000,"P-4-1",           911,       24.4308,       64.6178,            0.,NA,NA,"",   907.669E+03,   984.271E+03,   984.271E+03
C:/temp/Job-4.odb,Step-1,Increment      1: Step Time =    1.000,"P-4-1",           912,       64.0207,       26.9160,            0.,NA,NA,"",   991.963E+03,   998.947E+03,   998.947E+03
C:/temp/Job-4.odb,Step-1,Increment      1: Step Time =    1.000,"P-4-1",           913,       79.1608,       180.542,            0.,NA,NA,"",   976.905E+03,   978.623E+03,   978.623E+03
C:/temp/Job-4.odb,Step-1,Increment      1: Step Time =    1.000,"P-4-1",           914,       81.7835,       18.3804,            0.,NA,NA,"",   975.037E+03,   976.376E+03,   976.376E+03
C:/temp/Job-4.odb,Step-1,Increment      1: Step Time =    1.000,"P-4-1",           915,       90.5949,       14.6489,            0.,NA,NA,"",   969.127E+03,   969.726E+03,   969.726E+03
C:/temp/Job-4.odb,Step-1,Increment      1: Step Time =    1.000,"P-4-1",           916,       82.5916,       86.8733,            0.,NA,NA,"",   1.01887E+06,   1.02758E+06,   1.02758E+06
C:/temp/Job-4.odb,Step-1,Increment      1: Step Time =    1.000,"P-4-1",           917,       86.1185,       82.6463,            0.,NA,NA,"",   1.03316E+06,   1.04141E+06,   1.04141E+06
C:/temp/Job-4.odb,Step-1,Increment      1: Step Time =    1.000,"P-4-1",           918,       94.4372,       121.414,            0.,NA,NA,"",   1.01643E+06,   1.03327E+06,   1.03327E+06
C:/temp/Job-4.odb,Step-1,Increment      1: Step Time =    1.000,"P-4-1",           919,       87.4910,       119.202,            0.,NA,NA,"",   1.03035E+06,   1.04029E+06,   1.04029E+06
C:/temp/Job-4.odb,Step-1,Increment      1: Step Time =    1.000,"P-4-1",           920,       81.3301,       112.597,            0.,NA,NA,"",   1.01042E+06,   1.02184E+06,   1.02184E+06
C:/temp/Job-4.odb,Step-1,Increment      1: Step Time =    1.000,"P-4-1",           921,       78.9969,       106.909,            0.,NA,NA,"",   975.247E+03,   994.713E+03,   994.713E+03
C:/temp/Job-4.odb,Step-1,Increment      1: Step Time =    1.000,"P-4-1",           922,       121.897,       105.742,            0.,NA,NA,"",   987.027E+03,   988.693E+03,   988.693E+03
C:/temp/Job-4.odb,Step-1,Increment      1: Step Time =    1.000,"P-4-1",           923,       77.9695,       87.1715,            0.,NA,NA,"",   1.00013E+06,   1.01664E+06,   1.01664E+06
C:/temp/Job-4.odb,Step-1,Increment      1: Step Time =    1.000,"P-4-1",           924,       120.156,       110.187,            0.,NA,NA,"",   1.00973E+06,   1.00664E+06,   1.00664E+06
C:/temp/Job-4.odb,Step-1,Increment      1: Step Time =    1.000,"P-4-1",           925,       89.1199,       76.8991,            0.,NA,NA,"",   1.02163E+06,   1.03432E+06,   1.03432E+06
C:/temp/Job-4.odb,Step-1,Increment      1: Step Time =    1.000,"P-4-1",           926,       77.0901,       96.6863,            0.,NA,NA,"",   962.162E+03,   986.323E+03,   986.323E+03
C:/temp/Job-4.odb,Step-1,Increment      1: Step Time =    1.000,"P-4-1",           927,       108.741,       124.201,            0.,NA,NA,"",   1.02078E+06,   1.02788E+06,   1.02788E+06
C:/temp/Job-4.odb,Step-1,Increment      1: Step Time =    1.000,"P-4-1",           928,       94.2140,       73.5576,            0.,NA,NA,"",   1.01319E+06,   1.02745E+06,   1.02745E+06
C:/temp/Job-4.odb,Step-1,Increment      1: Step Time =    1.000,"P-4-1",           929,       75.4832,       93.0774,            0.,NA,NA,"",   974.831E+03,   998.220E+03,   998.220E+03
C:/temp/Job-4.odb,Step-1,Increment      1: Step Time =    1.000,"P-4-1",           930,       125.368,       96.8694,            0.,NA,NA,"",   986.854E+03,   988.894E+03,   988.894E+03
C:/temp/Job-4.odb,Step-1,Increment      1: Step Time =    1.000,"P-4-1",           931,       122.557,       88.6798,            0.,NA,NA,"",   1.01187E+06,   1.00897E+06,   1.00897E+06
C:/temp/Job-4.odb,Step-1,Increment      1: Step Time =    1.000,"P-4-1",           932,       116.467,       78.5849,            0.,NA,NA,"",   1.03333E+06,   1.03085E+06,   1.03085E+06
C:/temp/Job-4.odb,Step-1,Increment      1: Step Time =    1.000,"P-4-1",           933,       110.765,       77.5655,            0.,NA,NA,"",   1.02985E+06,   1.03315E+06,   1.03315E+06
C:/temp/Job-4.odb,Step-1,Increment      1: Step Time =    1.000,"P-4-1",           934,       82.0718,       22.6989,            0.,NA,NA,"",   981.868E+03,   983.956E+03,   983.956E+03
C:/temp/Job-4.odb,Step-1,Increment      1: Step Time =    1.000,"P-4-1",           935,       90.2201,       19.3472,            0.,NA,NA,"",   976.836E+03,   977.902E+03,   977.902E+03
C:/temp/Job-4.odb,Step-1,Increment      1: Step Time =    1.000,"P-4-1",           936,       82.4207,       79.3432,            0.,NA,NA,"",   1.02106E+06,   1.03271E+06,   1.03271E+06
C:/temp/Job-4.odb,Step-1,Increment      1: Step Time =    1.000,"P-4-1",           937,       78.7128,       82.6543,            0.,NA,NA,"",   1.01250E+06,   1.02644E+06,   1.02644E+06
C:/temp/Job-4.odb,Step-1,Increment      1: Step Time =    1.000,"P-4-1",           938,       83.5152,       174.478,            0.,NA,NA,"",   985.923E+03,   988.401E+03,   988.401E+03
C:/temp/Job-4.odb,Step-1,Increment      1: Step Time =    1.000,"P-4-1",           939,       24.0622,       113.863,            0.,NA,NA,"",   888.538E+03,   970.369E+03,   970.369E+03
C:/temp/Job-4.odb,Step-1,Increment      1: Step Time =    1.000,"P-4-1",           940,       111.784,       24.3287,            0.,NA,NA,"",   986.374E+03,   986.542E+03,   986.542E+03
C:/temp/Job-4.odb,Step-1,Increment      1: Step Time =    1.000,"P-4-1",           941,       177.909,       83.3784,            0.,NA,NA,"",   1.00671E+06,   1.00122E+06,   1.00122E+06
C:/temp/Job-4.odb,Step-1,Increment      1: Step Time =    1.000,"P-4-1",           942,       115.069,       176.535,            0.,NA,NA,"",   986.667E+03,   986.704E+03,   986.704E+03
C:/temp/Job-4.odb,Step-1,Increment      1: Step Time =    1.000,"P-4-1",           943,       27.3935,       84.8477,            0.,NA,NA,"",   898.382E+03,   975.782E+03,   975.782E+03
C:/temp/Job-4.odb,Step-1,Increment      1: Step Time =    1.000,"P-4-1",           944,       169.535,       114.042,            0.,NA,NA,"",   1.00685E+06,   1.00218E+06,   1.00218E+06
C:/temp/Job-4.odb,Step-1,Increment      1: Step Time =    1.000,"P-4-1",           945,       14.2736,       105.011,            0.,NA,NA,"",   858.537E+03,   952.538E+03,   952.538E+03
C:/temp/Job-4.odb,Step-1,Increment      1: Step Time =    1.000,"P-4-1",           946,       74.0695,       170.824,            0.,NA,NA,"",   991.793E+03,   996.852E+03,   996.852E+03
C:/temp/Job-4.odb,Step-1,Increment      1: Step Time =    1.000,"P-4-1",           947,       24.8255,       126.890,            0.,NA,NA,"",   899.708E+03,   978.205E+03,   978.205E+03
C:/temp/Job-4.odb,Step-1,Increment      1: Step Time =    1.000,"P-4-1",           948,       105.272,       184.945,            0.,NA,NA,"",   974.149E+03,   974.280E+03,   974.280E+03
C:/temp/Job-4.odb,Step-1,Increment      1: Step Time =    1.000,"P-4-1",           949,       184.501,       94.7182,            0.,NA,NA,"",   1.00703E+06,   1.00059E+06,   1.00059E+06
C:/temp/Job-4.odb,Step-1,Increment      1: Step Time =    1.000,"P-4-1",           950,       136.280,       18.2402,            0.,NA,NA,"",   988.617E+03,   988.058E+03,   988.058E+03
C:/temp/Job-4.odb,Step-1,Increment      1: Step Time =    1.000,"P-4-1",           951,       125.409,       24.3019,            0.,NA,NA,"",   990.020E+03,   989.570E+03,   989.570E+03
C:/temp/Job-4.odb,Step-1,Increment      1: Step Time =    1.000,"P-4-1",           952,       175.635,       73.8168,            0.,NA,NA,"",   1.00683E+06,   1.00178E+06,   1.00178E+06
C:/temp/Job-4.odb,Step-1,Increment      1: Step Time =    1.000,"P-4-1",           953,       58.2377,       172.320,            0.,NA,NA,"",   994.355E+03,   1.00396E+06,   1.00396E+06
C:/temp/Job-4.odb,Step-1,Increment      1: Step Time =    1.000,"P-4-1",           954,       127.437,       175.824,            0.,NA,NA,"",   990.231E+03,   989.680E+03,   989.680E+03
C:/temp/Job-4.odb,Step-1,Increment      1: Step Time =    1.000,"P-4-1",           955,       28.7871,       140.219,            0.,NA,NA,"",   926.382E+03,   994.524E+03,   994.524E+03
C:/temp/Job-4.odb,Step-1,Increment      1: Step Time =    1.000,"P-4-1",           956,       175.684,       125.424,            0.,NA,NA,"",   1.00680E+06,   1.00171E+06,   1.00171E+06
C:/temp/Job-4.odb,Step-1,Increment      1: Step Time =    1.000,"P-4-1",           957,       179.900,       132.334,            0.,NA,NA,"",   1.00639E+06,   1.00127E+06,   1.00127E+06
C:/temp/Job-4.odb,Step-1,Increment      1: Step Time =    1.000,"P-4-1",           958,       27.1692,       76.3269,            0.,NA,NA,"",   903.104E+03,   979.382E+03,   979.382E+03
C:/temp/Job-4.odb,Step-1,Increment      1: Step Time =    1.000,"P-4-1",           959,       20.1442,       68.7267,            0.,NA,NA,"",   891.191E+03,   974.542E+03,   974.542E+03
C:/temp/Job-4.odb,Step-1,Increment      1: Step Time =    1.000,"P-4-1",           960,       73.8621,       26.2170,            0.,NA,NA,"",   987.946E+03,   992.165E+03,   992.165E+03
C:/temp/Job-4.odb,Step-1,Increment      1: Step Time =    1.000,"P-4-1",           961,       139.609,       26.2948,            0.,NA,NA,"",   994.492E+03,   993.425E+03,   993.425E+03
C:/temp/Job-4.odb,Step-1,Increment      1: Step Time =    1.000,"P-4-1",           962,       171.356,       59.0446,            0.,NA,NA,"",   1.00627E+06,   1.00205E+06,   1.00205E+06
C:/temp/Job-4.odb,Step-1,Increment      1: Step Time =    1.000,"P-4-1",           963,       140.150,       171.453,            0.,NA,NA,"",   995.946E+03,   994.732E+03,   994.732E+03
C:/temp/Job-4.odb,Step-1,Increment      1: Step Time =    1.000,"P-4-1",           964,       170.998,       139.898,            0.,NA,NA,"",   1.00635E+06,   1.00213E+06,   1.00213E+06
C:/temp/Job-4.odb,Step-1,Increment      1: Step Time =    1.000,"P-4-1",           965,       29.7117,       55.0883,            0.,NA,NA,"",   936.619E+03,   1.00062E+06,   1.00062E+06
C:/temp/Job-4.odb,Step-1,Increment      1: Step Time =    1.000,"P-4-1",           966,       58.9914,       29.3934,            0.,NA,NA,"",   995.027E+03,   1.00493E+06,   1.00493E+06
C:/temp/Job-4.odb,Step-1,Increment      1: Step Time =    1.000,"P-4-1",           967,       153.651,       10.1597,            0.,NA,NA,"",   991.004E+03,   990.742E+03,   990.742E+03
C:/temp/Job-4.odb,Step-1,Increment      1: Step Time =    1.000,"P-4-1",           968,       190.004,       154.188,            0.,NA,NA,"",   1.00397E+06,   1.00012E+06,   1.00012E+06
C:/temp/Job-4.odb,Step-1,Increment      1: Step Time =    1.000,"P-4-1",           969,       46.6883,       189.610,            0.,NA,NA,"",   971.035E+03,   973.541E+03,   973.541E+03
C:/temp/Job-4.odb,Step-1,Increment      1: Step Time =    1.000,"P-4-1",           970,       9.93605,       45.7198,            0.,NA,NA,"",   892.497E+03,   984.370E+03,   984.370E+03
C:/temp/Job-4.odb,Step-1,Increment      1: Step Time =    1.000,"P-4-1",           971,       108.517,       76.5064,            0.,NA,NA,"",   1.02363E+06,   1.03117E+06,   1.03117E+06
C:/temp/Job-4.odb,Step-1,Increment      1: Step Time =    1.000,"P-4-1",           972,       91.1443,       122.081,            0.,NA,NA,"",   1.02138E+06,   1.03500E+06,   1.03500E+06
C:/temp/Job-4.odb,Step-1,Increment      1: Step Time =    1.000,"P-4-1",           973,       126.289,       100.596,            0.,NA,NA,"",   985.607E+03,   988.485E+03,   988.485E+03
C:/temp/Job-4.odb,Step-1,Increment      1: Step Time =    1.000,"P-4-1",           974,       74.8786,       84.8578,            0.,NA,NA,"",   998.491E+03,   1.01796E+06,   1.01796E+06
C:/temp/Job-4.odb,Step-1,Increment      1: Step Time =    1.000,"P-4-1",           975,       85.8616,       73.2945,            0.,NA,NA,"",   1.01779E+06,   1.03061E+06,   1.03061E+06
C:/temp/Job-4.odb,Step-1,Increment      1: Step Time =    1.000,"P-4-1",           976,       78.6053,       109.497,            0.,NA,NA,"",   987.634E+03,   1.00554E+06,   1.00554E+06
C:/temp/Job-4.odb,Step-1,Increment      1: Step Time =    1.000,"P-4-1",           977,       112.553,       121.532,            0.,NA,NA,"",   1.03213E+06,   1.03340E+06,   1.03340E+06
C:/temp/Job-4.odb,Step-1,Increment      1: Step Time =    1.000,"P-4-1",           978,       105.762,       123.911,            0.,NA,NA,"",   1.01767E+06,   1.02831E+06,   1.02831E+06
C:/temp/Job-4.odb,Step-1,Increment      1: Step Time =    1.000,"P-4-1",           979,       76.0748,       101.907,            0.,NA,NA,"",   962.494E+03,   987.352E+03,   987.352E+03
C:/temp/Job-4.odb,Step-1,Increment      1: Step Time =    1.000,"P-4-1",           980,       121.199,       84.3752,            0.,NA,NA,"",   1.02553E+06,   1.02065E+06,   1.02065E+06
C:/temp/Job-4.odb,Step-1,Increment      1: Step Time =    1.000,"P-4-1",           981,       125.760,       90.0622,            0.,NA,NA,"",   1.00438E+06,   1.00302E+06,   1.00302E+06
C:/temp/Job-4.odb,Step-1,Increment      1: Step Time =    1.000,"P-4-1",           982,       119.885,       87.3902,            0.,NA,NA,"",   1.02215E+06,   1.01673E+06,   1.01673E+06
C:/temp/Job-4.odb,Step-1,Increment      1: Step Time =    1.000,"P-4-1",           983,       72.7335,       99.0426,            0.,NA,NA,"",   964.797E+03,   992.740E+03,   992.740E+03
C:/temp/Job-4.odb,Step-1,Increment      1: Step Time =    1.000,"P-4-1",           984,       73.8321,       89.3462,            0.,NA,NA,"",   985.056E+03,   1.00769E+06,   1.00769E+06
C:/temp/Job-4.odb,Step-1,Increment      1: Step Time =    1.000,"P-4-1",           985,       91.0553,       72.3608,            0.,NA,NA,"",   1.01362E+06,   1.02705E+06,   1.02705E+06
C:/temp/Job-4.odb,Step-1,Increment      1: Step Time =    1.000,"P-4-1",           986,       79.0516,       78.8339,            0.,NA,NA,"",   1.01660E+06,   1.03028E+06,   1.03028E+06
C:/temp/Job-4.odb,Step-1,Increment      1: Step Time =    1.000,"P-4-1",           987,       97.8882,       124.395,            0.,NA,NA,"",   1.01185E+06,   1.02786E+06,   1.02786E+06
C:/temp/Job-4.odb,Step-1,Increment      1: Step Time =    1.000,"P-4-1",           988,       123.263,       108.816,            0.,NA,NA,"",   1.00095E+06,   1.00021E+06,   1.00021E+06
C:/temp/Job-4.odb,Step-1,Increment      1: Step Time =    1.000,"P-4-1",           989,       48.5259,       185.046,            0.,NA,NA,"",   983.001E+03,   987.667E+03,   987.667E+03
C:/temp/Job-4.odb,Step-1,Increment      1: Step Time =    1.000,"P-4-1",           990,       123.730,       101.921,            0.,NA,NA,"",   981.599E+03,   984.812E+03,   984.812E+03
C:/temp/Job-4.odb,Step-1,Increment      1: Step Time =    1.000,"P-4-1",           991,       151.893,       14.7381,            0.,NA,NA,"",   991.876E+03,   991.374E+03,   991.374E+03
C:/temp/Job-4.odb,Step-1,Increment      1: Step Time =    1.000,"P-4-1",           992,       186.501,       153.043,            0.,NA,NA,"",   1.00398E+06,   1.00018E+06,   1.00018E+06
C:/temp/Job-4.odb,Step-1,Increment      1: Step Time =    1.000,"P-4-1",           993,       13.4326,       46.8076,            0.,NA,NA,"",   903.571E+03,   990.067E+03,   990.067E+03
C:/temp/Job-4.odb,Step-1,Increment      1: Step Time =    1.000,"P-4-1",           994,       122.178,       114.636,            0.,NA,NA,"",   1.02079E+06,   1.01659E+06,   1.01659E+06
C:/temp/Job-4.odb,Step-1,Increment      1: Step Time =    1.000,"P-4-1",           995,       101.698,       69.3179,            0.,NA,NA,"",   1.01111E+06,   1.02194E+06,   1.02194E+06
C:/temp/Job-4.odb,Step-1,Increment      1: Step Time =    1.000,"P-4-1",           996,       78.6784,       104.285,            0.,NA,NA,"",   962.153E+03,   986.511E+03,   986.511E+03
C:/temp/Job-4.odb,Step-1,Increment      1: Step Time =    1.000,"P-4-1",           997,       122.161,       20.2341,            0.,NA,NA,"",   985.475E+03,   985.198E+03,   985.198E+03
C:/temp/Job-4.odb,Step-1,Increment      1: Step Time =    1.000,"P-4-1",           998,       20.9981,       78.3544,            0.,NA,NA,"",   885.209E+03,   969.444E+03,   969.444E+03
C:/temp/Job-4.odb,Step-1,Increment      1: Step Time =    1.000,"P-4-1",           999,       85.5646,       22.4044,            0.,NA,NA,"",   981.646E+03,   983.424E+03,   983.424E+03
C:/temp/Job-4.odb,Step-1,Increment      1: Step Time =    1.000,"P-4-1",          1000,       95.4921,       15.1658,            0.,NA,NA,"",   971.086E+03,   971.514E+03,   971.514E+03
C:/temp/Job-4.odb,Step-1,Increment      1: Step Time =    1.000,"P-4-1",          1001,       89.6396,       174.423,            0.,NA,NA,"",   985.527E+03,   987.396E+03,   987.396E+03
C:/temp/Job-4.odb,Step-1,Increment      1: Step Time =    1.000,"P-4-1",          1002,       78.0747,       170.073,            0.,NA,NA,"",   991.976E+03,   996.424E+03,   996.424E+03
C:/temp/Job-4.odb,Step-1,Increment      1: Step Time =    1.000,"P-4-1",          1003,       54.4703,       172.996,            0.,NA,NA,"",   995.039E+03,   1.00588E+06,   1.00588E+06
C:/temp/Job-4.odb,Step-1,Increment      1: Step Time =    1.000,"P-4-1",          1004,       29.7316,       122.457,            0.,NA,NA,"",   909.742E+03,   982.598E+03,   982.598E+03
C:/temp/Job-4.odb,Step-1,Increment      1: Step Time =    1.000,"P-4-1",          1005,       23.7648,       109.366,            0.,NA,NA,"",   885.840E+03,   968.528E+03,   968.528E+03
C:/temp/Job-4.odb,Step-1,Increment      1: Step Time =    1.000,"P-4-1",          1006,       65.9610,       171.748,            0.,NA,NA,"",   992.683E+03,   999.632E+03,   999.632E+03
C:/temp/Job-4.odb,Step-1,Increment      1: Step Time =    1.000,"P-4-1",          1007,       25.9852,       144.453,            0.,NA,NA,"",   925.317E+03,   995.545E+03,   995.545E+03
C:/temp/Job-4.odb,Step-1,Increment      1: Step Time =    1.000,"P-4-1",          1008,       27.7078,       131.623,            0.,NA,NA,"",   912.506E+03,   985.687E+03,   985.687E+03
C:/temp/Job-4.odb,Step-1,Increment      1: Step Time =    1.000,"P-4-1",          1009,       119.110,       29.3651,            0.,NA,NA,"",   992.893E+03,   992.740E+03,   992.740E+03
C:/temp/Job-4.odb,Step-1,Increment      1: Step Time =    1.000,"P-4-1",          1010,       109.196,       22.6201,            0.,NA,NA,"",   984.450E+03,   984.756E+03,   984.756E+03
C:/temp/Job-4.odb,Step-1,Increment      1: Step Time =    1.000,"P-4-1",          1011,       171.962,       77.4552,            0.,NA,NA,"",   1.00700E+06,   1.00216E+06,   1.00216E+06
C:/temp/Job-4.odb,Step-1,Increment      1: Step Time =    1.000,"P-4-1",          1012,       176.657,       86.9217,            0.,NA,NA,"",   1.00670E+06,   1.00133E+06,   1.00133E+06
C:/temp/Job-4.odb,Step-1,Increment      1: Step Time =    1.000,"P-4-1",          1013,       125.117,       171.171,            0.,NA,NA,"",   993.497E+03,   992.955E+03,   992.955E+03
C:/temp/Job-4.odb,Step-1,Increment      1: Step Time =    1.000,"P-4-1",          1014,       111.146,       175.441,            0.,NA,NA,"",   986.734E+03,   986.988E+03,   986.988E+03
C:/temp/Job-4.odb,Step-1,Increment      1: Step Time =    1.000,"P-4-1",          1015,       22.9117,       91.8210,            0.,NA,NA,"",   883.152E+03,   966.976E+03,   966.976E+03
C:/temp/Job-4.odb,Step-1,Increment      1: Step Time =    1.000,"P-4-1",          1016,       30.0889,       79.1837,            0.,NA,NA,"",   908.972E+03,   981.919E+03,   981.919E+03
C:/temp/Job-4.odb,Step-1,Increment      1: Step Time =    1.000,"P-4-1",          1017,       174.436,       109.625,            0.,NA,NA,"",   1.00665E+06,   1.00149E+06,   1.00149E+06
C:/temp/Job-4.odb,Step-1,Increment      1: Step Time =    1.000,"P-4-1",          1018,       169.409,       118.500,            0.,NA,NA,"",   1.00706E+06,   1.00238E+06,   1.00238E+06
C:/temp/Job-4.odb,Step-1,Increment      1: Step Time =    1.000,"P-4-1",          1019,       132.020,       29.7294,            0.,NA,NA,"",   995.515E+03,   994.532E+03,   994.532E+03
C:/temp/Job-4.odb,Step-1,Increment      1: Step Time =    1.000,"P-4-1",          1020,       170.154,       66.2825,            0.,NA,NA,"",   1.00699E+06,   1.00253E+06,   1.00253E+06
C:/temp/Job-4.odb,Step-1,Increment      1: Step Time =    1.000,"P-4-1",          1021,       144.280,       27.3290,            0.,NA,NA,"",   996.002E+03,   994.740E+03,   994.740E+03
C:/temp/Job-4.odb,Step-1,Increment      1: Step Time =    1.000,"P-4-1",          1022,       173.654,       54.6222,            0.,NA,NA,"",   1.00544E+06,   1.00144E+06,   1.00144E+06
C:/temp/Job-4.odb,Step-1,Increment      1: Step Time =    1.000,"P-4-1",          1023,       130.965,       172.454,            0.,NA,NA,"",   993.563E+03,   992.737E+03,   992.737E+03
C:/temp/Job-4.odb,Step-1,Increment      1: Step Time =    1.000,"P-4-1",          1024,       32.5361,       72.7354,            0.,NA,NA,"",   922.100E+03,   989.535E+03,   989.535E+03
C:/temp/Job-4.odb,Step-1,Increment      1: Step Time =    1.000,"P-4-1",          1025,       68.2346,       28.5763,            0.,NA,NA,"",   992.337E+03,   998.664E+03,   998.664E+03
C:/temp/Job-4.odb,Step-1,Increment      1: Step Time =    1.000,"P-4-1",          1026,       144.465,       173.872,            0.,NA,NA,"",   995.341E+03,   994.162E+03,   994.162E+03
C:/temp/Job-4.odb,Step-1,Increment      1: Step Time =    1.000,"P-4-1",          1027,       173.911,       143.591,            0.,NA,NA,"",   1.00568E+06,   1.00153E+06,   1.00153E+06
C:/temp/Job-4.odb,Step-1,Increment      1: Step Time =    1.000,"P-4-1",          1028,       25.2315,       56.3335,            0.,NA,NA,"",   923.359E+03,   994.477E+03,   994.477E+03
C:/temp/Job-4.odb,Step-1,Increment      1: Step Time =    1.000,"P-4-1",          1029,       54.7742,       26.7639,            0.,NA,NA,"",   994.918E+03,   1.00519E+06,   1.00519E+06
C:/temp/Job-4.odb,Step-1,Increment      1: Step Time =    1.000,"P-4-1",          1030,       100.337,       184.242,            0.,NA,NA,"",   973.564E+03,   973.806E+03,   973.806E+03
C:/temp/Job-4.odb,Step-1,Increment      1: Step Time =    1.000,"P-4-1",          1031,       184.407,       99.7130,            0.,NA,NA,"",   1.00704E+06,   1.00060E+06,   1.00060E+06
C:/temp/Job-4.odb,Step-1,Increment      1: Step Time =    1.000,"P-4-1",          1032,       14.1506,       100.309,            0.,NA,NA,"",   857.845E+03,   952.045E+03,   952.045E+03
C:/temp/Job-4.odb,Step-1,Increment      1: Step Time =    1.000,"P-4-1",          1033,       88.9779,       184.490,            0.,NA,NA,"",   970.490E+03,   971.142E+03,   971.142E+03
C:/temp/Job-4.odb,Step-1,Increment      1: Step Time =    1.000,"P-4-1",          1034,       184.580,       109.753,            0.,NA,NA,"",   1.00702E+06,   1.00063E+06,   1.00063E+06
C:/temp/Job-4.odb,Step-1,Increment      1: Step Time =    1.000,"P-4-1",          1035,       14.1518,       90.8189,            0.,NA,NA,"",   859.048E+03,   953.027E+03,   953.027E+03
C:/temp/Job-4.odb,Step-1,Increment      1: Step Time =    1.000,"P-4-1",          1036,       110.146,       15.0277,            0.,NA,NA,"",   976.057E+03,   976.079E+03,   976.079E+03
C:/temp/Job-4.odb,Step-1,Increment      1: Step Time =    1.000,"P-4-1",          1037,       76.6475,       106.297,            0.,NA,NA,"",   971.925E+03,   995.556E+03,   995.556E+03
C:/temp/Job-4.odb,Step-1,Increment      1: Step Time =    1.000,"P-4-1",          1038,       101.967,       126.902,            0.,NA,NA,"",   1.01516E+06,   1.02801E+06,   1.02801E+06
C:/temp/Job-4.odb,Step-1,Increment      1: Step Time =    1.000,"P-4-1",          1039,       83.1223,       75.8872,            0.,NA,NA,"",   1.01940E+06,   1.03196E+06,   1.03196E+06
C:/temp/Job-4.odb,Step-1,Increment      1: Step Time =    1.000,"P-4-1",          1040,       74.9598,       81.6734,            0.,NA,NA,"",   1.00324E+06,   1.02179E+06,   1.02179E+06
C:/temp/Job-4.odb,Step-1,Increment      1: Step Time =    1.000,"P-4-1",          1041,       78.1641,       112.288,            0.,NA,NA,"",   998.913E+03,   1.01503E+06,   1.01503E+06
C:/temp/Job-4.odb,Step-1,Increment      1: Step Time =    1.000,"P-4-1",          1042,       103.056,       123.595,            0.,NA,NA,"",   1.01629E+06,   1.03039E+06,   1.03039E+06
C:/temp/Job-4.odb,Step-1,Increment      1: Step Time =    1.000,"P-4-1",          1043,       111.560,       124.984,            0.,NA,NA,"",   1.02455E+06,   1.02820E+06,   1.02820E+06
C:/temp/Job-4.odb,Step-1,Increment      1: Step Time =    1.000,"P-4-1",          1044,       113.067,       117.924,            0.,NA,NA,"",   1.04185E+06,   1.03938E+06,   1.03938E+06
C:/temp/Job-4.odb,Step-1,Increment      1: Step Time =    1.000,"P-4-1",          1045,       121.563,       75.7964,            0.,NA,NA,"",   1.02698E+06,   1.02382E+06,   1.02382E+06
C:/temp/Job-4.odb,Step-1,Increment      1: Step Time =    1.000,"P-4-1",          1046,       124.698,       98.8430,            0.,NA,NA,"",   982.709E+03,   985.761E+03,   985.761E+03
C:/temp/Job-4.odb,Step-1,Increment      1: Step Time =    1.000,"P-4-1",          1047,       47.1084,       174.157,            0.,NA,NA,"",   998.312E+03,   1.01273E+06,   1.01273E+06
C:/temp/Job-4.odb,Step-1,Increment      1: Step Time =    1.000,"P-4-1",          1048,       25.0798,       149.549,            0.,NA,NA,"",   933.035E+03,   1.00141E+06,   1.00141E+06
C:/temp/Job-4.odb,Step-1,Increment      1: Step Time =    1.000,"P-4-1",          1049,       124.471,       85.5766,            0.,NA,NA,"",   1.01705E+06,   1.01347E+06,   1.01347E+06
C:/temp/Job-4.odb,Step-1,Increment      1: Step Time =    1.000,"P-4-1",          1050,       128.003,       98.4887,            0.,NA,NA,"",   989.960E+03,   991.893E+03,   991.893E+03
C:/temp/Job-4.odb,Step-1,Increment      1: Step Time =    1.000,"P-4-1",          1051,       150.373,       24.7796,            0.,NA,NA,"",   995.625E+03,   994.463E+03,   994.463E+03
C:/temp/Job-4.odb,Step-1,Increment      1: Step Time =    1.000,"P-4-1",          1052,       177.780,       49.1504,            0.,NA,NA,"",   1.00437E+06,   1.00067E+06,   1.00067E+06
C:/temp/Job-4.odb,Step-1,Increment      1: Step Time =    1.000,"P-4-1",          1053,       67.4719,       95.4655,            0.,NA,NA,"",   967.949E+03,   999.472E+03,   999.472E+03
C:/temp/Job-4.odb,Step-1,Increment      1: Step Time =    1.000,"P-4-1",          1054,       87.6045,       122.722,            0.,NA,NA,"",   1.02313E+06,   1.03509E+06,   1.03509E+06
C:/temp/Job-4.odb,Step-1,Increment      1: Step Time =    1.000,"P-4-1",          1055,       125.309,       111.751,            0.,NA,NA,"",   1.00921E+06,   1.00698E+06,   1.00698E+06
C:/temp/Job-4.odb,Step-1,Increment      1: Step Time =    1.000,"P-4-1",          1056,       117.082,       118.624,            0.,NA,NA,"",   1.03644E+06,   1.03173E+06,   1.03173E+06
C:/temp/Job-4.odb,Step-1,Increment      1: Step Time =    1.000,"P-4-1",          1057,       150.754,       176.776,            0.,NA,NA,"",   995.199E+03,   994.119E+03,   994.119E+03
C:/temp/Job-4.odb,Step-1,Increment      1: Step Time =    1.000,"P-4-1",          1058,       174.936,       150.336,            0.,NA,NA,"",   1.00461E+06,   1.00092E+06,   1.00092E+06
C:/temp/Job-4.odb,Step-1,Increment      1: Step Time =    1.000,"P-4-1",          1059,       24.6972,       50.2510,            0.,NA,NA,"",   933.428E+03,   1.00146E+06,   1.00146E+06
C:/temp/Job-4.odb,Step-1,Increment      1: Step Time =    1.000,"P-4-1",          1060,       48.7811,       23.3785,            0.,NA,NA,"",   996.313E+03,   1.00666E+06,   1.00666E+06
C:/temp/Job-4.odb,Step-1,Increment      1: Step Time =    1.000,"P-4-1",          1061,       114.011,       74.4709,            0.,NA,NA,"",   1.02684E+06,   1.02806E+06,   1.02806E+06
C:/temp/Job-4.odb,Step-1,Increment      1: Step Time =    1.000,"P-4-1",          1062,       97.9786,       69.9195,            0.,NA,NA,"",   1.01086E+06,   1.02345E+06,   1.02345E+06
C:/temp/Job-4.odb,Step-1,Increment      1: Step Time =    1.000,"P-4-1",          1063,       107.052,       67.5857,            0.,NA,NA,"",   1.01427E+06,   1.02142E+06,   1.02142E+06
C:/temp/Job-4.odb,Step-1,Increment      1: Step Time =    1.000,"P-4-1",          1064,       94.7649,       125.077,            0.,NA,NA,"",   1.01290E+06,   1.02798E+06,   1.02798E+06
C:/temp/Job-4.odb,Step-1,Increment      1: Step Time =    1.000,"P-4-1",          1065,       65.9681,       176.621,            0.,NA,NA,"",   986.625E+03,   991.380E+03,   991.380E+03
C:/temp/Job-4.odb,Step-1,Increment      1: Step Time =    1.000,"P-4-1",          1066,       78.8564,       175.292,            0.,NA,NA,"",   985.284E+03,   988.178E+03,   988.178E+03
C:/temp/Job-4.odb,Step-1,Increment      1: Step Time =    1.000,"P-4-1",          1067,       90.7974,       168.847,            0.,NA,NA,"",   992.108E+03,   994.889E+03,   994.889E+03
C:/temp/Job-4.odb,Step-1,Increment      1: Step Time =    1.000,"P-4-1",          1068,       109.549,       28.4311,            0.,NA,NA,"",   990.243E+03,   990.775E+03,   990.775E+03
C:/temp/Job-4.odb,Step-1,Increment      1: Step Time =    1.000,"P-4-1",          1069,       78.5431,       27.4963,            0.,NA,NA,"",   988.967E+03,   992.584E+03,   992.584E+03
C:/temp/Job-4.odb,Step-1,Increment      1: Step Time =    1.000,"P-4-1",          1070,       88.7960,       23.2320,            0.,NA,NA,"",   982.896E+03,   984.503E+03,   984.503E+03
C:/temp/Job-4.odb,Step-1,Increment      1: Step Time =    1.000,"P-4-1",          1071,       31.0368,       85.7422,            0.,NA,NA,"",   907.290E+03,   980.296E+03,   980.296E+03
C:/temp/Job-4.odb,Step-1,Increment      1: Step Time =    1.000,"P-4-1",          1072,       169.357,       109.642,            0.,NA,NA,"",   1.00663E+06,   1.00199E+06,   1.00199E+06
C:/temp/Job-4.odb,Step-1,Increment      1: Step Time =    1.000,"P-4-1",          1073,       94.6762,       182.994,            0.,NA,NA,"",   974.086E+03,   974.654E+03,   974.654E+03
C:/temp/Job-4.odb,Step-1,Increment      1: Step Time =    1.000,"P-4-1",          1074,       184.512,       104.751,            0.,NA,NA,"",   1.00704E+06,   1.00060E+06,   1.00060E+06
C:/temp/Job-4.odb,Step-1,Increment      1: Step Time =    1.000,"P-4-1",          1075,       14.0806,       95.5988,            0.,NA,NA,"",   857.945E+03,   952.165E+03,   952.165E+03
C:/temp/Job-4.odb,Step-1,Increment      1: Step Time =    1.000,"P-4-1",          1076,       105.186,       14.8095,            0.,NA,NA,"",   973.904E+03,   974.051E+03,   974.051E+03
C:/temp/Job-4.odb,Step-1,Increment      1: Step Time =    1.000,"P-4-1",          1077,       100.345,       15.0187,            0.,NA,NA,"",   972.529E+03,   972.799E+03,   972.799E+03
C:/temp/Job-4.odb,Step-1,Increment      1: Step Time =    1.000,"P-4-1",          1078,       69.9661,       90.6855,            0.,NA,NA,"",   976.794E+03,   1.00435E+06,   1.00435E+06
C:/temp/Job-4.odb,Step-1,Increment      1: Step Time =    1.000,"P-4-1",          1079,       126.324,       107.467,            0.,NA,NA,"",   997.413E+03,   997.483E+03,   997.483E+03
C:/temp/Job-4.odb,Step-1,Increment      1: Step Time =    1.000,"P-4-1",          1080,       70.8287,       103.346,            0.,NA,NA,"",   967.855E+03,   996.623E+03,   996.623E+03
C:/temp/Job-4.odb,Step-1,Increment      1: Step Time =    1.000,"P-4-1",          1081,       122.924,       80.9174,            0.,NA,NA,"",   1.02558E+06,   1.02120E+06,   1.02120E+06
C:/temp/Job-4.odb,Step-1,Increment      1: Step Time =    1.000,"P-4-1",          1082,       91.4124,       125.735,            0.,NA,NA,"",   1.01588E+06,   1.02966E+06,   1.02966E+06
C:/temp/Job-4.odb,Step-1,Increment      1: Step Time =    1.000,"P-4-1",          1083,       80.7684,       115.812,            0.,NA,NA,"",   1.01661E+06,   1.02821E+06,   1.02821E+06
C:/temp/Job-4.odb,Step-1,Increment      1: Step Time =    1.000,"P-4-1",          1084,       75.6090,       108.960,            0.,NA,NA,"",   981.732E+03,   1.00335E+06,   1.00335E+06
C:/temp/Job-4.odb,Step-1,Increment      1: Step Time =    1.000,"P-4-1",          1085,       83.7454,       119.609,            0.,NA,NA,"",   1.02557E+06,   1.03592E+06,   1.03592E+06
C:/temp/Job-4.odb,Step-1,Increment      1: Step Time =    1.000,"P-4-1",          1086,       103.416,       130.918,            0.,NA,NA,"",   1.01310E+06,   1.02304E+06,   1.02304E+06
C:/temp/Job-4.odb,Step-1,Increment      1: Step Time =    1.000,"P-4-1",          1087,       117.982,       73.8228,            0.,NA,NA,"",   1.02636E+06,   1.02525E+06,   1.02525E+06
C:/temp/Job-4.odb,Step-1,Increment      1: Step Time =    1.000,"P-4-1",          1088,       116.430,       122.759,            0.,NA,NA,"",   1.03108E+06,   1.02945E+06,   1.02945E+06
C:/temp/Job-4.odb,Step-1,Increment      1: Step Time =    1.000,"P-4-1",          1089,       110.051,       73.6704,            0.,NA,NA,"",   1.02120E+06,   1.02675E+06,   1.02675E+06
C:/temp/Job-4.odb,Step-1,Increment      1: Step Time =    1.000,"P-4-1",          1090,       121.390,       119.430,            0.,NA,NA,"",   1.02813E+06,   1.02378E+06,   1.02378E+06
C:/temp/Job-4.odb,Step-1,Increment      1: Step Time =    1.000,"P-4-1",          1091,       128.930,       103.209,            0.,NA,NA,"",   992.724E+03,   993.991E+03,   993.991E+03
C:/temp/Job-4.odb,Step-1,Increment      1: Step Time =    1.000,"P-4-1",          1092,       129.268,       91.6795,            0.,NA,NA,"",   1.00039E+06,   999.943E+03,   999.943E+03
C:/temp/Job-4.odb,Step-1,Increment      1: Step Time =    1.000,"P-4-1",          1093,       81.0292,       73.0955,            0.,NA,NA,"",   1.01519E+06,   1.02914E+06,   1.02914E+06
C:/temp/Job-4.odb,Step-1,Increment      1: Step Time =    1.000,"P-4-1",          1094,       75.1777,       77.7194,            0.,NA,NA,"",   1.00830E+06,   1.02561E+06,   1.02561E+06
C:/temp/Job-4.odb,Step-1,Increment      1: Step Time =    1.000,"P-4-1",          1095,       104.839,       65.9223,            0.,NA,NA,"",   1.01343E+06,   1.02124E+06,   1.02124E+06
C:/temp/Job-4.odb,Step-1,Increment      1: Step Time =    1.000,"P-4-1",          1096,       76.4075,       74.1295,            0.,NA,NA,"",   1.01044E+06,   1.02683E+06,   1.02683E+06
C:/temp/Job-4.odb,Step-1,Increment      1: Step Time =    1.000,"P-4-1",          1097,       47.7279,       179.038,            0.,NA,NA,"",   994.587E+03,   1.00390E+06,   1.00390E+06
C:/temp/Job-4.odb,Step-1,Increment      1: Step Time =    1.000,"P-4-1",          1098,       21.9950,       153.126,            0.,NA,NA,"",   931.852E+03,   1.00282E+06,   1.00282E+06
C:/temp/Job-4.odb,Step-1,Increment      1: Step Time =    1.000,"P-4-1",          1099,       152.861,       21.0840,            0.,NA,NA,"",   994.428E+03,   993.519E+03,   993.519E+03
C:/temp/Job-4.odb,Step-1,Increment      1: Step Time =    1.000,"P-4-1",          1100,       180.726,       49.3559,            0.,NA,NA,"",   1.00434E+06,   1.00052E+06,   1.00052E+06
C:/temp/Job-4.odb,Step-1,Increment      1: Step Time =    1.000,"P-4-1",          1101,       173.445,       48.7960,            0.,NA,NA,"",   1.00446E+06,   1.00092E+06,   1.00092E+06
C:/temp/Job-4.odb,Step-1,Increment      1: Step Time =    1.000,"P-4-1",          1102,       100.329,       65.3630,            0.,NA,NA,"",   1.00931E+06,   1.01905E+06,   1.01905E+06
C:/temp/Job-4.odb,Step-1,Increment      1: Step Time =    1.000,"P-4-1",          1103,       94.9772,       175.592,            0.,NA,NA,"",   984.106E+03,   985.289E+03,   985.289E+03
C:/temp/Job-4.odb,Step-1,Increment      1: Step Time =    1.000,"P-4-1",          1104,       150.547,       180.226,            0.,NA,NA,"",   993.513E+03,   992.704E+03,   992.704E+03
C:/temp/Job-4.odb,Step-1,Increment      1: Step Time =    1.000,"P-4-1",          1105,       148.732,       173.500,            0.,NA,NA,"",   996.265E+03,   994.979E+03,   994.979E+03
C:/temp/Job-4.odb,Step-1,Increment      1: Step Time =    1.000,"P-4-1",          1106,       181.469,       151.049,            0.,NA,NA,"",   1.00423E+06,   1.00042E+06,   1.00042E+06
C:/temp/Job-4.odb,Step-1,Increment      1: Step Time =    1.000,"P-4-1",          1107,       18.4165,       48.8396,            0.,NA,NA,"",   916.124E+03,   994.756E+03,   994.756E+03
C:/temp/Job-4.odb,Step-1,Increment      1: Step Time =    1.000,"P-4-1",          1108,       49.6199,       27.5501,            0.,NA,NA,"",   998.439E+03,   1.01208E+06,   1.01208E+06
C:/temp/Job-4.odb,Step-1,Increment      1: Step Time =    1.000,"P-4-1",          1109,       48.0846,       20.0830,            0.,NA,NA,"",   992.277E+03,   1.00077E+06,   1.00077E+06
C:/temp/Job-4.odb,Step-1,Increment      1: Step Time =    1.000,"P-4-1",          1110,       65.8044,       181.436,            0.,NA,NA,"",   978.098E+03,   981.108E+03,   981.108E+03
C:/temp/Job-4.odb,Step-1,Increment      1: Step Time =    1.000,"P-4-1",          1111,       27.1319,       92.2371,            0.,NA,NA,"",   894.724E+03,   973.224E+03,   973.224E+03
C:/temp/Job-4.odb,Step-1,Increment      1: Step Time =    1.000,"P-4-1",          1112,       174.158,       105.022,            0.,NA,NA,"",   1.00655E+06,   1.00141E+06,   1.00141E+06
C:/temp/Job-4.odb,Step-1,Increment      1: Step Time =    1.000,"P-4-1",          1113,       89.1689,       165.259,            0.,NA,NA,"",   995.476E+03,   999.260E+03,   999.260E+03
C:/temp/Job-4.odb,Step-1,Increment      1: Step Time =    1.000,"P-4-1",          1114,       110.395,       33.5477,            0.,NA,NA,"",   995.392E+03,   996.273E+03,   996.273E+03
C:/temp/Job-4.odb,Step-1,Increment      1: Step Time =    1.000,"P-4-1",          1115,       35.3562,       86.1669,            0.,NA,NA,"",   917.901E+03,   985.493E+03,   985.493E+03
C:/temp/Job-4.odb,Step-1,Increment      1: Step Time =    1.000,"P-4-1",          1116,       164.394,       109.733,            0.,NA,NA,"",   1.00664E+06,   1.00248E+06,   1.00248E+06
C:/temp/Job-4.odb,Step-1,Increment      1: Step Time =    1.000,"P-4-1",          1117,       91.7346,       178.315,            0.,NA,NA,"",   980.540E+03,   981.705E+03,   981.705E+03
C:/temp/Job-4.odb,Step-1,Increment      1: Step Time =    1.000,"P-4-1",          1118,       179.510,       109.631,            0.,NA,NA,"",   1.00677E+06,   1.00103E+06,   1.00103E+06
C:/temp/Job-4.odb,Step-1,Increment      1: Step Time =    1.000,"P-4-1",          1119,       18.5718,       91.3309,            0.,NA,NA,"",   871.213E+03,   960.225E+03,   960.225E+03
C:/temp/Job-4.odb,Step-1,Increment      1: Step Time =    1.000,"P-4-1",          1120,       109.478,       19.2728,            0.,NA,NA,"",   980.952E+03,   981.113E+03,   981.113E+03
C:/temp/Job-4.odb,Step-1,Increment      1: Step Time =    1.000,"P-4-1",          1121,       94.7305,       67.2563,            0.,NA,NA,"",   1.00942E+06,   1.02127E+06,   1.02127E+06
C:/temp/Job-4.odb,Step-1,Increment      1: Step Time =    1.000,"P-4-1",          1122,       121.260,       70.6018,            0.,NA,NA,"",   1.02272E+06,   1.02108E+06,   1.02108E+06
C:/temp/Job-4.odb,Step-1,Increment      1: Step Time =    1.000,"P-4-1",          1123,       109.031,       64.5350,            0.,NA,NA,"",   1.01389E+06,   1.01911E+06,   1.01911E+06
C:/temp/Job-4.odb,Step-1,Increment      1: Step Time =    1.000,"P-4-1",          1124,       113.103,       67.7999,            0.,NA,NA,"",   1.01785E+06,   1.02088E+06,   1.02088E+06
C:/temp/Job-4.odb,Step-1,Increment      1: Step Time =    1.000,"P-4-1",          1125,       69.2094,       107.003,            0.,NA,NA,"",   972.665E+03,   1.00190E+06,   1.00190E+06
C:/temp/Job-4.odb,Step-1,Increment      1: Step Time =    1.000,"P-4-1",          1126,       28.4687,       157.153,            0.,NA,NA,"",   959.157E+03,   1.01564E+06,   1.01564E+06
C:/temp/Job-4.odb,Step-1,Increment      1: Step Time =    1.000,"P-4-1",          1127,       153.246,       173.631,            0.,NA,NA,"",   996.951E+03,   995.600E+03,   995.600E+03
C:/temp/Job-4.odb,Step-1,Increment      1: Step Time =    1.000,"P-4-1",          1128,       45.2562,       28.2118,            0.,NA,NA,"",   1.00029E+06,   1.01795E+06,   1.01795E+06
C:/temp/Job-4.odb,Step-1,Increment      1: Step Time =    1.000,"P-4-1",          1129,       83.7841,       123.293,            0.,NA,NA,"",   1.02096E+06,   1.03299E+06,   1.03299E+06
C:/temp/Job-4.odb,Step-1,Increment      1: Step Time =    1.000,"P-4-1",          1130,       77.7230,       115.150,            0.,NA,NA,"",   1.00547E+06,   1.02140E+06,   1.02140E+06
C:/temp/Job-4.odb,Step-1,Increment      1: Step Time =    1.000,"P-4-1",          1131,       129.720,       106.933,            0.,NA,NA,"",   998.625E+03,   998.533E+03,   998.533E+03
C:/temp/Job-4.odb,Step-1,Increment      1: Step Time =    1.000,"P-4-1",          1132,       128.408,       78.8760,            0.,NA,NA,"",   1.02025E+06,   1.01643E+06,   1.01643E+06
C:/temp/Job-4.odb,Step-1,Increment      1: Step Time =    1.000,"P-4-1",          1133,       91.7186,       129.578,            0.,NA,NA,"",   1.01268E+06,   1.02561E+06,   1.02561E+06
C:/temp/Job-4.odb,Step-1,Increment      1: Step Time =    1.000,"P-4-1",          1134,       98.5980,       128.112,            0.,NA,NA,"",   1.00950E+06,   1.02289E+06,   1.02289E+06
C:/temp/Job-4.odb,Step-1,Increment      1: Step Time =    1.000,"P-4-1",          1135,       107.421,       131.899,            0.,NA,NA,"",   1.01420E+06,   1.02098E+06,   1.02098E+06
C:/temp/Job-4.odb,Step-1,Increment      1: Step Time =    1.000,"P-4-1",          1136,       120.690,       124.084,            0.,NA,NA,"",   1.02788E+06,   1.02485E+06,   1.02485E+06
C:/temp/Job-4.odb,Step-1,Increment      1: Step Time =    1.000,"P-4-1",          1137,       168.434,       48.5006,            0.,NA,NA,"",   1.00464E+06,   1.00125E+06,   1.00125E+06
C:/temp/Job-4.odb,Step-1,Increment      1: Step Time =    1.000,"P-4-1",          1138,       151.188,       169.529,            0.,NA,NA,"",   998.274E+03,   996.671E+03,   996.671E+03
C:/temp/Job-4.odb,Step-1,Increment      1: Step Time =    1.000,"P-4-1",          1139,       49.7601,       32.1508,            0.,NA,NA,"",   997.861E+03,   1.01553E+06,   1.01553E+06
C:/temp/Job-4.odb,Step-1,Increment      1: Step Time =    1.000,"P-4-1",          1140,       30.2915,       150.028,            0.,NA,NA,"",   947.732E+03,   1.00744E+06,   1.00744E+06
C:/temp/Job-4.odb,Step-1,Increment      1: Step Time =    1.000,"P-4-1",          1141,       133.951,       97.7672,            0.,NA,NA,"",   997.560E+03,   997.747E+03,   997.747E+03
C:/temp/Job-4.odb,Step-1,Increment      1: Step Time =    1.000,"P-4-1",          1142,       70.8768,       81.5458,            0.,NA,NA,"",   995.442E+03,   1.01822E+06,   1.01822E+06
C:/temp/Job-4.odb,Step-1,Increment      1: Step Time =    1.000,"P-4-1",          1143,       80.2825,       68.3130,            0.,NA,NA,"",   1.01189E+06,   1.02620E+06,   1.02620E+06
C:/temp/Job-4.odb,Step-1,Increment      1: Step Time =    1.000,"P-4-1",          1144,       97.4012,       66.3589,            0.,NA,NA,"",   1.01002E+06,   1.02110E+06,   1.02110E+06
C:/temp/Job-4.odb,Step-1,Increment      1: Step Time =    1.000,"P-4-1",          1145,       87.8273,       126.405,            0.,NA,NA,"",   1.01763E+06,   1.03034E+06,   1.03034E+06
C:/temp/Job-4.odb,Step-1,Increment      1: Step Time =    1.000,"P-4-1",          1146,       92.7202,       69.0027,            0.,NA,NA,"",   1.01062E+06,   1.02314E+06,   1.02314E+06
C:/temp/Job-4.odb,Step-1,Increment      1: Step Time =    1.000,"P-4-1",          1147,       50.6588,       181.190,            0.,NA,NA,"",   988.442E+03,   995.065E+03,   995.065E+03
C:/temp/Job-4.odb,Step-1,Increment      1: Step Time =    1.000,"P-4-1",          1148,       44.6778,       176.584,            0.,NA,NA,"",   999.056E+03,   1.01256E+06,   1.01256E+06
C:/temp/Job-4.odb,Step-1,Increment      1: Step Time =    1.000,"P-4-1",          1149,       84.5079,       162.836,            0.,NA,NA,"",   998.009E+03,   1.00322E+06,   1.00322E+06
C:/temp/Job-4.odb,Step-1,Increment      1: Step Time =    1.000,"P-4-1",          1150,       17.9017,       151.119,            0.,NA,NA,"",   914.175E+03,   993.577E+03,   993.577E+03
C:/temp/Job-4.odb,Step-1,Increment      1: Step Time =    1.000,"P-4-1",          1151,       25.2316,       155.030,            0.,NA,NA,"",   945.764E+03,   1.00923E+06,   1.00923E+06
C:/temp/Job-4.odb,Step-1,Increment      1: Step Time =    1.000,"P-4-1",          1152,       87.7100,       179.901,            0.,NA,NA,"",   978.218E+03,   979.455E+03,   979.455E+03
C:/temp/Job-4.odb,Step-1,Increment      1: Step Time =    1.000,"P-4-1",          1153,       156.481,       23.7688,            0.,NA,NA,"",   996.364E+03,   995.196E+03,   995.196E+03
C:/temp/Job-4.odb,Step-1,Increment      1: Step Time =    1.000,"P-4-1",          1154,       149.558,       18.7547,            0.,NA,NA,"",   992.634E+03,   991.911E+03,   991.911E+03
C:/temp/Job-4.odb,Step-1,Increment      1: Step Time =    1.000,"P-4-1",          1155,       184.700,       49.6444,            0.,NA,NA,"",   1.00430E+06,   1.00032E+06,   1.00032E+06
C:/temp/Job-4.odb,Step-1,Increment      1: Step Time =    1.000,"P-4-1",          1156,       178.979,       45.2607,            0.,NA,NA,"",   1.00380E+06,   1.00037E+06,   1.00037E+06
C:/temp/Job-4.odb,Step-1,Increment      1: Step Time =    1.000,"P-4-1",          1157,       114.989,       34.1201,            0.,NA,NA,"",   996.234E+03,   996.570E+03,   996.570E+03
C:/temp/Job-4.odb,Step-1,Increment      1: Step Time =    1.000,"P-4-1",          1158,       113.082,       20.4283,            0.,NA,NA,"",   982.983E+03,   982.959E+03,   982.959E+03
C:/temp/Job-4.odb,Step-1,Increment      1: Step Time =    1.000,"P-4-1",          1159,       160.456,       113.996,            0.,NA,NA,"",   1.00721E+06,   1.00328E+06,   1.00328E+06
C:/temp/Job-4.odb,Step-1,Increment      1: Step Time =    1.000,"P-4-1",          1160,       38.7792,       84.3937,            0.,NA,NA,"",   928.479E+03,   990.727E+03,   990.727E+03
C:/temp/Job-4.odb,Step-1,Increment      1: Step Time =    1.000,"P-4-1",          1161,       18.8147,       86.7719,            0.,NA,NA,"",   873.605E+03,   961.937E+03,   961.937E+03
C:/temp/Job-4.odb,Step-1,Increment      1: Step Time =    1.000,"P-4-1",          1162,       154.809,       178.754,            0.,NA,NA,"",   995.094E+03,   994.124E+03,   994.124E+03
C:/temp/Job-4.odb,Step-1,Increment      1: Step Time =    1.000,"P-4-1",          1163,       150.296,       184.465,            0.,NA,NA,"",   991.716E+03,   991.166E+03,   991.166E+03
C:/temp/Job-4.odb,Step-1,Increment      1: Step Time =    1.000,"P-4-1",          1164,       177.711,       153.416,            0.,NA,NA,"",   1.00401E+06,   1.00048E+06,   1.00048E+06
C:/temp/Job-4.odb,Step-1,Increment      1: Step Time =    1.000,"P-4-1",          1165,       22.5289,       46.3172,            0.,NA,NA,"",   934.776E+03,   1.00453E+06,   1.00453E+06
C:/temp/Job-4.odb,Step-1,Increment      1: Step Time =    1.000,"P-4-1",          1166,       44.5315,       23.8527,            0.,NA,NA,"",   1.00040E+06,   1.01406E+06,   1.01406E+06
C:/temp/Job-4.odb,Step-1,Increment      1: Step Time =    1.000,"P-4-1",          1167,       48.4751,       15.3538,            0.,NA,NA,"",   983.620E+03,   988.812E+03,   988.812E+03
C:/temp/Job-4.odb,Step-1,Increment      1: Step Time =    1.000,"P-4-1",          1168,       133.309,       94.1633,            0.,NA,NA,"",   999.345E+03,   999.216E+03,   999.216E+03
C:/temp/Job-4.odb,Step-1,Increment      1: Step Time =    1.000,"P-4-1",          1169,       125.003,       77.3523,            0.,NA,NA,"",   1.02406E+06,   1.02026E+06,   1.02026E+06
C:/temp/Job-4.odb,Step-1,Increment      1: Step Time =    1.000,"P-4-1",          1170,       72.4735,       108.025,            0.,NA,NA,"",   976.893E+03,   1.00259E+06,   1.00259E+06
C:/temp/Job-4.odb,Step-1,Increment      1: Step Time =    1.000,"P-4-1",          1171,       79.7764,       123.872,            0.,NA,NA,"",   1.01551E+06,   1.02961E+06,   1.02961E+06
C:/temp/Job-4.odb,Step-1,Increment      1: Step Time =    1.000,"P-4-1",          1172,       99.2343,       61.8040,            0.,NA,NA,"",   1.00954E+06,   1.01836E+06,   1.01836E+06
C:/temp/Job-4.odb,Step-1,Increment      1: Step Time =    1.000,"P-4-1",          1173,       39.9460,       24.8192,            0.,NA,NA,"",   1.00241E+06,   1.02122E+06,   1.02122E+06
C:/temp/Job-4.odb,Step-1,Increment      1: Step Time =    1.000,"P-4-1",          1174,       25.7273,       38.7210,            0.,NA,NA,"",   963.472E+03,   1.02087E+06,   1.02087E+06
C:/temp/Job-4.odb,Step-1,Increment      1: Step Time =    1.000,"P-4-1",          1175,       174.679,       160.182,            0.,NA,NA,"",   1.00274E+06,   999.912E+03,   999.912E+03
C:/temp/Job-4.odb,Step-1,Increment      1: Step Time =    1.000,"P-4-1",          1176,       157.514,       174.491,            0.,NA,NA,"",   997.153E+03,   995.837E+03,   995.837E+03
C:/temp/Job-4.odb,Step-1,Increment      1: Step Time =    1.000,"P-4-1",          1177,       174.277,       42.7960,            0.,NA,NA,"",   1.00328E+06,   1.00022E+06,   1.00022E+06
C:/temp/Job-4.odb,Step-1,Increment      1: Step Time =    1.000,"P-4-1",          1178,       160.634,       26.7888,            0.,NA,NA,"",   998.052E+03,   996.609E+03,   996.609E+03
C:/temp/Job-4.odb,Step-1,Increment      1: Step Time =    1.000,"P-4-1",          1179,       139.145,       92.0539,            0.,NA,NA,"",   1.00386E+06,   1.00241E+06,   1.00241E+06
C:/temp/Job-4.odb,Step-1,Increment      1: Step Time =    1.000,"P-4-1",          1180,       74.3574,       118.107,            0.,NA,NA,"",   1.00253E+06,   1.02129E+06,   1.02129E+06
C:/temp/Job-4.odb,Step-1,Increment      1: Step Time =    1.000,"P-4-1",          1181,       79.3993,       119.727,            0.,NA,NA,"",   1.01537E+06,   1.02904E+06,   1.02904E+06
C:/temp/Job-4.odb,Step-1,Increment      1: Step Time =    1.000,"P-4-1",          1182,       74.8684,       111.892,            0.,NA,NA,"",   989.715E+03,   1.01075E+06,   1.01075E+06
C:/temp/Job-4.odb,Step-1,Increment      1: Step Time =    1.000,"P-4-1",          1183,       29.2266,       161.597,            0.,NA,NA,"",   972.591E+03,   1.02301E+06,   1.02301E+06
C:/temp/Job-4.odb,Step-1,Increment      1: Step Time =    1.000,"P-4-1",          1184,       37.8451,       175.657,            0.,NA,NA,"",   1.00489E+06,   1.02470E+06,   1.02470E+06
C:/temp/Job-4.odb,Step-1,Increment      1: Step Time =    1.000,"P-4-1",          1185,       90.3486,       66.3645,            0.,NA,NA,"",   1.01163E+06,   1.02375E+06,   1.02375E+06
C:/temp/Job-4.odb,Step-1,Increment      1: Step Time =    1.000,"P-4-1",          1186,       88.0629,       69.8004,            0.,NA,NA,"",   1.01366E+06,   1.02641E+06,   1.02641E+06
C:/temp/Job-4.odb,Step-1,Increment      1: Step Time =    1.000,"P-4-1",          1187,       95.6305,       132.866,            0.,NA,NA,"",   1.00991E+06,   1.02159E+06,   1.02159E+06
C:/temp/Job-4.odb,Step-1,Increment      1: Step Time =    1.000,"P-4-1",          1188,       109.568,       69.2657,            0.,NA,NA,"",   1.01719E+06,   1.02279E+06,   1.02279E+06
C:/temp/Job-4.odb,Step-1,Increment      1: Step Time =    1.000,"P-4-1",          1189,       127.162,       109.813,            0.,NA,NA,"",   1.00348E+06,   1.00243E+06,   1.00243E+06
C:/temp/Job-4.odb,Step-1,Increment      1: Step Time =    1.000,"P-4-1",          1190,       99.3016,       132.039,            0.,NA,NA,"",   1.01052E+06,   1.02152E+06,   1.02152E+06
C:/temp/Job-4.odb,Step-1,Increment      1: Step Time =    1.000,"P-4-1",          1191,       131.881,       80.4567,            0.,NA,NA,"",   1.01615E+06,   1.01269E+06,   1.01269E+06
C:/temp/Job-4.odb,Step-1,Increment      1: Step Time =    1.000,"P-4-1",          1192,       109.156,       127.930,            0.,NA,NA,"",   1.01829E+06,   1.02464E+06,   1.02464E+06
C:/temp/Job-4.odb,Step-1,Increment      1: Step Time =    1.000,"P-4-1",          1193,       103.217,       135.572,            0.,NA,NA,"",   1.01049E+06,   1.01871E+06,   1.01871E+06
C:/temp/Job-4.odb,Step-1,Increment      1: Step Time =    1.000,"P-4-1",          1194,       111.297,       61.6894,            0.,NA,NA,"",   1.01302E+06,   1.01672E+06,   1.01672E+06
C:/temp/Job-4.odb,Step-1,Increment      1: Step Time =    1.000,"P-4-1",          1195,       125.132,       125.046,            0.,NA,NA,"",   1.02374E+06,   1.02031E+06,   1.02031E+06
C:/temp/Job-4.odb,Step-1,Increment      1: Step Time =    1.000,"P-4-1",          1196,       132.986,       103.594,            0.,NA,NA,"",   997.422E+03,   997.629E+03,   997.629E+03
C:/temp/Job-4.odb,Step-1,Increment      1: Step Time =    1.000,"P-4-1",          1197,       68.2540,       86.7818,            0.,NA,NA,"",   982.317E+03,   1.00986E+06,   1.00986E+06
C:/temp/Job-4.odb,Step-1,Increment      1: Step Time =    1.000,"P-4-1",          1198,       78.2191,       71.0876,            0.,NA,NA,"",   1.01141E+06,   1.02686E+06,   1.02686E+06
C:/temp/Job-4.odb,Step-1,Increment      1: Step Time =    1.000,"P-4-1",          1199,       135.105,       90.6098,            0.,NA,NA,"",   1.00411E+06,   1.00285E+06,   1.00285E+06
C:/temp/Job-4.odb,Step-1,Increment      1: Step Time =    1.000,"P-4-1",          1200,       67.7998,       110.508,            0.,NA,NA,"",   977.068E+03,   1.00629E+06,   1.00629E+06
C:/temp/Job-4.odb,Step-1,Increment      1: Step Time =    1.000,"P-4-1",          1201,       119.630,       128.768,            0.,NA,NA,"",   1.02407E+06,   1.02293E+06,   1.02293E+06
C:/temp/Job-4.odb,Step-1,Increment      1: Step Time =    1.000,"P-4-1",          1202,       35.7510,       147.575,            0.,NA,NA,"",    956.79E+03,   1.00957E+06,   1.00957E+06
C:/temp/Job-4.odb,Step-1,Increment      1: Step Time =    1.000,"P-4-1",          1203,       163.276,       48.3264,            0.,NA,NA,"",   1.00496E+06,   1.00170E+06,   1.00170E+06
C:/temp/Job-4.odb,Step-1,Increment      1: Step Time =    1.000,"P-4-1",          1204,       150.404,       163.193,            0.,NA,NA,"",   1.00136E+06,   999.244E+03,   999.244E+03
C:/temp/Job-4.odb,Step-1,Increment      1: Step Time =    1.000,"P-4-1",          1205,       50.2484,       37.4826,            0.,NA,NA,"",   995.768E+03,   1.01765E+06,   1.01765E+06
C:/temp/Job-4.odb,Step-1,Increment      1: Step Time =    1.000,"P-4-1",          1206,       91.4283,       159.966,            0.,NA,NA,"",   999.655E+03,   1.00428E+06,   1.00428E+06
C:/temp/Job-4.odb,Step-1,Increment      1: Step Time =    1.000,"P-4-1",          1207,       77.3875,       165.018,            0.,NA,NA,"",   996.965E+03,   1.00319E+06,   1.00319E+06
C:/temp/Job-4.odb,Step-1,Increment      1: Step Time =    1.000,"P-4-1",          1208,       109.914,       38.1282,            0.,NA,NA,"",   998.843E+03,   1.00020E+06,   1.00020E+06
C:/temp/Job-4.odb,Step-1,Increment      1: Step Time =    1.000,"P-4-1",          1209,       119.609,       33.8360,            0.,NA,NA,"",   996.701E+03,   996.573E+03,   996.573E+03
C:/temp/Job-4.odb,Step-1,Increment      1: Step Time =    1.000,"P-4-1",          1210,       46.0133,       170.972,            0.,NA,NA,"",   998.494E+03,   1.01632E+06,   1.01632E+06
C:/temp/Job-4.odb,Step-1,Increment      1: Step Time =    1.000,"P-4-1",          1211,       159.661,       110.173,            0.,NA,NA,"",   1.00669E+06,   1.00294E+06,   1.00294E+06
C:/temp/Job-4.odb,Step-1,Increment      1: Step Time =    1.000,"P-4-1",          1212,       164.737,       118.019,            0.,NA,NA,"",   1.00733E+06,   1.00300E+06,   1.00300E+06
C:/temp/Job-4.odb,Step-1,Increment      1: Step Time =    1.000,"P-4-1",          1213,       16.0461,       154.563,            0.,NA,NA,"",   915.650E+03,   996.606E+03,   996.606E+03
C:/temp/Job-4.odb,Step-1,Increment      1: Step Time =    1.000,"P-4-1",          1214,       36.2953,       79.3484,            0.,NA,NA,"",   925.303E+03,   990.023E+03,   990.023E+03
C:/temp/Job-4.odb,Step-1,Increment      1: Step Time =    1.000,"P-4-1",          1215,       41.4435,       88.4276,            0.,NA,NA,"",   932.223E+03,   991.848E+03,   991.848E+03
C:/temp/Job-4.odb,Step-1,Increment      1: Step Time =    1.000,"P-4-1",          1216,       153.722,       27.3284,            0.,NA,NA,"",   997.389E+03,   995.962E+03,   995.962E+03
C:/temp/Job-4.odb,Step-1,Increment      1: Step Time =    1.000,"P-4-1",          1217,       182.234,       47.2451,            0.,NA,NA,"",   1.00409E+06,   1.00038E+06,   1.00038E+06
C:/temp/Job-4.odb,Step-1,Increment      1: Step Time =    1.000,"P-4-1",          1218,       173.786,       154.607,            0.,NA,NA,"",   1.00393E+06,   1.00061E+06,   1.00061E+06
C:/temp/Job-4.odb,Step-1,Increment      1: Step Time =    1.000,"P-4-1",          1219,       152.727,       181.890,            0.,NA,NA,"",   993.384E+03,   992.656E+03,   992.656E+03
C:/temp/Job-4.odb,Step-1,Increment      1: Step Time =    1.000,"P-4-1",          1220,       27.1908,       44.2264,            0.,NA,NA,"",   952.194E+03,   1.01228E+06,   1.01228E+06
C:/temp/Job-4.odb,Step-1,Increment      1: Step Time =    1.000,"P-4-1",          1221,       88.1001,       130.257,            0.,NA,NA,"",   1.01388E+06,   1.02659E+06,   1.02659E+06
C:/temp/Job-4.odb,Step-1,Increment      1: Step Time =    1.000,"P-4-1",          1222,       43.2015,       13.9992,            0.,NA,NA,"",   987.657E+03,   993.213E+03,   993.213E+03
C:/temp/Job-4.odb,Step-1,Increment      1: Step Time =    1.000,"P-4-1",          1223,       70.7800,       114.768,            0.,NA,NA,"",   989.025E+03,   1.01331E+06,   1.01331E+06
C:/temp/Job-4.odb,Step-1,Increment      1: Step Time =    1.000,"P-4-1",          1224,       113.173,       130.291,            0.,NA,NA,"",   1.02030E+06,   1.02338E+06,   1.02338E+06
C:/temp/Job-4.odb,Step-1,Increment      1: Step Time =    1.000,"P-4-1",          1225,       77.1959,       117.627,            0.,NA,NA,"",   1.00752E+06,   1.02374E+06,   1.02374E+06
C:/temp/Job-4.odb,Step-1,Increment      1: Step Time =    1.000,"P-4-1",          1226,       80.0818,       127.822,            0.,NA,NA,"",   1.01400E+06,   1.02825E+06,   1.02825E+06
C:/temp/Job-4.odb,Step-1,Increment      1: Step Time =    1.000,"P-4-1",          1227,       70.5890,       118.415,            0.,NA,NA,"",   994.511E+03,   1.01768E+06,   1.01768E+06
C:/temp/Job-4.odb,Step-1,Increment      1: Step Time =    1.000,"P-4-1",          1228,       125.607,       120.592,            0.,NA,NA,"",   1.02270E+06,   1.01887E+06,   1.01887E+06
C:/temp/Job-4.odb,Step-1,Increment      1: Step Time =    1.000,"P-4-1",          1229,       92.0234,       133.597,            0.,NA,NA,"",   1.01087E+06,   1.02271E+06,   1.02271E+06
C:/temp/Job-4.odb,Step-1,Increment      1: Step Time =    1.000,"P-4-1",          1230,       75.0929,       121.231,            0.,NA,NA,"",   1.00686E+06,   1.02460E+06,   1.02460E+06
C:/temp/Job-4.odb,Step-1,Increment      1: Step Time =    1.000,"P-4-1",          1231,       130.051,       110.317,            0.,NA,NA,"",   1.00452E+06,   1.00329E+06,   1.00329E+06
C:/temp/Job-4.odb,Step-1,Increment      1: Step Time =    1.000,"P-4-1",          1232,       110.789,       133.561,            0.,NA,NA,"",   1.01558E+06,   1.02008E+06,   1.02008E+06
C:/temp/Job-4.odb,Step-1,Increment      1: Step Time =    1.000,"P-4-1",          1233,       131.289,       88.7400,            0.,NA,NA,"",   1.00643E+06,   1.00473E+06,   1.00473E+06
C:/temp/Job-4.odb,Step-1,Increment      1: Step Time =    1.000,"P-4-1",          1234,       130.652,       75.2963,            0.,NA,NA,"",   1.01950E+06,   1.01586E+06,   1.01586E+06
C:/temp/Job-4.odb,Step-1,Increment      1: Step Time =    1.000,"P-4-1",          1235,       99.6538,       136.298,            0.,NA,NA,"",   1.00978E+06,   1.01910E+06,   1.01910E+06
C:/temp/Job-4.odb,Step-1,Increment      1: Step Time =    1.000,"P-4-1",          1236,       106.395,       135.505,            0.,NA,NA,"",   1.01233E+06,   1.01899E+06,   1.01899E+06
C:/temp/Job-4.odb,Step-1,Increment      1: Step Time =    1.000,"P-4-1",          1237,       95.1911,       59.0955,            0.,NA,NA,"",   1.00817E+06,   1.01710E+06,   1.01710E+06
C:/temp/Job-4.odb,Step-1,Increment      1: Step Time =    1.000,"P-4-1",          1238,       111.241,       66.3541,            0.,NA,NA,"",   1.01712E+06,   1.02100E+06,   1.02100E+06
C:/temp/Job-4.odb,Step-1,Increment      1: Step Time =    1.000,"P-4-1",          1239,       142.888,       93.2346,            0.,NA,NA,"",   1.00435E+06,   1.00250E+06,   1.00250E+06
C:/temp/Job-4.odb,Step-1,Increment      1: Step Time =    1.000,"P-4-1",          1240,       137.679,       98.5479,            0.,NA,NA,"",   1.00003E+06,   999.566E+03,   999.566E+03
C:/temp/Job-4.odb,Step-1,Increment      1: Step Time =    1.000,"P-4-1",          1241,       105.146,       58.6071,            0.,NA,NA,"",   1.00931E+06,   1.01516E+06,   1.01516E+06
C:/temp/Job-4.odb,Step-1,Increment      1: Step Time =    1.000,"P-4-1",          1242,       117.449,       133.264,            0.,NA,NA,"",   1.01928E+06,   1.02000E+06,   1.02000E+06
C:/temp/Job-4.odb,Step-1,Increment      1: Step Time =    1.000,"P-4-1",          1243,       23.9655,       162.014,            0.,NA,NA,"",   961.755E+03,   1.02137E+06,   1.02137E+06
C:/temp/Job-4.odb,Step-1,Increment      1: Step Time =    1.000,"P-4-1",          1244,       35.6762,       180.470,            0.,NA,NA,"",   1.00759E+06,   1.02339E+06,   1.02339E+06
C:/temp/Job-4.odb,Step-1,Increment      1: Step Time =    1.000,"P-4-1",          1245,       178.615,       39.4708,            0.,NA,NA,"",   1.00268E+06,   999.837E+03,   999.837E+03
C:/temp/Job-4.odb,Step-1,Increment      1: Step Time =    1.000,"P-4-1",          1246,       168.150,       20.0385,            0.,NA,NA,"",   997.236E+03,   996.294E+03,   996.294E+03
C:/temp/Job-4.odb,Step-1,Increment      1: Step Time =    1.000,"P-4-1",          1247,       178.743,       162.690,            0.,NA,NA,"",   1.00233E+06,   999.672E+03,   999.672E+03
C:/temp/Job-4.odb,Step-1,Increment      1: Step Time =    1.000,"P-4-1",          1248,       21.1654,       35.4064,            0.,NA,NA,"",   962.914E+03,   1.02604E+06,   1.02604E+06
C:/temp/Job-4.odb,Step-1,Increment      1: Step Time =    1.000,"P-4-1",          1249,       160.457,       178.830,            0.,NA,NA,"",   996.189E+03,   995.185E+03,   995.185E+03
C:/temp/Job-4.odb,Step-1,Increment      1: Step Time =    1.000,"P-4-1",          1250,       94.0918,       166.714,            0.,NA,NA,"",   994.094E+03,   996.777E+03,   996.777E+03
C:/temp/Job-4.odb,Step-1,Increment      1: Step Time =    1.000,"P-4-1",          1251,       37.2543,       143.614,            0.,NA,NA,"",   954.269E+03,   1.00733E+06,   1.00733E+06
C:/temp/Job-4.odb,Step-1,Increment      1: Step Time =    1.000,"P-4-1",          1252,       163.227,       43.3960,            0.,NA,NA,"",   1.00364E+06,   1.00074E+06,   1.00074E+06
C:/temp/Job-4.odb,Step-1,Increment      1: Step Time =    1.000,"P-4-1",          1253,       162.728,       57.6185,            0.,NA,NA,"",   1.00702E+06,   1.00319E+06,   1.00319E+06
C:/temp/Job-4.odb,Step-1,Increment      1: Step Time =    1.000,"P-4-1",          1254,       156.540,       163.536,            0.,NA,NA,"",   1.00134E+06,   999.121E+03,   999.121E+03
C:/temp/Job-4.odb,Step-1,Increment      1: Step Time =    1.000,"P-4-1",          1255,       143.214,       163.732,            0.,NA,NA,"",   1.00077E+06,   998.916E+03,   998.916E+03
C:/temp/Job-4.odb,Step-1,Increment      1: Step Time =    1.000,"P-4-1",          1256,       45.4361,       37.0380,            0.,NA,NA,"",   993.647E+03,   1.01981E+06,   1.01981E+06
C:/temp/Job-4.odb,Step-1,Increment      1: Step Time =    1.000,"P-4-1",          1257,       56.3708,       36.8492,            0.,NA,NA,"",   998.342E+03,   1.01482E+06,   1.01482E+06
C:/temp/Job-4.odb,Step-1,Increment      1: Step Time =    1.000,"P-4-1",          1258,       69.8246,       68.8604,            0.,NA,NA,"",   1.00130E+06,   1.02237E+06,   1.02237E+06
C:/temp/Job-4.odb,Step-1,Increment      1: Step Time =    1.000,"P-4-1",          1259,       31.5543,       49.8196,            0.,NA,NA,"",   950.799E+03,   1.00849E+06,   1.00849E+06
C:/temp/Job-4.odb,Step-1,Increment      1: Step Time =    1.000,"P-4-1",          1260,       168.668,       153.951,            0.,NA,NA,"",   1.00409E+06,   1.00089E+06,   1.00089E+06
C:/temp/Job-4.odb,Step-1,Increment      1: Step Time =    1.000,"P-4-1",          1261,       71.1637,       121.911,            0.,NA,NA,"",   999.257E+03,   1.02104E+06,   1.02104E+06
C:/temp/Job-4.odb,Step-1,Increment      1: Step Time =    1.000,"P-4-1",          1262,       99.1307,       167.045,            0.,NA,NA,"",   993.575E+03,   995.598E+03,   995.598E+03
C:/temp/Job-4.odb,Step-1,Increment      1: Step Time =    1.000,"P-4-1",          1263,       108.805,       136.525,            0.,NA,NA,"",   1.01305E+06,   1.01827E+06,   1.01827E+06
C:/temp/Job-4.odb,Step-1,Increment      1: Step Time =    1.000,"P-4-1",          1264,       75.6544,       124.779,            0.,NA,NA,"",   1.00891E+06,   1.02609E+06,   1.02609E+06
C:/temp/Job-4.odb,Step-1,Increment      1: Step Time =    1.000,"P-4-1",          1265,       84.3487,       130.952,            0.,NA,NA,"",   1.01380E+06,   1.02679E+06,   1.02679E+06
C:/temp/Job-4.odb,Step-1,Increment      1: Step Time =    1.000,"P-4-1",          1266,       139.894,       103.744,            0.,NA,NA,"",   1.00161E+06,   1.00098E+06,   1.00098E+06
C:/temp/Job-4.odb,Step-1,Increment      1: Step Time =    1.000,"P-4-1",          1267,       113.438,       135.929,            0.,NA,NA,"",   1.01566E+06,   1.01858E+06,   1.01858E+06
C:/temp/Job-4.odb,Step-1,Increment      1: Step Time =    1.000,"P-4-1",          1268,       133.317,       85.5089,            0.,NA,NA,"",   1.01038E+06,   1.00785E+06,   1.00785E+06
C:/temp/Job-4.odb,Step-1,Increment      1: Step Time =    1.000,"P-4-1",          1269,       132.653,       114.932,            0.,NA,NA,"",   1.01150E+06,   1.00882E+06,   1.00882E+06
C:/temp/Job-4.odb,Step-1,Increment      1: Step Time =    1.000,"P-4-1",          1270,       135.472,       82.1231,            0.,NA,NA,"",   1.01273E+06,   1.00961E+06,   1.00961E+06
C:/temp/Job-4.odb,Step-1,Increment      1: Step Time =    1.000,"P-4-1",          1271,       104.995,       143.438,            0.,NA,NA,"",   1.00865E+06,   1.01404E+06,   1.01404E+06
C:/temp/Job-4.odb,Step-1,Increment      1: Step Time =    1.000,"P-4-1",          1272,       131.885,       123.148,            0.,NA,NA,"",   1.01820E+06,   1.01427E+06,   1.01427E+06
C:/temp/Job-4.odb,Step-1,Increment      1: Step Time =    1.000,"P-4-1",          1273,       122.488,       135.327,            0.,NA,NA,"",   1.01855E+06,   1.01748E+06,   1.01748E+06
C:/temp/Job-4.odb,Step-1,Increment      1: Step Time =    1.000,"P-4-1",          1274,       109.142,       56.3752,            0.,NA,NA,"",   1.01001E+06,   1.01384E+06,   1.01384E+06
C:/temp/Job-4.odb,Step-1,Increment      1: Step Time =    1.000,"P-4-1",          1275,       101.056,       58.0755,            0.,NA,NA,"",   1.00853E+06,   1.01568E+06,   1.01568E+06
C:/temp/Job-4.odb,Step-1,Increment      1: Step Time =    1.000,"P-4-1",          1276,       91.4518,       60.4942,            0.,NA,NA,"",   1.00886E+06,   1.01902E+06,   1.01902E+06
C:/temp/Job-4.odb,Step-1,Increment      1: Step Time =    1.000,"P-4-1",          1277,       140.574,       88.7833,            0.,NA,NA,"",   1.00629E+06,   1.00418E+06,   1.00418E+06
C:/temp/Job-4.odb,Step-1,Increment      1: Step Time =    1.000,"P-4-1",          1278,       142.225,       96.4527,            0.,NA,NA,"",   1.00305E+06,   1.00161E+06,   1.00161E+06
C:/temp/Job-4.odb,Step-1,Increment      1: Step Time =    1.000,"P-4-1",          1279,       66.9525,       71.7651,            0.,NA,NA,"",   995.542E+03,   1.02024E+06,   1.02024E+06
C:/temp/Job-4.odb,Step-1,Increment      1: Step Time =    1.000,"P-4-1",          1280,       32.9263,       141.854,            0.,NA,NA,"",   940.306E+03,   1.00124E+06,   1.00124E+06
C:/temp/Job-4.odb,Step-1,Increment      1: Step Time =    1.000,"P-4-1",          1281,       32.7438,       175.199,            0.,NA,NA,"",   1.00794E+06,   1.03430E+06,   1.03430E+06
C:/temp/Job-4.odb,Step-1,Increment      1: Step Time =    1.000,"P-4-1",          1282,       25.4864,       166.608,            0.,NA,NA,"",   978.044E+03,   1.02946E+06,   1.02946E+06
C:/temp/Job-4.odb,Step-1,Increment      1: Step Time =    1.000,"P-4-1",          1283,       19.1150,       159.832,            0.,NA,NA,"",   940.732E+03,   1.01215E+06,   1.01215E+06
C:/temp/Job-4.odb,Step-1,Increment      1: Step Time =    1.000,"P-4-1",          1284,       167.188,       58.1438,            0.,NA,NA,"",   1.00656E+06,   1.00256E+06,   1.00256E+06
C:/temp/Job-4.odb,Step-1,Increment      1: Step Time =    1.000,"P-4-1",          1285,       158.279,       48.2565,            0.,NA,NA,"",   1.00538E+06,   1.00222E+06,   1.00222E+06
C:/temp/Job-4.odb,Step-1,Increment      1: Step Time =    1.000,"P-4-1",          1286,       167.947,       24.7415,            0.,NA,NA,"",   998.417E+03,   997.087E+03,   997.087E+03
C:/temp/Job-4.odb,Step-1,Increment      1: Step Time =    1.000,"P-4-1",          1287,       164.715,       18.6767,            0.,NA,NA,"",   996.313E+03,   995.473E+03,   995.473E+03
C:/temp/Job-4.odb,Step-1,Increment      1: Step Time =    1.000,"P-4-1",          1288,       176.513,       35.6288,            0.,NA,NA,"",   1.00189E+06,   999.430E+03,   999.430E+03
C:/temp/Job-4.odb,Step-1,Increment      1: Step Time =    1.000,"P-4-1",          1289,       184.746,       39.8531,            0.,NA,NA,"",   1.00292E+06,   999.909E+03,   999.909E+03
C:/temp/Job-4.odb,Step-1,Increment      1: Step Time =    1.000,"P-4-1",          1290,       182.583,       161.175,            0.,NA,NA,"",   1.00271E+06,   999.833E+03,   999.833E+03
C:/temp/Job-4.odb,Step-1,Increment      1: Step Time =    1.000,"P-4-1",          1291,       173.502,       166.549,            0.,NA,NA,"",   1.00127E+06,   999.056E+03,   999.056E+03
C:/temp/Job-4.odb,Step-1,Increment      1: Step Time =    1.000,"P-4-1",          1292,       163.924,       176.981,            0.,NA,NA,"",   997.347E+03,   996.178E+03,   996.178E+03
C:/temp/Job-4.odb,Step-1,Increment      1: Step Time =    1.000,"P-4-1",          1293,       160.086,       184.762,            0.,NA,NA,"",   994.379E+03,   993.806E+03,   993.806E+03
C:/temp/Job-4.odb,Step-1,Increment      1: Step Time =    1.000,"P-4-1",          1294,       35.6178,       26.5102,            0.,NA,NA,"",   1.00388E+06,   1.02910E+06,   1.02910E+06
C:/temp/Job-4.odb,Step-1,Increment      1: Step Time =    1.000,"P-4-1",          1295,       38.7254,       14.6644,            0.,NA,NA,"",   997.009E+03,   1.00512E+06,   1.00512E+06
C:/temp/Job-4.odb,Step-1,Increment      1: Step Time =    1.000,"P-4-1",          1296,       27.3382,       32.9752,            0.,NA,NA,"",   985.936E+03,   1.03263E+06,   1.03263E+06
C:/temp/Job-4.odb,Step-1,Increment      1: Step Time =    1.000,"P-4-1",          1297,       17.1735,       38.1619,            0.,NA,NA,"",   939.824E+03,   1.01371E+06,   1.01371E+06
C:/temp/Job-4.odb,Step-1,Increment      1: Step Time =    1.000,"P-4-1",          1298,       141.674,       167.658,            0.,NA,NA,"",   998.380E+03,   996.871E+03,   996.871E+03
C:/temp/Job-4.odb,Step-1,Increment      1: Step Time =    1.000,"P-4-1",          1299,       151.660,       157.635,            0.,NA,NA,"",   1.00385E+06,   1.00126E+06,   1.00126E+06
C:/temp/Job-4.odb,Step-1,Increment      1: Step Time =    1.000,"P-4-1",          1300,       57.6704,       33.1350,            0.,NA,NA,"",   997.829E+03,   1.01060E+06,   1.01060E+06
C:/temp/Job-4.odb,Step-1,Increment      1: Step Time =    1.000,"P-4-1",          1301,       48.8175,       42.4843,            0.,NA,NA,"",   990.847E+03,   1.01847E+06,   1.01847E+06
C:/temp/Job-4.odb,Step-1,Increment      1: Step Time =    1.000,"P-4-1",          1302,       162.664,       158.874,            0.,NA,NA,"",   1.00294E+06,   1.00025E+06,   1.00025E+06
C:/temp/Job-4.odb,Step-1,Increment      1: Step Time =    1.000,"P-4-1",          1303,       37.4901,       45.0026,            0.,NA,NA,"",   973.177E+03,   1.01713E+06,   1.01713E+06
C:/temp/Job-4.odb,Step-1,Increment      1: Step Time =    1.000,"P-4-1",          1304,       68.3427,       125.890,            0.,NA,NA,"",   996.727E+03,   1.02054E+06,   1.02054E+06
C:/temp/Job-4.odb,Step-1,Increment      1: Step Time =    1.000,"P-4-1",          1305,       80.4308,       131.734,            0.,NA,NA,"",   1.01200E+06,   1.02617E+06,   1.02617E+06
C:/temp/Job-4.odb,Step-1,Increment      1: Step Time =    1.000,"P-4-1",          1306,       84.6301,       134.915,            0.,NA,NA,"",   1.01136E+06,   1.02395E+06,   1.02395E+06
C:/temp/Job-4.odb,Step-1,Increment      1: Step Time =    1.000,"P-4-1",          1307,       75.9555,       128.699,            0.,NA,NA,"",   1.00919E+06,   1.02590E+06,   1.02590E+06
C:/temp/Job-4.odb,Step-1,Increment      1: Step Time =    1.000,"P-4-1",          1308,       143.923,       90.2165,            0.,NA,NA,"",   1.00582E+06,   1.00354E+06,   1.00354E+06
C:/temp/Job-4.odb,Step-1,Increment      1: Step Time =    1.000,"P-4-1",          1309,       136.103,       73.6593,            0.,NA,NA,"",   1.01647E+06,   1.01264E+06,   1.01264E+06
C:/temp/Job-4.odb,Step-1,Increment      1: Step Time =    1.000,"P-4-1",          1310,       141.711,       110.038,            0.,NA,NA,"",   1.00589E+06,   1.00381E+06,   1.00381E+06
C:/temp/Job-4.odb,Step-1,Increment      1: Step Time =    1.000,"P-4-1",          1311,       141.460,       100.008,            0.,NA,NA,"",   1.00258E+06,   1.00116E+06,   1.00116E+06
C:/temp/Job-4.odb,Step-1,Increment      1: Step Time =    1.000,"P-4-1",          1312,       100.137,       140.670,            0.,NA,NA,"",   1.00864E+06,   1.01628E+06,   1.01628E+06
C:/temp/Job-4.odb,Step-1,Increment      1: Step Time =    1.000,"P-4-1",          1313,       106.798,       138.500,            0.,NA,NA,"",   1.01125E+06,   1.01711E+06,   1.01711E+06
C:/temp/Job-4.odb,Step-1,Increment      1: Step Time =    1.000,"P-4-1",          1314,       70.2728,       76.2265,            0.,NA,NA,"",   998.888E+03,   1.02113E+06,   1.02113E+06
C:/temp/Job-4.odb,Step-1,Increment      1: Step Time =    1.000,"P-4-1",          1315,       137.722,       78.6511,            0.,NA,NA,"",   1.01381E+06,   1.01033E+06,   1.01033E+06
C:/temp/Job-4.odb,Step-1,Increment      1: Step Time =    1.000,"P-4-1",          1316,       125.456,       130.732,            0.,NA,NA,"",   1.02105E+06,   1.01851E+06,   1.01851E+06
C:/temp/Job-4.odb,Step-1,Increment      1: Step Time =    1.000,"P-4-1",          1317,       130.635,       128.597,            0.,NA,NA,"",   1.01919E+06,   1.01575E+06,   1.01575E+06
C:/temp/Job-4.odb,Step-1,Increment      1: Step Time =    1.000,"P-4-1",          1318,       129.252,       121.517,            0.,NA,NA,"",   1.01994E+06,   1.01587E+06,   1.01587E+06
C:/temp/Job-4.odb,Step-1,Increment      1: Step Time =    1.000,"P-4-1",          1319,       113.276,       58.5669,            0.,NA,NA,"",   1.01250E+06,   1.01496E+06,   1.01496E+06
C:/temp/Job-4.odb,Step-1,Increment      1: Step Time =    1.000,"P-4-1",          1320,       146.394,       93.9255,            0.,NA,NA,"",   1.00479E+06,   1.00265E+06,   1.00265E+06
C:/temp/Job-4.odb,Step-1,Increment      1: Step Time =    1.000,"P-4-1",          1321,       87.4134,       62.4158,            0.,NA,NA,"",   1.00998E+06,   1.02158E+06,   1.02158E+06
C:/temp/Job-4.odb,Step-1,Increment      1: Step Time =    1.000,"P-4-1",          1322,       144.559,       82.5442,            0.,NA,NA,"",   1.00964E+06,   1.00646E+06,   1.00646E+06
C:/temp/Job-4.odb,Step-1,Increment      1: Step Time =    1.000,"P-4-1",          1323,       100.612,       169.786,            0.,NA,NA,"",   991.214E+03,   992.787E+03,   992.787E+03
C:/temp/Job-4.odb,Step-1,Increment      1: Step Time =    1.000,"P-4-1",          1324,       48.2311,       46.9481,            0.,NA,NA,"",   986.661E+03,   1.01813E+06,   1.01813E+06
C:/temp/Job-4.odb,Step-1,Increment      1: Step Time =    1.000,"P-4-1",          1325,       66.7907,       65.9197,            0.,NA,NA,"",   998.129E+03,   1.02104E+06,   1.02104E+06
C:/temp/Job-4.odb,Step-1,Increment      1: Step Time =    1.000,"P-4-1",          1326,       33.8407,       160.689,            0.,NA,NA,"",   978.655E+03,   1.02229E+06,   1.02229E+06
C:/temp/Job-4.odb,Step-1,Increment      1: Step Time =    1.000,"P-4-1",          1327,       44.9688,       182.986,            0.,NA,NA,"",   991.502E+03,   998.813E+03,   998.813E+03
C:/temp/Job-4.odb,Step-1,Increment      1: Step Time =    1.000,"P-4-1",          1328,       17.7004,       163.095,            0.,NA,NA,"",   946.933E+03,   1.01845E+06,   1.01845E+06
C:/temp/Job-4.odb,Step-1,Increment      1: Step Time =    1.000,"P-4-1",          1329,       172.347,       37.2232,            0.,NA,NA,"",   1.00202E+06,   999.497E+03,   999.497E+03
C:/temp/Job-4.odb,Step-1,Increment      1: Step Time =    1.000,"P-4-1",          1330,       155.505,       16.8317,            0.,NA,NA,"",   993.609E+03,   992.960E+03,   992.960E+03
C:/temp/Job-4.odb,Step-1,Increment      1: Step Time =    1.000,"P-4-1",          1331,       185.312,       33.8242,            0.,NA,NA,"",   1.00211E+06,   999.665E+03,   999.665E+03
C:/temp/Job-4.odb,Step-1,Increment      1: Step Time =    1.000,"P-4-1",          1332,       162.214,       173.202,            0.,NA,NA,"",   998.401E+03,   996.913E+03,   996.913E+03
C:/temp/Job-4.odb,Step-1,Increment      1: Step Time =    1.000,"P-4-1",          1333,       37.4723,       32.0524,            0.,NA,NA,"",   995.199E+03,   1.02552E+06,   1.02552E+06
C:/temp/Job-4.odb,Step-1,Increment      1: Step Time =    1.000,"P-4-1",          1334,       183.905,       155.193,            0.,NA,NA,"",   1.00369E+06,   1.00016E+06,   1.00016E+06
C:/temp/Job-4.odb,Step-1,Increment      1: Step Time =    1.000,"P-4-1",          1335,       166.058,       185.303,            0.,NA,NA,"",   995.607E+03,   995.064E+03,   995.064E+03
C:/temp/Job-4.odb,Step-1,Increment      1: Step Time =    1.000,"P-4-1",          1336,       33.9593,       14.9505,            0.,NA,NA,"",   1.00901E+06,   1.01962E+06,   1.01962E+06
C:/temp/Job-4.odb,Step-1,Increment      1: Step Time =    1.000,"P-4-1",          1337,       16.0562,       44.5487,            0.,NA,NA,"",   917.260E+03,   998.273E+03,   998.273E+03
C:/temp/Job-4.odb,Step-1,Increment      1: Step Time =    1.000,"P-4-1",          1338,       157.499,       153.315,            0.,NA,NA,"",   1.00502E+06,   1.00198E+06,   1.00198E+06
C:/temp/Job-4.odb,Step-1,Increment      1: Step Time =    1.000,"P-4-1",          1339,       162.177,       163.893,            0.,NA,NA,"",   1.00137E+06,   999.099E+03,   999.099E+03
C:/temp/Job-4.odb,Step-1,Increment      1: Step Time =    1.000,"P-4-1",          1340,       43.0398,       46.9695,            0.,NA,NA,"",   979.629E+03,   1.01740E+06,   1.01740E+06
C:/temp/Job-4.odb,Step-1,Increment      1: Step Time =    1.000,"P-4-1",          1341,       38.4711,       38.8067,            0.,NA,NA,"",   985.970E+03,   1.02176E+06,   1.02176E+06
C:/temp/Job-4.odb,Step-1,Increment      1: Step Time =    1.000,"P-4-1",          1342,       110.189,       50.3525,            0.,NA,NA,"",   1.00691E+06,   1.00954E+06,   1.00954E+06
C:/temp/Job-4.odb,Step-1,Increment      1: Step Time =    1.000,"P-4-1",          1343,       115.416,       66.4010,            0.,NA,NA,"",   1.01858E+06,   1.02046E+06,   1.02046E+06
C:/temp/Job-4.odb,Step-1,Increment      1: Step Time =    1.000,"P-4-1",          1344,       145.818,       101.147,            0.,NA,NA,"",   1.00391E+06,   1.00200E+06,   1.00200E+06
C:/temp/Job-4.odb,Step-1,Increment      1: Step Time =    1.000,"P-4-1",          1345,       133.155,       71.2527,            0.,NA,NA,"",   1.01802E+06,   1.01433E+06,   1.01433E+06
C:/temp/Job-4.odb,Step-1,Increment      1: Step Time =    1.000,"P-4-1",          1346,       146.190,       97.2329,            0.,NA,NA,"",   1.00418E+06,   1.00215E+06,   1.00215E+06
C:/temp/Job-4.odb,Step-1,Increment      1: Step Time =    1.000,"P-4-1",          1347,       71.4524,       129.655,            0.,NA,NA,"",   1.00292E+06,   1.02315E+06,   1.02315E+06
C:/temp/Job-4.odb,Step-1,Increment      1: Step Time =    1.000,"P-4-1",          1348,       112.266,       140.611,            0.,NA,NA,"",   1.01258E+06,   1.01568E+06,   1.01568E+06
C:/temp/Job-4.odb,Step-1,Increment      1: Step Time =    1.000,"P-4-1",          1349,       88.5909,       138.354,            0.,NA,NA,"",   1.00969E+06,   1.02076E+06,   1.02076E+06
C:/temp/Job-4.odb,Step-1,Increment      1: Step Time =    1.000,"P-4-1",          1350,       85.9315,       56.0999,            0.,NA,NA,"",   1.00777E+06,   1.01804E+06,   1.01804E+06
C:/temp/Job-4.odb,Step-1,Increment      1: Step Time =    1.000,"P-4-1",          1351,       101.022,       145.002,            0.,NA,NA,"",   1.00744E+06,   1.01361E+06,   1.01361E+06
C:/temp/Job-4.odb,Step-1,Increment      1: Step Time =    1.000,"P-4-1",          1352,       134.601,       110.778,            0.,NA,NA,"",   1.00549E+06,   1.00395E+06,   1.00395E+06
C:/temp/Job-4.odb,Step-1,Increment      1: Step Time =    1.000,"P-4-1",          1353,       65.6691,       77.9334,            0.,NA,NA,"",   988.720E+03,   1.01649E+06,   1.01649E+06
C:/temp/Job-4.odb,Step-1,Increment      1: Step Time =    1.000,"P-4-1",          1354,       38.3484,       159.866,            0.,NA,NA,"",   982.778E+03,   1.02104E+06,   1.02104E+06
C:/temp/Job-4.odb,Step-1,Increment      1: Step Time =    1.000,"P-4-1",          1355,       130.751,       118.370,            0.,NA,NA,"",   1.01654E+06,   1.01314E+06,   1.01314E+06
C:/temp/Job-4.odb,Step-1,Increment      1: Step Time =    1.000,"P-4-1",          1356,       112.477,       53.0581,            0.,NA,NA,"",   1.00882E+06,   1.01105E+06,   1.01105E+06
C:/temp/Job-4.odb,Step-1,Increment      1: Step Time =    1.000,"P-4-1",          1357,       134.330,       126.051,            0.,NA,NA,"",   1.01688E+06,   1.01323E+06,   1.01323E+06
C:/temp/Job-4.odb,Step-1,Increment      1: Step Time =    1.000,"P-4-1",          1358,       141.319,       80.4151,            0.,NA,NA,"",   1.01147E+06,   1.00817E+06,   1.00817E+06
C:/temp/Job-4.odb,Step-1,Increment      1: Step Time =    1.000,"P-4-1",          1359,       13.6640,       162.062,            0.,NA,NA,"",   927.619E+03,   1.00883E+06,   1.00883E+06
C:/temp/Job-4.odb,Step-1,Increment      1: Step Time =    1.000,"P-4-1",          1360,       167.841,       38.4255,            0.,NA,NA,"",   1.00212E+06,   999.587E+03,   999.587E+03
C:/temp/Job-4.odb,Step-1,Increment      1: Step Time =    1.000,"P-4-1",          1361,       13.3209,       170.549,            0.,NA,NA,"",   960.341E+03,   1.03523E+06,   1.03523E+06
C:/temp/Job-4.odb,Step-1,Increment      1: Step Time =    1.000,"P-4-1",          1362,       186.773,       37.4618,            0.,NA,NA,"",   1.00271E+06,   999.866E+03,   999.866E+03
C:/temp/Job-4.odb,Step-1,Increment      1: Step Time =    1.000,"P-4-1",          1363,       152.608,       53.3711,            0.,NA,NA,"",   1.00762E+06,   1.00424E+06,   1.00424E+06
C:/temp/Job-4.odb,Step-1,Increment      1: Step Time =    1.000,"P-4-1",          1364,       96.8370,       146.111,            0.,NA,NA,"",   1.00671E+06,   1.01366E+06,   1.01366E+06
C:/temp/Job-4.odb,Step-1,Increment      1: Step Time =    1.000,"P-4-1",          1365,       98.5928,       173.432,            0.,NA,NA,"",   987.260E+03,   988.526E+03,   988.526E+03
C:/temp/Job-4.odb,Step-1,Increment      1: Step Time =    1.000,"P-4-1",          1366,       161.835,       168.687,            0.,NA,NA,"",   999.824E+03,   997.952E+03,   997.952E+03
C:/temp/Job-4.odb,Step-1,Increment      1: Step Time =    1.000,"P-4-1",          1367,       106.687,       46.3459,            0.,NA,NA,"",   1.00405E+06,   1.00705E+06,   1.00705E+06
C:/temp/Job-4.odb,Step-1,Increment      1: Step Time =    1.000,"P-4-1",          1368,       181.887,       29.0657,            0.,NA,NA,"",   1.00117E+06,   999.199E+03,   999.199E+03
C:/temp/Job-4.odb,Step-1,Increment      1: Step Time =    1.000,"P-4-1",          1369,       162.473,       186.775,            0.,NA,NA,"",   994.358E+03,   993.932E+03,   993.932E+03
C:/temp/Job-4.odb,Step-1,Increment      1: Step Time =    1.000,"P-4-1",          1370,       34.3064,       9.66618,            0.,NA,NA,"",   993.339E+03,   998.165E+03,   998.165E+03
C:/temp/Job-4.odb,Step-1,Increment      1: Step Time =    1.000,"P-4-1",          1371,       147.408,       151.820,            0.,NA,NA,"",   1.00653E+06,   1.00366E+06,   1.00366E+06
C:/temp/Job-4.odb,Step-1,Increment      1: Step Time =    1.000,"P-4-1",          1372,       52.2635,       47.8048,            0.,NA,NA,"",   990.488E+03,   1.01820E+06,   1.01820E+06
C:/temp/Job-4.odb,Step-1,Increment      1: Step Time =    1.000,"P-4-1",          1373,       170.681,       181.756,            0.,NA,NA,"",   997.296E+03,   996.464E+03,   996.464E+03
C:/temp/Job-4.odb,Step-1,Increment      1: Step Time =    1.000,"P-4-1",          1374,       29.3139,       14.4744,            0.,NA,NA,"",   1.02234E+06,   1.03550E+06,   1.03550E+06
C:/temp/Job-4.odb,Step-1,Increment      1: Step Time =    1.000,"P-4-1",          1375,       167.814,       164.768,            0.,NA,NA,"",   1.00133E+06,   999.062E+03,   999.062E+03
C:/temp/Job-4.odb,Step-1,Increment      1: Step Time =    1.000,"P-4-1",          1376,       32.3161,       38.7350,            0.,NA,NA,"",   977.692E+03,   1.02298E+06,   1.02298E+06
C:/temp/Job-4.odb,Step-1,Increment      1: Step Time =    1.000,"P-4-1",          1377,       118.359,       64.1629,            0.,NA,NA,"",   1.01791E+06,   1.01836E+06,   1.01836E+06
C:/temp/Job-4.odb,Step-1,Increment      1: Step Time =    1.000,"P-4-1",          1378,       137.493,       129.355,            0.,NA,NA,"",   1.01551E+06,   1.01186E+06,   1.01186E+06
C:/temp/Job-4.odb,Step-1,Increment      1: Step Time =    1.000,"P-4-1",          1379,       107.883,       164.085,            0.,NA,NA,"",   996.878E+03,   998.265E+03,   998.265E+03
C:/temp/Job-4.odb,Step-1,Increment      1: Step Time =    1.000,"P-4-1",          1380,       95.9626,       137.142,            0.,NA,NA,"",   1.00946E+06,   1.01941E+06,   1.01941E+06
C:/temp/Job-4.odb,Step-1,Increment      1: Step Time =    1.000,"P-4-1",          1381,       133.287,       106.852,            0.,NA,NA,"",   999.995E+03,   999.839E+03,   999.839E+03
C:/temp/Job-4.odb,Step-1,Increment      1: Step Time =    1.000,"P-4-1",          1382,       84.8920,       142.888,            0.,NA,NA,"",   1.00811E+06,   1.01900E+06,   1.01900E+06
C:/temp/Job-4.odb,Step-1,Increment      1: Step Time =    1.000,"P-4-1",          1383,       150.194,       97.2685,            0.,NA,NA,"",   1.00498E+06,   1.00247E+06,   1.00247E+06
C:/temp/Job-4.odb,Step-1,Increment      1: Step Time =    1.000,"P-4-1",          1384,       120.114,       138.846,            0.,NA,NA,"",   1.01583E+06,   1.01591E+06,   1.01591E+06
C:/temp/Job-4.odb,Step-1,Increment      1: Step Time =    1.000,"P-4-1",          1385,       85.1124,       67.0953,            0.,NA,NA,"",   1.01281E+06,   1.02552E+06,   1.02552E+06
C:/temp/Job-4.odb,Step-1,Increment      1: Step Time =    1.000,"P-4-1",          1386,       115.086,       138.695,            0.,NA,NA,"",   1.01457E+06,   1.01644E+06,   1.01644E+06
C:/temp/Job-4.odb,Step-1,Increment      1: Step Time =    1.000,"P-4-1",          1387,       145.302,       106.086,            0.,NA,NA,"",   1.00457E+06,   1.00256E+06,   1.00256E+06
C:/temp/Job-4.odb,Step-1,Increment      1: Step Time =    1.000,"P-4-1",          1388,       90.5086,       56.2879,            0.,NA,NA,"",   1.00762E+06,   1.01678E+06,   1.01678E+06
C:/temp/Job-4.odb,Step-1,Increment      1: Step Time =    1.000,"P-4-1",          1389,       138.669,       113.485,            0.,NA,NA,"",   1.00840E+06,   1.00600E+06,   1.00600E+06
C:/temp/Job-4.odb,Step-1,Increment      1: Step Time =    1.000,"P-4-1",          1390,       63.6765,       73.6960,            0.,NA,NA,"",   988.950E+03,   1.01738E+06,   1.01738E+06
C:/temp/Job-4.odb,Step-1,Increment      1: Step Time =    1.000,"P-4-1",          1391,       139.871,       75.0395,            0.,NA,NA,"",   1.01419E+06,   1.01056E+06,   1.01056E+06
C:/temp/Job-4.odb,Step-1,Increment      1: Step Time =    1.000,"P-4-1",          1392,       133.714,       132.529,            0.,NA,NA,"",   1.01695E+06,   1.01354E+06,   1.01354E+06
C:/temp/Job-4.odb,Step-1,Increment      1: Step Time =    1.000,"P-4-1",          1393,       101.137,       49.2104,            0.,NA,NA,"",   1.00512E+06,   1.00991E+06,   1.00991E+06
C:/temp/Job-4.odb,Step-1,Increment      1: Step Time =    1.000,"P-4-1",          1394,       112.279,       48.5145,            0.,NA,NA,"",   1.00634E+06,   1.00814E+06,   1.00814E+06
C:/temp/Job-4.odb,Step-1,Increment      1: Step Time =    1.000,"P-4-1",          1395,       65.0180,       127.402,            0.,NA,NA,"",   992.150E+03,   1.01883E+06,   1.01883E+06
C:/temp/Job-4.odb,Step-1,Increment      1: Step Time =    1.000,"P-4-1",          1396,       72.5736,       133.609,            0.,NA,NA,"",   1.00487E+06,   1.02336E+06,   1.02336E+06
C:/temp/Job-4.odb,Step-1,Increment      1: Step Time =    1.000,"P-4-1",          1397,       37.6042,       156.012,            0.,NA,NA,"",   976.298E+03,   1.01902E+06,   1.01902E+06
C:/temp/Job-4.odb,Step-1,Increment      1: Step Time =    1.000,"P-4-1",          1398,       99.8940,       161.822,            0.,NA,NA,"",   998.252E+03,   1.00111E+06,   1.00111E+06
C:/temp/Job-4.odb,Step-1,Increment      1: Step Time =    1.000,"P-4-1",          1399,       154.771,       56.9442,            0.,NA,NA,"",   1.00822E+06,   1.00459E+06,   1.00459E+06
C:/temp/Job-4.odb,Step-1,Increment      1: Step Time =    1.000,"P-4-1",          1400,       103.783,       169.522,            0.,NA,NA,"",   991.692E+03,   992.995E+03,   992.995E+03
C:/temp/Job-4.odb,Step-1,Increment      1: Step Time =    1.000,"P-4-1",          1401,       19.0361,       173.998,            0.,NA,NA,"",   996.989E+03,   1.05141E+06,   1.05141E+06
C:/temp/Job-4.odb,Step-1,Increment      1: Step Time =    1.000,"P-4-1",          1402,       141.753,       154.505,            0.,NA,NA,"",   1.00583E+06,   1.00338E+06,   1.00338E+06
C:/temp/Job-4.odb,Step-1,Increment      1: Step Time =    1.000,"P-4-1",          1403,       147.937,       147.654,            0.,NA,NA,"",   1.00808E+06,   1.00491E+06,   1.00491E+06
C:/temp/Job-4.odb,Step-1,Increment      1: Step Time =    1.000,"P-4-1",          1404,       52.0003,       51.7547,            0.,NA,NA,"",   987.020E+03,   1.01775E+06,   1.01775E+06
C:/temp/Job-4.odb,Step-1,Increment      1: Step Time =    1.000,"P-4-1",          1405,       56.8439,       45.3276,            0.,NA,NA,"",   995.611E+03,   1.01757E+06,   1.01757E+06
C:/temp/Job-4.odb,Step-1,Increment      1: Step Time =    1.000,"P-4-1",          1406,       41.8618,       36.1323,            0.,NA,NA,"",   991.618E+03,   1.02054E+06,   1.02054E+06
C:/temp/Job-4.odb,Step-1,Increment      1: Step Time =    1.000,"P-4-1",          1407,       179.527,       25.7320,            0.,NA,NA,"",   1.00027E+06,   998.667E+03,   998.667E+03
C:/temp/Job-4.odb,Step-1,Increment      1: Step Time =    1.000,"P-4-1",          1408,       173.907,       179.208,            0.,NA,NA,"",   998.504E+03,   997.409E+03,   997.409E+03
C:/temp/Job-4.odb,Step-1,Increment      1: Step Time =    1.000,"P-4-1",          1409,       28.3598,       19.1684,            0.,NA,NA,"",   1.02445E+06,   1.04678E+06,   1.04678E+06
C:/temp/Job-4.odb,Step-1,Increment      1: Step Time =    1.000,"P-4-1",          1410,       129.657,       135.464,            0.,NA,NA,"",   1.01724E+06,   1.01455E+06,   1.01455E+06
C:/temp/Job-4.odb,Step-1,Increment      1: Step Time =    1.000,"P-4-1",          1411,       113.783,       143.630,            0.,NA,NA,"",   1.01115E+06,   1.01334E+06,   1.01334E+06
C:/temp/Job-4.odb,Step-1,Increment      1: Step Time =    1.000,"P-4-1",          1412,       148.027,       110.319,            0.,NA,NA,"",   1.00654E+06,   1.00383E+06,   1.00383E+06
C:/temp/Job-4.odb,Step-1,Increment      1: Step Time =    1.000,"P-4-1",          1413,       48.1108,       55.0419,            0.,NA,NA,"",   977.790E+03,   1.01515E+06,   1.01515E+06
C:/temp/Job-4.odb,Step-1,Increment      1: Step Time =    1.000,"P-4-1",          1414,       152.566,       143.764,            0.,NA,NA,"",   1.00843E+06,   1.00490E+06,   1.00490E+06
C:/temp/Job-4.odb,Step-1,Increment      1: Step Time =    1.000,"P-4-1",          1415,       143.585,       45.7802,            0.,NA,NA,"",   1.00577E+06,   1.00323E+06,   1.00323E+06
C:/temp/Job-4.odb,Step-1,Increment      1: Step Time =    1.000,"P-4-1",          1416,       117.101,       141.515,            0.,NA,NA,"",   1.01339E+06,   1.01450E+06,   1.01450E+06
C:/temp/Job-4.odb,Step-1,Increment      1: Step Time =    1.000,"P-4-1",          1417,       119.074,       58.1176,            0.,NA,NA,"",   1.01359E+06,   1.01401E+06,   1.01401E+06
C:/temp/Job-4.odb,Step-1,Increment      1: Step Time =    1.000,"P-4-1",          1418,       119.720,       67.5856,            0.,NA,NA,"",   1.02111E+06,   1.02041E+06,   1.02041E+06
C:/temp/Job-4.odb,Step-1,Increment      1: Step Time =    1.000,"P-4-1",          1419,       92.3826,       142.335,            0.,NA,NA,"",   1.00818E+06,   1.01729E+06,   1.01729E+06
C:/temp/Job-4.odb,Step-1,Increment      1: Step Time =    1.000,"P-4-1",          1420,       81.3053,       143.391,            0.,NA,NA,"",   1.00749E+06,   1.01940E+06,   1.01940E+06
C:/temp/Job-4.odb,Step-1,Increment      1: Step Time =    1.000,"P-4-1",          1421,       67.5730,       132.212,            0.,NA,NA,"",   998.497E+03,   1.02134E+06,   1.02134E+06
C:/temp/Job-4.odb,Step-1,Increment      1: Step Time =    1.000,"P-4-1",          1422,       63.9025,       124.543,            0.,NA,NA,"",   987.641E+03,   1.01654E+06,   1.01654E+06
C:/temp/Job-4.odb,Step-1,Increment      1: Step Time =    1.000,"P-4-1",          1423,       76.4520,       132.601,            0.,NA,NA,"",   1.00885E+06,   1.02492E+06,   1.02492E+06
C:/temp/Job-4.odb,Step-1,Increment      1: Step Time =    1.000,"P-4-1",          1424,       133.893,       66.8539,            0.,NA,NA,"",   1.01649E+06,   1.01321E+06,   1.01321E+06
C:/temp/Job-4.odb,Step-1,Increment      1: Step Time =    1.000,"P-4-1",          1425,       140.689,       68.4511,            0.,NA,NA,"",   1.01397E+06,   1.01024E+06,   1.01024E+06
C:/temp/Job-4.odb,Step-1,Increment      1: Step Time =    1.000,"P-4-1",          1426,       143.683,       127.797,            0.,NA,NA,"",   1.01270E+06,   1.00896E+06,   1.00896E+06
C:/temp/Job-4.odb,Step-1,Increment      1: Step Time =    1.000,"P-4-1",          1427,       144.744,       112.998,            0.,NA,NA,"",   1.00745E+06,   1.00480E+06,   1.00480E+06
C:/temp/Job-4.odb,Step-1,Increment      1: Step Time =    1.000,"P-4-1",          1428,       64.2217,       67.9660,            0.,NA,NA,"",   993.302E+03,   1.01949E+06,   1.01949E+06
C:/temp/Job-4.odb,Step-1,Increment      1: Step Time =    1.000,"P-4-1",          1429,       112.748,       169.587,            0.,NA,NA,"",   992.802E+03,   993.210E+03,   993.210E+03
C:/temp/Job-4.odb,Step-1,Increment      1: Step Time =    1.000,"P-4-1",          1430,       77.8253,       62.7431,            0.,NA,NA,"",   1.00840E+06,   1.02307E+06,   1.02307E+06
C:/temp/Job-4.odb,Step-1,Increment      1: Step Time =    1.000,"P-4-1",          1431,       98.7695,       53.6590,            0.,NA,NA,"",   1.00663E+06,   1.01321E+06,   1.01321E+06
C:/temp/Job-4.odb,Step-1,Increment      1: Step Time =    1.000,"P-4-1",          1432,       111.893,       43.8485,            0.,NA,NA,"",   1.00332E+06,   1.00499E+06,   1.00499E+06
C:/temp/Job-4.odb,Step-1,Increment      1: Step Time =    1.000,"P-4-1",          1433,       142.100,       116.048,            0.,NA,NA,"",   1.00949E+06,   1.00652E+06,   1.00652E+06
C:/temp/Job-4.odb,Step-1,Increment      1: Step Time =    1.000,"P-4-1",          1434,       148.771,       47.1677,            0.,NA,NA,"",   1.00600E+06,   1.00312E+06,   1.00312E+06
C:/temp/Job-4.odb,Step-1,Increment      1: Step Time =    1.000,"P-4-1",          1435,       158.368,       57.1110,            0.,NA,NA,"",   1.00765E+06,   1.00393E+06,   1.00393E+06
C:/temp/Job-4.odb,Step-1,Increment      1: Step Time =    1.000,"P-4-1",          1436,       154.383,       103.828,            0.,NA,NA,"",   1.00573E+06,   1.00268E+06,   1.00268E+06
C:/temp/Job-4.odb,Step-1,Increment      1: Step Time =    1.000,"P-4-1",          1437,       152.665,       148.205,            0.,NA,NA,"",   1.00717E+06,   1.00390E+06,   1.00390E+06
C:/temp/Job-4.odb,Step-1,Increment      1: Step Time =    1.000,"P-4-1",          1438,       142.656,       150.562,            0.,NA,NA,"",   1.00760E+06,   1.00483E+06,   1.00483E+06
C:/temp/Job-4.odb,Step-1,Increment      1: Step Time =    1.000,"P-4-1",          1439,       140.631,       158.387,            0.,NA,NA,"",   1.00381E+06,   1.00170E+06,   1.00170E+06
C:/temp/Job-4.odb,Step-1,Increment      1: Step Time =    1.000,"P-4-1",          1440,       48.4304,       51.0027,            0.,NA,NA,"",   982.466E+03,   1.01696E+06,   1.01696E+06
C:/temp/Job-4.odb,Step-1,Increment      1: Step Time =    1.000,"P-4-1",          1441,       55.7535,       48.7403,            0.,NA,NA,"",   993.282E+03,   1.01824E+06,   1.01824E+06
C:/temp/Job-4.odb,Step-1,Increment      1: Step Time =    1.000,"P-4-1",          1442,       58.2783,       41.9644,            0.,NA,NA,"",   997.652E+03,   1.01641E+06,   1.01641E+06
C:/temp/Job-4.odb,Step-1,Increment      1: Step Time =    1.000,"P-4-1",          1443,       20.9158,       169.794,            0.,NA,NA,"",   981.376E+03,   1.03803E+06,   1.03803E+06
C:/temp/Job-4.odb,Step-1,Increment      1: Step Time =    1.000,"P-4-1",          1444,       13.9576,       174.889,            0.,NA,NA,"",   986.551E+03,   1.05403E+06,   1.05403E+06
C:/temp/Job-4.odb,Step-1,Increment      1: Step Time =    1.000,"P-4-1",          1445,       175.952,       30.7348,            0.,NA,NA,"",   1.00090E+06,   998.885E+03,   998.885E+03
C:/temp/Job-4.odb,Step-1,Increment      1: Step Time =    1.000,"P-4-1",          1446,       185.332,       24.8370,            0.,NA,NA,"",   1.00065E+06,   999.141E+03,   999.141E+03
C:/temp/Job-4.odb,Step-1,Increment      1: Step Time =    1.000,"P-4-1",          1447,       168.581,       176.058,            0.,NA,NA,"",   998.427E+03,   997.108E+03,   997.108E+03
C:/temp/Job-4.odb,Step-1,Increment      1: Step Time =    1.000,"P-4-1",          1448,       175.039,       185.133,            0.,NA,NA,"",   997.763E+03,   997.126E+03,   997.126E+03
C:/temp/Job-4.odb,Step-1,Increment      1: Step Time =    1.000,"P-4-1",          1449,       29.6538,       24.9991,            0.,NA,NA,"",   1.00776E+06,   1.03936E+06,   1.03936E+06
C:/temp/Job-4.odb,Step-1,Increment      1: Step Time =    1.000,"P-4-1",          1450,       24.7688,       17.8136,            0.,NA,NA,"",   1.03244E+06,   1.05677E+06,   1.05677E+06
C:/temp/Job-4.odb,Step-1,Increment      1: Step Time =    1.000,"P-4-1",          1451,       133.098,       139.538,            0.,NA,NA,"",   1.01440E+06,   1.01161E+06,   1.01161E+06
C:/temp/Job-4.odb,Step-1,Increment      1: Step Time =    1.000,"P-4-1",          1452,       92.2923,       147.301,            0.,NA,NA,"",   1.00619E+06,   1.01391E+06,   1.01391E+06
C:/temp/Job-4.odb,Step-1,Increment      1: Step Time =    1.000,"P-4-1",          1453,       76.9002,       136.577,            0.,NA,NA,"",   1.00813E+06,   1.02336E+06,   1.02336E+06
C:/temp/Job-4.odb,Step-1,Increment      1: Step Time =    1.000,"P-4-1",          1454,       60.9214,       69.7601,            0.,NA,NA,"",   987.278E+03,   1.01715E+06,   1.01715E+06
C:/temp/Job-4.odb,Step-1,Increment      1: Step Time =    1.000,"P-4-1",          1455,       43.6713,       162.733,            0.,NA,NA,"",   992.683E+03,   1.02089E+06,   1.02089E+06
C:/temp/Job-4.odb,Step-1,Increment      1: Step Time =    1.000,"P-4-1",          1456,       110.393,       145.432,            0.,NA,NA,"",   1.00899E+06,   1.01227E+06,   1.01227E+06
C:/temp/Job-4.odb,Step-1,Increment      1: Step Time =    1.000,"P-4-1",          1457,       152.409,       111.959,            0.,NA,NA,"",   1.00715E+06,   1.00398E+06,   1.00398E+06
C:/temp/Job-4.odb,Step-1,Increment      1: Step Time =    1.000,"P-4-1",          1458,       134.549,       62.8266,            0.,NA,NA,"",   1.01491E+06,   1.01186E+06,   1.01186E+06
C:/temp/Job-4.odb,Step-1,Increment      1: Step Time =    1.000,"P-4-1",          1459,       129.022,       70.1882,            0.,NA,NA,"",   1.01983E+06,   1.01669E+06,   1.01669E+06
C:/temp/Job-4.odb,Step-1,Increment      1: Step Time =    1.000,"P-4-1",          1460,       59.9240,       38.5364,            0.,NA,NA,"",   998.793E+03,   1.01407E+06,   1.01407E+06
C:/temp/Job-4.odb,Step-1,Increment      1: Step Time =    1.000,"P-4-1",          1461,       139.228,       162.191,            0.,NA,NA,"",   1.00154E+06,   999.757E+03,   999.757E+03
C:/temp/Job-4.odb,Step-1,Increment      1: Step Time =    1.000,"P-4-1",          1462,       144.120,       50.7668,            0.,NA,NA,"",   1.00807E+06,   1.00516E+06,   1.00516E+06
C:/temp/Job-4.odb,Step-1,Increment      1: Step Time =    1.000,"P-4-1",          1463,       139.711,       119.419,            0.,NA,NA,"",   1.01188E+06,   1.00865E+06,   1.00865E+06
C:/temp/Job-4.odb,Step-1,Increment      1: Step Time =    1.000,"P-4-1",          1464,       141.921,       133.018,            0.,NA,NA,"",   1.01338E+06,   1.00970E+06,   1.00970E+06
C:/temp/Job-4.odb,Step-1,Increment      1: Step Time =    1.000,"P-4-1",          1465,       143.104,       121.856,            0.,NA,NA,"",   1.01163E+06,   1.00814E+06,   1.00814E+06
C:/temp/Job-4.odb,Step-1,Increment      1: Step Time =    1.000,"P-4-1",          1466,       148.212,       143.743,            0.,NA,NA,"",   1.00938E+06,   1.00596E+06,   1.00596E+06
C:/temp/Job-4.odb,Step-1,Increment      1: Step Time =    1.000,"P-4-1",          1467,       51.9566,       55.8361,            0.,NA,NA,"",   983.169E+03,   1.01655E+06,   1.01655E+06
C:/temp/Job-4.odb,Step-1,Increment      1: Step Time =    1.000,"P-4-1",          1468,       81.6407,       58.9910,            0.,NA,NA,"",   1.00863E+06,   1.02098E+06,   1.02098E+06
C:/temp/Job-4.odb,Step-1,Increment      1: Step Time =    1.000,"P-4-1",          1469,       59.6049,       123.783,            0.,NA,NA,"",   979.279E+03,   1.01322E+06,   1.01322E+06
C:/temp/Job-4.odb,Step-1,Increment      1: Step Time =    1.000,"P-4-1",          1470,       154.468,       100.810,            0.,NA,NA,"",   1.00564E+06,   1.00257E+06,   1.00257E+06
C:/temp/Job-4.odb,Step-1,Increment      1: Step Time =    1.000,"P-4-1",          1471,       112.076,       163.840,            0.,NA,NA,"",   997.569E+03,   998.383E+03,   998.383E+03
C:/temp/Job-4.odb,Step-1,Increment      1: Step Time =    1.000,"P-4-1",          1472,       153.398,       60.0428,            0.,NA,NA,"",   1.00901E+06,   1.00528E+06,   1.00528E+06
C:/temp/Job-4.odb,Step-1,Increment      1: Step Time =    1.000,"P-4-1",          1473,       39.3405,       164.089,            0.,NA,NA,"",   991.060E+03,   1.02335E+06,   1.02335E+06
C:/temp/Job-4.odb,Step-1,Increment      1: Step Time =    1.000,"P-4-1",          1474,       122.275,       61.5621,            0.,NA,NA,"",   1.01635E+06,   1.01553E+06,   1.01553E+06
C:/temp/Job-4.odb,Step-1,Increment      1: Step Time =    1.000,"P-4-1",          1475,       137.181,       153.118,            0.,NA,NA,"",   1.00684E+06,   1.00461E+06,   1.00461E+06
C:/temp/Job-4.odb,Step-1,Increment      1: Step Time =    1.000,"P-4-1",          1476,       60.0829,       46.9044,            0.,NA,NA,"",   997.076E+03,   1.01757E+06,   1.01757E+06
C:/temp/Job-4.odb,Step-1,Increment      1: Step Time =    1.000,"P-4-1",          1477,       137.711,       67.2443,            0.,NA,NA,"",   1.01507E+06,   1.01152E+06,   1.01152E+06
C:/temp/Job-4.odb,Step-1,Increment      1: Step Time =    1.000,"P-4-1",          1478,       119.191,       144.535,            0.,NA,NA,"",   1.01188E+06,   1.01238E+06,   1.01238E+06
C:/temp/Job-4.odb,Step-1,Increment      1: Step Time =    1.000,"P-4-1",          1479,       130.935,       59.6187,            0.,NA,NA,"",   1.01447E+06,   1.01203E+06,   1.01203E+06
C:/temp/Job-4.odb,Step-1,Increment      1: Step Time =    1.000,"P-4-1",          1480,       129.998,       66.3529,            0.,NA,NA,"",   1.01783E+06,   1.01493E+06,   1.01493E+06
C:/temp/Job-4.odb,Step-1,Increment      1: Step Time =    1.000,"P-4-1",          1481,       152.188,       63.8539,            0.,NA,NA,"",   1.01006E+06,   1.00621E+06,   1.00621E+06
C:/temp/Job-4.odb,Step-1,Increment      1: Step Time =    1.000,"P-4-1",          1482,       125.729,       69.2571,            0.,NA,NA,"",   1.02090E+06,   1.01832E+06,   1.01832E+06
C:/temp/Job-4.odb,Step-1,Increment      1: Step Time =    1.000,"P-4-1",          1483,       121.032,       148.064,            0.,NA,NA,"",   1.00978E+06,   1.00976E+06,   1.00976E+06
C:/temp/Job-4.odb,Step-1,Increment      1: Step Time =    1.000,"P-4-1",          1484,       152.875,       108.829,            0.,NA,NA,"",   1.00637E+06,   1.00329E+06,   1.00329E+06
C:/temp/Job-4.odb,Step-1,Increment      1: Step Time =    1.000,"P-4-1",          1485,       139.517,       62.8480,            0.,NA,NA,"",   1.01355E+06,   1.01012E+06,   1.01012E+06
C:/temp/Job-4.odb,Step-1,Increment      1: Step Time =    1.000,"P-4-1",          1486,       92.4278,       48.6123,            0.,NA,NA,"",   1.00469E+06,   1.01122E+06,   1.01122E+06
C:/temp/Job-4.odb,Step-1,Increment      1: Step Time =    1.000,"P-4-1",          1487,       73.4632,       141.563,            0.,NA,NA,"",   1.00529E+06,   1.02116E+06,   1.02116E+06
C:/temp/Job-4.odb,Step-1,Increment      1: Step Time =    1.000,"P-4-1",          1488,       69.7153,       142.047,            0.,NA,NA,"",   1.00243E+06,   1.02061E+06,   1.02061E+06
C:/temp/Job-4.odb,Step-1,Increment      1: Step Time =    1.000,"P-4-1",          1489,       64.9265,       46.0551,            0.,NA,NA,"",   999.977E+03,   1.01647E+06,   1.01647E+06
C:/temp/Job-4.odb,Step-1,Increment      1: Step Time =    1.000,"P-4-1",          1490,       132.451,       156.277,            0.,NA,NA,"",   1.00488E+06,   1.00323E+06,   1.00323E+06
C:/temp/Job-4.odb,Step-1,Increment      1: Step Time =    1.000,"P-4-1",          1491,       122.938,       65.8405,            0.,NA,NA,"",   1.01954E+06,   1.01805E+06,   1.01805E+06
C:/temp/Job-4.odb,Step-1,Increment      1: Step Time =    1.000,"P-4-1",          1492,       62.4435,       121.691,            0.,NA,NA,"",   982.144E+03,   1.01384E+06,   1.01384E+06
C:/temp/Job-4.odb,Step-1,Increment      1: Step Time =    1.000,"P-4-1",          1493,       57.9967,       126.298,            0.,NA,NA,"",   978.699E+03,   1.01339E+06,   1.01339E+06
C:/temp/Job-4.odb,Step-1,Increment      1: Step Time =    1.000,"P-4-1",          1494,       130.516,       62.6904,            0.,NA,NA,"",   1.01588E+06,   1.01325E+06,   1.01325E+06
C:/temp/Job-4.odb,Step-1,Increment      1: Step Time =    1.000,"P-4-1",          1495,       58.1669,       75.8946,            0.,NA,NA,"",   977.040E+03,   1.01242E+06,   1.01242E+06
C:/temp/Job-4.odb,Step-1,Increment      1: Step Time =    1.000,"P-4-1",          1496,       89.8400,       150.276,            0.,NA,NA,"",   1.00499E+06,   1.01245E+06,   1.01245E+06
C:/temp/Job-4.odb,Step-1,Increment      1: Step Time =    1.000,"P-4-1",          1497,       122.148,       54.7736,            0.,NA,NA,"",   1.01194E+06,   1.01150E+06,   1.01150E+06
C:/temp/Job-4.odb,Step-1,Increment      1: Step Time =    1.000,"P-4-1",          1498,       143.245,       66.5697,            0.,NA,NA,"",   1.01291E+06,   1.00924E+06,   1.00924E+06
C:/temp/Job-4.odb,Step-1,Increment      1: Step Time =    1.000,"P-4-1",          1499,       75.4565,       58.5340,            0.,NA,NA,"",   1.00625E+06,   1.02115E+06,   1.02115E+06
C:/temp/Job-4.odb,Step-1,Increment      1: Step Time =    1.000,"P-4-1",          1500,       96.7366,       46.9373,            0.,NA,NA,"",   1.00386E+06,   1.00921E+06,   1.00921E+06
C:/temp/Job-4.odb,Step-1,Increment      1: Step Time =    1.000,"P-4-1",          1501,       46.7502,       156.815,            0.,NA,NA,"",   988.937E+03,   1.01900E+06,   1.01900E+06
C:/temp/Job-4.odb,Step-1,Increment      1: Step Time =    1.000,"P-4-1",          1502,       154.278,       97.0279,            0.,NA,NA,"",   1.00560E+06,   1.00259E+06,   1.00259E+06
C:/temp/Job-4.odb,Step-1,Increment      1: Step Time =    1.000,"P-4-1",          1503,       146.552,       128.926,            0.,NA,NA,"",   1.01187E+06,   1.00808E+06,   1.00808E+06
C:/temp/Job-4.odb,Step-1,Increment      1: Step Time =    1.000,"P-4-1",          1504,       122.813,       141.878,            0.,NA,NA,"",   1.01419E+06,   1.01356E+06,   1.01356E+06
C:/temp/Job-4.odb,Step-1,Increment      1: Step Time =    1.000,"P-4-1",          1505,       145.741,       54.3176,            0.,NA,NA,"",   1.00920E+06,   1.00600E+06,   1.00600E+06
C:/temp/Job-4.odb,Step-1,Increment      1: Step Time =    1.000,"P-4-1",          1506,       138.899,       47.3699,            0.,NA,NA,"",   1.00695E+06,   1.00457E+06,   1.00457E+06
C:/temp/Job-4.odb,Step-1,Increment      1: Step Time =    1.000,"P-4-1",          1507,       108.368,       159.220,            0.,NA,NA,"",   1.00073E+06,   1.00263E+06,   1.00263E+06
C:/temp/Job-4.odb,Step-1,Increment      1: Step Time =    1.000,"P-4-1",          1508,       143.486,       146.617,            0.,NA,NA,"",   1.00923E+06,   1.00616E+06,   1.00616E+06
C:/temp/Job-4.odb,Step-1,Increment      1: Step Time =    1.000,"P-4-1",          1509,       151.677,       139.455,            0.,NA,NA,"",   1.00972E+06,   1.00600E+06,   1.00600E+06
C:/temp/Job-4.odb,Step-1,Increment      1: Step Time =    1.000,"P-4-1",          1510,       58.3568,       52.3370,            0.,NA,NA,"",   993.638E+03,   1.01838E+06,   1.01838E+06
C:/temp/Job-4.odb,Step-1,Increment      1: Step Time =    1.000,"P-4-1",          1511,       47.5411,       58.9938,            0.,NA,NA,"",   972.708E+03,   1.01314E+06,   1.01314E+06
C:/temp/Job-4.odb,Step-1,Increment      1: Step Time =    1.000,"P-4-1",          1512,       112.540,       149.395,            0.,NA,NA,"",   1.00758E+06,   1.00966E+06,   1.00966E+06
C:/temp/Job-4.odb,Step-1,Increment      1: Step Time =    1.000,"P-4-1",          1513,       126.779,       61.9382,            0.,NA,NA,"",   1.01639E+06,   1.01443E+06,   1.01443E+06
C:/temp/Job-4.odb,Step-1,Increment      1: Step Time =    1.000,"P-4-1",          1514,       136.063,       143.267,            0.,NA,NA,"",   1.01210E+06,   1.00930E+06,   1.00930E+06
C:/temp/Job-4.odb,Step-1,Increment      1: Step Time =    1.000,"P-4-1",          1515,       66.0108,       118.840,            0.,NA,NA,"",   985.812E+03,   1.01425E+06,   1.01425E+06
C:/temp/Job-4.odb,Step-1,Increment      1: Step Time =    1.000,"P-4-1",          1516,       151.082,       130.204,            0.,NA,NA,"",   1.01048E+06,   1.00659E+06,   1.00659E+06
C:/temp/Job-4.odb,Step-1,Increment      1: Step Time =    1.000,"P-4-1",          1517,       69.5466,       145.932,            0.,NA,NA,"",   1.00236E+06,   1.01939E+06,   1.01939E+06
C:/temp/Job-4.odb,Step-1,Increment      1: Step Time =    1.000,"P-4-1",          1518,       69.6930,       57.5604,            0.,NA,NA,"",   1.00260E+06,   1.02052E+06,   1.02052E+06
C:/temp/Job-4.odb,Step-1,Increment      1: Step Time =    1.000,"P-4-1",          1519,       150.034,       113.561,            0.,NA,NA,"",   1.00776E+06,   1.00458E+06,   1.00458E+06
C:/temp/Job-4.odb,Step-1,Increment      1: Step Time =    1.000,"P-4-1",          1520,       108.616,       154.757,            0.,NA,NA,"",   1.00360E+06,   1.00600E+06,   1.00600E+06
C:/temp/Job-4.odb,Step-1,Increment      1: Step Time =    1.000,"P-4-1",          1521,       138.055,       57.7976,            0.,NA,NA,"",   1.01217E+06,   1.00915E+06,   1.00915E+06
C:/temp/Job-4.odb,Step-1,Increment      1: Step Time =    1.000,"P-4-1",          1522,       77.2036,       140.565,            0.,NA,NA,"",   1.00737E+06,   1.02149E+06,   1.02149E+06
C:/temp/Job-4.odb,Step-1,Increment      1: Step Time =    1.000,"P-4-1",          1523,       65.7183,       138.891,            0.,NA,NA,"",   998.494E+03,   1.02052E+06,   1.02052E+06
C:/temp/Job-4.odb,Step-1,Increment      1: Step Time =    1.000,"P-4-1",          1524,       57.2332,       121.550,            0.,NA,NA,"",   973.158E+03,   1.01022E+06,   1.01022E+06
C:/temp/Job-4.odb,Step-1,Increment      1: Step Time =    1.000,"P-4-1",          1525,       61.8855,       130.575,            0.,NA,NA,"",   988.693E+03,   1.01763E+06,   1.01763E+06
C:/temp/Job-4.odb,Step-1,Increment      1: Step Time =    1.000,"P-4-1",          1526,       149.912,       93.5543,            0.,NA,NA,"",   1.00549E+06,   1.00287E+06,   1.00287E+06
C:/temp/Job-4.odb,Step-1,Increment      1: Step Time =    1.000,"P-4-1",          1527,       159.855,       71.4920,            0.,NA,NA,"",   1.00866E+06,   1.00450E+06,   1.00450E+06
C:/temp/Job-4.odb,Step-1,Increment      1: Step Time =    1.000,"P-4-1",          1528,       97.8117,       154.343,            0.,NA,NA,"",   1.00300E+06,   1.00758E+06,   1.00758E+06
C:/temp/Job-4.odb,Step-1,Increment      1: Step Time =    1.000,"P-4-1",          1529,       88.3220,       50.6960,            0.,NA,NA,"",   1.00538E+06,   1.01351E+06,   1.01351E+06
C:/temp/Job-4.odb,Step-1,Increment      1: Step Time =    1.000,"P-4-1",          1530,       124.185,       57.7654,            0.,NA,NA,"",   1.01402E+06,   1.01296E+06,   1.01296E+06
C:/temp/Job-4.odb,Step-1,Increment      1: Step Time =    1.000,"P-4-1",          1531,       54.9040,       70.2184,            0.,NA,NA,"",   975.624E+03,   1.01277E+06,   1.01277E+06
C:/temp/Job-4.odb,Step-1,Increment      1: Step Time =    1.000,"P-4-1",          1532,       61.6080,       78.8759,            0.,NA,NA,"",   980.718E+03,   1.01318E+06,   1.01318E+06
C:/temp/Job-4.odb,Step-1,Increment      1: Step Time =    1.000,"P-4-1",          1533,       148.904,       57.9784,            0.,NA,NA,"",   1.00969E+06,   1.00617E+06,   1.00617E+06
C:/temp/Job-4.odb,Step-1,Increment      1: Step Time =    1.000,"P-4-1",          1534,       131.718,       159.807,            0.,NA,NA,"",   1.00274E+06,   1.00131E+06,   1.00131E+06
C:/temp/Job-4.odb,Step-1,Increment      1: Step Time =    1.000,"P-4-1",          1535,       67.0153,       42.7651,            0.,NA,NA,"",   1.00049E+06,   1.01411E+06,   1.01411E+06
C:/temp/Job-4.odb,Step-1,Increment      1: Step Time =    1.000,"P-4-1",          1536,       44.9518,       151.691,            0.,NA,NA,"",   980.575E+03,   1.01723E+06,   1.01723E+06
C:/temp/Job-4.odb,Step-1,Increment      1: Step Time =    1.000,"P-4-1",          1537,       47.8931,       161.316,            0.,NA,NA,"",   993.901E+03,   1.01884E+06,   1.01884E+06
C:/temp/Job-4.odb,Step-1,Increment      1: Step Time =    1.000,"P-4-1",          1538,       108.186,       150.643,            0.,NA,NA,"",   1.00576E+06,   1.00886E+06,   1.00886E+06
C:/temp/Job-4.odb,Step-1,Increment      1: Step Time =    1.000,"P-4-1",          1539,       129.382,       142.721,            0.,NA,NA,"",   1.01352E+06,   1.01147E+06,   1.01147E+06
C:/temp/Job-4.odb,Step-1,Increment      1: Step Time =    1.000,"P-4-1",          1540,       140.209,       140.947,            0.,NA,NA,"",   1.01212E+06,   1.00888E+06,   1.00888E+06
C:/temp/Job-4.odb,Step-1,Increment      1: Step Time =    1.000,"P-4-1",          1541,       68.8241,       149.533,            0.,NA,NA,"",   1.00195E+06,   1.01771E+06,   1.01771E+06
C:/temp/Job-4.odb,Step-1,Increment      1: Step Time =    1.000,"P-4-1",          1542,       66.8989,       114.356,            0.,NA,NA,"",   981.621E+03,   1.01043E+06,   1.01043E+06
C:/temp/Job-4.odb,Step-1,Increment      1: Step Time =    1.000,"P-4-1",          1543,       81.2423,       147.062,            0.,NA,NA,"",   1.00654E+06,   1.01744E+06,   1.01744E+06
C:/temp/Job-4.odb,Step-1,Increment      1: Step Time =    1.000,"P-4-1",          1544,       65.9111,       146.064,            0.,NA,NA,"",   999.782E+03,   1.01932E+06,   1.01932E+06
C:/temp/Job-4.odb,Step-1,Increment      1: Step Time =    1.000,"P-4-1",          1545,       53.9724,       128.712,            0.,NA,NA,"",   972.731E+03,   1.01152E+06,   1.01152E+06
C:/temp/Job-4.odb,Step-1,Increment      1: Step Time =    1.000,"P-4-1",          1546,       66.0350,       129.817,            0.,NA,NA,"",   995.394E+03,   1.02022E+06,   1.02022E+06
C:/temp/Job-4.odb,Step-1,Increment      1: Step Time =    1.000,"P-4-1",          1547,       104.859,       154.897,            0.,NA,NA,"",   1.00321E+06,   1.00644E+06,   1.00644E+06
C:/temp/Job-4.odb,Step-1,Increment      1: Step Time =    1.000,"P-4-1",          1548,       66.7006,       82.3956,            0.,NA,NA,"",   986.547E+03,   1.01413E+06,   1.01413E+06
C:/temp/Job-4.odb,Step-1,Increment      1: Step Time =    1.000,"P-4-1",          1549,       132.338,       54.8947,            0.,NA,NA,"",   1.01175E+06,   1.00948E+06,   1.00948E+06
C:/temp/Job-4.odb,Step-1,Increment      1: Step Time =    1.000,"P-4-1",          1550,       154.255,       128.111,            0.,NA,NA,"",   1.00967E+06,   1.00571E+06,   1.00571E+06
C:/temp/Job-4.odb,Step-1,Increment      1: Step Time =    1.000,"P-4-1",          1551,       66.4710,       60.2772,            0.,NA,NA,"",   999.110E+03,   1.02054E+06,   1.02054E+06
C:/temp/Job-4.odb,Step-1,Increment      1: Step Time =    1.000,"P-4-1",          1552,       62.3265,       142.988,            0.,NA,NA,"",   996.182E+03,   1.01940E+06,   1.01940E+06
C:/temp/Job-4.odb,Step-1,Increment      1: Step Time =    1.000,"P-4-1",          1553,       102.265,       149.571,            0.,NA,NA,"",   1.00557E+06,   1.01028E+06,   1.01028E+06
C:/temp/Job-4.odb,Step-1,Increment      1: Step Time =    1.000,"P-4-1",          1554,       90.4361,       152.956,            0.,NA,NA,"",   1.00406E+06,   1.01068E+06,   1.01068E+06
C:/temp/Job-4.odb,Step-1,Increment      1: Step Time =    1.000,"P-4-1",          1555,       154.347,       113.444,            0.,NA,NA,"",   1.00733E+06,   1.00389E+06,   1.00389E+06
C:/temp/Job-4.odb,Step-1,Increment      1: Step Time =    1.000,"P-4-1",          1556,       88.4481,       46.9372,            0.,NA,NA,"",   1.00403E+06,   1.01104E+06,   1.01104E+06
C:/temp/Job-4.odb,Step-1,Increment      1: Step Time =    1.000,"P-4-1",          1557,       51.6568,       64.2295,            0.,NA,NA,"",   974.980E+03,   1.01333E+06,   1.01333E+06
C:/temp/Job-4.odb,Step-1,Increment      1: Step Time =    1.000,"P-4-1",          1558,       161.163,       67.0447,            0.,NA,NA,"",   1.00839E+06,   1.00424E+06,   1.00424E+06
C:/temp/Job-4.odb,Step-1,Increment      1: Step Time =    1.000,"P-4-1",          1559,       154.223,       70.5459,            0.,NA,NA,"",   1.00983E+06,   1.00585E+06,   1.00585E+06
C:/temp/Job-4.odb,Step-1,Increment      1: Step Time =    1.000,"P-4-1",          1560,       57.3603,       65.5896,            0.,NA,NA,"",   983.795E+03,   1.01617E+06,   1.01617E+06
C:/temp/Job-4.odb,Step-1,Increment      1: Step Time =    1.000,"P-4-1",          1561,       132.705,       147.251,            0.,NA,NA,"",   1.01047E+06,   1.00828E+06,   1.00828E+06
C:/temp/Job-4.odb,Step-1,Increment      1: Step Time =    1.000,"P-4-1",          1562,       38.2944,       152.738,            0.,NA,NA,"",   971.726E+03,   1.01647E+06,   1.01647E+06
C:/temp/Job-4.odb,Step-1,Increment      1: Step Time =    1.000,"P-4-1",          1563,       144.816,       138.367,            0.,NA,NA,"",   1.01162E+06,   1.00805E+06,   1.00805E+06
C:/temp/Job-4.odb,Step-1,Increment      1: Step Time =    1.000,"P-4-1",          1564,       133.997,       164.183,            0.,NA,NA,"",   999.908E+03,   998.564E+03,   998.564E+03
C:/temp/Job-4.odb,Step-1,Increment      1: Step Time =    1.000,"P-4-1",          1565,       129.034,       156.118,            0.,NA,NA,"",   1.00489E+06,   1.00355E+06,   1.00355E+06
C:/temp/Job-4.odb,Step-1,Increment      1: Step Time =    1.000,"P-4-1",          1566,       65.3371,       36.8208,            0.,NA,NA,"",   998.448E+03,   1.00993E+06,   1.00993E+06
C:/temp/Job-4.odb,Step-1,Increment      1: Step Time =    1.000,"P-4-1",          1567,       148.331,       140.624,            0.,NA,NA,"",   1.01025E+06,   1.00664E+06,   1.00664E+06
C:/temp/Job-4.odb,Step-1,Increment      1: Step Time =    1.000,"P-4-1",          1568,       53.3473,       76.0760,            0.,NA,NA,"",   967.528E+03,   1.00862E+06,   1.00862E+06
C:/temp/Job-4.odb,Step-1,Increment      1: Step Time =    1.000,"P-4-1",          1569,       67.3998,       122.767,            0.,NA,NA,"",   992.849E+03,   1.01836E+06,   1.01836E+06
C:/temp/Job-4.odb,Step-1,Increment      1: Step Time =    1.000,"P-4-1",          1570,       58.6853,       134.985,            0.,NA,NA,"",   986.234E+03,   1.01690E+06,   1.01690E+06
C:/temp/Job-4.odb,Step-1,Increment      1: Step Time =    1.000,"P-4-1",          1571,       162.044,       62.3211,            0.,NA,NA,"",   1.00783E+06,   1.00379E+06,   1.00379E+06
C:/temp/Job-4.odb,Step-1,Increment      1: Step Time =    1.000,"P-4-1",          1572,       64.3214,       88.0627,            0.,NA,NA,"",   974.555E+03,   1.00680E+06,   1.00680E+06
C:/temp/Job-4.odb,Step-1,Increment      1: Step Time =    1.000,"P-4-1",          1573,       75.9070,       45.1866,            0.,NA,NA,"",   1.00287E+06,   1.01321E+06,   1.01321E+06
C:/temp/Job-4.odb,Step-1,Increment      1: Step Time =    1.000,"P-4-1",          1574,       122.701,       152.424,            0.,NA,NA,"",   1.00697E+06,   1.00654E+06,   1.00654E+06
C:/temp/Job-4.odb,Step-1,Increment      1: Step Time =    1.000,"P-4-1",          1575,       51.4282,       127.303,            0.,NA,NA,"",   966.422E+03,   1.00884E+06,   1.00884E+06
C:/temp/Job-4.odb,Step-1,Increment      1: Step Time =    1.000,"P-4-1",          1576,       150.020,       73.5354,            0.,NA,NA,"",   1.01052E+06,   1.00671E+06,   1.00671E+06
C:/temp/Job-4.odb,Step-1,Increment      1: Step Time =    1.000,"P-4-1",          1577,       59.0694,       113.576,            0.,NA,NA,"",   968.147E+03,   1.00595E+06,   1.00595E+06
C:/temp/Job-4.odb,Step-1,Increment      1: Step Time =    1.000,"P-4-1",          1578,       72.6467,       152.298,            0.,NA,NA,"",   1.00323E+06,   1.01599E+06,   1.01599E+06
C:/temp/Job-4.odb,Step-1,Increment      1: Step Time =    1.000,"P-4-1",          1579,       77.6124,       144.391,            0.,NA,NA,"",   1.00621E+06,   1.01919E+06,   1.01919E+06
C:/temp/Job-4.odb,Step-1,Increment      1: Step Time =    1.000,"P-4-1",          1580,       54.4973,       124.909,            0.,NA,NA,"",   970.687E+03,   1.01003E+06,   1.01003E+06
C:/temp/Job-4.odb,Step-1,Increment      1: Step Time =    1.000,"P-4-1",          1581,       55.5882,       133.452,            0.,NA,NA,"",   980.000E+03,   1.01475E+06,   1.01475E+06
C:/temp/Job-4.odb,Step-1,Increment      1: Step Time =    1.000,"P-4-1",          1582,       56.8894,       138.025,            0.,NA,NA,"",   985.652E+03,   1.01692E+06,   1.01692E+06
C:/temp/Job-4.odb,Step-1,Increment      1: Step Time =    1.000,"P-4-1",          1583,       69.1229,       39.1405,            0.,NA,NA,"",   999.786E+03,   1.01064E+06,   1.01064E+06
C:/temp/Job-4.odb,Step-1,Increment      1: Step Time =    1.000,"P-4-1",          1584,       130.196,       163.192,            0.,NA,NA,"",   1.00031E+06,   999.176E+03,   999.176E+03
C:/temp/Job-4.odb,Step-1,Increment      1: Step Time =    1.000,"P-4-1",          1585,       87.2488,       150.174,            0.,NA,NA,"",   1.00508E+06,   1.01322E+06,   1.01322E+06
C:/temp/Job-4.odb,Step-1,Increment      1: Step Time =    1.000,"P-4-1",          1586,       132.770,       152.237,            0.,NA,NA,"",   1.00738E+06,   1.00550E+06,   1.00550E+06
C:/temp/Job-4.odb,Step-1,Increment      1: Step Time =    1.000,"P-4-1",          1587,       156.757,       131.218,            0.,NA,NA,"",   1.00919E+06,   1.00515E+06,   1.00515E+06
C:/temp/Job-4.odb,Step-1,Increment      1: Step Time =    1.000,"P-4-1",          1588,       152.172,       124.642,            0.,NA,NA,"",   1.00990E+06,   1.00606E+06,   1.00606E+06
C:/temp/Job-4.odb,Step-1,Increment      1: Step Time =    1.000,"P-4-1",          1589,       56.6838,       81.5659,            0.,NA,NA,"",   968.551E+03,   1.00769E+06,   1.00769E+06
C:/temp/Job-4.odb,Step-1,Increment      1: Step Time =    1.000,"P-4-1",          1590,       149.718,       67.4615,            0.,NA,NA,"",   1.01108E+06,   1.00720E+06,   1.00720E+06
C:/temp/Job-4.odb,Step-1,Increment      1: Step Time =    1.000,"P-4-1",          1591,       49.1544,       71.6292,            0.,NA,NA,"",   962.702E+03,   1.00747E+06,   1.00747E+06
C:/temp/Job-4.odb,Step-1,Increment      1: Step Time =    1.000,"P-4-1",          1592,       164.515,       72.9441,            0.,NA,NA,"",   1.00784E+06,   1.00350E+06,   1.00350E+06
C:/temp/Job-4.odb,Step-1,Increment      1: Step Time =    1.000,"P-4-1",          1593,       67.7457,       48.6286,            0.,NA,NA,"",   1.00130E+06,   1.01717E+06,   1.01717E+06
C:/temp/Job-4.odb,Step-1,Increment      1: Step Time =    1.000,"P-4-1",          1594,       54.7356,       118.228,            0.,NA,NA,"",   964.862E+03,   1.00612E+06,   1.00612E+06
C:/temp/Job-4.odb,Step-1,Increment      1: Step Time =    1.000,"P-4-1",          1595,       66.1684,       136.029,            0.,NA,NA,"",   998.181E+03,   1.02099E+06,   1.02099E+06
C:/temp/Job-4.odb,Step-1,Increment      1: Step Time =    1.000,"P-4-1",          1596,       51.7786,       122.076,            0.,NA,NA,"",   962.078E+03,   1.00598E+06,   1.00598E+06
C:/temp/Job-4.odb,Step-1,Increment      1: Step Time =    1.000,"P-4-1",          1597,       63.6089,       109.237,            0.,NA,NA,"",   970.276E+03,   1.00432E+06,   1.00432E+06
C:/temp/Job-4.odb,Step-1,Increment      1: Step Time =    1.000,"P-4-1",          1598,       59.0506,       116.929,            0.,NA,NA,"",   971.358E+03,   1.00801E+06,   1.00801E+06
C:/temp/Job-4.odb,Step-1,Increment      1: Step Time =    1.000,"P-4-1",          1599,       48.9010,       125.219,            0.,NA,NA,"",   959.170E+03,   1.00555E+06,   1.00555E+06
C:/temp/Job-4.odb,Step-1,Increment      1: Step Time =    1.000,"P-4-1",          1600,       159.664,       134.036,            0.,NA,NA,"",   1.00855E+06,   1.00446E+06,   1.00446E+06
C:/temp/Job-4.odb,Step-1,Increment      1: Step Time =    1.000,"P-4-1",          1601,       68.8177,       153.230,            0.,NA,NA,"",   1.00172E+06,   1.01599E+06,   1.01599E+06
C:/temp/Job-4.odb,Step-1,Increment      1: Step Time =    1.000,"P-4-1",          1602,       76.4303,       150.424,            0.,NA,NA,"",   1.00454E+06,   1.01619E+06,   1.01619E+06
C:/temp/Job-4.odb,Step-1,Increment      1: Step Time =    1.000,"P-4-1",          1603,       71.9506,       85.7649,            0.,NA,NA,"",   991.186E+03,   1.01391E+06,   1.01391E+06
C:/temp/Job-4.odb,Step-1,Increment      1: Step Time =    1.000,"P-4-1",          1604,       59.1472,       144.893,            0.,NA,NA,"",   992.922E+03,   1.01860E+06,   1.01860E+06
C:/temp/Job-4.odb,Step-1,Increment      1: Step Time =    1.000,"P-4-1",          1605,       158.477,       79.9021,            0.,NA,NA,"",   1.00815E+06,   1.00418E+06,   1.00418E+06
C:/temp/Job-4.odb,Step-1,Increment      1: Step Time =    1.000,"P-4-1",          1606,       122.643,       157.584,            0.,NA,NA,"",    1.0036E+06,   1.00323E+06,   1.00323E+06
C:/temp/Job-4.odb,Step-1,Increment      1: Step Time =    1.000,"P-4-1",          1607,       58.5350,       86.8605,            0.,NA,NA,"",   966.818E+03,   1.00542E+06,   1.00542E+06
C:/temp/Job-4.odb,Step-1,Increment      1: Step Time =    1.000,"P-4-1",          1608,       78.6876,       41.7864,            0.,NA,NA,"",   1.00136E+06,   1.00953E+06,   1.00953E+06
C:/temp/Job-4.odb,Step-1,Increment      1: Step Time =    1.000,"P-4-1",          1609,       155.502,       120.341,            0.,NA,NA,"",   1.00862E+06,   1.00480E+06,   1.00480E+06
C:/temp/Job-4.odb,Step-1,Increment      1: Step Time =    1.000,"P-4-1",          1610,       146.417,       124.055,            0.,NA,NA,"",   1.01126E+06,   1.00760E+06,   1.00760E+06
C:/temp/Job-4.odb,Step-1,Increment      1: Step Time =    1.000,"P-4-1",          1611,       153.436,       133.800,            0.,NA,NA,"",   1.00989E+06,   1.00596E+06,   1.00596E+06
C:/temp/Job-4.odb,Step-1,Increment      1: Step Time =    1.000,"P-4-1",          1612,       46.3261,       66.6666,            0.,NA,NA,"",   961.536E+03,   1.00798E+06,   1.00798E+06
C:/temp/Job-4.odb,Step-1,Increment      1: Step Time =    1.000,"P-4-1",          1613,       166.582,       68.2161,            0.,NA,NA,"",   1.00754E+06,   1.00317E+06,   1.00317E+06
C:/temp/Job-4.odb,Step-1,Increment      1: Step Time =    1.000,"P-4-1",          1614,       132.018,       166.826,            0.,NA,NA,"",   997.953E+03,   996.851E+03,   996.851E+03
C:/temp/Job-4.odb,Step-1,Increment      1: Step Time =    1.000,"P-4-1",          1615,       66.9460,       32.8870,            0.,NA,NA,"",   996.238E+03,   1.00506E+06,   1.00506E+06
C:/temp/Job-4.odb,Step-1,Increment      1: Step Time =    1.000,"P-4-1",          1616,       62.0608,       105.172,            0.,NA,NA,"",   964.592E+03,   1.00116E+06,   1.00116E+06
C:/temp/Job-4.odb,Step-1,Increment      1: Step Time =    1.000,"P-4-1",          1617,       48.8744,       120.003,            0.,NA,NA,"",   954.252E+03,   1.00241E+06,   1.00241E+06
C:/temp/Job-4.odb,Step-1,Increment      1: Step Time =    1.000,"P-4-1",          1618,       80.4922,       150.720,            0.,NA,NA,"",   1.00501E+06,   1.01490E+06,   1.01490E+06
C:/temp/Job-4.odb,Step-1,Increment      1: Step Time =    1.000,"P-4-1",          1619,       60.2653,       119.408,            0.,NA,NA,"",   976.037E+03,   1.01063E+06,   1.01063E+06
C:/temp/Job-4.odb,Step-1,Increment      1: Step Time =    1.000,"P-4-1",          1620,       49.1689,       130.505,            0.,NA,NA,"",   964.617E+03,   1.00860E+06,   1.00860E+06
C:/temp/Job-4.odb,Step-1,Increment      1: Step Time =    1.000,"P-4-1",          1621,       69.0836,       157.236,            0.,NA,NA,"",   1.00099E+06,   1.01345E+06,   1.01345E+06
C:/temp/Job-4.odb,Step-1,Increment      1: Step Time =    1.000,"P-4-1",          1622,       82.0342,       52.2565,            0.,NA,NA,"",   1.00610E+06,   1.01640E+06,   1.01640E+06
C:/temp/Job-4.odb,Step-1,Increment      1: Step Time =    1.000,"P-4-1",          1623,       151.311,       78.5401,            0.,NA,NA,"",   1.00961E+06,   1.00588E+06,   1.00588E+06
C:/temp/Job-4.odb,Step-1,Increment      1: Step Time =    1.000,"P-4-1",          1624,       162.276,       125.379,            0.,NA,NA,"",   1.00809E+06,   1.00385E+06,   1.00385E+06
C:/temp/Job-4.odb,Step-1,Increment      1: Step Time =    1.000,"P-4-1",          1625,       124.351,       161.500,            0.,NA,NA,"",   1.00090E+06,   1.00032E+06,   1.00032E+06
C:/temp/Job-4.odb,Step-1,Increment      1: Step Time =    1.000,"P-4-1",          1626,       152.652,       116.120,            0.,NA,NA,"",   1.00811E+06,   1.00464E+06,   1.00464E+06
C:/temp/Job-4.odb,Step-1,Increment      1: Step Time =    1.000,"P-4-1",          1627,       75.3289,       38.0237,            0.,NA,NA,"",   999.306E+03,   1.00731E+06,   1.00731E+06
C:/temp/Job-4.odb,Step-1,Increment      1: Step Time =    1.000,"P-4-1",          1628,       67.2553,       102.533,            0.,NA,NA,"",   966.500E+03,   998.583E+03,   998.583E+03
C:/temp/Job-4.odb,Step-1,Increment      1: Step Time =    1.000,"P-4-1",          1629,       64.5332,       99.1632,            0.,NA,NA,"",   965.694E+03,   999.978E+03,   999.978E+03
C:/temp/Job-4.odb,Step-1,Increment      1: Step Time =    1.000,"P-4-1",          1630,       68.0172,       98.9895,            0.,NA,NA,"",   966.344E+03,   998.039E+03,   998.039E+03
C:/temp/Job-4.odb,Step-1,Increment      1: Step Time =    1.000,"P-4-1",          1631,       45.9685,       115.176,            0.,NA,NA,"",   944.965E+03,   997.808E+03,   997.808E+03
C:/temp/Job-4.odb,Step-1,Increment      1: Step Time =    1.000,"P-4-1",          1632,       61.9638,       100.223,            0.,NA,NA,"",   963.623E+03,   1.00043E+06,   1.00043E+06
C:/temp/Job-4.odb,Step-1,Increment      1: Step Time =    1.000,"P-4-1",          1633,       43.9117,       120.602,            0.,NA,NA,"",   944.205E+03,   998.269E+03,   998.269E+03
C:/temp/Job-4.odb,Step-1,Increment      1: Step Time =    1.000,"P-4-1",          1634,       46.1194,       128.473,            0.,NA,NA,"",   956.282E+03,   1.00498E+06,   1.00498E+06
C:/temp/Job-4.odb,Step-1,Increment      1: Step Time =    1.000,"P-4-1",          1635,       120.656,       163.578,            0.,NA,NA,"",   998.852E+03,   998.667E+03,   998.667E+03
C:/temp/Job-4.odb,Step-1,Increment      1: Step Time =    1.000,"P-4-1",          1636,       159.742,       120.804,            0.,NA,NA,"",   1.00809E+06,   1.00401E+06,   1.00401E+06
C:/temp/Job-4.odb,Step-1,Increment      1: Step Time =    1.000,"P-4-1",          1637,       165.628,       133.375,            0.,NA,NA,"",   1.00768E+06,   1.00339E+06,   1.00339E+06
C:/temp/Job-4.odb,Step-1,Increment      1: Step Time =    1.000,"P-4-1",          1638,       81.7963,       38.8835,            0.,NA,NA,"",   999.494E+03,   1.00595E+06,   1.00595E+06
C:/temp/Job-4.odb,Step-1,Increment      1: Step Time =    1.000,"P-4-1",          1639,       60.4266,       97.6894,            0.,NA,NA,"",   961.809E+03,   1.00050E+06,   1.00050E+06
C:/temp/Job-4.odb,Step-1,Increment      1: Step Time =    1.000,"P-4-1",          1640,       162.142,       84.3201,            0.,NA,NA,"",   1.00729E+06,   1.00320E+06,   1.00320E+06
C:/temp/Job-4.odb,Step-1,Increment      1: Step Time =    1.000,"P-4-1",          1641,       39.9593,       129.486,            0.,NA,NA,"",   942.878E+03,   999.412E+03,   999.412E+03
C:/temp/Job-4.odb,Step-1,Increment      1: Step Time =    1.000,"P-4-1",          1642,       85.4866,       37.2419,            0.,NA,NA,"",   998.024E+03,   1.00310E+06,   1.00310E+06
C:/temp/Job-4.odb,Step-1,Increment      1: Step Time =    1.000,"P-4-1",          1643,       59.5141,       102.232,            0.,NA,NA,"",   960.684E+03,   1.00020E+06,   1.00020E+06
C:/temp/Job-4.odb,Step-1,Increment      1: Step Time =    1.000,"P-4-1",          1644,       50.6817,       108.828,            0.,NA,NA,"",   950.217E+03,   998.771E+03,   998.771E+03
C:/temp/Job-4.odb,Step-1,Increment      1: Step Time =    1.000,"P-4-1",          1645,       42.3614,       117.620,            0.,NA,NA,"",   937.923E+03,   995.189E+03,   995.189E+03
C:/temp/Job-4.odb,Step-1,Increment      1: Step Time =    1.000,"P-4-1",          1646,       46.2271,       123.040,            0.,NA,NA,"",   951.472E+03,   1.00187E+06,   1.00187E+06
C:/temp/Job-4.odb,Step-1,Increment      1: Step Time =    1.000,"P-4-1",          1647,       73.2796,       160.947,            0.,NA,NA,"",   999.870E+03,   1.00890E+06,   1.00890E+06
C:/temp/Job-4.odb,Step-1,Increment      1: Step Time =    1.000,"P-4-1",          1648,       153.910,       83.3630,            0.,NA,NA,"",   1.00810E+06,   1.00450E+06,   1.00450E+06
C:/temp/Job-4.odb,Step-1,Increment      1: Step Time =    1.000,"P-4-1",          1649,       166.088,       79.4609,            0.,NA,NA,"",   1.00740E+06,   1.00295E+06,   1.00295E+06
C:/temp/Job-4.odb,Step-1,Increment      1: Step Time =    1.000,"P-4-1",          1650,       122.933,       167.298,            0.,NA,NA,"",   996.352E+03,   995.927E+03,   995.927E+03
C:/temp/Job-4.odb,Step-1,Increment      1: Step Time =    1.000,"P-4-1",          1651,       156.237,       117.181,            0.,NA,NA,"",   1.00801E+06,   1.00426E+06,   1.00426E+06
C:/temp/Job-4.odb,Step-1,Increment      1: Step Time =    1.000,"P-4-1",          1652,       78.6334,       33.5007,            0.,NA,NA,"",   995.270E+03,   1.00077E+06,   1.00077E+06
C:/temp/Job-4.odb,Step-1,Increment      1: Step Time =    1.000,"P-4-1",          1653,       160.318,       117.555,            0.,NA,NA,"",   1.00769E+06,   1.00366E+06,   1.00366E+06
C:/temp/Job-4.odb,Step-1,Increment      1: Step Time =    1.000,"P-4-1",          1654,       63.7299,       96.3284,            0.,NA,NA,"",   965.567E+03,   1.00065E+06,   1.00065E+06
C:/temp/Job-4.odb,Step-1,Increment      1: Step Time =    1.000,"P-4-1",          1655,       55.1425,       97.0507,            0.,NA,NA,"",   955.088E+03,   999.298E+03,   999.298E+03
C:/temp/Job-4.odb,Step-1,Increment      1: Step Time =    1.000,"P-4-1",          1656,       152.540,       87.8629,            0.,NA,NA,"",   1.00701E+06,   1.00379E+06,   1.00379E+06
C:/temp/Job-4.odb,Step-1,Increment      1: Step Time =    1.000,"P-4-1",          1657,       62.4140,       93.2372,            0.,NA,NA,"",   966.242E+03,   1.00212E+06,   1.00212E+06
C:/temp/Job-4.odb,Step-1,Increment      1: Step Time =    1.000,"P-4-1",          1658,       51.9777,       100.406,            0.,NA,NA,"",   950.331E+03,   997.843E+03,   997.843E+03
C:/temp/Job-4.odb,Step-1,Increment      1: Step Time =    1.000,"P-4-1",          1659,       57.5140,       99.4939,            0.,NA,NA,"",   958.089E+03,   999.826E+03,   999.826E+03
C:/temp/Job-4.odb,Step-1,Increment      1: Step Time =    1.000,"P-4-1",          1660,       55.0487,       110.943,            0.,NA,NA,"",   959.015E+03,   1.00214E+06,   1.00214E+06
C:/temp/Job-4.odb,Step-1,Increment      1: Step Time =    1.000,"P-4-1",          1661,       46.4155,       108.585,            0.,NA,NA,"",   942.290E+03,   995.750E+03,   995.750E+03
C:/temp/Job-4.odb,Step-1,Increment      1: Step Time =    1.000,"P-4-1",          1662,       157.738,       88.3064,            0.,NA,NA,"",   1.00683E+06,   1.00322E+06,   1.00322E+06
C:/temp/Job-4.odb,Step-1,Increment      1: Step Time =    1.000,"P-4-1",          1663,       35.9158,       126.347,            0.,NA,NA,"",   929.799E+03,   992.909E+03,   992.909E+03
C:/temp/Job-4.odb,Step-1,Increment      1: Step Time =    1.000,"P-4-1",          1664,       76.9429,       160.183,            0.,NA,NA,"",   1.00035E+06,   1.00835E+06,   1.00835E+06
C:/temp/Job-4.odb,Step-1,Increment      1: Step Time =    1.000,"P-4-1",          1665,       69.3918,       161.664,            0.,NA,NA,"",   999.319E+03,   1.00966E+06,   1.00966E+06
C:/temp/Job-4.odb,Step-1,Increment      1: Step Time =    1.000,"P-4-1",          1666,       87.7943,       41.8711,            0.,NA,NA,"",   1.00108E+06,   1.00684E+06,   1.00684E+06
C:/temp/Job-4.odb,Step-1,Increment      1: Step Time =    1.000,"P-4-1",          1667,       126.481,       165.251,            0.,NA,NA,"",   998.383E+03,   997.611E+03,   997.611E+03
C:/temp/Job-4.odb,Step-1,Increment      1: Step Time =    1.000,"P-4-1",          1668,       56.9262,       91.9888,            0.,NA,NA,"",   959.852E+03,   1.00152E+06,   1.00152E+06
C:/temp/Job-4.odb,Step-1,Increment      1: Step Time =    1.000,"P-4-1",          1669,       47.5849,       102.419,            0.,NA,NA,"",   942.752E+03,   995.344E+03,   995.344E+03
C:/temp/Job-4.odb,Step-1,Increment      1: Step Time =    1.000,"P-4-1",          1670,       42.0045,       111.327,            0.,NA,NA,"",   933.291E+03,   992.375E+03,   992.375E+03
C:/temp/Job-4.odb,Step-1,Increment      1: Step Time =    1.000,"P-4-1",          1671,       54.0863,       107.864,            0.,NA,NA,"",   955.659E+03,   1.00040E+06,   1.00040E+06
C:/temp/Job-4.odb,Step-1,Increment      1: Step Time =    1.000,"P-4-1",          1672,       38.6648,       119.744,            0.,NA,NA,"",   931.004E+03,   992.448E+03,   992.448E+03
C:/temp/Job-4.odb,Step-1,Increment      1: Step Time =    1.000,"P-4-1",          1673,       76.7016,       155.479,            0.,NA,NA,"",   1.00251E+06,   1.01231E+06,   1.01231E+06
C:/temp/Job-4.odb,Step-1,Increment      1: Step Time =    1.000,"P-4-1",          1674,       65.3910,       162.287,            0.,NA,NA,"",   998.741E+03,   1.01066E+06,   1.01066E+06
C:/temp/Job-4.odb,Step-1,Increment      1: Step Time =    1.000,"P-4-1",          1675,       162.174,       88.5354,            0.,NA,NA,"",   1.00681E+06,   1.00279E+06,   1.00279E+06
C:/temp/Job-4.odb,Step-1,Increment      1: Step Time =    1.000,"P-4-1",          1676,       80.4473,       159.415,            0.,NA,NA,"",   1.00069E+06,   1.00792E+06,   1.00792E+06
C:/temp/Job-4.odb,Step-1,Increment      1: Step Time =    1.000,"P-4-1",          1677,       91.3308,       39.2062,            0.,NA,NA,"",   999.049E+03,   1.00337E+06,   1.00337E+06
C:/temp/Job-4.odb,Step-1,Increment      1: Step Time =    1.000,"P-4-1",          1678,       153.747,       92.8170,            0.,NA,NA,"",   1.00603E+06,   1.00295E+06,   1.00295E+06
C:/temp/Job-4.odb,Step-1,Increment      1: Step Time =    1.000,"P-4-1",          1679,       37.2269,       112.300,            0.,NA,NA,"",   921.820E+03,   987.236E+03,   987.236E+03
C:/temp/Job-4.odb,Step-1,Increment      1: Step Time =    1.000,"P-4-1",          1680,       45.7576,       98.9831,            0.,NA,NA,"",   939.101E+03,   993.926E+03,   993.926E+03
C:/temp/Job-4.odb,Step-1,Increment      1: Step Time =    1.000,"P-4-1",          1681,       34.3826,       121.486,            0.,NA,NA,"",   921.593E+03,   988.269E+03,   988.269E+03
C:/temp/Job-4.odb,Step-1,Increment      1: Step Time =    1.000,"P-4-1",          1682,       37.3399,       133.334,            0.,NA,NA,"",   940.436E+03,   999.084E+03,   999.084E+03
C:/temp/Job-4.odb,Step-1,Increment      1: Step Time =    1.000,"P-4-1",          1683,       169.778,       88.3224,            0.,NA,NA,"",   1.00672E+06,   1.00202E+06,   1.00202E+06
C:/temp/Job-4.odb,Step-1,Increment      1: Step Time =    1.000,"P-4-1",          1684,       88.6339,       35.3380,            0.,NA,NA,"",   996.169E+03,   1.00011E+06,   1.00011E+06
C:/temp/Job-4.odb,Step-1,Increment      1: Step Time =    1.000,"P-4-1",          1685,       61.3083,       162.894,            0.,NA,NA,"",   998.187E+03,   1.01192E+06,   1.01192E+06
C:/temp/Job-4.odb,Step-1,Increment      1: Step Time =    1.000,"P-4-1",          1686,       39.0298,       139.579,            0.,NA,NA,"",   952.776E+03,   1.00564E+06,   1.00564E+06
C:/temp/Job-4.odb,Step-1,Increment      1: Step Time =    1.000,"P-4-1",          1687,       172.474,       87.8709,            0.,NA,NA,"",   1.00671E+06,   1.00178E+06,   1.00178E+06
C:/temp/Job-4.odb,Step-1,Increment      1: Step Time =    1.000,"P-4-1",          1688,       43.5183,       131.929,            0.,NA,NA,"",   954.011E+03,   1.00460E+06,   1.00460E+06
C:/temp/Job-4.odb,Step-1,Increment      1: Step Time =    1.000,"P-4-1",          1689,       88.7617,       29.1099,            0.,NA,NA,"",    989.99E+03,   992.637E+03,   992.637E+03
C:/temp/Job-4.odb,Step-1,Increment      1: Step Time =    1.000,"P-4-1",          1690,       43.5188,       104.268,            0.,NA,NA,"",   934.589E+03,   992.260E+03,   992.260E+03
C:/temp/Job-4.odb,Step-1,Increment      1: Step Time =    1.000,"P-4-1",          1691,       37.4942,       115.997,            0.,NA,NA,"",   925.655E+03,   989.445E+03,   989.445E+03
C:/temp/Job-4.odb,Step-1,Increment      1: Step Time =    1.000,"P-4-1",          1692,       65.7346,       166.945,            0.,NA,NA,"",   996.504E+03,   1.00591E+06,   1.00591E+06
C:/temp/Job-4.odb,Step-1,Increment      1: Step Time =    1.000,"P-4-1",          1693,       56.5344,       159.125,            0.,NA,NA,"",   996.845E+03,   1.01613E+06,   1.01613E+06
C:/temp/Job-4.odb,Step-1,Increment      1: Step Time =    1.000,"P-4-1",          1694,       37.5882,       100.573,            0.,NA,NA,"",   919.997E+03,   985.643E+03,   985.643E+03
C:/temp/Job-4.odb,Step-1,Increment      1: Step Time =    1.000,"P-4-1",          1695,       50.4024,       135.625,            0.,NA,NA,"",   972.343E+03,   1.01222E+06,   1.01222E+06
C:/temp/Job-4.odb,Step-1,Increment      1: Step Time =    1.000,"P-4-1",          1696,       57.1610,       163.620,            0.,NA,NA,"",   997.621E+03,   1.01339E+06,   1.01339E+06
C:/temp/Job-4.odb,Step-1,Increment      1: Step Time =    1.000,"P-4-1",          1697,       60.5793,       153.876,            0.,NA,NA,"",   997.715E+03,   1.01712E+06,   1.01712E+06
C:/temp/Job-4.odb,Step-1,Increment      1: Step Time =    1.000,"P-4-1",          1698,       174.643,       90.2446,            0.,NA,NA,"",   1.00666E+06,   1.00150E+06,   1.00150E+06
C:/temp/Job-4.odb,Step-1,Increment      1: Step Time =    1.000,"P-4-1",          1699,       92.0771,       25.7114,            0.,NA,NA,"",   985.945E+03,   987.672E+03,   987.672E+03
C:/temp/Job-4.odb,Step-1,Increment      1: Step Time =    1.000,"P-4-1",          1700,       32.9952,       104.979,            0.,NA,NA,"",   909.210E+03,   980.506E+03,   980.506E+03
C:/temp/Job-4.odb,Step-1,Increment      1: Step Time =    1.000,"P-4-1",          1701,       55.9454,       154.577,            0.,NA,NA,"",   994.774E+03,   1.01760E+06,   1.01760E+06
C:/temp/Job-4.odb,Step-1,Increment      1: Step Time =    1.000,"P-4-1",          1702,       57.7569,       168.039,            0.,NA,NA,"",   996.650E+03,   1.00914E+06,   1.00914E+06
C:/temp/Job-4.odb,Step-1,Increment      1: Step Time =    1.000,"P-4-1",          1703,       48.5235,       139.388,            0.,NA,NA,"",   972.479E+03,   1.01284E+06,   1.01284E+06
C:/temp/Job-4.odb,Step-1,Increment      1: Step Time =    1.000,"P-4-1",          1704,       32.7094,       100.707,            0.,NA,NA,"",   908.041E+03,   979.860E+03,   979.860E+03
C:/temp/Job-4.odb,Step-1,Increment      1: Step Time =    1.000,"P-4-1",          1705,       60.6320,       149.003,            0.,NA,NA,"",   996.328E+03,   1.01834E+06,   1.01834E+06
C:/temp/Job-4.odb,Step-1,Increment      1: Step Time =    1.000,"P-4-1",          1706,       50.4013,       150.785,            0.,NA,NA,"",   987.137E+03,   1.01781E+06,   1.01781E+06
C:/temp/Job-4.odb,Step-1,Increment      1: Step Time =    1.000,"P-4-1",          1707,       36.5217,       95.9397,            0.,NA,NA,"",   917.684E+03,   984.607E+03,   984.607E+03
C:/temp/Job-4.odb,Step-1,Increment      1: Step Time =    1.000,"P-4-1",          1708,       46.6699,       143.080,            0.,NA,NA,"",   972.751E+03,   1.01330E+06,   1.01330E+06
C:/temp/Job-4.odb,Step-1,Increment      1: Step Time =    1.000,"P-4-1",          1709,       27.9206,       100.635,            0.,NA,NA,"",   895.364E+03,   973.374E+03,   973.374E+03
C:/temp/Job-4.odb,Step-1,Increment      1: Step Time =    1.000,"P-4-1",          1710,       51.9439,       140.848,            0.,NA,NA,"",   980.336E+03,   1.01559E+06,   1.01559E+06
C:/temp/Job-4.odb,Step-1,Increment      1: Step Time =    1.000,"P-4-1",          1711,       23.5189,       104.940,            0.,NA,NA,"",   884.029E+03,   967.321E+03,   967.321E+03
C:/temp/Job-4.odb,Step-1,Increment      1: Step Time =    1.000,"P-4-1",          1712,       28.3032,       109.115,            0.,NA,NA,"",   898.222E+03,   975.146E+03,   975.146E+03
C:/temp/Job-4.odb,Step-1,Increment      1: Step Time =    1.000,"P-4-1",          1713,       23.2781,       100.551,            0.,NA,NA,"",   882.948E+03,   966.654E+03,   966.654E+03
C:/temp/Job-4.odb,Step-1,Increment      1: Step Time =    1.000,"P-4-1",          1714,       32.6404,       108.920,            0.,NA,NA,"",   910.015E+03,   981.198E+03,   981.198E+03
C:/temp/Job-4.odb,Step-1,Increment      1: Step Time =    1.000,"P-4-1",          1715,       152.527,       33.9138,            0.,NA,NA,"",   1.00007E+06,   998.132E+03,   998.132E+03
C:/temp/Job-4.odb,Step-1,Increment      1: Step Time =    1.000,"P-4-1",          1716,       107.028,       174.829,            0.,NA,NA,"",   986.732E+03,   987.241E+03,   987.241E+03
C:/temp/Job-4.odb,Step-1,Increment      1: Step Time =    1.000,"P-4-1",          1717,       67.4279,       54.4218,            0.,NA,NA,"",   1.00094E+06,   1.01936E+06,   1.01936E+06
C:/temp/Job-4.odb,Step-1,Increment      1: Step Time =    1.000,"P-4-1",          1718,       34.3695,       151.429,            0.,NA,NA,"",   960.464E+03,   1.01225E+06,   1.01225E+06
C:/temp/Job-4.odb,Step-1,Increment      1: Step Time =    1.000,"P-4-1",          1719,       48.8932,       165.661,            0.,NA,NA,"",   996.588E+03,   1.01698E+06,   1.01698E+06
C:/temp/Job-4.odb,Step-1,Increment      1: Step Time =    1.000,"P-4-1",          1720,       117.238,       166.460,            0.,NA,NA,"",   996.356E+03,   996.483E+03,   996.483E+03
C:/temp/Job-4.odb,Step-1,Increment      1: Step Time =    1.000,"P-4-1",          1721,       153.896,       43.4676,            0.,NA,NA,"",   1.00410E+06,   1.00137E+06,   1.00137E+06
C:/temp/Job-4.odb,Step-1,Increment      1: Step Time =    1.000,"P-4-1",          1722,       36.4202,       169.986,            0.,NA,NA,"",   999.489E+03,   1.02829E+06,   1.02829E+06
C:/temp/Job-4.odb,Step-1,Increment      1: Step Time =    1.000,"P-4-1",          1723,       98.4998,       26.3417,            0.,NA,NA,"",   987.133E+03,   988.399E+03,   988.399E+03
C:/temp/Job-4.odb,Step-1,Increment      1: Step Time =    1.000,"P-4-1",          1724,       172.643,       95.9788,            0.,NA,NA,"",   1.00651E+06,   1.00154E+06,   1.00154E+06
C:/temp/Job-4.odb,Step-1,Increment      1: Step Time =    1.000,"P-4-1",          1725,       45.5881,       146.543,            0.,NA,NA,"",   975.342E+03,   1.01481E+06,   1.01481E+06
C:/temp/Job-4.odb,Step-1,Increment      1: Step Time =    1.000,"P-4-1",          1726,       78.3154,       18.6827,            0.,NA,NA,"",   975.271E+03,   976.886E+03,   976.886E+03
C:/temp/Job-4.odb,Step-1,Increment      1: Step Time =    1.000,"P-4-1",          1727,       25.9352,       22.9609,            0.,NA,NA,"",   1.01704E+06,   1.04996E+06,   1.04996E+06
C:/temp/Job-4.odb,Step-1,Increment      1: Step Time =    1.000,"P-4-1",          1728,       175.051,       173.963,            0.,NA,NA,"",   999.853E+03,   998.253E+03,   998.253E+03
C:/temp/Job-4.odb,Step-1,Increment      1: Step Time =    1.000,"P-4-1",          1729,       123.285,       181.266,            0.,NA,NA,"",   984.714E+03,   984.407E+03,   984.407E+03
C:/temp/Job-4.odb,Step-1,Increment      1: Step Time =    1.000,"P-4-1",          1730,       190.372,       38.4162,            0.,NA,NA,"",   1.00292E+06,   999.933E+03,   999.933E+03
C:/temp/Job-4.odb,Step-1,Increment      1: Step Time =    1.000,"P-4-1",          1731,       162.992,       38.3764,            0.,NA,NA,"",   1.00210E+06,   999.615E+03,   999.615E+03
C:/temp/Job-4.odb,Step-1,Increment      1: Step Time =    1.000,"P-4-1",          1732,       181.759,       76.8352,            0.,NA,NA,"",   1.00671E+06,   1.00103E+06,   1.00103E+06
C:/temp/Job-4.odb,Step-1,Increment      1: Step Time =    1.000,"P-4-1",          1733,       161.547,       190.345,            0.,NA,NA,"",   993.584E+03,   993.325E+03,   993.325E+03
C:/temp/Job-4.odb,Step-1,Increment      1: Step Time =    1.000,"P-4-1",          1734,       100.905,       20.1110,            0.,NA,NA,"",   979.552E+03,   980.036E+03,   980.036E+03
C:/temp/Job-4.odb,Step-1,Increment      1: Step Time =    1.000,"P-4-1",          1735,       18.7206,       100.442,            0.,NA,NA,"",   870.416E+03,   959.526E+03,   959.526E+03
C:/temp/Job-4.odb,Step-1,Increment      1: Step Time =    1.000,"P-4-1",          1736,       178.969,       99.7233,            0.,NA,NA,"",   1.00670E+06,   1.00099E+06,   1.00099E+06
C:/temp/Job-4.odb,Step-1,Increment      1: Step Time =    1.000,"P-4-1",          1737,       174.720,       24.2955,            0.,NA,NA,"",   999.264E+03,   997.887E+03,   997.887E+03
C:/temp/Job-4.odb,Step-1,Increment      1: Step Time =    1.000,"P-4-1",          1738,       18.4981,       33.1376,            0.,NA,NA,"",   961.888E+03,   1.02857E+06,   1.02857E+06
C:/temp/Job-4.odb,Step-1,Increment      1: Step Time =    1.000,"P-4-1",          1739,       101.676,       179.184,            0.,NA,NA,"",   980.643E+03,   981.194E+03,   981.194E+03
C:/temp/Job-4.odb,Step-1,Increment      1: Step Time =    1.000,"P-4-1",          1740,       130.439,       50.6967,            0.,NA,NA,"",   1.00933E+06,   1.00757E+06,   1.00757E+06
C:/temp/Job-4.odb,Step-1,Increment      1: Step Time =    1.000,"P-4-1",          1741,       166.687,       15.2414,            0.,NA,NA,"",   995.905E+03,   995.311E+03,   995.311E+03
C:/temp/Job-4.odb,Step-1,Increment      1: Step Time =    1.000,"P-4-1",          1742,       144.096,       60.2787,            0.,NA,NA,"",   1.01158E+06,   1.00807E+06,   1.00807E+06
C:/temp/Job-4.odb,Step-1,Increment      1: Step Time =    1.000,"P-4-1",          1743,       99.1466,       42.7632,            0.,NA,NA,"",   1.00134E+06,   1.00522E+06,   1.00522E+06
C:/temp/Job-4.odb,Step-1,Increment      1: Step Time =    1.000,"P-4-1",          1744,       21.7141,       133.622,            0.,NA,NA,"",   898.119E+03,   978.740E+03,   978.740E+03
C:/temp/Job-4.odb,Step-1,Increment      1: Step Time =    1.000,"P-4-1",          1745,       24.0782,       174.746,            0.,NA,NA,"",   1.00853E+06,   1.04996E+06,   1.04996E+06
C:/temp/Job-4.odb,Step-1,Increment      1: Step Time =    1.000,"P-4-1",          1746,       40.8501,       79.2280,            0.,NA,NA,"",   937.656E+03,   995.681E+03,   995.681E+03
C:/temp/Job-4.odb,Step-1,Increment      1: Step Time =    1.000,"P-4-1",          1747,       56.4581,       60.3438,            0.,NA,NA,"",   986.377E+03,   1.01723E+06,   1.01723E+06
C:/temp/Job-4.odb,Step-1,Increment      1: Step Time =    1.000,"P-4-1",          1748,       102.606,       25.0955,            0.,NA,NA,"",   985.821E+03,   986.603E+03,   986.603E+03
C:/temp/Job-4.odb,Step-1,Increment      1: Step Time =    1.000,"P-4-1",          1749,       48.5272,       78.5689,            0.,NA,NA,"",   954.795E+03,   1.00300E+06,   1.00300E+06
C:/temp/Job-4.odb,Step-1,Increment      1: Step Time =    1.000,"P-4-1",          1750,       33.5190,       184.118,            0.,NA,NA,"",   1.00998E+06,   1.02302E+06,   1.02302E+06
C:/temp/Job-4.odb,Step-1,Increment      1: Step Time =    1.000,"P-4-1",          1751,       90.7721,       45.1913,            0.,NA,NA,"",   1.00317E+06,   1.00917E+06,   1.00917E+06
C:/temp/Job-4.odb,Step-1,Increment      1: Step Time =    1.000,"P-4-1",          1752,       116.836,       149.621,            0.,NA,NA,"",   1.00837E+06,   1.00930E+06,   1.00930E+06
C:/temp/Job-4.odb,Step-1,Increment      1: Step Time =    1.000,"P-4-1",          1753,       164.037,       121.868,            0.,NA,NA,"",   1.00766E+06,   1.00334E+06,   1.00334E+06
C:/temp/Job-4.odb,Step-1,Increment      1: Step Time =    1.000,"P-4-1",          1754,       78.8661,       48.6990,            0.,NA,NA,"",   1.00453E+06,   1.01487E+06,   1.01487E+06
C:/temp/Job-4.odb,Step-1,Increment      1: Step Time =    1.000,"P-4-1",          1755,       73.6340,       165.787,            0.,NA,NA,"",   996.694E+03,   1.00370E+06,   1.00370E+06
C:/temp/Job-4.odb,Step-1,Increment      1: Step Time =    1.000,"P-4-1",          1756,       46.5268,       13.1986,            0.,NA,NA,"",   981.100E+03,   985.236E+03,   985.236E+03
C:/temp/Job-4.odb,Step-1,Increment      1: Step Time =    1.000,"P-4-1",          1757,       64.2277,       57.0556,            0.,NA,NA,"",   997.538E+03,   1.01960E+06,   1.01960E+06
C:/temp/Job-4.odb,Step-1,Increment      1: Step Time =    1.000,"P-4-1",          1758,       152.455,       186.100,            0.,NA,NA,"",   991.729E+03,   991.261E+03,   991.261E+03
C:/temp/Job-4.odb,Step-1,Increment      1: Step Time =    1.000,"P-4-1",          1759,       142.065,       56.2094,            0.,NA,NA,"",   1.01068E+06,   1.00748E+06,   1.00748E+06
C:/temp/Job-4.odb,Step-1,Increment      1: Step Time =    1.000,"P-4-1",          1760,       48.6484,       75.1260,            0.,NA,NA,"",   958.047E+03,   1.00499E+06,   1.00499E+06
C:/temp/Job-4.odb,Step-1,Increment      1: Step Time =    1.000,"P-4-1",          1761,       186.282,       47.5231,            0.,NA,NA,"",   1.00408E+06,   1.00021E+06,   1.00021E+06
C:/temp/Job-4.odb,Step-1,Increment      1: Step Time =    1.000,"P-4-1",          1762,       146.383,       91.4473,            0.,NA,NA,"",   1.00556E+06,   1.00319E+06,   1.00319E+06
C:/temp/Job-4.odb,Step-1,Increment      1: Step Time =    1.000,"P-4-1",          1763,       52.9827,       164.550,            0.,NA,NA,"",   997.011E+03,   1.01505E+06,   1.01505E+06
C:/temp/Job-4.odb,Step-1,Increment      1: Step Time =    1.000,"P-4-1",          1764,       36.1378,       55.0080,            0.,NA,NA,"",    953.08E+03,   1.00737E+06,   1.00737E+06
C:/temp/Job-4.odb,Step-1,Increment      1: Step Time =    1.000,"P-4-1",          1765,       163.001,       148.403,            0.,NA,NA,"",   1.00584E+06,   1.00235E+06,   1.00235E+06
C:/temp/Job-4.odb,Step-1,Increment      1: Step Time =    1.000,"P-4-1",          1766,       159.035,       75.7822,            0.,NA,NA,"",   1.00853E+06,   1.00444E+06,   1.00444E+06
C:/temp/Job-4.odb,Step-1,Increment      1: Step Time =    1.000,"P-4-1",          1767,       77.7907,       66.6501,            0.,NA,NA,"",   1.00929E+06,   1.02462E+06,   1.02462E+06
C:/temp/Job-4.odb,Step-1,Increment      1: Step Time =    1.000,"P-4-1",          1768,       97.8406,       157.872,            0.,NA,NA,"",   1.00084E+06,   1.00467E+06,   1.00467E+06
C:/temp/Job-4.odb,Step-1,Increment      1: Step Time =    1.000,"P-4-1",          1769,       84.5619,       146.783,            0.,NA,NA,"",   1.00670E+06,   1.01664E+06,   1.01664E+06
C:/temp/Job-4.odb,Step-1,Increment      1: Step Time =    1.000,"P-4-1",          1770,       9.28831,       161.209,            0.,NA,NA,"",   907.673E+03,   998.198E+03,   998.198E+03
C:/temp/Job-4.odb,Step-1,Increment      1: Step Time =    1.000,"P-4-1",          1771,       102.884,       174.339,            0.,NA,NA,"",   986.683E+03,   987.577E+03,   987.577E+03
C:/temp/Job-4.odb,Step-1,Increment      1: Step Time =    1.000,"P-4-1",          1772,       46.7562,       94.4376,            0.,NA,NA,"",   941.340E+03,   995.082E+03,   995.082E+03
C:/temp/Job-4.odb,Step-1,Increment      1: Step Time =    1.000,"P-4-1",          1773,       28.0487,       28.4224,            0.,NA,NA,"",   997.856E+03,   1.03740E+06,   1.03740E+06
C:/temp/Job-4.odb,Step-1,Increment      1: Step Time =    1.000,"P-4-1",          1774,       162.950,       136.159,            0.,NA,NA,"",   1.00789E+06,   1.00377E+06,   1.00377E+06
C:/temp/Job-4.odb,Step-1,Increment      1: Step Time =    1.000,"P-4-1",          1775,       176.195,       170.410,            0.,NA,NA,"",   1.00069E+06,   998.766E+03,   998.766E+03
C:/temp/Job-4.odb,Step-1,Increment      1: Step Time =    1.000,"P-4-1",          1776,       33.5778,       130.868,            0.,NA,NA,"",   928.521E+03,   993.205E+03,   993.205E+03
C:/temp/Job-4.odb,Step-1,Increment      1: Step Time =    1.000,"P-4-1",          1777,       46.9113,       62.8954,            0.,NA,NA,"",   967.331E+03,   1.01081E+06,   1.01081E+06
C:/temp/Job-4.odb,Step-1,Increment      1: Step Time =    1.000,"P-4-1",          1778,       185.804,       29.1771,            0.,NA,NA,"",   1.00139E+06,   999.427E+03,   999.427E+03
C:/temp/Job-4.odb,Step-1,Increment      1: Step Time =    1.000,"P-4-1",          1779,       164.079,       10.4726,            0.,NA,NA,"",   994.644E+03,   994.328E+03,   994.328E+03
C:/temp/Job-4.odb,Step-1,Increment      1: Step Time =    1.000,"P-4-1",          1780,       10.6889,       35.0299,            0.,NA,NA,"",   927.292E+03,   1.01258E+06,   1.01258E+06
C:/temp/Job-4.odb,Step-1,Increment      1: Step Time =    1.000,"P-4-1",          1781,       188.956,       164.824,            0.,NA,NA,"",   1.00233E+06,   999.782E+03,   999.782E+03
C:/temp/Job-4.odb,Step-1,Increment      1: Step Time =    1.000,"P-4-1",          1782,       36.0931,       189.135,            0.,NA,NA,"",   995.152E+03,   1.00040E+06,   1.00040E+06
C:/temp/Job-4.odb,Step-1,Increment      1: Step Time =    1.000,"P-4-1",          1783,       20.1201,       14.7406,            0.,NA,NA,"",   1.05495E+06,   1.08063E+06,   1.08063E+06
C:/temp/Job-4.odb,Step-1,Increment      1: Step Time =    1.000,"P-4-1",          1784,       179.742,       184.887,            0.,NA,NA,"",   998.644E+03,   997.966E+03,   997.966E+03
C:/temp/Job-4.odb,Step-1,Increment      1: Step Time =    1.000,"P-4-1",          1785,       105.753,       36.7443,            0.,NA,NA,"",   997.197E+03,   998.925E+03,   998.925E+03
C:/temp/Job-4.odb,Step-1,Increment      1: Step Time =    1.000,"P-4-1",          1786,       170.711,       185.693,            0.,NA,NA,"",   996.710E+03,   996.144E+03,   996.144E+03
C:/temp/Job-4.odb,Step-1,Increment      1: Step Time =    1.000,"P-4-1",          1787,       24.6608,       14.1337,            0.,NA,NA,"",   1.03694E+06,   1.05527E+06,   1.05527E+06
C:/temp/Job-4.odb,Step-1,Increment      1: Step Time =    1.000,"P-4-1",          1788,       38.3854,       90.3234,            0.,NA,NA,"",   924.153E+03,   988.016E+03,   988.016E+03
C:/temp/Job-4.odb,Step-1,Increment      1: Step Time =    1.000,"P-4-1",          1789,       163.743,       105.579,            0.,NA,NA,"",   1.00634E+06,   1.00230E+06,   1.00230E+06
C:/temp/Job-4.odb,Step-1,Increment      1: Step Time =    1.000,"P-4-1",          1790,       147.241,       132.108,            0.,NA,NA,"",   1.01159E+06,   1.00781E+06,   1.00781E+06
C:/temp/Job-4.odb,Step-1,Increment      1: Step Time =    1.000,"P-4-1",          1791,       145.430,       118.523,            0.,NA,NA,"",   1.00990E+06,   1.00667E+06,   1.00667E+06
C:/temp/Job-4.odb,Step-1,Increment      1: Step Time =    1.000,"P-4-1",          1792,       52.4832,       93.8647,            0.,NA,NA,"",   951.783E+03,   998.818E+03,   998.818E+03
C:/temp/Job-4.odb,Step-1,Increment      1: Step Time =    1.000,"P-4-1",          1793,       148.161,       76.9705,            0.,NA,NA,"",   1.01068E+06,   1.00708E+06,   1.00708E+06
C:/temp/Job-4.odb,Step-1,Increment      1: Step Time =    1.000,"P-4-1",          1794,       137.192,       122.872,            0.,NA,NA,"",   1.01439E+06,   1.01086E+06,   1.01086E+06
C:/temp/Job-4.odb,Step-1,Increment      1: Step Time =    1.000,"P-4-1",          1795,       55.2565,       84.5523,            0.,NA,NA,"",   963.155E+03,   1.00494E+06,   1.00494E+06
C:/temp/Job-4.odb,Step-1,Increment      1: Step Time =    1.000,"P-4-1",          1796,       24.7490,       9.56435,            0.,NA,NA,"",   1.03293E+06,   1.04235E+06,   1.04235E+06
C:/temp/Job-4.odb,Step-1,Increment      1: Step Time =    1.000,"P-4-1",          1797,       10.1410,       24.9601,            0.,NA,NA,"",   972.806E+03,   1.05125E+06,   1.05125E+06
C:/temp/Job-4.odb,Step-1,Increment      1: Step Time =    1.000,"P-4-1",          1798,       9.23726,       175.133,            0.,NA,NA,"",   968.894E+03,   1.05005E+06,   1.05005E+06
C:/temp/Job-4.odb,Step-1,Increment      1: Step Time =    1.000,"P-4-1",          1799,       175.031,       10.5174,            0.,NA,NA,"",   997.402E+03,   997.041E+03,   997.041E+03
C:/temp/Job-4.odb,Step-1,Increment      1: Step Time =    1.000,"P-4-1",          1800,       190.522,       29.4017,            0.,NA,NA,"",   1.00161E+06,   999.693E+03,   999.693E+03
C:/temp/Job-4.odb,Step-1,Increment      1: Step Time =    1.000,"P-4-1",          1801,       24.9615,       189.096,            0.,NA,NA,"",   1.03497E+06,   1.04626E+06,   1.04626E+06
C:/temp/Job-4.odb,Step-1,Increment      1: Step Time =    1.000,"P-4-1",          1802,       170.556,       190.448,            0.,NA,NA,"",   996.255E+03,   995.967E+03,   995.967E+03
C:/temp/Job-4.odb,Step-1,Increment      1: Step Time =    1.000,"P-4-1",          1803,       189.693,       174.930,            0.,NA,NA,"",   1.00097E+06,   999.504E+03,   999.504E+03
C:/temp/Job-4.odb,Step-1,Increment      1: Step Time =    1.000,"P-4-1",          1804,       152.351,       152.777,            0.,NA,NA,"",   1.00568E+06,   1.00272E+06,   1.00272E+06
C:/temp/Job-4.odb,Step-1,Increment      1: Step Time =    1.000,"P-4-1",          1805,       171.536,       22.8991,            0.,NA,NA,"",   998.525E+03,   997.307E+03,   997.307E+03
C:/temp/Job-4.odb,Step-1,Increment      1: Step Time =    1.000,"P-4-1",          1806,       19.6821,       123.175,            0.,NA,NA,"",   881.915E+03,   967.943E+03,   967.943E+03
C:/temp/Job-4.odb,Step-1,Increment      1: Step Time =    1.000,"P-4-1",          1807,       146.057,       42.0961,            0.,NA,NA,"",   1.00370E+06,   1.00133E+06,   1.00133E+06
C:/temp/Job-4.odb,Step-1,Increment      1: Step Time =    1.000,"P-4-1",          1808,       102.859,       44.7629,            0.,NA,NA,"",   1.00283E+06,   1.00628E+06,   1.00628E+06
C:/temp/Job-4.odb,Step-1,Increment      1: Step Time =    1.000,"P-4-1",          1809,       127.367,       149.248,            0.,NA,NA,"",   1.00935E+06,   1.00804E+06,   1.00804E+06
C:/temp/Job-4.odb,Step-1,Increment      1: Step Time =    1.000,"P-4-1",          1810,       119.042,       50.7176,            0.,NA,NA,"",   1.00873E+06,   1.00911E+06,   1.00911E+06
C:/temp/Job-4.odb,Step-1,Increment      1: Step Time =    1.000,"P-4-1",          1811,       185.140,       20.1643,            0.,NA,NA,"",   999.985E+03,   998.905E+03,   998.905E+03
C:/temp/Job-4.odb,Step-1,Increment      1: Step Time =    1.000,"P-4-1",          1812,       165.477,       29.0833,            0.,NA,NA,"",   999.426E+03,   997.714E+03,   997.714E+03
C:/temp/Job-4.odb,Step-1,Increment      1: Step Time =    1.000,"P-4-1",          1813,       9.79213,       184.846,            0.,NA,NA,"",   1.05750E+06,   1.12039E+06,   1.12039E+06
C:/temp/Job-4.odb,Step-1,Increment      1: Step Time =    1.000,"P-4-1",          1814,       185.030,       10.1818,            0.,NA,NA,"",   999.149E+03,   998.793E+03,   998.793E+03
C:/temp/Job-4.odb,Step-1,Increment      1: Step Time =    1.000,"P-4-1",          1815,       15.0781,       9.93366,            0.,NA,NA,"",   1.10335E+06,   1.12437E+06,   1.12437E+06
C:/temp/Job-4.odb,Step-1,Increment      1: Step Time =    1.000,"P-4-1",          1816,       10.1765,       15.0617,            0.,NA,NA,"",   1.06055E+06,   1.12134E+06,   1.12134E+06
C:/temp/Job-4.odb,Step-1,Increment      1: Step Time =    1.000,"P-4-1",          1817,       179.955,       190.089,            0.,NA,NA,"",   998.335E+03,   998.001E+03,   998.001E+03
C:/temp/Job-4.odb,Step-1,Increment      1: Step Time =    1.000,"P-4-1",          1818,       189.831,       184.905,            0.,NA,NA,"",   999.951E+03,   999.333E+03,   999.333E+03
C:/temp/Job-4.odb,Step-1,Increment      1: Step Time =    1.000,"P-4-1",          1819,       190.221,       20.0043,            0.,NA,NA,"",   1.00044E+06,   999.448E+03,   999.448E+03
C:/temp/Job-4.odb,Step-1,Increment      1: Step Time =    1.000,"P-4-1",          1820,       14.9146,       189.695,            0.,NA,NA,"",   1.10293E+06,   1.12572E+06,   1.12572E+06
C:/temp/Job-4.odb,Step-1,Increment      1: Step Time =    1.000,"P-4-1",          1821,       24.7857,       133.173,            0.,NA,NA,"",   906.320E+03,   982.961E+03,   982.961E+03
C:/temp/Job-4.odb,Step-1,Increment      1: Step Time =    1.000,"P-4-1",          1822,       134.086,       120.340,            0.,NA,NA,"",   1.01517E+06,   1.01182E+06,   1.01182E+06
C:/temp/Job-4.odb,Step-1,Increment      1: Step Time =    1.000,"P-4-1",          1823,       157.201,       143.495,            0.,NA,NA,"",   1.00766E+06,   1.00402E+06,   1.00402E+06
C:/temp/Job-4.odb,Step-1,Increment      1: Step Time =    1.000,"P-4-1",          1824,       43.4331,       57.5683,            0.,NA,NA,"",   966.811E+03,   1.01156E+06,   1.01156E+06
C:/temp/Job-4.odb,Step-1,Increment      1: Step Time =    1.000,"P-4-1",          1825,       24.7098,       122.775,            0.,NA,NA,"",   896.204E+03,   975.686E+03,   975.686E+03
C:/temp/Job-4.odb,Step-1,Increment      1: Step Time =    1.000,"P-4-1",          1826,       31.9883,       59.2852,            0.,NA,NA,"",   936.464E+03,   998.977E+03,   998.977E+03
C:/temp/Job-4.odb,Step-1,Increment      1: Step Time =    1.000,"P-4-1",          1827,       166.954,       142.507,            0.,NA,NA,"",   1.00651E+06,   1.00255E+06,   1.00255E+06
C:/temp/Job-4.odb,Step-1,Increment      1: Step Time =    1.000,"P-4-1",          1828,       142.440,       35.6835,            0.,NA,NA,"",   1.00060E+06,   998.791E+03,   998.791E+03
C:/temp/Job-4.odb,Step-1,Increment      1: Step Time =    1.000,"P-4-1",          1829,       149.121,       62.0779,            0.,NA,NA,"",   1.01062E+06,   1.00689E+06,   1.00689E+06
C:/temp/Job-4.odb,Step-1,Increment      1: Step Time =    1.000,"P-4-1",          1830,       24.8417,       170.650,            0.,NA,NA,"",   991.996E+03,   1.03870E+06,   1.03870E+06
C:/temp/Job-4.odb,Step-1,Increment      1: Step Time =    1.000,"P-4-1",          1831,       14.4063,       179.654,            0.,NA,NA,"",   1.02027E+06,   1.07745E+06,   1.07745E+06
C:/temp/Job-4.odb,Step-1,Increment      1: Step Time =    1.000,"P-4-1",          1832,       34.4143,       68.6759,            0.,NA,NA,"",   931.017E+03,   994.488E+03,   994.488E+03
C:/temp/Job-4.odb,Step-1,Increment      1: Step Time =    1.000,"P-4-1",          1833,       34.9214,       165.330,            0.,NA,NA,"",   989.126E+03,   1.02602E+06,   1.02602E+06
C:/temp/Job-4.odb,Step-1,Increment      1: Step Time =    1.000,"P-4-1",          1834,       129.612,       35.6262,            0.,NA,NA,"",   999.431E+03,   998.360E+03,   998.360E+03
C:/temp/Job-4.odb,Step-1,Increment      1: Step Time =    1.000,"P-4-1",          1835,       114.231,       46.6254,            0.,NA,NA,"",   1.00557E+06,   1.00678E+06,   1.00678E+06
C:/temp/Job-4.odb,Step-1,Increment      1: Step Time =    1.000,"P-4-1",          1836,       98.5113,       58.1298,            0.,NA,NA,"",   1.00759E+06,   1.01562E+06,   1.01562E+06
C:/temp/Job-4.odb,Step-1,Increment      1: Step Time =    1.000,"P-4-1",          1837,       115.928,       55.2218,            0.,NA,NA,"",   1.01100E+06,   1.01240E+06,   1.01240E+06
C:/temp/Job-4.odb,Step-1,Increment      1: Step Time =    1.000,"P-4-1",          1838,       95.6324,       36.7184,            0.,NA,NA,"",   996.933E+03,   1.00015E+06,   1.00015E+06
C:/temp/Job-4.odb,Step-1,Increment      1: Step Time =    1.000,"P-4-1",          1839,       62.7912,       48.9315,            0.,NA,NA,"",   998.319E+03,   1.01783E+06,   1.01783E+06
C:/temp/Job-4.odb,Step-1,Increment      1: Step Time =    1.000,"P-4-1",          1840,       153.453,       48.0933,            0.,NA,NA,"",   1.00577E+06,   1.00273E+06,   1.00273E+06
C:/temp/Job-4.odb,Step-1,Increment      1: Step Time =    1.000,"P-4-1",          1841,       134.675,       48.9520,            0.,NA,NA,"",   1.00811E+06,   1.00596E+06,   1.00596E+06
C:/temp/Job-4.odb,Step-1,Increment      1: Step Time =    1.000,"P-4-1",          1842,       163.000,       97.0489,            0.,NA,NA,"",   1.00623E+06,   1.00227E+06,   1.00227E+06
C:/temp/Job-4.odb,Step-1,Increment      1: Step Time =    1.000,"P-4-1",          1843,       158.643,       101.283,            0.,NA,NA,"",   1.00596E+06,   1.00245E+06,   1.00245E+06
C:/temp/Job-4.odb,Step-1,Increment      1: Step Time =    1.000,"P-4-1",          1844,       42.9926,       141.443,            0.,NA,NA,"",   964.132E+03,   1.01025E+06,   1.01025E+06
C:/temp/Job-4.odb,Step-1,Increment      1: Step Time =    1.000,"P-4-1",          1845,       86.2228,       45.4123,            0.,NA,NA,"",   1.00288E+06,   1.01003E+06,   1.01003E+06
C:/temp/Job-4.odb,Step-1,Increment      1: Step Time =    1.000,"P-4-1",          1846,       62.8654,       63.5848,            0.,NA,NA,"",   993.740E+03,   1.01950E+06,   1.01950E+06
C:/temp/Job-4.odb,Step-1,Increment      1: Step Time =    1.000,"P-4-1",          1847,       72.9491,       54.8462,            0.,NA,NA,"",   1.00444E+06,   1.01948E+06,   1.01948E+06
C:/temp/Job-4.odb,Step-1,Increment      1: Step Time =    1.000,"P-4-1",          1848,       27.8092,       48.0161,            0.,NA,NA,"",   945.819E+03,   1.00758E+06,   1.00758E+06
C:/temp/Job-4.odb,Step-1,Increment      1: Step Time =    1.000,"P-4-1",          1849,       32.8994,       112.984,            0.,NA,NA,"",   911.817E+03,   982.500E+03,   982.500E+03
C:/temp/Job-4.odb,Step-1,Increment      1: Step Time =    1.000,"P-4-1",          1850,       65.0323,       157.855,            0.,NA,NA,"",   999.861E+03,   1.01420E+06,   1.01420E+06
C:/temp/Job-4.odb,Step-1,Increment      1: Step Time =    1.000,"P-4-1",          1851,       112.843,       154.340,            0.,NA,NA,"",   1.00434E+06,   1.00589E+06,   1.00589E+06
C:/temp/Job-4.odb,Step-1,Increment      1: Step Time =    1.000,"P-4-1",          1852,       15.2363,       34.1092,            0.,NA,NA,"",   947.901E+03,   1.02232E+06,   1.02232E+06
C:/temp/Job-4.odb,Step-1,Increment      1: Step Time =    1.000,"P-4-1",          1853,       149.417,       29.2717,            0.,NA,NA,"",   997.723E+03,   996.205E+03,   996.205E+03
C:/temp/Job-4.odb,Step-1,Increment      1: Step Time =    1.000,"P-4-1",          1854,       183.879,       165.562,            0.,NA,NA,"",   1.00207E+06,   999.601E+03,   999.601E+03
C:/temp/Job-4.odb,Step-1,Increment      1: Step Time =    1.000,"P-4-1",          1855,       168.669,       130.437,            0.,NA,NA,"",   1.00732E+06,   1.00283E+06,   1.00283E+06
C:/temp/Job-4.odb,Step-1,Increment      1: Step Time =    1.000,"P-4-1",          1856,       41.8381,       99.8680,            0.,NA,NA,"",   930.122E+03,   990.215E+03,   990.215E+03
C:/temp/Job-4.odb,Step-1,Increment      1: Step Time =    1.000,"P-4-1",          1857,       59.2175,       55.5101,            0.,NA,NA,"",   992.881E+03,   1.01868E+06,   1.01868E+06
C:/temp/Job-4.odb,Step-1,Increment      1: Step Time =    1.000,"P-4-1",          1858,       164.137,       13.8788,            0.,NA,NA,"",   995.126E+03,   994.621E+03,   994.621E+03
C:/temp/Job-4.odb,Step-1,Increment      1: Step Time =    1.000,"P-4-1",          1859,       14.6775,       158.225,            0.,NA,NA,"",   919.618E+03,   1.00133E+06,   1.00133E+06
C:/temp/Job-4.odb,Step-1,Increment      1: Step Time =    1.000,"P-4-1",          1860,       49.8352,       169.977,            0.,NA,NA,"",   997.403E+03,   1.01345E+06,   1.01345E+06
C:/temp/Job-4.odb,Step-1,Increment      1: Step Time =    1.000,"P-4-1",          1861,       27.5016,       96.3924,            0.,NA,NA,"",   894.680E+03,   973.047E+03,   973.047E+03
C:/temp/Job-4.odb,Step-1,Increment      1: Step Time =    1.000,"P-4-1",          1862,       40.8336,       67.9861,            0.,NA,NA,"",   948.084E+03,   1.00218E+06,   1.00218E+06
C:/temp/Job-4.odb,Step-1,Increment      1: Step Time =    1.000,"P-4-1",          1863,       12.6928,       142.014,            0.,NA,NA,"",   880.710E+03,   971.775E+03,   971.775E+03
C:/temp/Job-4.odb,Step-1,Increment      1: Step Time =    1.000,"P-4-1",          1864,       36.1060,       185.566,            0.,NA,NA,"",   1.00437E+06,   1.01344E+06,   1.01344E+06
C:/temp/Job-4.odb,Step-1,Increment      1: Step Time =    1.000,"P-4-1",          1865,       187.565,       58.1572,            0.,NA,NA,"",   1.00546E+06,   1.00044E+06,   1.00044E+06
C:/temp/Job-4.odb,Step-1,Increment      1: Step Time =    1.000,"P-4-1",          1866,       141.814,       187.584,            0.,NA,NA,"",   987.265E+03,   986.924E+03,   986.924E+03
C:/temp/Job-4.odb,Step-1,Increment      1: Step Time =    1.000,"P-4-1",          1867,       57.9647,       12.4840,            0.,NA,NA,"",   967.243E+03,   969.344E+03,   969.344E+03
C:/temp/Job-4.odb,Step-1,Increment      1: Step Time =    1.000,"P-4-1",          1868,       40.5040,       76.1051,            0.,NA,NA,"",   938.641E+03,   996.685E+03,   996.685E+03
C:/temp/Job-4.odb,Step-1,Increment      1: Step Time =    1.000,"P-4-1",          1869,       162.817,       76.8768,            0.,NA,NA,"",   1.00789E+06,   1.00361E+06,   1.00361E+06
C:/temp/Job-4.odb,Step-1,Increment      1: Step Time =    1.000,"P-4-1",          1870,       161.635,       139.263,            0.,NA,NA,"",   1.00773E+06,   1.00375E+06,   1.00375E+06
C:/temp/Job-4.odb,Step-1,Increment      1: Step Time =    1.000,"P-4-1",          1871,       147.455,       39.6794,            0.,NA,NA,"",   1.00247E+06,   1.00022E+06,   1.00022E+06
C:/temp/Job-4.odb,Step-1,Increment      1: Step Time =    1.000,"P-4-1",          1872,       83.7356,       154.406,            0.,NA,NA,"",   1.00333E+06,   1.01114E+06,   1.01114E+06
C:/temp/Job-4.odb,Step-1,Increment      1: Step Time =    1.000,"P-4-1",          1873,       47.3318,       84.9040,            0.,NA,NA,"",   947.682E+03,   998.877E+03,   998.877E+03
C:/temp/Job-4.odb,Step-1,Increment      1: Step Time =    1.000,"P-4-1",          1874,       120.495,       38.6488,            0.,NA,NA,"",   1.00058E+06,   1.00040E+06,   1.00040E+06
C:/temp/Job-4.odb,Step-1,Increment      1: Step Time =    1.000,"P-4-1",          1875,       148.209,       84.8349,            0.,NA,NA,"",   1.00809E+06,   1.00501E+06,   1.00501E+06
C:/temp/Job-4.odb,Step-1,Increment      1: Step Time =    1.000,"P-4-1",          1876,       105.126,       151.692,            0.,NA,NA,"",   1.00472E+06,   1.00837E+06,   1.00837E+06
C:/temp/Job-4.odb,Step-1,Increment      1: Step Time =    1.000,"P-4-1",          1877,       23.8858,       179.210,            0.,NA,NA,"",   1.02456E+06,   1.05766E+06,   1.05766E+06
C:/temp/Job-4.odb,Step-1,Increment      1: Step Time =    1.000,"P-4-1",          1878,       100.432,       38.6317,            0.,NA,NA,"",   998.414E+03,   1.00125E+06,   1.00125E+06
C:/temp/Job-4.odb,Step-1,Increment      1: Step Time =    1.000,"P-4-1",          1879,       44.5263,       78.4742,            0.,NA,NA,"",    946.99E+03,   999.829E+03,   999.829E+03
C:/temp/Job-4.odb,Step-1,Increment      1: Step Time =    1.000,"P-4-1",          1880,       28.1650,       179.075,            0.,NA,NA,"",   1.02023E+06,   1.04605E+06,   1.04605E+06
C:/temp/Job-4.odb,Step-1,Increment      1: Step Time =    1.000,"P-4-1",          1881,       163.411,       101.340,            0.,NA,NA,"",   1.00620E+06,   1.00221E+06,   1.00221E+06
C:/temp/Job-4.odb,Step-1,Increment      1: Step Time =    1.000,"P-4-1",          1882,       175.646,       19.9302,            0.,NA,NA,"",   998.692E+03,   997.636E+03,   997.636E+03
C:/temp/Job-4.odb,Step-1,Increment      1: Step Time =    1.000,"P-4-1",          1883,       162.164,       143.506,            0.,NA,NA,"",   1.00698E+06,   1.00320E+06,   1.00320E+06
C:/temp/Job-4.odb,Step-1,Increment      1: Step Time =    1.000,"P-4-1",          1884,       36.1015,       59.5229,            0.,NA,NA,"",   947.189E+03,   1.00361E+06,   1.00361E+06
C:/temp/Job-4.odb,Step-1,Increment      1: Step Time =    1.000,"P-4-1",          1885,       28.5759,       113.467,            0.,NA,NA,"",   900.933E+03,   976.969E+03,   976.969E+03
C:/temp/Job-4.odb,Step-1,Increment      1: Step Time =    1.000,"P-4-1",          1886,       24.2258,       184.077,            0.,NA,NA,"",   1.03599E+06,   1.05836E+06,   1.05836E+06
C:/temp/Job-4.odb,Step-1,Increment      1: Step Time =    1.000,"P-4-1",          1887,       175.605,       15.3189,            0.,NA,NA,"",   997.927E+03,   997.245E+03,   997.245E+03
C:/temp/Job-4.odb,Step-1,Increment      1: Step Time =    1.000,"P-4-1",          1888,       184.683,       174.959,            0.,NA,NA,"",   1.00059E+06,   999.069E+03,   999.069E+03
C:/temp/Job-4.odb,Step-1,Increment      1: Step Time =    1.000,"P-4-1",          1889,       15.0723,       25.0046,            0.,NA,NA,"",   990.744E+03,   1.05460E+06,   1.05460E+06
C:/temp/Job-4.odb,Step-1,Increment      1: Step Time =    1.000,"P-4-1",          1890,       148.951,       35.8293,            0.,NA,NA,"",   1.00071E+06,   998.698E+03,   998.698E+03
C:/temp/Job-4.odb,Step-1,Increment      1: Step Time =    1.000,"P-4-1",          1891,       47.7545,       9.88798,            0.,NA,NA,"",   968.030E+03,   970.435E+03,   970.435E+03
C:/temp/Job-4.odb,Step-1,Increment      1: Step Time =    1.000,"P-4-1",          1892,       189.419,       47.9135,            0.,NA,NA,"",   1.00423E+06,   1.00013E+06,   1.00013E+06
C:/temp/Job-4.odb,Step-1,Increment      1: Step Time =    1.000,"P-4-1",          1893,       11.2606,       152.557,            0.,NA,NA,"",   893.563E+03,   983.803E+03,   983.803E+03
C:/temp/Job-4.odb,Step-1,Increment      1: Step Time =    1.000,"P-4-1",          1894,       152.053,       189.317,            0.,NA,NA,"",   990.436E+03,   990.124E+03,   990.124E+03
C:/temp/Job-4.odb,Step-1,Increment      1: Step Time =    1.000,"P-4-1",          1895,       158.178,       38.1682,            0.,NA,NA,"",   1.00204E+06,   999.649E+03,   999.649E+03
C:/temp/Job-4.odb,Step-1,Increment      1: Step Time =    1.000,"P-4-1",          1896,       168.425,       101.011,            0.,NA,NA,"",   1.00637E+06,   1.00186E+06,   1.00186E+06
C:/temp/Job-4.odb,Step-1,Increment      1: Step Time =    1.000,"P-4-1",          1897,       124.009,       48.2906,            0.,NA,NA,"",   1.00767E+06,   1.00697E+06,   1.00697E+06
C:/temp/Job-4.odb,Step-1,Increment      1: Step Time =    1.000,"P-4-1",          1898,       173.615,       100.388,            0.,NA,NA,"",   1.00651E+06,   1.00143E+06,   1.00143E+06
C:/temp/Job-4.odb,Step-1,Increment      1: Step Time =    1.000,"P-4-1",          1899,       14.6857,       184.651,            0.,NA,NA,"",   1.06803E+06,   1.10949E+06,   1.10949E+06
C:/temp/Job-4.odb,Step-1,Increment      1: Step Time =    1.000,"P-4-1",          1900,       185.098,       15.1900,            0.,NA,NA,"",   999.433E+03,   998.753E+03,   998.753E+03
C:/temp/Job-4.odb,Step-1,Increment      1: Step Time =    1.000,"P-4-1",          1901,       184.761,       184.880,            0.,NA,NA,"",   999.409E+03,   998.725E+03,   998.725E+03
C:/temp/Job-4.odb,Step-1,Increment      1: Step Time =    1.000,"P-4-1",          1902,       15.2447,       15.0124,            0.,NA,NA,"",   1.07044E+06,   1.10887E+06,   1.10887E+06
C:/temp/Job-4.odb,Step-1,Increment      1: Step Time =    1.000,"P-4-1",          1903,       37.0712,       64.4446,            0.,NA,NA,"",   942.615E+03,   1.00056E+06,   1.00056E+06
C:/temp/Job-4.odb,Step-1,Increment      1: Step Time =    1.000,"P-4-1",          1904,       15.4045,       20.1029,            0.,NA,NA,"",   1.02428E+06,   1.07779E+06,   1.07779E+06
C:/temp/Job-4.odb,Step-1,Increment      1: Step Time =    1.000,"P-4-1",          1905,       184.685,       179.833,            0.,NA,NA,"",   999.937E+03,   998.858E+03,   998.858E+03
C:/temp/Job-4.odb,Step-1,Increment      1: Step Time =    1.000,"P-4-1",          1906,       180.214,       15.2350,            0.,NA,NA,"",   998.710E+03,   998.028E+03,   998.028E+03
C:/temp/Job-4.odb,Step-1,Increment      1: Step Time =    1.000,"P-4-1",          1907,       28.4394,       175.046,            0.,NA,NA,"",   1.01088E+06,   1.04327E+06,   1.04327E+06
C:/temp/Job-4.odb,Step-1,Increment      1: Step Time =    1.000,"P-4-1",          1908,       132.878,       44.4819,            0.,NA,NA,"",   1.00550E+06,   1.00376E+06,   1.00376E+06
C:/temp/Job-4.odb,Step-1,Increment      1: Step Time =    1.000,"P-4-1",          1909,       125.215,       37.2595,            0.,NA,NA,"",   1.00009E+06,   999.373E+03,   999.373E+03
C:/temp/Job-4.odb,Step-1,Increment      1: Step Time =    1.000,"P-4-1",          1910,       139.078,       36.5224,            0.,NA,NA,"",   1.00091E+06,   999.192E+03,   999.192E+03
C:/temp/Job-4.odb,Step-1,Increment      1: Step Time =    1.000,"P-4-1",          1911,       117.814,       45.1432,            0.,NA,NA,"",   1.00492E+06,   1.00539E+06,   1.00539E+06
C:/temp/Job-4.odb,Step-1,Increment      1: Step Time =    1.000,"P-4-1",          1912,       98.3159,       32.6883,            0.,NA,NA,"",   993.310E+03,   995.381E+03,   995.381E+03
C:/temp/Job-4.odb,Step-1,Increment      1: Step Time =    1.000,"P-4-1",          1913,       19.5219,       184.404,            0.,NA,NA,"",   1.05325E+06,   1.08229E+06,   1.08229E+06
C:/temp/Job-4.odb,Step-1,Increment      1: Step Time =    1.000,"P-4-1",          1914,       62.3654,       53.9095,            0.,NA,NA,"",   996.681E+03,   1.01892E+06,   1.01892E+06
C:/temp/Job-4.odb,Step-1,Increment      1: Step Time =    1.000,"P-4-1",          1915,       60.6244,       59.2255,            0.,NA,NA,"",   992.619E+03,   1.01888E+06,   1.01888E+06
C:/temp/Job-4.odb,Step-1,Increment      1: Step Time =    1.000,"P-4-1",          1916,       38.8758,       71.2363,            0.,NA,NA,"",   939.688E+03,   997.912E+03,   997.912E+03
C:/temp/Job-4.odb,Step-1,Increment      1: Step Time =    1.000,"P-4-1",          1917,       47.5919,       89.7690,            0.,NA,NA,"",    944.97E+03,   997.012E+03,   997.012E+03
C:/temp/Job-4.odb,Step-1,Increment      1: Step Time =    1.000,"P-4-1",          1918,       55.4470,       150.042,            0.,NA,NA,"",   991.790E+03,   1.01801E+06,   1.01801E+06
C:/temp/Job-4.odb,Step-1,Increment      1: Step Time =    1.000,"P-4-1",          1919,       101.050,       158.261,            0.,NA,NA,"",   1.00067E+06,   1.00392E+06,   1.00392E+06
C:/temp/Job-4.odb,Step-1,Increment      1: Step Time =    1.000,"P-4-1",          1920,       163.338,       33.3944,            0.,NA,NA,"",   1.00061E+06,   998.535E+03,   998.535E+03
C:/temp/Job-4.odb,Step-1,Increment      1: Step Time =    1.000,"P-4-1",          1921,       64.8490,       153.635,            0.,NA,NA,"",   999.971E+03,   1.01649E+06,   1.01649E+06
C:/temp/Job-4.odb,Step-1,Increment      1: Step Time =    1.000,"P-4-1",          1922,       14.8043,       29.6454,            0.,NA,NA,"",   964.591E+03,   1.03585E+06,   1.03585E+06
C:/temp/Job-4.odb,Step-1,Increment      1: Step Time =    1.000,"P-4-1",          1923,       184.497,       170.151,            0.,NA,NA,"",   1.00135E+06,   999.343E+03,   999.343E+03
C:/temp/Job-4.odb,Step-1,Increment      1: Step Time =    1.000,"P-4-1",          1924,       19.8812,       25.5391,            0.,NA,NA,"",   997.887E+03,   1.05017E+06,   1.05017E+06
C:/temp/Job-4.odb,Step-1,Increment      1: Step Time =    1.000,"P-4-1",          1925,       179.789,       174.817,            0.,NA,NA,"",   1.00011E+06,   998.584E+03,   998.584E+03
C:/temp/Job-4.odb,Step-1,Increment      1: Step Time =    1.000,"P-4-1",          1926,       171.523,       15.8440,            0.,NA,NA,"",   997.168E+03,   996.480E+03,   996.480E+03
C:/temp/Job-4.odb,Step-1,Increment      1: Step Time =    1.000,"P-4-1",          1927,       146.719,       79.6612,            0.,NA,NA,"",   1.01034E+06,   1.00692E+06,   1.00692E+06
C:/temp/Job-4.odb,Step-1,Increment      1: Step Time =    1.000,"P-4-1",          1928,       90.8573,       156.405,            0.,NA,NA,"",   1.00196E+06,   1.00761E+06,   1.00761E+06
C:/temp/Job-4.odb,Step-1,Increment      1: Step Time =    1.000,"P-4-1",          1929,       143.655,       39.2776,            0.,NA,NA,"",   1.00249E+06,   1.00039E+06,   1.00039E+06
C:/temp/Job-4.odb,Step-1,Increment      1: Step Time =    1.000,"P-4-1",          1930,       165.207,       138.629,            0.,NA,NA,"",   1.00726E+06,   1.00316E+06,   1.00316E+06
C:/temp/Job-4.odb,Step-1,Increment      1: Step Time =    1.000,"P-4-1",          1931,       104.370,       40.5207,            0.,NA,NA,"",   1.00003E+06,   1.00246E+06,   1.00246E+06
C:/temp/Job-4.odb,Step-1,Increment      1: Step Time =    1.000,"P-4-1",          1932,       100.384,       29.8294,            0.,NA,NA,"",   990.904E+03,   992.398E+03,   992.398E+03
C:/temp/Job-4.odb,Step-1,Increment      1: Step Time =    1.000,"P-4-1",          1933,       128.530,       46.2932,            0.,NA,NA,"",   1.00659E+06,   1.00526E+06,   1.00526E+06
C:/temp/Job-4.odb,Step-1,Increment      1: Step Time =    1.000,"P-4-1",          1934,       135.267,       38.1346,            0.,NA,NA,"",   1.00158E+06,   999.987E+03,   999.987E+03
C:/temp/Job-4.odb,Step-1,Increment      1: Step Time =    1.000,"P-4-1",          1935,       144.983,       35.4374,            0.,NA,NA,"",   1.00052E+06,   998.634E+03,   998.634E+03
C:/temp/Job-4.odb,Step-1,Increment      1: Step Time =    1.000,"P-4-1",          1936,       95.4856,       161.760,            0.,NA,NA,"",   998.306E+03,   1.00179E+06,   1.00179E+06
C:/temp/Job-4.odb,Step-1,Increment      1: Step Time =    1.000,"P-4-1",          1937,       126.747,       41.7607,            0.,NA,NA,"",   1.00347E+06,   1.00248E+06,   1.00248E+06
C:/temp/Job-4.odb,Step-1,Increment      1: Step Time =    1.000,"P-4-1",          1938,       131.135,       39.9594,            0.,NA,NA,"",   1.00250E+06,   1.00114E+06,   1.00114E+06
C:/temp/Job-4.odb,Step-1,Increment      1: Step Time =    1.000,"P-4-1",          1939,       144.248,       76.5237,            0.,NA,NA,"",   1.01191E+06,   1.00835E+06,   1.00835E+06
C:/temp/Job-4.odb,Step-1,Increment      1: Step Time =    1.000,"P-4-1",          1940,       140.891,       71.4525,            0.,NA,NA,"",   1.01416E+06,   1.01044E+06,   1.01044E+06
C:/temp/Job-4.odb,Step-1,Increment      1: Step Time =    1.000,"P-4-1",          1941,       5.02940,       5.01095,            0.,NA,NA,"",   1.28766E+06,   1.33623E+06,   1.33623E+06
C:/temp/Job-4.odb,Step-1,Increment      1: Step Time =    1.000,"P-4-1",          1942,       43.5015,       9.46327,            0.,NA,NA,"",   972.304E+03,   975.129E+03,   975.129E+03
C:/temp/Job-4.odb,Step-1,Increment      1: Step Time =    1.000,"P-4-1",          1943,       149.011,       9.18131,            0.,NA,NA,"",   988.856E+03,   988.651E+03,   988.651E+03
C:/temp/Job-4.odb,Step-1,Increment      1: Step Time =    1.000,"P-4-1",          1944,       51.4711,       190.538,            0.,NA,NA,"",   961.943E+03,   963.756E+03,   963.756E+03
C:/temp/Job-4.odb,Step-1,Increment      1: Step Time =    1.000,"P-4-1",          1945,       190.107,       15.0888,            0.,NA,NA,"",   999.972E+03,   999.360E+03,   999.360E+03
C:/temp/Job-4.odb,Step-1,Increment      1: Step Time =    1.000,"P-4-1",          1946,       184.884,       189.984,            0.,NA,NA,"",   999.122E+03,   998.775E+03,   998.775E+03
C:/temp/Job-4.odb,Step-1,Increment      1: Step Time =    1.000,"P-4-1",          1947,       8.94015,       165.806,            0.,NA,NA,"",   921.973E+03,   1.01087E+06,   1.01087E+06
C:/temp/Job-4.odb,Step-1,Increment      1: Step Time =    1.000,"P-4-1",          1948,       28.4281,       183.407,            0.,NA,NA,"",   1.02388E+06,   1.04139E+06,   1.04139E+06
C:/temp/Job-4.odb,Step-1,Increment      1: Step Time =    1.000,"P-4-1",          1949,       63.1930,       14.8952,            0.,NA,NA,"",   971.459E+03,   973.618E+03,   973.618E+03
C:/temp/Job-4.odb,Step-1,Increment      1: Step Time =    1.000,"P-4-1",          1950,       56.8573,       19.4544,            0.,NA,NA,"",   984.131E+03,   989.325E+03,   989.325E+03
C:/temp/Job-4.odb,Step-1,Increment      1: Step Time =    1.000,"P-4-1",          1951,       184.795,       44.9892,            0.,NA,NA,"",   1.00379E+06,   1.00020E+06,   1.00020E+06
C:/temp/Job-4.odb,Step-1,Increment      1: Step Time =    1.000,"P-4-1",          1952,       185.416,       63.1994,            0.,NA,NA,"",   1.00594E+06,   1.00068E+06,   1.00068E+06
C:/temp/Job-4.odb,Step-1,Increment      1: Step Time =    1.000,"P-4-1",          1953,       180.844,       57.0564,            0.,NA,NA,"",   1.00539E+06,   1.00089E+06,   1.00089E+06
C:/temp/Job-4.odb,Step-1,Increment      1: Step Time =    1.000,"P-4-1",          1954,       154.985,       184.639,            0.,NA,NA,"",   992.974E+03,   992.402E+03,   992.402E+03
C:/temp/Job-4.odb,Step-1,Increment      1: Step Time =    1.000,"P-4-1",          1955,       136.799,       185.589,            0.,NA,NA,"",   986.430E+03,   986.044E+03,   986.044E+03
C:/temp/Job-4.odb,Step-1,Increment      1: Step Time =    1.000,"P-4-1",          1956,       142.753,       180.882,            0.,NA,NA,"",   990.957E+03,   990.269E+03,   990.269E+03
C:/temp/Job-4.odb,Step-1,Increment      1: Step Time =    1.000,"P-4-1",          1957,       38.8525,       183.427,            0.,NA,NA,"",   1.00140E+06,   1.01144E+06,   1.01144E+06
C:/temp/Job-4.odb,Step-1,Increment      1: Step Time =    1.000,"P-4-1",          1958,       161.524,       15.9862,            0.,NA,NA,"",   995.041E+03,   994.400E+03,   994.400E+03
C:/temp/Job-4.odb,Step-1,Increment      1: Step Time =    1.000,"P-4-1",          1959,       113.273,       89.9100,            0.,NA,NA,"",   1.04743E+06,   1.03249E+06,   1.03249E+06
C:/temp/Job-4.odb,Step-1,Increment      1: Step Time =    1.000,"P-4-1",          1960,       50.9444,       18.0353,            0.,NA,NA,"",   986.757E+03,   992.913E+03,   992.913E+03
C:/temp/Job-4.odb,Step-1,Increment      1: Step Time =    1.000,"P-4-1",          1961,       168.760,       16.9186,            0.,NA,NA,"",   996.635E+03,   995.932E+03,   995.932E+03
C:/temp/Job-4.odb,Step-1,Increment      1: Step Time =    1.000,"P-4-1",          1962,       182.194,       51.8430,            0.,NA,NA,"",   1.00459E+06,   1.00052E+06,   1.00052E+06
C:/temp/Job-4.odb,Step-1,Increment      1: Step Time =    1.000,"P-4-1",          1963,       147.997,       181.910,            0.,NA,NA,"",   992.146E+03,   991.458E+03,   991.458E+03
C:/temp/Job-4.odb,Step-1,Increment      1: Step Time =    1.000,"P-4-1",          1964,       44.5084,       18.7224,            0.,NA,NA,"",   994.995E+03,   1.00387E+06,   1.00387E+06
C:/temp/Job-4.odb,Step-1,Increment      1: Step Time =    1.000,"P-4-1",          1965,       162.931,       22.5317,            0.,NA,NA,"",   997.052E+03,   995.935E+03,   995.935E+03
C:/temp/Job-4.odb,Step-1,Increment      1: Step Time =    1.000,"P-4-1",          1966,       14.6379,       136.929,            0.,NA,NA,"",   880.651E+03,   970.232E+03,   970.232E+03
C:/temp/Job-4.odb,Step-1,Increment      1: Step Time =    1.000,"P-4-1",          1967,       19.3397,       142.578,            0.,NA,NA,"",   902.890E+03,   983.947E+03,   983.947E+03
C:/temp/Job-4.odb,Step-1,Increment      1: Step Time =    1.000,"P-4-1",          1968,       83.7965,       101.161,            0.,NA,NA,"",   928.500E+03,   951.370E+03,   951.370E+03
C:/temp/Job-4.odb,Step-1,Increment      1: Step Time =    1.000,"P-4-1",          1969,       94.1097,       118.050,            0.,NA,NA,"",   1.02486E+06,   1.04183E+06,   1.04183E+06
C:/temp/Job-4.odb,Step-1,Increment      1: Step Time =    1.000,"P-4-1",          1970,       182.046,       37.0467,            0.,NA,NA,"",   1.00233E+06,   999.674E+03,   999.674E+03
C:/temp/Job-4.odb,Step-1,Increment      1: Step Time =    1.000,"P-4-1",          1971,       162.809,       182.168,            0.,NA,NA,"",   995.793E+03,   995.012E+03,   995.012E+03
C:/temp/Job-4.odb,Step-1,Increment      1: Step Time =    1.000,"P-4-1",          1972,       53.2151,       182.904,            0.,NA,NA,"",   983.249E+03,   987.876E+03,   987.876E+03
C:/temp/Job-4.odb,Step-1,Increment      1: Step Time =    1.000,"P-4-1",          1973,       21.6740,       145.093,            0.,NA,NA,"",   914.051E+03,   990.620E+03,   990.620E+03
C:/temp/Job-4.odb,Step-1,Increment      1: Step Time =    1.000,"P-4-1",          1974,       147.311,       16.5904,            0.,NA,NA,"",   991.193E+03,   990.603E+03,   990.603E+03
C:/temp/Job-4.odb,Step-1,Increment      1: Step Time =    1.000,"P-4-1",          1975,       32.0631,       179.194,            0.,NA,NA,"",   1.01441E+06,   1.03447E+06,   1.03447E+06
C:/temp/Job-4.odb,Step-1,Increment      1: Step Time =    1.000,"P-4-1",          1976,       185.810,       149.643,            0.,NA,NA,"",   1.00445E+06,   1.00033E+06,   1.00033E+06
C:/temp/Job-4.odb,Step-1,Increment      1: Step Time =    1.000,"P-4-1",          1977,       61.3796,       181.478,            0.,NA,NA,"",   980.038E+03,   983.774E+03,   983.774E+03
C:/temp/Job-4.odb,Step-1,Increment      1: Step Time =    1.000,"P-4-1",          1978,       140.383,       17.7416,            0.,NA,NA,"",   989.671E+03,   989.079E+03,   989.079E+03
C:/temp/Job-4.odb,Step-1,Increment      1: Step Time =    1.000,"P-4-1",          1979,       74.7077,       180.921,            0.,NA,NA,"",   976.723E+03,   978.795E+03,   978.795E+03
C:/temp/Job-4.odb,Step-1,Increment      1: Step Time =    1.000,"P-4-1",          1980,       84.4292,       112.710,            0.,NA,NA,"",   1.02712E+06,   1.03261E+06,   1.03261E+06
C:/temp/Job-4.odb,Step-1,Increment      1: Step Time =    1.000,"P-4-1",          1981,       42.1565,       172.952,            0.,NA,NA,"",   1.00049E+06,   1.01953E+06,   1.01953E+06
C:/temp/Job-4.odb,Step-1,Increment      1: Step Time =    1.000,"P-4-1",          1982,       178.959,       166.201,            0.,NA,NA,"",   1.00178E+06,   999.404E+03,   999.404E+03
C:/temp/Job-4.odb,Step-1,Increment      1: Step Time =    1.000,"P-4-1",          1983,       164.859,       179.968,            0.,NA,NA,"",   996.710E+03,   995.764E+03,   995.764E+03
C:/temp/Job-4.odb,Step-1,Increment      1: Step Time =    1.000,"P-4-1",          1984,       179.769,       34.8173,            0.,NA,NA,"",   1.00186E+06,   999.443E+03,   999.443E+03
C:/temp/Job-4.odb,Step-1,Increment      1: Step Time =    1.000,"P-4-1",          1985,       13.1389,       166.236,            0.,NA,NA,"",   940.937E+03,   1.02013E+06,   1.02013E+06
C:/temp/Job-4.odb,Step-1,Increment      1: Step Time =    1.000,"P-4-1",          1986,       114.780,       82.2109,            0.,NA,NA,"",   1.04225E+06,   1.03729E+06,   1.03729E+06
C:/temp/Job-4.odb,Step-1,Increment      1: Step Time =    1.000,"P-4-1",          1987,       102.723,       78.3726,            0.,NA,NA,"",   1.01245E+06,   1.02896E+06,   1.02896E+06
C:/temp/Job-4.odb,Step-1,Increment      1: Step Time =    1.000,"P-4-1",          1988,       120.781,       102.798,            0.,NA,NA,"",   973.657E+03,   977.957E+03,   977.957E+03
C:/temp/Job-4.odb,Step-1,Increment      1: Step Time =    1.000,"P-4-1",          1989,       20.3653,       156.423,            0.,NA,NA,"",   935.301E+03,   1.00679E+06,   1.00679E+06
C:/temp/Job-4.odb,Step-1,Increment      1: Step Time =    1.000,"P-4-1",          1990,       50.5267,       174.877,            0.,NA,NA,"",   996.037E+03,   1.00781E+06,   1.00781E+06
C:/temp/Job-4.odb,Step-1,Increment      1: Step Time =    1.000,"P-4-1",          1991,       177.176,       68.7099,            0.,NA,NA,"",   1.00656E+06,   1.00158E+06,   1.00158E+06
C:/temp/Job-4.odb,Step-1,Increment      1: Step Time =    1.000,"P-4-1",          1992,       105.395,       19.3757,            0.,NA,NA,"",   979.779E+03,   980.052E+03,   980.052E+03
C:/temp/Job-4.odb,Step-1,Increment      1: Step Time =    1.000,"P-4-1",          1993,       72.6072,       17.7456,            0.,NA,NA,"",   975.012E+03,   976.785E+03,   976.785E+03
C:/temp/Job-4.odb,Step-1,Increment      1: Step Time =    1.000,"P-4-1",          1994,       97.4760,       120.856,            0.,NA,NA,"",   1.01175E+06,   1.03101E+06,   1.03101E+06
C:/temp/Job-4.odb,Step-1,Increment      1: Step Time =    1.000,"P-4-1",          1995,       81.6093,       109.679,            0.,NA,NA,"",   997.167E+03,   1.00974E+06,   1.00974E+06
C:/temp/Job-4.odb,Step-1,Increment      1: Step Time =    1.000,"P-4-1",          1996,       117.558,       83.7108,            0.,NA,NA,"",   1.03501E+06,   1.02928E+06,   1.02928E+06
C:/temp/Job-4.odb,Step-1,Increment      1: Step Time =    1.000,"P-4-1",          1997,       107.319,       79.1922,            0.,NA,NA,"",   1.02883E+06,   1.03594E+06,   1.03594E+06
C:/temp/Job-4.odb,Step-1,Increment      1: Step Time =    1.000,"P-4-1",          1998,       122.556,       99.2887,            0.,NA,NA,"",   977.051E+03,   980.970E+03,   980.970E+03
C:/temp/Job-4.odb,Step-1,Increment      1: Step Time =    1.000,"P-4-1",          1999,       16.8405,       166.635,            0.,NA,NA,"",   955.883E+03,   1.02601E+06,   1.02601E+06
C:/temp/Job-4.odb,Step-1,Increment      1: Step Time =    1.000,"P-4-1",          2000,       17.2088,       170.199,            0.,NA,NA,"",   975.474E+03,   1.04011E+06,   1.04011E+06
C:/temp/Job-4.odb,Step-1,Increment      1: Step Time =    1.000,"P-4-1",          2001,       14.1410,       50.2789,            0.,NA,NA,"",   898.294E+03,   984.968E+03,   984.968E+03
C:/temp/Job-4.odb,Step-1,Increment      1: Step Time =    1.000,"P-4-1",          2002,       41.1625,       29.1695,            0.,NA,NA,"",   1.00057E+06,   1.02351E+06,   1.02351E+06
C:/temp/Job-4.odb,Step-1,Increment      1: Step Time =    1.000,"P-4-1",          2003,       45.6625,       32.4175,            0.,NA,NA,"",   997.931E+03,   1.01933E+06,   1.01933E+06
C:/temp/Job-4.odb,Step-1,Increment      1: Step Time =    1.000,"P-4-1",          2004,       85.3639,       78.7862,            0.,NA,NA,"",   1.02332E+06,   1.03452E+06,   1.03452E+06
C:/temp/Job-4.odb,Step-1,Increment      1: Step Time =    1.000,"P-4-1",          2005,       74.7194,       22.0802,            0.,NA,NA,"",   982.218E+03,   984.977E+03,   984.977E+03
C:/temp/Job-4.odb,Step-1,Increment      1: Step Time =    1.000,"P-4-1",          2006,       131.774,       177.931,            0.,NA,NA,"",   989.703E+03,   989.094E+03,   989.094E+03
C:/temp/Job-4.odb,Step-1,Increment      1: Step Time =    1.000,"P-4-1",          2007,       61.4810,       34.8783,            0.,NA,NA,"",   997.734E+03,   1.00985E+06,   1.00985E+06
C:/temp/Job-4.odb,Step-1,Increment      1: Step Time =    1.000,"P-4-1",          2008,       166.438,       62.8392,            0.,NA,NA,"",   1.00726E+06,   1.00305E+06,   1.00305E+06
C:/temp/Job-4.odb,Step-1,Increment      1: Step Time =    1.000,"P-4-1",          2009,       137.585,       166.073,            0.,NA,NA,"",   999.060E+03,   997.611E+03,   997.611E+03
C:/temp/Job-4.odb,Step-1,Increment      1: Step Time =    1.000,"P-4-1",          2010,       23.0629,       31.3571,            0.,NA,NA,"",   981.235E+03,   1.03524E+06,   1.03524E+06
C:/temp/Job-4.odb,Step-1,Increment      1: Step Time =    1.000,"P-4-1",          2011,       172.311,       27.8931,            0.,NA,NA,"",   999.814E+03,   998.137E+03,   998.137E+03
C:/temp/Job-4.odb,Step-1,Increment      1: Step Time =    1.000,"P-4-1",          2012,       170.933,       171.531,            0.,NA,NA,"",   999.869E+03,   998.136E+03,   998.136E+03
C:/temp/Job-4.odb,Step-1,Increment      1: Step Time =    1.000,"P-4-1",          2013,       24.2335,       27.0210,            0.,NA,NA,"",   1.00006E+06,   1.04410E+06,   1.04410E+06
C:/temp/Job-4.odb,Step-1,Increment      1: Step Time =    1.000,"P-4-1",          2014,       167.262,       34.6152,            0.,NA,NA,"",   1.00116E+06,   998.936E+03,   998.936E+03
C:/temp/Job-4.odb,Step-1,Increment      1: Step Time =    1.000,"P-4-1",          2015,       86.9943,       176.210,            0.,NA,NA,"",   983.357E+03,   985.096E+03,   985.096E+03
C:/temp/Job-4.odb,Step-1,Increment      1: Step Time =    1.000,"P-4-1",          2016,       92.8349,       172.188,            0.,NA,NA,"",   988.307E+03,   990.149E+03,   990.149E+03
C:/temp/Job-4.odb,Step-1,Increment      1: Step Time =    1.000,"P-4-1",          2017,       55.3510,       175.987,            0.,NA,NA,"",   992.849E+03,   1.00125E+06,   1.00125E+06
C:/temp/Job-4.odb,Step-1,Increment      1: Step Time =    1.000,"P-4-1",          2018,       174.471,       130.748,            0.,NA,NA,"",   1.00670E+06,   1.00190E+06,   1.00190E+06
C:/temp/Job-4.odb,Step-1,Increment      1: Step Time =    1.000,"P-4-1",          2019,       171.937,       127.573,            0.,NA,NA,"",   1.00698E+06,   1.00223E+06,   1.00223E+06
C:/temp/Job-4.odb,Step-1,Increment      1: Step Time =    1.000,"P-4-1",          2020,       117.904,       86.4334,            0.,NA,NA,"",   1.02898E+06,   1.02256E+06,   1.02256E+06
C:/temp/Job-4.odb,Step-1,Increment      1: Step Time =    1.000,"P-4-1",          2021,       113.414,       78.0627,            0.,NA,NA,"",   1.03286E+06,   1.03292E+06,   1.03292E+06
C:/temp/Job-4.odb,Step-1,Increment      1: Step Time =    1.000,"P-4-1",          2022,       119.598,       79.6697,            0.,NA,NA,"",   1.03034E+06,   1.02635E+06,   1.02635E+06
C:/temp/Job-4.odb,Step-1,Increment      1: Step Time =    1.000,"P-4-1",          2023,       103.479,       74.7020,            0.,NA,NA,"",   1.01425E+06,   1.02668E+06,   1.02668E+06
C:/temp/Job-4.odb,Step-1,Increment      1: Step Time =    1.000,"P-4-1",          2024,       106.177,       75.4709,            0.,NA,NA,"",   1.01724E+06,   1.02780E+06,   1.02780E+06
C:/temp/Job-4.odb,Step-1,Increment      1: Step Time =    1.000,"P-4-1",          2025,       97.4876,       73.9082,            0.,NA,NA,"",   1.01078E+06,   1.02547E+06,   1.02547E+06
C:/temp/Job-4.odb,Step-1,Increment      1: Step Time =    1.000,"P-4-1",          2026,       78.4856,       22.7979,            0.,NA,NA,"",   982.525E+03,   984.824E+03,   984.824E+03
C:/temp/Job-4.odb,Step-1,Increment      1: Step Time =    1.000,"P-4-1",          2027,       95.1183,       29.2605,            0.,NA,NA,"",   989.943E+03,   991.861E+03,   991.861E+03
C:/temp/Job-4.odb,Step-1,Increment      1: Step Time =    1.000,"P-4-1",          2028,       115.221,       25.3353,            0.,NA,NA,"",   988.094E+03,   988.063E+03,   988.063E+03
C:/temp/Job-4.odb,Step-1,Increment      1: Step Time =    1.000,"P-4-1",          2029,       133.749,       23.8097,            0.,NA,NA,"",   991.613E+03,   990.851E+03,   990.851E+03
C:/temp/Job-4.odb,Step-1,Increment      1: Step Time =    1.000,"P-4-1",          2030,       126.837,       27.4818,            0.,NA,NA,"",   992.703E+03,   992.105E+03,   992.105E+03
C:/temp/Job-4.odb,Step-1,Increment      1: Step Time =    1.000,"P-4-1",          2031,       18.5697,       95.9016,            0.,NA,NA,"",   870.287E+03,   959.503E+03,   959.503E+03
C:/temp/Job-4.odb,Step-1,Increment      1: Step Time =    1.000,"P-4-1",          2032,       28.7581,       171.055,            0.,NA,NA,"",   1.00140E+06,   1.03958E+06,   1.03958E+06
C:/temp/Job-4.odb,Step-1,Increment      1: Step Time =    1.000,"P-4-1",          2033,       32.3167,       170.924,            0.,NA,NA,"",   1.00113E+06,   1.03412E+06,   1.03412E+06
C:/temp/Job-4.odb,Step-1,Increment      1: Step Time =    1.000,"P-4-1",          2034,       44.7753,       166.959,            0.,NA,NA,"",   996.734E+03,   1.01950E+06,   1.01950E+06
C:/temp/Job-4.odb,Step-1,Increment      1: Step Time =    1.000,"P-4-1",          2035,       100.655,       123.761,            0.,NA,NA,"",   1.01377E+06,   1.03011E+06,   1.03011E+06
C:/temp/Job-4.odb,Step-1,Increment      1: Step Time =    1.000,"P-4-1",          2036,       53.5042,       35.4179,            0.,NA,NA,"",   997.575E+03,   1.01508E+06,   1.01508E+06
C:/temp/Job-4.odb,Step-1,Increment      1: Step Time =    1.000,"P-4-1",          2037,       146.550,       165.396,            0.,NA,NA,"",   1.00008E+06,   998.235E+03,   998.235E+03
C:/temp/Job-4.odb,Step-1,Increment      1: Step Time =    1.000,"P-4-1",          2038,       163.027,       153.618,            0.,NA,NA,"",   1.00448E+06,   1.00136E+06,   1.00136E+06
C:/temp/Job-4.odb,Step-1,Increment      1: Step Time =    1.000,"P-4-1",          2039,       153.812,       38.7500,            0.,NA,NA,"",   1.00215E+06,   999.814E+03,   999.814E+03
C:/temp/Job-4.odb,Step-1,Increment      1: Step Time =    1.000,"P-4-1",          2040,       166.732,       169.368,            0.,NA,NA,"",   999.956E+03,   998.105E+03,   998.105E+03
C:/temp/Job-4.odb,Step-1,Increment      1: Step Time =    1.000,"P-4-1",          2041,       128.767,       113.549,            0.,NA,NA,"",   1.01142E+06,   1.00885E+06,   1.00885E+06
C:/temp/Job-4.odb,Step-1,Increment      1: Step Time =    1.000,"P-4-1",          2042,       19.4758,       166.979,            0.,NA,NA,"",   967.184E+03,   1.03105E+06,   1.03105E+06
C:/temp/Job-4.odb,Step-1,Increment      1: Step Time =    1.000,"P-4-1",          2043,       26.6170,       152.806,            0.,NA,NA,"",   944.265E+03,   1.00757E+06,   1.00757E+06
C:/temp/Job-4.odb,Step-1,Increment      1: Step Time =    1.000,"P-4-1",          2044,       71.1884,       35.1704,            0.,NA,NA,"",   997.566E+03,   1.00577E+06,   1.00577E+06
C:/temp/Job-4.odb,Step-1,Increment      1: Step Time =    1.000,"P-4-1",          2045,       82.7846,       27.1440,            0.,NA,NA,"",   988.167E+03,   991.151E+03,   991.151E+03
C:/temp/Job-4.odb,Step-1,Increment      1: Step Time =    1.000,"P-4-1",          2046,       122.328,       24.5505,            0.,NA,NA,"",   989.551E+03,   989.239E+03,   989.239E+03
C:/temp/Job-4.odb,Step-1,Increment      1: Step Time =    1.000,"P-4-1",          2047,       129.916,       96.2236,            0.,NA,NA,"",   993.990E+03,   995.271E+03,   995.271E+03
C:/temp/Job-4.odb,Step-1,Increment      1: Step Time =    1.000,"P-4-1",          2048,       87.3874,       171.158,            0.,NA,NA,"",   989.794E+03,   992.587E+03,   992.587E+03
C:/temp/Job-4.odb,Step-1,Increment      1: Step Time =    1.000,"P-4-1",          2049,       34.8529,       137.484,            0.,NA,NA,"",   939.577E+03,   999.642E+03,   999.642E+03
C:/temp/Job-4.odb,Step-1,Increment      1: Step Time =    1.000,"P-4-1",          2050,       54.4930,       40.1521,            0.,NA,NA,"",   996.646E+03,   1.01708E+06,   1.01708E+06
C:/temp/Job-4.odb,Step-1,Increment      1: Step Time =    1.000,"P-4-1",          2051,       163.113,       53.0285,            0.,NA,NA,"",   1.00607E+06,   1.00249E+06,   1.00249E+06
C:/temp/Job-4.odb,Step-1,Increment      1: Step Time =    1.000,"P-4-1",          2052,       145.186,       160.156,            0.,NA,NA,"",   1.00284E+06,   1.00064E+06,   1.00064E+06
C:/temp/Job-4.odb,Step-1,Increment      1: Step Time =    1.000,"P-4-1",          2053,       31.6094,       28.3064,            0.,NA,NA,"",   1.00001E+06,   1.03360E+06,   1.03360E+06
C:/temp/Job-4.odb,Step-1,Increment      1: Step Time =    1.000,"P-4-1",          2054,       63.5472,       40.4867,            0.,NA,NA,"",   999.442E+03,   1.01377E+06,   1.01377E+06
C:/temp/Job-4.odb,Step-1,Increment      1: Step Time =    1.000,"P-4-1",          2055,       127.782,       87.0331,            0.,NA,NA,"",   1.01088E+06,   1.00840E+06,   1.00840E+06
C:/temp/Job-4.odb,Step-1,Increment      1: Step Time =    1.000,"P-4-1",          2056,       118.938,       177.259,            0.,NA,NA,"",   987.071E+03,   986.888E+03,   986.888E+03
C:/temp/Job-4.odb,Step-1,Increment      1: Step Time =    1.000,"P-4-1",          2057,       179.244,       80.7172,            0.,NA,NA,"",   1.00673E+06,   1.00118E+06,   1.00118E+06
C:/temp/Job-4.odb,Step-1,Increment      1: Step Time =    1.000,"P-4-1",          2058,       123.047,       28.6904,            0.,NA,NA,"",   993.079E+03,   992.703E+03,   992.703E+03
C:/temp/Job-4.odb,Step-1,Increment      1: Step Time =    1.000,"P-4-1",          2059,       142.790,       31.6623,            0.,NA,NA,"",   998.385E+03,   996.842E+03,   996.842E+03
C:/temp/Job-4.odb,Step-1,Increment      1: Step Time =    1.000,"P-4-1",          2060,       150.102,       39.4161,            0.,NA,NA,"",   1.00233E+06,   1.00004E+06,   1.00004E+06
C:/temp/Job-4.odb,Step-1,Increment      1: Step Time =    1.000,"P-4-1",          2061,       138.224,       31.3789,            0.,NA,NA,"",   997.611E+03,   996.259E+03,   996.259E+03
C:/temp/Job-4.odb,Step-1,Increment      1: Step Time =    1.000,"P-4-1",          2062,       174.280,       118.454,            0.,NA,NA,"",   1.00688E+06,   1.00180E+06,   1.00180E+06
C:/temp/Job-4.odb,Step-1,Increment      1: Step Time =    1.000,"P-4-1",          2063,       174.439,       114.118,            0.,NA,NA,"",   1.00676E+06,   1.00163E+06,   1.00163E+06
C:/temp/Job-4.odb,Step-1,Increment      1: Step Time =    1.000,"P-4-1",          2064,       22.5996,       166.941,            0.,NA,NA,"",   975.472E+03,   1.03217E+06,   1.03217E+06
C:/temp/Job-4.odb,Step-1,Increment      1: Step Time =    1.000,"P-4-1",          2065,       29.5946,       153.573,            0.,NA,NA,"",   953.395E+03,   1.01173E+06,   1.01173E+06
C:/temp/Job-4.odb,Step-1,Increment      1: Step Time =    1.000,"P-4-1",          2066,       156.302,       65.7506,            0.,NA,NA,"",   1.00924E+06,   1.00525E+06,   1.00525E+06
C:/temp/Job-4.odb,Step-1,Increment      1: Step Time =    1.000,"P-4-1",          2067,       25.0197,       80.0851,            0.,NA,NA,"",   894.851E+03,   974.384E+03,   974.384E+03
C:/temp/Job-4.odb,Step-1,Increment      1: Step Time =    1.000,"P-4-1",          2068,       23.8970,       67.9817,            0.,NA,NA,"",   903.012E+03,   981.034E+03,   981.034E+03
C:/temp/Job-4.odb,Step-1,Increment      1: Step Time =    1.000,"P-4-1",          2069,       27.6740,       52.8438,            0.,NA,NA,"",   934.844E+03,   1.00064E+06,   1.00064E+06
C:/temp/Job-4.odb,Step-1,Increment      1: Step Time =    1.000,"P-4-1",          2070,       128.176,       31.4729,            0.,NA,NA,"",   996.177E+03,   995.351E+03,   995.351E+03
C:/temp/Job-4.odb,Step-1,Increment      1: Step Time =    1.000,"P-4-1",          2071,       111.600,       75.1160,            0.,NA,NA,"",   1.02683E+06,   1.03015E+06,   1.03015E+06
C:/temp/Job-4.odb,Step-1,Increment      1: Step Time =    1.000,"P-4-1",          2072,       107.671,       72.2716,            0.,NA,NA,"",   1.01750E+06,   1.02529E+06,   1.02529E+06
C:/temp/Job-4.odb,Step-1,Increment      1: Step Time =    1.000,"P-4-1",          2073,       79.7174,       75.5467,            0.,NA,NA,"",   1.01667E+06,   1.03076E+06,   1.03076E+06
C:/temp/Job-4.odb,Step-1,Increment      1: Step Time =    1.000,"P-4-1",          2074,       66.1155,       91.8530,            0.,NA,NA,"",   971.259E+03,   1.00295E+06,   1.00295E+06
C:/temp/Job-4.odb,Step-1,Increment      1: Step Time =    1.000,"P-4-1",          2075,       135.336,       160.814,            0.,NA,NA,"",   1.00217E+06,   1.00053E+06,   1.00053E+06
C:/temp/Job-4.odb,Step-1,Increment      1: Step Time =    1.000,"P-4-1",          2076,       165.717,       127.569,            0.,NA,NA,"",   1.00770E+06,   1.00331E+06,   1.00331E+06
C:/temp/Job-4.odb,Step-1,Increment      1: Step Time =    1.000,"P-4-1",          2077,       36.4868,       50.2868,            0.,NA,NA,"",   962.145E+03,   1.01218E+06,   1.01218E+06
C:/temp/Job-4.odb,Step-1,Increment      1: Step Time =    1.000,"P-4-1",          2078,       171.542,       133.598,            0.,NA,NA,"",   1.00685E+06,   1.00232E+06,   1.00232E+06
C:/temp/Job-4.odb,Step-1,Increment      1: Step Time =    1.000,"P-4-1",          2079,       86.3763,       25.7445,            0.,NA,NA,"",   986.412E+03,   988.719E+03,   988.719E+03
C:/temp/Job-4.odb,Step-1,Increment      1: Step Time =    1.000,"P-4-1",          2080,       40.7609,       51.7093,            0.,NA,NA,"",   968.905E+03,   1.01365E+06,   1.01365E+06
C:/temp/Job-4.odb,Step-1,Increment      1: Step Time =    1.000,"P-4-1",          2081,       129.813,       83.8279,            0.,NA,NA,"",   1.01441E+06,   1.01128E+06,   1.01128E+06
C:/temp/Job-4.odb,Step-1,Increment      1: Step Time =    1.000,"P-4-1",          2082,       136.956,       87.2178,            0.,NA,NA,"",   1.00773E+06,   1.00553E+06,   1.00553E+06
C:/temp/Job-4.odb,Step-1,Increment      1: Step Time =    1.000,"P-4-1",          2083,       131.386,       98.0029,            0.,NA,NA,"",   994.821E+03,   995.759E+03,   995.759E+03
C:/temp/Job-4.odb,Step-1,Increment      1: Step Time =    1.000,"P-4-1",          2084,       72.6750,       41.9214,            0.,NA,NA,"",   1.00126E+06,   1.01176E+06,   1.01176E+06
C:/temp/Job-4.odb,Step-1,Increment      1: Step Time =    1.000,"P-4-1",          2085,       130.443,       100.153,            0.,NA,NA,"",   993.529E+03,   994.705E+03,   994.705E+03
C:/temp/Job-4.odb,Step-1,Increment      1: Step Time =    1.000,"P-4-1",          2086,       102.090,       34.7310,            0.,NA,NA,"",   995.439E+03,   997.450E+03,   997.450E+03
C:/temp/Job-4.odb,Step-1,Increment      1: Step Time =    1.000,"P-4-1",          2087,       29.5214,       65.8018,            0.,NA,NA,"",   922.228E+03,   991.156E+03,   991.156E+03
C:/temp/Job-4.odb,Step-1,Increment      1: Step Time =    1.000,"P-4-1",          2088,       171.066,       71.3711,            0.,NA,NA,"",   1.00711E+06,   1.00244E+06,   1.00244E+06
C:/temp/Job-4.odb,Step-1,Increment      1: Step Time =    1.000,"P-4-1",          2089,       70.0125,       171.351,            0.,NA,NA,"",   992.080E+03,   997.969E+03,   997.969E+03
C:/temp/Job-4.odb,Step-1,Increment      1: Step Time =    1.000,"P-4-1",          2090,       85.6467,       167.152,            0.,NA,NA,"",   993.957E+03,   997.866E+03,   997.866E+03
C:/temp/Job-4.odb,Step-1,Increment      1: Step Time =    1.000,"P-4-1",          2091,       92.5151,       163.450,            0.,NA,NA,"",   996.929E+03,   1.00057E+06,   1.00057E+06
C:/temp/Job-4.odb,Step-1,Increment      1: Step Time =    1.000,"P-4-1",          2092,       51.2450,       155.520,            0.,NA,NA,"",   991.669E+03,   1.01820E+06,   1.01820E+06
C:/temp/Job-4.odb,Step-1,Increment      1: Step Time =    1.000,"P-4-1",          2093,       31.5820,       76.6714,            0.,NA,NA,"",   915.098E+03,   985.517E+03,   985.517E+03
C:/temp/Job-4.odb,Step-1,Increment      1: Step Time =    1.000,"P-4-1",          2094,       162.691,       130.851,            0.,NA,NA,"",   1.00817E+06,   1.00394E+06,   1.00394E+06
C:/temp/Job-4.odb,Step-1,Increment      1: Step Time =    1.000,"P-4-1",          2095,       88.3547,       134.269,            0.,NA,NA,"",   1.01142E+06,   1.02345E+06,   1.02345E+06
C:/temp/Job-4.odb,Step-1,Increment      1: Step Time =    1.000,"P-4-1",          2096,       80.7586,       135.705,            0.,NA,NA,"",   1.01030E+06,   1.02391E+06,   1.02391E+06
C:/temp/Job-4.odb,Step-1,Increment      1: Step Time =    1.000,"P-4-1",          2097,       39.8782,       55.8430,            0.,NA,NA,"",   960.437E+03,   1.00976E+06,   1.00976E+06
C:/temp/Job-4.odb,Step-1,Increment      1: Step Time =    1.000,"P-4-1",          2098,       97.2282,       164.488,            0.,NA,NA,"",   996.034E+03,   998.711E+03,   998.711E+03
C:/temp/Job-4.odb,Step-1,Increment      1: Step Time =    1.000,"P-4-1",          2099,       167.688,       96.7660,            0.,NA,NA,"",   1.00638E+06,   1.00194E+06,   1.00194E+06
C:/temp/Job-4.odb,Step-1,Increment      1: Step Time =    1.000,"P-4-1",          2100,       166.837,       92.6247,            0.,NA,NA,"",   1.00649E+06,   1.00210E+06,   1.00210E+06
C:/temp/Job-4.odb,Step-1,Increment      1: Step Time =    1.000,"P-4-1",          2101,       159.784,       128.458,            0.,NA,NA,"",   1.00862E+06,   1.00447E+06,   1.00447E+06
C:/temp/Job-4.odb,Step-1,Increment      1: Step Time =    1.000,"P-4-1",          2102,       112.750,       70.9636,            0.,NA,NA,"",   1.02070E+06,   1.02392E+06,   1.02392E+06
C:/temp/Job-4.odb,Step-1,Increment      1: Step Time =    1.000,"P-4-1",          2103,       123.901,       72.4425,            0.,NA,NA,"",   1.02338E+06,   1.02066E+06,   1.02066E+06
C:/temp/Job-4.odb,Step-1,Increment      1: Step Time =    1.000,"P-4-1",          2104,       60.6697,       89.9622,            0.,NA,NA,"",   967.111E+03,   1.00401E+06,   1.00401E+06
C:/temp/Job-4.odb,Step-1,Increment      1: Step Time =    1.000,"P-4-1",          2105,       41.1624,       135.628,            0.,NA,NA,"",   952.711E+03,   1.00474E+06,   1.00474E+06
C:/temp/Job-4.odb,Step-1,Increment      1: Step Time =    1.000,"P-4-1",          2106,       29.0541,       117.866,            0.,NA,NA,"",   904.679E+03,   979.383E+03,   979.383E+03
C:/temp/Job-4.odb,Step-1,Increment      1: Step Time =    1.000,"P-4-1",          2107,       40.1259,       149.275,            0.,NA,NA,"",   968.739E+03,   1.01387E+06,   1.01387E+06
C:/temp/Job-4.odb,Step-1,Increment      1: Step Time =    1.000,"P-4-1",          2108,       106.939,       33.5788,            0.,NA,NA,"",   994.896E+03,   996.191E+03,   996.191E+03
C:/temp/Job-4.odb,Step-1,Increment      1: Step Time =    1.000,"P-4-1",          2109,       73.1826,       48.4928,            0.,NA,NA,"",   1.00338E+06,   1.01612E+06,   1.01612E+06
C:/temp/Job-4.odb,Step-1,Increment      1: Step Time =    1.000,"P-4-1",          2110,       64.0409,       101.859,            0.,NA,NA,"",   965.395E+03,   1.00012E+06,   1.00012E+06
C:/temp/Job-4.odb,Step-1,Increment      1: Step Time =    1.000,"P-4-1",          2111,       133.510,       100.817,            0.,NA,NA,"",   997.035E+03,   997.265E+03,   997.265E+03
C:/temp/Job-4.odb,Step-1,Increment      1: Step Time =    1.000,"P-4-1",          2112,       121.706,       172.824,            0.,NA,NA,"",   991.302E+03,   990.980E+03,   990.980E+03
C:/temp/Job-4.odb,Step-1,Increment      1: Step Time =    1.000,"P-4-1",          2113,       119.053,       174.125,            0.,NA,NA,"",   989.701E+03,   989.508E+03,   989.508E+03
C:/temp/Job-4.odb,Step-1,Increment      1: Step Time =    1.000,"P-4-1",          2114,       28.7137,       57.7487,            0.,NA,NA,"",   930.617E+03,   997.107E+03,   997.107E+03
C:/temp/Job-4.odb,Step-1,Increment      1: Step Time =    1.000,"P-4-1",          2115,       28.3943,       60.8262,            0.,NA,NA,"",   925.347E+03,   993.717E+03,   993.717E+03
C:/temp/Job-4.odb,Step-1,Increment      1: Step Time =    1.000,"P-4-1",          2116,       134.050,       76.9818,            0.,NA,NA,"",   1.01666E+06,   1.01301E+06,   1.01301E+06
C:/temp/Job-4.odb,Step-1,Increment      1: Step Time =    1.000,"P-4-1",          2117,       41.0640,       154.868,            0.,NA,NA,"",   979.933E+03,   1.01885E+06,   1.01885E+06
C:/temp/Job-4.odb,Step-1,Increment      1: Step Time =    1.000,"P-4-1",          2118,       58.6389,       49.6366,            0.,NA,NA,"",   995.052E+03,   1.01808E+06,   1.01808E+06
C:/temp/Job-4.odb,Step-1,Increment      1: Step Time =    1.000,"P-4-1",          2119,       71.4201,       111.326,            0.,NA,NA,"",   982.966E+03,   1.00807E+06,   1.00807E+06
C:/temp/Job-4.odb,Step-1,Increment      1: Step Time =    1.000,"P-4-1",          2120,       146.246,       37.5654,            0.,NA,NA,"",   1.00153E+06,   999.461E+03,   999.461E+03
C:/temp/Job-4.odb,Step-1,Increment      1: Step Time =    1.000,"P-4-1",          2121,       136.989,       42.7805,            0.,NA,NA,"",   1.00445E+06,   1.00248E+06,   1.00248E+06
C:/temp/Job-4.odb,Step-1,Increment      1: Step Time =    1.000,"P-4-1",          2122,       70.3783,       51.5649,            0.,NA,NA,"",   1.00275E+06,   1.01815E+06,   1.01815E+06
C:/temp/Job-4.odb,Step-1,Increment      1: Step Time =    1.000,"P-4-1",          2123,       65.1534,       51.4789,            0.,NA,NA,"",   999.502E+03,   1.01840E+06,   1.01840E+06
C:/temp/Job-4.odb,Step-1,Increment      1: Step Time =    1.000,"P-4-1",          2124,       96.2457,       62.7997,            0.,NA,NA,"",   1.00899E+06,   1.01892E+06,   1.01892E+06
C:/temp/Job-4.odb,Step-1,Increment      1: Step Time =    1.000,"P-4-1",          2125,       142.458,       85.6180,            0.,NA,NA,"",   1.00834E+06,   1.00563E+06,   1.00563E+06
C:/temp/Job-4.odb,Step-1,Increment      1: Step Time =    1.000,"P-4-1",          2126,       174.270,       80.9742,            0.,NA,NA,"",   1.00680E+06,   1.00174E+06,   1.00174E+06
C:/temp/Job-4.odb,Step-1,Increment      1: Step Time =    1.000,"P-4-1",          2127,       75.3666,       68.5705,            0.,NA,NA,"",   1.00848E+06,   1.02508E+06,   1.02508E+06
C:/temp/Job-4.odb,Step-1,Increment      1: Step Time =    1.000,"P-4-1",          2128,       81.8759,       65.0875,            0.,NA,NA,"",   1.01086E+06,   1.02408E+06,   1.02408E+06
C:/temp/Job-4.odb,Step-1,Increment      1: Step Time =    1.000,"P-4-1",          2129,       102.218,       60.5321,            0.,NA,NA,"",   1.00919E+06,   1.01667E+06,   1.01667E+06
C:/temp/Job-4.odb,Step-1,Increment      1: Step Time =    1.000,"P-4-1",          2130,       80.9881,       164.060,            0.,NA,NA,"",   997.402E+03,   1.00305E+06,   1.00305E+06
C:/temp/Job-4.odb,Step-1,Increment      1: Step Time =    1.000,"P-4-1",          2131,       88.0359,       161.414,            0.,NA,NA,"",   998.782E+03,   1.00367E+06,   1.00367E+06
C:/temp/Job-4.odb,Step-1,Increment      1: Step Time =    1.000,"P-4-1",          2132,       162.507,       92.7582,            0.,NA,NA,"",   1.00644E+06,   1.00247E+06,   1.00247E+06
C:/temp/Job-4.odb,Step-1,Increment      1: Step Time =    1.000,"P-4-1",          2133,       119.549,       169.554,            0.,NA,NA,"",   993.943E+03,   993.793E+03,   993.793E+03
C:/temp/Job-4.odb,Step-1,Increment      1: Step Time =    1.000,"P-4-1",          2134,       28.3424,       81.7431,            0.,NA,NA,"",   902.968E+03,   978.476E+03,   978.476E+03
C:/temp/Job-4.odb,Step-1,Increment      1: Step Time =    1.000,"P-4-1",          2135,       27.0194,       88.3398,            0.,NA,NA,"",   895.850E+03,   974.092E+03,   974.092E+03
C:/temp/Job-4.odb,Step-1,Increment      1: Step Time =    1.000,"P-4-1",          2136,       92.2542,       137.852,            0.,NA,NA,"",   1.00933E+06,   1.01988E+06,   1.01988E+06
C:/temp/Job-4.odb,Step-1,Increment      1: Step Time =    1.000,"P-4-1",          2137,       81.0349,       139.631,            0.,NA,NA,"",   1.00871E+06,   1.02153E+06,   1.02153E+06
C:/temp/Job-4.odb,Step-1,Increment      1: Step Time =    1.000,"P-4-1",          2138,       81.5139,       45.5498,            0.,NA,NA,"",   1.00326E+06,   1.01179E+06,   1.01179E+06
C:/temp/Job-4.odb,Step-1,Increment      1: Step Time =    1.000,"P-4-1",          2139,       44.2978,       53.7010,            0.,NA,NA,"",   973.663E+03,   1.01447E+06,   1.01447E+06
C:/temp/Job-4.odb,Step-1,Increment      1: Step Time =    1.000,"P-4-1",          2140,       39.1525,       59.0974,            0.,NA,NA,"",   954.314E+03,   1.00662E+06,   1.00662E+06
C:/temp/Job-4.odb,Step-1,Increment      1: Step Time =    1.000,"P-4-1",          2141,       173.277,       85.0592,            0.,NA,NA,"",   1.00678E+06,   1.00178E+06,   1.00178E+06
C:/temp/Job-4.odb,Step-1,Increment      1: Step Time =    1.000,"P-4-1",          2142,       123.403,       68.5421,            0.,NA,NA,"",   1.02141E+06,   1.01936E+06,   1.01936E+06
C:/temp/Job-4.odb,Step-1,Increment      1: Step Time =    1.000,"P-4-1",          2143,       106.453,       62.4329,            0.,NA,NA,"",   1.01170E+06,   1.01767E+06,   1.01767E+06
C:/temp/Job-4.odb,Step-1,Increment      1: Step Time =    1.000,"P-4-1",          2144,       103.240,       164.200,            0.,NA,NA,"",   996.391E+03,   998.405E+03,   998.405E+03
C:/temp/Job-4.odb,Step-1,Increment      1: Step Time =    1.000,"P-4-1",          2145,       96.1118,       40.9979,            0.,NA,NA,"",   1.00013E+06,   1.00418E+06,   1.00418E+06
C:/temp/Job-4.odb,Step-1,Increment      1: Step Time =    1.000,"P-4-1",          2146,       128.709,       152.661,            0.,NA,NA,"",   1.00701E+06,   1.00562E+06,   1.00562E+06
C:/temp/Job-4.odb,Step-1,Increment      1: Step Time =    1.000,"P-4-1",          2147,       46.9785,       133.949,            0.,NA,NA,"",   963.603E+03,   1.00873E+06,   1.00873E+06
C:/temp/Job-4.odb,Step-1,Increment      1: Step Time =    1.000,"P-4-1",          2148,       55.4407,       89.0466,            0.,NA,NA,"",   959.388E+03,   1.00228E+06,   1.00228E+06
C:/temp/Job-4.odb,Step-1,Increment      1: Step Time =    1.000,"P-4-1",          2149,       136.315,       103.810,            0.,NA,NA,"",   999.695E+03,   999.856E+03,   999.856E+03
C:/temp/Job-4.odb,Step-1,Increment      1: Step Time =    1.000,"P-4-1",          2150,       138.190,       107.713,            0.,NA,NA,"",   1.00375E+06,   1.00209E+06,   1.00209E+06
C:/temp/Job-4.odb,Step-1,Increment      1: Step Time =    1.000,"P-4-1",          2151,       166.198,       88.5182,            0.,NA,NA,"",   1.00673E+06,   1.00236E+06,   1.00236E+06
C:/temp/Job-4.odb,Step-1,Increment      1: Step Time =    1.000,"P-4-1",          2152,       68.9728,       134.980,            0.,NA,NA,"",   1.00106E+06,   1.02198E+06,   1.02198E+06
C:/temp/Job-4.odb,Step-1,Increment      1: Step Time =    1.000,"P-4-1",          2153,       69.5095,       138.355,            0.,NA,NA,"",   1.00206E+06,   1.02144E+06,   1.02144E+06
C:/temp/Job-4.odb,Step-1,Increment      1: Step Time =    1.000,"P-4-1",          2154,       152.202,       75.7739,            0.,NA,NA,"",   1.00973E+06,   1.00591E+06,   1.00591E+06
C:/temp/Job-4.odb,Step-1,Increment      1: Step Time =    1.000,"P-4-1",          2155,       144.256,       142.776,            0.,NA,NA,"",   1.01059E+06,   1.00727E+06,   1.00727E+06
C:/temp/Job-4.odb,Step-1,Increment      1: Step Time =    1.000,"P-4-1",          2156,       139.403,       145.312,            0.,NA,NA,"",   1.01046E+06,   1.00752E+06,   1.00752E+06
C:/temp/Job-4.odb,Step-1,Increment      1: Step Time =    1.000,"P-4-1",          2157,       110.805,       138.430,            0.,NA,NA,"",   1.01291E+06,   1.01701E+06,   1.01701E+06
C:/temp/Job-4.odb,Step-1,Increment      1: Step Time =    1.000,"P-4-1",          2158,       125.804,       153.947,            0.,NA,NA,"",   1.00620E+06,   1.00525E+06,   1.00525E+06
C:/temp/Job-4.odb,Step-1,Increment      1: Step Time =    1.000,"P-4-1",          2159,       126.166,       156.717,            0.,NA,NA,"",   1.00460E+06,   1.00368E+06,   1.00368E+06
C:/temp/Job-4.odb,Step-1,Increment      1: Step Time =    1.000,"P-4-1",          2160,       157.171,       126.121,            0.,NA,NA,"",   1.00903E+06,   1.00499E+06,   1.00499E+06
C:/temp/Job-4.odb,Step-1,Increment      1: Step Time =    1.000,"P-4-1",          2161,       136.823,       101.525,            0.,NA,NA,"",   999.178E+03,   999.279E+03,   999.279E+03
C:/temp/Job-4.odb,Step-1,Increment      1: Step Time =    1.000,"P-4-1",          2162,       117.781,       159.329,            0.,NA,NA,"",   1.00156E+06,   1.00185E+06,   1.00185E+06
C:/temp/Job-4.odb,Step-1,Increment      1: Step Time =    1.000,"P-4-1",          2163,       31.0152,       83.1435,            0.,NA,NA,"",   908.469E+03,   981.138E+03,   981.138E+03
C:/temp/Job-4.odb,Step-1,Increment      1: Step Time =    1.000,"P-4-1",          2164,       30.7678,       88.7607,            0.,NA,NA,"",   905.769E+03,   979.162E+03,   979.162E+03
C:/temp/Job-4.odb,Step-1,Increment      1: Step Time =    1.000,"P-4-1",          2165,       31.9970,       96.4032,            0.,NA,NA,"",   906.461E+03,   979.128E+03,   979.128E+03
C:/temp/Job-4.odb,Step-1,Increment      1: Step Time =    1.000,"P-4-1",          2166,       55.0140,       145.727,            0.,NA,NA,"",   988.708E+03,   1.01776E+06,   1.01776E+06
C:/temp/Job-4.odb,Step-1,Increment      1: Step Time =    1.000,"P-4-1",          2167,       68.6914,       128.352,            0.,NA,NA,"",   998.349E+03,   1.02133E+06,   1.02133E+06
C:/temp/Job-4.odb,Step-1,Increment      1: Step Time =    1.000,"P-4-1",          2168,       63.0633,       113.541,            0.,NA,NA,"",   974.721E+03,   1.00800E+06,   1.00800E+06
C:/temp/Job-4.odb,Step-1,Increment      1: Step Time =    1.000,"P-4-1",          2169,       42.8969,       65.5829,            0.,NA,NA,"",   955.059E+03,   1.00552E+06,   1.00552E+06
C:/temp/Job-4.odb,Step-1,Increment      1: Step Time =    1.000,"P-4-1",          2170,       113.538,       63.7794,            0.,NA,NA,"",   1.01586E+06,   1.01854E+06,   1.01854E+06
C:/temp/Job-4.odb,Step-1,Increment      1: Step Time =    1.000,"P-4-1",          2171,       158.078,       92.6929,            0.,NA,NA,"",   1.00633E+06,   1.00279E+06,   1.00279E+06
C:/temp/Job-4.odb,Step-1,Increment      1: Step Time =    1.000,"P-4-1",          2172,       87.3772,       157.568,            0.,NA,NA,"",   1.00158E+06,   1.00761E+06,   1.00761E+06
C:/temp/Job-4.odb,Step-1,Increment      1: Step Time =    1.000,"P-4-1",          2173,       94.2516,       155.204,            0.,NA,NA,"",   1.00246E+06,   1.00767E+06,   1.00767E+06
C:/temp/Job-4.odb,Step-1,Increment      1: Step Time =    1.000,"P-4-1",          2174,       109.063,       60.2506,            0.,NA,NA,"",   1.01205E+06,   1.01641E+06,   1.01641E+06
C:/temp/Job-4.odb,Step-1,Increment      1: Step Time =    1.000,"P-4-1",          2175,       54.0943,       86.8143,            0.,NA,NA,"",   958.829E+03,   1.00276E+06,   1.00276E+06
C:/temp/Job-4.odb,Step-1,Increment      1: Step Time =    1.000,"P-4-1",          2176,       57.4810,       78.2967,            0.,NA,NA,"",   973.704E+03,   1.01056E+06,   1.01056E+06
C:/temp/Job-4.odb,Step-1,Increment      1: Step Time =    1.000,"P-4-1",          2177,       169.748,       84.4740,            0.,NA,NA,"",   1.00692E+06,   1.00224E+06,   1.00224E+06
C:/temp/Job-4.odb,Step-1,Increment      1: Step Time =    1.000,"P-4-1",          2178,       84.4214,       48.5903,            0.,NA,NA,"",   1.00463E+06,   1.01328E+06,   1.01328E+06
C:/temp/Job-4.odb,Step-1,Increment      1: Step Time =    1.000,"P-4-1",          2179,       78.9059,       55.4500,            0.,NA,NA,"",   1.00674E+06,   1.01918E+06,   1.01918E+06
C:/temp/Job-4.odb,Step-1,Increment      1: Step Time =    1.000,"P-4-1",          2180,       112.716,       159.087,            0.,NA,NA,"",   1.00129E+06,   1.00243E+06,   1.00243E+06
C:/temp/Job-4.odb,Step-1,Increment      1: Step Time =    1.000,"P-4-1",          2181,       51.8430,       89.9964,            0.,NA,NA,"",   952.756E+03,   999.826E+03,   999.826E+03
C:/temp/Job-4.odb,Step-1,Increment      1: Step Time =    1.000,"P-4-1",          2182,       51.4185,       86.9107,            0.,NA,NA,"",   953.929E+03,   1.00086E+06,   1.00086E+06
C:/temp/Job-4.odb,Step-1,Increment      1: Step Time =    1.000,"P-4-1",          2183,       88.5612,       142.604,            0.,NA,NA,"",   1.00810E+06,   1.01807E+06,   1.01807E+06
C:/temp/Job-4.odb,Step-1,Increment      1: Step Time =    1.000,"P-4-1",          2184,       154.803,       79.3892,            0.,NA,NA,"",   1.00871E+06,   1.00489E+06,   1.00489E+06
C:/temp/Job-4.odb,Step-1,Increment      1: Step Time =    1.000,"P-4-1",          2185,       44.9506,       70.2420,            0.,NA,NA,"",   954.865E+03,   1.00451E+06,   1.00451E+06
C:/temp/Job-4.odb,Step-1,Increment      1: Step Time =    1.000,"P-4-1",          2186,       55.7330,       56.0688,            0.,NA,NA,"",   988.461E+03,   1.01786E+06,   1.01786E+06
C:/temp/Job-4.odb,Step-1,Increment      1: Step Time =    1.000,"P-4-1",          2187,       52.2663,       132.093,            0.,NA,NA,"",   972.488E+03,   1.01182E+06,   1.01182E+06
C:/temp/Job-4.odb,Step-1,Increment      1: Step Time =    1.000,"P-4-1",          2188,       90.7538,       52.9390,            0.,NA,NA,"",   1.00655E+06,   1.01482E+06,   1.01482E+06
C:/temp/Job-4.odb,Step-1,Increment      1: Step Time =    1.000,"P-4-1",          2189,       156.030,       111.495,            0.,NA,NA,"",   1.00688E+06,   1.00337E+06,   1.00337E+06
C:/temp/Job-4.odb,Step-1,Increment      1: Step Time =    1.000,"P-4-1",          2190,       102.756,       55.3999,            0.,NA,NA,"",   1.00785E+06,   1.01370E+06,   1.01370E+06
C:/temp/Job-4.odb,Step-1,Increment      1: Step Time =    1.000,"P-4-1",          2191,       166.020,       84.2247,            0.,NA,NA,"",   1.00711E+06,   1.00273E+06,   1.00273E+06
C:/temp/Job-4.odb,Step-1,Increment      1: Step Time =    1.000,"P-4-1",          2192,       58.8662,       110.118,            0.,NA,NA,"",   964.441E+03,   1.00345E+06,   1.00345E+06
C:/temp/Job-4.odb,Step-1,Increment      1: Step Time =    1.000,"P-4-1",          2193,       57.8410,       106.853,            0.,NA,NA,"",   960.688E+03,   1.00135E+06,   1.00135E+06
C:/temp/Job-4.odb,Step-1,Increment      1: Step Time =    1.000,"P-4-1",          2194,       72.8667,       64.9112,            0.,NA,NA,"",   1.00525E+06,   1.02306E+06,   1.02306E+06
C:/temp/Job-4.odb,Step-1,Increment      1: Step Time =    1.000,"P-4-1",          2195,       43.0975,       126.071,            0.,NA,NA,"",   947.000E+03,   1.00055E+06,   1.00055E+06
C:/temp/Job-4.odb,Step-1,Increment      1: Step Time =    1.000,"P-4-1",          2196,       64.1152,       134.245,            0.,NA,NA,"",   994.704E+03,   1.01994E+06,   1.01994E+06
C:/temp/Job-4.odb,Step-1,Increment      1: Step Time =    1.000,"P-4-1",          2197,       65.9006,       142.389,            0.,NA,NA,"",   999.165E+03,   1.02001E+06,   1.02001E+06
C:/temp/Job-4.odb,Step-1,Increment      1: Step Time =    1.000,"P-4-1",          2198,       93.5131,       51.9275,            0.,NA,NA,"",   1.00618E+06,   1.01341E+06,   1.01341E+06
C:/temp/Job-4.odb,Step-1,Increment      1: Step Time =    1.000,"P-4-1",          2199,       56.3696,       103.824,            0.,NA,NA,"",   957.405E+03,   999.975E+03,   999.975E+03
C:/temp/Job-4.odb,Step-1,Increment      1: Step Time =    1.000,"P-4-1",          2200,       55.5243,       141.539,            0.,NA,NA,"",   986.602E+03,   1.01744E+06,   1.01744E+06
C:/temp/Job-4.odb,Step-1,Increment      1: Step Time =    1.000,"P-4-1",          2201,       96.3135,       50.9221,            0.,NA,NA,"",   1.00547E+06,   1.01186E+06,   1.01186E+06
C:/temp/Job-4.odb,Step-1,Increment      1: Step Time =    1.000,"P-4-1",          2202,       162.163,       80.2488,            0.,NA,NA,"",   1.00770E+06,   1.00350E+06,   1.00350E+06
C:/temp/Job-4.odb,Step-1,Increment      1: Step Time =    1.000,"P-4-1",          2203,       58.4213,       141.788,            0.,NA,NA,"",   990.534E+03,   1.01844E+06,   1.01844E+06
C:/temp/Job-4.odb,Step-1,Increment      1: Step Time =    1.000,"P-4-1",          2204,       50.5453,       68.0305,            0.,NA,NA,"",   969.185E+03,   1.01068E+06,   1.01068E+06
C:/temp/Job-4.odb,Step-1,Increment      1: Step Time =    1.000,"P-4-1",          2205,       155.735,       123.506,            0.,NA,NA,"",   1.00907E+06,   1.00514E+06,   1.00514E+06
C:/temp/Job-4.odb,Step-1,Increment      1: Step Time =    1.000,"P-4-1",          2206,       69.2251,       62.9620,            0.,NA,NA,"",   1.00152E+06,   1.02167E+06,   1.02167E+06
C:/temp/Job-4.odb,Step-1,Increment      1: Step Time =    1.000,"P-4-1",          2207,       97.7859,       160.518,            0.,NA,NA,"",   999.284E+03,   1.00266E+06,   1.00266E+06
C:/temp/Job-4.odb,Step-1,Increment      1: Step Time =    1.000,"P-4-1",          2208,       136.376,       53.3474,            0.,NA,NA,"",   1.01027E+06,   1.00770E+06,   1.00770E+06
C:/temp/Job-4.odb,Step-1,Increment      1: Step Time =    1.000,"P-4-1",          2209,       80.2640,       154.934,            0.,NA,NA,"",   1.00311E+06,   1.01182E+06,   1.01182E+06
C:/temp/Job-4.odb,Step-1,Increment      1: Step Time =    1.000,"P-4-1",          2210,       87.0850,       153.842,            0.,NA,NA,"",   1.00357E+06,   1.01070E+06,   1.01070E+06
C:/temp/Job-4.odb,Step-1,Increment      1: Step Time =    1.000,"P-4-1",          2211,       93.7655,       151.471,            0.,NA,NA,"",   1.00456E+06,   1.01079E+06,   1.01079E+06
C:/temp/Job-4.odb,Step-1,Increment      1: Step Time =    1.000,"P-4-1",          2212,       36.2660,       109.106,            0.,NA,NA,"",   918.845E+03,   985.603E+03,   985.603E+03
C:/temp/Job-4.odb,Step-1,Increment      1: Step Time =    1.000,"P-4-1",          2213,       117.460,       153.910,            0.,NA,NA,"",   1.00549E+06,   1.00609E+06,   1.00609E+06
C:/temp/Job-4.odb,Step-1,Increment      1: Step Time =    1.000,"P-4-1",          2214,       150.030,       120.081,            0.,NA,NA,"",   1.00954E+06,   1.00598E+06,   1.00598E+06
C:/temp/Job-4.odb,Step-1,Increment      1: Step Time =    1.000,"P-4-1",          2215,       33.7909,       88.8618,            0.,NA,NA,"",   913.279E+03,   982.950E+03,   982.950E+03
C:/temp/Job-4.odb,Step-1,Increment      1: Step Time =    1.000,"P-4-1",          2216,       35.1317,       91.8563,            0.,NA,NA,"",   915.350E+03,   983.721E+03,   983.721E+03
C:/temp/Job-4.odb,Step-1,Increment      1: Step Time =    1.000,"P-4-1",          2217,       45.5613,       81.9978,            0.,NA,NA,"",   946.581E+03,   998.997E+03,   998.997E+03
C:/temp/Job-4.odb,Step-1,Increment      1: Step Time =    1.000,"P-4-1",          2218,       150.040,       81.7125,            0.,NA,NA,"",   1.00897E+06,   1.00551E+06,   1.00551E+06
C:/temp/Job-4.odb,Step-1,Increment      1: Step Time =    1.000,"P-4-1",          2219,       128.068,       57.2866,            0.,NA,NA,"",   1.01358E+06,   1.01182E+06,   1.01182E+06
C:/temp/Job-4.odb,Step-1,Increment      1: Step Time =    1.000,"P-4-1",          2220,       110.126,       47.1113,            0.,NA,NA,"",   1.00525E+06,   1.00765E+06,   1.00765E+06
C:/temp/Job-4.odb,Step-1,Increment      1: Step Time =    1.000,"P-4-1",          2221,       55.2672,       113.909,            0.,NA,NA,"",   961.730E+03,   1.00386E+06,   1.00386E+06
C:/temp/Job-4.odb,Step-1,Increment      1: Step Time =    1.000,"P-4-1",          2222,       88.1231,       146.641,            0.,NA,NA,"",   1.00669E+06,   1.01570E+06,   1.01570E+06
C:/temp/Job-4.odb,Step-1,Increment      1: Step Time =    1.000,"P-4-1",          2223,       78.5019,       147.135,            0.,NA,NA,"",   1.00585E+06,   1.01781E+06,   1.01781E+06
C:/temp/Job-4.odb,Step-1,Increment      1: Step Time =    1.000,"P-4-1",          2224,       57.3515,       129.741,            0.,NA,NA,"",   979.626E+03,   1.01423E+06,   1.01423E+06
C:/temp/Job-4.odb,Step-1,Increment      1: Step Time =    1.000,"P-4-1",          2225,       50.9934,       83.3515,            0.,NA,NA,"",   956.028E+03,   1.00256E+06,   1.00256E+06
C:/temp/Job-4.odb,Step-1,Increment      1: Step Time =    1.000,"P-4-1",          2226,       56.1887,       73.7686,            0.,NA,NA,"",   975.495E+03,   1.01218E+06,   1.01218E+06
C:/temp/Job-4.odb,Step-1,Increment      1: Step Time =    1.000,"P-4-1",          2227,       48.7660,       87.1992,            0.,NA,NA,"",   949.105E+03,   999.028E+03,   999.028E+03
C:/temp/Job-4.odb,Step-1,Increment      1: Step Time =    1.000,"P-4-1",          2228,       48.7729,       92.6873,            0.,NA,NA,"",   945.809E+03,   996.983E+03,   996.983E+03
C:/temp/Job-4.odb,Step-1,Increment      1: Step Time =    1.000,"P-4-1",          2229,       63.0732,       145.920,            0.,NA,NA,"",   997.723E+03,   1.01909E+06,   1.01909E+06
C:/temp/Job-4.odb,Step-1,Increment      1: Step Time =    1.000,"P-4-1",          2230,       150.242,       101.115,            0.,NA,NA,"",   1.00493E+06,   1.00246E+06,   1.00246E+06
C:/temp/Job-4.odb,Step-1,Increment      1: Step Time =    1.000,"P-4-1",          2231,       134.035,       58.7271,            0.,NA,NA,"",   1.01357E+06,   1.01083E+06,   1.01083E+06
C:/temp/Job-4.odb,Step-1,Increment      1: Step Time =    1.000,"P-4-1",          2232,       48.2957,       81.1700,            0.,NA,NA,"",   952.603E+03,   1.00165E+06,   1.00165E+06
C:/temp/Job-4.odb,Step-1,Increment      1: Step Time =    1.000,"P-4-1",          2233,       44.4786,       86.6214,            0.,NA,NA,"",   940.098E+03,   995.483E+03,   995.483E+03
C:/temp/Job-4.odb,Step-1,Increment      1: Step Time =    1.000,"P-4-1",          2234,       71.7082,       149.509,            0.,NA,NA,"",   1.00337E+06,   1.01751E+06,   1.01751E+06
C:/temp/Job-4.odb,Step-1,Increment      1: Step Time =    1.000,"P-4-1",          2235,       101.450,       154.321,            0.,NA,NA,"",   1.00319E+06,   1.00713E+06,   1.00713E+06
C:/temp/Job-4.odb,Step-1,Increment      1: Step Time =    1.000,"P-4-1",          2236,       58.3941,       72.0266,            0.,NA,NA,"",   981.591E+03,   1.01490E+06,   1.01490E+06
C:/temp/Job-4.odb,Step-1,Increment      1: Step Time =    1.000,"P-4-1",          2237,       148.748,       90.0723,            0.,NA,NA,"",   1.00616E+06,   1.00351E+06,   1.00351E+06
C:/temp/Job-4.odb,Step-1,Increment      1: Step Time =    1.000,"P-4-1",          2238,       55.3667,       101.270,            0.,NA,NA,"",   955.380E+03,   999.199E+03,   999.199E+03
C:/temp/Job-4.odb,Step-1,Increment      1: Step Time =    1.000,"P-4-1",          2239,       106.545,       147.153,            0.,NA,NA,"",   1.00738E+06,   1.01152E+06,   1.01152E+06
C:/temp/Job-4.odb,Step-1,Increment      1: Step Time =    1.000,"P-4-1",          2240,       40.9908,       94.9144,            0.,NA,NA,"",   929.082E+03,   989.871E+03,   989.871E+03
C:/temp/Job-4.odb,Step-1,Increment      1: Step Time =    1.000,"P-4-1",          2241,       46.3344,       118.623,            0.,NA,NA,"",   948.298E+03,   999.704E+03,   999.704E+03
C:/temp/Job-4.odb,Step-1,Increment      1: Step Time =    1.000,"P-4-1",          2242,       51.7022,       112.553,            0.,NA,NA,"",   954.325E+03,   1.00095E+06,   1.00095E+06
C:/temp/Job-4.odb,Step-1,Increment      1: Step Time =    1.000,"P-4-1",          2243,       49.4717,       105.880,            0.,NA,NA,"",   946.673E+03,   997.010E+03,   997.010E+03
C:/temp/Job-4.odb,Step-1,Increment      1: Step Time =    1.000,"P-4-1",          2244,       44.6366,       96.1465,            0.,NA,NA,"",   936.734E+03,   993.026E+03,   993.026E+03
C:/temp/Job-4.odb,Step-1,Increment      1: Step Time =    1.000,"P-4-1",          2245,       47.9218,       112.192,            0.,NA,NA,"",   946.840E+03,   998.108E+03,   998.108E+03
