ODB Name,Step,Frame,Part Instance Name,    Node Label,X,Y,Z,Section Name,Material Name,Section Point,       S-Mises,S-Max. In-Plane Principal (Abs),S-Max. Principal (Abs)
C:/temp/Job-6.odb,Step-1,Increment      1: Step Time =    1.000,"P-6-1",             1,       85.0149,       193.811,            0.,NA,NA,"",   144.967E+06,   145.222E+06,   145.222E+06
C:/temp/Job-6.odb,Step-1,Increment      1: Step Time =    1.000,"P-6-1",             2,       70.4050,       190.273,            0.,NA,NA,"",   30.7057E+06,   30.6854E+06,   30.6854E+06
C:/temp/Job-6.odb,Step-1,Increment      1: Step Time =    1.000,"P-6-1",             3,       56.5360,       184.474,            0.,NA,NA,"",   5.54423E+06,  -1.49397E+06,  -1.49397E+06
C:/temp/Job-6.odb,Step-1,Increment      1: Step Time =    1.000,"P-6-1",             4,       43.7554,       176.561,            0.,NA,NA,"",   10.0814E+06,  -10.1229E+06,  -10.1229E+06
C:/temp/Job-6.odb,Step-1,Increment      1: Step Time =    1.000,"P-6-1",             5,       32.3830,       166.730,            0.,NA,NA,"",   9.28879E+06,  -9.37196E+06,  -9.37196E+06
C:/temp/Job-6.odb,Step-1,Increment      1: Step Time =    1.000,"P-6-1",             6,       22.7036,       155.229,            0.,NA,NA,"",   5.96594E+06,  -6.00702E+06,  -6.00702E+06
C:/temp/Job-6.odb,Step-1,Increment      1: Step Time =    1.000,"P-6-1",             7,       14.9595,       142.345,            0.,NA,NA,"",   2.42398E+06,  -2.47391E+06,  -2.47391E+06
C:/temp/Job-6.odb,Step-1,Increment      1: Step Time =    1.000,"P-6-1",             8,       9.34467,       128.401,            0.,NA,NA,"",   932.947E+03,  -934.239E+03,  -934.239E+03
C:/temp/Job-6.odb,Step-1,Increment      1: Step Time =    1.000,"P-6-1",             9,       5.99968,       113.746,            0.,NA,NA,"",   187.885E+03,  -184.347E+03,  -184.347E+03
C:/temp/Job-6.odb,Step-1,Increment      1: Step Time =    1.000,"P-6-1",            10,       5.00828,       98.7460,            0.,NA,NA,"",   19.2078E+03,  -20.6713E+03,  -20.6713E+03
C:/temp/Job-6.odb,Step-1,Increment      1: Step Time =    1.000,"P-6-1",            11,       6.39528,       83.7779,            0.,NA,NA,"",   390.532E+03,  -385.651E+03,  -385.651E+03
C:/temp/Job-6.odb,Step-1,Increment      1: Step Time =    1.000,"P-6-1",            12,       10.1260,       69.2160,            0.,NA,NA,"",   1.48373E+06,  -1.48235E+06,  -1.48235E+06
C:/temp/Job-6.odb,Step-1,Increment      1: Step Time =    1.000,"P-6-1",            13,       16.1069,       55.4248,            0.,NA,NA,"",   3.84232E+06,  -3.90998E+06,  -3.90998E+06
C:/temp/Job-6.odb,Step-1,Increment      1: Step Time =    1.000,"P-6-1",            14,       24.1884,       42.7497,            0.,NA,NA,"",   9.44258E+06,  -9.51530E+06,  -9.51530E+06
C:/temp/Job-6.odb,Step-1,Increment      1: Step Time =    1.000,"P-6-1",            15,       34.1680,       31.5080,            0.,NA,NA,"",   16.8360E+06,  -16.9767E+06,  -16.9767E+06
C:/temp/Job-6.odb,Step-1,Increment      1: Step Time =    1.000,"P-6-1",            16,       45.7959,       21.9813,            0.,NA,NA,"",   26.8383E+06,  -26.8795E+06,  -26.8795E+06
C:/temp/Job-6.odb,Step-1,Increment      1: Step Time =    1.000,"P-6-1",            17,       58.7810,       14.4080,            0.,NA,NA,"",   34.6073E+06,  -35.2074E+06,  -35.2074E+06
C:/temp/Job-6.odb,Step-1,Increment      1: Step Time =    1.000,"P-6-1",            18,       72.7982,       8.97769,            0.,NA,NA,"",   61.9175E+06,  -55.2396E+06,  -55.2396E+06
C:/temp/Job-6.odb,Step-1,Increment      1: Step Time =    1.000,"P-6-1",            19,       87.4964,       5.82644,            0.,NA,NA,"",   22.8252E+06,   -835.94E+03,   -835.94E+03
C:/temp/Job-6.odb,Step-1,Increment      1: Step Time =    1.000,"P-6-1",            20,       102.508,       5.03310,            0.,NA,NA,"",   20.5251E+06,   17.6477E+06,   17.6477E+06
C:/temp/Job-6.odb,Step-1,Increment      1: Step Time =    1.000,"P-6-1",            21,       112.504,       5.82644,            0.,NA,NA,"",   37.4450E+06,   37.2853E+06,   37.2853E+06
C:/temp/Job-6.odb,Step-1,Increment      1: Step Time =    1.000,"P-6-1",            22,       127.202,       8.97769,            0.,NA,NA,"",   55.6704E+06,   58.2888E+06,   58.2888E+06
C:/temp/Job-6.odb,Step-1,Increment      1: Step Time =    1.000,"P-6-1",            23,       141.219,       14.4080,            0.,NA,NA,"",   34.3708E+06,   33.3943E+06,   33.3943E+06
C:/temp/Job-6.odb,Step-1,Increment      1: Step Time =    1.000,"P-6-1",            24,       154.204,       21.9813,            0.,NA,NA,"",   18.3149E+06,   18.5000E+06,   18.5000E+06
C:/temp/Job-6.odb,Step-1,Increment      1: Step Time =    1.000,"P-6-1",            25,       165.832,       31.5080,            0.,NA,NA,"",   11.2231E+06,   11.2287E+06,   11.2287E+06
C:/temp/Job-6.odb,Step-1,Increment      1: Step Time =    1.000,"P-6-1",            26,       175.812,       42.7497,            0.,NA,NA,"",   10.3081E+06,   10.3095E+06,   10.3095E+06
C:/temp/Job-6.odb,Step-1,Increment      1: Step Time =    1.000,"P-6-1",            27,       183.893,       55.4248,            0.,NA,NA,"",   10.9271E+06,   11.0175E+06,   11.0175E+06
C:/temp/Job-6.odb,Step-1,Increment      1: Step Time =    1.000,"P-6-1",            28,       189.874,       69.2160,            0.,NA,NA,"",   9.07033E+06,   9.10255E+06,   9.10255E+06
C:/temp/Job-6.odb,Step-1,Increment      1: Step Time =    1.000,"P-6-1",            29,       193.605,       83.7779,            0.,NA,NA,"",   6.40815E+06,   6.45857E+06,   6.45857E+06
C:/temp/Job-6.odb,Step-1,Increment      1: Step Time =    1.000,"P-6-1",            30,       194.992,       98.7460,            0.,NA,NA,"",   7.53655E+06,   7.70209E+06,   7.70209E+06
C:/temp/Job-6.odb,Step-1,Increment      1: Step Time =    1.000,"P-6-1",            31,       194.000,       113.746,            0.,NA,NA,"",   27.9463E+06,   27.7712E+06,   27.7712E+06
C:/temp/Job-6.odb,Step-1,Increment      1: Step Time =    1.000,"P-6-1",            32,       190.655,       128.401,            0.,NA,NA,"",   32.2041E+06,   32.5289E+06,   32.5289E+06
C:/temp/Job-6.odb,Step-1,Increment      1: Step Time =    1.000,"P-6-1",            33,       185.041,       142.345,            0.,NA,NA,"",   27.8650E+06,   27.5569E+06,   27.5569E+06
C:/temp/Job-6.odb,Step-1,Increment      1: Step Time =    1.000,"P-6-1",            34,       177.296,       155.229,            0.,NA,NA,"",   19.5797E+06,   19.8512E+06,   19.8512E+06
C:/temp/Job-6.odb,Step-1,Increment      1: Step Time =    1.000,"P-6-1",            35,       167.617,       166.730,            0.,NA,NA,"",   19.0027E+06,   19.3486E+06,   19.3486E+06
C:/temp/Job-6.odb,Step-1,Increment      1: Step Time =    1.000,"P-6-1",            36,       156.245,       176.561,            0.,NA,NA,"",   31.1550E+06,   31.3874E+06,   31.3874E+06
C:/temp/Job-6.odb,Step-1,Increment      1: Step Time =    1.000,"P-6-1",            37,       143.464,       184.474,            0.,NA,NA,"",   60.9200E+06,   61.6047E+06,   61.6047E+06
C:/temp/Job-6.odb,Step-1,Increment      1: Step Time =    1.000,"P-6-1",            38,       129.595,       190.273,            0.,NA,NA,"",   130.942E+06,   132.747E+06,   132.747E+06
C:/temp/Job-6.odb,Step-1,Increment      1: Step Time =    1.000,"P-6-1",            39,       114.985,       193.811,            0.,NA,NA,"",   267.347E+06,   268.497E+06,   268.497E+06
C:/temp/Job-6.odb,Step-1,Increment      1: Step Time =    1.000,"P-6-1",            40,          100.,          195.,            0.,NA,NA,"",   312.155E+06,   313.103E+06,   313.103E+06
C:/temp/Job-6.odb,Step-1,Increment      1: Step Time =    1.000,"P-6-1",            41,          190.,            0.,            0.,NA,NA,"",   1.09803E+06,  -230.843E+03,  -230.843E+03
C:/temp/Job-6.odb,Step-1,Increment      1: Step Time =    1.000,"P-6-1",            42,          180.,            0.,            0.,NA,NA,"",   3.12912E+06,  -3.06278E+06,  -3.06278E+06
C:/temp/Job-6.odb,Step-1,Increment      1: Step Time =    1.000,"P-6-1",            43,          170.,            0.,            0.,NA,NA,"",   5.93937E+06,  -6.03362E+06,  -6.03362E+06
C:/temp/Job-6.odb,Step-1,Increment      1: Step Time =    1.000,"P-6-1",            44,          160.,            0.,            0.,NA,NA,"",   10.4842E+06,  -10.3101E+06,  -10.3101E+06
C:/temp/Job-6.odb,Step-1,Increment      1: Step Time =    1.000,"P-6-1",            45,          150.,            0.,            0.,NA,NA,"",   18.4115E+06,  -17.9592E+06,  -17.9592E+06
C:/temp/Job-6.odb,Step-1,Increment      1: Step Time =    1.000,"P-6-1",            46,          140.,            0.,            0.,NA,NA,"",   23.0024E+06,  -21.3835E+06,  -21.3835E+06
C:/temp/Job-6.odb,Step-1,Increment      1: Step Time =    1.000,"P-6-1",            47,          130.,            0.,            0.,NA,NA,"",   35.1871E+06,  -35.1909E+06,  -35.1909E+06
C:/temp/Job-6.odb,Step-1,Increment      1: Step Time =    1.000,"P-6-1",            48,          120.,            0.,            0.,NA,NA,"",   63.5950E+06,  -56.7342E+06,  -56.7342E+06
C:/temp/Job-6.odb,Step-1,Increment      1: Step Time =    1.000,"P-6-1",            49,          110.,            0.,            0.,NA,NA,"",   19.8110E+06,   17.1409E+06,   17.1409E+06
C:/temp/Job-6.odb,Step-1,Increment      1: Step Time =    1.000,"P-6-1",            50,          100.,            0.,            0.,NA,NA,"",   21.5186E+06,   17.5501E+06,   17.5501E+06
C:/temp/Job-6.odb,Step-1,Increment      1: Step Time =    1.000,"P-6-1",            51,           90.,            0.,            0.,NA,NA,"",   22.8252E+06,   -835.94E+03,   -835.94E+03
C:/temp/Job-6.odb,Step-1,Increment      1: Step Time =    1.000,"P-6-1",            52,           80.,            0.,            0.,NA,NA,"",   77.6834E+06,   69.2168E+06,   69.2168E+06
C:/temp/Job-6.odb,Step-1,Increment      1: Step Time =    1.000,"P-6-1",            53,           70.,            0.,            0.,NA,NA,"",   59.0246E+06,   62.4481E+06,   62.4481E+06
C:/temp/Job-6.odb,Step-1,Increment      1: Step Time =    1.000,"P-6-1",            54,           60.,            0.,            0.,NA,NA,"",   59.5385E+06,   57.3793E+06,   57.3793E+06
C:/temp/Job-6.odb,Step-1,Increment      1: Step Time =    1.000,"P-6-1",            55,           50.,            0.,            0.,NA,NA,"",   41.3857E+06,   41.2578E+06,   41.2578E+06
C:/temp/Job-6.odb,Step-1,Increment      1: Step Time =    1.000,"P-6-1",            56,           40.,            0.,            0.,NA,NA,"",   31.5313E+06,   31.4474E+06,   31.4474E+06
C:/temp/Job-6.odb,Step-1,Increment      1: Step Time =    1.000,"P-6-1",            57,           30.,            0.,            0.,NA,NA,"",   24.5461E+06,   24.5605E+06,   24.5605E+06
C:/temp/Job-6.odb,Step-1,Increment      1: Step Time =    1.000,"P-6-1",            58,           20.,            0.,            0.,NA,NA,"",   19.4316E+06,   19.4182E+06,   19.4182E+06
C:/temp/Job-6.odb,Step-1,Increment      1: Step Time =    1.000,"P-6-1",            59,           10.,            0.,            0.,NA,NA,"",   16.1966E+06,   16.1641E+06,   16.1641E+06
C:/temp/Job-6.odb,Step-1,Increment      1: Step Time =    1.000,"P-6-1",            60,          200.,            0.,            0.,NA,NA,"",   980.491E+03,   873.015E+03,   873.015E+03
C:/temp/Job-6.odb,Step-1,Increment      1: Step Time =    1.000,"P-6-1",            61,            0.,            0.,            0.,NA,NA,"",   14.7941E+06,   15.5261E+06,   15.5261E+06
C:/temp/Job-6.odb,Step-1,Increment      1: Step Time =    1.000,"P-6-1",            62,          200.,          190.,            0.,NA,NA,"",   3.23259E+06,  -2.53135E+06,  -2.53135E+06
C:/temp/Job-6.odb,Step-1,Increment      1: Step Time =    1.000,"P-6-1",            63,          200.,          180.,            0.,NA,NA,"",   8.04146E+06,  -7.33073E+06,  -7.33073E+06
C:/temp/Job-6.odb,Step-1,Increment      1: Step Time =    1.000,"P-6-1",            64,          200.,          170.,            0.,NA,NA,"",   12.4214E+06,  -11.8449E+06,  -11.8449E+06
C:/temp/Job-6.odb,Step-1,Increment      1: Step Time =    1.000,"P-6-1",            65,          200.,          160.,            0.,NA,NA,"",   15.8003E+06,  -15.2097E+06,  -15.2097E+06
C:/temp/Job-6.odb,Step-1,Increment      1: Step Time =    1.000,"P-6-1",            66,          200.,          150.,            0.,NA,NA,"",   17.8185E+06,  -17.2756E+06,  -17.2756E+06
C:/temp/Job-6.odb,Step-1,Increment      1: Step Time =    1.000,"P-6-1",            67,          200.,          140.,            0.,NA,NA,"",   19.1462E+06,  -18.6592E+06,  -18.6592E+06
C:/temp/Job-6.odb,Step-1,Increment      1: Step Time =    1.000,"P-6-1",            68,          200.,          130.,            0.,NA,NA,"",   21.8814E+06,  -21.0759E+06,  -21.0759E+06
C:/temp/Job-6.odb,Step-1,Increment      1: Step Time =    1.000,"P-6-1",            69,          200.,          120.,            0.,NA,NA,"",   21.0376E+06,  -20.2358E+06,  -20.2358E+06
C:/temp/Job-6.odb,Step-1,Increment      1: Step Time =    1.000,"P-6-1",            70,          200.,          110.,            0.,NA,NA,"",   15.1600E+06,  -14.8861E+06,  -14.8861E+06
C:/temp/Job-6.odb,Step-1,Increment      1: Step Time =    1.000,"P-6-1",            71,          200.,          100.,            0.,NA,NA,"",   7.53655E+06,   7.70209E+06,   7.70209E+06
C:/temp/Job-6.odb,Step-1,Increment      1: Step Time =    1.000,"P-6-1",            72,          200.,           90.,            0.,NA,NA,"",   6.84183E+06,   6.99146E+06,   6.99146E+06
C:/temp/Job-6.odb,Step-1,Increment      1: Step Time =    1.000,"P-6-1",            73,          200.,           80.,            0.,NA,NA,"",   6.02406E+06,   6.16598E+06,   6.16598E+06
C:/temp/Job-6.odb,Step-1,Increment      1: Step Time =    1.000,"P-6-1",            74,          200.,           70.,            0.,NA,NA,"",   3.17350E+06,   2.79046E+06,   2.79046E+06
C:/temp/Job-6.odb,Step-1,Increment      1: Step Time =    1.000,"P-6-1",            75,          200.,           60.,            0.,NA,NA,"",   3.87072E+06,  -3.17029E+06,  -3.17029E+06
C:/temp/Job-6.odb,Step-1,Increment      1: Step Time =    1.000,"P-6-1",            76,          200.,           50.,            0.,NA,NA,"",   5.41257E+06,  -4.78903E+06,  -4.78903E+06
C:/temp/Job-6.odb,Step-1,Increment      1: Step Time =    1.000,"P-6-1",            77,          200.,           40.,            0.,NA,NA,"",   6.16343E+06,  -5.57846E+06,  -5.57846E+06
C:/temp/Job-6.odb,Step-1,Increment      1: Step Time =    1.000,"P-6-1",            78,          200.,           30.,            0.,NA,NA,"",   5.64311E+06,  -5.03166E+06,  -5.03166E+06
C:/temp/Job-6.odb,Step-1,Increment      1: Step Time =    1.000,"P-6-1",            79,          200.,           20.,            0.,NA,NA,"",   4.09160E+06,  -3.40612E+06,  -3.40612E+06
C:/temp/Job-6.odb,Step-1,Increment      1: Step Time =    1.000,"P-6-1",            80,          200.,           10.,            0.,NA,NA,"",   1.94452E+06,  -362.478E+03,  -362.478E+03
C:/temp/Job-6.odb,Step-1,Increment      1: Step Time =    1.000,"P-6-1",            81,          200.,          200.,            0.,NA,NA,"",   995.098E+03,   815.233E+03,   815.233E+03
C:/temp/Job-6.odb,Step-1,Increment      1: Step Time =    1.000,"P-6-1",            82,           10.,          200.,            0.,NA,NA,"",   12.4224E+06,   12.4118E+06,   12.4118E+06
C:/temp/Job-6.odb,Step-1,Increment      1: Step Time =    1.000,"P-6-1",            83,           20.,          200.,            0.,NA,NA,"",   13.8058E+06,   13.7991E+06,   13.7991E+06
C:/temp/Job-6.odb,Step-1,Increment      1: Step Time =    1.000,"P-6-1",            84,           30.,          200.,            0.,NA,NA,"",   15.5212E+06,   15.5270E+06,   15.5270E+06
C:/temp/Job-6.odb,Step-1,Increment      1: Step Time =    1.000,"P-6-1",            85,           40.,          200.,            0.,NA,NA,"",   17.2272E+06,   17.1758E+06,   17.1758E+06
C:/temp/Job-6.odb,Step-1,Increment      1: Step Time =    1.000,"P-6-1",            86,           50.,          200.,            0.,NA,NA,"",   16.9847E+06,   16.9544E+06,   16.9544E+06
C:/temp/Job-6.odb,Step-1,Increment      1: Step Time =    1.000,"P-6-1",            87,           60.,          200.,            0.,NA,NA,"",   12.6206E+06,   12.0549E+06,   12.0549E+06
C:/temp/Job-6.odb,Step-1,Increment      1: Step Time =    1.000,"P-6-1",            88,           70.,          200.,            0.,NA,NA,"",   14.4864E+06,  -12.4881E+06,  -12.4881E+06
C:/temp/Job-6.odb,Step-1,Increment      1: Step Time =    1.000,"P-6-1",            89,           80.,          200.,            0.,NA,NA,"",   62.7889E+06,  -61.5481E+06,  -61.5481E+06
C:/temp/Job-6.odb,Step-1,Increment      1: Step Time =    1.000,"P-6-1",            90,           90.,          200.,            0.,NA,NA,"",   161.168E+06,  -160.065E+06,  -160.065E+06
C:/temp/Job-6.odb,Step-1,Increment      1: Step Time =    1.000,"P-6-1",            91,          100.,          200.,            0.,NA,NA,"",   256.150E+06,  -254.955E+06,  -254.955E+06
C:/temp/Job-6.odb,Step-1,Increment      1: Step Time =    1.000,"P-6-1",            92,          110.,          200.,            0.,NA,NA,"",   254.182E+06,  -253.052E+06,  -253.052E+06
C:/temp/Job-6.odb,Step-1,Increment      1: Step Time =    1.000,"P-6-1",            93,          120.,          200.,            0.,NA,NA,"",   176.999E+06,  -176.014E+06,  -176.014E+06
C:/temp/Job-6.odb,Step-1,Increment      1: Step Time =    1.000,"P-6-1",            94,          130.,          200.,            0.,NA,NA,"",   103.572E+06,  -104.542E+06,  -104.542E+06
C:/temp/Job-6.odb,Step-1,Increment      1: Step Time =    1.000,"P-6-1",            95,          140.,          200.,            0.,NA,NA,"",   68.2161E+06,  -67.5986E+06,  -67.5986E+06
C:/temp/Job-6.odb,Step-1,Increment      1: Step Time =    1.000,"P-6-1",            96,          150.,          200.,            0.,NA,NA,"",   40.5686E+06,  -40.7044E+06,  -40.7044E+06
C:/temp/Job-6.odb,Step-1,Increment      1: Step Time =    1.000,"P-6-1",            97,          160.,          200.,            0.,NA,NA,"",   23.8286E+06,  -23.7748E+06,  -23.7748E+06
C:/temp/Job-6.odb,Step-1,Increment      1: Step Time =    1.000,"P-6-1",            98,          170.,          200.,            0.,NA,NA,"",   14.5911E+06,  -14.4365E+06,  -14.4365E+06
C:/temp/Job-6.odb,Step-1,Increment      1: Step Time =    1.000,"P-6-1",            99,          180.,          200.,            0.,NA,NA,"",   7.32360E+06,  -7.12134E+06,  -7.12134E+06
C:/temp/Job-6.odb,Step-1,Increment      1: Step Time =    1.000,"P-6-1",           100,          190.,          200.,            0.,NA,NA,"",   2.29264E+06,  -2.01608E+06,  -2.01608E+06
C:/temp/Job-6.odb,Step-1,Increment      1: Step Time =    1.000,"P-6-1",           101,            0.,          200.,            0.,NA,NA,"",   12.2414E+06,   12.8524E+06,   12.8524E+06
C:/temp/Job-6.odb,Step-1,Increment      1: Step Time =    1.000,"P-6-1",           102,            0.,           10.,            0.,NA,NA,"",   8.97832E+06,   9.81957E+06,   9.81957E+06
C:/temp/Job-6.odb,Step-1,Increment      1: Step Time =    1.000,"P-6-1",           103,            0.,           20.,            0.,NA,NA,"",   3.14824E+06,   3.33512E+06,   3.33512E+06
C:/temp/Job-6.odb,Step-1,Increment      1: Step Time =    1.000,"P-6-1",           104,            0.,           30.,            0.,NA,NA,"",   2.20181E+06,  -2.20286E+06,  -2.20286E+06
C:/temp/Job-6.odb,Step-1,Increment      1: Step Time =    1.000,"P-6-1",           105,            0.,           40.,            0.,NA,NA,"",   4.19977E+06,  -4.33467E+06,  -4.33467E+06
C:/temp/Job-6.odb,Step-1,Increment      1: Step Time =    1.000,"P-6-1",           106,            0.,           50.,            0.,NA,NA,"",   4.01875E+06,  -4.01824E+06,  -4.01824E+06
C:/temp/Job-6.odb,Step-1,Increment      1: Step Time =    1.000,"P-6-1",           107,            0.,           60.,            0.,NA,NA,"",   2.74381E+06,  -2.59979E+06,  -2.59979E+06
C:/temp/Job-6.odb,Step-1,Increment      1: Step Time =    1.000,"P-6-1",           108,            0.,           70.,            0.,NA,NA,"",   1.36156E+06,  -1.23510E+06,  -1.23510E+06
C:/temp/Job-6.odb,Step-1,Increment      1: Step Time =    1.000,"P-6-1",           109,            0.,           80.,            0.,NA,NA,"",   551.311E+03,  -502.989E+03,  -502.989E+03
C:/temp/Job-6.odb,Step-1,Increment      1: Step Time =    1.000,"P-6-1",           110,            0.,           90.,            0.,NA,NA,"",   147.980E+03,  -148.837E+03,  -148.837E+03
C:/temp/Job-6.odb,Step-1,Increment      1: Step Time =    1.000,"P-6-1",           111,            0.,          100.,            0.,NA,NA,"",   19.2078E+03,  -20.6713E+03,  -20.6713E+03
C:/temp/Job-6.odb,Step-1,Increment      1: Step Time =    1.000,"P-6-1",           112,            0.,          110.,            0.,NA,NA,"",   86.1560E+03,  -86.3844E+03,  -86.3844E+03
C:/temp/Job-6.odb,Step-1,Increment      1: Step Time =    1.000,"P-6-1",           113,            0.,          120.,            0.,NA,NA,"",   411.090E+03,  -357.257E+03,  -357.257E+03
C:/temp/Job-6.odb,Step-1,Increment      1: Step Time =    1.000,"P-6-1",           114,            0.,          130.,            0.,NA,NA,"",   1.04558E+06,  -963.968E+03,  -963.968E+03
C:/temp/Job-6.odb,Step-1,Increment      1: Step Time =    1.000,"P-6-1",           115,            0.,          140.,            0.,NA,NA,"",   2.06740E+06,  -1.95265E+06,  -1.95265E+06
C:/temp/Job-6.odb,Step-1,Increment      1: Step Time =    1.000,"P-6-1",           116,            0.,          150.,            0.,NA,NA,"",   2.76657E+06,  -2.74267E+06,  -2.74267E+06
C:/temp/Job-6.odb,Step-1,Increment      1: Step Time =    1.000,"P-6-1",           117,            0.,          160.,            0.,NA,NA,"",   2.51870E+06,  -2.56527E+06,  -2.56527E+06
C:/temp/Job-6.odb,Step-1,Increment      1: Step Time =    1.000,"P-6-1",           118,            0.,          170.,            0.,NA,NA,"",   875.056E+03,  -496.144E+03,  -496.144E+03
C:/temp/Job-6.odb,Step-1,Increment      1: Step Time =    1.000,"P-6-1",           119,            0.,          180.,            0.,NA,NA,"",   2.79163E+06,   3.12939E+06,   3.12939E+06
C:/temp/Job-6.odb,Step-1,Increment      1: Step Time =    1.000,"P-6-1",           120,            0.,          190.,            0.,NA,NA,"",   7.37427E+06,   8.13845E+06,   8.13845E+06
C:/temp/Job-6.odb,Step-1,Increment      1: Step Time =    1.000,"P-6-1",           121,       9.84531,       189.848,            0.,NA,NA,"",   8.29419E+06,   8.57009E+06,   8.57009E+06
C:/temp/Job-6.odb,Step-1,Increment      1: Step Time =    1.000,"P-6-1",           122,       20.1435,       188.232,            0.,NA,NA,"",   7.12244E+06,   7.17057E+06,   7.17057E+06
C:/temp/Job-6.odb,Step-1,Increment      1: Step Time =    1.000,"P-6-1",           123,       30.5823,       189.859,            0.,NA,NA,"",   8.32924E+06,   8.20170E+06,   8.20170E+06
C:/temp/Job-6.odb,Step-1,Increment      1: Step Time =    1.000,"P-6-1",           124,       39.5183,       191.064,            0.,NA,NA,"",   8.93051E+06,   8.60566E+06,   8.60566E+06
C:/temp/Job-6.odb,Step-1,Increment      1: Step Time =    1.000,"P-6-1",           125,       49.2433,       187.900,            0.,NA,NA,"",   7.22296E+06,   6.04490E+03,   6.04490E+03
C:/temp/Job-6.odb,Step-1,Increment      1: Step Time =    1.000,"P-6-1",           126,       146.229,       188.782,            0.,NA,NA,"",   37.6510E+06,   37.1065E+06,   37.1065E+06
C:/temp/Job-6.odb,Step-1,Increment      1: Step Time =    1.000,"P-6-1",           127,       161.096,       191.997,            0.,NA,NA,"",   12.2711E+06,  -10.1009E+06,  -10.1009E+06
C:/temp/Job-6.odb,Step-1,Increment      1: Step Time =    1.000,"P-6-1",           128,       169.776,       192.152,            0.,NA,NA,"",    9.1985E+06,  -7.68391E+06,  -7.68391E+06
C:/temp/Job-6.odb,Step-1,Increment      1: Step Time =    1.000,"P-6-1",           129,       179.185,       188.969,            0.,NA,NA,"",   7.72058E+06,  -3.47488E+06,  -3.47488E+06
C:/temp/Job-6.odb,Step-1,Increment      1: Step Time =    1.000,"P-6-1",           130,       189.939,       189.753,            0.,NA,NA,"",   5.76333E+06,  -4.20729E+06,  -4.20729E+06
C:/temp/Job-6.odb,Step-1,Increment      1: Step Time =    1.000,"P-6-1",           131,       164.571,       181.393,            0.,NA,NA,"",   14.1840E+06,   14.3970E+06,   14.3970E+06
C:/temp/Job-6.odb,Step-1,Increment      1: Step Time =    1.000,"P-6-1",           132,       190.184,       179.469,            0.,NA,NA,"",   7.37894E+06,  -5.13965E+06,  -5.13965E+06
C:/temp/Job-6.odb,Step-1,Increment      1: Step Time =    1.000,"P-6-1",           133,       177.629,       169.796,            0.,NA,NA,"",   8.19362E+06,   9.00743E+06,   9.00743E+06
C:/temp/Job-6.odb,Step-1,Increment      1: Step Time =    1.000,"P-6-1",           134,       190.914,       169.945,            0.,NA,NA,"",   6.70675E+06,  -3.59492E+06,  -3.59492E+06
C:/temp/Job-6.odb,Step-1,Increment      1: Step Time =    1.000,"P-6-1",           135,       191.230,       161.470,            0.,NA,NA,"",   5.51902E+06,  -3.77819E+06,  -3.77819E+06
C:/temp/Job-6.odb,Step-1,Increment      1: Step Time =    1.000,"P-6-1",           136,       188.449,       148.263,            0.,NA,NA,"",   12.1374E+06,   12.3618E+06,   12.3618E+06
C:/temp/Job-6.odb,Step-1,Increment      1: Step Time =    1.000,"P-6-1",           137,       190.234,       51.9336,            0.,NA,NA,"",   4.48817E+06,   4.57025E+06,   4.57025E+06
C:/temp/Job-6.odb,Step-1,Increment      1: Step Time =    1.000,"P-6-1",           138,       190.581,       39.1333,            0.,NA,NA,"",   2.73918E+06,   451.884E+03,   451.884E+03
C:/temp/Job-6.odb,Step-1,Increment      1: Step Time =    1.000,"P-6-1",           139,       180.407,       33.4162,            0.,NA,NA,"",   4.98625E+06,   5.38582E+06,   5.38582E+06
C:/temp/Job-6.odb,Step-1,Increment      1: Step Time =    1.000,"P-6-1",           140,       190.474,       31.3390,            0.,NA,NA,"",   2.74033E+06,   90.0494E+03,   90.0494E+03
C:/temp/Job-6.odb,Step-1,Increment      1: Step Time =    1.000,"P-6-1",           141,       157.556,       18.8880,            0.,NA,NA,"",   15.4610E+06,   15.2979E+06,   15.2979E+06
C:/temp/Job-6.odb,Step-1,Increment      1: Step Time =    1.000,"P-6-1",           142,       170.230,       21.2758,            0.,NA,NA,"",   6.94846E+06,   6.90466E+06,   6.90466E+06
C:/temp/Job-6.odb,Step-1,Increment      1: Step Time =    1.000,"P-6-1",           143,       179.275,       17.9688,            0.,NA,NA,"",   4.30120E+06,   3.70471E+06,   3.70471E+06
C:/temp/Job-6.odb,Step-1,Increment      1: Step Time =    1.000,"P-6-1",           144,       191.201,       21.5696,            0.,NA,NA,"",   3.30140E+06,  -286.750E+03,  -286.750E+03
C:/temp/Job-6.odb,Step-1,Increment      1: Step Time =    1.000,"P-6-1",           145,       144.794,       9.70532,            0.,NA,NA,"",   21.2974E+06,   12.0066E+06,   12.0066E+06
C:/temp/Job-6.odb,Step-1,Increment      1: Step Time =    1.000,"P-6-1",           146,       159.378,       8.03734,            0.,NA,NA,"",   10.4020E+06,  -532.636E+03,  -532.636E+03
C:/temp/Job-6.odb,Step-1,Increment      1: Step Time =    1.000,"P-6-1",           147,       168.875,       8.72934,            0.,NA,NA,"",   7.86276E+06,  -1.43609E+06,  -1.43609E+06
C:/temp/Job-6.odb,Step-1,Increment      1: Step Time =    1.000,"P-6-1",           148,       178.278,       9.14200,            0.,NA,NA,"",   3.88488E+06,  -707.988E+03,  -707.988E+03
C:/temp/Job-6.odb,Step-1,Increment      1: Step Time =    1.000,"P-6-1",           149,       188.479,       11.7143,            0.,NA,NA,"",   3.18068E+06,  -342.172E+03,  -342.172E+03
C:/temp/Job-6.odb,Step-1,Increment      1: Step Time =    1.000,"P-6-1",           150,       55.4810,       9.83075,            0.,NA,NA,"",   19.9788E+06,  -12.2047E+06,  -12.2047E+06
C:/temp/Job-6.odb,Step-1,Increment      1: Step Time =    1.000,"P-6-1",           151,       39.7766,       9.33333,            0.,NA,NA,"",   11.9511E+06,   11.4641E+06,   11.4641E+06
C:/temp/Job-6.odb,Step-1,Increment      1: Step Time =    1.000,"P-6-1",           152,       29.5503,       9.42278,            0.,NA,NA,"",   12.6744E+06,   12.5243E+06,   12.5243E+06
C:/temp/Job-6.odb,Step-1,Increment      1: Step Time =    1.000,"P-6-1",           153,       21.2910,       8.28186,            0.,NA,NA,"",   13.3198E+06,   13.3276E+06,   13.3276E+06
C:/temp/Job-6.odb,Step-1,Increment      1: Step Time =    1.000,"P-6-1",           154,       11.9353,       11.3802,            0.,NA,NA,"",   9.29578E+06,   9.51910E+06,   9.51910E+06
C:/temp/Job-6.odb,Step-1,Increment      1: Step Time =    1.000,"P-6-1",           155,       43.0401,       18.5509,            0.,NA,NA,"",   18.6128E+06,  -18.8194E+06,  -18.8194E+06
C:/temp/Job-6.odb,Step-1,Increment      1: Step Time =    1.000,"P-6-1",           156,       31.3209,       20.5237,            0.,NA,NA,"",   6.85716E+06,  -6.83272E+06,  -6.83272E+06
C:/temp/Job-6.odb,Step-1,Increment      1: Step Time =    1.000,"P-6-1",           157,       9.53993,       21.4316,            0.,NA,NA,"",   2.33604E+06,   2.36499E+06,   2.36499E+06
C:/temp/Job-6.odb,Step-1,Increment      1: Step Time =    1.000,"P-6-1",           158,       21.5689,       33.6785,            0.,NA,NA,"",   8.40245E+06,  -8.28626E+06,  -8.28626E+06
C:/temp/Job-6.odb,Step-1,Increment      1: Step Time =    1.000,"P-6-1",           159,       11.6844,       31.5356,            0.,NA,NA,"",   4.98079E+06,  -4.38938E+06,  -4.38938E+06
C:/temp/Job-6.odb,Step-1,Increment      1: Step Time =    1.000,"P-6-1",           160,       6.99980,       44.7930,            0.,NA,NA,"",   4.82275E+06,  -4.78483E+06,  -4.78483E+06
C:/temp/Job-6.odb,Step-1,Increment      1: Step Time =    1.000,"P-6-1",           161,       10.7954,       53.1113,            0.,NA,NA,"",   3.87382E+06,  -3.91414E+06,  -3.91414E+06
C:/temp/Job-6.odb,Step-1,Increment      1: Step Time =    1.000,"P-6-1",           162,       9.85153,       144.697,            0.,NA,NA,"",   2.48894E+06,  -2.50746E+06,  -2.50746E+06
C:/temp/Job-6.odb,Step-1,Increment      1: Step Time =    1.000,"P-6-1",           163,       7.94770,       160.141,            0.,NA,NA,"",   3.30363E+06,  -3.14091E+06,  -3.14091E+06
C:/temp/Job-6.odb,Step-1,Increment      1: Step Time =    1.000,"P-6-1",           164,       19.2016,       165.277,            0.,NA,NA,"",   4.67444E+06,  -4.56393E+06,  -4.56393E+06
C:/temp/Job-6.odb,Step-1,Increment      1: Step Time =    1.000,"P-6-1",           165,       9.41773,       169.585,            0.,NA,NA,"",   1.91322E+06,  -1.11583E+06,  -1.11583E+06
C:/temp/Job-6.odb,Step-1,Increment      1: Step Time =    1.000,"P-6-1",           166,       27.2867,       179.264,            0.,NA,NA,"",   2.13670E+06,  -688.454E+03,  -688.454E+03
C:/temp/Job-6.odb,Step-1,Increment      1: Step Time =    1.000,"P-6-1",           167,       18.0042,       177.607,            0.,NA,NA,"",   1.70777E+06,   855.770E+03,   855.770E+03
C:/temp/Job-6.odb,Step-1,Increment      1: Step Time =    1.000,"P-6-1",           168,       10.3526,       179.277,            0.,NA,NA,"",   2.12768E+06,   2.37171E+06,   2.37171E+06
C:/temp/Job-6.odb,Step-1,Increment      1: Step Time =    1.000,"P-6-1",           169,       94.9863,       194.868,            0.,NA,NA,"",   268.312E+06,   269.027E+06,   269.027E+06
C:/temp/Job-6.odb,Step-1,Increment      1: Step Time =    1.000,"P-6-1",           170,       89.9867,       194.471,            0.,NA,NA,"",   207.030E+06,   207.528E+06,   207.528E+06
C:/temp/Job-6.odb,Step-1,Increment      1: Step Time =    1.000,"P-6-1",           171,       80.0849,       192.889,            0.,NA,NA,"",   93.4310E+06,   93.5091E+06,   93.5091E+06
C:/temp/Job-6.odb,Step-1,Increment      1: Step Time =    1.000,"P-6-1",           172,       75.2104,       191.709,            0.,NA,NA,"",   56.0603E+06,   55.8110E+06,   55.8110E+06
C:/temp/Job-6.odb,Step-1,Increment      1: Step Time =    1.000,"P-6-1",           173,       65.6820,       188.585,            0.,NA,NA,"",   14.3880E+06,   13.9155E+06,   13.9155E+06
C:/temp/Job-6.odb,Step-1,Increment      1: Step Time =    1.000,"P-6-1",           174,       61.0548,       186.650,            0.,NA,NA,"",   6.96809E+06,   4.98440E+06,   4.98440E+06
C:/temp/Job-6.odb,Step-1,Increment      1: Step Time =    1.000,"P-6-1",           175,       52.1385,       182.063,            0.,NA,NA,"",   7.18708E+06,  -7.08030E+06,  -7.08030E+06
C:/temp/Job-6.odb,Step-1,Increment      1: Step Time =    1.000,"P-6-1",           176,       47.8743,       179.422,            0.,NA,NA,"",   9.08028E+06,  -8.95102E+06,  -8.95102E+06
C:/temp/Job-6.odb,Step-1,Increment      1: Step Time =    1.000,"P-6-1",           177,       39.7932,       173.486,            0.,NA,NA,"",   10.3397E+06,  -10.3698E+06,  -10.3698E+06
C:/temp/Job-6.odb,Step-1,Increment      1: Step Time =    1.000,"P-6-1",           178,       35.9989,       170.206,            0.,NA,NA,"",   9.88127E+06,  -10.0119E+06,  -10.0119E+06
C:/temp/Job-6.odb,Step-1,Increment      1: Step Time =    1.000,"P-6-1",           179,       28.9555,       163.069,            0.,NA,NA,"",   8.44447E+06,  -8.48800E+06,  -8.48800E+06
C:/temp/Job-6.odb,Step-1,Increment      1: Step Time =    1.000,"P-6-1",           180,       25.7260,       159.232,            0.,NA,NA,"",   7.28108E+06,  -7.32774E+06,  -7.32774E+06
C:/temp/Job-6.odb,Step-1,Increment      1: Step Time =    1.000,"P-6-1",           181,       19.8965,       151.073,            0.,NA,NA,"",   4.65570E+06,  -4.67831E+06,  -4.67831E+06
C:/temp/Job-6.odb,Step-1,Increment      1: Step Time =    1.000,"P-6-1",           182,       17.3128,       146.774,            0.,NA,NA,"",   3.40344E+06,  -3.42166E+06,  -3.42166E+06
C:/temp/Job-6.odb,Step-1,Increment      1: Step Time =    1.000,"P-6-1",           183,       12.8432,       137.798,            0.,NA,NA,"",   1.79738E+06,  -1.82369E+06,  -1.82369E+06
C:/temp/Job-6.odb,Step-1,Increment      1: Step Time =    1.000,"P-6-1",           184,       10.9699,       133.146,            0.,NA,NA,"",   1.30495E+06,  -1.30373E+06,  -1.30373E+06
C:/temp/Job-6.odb,Step-1,Increment      1: Step Time =    1.000,"P-6-1",           185,       7.97214,       123.577,            0.,NA,NA,"",   624.907E+03,  -626.939E+03,  -626.939E+03
C:/temp/Job-6.odb,Step-1,Increment      1: Step Time =    1.000,"P-6-1",           186,       6.85611,       118.687,            0.,NA,NA,"",   363.874E+03,  -358.115E+03,  -358.115E+03
C:/temp/Job-6.odb,Step-1,Increment      1: Step Time =    1.000,"P-6-1",           187,       5.40525,       108.765,            0.,NA,NA,"",   86.1560E+03,  -86.3844E+03,  -86.3844E+03
C:/temp/Job-6.odb,Step-1,Increment      1: Step Time =    1.000,"P-6-1",           188,       5.07448,       103.761,            0.,NA,NA,"",   29.8029E+03,  -31.0934E+03,  -31.0934E+03
C:/temp/Job-6.odb,Step-1,Increment      1: Step Time =    1.000,"P-6-1",           189,       5.20683,       93.7346,            0.,NA,NA,"",   51.0444E+03,  -51.9593E+03,  -51.9593E+03
C:/temp/Job-6.odb,Step-1,Increment      1: Step Time =    1.000,"P-6-1",           190,       5.66960,       88.7406,            0.,NA,NA,"",   147.980E+03,  -148.837E+03,  -148.837E+03
C:/temp/Job-6.odb,Step-1,Increment      1: Step Time =    1.000,"P-6-1",           191,       7.38185,       78.8605,            0.,NA,NA,"",   738.234E+03,  -737.156E+03,  -737.156E+03
C:/temp/Job-6.odb,Step-1,Increment      1: Step Time =    1.000,"P-6-1",           192,       8.62656,       74.0020,            0.,NA,NA,"",   1.11393E+06,  -1.10697E+06,  -1.10697E+06
C:/temp/Job-6.odb,Step-1,Increment      1: Step Time =    1.000,"P-6-1",           193,       11.8758,       64.5157,            0.,NA,NA,"",   1.97479E+06,  -1.98765E+06,  -1.98765E+06
C:/temp/Job-6.odb,Step-1,Increment      1: Step Time =    1.000,"P-6-1",           194,       13.8713,       59.9144,            0.,NA,NA,"",   2.76925E+06,  -2.81828E+06,  -2.81828E+06
C:/temp/Job-6.odb,Step-1,Increment      1: Step Time =    1.000,"P-6-1",           195,       18.5763,       51.0594,            0.,NA,NA,"",   5.32275E+06,    -5.361E+06,    -5.361E+06
C:/temp/Job-6.odb,Step-1,Increment      1: Step Time =    1.000,"P-6-1",           196,       21.2726,       46.8305,            0.,NA,NA,"",   7.26584E+06,  -7.28889E+06,  -7.28889E+06
C:/temp/Job-6.odb,Step-1,Increment      1: Step Time =    1.000,"P-6-1",           197,       27.3154,       38.8285,            0.,NA,NA,"",   11.8727E+06,  -11.9659E+06,  -11.9659E+06
C:/temp/Job-6.odb,Step-1,Increment      1: Step Time =    1.000,"P-6-1",           198,       30.6451,       35.0778,            0.,NA,NA,"",   14.3563E+06,  -14.5106E+06,  -14.5106E+06
C:/temp/Job-6.odb,Step-1,Increment      1: Step Time =    1.000,"P-6-1",           199,       37.8744,       28.1292,            0.,NA,NA,"",   19.2657E+06,  -19.5326E+06,  -19.5326E+06
C:/temp/Job-6.odb,Step-1,Increment      1: Step Time =    1.000,"P-6-1",           200,       41.7540,       24.9506,            0.,NA,NA,"",   22.6550E+06,  -22.9843E+06,  -22.9843E+06
C:/temp/Job-6.odb,Step-1,Increment      1: Step Time =    1.000,"P-6-1",           201,       49.9889,       19.2294,            0.,NA,NA,"",   29.7063E+06,  -29.9157E+06,  -29.9157E+06
C:/temp/Job-6.odb,Step-1,Increment      1: Step Time =    1.000,"P-6-1",           202,       54.3213,       16.7026,            0.,NA,NA,"",   32.0874E+06,  -32.4327E+06,  -32.4327E+06
C:/temp/Job-6.odb,Step-1,Increment      1: Step Time =    1.000,"P-6-1",           203,       63.3556,       12.3519,            0.,NA,NA,"",   40.2008E+06,  -41.1592E+06,  -41.1592E+06
C:/temp/Job-6.odb,Step-1,Increment      1: Step Time =    1.000,"P-6-1",           204,       68.0324,       10.5401,            0.,NA,NA,"",   53.0199E+06,  -53.5077E+06,  -53.5077E+06
C:/temp/Job-6.odb,Step-1,Increment      1: Step Time =    1.000,"P-6-1",           205,       77.6398,       7.66895,            0.,NA,NA,"",   66.8967E+06,  -64.6324E+06,  -64.6324E+06
C:/temp/Job-6.odb,Step-1,Increment      1: Step Time =    1.000,"P-6-1",           206,       82.5438,       6.61756,            0.,NA,NA,"",   49.9524E+06,  -14.3035E+06,  -14.3035E+06
C:/temp/Job-6.odb,Step-1,Increment      1: Step Time =    1.000,"P-6-1",           207,       92.4839,       5.29779,            0.,NA,NA,"",   21.5872E+06,   17.0036E+06,   17.0036E+06
C:/temp/Job-6.odb,Step-1,Increment      1: Step Time =    1.000,"P-6-1",           208,       97.4923,       5.03310,            0.,NA,NA,"",   21.5186E+06,   17.5501E+06,   17.5501E+06
C:/temp/Job-6.odb,Step-1,Increment      1: Step Time =    1.000,"P-6-1",           209,       107.516,       5.29779,            0.,NA,NA,"",   19.8110E+06,   17.1409E+06,   17.1409E+06
C:/temp/Job-6.odb,Step-1,Increment      1: Step Time =    1.000,"P-6-1",           210,       117.456,       6.61756,            0.,NA,NA,"",   74.0027E+06,   69.1395E+06,   69.1395E+06
C:/temp/Job-6.odb,Step-1,Increment      1: Step Time =    1.000,"P-6-1",           211,       122.360,       7.66895,            0.,NA,NA,"",   71.5233E+06,   69.0139E+06,   69.0139E+06
C:/temp/Job-6.odb,Step-1,Increment      1: Step Time =    1.000,"P-6-1",           212,       131.968,       10.5401,            0.,NA,NA,"",   50.2143E+06,   32.1395E+06,   32.1395E+06
C:/temp/Job-6.odb,Step-1,Increment      1: Step Time =    1.000,"P-6-1",           213,       136.644,       12.3519,            0.,NA,NA,"",   49.2766E+06,   50.4141E+06,   50.4141E+06
C:/temp/Job-6.odb,Step-1,Increment      1: Step Time =    1.000,"P-6-1",           214,       145.679,       16.7026,            0.,NA,NA,"",   26.9694E+06,   27.7101E+06,   27.7101E+06
C:/temp/Job-6.odb,Step-1,Increment      1: Step Time =    1.000,"P-6-1",           215,       150.011,       19.2294,            0.,NA,NA,"",   21.4075E+06,   21.6308E+06,   21.6308E+06
C:/temp/Job-6.odb,Step-1,Increment      1: Step Time =    1.000,"P-6-1",           216,       158.246,       24.9506,            0.,NA,NA,"",   15.6859E+06,   15.6699E+06,   15.6699E+06
C:/temp/Job-6.odb,Step-1,Increment      1: Step Time =    1.000,"P-6-1",           217,       162.126,       28.1292,            0.,NA,NA,"",   12.6050E+06,   12.8882E+06,   12.8882E+06
C:/temp/Job-6.odb,Step-1,Increment      1: Step Time =    1.000,"P-6-1",           218,       169.355,       35.0778,            0.,NA,NA,"",   10.7322E+06,   10.6416E+06,   10.6416E+06
C:/temp/Job-6.odb,Step-1,Increment      1: Step Time =    1.000,"P-6-1",           219,       172.685,       38.8285,            0.,NA,NA,"",   10.1002E+06,   10.2693E+06,   10.2693E+06
C:/temp/Job-6.odb,Step-1,Increment      1: Step Time =    1.000,"P-6-1",           220,       178.727,       46.8305,            0.,NA,NA,"",   10.4612E+06,   10.5972E+06,   10.5972E+06
C:/temp/Job-6.odb,Step-1,Increment      1: Step Time =    1.000,"P-6-1",           221,       181.424,       51.0594,            0.,NA,NA,"",   10.7693E+06,   10.8441E+06,   10.8441E+06
C:/temp/Job-6.odb,Step-1,Increment      1: Step Time =    1.000,"P-6-1",           222,       186.129,       59.9144,            0.,NA,NA,"",   10.8092E+06,   10.8246E+06,   10.8246E+06
C:/temp/Job-6.odb,Step-1,Increment      1: Step Time =    1.000,"P-6-1",           223,       188.124,       64.5157,            0.,NA,NA,"",   10.0301E+06,   10.1411E+06,   10.1411E+06
C:/temp/Job-6.odb,Step-1,Increment      1: Step Time =    1.000,"P-6-1",           224,       191.373,       74.0020,            0.,NA,NA,"",   7.57822E+06,   7.18249E+06,   7.18249E+06
C:/temp/Job-6.odb,Step-1,Increment      1: Step Time =    1.000,"P-6-1",           225,       192.618,       78.8605,            0.,NA,NA,"",   6.26038E+06,   6.06310E+06,   6.06310E+06
C:/temp/Job-6.odb,Step-1,Increment      1: Step Time =    1.000,"P-6-1",           226,       194.330,       88.7406,            0.,NA,NA,"",   6.84183E+06,   6.99146E+06,   6.99146E+06
C:/temp/Job-6.odb,Step-1,Increment      1: Step Time =    1.000,"P-6-1",           227,       194.793,       93.7346,            0.,NA,NA,"",   7.14285E+06,   7.34762E+06,   7.34762E+06
C:/temp/Job-6.odb,Step-1,Increment      1: Step Time =    1.000,"P-6-1",           228,       194.926,       103.761,            0.,NA,NA,"",   11.0786E+06,   11.1483E+06,   11.1483E+06
C:/temp/Job-6.odb,Step-1,Increment      1: Step Time =    1.000,"P-6-1",           229,       194.595,       108.765,            0.,NA,NA,"",   19.8740E+06,   19.5498E+06,   19.5498E+06
C:/temp/Job-6.odb,Step-1,Increment      1: Step Time =    1.000,"P-6-1",           230,       193.144,       118.687,            0.,NA,NA,"",   31.9401E+06,   32.1090E+06,   32.1090E+06
C:/temp/Job-6.odb,Step-1,Increment      1: Step Time =    1.000,"P-6-1",           231,       192.028,       123.577,            0.,NA,NA,"",   33.1602E+06,   33.2691E+06,   33.2691E+06
C:/temp/Job-6.odb,Step-1,Increment      1: Step Time =    1.000,"P-6-1",           232,       189.030,       133.146,            0.,NA,NA,"",   30.5606E+06,   31.1317E+06,   31.1317E+06
C:/temp/Job-6.odb,Step-1,Increment      1: Step Time =    1.000,"P-6-1",           233,       187.157,       137.798,            0.,NA,NA,"",   29.6910E+06,   29.8826E+06,   29.8826E+06
C:/temp/Job-6.odb,Step-1,Increment      1: Step Time =    1.000,"P-6-1",           234,       182.687,       146.774,            0.,NA,NA,"",   23.7953E+06,   24.2503E+06,   24.2503E+06
C:/temp/Job-6.odb,Step-1,Increment      1: Step Time =    1.000,"P-6-1",           235,       180.103,       151.073,            0.,NA,NA,"",   21.2623E+06,   21.6774E+06,   21.6774E+06
C:/temp/Job-6.odb,Step-1,Increment      1: Step Time =    1.000,"P-6-1",           236,       174.274,       159.232,            0.,NA,NA,"",   18.3288E+06,   18.6663E+06,   18.6663E+06
C:/temp/Job-6.odb,Step-1,Increment      1: Step Time =    1.000,"P-6-1",           237,       171.045,       163.069,            0.,NA,NA,"",   18.0943E+06,   18.3938E+06,   18.3938E+06
C:/temp/Job-6.odb,Step-1,Increment      1: Step Time =    1.000,"P-6-1",           238,       164.001,       170.206,            0.,NA,NA,"",   21.4692E+06,   21.7870E+06,   21.7870E+06
C:/temp/Job-6.odb,Step-1,Increment      1: Step Time =    1.000,"P-6-1",           239,       160.207,       173.486,            0.,NA,NA,"",   25.4774E+06,   25.7248E+06,   25.7248E+06
C:/temp/Job-6.odb,Step-1,Increment      1: Step Time =    1.000,"P-6-1",           240,       152.126,       179.422,            0.,NA,NA,"",   38.5103E+06,   38.8449E+06,   38.8449E+06
C:/temp/Job-6.odb,Step-1,Increment      1: Step Time =    1.000,"P-6-1",           241,       147.862,       182.063,            0.,NA,NA,"",   48.5433E+06,   49.2078E+06,   49.2078E+06
C:/temp/Job-6.odb,Step-1,Increment      1: Step Time =    1.000,"P-6-1",           242,       138.945,       186.650,            0.,NA,NA,"",   75.5173E+06,   75.6916E+06,   75.6916E+06
C:/temp/Job-6.odb,Step-1,Increment      1: Step Time =    1.000,"P-6-1",           243,       134.318,       188.585,            0.,NA,NA,"",   98.0937E+06,   99.4488E+06,   99.4488E+06
C:/temp/Job-6.odb,Step-1,Increment      1: Step Time =    1.000,"P-6-1",           244,       124.790,       191.709,            0.,NA,NA,"",   172.105E+06,   172.848E+06,   172.848E+06
C:/temp/Job-6.odb,Step-1,Increment      1: Step Time =    1.000,"P-6-1",           245,       119.915,       192.889,            0.,NA,NA,"",   219.022E+06,   220.096E+06,   220.096E+06
C:/temp/Job-6.odb,Step-1,Increment      1: Step Time =    1.000,"P-6-1",           246,       110.013,       194.471,            0.,NA,NA,"",   307.530E+06,   308.651E+06,   308.651E+06
C:/temp/Job-6.odb,Step-1,Increment      1: Step Time =    1.000,"P-6-1",           247,       105.014,       194.868,            0.,NA,NA,"",   325.758E+06,   326.823E+06,   326.823E+06
C:/temp/Job-6.odb,Step-1,Increment      1: Step Time =    1.000,"P-6-1",           248,          195.,            0.,            0.,NA,NA,"",   948.257E+03,   728.494E+03,   728.494E+03
C:/temp/Job-6.odb,Step-1,Increment      1: Step Time =    1.000,"P-6-1",           249,          185.,            0.,            0.,NA,NA,"",   1.78242E+06,  -1.63118E+06,  -1.63118E+06
C:/temp/Job-6.odb,Step-1,Increment      1: Step Time =    1.000,"P-6-1",           250,          175.,            0.,            0.,NA,NA,"",   4.79812E+06,  -4.52405E+06,  -4.52405E+06
C:/temp/Job-6.odb,Step-1,Increment      1: Step Time =    1.000,"P-6-1",           251,          165.,            0.,            0.,NA,NA,"",   8.48169E+06,  -7.95068E+06,  -7.95068E+06
C:/temp/Job-6.odb,Step-1,Increment      1: Step Time =    1.000,"P-6-1",           252,          155.,            0.,            0.,NA,NA,"",   14.4367E+06,  -13.5770E+06,  -13.5770E+06
C:/temp/Job-6.odb,Step-1,Increment      1: Step Time =    1.000,"P-6-1",           253,          145.,            0.,            0.,NA,NA,"",   23.4043E+06,  -21.5810E+06,  -21.5810E+06
C:/temp/Job-6.odb,Step-1,Increment      1: Step Time =    1.000,"P-6-1",           254,          135.,            0.,            0.,NA,NA,"",   21.4875E+06,  -21.4198E+06,  -21.4198E+06
C:/temp/Job-6.odb,Step-1,Increment      1: Step Time =    1.000,"P-6-1",           255,          125.,            0.,            0.,NA,NA,"",   51.1384E+06,  -41.6411E+06,  -41.6411E+06
C:/temp/Job-6.odb,Step-1,Increment      1: Step Time =    1.000,"P-6-1",           256,          115.,            0.,            0.,NA,NA,"",   48.2031E+06,  -1.05798E+06,  -1.05798E+06
C:/temp/Job-6.odb,Step-1,Increment      1: Step Time =    1.000,"P-6-1",           257,          105.,            0.,            0.,NA,NA,"",   20.5251E+06,   17.6477E+06,   17.6477E+06
C:/temp/Job-6.odb,Step-1,Increment      1: Step Time =    1.000,"P-6-1",           258,           95.,            0.,            0.,NA,NA,"",   21.5872E+06,   17.0036E+06,   17.0036E+06
C:/temp/Job-6.odb,Step-1,Increment      1: Step Time =    1.000,"P-6-1",           259,           85.,            0.,            0.,NA,NA,"",   39.2882E+06,   18.6348E+06,   18.6348E+06
C:/temp/Job-6.odb,Step-1,Increment      1: Step Time =    1.000,"P-6-1",           260,           75.,            0.,            0.,NA,NA,"",   86.3751E+06,   76.2906E+06,   76.2906E+06
C:/temp/Job-6.odb,Step-1,Increment      1: Step Time =    1.000,"P-6-1",           261,           65.,            0.,            0.,NA,NA,"",   59.4420E+06,   58.0369E+06,   58.0369E+06
C:/temp/Job-6.odb,Step-1,Increment      1: Step Time =    1.000,"P-6-1",           262,           55.,            0.,            0.,NA,NA,"",   48.3964E+06,   48.9851E+06,   48.9851E+06
C:/temp/Job-6.odb,Step-1,Increment      1: Step Time =    1.000,"P-6-1",           263,           45.,            0.,            0.,NA,NA,"",   35.6832E+06,   35.8226E+06,   35.8226E+06
C:/temp/Job-6.odb,Step-1,Increment      1: Step Time =    1.000,"P-6-1",           264,           35.,            0.,            0.,NA,NA,"",   27.7651E+06,   27.8051E+06,   27.8051E+06
C:/temp/Job-6.odb,Step-1,Increment      1: Step Time =    1.000,"P-6-1",           265,           25.,            0.,            0.,NA,NA,"",   21.7702E+06,   21.7997E+06,   21.7997E+06
C:/temp/Job-6.odb,Step-1,Increment      1: Step Time =    1.000,"P-6-1",           266,           15.,            0.,            0.,NA,NA,"",   17.5034E+06,   17.5526E+06,   17.5526E+06
C:/temp/Job-6.odb,Step-1,Increment      1: Step Time =    1.000,"P-6-1",           267,            5.,            0.,            0.,NA,NA,"",   15.2643E+06,   15.5361E+06,   15.5361E+06
C:/temp/Job-6.odb,Step-1,Increment      1: Step Time =    1.000,"P-6-1",           268,          200.,          195.,            0.,NA,NA,"",   1.58688E+06,  -357.503E+03,  -357.503E+03
C:/temp/Job-6.odb,Step-1,Increment      1: Step Time =    1.000,"P-6-1",           269,          200.,          185.,            0.,NA,NA,"",   5.49572E+06,  -4.78239E+06,  -4.78239E+06
C:/temp/Job-6.odb,Step-1,Increment      1: Step Time =    1.000,"P-6-1",           270,          200.,          175.,            0.,NA,NA,"",   10.4484E+06,  -9.75073E+06,  -9.75073E+06
C:/temp/Job-6.odb,Step-1,Increment      1: Step Time =    1.000,"P-6-1",           271,          200.,          165.,            0.,NA,NA,"",   14.2784E+06,  -13.6948E+06,  -13.6948E+06
C:/temp/Job-6.odb,Step-1,Increment      1: Step Time =    1.000,"P-6-1",           272,          200.,          155.,            0.,NA,NA,"",   16.8666E+06,  -16.3357E+06,  -16.3357E+06
C:/temp/Job-6.odb,Step-1,Increment      1: Step Time =    1.000,"P-6-1",           273,          200.,          145.,            0.,NA,NA,"",   18.5765E+06,  -18.0111E+06,  -18.0111E+06
C:/temp/Job-6.odb,Step-1,Increment      1: Step Time =    1.000,"P-6-1",           274,          200.,          135.,            0.,NA,NA,"",   20.0416E+06,  -19.6994E+06,  -19.6994E+06
C:/temp/Job-6.odb,Step-1,Increment      1: Step Time =    1.000,"P-6-1",           275,          200.,          125.,            0.,NA,NA,"",   22.2629E+06,  -21.6063E+06,  -21.6063E+06
C:/temp/Job-6.odb,Step-1,Increment      1: Step Time =    1.000,"P-6-1",           276,          200.,          115.,            0.,NA,NA,"",   17.2441E+06,  -16.6460E+06,  -16.6460E+06
C:/temp/Job-6.odb,Step-1,Increment      1: Step Time =    1.000,"P-6-1",           277,          200.,          105.,            0.,NA,NA,"",   12.8764E+06,   2.26035E+06,   2.26035E+06
C:/temp/Job-6.odb,Step-1,Increment      1: Step Time =    1.000,"P-6-1",           278,          200.,           95.,            0.,NA,NA,"",   7.14285E+06,   7.34762E+06,   7.34762E+06
C:/temp/Job-6.odb,Step-1,Increment      1: Step Time =    1.000,"P-6-1",           279,          200.,           85.,            0.,NA,NA,"",   6.40815E+06,   6.45857E+06,   6.45857E+06
C:/temp/Job-6.odb,Step-1,Increment      1: Step Time =    1.000,"P-6-1",           280,          200.,           75.,            0.,NA,NA,"",   4.46468E+06,   4.63189E+06,   4.63189E+06
C:/temp/Job-6.odb,Step-1,Increment      1: Step Time =    1.000,"P-6-1",           281,          200.,           65.,            0.,NA,NA,"",   3.06169E+06,  -13.6205E+03,  -13.6205E+03
C:/temp/Job-6.odb,Step-1,Increment      1: Step Time =    1.000,"P-6-1",           282,          200.,           55.,            0.,NA,NA,"",   4.70991E+06,  -4.07967E+06,  -4.07967E+06
C:/temp/Job-6.odb,Step-1,Increment      1: Step Time =    1.000,"P-6-1",           283,          200.,           45.,            0.,NA,NA,"",   6.01765E+06,  -5.37474E+06,  -5.37474E+06
C:/temp/Job-6.odb,Step-1,Increment      1: Step Time =    1.000,"P-6-1",           284,          200.,           35.,            0.,NA,NA,"",   6.02048E+06,  -5.42978E+06,  -5.42978E+06
C:/temp/Job-6.odb,Step-1,Increment      1: Step Time =    1.000,"P-6-1",           285,          200.,           25.,            0.,NA,NA,"",   4.99174E+06,  -4.35790E+06,  -4.35790E+06
C:/temp/Job-6.odb,Step-1,Increment      1: Step Time =    1.000,"P-6-1",           286,          200.,           15.,            0.,NA,NA,"",   3.03113E+06,  -2.28267E+06,  -2.28267E+06
C:/temp/Job-6.odb,Step-1,Increment      1: Step Time =    1.000,"P-6-1",           287,          200.,            5.,            0.,NA,NA,"",   1.23850E+06,   926.532E+03,   926.532E+03
C:/temp/Job-6.odb,Step-1,Increment      1: Step Time =    1.000,"P-6-1",           288,            5.,          200.,            0.,NA,NA,"",   12.2317E+06,   12.4959E+06,   12.4959E+06
C:/temp/Job-6.odb,Step-1,Increment      1: Step Time =    1.000,"P-6-1",           289,           15.,          200.,            0.,NA,NA,"",   12.9865E+06,   13.0327E+06,   13.0327E+06
C:/temp/Job-6.odb,Step-1,Increment      1: Step Time =    1.000,"P-6-1",           290,           25.,          200.,            0.,NA,NA,"",   14.6567E+06,   14.6413E+06,   14.6413E+06
C:/temp/Job-6.odb,Step-1,Increment      1: Step Time =    1.000,"P-6-1",           291,           35.,          200.,            0.,NA,NA,"",   16.4781E+06,   16.4445E+06,   16.4445E+06
C:/temp/Job-6.odb,Step-1,Increment      1: Step Time =    1.000,"P-6-1",           292,           45.,          200.,            0.,NA,NA,"",   17.4930E+06,   17.3666E+06,   17.3666E+06
C:/temp/Job-6.odb,Step-1,Increment      1: Step Time =    1.000,"P-6-1",           293,           55.,          200.,            0.,NA,NA,"",   16.0909E+06,   15.5086E+06,   15.5086E+06
C:/temp/Job-6.odb,Step-1,Increment      1: Step Time =    1.000,"P-6-1",           294,           65.,          200.,            0.,NA,NA,"",   9.12111E+06,   1.68194E+06,   1.68194E+06
C:/temp/Job-6.odb,Step-1,Increment      1: Step Time =    1.000,"P-6-1",           295,           75.,          200.,            0.,NA,NA,"",   32.1656E+06,  -30.7048E+06,  -30.7048E+06
C:/temp/Job-6.odb,Step-1,Increment      1: Step Time =    1.000,"P-6-1",           296,           85.,          200.,            0.,NA,NA,"",   106.785E+06,  -105.731E+06,  -105.731E+06
C:/temp/Job-6.odb,Step-1,Increment      1: Step Time =    1.000,"P-6-1",           297,           95.,          200.,            0.,NA,NA,"",   215.834E+06,  -214.747E+06,  -214.747E+06
C:/temp/Job-6.odb,Step-1,Increment      1: Step Time =    1.000,"P-6-1",           298,          105.,          200.,            0.,NA,NA,"",   269.377E+06,  -268.246E+06,  -268.246E+06
C:/temp/Job-6.odb,Step-1,Increment      1: Step Time =    1.000,"P-6-1",           299,          115.,          200.,            0.,NA,NA,"",   219.310E+06,  -218.252E+06,  -218.252E+06
C:/temp/Job-6.odb,Step-1,Increment      1: Step Time =    1.000,"P-6-1",           300,          125.,          200.,            0.,NA,NA,"",   136.768E+06,  -136.126E+06,  -136.126E+06
C:/temp/Job-6.odb,Step-1,Increment      1: Step Time =    1.000,"P-6-1",           301,          135.,          200.,            0.,NA,NA,"",   81.0905E+06,  -81.8296E+06,  -81.8296E+06
C:/temp/Job-6.odb,Step-1,Increment      1: Step Time =    1.000,"P-6-1",           302,          145.,          200.,            0.,NA,NA,"",   55.4236E+06,  -54.7817E+06,  -54.7817E+06
C:/temp/Job-6.odb,Step-1,Increment      1: Step Time =    1.000,"P-6-1",           303,          155.,          200.,            0.,NA,NA,"",   30.3636E+06,  -30.5485E+06,  -30.5485E+06
C:/temp/Job-6.odb,Step-1,Increment      1: Step Time =    1.000,"P-6-1",           304,          165.,          200.,            0.,NA,NA,"",   18.8727E+06,  -18.8466E+06,  -18.8466E+06
C:/temp/Job-6.odb,Step-1,Increment      1: Step Time =    1.000,"P-6-1",           305,          175.,          200.,            0.,NA,NA,"",   10.6139E+06,  -10.5023E+06,  -10.5023E+06
C:/temp/Job-6.odb,Step-1,Increment      1: Step Time =    1.000,"P-6-1",           306,          185.,          200.,            0.,NA,NA,"",   4.50540E+06,  -4.28463E+06,  -4.28463E+06
C:/temp/Job-6.odb,Step-1,Increment      1: Step Time =    1.000,"P-6-1",           307,          195.,          200.,            0.,NA,NA,"",   1.19898E+06,  -131.240E+03,  -131.240E+03
C:/temp/Job-6.odb,Step-1,Increment      1: Step Time =    1.000,"P-6-1",           308,            0.,            5.,            0.,NA,NA,"",   12.5767E+06,   13.4277E+06,   13.4277E+06
C:/temp/Job-6.odb,Step-1,Increment      1: Step Time =    1.000,"P-6-1",           309,            0.,           15.,            0.,NA,NA,"",   5.99356E+06,   6.54585E+06,   6.54585E+06
C:/temp/Job-6.odb,Step-1,Increment      1: Step Time =    1.000,"P-6-1",           310,            0.,           25.,            0.,NA,NA,"",   1.72921E+06,   243.988E+03,   243.988E+03
C:/temp/Job-6.odb,Step-1,Increment      1: Step Time =    1.000,"P-6-1",           311,            0.,           35.,            0.,NA,NA,"",   3.40275E+06,  -3.55186E+06,  -3.55186E+06
C:/temp/Job-6.odb,Step-1,Increment      1: Step Time =    1.000,"P-6-1",           312,            0.,           45.,            0.,NA,NA,"",   4.37968E+06,  -4.46823E+06,  -4.46823E+06
C:/temp/Job-6.odb,Step-1,Increment      1: Step Time =    1.000,"P-6-1",           313,            0.,           55.,            0.,NA,NA,"",   3.41149E+06,  -3.33220E+06,  -3.33220E+06
C:/temp/Job-6.odb,Step-1,Increment      1: Step Time =    1.000,"P-6-1",           314,            0.,           65.,            0.,NA,NA,"",   1.98526E+06,  -1.81996E+06,  -1.81996E+06
C:/temp/Job-6.odb,Step-1,Increment      1: Step Time =    1.000,"P-6-1",           315,            0.,           75.,            0.,NA,NA,"",   917.518E+03,  -827.001E+03,  -827.001E+03
C:/temp/Job-6.odb,Step-1,Increment      1: Step Time =    1.000,"P-6-1",           316,            0.,           85.,            0.,NA,NA,"",   313.521E+03,  -303.862E+03,  -303.862E+03
C:/temp/Job-6.odb,Step-1,Increment      1: Step Time =    1.000,"P-6-1",           317,            0.,           95.,            0.,NA,NA,"",   51.0444E+03,  -51.9593E+03,  -51.9593E+03
C:/temp/Job-6.odb,Step-1,Increment      1: Step Time =    1.000,"P-6-1",           318,            0.,          105.,            0.,NA,NA,"",   29.8029E+03,  -31.0934E+03,  -31.0934E+03
C:/temp/Job-6.odb,Step-1,Increment      1: Step Time =    1.000,"P-6-1",           319,            0.,          115.,            0.,NA,NA,"",   232.346E+03,  -208.419E+03,  -208.419E+03
C:/temp/Job-6.odb,Step-1,Increment      1: Step Time =    1.000,"P-6-1",           320,            0.,          125.,            0.,NA,NA,"",   677.002E+03,  -624.350E+03,  -624.350E+03
C:/temp/Job-6.odb,Step-1,Increment      1: Step Time =    1.000,"P-6-1",           321,            0.,          135.,            0.,NA,NA,"",   1.51835E+06,  -1.40528E+06,  -1.40528E+06
C:/temp/Job-6.odb,Step-1,Increment      1: Step Time =    1.000,"P-6-1",           322,            0.,          145.,            0.,NA,NA,"",   2.49781E+06,  -2.41441E+06,  -2.41441E+06
C:/temp/Job-6.odb,Step-1,Increment      1: Step Time =    1.000,"P-6-1",           323,            0.,          155.,            0.,NA,NA,"",   2.85501E+06,  -2.88140E+06,  -2.88140E+06
C:/temp/Job-6.odb,Step-1,Increment      1: Step Time =    1.000,"P-6-1",           324,            0.,          165.,            0.,NA,NA,"",   1.77862E+06,  -1.80630E+06,  -1.80630E+06
C:/temp/Job-6.odb,Step-1,Increment      1: Step Time =    1.000,"P-6-1",           325,            0.,          175.,            0.,NA,NA,"",   1.10824E+06,   1.21683E+06,   1.21683E+06
C:/temp/Job-6.odb,Step-1,Increment      1: Step Time =    1.000,"P-6-1",           326,            0.,          185.,            0.,NA,NA,"",   4.98885E+06,   5.53512E+06,   5.53512E+06
C:/temp/Job-6.odb,Step-1,Increment      1: Step Time =    1.000,"P-6-1",           327,            0.,          195.,            0.,NA,NA,"",   10.3864E+06,   11.1242E+06,   11.1242E+06
C:/temp/Job-6.odb,Step-1,Increment      1: Step Time =    1.000,"P-6-1",           328,       153.374,       16.0138,            0.,NA,NA,"",   18.5982E+06,   18.6939E+06,   18.6939E+06
C:/temp/Job-6.odb,Step-1,Increment      1: Step Time =    1.000,"P-6-1",           329,       38.8739,       21.4720,            0.,NA,NA,"",   16.4997E+06,  -16.8969E+06,  -16.8969E+06
C:/temp/Job-6.odb,Step-1,Increment      1: Step Time =    1.000,"P-6-1",           330,       161.794,       21.7365,            0.,NA,NA,"",   12.4682E+06,   12.6589E+06,   12.6589E+06
C:/temp/Job-6.odb,Step-1,Increment      1: Step Time =    1.000,"P-6-1",           331,       194.958,       194.928,            0.,NA,NA,"",   2.13436E+06,  -1.19624E+06,  -1.19624E+06
C:/temp/Job-6.odb,Step-1,Increment      1: Step Time =    1.000,"P-6-1",           332,       195.027,       184.834,            0.,NA,NA,"",   6.07279E+06,  -4.90192E+06,  -4.90192E+06
C:/temp/Job-6.odb,Step-1,Increment      1: Step Time =    1.000,"P-6-1",           333,       195.419,       174.916,            0.,NA,NA,"",   9.32653E+06,  -8.23596E+06,  -8.23596E+06
C:/temp/Job-6.odb,Step-1,Increment      1: Step Time =    1.000,"P-6-1",           334,       195.734,       165.255,            0.,NA,NA,"",   11.3620E+06,  -10.6236E+06,  -10.6236E+06
C:/temp/Job-6.odb,Step-1,Increment      1: Step Time =    1.000,"P-6-1",           335,       195.104,       155.841,            0.,NA,NA,"",   11.5987E+06,  -10.8990E+06,  -10.8990E+06
C:/temp/Job-6.odb,Step-1,Increment      1: Step Time =    1.000,"P-6-1",           336,       193.865,       135.637,            0.,NA,NA,"",   22.6903E+06,   7.03216E+06,   7.03216E+06
C:/temp/Job-6.odb,Step-1,Increment      1: Step Time =    1.000,"P-6-1",           337,       195.884,       124.528,            0.,NA,NA,"",   27.7116E+06,   5.83143E+06,   5.83143E+06
C:/temp/Job-6.odb,Step-1,Increment      1: Step Time =    1.000,"P-6-1",           338,       194.583,       141.351,            0.,NA,NA,"",   13.4747E+06,  -5.31944E+06,  -5.31944E+06
C:/temp/Job-6.odb,Step-1,Increment      1: Step Time =    1.000,"P-6-1",           339,       165.231,       196.143,            0.,NA,NA,"",   15.7288E+06,  -15.3502E+06,  -15.3502E+06
C:/temp/Job-6.odb,Step-1,Increment      1: Step Time =    1.000,"P-6-1",           340,       155.528,       195.947,            0.,NA,NA,"",   23.1786E+06,  -22.8456E+06,  -22.8456E+06
C:/temp/Job-6.odb,Step-1,Increment      1: Step Time =    1.000,"P-6-1",           341,       196.467,       65.7098,            0.,NA,NA,"",   3.10073E+06,   1.43205E+06,   1.43205E+06
C:/temp/Job-6.odb,Step-1,Increment      1: Step Time =    1.000,"P-6-1",           342,       194.610,       5.43594,            0.,NA,NA,"",   1.47060E+06,   206.362E+03,   206.362E+03
C:/temp/Job-6.odb,Step-1,Increment      1: Step Time =    1.000,"P-6-1",           343,       174.325,       4.43925,            0.,NA,NA,"",   4.79924E+06,  -3.27174E+06,  -3.27174E+06
C:/temp/Job-6.odb,Step-1,Increment      1: Step Time =    1.000,"P-6-1",           344,       184.280,       5.14862,            0.,NA,NA,"",   2.38600E+06,  -1.06727E+06,  -1.06727E+06
C:/temp/Job-6.odb,Step-1,Increment      1: Step Time =    1.000,"P-6-1",           345,       154.533,       4.29718,            0.,NA,NA,"",   13.4695E+06,  -8.28657E+06,  -8.28657E+06
C:/temp/Job-6.odb,Step-1,Increment      1: Step Time =    1.000,"P-6-1",           346,       164.627,       4.18278,            0.,NA,NA,"",   8.40804E+06,  -5.09220E+06,  -5.09220E+06
C:/temp/Job-6.odb,Step-1,Increment      1: Step Time =    1.000,"P-6-1",           347,       139.829,       4.17533,            0.,NA,NA,"",   24.7627E+06,  -8.09034E+06,  -8.09034E+06
C:/temp/Job-6.odb,Step-1,Increment      1: Step Time =    1.000,"P-6-1",           348,       144.745,       4.43275,            0.,NA,NA,"",   19.5276E+06,  -11.0420E+06,  -11.0420E+06
C:/temp/Job-6.odb,Step-1,Increment      1: Step Time =    1.000,"P-6-1",           349,       135.117,       3.96534,            0.,NA,NA,"",   27.5461E+06,  -11.6700E+06,  -11.6700E+06
C:/temp/Job-6.odb,Step-1,Increment      1: Step Time =    1.000,"P-6-1",           350,       5.45077,       5.38976,            0.,NA,NA,"",   13.2316E+06,   13.6682E+06,   13.6682E+06
C:/temp/Job-6.odb,Step-1,Increment      1: Step Time =    1.000,"P-6-1",           351,       65.3581,       3.69612,            0.,NA,NA,"",   52.4690E+06,   45.6728E+06,   45.6728E+06
C:/temp/Job-6.odb,Step-1,Increment      1: Step Time =    1.000,"P-6-1",           352,       4.63525,       39.5153,            0.,NA,NA,"",   4.60643E+06,  -4.58299E+06,  -4.58299E+06
C:/temp/Job-6.odb,Step-1,Increment      1: Step Time =    1.000,"P-6-1",           353,       4.33334,       25.3671,            0.,NA,NA,"",   1.92688E+06,  -34.4934E+03,  -34.4934E+03
C:/temp/Job-6.odb,Step-1,Increment      1: Step Time =    1.000,"P-6-1",           354,       5.26049,       15.6114,            0.,NA,NA,"",   5.56580E+06,   6.05965E+06,   6.05965E+06
C:/temp/Job-6.odb,Step-1,Increment      1: Step Time =    1.000,"P-6-1",           355,       4.34058,       49.5260,            0.,NA,NA,"",   4.10875E+06,  -4.12438E+06,  -4.12438E+06
C:/temp/Job-6.odb,Step-1,Increment      1: Step Time =    1.000,"P-6-1",           356,       5.18851,       61.0026,            0.,NA,NA,"",   2.52149E+06,  -2.45739E+06,  -2.45739E+06
C:/temp/Job-6.odb,Step-1,Increment      1: Step Time =    1.000,"P-6-1",           357,       3.01457,       65.2724,            0.,NA,NA,"",   1.95128E+06,  -1.82230E+06,  -1.82230E+06
C:/temp/Job-6.odb,Step-1,Increment      1: Step Time =    1.000,"P-6-1",           358,       4.74878,       70.3139,            0.,NA,NA,"",   1.36686E+06,  -1.30222E+06,  -1.30222E+06
C:/temp/Job-6.odb,Step-1,Increment      1: Step Time =    1.000,"P-6-1",           359,       5.00485,       194.949,            0.,NA,NA,"",   10.7553E+06,   11.1738E+06,   11.1738E+06
C:/temp/Job-6.odb,Step-1,Increment      1: Step Time =    1.000,"P-6-1",           360,       25.1578,       194.620,            0.,NA,NA,"",   12.3759E+06,   12.3518E+06,   12.3518E+06
C:/temp/Job-6.odb,Step-1,Increment      1: Step Time =    1.000,"P-6-1",           361,       15.0575,       194.662,            0.,NA,NA,"",   11.3292E+06,   11.3860E+06,   11.3860E+06
C:/temp/Job-6.odb,Step-1,Increment      1: Step Time =    1.000,"P-6-1",           362,       44.7796,       194.914,            0.,NA,NA,"",   13.7206E+06,   13.4367E+06,   13.4367E+06
C:/temp/Job-6.odb,Step-1,Increment      1: Step Time =    1.000,"P-6-1",           363,       34.9322,       195.279,            0.,NA,NA,"",   13.8579E+06,   13.7987E+06,   13.7987E+06
C:/temp/Job-6.odb,Step-1,Increment      1: Step Time =    1.000,"P-6-1",           364,       54.7071,       194.752,            0.,NA,NA,"",   13.0399E+06,   11.9262E+06,   11.9262E+06
C:/temp/Job-6.odb,Step-1,Increment      1: Step Time =    1.000,"P-6-1",           365,       59.6848,       195.259,            0.,NA,NA,"",   12.7891E+06,   11.4386E+06,   11.4386E+06
C:/temp/Job-6.odb,Step-1,Increment      1: Step Time =    1.000,"P-6-1",           366,       64.7986,       192.104,            0.,NA,NA,"",   17.1235E+06,   14.8940E+06,   14.8940E+06
C:/temp/Job-6.odb,Step-1,Increment      1: Step Time =    1.000,"P-6-1",           367,       15.7422,       4.81997,            0.,NA,NA,"",   15.5456E+06,   15.6077E+06,   15.6077E+06
C:/temp/Job-6.odb,Step-1,Increment      1: Step Time =    1.000,"P-6-1",           368,       25.1867,       4.21554,            0.,NA,NA,"",   18.9827E+06,   18.9399E+06,   18.9399E+06
C:/temp/Job-6.odb,Step-1,Increment      1: Step Time =    1.000,"P-6-1",           369,       34.8560,       4.65662,            0.,NA,NA,"",   22.5459E+06,   22.4478E+06,   22.4478E+06
C:/temp/Job-6.odb,Step-1,Increment      1: Step Time =    1.000,"P-6-1",           370,       44.8169,       4.45888,            0.,NA,NA,"",   27.5608E+06,   27.4497E+06,   27.4497E+06
C:/temp/Job-6.odb,Step-1,Increment      1: Step Time =    1.000,"P-6-1",           371,       55.2088,       4.68587,            0.,NA,NA,"",   29.2815E+06,   29.4972E+06,   29.4972E+06
C:/temp/Job-6.odb,Step-1,Increment      1: Step Time =    1.000,"P-6-1",           372,       195.057,       15.7565,            0.,NA,NA,"",   3.09678E+06,  -2.18043E+06,  -2.18043E+06
C:/temp/Job-6.odb,Step-1,Increment      1: Step Time =    1.000,"P-6-1",           373,       195.579,       25.6658,            0.,NA,NA,"",   4.33653E+06,  -3.50665E+06,  -3.50665E+06
C:/temp/Job-6.odb,Step-1,Increment      1: Step Time =    1.000,"P-6-1",           374,       196.044,       35.0819,            0.,NA,NA,"",   4.85039E+06,  -4.14124E+06,  -4.14124E+06
C:/temp/Job-6.odb,Step-1,Increment      1: Step Time =    1.000,"P-6-1",           375,       195.781,       44.4069,            0.,NA,NA,"",   4.32388E+06,  -2.85541E+06,  -2.85541E+06
C:/temp/Job-6.odb,Step-1,Increment      1: Step Time =    1.000,"P-6-1",           376,       194.235,       54.8156,            0.,NA,NA,"",   4.24372E+06,   729.741E+03,   729.741E+03
C:/temp/Job-6.odb,Step-1,Increment      1: Step Time =    1.000,"P-6-1",           377,       196.312,       74.7299,            0.,NA,NA,"",   5.22079E+06,   5.04036E+06,   5.04036E+06
C:/temp/Job-6.odb,Step-1,Increment      1: Step Time =    1.000,"P-6-1",           378,       194.681,       146.332,            0.,NA,NA,"",   10.7038E+06,  -7.71764E+06,  -7.71764E+06
C:/temp/Job-6.odb,Step-1,Increment      1: Step Time =    1.000,"P-6-1",           379,       184.862,       194.778,            0.,NA,NA,"",   5.46447E+06,  -4.61751E+06,  -4.61751E+06
C:/temp/Job-6.odb,Step-1,Increment      1: Step Time =    1.000,"P-6-1",           380,       174.889,       195.419,            0.,NA,NA,"",   9.68961E+06,  -9.04740E+06,  -9.04740E+06
C:/temp/Job-6.odb,Step-1,Increment      1: Step Time =    1.000,"P-6-1",           381,       145.122,       193.301,            0.,NA,NA,"",   23.0616E+06,  -1.77576E+06,  -1.77576E+06
C:/temp/Job-6.odb,Step-1,Increment      1: Step Time =    1.000,"P-6-1",           382,       136.074,       196.560,            0.,NA,NA,"",   61.1920E+06,  -46.8990E+06,  -46.8990E+06
C:/temp/Job-6.odb,Step-1,Increment      1: Step Time =    1.000,"P-6-1",           383,       125.350,       195.661,            0.,NA,NA,"",   154.437E+06,   18.3611E+06,   18.3611E+06
C:/temp/Job-6.odb,Step-1,Increment      1: Step Time =    1.000,"P-6-1",           384,       4.98858,       184.845,            0.,NA,NA,"",   5.00769E+06,   5.50359E+06,   5.50359E+06
C:/temp/Job-6.odb,Step-1,Increment      1: Step Time =    1.000,"P-6-1",           385,       4.74612,       174.810,            0.,NA,NA,"",   1.12620E+06,   1.12632E+06,   1.12632E+06
C:/temp/Job-6.odb,Step-1,Increment      1: Step Time =    1.000,"P-6-1",           386,       4.30208,       165.022,            0.,NA,NA,"",   2.13273E+06,  -2.01803E+06,  -2.01803E+06
C:/temp/Job-6.odb,Step-1,Increment      1: Step Time =    1.000,"P-6-1",           387,       4.09250,       155.271,            0.,NA,NA,"",   3.01318E+06,  -2.99333E+06,  -2.99333E+06
C:/temp/Job-6.odb,Step-1,Increment      1: Step Time =    1.000,"P-6-1",           388,       4.39990,       145.181,            0.,NA,NA,"",   2.45403E+06,  -2.41390E+06,  -2.41390E+06
C:/temp/Job-6.odb,Step-1,Increment      1: Step Time =    1.000,"P-6-1",           389,       3.53901,       135.691,            0.,NA,NA,"",   1.52099E+06,  -1.44841E+06,  -1.44841E+06
C:/temp/Job-6.odb,Step-1,Increment      1: Step Time =    1.000,"P-6-1",           390,       74.7341,       195.646,            0.,NA,NA,"",   44.1129E+06,   12.5531E+06,   12.5531E+06
C:/temp/Job-6.odb,Step-1,Increment      1: Step Time =    1.000,"P-6-1",           391,       75.6504,       3.91618,            0.,NA,NA,"",   76.6359E+06,   5.82909E+06,   5.82909E+06
C:/temp/Job-6.odb,Step-1,Increment      1: Step Time =    1.000,"P-6-1",           392,       189.338,       5.59637,            0.,NA,NA,"",   1.88125E+06,  -81.2368E+03,  -81.2368E+03
C:/temp/Job-6.odb,Step-1,Increment      1: Step Time =    1.000,"P-6-1",           393,       179.255,       4.68283,            0.,NA,NA,"",   3.16665E+06,  -1.68513E+06,  -1.68513E+06
C:/temp/Job-6.odb,Step-1,Increment      1: Step Time =    1.000,"P-6-1",           394,       169.497,       4.28955,            0.,NA,NA,"",   6.42485E+06,  -3.33508E+06,  -3.33508E+06
C:/temp/Job-6.odb,Step-1,Increment      1: Step Time =    1.000,"P-6-1",           395,       159.579,       4.17485,            0.,NA,NA,"",   9.83823E+06,  -5.45217E+06,  -5.45217E+06
C:/temp/Job-6.odb,Step-1,Increment      1: Step Time =    1.000,"P-6-1",           396,       149.667,       4.04157,            0.,NA,NA,"",   16.0773E+06,  -9.16315E+06,  -9.16315E+06
C:/temp/Job-6.odb,Step-1,Increment      1: Step Time =    1.000,"P-6-1",           397,       130.723,       4.40128,            0.,NA,NA,"",   40.0356E+06,  -10.0069E+06,  -10.0069E+06
C:/temp/Job-6.odb,Step-1,Increment      1: Step Time =    1.000,"P-6-1",           398,       70.3055,       4.63761,            0.,NA,NA,"",   63.2195E+06,   18.2273E+06,   18.2273E+06
C:/temp/Job-6.odb,Step-1,Increment      1: Step Time =    1.000,"P-6-1",           399,       60.3774,       4.24277,            0.,NA,NA,"",   35.2733E+06,   27.3631E+06,   27.3631E+06
C:/temp/Job-6.odb,Step-1,Increment      1: Step Time =    1.000,"P-6-1",           400,       49.9605,       4.46259,            0.,NA,NA,"",   29.2966E+06,   29.0502E+06,   29.0502E+06
C:/temp/Job-6.odb,Step-1,Increment      1: Step Time =    1.000,"P-6-1",           401,       39.8223,       4.60793,            0.,NA,NA,"",   25.0901E+06,   24.9419E+06,   24.9419E+06
C:/temp/Job-6.odb,Step-1,Increment      1: Step Time =    1.000,"P-6-1",           402,       29.9485,       4.51965,            0.,NA,NA,"",   20.6498E+06,   20.6252E+06,   20.6252E+06
C:/temp/Job-6.odb,Step-1,Increment      1: Step Time =    1.000,"P-6-1",           403,       20.5207,       4.24488,            0.,NA,NA,"",   17.2404E+06,   17.2667E+06,   17.2667E+06
C:/temp/Job-6.odb,Step-1,Increment      1: Step Time =    1.000,"P-6-1",           404,       10.7868,       5.43150,            0.,NA,NA,"",   14.3266E+06,   14.3689E+06,   14.3689E+06
C:/temp/Job-6.odb,Step-1,Increment      1: Step Time =    1.000,"P-6-1",           405,       194.967,       189.884,            0.,NA,NA,"",   4.13506E+06,  -3.14198E+06,  -3.14198E+06
C:/temp/Job-6.odb,Step-1,Increment      1: Step Time =    1.000,"P-6-1",           406,       195.175,       179.842,            0.,NA,NA,"",   7.77803E+06,  -6.60681E+06,  -6.60681E+06
C:/temp/Job-6.odb,Step-1,Increment      1: Step Time =    1.000,"P-6-1",           407,       195.577,       170.059,            0.,NA,NA,"",   10.4940E+06,  -9.67437E+06,  -9.67437E+06
C:/temp/Job-6.odb,Step-1,Increment      1: Step Time =    1.000,"P-6-1",           408,       195.557,       160.535,            0.,NA,NA,"",   11.6575E+06,  -10.9270E+06,  -10.9270E+06
C:/temp/Job-6.odb,Step-1,Increment      1: Step Time =    1.000,"P-6-1",           409,       195.162,       150.950,            0.,NA,NA,"",   10.9740E+06,  -9.52085E+06,  -9.52085E+06
C:/temp/Job-6.odb,Step-1,Increment      1: Step Time =    1.000,"P-6-1",           410,       195.073,       129.685,            0.,NA,NA,"",   27.0428E+06,   5.72646E+06,   5.72646E+06
C:/temp/Job-6.odb,Step-1,Increment      1: Step Time =    1.000,"P-6-1",           411,       195.631,       70.6251,            0.,NA,NA,"",   4.74784E+06,   4.28832E+06,   4.28832E+06
C:/temp/Job-6.odb,Step-1,Increment      1: Step Time =    1.000,"P-6-1",           412,       195.630,       60.6969,            0.,NA,NA,"",   4.10784E+06,   579.366E+03,   579.366E+03
C:/temp/Job-6.odb,Step-1,Increment      1: Step Time =    1.000,"P-6-1",           413,       195.130,       49.1459,            0.,NA,NA,"",   3.86067E+06,  -1.46424E+06,  -1.46424E+06
C:/temp/Job-6.odb,Step-1,Increment      1: Step Time =    1.000,"P-6-1",           414,       195.768,       39.6814,            0.,NA,NA,"",   4.76617E+06,  -4.03810E+06,  -4.03810E+06
C:/temp/Job-6.odb,Step-1,Increment      1: Step Time =    1.000,"P-6-1",           415,       195.651,       30.4214,            0.,NA,NA,"",   4.59096E+06,  -3.91121E+06,  -3.91121E+06
C:/temp/Job-6.odb,Step-1,Increment      1: Step Time =    1.000,"P-6-1",           416,       195.474,       20.7418,            0.,NA,NA,"",   3.82473E+06,  -2.92054E+06,  -2.92054E+06
C:/temp/Job-6.odb,Step-1,Increment      1: Step Time =    1.000,"P-6-1",           417,       194.518,       10.7160,            0.,NA,NA,"",   2.35277E+06,  -1.06013E+06,  -1.06013E+06
C:/temp/Job-6.odb,Step-1,Increment      1: Step Time =    1.000,"P-6-1",           418,       9.98639,       194.862,            0.,NA,NA,"",   11.1663E+06,   11.2446E+06,   11.2446E+06
C:/temp/Job-6.odb,Step-1,Increment      1: Step Time =    1.000,"P-6-1",           419,       20.1207,       194.402,            0.,NA,NA,"",   11.7048E+06,   11.7203E+06,   11.7203E+06
C:/temp/Job-6.odb,Step-1,Increment      1: Step Time =    1.000,"P-6-1",           420,       30.0984,       194.974,            0.,NA,NA,"",   13.2079E+06,   13.1566E+06,   13.1566E+06
C:/temp/Job-6.odb,Step-1,Increment      1: Step Time =    1.000,"P-6-1",           421,       39.8297,       195.334,            0.,NA,NA,"",   14.1033E+06,   13.9614E+06,   13.9614E+06
C:/temp/Job-6.odb,Step-1,Increment      1: Step Time =    1.000,"P-6-1",           422,       49.7038,       194.462,            0.,NA,NA,"",   13.1387E+06,   12.6223E+06,   12.6223E+06
C:/temp/Job-6.odb,Step-1,Increment      1: Step Time =    1.000,"P-6-1",           423,       69.1693,       194.732,            0.,NA,NA,"",   22.9474E+06,   11.0656E+06,   11.0656E+06
C:/temp/Job-6.odb,Step-1,Increment      1: Step Time =    1.000,"P-6-1",           424,       79.8374,       196.317,            0.,NA,NA,"",   78.1100E+06,   15.9805E+06,   15.9805E+06
C:/temp/Job-6.odb,Step-1,Increment      1: Step Time =    1.000,"P-6-1",           425,       120.176,       196.316,            0.,NA,NA,"",   198.010E+06,   22.0410E+06,   22.0410E+06
C:/temp/Job-6.odb,Step-1,Increment      1: Step Time =    1.000,"P-6-1",           426,       131.378,       194.795,            0.,NA,NA,"",   99.5788E+06,   16.1212E+06,   16.1212E+06
C:/temp/Job-6.odb,Step-1,Increment      1: Step Time =    1.000,"P-6-1",           427,       139.439,       193.384,            0.,NA,NA,"",   43.2223E+06,   10.0174E+06,   10.0174E+06
C:/temp/Job-6.odb,Step-1,Increment      1: Step Time =    1.000,"P-6-1",           428,       149.747,       195.375,            0.,NA,NA,"",   25.3587E+06,  -21.2850E+06,  -21.2850E+06
C:/temp/Job-6.odb,Step-1,Increment      1: Step Time =    1.000,"P-6-1",           429,       160.470,       196.098,            0.,NA,NA,"",   19.4706E+06,  -19.0814E+06,  -19.0814E+06
C:/temp/Job-6.odb,Step-1,Increment      1: Step Time =    1.000,"P-6-1",           430,       170.032,       195.973,            0.,NA,NA,"",   12.5160E+06,  -12.0080E+06,  -12.0080E+06
C:/temp/Job-6.odb,Step-1,Increment      1: Step Time =    1.000,"P-6-1",           431,       179.800,       194.822,            0.,NA,NA,"",   7.52043E+06,  -6.66747E+06,  -6.66747E+06
C:/temp/Job-6.odb,Step-1,Increment      1: Step Time =    1.000,"P-6-1",           432,       189.929,       194.857,            0.,NA,NA,"",   3.57030E+06,  -2.85156E+06,  -2.85156E+06
C:/temp/Job-6.odb,Step-1,Increment      1: Step Time =    1.000,"P-6-1",           433,       5.65752,       10.6220,            0.,NA,NA,"",   9.24911E+06,   9.84133E+06,   9.84133E+06
C:/temp/Job-6.odb,Step-1,Increment      1: Step Time =    1.000,"P-6-1",           434,       4.76233,       20.5105,            0.,NA,NA,"",   2.76655E+06,   2.97682E+06,   2.97682E+06
C:/temp/Job-6.odb,Step-1,Increment      1: Step Time =    1.000,"P-6-1",           435,       7.90462,       30.8198,            0.,NA,NA,"",   3.99685E+06,  -3.46360E+06,  -3.46360E+06
C:/temp/Job-6.odb,Step-1,Increment      1: Step Time =    1.000,"P-6-1",           436,       3.88685,       44.7321,            0.,NA,NA,"",   4.54269E+06,  -4.57965E+06,  -4.57965E+06
C:/temp/Job-6.odb,Step-1,Increment      1: Step Time =    1.000,"P-6-1",           437,       5.06571,       54.5864,            0.,NA,NA,"",   3.44300E+06,   -3.4191E+06,   -3.4191E+06
C:/temp/Job-6.odb,Step-1,Increment      1: Step Time =    1.000,"P-6-1",           438,       3.79040,       76.1102,            0.,NA,NA,"",   827.876E+03,  -782.079E+03,  -782.079E+03
C:/temp/Job-6.odb,Step-1,Increment      1: Step Time =    1.000,"P-6-1",           439,       2.98034,       119.542,            0.,NA,NA,"",   387.482E+03,  -357.686E+03,  -357.686E+03
C:/temp/Job-6.odb,Step-1,Increment      1: Step Time =    1.000,"P-6-1",           440,       4.96349,       130.502,            0.,NA,NA,"",   1.05816E+06,  -1.02008E+06,  -1.02008E+06
C:/temp/Job-6.odb,Step-1,Increment      1: Step Time =    1.000,"P-6-1",           441,       3.74528,       140.494,            0.,NA,NA,"",   2.00028E+06,  -1.93419E+06,  -1.93419E+06
C:/temp/Job-6.odb,Step-1,Increment      1: Step Time =    1.000,"P-6-1",           442,       4.27121,       150.261,            0.,NA,NA,"",   2.84556E+06,  -2.82174E+06,  -2.82174E+06
C:/temp/Job-6.odb,Step-1,Increment      1: Step Time =    1.000,"P-6-1",           443,       4.05111,       160.132,            0.,NA,NA,"",   2.78708E+06,  -2.74365E+06,  -2.74365E+06
C:/temp/Job-6.odb,Step-1,Increment      1: Step Time =    1.000,"P-6-1",           444,       4.57717,       169.887,            0.,NA,NA,"",   1.22418E+06,  -486.535E+03,  -486.535E+03
C:/temp/Job-6.odb,Step-1,Increment      1: Step Time =    1.000,"P-6-1",           445,       5.00839,       179.734,            0.,NA,NA,"",   2.59655E+06,   2.91208E+06,   2.91208E+06
C:/temp/Job-6.odb,Step-1,Increment      1: Step Time =    1.000,"P-6-1",           446,       4.97129,       189.929,            0.,NA,NA,"",   7.79774E+06,   8.36646E+06,   8.36646E+06
C:/temp/Job-6.odb,Step-1,Increment      1: Step Time =    1.000,"P-6-1",           447,       37.0705,       176.958,            0.,NA,NA,"",   7.65438E+06,  -7.73058E+06,  -7.73058E+06
C:/temp/Job-6.odb,Step-1,Increment      1: Step Time =    1.000,"P-6-1",           448,       173.109,       32.2892,            0.,NA,NA,"",   8.71351E+06,   8.86552E+06,   8.86552E+06
C:/temp/Job-6.odb,Step-1,Increment      1: Step Time =    1.000,"P-6-1",           449,       19.5576,       158.018,            0.,NA,NA,"",   5.42046E+06,  -5.42163E+06,  -5.42163E+06
C:/temp/Job-6.odb,Step-1,Increment      1: Step Time =    1.000,"P-6-1",           450,       154.567,       181.929,            0.,NA,NA,"",   33.0358E+06,   33.3455E+06,   33.3455E+06
C:/temp/Job-6.odb,Step-1,Increment      1: Step Time =    1.000,"P-6-1",           451,       176.390,       36.1686,            0.,NA,NA,"",   8.34775E+06,   8.63034E+06,   8.63034E+06
C:/temp/Job-6.odb,Step-1,Increment      1: Step Time =    1.000,"P-6-1",           452,       51.6697,       13.6660,            0.,NA,NA,"",   22.9790E+06,  -23.2068E+06,  -23.2068E+06
C:/temp/Job-6.odb,Step-1,Increment      1: Step Time =    1.000,"P-6-1",           453,       191.746,       62.4269,            0.,NA,NA,"",   7.18754E+06,   7.23505E+06,   7.23505E+06
C:/temp/Job-6.odb,Step-1,Increment      1: Step Time =    1.000,"P-6-1",           454,       34.6493,       24.5650,            0.,NA,NA,"",   15.0938E+06,  -15.3790E+06,  -15.3790E+06
C:/temp/Job-6.odb,Step-1,Increment      1: Step Time =    1.000,"P-6-1",           455,       165.978,       24.9276,            0.,NA,NA,"",   10.4812E+06,   10.8482E+06,   10.8482E+06
C:/temp/Job-6.odb,Step-1,Increment      1: Step Time =    1.000,"P-6-1",           456,       60.0133,       190.798,            0.,NA,NA,"",   9.96279E+06,   7.90338E+06,   7.90338E+06
C:/temp/Job-6.odb,Step-1,Increment      1: Step Time =    1.000,"P-6-1",           457,       174.334,       166.325,            0.,NA,NA,"",   14.6915E+06,   15.2756E+06,   15.2756E+06
C:/temp/Job-6.odb,Step-1,Increment      1: Step Time =    1.000,"P-6-1",           458,       24.4682,       36.0471,            0.,NA,NA,"",   10.5435E+06,  -10.6011E+06,  -10.6011E+06
C:/temp/Job-6.odb,Step-1,Increment      1: Step Time =    1.000,"P-6-1",           459,       61.3109,       8.31047,            0.,NA,NA,"",   25.6044E+06,  -21.9061E+06,  -21.9061E+06
C:/temp/Job-6.odb,Step-1,Increment      1: Step Time =    1.000,"P-6-1",           460,       184.704,       153.706,            0.,NA,NA,"",   14.8656E+06,   15.4027E+06,   15.4027E+06
C:/temp/Job-6.odb,Step-1,Increment      1: Step Time =    1.000,"P-6-1",           461,       162.536,       176.772,            0.,NA,NA,"",   21.5235E+06,   21.9277E+06,   21.9277E+06
C:/temp/Job-6.odb,Step-1,Increment      1: Step Time =    1.000,"P-6-1",           462,       177.848,       162.433,            0.,NA,NA,"",   14.5310E+06,   15.0935E+06,   15.0935E+06
C:/temp/Job-6.odb,Step-1,Increment      1: Step Time =    1.000,"P-6-1",           463,       32.3613,       174.173,            0.,NA,NA,"",   6.76448E+06,  -6.85966E+06,  -6.85966E+06
C:/temp/Job-6.odb,Step-1,Increment      1: Step Time =    1.000,"P-6-1",           464,       126.302,       4.20380,            0.,NA,NA,"",   53.4044E+06,   8.32384E+06,   8.32384E+06
C:/temp/Job-6.odb,Step-1,Increment      1: Step Time =    1.000,"P-6-1",           465,       135.993,       191.339,            0.,NA,NA,"",   74.1823E+06,   73.3847E+06,   73.3847E+06
C:/temp/Job-6.odb,Step-1,Increment      1: Step Time =    1.000,"P-6-1",           466,       189.970,       138.789,            0.,NA,NA,"",   23.8764E+06,   24.0204E+06,   24.0204E+06
C:/temp/Job-6.odb,Step-1,Increment      1: Step Time =    1.000,"P-6-1",           467,       25.8771,       165.800,            0.,NA,NA,"",   7.26609E+06,  -7.30002E+06,  -7.30002E+06
C:/temp/Job-6.odb,Step-1,Increment      1: Step Time =    1.000,"P-6-1",           468,       18.1783,       44.0754,            0.,NA,NA,"",   7.05486E+06,  -7.03574E+06,  -7.03574E+06
C:/temp/Job-6.odb,Step-1,Increment      1: Step Time =    1.000,"P-6-1",           469,       21.3251,       40.1089,            0.,NA,NA,"",   8.83139E+06,  -8.85166E+06,  -8.85166E+06
C:/temp/Job-6.odb,Step-1,Increment      1: Step Time =    1.000,"P-6-1",           470,       27.3358,       31.9646,            0.,NA,NA,"",   11.9244E+06,  -12.0382E+06,  -12.0382E+06
C:/temp/Job-6.odb,Step-1,Increment      1: Step Time =    1.000,"P-6-1",           471,       181.271,       158.231,            0.,NA,NA,"",   14.7900E+06,   15.2504E+06,   15.2504E+06
C:/temp/Job-6.odb,Step-1,Increment      1: Step Time =    1.000,"P-6-1",           472,       41.1039,       179.907,            0.,NA,NA,"",   7.65025E+06,  -7.60930E+06,  -7.60930E+06
C:/temp/Job-6.odb,Step-1,Increment      1: Step Time =    1.000,"P-6-1",           473,       150.649,       184.947,            0.,NA,NA,"",   37.6254E+06,   37.9343E+06,   37.9343E+06
C:/temp/Job-6.odb,Step-1,Increment      1: Step Time =    1.000,"P-6-1",           474,       14.0784,       149.304,            0.,NA,NA,"",   3.41014E+06,  -3.41911E+06,  -3.41911E+06
C:/temp/Job-6.odb,Step-1,Increment      1: Step Time =    1.000,"P-6-1",           475,       158.406,       179.084,            0.,NA,NA,"",   26.7969E+06,   27.0862E+06,   27.0862E+06
C:/temp/Job-6.odb,Step-1,Increment      1: Step Time =    1.000,"P-6-1",           476,       30.7497,       28.0345,            0.,NA,NA,"",   13.3729E+06,  -13.5188E+06,  -13.5188E+06
C:/temp/Job-6.odb,Step-1,Increment      1: Step Time =    1.000,"P-6-1",           477,       149.323,       12.9865,            0.,NA,NA,"",   19.5477E+06,   17.1323E+06,   17.1323E+06
C:/temp/Job-6.odb,Step-1,Increment      1: Step Time =    1.000,"P-6-1",           478,       196.506,       119.502,            0.,NA,NA,"",   26.4889E+06,   5.93656E+06,   5.93656E+06
C:/temp/Job-6.odb,Step-1,Increment      1: Step Time =    1.000,"P-6-1",           479,       166.719,       173.617,            0.,NA,NA,"",   17.8933E+06,   18.4462E+06,   18.4462E+06
C:/temp/Job-6.odb,Step-1,Increment      1: Step Time =    1.000,"P-6-1",           480,       29.2079,       169.560,            0.,NA,NA,"",   7.63272E+06,  -7.71185E+06,  -7.71185E+06
C:/temp/Job-6.odb,Step-1,Increment      1: Step Time =    1.000,"P-6-1",           481,       47.4583,       16.1059,            0.,NA,NA,"",   22.0879E+06,  -22.2353E+06,  -22.2353E+06
C:/temp/Job-6.odb,Step-1,Increment      1: Step Time =    1.000,"P-6-1",           482,       182.484,       44.4775,            0.,NA,NA,"",   8.32678E+06,   8.51275E+06,   8.51275E+06
C:/temp/Job-6.odb,Step-1,Increment      1: Step Time =    1.000,"P-6-1",           483,       9.86741,       139.265,            0.,NA,NA,"",   1.87289E+06,  -1.88885E+06,  -1.88885E+06
C:/temp/Job-6.odb,Step-1,Increment      1: Step Time =    1.000,"P-6-1",           484,       79.4443,       3.34948,            0.,NA,NA,"",   75.5493E+06,   19.4179E+06,   19.4179E+06
C:/temp/Job-6.odb,Step-1,Increment      1: Step Time =    1.000,"P-6-1",           485,       9.84025,       63.5096,            0.,NA,NA,"",   2.05183E+06,  -2.06168E+06,  -2.06168E+06
C:/temp/Job-6.odb,Step-1,Increment      1: Step Time =    1.000,"P-6-1",           486,       22.6151,       162.051,            0.,NA,NA,"",   6.39967E+06,  -6.41476E+06,  -6.41476E+06
C:/temp/Job-6.odb,Step-1,Increment      1: Step Time =    1.000,"P-6-1",           487,       140.079,       189.783,            0.,NA,NA,"",   63.6121E+06,   63.3935E+06,   63.3935E+06
C:/temp/Job-6.odb,Step-1,Increment      1: Step Time =    1.000,"P-6-1",           488,       16.6721,       153.747,            0.,NA,NA,"",   4.39732E+06,  -4.39214E+06,  -4.39214E+06
C:/temp/Job-6.odb,Step-1,Increment      1: Step Time =    1.000,"P-6-1",           489,       8.20228,       134.818,            0.,NA,NA,"",   1.41273E+06,  -1.40616E+06,  -1.40616E+06
C:/temp/Job-6.odb,Step-1,Increment      1: Step Time =    1.000,"P-6-1",           490,       179.498,       40.2190,            0.,NA,NA,"",   8.39098E+06,   8.53754E+06,   8.53754E+06
C:/temp/Job-6.odb,Step-1,Increment      1: Step Time =    1.000,"P-6-1",           491,       139.117,       8.48573,            0.,NA,NA,"",   37.8998E+06,   27.8084E+06,   27.8084E+06
C:/temp/Job-6.odb,Step-1,Increment      1: Step Time =    1.000,"P-6-1",           492,       170.640,       170.045,            0.,NA,NA,"",   15.6497E+06,   16.2567E+06,   16.2567E+06
C:/temp/Job-6.odb,Step-1,Increment      1: Step Time =    1.000,"P-6-1",           493,       45.0248,       183.281,            0.,NA,NA,"",   6.67022E+06,  -6.27987E+06,  -6.27987E+06
C:/temp/Job-6.odb,Step-1,Increment      1: Step Time =    1.000,"P-6-1",           494,       169.642,       28.5399,            0.,NA,NA,"",   9.71881E+06,   9.90155E+06,   9.90155E+06
C:/temp/Job-6.odb,Step-1,Increment      1: Step Time =    1.000,"P-6-1",           495,       40.0445,       14.4264,            0.,NA,NA,"",   7.36013E+06,  -3.63419E+06,  -3.63419E+06
C:/temp/Job-6.odb,Step-1,Increment      1: Step Time =    1.000,"P-6-1",           496,       153.729,       9.20970,            0.,NA,NA,"",   12.1865E+06,  -813.121E+03,  -813.121E+03
C:/temp/Job-6.odb,Step-1,Increment      1: Step Time =    1.000,"P-6-1",           497,       49.7465,       8.45258,            0.,NA,NA,"",   13.2833E+06,   7.58308E+06,   7.58308E+06
C:/temp/Job-6.odb,Step-1,Increment      1: Step Time =    1.000,"P-6-1",           498,       193.313,       66.9360,            0.,NA,NA,"",   6.10505E+06,   5.99013E+06,   5.99013E+06
C:/temp/Job-6.odb,Step-1,Increment      1: Step Time =    1.000,"P-6-1",           499,       135.453,       7.54687,            0.,NA,NA,"",   42.6947E+06,   20.7412E+06,   20.7412E+06
C:/temp/Job-6.odb,Step-1,Increment      1: Step Time =    1.000,"P-6-1",           500,       55.0134,       189.442,            0.,NA,NA,"",   7.76663E+06,   3.42492E+06,   3.42492E+06
C:/temp/Job-6.odb,Step-1,Increment      1: Step Time =    1.000,"P-6-1",           501,       14.9777,       48.2329,            0.,NA,NA,"",   5.37644E+06,  -5.38441E+06,  -5.38441E+06
C:/temp/Job-6.odb,Step-1,Increment      1: Step Time =    1.000,"P-6-1",           502,       185.170,       48.9979,            0.,NA,NA,"",   8.46471E+06,   8.60247E+06,   8.60247E+06
C:/temp/Job-6.odb,Step-1,Increment      1: Step Time =    1.000,"P-6-1",           503,       7.48277,       66.0333,            0.,NA,NA,"",   1.76418E+06,  -1.75036E+06,  -1.75036E+06
C:/temp/Job-6.odb,Step-1,Increment      1: Step Time =    1.000,"P-6-1",           504,       189.609,       142.734,            0.,NA,NA,"",   17.8341E+06,   17.7886E+06,   17.7886E+06
C:/temp/Job-6.odb,Step-1,Increment      1: Step Time =    1.000,"P-6-1",           505,       39.1633,       187.861,            0.,NA,NA,"",   5.38122E+06,   4.88844E+06,   4.88844E+06
C:/temp/Job-6.odb,Step-1,Increment      1: Step Time =    1.000,"P-6-1",           506,       160.105,       181.560,            0.,NA,NA,"",   20.3512E+06,   20.6009E+06,   20.6009E+06
C:/temp/Job-6.odb,Step-1,Increment      1: Step Time =    1.000,"P-6-1",           507,       183.320,       37.6098,            0.,NA,NA,"",   4.70620E+06,   5.02813E+06,   5.02813E+06
C:/temp/Job-6.odb,Step-1,Increment      1: Step Time =    1.000,"P-6-1",           508,       31.4316,       179.477,            0.,NA,NA,"",   2.81258E+06,  -2.14403E+06,  -2.14403E+06
C:/temp/Job-6.odb,Step-1,Increment      1: Step Time =    1.000,"P-6-1",           509,       173.681,       25.5847,            0.,NA,NA,"",   6.08334E+06,   6.36668E+06,   6.36668E+06
C:/temp/Job-6.odb,Step-1,Increment      1: Step Time =    1.000,"P-6-1",           510,       23.0975,       28.9790,            0.,NA,NA,"",   7.40274E+06,  -7.28006E+06,  -7.28006E+06
C:/temp/Job-6.odb,Step-1,Increment      1: Step Time =    1.000,"P-6-1",           511,       15.1249,       40.8929,            0.,NA,NA,"",   6.56590E+06,  -6.41527E+06,  -6.41527E+06
C:/temp/Job-6.odb,Step-1,Increment      1: Step Time =    1.000,"P-6-1",           512,       18.5114,       37.3762,            0.,NA,NA,"",   7.68504E+06,  -7.53167E+06,  -7.53167E+06
C:/temp/Job-6.odb,Step-1,Increment      1: Step Time =    1.000,"P-6-1",           513,       157.694,       184.437,            0.,NA,NA,"",   21.4904E+06,   21.4005E+06,   21.4005E+06
C:/temp/Job-6.odb,Step-1,Increment      1: Step Time =    1.000,"P-6-1",           514,       173.640,       173.504,            0.,NA,NA,"",   9.52139E+06,   10.3978E+06,   10.3978E+06
C:/temp/Job-6.odb,Step-1,Increment      1: Step Time =    1.000,"P-6-1",           515,       25.8970,       171.830,            0.,NA,NA,"",   4.79522E+06,  -4.80632E+06,  -4.80632E+06
C:/temp/Job-6.odb,Step-1,Increment      1: Step Time =    1.000,"P-6-1",           516,       12.9332,       156.504,            0.,NA,NA,"",   3.86187E+06,  -3.77841E+06,  -3.77841E+06
C:/temp/Job-6.odb,Step-1,Increment      1: Step Time =    1.000,"P-6-1",           517,       184.851,       161.325,            0.,NA,NA,"",   6.40166E+06,   6.92881E+06,   6.92881E+06
C:/temp/Job-6.odb,Step-1,Increment      1: Step Time =    1.000,"P-6-1",           518,       186.380,       42.0345,            0.,NA,NA,"",   4.38747E+06,   4.62116E+06,   4.62116E+06
C:/temp/Job-6.odb,Step-1,Increment      1: Step Time =    1.000,"P-6-1",           519,       177.048,       29.4674,            0.,NA,NA,"",   5.44368E+06,    5.8991E+06,    5.8991E+06
C:/temp/Job-6.odb,Step-1,Increment      1: Step Time =    1.000,"P-6-1",           520,       16.2739,       160.978,            0.,NA,NA,"",   4.39889E+06,  -4.28323E+06,  -4.28323E+06
C:/temp/Job-6.odb,Step-1,Increment      1: Step Time =    1.000,"P-6-1",           521,       181.397,       165.843,            0.,NA,NA,"",   7.38423E+06,   8.07675E+06,   8.07675E+06
C:/temp/Job-6.odb,Step-1,Increment      1: Step Time =    1.000,"P-6-1",           522,       189.213,       156.779,            0.,NA,NA,"",   6.29742E+06,   1.89184E+06,   1.89184E+06
C:/temp/Job-6.odb,Step-1,Increment      1: Step Time =    1.000,"P-6-1",           523,       8.35371,       150.766,            0.,NA,NA,"",   3.09489E+06,  -3.06985E+06,  -3.06985E+06
C:/temp/Job-6.odb,Step-1,Increment      1: Step Time =    1.000,"P-6-1",           524,       26.8668,       24.2191,            0.,NA,NA,"",   6.79416E+06,  -6.78367E+06,  -6.78367E+06
C:/temp/Job-6.odb,Step-1,Increment      1: Step Time =    1.000,"P-6-1",           525,       66.1970,       6.97916,            0.,NA,NA,"",   49.2579E+06,  -10.0995E+06,  -10.0995E+06
C:/temp/Job-6.odb,Step-1,Increment      1: Step Time =    1.000,"P-6-1",           526,       8.64833,       164.753,            0.,NA,NA,"",   2.84446E+06,  -2.55476E+06,  -2.55476E+06
C:/temp/Job-6.odb,Step-1,Increment      1: Step Time =    1.000,"P-6-1",           527,       164.190,       8.23972,            0.,NA,NA,"",   10.3183E+06,  -992.650E+03,  -992.650E+03
C:/temp/Job-6.odb,Step-1,Increment      1: Step Time =    1.000,"P-6-1",           528,       34.6623,       9.48815,            0.,NA,NA,"",   12.2633E+06,   11.9180E+06,   11.9180E+06
C:/temp/Job-6.odb,Step-1,Increment      1: Step Time =    1.000,"P-6-1",           529,       7.19069,       35.4689,            0.,NA,NA,"",   4.70663E+06,  -4.43386E+06,  -4.43386E+06
C:/temp/Job-6.odb,Step-1,Increment      1: Step Time =    1.000,"P-6-1",           530,       165.454,       192.192,            0.,NA,NA,"",   10.4293E+06,  -8.73481E+06,  -8.73481E+06
C:/temp/Job-6.odb,Step-1,Increment      1: Step Time =    1.000,"P-6-1",           531,       191.568,       165.406,            0.,NA,NA,"",   6.62706E+06,  -5.41286E+06,  -5.41286E+06
C:/temp/Job-6.odb,Step-1,Increment      1: Step Time =    1.000,"P-6-1",           532,       192.476,       35.1771,            0.,NA,NA,"",   3.05120E+06,  -1.35947E+06,  -1.35947E+06
C:/temp/Job-6.odb,Step-1,Increment      1: Step Time =    1.000,"P-6-1",           533,       35.1093,       190.720,            0.,NA,NA,"",   8.96641E+06,   8.74950E+06,   8.74950E+06
C:/temp/Job-6.odb,Step-1,Increment      1: Step Time =    1.000,"P-6-1",           534,       189.763,       47.1584,            0.,NA,NA,"",   3.78649E+06,   3.71801E+06,   3.71801E+06
C:/temp/Job-6.odb,Step-1,Increment      1: Step Time =    1.000,"P-6-1",           535,       8.55997,       48.1023,            0.,NA,NA,"",   4.54745E+06,  -4.54304E+06,  -4.54304E+06
C:/temp/Job-6.odb,Step-1,Increment      1: Step Time =    1.000,"P-6-1",           536,       187.077,       34.9743,            0.,NA,NA,"",   2.41363E+06,   2.53494E+06,   2.53494E+06
C:/temp/Job-6.odb,Step-1,Increment      1: Step Time =    1.000,"P-6-1",           537,       11.7209,       36.9704,            0.,NA,NA,"",   5.74189E+06,  -5.41180E+06,  -5.41180E+06
C:/temp/Job-6.odb,Step-1,Increment      1: Step Time =    1.000,"P-6-1",           538,       31.7970,       184.361,            0.,NA,NA,"",   3.41819E+06,   2.58495E+06,   2.58495E+06
C:/temp/Job-6.odb,Step-1,Increment      1: Step Time =    1.000,"P-6-1",           539,       19.1659,       24.9914,            0.,NA,NA,"",   4.07596E+06,  -2.94137E+06,  -2.94137E+06
C:/temp/Job-6.odb,Step-1,Increment      1: Step Time =    1.000,"P-6-1",           540,       180.973,       26.6646,            0.,NA,NA,"",   3.43602E+06,   3.69105E+06,   3.69105E+06
C:/temp/Job-6.odb,Step-1,Increment      1: Step Time =    1.000,"P-6-1",           541,       12.8468,       163.719,            0.,NA,NA,"",   3.56243E+06,  -3.30500E+06,  -3.30500E+06
C:/temp/Job-6.odb,Step-1,Increment      1: Step Time =    1.000,"P-6-1",           542,       163.256,       12.2053,            0.,NA,NA,"",   11.1806E+06,   4.67655E+06,   4.67655E+06
C:/temp/Job-6.odb,Step-1,Increment      1: Step Time =    1.000,"P-6-1",           543,       161.525,       187.062,            0.,NA,NA,"",   11.8589E+06,   5.44836E+06,   5.44836E+06
C:/temp/Job-6.odb,Step-1,Increment      1: Step Time =    1.000,"P-6-1",           544,       188.015,       164.328,            0.,NA,NA,"",   3.80573E+06,  -32.6897E+03,  -32.6897E+03
C:/temp/Job-6.odb,Step-1,Increment      1: Step Time =    1.000,"P-6-1",           545,       36.0698,       186.503,            0.,NA,NA,"",   4.63978E+06,   4.02129E+06,   4.02129E+06
C:/temp/Job-6.odb,Step-1,Increment      1: Step Time =    1.000,"P-6-1",           546,       185.416,       169.641,            0.,NA,NA,"",   4.41445E+06,   2.75801E+06,   2.75801E+06
C:/temp/Job-6.odb,Step-1,Increment      1: Step Time =    1.000,"P-6-1",           547,       15.0059,       169.227,            0.,NA,NA,"",   2.71677E+06,  -2.36110E+06,  -2.36110E+06
C:/temp/Job-6.odb,Step-1,Increment      1: Step Time =    1.000,"P-6-1",           548,       36.0997,       17.8466,            0.,NA,NA,"",   7.27792E+06,  -7.38774E+06,  -7.38774E+06
C:/temp/Job-6.odb,Step-1,Increment      1: Step Time =    1.000,"P-6-1",           549,       49.0911,       11.4975,            0.,NA,NA,"",   12.0380E+06,  -6.89583E+06,  -6.89583E+06
C:/temp/Job-6.odb,Step-1,Increment      1: Step Time =    1.000,"P-6-1",           550,       189.816,       57.7952,            0.,NA,NA,"",   7.78603E+06,   7.81055E+06,   7.81055E+06
C:/temp/Job-6.odb,Step-1,Increment      1: Step Time =    1.000,"P-6-1",           551,       27.5129,       175.134,            0.,NA,NA,"",   3.64801E+06,  -3.69729E+06,  -3.69729E+06
C:/temp/Job-6.odb,Step-1,Increment      1: Step Time =    1.000,"P-6-1",           552,       156.827,       13.0714,            0.,NA,NA,"",   14.3289E+06,   7.99910E+06,   7.99910E+06
C:/temp/Job-6.odb,Step-1,Increment      1: Step Time =    1.000,"P-6-1",           553,       11.7330,       151.918,            0.,NA,NA,"",   3.42951E+06,  -3.41185E+06,  -3.41185E+06
C:/temp/Job-6.odb,Step-1,Increment      1: Step Time =    1.000,"P-6-1",           554,       22.1547,       19.6137,            0.,NA,NA,"",   3.52882E+06,   582.088E+03,   582.088E+03
C:/temp/Job-6.odb,Step-1,Increment      1: Step Time =    1.000,"P-6-1",           555,       171.853,       16.3297,            0.,NA,NA,"",   8.57711E+06,   1.12035E+06,   1.12035E+06
C:/temp/Job-6.odb,Step-1,Increment      1: Step Time =    1.000,"P-6-1",           556,       160.779,       15.6772,            0.,NA,NA,"",   11.3331E+06,   10.6003E+06,   10.6003E+06
C:/temp/Job-6.odb,Step-1,Increment      1: Step Time =    1.000,"P-6-1",           557,       45.3536,       12.6776,            0.,NA,NA,"",   10.2062E+06,  -4.83250E+06,  -4.83250E+06
C:/temp/Job-6.odb,Step-1,Increment      1: Step Time =    1.000,"P-6-1",           558,       28.2089,       15.2968,            0.,NA,NA,"",   5.48706E+06,   3.29384E+06,   3.29384E+06
C:/temp/Job-6.odb,Step-1,Increment      1: Step Time =    1.000,"P-6-1",           559,       22.9872,       178.513,            0.,NA,NA,"",   1.57290E+06,   149.651E+03,   149.651E+03
C:/temp/Job-6.odb,Step-1,Increment      1: Step Time =    1.000,"P-6-1",           560,       168.691,       184.071,            0.,NA,NA,"",   8.41848E+06,   7.65498E+06,   7.65498E+06
C:/temp/Job-6.odb,Step-1,Increment      1: Step Time =    1.000,"P-6-1",           561,       178.104,       22.5887,            0.,NA,NA,"",   4.09092E+06,   4.08064E+06,   4.08064E+06
C:/temp/Job-6.odb,Step-1,Increment      1: Step Time =    1.000,"P-6-1",           562,       184.924,       30.4195,            0.,NA,NA,"",   2.67209E+06,   2.80195E+06,   2.80195E+06
C:/temp/Job-6.odb,Step-1,Increment      1: Step Time =    1.000,"P-6-1",           563,       14.7094,       31.6641,            0.,NA,NA,"",   5.51414E+06,  -5.00884E+06,  -5.00884E+06
C:/temp/Job-6.odb,Step-1,Increment      1: Step Time =    1.000,"P-6-1",           564,       168.205,       13.6602,            0.,NA,NA,"",   10.0108E+06,  -513.880E+03,  -513.880E+03
C:/temp/Job-6.odb,Step-1,Increment      1: Step Time =    1.000,"P-6-1",           565,       19.8308,       172.499,            0.,NA,NA,"",   2.49056E+06,  -2.27026E+06,  -2.27026E+06
C:/temp/Job-6.odb,Step-1,Increment      1: Step Time =    1.000,"P-6-1",           566,       180.903,       173.678,            0.,NA,NA,"",   4.89620E+06,   5.16573E+06,   5.16573E+06
C:/temp/Job-6.odb,Step-1,Increment      1: Step Time =    1.000,"P-6-1",           567,       41.7803,       186.006,            0.,NA,NA,"",   4.31795E+06,   152.740E+03,   152.740E+03
C:/temp/Job-6.odb,Step-1,Increment      1: Step Time =    1.000,"P-6-1",           568,       187.012,       174.279,            0.,NA,NA,"",   5.48280E+06,   993.749E+03,   993.749E+03
C:/temp/Job-6.odb,Step-1,Increment      1: Step Time =    1.000,"P-6-1",           569,       13.4064,       174.999,            0.,NA,NA,"",   1.33344E+06,   153.665E+03,   153.665E+03
C:/temp/Job-6.odb,Step-1,Increment      1: Step Time =    1.000,"P-6-1",           570,       172.026,       187.028,            0.,NA,NA,"",   7.41181E+06,   156.282E+03,   156.282E+03
C:/temp/Job-6.odb,Step-1,Increment      1: Step Time =    1.000,"P-6-1",           571,       26.7772,       183.963,            0.,NA,NA,"",   3.59918E+06,   3.39858E+06,   3.39858E+06
C:/temp/Job-6.odb,Step-1,Increment      1: Step Time =    1.000,"P-6-1",           572,       175.643,       184.329,            0.,NA,NA,"",   7.10600E+06,   3.19784E+06,   3.19784E+06
C:/temp/Job-6.odb,Step-1,Increment      1: Step Time =    1.000,"P-6-1",           573,       43.9951,       190.047,            0.,NA,NA,"",   7.35579E+06,   5.67896E+06,   5.67896E+06
C:/temp/Job-6.odb,Step-1,Increment      1: Step Time =    1.000,"P-6-1",           574,       172.489,       180.558,            0.,NA,NA,"",   7.78800E+06,   7.85905E+06,   7.85905E+06
C:/temp/Job-6.odb,Step-1,Increment      1: Step Time =    1.000,"P-6-1",           575,       184.459,       178.487,            0.,NA,NA,"",   6.23423E+06,   1.02639E+06,   1.02639E+06
C:/temp/Job-6.odb,Step-1,Increment      1: Step Time =    1.000,"P-6-1",           576,       182.841,       21.0346,            0.,NA,NA,"",   3.34002E+06,   2.90938E+06,   2.90938E+06
C:/temp/Job-6.odb,Step-1,Increment      1: Step Time =    1.000,"P-6-1",           577,       16.1423,       34.4827,            0.,NA,NA,"",   6.49601E+06,  -6.13807E+06,  -6.13807E+06
C:/temp/Job-6.odb,Step-1,Increment      1: Step Time =    1.000,"P-6-1",           578,       14.3501,       22.8633,            0.,NA,NA,"",   2.59447E+06,   606.321E+03,   606.321E+03
C:/temp/Job-6.odb,Step-1,Increment      1: Step Time =    1.000,"P-6-1",           579,       172.873,       12.7608,            0.,NA,NA,"",   7.56211E+06,  -2.24302E+06,  -2.24302E+06
C:/temp/Job-6.odb,Step-1,Increment      1: Step Time =    1.000,"P-6-1",           580,       190.866,       174.662,            0.,NA,NA,"",   7.13744E+06,  -3.58934E+06,  -3.58934E+06
C:/temp/Job-6.odb,Step-1,Increment      1: Step Time =    1.000,"P-6-1",           581,       25.6696,       189.195,            0.,NA,NA,"",   7.82651E+06,   7.76146E+06,   7.76146E+06
C:/temp/Job-6.odb,Step-1,Increment      1: Step Time =    1.000,"P-6-1",           582,       165.176,       18.1617,            0.,NA,NA,"",   8.80224E+06,   8.75324E+06,   8.75324E+06
C:/temp/Job-6.odb,Step-1,Increment      1: Step Time =    1.000,"P-6-1",           583,       22.4780,       182.958,            0.,NA,NA,"",   3.38857E+06,   3.40165E+06,   3.40165E+06
C:/temp/Job-6.odb,Step-1,Increment      1: Step Time =    1.000,"P-6-1",           584,       177.098,       13.2291,            0.,NA,NA,"",   4.77206E+06,   1.48889E+06,   1.48889E+06
C:/temp/Job-6.odb,Step-1,Increment      1: Step Time =    1.000,"P-6-1",           585,       176.637,       177.154,            0.,NA,NA,"",   6.17630E+06,   6.58928E+06,   6.58928E+06
C:/temp/Job-6.odb,Step-1,Increment      1: Step Time =    1.000,"P-6-1",           586,       12.8107,       27.0909,            0.,NA,NA,"",   3.79948E+06,  -2.30698E+06,  -2.30698E+06
C:/temp/Job-6.odb,Step-1,Increment      1: Step Time =    1.000,"P-6-1",           587,       173.498,       8.74692,            0.,NA,NA,"",   5.00036E+06,  -986.460E+03,  -986.460E+03
C:/temp/Job-6.odb,Step-1,Increment      1: Step Time =    1.000,"P-6-1",           588,       179.419,       181.140,            0.,NA,NA,"",   6.50018E+06,   5.25785E+06,   5.25785E+06
C:/temp/Job-6.odb,Step-1,Increment      1: Step Time =    1.000,"P-6-1",           589,       23.4604,       11.6997,            0.,NA,NA,"",   9.40633E+06,   9.35431E+06,   9.35431E+06
C:/temp/Job-6.odb,Step-1,Increment      1: Step Time =    1.000,"P-6-1",           590,       182.099,       18.4325,            0.,NA,NA,"",   3.19855E+06,   2.87576E+06,   2.87576E+06
C:/temp/Job-6.odb,Step-1,Increment      1: Step Time =    1.000,"P-6-1",           591,       23.8583,       174.599,            0.,NA,NA,"",   2.54534E+06,  -2.44748E+06,  -2.44748E+06
C:/temp/Job-6.odb,Step-1,Increment      1: Step Time =    1.000,"P-6-1",           592,       9.84081,       59.3333,            0.,NA,NA,"",   2.69375E+06,  -2.72424E+06,  -2.72424E+06
C:/temp/Job-6.odb,Step-1,Increment      1: Step Time =    1.000,"P-6-1",           593,       8.63997,       26.0644,            0.,NA,NA,"",   2.64646E+06,  -594.658E+03,  -594.658E+03
C:/temp/Job-6.odb,Step-1,Increment      1: Step Time =    1.000,"P-6-1",           594,       181.120,       14.1329,            0.,NA,NA,"",   3.83832E+06,   1.62483E+06,   1.62483E+06
C:/temp/Job-6.odb,Step-1,Increment      1: Step Time =    1.000,"P-6-1",           595,       17.1268,       184.064,            0.,NA,NA,"",   4.35405E+06,   4.51490E+06,   4.51490E+06
C:/temp/Job-6.odb,Step-1,Increment      1: Step Time =    1.000,"P-6-1",           596,       14.6924,       181.242,            0.,NA,NA,"",   2.88568E+06,   3.13250E+06,   3.13250E+06
C:/temp/Job-6.odb,Step-1,Increment      1: Step Time =    1.000,"P-6-1",           597,       186.371,       18.9000,            0.,NA,NA,"",   3.35816E+06,   2.39236E+06,   2.39236E+06
C:/temp/Job-6.odb,Step-1,Increment      1: Step Time =    1.000,"P-6-1",           598,       181.390,       184.761,            0.,NA,NA,"",   7.67617E+06,   1.52581E+06,   1.52581E+06
C:/temp/Job-6.odb,Step-1,Increment      1: Step Time =    1.000,"P-6-1",           599,       14.7601,       189.564,            0.,NA,NA,"",   8.11816E+06,   8.23808E+06,   8.23808E+06
C:/temp/Job-6.odb,Step-1,Increment      1: Step Time =    1.000,"P-6-1",           600,       185.247,       184.468,            0.,NA,NA,"",   7.59071E+06,  -2.49471E+06,  -2.49471E+06
C:/temp/Job-6.odb,Step-1,Increment      1: Step Time =    1.000,"P-6-1",           601,       15.9638,       14.8395,            0.,NA,NA,"",   6.13045E+06,   6.27716E+06,   6.27716E+06
C:/temp/Job-6.odb,Step-1,Increment      1: Step Time =    1.000,"P-6-1",           602,       10.4494,       16.7204,            0.,NA,NA,"",   4.53736E+06,   4.92930E+06,   4.92930E+06
C:/temp/Job-6.odb,Step-1,Increment      1: Step Time =    1.000,"P-6-1",           603,       184.883,       189.611,            0.,NA,NA,"",   7.08272E+06,  -5.05036E+06,  -5.05036E+06
C:/temp/Job-6.odb,Step-1,Increment      1: Step Time =    1.000,"P-6-1",           604,       13.9818,       185.098,            0.,NA,NA,"",   5.14005E+06,   5.37539E+06,   5.37539E+06
C:/temp/Job-6.odb,Step-1,Increment      1: Step Time =    1.000,"P-6-1",           605,       9.71632,       184.833,            0.,NA,NA,"",   5.12164E+06,   5.50433E+06,   5.50433E+06
C:/temp/Job-6.odb,Step-1,Increment      1: Step Time =    1.000,"P-6-1",           606,       190.031,       184.596,            0.,NA,NA,"",   7.03122E+06,  -4.91002E+06,  -4.91002E+06
C:/temp/Job-6.odb,Step-1,Increment      1: Step Time =    1.000,"P-6-1",           607,       184.501,       15.8010,            0.,NA,NA,"",   3.39335E+06,   1.32270E+06,   1.32270E+06
C:/temp/Job-6.odb,Step-1,Increment      1: Step Time =    1.000,"P-6-1",           608,       187.427,       22.2809,            0.,NA,NA,"",   3.13093E+06,   2.21082E+06,   2.21082E+06
C:/temp/Job-6.odb,Step-1,Increment      1: Step Time =    1.000,"P-6-1",           609,       25.0394,       8.30443,            0.,NA,NA,"",   13.5144E+06,   13.3759E+06,   13.3759E+06
C:/temp/Job-6.odb,Step-1,Increment      1: Step Time =    1.000,"P-6-1",           610,       9.35803,       174.447,            0.,NA,NA,"",   1.18844E+06,   515.250E+03,   515.250E+03
C:/temp/Job-6.odb,Step-1,Increment      1: Step Time =    1.000,"P-6-1",           611,       191.082,       26.1988,            0.,NA,NA,"",   3.20258E+06,  -296.544E+03,  -296.544E+03
C:/temp/Job-6.odb,Step-1,Increment      1: Step Time =    1.000,"P-6-1",           612,       174.119,       190.967,            0.,NA,NA,"",   8.27720E+06,  -6.42208E+06,  -6.42208E+06
C:/temp/Job-6.odb,Step-1,Increment      1: Step Time =    1.000,"P-6-1",           613,       183.087,       9.91686,            0.,NA,NA,"",   3.27350E+06,  -135.826E+03,  -135.826E+03
C:/temp/Job-6.odb,Step-1,Increment      1: Step Time =    1.000,"P-6-1",           614,       17.1318,       9.48219,            0.,NA,NA,"",   11.8774E+06,   11.9637E+06,   11.9637E+06
C:/temp/Job-6.odb,Step-1,Increment      1: Step Time =    1.000,"P-6-1",           615,       154.267,       187.282,            0.,NA,NA,"",   19.8357E+06,   18.8966E+06,   18.8966E+06
C:/temp/Job-6.odb,Step-1,Increment      1: Step Time =    1.000,"P-6-1",           616,       151.575,       191.072,            0.,NA,NA,"",   15.3000E+06,   6.20753E+06,   6.20753E+06
C:/temp/Job-6.odb,Step-1,Increment      1: Step Time =    1.000,"P-6-1",           617,       3.13634,       79.8882,            0.,NA,NA,"",   549.059E+03,  -518.402E+03,  -518.402E+03
C:/temp/Job-6.odb,Step-1,Increment      1: Step Time =    1.000,"P-6-1",           618,       190.413,       16.8874,            0.,NA,NA,"",   3.38633E+06,   117.673E+03,   117.673E+03
C:/temp/Job-6.odb,Step-1,Increment      1: Step Time =    1.000,"P-6-1",           619,       121.674,       3.86032,            0.,NA,NA,"",   67.5591E+06,   6.13985E+06,   6.13985E+06
C:/temp/Job-6.odb,Step-1,Increment      1: Step Time =    1.000,"P-6-1",           620,       118.075,       3.76412,            0.,NA,NA,"",   72.5749E+06,   20.1782E+06,   20.1782E+06
C:/temp/Job-6.odb,Step-1,Increment      1: Step Time =    1.000,"P-6-1",           621,       197.038,       114.504,            0.,NA,NA,"",   22.5952E+06,   5.56259E+06,   5.56259E+06
C:/temp/Job-6.odb,Step-1,Increment      1: Step Time =    1.000,"P-6-1",           622,       197.668,       109.517,            0.,NA,NA,"",   17.5170E+06,   2.33189E+06,   2.33189E+06
C:/temp/Job-6.odb,Step-1,Increment      1: Step Time =    1.000,"P-6-1",           623,       64.4917,       195.650,            0.,NA,NA,"",   14.4901E+06,   8.77720E+06,   8.77720E+06
C:/temp/Job-6.odb,Step-1,Increment      1: Step Time =    1.000,"P-6-1",           624,       84.8755,       196.808,            0.,NA,NA,"",   125.876E+06,   19.7456E+06,   19.7456E+06
C:/temp/Job-6.odb,Step-1,Increment      1: Step Time =    1.000,"P-6-1",           625,       89.9124,       197.155,            0.,NA,NA,"",   184.099E+06,   23.7312E+06,   23.7312E+06
C:/temp/Job-6.odb,Step-1,Increment      1: Step Time =    1.000,"P-6-1",           626,       94.9555,       197.361,            0.,NA,NA,"",   242.073E+06,   27.1402E+06,   27.1402E+06
C:/temp/Job-6.odb,Step-1,Increment      1: Step Time =    1.000,"P-6-1",           627,       100.002,       197.436,            0.,NA,NA,"",   284.152E+06,   29.0738E+06,   29.0738E+06
C:/temp/Job-6.odb,Step-1,Increment      1: Step Time =    1.000,"P-6-1",           628,       105.047,       197.364,            0.,NA,NA,"",   297.568E+06,   29.2882E+06,   29.2882E+06
C:/temp/Job-6.odb,Step-1,Increment      1: Step Time =    1.000,"P-6-1",           629,       110.090,       197.157,            0.,NA,NA,"",   280.856E+06,   27.7996E+06,   27.7996E+06
C:/temp/Job-6.odb,Step-1,Increment      1: Step Time =    1.000,"P-6-1",           630,       115.128,       196.810,            0.,NA,NA,"",   243.328E+06,   25.1224E+06,   25.1224E+06
C:/temp/Job-6.odb,Step-1,Increment      1: Step Time =    1.000,"P-6-1",           631,       140.146,       196.829,            0.,NA,NA,"",   55.0659E+06,  -52.8743E+06,  -52.8743E+06
C:/temp/Job-6.odb,Step-1,Increment      1: Step Time =    1.000,"P-6-1",           632,       144.959,       196.621,            0.,NA,NA,"",   40.0898E+06,  -38.9240E+06,  -38.9240E+06
C:/temp/Job-6.odb,Step-1,Increment      1: Step Time =    1.000,"P-6-1",           633,       3.96413,       30.2337,            0.,NA,NA,"",   2.79551E+06,  -2.57659E+06,  -2.57659E+06
C:/temp/Job-6.odb,Step-1,Increment      1: Step Time =    1.000,"P-6-1",           634,       3.69782,       34.9416,            0.,NA,NA,"",   3.83861E+06,  -3.81376E+06,  -3.81376E+06
C:/temp/Job-6.odb,Step-1,Increment      1: Step Time =    1.000,"P-6-1",           635,       3.97449,       124.684,            0.,NA,NA,"",   650.955E+03,  -625.644E+03,  -625.644E+03
C:/temp/Job-6.odb,Step-1,Increment      1: Step Time =    1.000,"P-6-1",           636,       187.269,       53.5703,            0.,NA,NA,"",   8.26140E+06,   8.38269E+06,   8.38269E+06
C:/temp/Job-6.odb,Step-1,Increment      1: Step Time =    1.000,"P-6-1",           637,       12.0190,       44.7276,            0.,NA,NA,"",   5.46142E+06,  -5.37628E+06,  -5.37628E+06
C:/temp/Job-6.odb,Step-1,Increment      1: Step Time =    1.000,"P-6-1",           638,       190.911,       151.795,            0.,NA,NA,"",    5.2311E+06,   1.54148E+06,   1.54148E+06
C:/temp/Job-6.odb,Step-1,Increment      1: Step Time =    1.000,"P-6-1",           639,       149.521,       7.45949,            0.,NA,NA,"",   11.3099E+06,  -2.16132E+06,  -2.16132E+06
C:/temp/Job-6.odb,Step-1,Increment      1: Step Time =    1.000,"P-6-1",           640,       6.23322,       136.653,            0.,NA,NA,"",   1.58484E+06,  -1.56542E+06,  -1.56542E+06
C:/temp/Job-6.odb,Step-1,Increment      1: Step Time =    1.000,"P-6-1",           641,       7.09838,       140.250,            0.,NA,NA,"",   1.94079E+06,  -1.93487E+06,  -1.93487E+06
C:/temp/Job-6.odb,Step-1,Increment      1: Step Time =    1.000,"P-6-1",           642,       8.89718,       41.5051,            0.,NA,NA,"",   5.27331E+06,  -5.12831E+06,  -5.12831E+06
C:/temp/Job-6.odb,Step-1,Increment      1: Step Time =    1.000,"P-6-1",           643,       38.4450,       183.147,            0.,NA,NA,"",   3.90173E+06,  -1.69960E+06,  -1.69960E+06
C:/temp/Job-6.odb,Step-1,Increment      1: Step Time =    1.000,"P-6-1",           644,       192.088,       43.7431,            0.,NA,NA,"",   2.41829E+06,   491.688E+03,   491.688E+03
C:/temp/Job-6.odb,Step-1,Increment      1: Step Time =    1.000,"P-6-1",           645,       19.2182,       31.4269,            0.,NA,NA,"",   6.70853E+06,  -6.40878E+06,  -6.40878E+06
C:/temp/Job-6.odb,Step-1,Increment      1: Step Time =    1.000,"P-6-1",           646,       34.9131,       180.787,            0.,NA,NA,"",   3.46139E+06,  -2.43777E+06,  -2.43777E+06
C:/temp/Job-6.odb,Step-1,Increment      1: Step Time =    1.000,"P-6-1",           647,       44.7905,       8.71289,            0.,NA,NA,"",   12.6907E+06,   11.9835E+06,   11.9835E+06
C:/temp/Job-6.odb,Step-1,Increment      1: Step Time =    1.000,"P-6-1",           648,       8.15989,       155.671,            0.,NA,NA,"",   3.35708E+06,  -3.27528E+06,  -3.27528E+06
C:/temp/Job-6.odb,Step-1,Increment      1: Step Time =    1.000,"P-6-1",           649,       156.483,       192.118,            0.,NA,NA,"",   13.3336E+06,  -6.92883E+06,  -6.92883E+06
C:/temp/Job-6.odb,Step-1,Increment      1: Step Time =    1.000,"P-6-1",           650,       22.6450,       168.781,            0.,NA,NA,"",   4.85564E+06,  -4.80739E+06,  -4.80739E+06
C:/temp/Job-6.odb,Step-1,Increment      1: Step Time =    1.000,"P-6-1",           651,       169.428,       177.205,            0.,NA,NA,"",   11.5727E+06,   12.3168E+06,   12.3168E+06
C:/temp/Job-6.odb,Step-1,Increment      1: Step Time =    1.000,"P-6-1",           652,       19.2757,       181.726,            0.,NA,NA,"",   3.00067E+06,   3.16110E+06,   3.16110E+06
C:/temp/Job-6.odb,Step-1,Increment      1: Step Time =    1.000,"P-6-1",           653,       19.7491,       13.8244,            0.,NA,NA,"",   7.20521E+06,   7.24993E+06,   7.24993E+06
C:/temp/Job-6.odb,Step-1,Increment      1: Step Time =    1.000,"P-6-1",           654,       16.5449,       28.7293,            0.,NA,NA,"",   5.12856E+06,  -4.60942E+06,  -4.60942E+06
C:/temp/Job-6.odb,Step-1,Increment      1: Step Time =    1.000,"P-6-1",           655,       159.741,       10.9564,            0.,NA,NA,"",   12.4287E+06,   3.57436E+06,   3.57436E+06
C:/temp/Job-6.odb,Step-1,Increment      1: Step Time =    1.000,"P-6-1",           656,       34.6194,       14.0933,            0.,NA,NA,"",   5.70565E+06,   1.38970E+06,   1.38970E+06
C:/temp/Job-6.odb,Step-1,Increment      1: Step Time =    1.000,"P-6-1",           657,       175.793,       16.9889,            0.,NA,NA,"",   4.79199E+06,   4.48407E+06,   4.48407E+06
C:/temp/Job-6.odb,Step-1,Increment      1: Step Time =    1.000,"P-6-1",           658,       15.5438,       18.5644,            0.,NA,NA,"",   3.37512E+06,   3.46534E+06,   3.46534E+06
C:/temp/Job-6.odb,Step-1,Increment      1: Step Time =    1.000,"P-6-1",           659,       157.189,       188.965,            0.,NA,NA,"",   12.0034E+06,   5.41584E+06,   5.41584E+06
C:/temp/Job-6.odb,Step-1,Increment      1: Step Time =    1.000,"P-6-1",           660,       187.096,       25.8472,            0.,NA,NA,"",   2.76577E+06,   2.24199E+06,   2.24199E+06
C:/temp/Job-6.odb,Step-1,Increment      1: Step Time =    1.000,"P-6-1",           661,       184.360,       23.8921,            0.,NA,NA,"",   2.94822E+06,   2.61676E+06,   2.61676E+06
C:/temp/Job-6.odb,Step-1,Increment      1: Step Time =    1.000,"P-6-1",           662,       11.1186,       160.079,            0.,NA,NA,"",   3.68315E+06,  -3.50301E+06,  -3.50301E+06
C:/temp/Job-6.odb,Step-1,Increment      1: Step Time =    1.000,"P-6-1",           663,       166.175,       188.035,            0.,NA,NA,"",   8.21250E+06,   630.062E+03,   630.062E+03
C:/temp/Job-6.odb,Step-1,Increment      1: Step Time =    1.000,"P-6-1",           664,       169.323,       189.120,            0.,NA,NA,"",   7.53943E+06,  -2.26148E+06,  -2.26148E+06
C:/temp/Job-6.odb,Step-1,Increment      1: Step Time =    1.000,"P-6-1",           665,       174.833,       20.2566,            0.,NA,NA,"",   4.25924E+06,   4.37469E+06,   4.37469E+06
