ODB Name,Step,Frame,Part Instance Name,    Node Label,X,Y,Z,Section Name,Material Name,Section Point,       S-Mises,S-Max. In-Plane Principal (Abs),S-Max. Principal (Abs)
C:/temp/Job-1.odb,Step-1,Increment      1: Step Time =    1.000,"P-1-1",             1,       85.1397,       164.305,            0.,NA,NA,"",   4.04674E+06,   4.10688E+06,   4.10688E+06
C:/temp/Job-1.odb,Step-1,Increment      1: Step Time =    1.000,"P-1-1",             2,       71.0426,       159.308,            0.,NA,NA,"",   1.28871E+06,   1.23952E+06,   1.23952E+06
C:/temp/Job-1.odb,Step-1,Increment      1: Step Time =    1.000,"P-1-1",             3,       58.4325,       151.265,            0.,NA,NA,"",   1.08009E+06,  -1.04481E+06,  -1.04481E+06
C:/temp/Job-1.odb,Step-1,Increment      1: Step Time =    1.000,"P-1-1",             4,       47.9571,       140.590,            0.,NA,NA,"",   1.82523E+06,  -1.84374E+06,  -1.84374E+06
C:/temp/Job-1.odb,Step-1,Increment      1: Step Time =    1.000,"P-1-1",             5,       40.1544,       127.830,            0.,NA,NA,"",   1.52857E+06,  -1.54776E+06,  -1.54776E+06
C:/temp/Job-1.odb,Step-1,Increment      1: Step Time =    1.000,"P-1-1",             6,       35.4250,       113.641,            0.,NA,NA,"",   950.689E+03,  -966.594E+03,  -966.594E+03
C:/temp/Job-1.odb,Step-1,Increment      1: Step Time =    1.000,"P-1-1",             7,       34.0118,       98.7510,            0.,NA,NA,"",   727.814E+03,  -743.351E+03,  -743.351E+03
C:/temp/Job-1.odb,Step-1,Increment      1: Step Time =    1.000,"P-1-1",             8,       35.9874,       83.9254,            0.,NA,NA,"",   985.880E+03,  -1.00740E+06,  -1.00740E+06
C:/temp/Job-1.odb,Step-1,Increment      1: Step Time =    1.000,"P-1-1",             9,       41.2504,       69.9254,            0.,NA,NA,"",   1.65371E+06,  -1.67280E+06,  -1.67280E+06
C:/temp/Job-1.odb,Step-1,Increment      1: Step Time =    1.000,"P-1-1",            10,       49.5304,       57.4698,            0.,NA,NA,"",   1.81729E+06,  -1.83324E+06,  -1.83324E+06
C:/temp/Job-1.odb,Step-1,Increment      1: Step Time =    1.000,"P-1-1",            11,       60.4022,       47.1983,            0.,NA,NA,"",   980.452E+03,  -904.929E+03,  -904.929E+03
C:/temp/Job-1.odb,Step-1,Increment      1: Step Time =    1.000,"P-1-1",            12,       73.3076,       39.6385,            0.,NA,NA,"",   1.78671E+06,   1.77436E+06,   1.77436E+06
C:/temp/Job-1.odb,Step-1,Increment      1: Step Time =    1.000,"P-1-1",            13,       87.5838,       35.1784,            0.,NA,NA,"",   4.62156E+06,   4.68484E+06,   4.68484E+06
C:/temp/Job-1.odb,Step-1,Increment      1: Step Time =    1.000,"P-1-1",            14,       102.498,       34.0473,            0.,NA,NA,"",   6.95183E+06,   7.03520E+06,   7.03520E+06
C:/temp/Job-1.odb,Step-1,Increment      1: Step Time =    1.000,"P-1-1",            15,       112.416,       35.1784,            0.,NA,NA,"",   7.33476E+06,   7.42871E+06,   7.42871E+06
C:/temp/Job-1.odb,Step-1,Increment      1: Step Time =    1.000,"P-1-1",            16,       126.692,       39.6385,            0.,NA,NA,"",   6.18173E+06,   6.27837E+06,   6.27837E+06
C:/temp/Job-1.odb,Step-1,Increment      1: Step Time =    1.000,"P-1-1",            17,       139.598,       47.1983,            0.,NA,NA,"",   4.17575E+06,   4.24304E+06,   4.24304E+06
C:/temp/Job-1.odb,Step-1,Increment      1: Step Time =    1.000,"P-1-1",            18,       150.470,       57.4698,            0.,NA,NA,"",   2.05511E+06,   2.06564E+06,   2.06564E+06
C:/temp/Job-1.odb,Step-1,Increment      1: Step Time =    1.000,"P-1-1",            19,       158.750,       69.9254,            0.,NA,NA,"",   873.915E+03,  -727.072E+03,  -727.072E+03
C:/temp/Job-1.odb,Step-1,Increment      1: Step Time =    1.000,"P-1-1",            20,       164.013,       83.9254,            0.,NA,NA,"",   2.93765E+06,  -2.95863E+06,  -2.95863E+06
C:/temp/Job-1.odb,Step-1,Increment      1: Step Time =    1.000,"P-1-1",            21,       165.988,       98.7510,            0.,NA,NA,"",   4.25201E+06,  -4.28928E+06,  -4.28928E+06
C:/temp/Job-1.odb,Step-1,Increment      1: Step Time =    1.000,"P-1-1",            22,       164.575,       113.641,            0.,NA,NA,"",   3.20655E+06,  -3.24955E+06,  -3.24955E+06
C:/temp/Job-1.odb,Step-1,Increment      1: Step Time =    1.000,"P-1-1",            23,       159.846,       127.830,            0.,NA,NA,"",   1.08186E+06,  -1.03062E+06,  -1.03062E+06
C:/temp/Job-1.odb,Step-1,Increment      1: Step Time =    1.000,"P-1-1",            24,       152.043,       140.590,            0.,NA,NA,"",   1.66386E+06,   1.65513E+06,   1.65513E+06
C:/temp/Job-1.odb,Step-1,Increment      1: Step Time =    1.000,"P-1-1",            25,       141.567,       151.265,            0.,NA,NA,"",   3.84112E+06,   3.91158E+06,   3.91158E+06
C:/temp/Job-1.odb,Step-1,Increment      1: Step Time =    1.000,"P-1-1",            26,       128.957,       159.308,            0.,NA,NA,"",   6.06415E+06,   6.13688E+06,   6.13688E+06
C:/temp/Job-1.odb,Step-1,Increment      1: Step Time =    1.000,"P-1-1",            27,       114.860,       164.305,            0.,NA,NA,"",   7.33512E+06,   7.43130E+06,   7.43130E+06
C:/temp/Job-1.odb,Step-1,Increment      1: Step Time =    1.000,"P-1-1",            28,          100.,          166.,            0.,NA,NA,"",   6.63615E+06,   6.71005E+06,   6.71005E+06
C:/temp/Job-1.odb,Step-1,Increment      1: Step Time =    1.000,"P-1-1",            29,          190.,            0.,            0.,NA,NA,"",   954.279E+03,   951.070E+03,   951.070E+03
C:/temp/Job-1.odb,Step-1,Increment      1: Step Time =    1.000,"P-1-1",            30,          180.,            0.,            0.,NA,NA,"",   837.928E+03,   835.589E+03,   835.589E+03
C:/temp/Job-1.odb,Step-1,Increment      1: Step Time =    1.000,"P-1-1",            31,          170.,            0.,            0.,NA,NA,"",   671.456E+03,   666.498E+03,   666.498E+03
C:/temp/Job-1.odb,Step-1,Increment      1: Step Time =    1.000,"P-1-1",            32,          160.,            0.,            0.,NA,NA,"",   422.346E+03,   411.849E+03,   411.849E+03
C:/temp/Job-1.odb,Step-1,Increment      1: Step Time =    1.000,"P-1-1",            33,          150.,            0.,            0.,NA,NA,"",   190.246E+03,   21.2961E+03,   21.2961E+03
C:/temp/Job-1.odb,Step-1,Increment      1: Step Time =    1.000,"P-1-1",            34,          140.,            0.,            0.,NA,NA,"",   418.338E+03,  -404.251E+03,  -404.251E+03
C:/temp/Job-1.odb,Step-1,Increment      1: Step Time =    1.000,"P-1-1",            35,          130.,            0.,            0.,NA,NA,"",   759.392E+03,  -749.965E+03,  -749.965E+03
C:/temp/Job-1.odb,Step-1,Increment      1: Step Time =    1.000,"P-1-1",            36,          120.,            0.,            0.,NA,NA,"",   898.889E+03,  -888.777E+03,  -888.777E+03
C:/temp/Job-1.odb,Step-1,Increment      1: Step Time =    1.000,"P-1-1",            37,          110.,            0.,            0.,NA,NA,"",     734.1E+03,  -712.189E+03,  -712.189E+03
C:/temp/Job-1.odb,Step-1,Increment      1: Step Time =    1.000,"P-1-1",            38,          100.,            0.,            0.,NA,NA,"",   417.689E+03,  -60.7124E+03,  -60.7124E+03
C:/temp/Job-1.odb,Step-1,Increment      1: Step Time =    1.000,"P-1-1",            39,           90.,            0.,            0.,NA,NA,"",   909.845E+03,   866.588E+03,   866.588E+03
C:/temp/Job-1.odb,Step-1,Increment      1: Step Time =    1.000,"P-1-1",            40,           80.,            0.,            0.,NA,NA,"",   1.86256E+06,   1.83710E+06,   1.83710E+06
C:/temp/Job-1.odb,Step-1,Increment      1: Step Time =    1.000,"P-1-1",            41,           70.,            0.,            0.,NA,NA,"",   2.75869E+06,   2.74037E+06,   2.74037E+06
C:/temp/Job-1.odb,Step-1,Increment      1: Step Time =    1.000,"P-1-1",            42,           60.,            0.,            0.,NA,NA,"",   3.43844E+06,   3.42812E+06,   3.42812E+06
C:/temp/Job-1.odb,Step-1,Increment      1: Step Time =    1.000,"P-1-1",            43,           50.,            0.,            0.,NA,NA,"",   3.86904E+06,   3.85598E+06,   3.85598E+06
C:/temp/Job-1.odb,Step-1,Increment      1: Step Time =    1.000,"P-1-1",            44,           40.,            0.,            0.,NA,NA,"",   4.06703E+06,   4.06181E+06,   4.06181E+06
C:/temp/Job-1.odb,Step-1,Increment      1: Step Time =    1.000,"P-1-1",            45,           30.,            0.,            0.,NA,NA,"",   4.09158E+06,   4.08795E+06,   4.08795E+06
C:/temp/Job-1.odb,Step-1,Increment      1: Step Time =    1.000,"P-1-1",            46,           20.,            0.,            0.,NA,NA,"",   4.03577E+06,   4.03517E+06,   4.03517E+06
C:/temp/Job-1.odb,Step-1,Increment      1: Step Time =    1.000,"P-1-1",            47,           10.,            0.,            0.,NA,NA,"",   4.05619E+06,   4.05895E+06,   4.05895E+06
C:/temp/Job-1.odb,Step-1,Increment      1: Step Time =    1.000,"P-1-1",            48,          200.,            0.,            0.,NA,NA,"",   997.313E+03,   994.499E+03,   994.499E+03
C:/temp/Job-1.odb,Step-1,Increment      1: Step Time =    1.000,"P-1-1",            49,            0.,            0.,            0.,NA,NA,"",   4.48463E+06,   4.70451E+06,   4.70451E+06
C:/temp/Job-1.odb,Step-1,Increment      1: Step Time =    1.000,"P-1-1",            50,          200.,          190.,            0.,NA,NA,"",   1.02287E+06,   997.504E+03,   997.504E+03
C:/temp/Job-1.odb,Step-1,Increment      1: Step Time =    1.000,"P-1-1",            51,          200.,          180.,            0.,NA,NA,"",   1.07177E+06,   1.00748E+06,   1.00748E+06
C:/temp/Job-1.odb,Step-1,Increment      1: Step Time =    1.000,"P-1-1",            52,          200.,          170.,            0.,NA,NA,"",   1.05817E+06,   1.01619E+06,   1.01619E+06
C:/temp/Job-1.odb,Step-1,Increment      1: Step Time =    1.000,"P-1-1",            53,          200.,          160.,            0.,NA,NA,"",     957.5E+03,   1.03163E+06,   1.03163E+06
C:/temp/Job-1.odb,Step-1,Increment      1: Step Time =    1.000,"P-1-1",            54,          200.,          150.,            0.,NA,NA,"",   982.844E+03,   1.12314E+06,   1.12314E+06
C:/temp/Job-1.odb,Step-1,Increment      1: Step Time =    1.000,"P-1-1",            55,          200.,          140.,            0.,NA,NA,"",   1.50414E+06,   1.73095E+06,   1.73095E+06
C:/temp/Job-1.odb,Step-1,Increment      1: Step Time =    1.000,"P-1-1",            56,          200.,          130.,            0.,NA,NA,"",   2.44010E+06,   2.77211E+06,   2.77211E+06
C:/temp/Job-1.odb,Step-1,Increment      1: Step Time =    1.000,"P-1-1",            57,          200.,          120.,            0.,NA,NA,"",   3.43472E+06,   3.81310E+06,   3.81310E+06
C:/temp/Job-1.odb,Step-1,Increment      1: Step Time =    1.000,"P-1-1",            58,          200.,          110.,            0.,NA,NA,"",   4.20467E+06,   4.60102E+06,   4.60102E+06
C:/temp/Job-1.odb,Step-1,Increment      1: Step Time =    1.000,"P-1-1",            59,          200.,          100.,            0.,NA,NA,"",   4.51957E+06,   4.92203E+06,   4.92203E+06
C:/temp/Job-1.odb,Step-1,Increment      1: Step Time =    1.000,"P-1-1",            60,          200.,           90.,            0.,NA,NA,"",   4.20920E+06,   4.60700E+06,   4.60700E+06
C:/temp/Job-1.odb,Step-1,Increment      1: Step Time =    1.000,"P-1-1",            61,          200.,           80.,            0.,NA,NA,"",   3.43664E+06,   3.81304E+06,   3.81304E+06
C:/temp/Job-1.odb,Step-1,Increment      1: Step Time =    1.000,"P-1-1",            62,          200.,           70.,            0.,NA,NA,"",   2.44488E+06,   2.77435E+06,   2.77435E+06
C:/temp/Job-1.odb,Step-1,Increment      1: Step Time =    1.000,"P-1-1",            63,          200.,           60.,            0.,NA,NA,"",   1.51969E+06,   1.75176E+06,   1.75176E+06
C:/temp/Job-1.odb,Step-1,Increment      1: Step Time =    1.000,"P-1-1",            64,          200.,           50.,            0.,NA,NA,"",   1.01297E+06,   1.16499E+06,   1.16499E+06
C:/temp/Job-1.odb,Step-1,Increment      1: Step Time =    1.000,"P-1-1",            65,          200.,           40.,            0.,NA,NA,"",   963.599E+03,   1.02910E+06,   1.02910E+06
C:/temp/Job-1.odb,Step-1,Increment      1: Step Time =    1.000,"P-1-1",            66,          200.,           30.,            0.,NA,NA,"",   1.06278E+06,   1.01403E+06,   1.01403E+06
C:/temp/Job-1.odb,Step-1,Increment      1: Step Time =    1.000,"P-1-1",            67,          200.,           20.,            0.,NA,NA,"",   1.07148E+06,   1.00607E+06,   1.00607E+06
C:/temp/Job-1.odb,Step-1,Increment      1: Step Time =    1.000,"P-1-1",            68,          200.,           10.,            0.,NA,NA,"",   1.02191E+06,   997.412E+03,   997.412E+03
C:/temp/Job-1.odb,Step-1,Increment      1: Step Time =    1.000,"P-1-1",            69,          200.,          200.,            0.,NA,NA,"",   997.138E+03,   994.178E+03,   994.178E+03
C:/temp/Job-1.odb,Step-1,Increment      1: Step Time =    1.000,"P-1-1",            70,           10.,          200.,            0.,NA,NA,"",    4.0614E+06,   4.06271E+06,   4.06271E+06
C:/temp/Job-1.odb,Step-1,Increment      1: Step Time =    1.000,"P-1-1",            71,           20.,          200.,            0.,NA,NA,"",   4.03251E+06,   4.03060E+06,   4.03060E+06
C:/temp/Job-1.odb,Step-1,Increment      1: Step Time =    1.000,"P-1-1",            72,           30.,          200.,            0.,NA,NA,"",   4.07079E+06,   4.06706E+06,   4.06706E+06
C:/temp/Job-1.odb,Step-1,Increment      1: Step Time =    1.000,"P-1-1",            73,           40.,          200.,            0.,NA,NA,"",   4.05041E+06,   4.04483E+06,   4.04483E+06
C:/temp/Job-1.odb,Step-1,Increment      1: Step Time =    1.000,"P-1-1",            74,           50.,          200.,            0.,NA,NA,"",   3.87396E+06,   3.86737E+06,   3.86737E+06
C:/temp/Job-1.odb,Step-1,Increment      1: Step Time =    1.000,"P-1-1",            75,           60.,          200.,            0.,NA,NA,"",   3.45847E+06,   3.44753E+06,   3.44753E+06
C:/temp/Job-1.odb,Step-1,Increment      1: Step Time =    1.000,"P-1-1",            76,           70.,          200.,            0.,NA,NA,"",   2.77277E+06,   2.75429E+06,   2.75429E+06
C:/temp/Job-1.odb,Step-1,Increment      1: Step Time =    1.000,"P-1-1",            77,           80.,          200.,            0.,NA,NA,"",   1.84512E+06,   1.82039E+06,   1.82039E+06
C:/temp/Job-1.odb,Step-1,Increment      1: Step Time =    1.000,"P-1-1",            78,           90.,          200.,            0.,NA,NA,"",   890.139E+03,   845.358E+03,   845.358E+03
C:/temp/Job-1.odb,Step-1,Increment      1: Step Time =    1.000,"P-1-1",            79,          100.,          200.,            0.,NA,NA,"",   425.013E+03,  -68.1560E+03,  -68.1560E+03
C:/temp/Job-1.odb,Step-1,Increment      1: Step Time =    1.000,"P-1-1",            80,          110.,          200.,            0.,NA,NA,"",   743.319E+03,  -722.792E+03,  -722.792E+03
C:/temp/Job-1.odb,Step-1,Increment      1: Step Time =    1.000,"P-1-1",            81,          120.,          200.,            0.,NA,NA,"",   911.794E+03,  -901.122E+03,  -901.122E+03
C:/temp/Job-1.odb,Step-1,Increment      1: Step Time =    1.000,"P-1-1",            82,          130.,          200.,            0.,NA,NA,"",   748.532E+03,  -734.851E+03,  -734.851E+03
C:/temp/Job-1.odb,Step-1,Increment      1: Step Time =    1.000,"P-1-1",            83,          140.,          200.,            0.,NA,NA,"",   380.171E+03,  -346.845E+03,  -346.845E+03
C:/temp/Job-1.odb,Step-1,Increment      1: Step Time =    1.000,"P-1-1",            84,          150.,          200.,            0.,NA,NA,"",   213.581E+03,   51.2034E+03,   51.2034E+03
C:/temp/Job-1.odb,Step-1,Increment      1: Step Time =    1.000,"P-1-1",            85,          160.,          200.,            0.,NA,NA,"",   439.895E+03,   429.389E+03,   429.389E+03
C:/temp/Job-1.odb,Step-1,Increment      1: Step Time =    1.000,"P-1-1",            86,          170.,          200.,            0.,NA,NA,"",   672.924E+03,   669.495E+03,   669.495E+03
C:/temp/Job-1.odb,Step-1,Increment      1: Step Time =    1.000,"P-1-1",            87,          180.,          200.,            0.,NA,NA,"",   834.760E+03,   832.819E+03,   832.819E+03
C:/temp/Job-1.odb,Step-1,Increment      1: Step Time =    1.000,"P-1-1",            88,          190.,          200.,            0.,NA,NA,"",   951.797E+03,   949.032E+03,   949.032E+03
C:/temp/Job-1.odb,Step-1,Increment      1: Step Time =    1.000,"P-1-1",            89,            0.,          200.,            0.,NA,NA,"",   4.49460E+06,   4.72297E+06,   4.72297E+06
C:/temp/Job-1.odb,Step-1,Increment      1: Step Time =    1.000,"P-1-1",            90,            0.,           10.,            0.,NA,NA,"",   3.11482E+06,   3.42839E+06,   3.42839E+06
C:/temp/Job-1.odb,Step-1,Increment      1: Step Time =    1.000,"P-1-1",            91,            0.,           20.,            0.,NA,NA,"",   2.23204E+06,   2.49052E+06,   2.49052E+06
C:/temp/Job-1.odb,Step-1,Increment      1: Step Time =    1.000,"P-1-1",            92,            0.,           30.,            0.,NA,NA,"",   1.51658E+06,   1.69902E+06,   1.69902E+06
C:/temp/Job-1.odb,Step-1,Increment      1: Step Time =    1.000,"P-1-1",            93,            0.,           40.,            0.,NA,NA,"",   895.400E+03,   1.00342E+06,   1.00342E+06
C:/temp/Job-1.odb,Step-1,Increment      1: Step Time =    1.000,"P-1-1",            94,            0.,           50.,            0.,NA,NA,"",   394.914E+03,   440.288E+03,   440.288E+03
C:/temp/Job-1.odb,Step-1,Increment      1: Step Time =    1.000,"P-1-1",            95,            0.,           60.,            0.,NA,NA,"",   113.877E+03,  -8.26147E+03,  -8.26147E+03
C:/temp/Job-1.odb,Step-1,Increment      1: Step Time =    1.000,"P-1-1",            96,            0.,           70.,            0.,NA,NA,"",   272.074E+03,  -297.255E+03,  -297.255E+03
C:/temp/Job-1.odb,Step-1,Increment      1: Step Time =    1.000,"P-1-1",            97,            0.,           80.,            0.,NA,NA,"",   370.919E+03,  -413.738E+03,  -413.738E+03
C:/temp/Job-1.odb,Step-1,Increment      1: Step Time =    1.000,"P-1-1",            98,            0.,           90.,            0.,NA,NA,"",   377.333E+03,  -429.051E+03,  -429.051E+03
C:/temp/Job-1.odb,Step-1,Increment      1: Step Time =    1.000,"P-1-1",            99,            0.,          100.,            0.,NA,NA,"",   365.963E+03,  -419.919E+03,  -419.919E+03
C:/temp/Job-1.odb,Step-1,Increment      1: Step Time =    1.000,"P-1-1",           100,            0.,          110.,            0.,NA,NA,"",   377.592E+03,  -429.721E+03,  -429.721E+03
C:/temp/Job-1.odb,Step-1,Increment      1: Step Time =    1.000,"P-1-1",           101,            0.,          120.,            0.,NA,NA,"",   370.694E+03,  -414.009E+03,  -414.009E+03
C:/temp/Job-1.odb,Step-1,Increment      1: Step Time =    1.000,"P-1-1",           102,            0.,          130.,            0.,NA,NA,"",   271.382E+03,  -298.169E+03,  -298.169E+03
C:/temp/Job-1.odb,Step-1,Increment      1: Step Time =    1.000,"P-1-1",           103,            0.,          140.,            0.,NA,NA,"",   104.675E+03,  -12.3148E+03,  -12.3148E+03
C:/temp/Job-1.odb,Step-1,Increment      1: Step Time =    1.000,"P-1-1",           104,            0.,          150.,            0.,NA,NA,"",   397.980E+03,   450.202E+03,   450.202E+03
C:/temp/Job-1.odb,Step-1,Increment      1: Step Time =    1.000,"P-1-1",           105,            0.,          160.,            0.,NA,NA,"",   929.846E+03,   1.04337E+06,   1.04337E+06
C:/temp/Job-1.odb,Step-1,Increment      1: Step Time =    1.000,"P-1-1",           106,            0.,          170.,            0.,NA,NA,"",   1.54614E+06,   1.73284E+06,   1.73284E+06
C:/temp/Job-1.odb,Step-1,Increment      1: Step Time =    1.000,"P-1-1",           107,            0.,          180.,            0.,NA,NA,"",   2.25569E+06,   2.51812E+06,   2.51812E+06
C:/temp/Job-1.odb,Step-1,Increment      1: Step Time =    1.000,"P-1-1",           108,            0.,          190.,            0.,NA,NA,"",   3.12399E+06,   3.44216E+06,   3.44216E+06
C:/temp/Job-1.odb,Step-1,Increment      1: Step Time =    1.000,"P-1-1",           109,       103.126,       29.6812,            0.,NA,NA,"",   6.09204E+06,   6.21785E+06,   6.21785E+06
C:/temp/Job-1.odb,Step-1,Increment      1: Step Time =    1.000,"P-1-1",           110,       190.325,       33.8934,            0.,NA,NA,"",   1.15624E+06,   1.17109E+06,   1.17109E+06
C:/temp/Job-1.odb,Step-1,Increment      1: Step Time =    1.000,"P-1-1",           111,       166.805,       72.1556,            0.,NA,NA,"",   1.71279E+06,  -1.31906E+06,  -1.31906E+06
C:/temp/Job-1.odb,Step-1,Increment      1: Step Time =    1.000,"P-1-1",           112,       29.3592,       73.7579,            0.,NA,NA,"",   908.856E+03,  -941.642E+03,  -941.642E+03
C:/temp/Job-1.odb,Step-1,Increment      1: Step Time =    1.000,"P-1-1",           113,       168.907,       127.467,            0.,NA,NA,"",   1.85605E+06,  -1.33898E+06,  -1.33898E+06
C:/temp/Job-1.odb,Step-1,Increment      1: Step Time =    1.000,"P-1-1",           114,       30.3485,       125.804,            0.,NA,NA,"",   947.306E+03,  -981.057E+03,  -981.057E+03
C:/temp/Job-1.odb,Step-1,Increment      1: Step Time =    1.000,"P-1-1",           115,       190.114,       169.733,            0.,NA,NA,"",   1.14098E+06,   1.13910E+06,   1.13910E+06
C:/temp/Job-1.odb,Step-1,Increment      1: Step Time =    1.000,"P-1-1",           116,       175.197,       169.834,            0.,NA,NA,"",   1.62739E+06,   1.55125E+06,   1.55125E+06
C:/temp/Job-1.odb,Step-1,Increment      1: Step Time =    1.000,"P-1-1",           117,       159.438,       168.954,            0.,NA,NA,"",   2.22089E+06,   2.12048E+06,   2.12048E+06
C:/temp/Job-1.odb,Step-1,Increment      1: Step Time =    1.000,"P-1-1",           118,       148.853,       168.846,            0.,NA,NA,"",   2.65946E+06,   2.66864E+06,   2.66864E+06
C:/temp/Job-1.odb,Step-1,Increment      1: Step Time =    1.000,"P-1-1",           119,       135.519,       165.996,            0.,NA,NA,"",   4.05350E+06,   4.19851E+06,   4.19851E+06
C:/temp/Job-1.odb,Step-1,Increment      1: Step Time =    1.000,"P-1-1",           120,       126.015,       168.890,            0.,NA,NA,"",   4.77016E+06,   4.96260E+06,   4.96260E+06
C:/temp/Job-1.odb,Step-1,Increment      1: Step Time =    1.000,"P-1-1",           121,       115.549,       168.432,            0.,NA,NA,"",   6.42899E+06,   6.58204E+06,   6.58204E+06
C:/temp/Job-1.odb,Step-1,Increment      1: Step Time =    1.000,"P-1-1",           122,       83.5521,       169.034,            0.,NA,NA,"",   3.86249E+06,   3.87688E+06,   3.87688E+06
C:/temp/Job-1.odb,Step-1,Increment      1: Step Time =    1.000,"P-1-1",           123,       72.1056,       169.768,            0.,NA,NA,"",   2.81093E+06,   2.59895E+06,   2.59895E+06
C:/temp/Job-1.odb,Step-1,Increment      1: Step Time =    1.000,"P-1-1",           124,       61.6104,       166.868,            0.,NA,NA,"",   2.15661E+06,   1.77922E+06,   1.77922E+06
C:/temp/Job-1.odb,Step-1,Increment      1: Step Time =    1.000,"P-1-1",           125,       52.1079,       169.968,            0.,NA,NA,"",   2.29046E+06,   1.94649E+06,   1.94649E+06
C:/temp/Job-1.odb,Step-1,Increment      1: Step Time =    1.000,"P-1-1",           126,       43.1298,       169.153,            0.,NA,NA,"",   2.02423E+06,   1.77076E+06,   1.77076E+06
C:/temp/Job-1.odb,Step-1,Increment      1: Step Time =    1.000,"P-1-1",           127,       30.4248,       167.969,            0.,NA,NA,"",   1.70689E+06,   1.63311E+06,   1.63311E+06
C:/temp/Job-1.odb,Step-1,Increment      1: Step Time =    1.000,"P-1-1",           128,       18.1959,       166.391,            0.,NA,NA,"",   1.42785E+06,   1.48868E+06,   1.48868E+06
C:/temp/Job-1.odb,Step-1,Increment      1: Step Time =    1.000,"P-1-1",           129,       9.12736,       165.946,            0.,NA,NA,"",   1.30592E+06,   1.43454E+06,   1.43454E+06
C:/temp/Job-1.odb,Step-1,Increment      1: Step Time =    1.000,"P-1-1",           130,       9.44458,       156.964,            0.,NA,NA,"",   711.552E+03,   796.479E+03,   796.479E+03
C:/temp/Job-1.odb,Step-1,Increment      1: Step Time =    1.000,"P-1-1",           131,       20.6569,       157.436,            0.,NA,NA,"",   771.166E+03,   794.419E+03,   794.419E+03
C:/temp/Job-1.odb,Step-1,Increment      1: Step Time =    1.000,"P-1-1",           132,       31.0563,       159.975,            0.,NA,NA,"",   1.09093E+06,   982.801E+03,   982.801E+03
C:/temp/Job-1.odb,Step-1,Increment      1: Step Time =    1.000,"P-1-1",           133,       38.5503,       155.280,            0.,NA,NA,"",   878.716E+03,  -107.154E+03,  -107.154E+03
C:/temp/Job-1.odb,Step-1,Increment      1: Step Time =    1.000,"P-1-1",           134,       49.0721,       157.330,            0.,NA,NA,"",   1.13518E+06,  -356.985E+03,  -356.985E+03
C:/temp/Job-1.odb,Step-1,Increment      1: Step Time =    1.000,"P-1-1",           135,       59.7437,       158.779,            0.,NA,NA,"",   1.09464E+06,   193.429E+03,   193.429E+03
C:/temp/Job-1.odb,Step-1,Increment      1: Step Time =    1.000,"P-1-1",           136,       139.508,       159.175,            0.,NA,NA,"",   4.23512E+06,   4.31981E+06,   4.31981E+06
C:/temp/Job-1.odb,Step-1,Increment      1: Step Time =    1.000,"P-1-1",           137,       150.426,       158.720,            0.,NA,NA,"",   2.89117E+06,   2.89038E+06,   2.89038E+06
C:/temp/Job-1.odb,Step-1,Increment      1: Step Time =    1.000,"P-1-1",           138,       166.722,       156.942,            0.,NA,NA,"",   2.37780E+06,   2.14148E+06,   2.14148E+06
C:/temp/Job-1.odb,Step-1,Increment      1: Step Time =    1.000,"P-1-1",           139,       180.113,       159.579,            0.,NA,NA,"",   1.74382E+06,   1.64744E+06,   1.64744E+06
C:/temp/Job-1.odb,Step-1,Increment      1: Step Time =    1.000,"P-1-1",           140,       190.298,       159.789,            0.,NA,NA,"",   1.22985E+06,   1.27109E+06,   1.27109E+06
C:/temp/Job-1.odb,Step-1,Increment      1: Step Time =    1.000,"P-1-1",           141,       159.404,       145.461,            0.,NA,NA,"",   2.20537E+06,   1.98024E+06,   1.98024E+06
C:/temp/Job-1.odb,Step-1,Increment      1: Step Time =    1.000,"P-1-1",           142,       170.373,       144.743,            0.,NA,NA,"",   2.43245E+06,   1.99358E+06,   1.99358E+06
C:/temp/Job-1.odb,Step-1,Increment      1: Step Time =    1.000,"P-1-1",           143,       180.739,       145.528,            0.,NA,NA,"",   2.14125E+06,   1.93243E+06,   1.93243E+06
C:/temp/Job-1.odb,Step-1,Increment      1: Step Time =    1.000,"P-1-1",           144,       190.496,       149.995,            0.,NA,NA,"",   1.43184E+06,   1.51460E+06,   1.51460E+06
C:/temp/Job-1.odb,Step-1,Increment      1: Step Time =    1.000,"P-1-1",           145,       170.778,       133.980,            0.,NA,NA,"",   2.16865E+06,   886.675E+03,   886.675E+03
C:/temp/Job-1.odb,Step-1,Increment      1: Step Time =    1.000,"P-1-1",           146,       180.701,       136.202,            0.,NA,NA,"",   2.26527E+06,   1.96701E+06,   1.96701E+06
C:/temp/Job-1.odb,Step-1,Increment      1: Step Time =    1.000,"P-1-1",           147,       190.432,       135.577,            0.,NA,NA,"",   1.94343E+06,   2.07805E+06,   2.07805E+06
C:/temp/Job-1.odb,Step-1,Increment      1: Step Time =    1.000,"P-1-1",           148,       181.081,       126.699,            0.,NA,NA,"",   2.09220E+06,   1.76934E+06,   1.76934E+06
C:/temp/Job-1.odb,Step-1,Increment      1: Step Time =    1.000,"P-1-1",           149,       190.041,       125.597,            0.,NA,NA,"",   2.24047E+06,   2.40181E+06,   2.40181E+06
C:/temp/Job-1.odb,Step-1,Increment      1: Step Time =    1.000,"P-1-1",           150,       189.457,       114.986,            0.,NA,NA,"",   2.30018E+06,   2.51161E+06,   2.51161E+06
C:/temp/Job-1.odb,Step-1,Increment      1: Step Time =    1.000,"P-1-1",           151,       178.242,       117.530,            0.,NA,NA,"",   1.62026E+06,   501.952E+03,   501.952E+03
C:/temp/Job-1.odb,Step-1,Increment      1: Step Time =    1.000,"P-1-1",           152,       170.330,       115.393,            0.,NA,NA,"",   2.40516E+06,  -2.32689E+06,  -2.32689E+06
C:/temp/Job-1.odb,Step-1,Increment      1: Step Time =    1.000,"P-1-1",           153,       177.092,       108.532,            0.,NA,NA,"",   1.19212E+06,  -1.00855E+06,  -1.00855E+06
C:/temp/Job-1.odb,Step-1,Increment      1: Step Time =    1.000,"P-1-1",           154,       190.567,       104.657,            0.,NA,NA,"",   2.49292E+06,   2.76956E+06,   2.76956E+06
C:/temp/Job-1.odb,Step-1,Increment      1: Step Time =    1.000,"P-1-1",           155,       181.165,       96.5125,            0.,NA,NA,"",   730.960E+03,   322.496E+03,   322.496E+03
C:/temp/Job-1.odb,Step-1,Increment      1: Step Time =    1.000,"P-1-1",           156,       190.554,       95.0912,            0.,NA,NA,"",   2.50429E+06,   2.78059E+06,   2.78059E+06
C:/temp/Job-1.odb,Step-1,Increment      1: Step Time =    1.000,"P-1-1",           157,       168.167,       82.8734,            0.,NA,NA,"",   2.53487E+06,  -2.50168E+06,  -2.50168E+06
C:/temp/Job-1.odb,Step-1,Increment      1: Step Time =    1.000,"P-1-1",           158,       178.861,       86.3476,            0.,NA,NA,"",   1.41052E+06,  -178.013E+03,  -178.013E+03
C:/temp/Job-1.odb,Step-1,Increment      1: Step Time =    1.000,"P-1-1",           159,       189.868,       85.3965,            0.,NA,NA,"",   2.36683E+06,   2.59061E+06,   2.59061E+06
C:/temp/Job-1.odb,Step-1,Increment      1: Step Time =    1.000,"P-1-1",           160,       169.128,       60.3636,            0.,NA,NA,"",   2.31831E+06,   1.77106E+06,   1.77106E+06
C:/temp/Job-1.odb,Step-1,Increment      1: Step Time =    1.000,"P-1-1",           161,       178.394,       65.6833,            0.,NA,NA,"",   2.25801E+06,   1.84737E+06,   1.84737E+06
C:/temp/Job-1.odb,Step-1,Increment      1: Step Time =    1.000,"P-1-1",           162,       189.263,       65.1107,            0.,NA,NA,"",   1.99101E+06,   2.07949E+06,   2.07949E+06
C:/temp/Job-1.odb,Step-1,Increment      1: Step Time =    1.000,"P-1-1",           163,       189.367,       75.1703,            0.,NA,NA,"",   2.21974E+06,   2.35576E+06,   2.35576E+06
C:/temp/Job-1.odb,Step-1,Increment      1: Step Time =    1.000,"P-1-1",           164,       178.927,       72.4905,            0.,NA,NA,"",   2.08444E+06,   1.63872E+06,   1.63872E+06
C:/temp/Job-1.odb,Step-1,Increment      1: Step Time =    1.000,"P-1-1",           165,       157.656,       52.9623,            0.,NA,NA,"",   2.26738E+06,   2.10510E+06,   2.10510E+06
C:/temp/Job-1.odb,Step-1,Increment      1: Step Time =    1.000,"P-1-1",           166,       166.632,       54.8526,            0.,NA,NA,"",   2.44467E+06,   2.01367E+06,   2.01367E+06
C:/temp/Job-1.odb,Step-1,Increment      1: Step Time =    1.000,"P-1-1",           167,       178.888,       51.1286,            0.,NA,NA,"",   2.14481E+06,   1.91901E+06,   1.91901E+06
C:/temp/Job-1.odb,Step-1,Increment      1: Step Time =    1.000,"P-1-1",           168,       188.826,       52.0327,            0.,NA,NA,"",   1.61812E+06,   1.66176E+06,   1.66176E+06
C:/temp/Job-1.odb,Step-1,Increment      1: Step Time =    1.000,"P-1-1",           169,       145.862,       39.3619,            0.,NA,NA,"",   3.25848E+06,   3.31923E+06,   3.31923E+06
C:/temp/Job-1.odb,Step-1,Increment      1: Step Time =    1.000,"P-1-1",           170,       158.343,       42.7039,            0.,NA,NA,"",   2.60083E+06,   2.45461E+06,   2.45461E+06
C:/temp/Job-1.odb,Step-1,Increment      1: Step Time =    1.000,"P-1-1",           171,       169.471,       42.9694,            0.,NA,NA,"",   2.32464E+06,   2.08485E+06,   2.08485E+06
C:/temp/Job-1.odb,Step-1,Increment      1: Step Time =    1.000,"P-1-1",           172,       179.915,       41.7099,            0.,NA,NA,"",   1.81714E+06,   1.70181E+06,   1.70181E+06
C:/temp/Job-1.odb,Step-1,Increment      1: Step Time =    1.000,"P-1-1",           173,       190.136,       43.3691,            0.,NA,NA,"",   1.29030E+06,   1.34681E+06,   1.34681E+06
C:/temp/Job-1.odb,Step-1,Increment      1: Step Time =    1.000,"P-1-1",           174,       123.304,       33.4263,            0.,NA,NA,"",   5.91285E+06,   6.05678E+06,   6.05678E+06
C:/temp/Job-1.odb,Step-1,Increment      1: Step Time =    1.000,"P-1-1",           175,       11.3783,       31.1288,            0.,NA,NA,"",   1.55060E+06,   1.67668E+06,   1.67668E+06
C:/temp/Job-1.odb,Step-1,Increment      1: Step Time =    1.000,"P-1-1",           176,       19.1619,       32.0369,            0.,NA,NA,"",   1.56624E+06,   1.62062E+06,   1.62062E+06
C:/temp/Job-1.odb,Step-1,Increment      1: Step Time =    1.000,"P-1-1",           177,       33.2755,       31.4302,            0.,NA,NA,"",   1.79972E+06,   1.68408E+06,   1.68408E+06
C:/temp/Job-1.odb,Step-1,Increment      1: Step Time =    1.000,"P-1-1",           178,       40.4254,       30.6501,            0.,NA,NA,"",   1.98644E+06,   1.77977E+06,   1.77977E+06
C:/temp/Job-1.odb,Step-1,Increment      1: Step Time =    1.000,"P-1-1",           179,       51.0552,       31.0110,            0.,NA,NA,"",   2.16449E+06,   1.81305E+06,   1.81305E+06
C:/temp/Job-1.odb,Step-1,Increment      1: Step Time =    1.000,"P-1-1",           180,       61.2137,       30.1168,            0.,NA,NA,"",   2.48690E+06,   2.11391E+06,   2.11391E+06
C:/temp/Job-1.odb,Step-1,Increment      1: Step Time =    1.000,"P-1-1",           181,       68.5694,       30.9441,            0.,NA,NA,"",   2.62179E+06,   2.33378E+06,   2.33378E+06
C:/temp/Job-1.odb,Step-1,Increment      1: Step Time =    1.000,"P-1-1",           182,       82.0275,       31.4885,            0.,NA,NA,"",   3.59961E+06,   3.60917E+06,   3.60917E+06
C:/temp/Job-1.odb,Step-1,Increment      1: Step Time =    1.000,"P-1-1",           183,       92.9282,       29.4215,            0.,NA,NA,"",   5.04159E+06,   5.11461E+06,   5.11461E+06
C:/temp/Job-1.odb,Step-1,Increment      1: Step Time =    1.000,"P-1-1",           184,       113.307,       31.0087,            0.,NA,NA,"",   6.41716E+06,   6.56547E+06,   6.56547E+06
C:/temp/Job-1.odb,Step-1,Increment      1: Step Time =    1.000,"P-1-1",           185,       136.068,       30.9128,            0.,NA,NA,"",   3.55000E+06,   3.69426E+06,   3.69426E+06
C:/temp/Job-1.odb,Step-1,Increment      1: Step Time =    1.000,"P-1-1",           186,       150.302,       32.5255,            0.,NA,NA,"",   2.67051E+06,   2.65652E+06,   2.65652E+06
C:/temp/Job-1.odb,Step-1,Increment      1: Step Time =    1.000,"P-1-1",           187,       158.964,       31.2064,            0.,NA,NA,"",   2.27050E+06,   2.17126E+06,   2.17126E+06
C:/temp/Job-1.odb,Step-1,Increment      1: Step Time =    1.000,"P-1-1",           188,       169.032,       33.5518,            0.,NA,NA,"",   1.97579E+06,   1.84429E+06,   1.84429E+06
C:/temp/Job-1.odb,Step-1,Increment      1: Step Time =    1.000,"P-1-1",           189,       178.830,       30.4234,            0.,NA,NA,"",   1.50055E+06,   1.44658E+06,   1.44658E+06
C:/temp/Job-1.odb,Step-1,Increment      1: Step Time =    1.000,"P-1-1",           190,       51.4197,       41.1806,            0.,NA,NA,"",   1.26350E+06,   440.327E+03,   440.327E+03
C:/temp/Job-1.odb,Step-1,Increment      1: Step Time =    1.000,"P-1-1",           191,       41.1855,       43.4284,            0.,NA,NA,"",   1.03302E+06,   217.131E+03,   217.131E+03
C:/temp/Job-1.odb,Step-1,Increment      1: Step Time =    1.000,"P-1-1",           192,       27.4685,       42.1842,            0.,NA,NA,"",   876.077E+03,   812.688E+03,   812.688E+03
C:/temp/Job-1.odb,Step-1,Increment      1: Step Time =    1.000,"P-1-1",           193,       20.1540,       43.4698,            0.,NA,NA,"",   723.591E+03,   749.389E+03,   749.389E+03
C:/temp/Job-1.odb,Step-1,Increment      1: Step Time =    1.000,"P-1-1",           194,       9.89012,       40.9046,            0.,NA,NA,"",   845.581E+03,   940.426E+03,   940.426E+03
C:/temp/Job-1.odb,Step-1,Increment      1: Step Time =    1.000,"P-1-1",           195,       42.5528,       51.8016,            0.,NA,NA,"",   984.339E+03,  -946.132E+03,  -946.132E+03
C:/temp/Job-1.odb,Step-1,Increment      1: Step Time =    1.000,"P-1-1",           196,       31.7904,       51.4332,            0.,NA,NA,"",   503.629E+03,  -244.361E+03,  -244.361E+03
C:/temp/Job-1.odb,Step-1,Increment      1: Step Time =    1.000,"P-1-1",           197,       19.4836,       55.8050,            0.,NA,NA,"",   232.878E+03,  -41.7937E+03,  -41.7937E+03
C:/temp/Job-1.odb,Step-1,Increment      1: Step Time =    1.000,"P-1-1",           198,       9.54182,       50.2918,            0.,NA,NA,"",   314.583E+03,   360.100E+03,   360.100E+03
C:/temp/Job-1.odb,Step-1,Increment      1: Step Time =    1.000,"P-1-1",           199,       31.2962,       62.1315,            0.,NA,NA,"",   775.499E+03,  -791.015E+03,  -791.015E+03
C:/temp/Job-1.odb,Step-1,Increment      1: Step Time =    1.000,"P-1-1",           200,       19.3628,       63.3566,            0.,NA,NA,"",   396.776E+03,  -376.998E+03,  -376.998E+03
C:/temp/Job-1.odb,Step-1,Increment      1: Step Time =    1.000,"P-1-1",           201,       9.83228,       64.9563,            0.,NA,NA,"",   272.035E+03,  -258.262E+03,  -258.262E+03
C:/temp/Job-1.odb,Step-1,Increment      1: Step Time =    1.000,"P-1-1",           202,       22.4339,       71.1094,            0.,NA,NA,"",   613.644E+03,  -636.042E+03,  -636.042E+03
C:/temp/Job-1.odb,Step-1,Increment      1: Step Time =    1.000,"P-1-1",           203,       9.84047,       75.2705,            0.,NA,NA,"",   400.147E+03,  -430.163E+03,  -430.163E+03
C:/temp/Job-1.odb,Step-1,Increment      1: Step Time =    1.000,"P-1-1",           204,       8.67044,       84.6379,            0.,NA,NA,"",   388.730E+03,  -441.904E+03,  -441.904E+03
C:/temp/Job-1.odb,Step-1,Increment      1: Step Time =    1.000,"P-1-1",           205,       20.7952,       84.9924,            0.,NA,NA,"",   546.528E+03,  -604.507E+03,  -604.507E+03
C:/temp/Job-1.odb,Step-1,Increment      1: Step Time =    1.000,"P-1-1",           206,       30.5196,       83.9498,            0.,NA,NA,"",   884.004E+03,  -914.318E+03,  -914.318E+03
C:/temp/Job-1.odb,Step-1,Increment      1: Step Time =    1.000,"P-1-1",           207,       20.6137,       94.1186,            0.,NA,NA,"",   473.769E+03,  -537.790E+03,  -537.790E+03
C:/temp/Job-1.odb,Step-1,Increment      1: Step Time =    1.000,"P-1-1",           208,       9.87219,       94.2364,            0.,NA,NA,"",   348.934E+03,  -397.166E+03,  -397.166E+03
C:/temp/Job-1.odb,Step-1,Increment      1: Step Time =    1.000,"P-1-1",           209,       20.3833,       104.766,            0.,NA,NA,"",   459.053E+03,  -522.768E+03,  -522.768E+03
C:/temp/Job-1.odb,Step-1,Increment      1: Step Time =    1.000,"P-1-1",           210,       10.3272,       104.875,            0.,NA,NA,"",   349.198E+03,  -393.726E+03,  -393.726E+03
C:/temp/Job-1.odb,Step-1,Increment      1: Step Time =    1.000,"P-1-1",           211,       31.1752,       114.462,            0.,NA,NA,"",   876.455E+03,  -903.506E+03,  -903.506E+03
C:/temp/Job-1.odb,Step-1,Increment      1: Step Time =    1.000,"P-1-1",           212,       21.2448,       116.946,            0.,NA,NA,"",   580.048E+03,  -633.352E+03,  -633.352E+03
C:/temp/Job-1.odb,Step-1,Increment      1: Step Time =    1.000,"P-1-1",           213,       10.0614,       115.256,            0.,NA,NA,"",   395.063E+03,  -449.140E+03,  -449.140E+03
C:/temp/Job-1.odb,Step-1,Increment      1: Step Time =    1.000,"P-1-1",           214,       28.5287,       138.027,            0.,NA,NA,"",   631.695E+03,  -639.821E+03,  -639.821E+03
C:/temp/Job-1.odb,Step-1,Increment      1: Step Time =    1.000,"P-1-1",           215,       19.7932,       136.066,            0.,NA,NA,"",   408.865E+03,  -399.030E+03,  -399.030E+03
C:/temp/Job-1.odb,Step-1,Increment      1: Step Time =    1.000,"P-1-1",           216,       9.88622,       134.036,            0.,NA,NA,"",   287.433E+03,  -276.835E+03,  -276.835E+03
C:/temp/Job-1.odb,Step-1,Increment      1: Step Time =    1.000,"P-1-1",           217,       9.33473,       124.910,            0.,NA,NA,"",   393.806E+03,  -423.709E+03,  -423.709E+03
C:/temp/Job-1.odb,Step-1,Increment      1: Step Time =    1.000,"P-1-1",           218,       17.8745,       126.009,            0.,NA,NA,"",   514.780E+03,  -539.751E+03,  -539.751E+03
C:/temp/Job-1.odb,Step-1,Increment      1: Step Time =    1.000,"P-1-1",           219,       40.4133,       146.034,            0.,NA,NA,"",   967.922E+03,  -955.945E+03,  -955.945E+03
C:/temp/Job-1.odb,Step-1,Increment      1: Step Time =    1.000,"P-1-1",           220,       31.7873,       145.361,            0.,NA,NA,"",   569.453E+03,  -504.939E+03,  -504.939E+03
C:/temp/Job-1.odb,Step-1,Increment      1: Step Time =    1.000,"P-1-1",           221,       21.7665,       147.141,            0.,NA,NA,"",   280.750E+03,   144.812E+03,   144.812E+03
C:/temp/Job-1.odb,Step-1,Increment      1: Step Time =    1.000,"P-1-1",           222,       12.2382,       149.015,            0.,NA,NA,"",   276.063E+03,   314.500E+03,   314.500E+03
C:/temp/Job-1.odb,Step-1,Increment      1: Step Time =    1.000,"P-1-1",           223,       190.074,       10.1420,            0.,NA,NA,"",   1.00570E+06,   989.344E+03,   989.344E+03
C:/temp/Job-1.odb,Step-1,Increment      1: Step Time =    1.000,"P-1-1",           224,       179.539,       11.4097,            0.,NA,NA,"",   1.03549E+06,   1.01602E+06,   1.01602E+06
C:/temp/Job-1.odb,Step-1,Increment      1: Step Time =    1.000,"P-1-1",           225,       169.161,       10.0436,            0.,NA,NA,"",   999.967E+03,   966.483E+03,   966.483E+03
C:/temp/Job-1.odb,Step-1,Increment      1: Step Time =    1.000,"P-1-1",           226,       159.517,       9.46338,            0.,NA,NA,"",   952.274E+03,   902.828E+03,   902.828E+03
C:/temp/Job-1.odb,Step-1,Increment      1: Step Time =    1.000,"P-1-1",           227,       149.748,       14.0200,            0.,NA,NA,"",   1.33925E+06,   1.28634E+06,   1.28634E+06
C:/temp/Job-1.odb,Step-1,Increment      1: Step Time =    1.000,"P-1-1",           228,       135.346,       9.35028,            0.,NA,NA,"",   735.923E+03,   704.151E+03,   704.151E+03
C:/temp/Job-1.odb,Step-1,Increment      1: Step Time =    1.000,"P-1-1",           229,       125.623,       9.65293,            0.,NA,NA,"",   663.504E+03,   703.573E+03,   703.573E+03
C:/temp/Job-1.odb,Step-1,Increment      1: Step Time =    1.000,"P-1-1",           230,       115.469,       10.3191,            0.,NA,NA,"",   915.340E+03,   973.992E+03,   973.992E+03
C:/temp/Job-1.odb,Step-1,Increment      1: Step Time =    1.000,"P-1-1",           231,       105.006,       10.3284,            0.,NA,NA,"",   1.44604E+06,   1.43832E+06,   1.43832E+06
C:/temp/Job-1.odb,Step-1,Increment      1: Step Time =    1.000,"P-1-1",           232,       94.7955,       10.2516,            0.,NA,NA,"",   2.02152E+06,   1.92665E+06,   1.92665E+06
C:/temp/Job-1.odb,Step-1,Increment      1: Step Time =    1.000,"P-1-1",           233,       84.4542,       10.9176,            0.,NA,NA,"",   2.58907E+06,   2.43120E+06,   2.43120E+06
C:/temp/Job-1.odb,Step-1,Increment      1: Step Time =    1.000,"P-1-1",           234,       74.3615,       10.6843,            0.,NA,NA,"",   2.91146E+06,   2.74483E+06,   2.74483E+06
C:/temp/Job-1.odb,Step-1,Increment      1: Step Time =    1.000,"P-1-1",           235,       65.0090,       10.0625,            0.,NA,NA,"",   3.12827E+06,   3.00282E+06,   3.00282E+06
C:/temp/Job-1.odb,Step-1,Increment      1: Step Time =    1.000,"P-1-1",           236,       51.1881,       10.8145,            0.,NA,NA,"",   3.31043E+06,   3.23013E+06,   3.23013E+06
C:/temp/Job-1.odb,Step-1,Increment      1: Step Time =    1.000,"P-1-1",           237,       39.3620,       10.3023,            0.,NA,NA,"",   3.42245E+06,   3.38278E+06,   3.38278E+06
C:/temp/Job-1.odb,Step-1,Increment      1: Step Time =    1.000,"P-1-1",           238,       30.1727,       9.09905,            0.,NA,NA,"",   3.54437E+06,   3.53081E+06,   3.53081E+06
C:/temp/Job-1.odb,Step-1,Increment      1: Step Time =    1.000,"P-1-1",           239,       21.5558,       9.41954,            0.,NA,NA,"",   3.53336E+06,   3.53859E+06,   3.53859E+06
C:/temp/Job-1.odb,Step-1,Increment      1: Step Time =    1.000,"P-1-1",           240,       11.4666,       11.1685,            0.,NA,NA,"",   3.36447E+06,   3.46046E+06,   3.46046E+06
C:/temp/Job-1.odb,Step-1,Increment      1: Step Time =    1.000,"P-1-1",           241,       190.330,       19.9837,            0.,NA,NA,"",   1.07518E+06,   1.05078E+06,   1.05078E+06
C:/temp/Job-1.odb,Step-1,Increment      1: Step Time =    1.000,"P-1-1",           242,       179.580,       20.8540,            0.,NA,NA,"",   1.23734E+06,   1.20527E+06,   1.20527E+06
C:/temp/Job-1.odb,Step-1,Increment      1: Step Time =    1.000,"P-1-1",           243,       168.123,       25.2225,            0.,NA,NA,"",   1.68263E+06,   1.59806E+06,   1.59806E+06
C:/temp/Job-1.odb,Step-1,Increment      1: Step Time =    1.000,"P-1-1",           244,       158.825,       19.4625,            0.,NA,NA,"",   1.61138E+06,   1.54026E+06,   1.54026E+06
C:/temp/Job-1.odb,Step-1,Increment      1: Step Time =    1.000,"P-1-1",           245,       145.315,       24.7857,            0.,NA,NA,"",   2.31369E+06,   2.33891E+06,   2.33891E+06
C:/temp/Job-1.odb,Step-1,Increment      1: Step Time =    1.000,"P-1-1",           246,       135.547,       19.1810,            0.,NA,NA,"",   2.02793E+06,   2.10240E+06,   2.10240E+06
C:/temp/Job-1.odb,Step-1,Increment      1: Step Time =    1.000,"P-1-1",           247,       126.927,       18.8817,            0.,NA,NA,"",   2.21176E+06,   2.35896E+06,   2.35896E+06
C:/temp/Job-1.odb,Step-1,Increment      1: Step Time =    1.000,"P-1-1",           248,       116.490,       21.2777,            0.,NA,NA,"",   3.24824E+06,   3.44448E+06,   3.44448E+06
C:/temp/Job-1.odb,Step-1,Increment      1: Step Time =    1.000,"P-1-1",           249,       104.523,       20.2147,            0.,NA,NA,"",   3.41027E+06,   3.54104E+06,   3.54104E+06
C:/temp/Job-1.odb,Step-1,Increment      1: Step Time =    1.000,"P-1-1",           250,       94.7805,       19.7380,            0.,NA,NA,"",   3.46289E+06,   3.46531E+06,   3.46531E+06
C:/temp/Job-1.odb,Step-1,Increment      1: Step Time =    1.000,"P-1-1",           251,       87.3356,       21.3503,            0.,NA,NA,"",   3.60114E+06,   3.53181E+06,   3.53181E+06
C:/temp/Job-1.odb,Step-1,Increment      1: Step Time =    1.000,"P-1-1",           252,       72.9486,       21.4645,            0.,NA,NA,"",   3.28637E+06,   3.00529E+06,   3.00529E+06
C:/temp/Job-1.odb,Step-1,Increment      1: Step Time =    1.000,"P-1-1",           253,       62.6905,       20.7481,            0.,NA,NA,"",   3.05589E+06,   2.76293E+06,   2.76293E+06
C:/temp/Job-1.odb,Step-1,Increment      1: Step Time =    1.000,"P-1-1",           254,       55.1532,       21.6134,            0.,NA,NA,"",   2.87465E+06,   2.61006E+06,   2.61006E+06
C:/temp/Job-1.odb,Step-1,Increment      1: Step Time =    1.000,"P-1-1",           255,       40.9559,       21.3221,            0.,NA,NA,"",   2.64917E+06,   2.50831E+06,   2.50831E+06
C:/temp/Job-1.odb,Step-1,Increment      1: Step Time =    1.000,"P-1-1",           256,       32.6915,       19.3746,            0.,NA,NA,"",   2.74006E+06,   2.68240E+06,   2.68240E+06
C:/temp/Job-1.odb,Step-1,Increment      1: Step Time =    1.000,"P-1-1",           257,       22.3428,       19.4051,            0.,NA,NA,"",   2.67733E+06,   2.69598E+06,   2.69598E+06
C:/temp/Job-1.odb,Step-1,Increment      1: Step Time =    1.000,"P-1-1",           258,       9.53898,       20.9402,            0.,NA,NA,"",   2.37401E+06,   2.54517E+06,   2.54517E+06
C:/temp/Job-1.odb,Step-1,Increment      1: Step Time =    1.000,"P-1-1",           259,       189.996,       179.808,            0.,NA,NA,"",   1.08546E+06,   1.06143E+06,   1.06143E+06
C:/temp/Job-1.odb,Step-1,Increment      1: Step Time =    1.000,"P-1-1",           260,       169.684,       179.661,            0.,NA,NA,"",   1.45229E+06,   1.38919E+06,   1.38919E+06
C:/temp/Job-1.odb,Step-1,Increment      1: Step Time =    1.000,"P-1-1",           261,       158.282,       180.401,            0.,NA,NA,"",   1.63108E+06,   1.56117E+06,   1.56117E+06
C:/temp/Job-1.odb,Step-1,Increment      1: Step Time =    1.000,"P-1-1",           262,       146.216,       178.302,            0.,NA,NA,"",   2.05469E+06,   2.04741E+06,   2.04741E+06
C:/temp/Job-1.odb,Step-1,Increment      1: Step Time =    1.000,"P-1-1",           263,       136.419,       175.624,            0.,NA,NA,"",   2.67617E+06,   2.78426E+06,   2.78426E+06
C:/temp/Job-1.odb,Step-1,Increment      1: Step Time =    1.000,"P-1-1",           264,       127.417,       181.712,            0.,NA,NA,"",   2.07037E+06,   2.19680E+06,   2.19680E+06
C:/temp/Job-1.odb,Step-1,Increment      1: Step Time =    1.000,"P-1-1",           265,       118.114,       178.197,            0.,NA,NA,"",   3.26229E+06,   3.46255E+06,   3.46255E+06
C:/temp/Job-1.odb,Step-1,Increment      1: Step Time =    1.000,"P-1-1",           266,       106.044,       179.502,            0.,NA,NA,"",   3.43497E+06,   3.58313E+06,   3.58313E+06
C:/temp/Job-1.odb,Step-1,Increment      1: Step Time =    1.000,"P-1-1",           267,       96.1701,       180.071,            0.,NA,NA,"",   3.49436E+06,   3.52478E+06,   3.52478E+06
C:/temp/Job-1.odb,Step-1,Increment      1: Step Time =    1.000,"P-1-1",           268,       85.0842,       175.614,            0.,NA,NA,"",   3.71311E+06,   3.64992E+06,   3.64992E+06
C:/temp/Job-1.odb,Step-1,Increment      1: Step Time =    1.000,"P-1-1",           269,       73.0529,       180.404,            0.,NA,NA,"",   3.27557E+06,   3.00064E+06,   3.00064E+06
C:/temp/Job-1.odb,Step-1,Increment      1: Step Time =    1.000,"P-1-1",           270,       65.1953,       177.528,            0.,NA,NA,"",   3.09329E+06,   2.77070E+06,   2.77070E+06
C:/temp/Job-1.odb,Step-1,Increment      1: Step Time =    1.000,"P-1-1",           271,       54.3648,       179.630,            0.,NA,NA,"",   2.90484E+06,   2.65567E+06,   2.65567E+06
C:/temp/Job-1.odb,Step-1,Increment      1: Step Time =    1.000,"P-1-1",           272,       43.0062,       177.480,            0.,NA,NA,"",   2.63488E+06,   2.47187E+06,   2.47187E+06
C:/temp/Job-1.odb,Step-1,Increment      1: Step Time =    1.000,"P-1-1",           273,       29.6062,       176.940,            0.,NA,NA,"",   2.42267E+06,   2.37706E+06,   2.37706E+06
C:/temp/Job-1.odb,Step-1,Increment      1: Step Time =    1.000,"P-1-1",           274,       19.3357,       179.628,            0.,NA,NA,"",   2.58207E+06,   2.63332E+06,   2.63332E+06
C:/temp/Job-1.odb,Step-1,Increment      1: Step Time =    1.000,"P-1-1",           275,       9.39926,       175.393,            0.,NA,NA,"",   2.04830E+06,   2.20970E+06,   2.20970E+06
C:/temp/Job-1.odb,Step-1,Increment      1: Step Time =    1.000,"P-1-1",           276,       189.947,       189.910,            0.,NA,NA,"",   1.00640E+06,   990.258E+03,   990.258E+03
C:/temp/Job-1.odb,Step-1,Increment      1: Step Time =    1.000,"P-1-1",           277,       180.035,       189.948,            0.,NA,NA,"",   995.865E+03,   980.196E+03,   980.196E+03
C:/temp/Job-1.odb,Step-1,Increment      1: Step Time =    1.000,"P-1-1",           278,       170.429,       190.266,            0.,NA,NA,"",   970.450E+03,   942.424E+03,   942.424E+03
C:/temp/Job-1.odb,Step-1,Increment      1: Step Time =    1.000,"P-1-1",           279,       156.530,       188.486,            0.,NA,NA,"",   1.09668E+06,   1.03757E+06,   1.03757E+06
C:/temp/Job-1.odb,Step-1,Increment      1: Step Time =    1.000,"P-1-1",           280,       148.008,       189.852,            0.,NA,NA,"",   960.875E+03,   901.710E+03,   901.710E+03
C:/temp/Job-1.odb,Step-1,Increment      1: Step Time =    1.000,"P-1-1",           281,       134.573,       190.320,            0.,NA,NA,"",   765.235E+03,   742.478E+03,   742.478E+03
C:/temp/Job-1.odb,Step-1,Increment      1: Step Time =    1.000,"P-1-1",           282,       125.377,       190.628,            0.,NA,NA,"",   631.597E+03,   668.423E+03,   668.423E+03
C:/temp/Job-1.odb,Step-1,Increment      1: Step Time =    1.000,"P-1-1",           283,       115.899,       189.782,            0.,NA,NA,"",   876.077E+03,   936.610E+03,   936.610E+03
C:/temp/Job-1.odb,Step-1,Increment      1: Step Time =    1.000,"P-1-1",           284,       105.692,       189.573,            0.,NA,NA,"",   1.42303E+06,   1.42402E+06,   1.42402E+06
C:/temp/Job-1.odb,Step-1,Increment      1: Step Time =    1.000,"P-1-1",           285,       95.2661,       189.486,            0.,NA,NA,"",   2.03165E+06,   1.94255E+06,   1.94255E+06
C:/temp/Job-1.odb,Step-1,Increment      1: Step Time =    1.000,"P-1-1",           286,       84.8135,       189.510,            0.,NA,NA,"",   2.54316E+06,   2.39236E+06,   2.39236E+06
C:/temp/Job-1.odb,Step-1,Increment      1: Step Time =    1.000,"P-1-1",           287,       74.6311,       190.031,            0.,NA,NA,"",   2.85121E+06,   2.69436E+06,   2.69436E+06
C:/temp/Job-1.odb,Step-1,Increment      1: Step Time =    1.000,"P-1-1",           288,       64.6180,       190.485,            0.,NA,NA,"",   3.11224E+06,   2.99478E+06,   2.99478E+06
C:/temp/Job-1.odb,Step-1,Increment      1: Step Time =    1.000,"P-1-1",           289,       50.5590,       188.079,            0.,NA,NA,"",   3.26608E+06,   3.17866E+06,   3.17866E+06
C:/temp/Job-1.odb,Step-1,Increment      1: Step Time =    1.000,"P-1-1",           290,       40.9754,       188.558,            0.,NA,NA,"",   3.32274E+06,   3.26774E+06,   3.26774E+06
C:/temp/Job-1.odb,Step-1,Increment      1: Step Time =    1.000,"P-1-1",           291,       30.0140,       189.275,            0.,NA,NA,"",   3.41496E+06,   3.39807E+06,   3.39807E+06
C:/temp/Job-1.odb,Step-1,Increment      1: Step Time =    1.000,"P-1-1",           292,       20.0160,       189.749,            0.,NA,NA,"",   3.45866E+06,   3.47369E+06,   3.47369E+06
C:/temp/Job-1.odb,Step-1,Increment      1: Step Time =    1.000,"P-1-1",           293,       9.91956,       190.013,            0.,NA,NA,"",   3.48342E+06,   3.59027E+06,   3.59027E+06
C:/temp/Job-1.odb,Step-1,Increment      1: Step Time =    1.000,"P-1-1",           294,       95.0085,       165.811,            0.,NA,NA,"",   5.88356E+06,   5.94530E+06,   5.94530E+06
C:/temp/Job-1.odb,Step-1,Increment      1: Step Time =    1.000,"P-1-1",           295,       90.0456,       165.245,            0.,NA,NA,"",   4.99403E+06,   5.07025E+06,   5.07025E+06
C:/temp/Job-1.odb,Step-1,Increment      1: Step Time =    1.000,"P-1-1",           296,       80.3189,       162.997,            0.,NA,NA,"",   3.06802E+06,   3.08652E+06,   3.08652E+06
C:/temp/Job-1.odb,Step-1,Increment      1: Step Time =    1.000,"P-1-1",           297,       75.6109,       161.328,            0.,NA,NA,"",   2.12725E+06,   2.11799E+06,   2.11799E+06
C:/temp/Job-1.odb,Step-1,Increment      1: Step Time =    1.000,"P-1-1",           298,       66.6401,       156.948,            0.,NA,NA,"",   749.520E+03,   232.792E+03,   232.792E+03
C:/temp/Job-1.odb,Step-1,Increment      1: Step Time =    1.000,"P-1-1",           299,       62.4287,       154.262,            0.,NA,NA,"",   739.128E+03,  -605.229E+03,  -605.229E+03
C:/temp/Job-1.odb,Step-1,Increment      1: Step Time =    1.000,"P-1-1",           300,       54.6744,       147.975,            0.,NA,NA,"",   1.45032E+06,  -1.43916E+06,  -1.43916E+06
C:/temp/Job-1.odb,Step-1,Increment      1: Step Time =    1.000,"P-1-1",           301,       51.1759,       144.410,            0.,NA,NA,"",   1.72192E+06,  -1.72869E+06,  -1.72869E+06
C:/temp/Job-1.odb,Step-1,Increment      1: Step Time =    1.000,"P-1-1",           302,       45.0364,       136.538,            0.,NA,NA,"",   1.80038E+06,  -1.82275E+06,  -1.82275E+06
C:/temp/Job-1.odb,Step-1,Increment      1: Step Time =    1.000,"P-1-1",           303,       42.4305,       132.276,            0.,NA,NA,"",   1.69281E+06,  -1.71533E+06,  -1.71533E+06
C:/temp/Job-1.odb,Step-1,Increment      1: Step Time =    1.000,"P-1-1",           304,       38.2210,       123.224,            0.,NA,NA,"",   1.32560E+06,  -1.34341E+06,  -1.34341E+06
C:/temp/Job-1.odb,Step-1,Increment      1: Step Time =    1.000,"P-1-1",           305,       36.6416,       118.485,            0.,NA,NA,"",   1.12195E+06,  -1.13886E+06,  -1.13886E+06
C:/temp/Job-1.odb,Step-1,Increment      1: Step Time =    1.000,"P-1-1",           306,       34.5783,       108.718,            0.,NA,NA,"",   823.239E+03,  -839.282E+03,  -839.282E+03
C:/temp/Job-1.odb,Step-1,Increment      1: Step Time =    1.000,"P-1-1",           307,       34.1063,       103.745,            0.,NA,NA,"",   747.354E+03,  -763.079E+03,  -763.079E+03
C:/temp/Job-1.odb,Step-1,Increment      1: Step Time =    1.000,"P-1-1",           308,       34.2953,       93.7640,            0.,NA,NA,"",   765.691E+03,  -781.298E+03,  -781.298E+03
C:/temp/Job-1.odb,Step-1,Increment      1: Step Time =    1.000,"P-1-1",           309,       34.9551,       88.8127,            0.,NA,NA,"",   854.430E+03,  -870.707E+03,  -870.707E+03
C:/temp/Job-1.odb,Step-1,Increment      1: Step Time =    1.000,"P-1-1",           310,       37.3865,       79.1303,            0.,NA,NA,"",   1.17527E+06,  -1.20072E+06,  -1.20072E+06
C:/temp/Job-1.odb,Step-1,Increment      1: Step Time =    1.000,"P-1-1",           311,       39.1441,       74.4547,            0.,NA,NA,"",   1.46915E+06,  -1.48613E+06,  -1.48613E+06
C:/temp/Job-1.odb,Step-1,Increment      1: Step Time =    1.000,"P-1-1",           312,       43.6931,       65.5684,            0.,NA,NA,"",   1.79854E+06,  -1.81798E+06,  -1.81798E+06
C:/temp/Job-1.odb,Step-1,Increment      1: Step Time =    1.000,"P-1-1",           313,       46.4584,       61.4086,            0.,NA,NA,"",   1.86412E+06,  -1.88257E+06,  -1.88257E+06
C:/temp/Job-1.odb,Step-1,Increment      1: Step Time =    1.000,"P-1-1",           314,       52.8914,       53.7746,            0.,NA,NA,"",   1.64544E+06,  -1.65616E+06,  -1.65616E+06
C:/temp/Job-1.odb,Step-1,Increment      1: Step Time =    1.000,"P-1-1",           315,       56.5223,       50.3443,            0.,NA,NA,"",   1.35110E+06,  -1.33856E+06,  -1.33856E+06
C:/temp/Job-1.odb,Step-1,Increment      1: Step Time =    1.000,"P-1-1",           316,       64.5090,       44.3548,            0.,NA,NA,"",   918.678E+03,   262.318E+03,   262.318E+03
C:/temp/Job-1.odb,Step-1,Increment      1: Step Time =    1.000,"P-1-1",           317,       68.8190,       41.8300,            0.,NA,NA,"",   1.11080E+06,   1.01086E+06,   1.01086E+06
C:/temp/Job-1.odb,Step-1,Increment      1: Step Time =    1.000,"P-1-1",           318,       77.9491,       37.7926,            0.,NA,NA,"",   2.67359E+06,   2.69320E+06,   2.69320E+06
C:/temp/Job-1.odb,Step-1,Increment      1: Step Time =    1.000,"P-1-1",           319,       82.7169,       36.3031,            0.,NA,NA,"",   3.65541E+06,   3.71135E+06,   3.71135E+06
C:/temp/Job-1.odb,Step-1,Increment      1: Step Time =    1.000,"P-1-1",           320,       92.5217,       34.4250,            0.,NA,NA,"",   5.54308E+06,   5.59796E+06,   5.59796E+06
C:/temp/Job-1.odb,Step-1,Increment      1: Step Time =    1.000,"P-1-1",           321,       97.5025,       34.0473,            0.,NA,NA,"",   6.36584E+06,   6.43493E+06,   6.43493E+06
C:/temp/Job-1.odb,Step-1,Increment      1: Step Time =    1.000,"P-1-1",           322,       107.478,       34.4250,            0.,NA,NA,"",   7.26936E+06,   7.36114E+06,   7.36114E+06
C:/temp/Job-1.odb,Step-1,Increment      1: Step Time =    1.000,"P-1-1",           323,       117.283,       36.3031,            0.,NA,NA,"",   7.16194E+06,   7.24773E+06,   7.24773E+06
C:/temp/Job-1.odb,Step-1,Increment      1: Step Time =    1.000,"P-1-1",           324,       122.051,       37.7926,            0.,NA,NA,"",   6.74573E+06,   6.83467E+06,   6.83467E+06
C:/temp/Job-1.odb,Step-1,Increment      1: Step Time =    1.000,"P-1-1",           325,       131.181,       41.8300,            0.,NA,NA,"",   5.57145E+06,   5.66119E+06,   5.66119E+06
C:/temp/Job-1.odb,Step-1,Increment      1: Step Time =    1.000,"P-1-1",           326,       135.491,       44.3548,            0.,NA,NA,"",   4.89452E+06,   4.97642E+06,   4.97642E+06
C:/temp/Job-1.odb,Step-1,Increment      1: Step Time =    1.000,"P-1-1",           327,       143.478,       50.3443,            0.,NA,NA,"",   3.47208E+06,   3.52000E+06,   3.52000E+06
C:/temp/Job-1.odb,Step-1,Increment      1: Step Time =    1.000,"P-1-1",           328,       147.109,       53.7746,            0.,NA,NA,"",   2.77801E+06,   2.80839E+06,   2.80839E+06
C:/temp/Job-1.odb,Step-1,Increment      1: Step Time =    1.000,"P-1-1",           329,       153.542,       61.4086,            0.,NA,NA,"",   1.31944E+06,   1.29677E+06,   1.29677E+06
C:/temp/Job-1.odb,Step-1,Increment      1: Step Time =    1.000,"P-1-1",           330,       156.307,       65.5684,            0.,NA,NA,"",   780.750E+03,   275.244E+03,   275.244E+03
C:/temp/Job-1.odb,Step-1,Increment      1: Step Time =    1.000,"P-1-1",           331,       160.856,       74.4547,            0.,NA,NA,"",   1.48970E+06,  -1.43641E+06,  -1.43641E+06
C:/temp/Job-1.odb,Step-1,Increment      1: Step Time =    1.000,"P-1-1",           332,       162.614,       79.1303,            0.,NA,NA,"",   2.21781E+06,  -2.18624E+06,  -2.18624E+06
C:/temp/Job-1.odb,Step-1,Increment      1: Step Time =    1.000,"P-1-1",           333,       165.045,       88.8127,            0.,NA,NA,"",   3.53229E+06,  -3.58369E+06,  -3.58369E+06
C:/temp/Job-1.odb,Step-1,Increment      1: Step Time =    1.000,"P-1-1",           334,       165.705,       93.7640,            0.,NA,NA,"",   4.00249E+06,  -4.04089E+06,  -4.04089E+06
C:/temp/Job-1.odb,Step-1,Increment      1: Step Time =    1.000,"P-1-1",           335,       165.894,       103.745,            0.,NA,NA,"",   4.17636E+06,  -4.21194E+06,  -4.21194E+06
C:/temp/Job-1.odb,Step-1,Increment      1: Step Time =    1.000,"P-1-1",           336,       165.422,       108.718,            0.,NA,NA,"",   3.78533E+06,  -3.81486E+06,  -3.81486E+06
C:/temp/Job-1.odb,Step-1,Increment      1: Step Time =    1.000,"P-1-1",           337,       163.358,       118.485,            0.,NA,NA,"",   2.54330E+06,  -2.57003E+06,  -2.57003E+06
C:/temp/Job-1.odb,Step-1,Increment      1: Step Time =    1.000,"P-1-1",           338,       161.779,       123.224,            0.,NA,NA,"",   1.80832E+06,  -1.80051E+06,  -1.80051E+06
C:/temp/Job-1.odb,Step-1,Increment      1: Step Time =    1.000,"P-1-1",           339,       157.569,       132.276,            0.,NA,NA,"",   696.845E+03,  -44.5058E+03,  -44.5058E+03
C:/temp/Job-1.odb,Step-1,Increment      1: Step Time =    1.000,"P-1-1",           340,       154.964,       136.538,            0.,NA,NA,"",   982.454E+03,   916.648E+03,   916.648E+03
C:/temp/Job-1.odb,Step-1,Increment      1: Step Time =    1.000,"P-1-1",           341,       148.824,       144.410,            0.,NA,NA,"",   2.38379E+06,   2.40141E+06,   2.40141E+06
C:/temp/Job-1.odb,Step-1,Increment      1: Step Time =    1.000,"P-1-1",           342,       145.326,       147.975,            0.,NA,NA,"",   3.11399E+06,   3.16994E+06,   3.16994E+06
C:/temp/Job-1.odb,Step-1,Increment      1: Step Time =    1.000,"P-1-1",           343,       137.571,       154.262,            0.,NA,NA,"",   4.59321E+06,   4.64836E+06,   4.64836E+06
C:/temp/Job-1.odb,Step-1,Increment      1: Step Time =    1.000,"P-1-1",           344,       133.360,       156.948,            0.,NA,NA,"",   5.36134E+06,   5.42303E+06,   5.42303E+06
C:/temp/Job-1.odb,Step-1,Increment      1: Step Time =    1.000,"P-1-1",           345,       124.389,       161.328,            0.,NA,NA,"",   6.66677E+06,   6.74575E+06,   6.74575E+06
C:/temp/Job-1.odb,Step-1,Increment      1: Step Time =    1.000,"P-1-1",           346,       119.681,       162.997,            0.,NA,NA,"",   7.11126E+06,   7.19526E+06,   7.19526E+06
C:/temp/Job-1.odb,Step-1,Increment      1: Step Time =    1.000,"P-1-1",           347,       109.954,       165.245,            0.,NA,NA,"",   7.35313E+06,   7.44723E+06,   7.44723E+06
C:/temp/Job-1.odb,Step-1,Increment      1: Step Time =    1.000,"P-1-1",           348,       104.992,       165.811,            0.,NA,NA,"",   7.13413E+06,   7.21933E+06,   7.21933E+06
C:/temp/Job-1.odb,Step-1,Increment      1: Step Time =    1.000,"P-1-1",           349,          195.,            0.,            0.,NA,NA,"",   986.499E+03,   983.563E+03,   983.563E+03
C:/temp/Job-1.odb,Step-1,Increment      1: Step Time =    1.000,"P-1-1",           350,          185.,            0.,            0.,NA,NA,"",   902.426E+03,   899.798E+03,   899.798E+03
C:/temp/Job-1.odb,Step-1,Increment      1: Step Time =    1.000,"P-1-1",           351,          175.,            0.,            0.,NA,NA,"",   763.015E+03,   759.694E+03,   759.694E+03
C:/temp/Job-1.odb,Step-1,Increment      1: Step Time =    1.000,"P-1-1",           352,          165.,            0.,            0.,NA,NA,"",   557.202E+03,   550.804E+03,   550.804E+03
C:/temp/Job-1.odb,Step-1,Increment      1: Step Time =    1.000,"P-1-1",           353,          155.,            0.,            0.,NA,NA,"",   277.871E+03,   257.379E+03,   257.379E+03
C:/temp/Job-1.odb,Step-1,Increment      1: Step Time =    1.000,"P-1-1",           354,          145.,            0.,            0.,NA,NA,"",   250.723E+03,  -222.222E+03,  -222.222E+03
C:/temp/Job-1.odb,Step-1,Increment      1: Step Time =    1.000,"P-1-1",           355,          135.,            0.,            0.,NA,NA,"",   598.092E+03,  -589.424E+03,  -589.424E+03
C:/temp/Job-1.odb,Step-1,Increment      1: Step Time =    1.000,"P-1-1",           356,          125.,            0.,            0.,NA,NA,"",   867.065E+03,  -856.085E+03,  -856.085E+03
C:/temp/Job-1.odb,Step-1,Increment      1: Step Time =    1.000,"P-1-1",           357,          115.,            0.,            0.,NA,NA,"",   857.298E+03,  -842.106E+03,  -842.106E+03
C:/temp/Job-1.odb,Step-1,Increment      1: Step Time =    1.000,"P-1-1",           358,          105.,            0.,            0.,NA,NA,"",   548.296E+03,  -507.594E+03,  -507.594E+03
C:/temp/Job-1.odb,Step-1,Increment      1: Step Time =    1.000,"P-1-1",           359,           95.,            0.,            0.,NA,NA,"",   538.003E+03,   450.057E+03,   450.057E+03
C:/temp/Job-1.odb,Step-1,Increment      1: Step Time =    1.000,"P-1-1",           360,           85.,            0.,            0.,NA,NA,"",   1.37840E+06,   1.34750E+06,   1.34750E+06
C:/temp/Job-1.odb,Step-1,Increment      1: Step Time =    1.000,"P-1-1",           361,           75.,            0.,            0.,NA,NA,"",   2.32950E+06,   2.30829E+06,   2.30829E+06
C:/temp/Job-1.odb,Step-1,Increment      1: Step Time =    1.000,"P-1-1",           362,           65.,            0.,            0.,NA,NA,"",   3.13066E+06,   3.11681E+06,   3.11681E+06
C:/temp/Job-1.odb,Step-1,Increment      1: Step Time =    1.000,"P-1-1",           363,           55.,            0.,            0.,NA,NA,"",   3.67435E+06,   3.66552E+06,   3.66552E+06
C:/temp/Job-1.odb,Step-1,Increment      1: Step Time =    1.000,"P-1-1",           364,           45.,            0.,            0.,NA,NA,"",   4.00485E+06,   3.99536E+06,   3.99536E+06
C:/temp/Job-1.odb,Step-1,Increment      1: Step Time =    1.000,"P-1-1",           365,           35.,            0.,            0.,NA,NA,"",   4.08799E+06,   4.08693E+06,   4.08693E+06
C:/temp/Job-1.odb,Step-1,Increment      1: Step Time =    1.000,"P-1-1",           366,           25.,            0.,            0.,NA,NA,"",   4.06885E+06,   4.06803E+06,   4.06803E+06
C:/temp/Job-1.odb,Step-1,Increment      1: Step Time =    1.000,"P-1-1",           367,           15.,            0.,            0.,NA,NA,"",   4.01549E+06,   4.02465E+06,   4.02465E+06
C:/temp/Job-1.odb,Step-1,Increment      1: Step Time =    1.000,"P-1-1",           368,            5.,            0.,            0.,NA,NA,"",   4.29822E+06,   4.39501E+06,   4.39501E+06
C:/temp/Job-1.odb,Step-1,Increment      1: Step Time =    1.000,"P-1-1",           369,          200.,          195.,            0.,NA,NA,"",   1.00338E+06,   994.531E+03,   994.531E+03
C:/temp/Job-1.odb,Step-1,Increment      1: Step Time =    1.000,"P-1-1",           370,          200.,          185.,            0.,NA,NA,"",   1.05029E+06,   1.00310E+06,   1.00310E+06
C:/temp/Job-1.odb,Step-1,Increment      1: Step Time =    1.000,"P-1-1",           371,          200.,          175.,            0.,NA,NA,"",   1.07707E+06,   1.01157E+06,   1.01157E+06
C:/temp/Job-1.odb,Step-1,Increment      1: Step Time =    1.000,"P-1-1",           372,          200.,          165.,            0.,NA,NA,"",   1.01261E+06,   1.02091E+06,   1.02091E+06
C:/temp/Job-1.odb,Step-1,Increment      1: Step Time =    1.000,"P-1-1",           373,          200.,          155.,            0.,NA,NA,"",   926.813E+03,   1.05241E+06,   1.05241E+06
C:/temp/Job-1.odb,Step-1,Increment      1: Step Time =    1.000,"P-1-1",           374,          200.,          145.,            0.,NA,NA,"",   1.17621E+06,   1.34077E+06,   1.34077E+06
C:/temp/Job-1.odb,Step-1,Increment      1: Step Time =    1.000,"P-1-1",           375,          200.,          135.,            0.,NA,NA,"",   1.93808E+06,   2.22710E+06,   2.22710E+06
C:/temp/Job-1.odb,Step-1,Increment      1: Step Time =    1.000,"P-1-1",           376,          200.,          125.,            0.,NA,NA,"",   2.95619E+06,   3.31506E+06,   3.31506E+06
C:/temp/Job-1.odb,Step-1,Increment      1: Step Time =    1.000,"P-1-1",           377,          200.,          115.,            0.,NA,NA,"",   3.85744E+06,   4.24762E+06,   4.24762E+06
C:/temp/Job-1.odb,Step-1,Increment      1: Step Time =    1.000,"P-1-1",           378,          200.,          105.,            0.,NA,NA,"",   4.43787E+06,   4.83873E+06,   4.83873E+06
C:/temp/Job-1.odb,Step-1,Increment      1: Step Time =    1.000,"P-1-1",           379,          200.,           95.,            0.,NA,NA,"",   4.43489E+06,   4.83793E+06,   4.83793E+06
C:/temp/Job-1.odb,Step-1,Increment      1: Step Time =    1.000,"P-1-1",           380,          200.,           85.,            0.,NA,NA,"",   3.86850E+06,   4.25678E+06,   4.25678E+06
C:/temp/Job-1.odb,Step-1,Increment      1: Step Time =    1.000,"P-1-1",           381,          200.,           75.,            0.,NA,NA,"",   2.95103E+06,   3.30878E+06,   3.30878E+06
C:/temp/Job-1.odb,Step-1,Increment      1: Step Time =    1.000,"P-1-1",           382,          200.,           65.,            0.,NA,NA,"",   1.95231E+06,   2.23968E+06,   2.23968E+06
C:/temp/Job-1.odb,Step-1,Increment      1: Step Time =    1.000,"P-1-1",           383,          200.,           55.,            0.,NA,NA,"",   1.20444E+06,   1.38485E+06,   1.38485E+06
C:/temp/Job-1.odb,Step-1,Increment      1: Step Time =    1.000,"P-1-1",           384,          200.,           45.,            0.,NA,NA,"",   938.127E+03,   1.06075E+06,   1.06075E+06
C:/temp/Job-1.odb,Step-1,Increment      1: Step Time =    1.000,"P-1-1",           385,          200.,           35.,            0.,NA,NA,"",   1.01966E+06,   1.01938E+06,   1.01938E+06
C:/temp/Job-1.odb,Step-1,Increment      1: Step Time =    1.000,"P-1-1",           386,          200.,           25.,            0.,NA,NA,"",   1.07972E+06,   1.01020E+06,   1.01020E+06
C:/temp/Job-1.odb,Step-1,Increment      1: Step Time =    1.000,"P-1-1",           387,          200.,           15.,            0.,NA,NA,"",   1.04894E+06,   1.00237E+06,   1.00237E+06
C:/temp/Job-1.odb,Step-1,Increment      1: Step Time =    1.000,"P-1-1",           388,          200.,            5.,            0.,NA,NA,"",   1.00314E+06,   994.726E+03,   994.726E+03
C:/temp/Job-1.odb,Step-1,Increment      1: Step Time =    1.000,"P-1-1",           389,            5.,          200.,            0.,NA,NA,"",   4.31166E+06,   4.40861E+06,   4.40861E+06
C:/temp/Job-1.odb,Step-1,Increment      1: Step Time =    1.000,"P-1-1",           390,           15.,          200.,            0.,NA,NA,"",   4.01541E+06,   4.02556E+06,   4.02556E+06
C:/temp/Job-1.odb,Step-1,Increment      1: Step Time =    1.000,"P-1-1",           391,           25.,          200.,            0.,NA,NA,"",   4.05004E+06,   4.05132E+06,   4.05132E+06
C:/temp/Job-1.odb,Step-1,Increment      1: Step Time =    1.000,"P-1-1",           392,           35.,          200.,            0.,NA,NA,"",   4.07060E+06,   4.06793E+06,   4.06793E+06
C:/temp/Job-1.odb,Step-1,Increment      1: Step Time =    1.000,"P-1-1",           393,           45.,          200.,            0.,NA,NA,"",   3.98976E+06,   3.98379E+06,   3.98379E+06
C:/temp/Job-1.odb,Step-1,Increment      1: Step Time =    1.000,"P-1-1",           394,           55.,          200.,            0.,NA,NA,"",   3.69738E+06,   3.68906E+06,   3.68906E+06
C:/temp/Job-1.odb,Step-1,Increment      1: Step Time =    1.000,"P-1-1",           395,           65.,          200.,            0.,NA,NA,"",   3.15182E+06,   3.13752E+06,   3.13752E+06
C:/temp/Job-1.odb,Step-1,Increment      1: Step Time =    1.000,"P-1-1",           396,           75.,          200.,            0.,NA,NA,"",   2.32758E+06,   2.30697E+06,   2.30697E+06
C:/temp/Job-1.odb,Step-1,Increment      1: Step Time =    1.000,"P-1-1",           397,           85.,          200.,            0.,NA,NA,"",   1.35255E+06,   1.32235E+06,   1.32235E+06
C:/temp/Job-1.odb,Step-1,Increment      1: Step Time =    1.000,"P-1-1",           398,           95.,          200.,            0.,NA,NA,"",   532.189E+03,   440.067E+03,   440.067E+03
C:/temp/Job-1.odb,Step-1,Increment      1: Step Time =    1.000,"P-1-1",           399,          105.,          200.,            0.,NA,NA,"",   559.220E+03,  -517.554E+03,  -517.554E+03
C:/temp/Job-1.odb,Step-1,Increment      1: Step Time =    1.000,"P-1-1",           400,          115.,          200.,            0.,NA,NA,"",   870.375E+03,  -855.231E+03,  -855.231E+03
C:/temp/Job-1.odb,Step-1,Increment      1: Step Time =    1.000,"P-1-1",           401,          125.,          200.,            0.,NA,NA,"",   870.697E+03,  -859.136E+03,  -859.136E+03
C:/temp/Job-1.odb,Step-1,Increment      1: Step Time =    1.000,"P-1-1",           402,          135.,          200.,            0.,NA,NA,"",   568.310E+03,  -549.170E+03,  -549.170E+03
C:/temp/Job-1.odb,Step-1,Increment      1: Step Time =    1.000,"P-1-1",           403,          145.,          200.,            0.,NA,NA,"",   239.964E+03,  -182.851E+03,  -182.851E+03
C:/temp/Job-1.odb,Step-1,Increment      1: Step Time =    1.000,"P-1-1",           404,          155.,          200.,            0.,NA,NA,"",   301.224E+03,   288.704E+03,   288.704E+03
C:/temp/Job-1.odb,Step-1,Increment      1: Step Time =    1.000,"P-1-1",           405,          165.,          200.,            0.,NA,NA,"",   569.682E+03,   561.431E+03,   561.431E+03
C:/temp/Job-1.odb,Step-1,Increment      1: Step Time =    1.000,"P-1-1",           406,          175.,          200.,            0.,NA,NA,"",   759.951E+03,   757.548E+03,   757.548E+03
C:/temp/Job-1.odb,Step-1,Increment      1: Step Time =    1.000,"P-1-1",           407,          185.,          200.,            0.,NA,NA,"",   899.069E+03,   897.289E+03,   897.289E+03
C:/temp/Job-1.odb,Step-1,Increment      1: Step Time =    1.000,"P-1-1",           408,          195.,          200.,            0.,NA,NA,"",   985.729E+03,   982.663E+03,   982.663E+03
C:/temp/Job-1.odb,Step-1,Increment      1: Step Time =    1.000,"P-1-1",           409,            0.,            5.,            0.,NA,NA,"",   3.90706E+06,   4.17830E+06,   4.17830E+06
C:/temp/Job-1.odb,Step-1,Increment      1: Step Time =    1.000,"P-1-1",           410,            0.,           15.,            0.,NA,NA,"",   2.65950E+06,   2.95091E+06,   2.95091E+06
C:/temp/Job-1.odb,Step-1,Increment      1: Step Time =    1.000,"P-1-1",           411,            0.,           25.,            0.,NA,NA,"",   1.85810E+06,   2.07773E+06,   2.07773E+06
C:/temp/Job-1.odb,Step-1,Increment      1: Step Time =    1.000,"P-1-1",           412,            0.,           35.,            0.,NA,NA,"",   1.20001E+06,   1.34505E+06,   1.34505E+06
C:/temp/Job-1.odb,Step-1,Increment      1: Step Time =    1.000,"P-1-1",           413,            0.,           45.,            0.,NA,NA,"",   629.933E+03,   704.691E+03,   704.691E+03
C:/temp/Job-1.odb,Step-1,Increment      1: Step Time =    1.000,"P-1-1",           414,            0.,           55.,            0.,NA,NA,"",   194.110E+03,   210.667E+03,   210.667E+03
C:/temp/Job-1.odb,Step-1,Increment      1: Step Time =    1.000,"P-1-1",           415,            0.,           65.,            0.,NA,NA,"",   177.211E+03,  -186.788E+03,  -186.788E+03
C:/temp/Job-1.odb,Step-1,Increment      1: Step Time =    1.000,"P-1-1",           416,            0.,           75.,            0.,NA,NA,"",   335.787E+03,  -371.375E+03,  -371.375E+03
C:/temp/Job-1.odb,Step-1,Increment      1: Step Time =    1.000,"P-1-1",           417,            0.,           85.,            0.,NA,NA,"",   382.154E+03,  -430.517E+03,  -430.517E+03
C:/temp/Job-1.odb,Step-1,Increment      1: Step Time =    1.000,"P-1-1",           418,            0.,           95.,            0.,NA,NA,"",   368.838E+03,  -422.380E+03,  -422.380E+03
C:/temp/Job-1.odb,Step-1,Increment      1: Step Time =    1.000,"P-1-1",           419,            0.,          105.,            0.,NA,NA,"",   370.120E+03,  -423.761E+03,  -423.761E+03
C:/temp/Job-1.odb,Step-1,Increment      1: Step Time =    1.000,"P-1-1",           420,            0.,          115.,            0.,NA,NA,"",   381.219E+03,  -429.819E+03,  -429.819E+03
C:/temp/Job-1.odb,Step-1,Increment      1: Step Time =    1.000,"P-1-1",           421,            0.,          125.,            0.,NA,NA,"",   335.808E+03,  -372.178E+03,  -372.178E+03
C:/temp/Job-1.odb,Step-1,Increment      1: Step Time =    1.000,"P-1-1",           422,            0.,          135.,            0.,NA,NA,"",   174.823E+03,  -188.363E+03,  -188.363E+03
C:/temp/Job-1.odb,Step-1,Increment      1: Step Time =    1.000,"P-1-1",           423,            0.,          145.,            0.,NA,NA,"",   185.099E+03,   207.038E+03,   207.038E+03
C:/temp/Job-1.odb,Step-1,Increment      1: Step Time =    1.000,"P-1-1",           424,            0.,          155.,            0.,NA,NA,"",   653.226E+03,   735.224E+03,   735.224E+03
C:/temp/Job-1.odb,Step-1,Increment      1: Step Time =    1.000,"P-1-1",           425,            0.,          165.,            0.,NA,NA,"",   1.22785E+06,   1.37693E+06,   1.37693E+06
C:/temp/Job-1.odb,Step-1,Increment      1: Step Time =    1.000,"P-1-1",           426,            0.,          175.,            0.,NA,NA,"",   1.89030E+06,   2.11514E+06,   2.11514E+06
C:/temp/Job-1.odb,Step-1,Increment      1: Step Time =    1.000,"P-1-1",           427,            0.,          185.,            0.,NA,NA,"",   2.66556E+06,   2.96001E+06,   2.96001E+06
C:/temp/Job-1.odb,Step-1,Increment      1: Step Time =    1.000,"P-1-1",           428,            0.,          195.,            0.,NA,NA,"",   3.92481E+06,   4.20311E+06,   4.20311E+06
C:/temp/Job-1.odb,Step-1,Increment      1: Step Time =    1.000,"P-1-1",           429,       108.258,       30.1461,            0.,NA,NA,"",   6.34391E+06,   6.48860E+06,   6.48860E+06
C:/temp/Job-1.odb,Step-1,Increment      1: Step Time =    1.000,"P-1-1",           430,       87.4221,       29.0107,            0.,NA,NA,"",   4.22215E+06,   4.25401E+06,   4.25401E+06
C:/temp/Job-1.odb,Step-1,Increment      1: Step Time =    1.000,"P-1-1",           431,       54.4028,       155.980,            0.,NA,NA,"",   1.13324E+06,  -574.637E+03,  -574.637E+03
C:/temp/Job-1.odb,Step-1,Increment      1: Step Time =    1.000,"P-1-1",           432,       145.103,       156.881,            0.,NA,NA,"",   3.46668E+06,   3.53063E+06,   3.53063E+06
C:/temp/Job-1.odb,Step-1,Increment      1: Step Time =    1.000,"P-1-1",           433,       98.0087,       29.5002,            0.,NA,NA,"",   5.65885E+06,   5.76024E+06,   5.76024E+06
C:/temp/Job-1.odb,Step-1,Increment      1: Step Time =    1.000,"P-1-1",           434,       170.030,       109.296,            0.,NA,NA,"",   3.00887E+06,  -3.03440E+06,  -3.03440E+06
C:/temp/Job-1.odb,Step-1,Increment      1: Step Time =    1.000,"P-1-1",           435,       167.184,       77.9910,            0.,NA,NA,"",   2.09786E+06,  -1.97158E+06,  -1.97158E+06
C:/temp/Job-1.odb,Step-1,Increment      1: Step Time =    1.000,"P-1-1",           436,       118.248,       32.2037,            0.,NA,NA,"",   6.28127E+06,   6.42146E+06,   6.42146E+06
C:/temp/Job-1.odb,Step-1,Increment      1: Step Time =    1.000,"P-1-1",           437,       100.197,       170.518,            0.,NA,NA,"",   5.86262E+06,   5.97459E+06,   5.97459E+06
C:/temp/Job-1.odb,Step-1,Increment      1: Step Time =    1.000,"P-1-1",           438,       134.698,       161.266,            0.,NA,NA,"",   4.89972E+06,   4.99978E+06,   4.99978E+06
C:/temp/Job-1.odb,Step-1,Increment      1: Step Time =    1.000,"P-1-1",           439,       156.716,       59.1925,            0.,NA,NA,"",   1.54904E+06,   1.44763E+06,   1.44763E+06
C:/temp/Job-1.odb,Step-1,Increment      1: Step Time =    1.000,"P-1-1",           440,       30.4253,       79.3614,            0.,NA,NA,"",   935.345E+03,  -969.847E+03,  -969.847E+03
C:/temp/Job-1.odb,Step-1,Increment      1: Step Time =    1.000,"P-1-1",           441,       138.247,       39.8074,            0.,NA,NA,"",   4.35457E+06,   4.45983E+06,   4.45983E+06
C:/temp/Job-1.odb,Step-1,Increment      1: Step Time =    1.000,"P-1-1",           442,       125.233,       165.064,            0.,NA,NA,"",   5.98048E+06,   6.10824E+06,   6.10824E+06
C:/temp/Job-1.odb,Step-1,Increment      1: Step Time =    1.000,"P-1-1",           443,       160.954,       134.265,            0.,NA,NA,"",   1.09811E+06,   56.9144E+03,   56.9144E+03
C:/temp/Job-1.odb,Step-1,Increment      1: Step Time =    1.000,"P-1-1",           444,       73.8156,       165.476,            0.,NA,NA,"",   2.37111E+06,   2.29004E+06,   2.29004E+06
C:/temp/Job-1.odb,Step-1,Increment      1: Step Time =    1.000,"P-1-1",           445,       41.0378,       138.988,            0.,NA,NA,"",   1.48785E+06,  -1.51803E+06,  -1.51803E+06
C:/temp/Job-1.odb,Step-1,Increment      1: Step Time =    1.000,"P-1-1",           446,       36.1839,       129.503,            0.,NA,NA,"",   1.33269E+06,  -1.35807E+06,  -1.35807E+06
C:/temp/Job-1.odb,Step-1,Increment      1: Step Time =    1.000,"P-1-1",           447,       152.458,       147.287,            0.,NA,NA,"",   2.42160E+06,   2.39457E+06,   2.39457E+06
C:/temp/Job-1.odb,Step-1,Increment      1: Step Time =    1.000,"P-1-1",           448,       155.568,       143.065,            0.,NA,NA,"",   1.85428E+06,   1.77145E+06,   1.77145E+06
C:/temp/Job-1.odb,Step-1,Increment      1: Step Time =    1.000,"P-1-1",           449,       55.8648,       43.8441,            0.,NA,NA,"",   1.07245E+06,  -453.039E+03,  -453.039E+03
C:/temp/Job-1.odb,Step-1,Increment      1: Step Time =    1.000,"P-1-1",           450,       128.398,       34.8182,            0.,NA,NA,"",   5.40124E+06,   5.54371E+06,   5.54371E+06
C:/temp/Job-1.odb,Step-1,Increment      1: Step Time =    1.000,"P-1-1",           451,       40.5685,       63.1636,            0.,NA,NA,"",   1.53449E+06,  -1.56264E+06,  -1.56264E+06
C:/temp/Job-1.odb,Step-1,Increment      1: Step Time =    1.000,"P-1-1",           452,       77.3534,       33.4354,            0.,NA,NA,"",   2.85376E+06,   2.82328E+06,   2.82328E+06
C:/temp/Job-1.odb,Step-1,Increment      1: Step Time =    1.000,"P-1-1",           453,       170.759,       98.6860,            0.,NA,NA,"",   3.26234E+06,  -3.30454E+06,  -3.30454E+06
C:/temp/Job-1.odb,Step-1,Increment      1: Step Time =    1.000,"P-1-1",           454,       29.6878,       98.9766,            0.,NA,NA,"",   678.659E+03,  -709.316E+03,  -709.316E+03
C:/temp/Job-1.odb,Step-1,Increment      1: Step Time =    1.000,"P-1-1",           455,       170.557,       87.7030,            0.,NA,NA,"",   2.56989E+06,  -2.55636E+06,  -2.55636E+06
C:/temp/Job-1.odb,Step-1,Increment      1: Step Time =    1.000,"P-1-1",           456,       44.2178,       143.175,            0.,NA,NA,"",   1.49898E+06,  -1.51724E+06,  -1.51724E+06
C:/temp/Job-1.odb,Step-1,Increment      1: Step Time =    1.000,"P-1-1",           457,       38.0542,       67.4568,            0.,NA,NA,"",   1.43707E+06,  -1.46486E+06,  -1.46486E+06
C:/temp/Job-1.odb,Step-1,Increment      1: Step Time =    1.000,"P-1-1",           458,       153.890,       54.9451,            0.,NA,NA,"",   2.11699E+06,   2.07539E+06,   2.07539E+06
C:/temp/Job-1.odb,Step-1,Increment      1: Step Time =    1.000,"P-1-1",           459,       52.7574,       47.4865,            0.,NA,NA,"",   1.19286E+06,  -1.11204E+06,  -1.11204E+06
C:/temp/Job-1.odb,Step-1,Increment      1: Step Time =    1.000,"P-1-1",           460,       142.757,       43.1750,            0.,NA,NA,"",   3.81634E+06,   3.89208E+06,   3.89208E+06
C:/temp/Job-1.odb,Step-1,Increment      1: Step Time =    1.000,"P-1-1",           461,       29.7775,       104.140,            0.,NA,NA,"",   694.963E+03,  -725.616E+03,  -725.616E+03
C:/temp/Job-1.odb,Step-1,Increment      1: Step Time =    1.000,"P-1-1",           462,       170.304,       103.934,            0.,NA,NA,"",   3.28175E+06,  -3.32779E+06,  -3.32779E+06
C:/temp/Job-1.odb,Step-1,Increment      1: Step Time =    1.000,"P-1-1",           463,       167.480,       120.526,            0.,NA,NA,"",   2.22530E+06,  -2.13902E+06,  -2.13902E+06
C:/temp/Job-1.odb,Step-1,Increment      1: Step Time =    1.000,"P-1-1",           464,       43.2909,       58.8739,            0.,NA,NA,"",   1.55488E+06,  -1.57839E+06,  -1.57839E+06
C:/temp/Job-1.odb,Step-1,Increment      1: Step Time =    1.000,"P-1-1",           465,       34.2949,       124.540,            0.,NA,NA,"",   1.18540E+06,  -1.21097E+06,  -1.21097E+06
C:/temp/Job-1.odb,Step-1,Increment      1: Step Time =    1.000,"P-1-1",           466,       30.2521,       109.332,            0.,NA,NA,"",   763.129E+03,  -792.592E+03,  -792.592E+03
C:/temp/Job-1.odb,Step-1,Increment      1: Step Time =    1.000,"P-1-1",           467,       64.4898,       36.4565,            0.,NA,NA,"",   1.63676E+06,   1.33681E+06,   1.33681E+06
C:/temp/Job-1.odb,Step-1,Increment      1: Step Time =    1.000,"P-1-1",           468,       50.9772,       151.117,            0.,NA,NA,"",   1.24854E+06,  -1.19639E+06,  -1.19639E+06
C:/temp/Job-1.odb,Step-1,Increment      1: Step Time =    1.000,"P-1-1",           469,       49.4625,       51.0265,            0.,NA,NA,"",   1.36287E+06,  -1.35284E+06,  -1.35284E+06
C:/temp/Job-1.odb,Step-1,Increment      1: Step Time =    1.000,"P-1-1",           470,       165.332,       125.182,            0.,NA,NA,"",   1.75999E+06,  -1.61812E+06,  -1.61812E+06
C:/temp/Job-1.odb,Step-1,Increment      1: Step Time =    1.000,"P-1-1",           471,       133.482,       36.7627,            0.,NA,NA,"",   4.87164E+06,   4.99756E+06,   4.99756E+06
C:/temp/Job-1.odb,Step-1,Increment      1: Step Time =    1.000,"P-1-1",           472,       110.497,       169.517,            0.,NA,NA,"",   6.41219E+06,   6.56061E+06,   6.56061E+06
C:/temp/Job-1.odb,Step-1,Increment      1: Step Time =    1.000,"P-1-1",           473,       58.3389,       40.2652,            0.,NA,NA,"",   1.22870E+06,   539.685E+03,   539.685E+03
C:/temp/Job-1.odb,Step-1,Increment      1: Step Time =    1.000,"P-1-1",           474,       149.028,       151.585,            0.,NA,NA,"",   2.97985E+06,   3.00529E+06,   3.00529E+06
C:/temp/Job-1.odb,Step-1,Increment      1: Step Time =    1.000,"P-1-1",           475,       32.5955,       119.516,            0.,NA,NA,"",   1.02278E+06,  -1.04880E+06,  -1.04880E+06
C:/temp/Job-1.odb,Step-1,Increment      1: Step Time =    1.000,"P-1-1",           476,       150.866,       50.5797,            0.,NA,NA,"",   2.69651E+06,   2.69398E+06,   2.69398E+06
C:/temp/Job-1.odb,Step-1,Increment      1: Step Time =    1.000,"P-1-1",           477,       46.2722,       54.7762,            0.,NA,NA,"",   1.49182E+06,  -1.50665E+06,  -1.50665E+06
C:/temp/Job-1.odb,Step-1,Increment      1: Step Time =    1.000,"P-1-1",           478,       29.9046,       93.8850,            0.,NA,NA,"",   711.620E+03,  -741.402E+03,  -741.402E+03
C:/temp/Job-1.odb,Step-1,Increment      1: Step Time =    1.000,"P-1-1",           479,       64.2585,       161.511,            0.,NA,NA,"",   1.26913E+06,   836.001E+03,   836.001E+03
C:/temp/Job-1.odb,Step-1,Increment      1: Step Time =    1.000,"P-1-1",           480,       47.5876,       147.096,            0.,NA,NA,"",   1.42401E+06,  -1.42117E+06,  -1.42117E+06
C:/temp/Job-1.odb,Step-1,Increment      1: Step Time =    1.000,"P-1-1",           481,       94.9482,       170.767,            0.,NA,NA,"",   5.26836E+06,   5.35643E+06,   5.35643E+06
C:/temp/Job-1.odb,Step-1,Increment      1: Step Time =    1.000,"P-1-1",           482,       170.577,       93.4282,            0.,NA,NA,"",   3.07602E+06,  -3.11566E+06,  -3.11566E+06
C:/temp/Job-1.odb,Step-1,Increment      1: Step Time =    1.000,"P-1-1",           483,       159.757,       63.3008,            0.,NA,NA,"",   1.18587E+06,   746.468E+03,   746.468E+03
C:/temp/Job-1.odb,Step-1,Increment      1: Step Time =    1.000,"P-1-1",           484,       38.3421,       134.374,            0.,NA,NA,"",   1.43229E+06,  -1.46174E+06,  -1.46174E+06
C:/temp/Job-1.odb,Step-1,Increment      1: Step Time =    1.000,"P-1-1",           485,       68.3696,       36.1116,            0.,NA,NA,"",   1.72524E+06,   1.54087E+06,   1.54087E+06
C:/temp/Job-1.odb,Step-1,Increment      1: Step Time =    1.000,"P-1-1",           486,       158.395,       138.723,            0.,NA,NA,"",   1.34159E+06,   1.16619E+06,   1.16619E+06
C:/temp/Job-1.odb,Step-1,Increment      1: Step Time =    1.000,"P-1-1",           487,       68.9751,       163.623,            0.,NA,NA,"",   1.72659E+06,   1.58131E+06,   1.58131E+06
C:/temp/Job-1.odb,Step-1,Increment      1: Step Time =    1.000,"P-1-1",           488,       163.014,       67.4396,            0.,NA,NA,"",   1.27776E+06,  -364.375E+03,  -364.375E+03
C:/temp/Job-1.odb,Step-1,Increment      1: Step Time =    1.000,"P-1-1",           489,       163.239,       129.739,            0.,NA,NA,"",   1.28925E+06,  -1.03386E+06,  -1.03386E+06
C:/temp/Job-1.odb,Step-1,Increment      1: Step Time =    1.000,"P-1-1",           490,       105.349,       170.166,            0.,NA,NA,"",   6.23441E+06,   6.36522E+06,   6.36522E+06
C:/temp/Job-1.odb,Step-1,Increment      1: Step Time =    1.000,"P-1-1",           491,       147.025,       46.6688,            0.,NA,NA,"",   3.25685E+06,   3.29417E+06,   3.29417E+06
C:/temp/Job-1.odb,Step-1,Increment      1: Step Time =    1.000,"P-1-1",           492,       130.001,       163.223,            0.,NA,NA,"",   5.48650E+06,   5.60572E+06,   5.60572E+06
C:/temp/Job-1.odb,Step-1,Increment      1: Step Time =    1.000,"P-1-1",           493,       125.130,       195.292,            0.,NA,NA,"",   549.609E+03,  -314.317E+03,  -314.317E+03
C:/temp/Job-1.odb,Step-1,Increment      1: Step Time =    1.000,"P-1-1",           494,       194.956,       125.228,            0.,NA,NA,"",   2.66032E+06,   2.96544E+06,   2.96544E+06
C:/temp/Job-1.odb,Step-1,Increment      1: Step Time =    1.000,"P-1-1",           495,       195.219,       135.251,            0.,NA,NA,"",   1.90759E+06,   2.16174E+06,   2.16174E+06
C:/temp/Job-1.odb,Step-1,Increment      1: Step Time =    1.000,"P-1-1",           496,       134.926,       195.060,            0.,NA,NA,"",   515.268E+03,  -72.0743E+03,  -72.0743E+03
C:/temp/Job-1.odb,Step-1,Increment      1: Step Time =    1.000,"P-1-1",           497,       195.188,       104.910,            0.,NA,NA,"",   3.73905E+06,   4.10206E+06,   4.10206E+06
C:/temp/Job-1.odb,Step-1,Increment      1: Step Time =    1.000,"P-1-1",           498,       194.977,       44.2732,            0.,NA,NA,"",   1.04959E+06,   1.15850E+06,   1.15850E+06
C:/temp/Job-1.odb,Step-1,Increment      1: Step Time =    1.000,"P-1-1",           499,       193.466,       54.4258,            0.,NA,NA,"",   1.40490E+06,   1.54853E+06,   1.54853E+06
C:/temp/Job-1.odb,Step-1,Increment      1: Step Time =    1.000,"P-1-1",           500,       194.786,       115.037,            0.,NA,NA,"",   3.29080E+06,   3.63370E+06,   3.63370E+06
C:/temp/Job-1.odb,Step-1,Increment      1: Step Time =    1.000,"P-1-1",           501,       144.981,       4.56205,            0.,NA,NA,"",   412.042E+03,   141.771E+03,   141.771E+03
C:/temp/Job-1.odb,Step-1,Increment      1: Step Time =    1.000,"P-1-1",           502,       154.846,       4.60576,            0.,NA,NA,"",   495.775E+03,   461.101E+03,   461.101E+03
C:/temp/Job-1.odb,Step-1,Increment      1: Step Time =    1.000,"P-1-1",           503,       164.715,       4.83083,            0.,NA,NA,"",   696.436E+03,   677.476E+03,   677.476E+03
C:/temp/Job-1.odb,Step-1,Increment      1: Step Time =    1.000,"P-1-1",           504,       105.021,       5.20639,            0.,NA,NA,"",   750.603E+03,   199.875E+03,   199.875E+03
C:/temp/Job-1.odb,Step-1,Increment      1: Step Time =    1.000,"P-1-1",           505,       54.5841,       6.19938,            0.,NA,NA,"",   3.49146E+06,   3.45113E+06,   3.45113E+06
C:/temp/Job-1.odb,Step-1,Increment      1: Step Time =    1.000,"P-1-1",           506,       65.0272,       5.06147,            0.,NA,NA,"",   3.11776E+06,   3.07049E+06,   3.07049E+06
C:/temp/Job-1.odb,Step-1,Increment      1: Step Time =    1.000,"P-1-1",           507,       125.243,       4.84968,            0.,NA,NA,"",   556.644E+03,  -301.529E+03,  -301.529E+03
C:/temp/Job-1.odb,Step-1,Increment      1: Step Time =    1.000,"P-1-1",           508,       115.187,       5.15240,            0.,NA,NA,"",   634.412E+03,  -204.253E+03,  -204.253E+03
C:/temp/Job-1.odb,Step-1,Increment      1: Step Time =    1.000,"P-1-1",           509,       4.80780,       45.2174,            0.,NA,NA,"",   605.559E+03,   681.408E+03,   681.408E+03
C:/temp/Job-1.odb,Step-1,Increment      1: Step Time =    1.000,"P-1-1",           510,       5.07872,       35.4751,            0.,NA,NA,"",   1.18458E+06,   1.31996E+06,   1.31996E+06
C:/temp/Job-1.odb,Step-1,Increment      1: Step Time =    1.000,"P-1-1",           511,       5.10968,       25.5698,            0.,NA,NA,"",   1.88907E+06,   2.08857E+06,   2.08857E+06
C:/temp/Job-1.odb,Step-1,Increment      1: Step Time =    1.000,"P-1-1",           512,       34.9777,       4.77543,            0.,NA,NA,"",   3.88154E+06,   3.87361E+06,   3.87361E+06
C:/temp/Job-1.odb,Step-1,Increment      1: Step Time =    1.000,"P-1-1",           513,       44.5212,       5.11797,            0.,NA,NA,"",   3.78641E+06,   3.76504E+06,   3.76504E+06
C:/temp/Job-1.odb,Step-1,Increment      1: Step Time =    1.000,"P-1-1",           514,       4.89947,       94.7534,            0.,NA,NA,"",   357.648E+03,  -410.536E+03,  -410.536E+03
C:/temp/Job-1.odb,Step-1,Increment      1: Step Time =    1.000,"P-1-1",           515,       4.90251,       155.831,            0.,NA,NA,"",   664.907E+03,   749.517E+03,   749.517E+03
C:/temp/Job-1.odb,Step-1,Increment      1: Step Time =    1.000,"P-1-1",           516,       7.18394,       145.392,            0.,NA,NA,"",   181.328E+03,   201.200E+03,   201.200E+03
C:/temp/Job-1.odb,Step-1,Increment      1: Step Time =    1.000,"P-1-1",           517,       35.1535,       194.539,            0.,NA,NA,"",   3.83033E+06,   3.81846E+06,   3.81846E+06
C:/temp/Job-1.odb,Step-1,Increment      1: Step Time =    1.000,"P-1-1",           518,       25.0725,       194.775,            0.,NA,NA,"",   3.85017E+06,   3.84867E+06,   3.84867E+06
C:/temp/Job-1.odb,Step-1,Increment      1: Step Time =    1.000,"P-1-1",           519,       64.8352,       195.217,            0.,NA,NA,"",   3.12492E+06,   3.07984E+06,   3.07984E+06
C:/temp/Job-1.odb,Step-1,Increment      1: Step Time =    1.000,"P-1-1",           520,       115.350,       194.951,            0.,NA,NA,"",   621.342E+03,  -229.703E+03,  -229.703E+03
C:/temp/Job-1.odb,Step-1,Increment      1: Step Time =    1.000,"P-1-1",           521,       105.328,       194.755,            0.,NA,NA,"",   745.540E+03,   187.073E+03,   187.073E+03
C:/temp/Job-1.odb,Step-1,Increment      1: Step Time =    1.000,"P-1-1",           522,       5.35287,       5.33792,            0.,NA,NA,"",   3.92445E+06,   4.08047E+06,   4.08047E+06
C:/temp/Job-1.odb,Step-1,Increment      1: Step Time =    1.000,"P-1-1",           523,       5.10416,       15.5001,            0.,NA,NA,"",   2.71941E+06,   2.96325E+06,   2.96325E+06
C:/temp/Job-1.odb,Step-1,Increment      1: Step Time =    1.000,"P-1-1",           524,       15.7508,       5.05640,            0.,NA,NA,"",   3.84857E+06,   3.86361E+06,   3.86361E+06
C:/temp/Job-1.odb,Step-1,Increment      1: Step Time =    1.000,"P-1-1",           525,       25.3701,       4.47896,            0.,NA,NA,"",   3.89698E+06,   3.89322E+06,   3.89322E+06
C:/temp/Job-1.odb,Step-1,Increment      1: Step Time =    1.000,"P-1-1",           526,       74.7569,       5.27555,            0.,NA,NA,"",   2.52895E+06,   2.45887E+06,   2.45887E+06
C:/temp/Job-1.odb,Step-1,Increment      1: Step Time =    1.000,"P-1-1",           527,       84.7097,       5.38521,            0.,NA,NA,"",   1.81061E+06,   1.72722E+06,   1.72722E+06
C:/temp/Job-1.odb,Step-1,Increment      1: Step Time =    1.000,"P-1-1",           528,       94.8659,       5.20504,            0.,NA,NA,"",   1.06774E+06,   970.836E+03,   970.836E+03
C:/temp/Job-1.odb,Step-1,Increment      1: Step Time =    1.000,"P-1-1",           529,       174.674,       5.29464,            0.,NA,NA,"",   846.247E+03,   835.486E+03,   835.486E+03
C:/temp/Job-1.odb,Step-1,Increment      1: Step Time =    1.000,"P-1-1",           530,       184.878,       5.31275,            0.,NA,NA,"",   935.992E+03,   929.450E+03,   929.450E+03
C:/temp/Job-1.odb,Step-1,Increment      1: Step Time =    1.000,"P-1-1",           531,       194.986,       5.05733,            0.,NA,NA,"",   993.733E+03,   985.481E+03,   985.481E+03
C:/temp/Job-1.odb,Step-1,Increment      1: Step Time =    1.000,"P-1-1",           532,       195.105,       15.0258,            0.,NA,NA,"",   1.04436E+06,   1.00718E+06,   1.00718E+06
C:/temp/Job-1.odb,Step-1,Increment      1: Step Time =    1.000,"P-1-1",           533,       195.297,       24.8683,            0.,NA,NA,"",   1.07649E+06,   1.02972E+06,   1.02972E+06
C:/temp/Job-1.odb,Step-1,Increment      1: Step Time =    1.000,"P-1-1",           534,       195.217,       34.4860,            0.,NA,NA,"",   1.04835E+06,   1.06046E+06,   1.06046E+06
C:/temp/Job-1.odb,Step-1,Increment      1: Step Time =    1.000,"P-1-1",           535,       194.521,       64.9852,            0.,NA,NA,"",   1.93089E+06,   2.17073E+06,   2.17073E+06
C:/temp/Job-1.odb,Step-1,Increment      1: Step Time =    1.000,"P-1-1",           536,       194.692,       75.0649,            0.,NA,NA,"",   2.65642E+06,   2.95804E+06,   2.95804E+06
C:/temp/Job-1.odb,Step-1,Increment      1: Step Time =    1.000,"P-1-1",           537,       194.948,       85.1144,            0.,NA,NA,"",   3.31282E+06,   3.65611E+06,   3.65611E+06
C:/temp/Job-1.odb,Step-1,Increment      1: Step Time =    1.000,"P-1-1",           538,       195.258,       94.9874,            0.,NA,NA,"",   3.76120E+06,   4.12634E+06,   4.12634E+06
C:/temp/Job-1.odb,Step-1,Increment      1: Step Time =    1.000,"P-1-1",           539,       195.294,       145.080,            0.,NA,NA,"",   1.29856E+06,   1.46536E+06,   1.46536E+06
C:/temp/Job-1.odb,Step-1,Increment      1: Step Time =    1.000,"P-1-1",           540,       195.232,       154.938,            0.,NA,NA,"",   1.04531E+06,   1.16038E+06,   1.16038E+06
C:/temp/Job-1.odb,Step-1,Increment      1: Step Time =    1.000,"P-1-1",           541,       145.311,       193.564,            0.,NA,NA,"",   578.776E+03,   371.170E+03,   371.170E+03
C:/temp/Job-1.odb,Step-1,Increment      1: Step Time =    1.000,"P-1-1",           542,       195.117,       164.873,            0.,NA,NA,"",   1.05070E+06,   1.07010E+06,   1.07010E+06
C:/temp/Job-1.odb,Step-1,Increment      1: Step Time =    1.000,"P-1-1",           543,       155.687,       194.585,            0.,NA,NA,"",   561.108E+03,   528.525E+03,   528.525E+03
C:/temp/Job-1.odb,Step-1,Increment      1: Step Time =    1.000,"P-1-1",           544,       195.019,       174.879,            0.,NA,NA,"",   1.07726E+06,   1.03414E+06,   1.03414E+06
C:/temp/Job-1.odb,Step-1,Increment      1: Step Time =    1.000,"P-1-1",           545,       165.390,       195.185,            0.,NA,NA,"",   699.941E+03,   682.022E+03,   682.022E+03
C:/temp/Job-1.odb,Step-1,Increment      1: Step Time =    1.000,"P-1-1",           546,       194.961,       184.923,            0.,NA,NA,"",   1.04645E+06,   1.00913E+06,   1.00913E+06
C:/temp/Job-1.odb,Step-1,Increment      1: Step Time =    1.000,"P-1-1",           547,       175.118,       195.092,            0.,NA,NA,"",   831.363E+03,   823.507E+03,   823.507E+03
C:/temp/Job-1.odb,Step-1,Increment      1: Step Time =    1.000,"P-1-1",           548,       194.970,       194.969,            0.,NA,NA,"",   993.789E+03,   985.254E+03,   985.254E+03
C:/temp/Job-1.odb,Step-1,Increment      1: Step Time =    1.000,"P-1-1",           549,       184.986,       194.972,            0.,NA,NA,"",   930.532E+03,   924.871E+03,   924.871E+03
C:/temp/Job-1.odb,Step-1,Increment      1: Step Time =    1.000,"P-1-1",           550,       95.1082,       194.678,            0.,NA,NA,"",   1.06570E+06,   966.547E+03,   966.547E+03
C:/temp/Job-1.odb,Step-1,Increment      1: Step Time =    1.000,"P-1-1",           551,       84.9452,       194.725,            0.,NA,NA,"",   1.77468E+06,   1.69503E+06,   1.69503E+06
C:/temp/Job-1.odb,Step-1,Increment      1: Step Time =    1.000,"P-1-1",           552,       74.8822,       194.976,            0.,NA,NA,"",    2.5065E+06,   2.43963E+06,   2.43963E+06
C:/temp/Job-1.odb,Step-1,Increment      1: Step Time =    1.000,"P-1-1",           553,       15.0164,       194.941,            0.,NA,NA,"",   3.85526E+06,   3.87163E+06,   3.87163E+06
C:/temp/Job-1.odb,Step-1,Increment      1: Step Time =    1.000,"P-1-1",           554,       4.97524,       195.005,            0.,NA,NA,"",   3.95891E+06,   4.11907E+06,   4.11907E+06
C:/temp/Job-1.odb,Step-1,Increment      1: Step Time =    1.000,"P-1-1",           555,       4.86126,       185.083,            0.,NA,NA,"",   2.75872E+06,   3.00772E+06,   3.00772E+06
C:/temp/Job-1.odb,Step-1,Increment      1: Step Time =    1.000,"P-1-1",           556,       4.67759,       175.245,            0.,NA,NA,"",   1.94194E+06,   2.14793E+06,   2.14793E+06
C:/temp/Job-1.odb,Step-1,Increment      1: Step Time =    1.000,"P-1-1",           557,       4.55983,       165.493,            0.,NA,NA,"",   1.25032E+06,   1.39487E+06,   1.39487E+06
C:/temp/Job-1.odb,Step-1,Increment      1: Step Time =    1.000,"P-1-1",           558,       5.09474,       134.708,            0.,NA,NA,"",   211.294E+03,  -214.682E+03,  -214.682E+03
C:/temp/Job-1.odb,Step-1,Increment      1: Step Time =    1.000,"P-1-1",           559,       4.71855,       124.914,            0.,NA,NA,"",   353.431E+03,  -386.902E+03,  -386.902E+03
C:/temp/Job-1.odb,Step-1,Increment      1: Step Time =    1.000,"P-1-1",           560,       5.00137,       115.041,            0.,NA,NA,"",   381.645E+03,  -432.087E+03,  -432.087E+03
C:/temp/Job-1.odb,Step-1,Increment      1: Step Time =    1.000,"P-1-1",           561,       5.17553,       104.931,            0.,NA,NA,"",   358.527E+03,  -411.275E+03,  -411.275E+03
C:/temp/Job-1.odb,Step-1,Increment      1: Step Time =    1.000,"P-1-1",           562,       4.74467,       55.0258,            0.,NA,NA,"",   169.848E+03,   188.870E+03,   188.870E+03
C:/temp/Job-1.odb,Step-1,Increment      1: Step Time =    1.000,"P-1-1",           563,       4.45727,       84.7914,            0.,NA,NA,"",   382.613E+03,  -432.415E+03,  -432.415E+03
C:/temp/Job-1.odb,Step-1,Increment      1: Step Time =    1.000,"P-1-1",           564,       4.92638,       65.0222,            0.,NA,NA,"",   208.539E+03,  -207.947E+03,  -207.947E+03
C:/temp/Job-1.odb,Step-1,Increment      1: Step Time =    1.000,"P-1-1",           565,       55.0212,       195.445,            0.,NA,NA,"",   3.56252E+06,   3.53651E+06,   3.53651E+06
C:/temp/Job-1.odb,Step-1,Increment      1: Step Time =    1.000,"P-1-1",           566,       45.2057,       195.137,            0.,NA,NA,"",   3.77948E+06,   3.76132E+06,   3.76132E+06
C:/temp/Job-1.odb,Step-1,Increment      1: Step Time =    1.000,"P-1-1",           567,       135.147,       4.63653,            0.,NA,NA,"",   513.314E+03,  -113.951E+03,  -113.951E+03
C:/temp/Job-1.odb,Step-1,Increment      1: Step Time =    1.000,"P-1-1",           568,       4.85848,       75.0264,            0.,NA,NA,"",   354.860E+03,  -387.158E+03,  -387.158E+03
C:/temp/Job-1.odb,Step-1,Increment      1: Step Time =    1.000,"P-1-1",           569,       189.979,       5.13931,            0.,NA,NA,"",   968.871E+03,   961.554E+03,   961.554E+03
C:/temp/Job-1.odb,Step-1,Increment      1: Step Time =    1.000,"P-1-1",           570,       179.751,       5.50936,            0.,NA,NA,"",   897.329E+03,   889.676E+03,   889.676E+03
C:/temp/Job-1.odb,Step-1,Increment      1: Step Time =    1.000,"P-1-1",           571,       169.676,       5.03812,            0.,NA,NA,"",   778.784E+03,   764.191E+03,   764.191E+03
C:/temp/Job-1.odb,Step-1,Increment      1: Step Time =    1.000,"P-1-1",           572,       159.796,       4.70308,            0.,NA,NA,"",   599.959E+03,   574.851E+03,   574.851E+03
C:/temp/Job-1.odb,Step-1,Increment      1: Step Time =    1.000,"P-1-1",           573,       149.910,       4.57698,            0.,NA,NA,"",   418.427E+03,   304.325E+03,   304.325E+03
C:/temp/Job-1.odb,Step-1,Increment      1: Step Time =    1.000,"P-1-1",           574,       140.069,       4.59044,            0.,NA,NA,"",   461.504E+03,   13.4401E+03,   13.4401E+03
C:/temp/Job-1.odb,Step-1,Increment      1: Step Time =    1.000,"P-1-1",           575,       130.211,       4.71790,            0.,NA,NA,"",   547.622E+03,  -224.932E+03,  -224.932E+03
C:/temp/Job-1.odb,Step-1,Increment      1: Step Time =    1.000,"P-1-1",           576,       120.232,       5.01411,            0.,NA,NA,"",   575.311E+03,  -303.656E+03,  -303.656E+03
C:/temp/Job-1.odb,Step-1,Increment      1: Step Time =    1.000,"P-1-1",           577,       110.110,       5.21721,            0.,NA,NA,"",   695.254E+03,  -30.7958E+03,  -30.7958E+03
C:/temp/Job-1.odb,Step-1,Increment      1: Step Time =    1.000,"P-1-1",           578,       99.9395,       5.18629,            0.,NA,NA,"",   846.379E+03,   565.785E+03,   565.785E+03
C:/temp/Job-1.odb,Step-1,Increment      1: Step Time =    1.000,"P-1-1",           579,       89.7553,       5.29762,            0.,NA,NA,"",   1.42080E+06,   1.33667E+06,   1.33667E+06
C:/temp/Job-1.odb,Step-1,Increment      1: Step Time =    1.000,"P-1-1",           580,       79.7216,       5.37589,            0.,NA,NA,"",   2.18384E+06,   2.10503E+06,   2.10503E+06
C:/temp/Job-1.odb,Step-1,Increment      1: Step Time =    1.000,"P-1-1",           581,       69.8649,       5.14082,            0.,NA,NA,"",   2.84112E+06,   2.78214E+06,   2.78214E+06
C:/temp/Job-1.odb,Step-1,Increment      1: Step Time =    1.000,"P-1-1",           582,       60.1096,       5.23348,            0.,NA,NA,"",   3.34910E+06,   3.30943E+06,   3.30943E+06
C:/temp/Job-1.odb,Step-1,Increment      1: Step Time =    1.000,"P-1-1",           583,       49.3143,       4.98500,            0.,NA,NA,"",   3.69323E+06,   3.66768E+06,   3.66768E+06
C:/temp/Job-1.odb,Step-1,Increment      1: Step Time =    1.000,"P-1-1",           584,       39.7912,       5.01109,            0.,NA,NA,"",   3.84086E+06,   3.82596E+06,   3.82596E+06
C:/temp/Job-1.odb,Step-1,Increment      1: Step Time =    1.000,"P-1-1",           585,       30.1764,       4.53511,            0.,NA,NA,"",   3.90021E+06,   3.89482E+06,   3.89482E+06
C:/temp/Job-1.odb,Step-1,Increment      1: Step Time =    1.000,"P-1-1",           586,       20.6135,       4.67706,            0.,NA,NA,"",   3.87857E+06,   3.88000E+06,   3.88000E+06
C:/temp/Job-1.odb,Step-1,Increment      1: Step Time =    1.000,"P-1-1",           587,       10.6571,       5.44432,            0.,NA,NA,"",   3.88480E+06,   3.91846E+06,   3.91846E+06
C:/temp/Job-1.odb,Step-1,Increment      1: Step Time =    1.000,"P-1-1",           588,       194.962,       189.951,            0.,NA,NA,"",   1.01723E+06,   995.138E+03,   995.138E+03
C:/temp/Job-1.odb,Step-1,Increment      1: Step Time =    1.000,"P-1-1",           589,       194.986,       179.909,            0.,NA,NA,"",   1.06861E+06,   1.02177E+06,   1.02177E+06
C:/temp/Job-1.odb,Step-1,Increment      1: Step Time =    1.000,"P-1-1",           590,       195.062,       169.880,            0.,NA,NA,"",   1.06991E+06,   1.04885E+06,   1.04885E+06
C:/temp/Job-1.odb,Step-1,Increment      1: Step Time =    1.000,"P-1-1",           591,       195.173,       159.912,            0.,NA,NA,"",   1.03331E+06,   1.10409E+06,   1.10409E+06
C:/temp/Job-1.odb,Step-1,Increment      1: Step Time =    1.000,"P-1-1",           592,       195.278,       150.009,            0.,NA,NA,"",   1.12477E+06,   1.26407E+06,   1.26407E+06
C:/temp/Job-1.odb,Step-1,Increment      1: Step Time =    1.000,"P-1-1",           593,       195.279,       140.172,            0.,NA,NA,"",   1.56819E+06,   1.77934E+06,   1.77934E+06
C:/temp/Job-1.odb,Step-1,Increment      1: Step Time =    1.000,"P-1-1",           594,       195.112,       130.284,            0.,NA,NA,"",   2.28255E+06,   2.56809E+06,   2.56809E+06
C:/temp/Job-1.odb,Step-1,Increment      1: Step Time =    1.000,"P-1-1",           595,       194.814,       120.121,            0.,NA,NA,"",   2.99921E+06,   3.32361E+06,   3.32361E+06
C:/temp/Job-1.odb,Step-1,Increment      1: Step Time =    1.000,"P-1-1",           596,       194.968,       109.968,            0.,NA,NA,"",   3.54811E+06,   3.90203E+06,   3.90203E+06
C:/temp/Job-1.odb,Step-1,Increment      1: Step Time =    1.000,"P-1-1",           597,       195.305,       99.9036,            0.,NA,NA,"",   3.81758E+06,   4.18491E+06,   4.18491E+06
C:/temp/Job-1.odb,Step-1,Increment      1: Step Time =    1.000,"P-1-1",           598,       195.120,       90.0591,            0.,NA,NA,"",   3.57885E+06,   3.93650E+06,   3.93650E+06
C:/temp/Job-1.odb,Step-1,Increment      1: Step Time =    1.000,"P-1-1",           599,       194.800,       80.1085,            0.,NA,NA,"",   3.00001E+06,   3.32468E+06,   3.32468E+06
C:/temp/Job-1.odb,Step-1,Increment      1: Step Time =    1.000,"P-1-1",           600,       194.646,       70.0191,            0.,NA,NA,"",   2.29300E+06,   2.56602E+06,   2.56602E+06
C:/temp/Job-1.odb,Step-1,Increment      1: Step Time =    1.000,"P-1-1",           601,       194.207,       59.9165,            0.,NA,NA,"",   1.61400E+06,   1.81168E+06,   1.81168E+06
C:/temp/Job-1.odb,Step-1,Increment      1: Step Time =    1.000,"P-1-1",           602,       194.553,       49.1801,            0.,NA,NA,"",   1.15975E+06,   1.29207E+06,   1.29207E+06
C:/temp/Job-1.odb,Step-1,Increment      1: Step Time =    1.000,"P-1-1",           603,       195.152,       39.3900,            0.,NA,NA,"",   1.03131E+06,   1.09432E+06,   1.09432E+06
C:/temp/Job-1.odb,Step-1,Increment      1: Step Time =    1.000,"P-1-1",           604,       195.270,       29.6664,            0.,NA,NA,"",   1.06899E+06,   1.04224E+06,   1.04224E+06
C:/temp/Job-1.odb,Step-1,Increment      1: Step Time =    1.000,"P-1-1",           605,       195.208,       19.9485,            0.,NA,NA,"",   1.06589E+06,   1.01769E+06,   1.01769E+06
C:/temp/Job-1.odb,Step-1,Increment      1: Step Time =    1.000,"P-1-1",           606,       195.044,       10.0462,            0.,NA,NA,"",   1.01645E+06,   994.823E+03,   994.823E+03
C:/temp/Job-1.odb,Step-1,Increment      1: Step Time =    1.000,"P-1-1",           607,       9.97908,       194.983,            0.,NA,NA,"",   3.92461E+06,   3.95874E+06,   3.95874E+06
C:/temp/Job-1.odb,Step-1,Increment      1: Step Time =    1.000,"P-1-1",           608,       20.0470,       194.859,            0.,NA,NA,"",   3.85209E+06,   3.85543E+06,   3.85543E+06
C:/temp/Job-1.odb,Step-1,Increment      1: Step Time =    1.000,"P-1-1",           609,       30.0787,       194.646,            0.,NA,NA,"",   3.84604E+06,   3.83960E+06,   3.83960E+06
C:/temp/Job-1.odb,Step-1,Increment      1: Step Time =    1.000,"P-1-1",           610,       40.2525,       194.580,            0.,NA,NA,"",   3.81006E+06,   3.79322E+06,   3.79322E+06
C:/temp/Job-1.odb,Step-1,Increment      1: Step Time =    1.000,"P-1-1",           611,       50.2188,       195.503,            0.,NA,NA,"",   3.70277E+06,   3.68294E+06,   3.68294E+06
C:/temp/Job-1.odb,Step-1,Increment      1: Step Time =    1.000,"P-1-1",           612,       59.8733,       195.314,            0.,NA,NA,"",   3.36854E+06,   3.33435E+06,   3.33435E+06
C:/temp/Job-1.odb,Step-1,Increment      1: Step Time =    1.000,"P-1-1",           613,       69.8571,       195.126,            0.,NA,NA,"",   2.83295E+06,   2.77736E+06,   2.77736E+06
C:/temp/Job-1.odb,Step-1,Increment      1: Step Time =    1.000,"P-1-1",           614,       79.9122,       194.826,            0.,NA,NA,"",   2.15151E+06,   2.07590E+06,   2.07590E+06
C:/temp/Job-1.odb,Step-1,Increment      1: Step Time =    1.000,"P-1-1",           615,       90.0113,       194.654,            0.,NA,NA,"",   1.40070E+06,   1.31614E+06,   1.31614E+06
C:/temp/Job-1.odb,Step-1,Increment      1: Step Time =    1.000,"P-1-1",           616,       100.233,       194.720,            0.,NA,NA,"",   845.168E+03,   560.783E+03,   560.783E+03
C:/temp/Job-1.odb,Step-1,Increment      1: Step Time =    1.000,"P-1-1",           617,       110.377,       194.815,            0.,NA,NA,"",   683.729E+03,  -50.5421E+03,  -50.5421E+03
C:/temp/Job-1.odb,Step-1,Increment      1: Step Time =    1.000,"P-1-1",           618,       120.246,       195.144,            0.,NA,NA,"",   565.346E+03,  -327.417E+03,  -327.417E+03
C:/temp/Job-1.odb,Step-1,Increment      1: Step Time =    1.000,"P-1-1",           619,       130.026,       195.296,            0.,NA,NA,"",   546.325E+03,  -213.278E+03,  -213.278E+03
C:/temp/Job-1.odb,Step-1,Increment      1: Step Time =    1.000,"P-1-1",           620,       139.880,       194.561,            0.,NA,NA,"",   494.793E+03,   100.408E+03,   100.408E+03
C:/temp/Job-1.odb,Step-1,Increment      1: Step Time =    1.000,"P-1-1",           621,       150.791,       194.519,            0.,NA,NA,"",   501.647E+03,   387.458E+03,   387.458E+03
C:/temp/Job-1.odb,Step-1,Increment      1: Step Time =    1.000,"P-1-1",           622,       160.473,       194.988,            0.,NA,NA,"",   633.538E+03,   609.514E+03,   609.514E+03
C:/temp/Job-1.odb,Step-1,Increment      1: Step Time =    1.000,"P-1-1",           623,       170.254,       195.180,            0.,NA,NA,"",   767.878E+03,   756.529E+03,   756.529E+03
C:/temp/Job-1.odb,Step-1,Increment      1: Step Time =    1.000,"P-1-1",           624,       180.041,       195.023,            0.,NA,NA,"",   885.594E+03,   879.327E+03,   879.327E+03
C:/temp/Job-1.odb,Step-1,Increment      1: Step Time =    1.000,"P-1-1",           625,       189.972,       194.965,            0.,NA,NA,"",   967.585E+03,   960.528E+03,   960.528E+03
C:/temp/Job-1.odb,Step-1,Increment      1: Step Time =    1.000,"P-1-1",           626,       5.47185,       10.4822,            0.,NA,NA,"",   3.24872E+06,   3.47993E+06,   3.47993E+06
C:/temp/Job-1.odb,Step-1,Increment      1: Step Time =    1.000,"P-1-1",           627,       4.94325,       20.5252,            0.,NA,NA,"",   2.28497E+06,   2.51362E+06,   2.51362E+06
C:/temp/Job-1.odb,Step-1,Increment      1: Step Time =    1.000,"P-1-1",           628,       5.33015,       30.5716,            0.,NA,NA,"",   1.52678E+06,   1.69372E+06,   1.69372E+06
C:/temp/Job-1.odb,Step-1,Increment      1: Step Time =    1.000,"P-1-1",           629,       4.90150,       40.3888,            0.,NA,NA,"",   874.690E+03,   979.233E+03,   979.233E+03
C:/temp/Job-1.odb,Step-1,Increment      1: Step Time =    1.000,"P-1-1",           630,       4.74643,       50.1206,            0.,NA,NA,"",   363.558E+03,   410.556E+03,   410.556E+03
C:/temp/Job-1.odb,Step-1,Increment      1: Step Time =    1.000,"P-1-1",           631,       4.80461,       59.9888,            0.,NA,NA,"",   121.914E+03,  -22.7851E+03,  -22.7851E+03
C:/temp/Job-1.odb,Step-1,Increment      1: Step Time =    1.000,"P-1-1",           632,       4.97509,       70.0385,            0.,NA,NA,"",   299.215E+03,  -317.897E+03,  -317.897E+03
C:/temp/Job-1.odb,Step-1,Increment      1: Step Time =    1.000,"P-1-1",           633,       4.62959,       79.9344,            0.,NA,NA,"",   380.776E+03,  -423.367E+03,  -423.367E+03
C:/temp/Job-1.odb,Step-1,Increment      1: Step Time =    1.000,"P-1-1",           634,       4.59814,       89.7770,            0.,NA,NA,"",   370.397E+03,  -423.671E+03,  -423.671E+03
C:/temp/Job-1.odb,Step-1,Increment      1: Step Time =    1.000,"P-1-1",           635,       5.10434,       99.8060,            0.,NA,NA,"",   352.865E+03,  -404.570E+03,  -404.570E+03
C:/temp/Job-1.odb,Step-1,Increment      1: Step Time =    1.000,"P-1-1",           636,       5.13285,       110.027,            0.,NA,NA,"",   371.078E+03,  -424.628E+03,  -424.628E+03
C:/temp/Job-1.odb,Step-1,Increment      1: Step Time =    1.000,"P-1-1",           637,       4.82975,       119.987,            0.,NA,NA,"",   379.527E+03,  -422.882E+03,  -422.882E+03
C:/temp/Job-1.odb,Step-1,Increment      1: Step Time =    1.000,"P-1-1",           638,       4.76908,       129.825,            0.,NA,NA,"",   296.398E+03,  -317.335E+03,  -317.335E+03
C:/temp/Job-1.odb,Step-1,Increment      1: Step Time =    1.000,"P-1-1",           639,       5.79338,       139.703,            0.,NA,NA,"",   130.828E+03,  -29.5488E+03,  -29.5488E+03
C:/temp/Job-1.odb,Step-1,Increment      1: Step Time =    1.000,"P-1-1",           640,       5.61060,       150.878,            0.,NA,NA,"",   407.742E+03,   463.604E+03,   463.604E+03
C:/temp/Job-1.odb,Step-1,Increment      1: Step Time =    1.000,"P-1-1",           641,       4.61242,       160.666,            0.,NA,NA,"",   946.976E+03,   1.06064E+06,   1.06064E+06
C:/temp/Job-1.odb,Step-1,Increment      1: Step Time =    1.000,"P-1-1",           642,       4.58474,       170.347,            0.,NA,NA,"",   1.58332E+06,   1.75899E+06,   1.75899E+06
C:/temp/Job-1.odb,Step-1,Increment      1: Step Time =    1.000,"P-1-1",           643,       4.76831,       180.157,            0.,NA,NA,"",   2.33606E+06,   2.56743E+06,   2.56743E+06
C:/temp/Job-1.odb,Step-1,Increment      1: Step Time =    1.000,"P-1-1",           644,       4.92701,       190.032,            0.,NA,NA,"",   3.28738E+06,   3.52714E+06,   3.52714E+06
C:/temp/Job-1.odb,Step-1,Increment      1: Step Time =    1.000,"P-1-1",           645,       30.2536,       88.8807,            0.,NA,NA,"",   788.399E+03,  -817.060E+03,  -817.060E+03
C:/temp/Job-1.odb,Step-1,Increment      1: Step Time =    1.000,"P-1-1",           646,       121.407,       170.747,            0.,NA,NA,"",   4.85675E+06,   5.06110E+06,   5.06110E+06
C:/temp/Job-1.odb,Step-1,Increment      1: Step Time =    1.000,"P-1-1",           647,       76.7512,       171.461,            0.,NA,NA,"",   3.23980E+06,   3.08795E+06,   3.08795E+06
C:/temp/Job-1.odb,Step-1,Increment      1: Step Time =    1.000,"P-1-1",           648,       175.547,       113.428,            0.,NA,NA,"",   1.58275E+06,  -899.950E+03,  -899.950E+03
C:/temp/Job-1.odb,Step-1,Increment      1: Step Time =    1.000,"P-1-1",           649,       25.6057,       109.988,            0.,NA,NA,"",   633.208E+03,  -685.528E+03,  -685.528E+03
C:/temp/Job-1.odb,Step-1,Increment      1: Step Time =    1.000,"P-1-1",           650,       171.273,       81.6647,            0.,NA,NA,"",   1.99473E+06,  -1.83016E+06,  -1.83016E+06
C:/temp/Job-1.odb,Step-1,Increment      1: Step Time =    1.000,"P-1-1",           651,       25.0556,       79.9015,            0.,NA,NA,"",   706.946E+03,  -750.183E+03,  -750.183E+03
C:/temp/Job-1.odb,Step-1,Increment      1: Step Time =    1.000,"P-1-1",           652,       171.121,       123.370,            0.,NA,NA,"",   1.91372E+06,  -1.47566E+06,  -1.47566E+06
C:/temp/Job-1.odb,Step-1,Increment      1: Step Time =    1.000,"P-1-1",           653,       28.4993,       120.667,            0.,NA,NA,"",   842.842E+03,  -880.902E+03,  -880.902E+03
C:/temp/Job-1.odb,Step-1,Increment      1: Step Time =    1.000,"P-1-1",           654,       156.401,       149.938,            0.,NA,NA,"",   2.50813E+06,   2.37948E+06,   2.37948E+06
C:/temp/Job-1.odb,Step-1,Increment      1: Step Time =    1.000,"P-1-1",           655,       43.9593,       149.707,            0.,NA,NA,"",   982.436E+03,  -916.717E+03,  -916.717E+03
C:/temp/Job-1.odb,Step-1,Increment      1: Step Time =    1.000,"P-1-1",           656,       67.1641,       168.244,            0.,NA,NA,"",   2.44028E+06,   2.15081E+06,   2.15081E+06
C:/temp/Job-1.odb,Step-1,Increment      1: Step Time =    1.000,"P-1-1",           657,       130.762,       167.441,            0.,NA,NA,"",   4.46335E+06,   4.64085E+06,   4.64085E+06
C:/temp/Job-1.odb,Step-1,Increment      1: Step Time =    1.000,"P-1-1",           658,       103.872,       25.0147,            0.,NA,NA,"",   4.57988E+06,   4.74333E+06,   4.74333E+06
C:/temp/Job-1.odb,Step-1,Increment      1: Step Time =    1.000,"P-1-1",           659,       94.0897,       24.4370,            0.,NA,NA,"",   4.16319E+06,   4.22717E+06,   4.22717E+06
C:/temp/Job-1.odb,Step-1,Increment      1: Step Time =    1.000,"P-1-1",           660,       57.6174,       163.233,            0.,NA,NA,"",   1.69953E+06,   1.25980E+06,   1.25980E+06
C:/temp/Job-1.odb,Step-1,Increment      1: Step Time =    1.000,"P-1-1",           661,       140.299,       164.532,            0.,NA,NA,"",   3.60253E+06,   3.71252E+06,   3.71252E+06
C:/temp/Job-1.odb,Step-1,Increment      1: Step Time =    1.000,"P-1-1",           662,       159.744,       57.1731,            0.,NA,NA,"",   1.96757E+06,   1.72035E+06,   1.72035E+06
C:/temp/Job-1.odb,Step-1,Increment      1: Step Time =    1.000,"P-1-1",           663,       25.1832,       104.510,            0.,NA,NA,"",   577.137E+03,  -633.005E+03,  -633.005E+03
C:/temp/Job-1.odb,Step-1,Increment      1: Step Time =    1.000,"P-1-1",           664,       174.128,       109.006,            0.,NA,NA,"",   1.77750E+06,  -1.73537E+06,  -1.73537E+06
C:/temp/Job-1.odb,Step-1,Increment      1: Step Time =    1.000,"P-1-1",           665,       119.076,       28.0972,            0.,NA,NA,"",   4.75696E+06,   4.96569E+06,   4.96569E+06
C:/temp/Job-1.odb,Step-1,Increment      1: Step Time =    1.000,"P-1-1",           666,       78.6415,       167.234,            0.,NA,NA,"",   3.12327E+06,   3.08823E+06,   3.08823E+06
C:/temp/Job-1.odb,Step-1,Increment      1: Step Time =    1.000,"P-1-1",           667,       130.503,       9.43930,            0.,NA,NA,"",   682.919E+03,   684.531E+03,   684.531E+03
C:/temp/Job-1.odb,Step-1,Increment      1: Step Time =    1.000,"P-1-1",           668,       110.235,       10.4062,            0.,NA,NA,"",   1.16068E+06,   1.19613E+06,   1.19613E+06
C:/temp/Job-1.odb,Step-1,Increment      1: Step Time =    1.000,"P-1-1",           669,       89.6181,       10.5286,            0.,NA,NA,"",   2.32279E+06,   2.19532E+06,   2.19532E+06
C:/temp/Job-1.odb,Step-1,Increment      1: Step Time =    1.000,"P-1-1",           670,       79.3683,       10.8990,            0.,NA,NA,"",   2.77793E+06,   2.60567E+06,   2.60567E+06
C:/temp/Job-1.odb,Step-1,Increment      1: Step Time =    1.000,"P-1-1",           671,       69.5479,       10.4027,            0.,NA,NA,"",   3.02284E+06,   2.87479E+06,   2.87479E+06
C:/temp/Job-1.odb,Step-1,Increment      1: Step Time =    1.000,"P-1-1",           672,       60.7173,       9.89340,            0.,NA,NA,"",   3.21889E+06,   3.10851E+06,   3.10851E+06
C:/temp/Job-1.odb,Step-1,Increment      1: Step Time =    1.000,"P-1-1",           673,       190.505,       140.391,            0.,NA,NA,"",   1.75901E+06,   1.87701E+06,   1.87701E+06
C:/temp/Job-1.odb,Step-1,Increment      1: Step Time =    1.000,"P-1-1",           674,       190.302,       130.685,            0.,NA,NA,"",   2.11178E+06,   2.26270E+06,   2.26270E+06
C:/temp/Job-1.odb,Step-1,Increment      1: Step Time =    1.000,"P-1-1",           675,       190.027,       109.742,            0.,NA,NA,"",   2.37118E+06,   2.62273E+06,   2.62273E+06
C:/temp/Job-1.odb,Step-1,Increment      1: Step Time =    1.000,"P-1-1",           676,       190.210,       90.3002,            0.,NA,NA,"",   2.43158E+06,   2.68944E+06,   2.68944E+06
C:/temp/Job-1.odb,Step-1,Increment      1: Step Time =    1.000,"P-1-1",           677,       189.613,       80.3525,            0.,NA,NA,"",   2.29983E+06,   2.47630E+06,   2.47630E+06
C:/temp/Job-1.odb,Step-1,Increment      1: Step Time =    1.000,"P-1-1",           678,       189.437,       70.0553,            0.,NA,NA,"",   2.11475E+06,   2.22668E+06,   2.22668E+06
C:/temp/Job-1.odb,Step-1,Increment      1: Step Time =    1.000,"P-1-1",           679,       188.845,       60.2893,            0.,NA,NA,"",   1.87112E+06,   1.92729E+06,   1.92729E+06
C:/temp/Job-1.odb,Step-1,Increment      1: Step Time =    1.000,"P-1-1",           680,       59.6232,       190.537,            0.,NA,NA,"",   3.23153E+06,   3.13533E+06,   3.13533E+06
C:/temp/Job-1.odb,Step-1,Increment      1: Step Time =    1.000,"P-1-1",           681,       79.7314,       189.652,            0.,NA,NA,"",   2.71544E+06,   2.55160E+06,   2.55160E+06
C:/temp/Job-1.odb,Step-1,Increment      1: Step Time =    1.000,"P-1-1",           682,       90.0064,       189.298,            0.,NA,NA,"",   2.31648E+06,   2.19134E+06,   2.19134E+06
C:/temp/Job-1.odb,Step-1,Increment      1: Step Time =    1.000,"P-1-1",           683,       100.512,       189.583,            0.,NA,NA,"",   1.72473E+06,   1.67869E+06,   1.67869E+06
C:/temp/Job-1.odb,Step-1,Increment      1: Step Time =    1.000,"P-1-1",           684,       110.869,       189.578,            0.,NA,NA,"",   1.13007E+06,   1.17084E+06,   1.17084E+06
C:/temp/Job-1.odb,Step-1,Increment      1: Step Time =    1.000,"P-1-1",           685,       120.706,       190.217,            0.,NA,NA,"",   696.552E+03,   757.223E+03,   757.223E+03
C:/temp/Job-1.odb,Step-1,Increment      1: Step Time =    1.000,"P-1-1",           686,       9.33313,       80.1606,            0.,NA,NA,"",   404.274E+03,  -449.027E+03,  -449.027E+03
C:/temp/Job-1.odb,Step-1,Increment      1: Step Time =    1.000,"P-1-1",           687,       9.05456,       89.3618,            0.,NA,NA,"",   367.628E+03,  -422.980E+03,  -422.980E+03
C:/temp/Job-1.odb,Step-1,Increment      1: Step Time =    1.000,"P-1-1",           688,       10.2921,       110.162,            0.,NA,NA,"",   372.670E+03,  -428.446E+03,  -428.446E+03
C:/temp/Job-1.odb,Step-1,Increment      1: Step Time =    1.000,"P-1-1",           689,       9.64656,       120.143,            0.,NA,NA,"",   404.921E+03,  -449.431E+03,  -449.431E+03
C:/temp/Job-1.odb,Step-1,Increment      1: Step Time =    1.000,"P-1-1",           690,       9.35338,       129.564,            0.,NA,NA,"",   352.360E+03,  -364.438E+03,  -364.438E+03
C:/temp/Job-1.odb,Step-1,Increment      1: Step Time =    1.000,"P-1-1",           691,       10.8674,       138.412,            0.,NA,NA,"",   207.409E+03,  -134.695E+03,  -134.695E+03
C:/temp/Job-1.odb,Step-1,Increment      1: Step Time =    1.000,"P-1-1",           692,       140.169,       9.29720,            0.,NA,NA,"",   786.101E+03,   736.774E+03,   736.774E+03
C:/temp/Job-1.odb,Step-1,Increment      1: Step Time =    1.000,"P-1-1",           693,       120.606,       10.0032,            0.,NA,NA,"",   738.558E+03,   800.679E+03,   800.679E+03
C:/temp/Job-1.odb,Step-1,Increment      1: Step Time =    1.000,"P-1-1",           694,       99.8723,       10.2304,            0.,NA,NA,"",   1.73350E+06,   1.67626E+06,   1.67626E+06
C:/temp/Job-1.odb,Step-1,Increment      1: Step Time =    1.000,"P-1-1",           695,       189.674,       120.324,            0.,NA,NA,"",   2.29354E+06,   2.46899E+06,   2.46899E+06
C:/temp/Job-1.odb,Step-1,Increment      1: Step Time =    1.000,"P-1-1",           696,       190.744,       99.8136,            0.,NA,NA,"",   2.54593E+06,   2.83005E+06,   2.83005E+06
C:/temp/Job-1.odb,Step-1,Increment      1: Step Time =    1.000,"P-1-1",           697,       69.6338,       190.373,            0.,NA,NA,"",   2.98044E+06,   2.84395E+06,   2.84395E+06
C:/temp/Job-1.odb,Step-1,Increment      1: Step Time =    1.000,"P-1-1",           698,       130.010,       190.739,            0.,NA,NA,"",   667.446E+03,   670.424E+03,   670.424E+03
C:/temp/Job-1.odb,Step-1,Increment      1: Step Time =    1.000,"P-1-1",           699,       139.026,       189.514,            0.,NA,NA,"",   905.732E+03,   870.269E+03,   870.269E+03
C:/temp/Job-1.odb,Step-1,Increment      1: Step Time =    1.000,"P-1-1",           700,       9.50924,       59.9086,            0.,NA,NA,"",   155.799E+03,  -46.4211E+03,  -46.4211E+03
C:/temp/Job-1.odb,Step-1,Increment      1: Step Time =    1.000,"P-1-1",           701,       10.0881,       70.1050,            0.,NA,NA,"",   359.609E+03,  -369.980E+03,  -369.980E+03
C:/temp/Job-1.odb,Step-1,Increment      1: Step Time =    1.000,"P-1-1",           702,       10.2255,       99.5076,            0.,NA,NA,"",   340.029E+03,  -378.411E+03,  -378.411E+03
C:/temp/Job-1.odb,Step-1,Increment      1: Step Time =    1.000,"P-1-1",           703,       80.4377,       27.2105,            0.,NA,NA,"",   3.49231E+06,   3.39412E+06,   3.39412E+06
C:/temp/Job-1.odb,Step-1,Increment      1: Step Time =    1.000,"P-1-1",           704,       100.594,       175.116,            0.,NA,NA,"",   4.50962E+06,   4.65005E+06,   4.65005E+06
C:/temp/Job-1.odb,Step-1,Increment      1: Step Time =    1.000,"P-1-1",           705,       95.6813,       175.451,            0.,NA,NA,"",   4.24683E+06,   4.33749E+06,   4.33749E+06
C:/temp/Job-1.odb,Step-1,Increment      1: Step Time =    1.000,"P-1-1",           706,       162.796,       60.7652,            0.,NA,NA,"",   1.85958E+06,   1.44288E+06,   1.44288E+06
C:/temp/Job-1.odb,Step-1,Increment      1: Step Time =    1.000,"P-1-1",           707,       37.1837,       60.5807,            0.,NA,NA,"",   1.07242E+06,  -1.10357E+06,  -1.10357E+06
C:/temp/Job-1.odb,Step-1,Increment      1: Step Time =    1.000,"P-1-1",           708,       176.123,       98.8437,            0.,NA,NA,"",   1.32533E+06,  -1.29991E+06,  -1.29991E+06
C:/temp/Job-1.odb,Step-1,Increment      1: Step Time =    1.000,"P-1-1",           709,       34.6722,       64.8266,            0.,NA,NA,"",   1.06509E+06,  -1.09654E+06,  -1.09654E+06
C:/temp/Job-1.odb,Step-1,Increment      1: Step Time =    1.000,"P-1-1",           710,       162.107,       140.877,            0.,NA,NA,"",   1.94644E+06,   1.59262E+06,   1.59262E+06
C:/temp/Job-1.odb,Step-1,Increment      1: Step Time =    1.000,"P-1-1",           711,       25.1199,       99.1836,            0.,NA,NA,"",   566.057E+03,   -622.28E+03,   -622.28E+03
C:/temp/Job-1.odb,Step-1,Increment      1: Step Time =    1.000,"P-1-1",           712,       25.3349,       94.0891,            0.,NA,NA,"",   593.626E+03,  -648.022E+03,  -648.022E+03
C:/temp/Job-1.odb,Step-1,Increment      1: Step Time =    1.000,"P-1-1",           713,       60.0051,       35.2436,            0.,NA,NA,"",   1.81651E+06,   1.42941E+06,   1.42941E+06
C:/temp/Job-1.odb,Step-1,Increment      1: Step Time =    1.000,"P-1-1",           714,       32.0360,       130.985,            0.,NA,NA,"",   993.559E+03,  -1.02328E+06,  -1.02328E+06
C:/temp/Job-1.odb,Step-1,Increment      1: Step Time =    1.000,"P-1-1",           715,       155.508,       47.3698,            0.,NA,NA,"",   2.59677E+06,   2.48908E+06,   2.48908E+06
C:/temp/Job-1.odb,Step-1,Increment      1: Step Time =    1.000,"P-1-1",           716,       105.763,       174.739,            0.,NA,NA,"",   4.65525E+06,   4.83039E+06,   4.83039E+06
C:/temp/Job-1.odb,Step-1,Increment      1: Step Time =    1.000,"P-1-1",           717,       36.6721,       141.753,            0.,NA,NA,"",   951.442E+03,   -972.46E+03,   -972.46E+03
C:/temp/Job-1.odb,Step-1,Increment      1: Step Time =    1.000,"P-1-1",           718,       153.009,       154.129,            0.,NA,NA,"",   2.76882E+06,   2.71989E+06,   2.71989E+06
C:/temp/Job-1.odb,Step-1,Increment      1: Step Time =    1.000,"P-1-1",           719,       47.0019,       153.461,            0.,NA,NA,"",   1.00333E+06,  -821.452E+03,  -821.452E+03
C:/temp/Job-1.odb,Step-1,Increment      1: Step Time =    1.000,"P-1-1",           720,       45.5615,       47.9721,            0.,NA,NA,"",   989.509E+03,  -859.055E+03,  -859.055E+03
C:/temp/Job-1.odb,Step-1,Increment      1: Step Time =    1.000,"P-1-1",           721,       174.438,       104.283,            0.,NA,NA,"",   1.79052E+06,  -1.81619E+06,  -1.81619E+06
C:/temp/Job-1.odb,Step-1,Increment      1: Step Time =    1.000,"P-1-1",           722,       39.7566,       56.1719,            0.,NA,NA,"",   1.02744E+06,  -1.04169E+06,  -1.04169E+06
C:/temp/Job-1.odb,Step-1,Increment      1: Step Time =    1.000,"P-1-1",           723,       166.417,       64.0961,            0.,NA,NA,"",   1.95162E+06,   813.660E+03,   813.660E+03
C:/temp/Job-1.odb,Step-1,Increment      1: Step Time =    1.000,"P-1-1",           724,       166.849,       131.819,            0.,NA,NA,"",   1.75801E+06,  -475.354E+03,  -475.354E+03
C:/temp/Job-1.odb,Step-1,Increment      1: Step Time =    1.000,"P-1-1",           725,       170.426,       67.2068,            0.,NA,NA,"",   2.07337E+06,   262.524E+03,   262.524E+03
C:/temp/Job-1.odb,Step-1,Increment      1: Step Time =    1.000,"P-1-1",           726,       28.6925,       65.9202,            0.,NA,NA,"",   760.855E+03,  -781.869E+03,  -781.869E+03
C:/temp/Job-1.odb,Step-1,Increment      1: Step Time =    1.000,"P-1-1",           727,       60.6411,       14.2460,            0.,NA,NA,"",   3.14781E+06,   2.96072E+06,   2.96072E+06
C:/temp/Job-1.odb,Step-1,Increment      1: Step Time =    1.000,"P-1-1",           728,       13.9040,       59.7577,            0.,NA,NA,"",   210.588E+03,  -120.922E+03,  -120.922E+03
C:/temp/Job-1.odb,Step-1,Increment      1: Step Time =    1.000,"P-1-1",           729,       183.619,       60.5615,            0.,NA,NA,"",   2.13684E+06,   1.98064E+06,   1.98064E+06
C:/temp/Job-1.odb,Step-1,Increment      1: Step Time =    1.000,"P-1-1",           730,       59.3767,       185.750,            0.,NA,NA,"",   3.14698E+06,   2.97141E+06,   2.97141E+06
C:/temp/Job-1.odb,Step-1,Increment      1: Step Time =    1.000,"P-1-1",           731,       16.9464,       140.656,            0.,NA,NA,"",   239.413E+03,  -150.795E+03,  -150.795E+03
C:/temp/Job-1.odb,Step-1,Increment      1: Step Time =    1.000,"P-1-1",           732,       140.274,       14.1684,            0.,NA,NA,"",   1.35048E+06,   1.34874E+06,   1.34874E+06
C:/temp/Job-1.odb,Step-1,Increment      1: Step Time =    1.000,"P-1-1",           733,       185.657,       140.632,            0.,NA,NA,"",   2.01483E+06,   1.95147E+06,   1.95147E+06
C:/temp/Job-1.odb,Step-1,Increment      1: Step Time =    1.000,"P-1-1",           734,       138.184,       184.721,            0.,NA,NA,"",   1.47948E+06,   1.49403E+06,   1.49403E+06
C:/temp/Job-1.odb,Step-1,Increment      1: Step Time =    1.000,"P-1-1",           735,       116.485,       172.926,            0.,NA,NA,"",   4.77927E+06,   4.99621E+06,   4.99621E+06
C:/temp/Job-1.odb,Step-1,Increment      1: Step Time =    1.000,"P-1-1",           736,       160.769,       152.960,            0.,NA,NA,"",   2.54383E+06,   2.32854E+06,   2.32854E+06
C:/temp/Job-1.odb,Step-1,Increment      1: Step Time =    1.000,"P-1-1",           737,       40.7147,       152.433,            0.,NA,NA,"",   833.332E+03,  -616.528E+03,  -616.528E+03
C:/temp/Job-1.odb,Step-1,Increment      1: Step Time =    1.000,"P-1-1",           738,       91.1108,       176.397,            0.,NA,NA,"",   3.89604E+06,   3.91162E+06,   3.91162E+06
C:/temp/Job-1.odb,Step-1,Increment      1: Step Time =    1.000,"P-1-1",           739,       111.135,       174.102,            0.,NA,NA,"",   4.71805E+06,   4.92237E+06,   4.92237E+06
C:/temp/Job-1.odb,Step-1,Increment      1: Step Time =    1.000,"P-1-1",           740,       126.623,       172.518,            0.,NA,NA,"",   3.90428E+06,   4.10998E+06,   4.10998E+06
C:/temp/Job-1.odb,Step-1,Increment      1: Step Time =    1.000,"P-1-1",           741,       74.8806,       175.716,            0.,NA,NA,"",   3.31260E+06,   3.06771E+06,   3.06771E+06
C:/temp/Job-1.odb,Step-1,Increment      1: Step Time =    1.000,"P-1-1",           742,       15.5878,       70.1120,            0.,NA,NA,"",   447.698E+03,  -459.098E+03,  -459.098E+03
C:/temp/Job-1.odb,Step-1,Increment      1: Step Time =    1.000,"P-1-1",           743,       130.791,       14.1309,            0.,NA,NA,"",   1.38956E+06,   1.45267E+06,   1.45267E+06
C:/temp/Job-1.odb,Step-1,Increment      1: Step Time =    1.000,"P-1-1",           744,       68.8493,       15.8989,            0.,NA,NA,"",   3.16675E+06,   2.93024E+06,   2.93024E+06
C:/temp/Job-1.odb,Step-1,Increment      1: Step Time =    1.000,"P-1-1",           745,       13.5894,       129.305,            0.,NA,NA,"",   417.201E+03,  -427.518E+03,  -427.518E+03
C:/temp/Job-1.odb,Step-1,Increment      1: Step Time =    1.000,"P-1-1",           746,       69.3434,       185.874,            0.,NA,NA,"",   3.12749E+06,   2.91123E+06,   2.91123E+06
C:/temp/Job-1.odb,Step-1,Increment      1: Step Time =    1.000,"P-1-1",           747,       184.566,       69.8986,            0.,NA,NA,"",   2.12242E+06,   1.99893E+06,   1.99893E+06
C:/temp/Job-1.odb,Step-1,Increment      1: Step Time =    1.000,"P-1-1",           748,       185.605,       131.116,            0.,NA,NA,"",   2.13472E+06,   2.07753E+06,   2.07753E+06
C:/temp/Job-1.odb,Step-1,Increment      1: Step Time =    1.000,"P-1-1",           749,       130.033,       186.527,            0.,NA,NA,"",   1.30560E+06,   1.36918E+06,   1.36918E+06
C:/temp/Job-1.odb,Step-1,Increment      1: Step Time =    1.000,"P-1-1",           750,       38.3250,       48.6676,            0.,NA,NA,"",   754.714E+03,  -329.950E+03,  -329.950E+03
C:/temp/Job-1.odb,Step-1,Increment      1: Step Time =    1.000,"P-1-1",           751,       162.452,       52.1909,            0.,NA,NA,"",   2.41913E+06,   2.10980E+06,   2.10980E+06
C:/temp/Job-1.odb,Step-1,Increment      1: Step Time =    1.000,"P-1-1",           752,       26.5833,       115.458,            0.,NA,NA,"",   726.156E+03,  -771.590E+03,  -771.590E+03
C:/temp/Job-1.odb,Step-1,Increment      1: Step Time =    1.000,"P-1-1",           753,       25.4638,       84.4120,            0.,NA,NA,"",   692.392E+03,  -739.511E+03,  -739.511E+03
C:/temp/Job-1.odb,Step-1,Increment      1: Step Time =    1.000,"P-1-1",           754,       174.263,       125.946,            0.,NA,NA,"",   2.00537E+06,   70.9978E+03,   70.9978E+03
C:/temp/Job-1.odb,Step-1,Increment      1: Step Time =    1.000,"P-1-1",           755,       26.4327,       126.990,            0.,NA,NA,"",   767.435E+03,  -799.580E+03,  -799.580E+03
C:/temp/Job-1.odb,Step-1,Increment      1: Step Time =    1.000,"P-1-1",           756,       109.183,       25.5056,            0.,NA,NA,"",   4.67059E+06,   4.86810E+06,   4.86810E+06
C:/temp/Job-1.odb,Step-1,Increment      1: Step Time =    1.000,"P-1-1",           757,       90.1229,       23.7568,            0.,NA,NA,"",   3.90138E+06,   3.90626E+06,   3.90626E+06
C:/temp/Job-1.odb,Step-1,Increment      1: Step Time =    1.000,"P-1-1",           758,       145.002,       163.567,            0.,NA,NA,"",   3.18794E+06,   3.25468E+06,   3.25468E+06
C:/temp/Job-1.odb,Step-1,Increment      1: Step Time =    1.000,"P-1-1",           759,       121.206,       14.9489,            0.,NA,NA,"",   1.68513E+06,   1.80688E+06,   1.80688E+06
C:/temp/Job-1.odb,Step-1,Increment      1: Step Time =    1.000,"P-1-1",           760,       14.5408,       81.3711,            0.,NA,NA,"",   446.296E+03,  -497.252E+03,  -497.252E+03
C:/temp/Job-1.odb,Step-1,Increment      1: Step Time =    1.000,"P-1-1",           761,       78.8268,       16.5215,            0.,NA,NA,"",   3.19423E+06,   2.97265E+06,   2.97265E+06
C:/temp/Job-1.odb,Step-1,Increment      1: Step Time =    1.000,"P-1-1",           762,       14.4009,       120.650,            0.,NA,NA,"",   461.127E+03,  -505.150E+03,  -505.150E+03
C:/temp/Job-1.odb,Step-1,Increment      1: Step Time =    1.000,"P-1-1",           763,       79.4817,       184.246,            0.,NA,NA,"",   3.15466E+06,   2.93654E+06,   2.93654E+06
C:/temp/Job-1.odb,Step-1,Increment      1: Step Time =    1.000,"P-1-1",           764,       184.725,       120.799,            0.,NA,NA,"",   1.93526E+06,   1.86769E+06,   1.86769E+06
C:/temp/Job-1.odb,Step-1,Increment      1: Step Time =    1.000,"P-1-1",           765,       184.598,       80.8002,            0.,NA,NA,"",   1.86898E+06,   1.80829E+06,   1.80829E+06
C:/temp/Job-1.odb,Step-1,Increment      1: Step Time =    1.000,"P-1-1",           766,       121.586,       185.217,            0.,NA,NA,"",   1.64292E+06,   1.76388E+06,   1.76388E+06
C:/temp/Job-1.odb,Step-1,Increment      1: Step Time =    1.000,"P-1-1",           767,       25.5806,       89.2188,            0.,NA,NA,"",   645.678E+03,  -696.640E+03,  -696.640E+03
C:/temp/Job-1.odb,Step-1,Increment      1: Step Time =    1.000,"P-1-1",           768,       175.430,       93.3008,            0.,NA,NA,"",   1.54698E+06,  -1.47981E+06,  -1.47981E+06
C:/temp/Job-1.odb,Step-1,Increment      1: Step Time =    1.000,"P-1-1",           769,       53.5083,       37.4620,            0.,NA,NA,"",   1.60812E+06,   1.15261E+06,   1.15261E+06
C:/temp/Job-1.odb,Step-1,Increment      1: Step Time =    1.000,"P-1-1",           770,       150.649,       42.8795,            0.,NA,NA,"",   2.93134E+06,   2.92625E+06,   2.92625E+06
C:/temp/Job-1.odb,Step-1,Increment      1: Step Time =    1.000,"P-1-1",           771,       154.513,       160.037,            0.,NA,NA,"",   2.66534E+06,   2.59843E+06,   2.59843E+06
C:/temp/Job-1.odb,Step-1,Increment      1: Step Time =    1.000,"P-1-1",           772,       45.2902,       158.826,            0.,NA,NA,"",   1.21032E+06,   472.276E+03,   472.276E+03
C:/temp/Job-1.odb,Step-1,Increment      1: Step Time =    1.000,"P-1-1",           773,       165.232,       57.9104,            0.,NA,NA,"",   2.27097E+06,   1.81562E+06,   1.81562E+06
C:/temp/Job-1.odb,Step-1,Increment      1: Step Time =    1.000,"P-1-1",           774,       33.5891,       58.0209,            0.,NA,NA,"",   737.441E+03,  -745.195E+03,  -745.195E+03
C:/temp/Job-1.odb,Step-1,Increment      1: Step Time =    1.000,"P-1-1",           775,       13.1730,       88.3247,            0.,NA,NA,"",   392.385E+03,  -450.708E+03,  -450.708E+03
C:/temp/Job-1.odb,Step-1,Increment      1: Step Time =    1.000,"P-1-1",           776,       110.301,       15.5758,            0.,NA,NA,"",   2.21243E+06,   2.32612E+06,   2.32612E+06
C:/temp/Job-1.odb,Step-1,Increment      1: Step Time =    1.000,"P-1-1",           777,       89.8438,       15.5063,            0.,NA,NA,"",   2.99814E+06,   2.89195E+06,   2.89195E+06
C:/temp/Job-1.odb,Step-1,Increment      1: Step Time =    1.000,"P-1-1",           778,       15.5177,       110.396,            0.,NA,NA,"",   415.748E+03,  -476.258E+03,  -476.258E+03
C:/temp/Job-1.odb,Step-1,Increment      1: Step Time =    1.000,"P-1-1",           779,       185.426,       109.051,            0.,NA,NA,"",   1.48771E+06,   1.61105E+06,   1.61105E+06
C:/temp/Job-1.odb,Step-1,Increment      1: Step Time =    1.000,"P-1-1",           780,       89.9724,       183.569,            0.,NA,NA,"",   3.10683E+06,   3.01683E+06,   3.01683E+06
C:/temp/Job-1.odb,Step-1,Increment      1: Step Time =    1.000,"P-1-1",           781,       185.218,       90.8288,            0.,NA,NA,"",   1.49143E+06,   1.58905E+06,   1.58905E+06
C:/temp/Job-1.odb,Step-1,Increment      1: Step Time =    1.000,"P-1-1",           782,       111.396,       184.248,            0.,NA,NA,"",   2.20201E+06,   2.32435E+06,   2.32435E+06
C:/temp/Job-1.odb,Step-1,Increment      1: Step Time =    1.000,"P-1-1",           783,       99.7453,       15.1212,            0.,NA,NA,"",   2.60410E+06,   2.60659E+06,   2.60659E+06
C:/temp/Job-1.odb,Step-1,Increment      1: Step Time =    1.000,"P-1-1",           784,       15.3084,       99.2062,            0.,NA,NA,"",   366.667E+03,  -409.634E+03,  -409.634E+03
C:/temp/Job-1.odb,Step-1,Increment      1: Step Time =    1.000,"P-1-1",           785,       100.779,       184.639,            0.,NA,NA,"",   2.59354E+06,   2.61420E+06,   2.61420E+06
C:/temp/Job-1.odb,Step-1,Increment      1: Step Time =    1.000,"P-1-1",           786,       186.425,       99.8680,            0.,NA,NA,"",   1.47563E+06,   1.65735E+06,   1.65735E+06
C:/temp/Job-1.odb,Step-1,Increment      1: Step Time =    1.000,"P-1-1",           787,       55.4360,       33.1877,            0.,NA,NA,"",   2.03989E+06,   1.63550E+06,   1.63550E+06
C:/temp/Job-1.odb,Step-1,Increment      1: Step Time =    1.000,"P-1-1",           788,       145.078,       168.675,            0.,NA,NA,"",   2.87304E+06,   2.92358E+06,   2.92358E+06
C:/temp/Job-1.odb,Step-1,Increment      1: Step Time =    1.000,"P-1-1",           789,       154.252,       38.1850,            0.,NA,NA,"",   2.68827E+06,   2.62228E+06,   2.62228E+06
C:/temp/Job-1.odb,Step-1,Increment      1: Step Time =    1.000,"P-1-1",           790,       149.502,       163.944,            0.,NA,NA,"",   2.83411E+06,   2.84451E+06,   2.84451E+06
C:/temp/Job-1.odb,Step-1,Increment      1: Step Time =    1.000,"P-1-1",           791,       174.916,       89.2262,            0.,NA,NA,"",   1.60489E+06,  -1.49320E+06,  -1.49320E+06
C:/temp/Job-1.odb,Step-1,Increment      1: Step Time =    1.000,"P-1-1",           792,       21.2342,       89.5555,            0.,NA,NA,"",   516.265E+03,  -579.455E+03,  -579.455E+03
C:/temp/Job-1.odb,Step-1,Increment      1: Step Time =    1.000,"P-1-1",           793,       24.7370,       122.120,            0.,NA,NA,"",   704.622E+03,  -745.390E+03,  -745.390E+03
C:/temp/Job-1.odb,Step-1,Increment      1: Step Time =    1.000,"P-1-1",           794,       173.467,       62.7928,            0.,NA,NA,"",   2.32929E+06,   1.78286E+06,   1.78286E+06
C:/temp/Job-1.odb,Step-1,Increment      1: Step Time =    1.000,"P-1-1",           795,       25.4647,       62.8411,            0.,NA,NA,"",   553.439E+03,  -557.748E+03,  -557.748E+03
C:/temp/Job-1.odb,Step-1,Increment      1: Step Time =    1.000,"P-1-1",           796,       14.5433,       64.6235,            0.,NA,NA,"",   333.994E+03,  -317.012E+03,  -317.012E+03
C:/temp/Job-1.odb,Step-1,Increment      1: Step Time =    1.000,"P-1-1",           797,       64.4301,       15.2151,            0.,NA,NA,"",   3.14854E+06,   2.93570E+06,   2.93570E+06
C:/temp/Job-1.odb,Step-1,Increment      1: Step Time =    1.000,"P-1-1",           798,       184.123,       65.2465,            0.,NA,NA,"",   2.15424E+06,   2.01596E+06,   2.01596E+06
C:/temp/Job-1.odb,Step-1,Increment      1: Step Time =    1.000,"P-1-1",           799,       64.4773,       185.982,            0.,NA,NA,"",   3.14007E+06,    2.9436E+06,    2.9436E+06
C:/temp/Job-1.odb,Step-1,Increment      1: Step Time =    1.000,"P-1-1",           800,       135.517,       14.1771,            0.,NA,NA,"",   1.35975E+06,   1.38698E+06,   1.38698E+06
C:/temp/Job-1.odb,Step-1,Increment      1: Step Time =    1.000,"P-1-1",           801,       15.4608,       137.016,            0.,NA,NA,"",   307.202E+03,  -279.812E+03,  -279.812E+03
C:/temp/Job-1.odb,Step-1,Increment      1: Step Time =    1.000,"P-1-1",           802,       185.626,       135.914,            0.,NA,NA,"",   2.10217E+06,   2.03909E+06,   2.03909E+06
C:/temp/Job-1.odb,Step-1,Increment      1: Step Time =    1.000,"P-1-1",           803,       134.086,       185.831,            0.,NA,NA,"",   1.35925E+06,   1.39441E+06,   1.39441E+06
C:/temp/Job-1.odb,Step-1,Increment      1: Step Time =    1.000,"P-1-1",           804,       48.9974,       35.1394,            0.,NA,NA,"",   1.77349E+06,   1.38798E+06,   1.38798E+06
C:/temp/Job-1.odb,Step-1,Increment      1: Step Time =    1.000,"P-1-1",           805,       163.590,       147.681,            0.,NA,NA,"",   2.43177E+06,   2.10565E+06,   2.10565E+06
C:/temp/Job-1.odb,Step-1,Increment      1: Step Time =    1.000,"P-1-1",           806,       43.4437,       155.703,            0.,NA,NA,"",   991.131E+03,  -304.004E+03,  -304.004E+03
C:/temp/Job-1.odb,Step-1,Increment      1: Step Time =    1.000,"P-1-1",           807,       36.9505,       149.539,            0.,NA,NA,"",   703.786E+03,  -571.223E+03,  -571.223E+03
C:/temp/Job-1.odb,Step-1,Increment      1: Step Time =    1.000,"P-1-1",           808,       111.659,       178.964,            0.,NA,NA,"",   3.36643E+06,   3.54974E+06,   3.54974E+06
C:/temp/Job-1.odb,Step-1,Increment      1: Step Time =    1.000,"P-1-1",           809,       92.4888,       179.981,            0.,NA,NA,"",   3.52886E+06,   3.51174E+06,   3.51174E+06
C:/temp/Job-1.odb,Step-1,Increment      1: Step Time =    1.000,"P-1-1",           810,       122.856,       174.147,            0.,NA,NA,"",   3.85278E+06,   4.06885E+06,   4.06885E+06
C:/temp/Job-1.odb,Step-1,Increment      1: Step Time =    1.000,"P-1-1",           811,       79.1105,       177.433,            0.,NA,NA,"",   3.41691E+06,   3.21928E+06,   3.21928E+06
C:/temp/Job-1.odb,Step-1,Increment      1: Step Time =    1.000,"P-1-1",           812,       14.7095,       75.8261,            0.,NA,NA,"",   460.707E+03,  -493.759E+03,  -493.759E+03
C:/temp/Job-1.odb,Step-1,Increment      1: Step Time =    1.000,"P-1-1",           813,       13.7000,       125.156,            0.,NA,NA,"",   446.433E+03,  -474.479E+03,  -474.479E+03
C:/temp/Job-1.odb,Step-1,Increment      1: Step Time =    1.000,"P-1-1",           814,       126.150,       14.3504,            0.,NA,NA,"",   1.47908E+06,   1.57762E+06,   1.57762E+06
C:/temp/Job-1.odb,Step-1,Increment      1: Step Time =    1.000,"P-1-1",           815,       73.7215,       16.1871,            0.,NA,NA,"",   3.18599E+06,   2.94255E+06,   2.94255E+06
C:/temp/Job-1.odb,Step-1,Increment      1: Step Time =    1.000,"P-1-1",           816,       185.397,       126.080,            0.,NA,NA,"",   2.09698E+06,   2.04297E+06,   2.04297E+06
C:/temp/Job-1.odb,Step-1,Increment      1: Step Time =    1.000,"P-1-1",           817,       125.971,       186.112,            0.,NA,NA,"",   1.40044E+06,   1.49223E+06,   1.49223E+06
C:/temp/Job-1.odb,Step-1,Increment      1: Step Time =    1.000,"P-1-1",           818,       183.734,       75.2133,            0.,NA,NA,"",   2.01747E+06,   1.86549E+06,   1.86549E+06
C:/temp/Job-1.odb,Step-1,Increment      1: Step Time =    1.000,"P-1-1",           819,       74.1027,       185.296,            0.,NA,NA,"",   3.12043E+06,   2.89000E+06,   2.89000E+06
C:/temp/Job-1.odb,Step-1,Increment      1: Step Time =    1.000,"P-1-1",           820,       160.554,       48.2338,            0.,NA,NA,"",   2.50935E+06,   2.28069E+06,   2.28069E+06
C:/temp/Job-1.odb,Step-1,Increment      1: Step Time =    1.000,"P-1-1",           821,       176.582,       123.527,            0.,NA,NA,"",   1.92412E+06,   685.313E+03,   685.313E+03
C:/temp/Job-1.odb,Step-1,Increment      1: Step Time =    1.000,"P-1-1",           822,       84.3077,       24.8200,            0.,NA,NA,"",   3.63802E+06,   3.55942E+06,   3.55942E+06
C:/temp/Job-1.odb,Step-1,Increment      1: Step Time =    1.000,"P-1-1",           823,       84.4089,       17.0284,            0.,NA,NA,"",   3.21748E+06,   3.05911E+06,   3.05911E+06
C:/temp/Job-1.odb,Step-1,Increment      1: Step Time =    1.000,"P-1-1",           824,       15.3055,       115.784,            0.,NA,NA,"",   450.732E+03,  -507.572E+03,  -507.572E+03
C:/temp/Job-1.odb,Step-1,Increment      1: Step Time =    1.000,"P-1-1",           825,       115.870,       15.5847,            0.,NA,NA,"",   1.96065E+06,   2.09179E+06,   2.09179E+06
C:/temp/Job-1.odb,Step-1,Increment      1: Step Time =    1.000,"P-1-1",           826,       11.9986,       84.8018,            0.,NA,NA,"",   401.141E+03,  -457.430E+03,  -457.430E+03
C:/temp/Job-1.odb,Step-1,Increment      1: Step Time =    1.000,"P-1-1",           827,       184.665,       85.8944,            0.,NA,NA,"",   1.67070E+06,   1.67412E+06,   1.67412E+06
C:/temp/Job-1.odb,Step-1,Increment      1: Step Time =    1.000,"P-1-1",           828,       116.783,       184.348,            0.,NA,NA,"",   1.94435E+06,   2.07949E+06,   2.07949E+06
C:/temp/Job-1.odb,Step-1,Increment      1: Step Time =    1.000,"P-1-1",           829,       84.5693,       184.568,            0.,NA,NA,"",   3.08342E+06,   2.91475E+06,   2.91475E+06
C:/temp/Job-1.odb,Step-1,Increment      1: Step Time =    1.000,"P-1-1",           830,       183.496,       114.745,            0.,NA,NA,"",   1.58808E+06,   1.49172E+06,   1.49172E+06
C:/temp/Job-1.odb,Step-1,Increment      1: Step Time =    1.000,"P-1-1",           831,       49.4141,       161.503,            0.,NA,NA,"",   1.44683E+06,   648.553E+03,   648.553E+03
C:/temp/Job-1.odb,Step-1,Increment      1: Step Time =    1.000,"P-1-1",           832,       94.8143,       15.0928,            0.,NA,NA,"",   2.79253E+06,   2.73461E+06,   2.73461E+06
C:/temp/Job-1.odb,Step-1,Increment      1: Step Time =    1.000,"P-1-1",           833,       15.4265,       104.835,            0.,NA,NA,"",   378.932E+03,  -428.171E+03,  -428.171E+03
C:/temp/Job-1.odb,Step-1,Increment      1: Step Time =    1.000,"P-1-1",           834,       185.894,       95.5028,            0.,NA,NA,"",   1.43347E+06,   1.59823E+06,   1.59823E+06
C:/temp/Job-1.odb,Step-1,Increment      1: Step Time =    1.000,"P-1-1",           835,       106.011,       184.447,            0.,NA,NA,"",   2.40416E+06,   2.48646E+06,   2.48646E+06
C:/temp/Job-1.odb,Step-1,Increment      1: Step Time =    1.000,"P-1-1",           836,       104.886,       15.3369,            0.,NA,NA,"",   2.41610E+06,   2.48260E+06,   2.48260E+06
C:/temp/Job-1.odb,Step-1,Increment      1: Step Time =    1.000,"P-1-1",           837,       15.2924,       93.1908,            0.,NA,NA,"",   389.959E+03,  -445.511E+03,  -445.511E+03
C:/temp/Job-1.odb,Step-1,Increment      1: Step Time =    1.000,"P-1-1",           838,       95.6302,       184.579,            0.,NA,NA,"",   2.80615E+06,   2.76710E+06,   2.76710E+06
C:/temp/Job-1.odb,Step-1,Increment      1: Step Time =    1.000,"P-1-1",           839,       186.372,       104.289,            0.,NA,NA,"",   1.49793E+06,   1.67895E+06,   1.67895E+06
C:/temp/Job-1.odb,Step-1,Increment      1: Step Time =    1.000,"P-1-1",           840,       156.461,       156.498,            0.,NA,NA,"",   2.64472E+06,   2.53211E+06,   2.53211E+06
C:/temp/Job-1.odb,Step-1,Increment      1: Step Time =    1.000,"P-1-1",           841,       131.108,       172.024,            0.,NA,NA,"",   3.61335E+06,   3.79336E+06,   3.79336E+06
C:/temp/Job-1.odb,Step-1,Increment      1: Step Time =    1.000,"P-1-1",           842,       66.0839,       172.979,            0.,NA,NA,"",   2.87568E+06,   2.53389E+06,   2.53389E+06
C:/temp/Job-1.odb,Step-1,Increment      1: Step Time =    1.000,"P-1-1",           843,       179.650,       102.113,            0.,NA,NA,"",   558.005E+03,  -78.1848E+03,  -78.1848E+03
C:/temp/Job-1.odb,Step-1,Increment      1: Step Time =    1.000,"P-1-1",           844,       98.7918,       24.7457,            0.,NA,NA,"",   4.41082E+06,   4.53136E+06,   4.53136E+06
C:/temp/Job-1.odb,Step-1,Increment      1: Step Time =    1.000,"P-1-1",           845,       174.167,       83.8062,            0.,NA,NA,"",   1.75327E+06,  -1.46771E+06,  -1.46771E+06
C:/temp/Job-1.odb,Step-1,Increment      1: Step Time =    1.000,"P-1-1",           846,       53.4238,       161.615,            0.,NA,NA,"",   1.49863E+06,   682.240E+03,   682.240E+03
C:/temp/Job-1.odb,Step-1,Increment      1: Step Time =    1.000,"P-1-1",           847,       114.388,       26.5183,            0.,NA,NA,"",   4.74679E+06,   4.95643E+06,   4.95643E+06
C:/temp/Job-1.odb,Step-1,Increment      1: Step Time =    1.000,"P-1-1",           848,       180.238,       122.030,            0.,NA,NA,"",   1.87340E+06,   1.46576E+06,   1.46576E+06
C:/temp/Job-1.odb,Step-1,Increment      1: Step Time =    1.000,"P-1-1",           849,       110.083,       20.6146,            0.,NA,NA,"",   3.34132E+06,   3.51536E+06,   3.51536E+06
C:/temp/Job-1.odb,Step-1,Increment      1: Step Time =    1.000,"P-1-1",           850,       17.8481,       89.5467,            0.,NA,NA,"",   446.130E+03,  -510.760E+03,  -510.760E+03
C:/temp/Job-1.odb,Step-1,Increment      1: Step Time =    1.000,"P-1-1",           851,       181.496,       107.411,            0.,NA,NA,"",   918.320E+03,   562.485E+03,   562.485E+03
C:/temp/Job-1.odb,Step-1,Increment      1: Step Time =    1.000,"P-1-1",           852,       99.4356,       19.9401,            0.,NA,NA,"",   3.44303E+06,   3.51505E+06,   3.51505E+06
C:/temp/Job-1.odb,Step-1,Increment      1: Step Time =    1.000,"P-1-1",           853,       20.3163,       99.2634,            0.,NA,NA,"",   447.826E+03,  -510.472E+03,  -510.472E+03
C:/temp/Job-1.odb,Step-1,Increment      1: Step Time =    1.000,"P-1-1",           854,       52.3119,       165.812,            0.,NA,NA,"",   1.94659E+06,   1.55519E+06,   1.55519E+06
C:/temp/Job-1.odb,Step-1,Increment      1: Step Time =    1.000,"P-1-1",           855,       57.2011,       28.5826,            0.,NA,NA,"",   2.50326E+06,   2.13842E+06,   2.13842E+06
C:/temp/Job-1.odb,Step-1,Increment      1: Step Time =    1.000,"P-1-1",           856,       154.077,       164.674,            0.,NA,NA,"",   2.57946E+06,    2.5263E+06,    2.5263E+06
C:/temp/Job-1.odb,Step-1,Increment      1: Step Time =    1.000,"P-1-1",           857,       180.211,       91.8278,            0.,NA,NA,"",   1.00630E+06,   148.012E+03,   148.012E+03
C:/temp/Job-1.odb,Step-1,Increment      1: Step Time =    1.000,"P-1-1",           858,       174.851,       69.8230,            0.,NA,NA,"",   2.12549E+06,   893.853E+03,   893.853E+03
C:/temp/Job-1.odb,Step-1,Increment      1: Step Time =    1.000,"P-1-1",           859,       22.9141,       65.6983,            0.,NA,NA,"",   546.819E+03,  -548.135E+03,  -548.135E+03
C:/temp/Job-1.odb,Step-1,Increment      1: Step Time =    1.000,"P-1-1",           860,       17.4488,       59.6600,            0.,NA,NA,"",   257.502E+03,  -206.941E+03,  -206.941E+03
C:/temp/Job-1.odb,Step-1,Increment      1: Step Time =    1.000,"P-1-1",           861,       59.8814,       181.241,            0.,NA,NA,"",   3.07009E+06,   2.81579E+06,   2.81579E+06
C:/temp/Job-1.odb,Step-1,Increment      1: Step Time =    1.000,"P-1-1",           862,       179.446,       61.3513,            0.,NA,NA,"",   2.28052E+06,   1.96123E+06,   1.96123E+06
C:/temp/Job-1.odb,Step-1,Increment      1: Step Time =    1.000,"P-1-1",           863,       20.0893,       139.094,            0.,NA,NA,"",   331.308E+03,  -310.741E+03,  -310.741E+03
C:/temp/Job-1.odb,Step-1,Increment      1: Step Time =    1.000,"P-1-1",           864,       140.339,       19.1899,            0.,NA,NA,"",   1.94643E+06,   1.98842E+06,   1.98842E+06
C:/temp/Job-1.odb,Step-1,Increment      1: Step Time =    1.000,"P-1-1",           865,       180.727,       140.875,            0.,NA,NA,"",   2.23817E+06,   1.97777E+06,   1.97777E+06
C:/temp/Job-1.odb,Step-1,Increment      1: Step Time =    1.000,"P-1-1",           866,       137.343,       180.092,            0.,NA,NA,"",   2.07044E+06,   2.13435E+06,   2.13435E+06
C:/temp/Job-1.odb,Step-1,Increment      1: Step Time =    1.000,"P-1-1",           867,       47.0553,       38.9740,            0.,NA,NA,"",   1.40786E+06,   977.240E+03,   977.240E+03
C:/temp/Job-1.odb,Step-1,Increment      1: Step Time =    1.000,"P-1-1",           868,       165.287,       153.312,            0.,NA,NA,"",   2.48191E+06,   2.20401E+06,   2.20401E+06
C:/temp/Job-1.odb,Step-1,Increment      1: Step Time =    1.000,"P-1-1",           869,       34.6053,       155.284,            0.,NA,NA,"",   836.269E+03,   297.125E+03,   297.125E+03
C:/temp/Job-1.odb,Step-1,Increment      1: Step Time =    1.000,"P-1-1",           870,       81.2247,       173.384,            0.,NA,NA,"",   3.57747E+06,   3.48093E+06,   3.48093E+06
C:/temp/Job-1.odb,Step-1,Increment      1: Step Time =    1.000,"P-1-1",           871,       20.0584,       67.6869,            0.,NA,NA,"",   509.304E+03,  -511.042E+03,  -511.042E+03
C:/temp/Job-1.odb,Step-1,Increment      1: Step Time =    1.000,"P-1-1",           872,       67.8080,       21.7757,            0.,NA,NA,"",   3.17194E+06,   2.86397E+06,   2.86397E+06
C:/temp/Job-1.odb,Step-1,Increment      1: Step Time =    1.000,"P-1-1",           873,       180.999,       131.406,            0.,NA,NA,"",   2.21425E+06,   1.90595E+06,   1.90595E+06
C:/temp/Job-1.odb,Step-1,Increment      1: Step Time =    1.000,"P-1-1",           874,       133.156,       181.506,            0.,NA,NA,"",   1.96508E+06,   2.05157E+06,   2.05157E+06
C:/temp/Job-1.odb,Step-1,Increment      1: Step Time =    1.000,"P-1-1",           875,       130.866,       18.7378,            0.,NA,NA,"",   2.07756E+06,   2.19041E+06,   2.19041E+06
C:/temp/Job-1.odb,Step-1,Increment      1: Step Time =    1.000,"P-1-1",           876,       19.2679,       131.881,            0.,NA,NA,"",   484.209E+03,  -489.132E+03,  -489.132E+03
C:/temp/Job-1.odb,Step-1,Increment      1: Step Time =    1.000,"P-1-1",           877,       68.9255,       181.766,            0.,NA,NA,"",   3.21399E+06,   2.93592E+06,   2.93592E+06
C:/temp/Job-1.odb,Step-1,Increment      1: Step Time =    1.000,"P-1-1",           878,       180.606,       69.4920,            0.,NA,NA,"",   2.16768E+06,   1.83305E+06,   1.83305E+06
C:/temp/Job-1.odb,Step-1,Increment      1: Step Time =    1.000,"P-1-1",           879,       165.730,       49.7063,            0.,NA,NA,"",   2.48571E+06,   2.14871E+06,   2.14871E+06
C:/temp/Job-1.odb,Step-1,Increment      1: Step Time =    1.000,"P-1-1",           880,       33.6377,       46.5404,            0.,NA,NA,"",   683.503E+03,   274.839E+03,   274.839E+03
C:/temp/Job-1.odb,Step-1,Increment      1: Step Time =    1.000,"P-1-1",           881,       174.083,       119.919,            0.,NA,NA,"",   1.81134E+06,  -811.683E+03,  -811.683E+03
C:/temp/Job-1.odb,Step-1,Increment      1: Step Time =    1.000,"P-1-1",           882,       122.257,       19.6991,            0.,NA,NA,"",   2.55976E+06,   2.73032E+06,   2.73032E+06
C:/temp/Job-1.odb,Step-1,Increment      1: Step Time =    1.000,"P-1-1",           883,       82.1276,       21.5660,            0.,NA,NA,"",   3.44840E+06,   3.28825E+06,   3.28825E+06
C:/temp/Job-1.odb,Step-1,Increment      1: Step Time =    1.000,"P-1-1",           884,       77.2689,       180.665,            0.,NA,NA,"",   3.31821E+06,   3.07600E+06,   3.07600E+06
C:/temp/Job-1.odb,Step-1,Increment      1: Step Time =    1.000,"P-1-1",           885,       180.007,       81.0990,            0.,NA,NA,"",   1.69704E+06,   828.157E+03,   828.157E+03
C:/temp/Job-1.odb,Step-1,Increment      1: Step Time =    1.000,"P-1-1",           886,       48.4478,       165.472,            0.,NA,NA,"",   1.82937E+06,   1.46081E+06,   1.46081E+06
C:/temp/Job-1.odb,Step-1,Increment      1: Step Time =    1.000,"P-1-1",           887,       90.6461,       19.8564,            0.,NA,NA,"",   3.51359E+06,   3.46393E+06,   3.46393E+06
C:/temp/Job-1.odb,Step-1,Increment      1: Step Time =    1.000,"P-1-1",           888,       78.0037,       22.3978,            0.,NA,NA,"",   3.38740E+06,   3.17855E+06,   3.17855E+06
C:/temp/Job-1.odb,Step-1,Increment      1: Step Time =    1.000,"P-1-1",           889,       135.962,       170.891,            0.,NA,NA,"",   3.31864E+06,   3.45774E+06,   3.45774E+06
C:/temp/Job-1.odb,Step-1,Increment      1: Step Time =    1.000,"P-1-1",           890,       61.5772,       172.443,            0.,NA,NA,"",   2.71525E+06,   2.34647E+06,   2.34647E+06
C:/temp/Job-1.odb,Step-1,Increment      1: Step Time =    1.000,"P-1-1",           891,       70.6338,       174.139,            0.,NA,NA,"",   3.10291E+06,   2.80722E+06,   2.80722E+06
C:/temp/Job-1.odb,Step-1,Increment      1: Step Time =    1.000,"P-1-1",           892,       175.741,       79.7486,            0.,NA,NA,"",   1.76437E+06,  -575.490E+03,  -575.490E+03
C:/temp/Job-1.odb,Step-1,Increment      1: Step Time =    1.000,"P-1-1",           893,       123.263,       180.321,            0.,NA,NA,"",   2.50290E+06,   2.66891E+06,   2.66891E+06
C:/temp/Job-1.odb,Step-1,Increment      1: Step Time =    1.000,"P-1-1",           894,       148.642,       35.7068,            0.,NA,NA,"",   2.91064E+06,   2.92655E+06,   2.92655E+06
C:/temp/Job-1.odb,Step-1,Increment      1: Step Time =    1.000,"P-1-1",           895,       100.877,       179.846,            0.,NA,NA,"",   3.46655E+06,   3.56085E+06,   3.56085E+06
C:/temp/Job-1.odb,Step-1,Increment      1: Step Time =    1.000,"P-1-1",           896,       130.813,       177.247,            0.,NA,NA,"",   2.70868E+06,   2.85477E+06,   2.85477E+06
C:/temp/Job-1.odb,Step-1,Increment      1: Step Time =    1.000,"P-1-1",           897,       23.6484,       132.283,            0.,NA,NA,"",   594.882E+03,  -609.178E+03,  -609.178E+03
C:/temp/Job-1.odb,Step-1,Increment      1: Step Time =    1.000,"P-1-1",           898,       176.577,       131.144,            0.,NA,NA,"",   2.23777E+06,   1.67787E+06,   1.67787E+06
C:/temp/Job-1.odb,Step-1,Increment      1: Step Time =    1.000,"P-1-1",           899,       19.9097,       80.5686,            0.,NA,NA,"",   556.330E+03,  -604.876E+03,  -604.876E+03
C:/temp/Job-1.odb,Step-1,Increment      1: Step Time =    1.000,"P-1-1",           900,       44.6564,       33.1086,            0.,NA,NA,"",   1.87105E+06,   1.57877E+06,   1.57877E+06
C:/temp/Job-1.odb,Step-1,Increment      1: Step Time =    1.000,"P-1-1",           901,       75.5361,       25.9723,            0.,NA,NA,"",   3.30861E+06,   3.08635E+06,   3.08635E+06
C:/temp/Job-1.odb,Step-1,Increment      1: Step Time =    1.000,"P-1-1",           902,       141.296,       174.329,            0.,NA,NA,"",   2.58516E+06,   2.64790E+06,   2.64790E+06
C:/temp/Job-1.odb,Step-1,Increment      1: Step Time =    1.000,"P-1-1",           903,       24.2193,       75.3780,            0.,NA,NA,"",   685.343E+03,  -722.274E+03,  -722.274E+03
C:/temp/Job-1.odb,Step-1,Increment      1: Step Time =    1.000,"P-1-1",           904,       119.857,       24.6569,            0.,NA,NA,"",   3.82517E+06,   4.04505E+06,   4.04505E+06
C:/temp/Job-1.odb,Step-1,Increment      1: Step Time =    1.000,"P-1-1",           905,       23.7158,       140.893,            0.,NA,NA,"",   382.114E+03,  -353.924E+03,  -353.924E+03
C:/temp/Job-1.odb,Step-1,Increment      1: Step Time =    1.000,"P-1-1",           906,       140.324,       24.0957,            0.,NA,NA,"",   2.47194E+06,   2.54831E+06,   2.54831E+06
C:/temp/Job-1.odb,Step-1,Increment      1: Step Time =    1.000,"P-1-1",           907,       59.1160,       24.1769,            0.,NA,NA,"",   2.84717E+06,   2.52222E+06,   2.52222E+06
C:/temp/Job-1.odb,Step-1,Increment      1: Step Time =    1.000,"P-1-1",           908,       175.965,       141.080,            0.,NA,NA,"",   2.38905E+06,   1.96848E+06,   1.96848E+06
C:/temp/Job-1.odb,Step-1,Increment      1: Step Time =    1.000,"P-1-1",           909,       176.195,       57.7169,            0.,NA,NA,"",   2.34181E+06,   1.96373E+06,   1.96373E+06
C:/temp/Job-1.odb,Step-1,Increment      1: Step Time =    1.000,"P-1-1",           910,       158.155,       159.818,            0.,NA,NA,"",   2.55165E+06,   2.42449E+06,   2.42449E+06
C:/temp/Job-1.odb,Step-1,Increment      1: Step Time =    1.000,"P-1-1",           911,       25.8266,       69.1071,            0.,NA,NA,"",   703.743E+03,  -725.157E+03,  -725.157E+03
C:/temp/Job-1.odb,Step-1,Increment      1: Step Time =    1.000,"P-1-1",           912,       172.586,       73.9557,            0.,NA,NA,"",   1.95459E+06,  -619.914E+03,  -619.914E+03
C:/temp/Job-1.odb,Step-1,Increment      1: Step Time =    1.000,"P-1-1",           913,       53.7744,       13.3141,            0.,NA,NA,"",   3.17526E+06,   3.05455E+06,   3.05455E+06
C:/temp/Job-1.odb,Step-1,Increment      1: Step Time =    1.000,"P-1-1",           914,       14.1895,       55.1991,            0.,NA,NA,"",   166.482E+03,   102.971E+03,   102.971E+03
C:/temp/Job-1.odb,Step-1,Increment      1: Step Time =    1.000,"P-1-1",           915,       185.688,       145.314,            0.,NA,NA,"",   1.89033E+06,   1.83706E+06,   1.83706E+06
C:/temp/Job-1.odb,Step-1,Increment      1: Step Time =    1.000,"P-1-1",           916,       142.249,       183.567,            0.,NA,NA,"",   1.58698E+06,   1.58044E+06,   1.58044E+06
C:/temp/Job-1.odb,Step-1,Increment      1: Step Time =    1.000,"P-1-1",           917,       53.7516,       185.585,            0.,NA,NA,"",   3.14617E+06,   3.00261E+06,   3.00261E+06
C:/temp/Job-1.odb,Step-1,Increment      1: Step Time =    1.000,"P-1-1",           918,       182.247,       55.3618,            0.,NA,NA,"",   2.07472E+06,   1.91577E+06,   1.91577E+06
C:/temp/Job-1.odb,Step-1,Increment      1: Step Time =    1.000,"P-1-1",           919,       145.090,       19.1946,            0.,NA,NA,"",   1.84996E+06,   1.84422E+06,   1.84422E+06
C:/temp/Job-1.odb,Step-1,Increment      1: Step Time =    1.000,"P-1-1",           920,       15.5038,       146.162,            0.,NA,NA,"",   197.127E+03,   196.574E+03,   196.574E+03
C:/temp/Job-1.odb,Step-1,Increment      1: Step Time =    1.000,"P-1-1",           921,       48.8235,       44.8183,            0.,NA,NA,"",   1.06213E+06,  -432.509E+03,  -432.509E+03
C:/temp/Job-1.odb,Step-1,Increment      1: Step Time =    1.000,"P-1-1",           922,       163.315,       45.4169,            0.,NA,NA,"",   2.51330E+06,   2.26536E+06,   2.26536E+06
C:/temp/Job-1.odb,Step-1,Increment      1: Step Time =    1.000,"P-1-1",           923,       20.7161,       110.514,            0.,NA,NA,"",   507.058E+03,  -570.156E+03,  -570.156E+03
C:/temp/Job-1.odb,Step-1,Increment      1: Step Time =    1.000,"P-1-1",           924,       141.180,       35.6134,            0.,NA,NA,"",   3.51582E+06,   3.62591E+06,   3.62591E+06
C:/temp/Job-1.odb,Step-1,Increment      1: Step Time =    1.000,"P-1-1",           925,       154.129,       32.2951,            0.,NA,NA,"",   2.49645E+06,   2.43848E+06,   2.43848E+06
C:/temp/Job-1.odb,Step-1,Increment      1: Step Time =    1.000,"P-1-1",           926,       27.7941,       131.956,            0.,NA,NA,"",   756.103E+03,  -778.607E+03,  -778.607E+03
C:/temp/Job-1.odb,Step-1,Increment      1: Step Time =    1.000,"P-1-1",           927,       46.8616,       29.0019,            0.,NA,NA,"",   2.23698E+06,   1.96073E+06,   1.96073E+06
C:/temp/Job-1.odb,Step-1,Increment      1: Step Time =    1.000,"P-1-1",           928,       88.9694,       171.350,            0.,NA,NA,"",   4.41592E+06,   4.46210E+06,   4.46210E+06
C:/temp/Job-1.odb,Step-1,Increment      1: Step Time =    1.000,"P-1-1",           929,       56.5521,       169.096,            0.,NA,NA,"",   2.31396E+06,   1.93099E+06,   1.93099E+06
C:/temp/Job-1.odb,Step-1,Increment      1: Step Time =    1.000,"P-1-1",           930,       144.612,       32.2060,            0.,NA,NA,"",   2.96234E+06,   3.02547E+06,   3.02547E+06
C:/temp/Job-1.odb,Step-1,Increment      1: Step Time =    1.000,"P-1-1",           931,       163.523,       162.850,            0.,NA,NA,"",   2.30153E+06,   2.14371E+06,   2.14371E+06
C:/temp/Job-1.odb,Step-1,Increment      1: Step Time =    1.000,"P-1-1",           932,       56.9804,       173.062,            0.,NA,NA,"",   2.63330E+06,   2.28127E+06,   2.28127E+06
C:/temp/Job-1.odb,Step-1,Increment      1: Step Time =    1.000,"P-1-1",           933,       9.45964,       55.0773,            0.,NA,NA,"",   149.636E+03,   165.243E+03,   165.243E+03
C:/temp/Job-1.odb,Step-1,Increment      1: Step Time =    1.000,"P-1-1",           934,       54.8682,       190.833,            0.,NA,NA,"",   3.33925E+06,   3.26487E+06,   3.26487E+06
C:/temp/Job-1.odb,Step-1,Increment      1: Step Time =    1.000,"P-1-1",           935,       144.981,       9.26729,            0.,NA,NA,"",   834.131E+03,   778.421E+03,   778.421E+03
C:/temp/Job-1.odb,Step-1,Increment      1: Step Time =    1.000,"P-1-1",           936,       190.528,       145.193,            0.,NA,NA,"",   1.58395E+06,   1.68395E+06,   1.68395E+06
C:/temp/Job-1.odb,Step-1,Increment      1: Step Time =    1.000,"P-1-1",           937,       146.340,       173.125,            0.,NA,NA,"",   2.46854E+06,   2.48532E+06,   2.48532E+06
C:/temp/Job-1.odb,Step-1,Increment      1: Step Time =    1.000,"P-1-1",           938,       19.3883,       76.1686,            0.,NA,NA,"",   553.328E+03,  -588.952E+03,  -588.952E+03
C:/temp/Job-1.odb,Step-1,Increment      1: Step Time =    1.000,"P-1-1",           939,       135.327,       24.4551,            0.,NA,NA,"",   2.73161E+06,   2.85128E+06,   2.85128E+06
C:/temp/Job-1.odb,Step-1,Increment      1: Step Time =    1.000,"P-1-1",           940,       23.8161,       136.464,            0.,NA,NA,"",   518.479E+03,  -524.401E+03,  -524.401E+03
C:/temp/Job-1.odb,Step-1,Increment      1: Step Time =    1.000,"P-1-1",           941,       62.3925,       25.4036,            0.,NA,NA,"",   2.87600E+06,   2.52653E+06,   2.52653E+06
C:/temp/Job-1.odb,Step-1,Increment      1: Step Time =    1.000,"P-1-1",           942,       175.288,       136.274,            0.,NA,NA,"",   2.34693E+06,   1.82502E+06,   1.82502E+06
C:/temp/Job-1.odb,Step-1,Increment      1: Step Time =    1.000,"P-1-1",           943,       160.977,       39.9391,            0.,NA,NA,"",   2.50003E+06,   2.33663E+06,   2.33663E+06
C:/temp/Job-1.odb,Step-1,Increment      1: Step Time =    1.000,"P-1-1",           944,       52.5325,       174.413,            0.,NA,NA,"",   2.59196E+06,   2.29021E+06,   2.29021E+06
C:/temp/Job-1.odb,Step-1,Increment      1: Step Time =    1.000,"P-1-1",           945,       33.8182,       136.416,            0.,NA,NA,"",   975.692E+03,  -1.00478E+06,  -1.00478E+06
C:/temp/Job-1.odb,Step-1,Increment      1: Step Time =    1.000,"P-1-1",           946,       170.776,       56.5112,            0.,NA,NA,"",   2.43335E+06,   1.97071E+06,   1.97071E+06
C:/temp/Job-1.odb,Step-1,Increment      1: Step Time =    1.000,"P-1-1",           947,       68.8044,       26.2432,            0.,NA,NA,"",   3.04468E+06,   2.73107E+06,   2.73107E+06
C:/temp/Job-1.odb,Step-1,Increment      1: Step Time =    1.000,"P-1-1",           948,       182.541,       100.338,            0.,NA,NA,"",   659.978E+03,   614.828E+03,   614.828E+03
C:/temp/Job-1.odb,Step-1,Increment      1: Step Time =    1.000,"P-1-1",           949,       152.527,       27.5745,            0.,NA,NA,"",   2.27041E+06,   2.22771E+06,   2.22771E+06
C:/temp/Job-1.odb,Step-1,Increment      1: Step Time =    1.000,"P-1-1",           950,       180.242,       77.4108,            0.,NA,NA,"",   1.88302E+06,   1.52114E+06,   1.52114E+06
C:/temp/Job-1.odb,Step-1,Increment      1: Step Time =    1.000,"P-1-1",           951,       18.7852,       121.848,            0.,NA,NA,"",   547.640E+03,  -588.236E+03,  -588.236E+03
C:/temp/Job-1.odb,Step-1,Increment      1: Step Time =    1.000,"P-1-1",           952,       53.0496,       26.5198,            0.,NA,NA,"",   2.54135E+06,   2.22442E+06,   2.22442E+06
C:/temp/Job-1.odb,Step-1,Increment      1: Step Time =    1.000,"P-1-1",           953,       22.3646,       59.8704,            0.,NA,NA,"",   378.695E+03,  -351.373E+03,  -351.373E+03
C:/temp/Job-1.odb,Step-1,Increment      1: Step Time =    1.000,"P-1-1",           954,       27.5972,       49.4200,            0.,NA,NA,"",   467.656E+03,   225.396E+03,   225.396E+03
C:/temp/Job-1.odb,Step-1,Increment      1: Step Time =    1.000,"P-1-1",           955,       40.3375,       158.144,            0.,NA,NA,"",   1.07817E+06,   468.377E+03,   468.377E+03
C:/temp/Job-1.odb,Step-1,Increment      1: Step Time =    1.000,"P-1-1",           956,       42.4827,       37.5542,            0.,NA,NA,"",   1.47250E+06,   1.15896E+06,   1.15896E+06
C:/temp/Job-1.odb,Step-1,Increment      1: Step Time =    1.000,"P-1-1",           957,       174.994,       52.1374,            0.,NA,NA,"",   2.31624E+06,   2.00111E+06,   2.00111E+06
C:/temp/Job-1.odb,Step-1,Increment      1: Step Time =    1.000,"P-1-1",           958,       76.5591,       29.2900,            0.,NA,NA,"",   3.15344E+06,   3.01232E+06,   3.01232E+06
C:/temp/Job-1.odb,Step-1,Increment      1: Step Time =    1.000,"P-1-1",           959,       129.402,       23.4908,            0.,NA,NA,"",   2.90767E+06,   3.07257E+06,   3.07257E+06
C:/temp/Job-1.odb,Step-1,Increment      1: Step Time =    1.000,"P-1-1",           960,       141.426,       28.2437,            0.,NA,NA,"",   2.80570E+06,   2.89046E+06,   2.89046E+06
C:/temp/Job-1.odb,Step-1,Increment      1: Step Time =    1.000,"P-1-1",           961,       162.338,       158.264,            0.,NA,NA,"",   2.46813E+06,   2.28069E+06,   2.28069E+06
C:/temp/Job-1.odb,Step-1,Increment      1: Step Time =    1.000,"P-1-1",           962,       48.7943,       24.6760,            0.,NA,NA,"",   2.57334E+06,   2.32641E+06,   2.32641E+06
C:/temp/Job-1.odb,Step-1,Increment      1: Step Time =    1.000,"P-1-1",           963,       172.229,       140.173,            0.,NA,NA,"",   2.39954E+06,   1.87960E+06,   1.87960E+06
C:/temp/Job-1.odb,Step-1,Increment      1: Step Time =    1.000,"P-1-1",           964,       154.684,       9.30915,            0.,NA,NA,"",   919.073E+03,   863.785E+03,   863.785E+03
C:/temp/Job-1.odb,Step-1,Increment      1: Step Time =    1.000,"P-1-1",           965,       190.407,       154.891,            0.,NA,NA,"",   1.31271E+06,   1.37613E+06,   1.37613E+06
C:/temp/Job-1.odb,Step-1,Increment      1: Step Time =    1.000,"P-1-1",           966,       45.9327,       190.655,            0.,NA,NA,"",   3.44415E+06,   3.39605E+06,   3.39605E+06
C:/temp/Job-1.odb,Step-1,Increment      1: Step Time =    1.000,"P-1-1",           967,       9.70099,       45.5174,            0.,NA,NA,"",   566.198E+03,   638.317E+03,   638.317E+03
C:/temp/Job-1.odb,Step-1,Increment      1: Step Time =    1.000,"P-1-1",           968,       47.6806,       169.946,            0.,NA,NA,"",   2.18267E+06,   1.87759E+06,   1.87759E+06
C:/temp/Job-1.odb,Step-1,Increment      1: Step Time =    1.000,"P-1-1",           969,       65.7502,       26.0481,            0.,NA,NA,"",   2.93672E+06,   2.59575E+06,   2.59575E+06
C:/temp/Job-1.odb,Step-1,Increment      1: Step Time =    1.000,"P-1-1",           970,       148.139,       29.2722,            0.,NA,NA,"",   2.54684E+06,   2.55401E+06,   2.55401E+06
C:/temp/Job-1.odb,Step-1,Increment      1: Step Time =    1.000,"P-1-1",           971,       24.9411,       53.7468,            0.,NA,NA,"",   330.594E+03,  -73.6080E+03,  -73.6080E+03
C:/temp/Job-1.odb,Step-1,Increment      1: Step Time =    1.000,"P-1-1",           972,       37.6426,       35.0860,            0.,NA,NA,"",   1.58770E+06,   1.38530E+06,   1.38530E+06
C:/temp/Job-1.odb,Step-1,Increment      1: Step Time =    1.000,"P-1-1",           973,       160.015,       36.3092,            0.,NA,NA,"",   2.42877E+06,   2.29815E+06,   2.29815E+06
C:/temp/Job-1.odb,Step-1,Increment      1: Step Time =    1.000,"P-1-1",           974,       48.6416,       180.104,            0.,NA,NA,"",   2.85591E+06,   2.66587E+06,   2.66587E+06
C:/temp/Job-1.odb,Step-1,Increment      1: Step Time =    1.000,"P-1-1",           975,       162.299,       55.7560,            0.,NA,NA,"",   2.24562E+06,   1.89936E+06,   1.89936E+06
C:/temp/Job-1.odb,Step-1,Increment      1: Step Time =    1.000,"P-1-1",           976,       164.912,       40.9714,            0.,NA,NA,"",   2.41966E+06,   2.21477E+06,   2.21477E+06
C:/temp/Job-1.odb,Step-1,Increment      1: Step Time =    1.000,"P-1-1",           977,       150.414,       174.142,            0.,NA,NA,"",   2.25588E+06,   2.23330E+06,   2.23330E+06
C:/temp/Job-1.odb,Step-1,Increment      1: Step Time =    1.000,"P-1-1",           978,       23.6309,       46.5551,            0.,NA,NA,"",   551.683E+03,   528.847E+03,   528.847E+03
C:/temp/Job-1.odb,Step-1,Increment      1: Step Time =    1.000,"P-1-1",           979,       177.462,       47.0323,            0.,NA,NA,"",   2.11377E+06,   1.89600E+06,   1.89600E+06
C:/temp/Job-1.odb,Step-1,Increment      1: Step Time =    1.000,"P-1-1",           980,       172.082,       39.4580,            0.,NA,NA,"",   2.08661E+06,   1.91209E+06,   1.91209E+06
C:/temp/Job-1.odb,Step-1,Increment      1: Step Time =    1.000,"P-1-1",           981,       154.542,       14.0663,            0.,NA,NA,"",   1.31180E+06,   1.25010E+06,   1.25010E+06
C:/temp/Job-1.odb,Step-1,Increment      1: Step Time =    1.000,"P-1-1",           982,       14.5777,       45.9446,            0.,NA,NA,"",   537.288E+03,   593.570E+03,   593.570E+03
C:/temp/Job-1.odb,Step-1,Increment      1: Step Time =    1.000,"P-1-1",           983,       185.539,       154.856,            0.,NA,NA,"",   1.60470E+06,   1.57633E+06,   1.57633E+06
C:/temp/Job-1.odb,Step-1,Increment      1: Step Time =    1.000,"P-1-1",           984,       47.6197,       187.075,            0.,NA,NA,"",   3.21002E+06,   3.11559E+06,   3.11559E+06
C:/temp/Job-1.odb,Step-1,Increment      1: Step Time =    1.000,"P-1-1",           985,       163.967,       30.5329,            0.,NA,NA,"",   2.05473E+06,   1.93776E+06,   1.93776E+06
C:/temp/Job-1.odb,Step-1,Increment      1: Step Time =    1.000,"P-1-1",           986,       43.0217,       27.0132,            0.,NA,NA,"",   2.31260E+06,   2.10995E+06,   2.10995E+06
C:/temp/Job-1.odb,Step-1,Increment      1: Step Time =    1.000,"P-1-1",           987,       46.3355,       18.5466,            0.,NA,NA,"",   2.89119E+06,   2.73610E+06,   2.73610E+06
C:/temp/Job-1.odb,Step-1,Increment      1: Step Time =    1.000,"P-1-1",           988,       40.2451,       163.465,            0.,NA,NA,"",   1.49185E+06,   1.23269E+06,   1.23269E+06
C:/temp/Job-1.odb,Step-1,Increment      1: Step Time =    1.000,"P-1-1",           989,       124.096,       28.8924,            0.,NA,NA,"",   4.51206E+06,   4.71946E+06,   4.71946E+06
C:/temp/Job-1.odb,Step-1,Increment      1: Step Time =    1.000,"P-1-1",           990,       26.0197,       145.834,            0.,NA,NA,"",   353.874E+03,  -159.915E+03,  -159.915E+03
C:/temp/Job-1.odb,Step-1,Increment      1: Step Time =    1.000,"P-1-1",           991,       175.298,       146.092,            0.,NA,NA,"",   2.34348E+06,   1.99747E+06,   1.99747E+06
C:/temp/Job-1.odb,Step-1,Increment      1: Step Time =    1.000,"P-1-1",           992,       150.456,       23.4738,            0.,NA,NA,"",   2.04378E+06,   2.00844E+06,   2.00844E+06
C:/temp/Job-1.odb,Step-1,Increment      1: Step Time =    1.000,"P-1-1",           993,       25.0536,       57.7843,            0.,NA,NA,"",   378.391E+03,  -346.768E+03,  -346.768E+03
C:/temp/Job-1.odb,Step-1,Increment      1: Step Time =    1.000,"P-1-1",           994,       36.2798,       26.5417,            0.,NA,NA,"",   2.24419E+06,   2.11381E+06,   2.11381E+06
C:/temp/Job-1.odb,Step-1,Increment      1: Step Time =    1.000,"P-1-1",           995,       48.8981,       184.125,            0.,NA,NA,"",   3.04256E+06,   2.89693E+06,   2.89693E+06
C:/temp/Job-1.odb,Step-1,Increment      1: Step Time =    1.000,"P-1-1",           996,       72.7345,       35.0108,            0.,NA,NA,"",   2.15983E+06,   2.07335E+06,   2.07335E+06
C:/temp/Job-1.odb,Step-1,Increment      1: Step Time =    1.000,"P-1-1",           997,       151.388,       178.664,            0.,NA,NA,"",   1.90826E+06,   1.87112E+06,   1.87112E+06
C:/temp/Job-1.odb,Step-1,Increment      1: Step Time =    1.000,"P-1-1",           998,       153.821,       170.523,            0.,NA,NA,"",   2.35076E+06,   2.30426E+06,   2.30426E+06
C:/temp/Job-1.odb,Step-1,Increment      1: Step Time =    1.000,"P-1-1",           999,       22.2384,       40.1893,            0.,NA,NA,"",   963.881E+03,   974.603E+03,   974.603E+03
C:/temp/Job-1.odb,Step-1,Increment      1: Step Time =    1.000,"P-1-1",          1000,       22.4095,       50.4551,            0.,NA,NA,"",   343.915E+03,   311.821E+03,   311.821E+03
C:/temp/Job-1.odb,Step-1,Increment      1: Step Time =    1.000,"P-1-1",          1001,       34.1005,       164.125,            0.,NA,NA,"",   1.44190E+06,   1.29677E+06,   1.29677E+06
C:/temp/Job-1.odb,Step-1,Increment      1: Step Time =    1.000,"P-1-1",          1002,       34.3022,       40.4635,            0.,NA,NA,"",   1.10347E+06,   923.294E+03,   923.294E+03
C:/temp/Job-1.odb,Step-1,Increment      1: Step Time =    1.000,"P-1-1",          1003,       21.1055,       152.354,            0.,NA,NA,"",   439.894E+03,   441.716E+03,   441.716E+03
C:/temp/Job-1.odb,Step-1,Increment      1: Step Time =    1.000,"P-1-1",          1004,       176.701,       150.151,            0.,NA,NA,"",   2.20534E+06,   1.94198E+06,   1.94198E+06
C:/temp/Job-1.odb,Step-1,Increment      1: Step Time =    1.000,"P-1-1",          1005,       37.9011,       168.379,            0.,NA,NA,"",   1.84898E+06,   1.66571E+06,   1.66571E+06
C:/temp/Job-1.odb,Step-1,Increment      1: Step Time =    1.000,"P-1-1",          1006,       164.548,       167.321,            0.,NA,NA,"",   2.10529E+06,   1.97808E+06,   1.97808E+06
C:/temp/Job-1.odb,Step-1,Increment      1: Step Time =    1.000,"P-1-1",          1007,       181.362,       49.5310,            0.,NA,NA,"",   1.98403E+06,   1.83523E+06,   1.83523E+06
C:/temp/Job-1.odb,Step-1,Increment      1: Step Time =    1.000,"P-1-1",          1008,       169.490,       48.6271,            0.,NA,NA,"",   2.42990E+06,   2.11230E+06,   2.11230E+06
C:/temp/Job-1.odb,Step-1,Increment      1: Step Time =    1.000,"P-1-1",          1009,       168.495,       161.272,            0.,NA,NA,"",   2.18618E+06,   2.00639E+06,   2.00639E+06
C:/temp/Job-1.odb,Step-1,Increment      1: Step Time =    1.000,"P-1-1",          1010,       165.918,       36.2265,            0.,NA,NA,"",   2.20517E+06,   2.04774E+06,   2.04774E+06
C:/temp/Job-1.odb,Step-1,Increment      1: Step Time =    1.000,"P-1-1",          1011,       175.850,       43.7443,            0.,NA,NA,"",   2.08478E+06,   1.88712E+06,   1.88712E+06
C:/temp/Job-1.odb,Step-1,Increment      1: Step Time =    1.000,"P-1-1",          1012,       157.648,       25.2392,            0.,NA,NA,"",   1.98114E+06,   1.90628E+06,   1.90628E+06
C:/temp/Job-1.odb,Step-1,Increment      1: Step Time =    1.000,"P-1-1",          1013,       129.533,       29.5644,            0.,NA,NA,"",   4.06686E+06,   4.25533E+06,   4.25533E+06
C:/temp/Job-1.odb,Step-1,Increment      1: Step Time =    1.000,"P-1-1",          1014,       40.1067,       25.0232,            0.,NA,NA,"",   2.40175E+06,   2.24376E+06,   2.24376E+06
C:/temp/Job-1.odb,Step-1,Increment      1: Step Time =    1.000,"P-1-1",          1015,       35.8811,       53.5587,            0.,NA,NA,"",   688.195E+03,  -657.735E+03,  -657.735E+03
C:/temp/Job-1.odb,Step-1,Increment      1: Step Time =    1.000,"P-1-1",          1016,       172.606,       129.673,            0.,NA,NA,"",   2.10919E+06,   147.662E+03,   147.662E+03
C:/temp/Job-1.odb,Step-1,Increment      1: Step Time =    1.000,"P-1-1",          1017,       154.417,       18.6775,            0.,NA,NA,"",   1.66067E+06,   1.59855E+06,   1.59855E+06
C:/temp/Job-1.odb,Step-1,Increment      1: Step Time =    1.000,"P-1-1",          1018,       64.9986,       30.8661,            0.,NA,NA,"",   2.52370E+06,   2.18000E+06,   2.18000E+06
C:/temp/Job-1.odb,Step-1,Increment      1: Step Time =    1.000,"P-1-1",          1019,       154.314,       183.290,            0.,NA,NA,"",   1.51973E+06,   1.46277E+06,   1.46277E+06
C:/temp/Job-1.odb,Step-1,Increment      1: Step Time =    1.000,"P-1-1",          1020,       173.487,       46.9449,            0.,NA,NA,"",   2.26057E+06,   1.99778E+06,   1.99778E+06
C:/temp/Job-1.odb,Step-1,Increment      1: Step Time =    1.000,"P-1-1",          1021,       22.7913,       35.8253,            0.,NA,NA,"",   1.29549E+06,   1.30396E+06,   1.30396E+06
C:/temp/Job-1.odb,Step-1,Increment      1: Step Time =    1.000,"P-1-1",          1022,       18.9286,       37.9573,            0.,NA,NA,"",   1.10553E+06,   1.15572E+06,   1.15572E+06
C:/temp/Job-1.odb,Step-1,Increment      1: Step Time =    1.000,"P-1-1",          1023,       18.7778,       154.255,            0.,NA,NA,"",   541.172E+03,   574.915E+03,   574.915E+03
C:/temp/Job-1.odb,Step-1,Increment      1: Step Time =    1.000,"P-1-1",          1024,       26.0821,       150.819,            0.,NA,NA,"",   441.703E+03,   233.151E+03,   233.151E+03
C:/temp/Job-1.odb,Step-1,Increment      1: Step Time =    1.000,"P-1-1",          1025,       180.706,       154.790,            0.,NA,NA,"",   1.87851E+06,   1.75147E+06,   1.75147E+06
C:/temp/Job-1.odb,Step-1,Increment      1: Step Time =    1.000,"P-1-1",          1026,       184.427,       50.9392,            0.,NA,NA,"",   1.83965E+06,   1.76981E+06,   1.76981E+06
C:/temp/Job-1.odb,Step-1,Increment      1: Step Time =    1.000,"P-1-1",          1027,       174.140,       159.145,            0.,NA,NA,"",   2.03864E+06,   1.86406E+06,   1.86406E+06
C:/temp/Job-1.odb,Step-1,Increment      1: Step Time =    1.000,"P-1-1",          1028,       176.313,       38.6497,            0.,NA,NA,"",   1.88808E+06,   1.75404E+06,   1.75404E+06
C:/temp/Job-1.odb,Step-1,Increment      1: Step Time =    1.000,"P-1-1",          1029,       163.248,       25.2530,            0.,NA,NA,"",   1.82740E+06,   1.73819E+06,   1.73819E+06
C:/temp/Job-1.odb,Step-1,Increment      1: Step Time =    1.000,"P-1-1",          1030,       141.770,       178.976,            0.,NA,NA,"",   2.10003E+06,   2.12942E+06,   2.12942E+06
C:/temp/Job-1.odb,Step-1,Increment      1: Step Time =    1.000,"P-1-1",          1031,       150.697,       185.378,            0.,NA,NA,"",   1.38949E+06,   1.34127E+06,   1.34127E+06
C:/temp/Job-1.odb,Step-1,Increment      1: Step Time =    1.000,"P-1-1",          1032,       36.9667,       20.5989,            0.,NA,NA,"",   2.67638E+06,   2.57807E+06,   2.57807E+06
C:/temp/Job-1.odb,Step-1,Increment      1: Step Time =    1.000,"P-1-1",          1033,       160.427,       184.263,            0.,NA,NA,"",   1.36204E+06,   1.29555E+06,   1.29555E+06
C:/temp/Job-1.odb,Step-1,Increment      1: Step Time =    1.000,"P-1-1",          1034,       27.5870,       163.728,            0.,NA,NA,"",   1.33155E+06,   1.28847E+06,   1.28847E+06
C:/temp/Job-1.odb,Step-1,Increment      1: Step Time =    1.000,"P-1-1",          1035,       164.583,       136.288,            0.,NA,NA,"",   1.78763E+06,   826.492E+03,   826.492E+03
C:/temp/Job-1.odb,Step-1,Increment      1: Step Time =    1.000,"P-1-1",          1036,       33.2404,       171.903,            0.,NA,NA,"",   2.06676E+06,   1.96531E+06,   1.96531E+06
C:/temp/Job-1.odb,Step-1,Increment      1: Step Time =    1.000,"P-1-1",          1037,       159.240,       14.3832,            0.,NA,NA,"",   1.28717E+06,   1.22324E+06,   1.22324E+06
C:/temp/Job-1.odb,Step-1,Increment      1: Step Time =    1.000,"P-1-1",          1038,       165.675,       171.674,            0.,NA,NA,"",   1.89156E+06,   1.79084E+06,   1.79084E+06
C:/temp/Job-1.odb,Step-1,Increment      1: Step Time =    1.000,"P-1-1",          1039,       24.1442,       155.490,            0.,NA,NA,"",   669.022E+03,   647.143E+03,   647.143E+03
C:/temp/Job-1.odb,Step-1,Increment      1: Step Time =    1.000,"P-1-1",          1040,       168.430,       138.283,            0.,NA,NA,"",   2.21465E+06,   1.64790E+06,   1.64790E+06
C:/temp/Job-1.odb,Step-1,Increment      1: Step Time =    1.000,"P-1-1",          1041,       30.1182,       152.090,            0.,NA,NA,"",   586.753E+03,   143.909E+03,   143.909E+03
C:/temp/Job-1.odb,Step-1,Increment      1: Step Time =    1.000,"P-1-1",          1042,       167.596,       45.5536,            0.,NA,NA,"",   2.43939E+06,   2.15899E+06,   2.15899E+06
C:/temp/Job-1.odb,Step-1,Increment      1: Step Time =    1.000,"P-1-1",          1043,       15.4050,       41.1939,            0.,NA,NA,"",   865.566E+03,   936.388E+03,   936.388E+03
C:/temp/Job-1.odb,Step-1,Increment      1: Step Time =    1.000,"P-1-1",          1044,       42.7398,       173.734,            0.,NA,NA,"",   2.36323E+06,   2.15981E+06,   2.15981E+06
C:/temp/Job-1.odb,Step-1,Increment      1: Step Time =    1.000,"P-1-1",          1045,       15.9005,       151.675,            0.,NA,NA,"",   390.522E+03,   431.978E+03,   431.978E+03
C:/temp/Job-1.odb,Step-1,Increment      1: Step Time =    1.000,"P-1-1",          1046,       185.685,       150.020,            0.,NA,NA,"",   1.74753E+06,   1.70769E+06,   1.70769E+06
C:/temp/Job-1.odb,Step-1,Increment      1: Step Time =    1.000,"P-1-1",          1047,       185.117,       46.7269,            0.,NA,NA,"",   1.68208E+06,   1.64125E+06,   1.64125E+06
C:/temp/Job-1.odb,Step-1,Increment      1: Step Time =    1.000,"P-1-1",          1048,       174.781,       164.791,            0.,NA,NA,"",   1.80720E+06,   1.69632E+06,   1.69632E+06
C:/temp/Job-1.odb,Step-1,Increment      1: Step Time =    1.000,"P-1-1",          1049,       170.618,       154.849,            0.,NA,NA,"",   2.30469E+06,   2.04020E+06,   2.04020E+06
C:/temp/Job-1.odb,Step-1,Increment      1: Step Time =    1.000,"P-1-1",          1050,       172.890,       34.5476,            0.,NA,NA,"",   1.87817E+06,   1.75579E+06,   1.75579E+06
C:/temp/Job-1.odb,Step-1,Increment      1: Step Time =    1.000,"P-1-1",          1051,       38.2159,       15.5338,            0.,NA,NA,"",   3.04613E+06,   2.97686E+06,   2.97686E+06
C:/temp/Job-1.odb,Step-1,Increment      1: Step Time =    1.000,"P-1-1",          1052,       162.711,       177.886,            0.,NA,NA,"",   1.68978E+06,   1.61269E+06,   1.61269E+06
C:/temp/Job-1.odb,Step-1,Increment      1: Step Time =    1.000,"P-1-1",          1053,       23.3547,       166.748,            0.,NA,NA,"",   1.52549E+06,   1.53813E+06,   1.53813E+06
C:/temp/Job-1.odb,Step-1,Increment      1: Step Time =    1.000,"P-1-1",          1054,       26.0416,       32.0043,            0.,NA,NA,"",   1.67370E+06,   1.65475E+06,   1.65475E+06
C:/temp/Job-1.odb,Step-1,Increment      1: Step Time =    1.000,"P-1-1",          1055,       26.6738,       171.487,            0.,NA,NA,"",   1.94335E+06,   1.92315E+06,   1.92315E+06
C:/temp/Job-1.odb,Step-1,Increment      1: Step Time =    1.000,"P-1-1",          1056,       167.013,       175.822,            0.,NA,NA,"",   1.68114E+06,   1.59987E+06,   1.59987E+06
C:/temp/Job-1.odb,Step-1,Increment      1: Step Time =    1.000,"P-1-1",          1057,       33.8970,       14.5755,            0.,NA,NA,"",   3.11675E+06,   3.07483E+06,   3.07483E+06
C:/temp/Job-1.odb,Step-1,Increment      1: Step Time =    1.000,"P-1-1",          1058,       31.1574,       24.0346,            0.,NA,NA,"",   2.37295E+06,   2.31229E+06,   2.31229E+06
C:/temp/Job-1.odb,Step-1,Increment      1: Step Time =    1.000,"P-1-1",          1059,       25.2503,       159.771,            0.,NA,NA,"",   1.00266E+06,   981.361E+03,   981.361E+03
C:/temp/Job-1.odb,Step-1,Increment      1: Step Time =    1.000,"P-1-1",          1060,       173.258,       30.0121,            0.,NA,NA,"",   1.68714E+06,   1.60009E+06,   1.60009E+06
C:/temp/Job-1.odb,Step-1,Increment      1: Step Time =    1.000,"P-1-1",          1061,       166.080,       142.932,            0.,NA,NA,"",   2.30672E+06,   1.86492E+06,   1.86492E+06
C:/temp/Job-1.odb,Step-1,Increment      1: Step Time =    1.000,"P-1-1",          1062,       21.0363,       23.1637,            0.,NA,NA,"",   2.34827E+06,   2.38144E+06,   2.38144E+06
C:/temp/Job-1.odb,Step-1,Increment      1: Step Time =    1.000,"P-1-1",          1063,       19.0316,       46.7655,            0.,NA,NA,"",   511.878E+03,   541.555E+03,   541.555E+03
C:/temp/Job-1.odb,Step-1,Increment      1: Step Time =    1.000,"P-1-1",          1064,       13.8315,       37.2105,            0.,NA,NA,"",   1.12338E+06,   1.21632E+06,   1.21632E+06
C:/temp/Job-1.odb,Step-1,Increment      1: Step Time =    1.000,"P-1-1",          1065,       16.8566,       155.681,            0.,NA,NA,"",   627.501E+03,   679.847E+03,   679.847E+03
C:/temp/Job-1.odb,Step-1,Increment      1: Step Time =    1.000,"P-1-1",          1066,       160.887,       173.563,            0.,NA,NA,"",   1.96320E+06,   1.87409E+06,   1.87409E+06
C:/temp/Job-1.odb,Step-1,Increment      1: Step Time =    1.000,"P-1-1",          1067,       170.323,       170.469,            0.,NA,NA,"",   1.77298E+06,   1.67674E+06,   1.67674E+06
C:/temp/Job-1.odb,Step-1,Increment      1: Step Time =    1.000,"P-1-1",          1068,       29.6556,       13.5286,            0.,NA,NA,"",   3.20501E+06,   3.18261E+06,   3.18261E+06
C:/temp/Job-1.odb,Step-1,Increment      1: Step Time =    1.000,"P-1-1",          1069,       21.8220,       161.450,            0.,NA,NA,"",   1.08299E+06,   1.10173E+06,   1.10173E+06
C:/temp/Job-1.odb,Step-1,Increment      1: Step Time =    1.000,"P-1-1",          1070,       170.792,       174.943,            0.,NA,NA,"",   1.60486E+06,   1.52952E+06,   1.52952E+06
C:/temp/Job-1.odb,Step-1,Increment      1: Step Time =    1.000,"P-1-1",          1071,       180.036,       164.573,            0.,NA,NA,"",   1.60007E+06,   1.53196E+06,   1.53196E+06
C:/temp/Job-1.odb,Step-1,Increment      1: Step Time =    1.000,"P-1-1",          1072,       34.6739,       9.63565,            0.,NA,NA,"",   3.49030E+06,   3.46675E+06,   3.46675E+06
C:/temp/Job-1.odb,Step-1,Increment      1: Step Time =    1.000,"P-1-1",          1073,       21.3930,       170.459,            0.,NA,NA,"",   1.81132E+06,   1.84718E+06,   1.84718E+06
C:/temp/Job-1.odb,Step-1,Increment      1: Step Time =    1.000,"P-1-1",          1074,       164.690,       181.817,            0.,NA,NA,"",   1.44673E+06,   1.38026E+06,   1.38026E+06
C:/temp/Job-1.odb,Step-1,Increment      1: Step Time =    1.000,"P-1-1",          1075,       28.1898,       17.4926,            0.,NA,NA,"",   2.86829E+06,   2.84518E+06,   2.84518E+06
C:/temp/Job-1.odb,Step-1,Increment      1: Step Time =    1.000,"P-1-1",          1076,       163.893,       14.7454,            0.,NA,NA,"",   1.26304E+06,   1.20421E+06,   1.20421E+06
C:/temp/Job-1.odb,Step-1,Increment      1: Step Time =    1.000,"P-1-1",          1077,       164.347,       9.73182,            0.,NA,NA,"",   978.362E+03,   936.602E+03,   936.602E+03
C:/temp/Job-1.odb,Step-1,Increment      1: Step Time =    1.000,"P-1-1",          1078,       17.9729,       170.582,            0.,NA,NA,"",   1.78235E+06,   1.84841E+06,   1.84841E+06
C:/temp/Job-1.odb,Step-1,Increment      1: Step Time =    1.000,"P-1-1",          1079,       165.905,       185.994,            0.,NA,NA,"",   1.20448E+06,   1.15072E+06,   1.15072E+06
C:/temp/Job-1.odb,Step-1,Increment      1: Step Time =    1.000,"P-1-1",          1080,       170.354,       185.208,            0.,NA,NA,"",   1.19713E+06,   1.15161E+06,   1.15161E+06
C:/temp/Job-1.odb,Step-1,Increment      1: Step Time =    1.000,"P-1-1",          1081,       168.475,       29.8136,            0.,NA,NA,"",   1.85907E+06,   1.75054E+06,   1.75054E+06
C:/temp/Job-1.odb,Step-1,Increment      1: Step Time =    1.000,"P-1-1",          1082,       168.475,       149.829,            0.,NA,NA,"",   2.44439E+06,   2.10561E+06,   2.10561E+06
C:/temp/Job-1.odb,Step-1,Increment      1: Step Time =    1.000,"P-1-1",          1083,       169.578,       165.883,            0.,NA,NA,"",   1.97410E+06,   1.84263E+06,   1.84263E+06
C:/temp/Job-1.odb,Step-1,Increment      1: Step Time =    1.000,"P-1-1",          1084,       175.323,       174.845,            0.,NA,NA,"",   1.47569E+06,   1.41808E+06,   1.41808E+06
C:/temp/Job-1.odb,Step-1,Increment      1: Step Time =    1.000,"P-1-1",          1085,       156.147,       175.833,            0.,NA,NA,"",   1.96187E+06,   1.89594E+06,   1.89594E+06
C:/temp/Job-1.odb,Step-1,Increment      1: Step Time =    1.000,"P-1-1",          1086,       175.087,       179.792,            0.,NA,NA,"",   1.32454E+06,   1.27888E+06,   1.27888E+06
C:/temp/Job-1.odb,Step-1,Increment      1: Step Time =    1.000,"P-1-1",          1087,       185.313,       159.729,            0.,NA,NA,"",   1.47746E+06,   1.45721E+06,   1.45721E+06
C:/temp/Job-1.odb,Step-1,Increment      1: Step Time =    1.000,"P-1-1",          1088,       22.9267,       173.865,            0.,NA,NA,"",   2.10319E+06,   2.12552E+06,   2.12552E+06
C:/temp/Job-1.odb,Step-1,Increment      1: Step Time =    1.000,"P-1-1",          1089,       23.2445,       14.7101,            0.,NA,NA,"",   3.10296E+06,   3.10972E+06,   3.10972E+06
C:/temp/Job-1.odb,Step-1,Increment      1: Step Time =    1.000,"P-1-1",          1090,       175.126,       184.935,            0.,NA,NA,"",   1.15997E+06,   1.12562E+06,   1.12562E+06
C:/temp/Job-1.odb,Step-1,Increment      1: Step Time =    1.000,"P-1-1",          1091,       13.6139,       166.236,            0.,NA,NA,"",   1.36528E+06,   1.46603E+06,   1.46603E+06
C:/temp/Job-1.odb,Step-1,Increment      1: Step Time =    1.000,"P-1-1",          1092,       18.1337,       18.2405,            0.,NA,NA,"",   2.75772E+06,   2.81033E+06,   2.81033E+06
C:/temp/Job-1.odb,Step-1,Increment      1: Step Time =    1.000,"P-1-1",          1093,       26.1758,       12.3762,            0.,NA,NA,"",   3.29408E+06,   3.28611E+06,   3.28611E+06
C:/temp/Job-1.odb,Step-1,Increment      1: Step Time =    1.000,"P-1-1",          1094,       185.184,       164.641,            0.,NA,NA,"",   1.37319E+06,   1.35594E+06,   1.35594E+06
C:/temp/Job-1.odb,Step-1,Increment      1: Step Time =    1.000,"P-1-1",          1095,       172.600,       20.5831,            0.,NA,NA,"",   1.37687E+06,   1.32304E+06,   1.32304E+06
C:/temp/Job-1.odb,Step-1,Increment      1: Step Time =    1.000,"P-1-1",          1096,       165.837,       190.493,            0.,NA,NA,"",   949.609E+03,   913.502E+03,   913.502E+03
C:/temp/Job-1.odb,Step-1,Increment      1: Step Time =    1.000,"P-1-1",          1097,       180.052,       184.854,            0.,NA,NA,"",   1.11207E+06,   1.08783E+06,   1.08783E+06
C:/temp/Job-1.odb,Step-1,Increment      1: Step Time =    1.000,"P-1-1",          1098,       17.7911,       162.093,            0.,NA,NA,"",   1.09572E+06,   1.15313E+06,   1.15313E+06
C:/temp/Job-1.odb,Step-1,Increment      1: Step Time =    1.000,"P-1-1",          1099,       13.7126,       170.690,            0.,NA,NA,"",   1.72654E+06,   1.83530E+06,   1.83530E+06
C:/temp/Job-1.odb,Step-1,Increment      1: Step Time =    1.000,"P-1-1",          1100,       17.4842,       21.6574,            0.,NA,NA,"",   2.43538E+06,   2.50431E+06,   2.50431E+06
C:/temp/Job-1.odb,Step-1,Increment      1: Step Time =    1.000,"P-1-1",          1101,       173.127,       15.5712,            0.,NA,NA,"",   1.20239E+06,   1.16088E+06,   1.16088E+06
C:/temp/Job-1.odb,Step-1,Increment      1: Step Time =    1.000,"P-1-1",          1102,       180.164,       174.725,            0.,NA,NA,"",   1.33481E+06,   1.29863E+06,   1.29863E+06
C:/temp/Job-1.odb,Step-1,Increment      1: Step Time =    1.000,"P-1-1",          1103,       25.7413,       8.79538,            0.,NA,NA,"",   3.55971E+06,   3.55175E+06,   3.55175E+06
C:/temp/Job-1.odb,Step-1,Increment      1: Step Time =    1.000,"P-1-1",          1104,       172.877,       25.3917,            0.,NA,NA,"",   1.53465E+06,   1.46756E+06,   1.46756E+06
C:/temp/Job-1.odb,Step-1,Increment      1: Step Time =    1.000,"P-1-1",          1105,       176.310,       154.328,            0.,NA,NA,"",   2.10802E+06,   1.89567E+06,   1.89567E+06
C:/temp/Job-1.odb,Step-1,Increment      1: Step Time =    1.000,"P-1-1",          1106,       14.1468,       154.479,            0.,NA,NA,"",   548.734E+03,   609.107E+03,   609.107E+03
C:/temp/Job-1.odb,Step-1,Increment      1: Step Time =    1.000,"P-1-1",          1107,       180.124,       169.659,            0.,NA,NA,"",   1.45868E+06,   1.41159E+06,   1.41159E+06
C:/temp/Job-1.odb,Step-1,Increment      1: Step Time =    1.000,"P-1-1",          1108,       180.093,       179.778,            0.,NA,NA,"",   1.22329E+06,   1.19303E+06,   1.19303E+06
C:/temp/Job-1.odb,Step-1,Increment      1: Step Time =    1.000,"P-1-1",          1109,       177.421,       25.2468,            0.,NA,NA,"",   1.39063E+06,   1.34538E+06,   1.34538E+06
C:/temp/Job-1.odb,Step-1,Increment      1: Step Time =    1.000,"P-1-1",          1110,       176.597,       20.8367,            0.,NA,NA,"",   1.29740E+06,   1.25522E+06,   1.25522E+06
C:/temp/Job-1.odb,Step-1,Increment      1: Step Time =    1.000,"P-1-1",          1111,       14.0290,       175.333,            0.,NA,NA,"",   2.13459E+06,   2.24509E+06,   2.24509E+06
C:/temp/Job-1.odb,Step-1,Increment      1: Step Time =    1.000,"P-1-1",          1112,       13.4688,       161.946,            0.,NA,NA,"",   1.05341E+06,   1.14236E+06,   1.14236E+06
C:/temp/Job-1.odb,Step-1,Increment      1: Step Time =    1.000,"P-1-1",          1113,       16.8509,       24.3344,            0.,NA,NA,"",   2.19939E+06,   2.27873E+06,   2.27873E+06
C:/temp/Job-1.odb,Step-1,Increment      1: Step Time =    1.000,"P-1-1",          1114,       14.6249,       14.4626,            0.,NA,NA,"",   3.10432E+06,   3.17814E+06,   3.17814E+06
C:/temp/Job-1.odb,Step-1,Increment      1: Step Time =    1.000,"P-1-1",          1115,       177.286,       16.4215,            0.,NA,NA,"",   1.17788E+06,   1.14457E+06,   1.14457E+06
C:/temp/Job-1.odb,Step-1,Increment      1: Step Time =    1.000,"P-1-1",          1116,       13.4815,       157.969,            0.,NA,NA,"",   776.057E+03,   851.490E+03,   851.490E+03
C:/temp/Job-1.odb,Step-1,Increment      1: Step Time =    1.000,"P-1-1",          1117,       9.10342,       161.386,            0.,NA,NA,"",   993.196E+03,   1.10064E+06,   1.10064E+06
C:/temp/Job-1.odb,Step-1,Increment      1: Step Time =    1.000,"P-1-1",          1118,       19.8014,       184.614,            0.,NA,NA,"",   3.02686E+06,   3.05738E+06,   3.05738E+06
C:/temp/Job-1.odb,Step-1,Increment      1: Step Time =    1.000,"P-1-1",          1119,       24.3022,       178.616,            0.,NA,NA,"",   2.53319E+06,   2.53847E+06,   2.53847E+06
C:/temp/Job-1.odb,Step-1,Increment      1: Step Time =    1.000,"P-1-1",          1120,       14.9545,       189.912,            0.,NA,NA,"",   3.49053E+06,   3.53083E+06,   3.53083E+06
C:/temp/Job-1.odb,Step-1,Increment      1: Step Time =    1.000,"P-1-1",          1121,       24.8523,       184.076,            0.,NA,NA,"",   2.98993E+06,   2.98827E+06,   2.98827E+06
C:/temp/Job-1.odb,Step-1,Increment      1: Step Time =    1.000,"P-1-1",          1122,       14.7674,       184.932,            0.,NA,NA,"",   3.02938E+06,   3.10791E+06,   3.10791E+06
C:/temp/Job-1.odb,Step-1,Increment      1: Step Time =    1.000,"P-1-1",          1123,       29.7554,       183.589,            0.,NA,NA,"",   2.96492E+06,   2.93487E+06,   2.93487E+06
C:/temp/Job-1.odb,Step-1,Increment      1: Step Time =    1.000,"P-1-1",          1124,       9.59287,       180.203,            0.,NA,NA,"",   2.47126E+06,   2.63800E+06,   2.63800E+06
C:/temp/Job-1.odb,Step-1,Increment      1: Step Time =    1.000,"P-1-1",          1125,       34.5549,       178.381,            0.,NA,NA,"",   2.58434E+06,   2.49370E+06,   2.49370E+06
C:/temp/Job-1.odb,Step-1,Increment      1: Step Time =    1.000,"P-1-1",          1126,       38.8199,       173.794,            0.,NA,NA,"",   2.30334E+06,   2.14945E+06,   2.14945E+06
C:/temp/Job-1.odb,Step-1,Increment      1: Step Time =    1.000,"P-1-1",          1127,       190.052,       174.776,            0.,NA,NA,"",   1.11431E+06,   1.09740E+06,   1.09740E+06
C:/temp/Job-1.odb,Step-1,Increment      1: Step Time =    1.000,"P-1-1",          1128,       181.523,       23.7921,            0.,NA,NA,"",   1.25344E+06,   1.22711E+06,   1.22711E+06
C:/temp/Job-1.odb,Step-1,Increment      1: Step Time =    1.000,"P-1-1",          1129,       185.041,       179.777,            0.,NA,NA,"",   1.14141E+06,   1.12033E+06,   1.12033E+06
C:/temp/Job-1.odb,Step-1,Increment      1: Step Time =    1.000,"P-1-1",          1130,       13.9995,       25.0836,            0.,NA,NA,"",   2.09445E+06,   2.20522E+06,   2.20522E+06
C:/temp/Job-1.odb,Step-1,Increment      1: Step Time =    1.000,"P-1-1",          1131,       38.9236,       178.250,            0.,NA,NA,"",   2.63793E+06,   2.51653E+06,   2.51653E+06
C:/temp/Job-1.odb,Step-1,Increment      1: Step Time =    1.000,"P-1-1",          1132,       175.178,       190.083,            0.,NA,NA,"",   987.679E+03,   966.837E+03,   966.837E+03
C:/temp/Job-1.odb,Step-1,Increment      1: Step Time =    1.000,"P-1-1",          1133,       14.4188,       180.050,            0.,NA,NA,"",   2.55780E+06,   2.66218E+06,   2.66218E+06
C:/temp/Job-1.odb,Step-1,Increment      1: Step Time =    1.000,"P-1-1",          1134,       15.9621,       34.6317,            0.,NA,NA,"",   1.30688E+06,   1.38735E+06,   1.38735E+06
C:/temp/Job-1.odb,Step-1,Increment      1: Step Time =    1.000,"P-1-1",          1135,       179.417,       111.107,            0.,NA,NA,"",   1.18672E+06,   82.1019E+03,   82.1019E+03
C:/temp/Job-1.odb,Step-1,Increment      1: Step Time =    1.000,"P-1-1",          1136,       14.2744,       50.6265,            0.,NA,NA,"",   291.770E+03,   326.824E+03,   326.824E+03
C:/temp/Job-1.odb,Step-1,Increment      1: Step Time =    1.000,"P-1-1",          1137,       51.5374,       16.6448,            0.,NA,NA,"",   3.03533E+06,   2.87353E+06,   2.87353E+06
C:/temp/Job-1.odb,Step-1,Increment      1: Step Time =    1.000,"P-1-1",          1138,       149.818,       18.8226,            0.,NA,NA,"",   1.74392E+06,   1.70143E+06,   1.70143E+06
C:/temp/Job-1.odb,Step-1,Increment      1: Step Time =    1.000,"P-1-1",          1139,       9.96221,       36.2266,            0.,NA,NA,"",   1.15224E+06,   1.26738E+06,   1.26738E+06
C:/temp/Job-1.odb,Step-1,Increment      1: Step Time =    1.000,"P-1-1",          1140,       190.190,       164.763,            0.,NA,NA,"",   1.17549E+06,   1.19425E+06,   1.19425E+06
C:/temp/Job-1.odb,Step-1,Increment      1: Step Time =    1.000,"P-1-1",          1141,       35.1541,       189.014,            0.,NA,NA,"",   3.38266E+06,   3.35025E+06,   3.35025E+06
C:/temp/Job-1.odb,Step-1,Increment      1: Step Time =    1.000,"P-1-1",          1142,       190.336,       38.7223,            0.,NA,NA,"",   1.20601E+06,   1.24360E+06,   1.24360E+06
C:/temp/Job-1.odb,Step-1,Increment      1: Step Time =    1.000,"P-1-1",          1143,       25.0358,       189.482,            0.,NA,NA,"",   3.43887E+06,   3.43498E+06,   3.43498E+06
C:/temp/Job-1.odb,Step-1,Increment      1: Step Time =    1.000,"P-1-1",          1144,       45.2124,       185.148,            0.,NA,NA,"",   3.08478E+06,   2.97475E+06,   2.97475E+06
C:/temp/Job-1.odb,Step-1,Increment      1: Step Time =    1.000,"P-1-1",          1145,       34.6412,       183.543,            0.,NA,NA,"",   2.95996E+06,   2.90087E+06,   2.90087E+06
C:/temp/Job-1.odb,Step-1,Increment      1: Step Time =    1.000,"P-1-1",          1146,       151.553,       189.682,            0.,NA,NA,"",   1.00555E+06,   946.429E+03,   946.429E+03
C:/temp/Job-1.odb,Step-1,Increment      1: Step Time =    1.000,"P-1-1",          1147,       9.98648,       25.7479,            0.,NA,NA,"",   1.97446E+06,   2.13128E+06,   2.13128E+06
C:/temp/Job-1.odb,Step-1,Increment      1: Step Time =    1.000,"P-1-1",          1148,       9.18048,       170.596,            0.,NA,NA,"",   1.65678E+06,   1.80442E+06,   1.80442E+06
C:/temp/Job-1.odb,Step-1,Increment      1: Step Time =    1.000,"P-1-1",          1149,       174.143,       10.5214,            0.,NA,NA,"",   1.01906E+06,   992.718E+03,   992.718E+03
C:/temp/Job-1.odb,Step-1,Increment      1: Step Time =    1.000,"P-1-1",          1150,       190.678,       24.7107,            0.,NA,NA,"",   1.09830E+06,   1.08044E+06,   1.08044E+06
C:/temp/Job-1.odb,Step-1,Increment      1: Step Time =    1.000,"P-1-1",          1151,       181.145,       37.2307,            0.,NA,NA,"",   1.58395E+06,   1.52275E+06,   1.52275E+06
C:/temp/Job-1.odb,Step-1,Increment      1: Step Time =    1.000,"P-1-1",          1152,       42.3797,       16.6353,            0.,NA,NA,"",   2.97421E+06,   2.86646E+06,   2.86646E+06
C:/temp/Job-1.odb,Step-1,Increment      1: Step Time =    1.000,"P-1-1",          1153,       185.120,       10.3400,            0.,NA,NA,"",   1.00206E+06,   987.889E+03,   987.889E+03
C:/temp/Job-1.odb,Step-1,Increment      1: Step Time =    1.000,"P-1-1",          1154,       16.9083,       9.85508,            0.,NA,NA,"",   3.50562E+06,   3.53080E+06,   3.53080E+06
C:/temp/Job-1.odb,Step-1,Increment      1: Step Time =    1.000,"P-1-1",          1155,       9.83684,       16.2921,            0.,NA,NA,"",   2.79976E+06,   2.96296E+06,   2.96296E+06
C:/temp/Job-1.odb,Step-1,Increment      1: Step Time =    1.000,"P-1-1",          1156,       184.985,       189.920,            0.,NA,NA,"",   999.462E+03,   985.833E+03,   985.833E+03
C:/temp/Job-1.odb,Step-1,Increment      1: Step Time =    1.000,"P-1-1",          1157,       189.966,       184.869,            0.,NA,NA,"",   1.04952E+06,   1.02628E+06,   1.02628E+06
C:/temp/Job-1.odb,Step-1,Increment      1: Step Time =    1.000,"P-1-1",          1158,       190.259,       15.0593,            0.,NA,NA,"",   1.04583E+06,   1.02251E+06,   1.02251E+06
C:/temp/Job-1.odb,Step-1,Increment      1: Step Time =    1.000,"P-1-1",          1159,       120.442,       166.830,            0.,NA,NA,"",   6.30224E+06,   6.43888E+06,   6.43888E+06
C:/temp/Job-1.odb,Step-1,Increment      1: Step Time =    1.000,"P-1-1",          1160,       163.485,       19.9733,            0.,NA,NA,"",   1.55280E+06,   1.48053E+06,   1.48053E+06
C:/temp/Job-1.odb,Step-1,Increment      1: Step Time =    1.000,"P-1-1",          1161,       173.259,       149.858,            0.,NA,NA,"",   2.34242E+06,   2.01960E+06,   2.01960E+06
C:/temp/Job-1.odb,Step-1,Increment      1: Step Time =    1.000,"P-1-1",          1162,       69.2989,       178.272,            0.,NA,NA,"",   3.21986E+06,   2.90773E+06,   2.90773E+06
C:/temp/Job-1.odb,Step-1,Increment      1: Step Time =    1.000,"P-1-1",          1163,       37.2655,       160.447,            0.,NA,NA,"",   1.22374E+06,   993.830E+03,   993.830E+03
C:/temp/Job-1.odb,Step-1,Increment      1: Step Time =    1.000,"P-1-1",          1164,       27.0364,       37.8090,            0.,NA,NA,"",   1.20344E+06,   1.15672E+06,   1.15672E+06
C:/temp/Job-1.odb,Step-1,Increment      1: Step Time =    1.000,"P-1-1",          1165,       189.721,       47.8524,            0.,NA,NA,"",   1.43690E+06,   1.49530E+06,   1.49530E+06
C:/temp/Job-1.odb,Step-1,Increment      1: Step Time =    1.000,"P-1-1",          1166,       188.268,       55.7941,            0.,NA,NA,"",   1.76112E+06,   1.79757E+06,   1.79757E+06
C:/temp/Job-1.odb,Step-1,Increment      1: Step Time =    1.000,"P-1-1",          1167,       56.8089,       10.6572,            0.,NA,NA,"",   3.24335E+06,   3.13636E+06,   3.13636E+06
C:/temp/Job-1.odb,Step-1,Increment      1: Step Time =    1.000,"P-1-1",          1168,       143.171,       188.291,            0.,NA,NA,"",   1.07269E+06,   1.02931E+06,   1.02931E+06
C:/temp/Job-1.odb,Step-1,Increment      1: Step Time =    1.000,"P-1-1",          1169,       12.5780,       142.591,            0.,NA,NA,"",   153.776E+03,   45.8691E+03,   45.8691E+03
C:/temp/Job-1.odb,Step-1,Increment      1: Step Time =    1.000,"P-1-1",          1170,       15.8399,       28.7353,            0.,NA,NA,"",   1.81593E+06,   1.90594E+06,   1.90594E+06
C:/temp/Job-1.odb,Step-1,Increment      1: Step Time =    1.000,"P-1-1",          1171,       185.613,       38.1037,            0.,NA,NA,"",   1.41075E+06,   1.39819E+06,   1.39819E+06
C:/temp/Job-1.odb,Step-1,Increment      1: Step Time =    1.000,"P-1-1",          1172,       186.828,       24.4853,            0.,NA,NA,"",   1.14250E+06,   1.12987E+06,   1.12987E+06
C:/temp/Job-1.odb,Step-1,Increment      1: Step Time =    1.000,"P-1-1",          1173,       10.3276,       152.719,            0.,NA,NA,"",   459.119E+03,   520.353E+03,   520.353E+03
C:/temp/Job-1.odb,Step-1,Increment      1: Step Time =    1.000,"P-1-1",          1174,       48.4891,       8.98090,            0.,NA,NA,"",   3.43871E+06,   3.38668E+06,   3.38668E+06
C:/temp/Job-1.odb,Step-1,Increment      1: Step Time =    1.000,"P-1-1",          1175,       185.697,       15.0175,            0.,NA,NA,"",   1.06575E+06,   1.04714E+06,   1.04714E+06
C:/temp/Job-1.odb,Step-1,Increment      1: Step Time =    1.000,"P-1-1",          1176,       185.008,       184.857,            0.,NA,NA,"",   1.07283E+06,   1.05319E+06,   1.05319E+06
C:/temp/Job-1.odb,Step-1,Increment      1: Step Time =    1.000,"P-1-1",          1177,       185.138,       20.3106,            0.,NA,NA,"",   1.13327E+06,   1.11513E+06,   1.11513E+06
C:/temp/Job-1.odb,Step-1,Increment      1: Step Time =    1.000,"P-1-1",          1178,       185.572,       33.4002,            0.,NA,NA,"",   1.31822E+06,   1.30694E+06,   1.30694E+06
C:/temp/Job-1.odb,Step-1,Increment      1: Step Time =    1.000,"P-1-1",          1179,       185.274,       42.4466,            0.,NA,NA,"",   1.54570E+06,   1.51978E+06,   1.51978E+06
C:/temp/Job-1.odb,Step-1,Increment      1: Step Time =    1.000,"P-1-1",          1180,       39.4758,       182.992,            0.,NA,NA,"",   2.93553E+06,   2.84734E+06,   2.84734E+06
C:/temp/Job-1.odb,Step-1,Increment      1: Step Time =    1.000,"P-1-1",          1181,       44.4507,       11.0290,            0.,NA,NA,"",   3.34211E+06,   3.27736E+06,   3.27736E+06
C:/temp/Job-1.odb,Step-1,Increment      1: Step Time =    1.000,"P-1-1",          1182,       184.547,       28.2327,            0.,NA,NA,"",   1.24818E+06,   1.23173E+06,   1.23173E+06
C:/temp/Job-1.odb,Step-1,Increment      1: Step Time =    1.000,"P-1-1",          1183,       35.7909,       71.5125,            0.,NA,NA,"",   1.29652E+06,  -1.32150E+06,  -1.32150E+06
C:/temp/Job-1.odb,Step-1,Increment      1: Step Time =    1.000,"P-1-1",          1184,       34.0842,       74.5765,            0.,NA,NA,"",   1.17941E+06,  -1.20587E+06,  -1.20587E+06
C:/temp/Job-1.odb,Step-1,Increment      1: Step Time =    1.000,"P-1-1",          1185,       32.1047,       68.9949,            0.,NA,NA,"",   1.00405E+06,  -1.03376E+06,  -1.03376E+06
C:/temp/Job-1.odb,Step-1,Increment      1: Step Time =    1.000,"P-1-1",          1186,       50.5487,       191.347,            0.,NA,NA,"",   3.42564E+06,   3.37223E+06,   3.37223E+06
C:/temp/Job-1.odb,Step-1,Increment      1: Step Time =    1.000,"P-1-1",          1187,       149.826,       9.27213,            0.,NA,NA,"",   880.298E+03,   822.351E+03,   822.351E+03
C:/temp/Job-1.odb,Step-1,Increment      1: Step Time =    1.000,"P-1-1",          1188,       9.77671,       185.070,            0.,NA,NA,"",   2.93256E+06,   3.08950E+06,   3.08950E+06
C:/temp/Job-1.odb,Step-1,Increment      1: Step Time =    1.000,"P-1-1",          1189,       190.328,       29.2024,            0.,NA,NA,"",   1.12231E+06,   1.11817E+06,   1.11817E+06
C:/temp/Job-1.odb,Step-1,Increment      1: Step Time =    1.000,"P-1-1",          1190,       161.255,       190.247,            0.,NA,NA,"",   969.363E+03,   923.444E+03,   923.444E+03
C:/temp/Job-1.odb,Step-1,Increment      1: Step Time =    1.000,"P-1-1",          1191,       146.862,       186.656,            0.,NA,NA,"",   1.24223E+06,   1.19365E+06,   1.19365E+06
C:/temp/Job-1.odb,Step-1,Increment      1: Step Time =    1.000,"P-1-1",          1192,       72.4152,       30.4470,            0.,NA,NA,"",   2.81841E+06,   2.60620E+06,   2.60620E+06
C:/temp/Job-1.odb,Step-1,Increment      1: Step Time =    1.000,"P-1-1",          1193,       182.130,       14.9275,            0.,NA,NA,"",   1.09133E+06,   1.07163E+06,   1.07163E+06
C:/temp/Job-1.odb,Step-1,Increment      1: Step Time =    1.000,"P-1-1",          1194,       162.456,       186.750,            0.,NA,NA,"",   1.18731E+06,   1.12945E+06,   1.12945E+06
C:/temp/Job-1.odb,Step-1,Increment      1: Step Time =    1.000,"P-1-1",          1195,       168.588,       15.1120,            0.,NA,NA,"",   1.23390E+06,   1.18349E+06,   1.18349E+06
C:/temp/Job-1.odb,Step-1,Increment      1: Step Time =    1.000,"P-1-1",          1196,       145.003,       14.1330,            0.,NA,NA,"",   1.35283E+06,   1.32037E+06,   1.32037E+06
C:/temp/Job-1.odb,Step-1,Increment      1: Step Time =    1.000,"P-1-1",          1197,       57.9566,       13.6248,            0.,NA,NA,"",   3.15349E+06,   2.99004E+06,   2.99004E+06
C:/temp/Job-1.odb,Step-1,Increment      1: Step Time =    1.000,"P-1-1",          1198,       56.2190,       15.8272,            0.,NA,NA,"",   3.08589E+06,   2.90718E+06,   2.90718E+06
C:/temp/Job-1.odb,Step-1,Increment      1: Step Time =    1.000,"P-1-1",          1199,       13.9247,       17.4947,            0.,NA,NA,"",   2.80064E+06,   2.90157E+06,   2.90157E+06
C:/temp/Job-1.odb,Step-1,Increment      1: Step Time =    1.000,"P-1-1",          1200,       13.5874,       21.1749,            0.,NA,NA,"",   2.43642E+06,   2.55258E+06,   2.55258E+06
C:/temp/Job-1.odb,Step-1,Increment      1: Step Time =    1.000,"P-1-1",          1201,       19.4605,       143.801,            0.,NA,NA,"",   227.287E+03,  -25.8150E+03,  -25.8150E+03
C:/temp/Job-1.odb,Step-1,Increment      1: Step Time =    1.000,"P-1-1",          1202,       14.4643,       133.196,            0.,NA,NA,"",   372.203E+03,  -361.864E+03,  -361.864E+03
C:/temp/Job-1.odb,Step-1,Increment      1: Step Time =    1.000,"P-1-1",          1203,       185.095,       174.726,            0.,NA,NA,"",   1.20876E+06,   1.18964E+06,   1.18964E+06
C:/temp/Job-1.odb,Step-1,Increment      1: Step Time =    1.000,"P-1-1",          1204,       185.123,       169.675,            0.,NA,NA,"",   1.28463E+06,   1.26743E+06,   1.26743E+06
C:/temp/Job-1.odb,Step-1,Increment      1: Step Time =    1.000,"P-1-1",          1205,       87.4555,       178.809,            0.,NA,NA,"",   3.57926E+06,   3.50857E+06,   3.50857E+06
C:/temp/Job-1.odb,Step-1,Increment      1: Step Time =    1.000,"P-1-1",          1206,       171.663,       78.2297,            0.,NA,NA,"",   1.90712E+06,  -1.53195E+06,  -1.53195E+06
C:/temp/Job-1.odb,Step-1,Increment      1: Step Time =    1.000,"P-1-1",          1207,       146.112,       182.603,            0.,NA,NA,"",   1.64742E+06,   1.61667E+06,   1.61667E+06
C:/temp/Job-1.odb,Step-1,Increment      1: Step Time =    1.000,"P-1-1",          1208,       48.2925,       14.4137,            0.,NA,NA,"",   3.13155E+06,   3.01018E+06,   3.01018E+06
C:/temp/Job-1.odb,Step-1,Increment      1: Step Time =    1.000,"P-1-1",          1209,       19.2168,       72.5487,            0.,NA,NA,"",   540.000E+03,  -565.021E+03,  -565.021E+03
C:/temp/Job-1.odb,Step-1,Increment      1: Step Time =    1.000,"P-1-1",          1210,       180.968,       18.0623,            0.,NA,NA,"",   1.16075E+06,   1.13574E+06,   1.13574E+06
C:/temp/Job-1.odb,Step-1,Increment      1: Step Time =    1.000,"P-1-1",          1211,       44.0228,       181.470,            0.,NA,NA,"",   2.87867E+06,   2.74769E+06,   2.74769E+06
C:/temp/Job-1.odb,Step-1,Increment      1: Step Time =    1.000,"P-1-1",          1212,       72.3783,       25.9111,            0.,NA,NA,"",   3.19958E+06,   2.92286E+06,   2.92286E+06
C:/temp/Job-1.odb,Step-1,Increment      1: Step Time =    1.000,"P-1-1",          1213,       18.3900,       149.291,            0.,NA,NA,"",   302.874E+03,   313.858E+03,   313.858E+03
C:/temp/Job-1.odb,Step-1,Increment      1: Step Time =    1.000,"P-1-1",          1214,       45.7631,       42.3210,            0.,NA,NA,"",   1.14711E+06,   297.673E+03,   297.673E+03
C:/temp/Job-1.odb,Step-1,Increment      1: Step Time =    1.000,"P-1-1",          1215,       83.0436,       180.007,            0.,NA,NA,"",   3.40392E+06,   3.24636E+06,   3.24636E+06
C:/temp/Job-1.odb,Step-1,Increment      1: Step Time =    1.000,"P-1-1",          1216,       18.2256,       14.2302,            0.,NA,NA,"",   3.12521E+06,   3.16311E+06,   3.16311E+06
C:/temp/Job-1.odb,Step-1,Increment      1: Step Time =    1.000,"P-1-1",          1217,       149.333,       182.287,            0.,NA,NA,"",   1.65325E+06,   1.61333E+06,   1.61333E+06
C:/temp/Job-1.odb,Step-1,Increment      1: Step Time =    1.000,"P-1-1",          1218,       58.8647,       18.2161,            0.,NA,NA,"",   3.05888E+06,   2.81794E+06,   2.81794E+06
C:/temp/Job-1.odb,Step-1,Increment      1: Step Time =    1.000,"P-1-1",          1219,       54.2752,       17.9457,            0.,NA,NA,"",   3.00077E+06,   2.80718E+06,   2.80718E+06
C:/temp/Job-1.odb,Step-1,Increment      1: Step Time =    1.000,"P-1-1",          1220,       50.2953,       20.4247,            0.,NA,NA,"",   2.83928E+06,   2.62998E+06,   2.62998E+06
C:/temp/Job-1.odb,Step-1,Increment      1: Step Time =    1.000,"P-1-1",          1221,       182.699,       103.735,            0.,NA,NA,"",   745.529E+03,   824.937E+03,   824.937E+03
C:/temp/Job-1.odb,Step-1,Increment      1: Step Time =    1.000,"P-1-1",          1222,       180.971,       150.028,            0.,NA,NA,"",   2.01237E+06,   1.84817E+06,   1.84817E+06
C:/temp/Job-1.odb,Step-1,Increment      1: Step Time =    1.000,"P-1-1",          1223,       168.185,       20.2708,            0.,NA,NA,"",   1.46773E+06,   1.40216E+06,   1.40216E+06
C:/temp/Job-1.odb,Step-1,Increment      1: Step Time =    1.000,"P-1-1",          1224,       17.2177,       158.357,            0.,NA,NA,"",   808.686E+03,   863.246E+03,   863.246E+03
C:/temp/Job-1.odb,Step-1,Increment      1: Step Time =    1.000,"P-1-1",          1225,       19.0263,       26.3502,            0.,NA,NA,"",   2.07371E+06,   2.13043E+06,   2.13043E+06
C:/temp/Job-1.odb,Step-1,Increment      1: Step Time =    1.000,"P-1-1",          1226,       22.2425,       29.0086,            0.,NA,NA,"",   1.87868E+06,   1.90162E+06,   1.90162E+06
C:/temp/Job-1.odb,Step-1,Increment      1: Step Time =    1.000,"P-1-1",          1227,       27.9531,       59.5794,            0.,NA,NA,"",   533.771E+03,  -524.894E+03,  -524.894E+03
C:/temp/Job-1.odb,Step-1,Increment      1: Step Time =    1.000,"P-1-1",          1228,       29.7367,       55.6842,            0.,NA,NA,"",   491.813E+03,  -452.685E+03,  -452.685E+03
C:/temp/Job-1.odb,Step-1,Increment      1: Step Time =    1.000,"P-1-1",          1229,       55.5082,       166.123,            0.,NA,NA,"",   2.03209E+06,   1.62704E+06,   1.62704E+06
C:/temp/Job-1.odb,Step-1,Increment      1: Step Time =    1.000,"P-1-1",          1230,       46.3882,       161.456,            0.,NA,NA,"",   1.42176E+06,   1.01622E+06,   1.01622E+06
C:/temp/Job-1.odb,Step-1,Increment      1: Step Time =    1.000,"P-1-1",          1231,       180.960,       46.1956,            0.,NA,NA,"",   1.91840E+06,   1.78067E+06,   1.78067E+06
C:/temp/Job-1.odb,Step-1,Increment      1: Step Time =    1.000,"P-1-1",          1232,       16.6147,       86.1021,            0.,NA,NA,"",   451.687E+03,  -512.486E+03,  -512.486E+03
C:/temp/Job-1.odb,Step-1,Increment      1: Step Time =    1.000,"P-1-1",          1233,       176.936,       75.8129,            0.,NA,NA,"",   1.95435E+06,   772.886E+03,   772.886E+03
C:/temp/Job-1.odb,Step-1,Increment      1: Step Time =    1.000,"P-1-1",          1234,       178.110,       105.513,            0.,NA,NA,"",   952.966E+03,  -621.729E+03,  -621.729E+03
C:/temp/Job-1.odb,Step-1,Increment      1: Step Time =    1.000,"P-1-1",          1235,       44.2400,       164.301,            0.,NA,NA,"",   1.61695E+06,   1.29329E+06,   1.29329E+06
C:/temp/Job-1.odb,Step-1,Increment      1: Step Time =    1.000,"P-1-1",          1236,       130.123,       183.185,            0.,NA,NA,"",   1.80799E+06,   1.90548E+06,   1.90548E+06
C:/temp/Job-1.odb,Step-1,Increment      1: Step Time =    1.000,"P-1-1",          1237,       23.0167,       150.168,            0.,NA,NA,"",   364.185E+03,   326.885E+03,   326.885E+03
C:/temp/Job-1.odb,Step-1,Increment      1: Step Time =    1.000,"P-1-1",          1238,       24.7479,       25.4552,            0.,NA,NA,"",   2.20057E+06,   2.20140E+06,   2.20140E+06
C:/temp/Job-1.odb,Step-1,Increment      1: Step Time =    1.000,"P-1-1",          1239,       61.0443,       177.055,            0.,NA,NA,"",   2.95610E+06,   2.63291E+06,   2.63291E+06
C:/temp/Job-1.odb,Step-1,Increment      1: Step Time =    1.000,"P-1-1",          1240,       57.5383,       176.477,            0.,NA,NA,"",   2.84724E+06,   2.52765E+06,   2.52765E+06
C:/temp/Job-1.odb,Step-1,Increment      1: Step Time =    1.000,"P-1-1",          1241,       18.5288,       174.942,            0.,NA,NA,"",   2.16467E+06,   2.23056E+06,   2.23056E+06
C:/temp/Job-1.odb,Step-1,Increment      1: Step Time =    1.000,"P-1-1",          1242,       64.5990,       181.707,            0.,NA,NA,"",   3.15250E+06,   2.88595E+06,   2.88595E+06
C:/temp/Job-1.odb,Step-1,Increment      1: Step Time =    1.000,"P-1-1",          1243,       28.8501,       28.2296,            0.,NA,NA,"",   2.01426E+06,   1.96990E+06,   1.96990E+06
C:/temp/Job-1.odb,Step-1,Increment      1: Step Time =    1.000,"P-1-1",          1244,       18.7978,       50.9260,            0.,NA,NA,"",   307.655E+03,   314.152E+03,   314.152E+03
C:/temp/Job-1.odb,Step-1,Increment      1: Step Time =    1.000,"P-1-1",          1245,       181.985,       33.7533,            0.,NA,NA,"",   1.45314E+06,   1.41470E+06,   1.41470E+06
C:/temp/Job-1.odb,Step-1,Increment      1: Step Time =    1.000,"P-1-1",          1246,       170.877,       52.4153,            0.,NA,NA,"",   2.44230E+06,   2.05924E+06,   2.05924E+06
C:/temp/Job-1.odb,Step-1,Increment      1: Step Time =    1.000,"P-1-1",          1247,       16.9192,       128.988,            0.,NA,NA,"",   477.639E+03,  -490.079E+03,  -490.079E+03
C:/temp/Job-1.odb,Step-1,Increment      1: Step Time =    1.000,"P-1-1",          1248,       42.4411,       160.912,            0.,NA,NA,"",   1.30643E+06,   967.810E+03,   967.810E+03
C:/temp/Job-1.odb,Step-1,Increment      1: Step Time =    1.000,"P-1-1",          1249,       123.909,       24.1362,            0.,NA,NA,"",   3.45940E+06,   3.66340E+06,   3.66340E+06
C:/temp/Job-1.odb,Step-1,Increment      1: Step Time =    1.000,"P-1-1",          1250,       140.707,       169.646,            0.,NA,NA,"",   3.07366E+06,   3.16615E+06,   3.16615E+06
C:/temp/Job-1.odb,Step-1,Increment      1: Step Time =    1.000,"P-1-1",          1251,       158.754,       164.186,            0.,NA,NA,"",   2.42360E+06,   2.30929E+06,   2.30929E+06
C:/temp/Job-1.odb,Step-1,Increment      1: Step Time =    1.000,"P-1-1",          1252,       35.5262,       174.543,            0.,NA,NA,"",   2.31305E+06,   2.19695E+06,   2.19695E+06
C:/temp/Job-1.odb,Step-1,Increment      1: Step Time =    1.000,"P-1-1",          1253,       44.8069,       22.8424,            0.,NA,NA,"",   2.61234E+06,   2.42753E+06,   2.42753E+06
C:/temp/Job-1.odb,Step-1,Increment      1: Step Time =    1.000,"P-1-1",          1254,       125.900,       176.118,            0.,NA,NA,"",   3.22829E+06,   3.42187E+06,   3.42187E+06
C:/temp/Job-1.odb,Step-1,Increment      1: Step Time =    1.000,"P-1-1",          1255,       167.719,       52.4788,            0.,NA,NA,"",   2.48092E+06,   2.08409E+06,   2.08409E+06
C:/temp/Job-1.odb,Step-1,Increment      1: Step Time =    1.000,"P-1-1",          1256,       177.300,       126.951,            0.,NA,NA,"",   2.09876E+06,   1.51292E+06,   1.51292E+06
C:/temp/Job-1.odb,Step-1,Increment      1: Step Time =    1.000,"P-1-1",          1257,       47.1987,       175.180,            0.,NA,NA,"",   2.54049E+06,   2.30478E+06,   2.30478E+06
C:/temp/Job-1.odb,Step-1,Increment      1: Step Time =    1.000,"P-1-1",          1258,       29.6095,       46.0294,            0.,NA,NA,"",   645.312E+03,   517.927E+03,   517.927E+03
C:/temp/Job-1.odb,Step-1,Increment      1: Step Time =    1.000,"P-1-1",          1259,       26.6442,       21.5485,            0.,NA,NA,"",   2.53334E+06,   2.51963E+06,   2.51963E+06
C:/temp/Job-1.odb,Step-1,Increment      1: Step Time =    1.000,"P-1-1",          1260,       154.118,       22.4059,            0.,NA,NA,"",   1.89662E+06,   1.83490E+06,   1.83490E+06
C:/temp/Job-1.odb,Step-1,Increment      1: Step Time =    1.000,"P-1-1",          1261,       30.2145,       35.3591,            0.,NA,NA,"",   1.43718E+06,   1.35653E+06,   1.35653E+06
C:/temp/Job-1.odb,Step-1,Increment      1: Step Time =    1.000,"P-1-1",          1262,       21.9871,       123.814,            0.,NA,NA,"",   623.377E+03,  -661.065E+03,  -661.065E+03
C:/temp/Job-1.odb,Step-1,Increment      1: Step Time =    1.000,"P-1-1",          1263,       22.0454,       128.016,            0.,NA,NA,"",   603.482E+03,  -628.269E+03,  -628.269E+03
C:/temp/Job-1.odb,Step-1,Increment      1: Step Time =    1.000,"P-1-1",          1264,       27.8592,       156.935,            0.,NA,NA,"",   823.765E+03,   756.172E+03,   756.172E+03
C:/temp/Job-1.odb,Step-1,Increment      1: Step Time =    1.000,"P-1-1",          1265,       177.177,       35.2445,            0.,NA,NA,"",   1.73822E+06,   1.63981E+06,   1.63981E+06
C:/temp/Job-1.odb,Step-1,Increment      1: Step Time =    1.000,"P-1-1",          1266,       173.359,       153.074,            0.,NA,NA,"",   2.26416E+06,   1.99248E+06,   1.99248E+06
