ODB Name,Step,Frame,Part Instance Name,    Node Label,X,Y,Z,Section Name,Material Name,Section Point,       S-Mises,S-Max. In-Plane Principal (Abs),S-Max. Principal (Abs)
C:/temp/Job-9.odb,Step-1,Increment      1: Step Time =    1.000,"P-9-1",             1,       90.4236,       114.046,            0.,NA,NA,"",   1.53865E+06,   1.57782E+06,   1.57782E+06
C:/temp/Job-9.odb,Step-1,Increment      1: Step Time =    1.000,"P-9-1",             2,       86.7089,       110.599,            0.,NA,NA,"",   925.033E+03,   876.307E+03,   876.307E+03
C:/temp/Job-9.odb,Step-1,Increment      1: Step Time =    1.000,"P-9-1",             3,       83.0475,       101.270,            0.,NA,NA,"",   493.829E+03,  -466.628E+03,  -466.628E+03
C:/temp/Job-9.odb,Step-1,Increment      1: Step Time =    1.000,"P-9-1",             4,       83.4262,       96.2171,            0.,NA,NA,"",   483.373E+03,  -372.412E+03,  -372.412E+03
C:/temp/Job-9.odb,Step-1,Increment      1: Step Time =    1.000,"P-9-1",             5,       88.4371,       87.5381,            0.,NA,NA,"",   1.12836E+06,   1.14504E+06,   1.14504E+06
C:/temp/Job-9.odb,Step-1,Increment      1: Step Time =    1.000,"P-9-1",             6,       97.4663,       83.1899,            0.,NA,NA,"",   2.39195E+06,   2.46888E+06,   2.46888E+06
C:/temp/Job-9.odb,Step-1,Increment      1: Step Time =    1.000,"P-9-1",             7,       102.534,       83.1899,            0.,NA,NA,"",   2.40408E+06,   2.48305E+06,   2.48305E+06
C:/temp/Job-9.odb,Step-1,Increment      1: Step Time =    1.000,"P-9-1",             8,       111.563,       87.5381,            0.,NA,NA,"",   1.13117E+06,   1.13085E+06,   1.13085E+06
C:/temp/Job-9.odb,Step-1,Increment      1: Step Time =    1.000,"P-9-1",             9,       116.574,       96.2171,            0.,NA,NA,"",   561.017E+03,  -460.488E+03,  -460.488E+03
C:/temp/Job-9.odb,Step-1,Increment      1: Step Time =    1.000,"P-9-1",            10,       116.952,       101.270,            0.,NA,NA,"",   604.276E+03,  -584.626E+03,  -584.626E+03
C:/temp/Job-9.odb,Step-1,Increment      1: Step Time =    1.000,"P-9-1",            11,       113.291,       110.599,            0.,NA,NA,"",   928.051E+03,   888.458E+03,   888.458E+03
C:/temp/Job-9.odb,Step-1,Increment      1: Step Time =    1.000,"P-9-1",            12,       109.576,       114.046,            0.,NA,NA,"",   1.54865E+06,   1.59613E+06,   1.59613E+06
C:/temp/Job-9.odb,Step-1,Increment      1: Step Time =    1.000,"P-9-1",            13,          100.,          117.,            0.,NA,NA,"",   2.14949E+06,   2.27182E+06,   2.27182E+06
C:/temp/Job-9.odb,Step-1,Increment      1: Step Time =    1.000,"P-9-1",            14,          190.,            0.,            0.,NA,NA,"",   999.501E+03,   999.517E+03,   999.517E+03
C:/temp/Job-9.odb,Step-1,Increment      1: Step Time =    1.000,"P-9-1",            15,          180.,            0.,            0.,NA,NA,"",   999.168E+03,   999.171E+03,   999.171E+03
C:/temp/Job-9.odb,Step-1,Increment      1: Step Time =    1.000,"P-9-1",            16,          170.,            0.,            0.,NA,NA,"",   998.615E+03,   998.489E+03,   998.489E+03
C:/temp/Job-9.odb,Step-1,Increment      1: Step Time =    1.000,"P-9-1",            17,          160.,            0.,            0.,NA,NA,"",   995.097E+03,   994.960E+03,   994.960E+03
C:/temp/Job-9.odb,Step-1,Increment      1: Step Time =    1.000,"P-9-1",            18,          150.,            0.,            0.,NA,NA,"",   986.228E+03,   986.070E+03,   986.070E+03
C:/temp/Job-9.odb,Step-1,Increment      1: Step Time =    1.000,"P-9-1",            19,          140.,            0.,            0.,NA,NA,"",   970.192E+03,   970.019E+03,   970.019E+03
C:/temp/Job-9.odb,Step-1,Increment      1: Step Time =    1.000,"P-9-1",            20,          130.,            0.,            0.,NA,NA,"",   949.274E+03,   949.197E+03,   949.197E+03
C:/temp/Job-9.odb,Step-1,Increment      1: Step Time =    1.000,"P-9-1",            21,          120.,            0.,            0.,NA,NA,"",   927.904E+03,   928.033E+03,   928.033E+03
C:/temp/Job-9.odb,Step-1,Increment      1: Step Time =    1.000,"P-9-1",            22,          110.,            0.,            0.,NA,NA,"",   911.938E+03,   912.285E+03,   912.285E+03
C:/temp/Job-9.odb,Step-1,Increment      1: Step Time =    1.000,"P-9-1",            23,          100.,            0.,            0.,NA,NA,"",   906.508E+03,   906.921E+03,   906.921E+03
C:/temp/Job-9.odb,Step-1,Increment      1: Step Time =    1.000,"P-9-1",            24,           90.,            0.,            0.,NA,NA,"",   914.121E+03,   914.425E+03,   914.425E+03
C:/temp/Job-9.odb,Step-1,Increment      1: Step Time =    1.000,"P-9-1",            25,           80.,            0.,            0.,NA,NA,"",   933.455E+03,   933.581E+03,   933.581E+03
C:/temp/Job-9.odb,Step-1,Increment      1: Step Time =    1.000,"P-9-1",            26,           70.,            0.,            0.,NA,NA,"",   960.168E+03,   960.260E+03,   960.260E+03
C:/temp/Job-9.odb,Step-1,Increment      1: Step Time =    1.000,"P-9-1",            27,           60.,            0.,            0.,NA,NA,"",   990.612E+03,   990.760E+03,   990.760E+03
C:/temp/Job-9.odb,Step-1,Increment      1: Step Time =    1.000,"P-9-1",            28,           50.,            0.,            0.,NA,NA,"",   1.01762E+06,   1.01694E+06,   1.01694E+06
C:/temp/Job-9.odb,Step-1,Increment      1: Step Time =    1.000,"P-9-1",            29,           40.,            0.,            0.,NA,NA,"",   1.04156E+06,   1.04156E+06,   1.04156E+06
C:/temp/Job-9.odb,Step-1,Increment      1: Step Time =    1.000,"P-9-1",            30,           30.,            0.,            0.,NA,NA,"",   1.07309E+06,   1.07357E+06,   1.07357E+06
C:/temp/Job-9.odb,Step-1,Increment      1: Step Time =    1.000,"P-9-1",            31,           20.,            0.,            0.,NA,NA,"",   1.13129E+06,   1.13194E+06,   1.13194E+06
C:/temp/Job-9.odb,Step-1,Increment      1: Step Time =    1.000,"P-9-1",            32,           10.,            0.,            0.,NA,NA,"",   1.27390E+06,   1.27594E+06,   1.27594E+06
C:/temp/Job-9.odb,Step-1,Increment      1: Step Time =    1.000,"P-9-1",            33,          200.,            0.,            0.,NA,NA,"",   999.957E+03,   999.914E+03,   999.914E+03
C:/temp/Job-9.odb,Step-1,Increment      1: Step Time =    1.000,"P-9-1",            34,            0.,            0.,            0.,NA,NA,"",   1.62061E+06,   1.69992E+06,   1.69992E+06
C:/temp/Job-9.odb,Step-1,Increment      1: Step Time =    1.000,"P-9-1",            35,          200.,          190.,            0.,NA,NA,"",   1.00031E+06,   1.00006E+06,   1.00006E+06
C:/temp/Job-9.odb,Step-1,Increment      1: Step Time =    1.000,"P-9-1",            36,          200.,          180.,            0.,NA,NA,"",   1.00032E+06,   1.00027E+06,   1.00027E+06
C:/temp/Job-9.odb,Step-1,Increment      1: Step Time =    1.000,"P-9-1",            37,          200.,          170.,            0.,NA,NA,"",   998.513E+03,   1.00053E+06,   1.00053E+06
C:/temp/Job-9.odb,Step-1,Increment      1: Step Time =    1.000,"P-9-1",            38,          200.,          160.,            0.,NA,NA,"",   993.206E+03,   1.00047E+06,   1.00047E+06
C:/temp/Job-9.odb,Step-1,Increment      1: Step Time =    1.000,"P-9-1",            39,          200.,          150.,            0.,NA,NA,"",   983.810E+03,   1.00038E+06,   1.00038E+06
C:/temp/Job-9.odb,Step-1,Increment      1: Step Time =    1.000,"P-9-1",            40,          200.,          140.,            0.,NA,NA,"",   970.528E+03,   1.00043E+06,   1.00043E+06
C:/temp/Job-9.odb,Step-1,Increment      1: Step Time =    1.000,"P-9-1",            41,          200.,          130.,            0.,NA,NA,"",   955.429E+03,   1.00017E+06,   1.00017E+06
C:/temp/Job-9.odb,Step-1,Increment      1: Step Time =    1.000,"P-9-1",            42,          200.,          120.,            0.,NA,NA,"",   941.343E+03,   999.609E+03,   999.609E+03
C:/temp/Job-9.odb,Step-1,Increment      1: Step Time =    1.000,"P-9-1",            43,          200.,          110.,            0.,NA,NA,"",   931.352E+03,   998.985E+03,   998.985E+03
C:/temp/Job-9.odb,Step-1,Increment      1: Step Time =    1.000,"P-9-1",            44,          200.,          100.,            0.,NA,NA,"",   927.774E+03,   998.724E+03,   998.724E+03
C:/temp/Job-9.odb,Step-1,Increment      1: Step Time =    1.000,"P-9-1",            45,          200.,           90.,            0.,NA,NA,"",   931.548E+03,   999.003E+03,   999.003E+03
C:/temp/Job-9.odb,Step-1,Increment      1: Step Time =    1.000,"P-9-1",            46,          200.,           80.,            0.,NA,NA,"",   941.553E+03,   999.498E+03,   999.498E+03
C:/temp/Job-9.odb,Step-1,Increment      1: Step Time =    1.000,"P-9-1",            47,          200.,           70.,            0.,NA,NA,"",   955.588E+03,   999.966E+03,   999.966E+03
C:/temp/Job-9.odb,Step-1,Increment      1: Step Time =    1.000,"P-9-1",            48,          200.,           60.,            0.,NA,NA,"",   970.896E+03,   1.00022E+06,   1.00022E+06
C:/temp/Job-9.odb,Step-1,Increment      1: Step Time =    1.000,"P-9-1",            49,          200.,           50.,            0.,NA,NA,"",   984.845E+03,   1.00124E+06,   1.00124E+06
C:/temp/Job-9.odb,Step-1,Increment      1: Step Time =    1.000,"P-9-1",            50,          200.,           40.,            0.,NA,NA,"",   993.550E+03,   1.00051E+06,   1.00051E+06
C:/temp/Job-9.odb,Step-1,Increment      1: Step Time =    1.000,"P-9-1",            51,          200.,           30.,            0.,NA,NA,"",   998.582E+03,   1.00032E+06,   1.00032E+06
C:/temp/Job-9.odb,Step-1,Increment      1: Step Time =    1.000,"P-9-1",            52,          200.,           20.,            0.,NA,NA,"",   1.00033E+06,   1.00016E+06,   1.00016E+06
C:/temp/Job-9.odb,Step-1,Increment      1: Step Time =    1.000,"P-9-1",            53,          200.,           10.,            0.,NA,NA,"",   1.00029E+06,   1.00003E+06,   1.00003E+06
C:/temp/Job-9.odb,Step-1,Increment      1: Step Time =    1.000,"P-9-1",            54,          200.,          200.,            0.,NA,NA,"",   999.954E+03,   999.908E+03,   999.908E+03
C:/temp/Job-9.odb,Step-1,Increment      1: Step Time =    1.000,"P-9-1",            55,           10.,          200.,            0.,NA,NA,"",   1.27300E+06,   1.27552E+06,   1.27552E+06
C:/temp/Job-9.odb,Step-1,Increment      1: Step Time =    1.000,"P-9-1",            56,           20.,          200.,            0.,NA,NA,"",   1.13169E+06,   1.13243E+06,   1.13243E+06
C:/temp/Job-9.odb,Step-1,Increment      1: Step Time =    1.000,"P-9-1",            57,           30.,          200.,            0.,NA,NA,"",   1.07424E+06,   1.07449E+06,   1.07449E+06
C:/temp/Job-9.odb,Step-1,Increment      1: Step Time =    1.000,"P-9-1",            58,           40.,          200.,            0.,NA,NA,"",   1.04170E+06,   1.04174E+06,   1.04174E+06
C:/temp/Job-9.odb,Step-1,Increment      1: Step Time =    1.000,"P-9-1",            59,           50.,          200.,            0.,NA,NA,"",   1.01548E+06,   1.01548E+06,   1.01548E+06
C:/temp/Job-9.odb,Step-1,Increment      1: Step Time =    1.000,"P-9-1",            60,           60.,          200.,            0.,NA,NA,"",   988.905E+03,   988.774E+03,   988.774E+03
C:/temp/Job-9.odb,Step-1,Increment      1: Step Time =    1.000,"P-9-1",            61,           70.,          200.,            0.,NA,NA,"",   961.130E+03,   961.034E+03,   961.034E+03
C:/temp/Job-9.odb,Step-1,Increment      1: Step Time =    1.000,"P-9-1",            62,           80.,          200.,            0.,NA,NA,"",   934.799E+03,   934.944E+03,   934.944E+03
C:/temp/Job-9.odb,Step-1,Increment      1: Step Time =    1.000,"P-9-1",            63,           90.,          200.,            0.,NA,NA,"",   915.073E+03,   915.475E+03,   915.475E+03
C:/temp/Job-9.odb,Step-1,Increment      1: Step Time =    1.000,"P-9-1",            64,          100.,          200.,            0.,NA,NA,"",   906.620E+03,   907.053E+03,   907.053E+03
C:/temp/Job-9.odb,Step-1,Increment      1: Step Time =    1.000,"P-9-1",            65,          110.,          200.,            0.,NA,NA,"",   912.067E+03,   912.398E+03,   912.398E+03
C:/temp/Job-9.odb,Step-1,Increment      1: Step Time =    1.000,"P-9-1",            66,          120.,          200.,            0.,NA,NA,"",   928.059E+03,   928.192E+03,   928.192E+03
C:/temp/Job-9.odb,Step-1,Increment      1: Step Time =    1.000,"P-9-1",            67,          130.,          200.,            0.,NA,NA,"",   949.798E+03,   949.742E+03,   949.742E+03
C:/temp/Job-9.odb,Step-1,Increment      1: Step Time =    1.000,"P-9-1",            68,          140.,          200.,            0.,NA,NA,"",   971.164E+03,   971.031E+03,   971.031E+03
C:/temp/Job-9.odb,Step-1,Increment      1: Step Time =    1.000,"P-9-1",            69,          150.,          200.,            0.,NA,NA,"",   986.635E+03,   986.264E+03,   986.264E+03
C:/temp/Job-9.odb,Step-1,Increment      1: Step Time =    1.000,"P-9-1",            70,          160.,          200.,            0.,NA,NA,"",   995.077E+03,   994.946E+03,   994.946E+03
C:/temp/Job-9.odb,Step-1,Increment      1: Step Time =    1.000,"P-9-1",            71,          170.,          200.,            0.,NA,NA,"",   998.327E+03,   998.272E+03,   998.272E+03
C:/temp/Job-9.odb,Step-1,Increment      1: Step Time =    1.000,"P-9-1",            72,          180.,          200.,            0.,NA,NA,"",   998.911E+03,   998.918E+03,   998.918E+03
C:/temp/Job-9.odb,Step-1,Increment      1: Step Time =    1.000,"P-9-1",            73,          190.,          200.,            0.,NA,NA,"",   999.427E+03,   999.437E+03,   999.437E+03
C:/temp/Job-9.odb,Step-1,Increment      1: Step Time =    1.000,"P-9-1",            74,            0.,          200.,            0.,NA,NA,"",   1.61909E+06,   1.69747E+06,   1.69747E+06
C:/temp/Job-9.odb,Step-1,Increment      1: Step Time =    1.000,"P-9-1",            75,            0.,           10.,            0.,NA,NA,"",   1.17490E+06,   1.27953E+06,   1.27953E+06
C:/temp/Job-9.odb,Step-1,Increment      1: Step Time =    1.000,"P-9-1",            76,            0.,           20.,            0.,NA,NA,"",   1.02081E+06,   1.12789E+06,   1.12789E+06
C:/temp/Job-9.odb,Step-1,Increment      1: Step Time =    1.000,"P-9-1",            77,            0.,           30.,            0.,NA,NA,"",   945.451E+03,   1.05230E+06,   1.05230E+06
C:/temp/Job-9.odb,Step-1,Increment      1: Step Time =    1.000,"P-9-1",            78,            0.,           40.,            0.,NA,NA,"",   894.511E+03,   1.00044E+06,   1.00044E+06
C:/temp/Job-9.odb,Step-1,Increment      1: Step Time =    1.000,"P-9-1",            79,            0.,           50.,            0.,NA,NA,"",   854.947E+03,   959.278E+03,   959.278E+03
C:/temp/Job-9.odb,Step-1,Increment      1: Step Time =    1.000,"P-9-1",            80,            0.,           60.,            0.,NA,NA,"",   818.588E+03,   920.960E+03,   920.960E+03
C:/temp/Job-9.odb,Step-1,Increment      1: Step Time =    1.000,"P-9-1",            81,            0.,           70.,            0.,NA,NA,"",   786.275E+03,   886.197E+03,   886.197E+03
C:/temp/Job-9.odb,Step-1,Increment      1: Step Time =    1.000,"P-9-1",            82,            0.,           80.,            0.,NA,NA,"",   759.644E+03,   857.233E+03,   857.233E+03
C:/temp/Job-9.odb,Step-1,Increment      1: Step Time =    1.000,"P-9-1",            83,            0.,           90.,            0.,NA,NA,"",   741.920E+03,   837.886E+03,   837.886E+03
C:/temp/Job-9.odb,Step-1,Increment      1: Step Time =    1.000,"P-9-1",            84,            0.,          100.,            0.,NA,NA,"",   735.541E+03,   830.932E+03,   830.932E+03
C:/temp/Job-9.odb,Step-1,Increment      1: Step Time =    1.000,"P-9-1",            85,            0.,          110.,            0.,NA,NA,"",   741.729E+03,   837.708E+03,   837.708E+03
C:/temp/Job-9.odb,Step-1,Increment      1: Step Time =    1.000,"P-9-1",            86,            0.,          120.,            0.,NA,NA,"",   759.343E+03,   856.927E+03,   856.927E+03
C:/temp/Job-9.odb,Step-1,Increment      1: Step Time =    1.000,"P-9-1",            87,            0.,          130.,            0.,NA,NA,"",   785.777E+03,   885.539E+03,   885.539E+03
C:/temp/Job-9.odb,Step-1,Increment      1: Step Time =    1.000,"P-9-1",            88,            0.,          140.,            0.,NA,NA,"",   820.594E+03,   921.893E+03,   921.893E+03
C:/temp/Job-9.odb,Step-1,Increment      1: Step Time =    1.000,"P-9-1",            89,            0.,          150.,            0.,NA,NA,"",   856.633E+03,   960.783E+03,   960.783E+03
C:/temp/Job-9.odb,Step-1,Increment      1: Step Time =    1.000,"P-9-1",            90,            0.,          160.,            0.,NA,NA,"",   893.987E+03,   1.00087E+06,   1.00087E+06
C:/temp/Job-9.odb,Step-1,Increment      1: Step Time =    1.000,"P-9-1",            91,            0.,          170.,            0.,NA,NA,"",   943.742E+03,   1.05109E+06,   1.05109E+06
C:/temp/Job-9.odb,Step-1,Increment      1: Step Time =    1.000,"P-9-1",            92,            0.,          180.,            0.,NA,NA,"",   1.02012E+06,   1.12716E+06,   1.12716E+06
C:/temp/Job-9.odb,Step-1,Increment      1: Step Time =    1.000,"P-9-1",            93,            0.,          190.,            0.,NA,NA,"",   1.17373E+06,   1.27800E+06,   1.27800E+06
C:/temp/Job-9.odb,Step-1,Increment      1: Step Time =    1.000,"P-9-1",            94,       190.281,       125.058,            0.,NA,NA,"",   959.227E+03,   998.747E+03,   998.747E+03
C:/temp/Job-9.odb,Step-1,Increment      1: Step Time =    1.000,"P-9-1",            95,       180.182,       126.059,            0.,NA,NA,"",   974.841E+03,   997.486E+03,   997.486E+03
C:/temp/Job-9.odb,Step-1,Increment      1: Step Time =    1.000,"P-9-1",            96,       168.783,       125.575,            0.,NA,NA,"",   989.421E+03,   994.255E+03,   994.255E+03
C:/temp/Job-9.odb,Step-1,Increment      1: Step Time =    1.000,"P-9-1",            97,       158.394,       126.472,            0.,NA,NA,"",   1.01886E+06,   1.00323E+06,   1.00323E+06
C:/temp/Job-9.odb,Step-1,Increment      1: Step Time =    1.000,"P-9-1",            98,       149.558,       125.249,            0.,NA,NA,"",   1.05434E+06,   1.01655E+06,   1.01655E+06
C:/temp/Job-9.odb,Step-1,Increment      1: Step Time =    1.000,"P-9-1",            99,       136.431,       127.898,            0.,NA,NA,"",   1.19567E+06,   1.11556E+06,   1.11556E+06
C:/temp/Job-9.odb,Step-1,Increment      1: Step Time =    1.000,"P-9-1",           100,       127.300,       125.603,            0.,NA,NA,"",   1.29665E+06,   1.19729E+06,   1.19729E+06
C:/temp/Job-9.odb,Step-1,Increment      1: Step Time =    1.000,"P-9-1",           101,       117.013,       128.198,            0.,NA,NA,"",   1.37425E+06,   1.34808E+06,   1.34808E+06
C:/temp/Job-9.odb,Step-1,Increment      1: Step Time =    1.000,"P-9-1",           102,       104.344,       128.452,            0.,NA,NA,"",   1.30218E+06,   1.42441E+06,   1.42441E+06
C:/temp/Job-9.odb,Step-1,Increment      1: Step Time =    1.000,"P-9-1",           103,       92.6337,       129.024,            0.,NA,NA,"",   1.31581E+06,   1.41273E+06,   1.41273E+06
C:/temp/Job-9.odb,Step-1,Increment      1: Step Time =    1.000,"P-9-1",           104,       82.8512,       126.190,            0.,NA,NA,"",   1.37135E+06,   1.34361E+06,   1.34361E+06
C:/temp/Job-9.odb,Step-1,Increment      1: Step Time =    1.000,"P-9-1",           105,       76.6947,       127.988,            0.,NA,NA,"",   1.30313E+06,   1.24749E+06,   1.24749E+06
C:/temp/Job-9.odb,Step-1,Increment      1: Step Time =    1.000,"P-9-1",           106,       61.9816,       124.706,            0.,NA,NA,"",   1.07480E+06,   1.03741E+06,   1.03741E+06
C:/temp/Job-9.odb,Step-1,Increment      1: Step Time =    1.000,"P-9-1",           107,       51.0425,       126.198,            0.,NA,NA,"",   962.777E+03,   973.642E+03,   973.642E+03
C:/temp/Job-9.odb,Step-1,Increment      1: Step Time =    1.000,"P-9-1",           108,       40.6171,       126.338,            0.,NA,NA,"",   897.458E+03,   939.095E+03,   939.095E+03
C:/temp/Job-9.odb,Step-1,Increment      1: Step Time =    1.000,"P-9-1",           109,       31.5778,       128.264,            0.,NA,NA,"",   871.654E+03,   931.857E+03,   931.857E+03
C:/temp/Job-9.odb,Step-1,Increment      1: Step Time =    1.000,"P-9-1",           110,       19.2350,       124.071,            0.,NA,NA,"",   808.588E+03,   891.273E+03,   891.273E+03
C:/temp/Job-9.odb,Step-1,Increment      1: Step Time =    1.000,"P-9-1",           111,       9.43177,       124.206,            0.,NA,NA,"",   784.283E+03,   877.620E+03,   877.620E+03
C:/temp/Job-9.odb,Step-1,Increment      1: Step Time =    1.000,"P-9-1",           112,       9.62312,       114.694,            0.,NA,NA,"",   757.629E+03,   850.695E+03,   850.695E+03
C:/temp/Job-9.odb,Step-1,Increment      1: Step Time =    1.000,"P-9-1",           113,       19.9274,       114.601,            0.,NA,NA,"",   771.263E+03,   856.102E+03,   856.102E+03
C:/temp/Job-9.odb,Step-1,Increment      1: Step Time =    1.000,"P-9-1",           114,       30.7751,       115.021,            0.,NA,NA,"",   787.464E+03,   859.726E+03,   859.726E+03
C:/temp/Job-9.odb,Step-1,Increment      1: Step Time =    1.000,"P-9-1",           115,       41.4880,       118.693,            0.,NA,NA,"",   832.794E+03,   882.427E+03,   882.427E+03
C:/temp/Job-9.odb,Step-1,Increment      1: Step Time =    1.000,"P-9-1",           116,       52.9918,       115.451,            0.,NA,NA,"",   825.364E+03,   849.729E+03,   849.729E+03
C:/temp/Job-9.odb,Step-1,Increment      1: Step Time =    1.000,"P-9-1",           117,       64.5027,       112.811,            0.,NA,NA,"",   814.154E+03,   790.573E+03,   790.573E+03
C:/temp/Job-9.odb,Step-1,Increment      1: Step Time =    1.000,"P-9-1",           118,       73.3641,       115.795,            0.,NA,NA,"",   1.08965E+06,   972.740E+03,   972.740E+03
C:/temp/Job-9.odb,Step-1,Increment      1: Step Time =    1.000,"P-9-1",           119,       83.9337,       114.919,            0.,NA,NA,"",   1.15530E+06,   1.07248E+06,   1.07248E+06
C:/temp/Job-9.odb,Step-1,Increment      1: Step Time =    1.000,"P-9-1",           120,       112.269,       119.510,            0.,NA,NA,"",   1.52012E+06,   1.52899E+06,   1.52899E+06
C:/temp/Job-9.odb,Step-1,Increment      1: Step Time =    1.000,"P-9-1",           121,       125.375,       116.035,            0.,NA,NA,"",   1.20931E+06,   1.04994E+06,   1.04994E+06
C:/temp/Job-9.odb,Step-1,Increment      1: Step Time =    1.000,"P-9-1",           122,       136.712,       117.938,            0.,NA,NA,"",   1.05115E+06,   970.891E+03,   970.891E+03
C:/temp/Job-9.odb,Step-1,Increment      1: Step Time =    1.000,"P-9-1",           123,       146.278,       114.055,            0.,NA,NA,"",   901.871E+03,   882.058E+03,   882.058E+03
C:/temp/Job-9.odb,Step-1,Increment      1: Step Time =    1.000,"P-9-1",           124,       157.835,       116.830,            0.,NA,NA,"",   944.627E+03,   942.452E+03,   942.452E+03
C:/temp/Job-9.odb,Step-1,Increment      1: Step Time =    1.000,"P-9-1",           125,       168.466,       118.577,            0.,NA,NA,"",   958.653E+03,   970.414E+03,   970.414E+03
C:/temp/Job-9.odb,Step-1,Increment      1: Step Time =    1.000,"P-9-1",           126,       179.108,       115.302,            0.,NA,NA,"",   948.412E+03,   978.961E+03,   978.961E+03
C:/temp/Job-9.odb,Step-1,Increment      1: Step Time =    1.000,"P-9-1",           127,       189.827,       115.111,            0.,NA,NA,"",   945.895E+03,   993.892E+03,   993.892E+03
C:/temp/Job-9.odb,Step-1,Increment      1: Step Time =    1.000,"P-9-1",           128,       126.714,       105.693,            0.,NA,NA,"",   589.145E+03,   483.298E+03,   483.298E+03
C:/temp/Job-9.odb,Step-1,Increment      1: Step Time =    1.000,"P-9-1",           129,       135.467,       108.472,            0.,NA,NA,"",   749.896E+03,   713.295E+03,   713.295E+03
C:/temp/Job-9.odb,Step-1,Increment      1: Step Time =    1.000,"P-9-1",           130,       144.158,       104.938,            0.,NA,NA,"",   743.383E+03,   750.573E+03,   750.573E+03
C:/temp/Job-9.odb,Step-1,Increment      1: Step Time =    1.000,"P-9-1",           131,       157.298,       103.727,            0.,NA,NA,"",   843.162E+03,   861.936E+03,   861.936E+03
C:/temp/Job-9.odb,Step-1,Increment      1: Step Time =    1.000,"P-9-1",           132,       165.911,       105.301,            0.,NA,NA,"",   892.265E+03,   915.495E+03,   915.495E+03
C:/temp/Job-9.odb,Step-1,Increment      1: Step Time =    1.000,"P-9-1",           133,       179.691,       104.719,            0.,NA,NA,"",   928.837E+03,   966.178E+03,   966.178E+03
C:/temp/Job-9.odb,Step-1,Increment      1: Step Time =    1.000,"P-9-1",           134,       189.783,       104.982,            0.,NA,NA,"",   936.647E+03,   989.962E+03,   989.962E+03
C:/temp/Job-9.odb,Step-1,Increment      1: Step Time =    1.000,"P-9-1",           135,       126.039,       95.3629,            0.,NA,NA,"",   507.459E+03,   230.995E+03,   230.995E+03
C:/temp/Job-9.odb,Step-1,Increment      1: Step Time =    1.000,"P-9-1",           136,       137.071,       92.2084,            0.,NA,NA,"",   739.450E+03,   713.662E+03,   713.662E+03
C:/temp/Job-9.odb,Step-1,Increment      1: Step Time =    1.000,"P-9-1",           137,       147.026,       95.7198,            0.,NA,NA,"",   755.407E+03,   768.410E+03,   768.410E+03
C:/temp/Job-9.odb,Step-1,Increment      1: Step Time =    1.000,"P-9-1",           138,       156.746,       94.4632,            0.,NA,NA,"",   849.991E+03,   866.661E+03,   866.661E+03
C:/temp/Job-9.odb,Step-1,Increment      1: Step Time =    1.000,"P-9-1",           139,       168.243,       94.9489,            0.,NA,NA,"",   902.417E+03,   927.457E+03,   927.457E+03
C:/temp/Job-9.odb,Step-1,Increment      1: Step Time =    1.000,"P-9-1",           140,       179.493,       94.7557,            0.,NA,NA,"",   930.999E+03,   967.882E+03,   967.882E+03
C:/temp/Job-9.odb,Step-1,Increment      1: Step Time =    1.000,"P-9-1",           141,       189.792,       94.8849,            0.,NA,NA,"",   937.107E+03,   990.332E+03,   990.332E+03
C:/temp/Job-9.odb,Step-1,Increment      1: Step Time =    1.000,"P-9-1",           142,       115.443,       84.9339,            0.,NA,NA,"",   1.27513E+06,   1.19410E+06,   1.19410E+06
C:/temp/Job-9.odb,Step-1,Increment      1: Step Time =    1.000,"P-9-1",           143,       128.156,       81.4093,            0.,NA,NA,"",   1.20771E+06,   1.07679E+06,   1.07679E+06
C:/temp/Job-9.odb,Step-1,Increment      1: Step Time =    1.000,"P-9-1",           144,       139.354,       78.7901,            0.,NA,NA,"",   1.08588E+06,   1.01663E+06,   1.01663E+06
C:/temp/Job-9.odb,Step-1,Increment      1: Step Time =    1.000,"P-9-1",           145,       149.659,       82.5635,            0.,NA,NA,"",   962.291E+03,   940.284E+03,   940.284E+03
C:/temp/Job-9.odb,Step-1,Increment      1: Step Time =    1.000,"P-9-1",           146,       159.660,       85.4970,            0.,NA,NA,"",   926.546E+03,   931.427E+03,   931.427E+03
C:/temp/Job-9.odb,Step-1,Increment      1: Step Time =    1.000,"P-9-1",           147,       169.091,       84.3164,            0.,NA,NA,"",   943.713E+03,   960.294E+03,   960.294E+03
C:/temp/Job-9.odb,Step-1,Increment      1: Step Time =    1.000,"P-9-1",           148,       179.386,       84.5924,            0.,NA,NA,"",   949.037E+03,   979.738E+03,   979.738E+03
C:/temp/Job-9.odb,Step-1,Increment      1: Step Time =    1.000,"P-9-1",           149,       189.757,       84.8268,            0.,NA,NA,"",   946.196E+03,   993.933E+03,   993.933E+03
C:/temp/Job-9.odb,Step-1,Increment      1: Step Time =    1.000,"P-9-1",           150,       96.5621,       73.2342,            0.,NA,NA,"",   1.38438E+06,   1.51493E+06,   1.51493E+06
C:/temp/Job-9.odb,Step-1,Increment      1: Step Time =    1.000,"P-9-1",           151,       9.23364,       75.2894,            0.,NA,NA,"",   785.954E+03,   879.398E+03,   879.398E+03
C:/temp/Job-9.odb,Step-1,Increment      1: Step Time =    1.000,"P-9-1",           152,       17.8177,       75.2342,            0.,NA,NA,"",   806.599E+03,   891.029E+03,   891.029E+03
C:/temp/Job-9.odb,Step-1,Increment      1: Step Time =    1.000,"P-9-1",           153,       29.9287,       74.5092,            0.,NA,NA,"",   847.706E+03,   913.167E+03,   913.167E+03
C:/temp/Job-9.odb,Step-1,Increment      1: Step Time =    1.000,"P-9-1",           154,       41.0396,       73.9219,            0.,NA,NA,"",   897.193E+03,   938.334E+03,   938.334E+03
C:/temp/Job-9.odb,Step-1,Increment      1: Step Time =    1.000,"P-9-1",           155,       54.6437,       73.3716,            0.,NA,NA,"",   1.00546E+06,   1.00061E+06,   1.00061E+06
C:/temp/Job-9.odb,Step-1,Increment      1: Step Time =    1.000,"P-9-1",           156,       64.6372,       74.9313,            0.,NA,NA,"",   1.11866E+06,   1.07001E+06,   1.07001E+06
C:/temp/Job-9.odb,Step-1,Increment      1: Step Time =    1.000,"P-9-1",           157,       71.8614,       71.3980,            0.,NA,NA,"",   1.24201E+06,   1.18431E+06,   1.18431E+06
C:/temp/Job-9.odb,Step-1,Increment      1: Step Time =    1.000,"P-9-1",           158,       85.6336,       71.5941,            0.,NA,NA,"",   1.33710E+06,   1.35660E+06,   1.35660E+06
C:/temp/Job-9.odb,Step-1,Increment      1: Step Time =    1.000,"P-9-1",           159,       105.866,       73.7659,            0.,NA,NA,"",   1.40421E+06,   1.52070E+06,   1.52070E+06
C:/temp/Job-9.odb,Step-1,Increment      1: Step Time =    1.000,"P-9-1",           160,       116.604,       74.6684,            0.,NA,NA,"",   1.39514E+06,   1.36061E+06,   1.36061E+06
C:/temp/Job-9.odb,Step-1,Increment      1: Step Time =    1.000,"P-9-1",           161,       125.549,       73.2441,            0.,NA,NA,"",   1.32085E+06,   1.22607E+06,   1.22607E+06
C:/temp/Job-9.odb,Step-1,Increment      1: Step Time =    1.000,"P-9-1",           162,       139.069,       72.3559,            0.,NA,NA,"",   1.15564E+06,   1.08519E+06,   1.08519E+06
C:/temp/Job-9.odb,Step-1,Increment      1: Step Time =    1.000,"P-9-1",           163,       150.453,       69.7540,            0.,NA,NA,"",   1.08492E+06,   1.04727E+06,   1.04727E+06
C:/temp/Job-9.odb,Step-1,Increment      1: Step Time =    1.000,"P-9-1",           164,       157.327,       72.0774,            0.,NA,NA,"",   1.03531E+06,   1.01451E+06,   1.01451E+06
C:/temp/Job-9.odb,Step-1,Increment      1: Step Time =    1.000,"P-9-1",           165,       168.387,       74.2979,            0.,NA,NA,"",   990.765E+03,   994.800E+03,   994.800E+03
C:/temp/Job-9.odb,Step-1,Increment      1: Step Time =    1.000,"P-9-1",           166,       179.292,       74.6265,            0.,NA,NA,"",   974.113E+03,   995.995E+03,   995.995E+03
C:/temp/Job-9.odb,Step-1,Increment      1: Step Time =    1.000,"P-9-1",           167,       189.734,       74.8519,            0.,NA,NA,"",   960.265E+03,   998.743E+03,   998.743E+03
C:/temp/Job-9.odb,Step-1,Increment      1: Step Time =    1.000,"P-9-1",           168,       84.7415,       83.8849,            0.,NA,NA,"",   1.26422E+06,   1.21232E+06,   1.21232E+06
C:/temp/Job-9.odb,Step-1,Increment      1: Step Time =    1.000,"P-9-1",           169,       71.9327,       83.1475,            0.,NA,NA,"",   1.10906E+06,   1.00664E+06,   1.00664E+06
C:/temp/Job-9.odb,Step-1,Increment      1: Step Time =    1.000,"P-9-1",           170,       62.3389,       80.5606,            0.,NA,NA,"",   990.177E+03,   956.545E+03,   956.545E+03
C:/temp/Job-9.odb,Step-1,Increment      1: Step Time =    1.000,"P-9-1",           171,       51.2409,       88.0200,            0.,NA,NA,"",   767.986E+03,   807.646E+03,   807.646E+03
C:/temp/Job-9.odb,Step-1,Increment      1: Step Time =    1.000,"P-9-1",           172,       42.1880,       87.0600,            0.,NA,NA,"",   779.942E+03,   836.498E+03,   836.498E+03
C:/temp/Job-9.odb,Step-1,Increment      1: Step Time =    1.000,"P-9-1",           173,       29.0505,       81.8787,            0.,NA,NA,"",   801.091E+03,   873.626E+03,   873.626E+03
C:/temp/Job-9.odb,Step-1,Increment      1: Step Time =    1.000,"P-9-1",           174,       19.1726,       84.4311,            0.,NA,NA,"",   772.842E+03,   858.488E+03,   858.488E+03
C:/temp/Job-9.odb,Step-1,Increment      1: Step Time =    1.000,"P-9-1",           175,       9.63949,       85.0469,            0.,NA,NA,"",   758.175E+03,   851.257E+03,   851.257E+03
C:/temp/Job-9.odb,Step-1,Increment      1: Step Time =    1.000,"P-9-1",           176,       71.5518,       97.2462,            0.,NA,NA,"",   393.882E+03,   381.172E+03,   381.172E+03
C:/temp/Job-9.odb,Step-1,Increment      1: Step Time =    1.000,"P-9-1",           177,       62.2549,       97.6880,            0.,NA,NA,"",   548.509E+03,   588.023E+03,   588.023E+03
C:/temp/Job-9.odb,Step-1,Increment      1: Step Time =    1.000,"P-9-1",           178,       54.5637,       98.7219,            0.,NA,NA,"",   637.713E+03,   690.288E+03,   690.288E+03
C:/temp/Job-9.odb,Step-1,Increment      1: Step Time =    1.000,"P-9-1",           179,       44.7568,       94.3161,            0.,NA,NA,"",   724.120E+03,   785.226E+03,   785.226E+03
C:/temp/Job-9.odb,Step-1,Increment      1: Step Time =    1.000,"P-9-1",           180,       30.8520,       94.4247,            0.,NA,NA,"",   750.312E+03,   826.739E+03,   826.739E+03
C:/temp/Job-9.odb,Step-1,Increment      1: Step Time =    1.000,"P-9-1",           181,       19.9327,       94.6348,            0.,NA,NA,"",   749.800E+03,   836.385E+03,   836.385E+03
C:/temp/Job-9.odb,Step-1,Increment      1: Step Time =    1.000,"P-9-1",           182,       9.89565,       94.9079,            0.,NA,NA,"",   742.526E+03,   835.401E+03,   835.401E+03
C:/temp/Job-9.odb,Step-1,Increment      1: Step Time =    1.000,"P-9-1",           183,       71.5819,       105.625,            0.,NA,NA,"",   545.008E+03,   495.701E+03,   495.701E+03
C:/temp/Job-9.odb,Step-1,Increment      1: Step Time =    1.000,"P-9-1",           184,       62.3158,       105.351,            0.,NA,NA,"",   602.360E+03,   631.003E+03,   631.003E+03
C:/temp/Job-9.odb,Step-1,Increment      1: Step Time =    1.000,"P-9-1",           185,       53.7067,       103.701,            0.,NA,NA,"",   659.059E+03,   710.513E+03,   710.513E+03
C:/temp/Job-9.odb,Step-1,Increment      1: Step Time =    1.000,"P-9-1",           186,       44.0671,       103.938,            0.,NA,NA,"",   715.229E+03,   778.240E+03,   778.240E+03
C:/temp/Job-9.odb,Step-1,Increment      1: Step Time =    1.000,"P-9-1",           187,       28.5713,       105.692,            0.,NA,NA,"",   750.942E+03,   829.758E+03,   829.758E+03
C:/temp/Job-9.odb,Step-1,Increment      1: Step Time =    1.000,"P-9-1",           188,       19.5291,       104.895,            0.,NA,NA,"",   748.169E+03,   835.005E+03,   835.005E+03
C:/temp/Job-9.odb,Step-1,Increment      1: Step Time =    1.000,"P-9-1",           189,       9.79578,       104.850,            0.,NA,NA,"",   741.967E+03,   834.863E+03,   834.863E+03
C:/temp/Job-9.odb,Step-1,Increment      1: Step Time =    1.000,"P-9-1",           190,       190.235,       10.3585,            0.,NA,NA,"",   1.00030E+06,   1.00046E+06,   1.00046E+06
C:/temp/Job-9.odb,Step-1,Increment      1: Step Time =    1.000,"P-9-1",           191,       179.309,       12.0242,            0.,NA,NA,"",   1.00281E+06,   1.00270E+06,   1.00270E+06
C:/temp/Job-9.odb,Step-1,Increment      1: Step Time =    1.000,"P-9-1",           192,       168.946,       10.1865,            0.,NA,NA,"",   1.00371E+06,   1.00288E+06,   1.00288E+06
C:/temp/Job-9.odb,Step-1,Increment      1: Step Time =    1.000,"P-9-1",           193,       158.145,       11.3241,            0.,NA,NA,"",   1.00513E+06,   1.00325E+06,   1.00325E+06
C:/temp/Job-9.odb,Step-1,Increment      1: Step Time =    1.000,"P-9-1",           194,       147.995,       11.9848,            0.,NA,NA,"",   1.00243E+06,   1.00011E+06,   1.00011E+06
C:/temp/Job-9.odb,Step-1,Increment      1: Step Time =    1.000,"P-9-1",           195,       134.727,       9.16763,            0.,NA,NA,"",   981.606E+03,   980.669E+03,   980.669E+03
C:/temp/Job-9.odb,Step-1,Increment      1: Step Time =    1.000,"P-9-1",           196,       124.849,       9.79670,            0.,NA,NA,"",   968.763E+03,   969.161E+03,   969.161E+03
C:/temp/Job-9.odb,Step-1,Increment      1: Step Time =    1.000,"P-9-1",           197,       114.750,       10.2143,            0.,NA,NA,"",   956.505E+03,   958.798E+03,   958.798E+03
C:/temp/Job-9.odb,Step-1,Increment      1: Step Time =    1.000,"P-9-1",           198,       104.710,       10.1344,            0.,NA,NA,"",   949.198E+03,   952.575E+03,   952.575E+03
C:/temp/Job-9.odb,Step-1,Increment      1: Step Time =    1.000,"P-9-1",           199,       94.8004,       9.72977,            0.,NA,NA,"",   950.200E+03,   953.358E+03,   953.358E+03
C:/temp/Job-9.odb,Step-1,Increment      1: Step Time =    1.000,"P-9-1",           200,       85.0520,       9.32971,            0.,NA,NA,"",   960.962E+03,   962.931E+03,   962.931E+03
C:/temp/Job-9.odb,Step-1,Increment      1: Step Time =    1.000,"P-9-1",           201,       75.6062,       9.19811,            0.,NA,NA,"",   979.067E+03,   979.818E+03,   979.818E+03
C:/temp/Job-9.odb,Step-1,Increment      1: Step Time =    1.000,"P-9-1",           202,       66.4907,       9.96252,            0.,NA,NA,"",   1.00363E+06,   1.00353E+06,   1.00353E+06
C:/temp/Job-9.odb,Step-1,Increment      1: Step Time =    1.000,"P-9-1",           203,       51.6287,       11.9823,            0.,NA,NA,"",   1.04682E+06,   1.04606E+06,   1.04606E+06
C:/temp/Job-9.odb,Step-1,Increment      1: Step Time =    1.000,"P-9-1",           204,       39.1104,       9.54700,            0.,NA,NA,"",   1.06963E+06,   1.07131E+06,   1.07131E+06
C:/temp/Job-9.odb,Step-1,Increment      1: Step Time =    1.000,"P-9-1",           205,       29.8782,       9.52481,            0.,NA,NA,"",   1.10201E+06,   1.10694E+06,   1.10694E+06
C:/temp/Job-9.odb,Step-1,Increment      1: Step Time =    1.000,"P-9-1",           206,       19.8136,       10.5126,            0.,NA,NA,"",   1.15433E+06,   1.17013E+06,   1.17013E+06
C:/temp/Job-9.odb,Step-1,Increment      1: Step Time =    1.000,"P-9-1",           207,       9.76342,       9.72199,            0.,NA,NA,"",   1.24207E+06,   1.28395E+06,   1.28395E+06
C:/temp/Job-9.odb,Step-1,Increment      1: Step Time =    1.000,"P-9-1",           208,       191.536,       24.9347,            0.,NA,NA,"",   1.00041E+06,   1.00193E+06,   1.00193E+06
C:/temp/Job-9.odb,Step-1,Increment      1: Step Time =    1.000,"P-9-1",           209,       179.421,       23.0610,            0.,NA,NA,"",   1.00821E+06,   1.00804E+06,   1.00804E+06
C:/temp/Job-9.odb,Step-1,Increment      1: Step Time =    1.000,"P-9-1",           210,       169.418,       23.4151,            0.,NA,NA,"",   1.01820E+06,   1.01515E+06,   1.01515E+06
C:/temp/Job-9.odb,Step-1,Increment      1: Step Time =    1.000,"P-9-1",           211,       160.607,       21.0699,            0.,NA,NA,"",   1.02239E+06,   1.01757E+06,   1.01757E+06
C:/temp/Job-9.odb,Step-1,Increment      1: Step Time =    1.000,"P-9-1",           212,       144.444,       18.7332,            0.,NA,NA,"",   1.01974E+06,   1.01477E+06,   1.01477E+06
C:/temp/Job-9.odb,Step-1,Increment      1: Step Time =    1.000,"P-9-1",           213,       134.731,       17.6588,            0.,NA,NA,"",   1.01191E+06,   1.00891E+06,   1.00891E+06
C:/temp/Job-9.odb,Step-1,Increment      1: Step Time =    1.000,"P-9-1",           214,       125.350,       19.9700,            0.,NA,NA,"",   1.00854E+06,   1.00946E+06,   1.00946E+06
C:/temp/Job-9.odb,Step-1,Increment      1: Step Time =    1.000,"P-9-1",           215,       114.331,       20.6348,            0.,NA,NA,"",   996.444E+03,   1.00447E+06,   1.00447E+06
C:/temp/Job-9.odb,Step-1,Increment      1: Step Time =    1.000,"P-9-1",           216,       103.706,       20.7901,            0.,NA,NA,"",   988.964E+03,   1.00074E+06,   1.00074E+06
C:/temp/Job-9.odb,Step-1,Increment      1: Step Time =    1.000,"P-9-1",           217,       93.8489,       19.2887,            0.,NA,NA,"",   990.202E+03,   999.930E+03,   999.930E+03
C:/temp/Job-9.odb,Step-1,Increment      1: Step Time =    1.000,"P-9-1",           218,       84.6751,       18.6291,            0.,NA,NA,"",   1.00128E+06,   1.00783E+06,   1.00783E+06
C:/temp/Job-9.odb,Step-1,Increment      1: Step Time =    1.000,"P-9-1",           219,       75.9610,       18.4955,            0.,NA,NA,"",   1.01934E+06,   1.02200E+06,   1.02200E+06
C:/temp/Job-9.odb,Step-1,Increment      1: Step Time =    1.000,"P-9-1",           220,       66.4682,       21.2668,            0.,NA,NA,"",   1.04934E+06,   1.04895E+06,   1.04895E+06
C:/temp/Job-9.odb,Step-1,Increment      1: Step Time =    1.000,"P-9-1",           221,       53.7695,       21.8655,            0.,NA,NA,"",   1.07311E+06,   1.07208E+06,   1.07208E+06
C:/temp/Job-9.odb,Step-1,Increment      1: Step Time =    1.000,"P-9-1",           222,       41.2731,       20.0568,            0.,NA,NA,"",   1.08601E+06,   1.09082E+06,   1.09082E+06
C:/temp/Job-9.odb,Step-1,Increment      1: Step Time =    1.000,"P-9-1",           223,       33.5076,       23.4475,            0.,NA,NA,"",   1.09172E+06,   1.10764E+06,   1.10764E+06
C:/temp/Job-9.odb,Step-1,Increment      1: Step Time =    1.000,"P-9-1",           224,       19.3433,       19.2754,            0.,NA,NA,"",   1.10835E+06,   1.14762E+06,   1.14762E+06
C:/temp/Job-9.odb,Step-1,Increment      1: Step Time =    1.000,"P-9-1",           225,       11.0107,       20.0991,            0.,NA,NA,"",   1.08001E+06,   1.15108E+06,   1.15108E+06
C:/temp/Job-9.odb,Step-1,Increment      1: Step Time =    1.000,"P-9-1",           226,       191.199,       34.2485,            0.,NA,NA,"",   998.895E+03,   1.00321E+06,   1.00321E+06
C:/temp/Job-9.odb,Step-1,Increment      1: Step Time =    1.000,"P-9-1",           227,       182.010,       31.9136,            0.,NA,NA,"",   1.00834E+06,   1.00976E+06,   1.00976E+06
C:/temp/Job-9.odb,Step-1,Increment      1: Step Time =    1.000,"P-9-1",           228,       173.483,       32.1089,            0.,NA,NA,"",   1.02184E+06,   1.01921E+06,   1.01921E+06
C:/temp/Job-9.odb,Step-1,Increment      1: Step Time =    1.000,"P-9-1",           229,       159.303,       30.8934,            0.,NA,NA,"",   1.04431E+06,   1.03479E+06,   1.03479E+06
C:/temp/Job-9.odb,Step-1,Increment      1: Step Time =    1.000,"P-9-1",           230,       144.923,       31.8056,            0.,NA,NA,"",   1.06501E+06,   1.05195E+06,   1.05195E+06
C:/temp/Job-9.odb,Step-1,Increment      1: Step Time =    1.000,"P-9-1",           231,       136.224,       32.4535,            0.,NA,NA,"",   1.07102E+06,   1.06054E+06,   1.06054E+06
C:/temp/Job-9.odb,Step-1,Increment      1: Step Time =    1.000,"P-9-1",           232,       123.690,       31.6695,            0.,NA,NA,"",   1.05346E+06,   1.05639E+06,   1.05639E+06
C:/temp/Job-9.odb,Step-1,Increment      1: Step Time =    1.000,"P-9-1",           233,       118.123,       32.7127,            0.,NA,NA,"",   1.04540E+06,   1.05692E+06,   1.05692E+06
C:/temp/Job-9.odb,Step-1,Increment      1: Step Time =    1.000,"P-9-1",           234,       103.547,       33.0972,            0.,NA,NA,"",   1.02089E+06,   1.04755E+06,   1.04755E+06
C:/temp/Job-9.odb,Step-1,Increment      1: Step Time =    1.000,"P-9-1",           235,       93.5910,       31.6173,            0.,NA,NA,"",   1.02499E+06,   1.04839E+06,   1.04839E+06
C:/temp/Job-9.odb,Step-1,Increment      1: Step Time =    1.000,"P-9-1",           236,       76.5287,       29.3080,            0.,NA,NA,"",   1.05715E+06,   1.06361E+06,   1.06361E+06
C:/temp/Job-9.odb,Step-1,Increment      1: Step Time =    1.000,"P-9-1",           237,       64.9940,       32.4790,            0.,NA,NA,"",   1.09126E+06,   1.08937E+06,   1.08937E+06
C:/temp/Job-9.odb,Step-1,Increment      1: Step Time =    1.000,"P-9-1",           238,       50.8457,       31.3846,            0.,NA,NA,"",   1.09123E+06,   1.09235E+06,   1.09235E+06
C:/temp/Job-9.odb,Step-1,Increment      1: Step Time =    1.000,"P-9-1",           239,       42.1904,       29.5982,            0.,NA,NA,"",   1.08671E+06,   1.09578E+06,   1.09578E+06
C:/temp/Job-9.odb,Step-1,Increment      1: Step Time =    1.000,"P-9-1",           240,       33.1373,       31.6838,            0.,NA,NA,"",   1.07063E+06,   1.09574E+06,   1.09574E+06
C:/temp/Job-9.odb,Step-1,Increment      1: Step Time =    1.000,"P-9-1",           241,       24.5923,       31.4005,            0.,NA,NA,"",   1.04974E+06,   1.09376E+06,   1.09376E+06
C:/temp/Job-9.odb,Step-1,Increment      1: Step Time =    1.000,"P-9-1",           242,       10.0623,       35.3326,            0.,NA,NA,"",   959.468E+03,   1.04795E+06,   1.04795E+06
C:/temp/Job-9.odb,Step-1,Increment      1: Step Time =    1.000,"P-9-1",           243,       190.354,       43.5539,            0.,NA,NA,"",   995.704E+03,   1.00481E+06,   1.00481E+06
C:/temp/Job-9.odb,Step-1,Increment      1: Step Time =    1.000,"P-9-1",           244,       176.895,       41.4043,            0.,NA,NA,"",   1.02079E+06,   1.02036E+06,   1.02036E+06
C:/temp/Job-9.odb,Step-1,Increment      1: Step Time =    1.000,"P-9-1",           245,       170.866,       43.8863,            0.,NA,NA,"",   1.03576E+06,   1.03045E+06,   1.03045E+06
C:/temp/Job-9.odb,Step-1,Increment      1: Step Time =    1.000,"P-9-1",           246,       162.073,       39.2608,            0.,NA,NA,"",   1.05414E+06,   1.04240E+06,   1.04240E+06
C:/temp/Job-9.odb,Step-1,Increment      1: Step Time =    1.000,"P-9-1",           247,       143.325,       41.7592,            0.,NA,NA,"",   1.10518E+06,   1.08285E+06,   1.08285E+06
C:/temp/Job-9.odb,Step-1,Increment      1: Step Time =    1.000,"P-9-1",           248,       138.753,       42.3635,            0.,NA,NA,"",   1.11445E+06,   1.09289E+06,   1.09289E+06
C:/temp/Job-9.odb,Step-1,Increment      1: Step Time =    1.000,"P-9-1",           249,       126.617,       44.2601,            0.,NA,NA,"",   1.12099E+06,   1.11362E+06,   1.11362E+06
C:/temp/Job-9.odb,Step-1,Increment      1: Step Time =    1.000,"P-9-1",           250,       117.884,       41.8765,            0.,NA,NA,"",   1.08109E+06,   1.09630E+06,   1.09630E+06
C:/temp/Job-9.odb,Step-1,Increment      1: Step Time =    1.000,"P-9-1",           251,       104.414,       43.6818,            0.,NA,NA,"",   1.04582E+06,   1.08922E+06,   1.08922E+06
C:/temp/Job-9.odb,Step-1,Increment      1: Step Time =    1.000,"P-9-1",           252,       93.4385,       41.6113,            0.,NA,NA,"",   1.04859E+06,   1.08636E+06,   1.08636E+06
C:/temp/Job-9.odb,Step-1,Increment      1: Step Time =    1.000,"P-9-1",           253,       84.0843,       38.7346,            0.,NA,NA,"",   1.06900E+06,   1.08949E+06,   1.08949E+06
C:/temp/Job-9.odb,Step-1,Increment      1: Step Time =    1.000,"P-9-1",           254,       73.8260,       41.0594,            0.,NA,NA,"",   1.11023E+06,   1.11411E+06,   1.11411E+06
C:/temp/Job-9.odb,Step-1,Increment      1: Step Time =    1.000,"P-9-1",           255,       63.3642,       42.6994,            0.,NA,NA,"",   1.12316E+06,   1.11699E+06,   1.11699E+06
C:/temp/Job-9.odb,Step-1,Increment      1: Step Time =    1.000,"P-9-1",           256,       55.1239,       45.1977,            0.,NA,NA,"",   1.11046E+06,   1.10685E+06,   1.10685E+06
C:/temp/Job-9.odb,Step-1,Increment      1: Step Time =    1.000,"P-9-1",           257,       42.4139,       38.9400,            0.,NA,NA,"",   1.07459E+06,   1.08834E+06,   1.08834E+06
C:/temp/Job-9.odb,Step-1,Increment      1: Step Time =    1.000,"P-9-1",           258,       29.4380,       39.9955,            0.,NA,NA,"",   1.02783E+06,   1.06893E+06,   1.06893E+06
C:/temp/Job-9.odb,Step-1,Increment      1: Step Time =    1.000,"P-9-1",           259,       20.5986,       44.6950,            0.,NA,NA,"",   965.619E+03,   1.03224E+06,   1.03224E+06
C:/temp/Job-9.odb,Step-1,Increment      1: Step Time =    1.000,"P-9-1",           260,       11.2071,       45.9754,            0.,NA,NA,"",   912.722E+03,   1.00133E+06,   1.00133E+06
C:/temp/Job-9.odb,Step-1,Increment      1: Step Time =    1.000,"P-9-1",           261,       189.186,       52.2543,            0.,NA,NA,"",   991.046E+03,   1.00585E+06,   1.00585E+06
C:/temp/Job-9.odb,Step-1,Increment      1: Step Time =    1.000,"P-9-1",           262,       179.419,       55.5373,            0.,NA,NA,"",   1.00863E+06,   1.01596E+06,   1.01596E+06
C:/temp/Job-9.odb,Step-1,Increment      1: Step Time =    1.000,"P-9-1",           263,       169.464,       54.4929,            0.,NA,NA,"",   1.03875E+06,   1.03261E+06,   1.03261E+06
C:/temp/Job-9.odb,Step-1,Increment      1: Step Time =    1.000,"P-9-1",           264,       158.492,       52.8439,            0.,NA,NA,"",   1.07911E+06,   1.05830E+06,   1.05830E+06
C:/temp/Job-9.odb,Step-1,Increment      1: Step Time =    1.000,"P-9-1",           265,       147.017,       53.6149,            0.,NA,NA,"",   1.12768E+06,   1.09297E+06,   1.09297E+06
C:/temp/Job-9.odb,Step-1,Increment      1: Step Time =    1.000,"P-9-1",           266,       137.859,       52.3690,            0.,NA,NA,"",   1.15998E+06,   1.12397E+06,   1.12397E+06
C:/temp/Job-9.odb,Step-1,Increment      1: Step Time =    1.000,"P-9-1",           267,       126.789,       51.8103,            0.,NA,NA,"",   1.16986E+06,   1.15172E+06,   1.15172E+06
C:/temp/Job-9.odb,Step-1,Increment      1: Step Time =    1.000,"P-9-1",           268,       107.011,       54.0649,            0.,NA,NA,"",   1.09167E+06,   1.15091E+06,   1.15091E+06
C:/temp/Job-9.odb,Step-1,Increment      1: Step Time =    1.000,"P-9-1",           269,       96.1009,       52.0045,            0.,NA,NA,"",   1.07005E+06,   1.13315E+06,   1.13315E+06
C:/temp/Job-9.odb,Step-1,Increment      1: Step Time =    1.000,"P-9-1",           270,       82.1811,       49.3366,            0.,NA,NA,"",   1.12392E+06,   1.14555E+06,   1.14555E+06
C:/temp/Job-9.odb,Step-1,Increment      1: Step Time =    1.000,"P-9-1",           271,       71.2851,       52.4352,            0.,NA,NA,"",   1.16548E+06,   1.15580E+06,   1.15580E+06
C:/temp/Job-9.odb,Step-1,Increment      1: Step Time =    1.000,"P-9-1",           272,       63.8468,       53.5598,            0.,NA,NA,"",   1.15065E+06,   1.13631E+06,   1.13631E+06
C:/temp/Job-9.odb,Step-1,Increment      1: Step Time =    1.000,"P-9-1",           273,       53.2455,       52.6891,            0.,NA,NA,"",   1.09910E+06,   1.09668E+06,   1.09668E+06
C:/temp/Job-9.odb,Step-1,Increment      1: Step Time =    1.000,"P-9-1",           274,       41.5172,       52.4071,            0.,NA,NA,"",   1.03526E+06,   1.05726E+06,   1.05726E+06
C:/temp/Job-9.odb,Step-1,Increment      1: Step Time =    1.000,"P-9-1",           275,       32.1382,       54.2681,            0.,NA,NA,"",   976.961E+03,   1.02201E+06,   1.02201E+06
C:/temp/Job-9.odb,Step-1,Increment      1: Step Time =    1.000,"P-9-1",           276,       20.3807,       53.8684,            0.,NA,NA,"",   919.244E+03,   991.351E+03,   991.351E+03
C:/temp/Job-9.odb,Step-1,Increment      1: Step Time =    1.000,"P-9-1",           277,       10.1913,       51.1840,            0.,NA,NA,"",   884.981E+03,   976.438E+03,   976.438E+03
C:/temp/Job-9.odb,Step-1,Increment      1: Step Time =    1.000,"P-9-1",           278,       189.611,       65.0856,            0.,NA,NA,"",   974.957E+03,   1.00272E+06,   1.00272E+06
C:/temp/Job-9.odb,Step-1,Increment      1: Step Time =    1.000,"P-9-1",           279,       179.254,       64.9488,            0.,NA,NA,"",   995.518E+03,   1.00899E+06,   1.00899E+06
C:/temp/Job-9.odb,Step-1,Increment      1: Step Time =    1.000,"P-9-1",           280,       168.813,       64.3588,            0.,NA,NA,"",   1.02564E+06,   1.02204E+06,   1.02204E+06
C:/temp/Job-9.odb,Step-1,Increment      1: Step Time =    1.000,"P-9-1",           281,       158.272,       63.4123,            0.,NA,NA,"",   1.06928E+06,   1.04638E+06,   1.04638E+06
C:/temp/Job-9.odb,Step-1,Increment      1: Step Time =    1.000,"P-9-1",           282,       146.860,       62.1943,            0.,NA,NA,"",   1.13473E+06,   1.09095E+06,   1.09095E+06
C:/temp/Job-9.odb,Step-1,Increment      1: Step Time =    1.000,"P-9-1",           283,       137.020,       63.0674,            0.,NA,NA,"",   1.20194E+06,   1.14299E+06,   1.14299E+06
C:/temp/Job-9.odb,Step-1,Increment      1: Step Time =    1.000,"P-9-1",           284,       125.931,       63.3919,            0.,NA,NA,"",   1.26549E+06,   1.21789E+06,   1.21789E+06
C:/temp/Job-9.odb,Step-1,Increment      1: Step Time =    1.000,"P-9-1",           285,       118.924,       62.6894,            0.,NA,NA,"",   1.24860E+06,   1.24427E+06,   1.24427E+06
C:/temp/Job-9.odb,Step-1,Increment      1: Step Time =    1.000,"P-9-1",           286,       107.619,       63.2793,            0.,NA,NA,"",   1.16565E+06,   1.24291E+06,   1.24291E+06
C:/temp/Job-9.odb,Step-1,Increment      1: Step Time =    1.000,"P-9-1",           287,       97.8487,       61.0736,            0.,NA,NA,"",   1.11709E+06,   1.20915E+06,   1.20915E+06
C:/temp/Job-9.odb,Step-1,Increment      1: Step Time =    1.000,"P-9-1",           288,       88.2135,       59.6957,            0.,NA,NA,"",   1.16544E+06,   1.21593E+06,   1.21593E+06
C:/temp/Job-9.odb,Step-1,Increment      1: Step Time =    1.000,"P-9-1",           289,       70.8458,       64.8115,            0.,NA,NA,"",   1.21624E+06,   1.18147E+06,   1.18147E+06
C:/temp/Job-9.odb,Step-1,Increment      1: Step Time =    1.000,"P-9-1",           290,       59.7998,       61.9926,            0.,NA,NA,"",   1.12709E+06,   1.10841E+06,   1.10841E+06
C:/temp/Job-9.odb,Step-1,Increment      1: Step Time =    1.000,"P-9-1",           291,       52.1839,       63.5682,            0.,NA,NA,"",   1.05965E+06,   1.05883E+06,   1.05883E+06
C:/temp/Job-9.odb,Step-1,Increment      1: Step Time =    1.000,"P-9-1",           292,       40.5650,       62.1720,            0.,NA,NA,"",    982.78E+03,   1.01302E+06,   1.01302E+06
C:/temp/Job-9.odb,Step-1,Increment      1: Step Time =    1.000,"P-9-1",           293,       33.1842,       65.2204,            0.,NA,NA,"",   920.674E+03,   971.946E+03,   971.946E+03
C:/temp/Job-9.odb,Step-1,Increment      1: Step Time =    1.000,"P-9-1",           294,       21.7289,       62.9694,            0.,NA,NA,"",   879.079E+03,   953.126E+03,   953.126E+03
C:/temp/Job-9.odb,Step-1,Increment      1: Step Time =    1.000,"P-9-1",           295,       9.16998,       65.6100,            0.,NA,NA,"",   821.591E+03,   915.156E+03,   915.156E+03
C:/temp/Job-9.odb,Step-1,Increment      1: Step Time =    1.000,"P-9-1",           296,       190.887,       134.834,            0.,NA,NA,"",   973.204E+03,   1.00244E+06,   1.00244E+06
C:/temp/Job-9.odb,Step-1,Increment      1: Step Time =    1.000,"P-9-1",           297,       182.437,       135.012,            0.,NA,NA,"",   989.726E+03,   1.00738E+06,   1.00738E+06
C:/temp/Job-9.odb,Step-1,Increment      1: Step Time =    1.000,"P-9-1",           298,       167.956,       137.190,            0.,NA,NA,"",   1.03173E+06,   1.02575E+06,   1.02575E+06
C:/temp/Job-9.odb,Step-1,Increment      1: Step Time =    1.000,"P-9-1",           299,       159.227,       137.919,            0.,NA,NA,"",   1.06921E+06,   1.04737E+06,   1.04737E+06
C:/temp/Job-9.odb,Step-1,Increment      1: Step Time =    1.000,"P-9-1",           300,       150.270,       136.020,            0.,NA,NA,"",   1.11235E+06,   1.07291E+06,   1.07291E+06
C:/temp/Job-9.odb,Step-1,Increment      1: Step Time =    1.000,"P-9-1",           301,       140.507,       136.006,            0.,NA,NA,"",   1.18028E+06,   1.12292E+06,   1.12292E+06
C:/temp/Job-9.odb,Step-1,Increment      1: Step Time =    1.000,"P-9-1",           302,       126.888,       136.440,            0.,NA,NA,"",   1.26198E+06,   1.21458E+06,   1.21458E+06
C:/temp/Job-9.odb,Step-1,Increment      1: Step Time =    1.000,"P-9-1",           303,       117.073,       137.191,            0.,NA,NA,"",   1.24277E+06,   1.25027E+06,   1.25027E+06
C:/temp/Job-9.odb,Step-1,Increment      1: Step Time =    1.000,"P-9-1",           304,       105.591,       138.642,            0.,NA,NA,"",   1.13030E+06,   1.21294E+06,   1.21294E+06
C:/temp/Job-9.odb,Step-1,Increment      1: Step Time =    1.000,"P-9-1",           305,       90.9410,       136.150,            0.,NA,NA,"",   1.19764E+06,   1.26840E+06,   1.26840E+06
C:/temp/Job-9.odb,Step-1,Increment      1: Step Time =    1.000,"P-9-1",           306,       80.2303,       135.907,            0.,NA,NA,"",   1.25200E+06,   1.24673E+06,   1.24673E+06
C:/temp/Job-9.odb,Step-1,Increment      1: Step Time =    1.000,"P-9-1",           307,       72.7316,       135.897,            0.,NA,NA,"",   1.23056E+06,   1.19831E+06,   1.19831E+06
C:/temp/Job-9.odb,Step-1,Increment      1: Step Time =    1.000,"P-9-1",           308,       63.7849,       136.801,            0.,NA,NA,"",   1.16097E+06,   1.13269E+06,   1.13269E+06
C:/temp/Job-9.odb,Step-1,Increment      1: Step Time =    1.000,"P-9-1",           309,       53.1894,       140.477,            0.,NA,NA,"",   1.08505E+06,   1.08091E+06,   1.08091E+06
C:/temp/Job-9.odb,Step-1,Increment      1: Step Time =    1.000,"P-9-1",           310,       42.3948,       137.576,            0.,NA,NA,"",   990.726E+03,   1.01629E+06,   1.01629E+06
C:/temp/Job-9.odb,Step-1,Increment      1: Step Time =    1.000,"P-9-1",           311,       31.4397,       135.957,            0.,NA,NA,"",   915.851E+03,   970.804E+03,   970.804E+03
C:/temp/Job-9.odb,Step-1,Increment      1: Step Time =    1.000,"P-9-1",           312,       20.8637,       134.075,            0.,NA,NA,"",   861.251E+03,   938.092E+03,   938.092E+03
C:/temp/Job-9.odb,Step-1,Increment      1: Step Time =    1.000,"P-9-1",           313,       9.97354,       133.481,            0.,NA,NA,"",   819.997E+03,   912.619E+03,   912.619E+03
C:/temp/Job-9.odb,Step-1,Increment      1: Step Time =    1.000,"P-9-1",           314,       188.002,       148.054,            0.,NA,NA,"",   992.801E+03,   1.00647E+06,   1.00647E+06
C:/temp/Job-9.odb,Step-1,Increment      1: Step Time =    1.000,"P-9-1",           315,       181.279,       144.662,            0.,NA,NA,"",   1.00395E+06,   1.01348E+06,   1.01348E+06
C:/temp/Job-9.odb,Step-1,Increment      1: Step Time =    1.000,"P-9-1",           316,       168.151,       145.716,            0.,NA,NA,"",   1.04395E+06,   1.03569E+06,   1.03569E+06
C:/temp/Job-9.odb,Step-1,Increment      1: Step Time =    1.000,"P-9-1",           317,       156.564,       142.658,            0.,NA,NA,"",   1.08982E+06,   1.06389E+06,   1.06389E+06
C:/temp/Job-9.odb,Step-1,Increment      1: Step Time =    1.000,"P-9-1",           318,       139.409,       146.421,            0.,NA,NA,"",   1.16043E+06,   1.12305E+06,   1.12305E+06
C:/temp/Job-9.odb,Step-1,Increment      1: Step Time =    1.000,"P-9-1",           319,       127.769,       146.578,            0.,NA,NA,"",   1.18145E+06,   1.15865E+06,   1.15865E+06
C:/temp/Job-9.odb,Step-1,Increment      1: Step Time =    1.000,"P-9-1",           320,       117.230,       144.975,            0.,NA,NA,"",   1.16320E+06,   1.17849E+06,   1.17849E+06
C:/temp/Job-9.odb,Step-1,Increment      1: Step Time =    1.000,"P-9-1",           321,       107.143,       146.906,            0.,NA,NA,"",   1.08209E+06,   1.14074E+06,   1.14074E+06
C:/temp/Job-9.odb,Step-1,Increment      1: Step Time =    1.000,"P-9-1",           322,       92.0086,       148.803,            0.,NA,NA,"",   1.08368E+06,   1.13716E+06,   1.13716E+06
C:/temp/Job-9.odb,Step-1,Increment      1: Step Time =    1.000,"P-9-1",           323,       83.2479,       146.392,            0.,NA,NA,"",   1.15049E+06,   1.17290E+06,   1.17290E+06
C:/temp/Job-9.odb,Step-1,Increment      1: Step Time =    1.000,"P-9-1",           324,       72.1969,       145.618,            0.,NA,NA,"",   1.17614E+06,   1.16483E+06,   1.16483E+06
C:/temp/Job-9.odb,Step-1,Increment      1: Step Time =    1.000,"P-9-1",           325,       62.2009,       146.912,            0.,NA,NA,"",   1.14162E+06,   1.12835E+06,   1.12835E+06
C:/temp/Job-9.odb,Step-1,Increment      1: Step Time =    1.000,"P-9-1",           326,       50.8138,       150.133,            0.,NA,NA,"",   1.09108E+06,   1.09290E+06,   1.09290E+06
C:/temp/Job-9.odb,Step-1,Increment      1: Step Time =    1.000,"P-9-1",           327,       30.8177,       149.718,            0.,NA,NA,"",   988.175E+03,   1.03413E+06,   1.03413E+06
C:/temp/Job-9.odb,Step-1,Increment      1: Step Time =    1.000,"P-9-1",           328,       21.6946,       146.850,            0.,NA,NA,"",   928.683E+03,   997.689E+03,   997.689E+03
C:/temp/Job-9.odb,Step-1,Increment      1: Step Time =    1.000,"P-9-1",           329,       11.7021,       148.298,            0.,NA,NA,"",   889.080E+03,   977.848E+03,   977.848E+03
C:/temp/Job-9.odb,Step-1,Increment      1: Step Time =    1.000,"P-9-1",           330,       188.677,       158.192,            0.,NA,NA,"",   998.864E+03,   1.00603E+06,   1.00603E+06
C:/temp/Job-9.odb,Step-1,Increment      1: Step Time =    1.000,"P-9-1",           331,       178.912,       160.900,            0.,NA,NA,"",   1.01558E+06,   1.01635E+06,   1.01635E+06
C:/temp/Job-9.odb,Step-1,Increment      1: Step Time =    1.000,"P-9-1",           332,       168.624,       160.086,            0.,NA,NA,"",   1.03889E+06,   1.03190E+06,   1.03190E+06
C:/temp/Job-9.odb,Step-1,Increment      1: Step Time =    1.000,"P-9-1",           333,       158.611,       161.885,            0.,NA,NA,"",   1.06019E+06,   1.04660E+06,   1.04660E+06
C:/temp/Job-9.odb,Step-1,Increment      1: Step Time =    1.000,"P-9-1",           334,       147.774,       157.394,            0.,NA,NA,"",   1.09774E+06,   1.07570E+06,   1.07570E+06
C:/temp/Job-9.odb,Step-1,Increment      1: Step Time =    1.000,"P-9-1",           335,       133.611,       156.023,            0.,NA,NA,"",   1.12371E+06,   1.10545E+06,   1.10545E+06
C:/temp/Job-9.odb,Step-1,Increment      1: Step Time =    1.000,"P-9-1",           336,       127.511,       157.948,            0.,NA,NA,"",   1.10870E+06,   1.10175E+06,   1.10175E+06
C:/temp/Job-9.odb,Step-1,Increment      1: Step Time =    1.000,"P-9-1",           337,       116.985,       157.429,            0.,NA,NA,"",   1.08030E+06,   1.09794E+06,   1.09794E+06
C:/temp/Job-9.odb,Step-1,Increment      1: Step Time =    1.000,"P-9-1",           338,       103.326,       162.265,            0.,NA,NA,"",   1.02938E+06,   1.06364E+06,   1.06364E+06
C:/temp/Job-9.odb,Step-1,Increment      1: Step Time =    1.000,"P-9-1",           339,       97.3474,       158.065,            0.,NA,NA,"",   1.03961E+06,   1.08218E+06,   1.08218E+06
C:/temp/Job-9.odb,Step-1,Increment      1: Step Time =    1.000,"P-9-1",           340,       83.3037,       158.641,            0.,NA,NA,"",   1.08355E+06,   1.10417E+06,   1.10417E+06
C:/temp/Job-9.odb,Step-1,Increment      1: Step Time =    1.000,"P-9-1",           341,       74.2359,       160.005,            0.,NA,NA,"",   1.10609E+06,   1.10969E+06,   1.10969E+06
C:/temp/Job-9.odb,Step-1,Increment      1: Step Time =    1.000,"P-9-1",           342,       61.5076,       158.525,            0.,NA,NA,"",   1.11796E+06,   1.11255E+06,   1.11255E+06
C:/temp/Job-9.odb,Step-1,Increment      1: Step Time =    1.000,"P-9-1",           343,       52.1657,       158.334,            0.,NA,NA,"",   1.10021E+06,   1.10074E+06,   1.10074E+06
C:/temp/Job-9.odb,Step-1,Increment      1: Step Time =    1.000,"P-9-1",           344,       39.4696,       157.869,            0.,NA,NA,"",   1.05717E+06,   1.07850E+06,   1.07850E+06
C:/temp/Job-9.odb,Step-1,Increment      1: Step Time =    1.000,"P-9-1",           345,       28.1830,       159.935,            0.,NA,NA,"",   1.02260E+06,   1.06657E+06,   1.06657E+06
C:/temp/Job-9.odb,Step-1,Increment      1: Step Time =    1.000,"P-9-1",           346,       17.1353,       157.983,            0.,NA,NA,"",   960.643E+03,   1.03404E+06,   1.03404E+06
C:/temp/Job-9.odb,Step-1,Increment      1: Step Time =    1.000,"P-9-1",           347,       8.97034,       160.470,            0.,NA,NA,"",   930.720E+03,   1.02341E+06,   1.02341E+06
C:/temp/Job-9.odb,Step-1,Increment      1: Step Time =    1.000,"P-9-1",           348,       189.828,       168.919,            0.,NA,NA,"",   1.00074E+06,   1.00365E+06,   1.00365E+06
C:/temp/Job-9.odb,Step-1,Increment      1: Step Time =    1.000,"P-9-1",           349,       176.993,       169.692,            0.,NA,NA,"",   1.01507E+06,   1.01415E+06,   1.01415E+06
C:/temp/Job-9.odb,Step-1,Increment      1: Step Time =    1.000,"P-9-1",           350,       167.914,       171.784,            0.,NA,NA,"",   1.02719E+06,   1.02220E+06,   1.02220E+06
C:/temp/Job-9.odb,Step-1,Increment      1: Step Time =    1.000,"P-9-1",           351,       157.834,       167.516,            0.,NA,NA,"",   1.04969E+06,   1.03885E+06,   1.03885E+06
C:/temp/Job-9.odb,Step-1,Increment      1: Step Time =    1.000,"P-9-1",           352,       147.556,       169.757,            0.,NA,NA,"",   1.05825E+06,   1.04618E+06,   1.04618E+06
C:/temp/Job-9.odb,Step-1,Increment      1: Step Time =    1.000,"P-9-1",           353,       133.119,       166.410,            0.,NA,NA,"",   1.07303E+06,   1.06453E+06,   1.06453E+06
C:/temp/Job-9.odb,Step-1,Increment      1: Step Time =    1.000,"P-9-1",           354,       123.642,       166.784,            0.,NA,NA,"",   1.05868E+06,   1.06196E+06,   1.06196E+06
C:/temp/Job-9.odb,Step-1,Increment      1: Step Time =    1.000,"P-9-1",           355,       110.910,       169.112,            0.,NA,NA,"",   1.02316E+06,   1.04152E+06,   1.04152E+06
C:/temp/Job-9.odb,Step-1,Increment      1: Step Time =    1.000,"P-9-1",           356,       103.651,       171.398,            0.,NA,NA,"",   1.00947E+06,   1.03035E+06,   1.03035E+06
C:/temp/Job-9.odb,Step-1,Increment      1: Step Time =    1.000,"P-9-1",           357,       98.4102,       168.107,            0.,NA,NA,"",   1.01787E+06,   1.04381E+06,   1.04381E+06
C:/temp/Job-9.odb,Step-1,Increment      1: Step Time =    1.000,"P-9-1",           358,       86.0967,       168.520,            0.,NA,NA,"",   1.04141E+06,   1.05821E+06,   1.05821E+06
C:/temp/Job-9.odb,Step-1,Increment      1: Step Time =    1.000,"P-9-1",           359,       72.7443,       169.510,            0.,NA,NA,"",   1.07305E+06,   1.07568E+06,   1.07568E+06
C:/temp/Job-9.odb,Step-1,Increment      1: Step Time =    1.000,"P-9-1",           360,       60.2870,       167.607,            0.,NA,NA,"",   1.09426E+06,   1.09155E+06,   1.09155E+06
C:/temp/Job-9.odb,Step-1,Increment      1: Step Time =    1.000,"P-9-1",           361,       50.8756,       169.416,            0.,NA,NA,"",   1.09124E+06,   1.09189E+06,   1.09189E+06
C:/temp/Job-9.odb,Step-1,Increment      1: Step Time =    1.000,"P-9-1",           362,       39.0056,       170.152,            0.,NA,NA,"",   1.08314E+06,   1.09642E+06,   1.09642E+06
C:/temp/Job-9.odb,Step-1,Increment      1: Step Time =    1.000,"P-9-1",           363,       31.0519,       170.667,            0.,NA,NA,"",   1.07385E+06,   1.10081E+06,   1.10081E+06
C:/temp/Job-9.odb,Step-1,Increment      1: Step Time =    1.000,"P-9-1",           364,       18.3752,       168.045,            0.,NA,NA,"",   1.02423E+06,   1.08584E+06,   1.08584E+06
C:/temp/Job-9.odb,Step-1,Increment      1: Step Time =    1.000,"P-9-1",           365,       9.34632,       169.434,            0.,NA,NA,"",   982.631E+03,   1.07143E+06,   1.07143E+06
C:/temp/Job-9.odb,Step-1,Increment      1: Step Time =    1.000,"P-9-1",           366,       187.827,       179.190,            0.,NA,NA,"",   1.00219E+06,   1.00295E+06,   1.00295E+06
C:/temp/Job-9.odb,Step-1,Increment      1: Step Time =    1.000,"P-9-1",           367,       175.890,       178.597,            0.,NA,NA,"",   1.01003E+06,   1.00903E+06,   1.00903E+06
C:/temp/Job-9.odb,Step-1,Increment      1: Step Time =    1.000,"P-9-1",           368,       167.035,       182.479,            0.,NA,NA,"",   1.01165E+06,   1.00939E+06,   1.00939E+06
C:/temp/Job-9.odb,Step-1,Increment      1: Step Time =    1.000,"P-9-1",           369,       158.992,       175.310,            0.,NA,NA,"",   1.03085E+06,   1.02417E+06,   1.02417E+06
C:/temp/Job-9.odb,Step-1,Increment      1: Step Time =    1.000,"P-9-1",           370,       145.431,       179.074,            0.,NA,NA,"",   1.02722E+06,   1.02104E+06,   1.02104E+06
C:/temp/Job-9.odb,Step-1,Increment      1: Step Time =    1.000,"P-9-1",           371,       135.955,       180.573,            0.,NA,NA,"",   1.01818E+06,   1.01460E+06,   1.01460E+06
C:/temp/Job-9.odb,Step-1,Increment      1: Step Time =    1.000,"P-9-1",           372,       124.375,       176.341,            0.,NA,NA,"",   1.02192E+06,   1.02439E+06,   1.02439E+06
C:/temp/Job-9.odb,Step-1,Increment      1: Step Time =    1.000,"P-9-1",           373,       117.453,       175.653,            0.,NA,NA,"",   1.01269E+06,   1.02009E+06,   1.02009E+06
C:/temp/Job-9.odb,Step-1,Increment      1: Step Time =    1.000,"P-9-1",           374,       105.170,       180.433,            0.,NA,NA,"",   985.450E+03,   995.651E+03,   995.651E+03
C:/temp/Job-9.odb,Step-1,Increment      1: Step Time =    1.000,"P-9-1",           375,       93.8366,       175.641,            0.,NA,NA,"",   1.00429E+06,   1.01950E+06,   1.01950E+06
C:/temp/Job-9.odb,Step-1,Increment      1: Step Time =    1.000,"P-9-1",           376,       85.8785,       175.377,            0.,NA,NA,"",   1.01939E+06,   1.03059E+06,   1.03059E+06
C:/temp/Job-9.odb,Step-1,Increment      1: Step Time =    1.000,"P-9-1",           377,       74.1388,       180.468,            0.,NA,NA,"",   1.02725E+06,   1.02929E+06,   1.02929E+06
C:/temp/Job-9.odb,Step-1,Increment      1: Step Time =    1.000,"P-9-1",           378,       65.2394,       181.153,            0.,NA,NA,"",   1.04371E+06,   1.04284E+06,   1.04284E+06
C:/temp/Job-9.odb,Step-1,Increment      1: Step Time =    1.000,"P-9-1",           379,       56.7247,       176.753,            0.,NA,NA,"",   1.07268E+06,   1.07103E+06,   1.07103E+06
C:/temp/Job-9.odb,Step-1,Increment      1: Step Time =    1.000,"P-9-1",           380,       38.6896,       174.649,            0.,NA,NA,"",   1.08854E+06,   1.09899E+06,   1.09899E+06
C:/temp/Job-9.odb,Step-1,Increment      1: Step Time =    1.000,"P-9-1",           381,       30.5920,       179.814,            0.,NA,NA,"",   1.10147E+06,   1.11770E+06,   1.11770E+06
C:/temp/Job-9.odb,Step-1,Increment      1: Step Time =    1.000,"P-9-1",           382,       21.8232,       178.921,            0.,NA,NA,"",   1.10625E+06,   1.14025E+06,   1.14025E+06
C:/temp/Job-9.odb,Step-1,Increment      1: Step Time =    1.000,"P-9-1",           383,       11.1040,       179.412,            0.,NA,NA,"",   1.07478E+06,   1.14625E+06,   1.14625E+06
C:/temp/Job-9.odb,Step-1,Increment      1: Step Time =    1.000,"P-9-1",           384,       189.503,       190.139,            0.,NA,NA,"",   1.00033E+06,   1.00045E+06,   1.00045E+06
C:/temp/Job-9.odb,Step-1,Increment      1: Step Time =    1.000,"P-9-1",           385,       174.872,       191.559,            0.,NA,NA,"",   1.00157E+06,   1.00135E+06,   1.00135E+06
C:/temp/Job-9.odb,Step-1,Increment      1: Step Time =    1.000,"P-9-1",           386,       165.746,       191.598,            0.,NA,NA,"",   1.00184E+06,   1.00111E+06,   1.00111E+06
C:/temp/Job-9.odb,Step-1,Increment      1: Step Time =    1.000,"P-9-1",           387,       156.850,       190.644,            0.,NA,NA,"",   1.00130E+06,   999.854E+03,   999.854E+03
C:/temp/Job-9.odb,Step-1,Increment      1: Step Time =    1.000,"P-9-1",           388,       148.778,       189.158,            0.,NA,NA,"",   1.00007E+06,   997.953E+03,   997.953E+03
C:/temp/Job-9.odb,Step-1,Increment      1: Step Time =    1.000,"P-9-1",           389,       135.643,       190.072,            0.,NA,NA,"",   984.389E+03,   983.255E+03,   983.255E+03
C:/temp/Job-9.odb,Step-1,Increment      1: Step Time =    1.000,"P-9-1",           390,       125.922,       190.199,            0.,NA,NA,"",   970.172E+03,   970.336E+03,   970.336E+03
C:/temp/Job-9.odb,Step-1,Increment      1: Step Time =    1.000,"P-9-1",           391,       115.829,       189.454,            0.,NA,NA,"",   958.730E+03,   960.833E+03,   960.833E+03
C:/temp/Job-9.odb,Step-1,Increment      1: Step Time =    1.000,"P-9-1",           392,       105.509,       189.993,            0.,NA,NA,"",   948.629E+03,   951.954E+03,   951.954E+03
C:/temp/Job-9.odb,Step-1,Increment      1: Step Time =    1.000,"P-9-1",           393,       95.4065,       190.058,            0.,NA,NA,"",   950.603E+03,   954.043E+03,   954.043E+03
C:/temp/Job-9.odb,Step-1,Increment      1: Step Time =    1.000,"P-9-1",           394,       85.1451,       189.424,            0.,NA,NA,"",   966.410E+03,   968.943E+03,   968.943E+03
C:/temp/Job-9.odb,Step-1,Increment      1: Step Time =    1.000,"P-9-1",           395,       74.9000,       190.195,            0.,NA,NA,"",   984.408E+03,   985.028E+03,   985.028E+03
C:/temp/Job-9.odb,Step-1,Increment      1: Step Time =    1.000,"P-9-1",           396,       65.1884,       190.683,            0.,NA,NA,"",   1.00479E+06,   1.00434E+06,   1.00434E+06
C:/temp/Job-9.odb,Step-1,Increment      1: Step Time =    1.000,"P-9-1",           397,       51.6771,       185.782,            0.,NA,NA,"",   1.05461E+06,   1.05397E+06,   1.05397E+06
C:/temp/Job-9.odb,Step-1,Increment      1: Step Time =    1.000,"P-9-1",           398,       41.0232,       188.606,            0.,NA,NA,"",   1.07090E+06,   1.07261E+06,   1.07261E+06
C:/temp/Job-9.odb,Step-1,Increment      1: Step Time =    1.000,"P-9-1",           399,       30.3353,       189.663,            0.,NA,NA,"",   1.10264E+06,   1.10816E+06,   1.10816E+06
C:/temp/Job-9.odb,Step-1,Increment      1: Step Time =    1.000,"P-9-1",           400,       20.2776,       189.580,            0.,NA,NA,"",   1.15511E+06,   1.16899E+06,   1.16899E+06
C:/temp/Job-9.odb,Step-1,Increment      1: Step Time =    1.000,"P-9-1",           401,       10.1416,       189.920,            0.,NA,NA,"",   1.23319E+06,   1.27579E+06,   1.27579E+06
C:/temp/Job-9.odb,Step-1,Increment      1: Step Time =    1.000,"P-9-1",           402,       94.9892,       116.245,            0.,NA,NA,"",   2.08052E+06,   2.15040E+06,   2.15040E+06
C:/temp/Job-9.odb,Step-1,Increment      1: Step Time =    1.000,"P-9-1",           403,       84.1751,       106.211,            0.,NA,NA,"",   594.605E+03,   188.010E+03,   188.010E+03
C:/temp/Job-9.odb,Step-1,Increment      1: Step Time =    1.000,"P-9-1",           404,       85.2776,          91.5,            0.,NA,NA,"",   606.869E+03,   229.243E+03,   229.243E+03
C:/temp/Job-9.odb,Step-1,Increment      1: Step Time =    1.000,"P-9-1",           405,       92.6240,       84.6835,            0.,NA,NA,"",   1.78241E+06,   1.85878E+06,   1.85878E+06
C:/temp/Job-9.odb,Step-1,Increment      1: Step Time =    1.000,"P-9-1",           406,       107.376,       84.6835,            0.,NA,NA,"",   1.80333E+06,   1.87707E+06,   1.87707E+06
C:/temp/Job-9.odb,Step-1,Increment      1: Step Time =    1.000,"P-9-1",           407,       114.722,          91.5,            0.,NA,NA,"",   644.228E+03,   170.462E+03,   170.462E+03
C:/temp/Job-9.odb,Step-1,Increment      1: Step Time =    1.000,"P-9-1",           408,       115.825,       106.211,            0.,NA,NA,"",   626.712E+03,   137.017E+03,   137.017E+03
C:/temp/Job-9.odb,Step-1,Increment      1: Step Time =    1.000,"P-9-1",           409,       105.011,       116.245,            0.,NA,NA,"",   2.07536E+06,   2.15662E+06,   2.15662E+06
C:/temp/Job-9.odb,Step-1,Increment      1: Step Time =    1.000,"P-9-1",           410,          195.,            0.,            0.,NA,NA,"",   999.809E+03,   999.786E+03,   999.786E+03
C:/temp/Job-9.odb,Step-1,Increment      1: Step Time =    1.000,"P-9-1",           411,          185.,            0.,            0.,NA,NA,"",   999.280E+03,   999.297E+03,   999.297E+03
C:/temp/Job-9.odb,Step-1,Increment      1: Step Time =    1.000,"P-9-1",           412,          175.,            0.,            0.,NA,NA,"",   999.059E+03,   999.009E+03,   999.009E+03
C:/temp/Job-9.odb,Step-1,Increment      1: Step Time =    1.000,"P-9-1",           413,          165.,            0.,            0.,NA,NA,"",   997.356E+03,   997.209E+03,   997.209E+03
C:/temp/Job-9.odb,Step-1,Increment      1: Step Time =    1.000,"P-9-1",           414,          155.,            0.,            0.,NA,NA,"",   991.586E+03,   991.418E+03,   991.418E+03
C:/temp/Job-9.odb,Step-1,Increment      1: Step Time =    1.000,"P-9-1",           415,          145.,            0.,            0.,NA,NA,"",   978.987E+03,   978.831E+03,   978.831E+03
C:/temp/Job-9.odb,Step-1,Increment      1: Step Time =    1.000,"P-9-1",           416,          135.,            0.,            0.,NA,NA,"",   960.107E+03,   959.987E+03,   959.987E+03
C:/temp/Job-9.odb,Step-1,Increment      1: Step Time =    1.000,"P-9-1",           417,          125.,            0.,            0.,NA,NA,"",   938.260E+03,   938.296E+03,   938.296E+03
C:/temp/Job-9.odb,Step-1,Increment      1: Step Time =    1.000,"P-9-1",           418,          115.,            0.,            0.,NA,NA,"",   918.880E+03,   919.136E+03,   919.136E+03
C:/temp/Job-9.odb,Step-1,Increment      1: Step Time =    1.000,"P-9-1",           419,          105.,            0.,            0.,NA,NA,"",   907.679E+03,   908.073E+03,   908.073E+03
C:/temp/Job-9.odb,Step-1,Increment      1: Step Time =    1.000,"P-9-1",           420,           95.,            0.,            0.,NA,NA,"",   908.683E+03,   909.058E+03,   909.058E+03
C:/temp/Job-9.odb,Step-1,Increment      1: Step Time =    1.000,"P-9-1",           421,           85.,            0.,            0.,NA,NA,"",   922.507E+03,   922.771E+03,   922.771E+03
C:/temp/Job-9.odb,Step-1,Increment      1: Step Time =    1.000,"P-9-1",           422,           75.,            0.,            0.,NA,NA,"",   946.087E+03,   946.266E+03,   946.266E+03
C:/temp/Job-9.odb,Step-1,Increment      1: Step Time =    1.000,"P-9-1",           423,           65.,            0.,            0.,NA,NA,"",   974.966E+03,   975.299E+03,   975.299E+03
C:/temp/Job-9.odb,Step-1,Increment      1: Step Time =    1.000,"P-9-1",           424,           55.,            0.,            0.,NA,NA,"",   1.00480E+06,   1.00442E+06,   1.00442E+06
C:/temp/Job-9.odb,Step-1,Increment      1: Step Time =    1.000,"P-9-1",           425,           45.,            0.,            0.,NA,NA,"",   1.02933E+06,   1.02938E+06,   1.02938E+06
C:/temp/Job-9.odb,Step-1,Increment      1: Step Time =    1.000,"P-9-1",           426,           35.,            0.,            0.,NA,NA,"",   1.05498E+06,   1.05558E+06,   1.05558E+06
C:/temp/Job-9.odb,Step-1,Increment      1: Step Time =    1.000,"P-9-1",           427,           25.,            0.,            0.,NA,NA,"",   1.09667E+06,   1.09827E+06,   1.09827E+06
C:/temp/Job-9.odb,Step-1,Increment      1: Step Time =    1.000,"P-9-1",           428,           15.,            0.,            0.,NA,NA,"",   1.17979E+06,   1.18559E+06,   1.18559E+06
C:/temp/Job-9.odb,Step-1,Increment      1: Step Time =    1.000,"P-9-1",           429,            5.,            0.,            0.,NA,NA,"",   1.48171E+06,   1.51588E+06,   1.51588E+06
C:/temp/Job-9.odb,Step-1,Increment      1: Step Time =    1.000,"P-9-1",           430,          200.,          195.,            0.,NA,NA,"",   1.00006E+06,   999.949E+03,   999.949E+03
C:/temp/Job-9.odb,Step-1,Increment      1: Step Time =    1.000,"P-9-1",           431,          200.,          185.,            0.,NA,NA,"",   1.00045E+06,   1.00018E+06,   1.00018E+06
C:/temp/Job-9.odb,Step-1,Increment      1: Step Time =    1.000,"P-9-1",           432,          200.,          175.,            0.,NA,NA,"",   999.811E+03,   1.00044E+06,   1.00044E+06
C:/temp/Job-9.odb,Step-1,Increment      1: Step Time =    1.000,"P-9-1",           433,          200.,          165.,            0.,NA,NA,"",   996.199E+03,   1.00045E+06,   1.00045E+06
C:/temp/Job-9.odb,Step-1,Increment      1: Step Time =    1.000,"P-9-1",           434,          200.,          155.,            0.,NA,NA,"",   989.176E+03,   1.00045E+06,   1.00045E+06
C:/temp/Job-9.odb,Step-1,Increment      1: Step Time =    1.000,"P-9-1",           435,          200.,          145.,            0.,NA,NA,"",   977.478E+03,   1.00039E+06,   1.00039E+06
C:/temp/Job-9.odb,Step-1,Increment      1: Step Time =    1.000,"P-9-1",           436,          200.,          135.,            0.,NA,NA,"",   963.048E+03,   1.00033E+06,   1.00033E+06
C:/temp/Job-9.odb,Step-1,Increment      1: Step Time =    1.000,"P-9-1",           437,          200.,          125.,            0.,NA,NA,"",   948.019E+03,   999.890E+03,   999.890E+03
C:/temp/Job-9.odb,Step-1,Increment      1: Step Time =    1.000,"P-9-1",           438,          200.,          115.,            0.,NA,NA,"",   935.711E+03,   999.315E+03,   999.315E+03
C:/temp/Job-9.odb,Step-1,Increment      1: Step Time =    1.000,"P-9-1",           439,          200.,          105.,            0.,NA,NA,"",   928.676E+03,   998.806E+03,   998.806E+03
C:/temp/Job-9.odb,Step-1,Increment      1: Step Time =    1.000,"P-9-1",           440,          200.,           95.,            0.,NA,NA,"",   928.763E+03,   998.802E+03,   998.802E+03
C:/temp/Job-9.odb,Step-1,Increment      1: Step Time =    1.000,"P-9-1",           441,          200.,           85.,            0.,NA,NA,"",   935.896E+03,   999.250E+03,   999.250E+03
C:/temp/Job-9.odb,Step-1,Increment      1: Step Time =    1.000,"P-9-1",           442,          200.,           75.,            0.,NA,NA,"",    948.31E+03,   999.819E+03,   999.819E+03
C:/temp/Job-9.odb,Step-1,Increment      1: Step Time =    1.000,"P-9-1",           443,          200.,           65.,            0.,NA,NA,"",   963.199E+03,   1.00006E+06,   1.00006E+06
C:/temp/Job-9.odb,Step-1,Increment      1: Step Time =    1.000,"P-9-1",           444,          200.,           55.,            0.,NA,NA,"",   978.433E+03,   1.00093E+06,   1.00093E+06
C:/temp/Job-9.odb,Step-1,Increment      1: Step Time =    1.000,"P-9-1",           445,          200.,           45.,            0.,NA,NA,"",   989.656E+03,   1.00073E+06,   1.00073E+06
C:/temp/Job-9.odb,Step-1,Increment      1: Step Time =    1.000,"P-9-1",           446,          200.,           35.,            0.,NA,NA,"",   996.536E+03,   1.00042E+06,   1.00042E+06
C:/temp/Job-9.odb,Step-1,Increment      1: Step Time =    1.000,"P-9-1",           447,          200.,           25.,            0.,NA,NA,"",   999.790E+03,   1.00024E+06,   1.00024E+06
C:/temp/Job-9.odb,Step-1,Increment      1: Step Time =    1.000,"P-9-1",           448,          200.,           15.,            0.,NA,NA,"",   1.00045E+06,   1.00011E+06,   1.00011E+06
C:/temp/Job-9.odb,Step-1,Increment      1: Step Time =    1.000,"P-9-1",           449,          200.,            5.,            0.,NA,NA,"",   1.00006E+06,   999.950E+03,   999.950E+03
C:/temp/Job-9.odb,Step-1,Increment      1: Step Time =    1.000,"P-9-1",           450,            5.,          200.,            0.,NA,NA,"",   1.47955E+06,   1.51380E+06,   1.51380E+06
C:/temp/Job-9.odb,Step-1,Increment      1: Step Time =    1.000,"P-9-1",           451,           15.,          200.,            0.,NA,NA,"",   1.18071E+06,   1.18634E+06,   1.18634E+06
C:/temp/Job-9.odb,Step-1,Increment      1: Step Time =    1.000,"P-9-1",           452,           25.,          200.,            0.,NA,NA,"",   1.09712E+06,   1.09881E+06,   1.09881E+06
C:/temp/Job-9.odb,Step-1,Increment      1: Step Time =    1.000,"P-9-1",           453,           35.,          200.,            0.,NA,NA,"",   1.05566E+06,   1.05633E+06,   1.05633E+06
C:/temp/Job-9.odb,Step-1,Increment      1: Step Time =    1.000,"P-9-1",           454,           45.,          200.,            0.,NA,NA,"",   1.02855E+06,   1.02867E+06,   1.02867E+06
C:/temp/Job-9.odb,Step-1,Increment      1: Step Time =    1.000,"P-9-1",           455,           55.,          200.,            0.,NA,NA,"",   1.00217E+06,   1.00221E+06,   1.00221E+06
C:/temp/Job-9.odb,Step-1,Increment      1: Step Time =    1.000,"P-9-1",           456,           65.,          200.,            0.,NA,NA,"",   975.047E+03,   975.020E+03,   975.020E+03
C:/temp/Job-9.odb,Step-1,Increment      1: Step Time =    1.000,"P-9-1",           457,           75.,          200.,            0.,NA,NA,"",   947.284E+03,   947.402E+03,   947.402E+03
C:/temp/Job-9.odb,Step-1,Increment      1: Step Time =    1.000,"P-9-1",           458,           85.,          200.,            0.,NA,NA,"",   923.956E+03,   924.187E+03,   924.187E+03
C:/temp/Job-9.odb,Step-1,Increment      1: Step Time =    1.000,"P-9-1",           459,           95.,          200.,            0.,NA,NA,"",   909.102E+03,   909.564E+03,   909.564E+03
C:/temp/Job-9.odb,Step-1,Increment      1: Step Time =    1.000,"P-9-1",           460,          105.,          200.,            0.,NA,NA,"",   907.615E+03,   908.078E+03,   908.078E+03
C:/temp/Job-9.odb,Step-1,Increment      1: Step Time =    1.000,"P-9-1",           461,          115.,          200.,            0.,NA,NA,"",   919.097E+03,   919.327E+03,   919.327E+03
C:/temp/Job-9.odb,Step-1,Increment      1: Step Time =    1.000,"P-9-1",           462,          125.,          200.,            0.,NA,NA,"",    938.46E+03,   938.548E+03,   938.548E+03
C:/temp/Job-9.odb,Step-1,Increment      1: Step Time =    1.000,"P-9-1",           463,          135.,          200.,            0.,NA,NA,"",   960.881E+03,   960.830E+03,   960.830E+03
C:/temp/Job-9.odb,Step-1,Increment      1: Step Time =    1.000,"P-9-1",           464,          145.,          200.,            0.,NA,NA,"",   979.900E+03,   979.502E+03,   979.502E+03
C:/temp/Job-9.odb,Step-1,Increment      1: Step Time =    1.000,"P-9-1",           465,          155.,          200.,            0.,NA,NA,"",   991.644E+03,   991.455E+03,   991.455E+03
C:/temp/Job-9.odb,Step-1,Increment      1: Step Time =    1.000,"P-9-1",           466,          165.,          200.,            0.,NA,NA,"",   997.234E+03,   997.137E+03,   997.137E+03
C:/temp/Job-9.odb,Step-1,Increment      1: Step Time =    1.000,"P-9-1",           467,          175.,          200.,            0.,NA,NA,"",   998.750E+03,   998.730E+03,   998.730E+03
C:/temp/Job-9.odb,Step-1,Increment      1: Step Time =    1.000,"P-9-1",           468,          185.,          200.,            0.,NA,NA,"",   999.105E+03,   999.123E+03,   999.123E+03
C:/temp/Job-9.odb,Step-1,Increment      1: Step Time =    1.000,"P-9-1",           469,          195.,          200.,            0.,NA,NA,"",   999.792E+03,   999.765E+03,   999.765E+03
C:/temp/Job-9.odb,Step-1,Increment      1: Step Time =    1.000,"P-9-1",           470,            0.,            5.,            0.,NA,NA,"",   1.42590E+06,   1.51700E+06,   1.51700E+06
C:/temp/Job-9.odb,Step-1,Increment      1: Step Time =    1.000,"P-9-1",           471,            0.,           15.,            0.,NA,NA,"",   1.08090E+06,   1.18734E+06,   1.18734E+06
C:/temp/Job-9.odb,Step-1,Increment      1: Step Time =    1.000,"P-9-1",           472,            0.,           25.,            0.,NA,NA,"",   979.126E+03,   1.08628E+06,   1.08628E+06
C:/temp/Job-9.odb,Step-1,Increment      1: Step Time =    1.000,"P-9-1",           473,            0.,           35.,            0.,NA,NA,"",   918.095E+03,   1.02475E+06,   1.02475E+06
C:/temp/Job-9.odb,Step-1,Increment      1: Step Time =    1.000,"P-9-1",           474,            0.,           45.,            0.,NA,NA,"",   874.092E+03,   979.301E+03,   979.301E+03
C:/temp/Job-9.odb,Step-1,Increment      1: Step Time =    1.000,"P-9-1",           475,            0.,           55.,            0.,NA,NA,"",   836.386E+03,   939.787E+03,   939.787E+03
C:/temp/Job-9.odb,Step-1,Increment      1: Step Time =    1.000,"P-9-1",           476,            0.,           65.,            0.,NA,NA,"",   801.902E+03,   903.073E+03,   903.073E+03
C:/temp/Job-9.odb,Step-1,Increment      1: Step Time =    1.000,"P-9-1",           477,            0.,           75.,            0.,NA,NA,"",   772.061E+03,   870.753E+03,   870.753E+03
C:/temp/Job-9.odb,Step-1,Increment      1: Step Time =    1.000,"P-9-1",           478,            0.,           85.,            0.,NA,NA,"",   749.479E+03,   846.146E+03,   846.146E+03
C:/temp/Job-9.odb,Step-1,Increment      1: Step Time =    1.000,"P-9-1",           479,            0.,           95.,            0.,NA,NA,"",   737.195E+03,   832.740E+03,   832.740E+03
C:/temp/Job-9.odb,Step-1,Increment      1: Step Time =    1.000,"P-9-1",           480,            0.,          105.,            0.,NA,NA,"",   737.060E+03,   832.599E+03,   832.599E+03
C:/temp/Job-9.odb,Step-1,Increment      1: Step Time =    1.000,"P-9-1",           481,            0.,          115.,            0.,NA,NA,"",   749.307E+03,   845.973E+03,   845.973E+03
C:/temp/Job-9.odb,Step-1,Increment      1: Step Time =    1.000,"P-9-1",           482,            0.,          125.,            0.,NA,NA,"",   771.586E+03,   870.228E+03,   870.228E+03
C:/temp/Job-9.odb,Step-1,Increment      1: Step Time =    1.000,"P-9-1",           483,            0.,          135.,            0.,NA,NA,"",   802.069E+03,   902.790E+03,   902.790E+03
C:/temp/Job-9.odb,Step-1,Increment      1: Step Time =    1.000,"P-9-1",           484,            0.,          145.,            0.,NA,NA,"",   838.915E+03,   941.140E+03,   941.140E+03
C:/temp/Job-9.odb,Step-1,Increment      1: Step Time =    1.000,"P-9-1",           485,            0.,          155.,            0.,NA,NA,"",   874.743E+03,   980.692E+03,   980.692E+03
C:/temp/Job-9.odb,Step-1,Increment      1: Step Time =    1.000,"P-9-1",           486,            0.,          165.,            0.,NA,NA,"",   916.761E+03,   1.02419E+06,   1.02419E+06
C:/temp/Job-9.odb,Step-1,Increment      1: Step Time =    1.000,"P-9-1",           487,            0.,          175.,            0.,NA,NA,"",   977.877E+03,   1.08536E+06,   1.08536E+06
C:/temp/Job-9.odb,Step-1,Increment      1: Step Time =    1.000,"P-9-1",           488,            0.,          185.,            0.,NA,NA,"",   1.08085E+06,   1.18713E+06,   1.18713E+06
C:/temp/Job-9.odb,Step-1,Increment      1: Step Time =    1.000,"P-9-1",           489,            0.,          195.,            0.,NA,NA,"",   1.42379E+06,   1.51404E+06,   1.51404E+06
C:/temp/Job-9.odb,Step-1,Increment      1: Step Time =    1.000,"P-9-1",           490,       195.620,       34.6964,            0.,NA,NA,"",   996.922E+03,   1.00115E+06,   1.00115E+06
C:/temp/Job-9.odb,Step-1,Increment      1: Step Time =    1.000,"P-9-1",           491,       5.04946,       30.1939,            0.,NA,NA,"",   960.432E+03,   1.06073E+06,   1.06073E+06
C:/temp/Job-9.odb,Step-1,Increment      1: Step Time =    1.000,"P-9-1",           492,       5.32218,       20.0843,            0.,NA,NA,"",   1.04298E+06,   1.13876E+06,   1.13876E+06
C:/temp/Job-9.odb,Step-1,Increment      1: Step Time =    1.000,"P-9-1",           493,       4.95084,       9.89596,            0.,NA,NA,"",   1.21329E+06,   1.29513E+06,   1.29513E+06
C:/temp/Job-9.odb,Step-1,Increment      1: Step Time =    1.000,"P-9-1",           494,       14.8581,       4.94997,            0.,NA,NA,"",   1.19405E+06,   1.20377E+06,   1.20377E+06
C:/temp/Job-9.odb,Step-1,Increment      1: Step Time =    1.000,"P-9-1",           495,       24.9413,       4.94192,            0.,NA,NA,"",   1.10951E+06,   1.11265E+06,   1.11265E+06
C:/temp/Job-9.odb,Step-1,Increment      1: Step Time =    1.000,"P-9-1",           496,       5.24419,       40.2858,            0.,NA,NA,"",   908.043E+03,   1.00861E+06,   1.00861E+06
C:/temp/Job-9.odb,Step-1,Increment      1: Step Time =    1.000,"P-9-1",           497,       7.04565,       144.964,            0.,NA,NA,"",   854.876E+03,   951.486E+03,   951.486E+03
C:/temp/Job-9.odb,Step-1,Increment      1: Step Time =    1.000,"P-9-1",           498,       5.11890,       134.421,            0.,NA,NA,"",   808.064E+03,   906.196E+03,   906.196E+03
C:/temp/Job-9.odb,Step-1,Increment      1: Step Time =    1.000,"P-9-1",           499,       85.0700,       194.814,            0.,NA,NA,"",   938.584E+03,   939.365E+03,   939.365E+03
C:/temp/Job-9.odb,Step-1,Increment      1: Step Time =    1.000,"P-9-1",           500,       75.0265,       195.091,            0.,NA,NA,"",   959.991E+03,   960.237E+03,   960.237E+03
C:/temp/Job-9.odb,Step-1,Increment      1: Step Time =    1.000,"P-9-1",           501,       165.329,       195.815,            0.,NA,NA,"",   998.568E+03,   998.299E+03,   998.299E+03
C:/temp/Job-9.odb,Step-1,Increment      1: Step Time =    1.000,"P-9-1",           502,       155.767,       195.310,            0.,NA,NA,"",   994.315E+03,   993.815E+03,   993.815E+03
C:/temp/Job-9.odb,Step-1,Increment      1: Step Time =    1.000,"P-9-1",           503,       105.303,       194.955,            0.,NA,NA,"",   922.427E+03,   923.648E+03,   923.648E+03
C:/temp/Job-9.odb,Step-1,Increment      1: Step Time =    1.000,"P-9-1",           504,       95.1614,       194.972,            0.,NA,NA,"",   924.167E+03,   925.424E+03,   925.424E+03
C:/temp/Job-9.odb,Step-1,Increment      1: Step Time =    1.000,"P-9-1",           505,       34.7631,       4.68883,            0.,NA,NA,"",   1.06598E+06,   1.06699E+06,   1.06699E+06
C:/temp/Job-9.odb,Step-1,Increment      1: Step Time =    1.000,"P-9-1",           506,       44.3730,       4.92975,            0.,NA,NA,"",   1.03886E+06,   1.03893E+06,   1.03893E+06
C:/temp/Job-9.odb,Step-1,Increment      1: Step Time =    1.000,"P-9-1",           507,       54.9735,       7.15032,            0.,NA,NA,"",   1.02054E+06,   1.01987E+06,   1.01987E+06
C:/temp/Job-9.odb,Step-1,Increment      1: Step Time =    1.000,"P-9-1",           508,       65.5378,       5.10138,            0.,NA,NA,"",   984.445E+03,   984.637E+03,   984.637E+03
C:/temp/Job-9.odb,Step-1,Increment      1: Step Time =    1.000,"P-9-1",           509,       75.2902,       4.59542,            0.,NA,NA,"",   957.382E+03,   957.675E+03,   957.675E+03
C:/temp/Job-9.odb,Step-1,Increment      1: Step Time =    1.000,"P-9-1",           510,       85.0693,       4.65541,            0.,NA,NA,"",   935.932E+03,   936.637E+03,   936.637E+03
C:/temp/Job-9.odb,Step-1,Increment      1: Step Time =    1.000,"P-9-1",           511,       94.9583,       4.86123,            0.,NA,NA,"",   923.499E+03,   924.593E+03,   924.593E+03
C:/temp/Job-9.odb,Step-1,Increment      1: Step Time =    1.000,"P-9-1",           512,       104.899,       5.03704,            0.,NA,NA,"",   922.471E+03,   923.635E+03,   923.635E+03
C:/temp/Job-9.odb,Step-1,Increment      1: Step Time =    1.000,"P-9-1",           513,       114.875,       5.07319,            0.,NA,NA,"",   932.087E+03,   932.847E+03,   932.847E+03
C:/temp/Job-9.odb,Step-1,Increment      1: Step Time =    1.000,"P-9-1",           514,       124.874,       4.87479,            0.,NA,NA,"",   948.533E+03,   948.662E+03,   948.662E+03
C:/temp/Job-9.odb,Step-1,Increment      1: Step Time =    1.000,"P-9-1",           515,       134.813,       4.57789,            0.,NA,NA,"",   967.003E+03,   966.664E+03,   966.664E+03
C:/temp/Job-9.odb,Step-1,Increment      1: Step Time =    1.000,"P-9-1",           516,       144.593,       4.29689,            0.,NA,NA,"",   982.622E+03,   982.158E+03,   982.158E+03
C:/temp/Job-9.odb,Step-1,Increment      1: Step Time =    1.000,"P-9-1",           517,       154.368,       4.73716,            0.,NA,NA,"",   994.050E+03,   993.508E+03,   993.508E+03
C:/temp/Job-9.odb,Step-1,Increment      1: Step Time =    1.000,"P-9-1",           518,       164.339,       5.30123,            0.,NA,NA,"",   999.378E+03,   998.922E+03,   998.922E+03
C:/temp/Job-9.odb,Step-1,Increment      1: Step Time =    1.000,"P-9-1",           519,       174.608,       5.43155,            0.,NA,NA,"",   1.00035E+06,   1.00019E+06,   1.00019E+06
C:/temp/Job-9.odb,Step-1,Increment      1: Step Time =    1.000,"P-9-1",           520,       184.874,       5.53354,            0.,NA,NA,"",   999.915E+03,   999.975E+03,   999.975E+03
C:/temp/Job-9.odb,Step-1,Increment      1: Step Time =    1.000,"P-9-1",           521,       195.028,       5.07939,            0.,NA,NA,"",   999.947E+03,   999.897E+03,   999.897E+03
C:/temp/Job-9.odb,Step-1,Increment      1: Step Time =    1.000,"P-9-1",           522,       195.367,       15.0460,            0.,NA,NA,"",   1.00036E+06,   1.00032E+06,   1.00032E+06
C:/temp/Job-9.odb,Step-1,Increment      1: Step Time =    1.000,"P-9-1",           523,       195.729,       24.9226,            0.,NA,NA,"",   999.760E+03,   1.00069E+06,   1.00069E+06
C:/temp/Job-9.odb,Step-1,Increment      1: Step Time =    1.000,"P-9-1",           524,       195.140,       44.3806,            0.,NA,NA,"",   991.017E+03,   1.00174E+06,   1.00174E+06
C:/temp/Job-9.odb,Step-1,Increment      1: Step Time =    1.000,"P-9-1",           525,       193.756,       54.4985,            0.,NA,NA,"",   982.437E+03,   1.00257E+06,   1.00257E+06
C:/temp/Job-9.odb,Step-1,Increment      1: Step Time =    1.000,"P-9-1",           526,       194.748,       64.9940,            0.,NA,NA,"",   966.822E+03,   1.00079E+06,   1.00079E+06
C:/temp/Job-9.odb,Step-1,Increment      1: Step Time =    1.000,"P-9-1",           527,       194.874,       74.9258,            0.,NA,NA,"",   952.427E+03,   999.543E+03,   999.543E+03
C:/temp/Job-9.odb,Step-1,Increment      1: Step Time =    1.000,"P-9-1",           528,       194.882,       84.9169,            0.,NA,NA,"",   939.962E+03,   997.879E+03,   997.879E+03
C:/temp/Job-9.odb,Step-1,Increment      1: Step Time =    1.000,"P-9-1",           529,       194.890,       94.9470,            0.,NA,NA,"",   932.498E+03,   996.587E+03,   996.587E+03
C:/temp/Job-9.odb,Step-1,Increment      1: Step Time =    1.000,"P-9-1",           530,       194.890,       104.998,            0.,NA,NA,"",   932.335E+03,   996.511E+03,   996.511E+03
C:/temp/Job-9.odb,Step-1,Increment      1: Step Time =    1.000,"P-9-1",           531,       194.948,       115.030,            0.,NA,NA,"",   939.722E+03,   997.924E+03,   997.924E+03
C:/temp/Job-9.odb,Step-1,Increment      1: Step Time =    1.000,"P-9-1",           532,       195.169,       124.968,            0.,NA,NA,"",   951.881E+03,   999.613E+03,   999.613E+03
C:/temp/Job-9.odb,Step-1,Increment      1: Step Time =    1.000,"P-9-1",           533,       195.453,       134.864,            0.,NA,NA,"",   966.186E+03,   1.00091E+06,   1.00091E+06
C:/temp/Job-9.odb,Step-1,Increment      1: Step Time =    1.000,"P-9-1",           534,       195.711,       144.613,            0.,NA,NA,"",   979.136E+03,   1.00121E+06,   1.00121E+06
C:/temp/Job-9.odb,Step-1,Increment      1: Step Time =    1.000,"P-9-1",           535,       194.883,       194.995,            0.,NA,NA,"",   999.943E+03,   999.886E+03,   999.886E+03
C:/temp/Job-9.odb,Step-1,Increment      1: Step Time =    1.000,"P-9-1",           536,       184.863,       195.321,            0.,NA,NA,"",   999.610E+03,   999.661E+03,   999.661E+03
C:/temp/Job-9.odb,Step-1,Increment      1: Step Time =    1.000,"P-9-1",           537,       175.012,       195.767,            0.,NA,NA,"",   999.599E+03,   999.531E+03,   999.531E+03
C:/temp/Job-9.odb,Step-1,Increment      1: Step Time =    1.000,"P-9-1",           538,       146.079,       193.812,            0.,NA,NA,"",   987.500E+03,   986.526E+03,   986.526E+03
C:/temp/Job-9.odb,Step-1,Increment      1: Step Time =    1.000,"P-9-1",           539,       135.418,       194.931,            0.,NA,NA,"",   968.495E+03,   968.145E+03,   968.145E+03
C:/temp/Job-9.odb,Step-1,Increment      1: Step Time =    1.000,"P-9-1",           540,       125.418,       195.053,            0.,NA,NA,"",   949.355E+03,   949.472E+03,   949.472E+03
C:/temp/Job-9.odb,Step-1,Increment      1: Step Time =    1.000,"P-9-1",           541,       115.393,       194.822,            0.,NA,NA,"",   932.755E+03,   933.443E+03,   933.443E+03
C:/temp/Job-9.odb,Step-1,Increment      1: Step Time =    1.000,"P-9-1",           542,       65.1204,       195.361,            0.,NA,NA,"",   984.939E+03,   984.757E+03,   984.757E+03
C:/temp/Job-9.odb,Step-1,Increment      1: Step Time =    1.000,"P-9-1",           543,       55.2952,       195.387,            0.,NA,NA,"",   1.01051E+06,   1.01035E+06,   1.01035E+06
C:/temp/Job-9.odb,Step-1,Increment      1: Step Time =    1.000,"P-9-1",           544,       45.4182,       194.939,            0.,NA,NA,"",   1.03733E+06,   1.03745E+06,   1.03745E+06
C:/temp/Job-9.odb,Step-1,Increment      1: Step Time =    1.000,"P-9-1",           545,       35.3296,       194.666,            0.,NA,NA,"",   1.06749E+06,   1.06851E+06,   1.06851E+06
C:/temp/Job-9.odb,Step-1,Increment      1: Step Time =    1.000,"P-9-1",           546,       25.1667,       194.806,            0.,NA,NA,"",   1.11048E+06,   1.11359E+06,   1.11359E+06
C:/temp/Job-9.odb,Step-1,Increment      1: Step Time =    1.000,"P-9-1",           547,       15.1280,       194.885,            0.,NA,NA,"",   1.19215E+06,   1.20185E+06,   1.20185E+06
C:/temp/Job-9.odb,Step-1,Increment      1: Step Time =    1.000,"P-9-1",           548,       5.06315,       194.953,            0.,NA,NA,"",   1.38473E+06,   1.43802E+06,   1.43802E+06
C:/temp/Job-9.odb,Step-1,Increment      1: Step Time =    1.000,"P-9-1",           549,       5.22538,       184.851,            0.,NA,NA,"",   1.10033E+06,   1.19245E+06,   1.19245E+06
C:/temp/Job-9.odb,Step-1,Increment      1: Step Time =    1.000,"P-9-1",           550,       5.01519,       174.758,            0.,NA,NA,"",   992.595E+03,   1.09193E+06,   1.09193E+06
C:/temp/Job-9.odb,Step-1,Increment      1: Step Time =    1.000,"P-9-1",           551,       4.50066,       165.004,            0.,NA,NA,"",   929.041E+03,   1.03141E+06,   1.03141E+06
C:/temp/Job-9.odb,Step-1,Increment      1: Step Time =    1.000,"P-9-1",           552,       4.67196,       155.467,            0.,NA,NA,"",   886.469E+03,   988.385E+03,   988.385E+03
C:/temp/Job-9.odb,Step-1,Increment      1: Step Time =    1.000,"P-9-1",           553,       4.69260,       124.607,            0.,NA,NA,"",   775.668E+03,   872.663E+03,   872.663E+03
C:/temp/Job-9.odb,Step-1,Increment      1: Step Time =    1.000,"P-9-1",           554,       4.76362,       114.823,            0.,NA,NA,"",   751.899E+03,   847.517E+03,   847.517E+03
C:/temp/Job-9.odb,Step-1,Increment      1: Step Time =    1.000,"P-9-1",           555,       4.88355,       104.910,            0.,NA,NA,"",   738.602E+03,   833.407E+03,   833.407E+03
C:/temp/Job-9.odb,Step-1,Increment      1: Step Time =    1.000,"P-9-1",           556,       4.92409,       94.9678,            0.,NA,NA,"",   738.867E+03,   833.660E+03,   833.660E+03
C:/temp/Job-9.odb,Step-1,Increment      1: Step Time =    1.000,"P-9-1",           557,       4.81223,       85.0658,            0.,NA,NA,"",   752.226E+03,   847.828E+03,   847.828E+03
C:/temp/Job-9.odb,Step-1,Increment      1: Step Time =    1.000,"P-9-1",           558,       4.64151,       75.1730,            0.,NA,NA,"",   776.573E+03,   873.625E+03,   873.625E+03
C:/temp/Job-9.odb,Step-1,Increment      1: Step Time =    1.000,"P-9-1",           559,       4.60890,       65.2808,            0.,NA,NA,"",   808.442E+03,   907.196E+03,   907.196E+03
C:/temp/Job-9.odb,Step-1,Increment      1: Step Time =    1.000,"P-9-1",           560,       4.85798,       55.3882,            0.,NA,NA,"",   845.062E+03,   945.026E+03,   945.026E+03
C:/temp/Job-9.odb,Step-1,Increment      1: Step Time =    1.000,"P-9-1",           561,       195.258,       154.372,            0.,NA,NA,"",   990.078E+03,   1.00157E+06,   1.00157E+06
C:/temp/Job-9.odb,Step-1,Increment      1: Step Time =    1.000,"P-9-1",           562,       194.701,       164.341,            0.,NA,NA,"",   996.933E+03,   1.00161E+06,   1.00161E+06
C:/temp/Job-9.odb,Step-1,Increment      1: Step Time =    1.000,"P-9-1",           563,       194.550,       174.589,            0.,NA,NA,"",   1.00005E+06,   1.00120E+06,   1.00120E+06
C:/temp/Job-9.odb,Step-1,Increment      1: Step Time =    1.000,"P-9-1",           564,       194.398,       184.812,            0.,NA,NA,"",   1.00051E+06,   1.00054E+06,   1.00054E+06
C:/temp/Job-9.odb,Step-1,Increment      1: Step Time =    1.000,"P-9-1",           565,       190.004,       5.26345,            0.,NA,NA,"",   999.801E+03,   999.853E+03,   999.853E+03
C:/temp/Job-9.odb,Step-1,Increment      1: Step Time =    1.000,"P-9-1",           566,       179.706,       5.74585,            0.,NA,NA,"",   1.00018E+06,   1.00017E+06,   1.00017E+06
C:/temp/Job-9.odb,Step-1,Increment      1: Step Time =    1.000,"P-9-1",           567,       169.460,       5.26190,            0.,NA,NA,"",   1.00020E+06,   999.874E+03,   999.874E+03
C:/temp/Job-9.odb,Step-1,Increment      1: Step Time =    1.000,"P-9-1",           568,       159.248,       5.30333,            0.,NA,NA,"",   997.532E+03,   996.991E+03,   996.991E+03
C:/temp/Job-9.odb,Step-1,Increment      1: Step Time =    1.000,"P-9-1",           569,       149.367,       4.33019,            0.,NA,NA,"",   988.874E+03,   988.387E+03,   988.387E+03
C:/temp/Job-9.odb,Step-1,Increment      1: Step Time =    1.000,"P-9-1",           570,       139.754,       4.42567,            0.,NA,NA,"",   975.373E+03,   974.928E+03,   974.928E+03
C:/temp/Job-9.odb,Step-1,Increment      1: Step Time =    1.000,"P-9-1",           571,       129.842,       4.72476,            0.,NA,NA,"",   957.841E+03,   957.692E+03,   957.692E+03
C:/temp/Job-9.odb,Step-1,Increment      1: Step Time =    1.000,"P-9-1",           572,       119.884,       5.00019,            0.,NA,NA,"",   939.752E+03,   940.195E+03,   940.195E+03
C:/temp/Job-9.odb,Step-1,Increment      1: Step Time =    1.000,"P-9-1",           573,       109.876,       5.08027,            0.,NA,NA,"",   926.128E+03,   927.153E+03,   927.153E+03
C:/temp/Job-9.odb,Step-1,Increment      1: Step Time =    1.000,"P-9-1",           574,       99.9328,       4.95648,            0.,NA,NA,"",   921.530E+03,   922.724E+03,   922.724E+03
C:/temp/Job-9.odb,Step-1,Increment      1: Step Time =    1.000,"P-9-1",           575,       90.0013,       4.74579,            0.,NA,NA,"",   928.374E+03,   929.303E+03,   929.303E+03
C:/temp/Job-9.odb,Step-1,Increment      1: Step Time =    1.000,"P-9-1",           576,       80.1625,       4.58567,            0.,NA,NA,"",   945.789E+03,   946.239E+03,   946.239E+03
C:/temp/Job-9.odb,Step-1,Increment      1: Step Time =    1.000,"P-9-1",           577,       70.4246,       4.73625,            0.,NA,NA,"",   970.476E+03,   970.640E+03,   970.640E+03
C:/temp/Job-9.odb,Step-1,Increment      1: Step Time =    1.000,"P-9-1",           578,       60.5640,       5.81844,            0.,NA,NA,"",   1.00023E+06,   1.00011E+06,   1.00011E+06
C:/temp/Job-9.odb,Step-1,Increment      1: Step Time =    1.000,"P-9-1",           579,       49.3020,       5.52579,            0.,NA,NA,"",   1.02857E+06,   1.02809E+06,   1.02809E+06
C:/temp/Job-9.odb,Step-1,Increment      1: Step Time =    1.000,"P-9-1",           580,       39.5869,       4.73181,            0.,NA,NA,"",   1.05115E+06,   1.05173E+06,   1.05173E+06
C:/temp/Job-9.odb,Step-1,Increment      1: Step Time =    1.000,"P-9-1",           581,       29.8826,       4.76107,            0.,NA,NA,"",   1.08463E+06,   1.08651E+06,   1.08651E+06
C:/temp/Job-9.odb,Step-1,Increment      1: Step Time =    1.000,"P-9-1",           582,       19.9126,       5.09925,            0.,NA,NA,"",   1.14500E+06,   1.15018E+06,   1.15018E+06
C:/temp/Job-9.odb,Step-1,Increment      1: Step Time =    1.000,"P-9-1",           583,       9.87365,       4.88728,            0.,NA,NA,"",   1.28717E+06,   1.30123E+06,   1.30123E+06
C:/temp/Job-9.odb,Step-1,Increment      1: Step Time =    1.000,"P-9-1",           584,       194.673,       189.948,            0.,NA,NA,"",   1.00026E+06,   1.00017E+06,   1.00017E+06
C:/temp/Job-9.odb,Step-1,Increment      1: Step Time =    1.000,"P-9-1",           585,       194.206,       179.666,            0.,NA,NA,"",   1.00051E+06,   1.00089E+06,   1.00089E+06
C:/temp/Job-9.odb,Step-1,Increment      1: Step Time =    1.000,"P-9-1",           586,       194.740,       169.450,            0.,NA,NA,"",   998.904E+03,   1.00141E+06,   1.00141E+06
C:/temp/Job-9.odb,Step-1,Increment      1: Step Time =    1.000,"P-9-1",           587,       194.697,       159.262,            0.,NA,NA,"",   994.159E+03,   1.00176E+06,   1.00176E+06
C:/temp/Job-9.odb,Step-1,Increment      1: Step Time =    1.000,"P-9-1",           588,       195.671,       149.381,            0.,NA,NA,"",   984.793E+03,   1.00126E+06,   1.00126E+06
C:/temp/Job-9.odb,Step-1,Increment      1: Step Time =    1.000,"P-9-1",           589,       195.595,       139.788,            0.,NA,NA,"",   973.032E+03,    1.0012E+06,    1.0012E+06
C:/temp/Job-9.odb,Step-1,Increment      1: Step Time =    1.000,"P-9-1",           590,       195.317,       129.910,            0.,NA,NA,"",   958.933E+03,   1.00033E+06,   1.00033E+06
C:/temp/Job-9.odb,Step-1,Increment      1: Step Time =    1.000,"P-9-1",           591,       195.040,       120.008,            0.,NA,NA,"",   945.388E+03,   998.800E+03,   998.800E+03
C:/temp/Job-9.odb,Step-1,Increment      1: Step Time =    1.000,"P-9-1",           592,       194.901,       110.025,            0.,NA,NA,"",   935.212E+03,   997.078E+03,   997.078E+03
C:/temp/Job-9.odb,Step-1,Increment      1: Step Time =    1.000,"P-9-1",           593,       194.889,       99.9683,            0.,NA,NA,"",   931.406E+03,   996.345E+03,   996.345E+03
C:/temp/Job-9.odb,Step-1,Increment      1: Step Time =    1.000,"P-9-1",           594,       194.884,       89.9299,            0.,NA,NA,"",   935.462E+03,   997.161E+03,   997.161E+03
C:/temp/Job-9.odb,Step-1,Increment      1: Step Time =    1.000,"P-9-1",           595,       194.880,       79.9132,            0.,NA,NA,"",   945.738E+03,   998.707E+03,   998.707E+03
C:/temp/Job-9.odb,Step-1,Increment      1: Step Time =    1.000,"P-9-1",           596,       194.841,       69.9560,            0.,NA,NA,"",   959.607E+03,   1.00027E+06,   1.00027E+06
C:/temp/Job-9.odb,Step-1,Increment      1: Step Time =    1.000,"P-9-1",           597,       194.494,       59.9719,            0.,NA,NA,"",   974.268E+03,   1.00146E+06,   1.00146E+06
C:/temp/Job-9.odb,Step-1,Increment      1: Step Time =    1.000,"P-9-1",           598,       194.729,       49.2860,            0.,NA,NA,"",   987.113E+03,   1.00230E+06,   1.00230E+06
C:/temp/Job-9.odb,Step-1,Increment      1: Step Time =    1.000,"P-9-1",           599,       195.415,       39.5328,            0.,NA,NA,"",   994.345E+03,   1.00140E+06,   1.00140E+06
C:/temp/Job-9.odb,Step-1,Increment      1: Step Time =    1.000,"P-9-1",           600,       195.753,       29.8403,            0.,NA,NA,"",   998.694E+03,   1.00091E+06,   1.00091E+06
C:/temp/Job-9.odb,Step-1,Increment      1: Step Time =    1.000,"P-9-1",           601,       195.587,       19.9941,            0.,NA,NA,"",   1.00026E+06,   1.00050E+06,   1.00050E+06
C:/temp/Job-9.odb,Step-1,Increment      1: Step Time =    1.000,"P-9-1",           602,       195.163,       10.0921,            0.,NA,NA,"",   1.00021E+06,   1.00013E+06,   1.00013E+06
C:/temp/Job-9.odb,Step-1,Increment      1: Step Time =    1.000,"P-9-1",           603,       10.0844,       194.931,            0.,NA,NA,"",   1.28183E+06,   1.29663E+06,   1.29663E+06
C:/temp/Job-9.odb,Step-1,Increment      1: Step Time =    1.000,"P-9-1",           604,       20.1567,       194.817,            0.,NA,NA,"",   1.14513E+06,   1.15006E+06,   1.15006E+06
C:/temp/Job-9.odb,Step-1,Increment      1: Step Time =    1.000,"P-9-1",           605,       30.2106,       194.766,            0.,NA,NA,"",   1.08639E+06,   1.08825E+06,   1.08825E+06
C:/temp/Job-9.odb,Step-1,Increment      1: Step Time =    1.000,"P-9-1",           606,       40.4367,       194.572,            0.,NA,NA,"",   1.05185E+06,   1.05240E+06,   1.05240E+06
C:/temp/Job-9.odb,Step-1,Increment      1: Step Time =    1.000,"P-9-1",           607,       50.3814,       195.231,            0.,NA,NA,"",   1.02347E+06,   1.02345E+06,   1.02345E+06
C:/temp/Job-9.odb,Step-1,Increment      1: Step Time =    1.000,"P-9-1",           608,       60.2026,       195.411,            0.,NA,NA,"",   997.724E+03,   997.503E+03,   997.503E+03
C:/temp/Job-9.odb,Step-1,Increment      1: Step Time =    1.000,"P-9-1",           609,       70.0553,       195.251,            0.,NA,NA,"",   972.361E+03,   972.267E+03,   972.267E+03
C:/temp/Job-9.odb,Step-1,Increment      1: Step Time =    1.000,"P-9-1",           610,       80.0495,       194.915,            0.,NA,NA,"",   948.550E+03,   949.102E+03,   949.102E+03
C:/temp/Job-9.odb,Step-1,Increment      1: Step Time =    1.000,"P-9-1",           611,       90.0881,       194.868,            0.,NA,NA,"",   930.189E+03,   931.303E+03,   931.303E+03
C:/temp/Job-9.odb,Step-1,Increment      1: Step Time =    1.000,"P-9-1",           612,       100.238,       195.004,            0.,NA,NA,"",   921.526E+03,   922.757E+03,   922.757E+03
C:/temp/Job-9.odb,Step-1,Increment      1: Step Time =    1.000,"P-9-1",           613,       110.364,       194.854,            0.,NA,NA,"",   926.512E+03,   927.514E+03,   927.514E+03
C:/temp/Job-9.odb,Step-1,Increment      1: Step Time =    1.000,"P-9-1",           614,       120.393,       194.925,            0.,NA,NA,"",   940.398E+03,   940.840E+03,   940.840E+03
C:/temp/Job-9.odb,Step-1,Increment      1: Step Time =    1.000,"P-9-1",           615,       130.425,       195.067,            0.,NA,NA,"",   958.991E+03,   958.793E+03,   958.793E+03
C:/temp/Job-9.odb,Step-1,Increment      1: Step Time =    1.000,"P-9-1",           616,       140.496,       194.578,            0.,NA,NA,"",   977.782E+03,   977.206E+03,   977.206E+03
C:/temp/Job-9.odb,Step-1,Increment      1: Step Time =    1.000,"P-9-1",           617,       151.009,       194.812,            0.,NA,NA,"",   990.851E+03,   990.134E+03,   990.134E+03
C:/temp/Job-9.odb,Step-1,Increment      1: Step Time =    1.000,"P-9-1",           618,       160.536,       195.644,            0.,NA,NA,"",   996.971E+03,   996.598E+03,   996.598E+03
C:/temp/Job-9.odb,Step-1,Increment      1: Step Time =    1.000,"P-9-1",           619,       170.141,       195.874,            0.,NA,NA,"",   999.340E+03,   999.178E+03,   999.178E+03
C:/temp/Job-9.odb,Step-1,Increment      1: Step Time =    1.000,"P-9-1",           620,       179.913,       195.569,            0.,NA,NA,"",   999.612E+03,   999.621E+03,   999.621E+03
C:/temp/Job-9.odb,Step-1,Increment      1: Step Time =    1.000,"P-9-1",           621,       189.838,       195.112,            0.,NA,NA,"",   999.725E+03,   999.757E+03,   999.757E+03
C:/temp/Job-9.odb,Step-1,Increment      1: Step Time =    1.000,"P-9-1",           622,       5.09158,       14.9517,            0.,NA,NA,"",   1.10139E+06,   1.19396E+06,   1.19396E+06
C:/temp/Job-9.odb,Step-1,Increment      1: Step Time =    1.000,"P-9-1",           623,       5.18426,       25.1620,            0.,NA,NA,"",   995.077E+03,   1.09378E+06,   1.09378E+06
C:/temp/Job-9.odb,Step-1,Increment      1: Step Time =    1.000,"P-9-1",           624,       5.09639,       35.2211,            0.,NA,NA,"",   931.844E+03,   1.03267E+06,   1.03267E+06
C:/temp/Job-9.odb,Step-1,Increment      1: Step Time =    1.000,"P-9-1",           625,       5.39233,       45.4362,            0.,NA,NA,"",   886.235E+03,   986.500E+03,   986.500E+03
C:/temp/Job-9.odb,Step-1,Increment      1: Step Time =    1.000,"P-9-1",           626,       5.12870,       50.4325,            0.,NA,NA,"",   865.429E+03,   965.555E+03,   965.555E+03
C:/temp/Job-9.odb,Step-1,Increment      1: Step Time =    1.000,"P-9-1",           627,       4.68857,       60.3347,            0.,NA,NA,"",   826.206E+03,   925.691E+03,   925.691E+03
C:/temp/Job-9.odb,Step-1,Increment      1: Step Time =    1.000,"P-9-1",           628,       4.58886,       70.2193,            0.,NA,NA,"",   791.817E+03,   889.723E+03,   889.723E+03
C:/temp/Job-9.odb,Step-1,Increment      1: Step Time =    1.000,"P-9-1",           629,       4.71283,       80.1224,            0.,NA,NA,"",   763.207E+03,   859.472E+03,   859.472E+03
C:/temp/Job-9.odb,Step-1,Increment      1: Step Time =    1.000,"P-9-1",           630,       4.87978,       90.0154,            0.,NA,NA,"",   744.028E+03,    839.13E+03,    839.13E+03
C:/temp/Job-9.odb,Step-1,Increment      1: Step Time =    1.000,"P-9-1",           631,       4.91610,       99.9364,            0.,NA,NA,"",   736.978E+03,   831.673E+03,   831.673E+03
C:/temp/Job-9.odb,Step-1,Increment      1: Step Time =    1.000,"P-9-1",           632,       4.82607,       109.884,            0.,NA,NA,"",   743.705E+03,   838.821E+03,   838.821E+03
C:/temp/Job-9.odb,Step-1,Increment      1: Step Time =    1.000,"P-9-1",           633,       4.70577,       119.723,            0.,NA,NA,"",   762.693E+03,   858.958E+03,   858.958E+03
C:/temp/Job-9.odb,Step-1,Increment      1: Step Time =    1.000,"P-9-1",           634,       4.80107,       129.495,            0.,NA,NA,"",   790.820E+03,   888.509E+03,   888.509E+03
C:/temp/Job-9.odb,Step-1,Increment      1: Step Time =    1.000,"P-9-1",           635,       5.78704,       139.412,            0.,NA,NA,"",   828.100E+03,   926.062E+03,   926.062E+03
C:/temp/Job-9.odb,Step-1,Increment      1: Step Time =    1.000,"P-9-1",           636,       5.32196,       150.567,            0.,NA,NA,"",   869.796E+03,   969.917E+03,   969.917E+03
C:/temp/Job-9.odb,Step-1,Increment      1: Step Time =    1.000,"P-9-1",           637,       4.46946,       160.226,            0.,NA,NA,"",   906.078E+03,   1.00855E+06,   1.00855E+06
C:/temp/Job-9.odb,Step-1,Increment      1: Step Time =    1.000,"P-9-1",           638,       4.68209,       169.837,            0.,NA,NA,"",   957.592E+03,   1.05895E+06,   1.05895E+06
C:/temp/Job-9.odb,Step-1,Increment      1: Step Time =    1.000,"P-9-1",           639,       5.32637,       179.755,            0.,NA,NA,"",   1.04084E+06,   1.13684E+06,   1.13684E+06
C:/temp/Job-9.odb,Step-1,Increment      1: Step Time =    1.000,"P-9-1",           640,       5.11751,       189.927,            0.,NA,NA,"",   1.20995E+06,   1.29133E+06,   1.29133E+06
C:/temp/Job-9.odb,Step-1,Increment      1: Step Time =    1.000,"P-9-1",           641,       95.0798,       122.254,            0.,NA,NA,"",   1.75128E+06,   1.86845E+06,   1.86845E+06
C:/temp/Job-9.odb,Step-1,Increment      1: Step Time =    1.000,"P-9-1",           642,       79.2659,       90.5311,            0.,NA,NA,"",   746.005E+03,   276.589E+03,   276.589E+03
C:/temp/Job-9.odb,Step-1,Increment      1: Step Time =    1.000,"P-9-1",           643,       80.2221,       112.557,            0.,NA,NA,"",   942.822E+03,   790.747E+03,   790.747E+03
C:/temp/Job-9.odb,Step-1,Increment      1: Step Time =    1.000,"P-9-1",           644,       76.8984,       96.9213,            0.,NA,NA,"",   426.887E+03,  -50.6350E+03,  -50.6350E+03
C:/temp/Job-9.odb,Step-1,Increment      1: Step Time =    1.000,"P-9-1",           645,       87.4315,       80.0587,            0.,NA,NA,"",   1.47791E+06,   1.49862E+06,   1.49862E+06
C:/temp/Job-9.odb,Step-1,Increment      1: Step Time =    1.000,"P-9-1",           646,       121.912,       106.204,            0.,NA,NA,"",   613.166E+03,   200.090E+03,   200.090E+03
C:/temp/Job-9.odb,Step-1,Increment      1: Step Time =    1.000,"P-9-1",           647,       121.916,       91.8464,            0.,NA,NA,"",   714.415E+03,   183.868E+03,   183.868E+03
C:/temp/Job-9.odb,Step-1,Increment      1: Step Time =    1.000,"P-9-1",           648,       77.1233,       105.945,            0.,NA,NA,"",   561.105E+03,   240.145E+03,   240.145E+03
C:/temp/Job-9.odb,Step-1,Increment      1: Step Time =    1.000,"P-9-1",           649,       102.387,       79.1721,            0.,NA,NA,"",   1.99354E+06,   2.11433E+06,   2.11433E+06
C:/temp/Job-9.odb,Step-1,Increment      1: Step Time =    1.000,"P-9-1",           650,       88.0897,       117.696,            0.,NA,NA,"",   1.50491E+06,   1.51724E+06,   1.51724E+06
C:/temp/Job-9.odb,Step-1,Increment      1: Step Time =    1.000,"P-9-1",           651,       113.054,       81.2274,            0.,NA,NA,"",   1.49968E+06,   1.49823E+06,   1.49823E+06
C:/temp/Job-9.odb,Step-1,Increment      1: Step Time =    1.000,"P-9-1",           652,       94.3377,       77.8187,            0.,NA,NA,"",   1.70206E+06,   1.81216E+06,   1.81216E+06
C:/temp/Job-9.odb,Step-1,Increment      1: Step Time =    1.000,"P-9-1",           653,       122.618,       98.6487,            0.,NA,NA,"",   384.040E+03,  -170.356E+03,  -170.356E+03
C:/temp/Job-9.odb,Step-1,Increment      1: Step Time =    1.000,"P-9-1",           654,       102.067,       123.024,            0.,NA,NA,"",   1.74490E+06,   1.88599E+06,   1.88599E+06
C:/temp/Job-9.odb,Step-1,Increment      1: Step Time =    1.000,"P-9-1",           655,       106.841,       78.4409,            0.,NA,NA,"",   1.72432E+06,   1.82621E+06,   1.82621E+06
C:/temp/Job-9.odb,Step-1,Increment      1: Step Time =    1.000,"P-9-1",           656,       119.339,       112.390,            0.,NA,NA,"",   998.793E+03,   813.196E+03,   813.196E+03
C:/temp/Job-9.odb,Step-1,Increment      1: Step Time =    1.000,"P-9-1",           657,       82.7669,       76.1941,            0.,NA,NA,"",   1.37544E+06,   1.33570E+06,   1.33570E+06
C:/temp/Job-9.odb,Step-1,Increment      1: Step Time =    1.000,"P-9-1",           658,       117.698,       79.1687,            0.,NA,NA,"",   1.40323E+06,   1.31038E+06,   1.31038E+06
C:/temp/Job-9.odb,Step-1,Increment      1: Step Time =    1.000,"P-9-1",           659,       139.631,       8.92837,            0.,NA,NA,"",   987.316E+03,   986.015E+03,   986.015E+03
C:/temp/Job-9.odb,Step-1,Increment      1: Step Time =    1.000,"P-9-1",           660,       129.775,       9.46249,            0.,NA,NA,"",   975.202E+03,   974.844E+03,   974.844E+03
C:/temp/Job-9.odb,Step-1,Increment      1: Step Time =    1.000,"P-9-1",           661,       119.823,       10.0651,            0.,NA,NA,"",   962.375E+03,   963.717E+03,   963.717E+03
C:/temp/Job-9.odb,Step-1,Increment      1: Step Time =    1.000,"P-9-1",           662,       109.678,       10.2326,            0.,NA,NA,"",   951.969E+03,   954.969E+03,   954.969E+03
C:/temp/Job-9.odb,Step-1,Increment      1: Step Time =    1.000,"P-9-1",           663,       99.7502,       9.94441,            0.,NA,NA,"",   948.476E+03,   951.889E+03,   951.889E+03
C:/temp/Job-9.odb,Step-1,Increment      1: Step Time =    1.000,"P-9-1",           664,       89.8848,       9.49473,            0.,NA,NA,"",   954.487E+03,   957.106E+03,   957.106E+03
C:/temp/Job-9.odb,Step-1,Increment      1: Step Time =    1.000,"P-9-1",           665,       80.2762,       9.19982,            0.,NA,NA,"",   969.147E+03,   970.514E+03,   970.514E+03
C:/temp/Job-9.odb,Step-1,Increment      1: Step Time =    1.000,"P-9-1",           666,       71.0164,       9.39846,            0.,NA,NA,"",   990.467E+03,   990.801E+03,   990.801E+03
C:/temp/Job-9.odb,Step-1,Increment      1: Step Time =    1.000,"P-9-1",           667,       62.1749,       11.0772,            0.,NA,NA,"",   1.01869E+06,   1.01816E+06,   1.01816E+06
C:/temp/Job-9.odb,Step-1,Increment      1: Step Time =    1.000,"P-9-1",           668,       191.104,       139.709,            0.,NA,NA,"",   979.449E+03,   1.00347E+06,   1.00347E+06
C:/temp/Job-9.odb,Step-1,Increment      1: Step Time =    1.000,"P-9-1",           669,       190.616,       129.932,            0.,NA,NA,"",   966.222E+03,   1.00077E+06,   1.00077E+06
C:/temp/Job-9.odb,Step-1,Increment      1: Step Time =    1.000,"P-9-1",           670,       189.999,       120.114,            0.,NA,NA,"",   952.432E+03,   996.458E+03,   996.458E+03
C:/temp/Job-9.odb,Step-1,Increment      1: Step Time =    1.000,"P-9-1",           671,       189.769,       110.062,            0.,NA,NA,"",   940.328E+03,   991.540E+03,   991.540E+03
C:/temp/Job-9.odb,Step-1,Increment      1: Step Time =    1.000,"P-9-1",           672,       189.793,       99.9114,            0.,NA,NA,"",   935.541E+03,   989.556E+03,   989.556E+03
C:/temp/Job-9.odb,Step-1,Increment      1: Step Time =    1.000,"P-9-1",           673,       189.767,       89.8512,            0.,NA,NA,"",   940.809E+03,   991.871E+03,   991.871E+03
C:/temp/Job-9.odb,Step-1,Increment      1: Step Time =    1.000,"P-9-1",           674,       189.743,       79.8182,            0.,NA,NA,"",   952.854E+03,   996.300E+03,   996.300E+03
C:/temp/Job-9.odb,Step-1,Increment      1: Step Time =    1.000,"P-9-1",           675,       189.690,       69.9365,            0.,NA,NA,"",   967.746E+03,   1.00091E+06,   1.00091E+06
C:/temp/Job-9.odb,Step-1,Increment      1: Step Time =    1.000,"P-9-1",           676,       189.426,       60.3560,            0.,NA,NA,"",   981.768E+03,   1.00428E+06,   1.00428E+06
C:/temp/Job-9.odb,Step-1,Increment      1: Step Time =    1.000,"P-9-1",           677,       60.4102,       190.774,            0.,NA,NA,"",   1.01581E+06,   1.01525E+06,   1.01525E+06
C:/temp/Job-9.odb,Step-1,Increment      1: Step Time =    1.000,"P-9-1",           678,       70.0171,       190.491,            0.,NA,NA,"",   994.266E+03,   994.182E+03,   994.182E+03
C:/temp/Job-9.odb,Step-1,Increment      1: Step Time =    1.000,"P-9-1",           679,       79.9713,       189.767,            0.,NA,NA,"",   975.194E+03,   976.796E+03,   976.796E+03
C:/temp/Job-9.odb,Step-1,Increment      1: Step Time =    1.000,"P-9-1",           680,       100.469,       190.135,            0.,NA,NA,"",   947.668E+03,   951.082E+03,   951.082E+03
C:/temp/Job-9.odb,Step-1,Increment      1: Step Time =    1.000,"P-9-1",           681,       120.919,       189.841,            0.,NA,NA,"",   964.206E+03,   965.347E+03,   965.347E+03
C:/temp/Job-9.odb,Step-1,Increment      1: Step Time =    1.000,"P-9-1",           682,       130.812,       190.254,            0.,NA,NA,"",   977.008E+03,   976.444E+03,   976.444E+03
C:/temp/Job-9.odb,Step-1,Increment      1: Step Time =    1.000,"P-9-1",           683,       140.459,       189.640,            0.,NA,NA,"",   991.762E+03,   990.095E+03,   990.095E+03
C:/temp/Job-9.odb,Step-1,Increment      1: Step Time =    1.000,"P-9-1",           684,       9.32665,       60.8034,            0.,NA,NA,"",   841.327E+03,   934.666E+03,   934.666E+03
C:/temp/Job-9.odb,Step-1,Increment      1: Step Time =    1.000,"P-9-1",           685,       9.11923,       70.4308,            0.,NA,NA,"",   803.119E+03,   896.692E+03,   896.692E+03
C:/temp/Job-9.odb,Step-1,Increment      1: Step Time =    1.000,"P-9-1",           686,       9.39910,       80.1647,            0.,NA,NA,"",   770.724E+03,   863.985E+03,   863.985E+03
C:/temp/Job-9.odb,Step-1,Increment      1: Step Time =    1.000,"P-9-1",           687,       9.79633,       89.9611,            0.,NA,NA,"",   748.653E+03,   841.600E+03,   841.600E+03
C:/temp/Job-9.odb,Step-1,Increment      1: Step Time =    1.000,"P-9-1",           688,       9.86385,       99.8711,            0.,NA,NA,"",    740.17E+03,   833.027E+03,   833.027E+03
C:/temp/Job-9.odb,Step-1,Increment      1: Step Time =    1.000,"P-9-1",           689,       9.70740,       109.809,            0.,NA,NA,"",   748.002E+03,   840.971E+03,   840.971E+03
C:/temp/Job-9.odb,Step-1,Increment      1: Step Time =    1.000,"P-9-1",           690,       9.52107,       119.481,            0.,NA,NA,"",   769.920E+03,   863.131E+03,   863.131E+03
C:/temp/Job-9.odb,Step-1,Increment      1: Step Time =    1.000,"P-9-1",           691,       9.52568,       128.872,            0.,NA,NA,"",   800.881E+03,   894.106E+03,   894.106E+03
C:/temp/Job-9.odb,Step-1,Increment      1: Step Time =    1.000,"P-9-1",           692,       11.0138,       137.859,            0.,NA,NA,"",   841.438E+03,   932.466E+03,   932.466E+03
C:/temp/Job-9.odb,Step-1,Increment      1: Step Time =    1.000,"P-9-1",           693,       90.2829,       189.716,            0.,NA,NA,"",   957.531E+03,   960.738E+03,   960.738E+03
C:/temp/Job-9.odb,Step-1,Increment      1: Step Time =    1.000,"P-9-1",           694,       110.643,       189.661,            0.,NA,NA,"",   953.022E+03,   955.935E+03,   955.935E+03
C:/temp/Job-9.odb,Step-1,Increment      1: Step Time =    1.000,"P-9-1",           695,       118.794,       88.3419,            0.,NA,NA,"",   942.812E+03,   600.751E+03,   600.751E+03
C:/temp/Job-9.odb,Step-1,Increment      1: Step Time =    1.000,"P-9-1",           696,       77.5989,       117.504,            0.,NA,NA,"",   1.24920E+06,   1.12130E+06,   1.12130E+06
C:/temp/Job-9.odb,Step-1,Increment      1: Step Time =    1.000,"P-9-1",           697,       118.243,       117.809,            0.,NA,NA,"",   1.43685E+06,   1.30519E+06,   1.30519E+06
C:/temp/Job-9.odb,Step-1,Increment      1: Step Time =    1.000,"P-9-1",           698,       90.0199,       75.0974,            0.,NA,NA,"",   1.44921E+06,   1.52073E+06,   1.52073E+06
C:/temp/Job-9.odb,Step-1,Increment      1: Step Time =    1.000,"P-9-1",           699,       111.713,       76.6403,            0.,NA,NA,"",   1.48370E+06,   1.52647E+06,   1.52647E+06
C:/temp/Job-9.odb,Step-1,Increment      1: Step Time =    1.000,"P-9-1",           700,       163.862,       10.5210,            0.,NA,NA,"",   1.00427E+06,   1.00303E+06,   1.00303E+06
C:/temp/Job-9.odb,Step-1,Increment      1: Step Time =    1.000,"P-9-1",           701,       9.02233,       164.910,            0.,NA,NA,"",   954.093E+03,   1.04556E+06,   1.04556E+06
C:/temp/Job-9.odb,Step-1,Increment      1: Step Time =    1.000,"P-9-1",           702,       34.5263,       9.45132,            0.,NA,NA,"",   1.08446E+06,   1.08742E+06,   1.08742E+06
C:/temp/Job-9.odb,Step-1,Increment      1: Step Time =    1.000,"P-9-1",           703,       10.4152,       40.3881,            0.,NA,NA,"",   934.741E+03,   1.02400E+06,   1.02400E+06
C:/temp/Job-9.odb,Step-1,Increment      1: Step Time =    1.000,"P-9-1",           704,       161.282,       191.278,            0.,NA,NA,"",   1.00168E+06,   1.00063E+06,   1.00063E+06
C:/temp/Job-9.odb,Step-1,Increment      1: Step Time =    1.000,"P-9-1",           705,       189.498,       163.878,            0.,NA,NA,"",   999.932E+03,   1.00457E+06,   1.00457E+06
C:/temp/Job-9.odb,Step-1,Increment      1: Step Time =    1.000,"P-9-1",           706,       190.778,       38.8829,            0.,NA,NA,"",   997.490E+03,   1.00394E+06,   1.00394E+06
C:/temp/Job-9.odb,Step-1,Increment      1: Step Time =    1.000,"P-9-1",           707,       35.4198,       189.408,            0.,NA,NA,"",   1.08563E+06,   1.08864E+06,   1.08864E+06
C:/temp/Job-9.odb,Step-1,Increment      1: Step Time =    1.000,"P-9-1",           708,       60.4929,       17.5945,            0.,NA,NA,"",   1.04837E+06,   1.04721E+06,   1.04721E+06
C:/temp/Job-9.odb,Step-1,Increment      1: Step Time =    1.000,"P-9-1",           709,       13.8709,       61.4316,            0.,NA,NA,"",   855.928E+03,   942.409E+03,   942.409E+03
C:/temp/Job-9.odb,Step-1,Increment      1: Step Time =    1.000,"P-9-1",           710,       184.337,       60.4026,            0.,NA,NA,"",   991.295E+03,   1.00811E+06,   1.00811E+06
C:/temp/Job-9.odb,Step-1,Increment      1: Step Time =    1.000,"P-9-1",           711,       60.6138,       186.083,            0.,NA,NA,"",   1.03424E+06,   1.03319E+06,   1.03319E+06
C:/temp/Job-9.odb,Step-1,Increment      1: Step Time =    1.000,"P-9-1",           712,       139.606,       13.4670,            0.,NA,NA,"",   1.00133E+06,   998.683E+03,   998.683E+03
C:/temp/Job-9.odb,Step-1,Increment      1: Step Time =    1.000,"P-9-1",           713,       17.3557,       139.745,            0.,NA,NA,"",   874.516E+03,   954.730E+03,   954.730E+03
C:/temp/Job-9.odb,Step-1,Increment      1: Step Time =    1.000,"P-9-1",           714,       186.563,       139.754,            0.,NA,NA,"",   987.852E+03,   1.00686E+06,   1.00686E+06
C:/temp/Job-9.odb,Step-1,Increment      1: Step Time =    1.000,"P-9-1",           715,       140.560,       184.748,            0.,NA,NA,"",   1.00700E+06,   1.00384E+06,   1.00384E+06
C:/temp/Job-9.odb,Step-1,Increment      1: Step Time =    1.000,"P-9-1",           716,       126.292,       88.2027,            0.,NA,NA,"",   978.777E+03,   824.760E+03,   824.760E+03
C:/temp/Job-9.odb,Step-1,Increment      1: Step Time =    1.000,"P-9-1",           717,       164.157,       15.3155,            0.,NA,NA,"",   1.01054E+06,   1.00825E+06,   1.00825E+06
C:/temp/Job-9.odb,Step-1,Increment      1: Step Time =    1.000,"P-9-1",           718,       13.5425,       164.692,            0.,NA,NA,"",   977.641E+03,   1.05709E+06,   1.05709E+06
C:/temp/Job-9.odb,Step-1,Increment      1: Step Time =    1.000,"P-9-1",           719,       34.2545,       14.2560,            0.,NA,NA,"",   1.09497E+06,   1.10132E+06,   1.10132E+06
C:/temp/Job-9.odb,Step-1,Increment      1: Step Time =    1.000,"P-9-1",           720,       15.2862,       40.1092,            0.,NA,NA,"",   961.892E+03,   1.03872E+06,   1.03872E+06
C:/temp/Job-9.odb,Step-1,Increment      1: Step Time =    1.000,"P-9-1",           721,       162.220,       187.079,            0.,NA,NA,"",   1.00759E+06,   1.00560E+06,   1.00560E+06
C:/temp/Job-9.odb,Step-1,Increment      1: Step Time =    1.000,"P-9-1",           722,       184.730,       164.222,            0.,NA,NA,"",   1.00549E+06,   1.00864E+06,   1.00864E+06
C:/temp/Job-9.odb,Step-1,Increment      1: Step Time =    1.000,"P-9-1",           723,       186.090,       38.0751,            0.,NA,NA,"",   1.00329E+06,   1.00788E+06,   1.00788E+06
C:/temp/Job-9.odb,Step-1,Increment      1: Step Time =    1.000,"P-9-1",           724,       34.9545,       184.426,            0.,NA,NA,"",   1.09429E+06,   1.10113E+06,   1.10113E+06
C:/temp/Job-9.odb,Step-1,Increment      1: Step Time =    1.000,"P-9-1",           725,       129.841,       14.1513,            0.,NA,NA,"",   992.795E+03,   992.113E+03,   992.113E+03
C:/temp/Job-9.odb,Step-1,Increment      1: Step Time =    1.000,"P-9-1",           726,       14.1115,       128.331,            0.,NA,NA,"",   811.730E+03,   899.934E+03,   899.934E+03
C:/temp/Job-9.odb,Step-1,Increment      1: Step Time =    1.000,"P-9-1",           727,       13.5206,       70.6320,            0.,NA,NA,"",   814.946E+03,   903.586E+03,   903.586E+03
C:/temp/Job-9.odb,Step-1,Increment      1: Step Time =    1.000,"P-9-1",           728,       71.6551,       13.9312,            0.,NA,NA,"",   1.00909E+06,   1.00967E+06,   1.00967E+06
C:/temp/Job-9.odb,Step-1,Increment      1: Step Time =    1.000,"P-9-1",           729,       185.967,       130.122,            0.,NA,NA,"",   974.102E+03,   1.00157E+06,   1.00157E+06
C:/temp/Job-9.odb,Step-1,Increment      1: Step Time =    1.000,"P-9-1",           730,       131.203,       185.530,            0.,NA,NA,"",   994.698E+03,   993.603E+03,   993.603E+03
C:/temp/Job-9.odb,Step-1,Increment      1: Step Time =    1.000,"P-9-1",           731,       69.9027,       185.712,            0.,NA,NA,"",   1.01506E+06,   1.01513E+06,   1.01513E+06
C:/temp/Job-9.odb,Step-1,Increment      1: Step Time =    1.000,"P-9-1",           732,       184.495,       69.8789,            0.,NA,NA,"",   976.331E+03,   1.00179E+06,   1.00179E+06
C:/temp/Job-9.odb,Step-1,Increment      1: Step Time =    1.000,"P-9-1",           733,       122.891,       83.9709,            0.,NA,NA,"",   1.25947E+06,   1.08771E+06,   1.08771E+06
C:/temp/Job-9.odb,Step-1,Increment      1: Step Time =    1.000,"P-9-1",           734,       79.6772,       80.3505,            0.,NA,NA,"",   1.33393E+06,   1.22464E+06,   1.22464E+06
C:/temp/Job-9.odb,Step-1,Increment      1: Step Time =    1.000,"P-9-1",           735,       13.9898,       80.0732,            0.,NA,NA,"",   779.104E+03,    868.65E+03,    868.65E+03
C:/temp/Job-9.odb,Step-1,Increment      1: Step Time =    1.000,"P-9-1",           736,       119.832,       15.2113,            0.,NA,NA,"",   983.222E+03,   985.922E+03,   985.922E+03
C:/temp/Job-9.odb,Step-1,Increment      1: Step Time =    1.000,"P-9-1",           737,       80.2994,       13.8234,            0.,NA,NA,"",   990.276E+03,   993.096E+03,   993.096E+03
C:/temp/Job-9.odb,Step-1,Increment      1: Step Time =    1.000,"P-9-1",           738,       14.5246,       119.337,            0.,NA,NA,"",   778.379E+03,   867.555E+03,   867.555E+03
C:/temp/Job-9.odb,Step-1,Increment      1: Step Time =    1.000,"P-9-1",           739,       79.5320,       184.702,            0.,NA,NA,"",   998.887E+03,   1.00185E+06,   1.00185E+06
C:/temp/Job-9.odb,Step-1,Increment      1: Step Time =    1.000,"P-9-1",           740,       184.835,       120.361,            0.,NA,NA,"",   957.621E+03,   992.776E+03,   992.776E+03
C:/temp/Job-9.odb,Step-1,Increment      1: Step Time =    1.000,"P-9-1",           741,       184.565,       79.7035,            0.,NA,NA,"",   957.936E+03,   992.591E+03,   992.591E+03
C:/temp/Job-9.odb,Step-1,Increment      1: Step Time =    1.000,"P-9-1",           742,       121.802,       184.902,            0.,NA,NA,"",   985.353E+03,   987.176E+03,   987.176E+03
C:/temp/Job-9.odb,Step-1,Increment      1: Step Time =    1.000,"P-9-1",           743,       117.311,       121.788,            0.,NA,NA,"",   1.43617E+06,   1.35580E+06,   1.35580E+06
C:/temp/Job-9.odb,Step-1,Increment      1: Step Time =    1.000,"P-9-1",           744,       123.541,       111.209,            0.,NA,NA,"",   928.719E+03,   736.125E+03,   736.125E+03
C:/temp/Job-9.odb,Step-1,Increment      1: Step Time =    1.000,"P-9-1",           745,       75.5369,       111.036,            0.,NA,NA,"",   842.884E+03,   702.363E+03,   702.363E+03
C:/temp/Job-9.odb,Step-1,Increment      1: Step Time =    1.000,"P-9-1",           746,       81.5327,       119.528,            0.,NA,NA,"",   1.37791E+06,   1.27906E+06,   1.27906E+06
C:/temp/Job-9.odb,Step-1,Increment      1: Step Time =    1.000,"P-9-1",           747,       14.7355,       89.7899,            0.,NA,NA,"",   753.839E+03,   843.809E+03,   843.809E+03
C:/temp/Job-9.odb,Step-1,Increment      1: Step Time =    1.000,"P-9-1",           748,       109.358,       15.4899,            0.,NA,NA,"",   973.450E+03,   979.624E+03,   979.624E+03
C:/temp/Job-9.odb,Step-1,Increment      1: Step Time =    1.000,"P-9-1",           749,       89.6155,       14.2129,            0.,NA,NA,"",   976.480E+03,   981.510E+03,   981.510E+03
C:/temp/Job-9.odb,Step-1,Increment      1: Step Time =    1.000,"P-9-1",           750,       14.6310,       109.805,            0.,NA,NA,"",   752.741E+03,   842.660E+03,   842.660E+03
C:/temp/Job-9.odb,Step-1,Increment      1: Step Time =    1.000,"P-9-1",           751,       184.592,       110.076,            0.,NA,NA,"",   940.623E+03,   982.789E+03,   982.789E+03
C:/temp/Job-9.odb,Step-1,Increment      1: Step Time =    1.000,"P-9-1",           752,       90.8562,       184.649,            0.,NA,NA,"",   978.539E+03,   984.882E+03,   984.882E+03
C:/temp/Job-9.odb,Step-1,Increment      1: Step Time =    1.000,"P-9-1",           753,       184.621,       89.7682,            0.,NA,NA,"",   941.528E+03,   983.607E+03,   983.607E+03
C:/temp/Job-9.odb,Step-1,Increment      1: Step Time =    1.000,"P-9-1",           754,       110.567,       184.487,            0.,NA,NA,"",   974.212E+03,   980.006E+03,   980.006E+03
C:/temp/Job-9.odb,Step-1,Increment      1: Step Time =    1.000,"P-9-1",           755,       99.3953,       14.9567,            0.,NA,NA,"",   970.009E+03,   976.954E+03,   976.954E+03
C:/temp/Job-9.odb,Step-1,Increment      1: Step Time =    1.000,"P-9-1",           756,       14.8198,       99.8096,            0.,NA,NA,"",   743.452E+03,   833.676E+03,   833.676E+03
C:/temp/Job-9.odb,Step-1,Increment      1: Step Time =    1.000,"P-9-1",           757,       184.708,       99.8125,            0.,NA,NA,"",   934.042E+03,   979.158E+03,   979.158E+03
C:/temp/Job-9.odb,Step-1,Increment      1: Step Time =    1.000,"P-9-1",           758,       100.680,       185.427,            0.,NA,NA,"",    967.68E+03,   974.325E+03,   974.325E+03
C:/temp/Job-9.odb,Step-1,Increment      1: Step Time =    1.000,"P-9-1",           759,       13.6106,       66.0414,            0.,NA,NA,"",   834.566E+03,   922.405E+03,   922.405E+03
C:/temp/Job-9.odb,Step-1,Increment      1: Step Time =    1.000,"P-9-1",           760,       64.0472,       15.9949,            0.,NA,NA,"",   1.03446E+06,   1.03380E+06,   1.03380E+06
C:/temp/Job-9.odb,Step-1,Increment      1: Step Time =    1.000,"P-9-1",           761,       184.420,       65.0840,            0.,NA,NA,"",   984.479E+03,   1.00540E+06,   1.00540E+06
C:/temp/Job-9.odb,Step-1,Increment      1: Step Time =    1.000,"P-9-1",           762,       65.2489,       185.946,            0.,NA,NA,"",   1.02441E+06,   1.02377E+06,   1.02377E+06
C:/temp/Job-9.odb,Step-1,Increment      1: Step Time =    1.000,"P-9-1",           763,       15.8176,       136.150,            0.,NA,NA,"",   851.558E+03,    935.76E+03,    935.76E+03
C:/temp/Job-9.odb,Step-1,Increment      1: Step Time =    1.000,"P-9-1",           764,       134.685,       13.6026,            0.,NA,NA,"",   997.155E+03,   995.308E+03,   995.308E+03
C:/temp/Job-9.odb,Step-1,Increment      1: Step Time =    1.000,"P-9-1",           765,       186.479,       134.898,            0.,NA,NA,"",   981.353E+03,   1.00468E+06,   1.00468E+06
C:/temp/Job-9.odb,Step-1,Increment      1: Step Time =    1.000,"P-9-1",           766,       135.846,       185.256,            0.,NA,NA,"",   1.00093E+06,   998.732E+03,   998.732E+03
C:/temp/Job-9.odb,Step-1,Increment      1: Step Time =    1.000,"P-9-1",           767,       13.9103,       168.782,            0.,NA,NA,"",   1.00459E+06,   1.07985E+06,   1.07985E+06
C:/temp/Job-9.odb,Step-1,Increment      1: Step Time =    1.000,"P-9-1",           768,       168.603,       14.7669,            0.,NA,NA,"",   1.00809E+06,   1.00659E+06,   1.00659E+06
C:/temp/Job-9.odb,Step-1,Increment      1: Step Time =    1.000,"P-9-1",           769,       19.8922,       31.1330,            0.,NA,NA,"",   1.03513E+06,   1.09154E+06,   1.09154E+06
C:/temp/Job-9.odb,Step-1,Increment      1: Step Time =    1.000,"P-9-1",           770,       29.9049,       14.2652,            0.,NA,NA,"",   1.10932E+06,   1.11876E+06,   1.11876E+06
C:/temp/Job-9.odb,Step-1,Increment      1: Step Time =    1.000,"P-9-1",           771,       166.262,       187.411,            0.,NA,NA,"",   1.00611E+06,   1.00472E+06,   1.00472E+06
C:/temp/Job-9.odb,Step-1,Increment      1: Step Time =    1.000,"P-9-1",           772,       185.320,       168.583,            0.,NA,NA,"",   1.00458E+06,   1.00682E+06,   1.00682E+06
C:/temp/Job-9.odb,Step-1,Increment      1: Step Time =    1.000,"P-9-1",           773,       186.794,       33.5516,            0.,NA,NA,"",   1.00296E+06,   1.00626E+06,   1.00626E+06
C:/temp/Job-9.odb,Step-1,Increment      1: Step Time =    1.000,"P-9-1",           774,       30.3772,       184.661,            0.,NA,NA,"",   1.10722E+06,   1.11739E+06,   1.11739E+06
C:/temp/Job-9.odb,Step-1,Increment      1: Step Time =    1.000,"P-9-1",           775,       14.2796,       123.937,            0.,NA,NA,"",   794.384E+03,   883.152E+03,   883.152E+03
C:/temp/Job-9.odb,Step-1,Increment      1: Step Time =    1.000,"P-9-1",           776,       124.926,       14.7817,            0.,NA,NA,"",   988.393E+03,   989.146E+03,   989.146E+03
C:/temp/Job-9.odb,Step-1,Increment      1: Step Time =    1.000,"P-9-1",           777,       13.6161,       75.3282,            0.,NA,NA,"",   796.027E+03,   885.213E+03,   885.213E+03
C:/temp/Job-9.odb,Step-1,Increment      1: Step Time =    1.000,"P-9-1",           778,       75.8654,       13.7959,            0.,NA,NA,"",   999.339E+03,   1.00096E+06,   1.00096E+06
C:/temp/Job-9.odb,Step-1,Increment      1: Step Time =    1.000,"P-9-1",           779,       185.330,       125.348,            0.,NA,NA,"",   966.232E+03,   997.577E+03,   997.577E+03
C:/temp/Job-9.odb,Step-1,Increment      1: Step Time =    1.000,"P-9-1",           780,       184.528,       74.7580,            0.,NA,NA,"",   967.329E+03,   997.455E+03,   997.455E+03
C:/temp/Job-9.odb,Step-1,Increment      1: Step Time =    1.000,"P-9-1",           781,       126.580,       185.441,            0.,NA,NA,"",   989.168E+03,   989.317E+03,   989.317E+03
C:/temp/Job-9.odb,Step-1,Increment      1: Step Time =    1.000,"P-9-1",           782,       74.6014,       185.347,            0.,NA,NA,"",   1.00638E+06,   1.00758E+06,   1.00758E+06
C:/temp/Job-9.odb,Step-1,Increment      1: Step Time =    1.000,"P-9-1",           783,       76.7499,       86.1676,            0.,NA,NA,"",   1.11245E+06,   965.114E+03,   965.114E+03
C:/temp/Job-9.odb,Step-1,Increment      1: Step Time =    1.000,"P-9-1",           784,       84.9110,       13.9644,            0.,NA,NA,"",   982.511E+03,   986.452E+03,   986.452E+03
C:/temp/Job-9.odb,Step-1,Increment      1: Step Time =    1.000,"P-9-1",           785,       14.6426,       114.652,            0.,NA,NA,"",   764.345E+03,   853.905E+03,   853.905E+03
C:/temp/Job-9.odb,Step-1,Increment      1: Step Time =    1.000,"P-9-1",           786,       14.3779,       84.8647,            0.,NA,NA,"",   764.931E+03,   854.716E+03,   854.716E+03
C:/temp/Job-9.odb,Step-1,Increment      1: Step Time =    1.000,"P-9-1",           787,       114.539,       15.4319,            0.,NA,NA,"",   977.709E+03,   982.507E+03,   982.507E+03
C:/temp/Job-9.odb,Step-1,Increment      1: Step Time =    1.000,"P-9-1",           788,       184.578,       84.7153,            0.,NA,NA,"",   948.913E+03,   987.687E+03,   987.687E+03
C:/temp/Job-9.odb,Step-1,Increment      1: Step Time =    1.000,"P-9-1",           789,       116.335,       183.312,            0.,NA,NA,"",   984.726E+03,   989.256E+03,   989.256E+03
C:/temp/Job-9.odb,Step-1,Increment      1: Step Time =    1.000,"P-9-1",           790,       85.3017,       183.217,            0.,NA,NA,"",   993.221E+03,   999.006E+03,   999.006E+03
C:/temp/Job-9.odb,Step-1,Increment      1: Step Time =    1.000,"P-9-1",           791,       184.575,       115.220,            0.,NA,NA,"",   948.779E+03,   987.636E+03,   987.636E+03
C:/temp/Job-9.odb,Step-1,Increment      1: Step Time =    1.000,"P-9-1",           792,       121.975,       121.720,            0.,NA,NA,"",   1.36630E+06,   1.25443E+06,   1.25443E+06
C:/temp/Job-9.odb,Step-1,Increment      1: Step Time =    1.000,"P-9-1",           793,       85.6975,       121.956,            0.,NA,NA,"",   1.44283E+06,   1.42152E+06,   1.42152E+06
C:/temp/Job-9.odb,Step-1,Increment      1: Step Time =    1.000,"P-9-1",           794,       94.4271,       14.5417,            0.,NA,NA,"",   972.033E+03,   978.232E+03,   978.232E+03
C:/temp/Job-9.odb,Step-1,Increment      1: Step Time =    1.000,"P-9-1",           795,       14.7047,       104.842,            0.,NA,NA,"",   745.440E+03,   835.607E+03,   835.607E+03
C:/temp/Job-9.odb,Step-1,Increment      1: Step Time =    1.000,"P-9-1",           796,       184.661,       94.7973,            0.,NA,NA,"",   936.435E+03,   980.675E+03,   980.675E+03
C:/temp/Job-9.odb,Step-1,Increment      1: Step Time =    1.000,"P-9-1",           797,       105.507,       185.135,            0.,NA,NA,"",   968.906E+03,   975.286E+03,   975.286E+03
C:/temp/Job-9.odb,Step-1,Increment      1: Step Time =    1.000,"P-9-1",           798,       104.314,       15.3287,            0.,NA,NA,"",   970.831E+03,   977.655E+03,   977.655E+03
C:/temp/Job-9.odb,Step-1,Increment      1: Step Time =    1.000,"P-9-1",           799,       14.8566,       94.7775,            0.,NA,NA,"",   746.439E+03,   836.564E+03,   836.564E+03
C:/temp/Job-9.odb,Step-1,Increment      1: Step Time =    1.000,"P-9-1",           800,       184.676,       104.896,            0.,NA,NA,"",   935.227E+03,   979.674E+03,   979.674E+03
C:/temp/Job-9.odb,Step-1,Increment      1: Step Time =    1.000,"P-9-1",           801,       95.8451,       185.286,            0.,NA,NA,"",   970.652E+03,   977.232E+03,   977.232E+03
C:/temp/Job-9.odb,Step-1,Increment      1: Step Time =    1.000,"P-9-1",           802,       75.2838,       121.918,            0.,NA,NA,"",   1.27129E+06,   1.17539E+06,   1.17539E+06
C:/temp/Job-9.odb,Step-1,Increment      1: Step Time =    1.000,"P-9-1",           803,       70.5811,       110.003,            0.,NA,NA,"",   753.077E+03,   679.778E+03,   679.778E+03
C:/temp/Job-9.odb,Step-1,Increment      1: Step Time =    1.000,"P-9-1",           804,       122.141,       78.4464,            0.,NA,NA,"",   1.35572E+06,   1.23421E+06,   1.23421E+06
C:/temp/Job-9.odb,Step-1,Increment      1: Step Time =    1.000,"P-9-1",           805,       78.4990,       72.2981,            0.,NA,NA,"",   1.32263E+06,   1.27177E+06,   1.27177E+06
C:/temp/Job-9.odb,Step-1,Increment      1: Step Time =    1.000,"P-9-1",           806,       126.421,       77.3724,            0.,NA,NA,"",   1.29540E+06,   1.17707E+06,   1.17707E+06
C:/temp/Job-9.odb,Step-1,Increment      1: Step Time =    1.000,"P-9-1",           807,       71.7999,       101.452,            0.,NA,NA,"",   366.055E+03,   358.368E+03,   358.368E+03
C:/temp/Job-9.odb,Step-1,Increment      1: Step Time =    1.000,"P-9-1",           808,       125.616,       101.689,            0.,NA,NA,"",   319.949E+03,   263.387E+03,   263.387E+03
C:/temp/Job-9.odb,Step-1,Increment      1: Step Time =    1.000,"P-9-1",           809,       130.831,       85.1335,            0.,NA,NA,"",   1.05718E+06,   941.409E+03,   941.409E+03
C:/temp/Job-9.odb,Step-1,Increment      1: Step Time =    1.000,"P-9-1",           810,       92.7590,       70.4108,            0.,NA,NA,"",   1.31474E+06,   1.41249E+06,   1.41249E+06
C:/temp/Job-9.odb,Step-1,Increment      1: Step Time =    1.000,"P-9-1",           811,       108.908,       20.8924,            0.,NA,NA,"",   991.674E+03,   1.00225E+06,   1.00225E+06
C:/temp/Job-9.odb,Step-1,Increment      1: Step Time =    1.000,"P-9-1",           812,       19.6859,       89.4297,            0.,NA,NA,"",   759.281E+03,   845.403E+03,   845.403E+03
C:/temp/Job-9.odb,Step-1,Increment      1: Step Time =    1.000,"P-9-1",           813,       179.399,       109.975,            0.,NA,NA,"",   936.492E+03,   971.053E+03,   971.053E+03
C:/temp/Job-9.odb,Step-1,Increment      1: Step Time =    1.000,"P-9-1",           814,       88.6537,       178.236,            0.,NA,NA,"",   1.00443E+06,   1.01526E+06,   1.01526E+06
C:/temp/Job-9.odb,Step-1,Increment      1: Step Time =    1.000,"P-9-1",           815,       98.7691,       19.9435,            0.,NA,NA,"",   988.096E+03,   999.488E+03,   999.488E+03
C:/temp/Job-9.odb,Step-1,Increment      1: Step Time =    1.000,"P-9-1",           816,       19.7553,       99.8276,            0.,NA,NA,"",   745.823E+03,   832.710E+03,   832.710E+03
C:/temp/Job-9.odb,Step-1,Increment      1: Step Time =    1.000,"P-9-1",           817,       179.624,       99.6881,            0.,NA,NA,"",   927.589E+03,   965.595E+03,   965.595E+03
C:/temp/Job-9.odb,Step-1,Increment      1: Step Time =    1.000,"P-9-1",           818,       100.811,       180.863,            0.,NA,NA,"",   983.650E+03,   994.235E+03,   994.235E+03
C:/temp/Job-9.odb,Step-1,Increment      1: Step Time =    1.000,"P-9-1",           819,       66.8802,       101.453,            0.,NA,NA,"",   462.646E+03,   488.757E+03,   488.757E+03
C:/temp/Job-9.odb,Step-1,Increment      1: Step Time =    1.000,"P-9-1",           820,       130.486,       99.6829,            0.,NA,NA,"",   459.889E+03,   435.201E+03,   435.201E+03
C:/temp/Job-9.odb,Step-1,Increment      1: Step Time =    1.000,"P-9-1",           821,       75.4514,       75.5659,            0.,NA,NA,"",   1.27978E+06,   1.20350E+06,   1.20350E+06
C:/temp/Job-9.odb,Step-1,Increment      1: Step Time =    1.000,"P-9-1",           822,       81.1989,       68.3171,            0.,NA,NA,"",   1.29977E+06,   1.28515E+06,   1.28515E+06
C:/temp/Job-9.odb,Step-1,Increment      1: Step Time =    1.000,"P-9-1",           823,       122.646,       126.773,            0.,NA,NA,"",   1.35158E+06,   1.26825E+06,   1.26825E+06
C:/temp/Job-9.odb,Step-1,Increment      1: Step Time =    1.000,"P-9-1",           824,       79.1051,       123.884,            0.,NA,NA,"",   1.34944E+06,   1.27705E+06,   1.27705E+06
C:/temp/Job-9.odb,Step-1,Increment      1: Step Time =    1.000,"P-9-1",           825,       126.579,       120.950,            0.,NA,NA,"",   1.28971E+06,   1.16245E+06,   1.16245E+06
C:/temp/Job-9.odb,Step-1,Increment      1: Step Time =    1.000,"P-9-1",           826,       71.2718,       120.143,            0.,NA,NA,"",   1.16986E+06,   1.07650E+06,   1.07650E+06
C:/temp/Job-9.odb,Step-1,Increment      1: Step Time =    1.000,"P-9-1",           827,       18.2061,       62.2612,            0.,NA,NA,"",   869.492E+03,   948.874E+03,   948.874E+03
C:/temp/Job-9.odb,Step-1,Increment      1: Step Time =    1.000,"P-9-1",           828,       62.5023,       21.4929,            0.,NA,NA,"",   1.05801E+06,   1.05666E+06,   1.05666E+06
C:/temp/Job-9.odb,Step-1,Increment      1: Step Time =    1.000,"P-9-1",           829,       60.7916,       181.336,            0.,NA,NA,"",   1.05156E+06,   1.05011E+06,   1.05011E+06
C:/temp/Job-9.odb,Step-1,Increment      1: Step Time =    1.000,"P-9-1",           830,       179.282,       60.2082,            0.,NA,NA,"",   1.00339E+06,   1.01342E+06,   1.01342E+06
C:/temp/Job-9.odb,Step-1,Increment      1: Step Time =    1.000,"P-9-1",           831,       139.253,       17.8398,            0.,NA,NA,"",   1.01505E+06,   1.01098E+06,   1.01098E+06
C:/temp/Job-9.odb,Step-1,Increment      1: Step Time =    1.000,"P-9-1",           832,       21.0360,       137.954,            0.,NA,NA,"",   880.556E+03,    955.48E+03,    955.48E+03
C:/temp/Job-9.odb,Step-1,Increment      1: Step Time =    1.000,"P-9-1",           833,       182.204,       139.503,            0.,NA,NA,"",   996.259E+03,   1.01040E+06,   1.01040E+06
C:/temp/Job-9.odb,Step-1,Increment      1: Step Time =    1.000,"P-9-1",           834,       140.550,       179.981,            0.,NA,NA,"",   1.02308E+06,   1.01800E+06,   1.01800E+06
C:/temp/Job-9.odb,Step-1,Increment      1: Step Time =    1.000,"P-9-1",           835,       18.0103,       164.345,            0.,NA,NA,"",   999.004E+03,   1.06572E+06,   1.06572E+06
C:/temp/Job-9.odb,Step-1,Increment      1: Step Time =    1.000,"P-9-1",           836,       164.743,       19.8715,            0.,NA,NA,"",   1.01724E+06,   1.01380E+06,   1.01380E+06
C:/temp/Job-9.odb,Step-1,Increment      1: Step Time =    1.000,"P-9-1",           837,       172.606,       14.8706,            0.,NA,NA,"",   1.00672E+06,   1.00576E+06,   1.00576E+06
C:/temp/Job-9.odb,Step-1,Increment      1: Step Time =    1.000,"P-9-1",           838,       14.6361,       172.912,            0.,NA,NA,"",   1.03829E+06,   1.10659E+06,   1.10659E+06
C:/temp/Job-9.odb,Step-1,Increment      1: Step Time =    1.000,"P-9-1",           839,       25.6266,       14.4717,            0.,NA,NA,"",   1.12357E+06,   1.13826E+06,   1.13826E+06
C:/temp/Job-9.odb,Step-1,Increment      1: Step Time =    1.000,"P-9-1",           840,       15.2273,       26.3811,            0.,NA,NA,"",   1.04754E+06,   1.11224E+06,   1.11224E+06
C:/temp/Job-9.odb,Step-1,Increment      1: Step Time =    1.000,"P-9-1",           841,       33.8503,       18.9320,            0.,NA,NA,"",   1.09737E+06,   1.10802E+06,   1.10802E+06
C:/temp/Job-9.odb,Step-1,Increment      1: Step Time =    1.000,"P-9-1",           842,       19.8938,       35.5515,            0.,NA,NA,"",   1.00932E+06,   1.07051E+06,   1.07051E+06
C:/temp/Job-9.odb,Step-1,Increment      1: Step Time =    1.000,"P-9-1",           843,       163.105,       183.676,            0.,NA,NA,"",   1.01242E+06,   1.00964E+06,   1.00964E+06
C:/temp/Job-9.odb,Step-1,Increment      1: Step Time =    1.000,"P-9-1",           844,       180.215,       164.936,            0.,NA,NA,"",   1.01230E+06,   1.01321E+06,   1.01321E+06
C:/temp/Job-9.odb,Step-1,Increment      1: Step Time =    1.000,"P-9-1",           845,       185.219,       172.514,            0.,NA,NA,"",   1.00438E+06,   1.00583E+06,   1.00583E+06
C:/temp/Job-9.odb,Step-1,Increment      1: Step Time =    1.000,"P-9-1",           846,       170.239,       187.867,            0.,NA,NA,"",   1.00494E+06,   1.00404E+06,   1.00404E+06
C:/temp/Job-9.odb,Step-1,Increment      1: Step Time =    1.000,"P-9-1",           847,       187.654,       29.4371,            0.,NA,NA,"",   1.00245E+06,   1.00477E+06,   1.00477E+06
C:/temp/Job-9.odb,Step-1,Increment      1: Step Time =    1.000,"P-9-1",           848,       25.5595,       184.527,            0.,NA,NA,"",   1.12071E+06,   1.13791E+06,   1.13791E+06
C:/temp/Job-9.odb,Step-1,Increment      1: Step Time =    1.000,"P-9-1",           849,       181.552,       37.2459,            0.,NA,NA,"",   1.01040E+06,   1.01252E+06,   1.01252E+06
C:/temp/Job-9.odb,Step-1,Increment      1: Step Time =    1.000,"P-9-1",           850,       34.7791,       179.579,            0.,NA,NA,"",   1.09570E+06,   1.10680E+06,   1.10680E+06
C:/temp/Job-9.odb,Step-1,Increment      1: Step Time =    1.000,"P-9-1",           851,       130.231,       18.6747,            0.,NA,NA,"",   1.01054E+06,   1.00915E+06,   1.00915E+06
C:/temp/Job-9.odb,Step-1,Increment      1: Step Time =    1.000,"P-9-1",           852,       18.0073,       131.553,            0.,NA,NA,"",   838.799E+03,   921.105E+03,   921.105E+03
C:/temp/Job-9.odb,Step-1,Increment      1: Step Time =    1.000,"P-9-1",           853,       69.7622,       180.783,            0.,NA,NA,"",   1.03568E+06,   1.03599E+06,   1.03599E+06
C:/temp/Job-9.odb,Step-1,Increment      1: Step Time =    1.000,"P-9-1",           854,       179.252,       69.7629,            0.,NA,NA,"",   985.618E+03,   1.00311E+06,   1.00311E+06
C:/temp/Job-9.odb,Step-1,Increment      1: Step Time =    1.000,"P-9-1",           855,       17.7228,       70.8729,            0.,NA,NA,"",   827.072E+03,   910.206E+03,   910.206E+03
C:/temp/Job-9.odb,Step-1,Increment      1: Step Time =    1.000,"P-9-1",           856,       68.7891,       18.1550,            0.,NA,NA,"",   1.03246E+06,   1.03263E+06,   1.03263E+06
C:/temp/Job-9.odb,Step-1,Increment      1: Step Time =    1.000,"P-9-1",           857,       181.493,       130.689,            0.,NA,NA,"",   983.236E+03,   1.00341E+06,   1.00341E+06
C:/temp/Job-9.odb,Step-1,Increment      1: Step Time =    1.000,"P-9-1",           858,       131.559,       180.823,            0.,NA,NA,"",   1.01280E+06,   1.01094E+06,   1.01094E+06
C:/temp/Job-9.odb,Step-1,Increment      1: Step Time =    1.000,"P-9-1",           859,       82.1691,       87.7628,            0.,NA,NA,"",   930.516E+03,   653.595E+03,   653.595E+03
C:/temp/Job-9.odb,Step-1,Increment      1: Step Time =    1.000,"P-9-1",           860,       18.4121,       79.7407,            0.,NA,NA,"",   788.706E+03,   873.888E+03,   873.888E+03
C:/temp/Job-9.odb,Step-1,Increment      1: Step Time =    1.000,"P-9-1",           861,       119.892,       20.3925,            0.,NA,NA,"",   1.00328E+06,   1.00758E+06,   1.00758E+06
C:/temp/Job-9.odb,Step-1,Increment      1: Step Time =    1.000,"P-9-1",           862,       82.5059,       178.449,            0.,NA,NA,"",   1.01661E+06,   1.02381E+06,   1.02381E+06
C:/temp/Job-9.odb,Step-1,Increment      1: Step Time =    1.000,"P-9-1",           863,       179.538,       120.802,            0.,NA,NA,"",   962.355E+03,   988.603E+03,   988.603E+03
C:/temp/Job-9.odb,Step-1,Increment      1: Step Time =    1.000,"P-9-1",           864,       119.769,       179.006,            0.,NA,NA,"",   1.00531E+06,   1.00999E+06,   1.00999E+06
C:/temp/Job-9.odb,Step-1,Increment      1: Step Time =    1.000,"P-9-1",           865,       109.633,       179.523,            0.,NA,NA,"",   990.902E+03,   1.00065E+06,   1.00065E+06
C:/temp/Job-9.odb,Step-1,Increment      1: Step Time =    1.000,"P-9-1",           866,       90.1954,       124.689,            0.,NA,NA,"",   1.41268E+06,   1.48127E+06,   1.48127E+06
C:/temp/Job-9.odb,Step-1,Increment      1: Step Time =    1.000,"P-9-1",           867,       121.394,       73.4726,            0.,NA,NA,"",   1.37003E+06,   1.28922E+06,   1.28922E+06
C:/temp/Job-9.odb,Step-1,Increment      1: Step Time =    1.000,"P-9-1",           868,       88.7417,       65.9710,            0.,NA,NA,"",   1.24057E+06,   1.29860E+06,   1.29860E+06
C:/temp/Job-9.odb,Step-1,Increment      1: Step Time =    1.000,"P-9-1",           869,       95.9686,       66.9171,            0.,NA,NA,"",   1.19512E+06,   1.30132E+06,   1.30132E+06
C:/temp/Job-9.odb,Step-1,Increment      1: Step Time =    1.000,"P-9-1",           870,       68.7364,       114.346,            0.,NA,NA,"",   933.504E+03,   860.492E+03,   860.492E+03
C:/temp/Job-9.odb,Step-1,Increment      1: Step Time =    1.000,"P-9-1",           871,       135.337,       82.1030,            0.,NA,NA,"",   1.07218E+06,   986.614E+03,   986.614E+03
C:/temp/Job-9.odb,Step-1,Increment      1: Step Time =    1.000,"P-9-1",           872,       133.667,       95.5403,            0.,NA,NA,"",   587.230E+03,   567.494E+03,   567.494E+03
C:/temp/Job-9.odb,Step-1,Increment      1: Step Time =    1.000,"P-9-1",           873,       66.6657,       105.386,            0.,NA,NA,"",   553.814E+03,   563.839E+03,   563.839E+03
C:/temp/Job-9.odb,Step-1,Increment      1: Step Time =    1.000,"P-9-1",           874,       88.5776,       23.7043,            0.,NA,NA,"",   1.01093E+06,   1.02280E+06,   1.02280E+06
C:/temp/Job-9.odb,Step-1,Increment      1: Step Time =    1.000,"P-9-1",           875,       24.1185,       109.616,            0.,NA,NA,"",   759.655E+03,   841.985E+03,   841.985E+03
C:/temp/Job-9.odb,Step-1,Increment      1: Step Time =    1.000,"P-9-1",           876,       174.201,       89.6115,            0.,NA,NA,"",   931.521E+03,   959.100E+03,   959.100E+03
C:/temp/Job-9.odb,Step-1,Increment      1: Step Time =    1.000,"P-9-1",           877,       108.483,       174.798,            0.,NA,NA,"",   1.00415E+06,   1.01881E+06,   1.01881E+06
C:/temp/Job-9.odb,Step-1,Increment      1: Step Time =    1.000,"P-9-1",           878,       22.6815,       78.9398,            0.,NA,NA,"",   801.640E+03,   881.629E+03,   881.629E+03
C:/temp/Job-9.odb,Step-1,Increment      1: Step Time =    1.000,"P-9-1",           879,       119.786,       25.3479,            0.,NA,NA,"",   1.02111E+06,   1.02730E+06,   1.02730E+06
C:/temp/Job-9.odb,Step-1,Increment      1: Step Time =    1.000,"P-9-1",           880,       80.0156,       22.9716,            0.,NA,NA,"",   1.02777E+06,   1.03449E+06,   1.03449E+06
C:/temp/Job-9.odb,Step-1,Increment      1: Step Time =    1.000,"P-9-1",           881,       25.9309,       120.025,            0.,NA,NA,"",   804.979E+03,   880.433E+03,   880.433E+03
C:/temp/Job-9.odb,Step-1,Increment      1: Step Time =    1.000,"P-9-1",           882,       80.4740,       174.669,            0.,NA,NA,"",   1.03443E+06,   1.04234E+06,   1.04234E+06
C:/temp/Job-9.odb,Step-1,Increment      1: Step Time =    1.000,"P-9-1",           883,       174.523,       121.409,            0.,NA,NA,"",   967.142E+03,   985.285E+03,   985.285E+03
C:/temp/Job-9.odb,Step-1,Increment      1: Step Time =    1.000,"P-9-1",           884,       174.045,       79.3929,            0.,NA,NA,"",   964.578E+03,   982.982E+03,   982.982E+03
C:/temp/Job-9.odb,Step-1,Increment      1: Step Time =    1.000,"P-9-1",           885,       121.653,       176.289,            0.,NA,NA,"",   1.01749E+06,   1.02201E+06,   1.02201E+06
C:/temp/Job-9.odb,Step-1,Increment      1: Step Time =    1.000,"P-9-1",           886,       174.471,       99.6896,            0.,NA,NA,"",   915.670E+03,   947.876E+03,   947.876E+03
C:/temp/Job-9.odb,Step-1,Increment      1: Step Time =    1.000,"P-9-1",           887,       97.5459,       173.412,            0.,NA,NA,"",   1.00676E+06,   1.02530E+06,   1.02530E+06
C:/temp/Job-9.odb,Step-1,Increment      1: Step Time =    1.000,"P-9-1",           888,       97.6727,       24.5371,            0.,NA,NA,"",   1.00229E+06,   1.01801E+06,   1.01801E+06
C:/temp/Job-9.odb,Step-1,Increment      1: Step Time =    1.000,"P-9-1",           889,       24.7130,       100.011,            0.,NA,NA,"",   746.369E+03,   829.261E+03,   829.261E+03
C:/temp/Job-9.odb,Step-1,Increment      1: Step Time =    1.000,"P-9-1",           890,       23.7563,       60.1088,            0.,NA,NA,"",   901.450E+03,   970.313E+03,   970.313E+03
C:/temp/Job-9.odb,Step-1,Increment      1: Step Time =    1.000,"P-9-1",           891,       60.1632,       25.3918,            0.,NA,NA,"",   1.07382E+06,   1.07201E+06,   1.07201E+06
C:/temp/Job-9.odb,Step-1,Increment      1: Step Time =    1.000,"P-9-1",           892,       141.667,       23.5819,            0.,NA,NA,"",   1.03578E+06,   1.02885E+06,   1.02885E+06
C:/temp/Job-9.odb,Step-1,Increment      1: Step Time =    1.000,"P-9-1",           893,       24.8551,       140.426,            0.,NA,NA,"",   909.294E+03,   975.500E+03,   975.500E+03
C:/temp/Job-9.odb,Step-1,Increment      1: Step Time =    1.000,"P-9-1",           894,       176.533,       142.141,            0.,NA,NA,"",   1.01295E+06,   1.01804E+06,   1.01804E+06
C:/temp/Job-9.odb,Step-1,Increment      1: Step Time =    1.000,"P-9-1",           895,       140.328,       175.390,            0.,NA,NA,"",   1.03966E+06,   1.03234E+06,   1.03234E+06
C:/temp/Job-9.odb,Step-1,Increment      1: Step Time =    1.000,"P-9-1",           896,       60.8474,       176.657,            0.,NA,NA,"",   1.06741E+06,   1.06566E+06,   1.06566E+06
C:/temp/Job-9.odb,Step-1,Increment      1: Step Time =    1.000,"P-9-1",           897,       174.197,       59.8686,            0.,NA,NA,"",   1.01778E+06,   1.02033E+06,   1.02033E+06
C:/temp/Job-9.odb,Step-1,Increment      1: Step Time =    1.000,"P-9-1",           898,       71.4402,       23.0127,            0.,NA,NA,"",   1.04657E+06,   1.04821E+06,   1.04821E+06
C:/temp/Job-9.odb,Step-1,Increment      1: Step Time =    1.000,"P-9-1",           899,       127.883,       176.032,            0.,NA,NA,"",   1.02785E+06,   1.02744E+06,   1.02744E+06
C:/temp/Job-9.odb,Step-1,Increment      1: Step Time =    1.000,"P-9-1",           900,       22.7252,       129.501,            0.,NA,NA,"",   846.323E+03,   921.702E+03,   921.702E+03
C:/temp/Job-9.odb,Step-1,Increment      1: Step Time =    1.000,"P-9-1",           901,       173.952,       69.5821,            0.,NA,NA,"",   996.504E+03,   1.00548E+06,   1.00548E+06
C:/temp/Job-9.odb,Step-1,Increment      1: Step Time =    1.000,"P-9-1",           902,       37.1307,       23.5436,            0.,NA,NA,"",   1.08978E+06,   1.10073E+06,   1.10073E+06
C:/temp/Job-9.odb,Step-1,Increment      1: Step Time =    1.000,"P-9-1",           903,       24.5986,       35.6985,            0.,NA,NA,"",   1.02890E+06,   1.07766E+06,   1.07766E+06
C:/temp/Job-9.odb,Step-1,Increment      1: Step Time =    1.000,"P-9-1",           904,       22.3859,       163.986,            0.,NA,NA,"",   1.01809E+06,   1.07243E+06,   1.07243E+06
C:/temp/Job-9.odb,Step-1,Increment      1: Step Time =    1.000,"P-9-1",           905,       165.468,       24.2048,            0.,NA,NA,"",   1.02355E+06,   1.01900E+06,   1.01900E+06
C:/temp/Job-9.odb,Step-1,Increment      1: Step Time =    1.000,"P-9-1",           906,       177.223,       36.9072,            0.,NA,NA,"",   1.01791E+06,   1.01746E+06,   1.01746E+06
C:/temp/Job-9.odb,Step-1,Increment      1: Step Time =    1.000,"P-9-1",           907,       34.8161,       175.032,            0.,NA,NA,"",   1.08948E+06,   1.10510E+06,   1.10510E+06
C:/temp/Job-9.odb,Step-1,Increment      1: Step Time =    1.000,"P-9-1",           908,       164.035,       177.870,            0.,NA,NA,"",   1.02140E+06,   1.01705E+06,   1.01705E+06
C:/temp/Job-9.odb,Step-1,Increment      1: Step Time =    1.000,"P-9-1",           909,       175.883,       165.935,            0.,NA,NA,"",   1.01933E+06,   1.01779E+06,   1.01779E+06
C:/temp/Job-9.odb,Step-1,Increment      1: Step Time =    1.000,"P-9-1",           910,       132.274,       109.429,            0.,NA,NA,"",   780.252E+03,   714.239E+03,   714.239E+03
C:/temp/Job-9.odb,Step-1,Increment      1: Step Time =    1.000,"P-9-1",           911,       129.933,       115.063,            0.,NA,NA,"",   1.06533E+06,   937.598E+03,   937.598E+03
C:/temp/Job-9.odb,Step-1,Increment      1: Step Time =    1.000,"P-9-1",           912,       56.0771,       186.028,            0.,NA,NA,"",   1.04418E+06,   1.04318E+06,   1.04318E+06
C:/temp/Job-9.odb,Step-1,Increment      1: Step Time =    1.000,"P-9-1",           913,       184.276,       55.8762,            0.,NA,NA,"",   996.580E+03,   1.00991E+06,   1.00991E+06
C:/temp/Job-9.odb,Step-1,Increment      1: Step Time =    1.000,"P-9-1",           914,       144.482,       13.3765,            0.,NA,NA,"",   1.00453E+06,   1.00167E+06,   1.00167E+06
C:/temp/Job-9.odb,Step-1,Increment      1: Step Time =    1.000,"P-9-1",           915,       15.3818,       145.443,            0.,NA,NA,"",   892.419E+03,   975.187E+03,   975.187E+03
C:/temp/Job-9.odb,Step-1,Increment      1: Step Time =    1.000,"P-9-1",           916,       14.4105,       56.8712,            0.,NA,NA,"",   879.227E+03,   963.820E+03,   963.820E+03
C:/temp/Job-9.odb,Step-1,Increment      1: Step Time =    1.000,"P-9-1",           917,       54.7002,       15.5678,            0.,NA,NA,"",   1.05247E+06,   1.05127E+06,   1.05127E+06
C:/temp/Job-9.odb,Step-1,Increment      1: Step Time =    1.000,"P-9-1",           918,       186.612,       144.593,            0.,NA,NA,"",   992.952E+03,   1.00786E+06,   1.00786E+06
C:/temp/Job-9.odb,Step-1,Increment      1: Step Time =    1.000,"P-9-1",           919,       145.383,       184.079,            0.,NA,NA,"",   1.01153E+06,   1.00765E+06,   1.00765E+06
C:/temp/Job-9.odb,Step-1,Increment      1: Step Time =    1.000,"P-9-1",           920,       173.903,       10.5089,            0.,NA,NA,"",   1.00328E+06,   1.00280E+06,   1.00280E+06
C:/temp/Job-9.odb,Step-1,Increment      1: Step Time =    1.000,"P-9-1",           921,       18.9636,       171.786,            0.,NA,NA,"",   1.04964E+06,   1.10512E+06,   1.10512E+06
C:/temp/Job-9.odb,Step-1,Increment      1: Step Time =    1.000,"P-9-1",           922,       172.495,       18.4807,            0.,NA,NA,"",   1.00991E+06,   1.00853E+06,   1.00853E+06
C:/temp/Job-9.odb,Step-1,Increment      1: Step Time =    1.000,"P-9-1",           923,       13.3898,       160.663,            0.,NA,NA,"",   955.264E+03,   1.03707E+06,   1.03707E+06
C:/temp/Job-9.odb,Step-1,Increment      1: Step Time =    1.000,"P-9-1",           924,       159.585,       16.5873,            0.,NA,NA,"",   1.01434E+06,   1.01096E+06,   1.01096E+06
C:/temp/Job-9.odb,Step-1,Increment      1: Step Time =    1.000,"P-9-1",           925,       10.0297,       30.4604,            0.,NA,NA,"",   988.252E+03,   1.07460E+06,   1.07460E+06
C:/temp/Job-9.odb,Step-1,Increment      1: Step Time =    1.000,"P-9-1",           926,       38.6132,       14.4812,            0.,NA,NA,"",   1.08371E+06,   1.08745E+06,   1.08745E+06
C:/temp/Job-9.odb,Step-1,Increment      1: Step Time =    1.000,"P-9-1",           927,       15.8874,       44.6423,            0.,NA,NA,"",   941.881E+03,   1.01989E+06,   1.01989E+06
C:/temp/Job-9.odb,Step-1,Increment      1: Step Time =    1.000,"P-9-1",           928,       25.7158,       18.9675,            0.,NA,NA,"",   1.10980E+06,   1.13260E+06,   1.13260E+06
C:/temp/Job-9.odb,Step-1,Increment      1: Step Time =    1.000,"P-9-1",           929,       20.1552,       26.8201,            0.,NA,NA,"",   1.06070E+06,   1.11056E+06,   1.11056E+06
C:/temp/Job-9.odb,Step-1,Increment      1: Step Time =    1.000,"P-9-1",           930,       158.230,       186.023,            0.,NA,NA,"",   1.00970E+06,   1.00695E+06,   1.00695E+06
C:/temp/Job-9.odb,Step-1,Increment      1: Step Time =    1.000,"P-9-1",           931,       183.427,       159.733,            0.,NA,NA,"",   1.00738E+06,   1.01121E+06,   1.01121E+06
C:/temp/Job-9.odb,Step-1,Increment      1: Step Time =    1.000,"P-9-1",           932,       189.473,       173.841,            0.,NA,NA,"",   1.00148E+06,   1.00316E+06,   1.00316E+06
C:/temp/Job-9.odb,Step-1,Increment      1: Step Time =    1.000,"P-9-1",           933,       181.855,       172.424,            0.,NA,NA,"",   1.00764E+06,   1.00836E+06,   1.00836E+06
C:/temp/Job-9.odb,Step-1,Increment      1: Step Time =    1.000,"P-9-1",           934,       170.292,       184.700,            0.,NA,NA,"",   1.00763E+06,   1.00633E+06,   1.00633E+06
C:/temp/Job-9.odb,Step-1,Increment      1: Step Time =    1.000,"P-9-1",           935,       25.2970,       189.633,            0.,NA,NA,"",   1.12678E+06,   1.13535E+06,   1.13535E+06
C:/temp/Job-9.odb,Step-1,Increment      1: Step Time =    1.000,"P-9-1",           936,       185.606,       42.7506,            0.,NA,NA,"",   1.00319E+06,   1.00940E+06,   1.00940E+06
C:/temp/Job-9.odb,Step-1,Increment      1: Step Time =    1.000,"P-9-1",           937,       38.7021,       179.040,            0.,NA,NA,"",   1.09063E+06,   1.09806E+06,   1.09806E+06
C:/temp/Job-9.odb,Step-1,Increment      1: Step Time =    1.000,"P-9-1",           938,       184.589,       29.0351,            0.,NA,NA,"",   1.00486E+06,   1.00661E+06,   1.00661E+06
C:/temp/Job-9.odb,Step-1,Increment      1: Step Time =    1.000,"P-9-1",           939,       26.2172,       179.680,            0.,NA,NA,"",   1.10276E+06,   1.12731E+06,   1.12731E+06
C:/temp/Job-9.odb,Step-1,Increment      1: Step Time =    1.000,"P-9-1",           940,       62.4342,       101.565,            0.,NA,NA,"",   542.363E+03,   582.330E+03,   582.330E+03
C:/temp/Job-9.odb,Step-1,Increment      1: Step Time =    1.000,"P-9-1",           941,       98.9983,       69.2977,            0.,NA,NA,"",   1.23879E+06,   1.36179E+06,   1.36179E+06
C:/temp/Job-9.odb,Step-1,Increment      1: Step Time =    1.000,"P-9-1",           942,       93.6337,       63.1743,            0.,NA,NA,"",   1.16007E+06,   1.24625E+06,   1.24625E+06
C:/temp/Job-9.odb,Step-1,Increment      1: Step Time =    1.000,"P-9-1",           943,       132.531,       78.7285,            0.,NA,NA,"",   1.17499E+06,   1.07311E+06,   1.07311E+06
C:/temp/Job-9.odb,Step-1,Increment      1: Step Time =    1.000,"P-9-1",           944,       133.919,       88.7330,            0.,NA,NA,"",   878.887E+03,   806.109E+03,   806.109E+03
C:/temp/Job-9.odb,Step-1,Increment      1: Step Time =    1.000,"P-9-1",           945,       66.0775,       109.189,            0.,NA,NA,"",   691.375E+03,   678.844E+03,   678.844E+03
C:/temp/Job-9.odb,Step-1,Increment      1: Step Time =    1.000,"P-9-1",           946,       115.570,       69.7907,            0.,NA,NA,"",   1.33916E+06,   1.34405E+06,   1.34405E+06
C:/temp/Job-9.odb,Step-1,Increment      1: Step Time =    1.000,"P-9-1",           947,       80.0803,       130.086,            0.,NA,NA,"",   1.30942E+06,   1.28135E+06,   1.28135E+06
C:/temp/Job-9.odb,Step-1,Increment      1: Step Time =    1.000,"P-9-1",           948,       124.554,       131.751,            0.,NA,NA,"",   1.31079E+06,   1.24902E+06,   1.24902E+06
C:/temp/Job-9.odb,Step-1,Increment      1: Step Time =    1.000,"P-9-1",           949,       123.332,       180.426,            0.,NA,NA,"",   1.00445E+06,   1.00666E+06,   1.00666E+06
C:/temp/Job-9.odb,Step-1,Increment      1: Step Time =    1.000,"P-9-1",           950,       80.2037,       18.4724,            0.,NA,NA,"",   1.00995E+06,   1.01464E+06,   1.01464E+06
C:/temp/Job-9.odb,Step-1,Increment      1: Step Time =    1.000,"P-9-1",           951,       179.324,       79.5592,            0.,NA,NA,"",   961.655E+03,   988.044E+03,   988.044E+03
C:/temp/Job-9.odb,Step-1,Increment      1: Step Time =    1.000,"P-9-1",           952,       19.9014,       119.436,            0.,NA,NA,"",   789.138E+03,   872.710E+03,   872.710E+03
C:/temp/Job-9.odb,Step-1,Increment      1: Step Time =    1.000,"P-9-1",           953,       179.411,       89.6927,            0.,NA,NA,"",   938.101E+03,   972.465E+03,   972.465E+03
C:/temp/Job-9.odb,Step-1,Increment      1: Step Time =    1.000,"P-9-1",           954,       113.828,       178.001,            0.,NA,NA,"",   1.00017E+06,   1.00907E+06,   1.00907E+06
C:/temp/Job-9.odb,Step-1,Increment      1: Step Time =    1.000,"P-9-1",           955,       89.1661,       18.9095,            0.,NA,NA,"",   994.756E+03,   1.00279E+06,   1.00279E+06
C:/temp/Job-9.odb,Step-1,Increment      1: Step Time =    1.000,"P-9-1",           956,       19.5597,       109.842,            0.,NA,NA,"",   756.865E+03,   842.983E+03,   842.983E+03
C:/temp/Job-9.odb,Step-1,Increment      1: Step Time =    1.000,"P-9-1",           957,       126.262,       69.2927,            0.,NA,NA,"",   1.30516E+06,   1.22958E+06,   1.22958E+06
C:/temp/Job-9.odb,Step-1,Increment      1: Step Time =    1.000,"P-9-1",           958,       71.6239,       78.5281,            0.,NA,NA,"",   1.18892E+06,   1.10473E+06,   1.10473E+06
C:/temp/Job-9.odb,Step-1,Increment      1: Step Time =    1.000,"P-9-1",           959,       73.3898,       87.4316,            0.,NA,NA,"",   955.578E+03,   838.299E+03,   838.299E+03
C:/temp/Job-9.odb,Step-1,Increment      1: Step Time =    1.000,"P-9-1",           960,       66.6522,       118.679,            0.,NA,NA,"",   1.05321E+06,   986.926E+03,   986.926E+03
C:/temp/Job-9.odb,Step-1,Increment      1: Step Time =    1.000,"P-9-1",           961,       86.1654,       128.903,            0.,NA,NA,"",   1.33805E+06,   1.35579E+06,   1.35579E+06
C:/temp/Job-9.odb,Step-1,Increment      1: Step Time =    1.000,"P-9-1",           962,       58.5697,       101.731,            0.,NA,NA,"",   597.851E+03,   645.181E+03,   645.181E+03
C:/temp/Job-9.odb,Step-1,Increment      1: Step Time =    1.000,"P-9-1",           963,       9.66126,       56.0207,            0.,NA,NA,"",   862.061E+03,   954.825E+03,   954.825E+03
C:/temp/Job-9.odb,Step-1,Increment      1: Step Time =    1.000,"P-9-1",           964,       55.6712,       190.723,            0.,NA,NA,"",   1.02737E+06,   1.02680E+06,   1.02680E+06
C:/temp/Job-9.odb,Step-1,Increment      1: Step Time =    1.000,"P-9-1",           965,       144.269,       8.64126,            0.,NA,NA,"",   991.580E+03,   990.217E+03,   990.217E+03
C:/temp/Job-9.odb,Step-1,Increment      1: Step Time =    1.000,"P-9-1",           966,       191.372,       144.326,            0.,NA,NA,"",   984.247E+03,   1.00371E+06,   1.00371E+06
C:/temp/Job-9.odb,Step-1,Increment      1: Step Time =    1.000,"P-9-1",           967,       24.2398,       105.034,            0.,NA,NA,"",   750.024E+03,   833.063E+03,   833.063E+03
C:/temp/Job-9.odb,Step-1,Increment      1: Step Time =    1.000,"P-9-1",           968,       93.0374,       23.8160,            0.,NA,NA,"",   1.00477E+06,   1.01844E+06,   1.01844E+06
C:/temp/Job-9.odb,Step-1,Increment      1: Step Time =    1.000,"P-9-1",           969,       174.099,       94.8169,            0.,NA,NA,"",   920.008E+03,   950.611E+03,   950.611E+03
C:/temp/Job-9.odb,Step-1,Increment      1: Step Time =    1.000,"P-9-1",           970,       104.548,       175.834,            0.,NA,NA,"",   998.918E+03,   1.01386E+06,   1.01386E+06
C:/temp/Job-9.odb,Step-1,Increment      1: Step Time =    1.000,"P-9-1",           971,       114.106,       25.6002,            0.,NA,NA,"",   1.01228E+06,   1.02367E+06,   1.02367E+06
C:/temp/Job-9.odb,Step-1,Increment      1: Step Time =    1.000,"P-9-1",           972,       23.9258,       83.5279,            0.,NA,NA,"",   783.641E+03,   863.968E+03,   863.968E+03
C:/temp/Job-9.odb,Step-1,Increment      1: Step Time =    1.000,"P-9-1",           973,       25.5630,       114.063,            0.,NA,NA,"",   775.992E+03,   855.233E+03,   855.233E+03
C:/temp/Job-9.odb,Step-1,Increment      1: Step Time =    1.000,"P-9-1",           974,       84.3010,       23.2802,            0.,NA,NA,"",   1.01828E+06,   1.02773E+06,   1.02773E+06
C:/temp/Job-9.odb,Step-1,Increment      1: Step Time =    1.000,"P-9-1",           975,       172.942,       115.236,            0.,NA,NA,"",   944.257E+03,   966.480E+03,   966.480E+03
C:/temp/Job-9.odb,Step-1,Increment      1: Step Time =    1.000,"P-9-1",           976,       83.6124,       172.289,            0.,NA,NA,"",   1.03633E+06,   1.04787E+06,   1.04787E+06
C:/temp/Job-9.odb,Step-1,Increment      1: Step Time =    1.000,"P-9-1",           977,       174.169,       84.4381,            0.,NA,NA,"",   947.389E+03,   970.702E+03,   970.702E+03
C:/temp/Job-9.odb,Step-1,Increment      1: Step Time =    1.000,"P-9-1",           978,       112.245,       173.390,            0.,NA,NA,"",   1.01266E+06,   1.02624E+06,   1.02624E+06
C:/temp/Job-9.odb,Step-1,Increment      1: Step Time =    1.000,"P-9-1",           979,       26.9820,       63.8839,            0.,NA,NA,"",   898.401E+03,   962.411E+03,   962.411E+03
C:/temp/Job-9.odb,Step-1,Increment      1: Step Time =    1.000,"P-9-1",           980,       65.7012,       26.9933,            0.,NA,NA,"",   1.07190E+06,   1.07103E+06,   1.07103E+06
C:/temp/Job-9.odb,Step-1,Increment      1: Step Time =    1.000,"P-9-1",           981,       134.867,       25.6923,            0.,NA,NA,"",   1.04142E+06,   1.03579E+06,   1.03579E+06
C:/temp/Job-9.odb,Step-1,Increment      1: Step Time =    1.000,"P-9-1",           982,       26.1282,       135.298,            0.,NA,NA,"",   888.265E+03,   954.647E+03,   954.647E+03
C:/temp/Job-9.odb,Step-1,Increment      1: Step Time =    1.000,"P-9-1",           983,       174.498,       135.628,            0.,NA,NA,"",   1.00781E+06,   1.01386E+06,   1.01386E+06
C:/temp/Job-9.odb,Step-1,Increment      1: Step Time =    1.000,"P-9-1",           984,       136.118,       171.315,            0.,NA,NA,"",   1.05550E+06,   1.04748E+06,   1.04748E+06
C:/temp/Job-9.odb,Step-1,Increment      1: Step Time =    1.000,"P-9-1",           985,       65.1198,       176.312,            0.,NA,NA,"",   1.06190E+06,   1.06075E+06,   1.06075E+06
C:/temp/Job-9.odb,Step-1,Increment      1: Step Time =    1.000,"P-9-1",           986,       174.036,       64.7103,            0.,NA,NA,"",   1.00907E+06,   1.01433E+06,   1.01433E+06
C:/temp/Job-9.odb,Step-1,Increment      1: Step Time =    1.000,"P-9-1",           987,       33.4339,       27.6106,            0.,NA,NA,"",   1.08214E+06,   1.10289E+06,   1.10289E+06
C:/temp/Job-9.odb,Step-1,Increment      1: Step Time =    1.000,"P-9-1",           988,       29.0005,       31.5593,            0.,NA,NA,"",    1.0614E+06,   1.09516E+06,   1.09516E+06
C:/temp/Job-9.odb,Step-1,Increment      1: Step Time =    1.000,"P-9-1",           989,       22.5237,       167.386,            0.,NA,NA,"",   1.03780E+06,   1.08801E+06,   1.08801E+06
C:/temp/Job-9.odb,Step-1,Increment      1: Step Time =    1.000,"P-9-1",           990,       169.795,       27.8047,            0.,NA,NA,"",   1.02303E+06,   1.01927E+06,   1.01927E+06
C:/temp/Job-9.odb,Step-1,Increment      1: Step Time =    1.000,"P-9-1",           991,       177.404,       32.2588,            0.,NA,NA,"",   1.01554E+06,   1.01487E+06,   1.01487E+06
C:/temp/Job-9.odb,Step-1,Increment      1: Step Time =    1.000,"P-9-1",           992,       30.8001,       175.168,            0.,NA,NA,"",   1.08836E+06,   1.11064E+06,   1.11064E+06
C:/temp/Job-9.odb,Step-1,Increment      1: Step Time =    1.000,"P-9-1",           993,       172.706,       170.814,            0.,NA,NA,"",   1.02066E+06,   1.01780E+06,   1.01780E+06
C:/temp/Job-9.odb,Step-1,Increment      1: Step Time =    1.000,"P-9-1",           994,       169.508,       176.133,            0.,NA,NA,"",   1.01828E+06,   1.01518E+06,   1.01518E+06
C:/temp/Job-9.odb,Step-1,Increment      1: Step Time =    1.000,"P-9-1",           995,       135.652,       105.299,            0.,NA,NA,"",   653.465E+03,   639.050E+03,   639.050E+03
C:/temp/Job-9.odb,Step-1,Increment      1: Step Time =    1.000,"P-9-1",           996,       131.862,       120.309,            0.,NA,NA,"",   1.18516E+06,   1.07331E+06,   1.07331E+06
C:/temp/Job-9.odb,Step-1,Increment      1: Step Time =    1.000,"P-9-1",           997,       128.100,       110.383,            0.,NA,NA,"",   855.992E+03,   727.081E+03,   727.081E+03
C:/temp/Job-9.odb,Step-1,Increment      1: Step Time =    1.000,"P-9-1",           998,       15.9178,       176.793,            0.,NA,NA,"",   1.07223E+06,   1.13078E+06,   1.13078E+06
C:/temp/Job-9.odb,Step-1,Increment      1: Step Time =    1.000,"P-9-1",           999,       175.673,       16.3880,            0.,NA,NA,"",   1.00660E+06,   1.00592E+06,   1.00592E+06
C:/temp/Job-9.odb,Step-1,Increment      1: Step Time =    1.000,"P-9-1",          1000,       21.6845,       15.0307,            0.,NA,NA,"",   1.13551E+06,   1.15789E+06,   1.15789E+06
C:/temp/Job-9.odb,Step-1,Increment      1: Step Time =    1.000,"P-9-1",          1001,       15.8299,       22.3951,            0.,NA,NA,"",   1.08458E+06,   1.14080E+06,   1.14080E+06
C:/temp/Job-9.odb,Step-1,Increment      1: Step Time =    1.000,"P-9-1",          1002,       174.451,       187.522,            0.,NA,NA,"",   1.00396E+06,   1.00348E+06,   1.00348E+06
C:/temp/Job-9.odb,Step-1,Increment      1: Step Time =    1.000,"P-9-1",          1003,       183.644,       175.493,            0.,NA,NA,"",   1.00519E+06,   1.00597E+06,   1.00597E+06
C:/temp/Job-9.odb,Step-1,Increment      1: Step Time =    1.000,"P-9-1",          1004,       187.579,       25.1277,            0.,NA,NA,"",   1.00217E+06,   1.00370E+06,   1.00370E+06
C:/temp/Job-9.odb,Step-1,Increment      1: Step Time =    1.000,"P-9-1",          1005,       20.2264,       183.972,            0.,NA,NA,"",   1.13861E+06,   1.16503E+06,   1.16503E+06
C:/temp/Job-9.odb,Step-1,Increment      1: Step Time =    1.000,"P-9-1",          1006,       66.6995,       97.4633,            0.,NA,NA,"",   476.964E+03,   502.115E+03,   502.115E+03
C:/temp/Job-9.odb,Step-1,Increment      1: Step Time =    1.000,"P-9-1",          1007,       98.8126,       64.3215,            0.,NA,NA,"",   1.14696E+06,   1.25005E+06,   1.25005E+06
C:/temp/Job-9.odb,Step-1,Increment      1: Step Time =    1.000,"P-9-1",          1008,       60.9924,       117.779,            0.,NA,NA,"",   926.128E+03,   904.469E+03,   904.469E+03
C:/temp/Job-9.odb,Step-1,Increment      1: Step Time =    1.000,"P-9-1",          1009,       110.572,       71.9138,            0.,NA,NA,"",   1.36759E+06,   1.43234E+06,   1.43234E+06
C:/temp/Job-9.odb,Step-1,Increment      1: Step Time =    1.000,"P-9-1",          1010,       74.4843,       131.862,            0.,NA,NA,"",   1.26188E+06,   1.21949E+06,   1.21949E+06
C:/temp/Job-9.odb,Step-1,Increment      1: Step Time =    1.000,"P-9-1",          1011,       128.650,       130.305,            0.,NA,NA,"",   1.28773E+06,   1.20797E+06,   1.20797E+06
C:/temp/Job-9.odb,Step-1,Increment      1: Step Time =    1.000,"P-9-1",          1012,       121.435,       67.6313,            0.,NA,NA,"",   1.31396E+06,   1.27079E+06,   1.27079E+06
C:/temp/Job-9.odb,Step-1,Increment      1: Step Time =    1.000,"P-9-1",          1013,       130.208,       70.2725,            0.,NA,NA,"",   1.27136E+06,   1.18391E+06,   1.18391E+06
C:/temp/Job-9.odb,Step-1,Increment      1: Step Time =    1.000,"P-9-1",          1014,       73.0513,       126.082,            0.,NA,NA,"",   1.26004E+06,   1.18895E+06,   1.18895E+06
C:/temp/Job-9.odb,Step-1,Increment      1: Step Time =    1.000,"P-9-1",          1015,       82.9647,       132.449,            0.,NA,NA,"",   1.29278E+06,   1.29254E+06,   1.29254E+06
C:/temp/Job-9.odb,Step-1,Increment      1: Step Time =    1.000,"P-9-1",          1016,       136.221,       101.606,            0.,NA,NA,"",   580.849E+03,   586.333E+03,   586.333E+03
C:/temp/Job-9.odb,Step-1,Increment      1: Step Time =    1.000,"P-9-1",          1017,       136.118,       75.6351,            0.,NA,NA,"",   1.16180E+06,   1.07883E+06,   1.07883E+06
C:/temp/Job-9.odb,Step-1,Increment      1: Step Time =    1.000,"P-9-1",          1018,       69.3447,       88.3526,            0.,NA,NA,"",   841.443E+03,    769.93E+03,    769.93E+03
C:/temp/Job-9.odb,Step-1,Increment      1: Step Time =    1.000,"P-9-1",          1019,       24.0521,       125.030,            0.,NA,NA,"",   827.454E+03,   902.869E+03,   902.869E+03
C:/temp/Job-9.odb,Step-1,Increment      1: Step Time =    1.000,"P-9-1",          1020,       173.931,       74.4690,            0.,NA,NA,"",   981.312E+03,   994.806E+03,   994.806E+03
C:/temp/Job-9.odb,Step-1,Increment      1: Step Time =    1.000,"P-9-1",          1021,       75.8554,       23.3572,            0.,NA,NA,"",   1.03842E+06,   1.04243E+06,   1.04243E+06
C:/temp/Job-9.odb,Step-1,Increment      1: Step Time =    1.000,"P-9-1",          1022,       123.812,       172.397,            0.,NA,NA,"",   1.03496E+06,   1.03842E+06,   1.03842E+06
C:/temp/Job-9.odb,Step-1,Increment      1: Step Time =    1.000,"P-9-1",          1023,       44.1922,       184.021,            0.,NA,NA,"",   1.07467E+06,   1.07695E+06,   1.07695E+06
C:/temp/Job-9.odb,Step-1,Increment      1: Step Time =    1.000,"P-9-1",          1024,       184.768,       153.899,            0.,NA,NA,"",   1.00257E+06,   1.01018E+06,   1.01018E+06
C:/temp/Job-9.odb,Step-1,Increment      1: Step Time =    1.000,"P-9-1",          1025,       15.7969,       48.4234,            0.,NA,NA,"",   922.933E+03,   1.00272E+06,   1.00272E+06
C:/temp/Job-9.odb,Step-1,Increment      1: Step Time =    1.000,"P-9-1",          1026,       153.781,       15.2288,            0.,NA,NA,"",   1.01177E+06,   1.00837E+06,   1.00837E+06
C:/temp/Job-9.odb,Step-1,Increment      1: Step Time =    1.000,"P-9-1",          1027,       25.1310,       94.4799,            0.,NA,NA,"",   751.533E+03,   833.694E+03,   833.694E+03
C:/temp/Job-9.odb,Step-1,Increment      1: Step Time =    1.000,"P-9-1",          1028,       102.489,       27.1209,            0.,NA,NA,"",   1.00657E+06,   1.02547E+06,   1.02547E+06
C:/temp/Job-9.odb,Step-1,Increment      1: Step Time =    1.000,"P-9-1",          1029,       95.3852,       171.830,            0.,NA,NA,"",   1.01189E+06,   1.03195E+06,   1.03195E+06
C:/temp/Job-9.odb,Step-1,Increment      1: Step Time =    1.000,"P-9-1",          1030,       175.009,       104.443,            0.,NA,NA,"",   919.320E+03,   951.193E+03,   951.193E+03
C:/temp/Job-9.odb,Step-1,Increment      1: Step Time =    1.000,"P-9-1",          1031,       68.6521,       73.7328,            0.,NA,NA,"",   1.19095E+06,   1.13172E+06,   1.13172E+06
C:/temp/Job-9.odb,Step-1,Increment      1: Step Time =    1.000,"P-9-1",          1032,       180.381,       46.5220,            0.,NA,NA,"",   1.01219E+06,   1.01619E+06,   1.01619E+06
C:/temp/Job-9.odb,Step-1,Increment      1: Step Time =    1.000,"P-9-1",          1033,       156.186,       179.713,            0.,NA,NA,"",   1.02247E+06,   1.01727E+06,   1.01727E+06
C:/temp/Job-9.odb,Step-1,Increment      1: Step Time =    1.000,"P-9-1",          1034,       43.1319,       15.0817,            0.,NA,NA,"",   1.07430E+06,   1.07589E+06,   1.07589E+06
C:/temp/Job-9.odb,Step-1,Increment      1: Step Time =    1.000,"P-9-1",          1035,       13.7883,       156.447,            0.,NA,NA,"",   936.032E+03,   1.01818E+06,   1.01818E+06
C:/temp/Job-9.odb,Step-1,Increment      1: Step Time =    1.000,"P-9-1",          1036,       171.495,       180.029,            0.,NA,NA,"",   1.01208E+06,   1.01021E+06,   1.01021E+06
C:/temp/Job-9.odb,Step-1,Increment      1: Step Time =    1.000,"P-9-1",          1037,       178.267,       173.503,            0.,NA,NA,"",   1.01113E+06,   1.01070E+06,   1.01070E+06
C:/temp/Job-9.odb,Step-1,Increment      1: Step Time =    1.000,"P-9-1",          1038,       180.457,       27.0957,            0.,NA,NA,"",   1.00878E+06,   1.00913E+06,   1.00913E+06
C:/temp/Job-9.odb,Step-1,Increment      1: Step Time =    1.000,"P-9-1",          1039,       26.8313,       175.135,            0.,NA,NA,"",   1.08555E+06,   1.11543E+06,   1.11543E+06
C:/temp/Job-9.odb,Step-1,Increment      1: Step Time =    1.000,"P-9-1",          1040,       23.1091,       174.940,            0.,NA,NA,"",   1.08307E+06,   1.12133E+06,   1.12133E+06
C:/temp/Job-9.odb,Step-1,Increment      1: Step Time =    1.000,"P-9-1",          1041,       173.800,       22.7113,            0.,NA,NA,"",   1.01280E+06,   1.01124E+06,   1.01124E+06
C:/temp/Job-9.odb,Step-1,Increment      1: Step Time =    1.000,"P-9-1",          1042,       29.4746,       23.2751,            0.,NA,NA,"",   1.09208E+06,   1.11456E+06,   1.11456E+06
C:/temp/Job-9.odb,Step-1,Increment      1: Step Time =    1.000,"P-9-1",          1043,       24.8087,       27.1971,            0.,NA,NA,"",   1.07071E+06,   1.10900E+06,   1.10900E+06
C:/temp/Job-9.odb,Step-1,Increment      1: Step Time =    1.000,"P-9-1",          1044,       61.5033,       109.476,            0.,NA,NA,"",   704.221E+03,   717.489E+03,   717.489E+03
C:/temp/Job-9.odb,Step-1,Increment      1: Step Time =    1.000,"P-9-1",          1045,       67.9399,       83.9082,            0.,NA,NA,"",   1.00093E+06,   929.515E+03,   929.515E+03
C:/temp/Job-9.odb,Step-1,Increment      1: Step Time =    1.000,"P-9-1",          1046,       140.966,       89.3900,            0.,NA,NA,"",   837.913E+03,   811.938E+03,   811.938E+03
C:/temp/Job-9.odb,Step-1,Increment      1: Step Time =    1.000,"P-9-1",          1047,       140.473,       103.356,            0.,NA,NA,"",   674.294E+03,   682.658E+03,   682.658E+03
C:/temp/Job-9.odb,Step-1,Increment      1: Step Time =    1.000,"P-9-1",          1048,       104.806,       69.4700,            0.,NA,NA,"",   1.25183E+06,   1.36407E+06,   1.36407E+06
C:/temp/Job-9.odb,Step-1,Increment      1: Step Time =    1.000,"P-9-1",          1049,       102.189,       59.9817,            0.,NA,NA,"",   1.10858E+06,   1.19432E+06,   1.19432E+06
C:/temp/Job-9.odb,Step-1,Increment      1: Step Time =    1.000,"P-9-1",          1050,       69.5417,       175.697,            0.,NA,NA,"",   1.05619E+06,   1.05650E+06,   1.05650E+06
C:/temp/Job-9.odb,Step-1,Increment      1: Step Time =    1.000,"P-9-1",          1051,       17.4463,       13.6334,            0.,NA,NA,"",   1.16410E+06,   1.18914E+06,   1.18914E+06
C:/temp/Job-9.odb,Step-1,Increment      1: Step Time =    1.000,"P-9-1",          1052,       14.7339,       181.686,            0.,NA,NA,"",   1.11054E+06,   1.16344E+06,   1.16344E+06
C:/temp/Job-9.odb,Step-1,Increment      1: Step Time =    1.000,"P-9-1",          1053,       186.978,       20.6694,            0.,NA,NA,"",   1.00215E+06,   1.00304E+06,   1.00304E+06
C:/temp/Job-9.odb,Step-1,Increment      1: Step Time =    1.000,"P-9-1",          1054,       178.897,       186.778,            0.,NA,NA,"",   1.00318E+06,   1.00304E+06,   1.00304E+06
C:/temp/Job-9.odb,Step-1,Increment      1: Step Time =    1.000,"P-9-1",          1055,       130.273,       75.5544,            0.,NA,NA,"",   1.25045E+06,   1.14522E+06,   1.14522E+06
C:/temp/Job-9.odb,Step-1,Increment      1: Step Time =    1.000,"P-9-1",          1056,       142.366,       75.0021,            0.,NA,NA,"",   1.10175E+06,   1.04222E+06,   1.04222E+06
C:/temp/Job-9.odb,Step-1,Increment      1: Step Time =    1.000,"P-9-1",          1057,       57.9052,       106.008,            0.,NA,NA,"",   651.426E+03,   690.871E+03,   690.871E+03
C:/temp/Job-9.odb,Step-1,Increment      1: Step Time =    1.000,"P-9-1",          1058,       27.7127,       109.996,            0.,NA,NA,"",   762.988E+03,   841.498E+03,   841.498E+03
C:/temp/Job-9.odb,Step-1,Increment      1: Step Time =    1.000,"P-9-1",          1059,       92.6933,       27.9454,            0.,NA,NA,"",   1.01630E+06,   1.03447E+06,   1.03447E+06
C:/temp/Job-9.odb,Step-1,Increment      1: Step Time =    1.000,"P-9-1",          1060,       169.210,       89.3526,            0.,NA,NA,"",   923.279E+03,   945.187E+03,   945.187E+03
C:/temp/Job-9.odb,Step-1,Increment      1: Step Time =    1.000,"P-9-1",          1061,       107.231,       170.429,            0.,NA,NA,"",   1.01506E+06,   1.03529E+06,   1.03529E+06
C:/temp/Job-9.odb,Step-1,Increment      1: Step Time =    1.000,"P-9-1",          1062,       118.834,       29.7613,            0.,NA,NA,"",   1.03544E+06,   1.04427E+06,   1.04427E+06
C:/temp/Job-9.odb,Step-1,Increment      1: Step Time =    1.000,"P-9-1",          1063,       26.5260,       77.2614,            0.,NA,NA,"",   820.693E+03,   894.198E+03,   894.198E+03
C:/temp/Job-9.odb,Step-1,Increment      1: Step Time =    1.000,"P-9-1",          1064,       80.0825,       26.7740,            0.,NA,NA,"",   1.04023E+06,   1.04854E+06,   1.04854E+06
C:/temp/Job-9.odb,Step-1,Increment      1: Step Time =    1.000,"P-9-1",          1065,       170.726,       121.832,            0.,NA,NA,"",   971.170E+03,   983.318E+03,   983.318E+03
C:/temp/Job-9.odb,Step-1,Increment      1: Step Time =    1.000,"P-9-1",          1066,       82.0259,       169.367,            0.,NA,NA,"",   1.05016E+06,   1.06249E+06,   1.06249E+06
C:/temp/Job-9.odb,Step-1,Increment      1: Step Time =    1.000,"P-9-1",          1067,       168.629,       79.2900,            0.,NA,NA,"",   967.198E+03,   977.291E+03,   977.291E+03
C:/temp/Job-9.odb,Step-1,Increment      1: Step Time =    1.000,"P-9-1",          1068,       115.905,       171.564,            0.,NA,NA,"",   1.02406E+06,   1.03528E+06,   1.03528E+06
C:/temp/Job-9.odb,Step-1,Increment      1: Step Time =    1.000,"P-9-1",          1069,       14.9485,       17.5200,            0.,NA,NA,"",   1.12378E+06,   1.17191E+06,   1.17191E+06
C:/temp/Job-9.odb,Step-1,Increment      1: Step Time =    1.000,"P-9-1",          1070,       181.629,       17.2150,            0.,NA,NA,"",   1.00392E+06,   1.00408E+06,   1.00408E+06
C:/temp/Job-9.odb,Step-1,Increment      1: Step Time =    1.000,"P-9-1",          1071,       14.9662,       185.186,            0.,NA,NA,"",   1.15249E+06,   1.19300E+06,   1.19300E+06
C:/temp/Job-9.odb,Step-1,Increment      1: Step Time =    1.000,"P-9-1",          1072,       182.370,       181.330,            0.,NA,NA,"",   1.00425E+06,   1.00442E+06,   1.00442E+06
C:/temp/Job-9.odb,Step-1,Increment      1: Step Time =    1.000,"P-9-1",          1073,       60.0987,       31.5288,            0.,NA,NA,"",   1.09211E+06,   1.08951E+06,   1.08951E+06
C:/temp/Job-9.odb,Step-1,Increment      1: Step Time =    1.000,"P-9-1",          1074,       30.3162,       61.0211,            0.,NA,NA,"",   930.355E+03,   984.891E+03,   984.891E+03
C:/temp/Job-9.odb,Step-1,Increment      1: Step Time =    1.000,"P-9-1",          1075,       140.238,       32.1594,            0.,NA,NA,"",   1.06911E+06,   1.05691E+06,   1.05691E+06
C:/temp/Job-9.odb,Step-1,Increment      1: Step Time =    1.000,"P-9-1",          1076,       30.8325,       140.600,            0.,NA,NA,"",   940.846E+03,   993.191E+03,   993.191E+03
C:/temp/Job-9.odb,Step-1,Increment      1: Step Time =    1.000,"P-9-1",          1077,       168.103,       141.014,            0.,NA,NA,"",   1.03818E+06,   1.03110E+06,   1.03110E+06
C:/temp/Job-9.odb,Step-1,Increment      1: Step Time =    1.000,"P-9-1",          1078,       140.073,       170.624,            0.,NA,NA,"",   1.05801E+06,   1.04780E+06,   1.04780E+06
C:/temp/Job-9.odb,Step-1,Increment      1: Step Time =    1.000,"P-9-1",          1079,       169.086,       59.4294,            0.,NA,NA,"",   1.03438E+06,   1.02906E+06,   1.02906E+06
C:/temp/Job-9.odb,Step-1,Increment      1: Step Time =    1.000,"P-9-1",          1080,       56.7920,       172.300,            0.,NA,NA,"",   1.08410E+06,   1.08239E+06,   1.08239E+06
C:/temp/Job-9.odb,Step-1,Increment      1: Step Time =    1.000,"P-9-1",          1081,       37.9413,       27.6820,            0.,NA,NA,"",   1.08478E+06,   1.09818E+06,   1.09818E+06
C:/temp/Job-9.odb,Step-1,Increment      1: Step Time =    1.000,"P-9-1",          1082,       29.0266,       35.7599,            0.,NA,NA,"",   1.04445E+06,   1.08234E+06,   1.08234E+06
C:/temp/Job-9.odb,Step-1,Increment      1: Step Time =    1.000,"P-9-1",          1083,       166.161,       28.4200,            0.,NA,NA,"",   1.02935E+06,   1.02376E+06,   1.02376E+06
C:/temp/Job-9.odb,Step-1,Increment      1: Step Time =    1.000,"P-9-1",          1084,       26.6022,       165.574,            0.,NA,NA,"",   1.04183E+06,   1.08410E+06,   1.08410E+06
C:/temp/Job-9.odb,Step-1,Increment      1: Step Time =    1.000,"P-9-1",          1085,       34.8967,       170.955,            0.,NA,NA,"",   1.07991E+06,   1.09905E+06,   1.09905E+06
C:/temp/Job-9.odb,Step-1,Increment      1: Step Time =    1.000,"P-9-1",          1086,       172.831,       36.8780,            0.,NA,NA,"",   1.02726E+06,   1.02375E+06,   1.02375E+06
C:/temp/Job-9.odb,Step-1,Increment      1: Step Time =    1.000,"P-9-1",          1087,       164.726,       169.174,            0.,NA,NA,"",   1.03674E+06,   1.02933E+06,   1.02933E+06
C:/temp/Job-9.odb,Step-1,Increment      1: Step Time =    1.000,"P-9-1",          1088,       171.675,       167.083,            0.,NA,NA,"",   1.02628E+06,   1.02235E+06,   1.02235E+06
C:/temp/Job-9.odb,Step-1,Increment      1: Step Time =    1.000,"P-9-1",          1089,       153.251,       9.22751,            0.,NA,NA,"",   999.538E+03,   998.077E+03,   998.077E+03
C:/temp/Job-9.odb,Step-1,Increment      1: Step Time =    1.000,"P-9-1",          1090,       190.771,       153.275,            0.,NA,NA,"",   992.816E+03,   1.00424E+06,   1.00424E+06
C:/temp/Job-9.odb,Step-1,Increment      1: Step Time =    1.000,"P-9-1",          1091,       46.1950,       189.923,            0.,NA,NA,"",   1.05336E+06,   1.05352E+06,   1.05352E+06
C:/temp/Job-9.odb,Step-1,Increment      1: Step Time =    1.000,"P-9-1",          1092,       57.5366,       113.093,            0.,NA,NA,"",   784.800E+03,   800.618E+03,   800.618E+03
C:/temp/Job-9.odb,Step-1,Increment      1: Step Time =    1.000,"P-9-1",          1093,       123.317,       138.177,            0.,NA,NA,"",   1.24565E+06,   1.21812E+06,   1.21812E+06
C:/temp/Job-9.odb,Step-1,Increment      1: Step Time =    1.000,"P-9-1",          1094,       132.660,       129.123,            0.,NA,NA,"",   1.24662E+06,   1.16141E+06,   1.16141E+06
C:/temp/Job-9.odb,Step-1,Increment      1: Step Time =    1.000,"P-9-1",          1095,       77.6881,       133.695,            0.,NA,NA,"",   1.26512E+06,   1.24020E+06,   1.24020E+06
C:/temp/Job-9.odb,Step-1,Increment      1: Step Time =    1.000,"P-9-1",          1096,       128.002,       66.1151,            0.,NA,NA,"",   1.28151E+06,   1.21636E+06,   1.21636E+06
C:/temp/Job-9.odb,Step-1,Increment      1: Step Time =    1.000,"P-9-1",          1097,       85.4247,       135.325,            0.,NA,NA,"",   1.25266E+06,   1.27622E+06,   1.27622E+06
C:/temp/Job-9.odb,Step-1,Increment      1: Step Time =    1.000,"P-9-1",          1098,       27.0912,       130.864,            0.,NA,NA,"",   868.626E+03,   935.862E+03,   935.862E+03
C:/temp/Job-9.odb,Step-1,Increment      1: Step Time =    1.000,"P-9-1",          1099,       168.555,       69.3144,            0.,NA,NA,"",   1.01107E+06,   1.01050E+06,   1.01050E+06
C:/temp/Job-9.odb,Step-1,Increment      1: Step Time =    1.000,"P-9-1",          1100,       70.9269,       28.3189,            0.,NA,NA,"",   1.06676E+06,   1.06856E+06,   1.06856E+06
C:/temp/Job-9.odb,Step-1,Increment      1: Step Time =    1.000,"P-9-1",          1101,       127.499,       170.248,            0.,NA,NA,"",   1.05107E+06,   1.05003E+06,   1.05003E+06
C:/temp/Job-9.odb,Step-1,Increment      1: Step Time =    1.000,"P-9-1",          1102,       29.4800,       100.587,            0.,NA,NA,"",   744.518E+03,   823.080E+03,   823.080E+03
C:/temp/Job-9.odb,Step-1,Increment      1: Step Time =    1.000,"P-9-1",          1103,       97.6927,       30.4087,            0.,NA,NA,"",   1.01648E+06,   1.03945E+06,   1.03945E+06
C:/temp/Job-9.odb,Step-1,Increment      1: Step Time =    1.000,"P-9-1",          1104,       24.6758,       88.8203,            0.,NA,NA,"",   765.384E+03,   846.566E+03,   846.566E+03
C:/temp/Job-9.odb,Step-1,Increment      1: Step Time =    1.000,"P-9-1",          1105,       108.656,       26.4265,            0.,NA,NA,"",   1.00775E+06,   1.02357E+06,   1.02357E+06
C:/temp/Job-9.odb,Step-1,Increment      1: Step Time =    1.000,"P-9-1",          1106,       100.221,       172.316,            0.,NA,NA,"",   1.00780E+06,   1.02739E+06,   1.02739E+06
C:/temp/Job-9.odb,Step-1,Increment      1: Step Time =    1.000,"P-9-1",          1107,       168.717,       100.566,            0.,NA,NA,"",   898.640E+03,   925.674E+03,   925.674E+03
C:/temp/Job-9.odb,Step-1,Increment      1: Step Time =    1.000,"P-9-1",          1108,       90.9975,       174.233,            0.,NA,NA,"",   1.01219E+06,   1.02773E+06,   1.02773E+06
C:/temp/Job-9.odb,Step-1,Increment      1: Step Time =    1.000,"P-9-1",          1109,       174.389,       109.474,            0.,NA,NA,"",   928.179E+03,   957.048E+03,   957.048E+03
C:/temp/Job-9.odb,Step-1,Increment      1: Step Time =    1.000,"P-9-1",          1110,       68.4311,       67.6663,            0.,NA,NA,"",   1.19836E+06,   1.15639E+06,   1.15639E+06
C:/temp/Job-9.odb,Step-1,Increment      1: Step Time =    1.000,"P-9-1",          1111,       66.6252,       79.5160,            0.,NA,NA,"",   1.08149E+06,   1.01935E+06,   1.01935E+06
C:/temp/Job-9.odb,Step-1,Increment      1: Step Time =    1.000,"P-9-1",          1112,       29.1891,       27.4277,            0.,NA,NA,"",   1.07814E+06,   1.10657E+06,   1.10657E+06
C:/temp/Job-9.odb,Step-1,Increment      1: Step Time =    1.000,"P-9-1",          1113,       173.427,       27.7205,            0.,NA,NA,"",   1.01774E+06,   1.01556E+06,   1.01556E+06
C:/temp/Job-9.odb,Step-1,Increment      1: Step Time =    1.000,"P-9-1",          1114,       174.095,       174.737,            0.,NA,NA,"",   1.01499E+06,   1.01318E+06,   1.01318E+06
C:/temp/Job-9.odb,Step-1,Increment      1: Step Time =    1.000,"P-9-1",          1115,       70.9115,       130.039,            0.,NA,NA,"",   1.23385E+06,   1.18122E+06,   1.18122E+06
C:/temp/Job-9.odb,Step-1,Increment      1: Step Time =    1.000,"P-9-1",          1116,       134.419,       113.570,            0.,NA,NA,"",   944.124E+03,   864.355E+03,   864.355E+03
C:/temp/Job-9.odb,Step-1,Increment      1: Step Time =    1.000,"P-9-1",          1117,       113.980,       65.2935,            0.,NA,NA,"",   1.25144E+06,   1.28276E+06,   1.28276E+06
C:/temp/Job-9.odb,Step-1,Increment      1: Step Time =    1.000,"P-9-1",          1118,       143.651,       82.3276,            0.,NA,NA,"",   990.748E+03,   947.611E+03,   947.611E+03
C:/temp/Job-9.odb,Step-1,Increment      1: Step Time =    1.000,"P-9-1",          1119,       143.472,       92.9647,            0.,NA,NA,"",   761.647E+03,   761.544E+03,   761.544E+03
C:/temp/Job-9.odb,Step-1,Increment      1: Step Time =    1.000,"P-9-1",          1120,       151.255,       177.686,            0.,NA,NA,"",   1.03039E+06,   1.02350E+06,   1.02350E+06
C:/temp/Job-9.odb,Step-1,Increment      1: Step Time =    1.000,"P-9-1",          1121,       178.732,       149.905,            0.,NA,NA,"",   1.01397E+06,   1.01805E+06,   1.01805E+06
C:/temp/Job-9.odb,Step-1,Increment      1: Step Time =    1.000,"P-9-1",          1122,       48.6273,       180.487,            0.,NA,NA,"",   1.07428E+06,   1.07511E+06,   1.07511E+06
C:/temp/Job-9.odb,Step-1,Increment      1: Step Time =    1.000,"P-9-1",          1123,       179.784,       50.9889,            0.,NA,NA,"",   1.01127E+06,   1.01668E+06,   1.01668E+06
C:/temp/Job-9.odb,Step-1,Increment      1: Step Time =    1.000,"P-9-1",          1124,       149.607,       21.2472,            0.,NA,NA,"",   1.02781E+06,   1.02148E+06,   1.02148E+06
C:/temp/Job-9.odb,Step-1,Increment      1: Step Time =    1.000,"P-9-1",          1125,       19.8155,       151.858,            0.,NA,NA,"",   944.720E+03,   1.01521E+06,   1.01521E+06
C:/temp/Job-9.odb,Step-1,Increment      1: Step Time =    1.000,"P-9-1",          1126,       49.0123,       20.3835,            0.,NA,NA,"",   1.07603E+06,   1.07688E+06,   1.07688E+06
C:/temp/Job-9.odb,Step-1,Increment      1: Step Time =    1.000,"P-9-1",          1127,       20.7967,       49.3300,            0.,NA,NA,"",   942.877E+03,   1.01192E+06,   1.01192E+06
C:/temp/Job-9.odb,Step-1,Increment      1: Step Time =    1.000,"P-9-1",          1128,       138.877,       122.191,            0.,NA,NA,"",   1.11100E+06,   1.03606E+06,   1.03606E+06
C:/temp/Job-9.odb,Step-1,Increment      1: Step Time =    1.000,"P-9-1",          1129,       187.188,       151.418,            0.,NA,NA,"",   996.759E+03,   1.00750E+06,   1.00750E+06
C:/temp/Job-9.odb,Step-1,Increment      1: Step Time =    1.000,"P-9-1",          1130,       154.172,       184.801,            0.,NA,NA,"",   1.01209E+06,   1.00861E+06,   1.00861E+06
C:/temp/Job-9.odb,Step-1,Increment      1: Step Time =    1.000,"P-9-1",          1131,       47.5896,       185.168,            0.,NA,NA,"",   1.06534E+06,   1.06571E+06,   1.06571E+06
C:/temp/Job-9.odb,Step-1,Increment      1: Step Time =    1.000,"P-9-1",          1132,       185.068,       47.2568,            0.,NA,NA,"",   1.00231E+06,   1.01039E+06,   1.01039E+06
C:/temp/Job-9.odb,Step-1,Increment      1: Step Time =    1.000,"P-9-1",          1133,       151.350,       12.8150,            0.,NA,NA,"",   1.00574E+06,   1.00310E+06,   1.00310E+06
C:/temp/Job-9.odb,Step-1,Increment      1: Step Time =    1.000,"P-9-1",          1134,       12.7924,       153.113,            0.,NA,NA,"",   914.914E+03,   1.00068E+06,   1.00068E+06
C:/temp/Job-9.odb,Step-1,Increment      1: Step Time =    1.000,"P-9-1",          1135,       46.7174,       13.5825,            0.,NA,NA,"",   1.06289E+06,   1.06273E+06,   1.06273E+06
C:/temp/Job-9.odb,Step-1,Increment      1: Step Time =    1.000,"P-9-1",          1136,       132.391,       65.9282,            0.,NA,NA,"",   1.24547E+06,   1.17649E+06,   1.17649E+06
C:/temp/Job-9.odb,Step-1,Increment      1: Step Time =    1.000,"P-9-1",          1137,       130.469,       61.2342,            0.,NA,NA,"",   1.23162E+06,   1.18174E+06,   1.18174E+06
C:/temp/Job-9.odb,Step-1,Increment      1: Step Time =    1.000,"P-9-1",          1138,       109.216,       67.4958,            0.,NA,NA,"",   1.24321E+06,   1.31948E+06,   1.31948E+06
C:/temp/Job-9.odb,Step-1,Increment      1: Step Time =    1.000,"P-9-1",          1139,       112.130,       61.1199,            0.,NA,NA,"",   1.17809E+06,   1.22486E+06,   1.22486E+06
C:/temp/Job-9.odb,Step-1,Increment      1: Step Time =    1.000,"P-9-1",          1140,       69.1266,       134.124,            0.,NA,NA,"",   1.20891E+06,   1.17006E+06,   1.17006E+06
C:/temp/Job-9.odb,Step-1,Increment      1: Step Time =    1.000,"P-9-1",          1141,       125.431,       141.512,            0.,NA,NA,"",   1.21691E+06,   1.19059E+06,   1.19059E+06
C:/temp/Job-9.odb,Step-1,Increment      1: Step Time =    1.000,"P-9-1",          1142,       142.548,       107.209,            0.,NA,NA,"",   764.226E+03,   761.079E+03,   761.079E+03
C:/temp/Job-9.odb,Step-1,Increment      1: Step Time =    1.000,"P-9-1",          1143,       87.1226,       139.071,            0.,NA,NA,"",   1.19380E+06,   1.23495E+06,   1.23495E+06
C:/temp/Job-9.odb,Step-1,Increment      1: Step Time =    1.000,"P-9-1",          1144,       96.9544,       56.7270,            0.,NA,NA,"",   1.08952E+06,   1.16700E+06,   1.16700E+06
C:/temp/Job-9.odb,Step-1,Increment      1: Step Time =    1.000,"P-9-1",          1145,       126.391,       25.9427,            0.,NA,NA,"",   1.03340E+06,   1.03359E+06,   1.03359E+06
C:/temp/Job-9.odb,Step-1,Increment      1: Step Time =    1.000,"P-9-1",          1146,       74.3234,       174.791,            0.,NA,NA,"",   1.04890E+06,   1.05233E+06,   1.05233E+06
C:/temp/Job-9.odb,Step-1,Increment      1: Step Time =    1.000,"P-9-1",          1147,       21.4703,       74.9152,            0.,NA,NA,"",   817.435E+03,   897.318E+03,   897.318E+03
C:/temp/Job-9.odb,Step-1,Increment      1: Step Time =    1.000,"P-9-1",          1148,       174.369,       127.614,            0.,NA,NA,"",   987.935E+03,   1.00016E+06,   1.00016E+06
C:/temp/Job-9.odb,Step-1,Increment      1: Step Time =    1.000,"P-9-1",          1149,       18.4614,       16.2403,            0.,NA,NA,"",   1.14318E+06,   1.17537E+06,   1.17537E+06
C:/temp/Job-9.odb,Step-1,Increment      1: Step Time =    1.000,"P-9-1",          1150,       177.706,       19.6462,            0.,NA,NA,"",   1.00740E+06,   1.00692E+06,   1.00692E+06
C:/temp/Job-9.odb,Step-1,Increment      1: Step Time =    1.000,"P-9-1",          1151,       180.131,       177.294,            0.,NA,NA,"",   1.00731E+06,   1.00728E+06,   1.00728E+06
C:/temp/Job-9.odb,Step-1,Increment      1: Step Time =    1.000,"P-9-1",          1152,       55.5971,       101.414,            0.,NA,NA,"",   627.353E+03,   678.924E+03,   678.924E+03
C:/temp/Job-9.odb,Step-1,Increment      1: Step Time =    1.000,"P-9-1",          1153,       9.88705,       14.5731,            0.,NA,NA,"",   1.14373E+06,   1.20797E+06,   1.20797E+06
C:/temp/Job-9.odb,Step-1,Increment      1: Step Time =    1.000,"P-9-1",          1154,       185.103,       10.9327,            0.,NA,NA,"",   1.00103E+06,   1.00122E+06,   1.00122E+06
C:/temp/Job-9.odb,Step-1,Increment      1: Step Time =    1.000,"P-9-1",          1155,       15.1567,       189.864,            0.,NA,NA,"",   1.19413E+06,   1.21643E+06,   1.21643E+06
C:/temp/Job-9.odb,Step-1,Increment      1: Step Time =    1.000,"P-9-1",          1156,       188.878,       184.965,            0.,NA,NA,"",   1.00104E+06,   1.00138E+06,   1.00138E+06
C:/temp/Job-9.odb,Step-1,Increment      1: Step Time =    1.000,"P-9-1",          1157,       55.2026,       26.4665,            0.,NA,NA,"",   1.08227E+06,   1.08102E+06,   1.08102E+06
C:/temp/Job-9.odb,Step-1,Increment      1: Step Time =    1.000,"P-9-1",          1158,       26.5963,       55.7744,            0.,NA,NA,"",   939.100E+03,   998.750E+03,   998.750E+03
C:/temp/Job-9.odb,Step-1,Increment      1: Step Time =    1.000,"P-9-1",          1159,       26.0374,       145.505,            0.,NA,NA,"",   943.241E+03,   1.00326E+06,   1.00326E+06
C:/temp/Job-9.odb,Step-1,Increment      1: Step Time =    1.000,"P-9-1",          1160,       142.185,       29.3063,            0.,NA,NA,"",   1.05854E+06,   1.04764E+06,   1.04764E+06
C:/temp/Job-9.odb,Step-1,Increment      1: Step Time =    1.000,"P-9-1",          1161,       144.712,       174.578,            0.,NA,NA,"",   1.04239E+06,   1.03382E+06,   1.03382E+06
C:/temp/Job-9.odb,Step-1,Increment      1: Step Time =    1.000,"P-9-1",          1162,       170.824,       142.904,            0.,NA,NA,"",   1.03253E+06,   1.02851E+06,   1.02851E+06
C:/temp/Job-9.odb,Step-1,Increment      1: Step Time =    1.000,"P-9-1",          1163,       174.464,       55.0547,            0.,NA,NA,"",   1.02277E+06,   1.02353E+06,   1.02353E+06
C:/temp/Job-9.odb,Step-1,Increment      1: Step Time =    1.000,"P-9-1",          1164,       53.4500,       172.690,            0.,NA,NA,"",   1.08498E+06,   1.08409E+06,   1.08409E+06
C:/temp/Job-9.odb,Step-1,Increment      1: Step Time =    1.000,"P-9-1",          1165,       22.4897,       159.393,            0.,NA,NA,"",   994.480E+03,   1.05359E+06,   1.05359E+06
C:/temp/Job-9.odb,Step-1,Increment      1: Step Time =    1.000,"P-9-1",          1166,       173.687,       40.7583,            0.,NA,NA,"",   1.02761E+06,   1.02468E+06,   1.02468E+06
C:/temp/Job-9.odb,Step-1,Increment      1: Step Time =    1.000,"P-9-1",          1167,       161.435,       171.521,            0.,NA,NA,"",   1.03604E+06,   1.02848E+06,   1.02848E+06
C:/temp/Job-9.odb,Step-1,Increment      1: Step Time =    1.000,"P-9-1",          1168,       131.521,       124.905,            0.,NA,NA,"",   1.24521E+06,   1.14331E+06,   1.14331E+06
C:/temp/Job-9.odb,Step-1,Increment      1: Step Time =    1.000,"P-9-1",          1169,       54.9749,       119.982,            0.,NA,NA,"",   914.294E+03,   919.542E+03,   919.542E+03
C:/temp/Job-9.odb,Step-1,Increment      1: Step Time =    1.000,"P-9-1",          1170,       134.240,       133.425,            0.,NA,NA,"",   1.23280E+06,   1.16246E+06,   1.16246E+06
C:/temp/Job-9.odb,Step-1,Increment      1: Step Time =    1.000,"P-9-1",          1171,       120.548,       133.831,            0.,NA,NA,"",   1.29765E+06,   1.26838E+06,   1.26838E+06
C:/temp/Job-9.odb,Step-1,Increment      1: Step Time =    1.000,"P-9-1",          1172,       88.7636,       132.300,            0.,NA,NA,"",   1.27375E+06,   1.32515E+06,   1.32515E+06
C:/temp/Job-9.odb,Step-1,Increment      1: Step Time =    1.000,"P-9-1",          1173,       66.5592,       70.1242,            0.,NA,NA,"",   1.17748E+06,   1.13179E+06,   1.13179E+06
C:/temp/Job-9.odb,Step-1,Increment      1: Step Time =    1.000,"P-9-1",          1174,       146.744,       91.5190,            0.,NA,NA,"",   812.693E+03,   812.756E+03,   812.756E+03
C:/temp/Job-9.odb,Step-1,Increment      1: Step Time =    1.000,"P-9-1",          1175,       149.998,       183.922,            0.,NA,NA,"",   1.01327E+06,   1.00928E+06,   1.00928E+06
C:/temp/Job-9.odb,Step-1,Increment      1: Step Time =    1.000,"P-9-1",          1176,       182.868,       150.297,            0.,NA,NA,"",   1.00418E+06,   1.01233E+06,   1.01233E+06
C:/temp/Job-9.odb,Step-1,Increment      1: Step Time =    1.000,"P-9-1",          1177,       155.424,       172.837,            0.,NA,NA,"",   1.04002E+06,   1.03130E+06,   1.03130E+06
C:/temp/Job-9.odb,Step-1,Increment      1: Step Time =    1.000,"P-9-1",          1178,       170.763,       154.713,            0.,NA,NA,"",   1.03719E+06,   1.03142E+06,   1.03142E+06
C:/temp/Job-9.odb,Step-1,Increment      1: Step Time =    1.000,"P-9-1",          1179,       52.2875,       180.937,            0.,NA,NA,"",   1.06795E+06,   1.06734E+06,   1.06734E+06
C:/temp/Job-9.odb,Step-1,Increment      1: Step Time =    1.000,"P-9-1",          1180,       184.532,       51.5940,            0.,NA,NA,"",   1.00024E+06,   1.01064E+06,   1.01064E+06
C:/temp/Job-9.odb,Step-1,Increment      1: Step Time =    1.000,"P-9-1",          1181,       175.784,       45.6617,            0.,NA,NA,"",   1.02335E+06,   1.02288E+06,   1.02288E+06
C:/temp/Job-9.odb,Step-1,Increment      1: Step Time =    1.000,"P-9-1",          1182,       43.0684,       173.394,            0.,NA,NA,"",   1.08705E+06,   1.09346E+06,   1.09346E+06
C:/temp/Job-9.odb,Step-1,Increment      1: Step Time =    1.000,"P-9-1",          1183,       21.0107,       154.455,            0.,NA,NA,"",   963.729E+03,   1.02991E+06,   1.02991E+06
C:/temp/Job-9.odb,Step-1,Increment      1: Step Time =    1.000,"P-9-1",          1184,       154.011,       29.2791,            0.,NA,NA,"",   1.04832E+06,   1.03779E+06,   1.03779E+06
C:/temp/Job-9.odb,Step-1,Increment      1: Step Time =    1.000,"P-9-1",          1185,       150.139,       17.1199,            0.,NA,NA,"",   1.01541E+06,   1.01116E+06,   1.01116E+06
C:/temp/Job-9.odb,Step-1,Increment      1: Step Time =    1.000,"P-9-1",          1186,       14.8711,       150.990,            0.,NA,NA,"",   916.386E+03,   998.449E+03,   998.449E+03
C:/temp/Job-9.odb,Step-1,Increment      1: Step Time =    1.000,"P-9-1",          1187,       47.6037,       23.0013,            0.,NA,NA,"",   1.08238E+06,   1.08430E+06,   1.08430E+06
C:/temp/Job-9.odb,Step-1,Increment      1: Step Time =    1.000,"P-9-1",          1188,       25.4053,       44.7747,            0.,NA,NA,"",   988.598E+03,   1.04347E+06,   1.04347E+06
C:/temp/Job-9.odb,Step-1,Increment      1: Step Time =    1.000,"P-9-1",          1189,       49.0535,       15.4782,            0.,NA,NA,"",   1.06430E+06,   1.06417E+06,   1.06417E+06
C:/temp/Job-9.odb,Step-1,Increment      1: Step Time =    1.000,"P-9-1",          1190,       15.0725,       52.5281,            0.,NA,NA,"",   902.085E+03,   984.333E+03,   984.333E+03
C:/temp/Job-9.odb,Step-1,Increment      1: Step Time =    1.000,"P-9-1",          1191,       141.478,       116.018,            0.,NA,NA,"",   959.053E+03,   912.436E+03,   912.436E+03
C:/temp/Job-9.odb,Step-1,Increment      1: Step Time =    1.000,"P-9-1",          1192,       109.407,       32.0567,            0.,NA,NA,"",   1.02468E+06,   1.04602E+06,   1.04602E+06
C:/temp/Job-9.odb,Step-1,Increment      1: Step Time =    1.000,"P-9-1",          1193,       29.4356,       87.9228,            0.,NA,NA,"",   772.041E+03,   847.546E+03,   847.546E+03
C:/temp/Job-9.odb,Step-1,Increment      1: Step Time =    1.000,"P-9-1",          1194,       92.1757,       170.085,            0.,NA,NA,"",   1.02209E+06,   1.04304E+06,   1.04304E+06
C:/temp/Job-9.odb,Step-1,Increment      1: Step Time =    1.000,"P-9-1",          1195,       167.745,       111.933,            0.,NA,NA,"",   922.192E+03,   941.445E+03,   941.445E+03
C:/temp/Job-9.odb,Step-1,Increment      1: Step Time =    1.000,"P-9-1",          1196,       102.633,       167.194,            0.,NA,NA,"",   1.01980E+06,   1.04663E+06,   1.04663E+06
C:/temp/Job-9.odb,Step-1,Increment      1: Step Time =    1.000,"P-9-1",          1197,       163.212,       98.4226,            0.,NA,NA,"",   874.433E+03,   897.441E+03,   897.441E+03
C:/temp/Job-9.odb,Step-1,Increment      1: Step Time =    1.000,"P-9-1",          1198,       35.8498,       97.6599,            0.,NA,NA,"",   737.136E+03,   809.226E+03,   809.226E+03
C:/temp/Job-9.odb,Step-1,Increment      1: Step Time =    1.000,"P-9-1",          1199,       98.5303,       34.8408,            0.,NA,NA,"",   1.02538E+06,   1.05504E+06,   1.05504E+06
C:/temp/Job-9.odb,Step-1,Increment      1: Step Time =    1.000,"P-9-1",          1200,       164.736,       92.5638,            0.,NA,NA,"",   896.931E+03,   917.564E+03,   917.564E+03
C:/temp/Job-9.odb,Step-1,Increment      1: Step Time =    1.000,"P-9-1",          1201,       109.301,       164.994,            0.,NA,NA,"",   1.03052E+06,   1.05518E+06,   1.05518E+06
C:/temp/Job-9.odb,Step-1,Increment      1: Step Time =    1.000,"P-9-1",          1202,       31.8951,       111.177,            0.,NA,NA,"",   769.548E+03,   842.787E+03,   842.787E+03
C:/temp/Job-9.odb,Step-1,Increment      1: Step Time =    1.000,"P-9-1",          1203,       90.3896,       32.1028,            0.,NA,NA,"",   1.03188E+06,   1.05415E+06,   1.05415E+06
C:/temp/Job-9.odb,Step-1,Increment      1: Step Time =    1.000,"P-9-1",          1204,       26.9601,       170.595,            0.,NA,NA,"",   1.06631E+06,   1.10201E+06,   1.10201E+06
C:/temp/Job-9.odb,Step-1,Increment      1: Step Time =    1.000,"P-9-1",          1205,       165.493,       121.703,            0.,NA,NA,"",   976.382E+03,   979.453E+03,   979.453E+03
C:/temp/Job-9.odb,Step-1,Increment      1: Step Time =    1.000,"P-9-1",          1206,       80.7464,       165.251,            0.,NA,NA,"",   1.06672E+06,   1.07951E+06,   1.07951E+06
C:/temp/Job-9.odb,Step-1,Increment      1: Step Time =    1.000,"P-9-1",          1207,       162.996,       79.5424,            0.,NA,NA,"",   969.987E+03,   971.094E+03,   971.094E+03
C:/temp/Job-9.odb,Step-1,Increment      1: Step Time =    1.000,"P-9-1",          1208,       118.818,       165.058,            0.,NA,NA,"",   1.05439E+06,   1.06549E+06,   1.06549E+06
C:/temp/Job-9.odb,Step-1,Increment      1: Step Time =    1.000,"P-9-1",          1209,       120.456,       34.3195,            0.,NA,NA,"",   1.05672E+06,   1.06513E+06,   1.06513E+06
C:/temp/Job-9.odb,Step-1,Increment      1: Step Time =    1.000,"P-9-1",          1210,       32.5025,       78.1178,            0.,NA,NA,"",   831.889E+03,   896.001E+03,   896.001E+03
C:/temp/Job-9.odb,Step-1,Increment      1: Step Time =    1.000,"P-9-1",          1211,       33.4549,       120.366,            0.,NA,NA,"",   822.275E+03,   886.486E+03,   886.486E+03
C:/temp/Job-9.odb,Step-1,Increment      1: Step Time =    1.000,"P-9-1",          1212,       81.4151,       32.2670,            0.,NA,NA,"",   1.05560E+06,   1.06830E+06,   1.06830E+06
C:/temp/Job-9.odb,Step-1,Increment      1: Step Time =    1.000,"P-9-1",          1213,       129.432,       164.822,            0.,NA,NA,"",   1.07755E+06,   1.07196E+06,   1.07196E+06
C:/temp/Job-9.odb,Step-1,Increment      1: Step Time =    1.000,"P-9-1",          1214,       70.0666,       33.8648,            0.,NA,NA,"",   1.08867E+06,   1.08965E+06,   1.08965E+06
C:/temp/Job-9.odb,Step-1,Increment      1: Step Time =    1.000,"P-9-1",          1215,       163.183,       68.8047,            0.,NA,NA,"",   1.03008E+06,   1.01926E+06,   1.01926E+06
C:/temp/Job-9.odb,Step-1,Increment      1: Step Time =    1.000,"P-9-1",          1216,       31.8429,       131.601,            0.,NA,NA,"",   891.577E+03,   949.176E+03,   949.176E+03
C:/temp/Job-9.odb,Step-1,Increment      1: Step Time =    1.000,"P-9-1",          1217,       144.821,       125.780,            0.,NA,NA,"",   1.09289E+06,   1.03961E+06,   1.03961E+06
C:/temp/Job-9.odb,Step-1,Increment      1: Step Time =    1.000,"P-9-1",          1218,       35.6665,       167.494,            0.,NA,NA,"",   1.07298E+06,   1.09366E+06,   1.09366E+06
C:/temp/Job-9.odb,Step-1,Increment      1: Step Time =    1.000,"P-9-1",          1219,       170.151,       34.9831,            0.,NA,NA,"",   1.03093E+06,   1.02588E+06,   1.02588E+06
C:/temp/Job-9.odb,Step-1,Increment      1: Step Time =    1.000,"P-9-1",          1220,       166.496,       164.937,            0.,NA,NA,"",   1.03857E+06,   1.03112E+06,   1.03112E+06
C:/temp/Job-9.odb,Step-1,Increment      1: Step Time =    1.000,"P-9-1",          1221,       163.181,       166.055,            0.,NA,NA,"",   1.04435E+06,   1.03504E+06,   1.03504E+06
C:/temp/Job-9.odb,Step-1,Increment      1: Step Time =    1.000,"P-9-1",          1222,       33.0507,       35.6521,            0.,NA,NA,"",   1.05767E+06,   1.08636E+06,   1.08636E+06
C:/temp/Job-9.odb,Step-1,Increment      1: Step Time =    1.000,"P-9-1",          1223,       37.1260,       32.1327,            0.,NA,NA,"",   1.07560E+06,   1.09424E+06,   1.09424E+06
C:/temp/Job-9.odb,Step-1,Increment      1: Step Time =    1.000,"P-9-1",          1224,       166.861,       32.3991,            0.,NA,NA,"",   1.03376E+06,   1.02743E+06,   1.02743E+06
C:/temp/Job-9.odb,Step-1,Increment      1: Step Time =    1.000,"P-9-1",          1225,       31.6007,       166.344,            0.,NA,NA,"",   1.06013E+06,   1.09001E+06,   1.09001E+06
C:/temp/Job-9.odb,Step-1,Increment      1: Step Time =    1.000,"P-9-1",          1226,       54.6280,       109.420,            0.,NA,NA,"",   716.673E+03,   755.388E+03,   755.388E+03
C:/temp/Job-9.odb,Step-1,Increment      1: Step Time =    1.000,"P-9-1",          1227,       56.1669,       125.165,            0.,NA,NA,"",   1.00106E+06,   991.702E+03,   991.702E+03
C:/temp/Job-9.odb,Step-1,Increment      1: Step Time =    1.000,"P-9-1",          1228,       123.701,       59.5663,            0.,NA,NA,"",   1.23019E+06,   1.20547E+06,   1.20547E+06
C:/temp/Job-9.odb,Step-1,Increment      1: Step Time =    1.000,"P-9-1",          1229,       139.349,       165.344,            0.,NA,NA,"",   1.07922E+06,   1.06565E+06,   1.06565E+06
C:/temp/Job-9.odb,Step-1,Increment      1: Step Time =    1.000,"P-9-1",          1230,       165.578,       142.750,            0.,NA,NA,"",   1.04954E+06,   1.03815E+06,   1.03815E+06
C:/temp/Job-9.odb,Step-1,Increment      1: Step Time =    1.000,"P-9-1",          1231,       59.7471,       36.7623,            0.,NA,NA,"",   1.10541E+06,   1.10166E+06,   1.10166E+06
C:/temp/Job-9.odb,Step-1,Increment      1: Step Time =    1.000,"P-9-1",          1232,       34.3263,       59.0457,            0.,NA,NA,"",   963.467E+03,   1.00695E+06,   1.00695E+06
C:/temp/Job-9.odb,Step-1,Increment      1: Step Time =    1.000,"P-9-1",          1233,       163.927,       58.9489,            0.,NA,NA,"",   1.05420E+06,   1.04042E+06,   1.04042E+06
C:/temp/Job-9.odb,Step-1,Increment      1: Step Time =    1.000,"P-9-1",          1234,       56.1317,       168.005,            0.,NA,NA,"",   1.09418E+06,   1.09240E+06,   1.09240E+06
C:/temp/Job-9.odb,Step-1,Increment      1: Step Time =    1.000,"P-9-1",          1235,       36.0067,       141.097,            0.,NA,NA,"",   972.926E+03,   1.01229E+06,   1.01229E+06
C:/temp/Job-9.odb,Step-1,Increment      1: Step Time =    1.000,"P-9-1",          1236,       141.953,       34.5094,            0.,NA,NA,"",   1.07674E+06,   1.06225E+06,   1.06225E+06
C:/temp/Job-9.odb,Step-1,Increment      1: Step Time =    1.000,"P-9-1",          1237,       148.088,       28.6494,            0.,NA,NA,"",   1.05214E+06,   1.04120E+06,   1.04120E+06
C:/temp/Job-9.odb,Step-1,Increment      1: Step Time =    1.000,"P-9-1",          1238,       48.0032,       175.545,            0.,NA,NA,"",   1.08312E+06,   1.08475E+06,   1.08475E+06
C:/temp/Job-9.odb,Step-1,Increment      1: Step Time =    1.000,"P-9-1",          1239,       26.0095,       49.8209,            0.,NA,NA,"",   966.735E+03,   1.02387E+06,   1.02387E+06
C:/temp/Job-9.odb,Step-1,Increment      1: Step Time =    1.000,"P-9-1",          1240,       171.354,       148.796,            0.,NA,NA,"",   1.03547E+06,   1.03080E+06,   1.03080E+06
C:/temp/Job-9.odb,Step-1,Increment      1: Step Time =    1.000,"P-9-1",          1241,       33.1207,       162.013,            0.,NA,NA,"",   1.04953E+06,   1.08052E+06,   1.08052E+06
C:/temp/Job-9.odb,Step-1,Increment      1: Step Time =    1.000,"P-9-1",          1242,       167.845,       36.0365,            0.,NA,NA,"",   1.03569E+06,   1.02927E+06,   1.02927E+06
C:/temp/Job-9.odb,Step-1,Increment      1: Step Time =    1.000,"P-9-1",          1243,       36.2150,       35.2948,            0.,NA,NA,"",   1.06729E+06,   1.08964E+06,   1.08964E+06
C:/temp/Job-9.odb,Step-1,Increment      1: Step Time =    1.000,"P-9-1",          1244,       64.4156,       64.8345,            0.,NA,NA,"",   1.16220E+06,   1.13176E+06,   1.13176E+06
C:/temp/Job-9.odb,Step-1,Increment      1: Step Time =    1.000,"P-9-1",          1245,       62.4492,       69.5342,            0.,NA,NA,"",   1.13221E+06,   1.09818E+06,   1.09818E+06
C:/temp/Job-9.odb,Step-1,Increment      1: Step Time =    1.000,"P-9-1",          1246,       78.4064,       180.128,            0.,NA,NA,"",   1.01948E+06,   1.02388E+06,   1.02388E+06
C:/temp/Job-9.odb,Step-1,Increment      1: Step Time =    1.000,"P-9-1",          1247,       128.474,       57.0480,            0.,NA,NA,"",   1.20780E+06,   1.17400E+06,   1.17400E+06
C:/temp/Job-9.odb,Step-1,Increment      1: Step Time =    1.000,"P-9-1",          1248,       116.743,       58.4021,            0.,NA,NA,"",   1.18691E+06,   1.20537E+06,   1.20537E+06
C:/temp/Job-9.odb,Step-1,Increment      1: Step Time =    1.000,"P-9-1",          1249,       138.957,       111.151,            0.,NA,NA,"",   834.047E+03,   800.022E+03,   800.022E+03
C:/temp/Job-9.odb,Step-1,Increment      1: Step Time =    1.000,"P-9-1",          1250,       129.334,       141.601,            0.,NA,NA,"",   1.21328E+06,   1.17554E+06,   1.17554E+06
C:/temp/Job-9.odb,Step-1,Increment      1: Step Time =    1.000,"P-9-1",          1251,       141.759,       100.585,            0.,NA,NA,"",   665.678E+03,   680.454E+03,   680.454E+03
C:/temp/Job-9.odb,Step-1,Increment      1: Step Time =    1.000,"P-9-1",          1252,       82.6872,       140.893,            0.,NA,NA,"",   1.20151E+06,   1.21706E+06,   1.21706E+06
C:/temp/Job-9.odb,Step-1,Increment      1: Step Time =    1.000,"P-9-1",          1253,       92.4501,       58.3626,            0.,NA,NA,"",   1.12333E+06,   1.19266E+06,   1.19266E+06
C:/temp/Job-9.odb,Step-1,Increment      1: Step Time =    1.000,"P-9-1",          1254,       101.699,       55.2368,            0.,NA,NA,"",   1.08000E+06,   1.15263E+06,   1.15263E+06
C:/temp/Job-9.odb,Step-1,Increment      1: Step Time =    1.000,"P-9-1",          1255,       131.516,       29.5807,            0.,NA,NA,"",   1.05523E+06,   1.05003E+06,   1.05003E+06
C:/temp/Job-9.odb,Step-1,Increment      1: Step Time =    1.000,"P-9-1",          1256,       68.7909,       170.721,            0.,NA,NA,"",   1.07544E+06,   1.07540E+06,   1.07540E+06
C:/temp/Job-9.odb,Step-1,Increment      1: Step Time =    1.000,"P-9-1",          1257,       30.0730,       67.8344,            0.,NA,NA,"",   890.146E+03,   950.323E+03,   950.323E+03
C:/temp/Job-9.odb,Step-1,Increment      1: Step Time =    1.000,"P-9-1",          1258,       170.842,       132.733,            0.,NA,NA,"",   1.01051E+06,   1.01258E+06,   1.01258E+06
C:/temp/Job-9.odb,Step-1,Increment      1: Step Time =    1.000,"P-9-1",          1259,       58.2608,       98.0437,            0.,NA,NA,"",   598.732E+03,   646.168E+03,   646.168E+03
C:/temp/Job-9.odb,Step-1,Increment      1: Step Time =    1.000,"P-9-1",          1260,       137.846,       132.074,            0.,NA,NA,"",   1.19743E+06,   1.12831E+06,   1.12831E+06
C:/temp/Job-9.odb,Step-1,Increment      1: Step Time =    1.000,"P-9-1",          1261,       149.169,       173.006,            0.,NA,NA,"",   1.04693E+06,   1.03695E+06,   1.03695E+06
C:/temp/Job-9.odb,Step-1,Increment      1: Step Time =    1.000,"P-9-1",          1262,       174.547,       162.150,            0.,NA,NA,"",   1.02417E+06,   1.02180E+06,   1.02180E+06
C:/temp/Job-9.odb,Step-1,Increment      1: Step Time =    1.000,"P-9-1",          1263,       174.947,       50.2709,            0.,NA,NA,"",   1.02433E+06,   1.02415E+06,   1.02415E+06
C:/temp/Job-9.odb,Step-1,Increment      1: Step Time =    1.000,"P-9-1",          1264,       161.633,       25.3483,            0.,NA,NA,"",   1.02984E+06,   1.02362E+06,   1.02362E+06
C:/temp/Job-9.odb,Step-1,Increment      1: Step Time =    1.000,"P-9-1",          1265,       23.0852,       150.736,            0.,NA,NA,"",   955.448E+03,   1.01865E+06,   1.01865E+06
C:/temp/Job-9.odb,Step-1,Increment      1: Step Time =    1.000,"P-9-1",          1266,       24.8935,       40.1283,            0.,NA,NA,"",   1.00829E+06,   1.06062E+06,   1.06062E+06
C:/temp/Job-9.odb,Step-1,Increment      1: Step Time =    1.000,"P-9-1",          1267,       50.5267,       23.1289,            0.,NA,NA,"",   1.07969E+06,   1.08031E+06,   1.08031E+06
C:/temp/Job-9.odb,Step-1,Increment      1: Step Time =    1.000,"P-9-1",          1268,       94.6216,       133.082,            0.,NA,NA,"",   1.21660E+06,   1.32224E+06,   1.32224E+06
C:/temp/Job-9.odb,Step-1,Increment      1: Step Time =    1.000,"P-9-1",          1269,       113.542,       133.340,            0.,NA,NA,"",   1.26827E+06,   1.30087E+06,   1.30087E+06
C:/temp/Job-9.odb,Step-1,Increment      1: Step Time =    1.000,"P-9-1",          1270,       161.885,       119.139,            0.,NA,NA,"",   963.727E+03,   964.405E+03,   964.405E+03
C:/temp/Job-9.odb,Step-1,Increment      1: Step Time =    1.000,"P-9-1",          1271,       84.7507,       163.368,            0.,NA,NA,"",   1.05991E+06,   1.07994E+06,   1.07994E+06
C:/temp/Job-9.odb,Step-1,Increment      1: Step Time =    1.000,"P-9-1",          1272,       34.1882,       82.2514,            0.,NA,NA,"",   807.692E+03,   872.535E+03,   872.535E+03
C:/temp/Job-9.odb,Step-1,Increment      1: Step Time =    1.000,"P-9-1",          1273,       115.780,       38.8422,            0.,NA,NA,"",   1.06085E+06,   1.07948E+06,   1.07948E+06
C:/temp/Job-9.odb,Step-1,Increment      1: Step Time =    1.000,"P-9-1",          1274,       136.014,       69.4112,            0.,NA,NA,"",   1.20529E+06,   1.13071E+06,   1.13071E+06
C:/temp/Job-9.odb,Step-1,Increment      1: Step Time =    1.000,"P-9-1",          1275,       141.255,       131.290,            0.,NA,NA,"",   1.16198E+06,   1.09937E+06,   1.09937E+06
C:/temp/Job-9.odb,Step-1,Increment      1: Step Time =    1.000,"P-9-1",          1276,       143.690,       120.697,            0.,NA,NA,"",   1.03989E+06,   988.046E+03,   988.046E+03
C:/temp/Job-9.odb,Step-1,Increment      1: Step Time =    1.000,"P-9-1",          1277,       67.7337,       138.035,            0.,NA,NA,"",   1.19051E+06,   1.16218E+06,   1.16218E+06
C:/temp/Job-9.odb,Step-1,Increment      1: Step Time =    1.000,"P-9-1",          1278,       60.8023,       130.695,            0.,NA,NA,"",   1.11674E+06,   1.08687E+06,   1.08687E+06
C:/temp/Job-9.odb,Step-1,Increment      1: Step Time =    1.000,"P-9-1",          1279,       164.067,       139.598,            0.,NA,NA,"",   1.05201E+06,   1.03814E+06,   1.03814E+06
C:/temp/Job-9.odb,Step-1,Increment      1: Step Time =    1.000,"P-9-1",          1280,       36.6271,       63.1973,            0.,NA,NA,"",   950.684E+03,   992.147E+03,   992.147E+03
C:/temp/Job-9.odb,Step-1,Increment      1: Step Time =    1.000,"P-9-1",          1281,       64.3226,       37.8132,            0.,NA,NA,"",   1.10912E+06,   1.10540E+06,   1.10540E+06
C:/temp/Job-9.odb,Step-1,Increment      1: Step Time =    1.000,"P-9-1",          1282,       163.589,       63.9004,            0.,NA,NA,"",   1.04509E+06,   1.03221E+06,   1.03221E+06
C:/temp/Job-9.odb,Step-1,Increment      1: Step Time =    1.000,"P-9-1",          1283,       60.3019,       163.022,            0.,NA,NA,"",   1.10563E+06,   1.10193E+06,   1.10193E+06
C:/temp/Job-9.odb,Step-1,Increment      1: Step Time =    1.000,"P-9-1",          1284,       138.691,       36.5917,            0.,NA,NA,"",   1.08842E+06,   1.07310E+06,   1.07310E+06
C:/temp/Job-9.odb,Step-1,Increment      1: Step Time =    1.000,"P-9-1",          1285,       36.7830,       136.367,            0.,NA,NA,"",   948.403E+03,   989.935E+03,   989.935E+03
C:/temp/Job-9.odb,Step-1,Increment      1: Step Time =    1.000,"P-9-1",          1286,       183.718,       185.865,            0.,NA,NA,"",   1.00212E+06,   1.00232E+06,   1.00232E+06
C:/temp/Job-9.odb,Step-1,Increment      1: Step Time =    1.000,"P-9-1",          1287,       186.061,       15.9428,            0.,NA,NA,"",   1.00181E+06,   1.00224E+06,   1.00224E+06
C:/temp/Job-9.odb,Step-1,Increment      1: Step Time =    1.000,"P-9-1",          1288,       14.1158,       13.7616,            0.,NA,NA,"",   1.17202E+06,   1.20961E+06,   1.20961E+06
C:/temp/Job-9.odb,Step-1,Increment      1: Step Time =    1.000,"P-9-1",          1289,       161.309,       93.8197,            0.,NA,NA,"",   878.759E+03,   897.652E+03,   897.652E+03
C:/temp/Job-9.odb,Step-1,Increment      1: Step Time =    1.000,"P-9-1",          1290,       105.881,       166.281,            0.,NA,NA,"",   1.02347E+06,   1.04952E+06,   1.04952E+06
C:/temp/Job-9.odb,Step-1,Increment      1: Step Time =    1.000,"P-9-1",          1291,       38.3011,       103.888,            0.,NA,NA,"",   733.733E+03,   802.796E+03,   802.796E+03
C:/temp/Job-9.odb,Step-1,Increment      1: Step Time =    1.000,"P-9-1",          1292,       93.8135,       35.9306,            0.,NA,NA,"",   1.03369E+06,   1.06328E+06,   1.06328E+06
C:/temp/Job-9.odb,Step-1,Increment      1: Step Time =    1.000,"P-9-1",          1293,       164.251,       84.5633,            0.,NA,NA,"",   937.218E+03,   947.769E+03,   947.769E+03
C:/temp/Job-9.odb,Step-1,Increment      1: Step Time =    1.000,"P-9-1",          1294,       115.244,       161.589,            0.,NA,NA,"",   1.05921E+06,   1.07834E+06,   1.07834E+06
C:/temp/Job-9.odb,Step-1,Increment      1: Step Time =    1.000,"P-9-1",          1295,       35.6208,       116.566,            0.,NA,NA,"",   802.674E+03,   866.417E+03,   866.417E+03
C:/temp/Job-9.odb,Step-1,Increment      1: Step Time =    1.000,"P-9-1",          1296,       85.5863,       34.0016,            0.,NA,NA,"",   1.04985E+06,   1.06880E+06,   1.06880E+06
C:/temp/Job-9.odb,Step-1,Increment      1: Step Time =    1.000,"P-9-1",          1297,       51.2585,       100.363,            0.,NA,NA,"",   668.794E+03,   725.262E+03,   725.262E+03
C:/temp/Job-9.odb,Step-1,Increment      1: Step Time =    1.000,"P-9-1",          1298,       34.2815,       126.310,            0.,NA,NA,"",   869.123E+03,   926.008E+03,   926.008E+03
C:/temp/Job-9.odb,Step-1,Increment      1: Step Time =    1.000,"P-9-1",          1299,       162.297,       74.1084,            0.,NA,NA,"",   1.00468E+06,   997.429E+03,   997.429E+03
C:/temp/Job-9.odb,Step-1,Increment      1: Step Time =    1.000,"P-9-1",          1300,       125.460,       162.470,            0.,NA,NA,"",   1.08187E+06,   1.08116E+06,   1.08116E+06
C:/temp/Job-9.odb,Step-1,Increment      1: Step Time =    1.000,"P-9-1",          1301,       74.9939,       35.3575,            0.,NA,NA,"",   1.08394E+06,   1.09000E+06,   1.09000E+06
C:/temp/Job-9.odb,Step-1,Increment      1: Step Time =    1.000,"P-9-1",          1302,       94.1276,       163.885,            0.,NA,NA,"",   1.03238E+06,   1.06282E+06,   1.06282E+06
C:/temp/Job-9.odb,Step-1,Increment      1: Step Time =    1.000,"P-9-1",          1303,       161.960,       103.517,            0.,NA,NA,"",   868.903E+03,   890.656E+03,   890.656E+03
C:/temp/Job-9.odb,Step-1,Increment      1: Step Time =    1.000,"P-9-1",          1304,       41.1614,       95.1270,            0.,NA,NA,"",   732.033E+03,   797.835E+03,   797.835E+03
C:/temp/Job-9.odb,Step-1,Increment      1: Step Time =    1.000,"P-9-1",          1305,       103.817,       38.4123,            0.,NA,NA,"",   1.03309E+06,   1.06778E+06,   1.06778E+06
C:/temp/Job-9.odb,Step-1,Increment      1: Step Time =    1.000,"P-9-1",          1306,       164.325,       53.8834,            0.,NA,NA,"",   1.05712E+06,   1.04383E+06,   1.04383E+06
C:/temp/Job-9.odb,Step-1,Increment      1: Step Time =    1.000,"P-9-1",          1307,       51.7824,       163.237,            0.,NA,NA,"",   1.09816E+06,   1.09867E+06,   1.09867E+06
C:/temp/Job-9.odb,Step-1,Increment      1: Step Time =    1.000,"P-9-1",          1308,       144.155,       37.3520,            0.,NA,NA,"",   1.08574E+06,   1.06830E+06,   1.06830E+06
C:/temp/Job-9.odb,Step-1,Increment      1: Step Time =    1.000,"P-9-1",          1309,       40.1056,       146.648,            0.,NA,NA,"",   1.02090E+06,   1.04714E+06,   1.04714E+06
C:/temp/Job-9.odb,Step-1,Increment      1: Step Time =    1.000,"P-9-1",          1310,       36.9546,       53.2102,            0.,NA,NA,"",   1.00794E+06,   1.04083E+06,   1.04083E+06
C:/temp/Job-9.odb,Step-1,Increment      1: Step Time =    1.000,"P-9-1",          1311,       55.1756,       40.8417,            0.,NA,NA,"",   1.10661E+06,   1.10399E+06,   1.10399E+06
C:/temp/Job-9.odb,Step-1,Increment      1: Step Time =    1.000,"P-9-1",          1312,       144.553,       161.046,            0.,NA,NA,"",   1.09115E+06,   1.07241E+06,   1.07241E+06
C:/temp/Job-9.odb,Step-1,Increment      1: Step Time =    1.000,"P-9-1",          1313,       162.173,       144.964,            0.,NA,NA,"",   1.06453E+06,   1.04798E+06,   1.04798E+06
C:/temp/Job-9.odb,Step-1,Increment      1: Step Time =    1.000,"P-9-1",          1314,       132.530,       139.154,            0.,NA,NA,"",   1.22127E+06,   1.17015E+06,   1.17015E+06
C:/temp/Job-9.odb,Step-1,Increment      1: Step Time =    1.000,"P-9-1",          1315,       36.6787,       75.0649,            0.,NA,NA,"",   868.341E+03,   921.127E+03,   921.127E+03
C:/temp/Job-9.odb,Step-1,Increment      1: Step Time =    1.000,"P-9-1",          1316,       126.309,       37.8503,            0.,NA,NA,"",   1.08626E+06,   1.08393E+06,   1.08393E+06
C:/temp/Job-9.odb,Step-1,Increment      1: Step Time =    1.000,"P-9-1",          1317,       71.5949,       164.760,            0.,NA,NA,"",   1.09211E+06,   1.09360E+06,   1.09360E+06
C:/temp/Job-9.odb,Step-1,Increment      1: Step Time =    1.000,"P-9-1",          1318,       161.831,       127.190,            0.,NA,NA,"",   1.01315E+06,   1.00330E+06,   1.00330E+06
C:/temp/Job-9.odb,Step-1,Increment      1: Step Time =    1.000,"P-9-1",          1319,       150.457,       32.1352,            0.,NA,NA,"",   1.06077E+06,   1.04761E+06,   1.04761E+06
C:/temp/Job-9.odb,Step-1,Increment      1: Step Time =    1.000,"P-9-1",          1320,       167.986,       151.425,            0.,NA,NA,"",   1.04713E+06,   1.03803E+06,   1.03803E+06
C:/temp/Job-9.odb,Step-1,Increment      1: Step Time =    1.000,"P-9-1",          1321,       30.9409,       49.3522,            0.,NA,NA,"",   993.147E+03,   1.03807E+06,   1.03807E+06
C:/temp/Job-9.odb,Step-1,Increment      1: Step Time =    1.000,"P-9-1",          1322,       45.9029,       167.674,            0.,NA,NA,"",   1.08870E+06,   1.09452E+06,   1.09452E+06
C:/temp/Job-9.odb,Step-1,Increment      1: Step Time =    1.000,"P-9-1",          1323,       190.712,       15.3195,            0.,NA,NA,"",   1.00062E+06,   1.00100E+06,   1.00100E+06
C:/temp/Job-9.odb,Step-1,Increment      1: Step Time =    1.000,"P-9-1",          1324,       184.470,       190.600,            0.,NA,NA,"",   1.00067E+06,   1.00080E+06,   1.00080E+06
C:/temp/Job-9.odb,Step-1,Increment      1: Step Time =    1.000,"P-9-1",          1325,       14.4877,       9.59209,            0.,NA,NA,"",   1.20377E+06,   1.22530E+06,   1.22530E+06
C:/temp/Job-9.odb,Step-1,Increment      1: Step Time =    1.000,"P-9-1",          1326,       10.2288,       184.933,            0.,NA,NA,"",   1.13839E+06,   1.20241E+06,   1.20241E+06
C:/temp/Job-9.odb,Step-1,Increment      1: Step Time =    1.000,"P-9-1",          1327,       77.4503,       140.183,            0.,NA,NA,"",   1.21780E+06,   1.20964E+06,   1.20964E+06
C:/temp/Job-9.odb,Step-1,Increment      1: Step Time =    1.000,"P-9-1",          1328,       57.5189,       94.4542,            0.,NA,NA,"",   644.833E+03,   686.833E+03,   686.833E+03
C:/temp/Job-9.odb,Step-1,Increment      1: Step Time =    1.000,"P-9-1",          1329,       31.2957,       157.282,            0.,NA,NA,"",   1.02461E+06,   1.06350E+06,   1.06350E+06
C:/temp/Job-9.odb,Step-1,Increment      1: Step Time =    1.000,"P-9-1",          1330,       166.765,       40.1023,            0.,NA,NA,"",   1.04322E+06,   1.03497E+06,   1.03497E+06
C:/temp/Job-9.odb,Step-1,Increment      1: Step Time =    1.000,"P-9-1",          1331,       40.9108,       33.8037,            0.,NA,NA,"",   1.07963E+06,   1.09310E+06,   1.09310E+06
C:/temp/Job-9.odb,Step-1,Increment      1: Step Time =    1.000,"P-9-1",          1332,       58.6208,       71.9686,            0.,NA,NA,"",   1.06594E+06,   1.04464E+06,   1.04464E+06
C:/temp/Job-9.odb,Step-1,Increment      1: Step Time =    1.000,"P-9-1",          1333,       133.087,       55.2680,            0.,NA,NA,"",   1.18703E+06,   1.14972E+06,   1.14972E+06
C:/temp/Job-9.odb,Step-1,Increment      1: Step Time =    1.000,"P-9-1",          1334,       110.220,       57.3360,            0.,NA,NA,"",   1.12899E+06,   1.18278E+06,   1.18278E+06
C:/temp/Job-9.odb,Step-1,Increment      1: Step Time =    1.000,"P-9-1",          1335,       123.655,       144.423,            0.,NA,NA,"",   1.19555E+06,   1.18091E+06,   1.18091E+06
C:/temp/Job-9.odb,Step-1,Increment      1: Step Time =    1.000,"P-9-1",          1336,       137.907,       98.3238,            0.,NA,NA,"",   599.115E+03,   608.732E+03,   608.732E+03
C:/temp/Job-9.odb,Step-1,Increment      1: Step Time =    1.000,"P-9-1",          1337,       88.9574,       143.658,            0.,NA,NA,"",   1.13598E+06,   1.18660E+06,   1.18660E+06
C:/temp/Job-9.odb,Step-1,Increment      1: Step Time =    1.000,"P-9-1",          1338,       102.901,       137.520,            0.,NA,NA,"",   1.12570E+06,   1.22035E+06,   1.22035E+06
C:/temp/Job-9.odb,Step-1,Increment      1: Step Time =    1.000,"P-9-1",          1339,       159.673,       122.630,            0.,NA,NA,"",   990.950E+03,   982.620E+03,   982.620E+03
C:/temp/Job-9.odb,Step-1,Increment      1: Step Time =    1.000,"P-9-1",          1340,       79.2002,       160.886,            0.,NA,NA,"",   1.08918E+06,   1.10051E+06,   1.10051E+06
C:/temp/Job-9.odb,Step-1,Increment      1: Step Time =    1.000,"P-9-1",          1341,       90.2417,       165.925,            0.,NA,NA,"",   1.03706E+06,   1.06116E+06,   1.06116E+06
C:/temp/Job-9.odb,Step-1,Increment      1: Step Time =    1.000,"P-9-1",          1342,       33.6322,       86.9369,            0.,NA,NA,"",   779.547E+03,   848.861E+03,   848.861E+03
C:/temp/Job-9.odb,Step-1,Increment      1: Step Time =    1.000,"P-9-1",          1343,       111.638,       37.6445,            0.,NA,NA,"",   1.04412E+06,   1.06890E+06,   1.06890E+06
C:/temp/Job-9.odb,Step-1,Increment      1: Step Time =    1.000,"P-9-1",          1344,       38.5490,       79.6029,            0.,NA,NA,"",   838.251E+03,   892.418E+03,   892.418E+03
C:/temp/Job-9.odb,Step-1,Increment      1: Step Time =    1.000,"P-9-1",          1345,       120.678,       39.1501,            0.,NA,NA,"",   1.07778E+06,   1.08595E+06,   1.08595E+06
C:/temp/Job-9.odb,Step-1,Increment      1: Step Time =    1.000,"P-9-1",          1346,       143.635,       65.1179,            0.,NA,NA,"",   1.15198E+06,   1.09977E+06,   1.09977E+06
C:/temp/Job-9.odb,Step-1,Increment      1: Step Time =    1.000,"P-9-1",          1347,       71.6292,       140.472,            0.,NA,NA,"",   1.20237E+06,   1.18082E+06,   1.18082E+06
C:/temp/Job-9.odb,Step-1,Increment      1: Step Time =    1.000,"P-9-1",          1348,       65.0794,       132.266,            0.,NA,NA,"",   1.16793E+06,   1.12942E+06,   1.12942E+06
C:/temp/Job-9.odb,Step-1,Increment      1: Step Time =    1.000,"P-9-1",          1349,       163.701,       133.795,            0.,NA,NA,"",   1.03718E+06,   1.02547E+06,   1.02547E+06
C:/temp/Job-9.odb,Step-1,Increment      1: Step Time =    1.000,"P-9-1",          1350,       160.443,       141.382,            0.,NA,NA,"",   1.07036E+06,   1.05036E+06,   1.05036E+06
C:/temp/Job-9.odb,Step-1,Increment      1: Step Time =    1.000,"P-9-1",          1351,       38.5773,       57.7488,            0.,NA,NA,"",   996.920E+03,   1.02853E+06,   1.02853E+06
C:/temp/Job-9.odb,Step-1,Increment      1: Step Time =    1.000,"P-9-1",          1352,       35.9177,       68.7132,            0.,NA,NA,"",    914.31E+03,   961.695E+03,   961.695E+03
C:/temp/Job-9.odb,Step-1,Increment      1: Step Time =    1.000,"P-9-1",          1353,       63.4919,       163.550,            0.,NA,NA,"",   1.10474E+06,   1.10134E+06,   1.10134E+06
C:/temp/Job-9.odb,Step-1,Increment      1: Step Time =    1.000,"P-9-1",          1354,       56.2185,       162.897,            0.,NA,NA,"",   1.10332E+06,   1.10097E+06,   1.10097E+06
C:/temp/Job-9.odb,Step-1,Increment      1: Step Time =    1.000,"P-9-1",          1355,       141.182,       39.5048,            0.,NA,NA,"",   1.09921E+06,   1.07986E+06,   1.07986E+06
C:/temp/Job-9.odb,Step-1,Increment      1: Step Time =    1.000,"P-9-1",          1356,       132.514,       36.4900,            0.,NA,NA,"",   1.08750E+06,   1.07711E+06,   1.07711E+06
C:/temp/Job-9.odb,Step-1,Increment      1: Step Time =    1.000,"P-9-1",          1357,       160.353,       89.5285,            0.,NA,NA,"",   897.390E+03,   910.058E+03,   910.058E+03
C:/temp/Job-9.odb,Step-1,Increment      1: Step Time =    1.000,"P-9-1",          1358,       111.882,       160.301,            0.,NA,NA,"",   1.05494E+06,   1.08096E+06,   1.08096E+06
C:/temp/Job-9.odb,Step-1,Increment      1: Step Time =    1.000,"P-9-1",          1359,       89.4751,       35.5421,            0.,NA,NA,"",   1.04240E+06,   1.06764E+06,   1.06764E+06
C:/temp/Job-9.odb,Step-1,Increment      1: Step Time =    1.000,"P-9-1",          1360,       36.5662,       112.425,            0.,NA,NA,"",   777.563E+03,   843.356E+03,   843.356E+03
C:/temp/Job-9.odb,Step-1,Increment      1: Step Time =    1.000,"P-9-1",          1361,       157.658,       79.3784,            0.,NA,NA,"",   979.041E+03,   969.570E+03,   969.570E+03
C:/temp/Job-9.odb,Step-1,Increment      1: Step Time =    1.000,"P-9-1",          1362,       121.201,       160.034,            0.,NA,NA,"",   1.08398E+06,   1.09077E+06,   1.09077E+06
C:/temp/Job-9.odb,Step-1,Increment      1: Step Time =    1.000,"P-9-1",          1363,       79.7031,       37.1821,            0.,NA,NA,"",   1.07748E+06,   1.09035E+06,   1.09035E+06
C:/temp/Job-9.odb,Step-1,Increment      1: Step Time =    1.000,"P-9-1",          1364,       37.4989,       123.053,            0.,NA,NA,"",   857.467E+03,   910.770E+03,   910.770E+03
C:/temp/Job-9.odb,Step-1,Increment      1: Step Time =    1.000,"P-9-1",          1365,       47.8036,       102.307,            0.,NA,NA,"",   694.028E+03,   753.837E+03,   753.837E+03
C:/temp/Job-9.odb,Step-1,Increment      1: Step Time =    1.000,"P-9-1",          1366,       37.2597,       130.770,            0.,NA,NA,"",   912.939E+03,   958.678E+03,   958.678E+03
C:/temp/Job-9.odb,Step-1,Increment      1: Step Time =    1.000,"P-9-1",          1367,       158.124,       67.9287,            0.,NA,NA,"",   1.05455E+06,   1.03241E+06,   1.03241E+06
C:/temp/Job-9.odb,Step-1,Increment      1: Step Time =    1.000,"P-9-1",          1368,       131.365,       160.310,            0.,NA,NA,"",   1.10148E+06,   1.09041E+06,   1.09041E+06
C:/temp/Job-9.odb,Step-1,Increment      1: Step Time =    1.000,"P-9-1",          1369,       69.0853,       39.3515,            0.,NA,NA,"",   1.11152E+06,   1.11014E+06,   1.11014E+06
C:/temp/Job-9.odb,Step-1,Increment      1: Step Time =    1.000,"P-9-1",          1370,       157.579,       98.7837,            0.,NA,NA,"",   838.308E+03,   858.801E+03,   858.801E+03
C:/temp/Job-9.odb,Step-1,Increment      1: Step Time =    1.000,"P-9-1",          1371,       98.4627,       162.914,            0.,NA,NA,"",   1.02816E+06,   1.06314E+06,   1.06314E+06
C:/temp/Job-9.odb,Step-1,Increment      1: Step Time =    1.000,"P-9-1",          1372,       98.9156,       40.0043,            0.,NA,NA,"",   1.03573E+06,   1.07413E+06,   1.07413E+06
C:/temp/Job-9.odb,Step-1,Increment      1: Step Time =    1.000,"P-9-1",          1373,       40.9980,       99.7525,            0.,NA,NA,"",   721.098E+03,   788.129E+03,   788.129E+03
C:/temp/Job-9.odb,Step-1,Increment      1: Step Time =    1.000,"P-9-1",          1374,       165.279,       48.9634,            0.,NA,NA,"",   1.05436E+06,   1.04266E+06,   1.04266E+06
C:/temp/Job-9.odb,Step-1,Increment      1: Step Time =    1.000,"P-9-1",          1375,       47.5835,       162.488,            0.,NA,NA,"",   1.09051E+06,   1.09541E+06,   1.09541E+06
C:/temp/Job-9.odb,Step-1,Increment      1: Step Time =    1.000,"P-9-1",          1376,       158.881,       58.6307,            0.,NA,NA,"",   1.07584E+06,   1.05377E+06,   1.05377E+06
C:/temp/Job-9.odb,Step-1,Increment      1: Step Time =    1.000,"P-9-1",          1377,       34.9533,       149.983,            0.,NA,NA,"",   1.00930E+06,   1.04526E+06,   1.04526E+06
C:/temp/Job-9.odb,Step-1,Increment      1: Step Time =    1.000,"P-9-1",          1378,       149.553,       38.8067,            0.,NA,NA,"",   1.08290E+06,   1.06432E+06,   1.06432E+06
C:/temp/Job-9.odb,Step-1,Increment      1: Step Time =    1.000,"P-9-1",          1379,       40.5964,       142.051,            0.,NA,NA,"",   1.00370E+06,   1.03111E+06,   1.03111E+06
C:/temp/Job-9.odb,Step-1,Increment      1: Step Time =    1.000,"P-9-1",          1380,       59.2565,       41.4637,            0.,NA,NA,"",   1.11459E+06,   1.10955E+06,   1.10955E+06
C:/temp/Job-9.odb,Step-1,Increment      1: Step Time =    1.000,"P-9-1",          1381,       35.7460,       48.6039,            0.,NA,NA,"",   1.02005E+06,   1.05303E+06,   1.05303E+06
C:/temp/Job-9.odb,Step-1,Increment      1: Step Time =    1.000,"P-9-1",          1382,       50.6639,       36.0559,            0.,NA,NA,"",   1.09463E+06,   1.09625E+06,   1.09625E+06
C:/temp/Job-9.odb,Step-1,Increment      1: Step Time =    1.000,"P-9-1",          1383,       140.662,       160.413,            0.,NA,NA,"",   1.09818E+06,   1.07970E+06,   1.07970E+06
C:/temp/Job-9.odb,Step-1,Increment      1: Step Time =    1.000,"P-9-1",          1384,       149.745,       165.743,            0.,NA,NA,"",   1.06801E+06,   1.05332E+06,   1.05332E+06
C:/temp/Job-9.odb,Step-1,Increment      1: Step Time =    1.000,"P-9-1",          1385,       161.174,       151.346,            0.,NA,NA,"",   1.06897E+06,   1.05224E+06,   1.05224E+06
C:/temp/Job-9.odb,Step-1,Increment      1: Step Time =    1.000,"P-9-1",          1386,       66.9372,       60.6740,            0.,NA,NA,"",   1.17888E+06,   1.15375E+06,   1.15375E+06
C:/temp/Job-9.odb,Step-1,Increment      1: Step Time =    1.000,"P-9-1",          1387,       143.811,       110.080,            0.,NA,NA,"",   823.871E+03,   812.540E+03,   812.540E+03
C:/temp/Job-9.odb,Step-1,Increment      1: Step Time =    1.000,"P-9-1",          1388,       91.5885,       53.4765,            0.,NA,NA,"",   1.09529E+06,   1.15107E+06,   1.15107E+06
C:/temp/Job-9.odb,Step-1,Increment      1: Step Time =    1.000,"P-9-1",          1389,       110.794,       137.555,            0.,NA,NA,"",   1.18276E+06,   1.24020E+06,   1.24020E+06
C:/temp/Job-9.odb,Step-1,Increment      1: Step Time =    1.000,"P-9-1",          1390,       33.8804,       39.5469,            0.,NA,NA,"",   1.04613E+06,    1.0768E+06,    1.0768E+06
C:/temp/Job-9.odb,Step-1,Increment      1: Step Time =    1.000,"P-9-1",          1391,       37.5746,       163.307,            0.,NA,NA,"",   1.06692E+06,   1.08801E+06,   1.08801E+06
C:/temp/Job-9.odb,Step-1,Increment      1: Step Time =    1.000,"P-9-1",          1392,       160.777,       34.7766,            0.,NA,NA,"",   1.04942E+06,   1.03878E+06,   1.03878E+06
C:/temp/Job-9.odb,Step-1,Increment      1: Step Time =    1.000,"P-9-1",          1393,       163.882,       161.926,            0.,NA,NA,"",   1.04869E+06,   1.03845E+06,   1.03845E+06
C:/temp/Job-9.odb,Step-1,Increment      1: Step Time =    1.000,"P-9-1",          1394,       134.329,       143.768,            0.,NA,NA,"",   1.18789E+06,   1.14766E+06,   1.14766E+06
C:/temp/Job-9.odb,Step-1,Increment      1: Step Time =    1.000,"P-9-1",          1395,       137.126,       140.939,            0.,NA,NA,"",   1.19459E+06,   1.14616E+06,   1.14616E+06
C:/temp/Job-9.odb,Step-1,Increment      1: Step Time =    1.000,"P-9-1",          1396,       49.6960,       96.7536,            0.,NA,NA,"",   686.593E+03,   743.628E+03,   743.628E+03
C:/temp/Job-9.odb,Step-1,Increment      1: Step Time =    1.000,"P-9-1",          1397,       109.385,       130.732,            0.,NA,NA,"",   1.27029E+06,   1.34328E+06,   1.34328E+06
C:/temp/Job-9.odb,Step-1,Increment      1: Step Time =    1.000,"P-9-1",          1398,       149.661,       119.016,            0.,NA,NA,"",   978.827E+03,   953.310E+03,   953.310E+03
C:/temp/Job-9.odb,Step-1,Increment      1: Step Time =    1.000,"P-9-1",          1399,       149.739,       130.699,            0.,NA,NA,"",   1.09572E+06,   1.05432E+06,   1.05432E+06
C:/temp/Job-9.odb,Step-1,Increment      1: Step Time =    1.000,"P-9-1",          1400,       145.652,       136.398,            0.,NA,NA,"",   1.14428E+06,   1.09610E+06,   1.09610E+06
C:/temp/Job-9.odb,Step-1,Increment      1: Step Time =    1.000,"P-9-1",          1401,       87.0264,       54.5401,            0.,NA,NA,"",   1.12827E+06,   1.16999E+06,   1.16999E+06
C:/temp/Job-9.odb,Step-1,Increment      1: Step Time =    1.000,"P-9-1",          1402,       90.9488,       48.7771,            0.,NA,NA,"",   1.07814E+06,   1.12398E+06,   1.12398E+06
C:/temp/Job-9.odb,Step-1,Increment      1: Step Time =    1.000,"P-9-1",          1403,       60.7687,       89.8566,            0.,NA,NA,"",   725.270E+03,   738.873E+03,   738.873E+03
C:/temp/Job-9.odb,Step-1,Increment      1: Step Time =    1.000,"P-9-1",          1404,       57.8328,       65.8122,            0.,NA,NA,"",   1.09878E+06,   1.08148E+06,   1.08148E+06
C:/temp/Job-9.odb,Step-1,Increment      1: Step Time =    1.000,"P-9-1",          1405,       60.6070,       76.2125,            0.,NA,NA,"",   1.04024E+06,   1.01145E+06,   1.01145E+06
C:/temp/Job-9.odb,Step-1,Increment      1: Step Time =    1.000,"P-9-1",          1406,       106.566,       58.9952,            0.,NA,NA,"",   1.11828E+06,   1.19036E+06,   1.19036E+06
C:/temp/Job-9.odb,Step-1,Increment      1: Step Time =    1.000,"P-9-1",          1407,       96.0754,       143.655,            0.,NA,NA,"",   1.08802E+06,   1.16440E+06,   1.16440E+06
C:/temp/Job-9.odb,Step-1,Increment      1: Step Time =    1.000,"P-9-1",          1408,       103.785,       133.752,            0.,NA,NA,"",   1.17854E+06,   1.28396E+06,   1.28396E+06
C:/temp/Job-9.odb,Step-1,Increment      1: Step Time =    1.000,"P-9-1",          1409,       160.805,       113.008,            0.,NA,NA,"",   914.805E+03,   924.259E+03,   924.259E+03
C:/temp/Job-9.odb,Step-1,Increment      1: Step Time =    1.000,"P-9-1",          1410,       88.8790,       161.348,            0.,NA,NA,"",   1.05315E+06,   1.08081E+06,   1.08081E+06
C:/temp/Job-9.odb,Step-1,Increment      1: Step Time =    1.000,"P-9-1",          1411,       38.6372,       88.8949,            0.,NA,NA,"",   768.327E+03,   832.016E+03,   832.016E+03
C:/temp/Job-9.odb,Step-1,Increment      1: Step Time =    1.000,"P-9-1",          1412,       112.661,       40.8257,            0.,NA,NA,"",   1.05777E+06,   1.08400E+06,   1.08400E+06
C:/temp/Job-9.odb,Step-1,Increment      1: Step Time =    1.000,"P-9-1",          1413,       147.715,       67.3109,            0.,NA,NA,"",   1.11555E+06,   1.07030E+06,   1.07030E+06
C:/temp/Job-9.odb,Step-1,Increment      1: Step Time =    1.000,"P-9-1",          1414,       141.322,       60.9617,            0.,NA,NA,"",   1.16975E+06,   1.11899E+06,   1.11899E+06
C:/temp/Job-9.odb,Step-1,Increment      1: Step Time =    1.000,"P-9-1",          1415,       67.1449,       141.665,            0.,NA,NA,"",   1.17999E+06,   1.15830E+06,   1.15830E+06
C:/temp/Job-9.odb,Step-1,Increment      1: Step Time =    1.000,"P-9-1",          1416,       162.409,       137.151,            0.,NA,NA,"",   1.05318E+06,   1.03731E+06,   1.03731E+06
C:/temp/Job-9.odb,Step-1,Increment      1: Step Time =    1.000,"P-9-1",          1417,       38.1245,       66.4473,            0.,NA,NA,"",   940.525E+03,   980.862E+03,   980.862E+03
C:/temp/Job-9.odb,Step-1,Increment      1: Step Time =    1.000,"P-9-1",          1418,       135.630,       39.5299,            0.,NA,NA,"",   1.10268E+06,   1.08652E+06,   1.08652E+06
C:/temp/Job-9.odb,Step-1,Increment      1: Step Time =    1.000,"P-9-1",          1419,       51.1827,       111.380,            0.,NA,NA,"",   754.329E+03,   795.796E+03,   795.796E+03
C:/temp/Job-9.odb,Step-1,Increment      1: Step Time =    1.000,"P-9-1",          1420,       161.008,       48.1854,            0.,NA,NA,"",   1.06764E+06,   1.05153E+06,   1.05153E+06
C:/temp/Job-9.odb,Step-1,Increment      1: Step Time =    1.000,"P-9-1",          1421,       170.070,       49.4395,            0.,NA,NA,"",   1.03906E+06,   1.03298E+06,   1.03298E+06
C:/temp/Job-9.odb,Step-1,Increment      1: Step Time =    1.000,"P-9-1",          1422,       39.0212,       151.012,            0.,NA,NA,"",   1.03329E+06,   1.05938E+06,   1.05938E+06
C:/temp/Job-9.odb,Step-1,Increment      1: Step Time =    1.000,"P-9-1",          1423,       27.2910,       154.671,            0.,NA,NA,"",   993.948E+03,   1.04475E+06,   1.04475E+06
C:/temp/Job-9.odb,Step-1,Increment      1: Step Time =    1.000,"P-9-1",          1424,       51.0371,       40.7090,            0.,NA,NA,"",   1.09692E+06,   1.09835E+06,   1.09835E+06
C:/temp/Job-9.odb,Step-1,Increment      1: Step Time =    1.000,"P-9-1",          1425,       47.0493,       26.6856,            0.,NA,NA,"",   1.08726E+06,   1.09011E+06,   1.09011E+06
C:/temp/Job-9.odb,Step-1,Increment      1: Step Time =    1.000,"P-9-1",          1426,       148.814,       160.705,            0.,NA,NA,"",   1.08692E+06,   1.06767E+06,   1.06767E+06
C:/temp/Job-9.odb,Step-1,Increment      1: Step Time =    1.000,"P-9-1",          1427,       152.886,       169.833,            0.,NA,NA,"",   1.05118E+06,   1.04001E+06,   1.04001E+06
C:/temp/Job-9.odb,Step-1,Increment      1: Step Time =    1.000,"P-9-1",          1428,       163.614,       109.300,            0.,NA,NA,"",   897.519E+03,   915.216E+03,   915.216E+03
C:/temp/Job-9.odb,Step-1,Increment      1: Step Time =    1.000,"P-9-1",          1429,       35.1866,       91.1249,            0.,NA,NA,"",   758.293E+03,   828.504E+03,   828.504E+03
C:/temp/Job-9.odb,Step-1,Increment      1: Step Time =    1.000,"P-9-1",          1430,       108.352,       37.4734,            0.,NA,NA,"",   1.03711E+06,   1.06651E+06,   1.06651E+06
C:/temp/Job-9.odb,Step-1,Increment      1: Step Time =    1.000,"P-9-1",          1431,       107.433,       135.075,            0.,NA,NA,"",   1.18480E+06,   1.26876E+06,   1.26876E+06
C:/temp/Job-9.odb,Step-1,Increment      1: Step Time =    1.000,"P-9-1",          1432,       113.991,       141.113,            0.,NA,NA,"",   1.17444E+06,   1.20885E+06,   1.20885E+06
C:/temp/Job-9.odb,Step-1,Increment      1: Step Time =    1.000,"P-9-1",          1433,       48.5213,       93.0529,            0.,NA,NA,"",   717.619E+03,   772.210E+03,   772.210E+03
C:/temp/Job-9.odb,Step-1,Increment      1: Step Time =    1.000,"P-9-1",          1434,       45.8205,       98.2710,            0.,NA,NA,"",   704.079E+03,   765.983E+03,   765.983E+03
C:/temp/Job-9.odb,Step-1,Increment      1: Step Time =    1.000,"P-9-1",          1435,       111.612,       125.973,            0.,NA,NA,"",   1.40831E+06,   1.45579E+06,   1.45579E+06
C:/temp/Job-9.odb,Step-1,Increment      1: Step Time =    1.000,"P-9-1",          1436,       77.2708,       145.535,            0.,NA,NA,"",   1.17544E+06,   1.17598E+06,   1.17598E+06
C:/temp/Job-9.odb,Step-1,Increment      1: Step Time =    1.000,"P-9-1",          1437,       153.710,       114.261,            0.,NA,NA,"",   913.344E+03,   909.921E+03,   909.921E+03
C:/temp/Job-9.odb,Step-1,Increment      1: Step Time =    1.000,"P-9-1",          1438,       154.194,       125.705,            0.,NA,NA,"",   1.03103E+06,   1.00602E+06,   1.00602E+06
C:/temp/Job-9.odb,Step-1,Increment      1: Step Time =    1.000,"P-9-1",          1439,       86.2135,       151.414,            0.,NA,NA,"",   1.10210E+06,   1.13480E+06,   1.13480E+06
C:/temp/Job-9.odb,Step-1,Increment      1: Step Time =    1.000,"P-9-1",          1440,       121.511,       55.3176,            0.,NA,NA,"",   1.18481E+06,   1.18102E+06,   1.18102E+06
C:/temp/Job-9.odb,Step-1,Increment      1: Step Time =    1.000,"P-9-1",          1441,       121.241,       148.249,            0.,NA,NA,"",   1.15416E+06,   1.15473E+06,   1.15473E+06
C:/temp/Job-9.odb,Step-1,Increment      1: Step Time =    1.000,"P-9-1",          1442,       59.9676,       135.564,            0.,NA,NA,"",   1.12565E+06,   1.10307E+06,   1.10307E+06
C:/temp/Job-9.odb,Step-1,Increment      1: Step Time =    1.000,"P-9-1",          1443,       129.587,       40.3596,            0.,NA,NA,"",   1.10381E+06,   1.09421E+06,   1.09421E+06
C:/temp/Job-9.odb,Step-1,Increment      1: Step Time =    1.000,"P-9-1",          1444,       38.9205,       71.1124,            0.,NA,NA,"",   909.555E+03,   952.781E+03,   952.781E+03
C:/temp/Job-9.odb,Step-1,Increment      1: Step Time =    1.000,"P-9-1",          1445,       66.2926,       160.560,            0.,NA,NA,"",   1.11296E+06,   1.10965E+06,   1.10965E+06
C:/temp/Job-9.odb,Step-1,Increment      1: Step Time =    1.000,"P-9-1",          1446,       161.943,       130.140,            0.,NA,NA,"",   1.02648E+06,   1.01452E+06,   1.01452E+06
C:/temp/Job-9.odb,Step-1,Increment      1: Step Time =    1.000,"P-9-1",          1447,       40.3236,       47.8466,            0.,NA,NA,"",   1.04447E+06,   1.06684E+06,   1.06684E+06
C:/temp/Job-9.odb,Step-1,Increment      1: Step Time =    1.000,"P-9-1",          1448,       146.167,       40.9766,            0.,NA,NA,"",   1.09610E+06,   1.07498E+06,   1.07498E+06
C:/temp/Job-9.odb,Step-1,Increment      1: Step Time =    1.000,"P-9-1",          1449,       157.948,       147.284,            0.,NA,NA,"",   1.08110E+06,   1.05950E+06,   1.05950E+06
C:/temp/Job-9.odb,Step-1,Increment      1: Step Time =    1.000,"P-9-1",          1450,       48.8629,       158.727,            0.,NA,NA,"",   1.09221E+06,   1.09623E+06,   1.09623E+06
C:/temp/Job-9.odb,Step-1,Increment      1: Step Time =    1.000,"P-9-1",          1451,       164.272,       128.478,            0.,NA,NA,"",   1.01206E+06,   1.00599E+06,   1.00599E+06
C:/temp/Job-9.odb,Step-1,Increment      1: Step Time =    1.000,"P-9-1",          1452,       33.1532,       71.5871,            0.,NA,NA,"",   880.059E+03,   936.598E+03,   936.598E+03
C:/temp/Job-9.odb,Step-1,Increment      1: Step Time =    1.000,"P-9-1",          1453,       67.8636,       165.858,            0.,NA,NA,"",   1.09386E+06,   1.09283E+06,   1.09283E+06
C:/temp/Job-9.odb,Step-1,Increment      1: Step Time =    1.000,"P-9-1",          1454,       128.643,       33.8023,            0.,NA,NA,"",   1.07037E+06,   1.06618E+06,   1.06618E+06
C:/temp/Job-9.odb,Step-1,Increment      1: Step Time =    1.000,"P-9-1",          1455,       34.7572,       43.9406,            0.,NA,NA,"",   1.03360E+06,   1.06569E+06,   1.06569E+06
C:/temp/Job-9.odb,Step-1,Increment      1: Step Time =    1.000,"P-9-1",          1456,       155.948,       32.9634,            0.,NA,NA,"",   1.05453E+06,   1.04250E+06,   1.04250E+06
C:/temp/Job-9.odb,Step-1,Increment      1: Step Time =    1.000,"P-9-1",          1457,       41.5958,       165.387,            0.,NA,NA,"",   1.08017E+06,   1.09303E+06,   1.09303E+06
C:/temp/Job-9.odb,Step-1,Increment      1: Step Time =    1.000,"P-9-1",          1458,       167.135,       156.686,            0.,NA,NA,"",   1.04561E+06,   1.03673E+06,   1.03673E+06
C:/temp/Job-9.odb,Step-1,Increment      1: Step Time =    1.000,"P-9-1",          1459,       61.8826,       57.8449,            0.,NA,NA,"",   1.14572E+06,   1.12807E+06,   1.12807E+06
C:/temp/Job-9.odb,Step-1,Increment      1: Step Time =    1.000,"P-9-1",          1460,       99.8059,       45.2349,            0.,NA,NA,"",   1.04638E+06,   1.09537E+06,   1.09537E+06
C:/temp/Job-9.odb,Step-1,Increment      1: Step Time =    1.000,"P-9-1",          1461,       102.049,       155.323,            0.,NA,NA,"",   1.04520E+06,   1.09392E+06,   1.09392E+06
C:/temp/Job-9.odb,Step-1,Increment      1: Step Time =    1.000,"P-9-1",          1462,       153.001,       98.9152,            0.,NA,NA,"",   799.143E+03,   818.203E+03,   818.203E+03
C:/temp/Job-9.odb,Step-1,Increment      1: Step Time =    1.000,"P-9-1",          1463,       70.2533,       58.8867,            0.,NA,NA,"",   1.19320E+06,   1.17207E+06,   1.17207E+06
C:/temp/Job-9.odb,Step-1,Increment      1: Step Time =    1.000,"P-9-1",          1464,       154.624,       163.209,            0.,NA,NA,"",   1.06629E+06,   1.05129E+06,   1.05129E+06
C:/temp/Job-9.odb,Step-1,Increment      1: Step Time =    1.000,"P-9-1",          1465,       34.5434,       154.073,            0.,NA,NA,"",   1.02569E+06,   1.05904E+06,   1.05904E+06
C:/temp/Job-9.odb,Step-1,Increment      1: Step Time =    1.000,"P-9-1",          1466,       45.5054,       36.0974,            0.,NA,NA,"",   1.08529E+06,   1.09324E+06,   1.09324E+06
C:/temp/Job-9.odb,Step-1,Increment      1: Step Time =    1.000,"P-9-1",          1467,       165.540,       43.5370,            0.,NA,NA,"",   1.05025E+06,   1.03995E+06,   1.03995E+06
C:/temp/Job-9.odb,Step-1,Increment      1: Step Time =    1.000,"P-9-1",          1468,       158.696,       134.274,            0.,NA,NA,"",   1.06014E+06,   1.03827E+06,   1.03827E+06
C:/temp/Job-9.odb,Step-1,Increment      1: Step Time =    1.000,"P-9-1",          1469,       42.0355,       67.3382,            0.,NA,NA,"",    955.98E+03,   987.526E+03,   987.526E+03
C:/temp/Job-9.odb,Step-1,Increment      1: Step Time =    1.000,"P-9-1",          1470,       132.806,       43.0280,            0.,NA,NA,"",   1.12006E+06,   1.10321E+06,   1.10321E+06
C:/temp/Job-9.odb,Step-1,Increment      1: Step Time =    1.000,"P-9-1",          1471,       67.2928,       155.158,            0.,NA,NA,"",   1.13289E+06,   1.12697E+06,   1.12697E+06
C:/temp/Job-9.odb,Step-1,Increment      1: Step Time =    1.000,"P-9-1",          1472,       152.914,       158.512,            0.,NA,NA,"",   1.08323E+06,   1.06375E+06,   1.06375E+06
C:/temp/Job-9.odb,Step-1,Increment      1: Step Time =    1.000,"P-9-1",          1473,       157.675,       155.745,            0.,NA,NA,"",   1.07426E+06,   1.05647E+06,   1.05647E+06
C:/temp/Job-9.odb,Step-1,Increment      1: Step Time =    1.000,"P-9-1",          1474,       152.266,       43.1589,            0.,NA,NA,"",   1.08777E+06,   1.06676E+06,   1.06676E+06
C:/temp/Job-9.odb,Step-1,Increment      1: Step Time =    1.000,"P-9-1",          1475,       42.5639,       153.029,            0.,NA,NA,"",   1.05776E+06,   1.07461E+06,   1.07461E+06
C:/temp/Job-9.odb,Step-1,Increment      1: Step Time =    1.000,"P-9-1",          1476,       51.5406,       44.9062,            0.,NA,NA,"",   1.09826E+06,   1.09878E+06,   1.09878E+06
C:/temp/Job-9.odb,Step-1,Increment      1: Step Time =    1.000,"P-9-1",          1477,       43.3051,       42.5476,            0.,NA,NA,"",   1.07099E+06,   1.08480E+06,   1.08480E+06
C:/temp/Job-9.odb,Step-1,Increment      1: Step Time =    1.000,"P-9-1",          1478,       154.620,       48.2376,            0.,NA,NA,"",   1.09043E+06,   1.06740E+06,   1.06740E+06
C:/temp/Job-9.odb,Step-1,Increment      1: Step Time =    1.000,"P-9-1",          1479,       46.5494,       155.480,            0.,NA,NA,"",   1.08153E+06,   1.08931E+06,   1.08931E+06
C:/temp/Job-9.odb,Step-1,Increment      1: Step Time =    1.000,"P-9-1",          1480,       39.2006,       43.1993,            0.,NA,NA,"",   1.05409E+06,   1.07620E+06,   1.07620E+06
C:/temp/Job-9.odb,Step-1,Increment      1: Step Time =    1.000,"P-9-1",          1481,       163.303,       157.298,            0.,NA,NA,"",   1.05606E+06,   1.04380E+06,   1.04380E+06
C:/temp/Job-9.odb,Step-1,Increment      1: Step Time =    1.000,"P-9-1",          1482,       154.953,       38.8312,            0.,NA,NA,"",   1.07140E+06,   1.05491E+06,   1.05491E+06
C:/temp/Job-9.odb,Step-1,Increment      1: Step Time =    1.000,"P-9-1",          1483,       43.6568,       160.349,            0.,NA,NA,"",   1.07807E+06,   1.08950E+06,   1.08950E+06
C:/temp/Job-9.odb,Step-1,Increment      1: Step Time =    1.000,"P-9-1",          1484,       56.4918,       135.288,            0.,NA,NA,"",   1.09411E+06,   1.07938E+06,   1.07938E+06
C:/temp/Job-9.odb,Step-1,Increment      1: Step Time =    1.000,"P-9-1",          1485,       58.0047,       139.844,            0.,NA,NA,"",   1.11826E+06,   1.10348E+06,   1.10348E+06
C:/temp/Job-9.odb,Step-1,Increment      1: Step Time =    1.000,"P-9-1",          1486,       43.6804,       90.6307,            0.,NA,NA,"",   751.470E+03,   810.261E+03,   810.261E+03
C:/temp/Job-9.odb,Step-1,Increment      1: Step Time =    1.000,"P-9-1",          1487,       114.331,       44.4312,            0.,NA,NA,"",   1.07839E+06,   1.10405E+06,   1.10405E+06
C:/temp/Job-9.odb,Step-1,Increment      1: Step Time =    1.000,"P-9-1",          1488,       157.059,       110.397,            0.,NA,NA,"",   884.605E+03,   894.282E+03,   894.282E+03
C:/temp/Job-9.odb,Step-1,Increment      1: Step Time =    1.000,"P-9-1",          1489,       87.6365,       156.425,            0.,NA,NA,"",   1.07273E+06,   1.10469E+06,   1.10469E+06
C:/temp/Job-9.odb,Step-1,Increment      1: Step Time =    1.000,"P-9-1",          1490,       145.429,       131.058,            0.,NA,NA,"",   1.12816E+06,   1.07569E+06,   1.07569E+06
C:/temp/Job-9.odb,Step-1,Increment      1: Step Time =    1.000,"P-9-1",          1491,       95.2330,       46.9483,            0.,NA,NA,"",   1.05716E+06,   1.10738E+06,   1.10738E+06
C:/temp/Job-9.odb,Step-1,Increment      1: Step Time =    1.000,"P-9-1",          1492,       59.5540,       85.8000,            0.,NA,NA,"",   831.205E+03,   831.507E+03,   831.507E+03
C:/temp/Job-9.odb,Step-1,Increment      1: Step Time =    1.000,"P-9-1",          1493,       101.394,       141.025,            0.,NA,NA,"",   1.09565E+06,   1.18027E+06,   1.18027E+06
C:/temp/Job-9.odb,Step-1,Increment      1: Step Time =    1.000,"P-9-1",          1494,       98.8976,       130.352,            0.,NA,NA,"",   1.25159E+06,   1.38257E+06,   1.38257E+06
C:/temp/Job-9.odb,Step-1,Increment      1: Step Time =    1.000,"P-9-1",          1495,       134.979,       59.0932,            0.,NA,NA,"",   1.20127E+06,   1.15242E+06,   1.15242E+06
C:/temp/Job-9.odb,Step-1,Increment      1: Step Time =    1.000,"P-9-1",          1496,       120.257,       141.133,            0.,NA,NA,"",   1.21354E+06,   1.20752E+06,   1.20752E+06
C:/temp/Job-9.odb,Step-1,Increment      1: Step Time =    1.000,"P-9-1",          1497,       52.4366,       91.8001,            0.,NA,NA,"",   713.375E+03,   759.245E+03,   759.245E+03
C:/temp/Job-9.odb,Step-1,Increment      1: Step Time =    1.000,"P-9-1",          1498,       107.646,       125.058,            0.,NA,NA,"",   1.42247E+06,   1.52800E+06,   1.52800E+06
C:/temp/Job-9.odb,Step-1,Increment      1: Step Time =    1.000,"P-9-1",          1499,       150.315,       110.922,            0.,NA,NA,"",   866.610E+03,   865.551E+03,   865.551E+03
C:/temp/Job-9.odb,Step-1,Increment      1: Step Time =    1.000,"P-9-1",          1500,       155.315,       120.996,            0.,NA,NA,"",   986.481E+03,   971.620E+03,   971.620E+03
C:/temp/Job-9.odb,Step-1,Increment      1: Step Time =    1.000,"P-9-1",          1501,       80.4212,       150.575,            0.,NA,NA,"",   1.13280E+06,   1.14667E+06,   1.14667E+06
C:/temp/Job-9.odb,Step-1,Increment      1: Step Time =    1.000,"P-9-1",          1502,       145.269,       148.514,            0.,NA,NA,"",   1.13228E+06,   1.09920E+06,   1.09920E+06
C:/temp/Job-9.odb,Step-1,Increment      1: Step Time =    1.000,"P-9-1",          1503,       125.574,       150.965,            0.,NA,NA,"",   1.14555E+06,   1.13595E+06,   1.13595E+06
C:/temp/Job-9.odb,Step-1,Increment      1: Step Time =    1.000,"P-9-1",          1504,       55.0680,       59.1848,            0.,NA,NA,"",   1.09842E+06,   1.09089E+06,   1.09089E+06
C:/temp/Job-9.odb,Step-1,Increment      1: Step Time =    1.000,"P-9-1",          1505,       75.5828,       58.2374,            0.,NA,NA,"",   1.20503E+06,   1.19376E+06,   1.19376E+06
C:/temp/Job-9.odb,Step-1,Increment      1: Step Time =    1.000,"P-9-1",          1506,       118.966,       51.4972,            0.,NA,NA,"",   1.14072E+06,   1.15217E+06,   1.15217E+06
C:/temp/Job-9.odb,Step-1,Increment      1: Step Time =    1.000,"P-9-1",          1507,       108.157,       141.061,            0.,NA,NA,"",   1.12691E+06,   1.19450E+06,   1.19450E+06
C:/temp/Job-9.odb,Step-1,Increment      1: Step Time =    1.000,"P-9-1",          1508,       146.003,       142.239,            0.,NA,NA,"",   1.14348E+06,   1.10230E+06,   1.10230E+06
C:/temp/Job-9.odb,Step-1,Increment      1: Step Time =    1.000,"P-9-1",          1509,       160.056,       106.956,            0.,NA,NA,"",   873.259E+03,   890.605E+03,   890.605E+03
C:/temp/Job-9.odb,Step-1,Increment      1: Step Time =    1.000,"P-9-1",          1510,       93.0291,       159.640,            0.,NA,NA,"",   1.04552E+06,   1.08041E+06,   1.08041E+06
C:/temp/Job-9.odb,Step-1,Increment      1: Step Time =    1.000,"P-9-1",          1511,       40.3901,       91.9646,            0.,NA,NA,"",   748.274E+03,   812.805E+03,   812.805E+03
C:/temp/Job-9.odb,Step-1,Increment      1: Step Time =    1.000,"P-9-1",          1512,       108.787,       42.3106,            0.,NA,NA,"",   1.05125E+06,   1.08676E+06,   1.08676E+06
C:/temp/Job-9.odb,Step-1,Increment      1: Step Time =    1.000,"P-9-1",          1513,       145.450,       58.9835,            0.,NA,NA,"",   1.14299E+06,   1.10019E+06,   1.10019E+06
C:/temp/Job-9.odb,Step-1,Increment      1: Step Time =    1.000,"P-9-1",          1514,       52.3885,       78.8196,            0.,NA,NA,"",   914.193E+03,   926.938E+03,   926.938E+03
C:/temp/Job-9.odb,Step-1,Increment      1: Step Time =    1.000,"P-9-1",          1515,       67.4631,       146.059,            0.,NA,NA,"",   1.16400E+06,   1.14865E+06,   1.14865E+06
C:/temp/Job-9.odb,Step-1,Increment      1: Step Time =    1.000,"P-9-1",          1516,       45.7627,       108.220,            0.,NA,NA,"",   731.379E+03,   788.751E+03,   788.751E+03
C:/temp/Job-9.odb,Step-1,Increment      1: Step Time =    1.000,"P-9-1",          1517,       95.5771,       154.629,            0.,NA,NA,"",   1.05269E+06,   1.10052E+06,   1.10052E+06
C:/temp/Job-9.odb,Step-1,Increment      1: Step Time =    1.000,"P-9-1",          1518,       150.030,       104.129,            0.,NA,NA,"",   792.345E+03,   806.524E+03,   806.524E+03
C:/temp/Job-9.odb,Step-1,Increment      1: Step Time =    1.000,"P-9-1",          1519,       105.523,       48.7965,            0.,NA,NA,"",   1.06317E+06,   1.11478E+06,   1.11478E+06
C:/temp/Job-9.odb,Step-1,Increment      1: Step Time =    1.000,"P-9-1",          1520,       152.029,       94.9517,            0.,NA,NA,"",   808.723E+03,   823.437E+03,   823.437E+03
C:/temp/Job-9.odb,Step-1,Increment      1: Step Time =    1.000,"P-9-1",          1521,       52.8927,       69.0056,            0.,NA,NA,"",   1.03366E+06,   1.03106E+06,   1.03106E+06
C:/temp/Job-9.odb,Step-1,Increment      1: Step Time =    1.000,"P-9-1",          1522,       118.806,       152.612,            0.,NA,NA,"",   1.11460E+06,   1.12655E+06,   1.12655E+06
C:/temp/Job-9.odb,Step-1,Increment      1: Step Time =    1.000,"P-9-1",          1523,       46.5915,       112.597,            0.,NA,NA,"",   774.556E+03,   823.129E+03,   823.129E+03
C:/temp/Job-9.odb,Step-1,Increment      1: Step Time =    1.000,"P-9-1",          1524,       48.7926,       70.1602,            0.,NA,NA,"",   985.410E+03,   998.396E+03,   998.396E+03
C:/temp/Job-9.odb,Step-1,Increment      1: Step Time =    1.000,"P-9-1",          1525,       67.9075,       150.469,            0.,NA,NA,"",   1.14926E+06,   1.13949E+06,   1.13949E+06
C:/temp/Job-9.odb,Step-1,Increment      1: Step Time =    1.000,"P-9-1",          1526,       129.923,       46.8654,            0.,NA,NA,"",   1.14043E+06,   1.12331E+06,   1.12331E+06
C:/temp/Job-9.odb,Step-1,Increment      1: Step Time =    1.000,"P-9-1",          1527,       143.782,       55.3607,            0.,NA,NA,"",   1.14721E+06,   1.10731E+06,   1.10731E+06
C:/temp/Job-9.odb,Step-1,Increment      1: Step Time =    1.000,"P-9-1",          1528,       110.792,       144.612,            0.,NA,NA,"",   1.11947E+06,   1.16965E+06,   1.16965E+06
C:/temp/Job-9.odb,Step-1,Increment      1: Step Time =    1.000,"P-9-1",          1529,       152.569,       149.645,            0.,NA,NA,"",   1.10211E+06,   1.07553E+06,   1.07553E+06
C:/temp/Job-9.odb,Step-1,Increment      1: Step Time =    1.000,"P-9-1",          1530,       149.886,       154.566,            0.,NA,NA,"",   1.10030E+06,   1.07644E+06,   1.07644E+06
C:/temp/Job-9.odb,Step-1,Increment      1: Step Time =    1.000,"P-9-1",          1531,       147.148,       46.1839,            0.,NA,NA,"",   1.11173E+06,   1.08502E+06,   1.08502E+06
C:/temp/Job-9.odb,Step-1,Increment      1: Step Time =    1.000,"P-9-1",          1532,       47.4582,       150.996,            0.,NA,NA,"",   1.07710E+06,   1.08432E+06,   1.08432E+06
C:/temp/Job-9.odb,Step-1,Increment      1: Step Time =    1.000,"P-9-1",          1533,       46.5535,       52.1291,            0.,NA,NA,"",   1.06254E+06,   1.07337E+06,   1.07337E+06
C:/temp/Job-9.odb,Step-1,Increment      1: Step Time =    1.000,"P-9-1",          1534,       52.0443,       48.0329,            0.,NA,NA,"",   1.09854E+06,   1.09826E+06,   1.09826E+06
C:/temp/Job-9.odb,Step-1,Increment      1: Step Time =    1.000,"P-9-1",          1535,       54.3431,       153.697,            0.,NA,NA,"",   1.10787E+06,   1.10509E+06,   1.10509E+06
C:/temp/Job-9.odb,Step-1,Increment      1: Step Time =    1.000,"P-9-1",          1536,       150.581,       50.6600,            0.,NA,NA,"",   1.10866E+06,   1.07985E+06,   1.07985E+06
C:/temp/Job-9.odb,Step-1,Increment      1: Step Time =    1.000,"P-9-1",          1537,       149.371,       57.4509,            0.,NA,NA,"",   1.11987E+06,   1.08436E+06,   1.08436E+06
C:/temp/Job-9.odb,Step-1,Increment      1: Step Time =    1.000,"P-9-1",          1538,       62.7315,       141.286,            0.,NA,NA,"",   1.15166E+06,   1.13160E+06,   1.13160E+06
C:/temp/Job-9.odb,Step-1,Increment      1: Step Time =    1.000,"P-9-1",          1539,       45.9426,       85.5282,            0.,NA,NA,"",   796.776E+03,   843.903E+03,   843.903E+03
C:/temp/Job-9.odb,Step-1,Increment      1: Step Time =    1.000,"P-9-1",          1540,       116.478,       47.9592,            0.,NA,NA,"",   1.10545E+06,   1.12644E+06,   1.12644E+06
C:/temp/Job-9.odb,Step-1,Increment      1: Step Time =    1.000,"P-9-1",          1541,       58.1129,       81.6901,            0.,NA,NA,"",   914.902E+03,   908.464E+03,   908.464E+03
C:/temp/Job-9.odb,Step-1,Increment      1: Step Time =    1.000,"P-9-1",          1542,       90.2816,       45.0813,            0.,NA,NA,"",   1.06723E+06,   1.10643E+06,   1.10643E+06
C:/temp/Job-9.odb,Step-1,Increment      1: Step Time =    1.000,"P-9-1",          1543,       48.3612,       80.1862,            0.,NA,NA,"",   870.500E+03,   900.343E+03,   900.343E+03
C:/temp/Job-9.odb,Step-1,Increment      1: Step Time =    1.000,"P-9-1",          1544,       76.5909,       150.590,            0.,NA,NA,"",   1.14400E+06,   1.14837E+06,   1.14837E+06
C:/temp/Job-9.odb,Step-1,Increment      1: Step Time =    1.000,"P-9-1",          1545,       142.305,       152.327,            0.,NA,NA,"",   1.12924E+06,   1.10032E+06,   1.10032E+06
C:/temp/Job-9.odb,Step-1,Increment      1: Step Time =    1.000,"P-9-1",          1546,       132.309,       148.785,            0.,NA,NA,"",   1.16401E+06,   1.13697E+06,   1.13697E+06
C:/temp/Job-9.odb,Step-1,Increment      1: Step Time =    1.000,"P-9-1",          1547,       77.1185,       65.0193,            0.,NA,NA,"",   1.25454E+06,   1.23003E+06,   1.23003E+06
C:/temp/Job-9.odb,Step-1,Increment      1: Step Time =    1.000,"P-9-1",          1548,       72.4085,       56.6576,            0.,NA,NA,"",   1.19087E+06,   1.17564E+06,   1.17564E+06
C:/temp/Job-9.odb,Step-1,Increment      1: Step Time =    1.000,"P-9-1",          1549,       91.9980,       154.862,            0.,NA,NA,"",   1.06052E+06,   1.10253E+06,   1.10253E+06
C:/temp/Job-9.odb,Step-1,Increment      1: Step Time =    1.000,"P-9-1",          1550,       153.713,       107.480,            0.,NA,NA,"",   847.111E+03,   858.145E+03,   858.145E+03
C:/temp/Job-9.odb,Step-1,Increment      1: Step Time =    1.000,"P-9-1",          1551,       100.841,       50.3679,            0.,NA,NA,"",   1.06014E+06,   1.12095E+06,   1.12095E+06
C:/temp/Job-9.odb,Step-1,Increment      1: Step Time =    1.000,"P-9-1",          1552,       110.150,       46.7463,            0.,NA,NA,"",   1.07089E+06,   1.10986E+06,   1.10986E+06
C:/temp/Job-9.odb,Step-1,Increment      1: Step Time =    1.000,"P-9-1",          1553,       148.954,       99.9100,            0.,NA,NA,"",   760.864E+03,   778.726E+03,   778.726E+03
C:/temp/Job-9.odb,Step-1,Increment      1: Step Time =    1.000,"P-9-1",          1554,       155.802,       90.2288,            0.,NA,NA,"",   876.718E+03,   885.291E+03,   885.291E+03
C:/temp/Job-9.odb,Step-1,Increment      1: Step Time =    1.000,"P-9-1",          1555,       107.649,       155.548,            0.,NA,NA,"",   1.05631E+06,   1.09635E+06,   1.09635E+06
C:/temp/Job-9.odb,Step-1,Increment      1: Step Time =    1.000,"P-9-1",          1556,       104.298,       149.691,            0.,NA,NA,"",   1.06097E+06,   1.11886E+06,   1.11886E+06
C:/temp/Job-9.odb,Step-1,Increment      1: Step Time =    1.000,"P-9-1",          1557,       47.2619,       131.905,            0.,NA,NA,"",   986.723E+03,   1.00299E+06,   1.00299E+06
C:/temp/Job-9.odb,Step-1,Increment      1: Step Time =    1.000,"P-9-1",          1558,       123.307,       155.386,            0.,NA,NA,"",   1.11423E+06,   1.11407E+06,   1.11407E+06
C:/temp/Job-9.odb,Step-1,Increment      1: Step Time =    1.000,"P-9-1",          1559,       113.610,       149.664,            0.,NA,NA,"",   1.10568E+06,   1.13757E+06,   1.13757E+06
C:/temp/Job-9.odb,Step-1,Increment      1: Step Time =    1.000,"P-9-1",          1560,       151.806,       62.8578,            0.,NA,NA,"",   1.10335E+06,   1.06829E+06,   1.06829E+06
C:/temp/Job-9.odb,Step-1,Increment      1: Step Time =    1.000,"P-9-1",          1561,       57.3427,       55.1216,            0.,NA,NA,"",   1.11951E+06,   1.10959E+06,   1.10959E+06
C:/temp/Job-9.odb,Step-1,Increment      1: Step Time =    1.000,"P-9-1",          1562,       151.902,       142.041,            0.,NA,NA,"",   1.11162E+06,   1.07819E+06,   1.07819E+06
C:/temp/Job-9.odb,Step-1,Increment      1: Step Time =    1.000,"P-9-1",          1563,       66.2223,       49.4260,            0.,NA,NA,"",   1.14558E+06,   1.13567E+06,   1.13567E+06
C:/temp/Job-9.odb,Step-1,Increment      1: Step Time =    1.000,"P-9-1",          1564,       76.7058,       156.219,            0.,NA,NA,"",   1.11612E+06,   1.12265E+06,   1.12265E+06
C:/temp/Job-9.odb,Step-1,Increment      1: Step Time =    1.000,"P-9-1",          1565,       63.7641,       84.8296,            0.,NA,NA,"",   900.726E+03,   868.158E+03,   868.158E+03
C:/temp/Job-9.odb,Step-1,Increment      1: Step Time =    1.000,"P-9-1",          1566,       153.988,       130.500,            0.,NA,NA,"",   1.06724E+06,   1.03663E+06,   1.03663E+06
C:/temp/Job-9.odb,Step-1,Increment      1: Step Time =    1.000,"P-9-1",          1567,       97.1773,       126.046,            0.,NA,NA,"",   1.49129E+06,   1.62900E+06,   1.62900E+06
C:/temp/Job-9.odb,Step-1,Increment      1: Step Time =    1.000,"P-9-1",          1568,       46.9135,       65.5227,            0.,NA,NA,"",   1.00593E+06,   1.02133E+06,   1.02133E+06
C:/temp/Job-9.odb,Step-1,Increment      1: Step Time =    1.000,"P-9-1",          1569,       153.314,       71.1748,            0.,NA,NA,"",   1.06032E+06,   1.02999E+06,   1.02999E+06
C:/temp/Job-9.odb,Step-1,Increment      1: Step Time =    1.000,"P-9-1",          1570,       64.4834,       150.477,            0.,NA,NA,"",   1.14267E+06,   1.13159E+06,   1.13159E+06
C:/temp/Job-9.odb,Step-1,Increment      1: Step Time =    1.000,"P-9-1",          1571,       154.419,       135.061,            0.,NA,NA,"",   1.08507E+06,   1.05416E+06,   1.05416E+06
C:/temp/Job-9.odb,Step-1,Increment      1: Step Time =    1.000,"P-9-1",          1572,       71.6683,       155.451,            0.,NA,NA,"",   1.12785E+06,   1.12694E+06,   1.12694E+06
C:/temp/Job-9.odb,Step-1,Increment      1: Step Time =    1.000,"P-9-1",          1573,       81.9013,       55.7066,            0.,NA,NA,"",   1.17078E+06,   1.18968E+06,   1.18968E+06
C:/temp/Job-9.odb,Step-1,Increment      1: Step Time =    1.000,"P-9-1",          1574,       77.5429,       48.2239,            0.,NA,NA,"",   1.13655E+06,   1.14468E+06,   1.14468E+06
C:/temp/Job-9.odb,Step-1,Increment      1: Step Time =    1.000,"P-9-1",          1575,       50.9646,       55.8508,            0.,NA,NA,"",   1.07904E+06,   1.08073E+06,   1.08073E+06
C:/temp/Job-9.odb,Step-1,Increment      1: Step Time =    1.000,"P-9-1",          1576,       59.2472,       50.4079,            0.,NA,NA,"",   1.12790E+06,   1.11877E+06,   1.11877E+06
C:/temp/Job-9.odb,Step-1,Increment      1: Step Time =    1.000,"P-9-1",          1577,       46.6764,       76.1141,            0.,NA,NA,"",   909.677E+03,   937.329E+03,   937.329E+03
C:/temp/Job-9.odb,Step-1,Increment      1: Step Time =    1.000,"P-9-1",          1578,       123.229,       48.1691,            0.,NA,NA,"",   1.13493E+06,   1.13357E+06,   1.13357E+06
C:/temp/Job-9.odb,Step-1,Increment      1: Step Time =    1.000,"P-9-1",          1579,       145.778,       153.106,            0.,NA,NA,"",   1.11560E+06,   1.08827E+06,   1.08827E+06
C:/temp/Job-9.odb,Step-1,Increment      1: Step Time =    1.000,"P-9-1",          1580,       142.319,       44.7527,            0.,NA,NA,"",   1.11907E+06,   1.09351E+06,   1.09351E+06
C:/temp/Job-9.odb,Step-1,Increment      1: Step Time =    1.000,"P-9-1",          1581,       44.7534,       147.810,            0.,NA,NA,"",   1.05450E+06,   1.06800E+06,   1.06800E+06
C:/temp/Job-9.odb,Step-1,Increment      1: Step Time =    1.000,"P-9-1",          1582,       58.6936,       45.8000,            0.,NA,NA,"",   1.12077E+06,   1.11430E+06,   1.11430E+06
C:/temp/Job-9.odb,Step-1,Increment      1: Step Time =    1.000,"P-9-1",          1583,       42.5617,       56.6899,            0.,NA,NA,"",   1.02609E+06,   1.04716E+06,   1.04716E+06
C:/temp/Job-9.odb,Step-1,Increment      1: Step Time =    1.000,"P-9-1",          1584,       153.228,       54.9691,            0.,NA,NA,"",   1.10072E+06,   1.07193E+06,   1.07193E+06
C:/temp/Job-9.odb,Step-1,Increment      1: Step Time =    1.000,"P-9-1",          1585,       56.8182,       157.029,            0.,NA,NA,"",   1.11186E+06,   1.10798E+06,   1.10798E+06
C:/temp/Job-9.odb,Step-1,Increment      1: Step Time =    1.000,"P-9-1",          1586,       57.5027,       145.189,            0.,NA,NA,"",   1.11922E+06,   1.10907E+06,   1.10907E+06
C:/temp/Job-9.odb,Step-1,Increment      1: Step Time =    1.000,"P-9-1",          1587,       86.9563,       44.4827,            0.,NA,NA,"",   1.07835E+06,   1.11006E+06,   1.11006E+06
C:/temp/Job-9.odb,Step-1,Increment      1: Step Time =    1.000,"P-9-1",          1588,       147.257,       107.525,            0.,NA,NA,"",   808.663E+03,   812.158E+03,   812.158E+03
C:/temp/Job-9.odb,Step-1,Increment      1: Step Time =    1.000,"P-9-1",          1589,       56.5496,       90.7397,            0.,NA,NA,"",   714.622E+03,   747.455E+03,   747.455E+03
C:/temp/Job-9.odb,Step-1,Increment      1: Step Time =    1.000,"P-9-1",          1590,       151.171,       90.8557,            0.,NA,NA,"",   847.730E+03,   851.768E+03,   851.768E+03
C:/temp/Job-9.odb,Step-1,Increment      1: Step Time =    1.000,"P-9-1",          1591,       108.295,       150.582,            0.,NA,NA,"",   1.06966E+06,   1.11782E+06,   1.11782E+06
C:/temp/Job-9.odb,Step-1,Increment      1: Step Time =    1.000,"P-9-1",          1592,       112.527,       155.741,            0.,NA,NA,"",   1.06991E+06,   1.09930E+06,   1.09930E+06
C:/temp/Job-9.odb,Step-1,Increment      1: Step Time =    1.000,"P-9-1",          1593,       48.4277,       58.9721,            0.,NA,NA,"",   1.05091E+06,   1.05951E+06,   1.05951E+06
C:/temp/Job-9.odb,Step-1,Increment      1: Step Time =    1.000,"P-9-1",          1594,       150.398,       78.4524,            0.,NA,NA,"",   1.01037E+06,   981.408E+03,   981.408E+03
C:/temp/Job-9.odb,Step-1,Increment      1: Step Time =    1.000,"P-9-1",          1595,       153.555,       67.7518,            0.,NA,NA,"",   1.07736E+06,   1.04563E+06,   1.04563E+06
C:/temp/Job-9.odb,Step-1,Increment      1: Step Time =    1.000,"P-9-1",          1596,       140.012,       48.2734,            0.,NA,NA,"",   1.13751E+06,   1.10757E+06,   1.10757E+06
C:/temp/Job-9.odb,Step-1,Increment      1: Step Time =    1.000,"P-9-1",          1597,       59.3540,       151.836,            0.,NA,NA,"",   1.12520E+06,   1.11728E+06,   1.11728E+06
C:/temp/Job-9.odb,Step-1,Increment      1: Step Time =    1.000,"P-9-1",          1598,       155.570,       139.179,            0.,NA,NA,"",   1.09134E+06,   1.06236E+06,   1.06236E+06
C:/temp/Job-9.odb,Step-1,Increment      1: Step Time =    1.000,"P-9-1",          1599,       129.805,       153.438,            0.,NA,NA,"",   1.13573E+06,   1.12005E+06,   1.12005E+06
C:/temp/Job-9.odb,Step-1,Increment      1: Step Time =    1.000,"P-9-1",          1600,       55.2927,       149.402,            0.,NA,NA,"",   1.11015E+06,   1.10519E+06,   1.10519E+06
C:/temp/Job-9.odb,Step-1,Increment      1: Step Time =    1.000,"P-9-1",          1601,       49.5547,       146.024,            0.,NA,NA,"",   1.07692E+06,   1.08053E+06,   1.08053E+06
C:/temp/Job-9.odb,Step-1,Increment      1: Step Time =    1.000,"P-9-1",          1602,       143.343,       51.1437,            0.,NA,NA,"",   1.13834E+06,   1.10401E+06,   1.10401E+06
C:/temp/Job-9.odb,Step-1,Increment      1: Step Time =    1.000,"P-9-1",          1603,       47.7089,       136.620,            0.,NA,NA,"",   1.02407E+06,   1.03497E+06,   1.03497E+06
C:/temp/Job-9.odb,Step-1,Increment      1: Step Time =    1.000,"P-9-1",          1604,       62.0352,       46.9366,            0.,NA,NA,"",   1.13130E+06,   1.12279E+06,   1.12279E+06
C:/temp/Job-9.odb,Step-1,Increment      1: Step Time =    1.000,"P-9-1",          1605,       72.6825,       46.6478,            0.,NA,NA,"",   1.13815E+06,   1.13694E+06,   1.13694E+06
C:/temp/Job-9.odb,Step-1,Increment      1: Step Time =    1.000,"P-9-1",          1606,       46.5723,       127.493,            0.,NA,NA,"",   942.092E+03,   966.203E+03,   966.203E+03
C:/temp/Job-9.odb,Step-1,Increment      1: Step Time =    1.000,"P-9-1",          1607,       43.1784,       128.684,            0.,NA,NA,"",   930.221E+03,   962.663E+03,   962.663E+03
C:/temp/Job-9.odb,Step-1,Increment      1: Step Time =    1.000,"P-9-1",          1608,       67.9022,       44.5880,            0.,NA,NA,"",   1.13200E+06,   1.12665E+06,   1.12665E+06
C:/temp/Job-9.odb,Step-1,Increment      1: Step Time =    1.000,"P-9-1",          1609,       83.3971,       63.8343,            0.,NA,NA,"",   1.24098E+06,   1.25710E+06,   1.25710E+06
C:/temp/Job-9.odb,Step-1,Increment      1: Step Time =    1.000,"P-9-1",          1610,       82.8820,       43.7195,            0.,NA,NA,"",   1.09233E+06,   1.11393E+06,   1.11393E+06
C:/temp/Job-9.odb,Step-1,Increment      1: Step Time =    1.000,"P-9-1",          1611,       154.987,       86.2237,            0.,NA,NA,"",   914.638E+03,   913.278E+03,   913.278E+03
C:/temp/Job-9.odb,Step-1,Increment      1: Step Time =    1.000,"P-9-1",          1612,       137.191,       151.597,            0.,NA,NA,"",   1.14058E+06,   1.11304E+06,   1.11304E+06
C:/temp/Job-9.odb,Step-1,Increment      1: Step Time =    1.000,"P-9-1",          1613,       45.7123,       55.8446,            0.,NA,NA,"",   1.04636E+06,   1.06018E+06,   1.06018E+06
C:/temp/Job-9.odb,Step-1,Increment      1: Step Time =    1.000,"P-9-1",          1614,       44.6555,       60.9446,            0.,NA,NA,"",   1.01713E+06,   1.03577E+06,   1.03577E+06
C:/temp/Job-9.odb,Step-1,Increment      1: Step Time =    1.000,"P-9-1",          1615,       148.245,       73.1555,            0.,NA,NA,"",   1.07650E+06,   1.03446E+06,   1.03446E+06
C:/temp/Job-9.odb,Step-1,Increment      1: Step Time =    1.000,"P-9-1",          1616,       155.764,       75.5665,            0.,NA,NA,"",   1.01460E+06,   994.976E+03,   994.976E+03
C:/temp/Job-9.odb,Step-1,Increment      1: Step Time =    1.000,"P-9-1",          1617,       49.5252,       121.581,            0.,NA,NA,"",   899.052E+03,   922.379E+03,   922.379E+03
C:/temp/Job-9.odb,Step-1,Increment      1: Step Time =    1.000,"P-9-1",          1618,       44.3726,       81.7055,            0.,NA,NA,"",   836.230E+03,   880.200E+03,   880.200E+03
C:/temp/Job-9.odb,Step-1,Increment      1: Step Time =    1.000,"P-9-1",          1619,       78.4766,       42.5341,            0.,NA,NA,"",   1.10353E+06,   1.11544E+06,   1.11544E+06
C:/temp/Job-9.odb,Step-1,Increment      1: Step Time =    1.000,"P-9-1",          1620,       44.5798,       123.406,            0.,NA,NA,"",   891.848E+03,   926.779E+03,   926.779E+03
C:/temp/Job-9.odb,Step-1,Increment      1: Step Time =    1.000,"P-9-1",          1621,       47.7018,       117.104,            0.,NA,NA,"",   834.831E+03,   871.365E+03,   871.365E+03
C:/temp/Job-9.odb,Step-1,Increment      1: Step Time =    1.000,"P-9-1",          1622,       154.434,       82.5413,            0.,NA,NA,"",   953.113E+03,   943.082E+03,   943.082E+03
C:/temp/Job-9.odb,Step-1,Increment      1: Step Time =    1.000,"P-9-1",          1623,       145.032,       71.1441,            0.,NA,NA,"",   1.11451E+06,   1.06194E+06,   1.06194E+06
C:/temp/Job-9.odb,Step-1,Increment      1: Step Time =    1.000,"P-9-1",          1624,       141.819,       69.0530,            0.,NA,NA,"",   1.15236E+06,   1.09196E+06,   1.09196E+06
C:/temp/Job-9.odb,Step-1,Increment      1: Step Time =    1.000,"P-9-1",          1625,       146.063,       77.2421,            0.,NA,NA,"",   1.05015E+06,   1.00576E+06,   1.00576E+06
C:/temp/Job-9.odb,Step-1,Increment      1: Step Time =    1.000,"P-9-1",          1626,       41.4624,       108.898,            0.,NA,NA,"",   747.836E+03,   810.393E+03,   810.393E+03
C:/temp/Job-9.odb,Step-1,Increment      1: Step Time =    1.000,"P-9-1",          1627,       100.636,       146.098,            0.,NA,NA,"",   1.07107E+06,   1.14080E+06,   1.14080E+06
C:/temp/Job-9.odb,Step-1,Increment      1: Step Time =    1.000,"P-9-1",          1628,       131.345,       52.1380,            0.,NA,NA,"",   1.17133E+06,   1.14261E+06,   1.14261E+06
C:/temp/Job-9.odb,Step-1,Increment      1: Step Time =    1.000,"P-9-1",          1629,       133.268,       72.6646,            0.,NA,NA,"",   1.22287E+06,   1.13455E+06,   1.13455E+06
C:/temp/Job-9.odb,Step-1,Increment      1: Step Time =    1.000,"P-9-1",          1630,       53.7223,       145.080,            0.,NA,NA,"",   1.09805E+06,   1.09382E+06,   1.09382E+06
C:/temp/Job-9.odb,Step-1,Increment      1: Step Time =    1.000,"P-9-1",          1631,       74.5848,       68.4506,            0.,NA,NA,"",   1.26166E+06,   1.21736E+06,   1.21736E+06
C:/temp/Job-9.odb,Step-1,Increment      1: Step Time =    1.000,"P-9-1",          1632,       25.0806,       9.77174,            0.,NA,NA,"",   1.12708E+06,   1.13467E+06,   1.13467E+06
C:/temp/Job-9.odb,Step-1,Increment      1: Step Time =    1.000,"P-9-1",          1633,       9.94811,       174.170,            0.,NA,NA,"",   1.01935E+06,   1.10269E+06,   1.10269E+06
C:/temp/Job-9.odb,Step-1,Increment      1: Step Time =    1.000,"P-9-1",          1634,       191.579,       29.6703,            0.,NA,NA,"",   999.878E+03,   1.00255E+06,   1.00255E+06
C:/temp/Job-9.odb,Step-1,Increment      1: Step Time =    1.000,"P-9-1",          1635,       170.219,       191.785,            0.,NA,NA,"",   1.00182E+06,   1.00135E+06,   1.00135E+06
C:/temp/Job-9.odb,Step-1,Increment      1: Step Time =    1.000,"P-9-1",          1636,       112.069,       50.8343,            0.,NA,NA,"",   1.09841E+06,   1.13696E+06,   1.13696E+06
C:/temp/Job-9.odb,Step-1,Increment      1: Step Time =    1.000,"P-9-1",          1637,       66.0836,       93.3428,            0.,NA,NA,"",   597.489E+03,   602.720E+03,   602.720E+03
C:/temp/Job-9.odb,Step-1,Increment      1: Step Time =    1.000,"P-9-1",          1638,       120.359,       44.9616,            0.,NA,NA,"",   1.10556E+06,   1.11451E+06,   1.11451E+06
C:/temp/Job-9.odb,Step-1,Increment      1: Step Time =    1.000,"P-9-1",          1639,       100.903,       75.1730,            0.,NA,NA,"",   1.46447E+06,   1.61384E+06,   1.61384E+06
C:/temp/Job-9.odb,Step-1,Increment      1: Step Time =    1.000,"P-9-1",          1640,       189.007,       55.9600,            0.,NA,NA,"",   987.345E+03,   1.00542E+06,   1.00542E+06
C:/temp/Job-9.odb,Step-1,Increment      1: Step Time =    1.000,"P-9-1",          1641,       58.1751,       12.8347,            0.,NA,NA,"",   1.03492E+06,   1.03411E+06,   1.03411E+06
C:/temp/Job-9.odb,Step-1,Increment      1: Step Time =    1.000,"P-9-1",          1642,       145.089,       188.992,            0.,NA,NA,"",   997.481E+03,   995.413E+03,   995.413E+03
C:/temp/Job-9.odb,Step-1,Increment      1: Step Time =    1.000,"P-9-1",          1643,       12.7032,       141.903,            0.,NA,NA,"",   865.321E+03,   953.168E+03,   953.168E+03
C:/temp/Job-9.odb,Step-1,Increment      1: Step Time =    1.000,"P-9-1",          1644,       154.734,       58.6937,            0.,NA,NA,"",   1.09319E+06,   1.06501E+06,   1.06501E+06
C:/temp/Job-9.odb,Step-1,Increment      1: Step Time =    1.000,"P-9-1",          1645,       48.6207,       141.304,            0.,NA,NA,"",   1.05467E+06,   1.06136E+06,   1.06136E+06
C:/temp/Job-9.odb,Step-1,Increment      1: Step Time =    1.000,"P-9-1",          1646,       47.7413,       10.1350,            0.,NA,NA,"",   1.04872E+06,   1.04861E+06,   1.04861E+06
C:/temp/Job-9.odb,Step-1,Increment      1: Step Time =    1.000,"P-9-1",          1647,       189.906,       48.1390,            0.,NA,NA,"",   993.564E+03,   1.00555E+06,   1.00555E+06
C:/temp/Job-9.odb,Step-1,Increment      1: Step Time =    1.000,"P-9-1",          1648,       152.599,       189.950,            0.,NA,NA,"",   1.00080E+06,   998.964E+03,   998.964E+03
C:/temp/Job-9.odb,Step-1,Increment      1: Step Time =    1.000,"P-9-1",          1649,       9.65778,       152.030,            0.,NA,NA,"",   895.634E+03,   987.618E+03,   987.618E+03
C:/temp/Job-9.odb,Step-1,Increment      1: Step Time =    1.000,"P-9-1",          1650,       4.94359,       4.93001,            0.,NA,NA,"",   1.38911E+06,   1.44238E+06,   1.44238E+06
C:/temp/Job-9.odb,Step-1,Increment      1: Step Time =    1.000,"P-9-1",          1651,       92.2086,       120.044,            0.,NA,NA,"",   1.77688E+06,   1.85192E+06,   1.85192E+06
C:/temp/Job-9.odb,Step-1,Increment      1: Step Time =    1.000,"P-9-1",          1652,       106.635,       120.942,            0.,NA,NA,"",   1.78434E+06,   1.87978E+06,   1.87978E+06
C:/temp/Job-9.odb,Step-1,Increment      1: Step Time =    1.000,"P-9-1",          1653,       115.874,       114.993,            0.,NA,NA,"",   1.19872E+06,   1.10619E+06,   1.10619E+06
C:/temp/Job-9.odb,Step-1,Increment      1: Step Time =    1.000,"P-9-1",          1654,       121.635,       102.067,            0.,NA,NA,"",   431.213E+03,  -197.863E+03,  -197.863E+03
C:/temp/Job-9.odb,Step-1,Increment      1: Step Time =    1.000,"P-9-1",          1655,       98.3331,       79.0062,            0.,NA,NA,"",   1.98242E+06,   2.10376E+06,   2.10376E+06
C:/temp/Job-9.odb,Step-1,Increment      1: Step Time =    1.000,"P-9-1",          1656,       77.2349,       101.434,            0.,NA,NA,"",   402.882E+03,  -93.2053E+03,  -93.2053E+03
C:/temp/Job-9.odb,Step-1,Increment      1: Step Time =    1.000,"P-9-1",          1657,       75.2620,       92.0212,            0.,NA,NA,"",   671.335E+03,   384.898E+03,   384.898E+03
C:/temp/Job-9.odb,Step-1,Increment      1: Step Time =    1.000,"P-9-1",          1658,       43.5080,       9.75511,            0.,NA,NA,"",   1.05770E+06,   1.05834E+06,   1.05834E+06
C:/temp/Job-9.odb,Step-1,Increment      1: Step Time =    1.000,"P-9-1",          1659,       10.2700,       25.5305,            0.,NA,NA,"",   1.02493E+06,   1.10683E+06,   1.10683E+06
C:/temp/Job-9.odb,Step-1,Increment      1: Step Time =    1.000,"P-9-1",          1660,       50.9520,       190.474,            0.,NA,NA,"",   1.03937E+06,   1.03908E+06,   1.03908E+06
C:/temp/Job-9.odb,Step-1,Increment      1: Step Time =    1.000,"P-9-1",          1661,       148.559,       8.45336,            0.,NA,NA,"",   995.140E+03,   993.819E+03,   993.819E+03
C:/temp/Job-9.odb,Step-1,Increment      1: Step Time =    1.000,"P-9-1",          1662,       191.548,       148.598,            0.,NA,NA,"",   988.183E+03,   1.00364E+06,   1.00364E+06
C:/temp/Job-9.odb,Step-1,Increment      1: Step Time =    1.000,"P-9-1",          1663,       191.221,       20.1846,            0.,NA,NA,"",   1.00067E+06,   1.00147E+06,   1.00147E+06
C:/temp/Job-9.odb,Step-1,Increment      1: Step Time =    1.000,"P-9-1",          1664,       179.578,       191.145,            0.,NA,NA,"",   1.00115E+06,   1.00114E+06,   1.00114E+06
C:/temp/Job-9.odb,Step-1,Increment      1: Step Time =    1.000,"P-9-1",          1665,       129.855,       91.9936,            0.,NA,NA,"",   719.843E+03,   635.920E+03,   635.920E+03
C:/temp/Job-9.odb,Step-1,Increment      1: Step Time =    1.000,"P-9-1",          1666,       70.6402,       92.8227,            0.,NA,NA,"",   613.122E+03,   559.984E+03,   559.984E+03
C:/temp/Job-9.odb,Step-1,Increment      1: Step Time =    1.000,"P-9-1",          1667,       121.331,       117.010,            0.,NA,NA,"",   1.35153E+06,   1.19675E+06,   1.19675E+06
C:/temp/Job-9.odb,Step-1,Increment      1: Step Time =    1.000,"P-9-1",          1668,       79.4029,       84.8762,            0.,NA,NA,"",   1.26428E+06,   1.10178E+06,   1.10178E+06
C:/temp/Job-9.odb,Step-1,Increment      1: Step Time =    1.000,"P-9-1",          1669,       118.623,       82.6242,            0.,NA,NA,"",   1.39670E+06,   1.24155E+06,   1.24155E+06
C:/temp/Job-9.odb,Step-1,Increment      1: Step Time =    1.000,"P-9-1",          1670,       9.11873,       156.150,            0.,NA,NA,"",   911.005E+03,   1.00398E+06,   1.00398E+06
C:/temp/Job-9.odb,Step-1,Increment      1: Step Time =    1.000,"P-9-1",          1671,       38.9880,       183.639,            0.,NA,NA,"",   1.08631E+06,   1.09051E+06,   1.09051E+06
C:/temp/Job-9.odb,Step-1,Increment      1: Step Time =    1.000,"P-9-1",          1672,       57.2017,       20.0170,            0.,NA,NA,"",   1.06224E+06,   1.06081E+06,   1.06081E+06
C:/temp/Job-9.odb,Step-1,Increment      1: Step Time =    1.000,"P-9-1",          1673,       67.6269,       14.5309,            0.,NA,NA,"",   1.02114E+06,   1.02102E+06,   1.02102E+06
C:/temp/Job-9.odb,Step-1,Increment      1: Step Time =    1.000,"P-9-1",          1674,       65.0430,       89.1098,            0.,NA,NA,"",   761.706E+03,   741.792E+03,   741.792E+03
C:/temp/Job-9.odb,Step-1,Increment      1: Step Time =    1.000,"P-9-1",          1675,       99.9002,       134.378,            0.,NA,NA,"",   1.15818E+06,   1.27089E+06,   1.27089E+06
C:/temp/Job-9.odb,Step-1,Increment      1: Step Time =    1.000,"P-9-1",          1676,       96.4582,       136.856,            0.,NA,NA,"",   1.13638E+06,   1.23805E+06,   1.23805E+06
C:/temp/Job-9.odb,Step-1,Increment      1: Step Time =    1.000,"P-9-1",          1677,       181.057,       155.250,            0.,NA,NA,"",   1.01078E+06,   1.01475E+06,   1.01475E+06
C:/temp/Job-9.odb,Step-1,Increment      1: Step Time =    1.000,"P-9-1",          1678,       155.022,       18.9376,            0.,NA,NA,"",   1.02045E+06,   1.01561E+06,   1.01561E+06
C:/temp/Job-9.odb,Step-1,Increment      1: Step Time =    1.000,"P-9-1",          1679,       14.9820,       30.8216,            0.,NA,NA,"",   1.01366E+06,   1.08480E+06,   1.08480E+06
C:/temp/Job-9.odb,Step-1,Increment      1: Step Time =    1.000,"P-9-1",          1680,       15.0138,       35.4407,            0.,NA,NA,"",   985.904E+03,   1.06078E+06,   1.06078E+06
C:/temp/Job-9.odb,Step-1,Increment      1: Step Time =    1.000,"P-9-1",          1681,       75.1901,       81.9881,            0.,NA,NA,"",   1.21127E+06,   1.09647E+06,   1.09647E+06
C:/temp/Job-9.odb,Step-1,Increment      1: Step Time =    1.000,"P-9-1",          1682,       131.129,       104.963,            0.,NA,NA,"",   591.199E+03,   554.255E+03,   554.255E+03
C:/temp/Job-9.odb,Step-1,Increment      1: Step Time =    1.000,"P-9-1",          1683,       51.6731,       18.2109,            0.,NA,NA,"",   1.06727E+06,   1.06656E+06,   1.06656E+06
C:/temp/Job-9.odb,Step-1,Increment      1: Step Time =    1.000,"P-9-1",          1684,       101.478,       71.2066,            0.,NA,NA,"",   1.28874E+06,   1.41828E+06,   1.41828E+06
C:/temp/Job-9.odb,Step-1,Increment      1: Step Time =    1.000,"P-9-1",          1685,       84.7186,       59.8750,            0.,NA,NA,"",   1.19391E+06,   1.22490E+06,   1.22490E+06
C:/temp/Job-9.odb,Step-1,Increment      1: Step Time =    1.000,"P-9-1",          1686,       41.8736,       182.318,            0.,NA,NA,"",   1.08211E+06,   1.08533E+06,   1.08533E+06
C:/temp/Job-9.odb,Step-1,Increment      1: Step Time =    1.000,"P-9-1",          1687,       16.6520,       19.8063,            0.,NA,NA,"",   1.10316E+06,   1.15272E+06,   1.15272E+06
C:/temp/Job-9.odb,Step-1,Increment      1: Step Time =    1.000,"P-9-1",          1688,       93.1206,       140.155,            0.,NA,NA,"",   1.12881E+06,   1.20659E+06,   1.20659E+06
C:/temp/Job-9.odb,Step-1,Increment      1: Step Time =    1.000,"P-9-1",          1689,       183.002,       21.6317,            0.,NA,NA,"",   1.00474E+06,   1.00527E+06,   1.00527E+06
C:/temp/Job-9.odb,Step-1,Increment      1: Step Time =    1.000,"P-9-1",          1690,       177.651,       182.570,            0.,NA,NA,"",   1.00610E+06,   1.00565E+06,   1.00565E+06
C:/temp/Job-9.odb,Step-1,Increment      1: Step Time =    1.000,"P-9-1",          1691,       46.3992,       18.1726,            0.,NA,NA,"",   1.07585E+06,   1.07695E+06,   1.07695E+06
C:/temp/Job-9.odb,Step-1,Increment      1: Step Time =    1.000,"P-9-1",          1692,       102.582,       65.2396,            0.,NA,NA,"",   1.16250E+06,   1.26509E+06,   1.26509E+06
C:/temp/Job-9.odb,Step-1,Increment      1: Step Time =    1.000,"P-9-1",          1693,       42.3667,       178.627,            0.,NA,NA,"",   1.08560E+06,   1.08989E+06,   1.08989E+06
C:/temp/Job-9.odb,Step-1,Increment      1: Step Time =    1.000,"P-9-1",          1694,       100.602,       137.080,            0.,NA,NA,"",   1.12309E+06,   1.22386E+06,   1.22386E+06
C:/temp/Job-9.odb,Step-1,Increment      1: Step Time =    1.000,"P-9-1",          1695,       98.6116,       139.687,            0.,NA,NA,"",   1.09938E+06,   1.19224E+06,   1.19224E+06
C:/temp/Job-9.odb,Step-1,Increment      1: Step Time =    1.000,"P-9-1",          1696,       140.478,       95.4268,            0.,NA,NA,"",   681.143E+03,   685.799E+03,   685.799E+03
C:/temp/Job-9.odb,Step-1,Increment      1: Step Time =    1.000,"P-9-1",          1697,       19.7650,       143.182,            0.,NA,NA,"",   901.053E+03,   975.954E+03,   975.954E+03
C:/temp/Job-9.odb,Step-1,Increment      1: Step Time =    1.000,"P-9-1",          1698,       14.4837,       132.479,            0.,NA,NA,"",   831.168E+03,   917.921E+03,   917.921E+03
C:/temp/Job-9.odb,Step-1,Increment      1: Step Time =    1.000,"P-9-1",          1699,       79.4063,       60.6734,            0.,NA,NA,"",   1.22524E+06,   1.22193E+06,   1.22193E+06
C:/temp/Job-9.odb,Step-1,Increment      1: Step Time =    1.000,"P-9-1",          1700,       61.6888,       93.8389,            0.,NA,NA,"",   620.456E+03,   648.916E+03,   648.916E+03
C:/temp/Job-9.odb,Step-1,Increment      1: Step Time =    1.000,"P-9-1",          1701,       69.2783,       124.250,            0.,NA,NA,"",   1.17737E+06,   1.10824E+06,   1.10824E+06
C:/temp/Job-9.odb,Step-1,Increment      1: Step Time =    1.000,"P-9-1",          1702,       66.0065,       122.464,            0.,NA,NA,"",   1.10186E+06,   1.04273E+06,   1.04273E+06
C:/temp/Job-9.odb,Step-1,Increment      1: Step Time =    1.000,"P-9-1",          1703,       138.423,       85.6269,            0.,NA,NA,"",   952.904E+03,   894.579E+03,   894.579E+03
C:/temp/Job-9.odb,Step-1,Increment      1: Step Time =    1.000,"P-9-1",          1704,       20.1812,       40.1129,            0.,NA,NA,"",   987.006E+03,   1.05126E+06,   1.05126E+06
C:/temp/Job-9.odb,Step-1,Increment      1: Step Time =    1.000,"P-9-1",          1705,       56.4618,       181.264,            0.,NA,NA,"",   1.05985E+06,   1.05842E+06,   1.05842E+06
C:/temp/Job-9.odb,Step-1,Increment      1: Step Time =    1.000,"P-9-1",          1706,       45.6260,       179.634,            0.,NA,NA,"",   1.07967E+06,   1.08197E+06,   1.08197E+06
C:/temp/Job-9.odb,Step-1,Increment      1: Step Time =    1.000,"P-9-1",          1707,       156.311,       22.9810,            0.,NA,NA,"",   1.02969E+06,   1.02313E+06,   1.02313E+06
C:/temp/Job-9.odb,Step-1,Increment      1: Step Time =    1.000,"P-9-1",          1708,       92.3166,       179.917,            0.,NA,NA,"",   994.010E+03,   1.00437E+06,   1.00437E+06
C:/temp/Job-9.odb,Step-1,Increment      1: Step Time =    1.000,"P-9-1",          1709,       96.4902,       180.748,            0.,NA,NA,"",   986.429E+03,   996.975E+03,   996.975E+03
C:/temp/Job-9.odb,Step-1,Increment      1: Step Time =    1.000,"P-9-1",          1710,       127.342,       180.810,            0.,NA,NA,"",   1.00783E+06,   1.00780E+06,   1.00780E+06
C:/temp/Job-9.odb,Step-1,Increment      1: Step Time =    1.000,"P-9-1",          1711,       160.401,       181.682,            0.,NA,NA,"",   1.01659E+06,   1.01278E+06,   1.01278E+06
C:/temp/Job-9.odb,Step-1,Increment      1: Step Time =    1.000,"P-9-1",          1712,       151.933,       25.4500,            0.,NA,NA,"",   1.03967E+06,   1.03102E+06,   1.03102E+06
C:/temp/Job-9.odb,Step-1,Increment      1: Step Time =    1.000,"P-9-1",          1713,       181.090,       42.0266,            0.,NA,NA,"",   1.01185E+06,   1.01476E+06,   1.01476E+06
C:/temp/Job-9.odb,Step-1,Increment      1: Step Time =    1.000,"P-9-1",          1714,       176.989,       156.715,            0.,NA,NA,"",   1.02029E+06,   1.02035E+06,   1.02035E+06
C:/temp/Job-9.odb,Step-1,Increment      1: Step Time =    1.000,"P-9-1",          1715,       174.550,       152.473,            0.,NA,NA,"",   1.02702E+06,   1.02534E+06,   1.02534E+06
C:/temp/Job-9.odb,Step-1,Increment      1: Step Time =    1.000,"P-9-1",          1716,       134.924,       123.877,            0.,NA,NA,"",   1.18568E+06,   1.09253E+06,   1.09253E+06
C:/temp/Job-9.odb,Step-1,Increment      1: Step Time =    1.000,"P-9-1",          1717,       17.8894,       148.712,            0.,NA,NA,"",   920.089E+03,   996.541E+03,   996.541E+03
C:/temp/Job-9.odb,Step-1,Increment      1: Step Time =    1.000,"P-9-1",          1718,       17.8850,       180.179,            0.,NA,NA,"",   1.11425E+06,   1.15761E+06,   1.15761E+06
C:/temp/Job-9.odb,Step-1,Increment      1: Step Time =    1.000,"P-9-1",          1719,       149.673,       14.7951,            0.,NA,NA,"",   1.01041E+06,   1.00692E+06,   1.00692E+06
C:/temp/Job-9.odb,Step-1,Increment      1: Step Time =    1.000,"P-9-1",          1720,       147.373,       14.3582,            0.,NA,NA,"",   1.00985E+06,   1.00643E+06,   1.00643E+06
C:/temp/Job-9.odb,Step-1,Increment      1: Step Time =    1.000,"P-9-1",          1721,       185.205,       149.783,            0.,NA,NA,"",   1.00017E+06,   1.01006E+06,   1.01006E+06
C:/temp/Job-9.odb,Step-1,Increment      1: Step Time =    1.000,"P-9-1",          1722,       185.632,       147.475,            0.,NA,NA,"",   998.449E+03,   1.00973E+06,   1.00973E+06
C:/temp/Job-9.odb,Step-1,Increment      1: Step Time =    1.000,"P-9-1",          1723,       173.442,       183.617,            0.,NA,NA,"",   1.00729E+06,   1.00630E+06,   1.00630E+06
C:/temp/Job-9.odb,Step-1,Increment      1: Step Time =    1.000,"P-9-1",          1724,       183.852,       25.7445,            0.,NA,NA,"",   1.00502E+06,   1.00616E+06,   1.00616E+06
C:/temp/Job-9.odb,Step-1,Increment      1: Step Time =    1.000,"P-9-1",          1725,       22.0402,       18.8392,            0.,NA,NA,"",   1.11243E+06,   1.14161E+06,   1.14161E+06
C:/temp/Job-9.odb,Step-1,Increment      1: Step Time =    1.000,"P-9-1",          1726,       130.472,       134.870,            0.,NA,NA,"",   1.25717E+06,   1.19409E+06,   1.19409E+06
C:/temp/Job-9.odb,Step-1,Increment      1: Step Time =    1.000,"P-9-1",          1727,       128.689,       73.0767,            0.,NA,NA,"",   1.28614E+06,   1.18650E+06,   1.18650E+06
C:/temp/Job-9.odb,Step-1,Increment      1: Step Time =    1.000,"P-9-1",          1728,       20.5583,       22.3686,            0.,NA,NA,"",   1.08747E+06,   1.12892E+06,   1.12892E+06
C:/temp/Job-9.odb,Step-1,Increment      1: Step Time =    1.000,"P-9-1",          1729,       168.791,       19.1168,            0.,NA,NA,"",   1.01316E+06,   1.01088E+06,   1.01088E+06
C:/temp/Job-9.odb,Step-1,Increment      1: Step Time =    1.000,"P-9-1",          1730,       181.125,       168.838,            0.,NA,NA,"",   1.00971E+06,   1.01054E+06,   1.01054E+06
C:/temp/Job-9.odb,Step-1,Increment      1: Step Time =    1.000,"P-9-1",          1731,       103.906,       141.291,            0.,NA,NA,"",   1.10464E+06,   1.18273E+06,   1.18273E+06
C:/temp/Job-9.odb,Step-1,Increment      1: Step Time =    1.000,"P-9-1",          1732,       16.9633,       153.811,            0.,NA,NA,"",   939.101E+03,   1.01546E+06,   1.01546E+06
C:/temp/Job-9.odb,Step-1,Increment      1: Step Time =    1.000,"P-9-1",          1733,       66.8625,       127.938,            0.,NA,NA,"",   1.17506E+06,   1.12351E+06,   1.12351E+06
C:/temp/Job-9.odb,Step-1,Increment      1: Step Time =    1.000,"P-9-1",          1734,       82.6464,       137.354,            0.,NA,NA,"",   1.23628E+06,   1.24629E+06,   1.24629E+06
C:/temp/Job-9.odb,Step-1,Increment      1: Step Time =    1.000,"P-9-1",          1735,       72.0255,       18.4606,            0.,NA,NA,"",   1.02744E+06,   1.02848E+06,   1.02848E+06
C:/temp/Job-9.odb,Step-1,Increment      1: Step Time =    1.000,"P-9-1",          1736,       37.7665,       19.2112,            0.,NA,NA,"",   1.09065E+06,   1.09800E+06,   1.09800E+06
C:/temp/Job-9.odb,Step-1,Increment      1: Step Time =    1.000,"P-9-1",          1737,       29.7633,       18.8736,            0.,NA,NA,"",   1.10437E+06,   1.12034E+06,   1.12034E+06
C:/temp/Job-9.odb,Step-1,Increment      1: Step Time =    1.000,"P-9-1",          1738,       139.461,       106.689,            0.,NA,NA,"",   723.851E+03,   717.528E+03,   717.528E+03
C:/temp/Job-9.odb,Step-1,Increment      1: Step Time =    1.000,"P-9-1",          1739,       55.4712,       31.4071,            0.,NA,NA,"",   1.09239E+06,   1.09074E+06,   1.09074E+06
C:/temp/Job-9.odb,Step-1,Increment      1: Step Time =    1.000,"P-9-1",          1740,       145.320,       87.4044,            0.,NA,NA,"",   887.198E+03,   867.625E+03,   867.625E+03
C:/temp/Job-9.odb,Step-1,Increment      1: Step Time =    1.000,"P-9-1",          1741,       73.3719,       61.9259,            0.,NA,NA,"",   1.22136E+06,   1.19690E+06,   1.19690E+06
C:/temp/Job-9.odb,Step-1,Increment      1: Step Time =    1.000,"P-9-1",          1742,       76.7458,       53.6502,            0.,NA,NA,"",   1.17267E+06,   1.17322E+06,   1.17322E+06
C:/temp/Job-9.odb,Step-1,Increment      1: Step Time =    1.000,"P-9-1",          1743,       86.5854,       49.3610,            0.,NA,NA,"",   1.10263E+06,   1.13827E+06,   1.13827E+06
C:/temp/Job-9.odb,Step-1,Increment      1: Step Time =    1.000,"P-9-1",          1744,       55.3557,       86.8652,            0.,NA,NA,"",   790.453E+03,   814.142E+03,   814.142E+03
C:/temp/Job-9.odb,Step-1,Increment      1: Step Time =    1.000,"P-9-1",          1745,       53.9599,       82.8869,            0.,NA,NA,"",   859.363E+03,   876.006E+03,   876.006E+03
C:/temp/Job-9.odb,Step-1,Increment      1: Step Time =    1.000,"P-9-1",          1746,       56.4583,       77.5323,            0.,NA,NA,"",   970.055E+03,   963.194E+03,   963.194E+03
C:/temp/Job-9.odb,Step-1,Increment      1: Step Time =    1.000,"P-9-1",          1747,       56.4005,       130.433,            0.,NA,NA,"",   1.06410E+06,   1.04901E+06,   1.04901E+06
C:/temp/Job-9.odb,Step-1,Increment      1: Step Time =    1.000,"P-9-1",          1748,       51.8111,       131.057,            0.,NA,NA,"",   1.01903E+06,   1.02054E+06,   1.02054E+06
C:/temp/Job-9.odb,Step-1,Increment      1: Step Time =    1.000,"P-9-1",          1749,       77.7473,       176.495,            0.,NA,NA,"",   1.03434E+06,   1.03960E+06,   1.03960E+06
C:/temp/Job-9.odb,Step-1,Increment      1: Step Time =    1.000,"P-9-1",          1750,       52.5302,       176.443,            0.,NA,NA,"",   1.07802E+06,   1.07740E+06,   1.07740E+06
C:/temp/Job-9.odb,Step-1,Increment      1: Step Time =    1.000,"P-9-1",          1751,       97.1368,       176.606,            0.,NA,NA,"",   998.776E+03,   1.01388E+06,   1.01388E+06
C:/temp/Job-9.odb,Step-1,Increment      1: Step Time =    1.000,"P-9-1",          1752,       100.766,       176.512,            0.,NA,NA,"",   997.096E+03,   1.01199E+06,   1.01199E+06
C:/temp/Job-9.odb,Step-1,Increment      1: Step Time =    1.000,"P-9-1",          1753,       131.787,       175.956,            0.,NA,NA,"",   1.03292E+06,   1.02976E+06,   1.02976E+06
C:/temp/Job-9.odb,Step-1,Increment      1: Step Time =    1.000,"P-9-1",          1754,       136.019,       175.830,            0.,NA,NA,"",   1.03684E+06,   1.03127E+06,   1.03127E+06
C:/temp/Job-9.odb,Step-1,Increment      1: Step Time =    1.000,"P-9-1",          1755,       172.845,       158.402,            0.,NA,NA,"",   1.02967E+06,   1.02607E+06,   1.02607E+06
C:/temp/Job-9.odb,Step-1,Increment      1: Step Time =    1.000,"P-9-1",          1756,       157.787,       27.0414,            0.,NA,NA,"",   1.03793E+06,   1.02973E+06,   1.02973E+06
C:/temp/Job-9.odb,Step-1,Increment      1: Step Time =    1.000,"P-9-1",          1757,       174.361,       145.874,            0.,NA,NA,"",   1.02394E+06,   1.02406E+06,   1.02406E+06
C:/temp/Job-9.odb,Step-1,Increment      1: Step Time =    1.000,"P-9-1",          1758,       183.257,       147.434,            0.,NA,NA,"",   1.00309E+06,   1.01233E+06,   1.01233E+06
C:/temp/Job-9.odb,Step-1,Increment      1: Step Time =    1.000,"P-9-1",          1759,       145.298,       25.7121,            0.,NA,NA,"",   1.04382E+06,   1.03495E+06,   1.03495E+06
C:/temp/Job-9.odb,Step-1,Increment      1: Step Time =    1.000,"P-9-1",          1760,       147.293,       16.7345,            0.,NA,NA,"",   1.01530E+06,   1.01098E+06,   1.01098E+06
C:/temp/Job-9.odb,Step-1,Increment      1: Step Time =    1.000,"P-9-1",          1761,       140.384,       126.707,            0.,NA,NA,"",   1.14205E+06,   1.07410E+06,   1.07410E+06
C:/temp/Job-9.odb,Step-1,Increment      1: Step Time =    1.000,"P-9-1",          1762,       105.095,       143.917,            0.,NA,NA,"",   1.08783E+06,   1.15810E+06,   1.15810E+06
C:/temp/Job-9.odb,Step-1,Increment      1: Step Time =    1.000,"P-9-1",          1763,       114.466,       54.5204,            0.,NA,NA,"",   1.13719E+06,   1.16895E+06,   1.16895E+06
C:/temp/Job-9.odb,Step-1,Increment      1: Step Time =    1.000,"P-9-1",          1764,       50.9590,       26.9945,            0.,NA,NA,"",   1.08597E+06,   1.08639E+06,   1.08639E+06
C:/temp/Job-9.odb,Step-1,Increment      1: Step Time =    1.000,"P-9-1",          1765,       97.5644,       151.133,            0.,NA,NA,"",   1.05632E+06,   1.11357E+06,   1.11357E+06
C:/temp/Job-9.odb,Step-1,Increment      1: Step Time =    1.000,"P-9-1",          1766,       119.325,       170.035,            0.,NA,NA,"",   1.03539E+06,   1.04358E+06,   1.04358E+06
C:/temp/Job-9.odb,Step-1,Increment      1: Step Time =    1.000,"P-9-1",          1767,       44.5683,       21.6524,            0.,NA,NA,"",   1.08340E+06,   1.08629E+06,   1.08629E+06
C:/temp/Job-9.odb,Step-1,Increment      1: Step Time =    1.000,"P-9-1",          1768,       176.725,       24.4585,            0.,NA,NA,"",   1.01123E+06,   1.01040E+06,   1.01040E+06
C:/temp/Job-9.odb,Step-1,Increment      1: Step Time =    1.000,"P-9-1",          1769,       88.6714,       172.111,            0.,NA,NA,"",   1.02334E+06,   1.03955E+06,   1.03955E+06
C:/temp/Job-9.odb,Step-1,Increment      1: Step Time =    1.000,"P-9-1",          1770,       19.2264,       58.0720,            0.,NA,NA,"",   894.569E+03,   970.515E+03,   970.515E+03
C:/temp/Job-9.odb,Step-1,Increment      1: Step Time =    1.000,"P-9-1",          1771,       143.711,       98.2163,            0.,NA,NA,"",   694.034E+03,   709.776E+03,   709.776E+03
C:/temp/Job-9.odb,Step-1,Increment      1: Step Time =    1.000,"P-9-1",          1772,       18.0654,       66.5845,            0.,NA,NA,"",   847.751E+03,   929.281E+03,   929.281E+03
C:/temp/Job-9.odb,Step-1,Increment      1: Step Time =    1.000,"P-9-1",          1773,       78.3872,       171.474,            0.,NA,NA,"",   1.05193E+06,   1.05974E+06,   1.05974E+06
C:/temp/Job-9.odb,Step-1,Increment      1: Step Time =    1.000,"P-9-1",          1774,       50.6428,       74.6479,            0.,NA,NA,"",   954.752E+03,   966.653E+03,   966.653E+03
C:/temp/Job-9.odb,Step-1,Increment      1: Step Time =    1.000,"P-9-1",          1775,       136.056,       137.430,            0.,NA,NA,"",   1.21018E+06,   1.15321E+06,   1.15321E+06
C:/temp/Job-9.odb,Step-1,Increment      1: Step Time =    1.000,"P-9-1",          1776,       18.5956,       128.321,            0.,NA,NA,"",   826.744E+03,   909.068E+03,   909.068E+03
C:/temp/Job-9.odb,Step-1,Increment      1: Step Time =    1.000,"P-9-1",          1777,       17.6471,       160.733,            0.,NA,NA,"",   977.072E+03,   1.04765E+06,   1.04765E+06
C:/temp/Job-9.odb,Step-1,Increment      1: Step Time =    1.000,"P-9-1",          1778,       19.7713,       175.389,            0.,NA,NA,"",   1.07651E+06,   1.12410E+06,   1.12410E+06
C:/temp/Job-9.odb,Step-1,Increment      1: Step Time =    1.000,"P-9-1",          1779,       30.7558,       145.238,            0.,NA,NA,"",   965.079E+03,   1.01451E+06,   1.01451E+06
C:/temp/Job-9.odb,Step-1,Increment      1: Step Time =    1.000,"P-9-1",          1780,       120.486,       173.654,            0.,NA,NA,"",   1.02382E+06,   1.02974E+06,   1.02974E+06
C:/temp/Job-9.odb,Step-1,Increment      1: Step Time =    1.000,"P-9-1",          1781,       131.981,       170.985,            0.,NA,NA,"",   1.05336E+06,   1.04817E+06,   1.04817E+06
C:/temp/Job-9.odb,Step-1,Increment      1: Step Time =    1.000,"P-9-1",          1782,       144.088,       170.032,            0.,NA,NA,"",   1.05880E+06,   1.04728E+06,   1.04728E+06
C:/temp/Job-9.odb,Step-1,Increment      1: Step Time =    1.000,"P-9-1",          1783,       170.319,       163.499,            0.,NA,NA,"",   1.03227E+06,   1.02700E+06,   1.02700E+06
C:/temp/Job-9.odb,Step-1,Increment      1: Step Time =    1.000,"P-9-1",          1784,       164.886,       154.050,            0.,NA,NA,"",   1.05546E+06,   1.04347E+06,   1.04347E+06
C:/temp/Job-9.odb,Step-1,Increment      1: Step Time =    1.000,"P-9-1",          1785,       172.543,       139.429,            0.,NA,NA,"",   1.02103E+06,   1.02140E+06,   1.02140E+06
C:/temp/Job-9.odb,Step-1,Increment      1: Step Time =    1.000,"P-9-1",          1786,       162.691,       29.4686,            0.,NA,NA,"",   1.03627E+06,   1.02880E+06,   1.02880E+06
C:/temp/Job-9.odb,Step-1,Increment      1: Step Time =    1.000,"P-9-1",          1787,       152.665,       35.7980,            0.,NA,NA,"",   1.06792E+06,   1.05269E+06,   1.05269E+06
C:/temp/Job-9.odb,Step-1,Increment      1: Step Time =    1.000,"P-9-1",          1788,       138.675,       27.6540,            0.,NA,NA,"",   1.05173E+06,   1.04328E+06,   1.04328E+06
C:/temp/Job-9.odb,Step-1,Increment      1: Step Time =    1.000,"P-9-1",          1789,       114.557,       167.406,            0.,NA,NA,"",   1.03441E+06,   1.05049E+06,   1.05049E+06
C:/temp/Job-9.odb,Step-1,Increment      1: Step Time =    1.000,"P-9-1",          1790,       40.0946,       24.1924,            0.,NA,NA,"",   1.08847E+06,   1.09630E+06,   1.09630E+06
C:/temp/Job-9.odb,Step-1,Increment      1: Step Time =    1.000,"P-9-1",          1791,       25.2079,       23.0339,            0.,NA,NA,"",   1.09303E+06,   1.12397E+06,   1.12397E+06
C:/temp/Job-9.odb,Step-1,Increment      1: Step Time =    1.000,"P-9-1",          1792,       55.3195,       36.2484,            0.,NA,NA,"",   1.10087E+06,   1.09884E+06,   1.09884E+06
C:/temp/Job-9.odb,Step-1,Increment      1: Step Time =    1.000,"P-9-1",          1793,       46.4235,       30.9663,            0.,NA,NA,"",   1.08886E+06,   1.09365E+06,   1.09365E+06
C:/temp/Job-9.odb,Step-1,Increment      1: Step Time =    1.000,"P-9-1",          1794,       164.416,       173.789,            0.,NA,NA,"",   1.02810E+06,   1.02249E+06,   1.02249E+06
C:/temp/Job-9.odb,Step-1,Increment      1: Step Time =    1.000,"P-9-1",          1795,       52.3503,       135.888,            0.,NA,NA,"",   1.06064E+06,   1.05741E+06,   1.05741E+06
C:/temp/Job-9.odb,Step-1,Increment      1: Step Time =    1.000,"P-9-1",          1796,       30.1088,       44.5296,            0.,NA,NA,"",   1.01088E+06,   1.05431E+06,   1.05431E+06
C:/temp/Job-9.odb,Step-1,Increment      1: Step Time =    1.000,"P-9-1",          1797,       41.5500,       113.230,            0.,NA,NA,"",   781.330E+03,   838.571E+03,   838.571E+03
C:/temp/Job-9.odb,Step-1,Increment      1: Step Time =    1.000,"P-9-1",          1798,       107.934,       160.703,            0.,NA,NA,"",   1.04168E+06,   1.07399E+06,   1.07399E+06
C:/temp/Job-9.odb,Step-1,Increment      1: Step Time =    1.000,"P-9-1",          1799,       150.210,       86.6786,            0.,NA,NA,"",   905.464E+03,   895.432E+03,   895.432E+03
C:/temp/Job-9.odb,Step-1,Increment      1: Step Time =    1.000,"P-9-1",          1800,       53.5277,       95.4162,            0.,NA,NA,"",   667.206E+03,   717.812E+03,   717.812E+03
C:/temp/Job-9.odb,Step-1,Increment      1: Step Time =    1.000,"P-9-1",          1801,       49.8943,       84.1598,            0.,NA,NA,"",   822.333E+03,   856.306E+03,   856.306E+03
C:/temp/Job-9.odb,Step-1,Increment      1: Step Time =    1.000,"P-9-1",          1802,       50.5158,       106.870,            0.,NA,NA,"",   703.534E+03,   755.279E+03,   755.279E+03
C:/temp/Job-9.odb,Step-1,Increment      1: Step Time =    1.000,"P-9-1",          1803,       147.241,       34.9816,            0.,NA,NA,"",   1.07362E+06,   1.05806E+06,   1.05806E+06
C:/temp/Job-9.odb,Step-1,Increment      1: Step Time =    1.000,"P-9-1",          1804,       164.835,       148.342,            0.,NA,NA,"",   1.05668E+06,   1.04385E+06,   1.04385E+06
C:/temp/Job-9.odb,Step-1,Increment      1: Step Time =    1.000,"P-9-1",          1805,       123.557,       41.6322,            0.,NA,NA,"",   1.09879E+06,   1.10037E+06,   1.10037E+06
C:/temp/Job-9.odb,Step-1,Increment      1: Step Time =    1.000,"P-9-1",          1806,       26.7998,       150.060,            0.,NA,NA,"",   969.687E+03,   1.02498E+06,   1.02498E+06
C:/temp/Job-9.odb,Step-1,Increment      1: Step Time =    1.000,"P-9-1",          1807,       178.084,       138.181,            0.,NA,NA,"",   1.00318E+06,   1.01312E+06,   1.01312E+06
C:/temp/Job-9.odb,Step-1,Increment      1: Step Time =    1.000,"P-9-1",          1808,       137.728,       22.0390,            0.,NA,NA,"",   1.02800E+06,   1.02279E+06,   1.02279E+06
C:/temp/Job-9.odb,Step-1,Increment      1: Step Time =    1.000,"P-9-1",          1809,       176.978,       27.8913,            0.,NA,NA,"",   1.01309E+06,   1.01229E+06,   1.01229E+06
C:/temp/Job-9.odb,Step-1,Increment      1: Step Time =    1.000,"P-9-1",          1810,       22.9895,       171.082,            0.,NA,NA,"",   1.05827E+06,   1.10325E+06,   1.10325E+06
C:/temp/Job-9.odb,Step-1,Increment      1: Step Time =    1.000,"P-9-1",          1811,       134.785,       20.7585,            0.,NA,NA,"",   1.02239E+06,   1.01840E+06,   1.01840E+06
C:/temp/Job-9.odb,Step-1,Increment      1: Step Time =    1.000,"P-9-1",          1812,       179.354,       135.182,            0.,NA,NA,"",   996.213E+03,   1.00971E+06,   1.00971E+06
C:/temp/Job-9.odb,Step-1,Increment      1: Step Time =    1.000,"P-9-1",          1813,       23.1812,       67.0722,            0.,NA,NA,"",   864.412E+03,   937.912E+03,   937.912E+03
C:/temp/Job-9.odb,Step-1,Increment      1: Step Time =    1.000,"P-9-1",          1814,       21.5118,       71.3905,            0.,NA,NA,"",   835.635E+03,   913.807E+03,   913.807E+03
C:/temp/Job-9.odb,Step-1,Increment      1: Step Time =    1.000,"P-9-1",          1815,       60.6741,       172.028,            0.,NA,NA,"",   1.08198E+06,   1.07984E+06,   1.07984E+06
C:/temp/Job-9.odb,Step-1,Increment      1: Step Time =    1.000,"P-9-1",          1816,       64.7444,       171.551,            0.,NA,NA,"",   1.07880E+06,   1.07720E+06,   1.07720E+06
C:/temp/Job-9.odb,Step-1,Increment      1: Step Time =    1.000,"P-9-1",          1817,       145.691,       101.854,            0.,NA,NA,"",   729.916E+03,   744.863E+03,   744.863E+03
C:/temp/Job-9.odb,Step-1,Increment      1: Step Time =    1.000,"P-9-1",          1818,       75.8263,       136.602,            0.,NA,NA,"",   1.23915E+06,   1.21668E+06,   1.21668E+06
C:/temp/Job-9.odb,Step-1,Increment      1: Step Time =    1.000,"P-9-1",          1819,       112.657,       163.761,            0.,NA,NA,"",   1.04497E+06,   1.06638E+06,   1.06638E+06
C:/temp/Job-9.odb,Step-1,Increment      1: Step Time =    1.000,"P-9-1",          1820,       76.8079,       167.444,            0.,NA,NA,"",   1.07098E+06,   1.07792E+06,   1.07792E+06
C:/temp/Job-9.odb,Step-1,Increment      1: Step Time =    1.000,"P-9-1",          1821,       170.142,       31.8220,            0.,NA,NA,"",   1.02761E+06,   1.02313E+06,   1.02313E+06
C:/temp/Job-9.odb,Step-1,Increment      1: Step Time =    1.000,"P-9-1",          1822,       163.774,       33.4881,            0.,NA,NA,"",   1.04115E+06,   1.03276E+06,   1.03276E+06
C:/temp/Job-9.odb,Step-1,Increment      1: Step Time =    1.000,"P-9-1",          1823,       157.772,       36.2175,            0.,NA,NA,"",   1.05904E+06,   1.04584E+06,   1.04584E+06
C:/temp/Job-9.odb,Step-1,Increment      1: Step Time =    1.000,"P-9-1",          1824,       67.8698,       56.1243,            0.,NA,NA,"",   1.17139E+06,   1.15333E+06,   1.15333E+06
C:/temp/Job-9.odb,Step-1,Increment      1: Step Time =    1.000,"P-9-1",          1825,       167.736,       168.053,            0.,NA,NA,"",   1.03278E+06,   1.02671E+06,   1.02671E+06
C:/temp/Job-9.odb,Step-1,Increment      1: Step Time =    1.000,"P-9-1",          1826,       122.222,       169.683,            0.,NA,NA,"",   1.04319E+06,   1.04843E+06,   1.04843E+06
C:/temp/Job-9.odb,Step-1,Increment      1: Step Time =    1.000,"P-9-1",          1827,       169.511,       39.3412,            0.,NA,NA,"",   1.03675E+06,   1.03049E+06,   1.03049E+06
C:/temp/Job-9.odb,Step-1,Increment      1: Step Time =    1.000,"P-9-1",          1828,       19.3565,       156.392,            0.,NA,NA,"",   963.686E+03,   1.03309E+06,   1.03309E+06
C:/temp/Job-9.odb,Step-1,Increment      1: Step Time =    1.000,"P-9-1",          1829,       41.3294,       105.529,            0.,NA,NA,"",   730.531E+03,   795.860E+03,   795.860E+03
C:/temp/Job-9.odb,Step-1,Increment      1: Step Time =    1.000,"P-9-1",          1830,       151.865,       74.5810,            0.,NA,NA,"",   1.04288E+06,   1.01203E+06,   1.01203E+06
C:/temp/Job-9.odb,Step-1,Increment      1: Step Time =    1.000,"P-9-1",          1831,       35.4654,       145.694,            0.,NA,NA,"",   991.794E+03,   1.02978E+06,   1.02978E+06
C:/temp/Job-9.odb,Step-1,Increment      1: Step Time =    1.000,"P-9-1",          1832,       30.8873,       153.972,            0.,NA,NA,"",   1.00959E+06,   1.05157E+06,   1.05157E+06
C:/temp/Job-9.odb,Step-1,Increment      1: Step Time =    1.000,"P-9-1",          1833,       23.6426,       154.830,            0.,NA,NA,"",   978.401E+03,   1.03762E+06,   1.03762E+06
C:/temp/Job-9.odb,Step-1,Increment      1: Step Time =    1.000,"P-9-1",          1834,       72.1476,       150.510,            0.,NA,NA,"",   1.15162E+06,   1.14712E+06,   1.14712E+06
C:/temp/Job-9.odb,Step-1,Increment      1: Step Time =    1.000,"P-9-1",          1835,       136.105,       167.646,            0.,NA,NA,"",   1.06932E+06,   1.05936E+06,   1.05936E+06
C:/temp/Job-9.odb,Step-1,Increment      1: Step Time =    1.000,"P-9-1",          1836,       144.318,       165.464,            0.,NA,NA,"",   1.07514E+06,   1.06027E+06,   1.06027E+06
C:/temp/Job-9.odb,Step-1,Increment      1: Step Time =    1.000,"P-9-1",          1837,       47.0566,       41.2941,            0.,NA,NA,"",   1.08505E+06,   1.09198E+06,   1.09198E+06
C:/temp/Job-9.odb,Step-1,Increment      1: Step Time =    1.000,"P-9-1",          1838,       88.4255,       39.9686,            0.,NA,NA,"",   1.05837E+06,   1.08691E+06,   1.08691E+06
C:/temp/Job-9.odb,Step-1,Increment      1: Step Time =    1.000,"P-9-1",          1839,       140.856,       141.567,            0.,NA,NA,"",   1.17284E+06,   1.12621E+06,   1.12621E+06
C:/temp/Job-9.odb,Step-1,Increment      1: Step Time =    1.000,"P-9-1",          1840,       158.189,       130.455,            0.,NA,NA,"",   1.04351E+06,   1.02335E+06,   1.02335E+06
C:/temp/Job-9.odb,Step-1,Increment      1: Step Time =    1.000,"P-9-1",          1841,       122.910,       35.9651,            0.,NA,NA,"",   1.07011E+06,   1.07404E+06,   1.07404E+06
C:/temp/Job-9.odb,Step-1,Increment      1: Step Time =    1.000,"P-9-1",          1842,       42.6666,       77.8195,            0.,NA,NA,"",   871.680E+03,   913.343E+03,   913.343E+03
C:/temp/Job-9.odb,Step-1,Increment      1: Step Time =    1.000,"P-9-1",          1843,       47.3438,       89.3128,            0.,NA,NA,"",   756.362E+03,   807.228E+03,   807.228E+03
C:/temp/Job-9.odb,Step-1,Increment      1: Step Time =    1.000,"P-9-1",          1844,       37.2076,       108.136,            0.,NA,NA,"",   752.845E+03,   821.136E+03,   821.136E+03
C:/temp/Job-9.odb,Step-1,Increment      1: Step Time =    1.000,"P-9-1",          1845,       42.5041,       132.325,            0.,NA,NA,"",   954.887E+03,   984.843E+03,   984.843E+03
C:/temp/Job-9.odb,Step-1,Increment      1: Step Time =    1.000,"P-9-1",          1846,       43.4194,       25.6074,            0.,NA,NA,"",   1.08829E+06,   1.09368E+06,   1.09368E+06
C:/temp/Job-9.odb,Step-1,Increment      1: Step Time =    1.000,"P-9-1",          1847,       44.3364,       142.248,            0.,NA,NA,"",   1.02932E+06,   1.04644E+06,   1.04644E+06
C:/temp/Job-9.odb,Step-1,Increment      1: Step Time =    1.000,"P-9-1",          1848,       139.479,       56.8809,            0.,NA,NA,"",   1.17127E+06,   1.12643E+06,   1.12643E+06
C:/temp/Job-9.odb,Step-1,Increment      1: Step Time =    1.000,"P-9-1",          1849,       133.771,       49.1488,            0.,NA,NA,"",   1.15376E+06,   1.12688E+06,   1.12688E+06
C:/temp/Job-9.odb,Step-1,Increment      1: Step Time =    1.000,"P-9-1",          1850,       44.7320,       71.8305,            0.,NA,NA,"",   938.101E+03,   966.251E+03,   966.251E+03
C:/temp/Job-9.odb,Step-1,Increment      1: Step Time =    1.000,"P-9-1",          1851,       136.275,       45.7192,            0.,NA,NA,"",   1.13253E+06,   1.10837E+06,   1.10837E+06
C:/temp/Job-9.odb,Step-1,Increment      1: Step Time =    1.000,"P-9-1",          1852,       26.9930,       70.7000,            0.,NA,NA,"",   859.493E+03,   927.965E+03,   927.965E+03
C:/temp/Job-9.odb,Step-1,Increment      1: Step Time =    1.000,"P-9-1",          1853,       24.2924,       73.5301,            0.,NA,NA,"",   833.956E+03,   908.978E+03,   908.978E+03
C:/temp/Job-9.odb,Step-1,Increment      1: Step Time =    1.000,"P-9-1",          1854,       131.559,       22.7945,            0.,NA,NA,"",   1.02725E+06,   1.02425E+06,   1.02425E+06
C:/temp/Job-9.odb,Step-1,Increment      1: Step Time =    1.000,"P-9-1",          1855,       177.390,       132.228,            0.,NA,NA,"",   994.402E+03,   1.00734E+06,   1.00734E+06
C:/temp/Job-9.odb,Step-1,Increment      1: Step Time =    1.000,"P-9-1",          1856,       95.0061,       167.262,            0.,NA,NA,"",   1.02347E+06,   1.05037E+06,   1.05037E+06
C:/temp/Job-9.odb,Step-1,Increment      1: Step Time =    1.000,"P-9-1",          1857,       165.045,       37.3095,            0.,NA,NA,"",   1.04333E+06,   1.03473E+06,   1.03473E+06
C:/temp/Job-9.odb,Step-1,Increment      1: Step Time =    1.000,"P-9-1",          1858,       159.080,       38.7744,            0.,NA,NA,"",   1.06129E+06,   1.04747E+06,   1.04747E+06
C:/temp/Job-9.odb,Step-1,Increment      1: Step Time =    1.000,"P-9-1",          1859,       157.396,       40.8767,            0.,NA,NA,"",   1.06916E+06,   1.05303E+06,   1.05303E+06
C:/temp/Job-9.odb,Step-1,Increment      1: Step Time =    1.000,"P-9-1",          1860,       155.767,       43.2866,            0.,NA,NA,"",   1.07774E+06,   1.05901E+06,   1.05901E+06
C:/temp/Job-9.odb,Step-1,Increment      1: Step Time =    1.000,"P-9-1",          1861,       139.327,       66.5991,            0.,NA,NA,"",   1.18418E+06,   1.12108E+06,   1.12108E+06
C:/temp/Job-9.odb,Step-1,Increment      1: Step Time =    1.000,"P-9-1",          1862,       118.105,       36.8431,            0.,NA,NA,"",   1.06007E+06,   1.07348E+06,   1.07348E+06
C:/temp/Job-9.odb,Step-1,Increment      1: Step Time =    1.000,"P-9-1",          1863,       154.523,       79.0319,            0.,NA,NA,"",   987.185E+03,   970.770E+03,   970.770E+03
C:/temp/Job-9.odb,Step-1,Increment      1: Step Time =    1.000,"P-9-1",          1864,       38.5644,       38.1622,            0.,NA,NA,"",   1.06538E+06,   1.08549E+06,   1.08549E+06
C:/temp/Job-9.odb,Step-1,Increment      1: Step Time =    1.000,"P-9-1",          1865,       56.4380,       68.7503,            0.,NA,NA,"",   1.07112E+06,   1.05668E+06,   1.05668E+06
C:/temp/Job-9.odb,Step-1,Increment      1: Step Time =    1.000,"P-9-1",          1866,       135.087,       162.531,            0.,NA,NA,"",   1.09250E+06,   1.07931E+06,   1.07931E+06
C:/temp/Job-9.odb,Step-1,Increment      1: Step Time =    1.000,"P-9-1",          1867,       144.886,       156.931,            0.,NA,NA,"",   1.10534E+06,   1.08246E+06,   1.08246E+06
C:/temp/Job-9.odb,Step-1,Increment      1: Step Time =    1.000,"P-9-1",          1868,       64.1918,       167.110,            0.,NA,NA,"",   1.09423E+06,   1.09180E+06,   1.09180E+06
C:/temp/Job-9.odb,Step-1,Increment      1: Step Time =    1.000,"P-9-1",          1869,       75.5085,       163.247,            0.,NA,NA,"",   1.09057E+06,   1.09593E+06,   1.09593E+06
C:/temp/Job-9.odb,Step-1,Increment      1: Step Time =    1.000,"P-9-1",          1870,       34.5381,       158.007,            0.,NA,NA,"",   1.03918E+06,   1.07081E+06,   1.07081E+06
C:/temp/Job-9.odb,Step-1,Increment      1: Step Time =    1.000,"P-9-1",          1871,       167.051,       130.348,            0.,NA,NA,"",   1.01208E+06,   1.00994E+06,   1.00994E+06
C:/temp/Job-9.odb,Step-1,Increment      1: Step Time =    1.000,"P-9-1",          1872,       48.1081,       45.7371,            0.,NA,NA,"",   1.08374E+06,   1.08977E+06,   1.08977E+06
C:/temp/Job-9.odb,Step-1,Increment      1: Step Time =    1.000,"P-9-1",          1873,       44.5500,       46.9978,            0.,NA,NA,"",   1.06601E+06,   1.07927E+06,   1.07927E+06
C:/temp/Job-9.odb,Step-1,Increment      1: Step Time =    1.000,"P-9-1",          1874,       30.4935,       123.425,            0.,NA,NA,"",   836.280E+03,   902.450E+03,   902.450E+03
C:/temp/Job-9.odb,Step-1,Increment      1: Step Time =    1.000,"P-9-1",          1875,       28.2774,       126.807,            0.,NA,NA,"",   850.444E+03,   917.794E+03,   917.794E+03
C:/temp/Job-9.odb,Step-1,Increment      1: Step Time =    1.000,"P-9-1",          1876,       158.727,       81.8778,            0.,NA,NA,"",   956.843E+03,   953.530E+03,   953.530E+03
C:/temp/Job-9.odb,Step-1,Increment      1: Step Time =    1.000,"P-9-1",          1877,       37.6020,       154.282,            0.,NA,NA,"",   1.03860E+06,   1.06565E+06,   1.06565E+06
C:/temp/Job-9.odb,Step-1,Increment      1: Step Time =    1.000,"P-9-1",          1878,       32.8787,       106.809,            0.,NA,NA,"",   751.902E+03,   825.875E+03,   825.875E+03
C:/temp/Job-9.odb,Step-1,Increment      1: Step Time =    1.000,"P-9-1",          1879,       34.0939,       102.112,            0.,NA,NA,"",   739.652E+03,   813.475E+03,   813.475E+03
C:/temp/Job-9.odb,Step-1,Increment      1: Step Time =    1.000,"P-9-1",          1880,       153.417,       102.167,            0.,NA,NA,"",   807.827E+03,   826.470E+03,   826.470E+03
C:/temp/Job-9.odb,Step-1,Increment      1: Step Time =    1.000,"P-9-1",          1881,       114.247,       30.0553,            0.,NA,NA,"",   1.02637E+06,   1.04089E+06,   1.04089E+06
C:/temp/Job-9.odb,Step-1,Increment      1: Step Time =    1.000,"P-9-1",          1882,       40.4869,       83.4113,            0.,NA,NA,"",   808.606E+03,   863.748E+03,   863.748E+03
C:/temp/Job-9.odb,Step-1,Increment      1: Step Time =    1.000,"P-9-1",          1883,       81.7718,       154.184,            0.,NA,NA,"",   1.11184E+06,   1.12963E+06,   1.12963E+06
C:/temp/Job-9.odb,Step-1,Increment      1: Step Time =    1.000,"P-9-1",          1884,       163.180,       124.285,            0.,NA,NA,"",   995.571E+03,   991.264E+03,   991.264E+03
C:/temp/Job-9.odb,Step-1,Increment      1: Step Time =    1.000,"P-9-1",          1885,       164.773,       115.603,            0.,NA,NA,"",   939.755E+03,   950.240E+03,   950.240E+03
C:/temp/Job-9.odb,Step-1,Increment      1: Step Time =    1.000,"P-9-1",          1886,       96.1139,       27.6667,            0.,NA,NA,"",   1.01118E+06,   1.03010E+06,   1.03010E+06
C:/temp/Job-9.odb,Step-1,Increment      1: Step Time =    1.000,"P-9-1",          1887,       136.892,       158.608,            0.,NA,NA,"",   1.10956E+06,   1.09088E+06,   1.09088E+06
C:/temp/Job-9.odb,Step-1,Increment      1: Step Time =    1.000,"P-9-1",          1888,       157.663,       45.8006,            0.,NA,NA,"",   1.07549E+06,   1.05714E+06,   1.05714E+06
C:/temp/Job-9.odb,Step-1,Increment      1: Step Time =    1.000,"P-9-1",          1889,       141.670,       156.245,            0.,NA,NA,"",   1.11494E+06,   1.09144E+06,   1.09144E+06
C:/temp/Job-9.odb,Step-1,Increment      1: Step Time =    1.000,"P-9-1",          1890,       114.391,       34.6432,            0.,NA,NA,"",   1.04291E+06,   1.06096E+06,   1.06096E+06
C:/temp/Job-9.odb,Step-1,Increment      1: Step Time =    1.000,"P-9-1",          1891,       87.9969,       29.1171,            0.,NA,NA,"",   1.02874E+06,   1.04558E+06,   1.04558E+06
C:/temp/Job-9.odb,Step-1,Increment      1: Step Time =    1.000,"P-9-1",          1892,       83.4694,       27.9823,            0.,NA,NA,"",   1.03610E+06,   1.04771E+06,   1.04771E+06
C:/temp/Job-9.odb,Step-1,Increment      1: Step Time =    1.000,"P-9-1",          1893,       49.8761,       49.7365,            0.,NA,NA,"",   1.08662E+06,   1.08990E+06,   1.08990E+06
C:/temp/Job-9.odb,Step-1,Increment      1: Step Time =    1.000,"P-9-1",          1894,       54.9431,       49.1803,            0.,NA,NA,"",   1.10946E+06,   1.10538E+06,   1.10538E+06
C:/temp/Job-9.odb,Step-1,Increment      1: Step Time =    1.000,"P-9-1",          1895,       159.431,       77.0597,            0.,NA,NA,"",   992.346E+03,   982.767E+03,   982.767E+03
C:/temp/Job-9.odb,Step-1,Increment      1: Step Time =    1.000,"P-9-1",          1896,       30.0863,       118.303,            0.,NA,NA,"",   801.880E+03,   873.040E+03,   873.040E+03
C:/temp/Job-9.odb,Step-1,Increment      1: Step Time =    1.000,"P-9-1",          1897,       159.899,       42.7103,            0.,NA,NA,"",   1.06410E+06,   1.04935E+06,   1.04935E+06
C:/temp/Job-9.odb,Step-1,Increment      1: Step Time =    1.000,"P-9-1",          1898,       51.0637,       154.402,            0.,NA,NA,"",   1.09821E+06,   1.09913E+06,   1.09913E+06
C:/temp/Job-9.odb,Step-1,Increment      1: Step Time =    1.000,"P-9-1",          1899,       70.8873,       160.080,            0.,NA,NA,"",   1.11001E+06,   1.11037E+06,   1.11037E+06
C:/temp/Job-9.odb,Step-1,Increment      1: Step Time =    1.000,"P-9-1",          1900,       169.759,       107.819,            0.,NA,NA,"",   913.371E+03,   938.662E+03,   938.662E+03
C:/temp/Job-9.odb,Step-1,Increment      1: Step Time =    1.000,"P-9-1",          1901,       171.234,       104.359,            0.,NA,NA,"",   910.504E+03,   938.976E+03,   938.976E+03
C:/temp/Job-9.odb,Step-1,Increment      1: Step Time =    1.000,"P-9-1",          1902,       165.399,       126.137,            0.,NA,NA,"",   999.690E+03,   997.606E+03,   997.606E+03
C:/temp/Job-9.odb,Step-1,Increment      1: Step Time =    1.000,"P-9-1",          1903,       36.9240,       85.4672,            0.,NA,NA,"",   790.104E+03,   853.034E+03,   853.034E+03
C:/temp/Job-9.odb,Step-1,Increment      1: Step Time =    1.000,"P-9-1",          1904,       164.762,       88.9739,            0.,NA,NA,"",   912.337E+03,   929.270E+03,   929.270E+03
C:/temp/Job-9.odb,Step-1,Increment      1: Step Time =    1.000,"P-9-1",          1905,       63.0587,       153.989,            0.,NA,NA,"",   1.13205E+06,   1.12385E+06,   1.12385E+06
C:/temp/Job-9.odb,Step-1,Increment      1: Step Time =    1.000,"P-9-1",          1906,       162.176,       44.7187,            0.,NA,NA,"",   1.06068E+06,   1.04700E+06,   1.04700E+06
C:/temp/Job-9.odb,Step-1,Increment      1: Step Time =    1.000,"P-9-1",          1907,       138.661,       155.568,            0.,NA,NA,"",   1.12138E+06,   1.09803E+06,   1.09803E+06
C:/temp/Job-9.odb,Step-1,Increment      1: Step Time =    1.000,"P-9-1",          1908,       37.9035,       94.0381,            0.,NA,NA,"",   742.524E+03,   811.372E+03,   811.372E+03
