ODB Name,Step,Frame,Part Instance Name,    Node Label,X,Y,Z,Section Name,Material Name,Section Point,       S-Mises,S-Max. In-Plane Principal (Abs),S-Max. Principal (Abs)
C:/temp/Job-2.odb,Step-1,Increment      1: Step Time =    1.000,"P-2-1",             1,       85.3755,       139.372,            0.,NA,NA,"",   2.51492E+06,   2.55771E+06,   2.55771E+06
C:/temp/Job-2.odb,Step-1,Increment      1: Step Time =    1.000,"P-2-1",             2,       76.5368,       134.835,            0.,NA,NA,"",   1.46131E+06,   1.47905E+06,   1.47905E+06
C:/temp/Job-2.odb,Step-1,Increment      1: Step Time =    1.000,"P-2-1",             3,       65.8755,       124.485,            0.,NA,NA,"",   330.142E+03,  -5.48755E+03,  -5.48755E+03
C:/temp/Job-2.odb,Step-1,Increment      1: Step Time =    1.000,"P-2-1",             4,       59.4853,       111.071,            0.,NA,NA,"",   792.111E+03,  -802.857E+03,  -802.857E+03
C:/temp/Job-2.odb,Step-1,Increment      1: Step Time =    1.000,"P-2-1",             5,       58.0184,       101.245,            0.,NA,NA,"",   863.805E+03,  -880.135E+03,  -880.135E+03
C:/temp/Job-2.odb,Step-1,Increment      1: Step Time =    1.000,"P-2-1",             6,       60.2123,       86.5487,            0.,NA,NA,"",   655.859E+03,  -665.760E+03,  -665.760E+03
C:/temp/Job-2.odb,Step-1,Increment      1: Step Time =    1.000,"P-2-1",             7,       67.3860,       73.5363,            0.,NA,NA,"",   389.594E+03,   147.822E+03,   147.822E+03
C:/temp/Job-2.odb,Step-1,Increment      1: Step Time =    1.000,"P-2-1",             8,       74.5144,       66.6161,            0.,NA,NA,"",   1.18471E+06,   1.19065E+06,   1.19065E+06
C:/temp/Job-2.odb,Step-1,Increment      1: Step Time =    1.000,"P-2-1",             9,       87.7336,       59.8312,            0.,NA,NA,"",   2.80366E+06,   2.85625E+06,   2.85625E+06
C:/temp/Job-2.odb,Step-1,Increment      1: Step Time =    1.000,"P-2-1",            10,       102.488,       58.0738,            0.,NA,NA,"",   3.51968E+06,   3.61225E+06,   3.61225E+06
C:/temp/Job-2.odb,Step-1,Increment      1: Step Time =    1.000,"P-2-1",            11,       112.266,       59.8312,            0.,NA,NA,"",   3.30941E+06,   3.39339E+06,   3.39339E+06
C:/temp/Job-2.odb,Step-1,Increment      1: Step Time =    1.000,"P-2-1",            12,       125.486,       66.6161,            0.,NA,NA,"",   2.08325E+06,   2.10517E+06,   2.10517E+06
C:/temp/Job-2.odb,Step-1,Increment      1: Step Time =    1.000,"P-2-1",            13,       132.614,       73.5363,            0.,NA,NA,"",   969.460E+03,   923.482E+03,   923.482E+03
C:/temp/Job-2.odb,Step-1,Increment      1: Step Time =    1.000,"P-2-1",            14,       139.788,       86.5487,            0.,NA,NA,"",   975.223E+03,  -972.131E+03,  -972.131E+03
C:/temp/Job-2.odb,Step-1,Increment      1: Step Time =    1.000,"P-2-1",            15,       141.982,       101.245,            0.,NA,NA,"",   1.48701E+06,  -1.51065E+06,  -1.51065E+06
C:/temp/Job-2.odb,Step-1,Increment      1: Step Time =    1.000,"P-2-1",            16,       140.515,       111.071,            0.,NA,NA,"",   1.13805E+06,  -1.13705E+06,  -1.13705E+06
C:/temp/Job-2.odb,Step-1,Increment      1: Step Time =    1.000,"P-2-1",            17,       134.124,       124.485,            0.,NA,NA,"",   710.597E+03,   631.432E+03,   631.432E+03
C:/temp/Job-2.odb,Step-1,Increment      1: Step Time =    1.000,"P-2-1",            18,       123.463,       134.835,            0.,NA,NA,"",   2.25223E+06,   2.29909E+06,   2.29909E+06
C:/temp/Job-2.odb,Step-1,Increment      1: Step Time =    1.000,"P-2-1",            19,       114.624,       139.372,            0.,NA,NA,"",   3.22345E+06,   3.28938E+06,   3.28938E+06
C:/temp/Job-2.odb,Step-1,Increment      1: Step Time =    1.000,"P-2-1",            20,          100.,          142.,            0.,NA,NA,"",   3.48663E+06,   3.57320E+06,   3.57320E+06
C:/temp/Job-2.odb,Step-1,Increment      1: Step Time =    1.000,"P-2-1",            21,          190.,            0.,            0.,NA,NA,"",   995.060E+03,   995.217E+03,   995.217E+03
C:/temp/Job-2.odb,Step-1,Increment      1: Step Time =    1.000,"P-2-1",            22,          180.,            0.,            0.,NA,NA,"",   992.356E+03,   992.303E+03,   992.303E+03
C:/temp/Job-2.odb,Step-1,Increment      1: Step Time =    1.000,"P-2-1",            23,          170.,            0.,            0.,NA,NA,"",   989.088E+03,   988.490E+03,   988.490E+03
C:/temp/Job-2.odb,Step-1,Increment      1: Step Time =    1.000,"P-2-1",            24,          160.,            0.,            0.,NA,NA,"",   969.906E+03,   968.820E+03,   968.820E+03
C:/temp/Job-2.odb,Step-1,Increment      1: Step Time =    1.000,"P-2-1",            25,          150.,            0.,            0.,NA,NA,"",   914.747E+03,   913.831E+03,   913.831E+03
C:/temp/Job-2.odb,Step-1,Increment      1: Step Time =    1.000,"P-2-1",            26,          140.,            0.,            0.,NA,NA,"",   824.650E+03,   823.880E+03,   823.880E+03
C:/temp/Job-2.odb,Step-1,Increment      1: Step Time =    1.000,"P-2-1",            27,          130.,            0.,            0.,NA,NA,"",   716.936E+03,   716.683E+03,   716.683E+03
C:/temp/Job-2.odb,Step-1,Increment      1: Step Time =    1.000,"P-2-1",            28,          120.,            0.,            0.,NA,NA,"",   624.116E+03,   625.668E+03,   625.668E+03
C:/temp/Job-2.odb,Step-1,Increment      1: Step Time =    1.000,"P-2-1",            29,          110.,            0.,            0.,NA,NA,"",   589.009E+03,   591.912E+03,   591.912E+03
C:/temp/Job-2.odb,Step-1,Increment      1: Step Time =    1.000,"P-2-1",            30,          100.,            0.,            0.,NA,NA,"",   641.686E+03,   643.891E+03,   643.891E+03
C:/temp/Job-2.odb,Step-1,Increment      1: Step Time =    1.000,"P-2-1",            31,           90.,            0.,            0.,NA,NA,"",   781.919E+03,   782.825E+03,   782.825E+03
C:/temp/Job-2.odb,Step-1,Increment      1: Step Time =    1.000,"P-2-1",            32,           80.,            0.,            0.,NA,NA,"",   986.097E+03,   985.270E+03,   985.270E+03
C:/temp/Job-2.odb,Step-1,Increment      1: Step Time =    1.000,"P-2-1",            33,           70.,            0.,            0.,NA,NA,"",   1.21373E+06,   1.21169E+06,   1.21169E+06
C:/temp/Job-2.odb,Step-1,Increment      1: Step Time =    1.000,"P-2-1",            34,           60.,            0.,            0.,NA,NA,"",   1.42334E+06,   1.42100E+06,   1.42100E+06
C:/temp/Job-2.odb,Step-1,Increment      1: Step Time =    1.000,"P-2-1",            35,           50.,            0.,            0.,NA,NA,"",   1.59014E+06,   1.58795E+06,   1.58795E+06
C:/temp/Job-2.odb,Step-1,Increment      1: Step Time =    1.000,"P-2-1",            36,           40.,            0.,            0.,NA,NA,"",   1.70725E+06,   1.70542E+06,   1.70542E+06
C:/temp/Job-2.odb,Step-1,Increment      1: Step Time =    1.000,"P-2-1",            37,           30.,            0.,            0.,NA,NA,"",   1.78509E+06,   1.78378E+06,   1.78378E+06
C:/temp/Job-2.odb,Step-1,Increment      1: Step Time =    1.000,"P-2-1",            38,           20.,            0.,            0.,NA,NA,"",   1.84990E+06,   1.84981E+06,   1.84981E+06
C:/temp/Job-2.odb,Step-1,Increment      1: Step Time =    1.000,"P-2-1",            39,           10.,            0.,            0.,NA,NA,"",   1.98614E+06,   1.98895E+06,   1.98895E+06
C:/temp/Job-2.odb,Step-1,Increment      1: Step Time =    1.000,"P-2-1",            40,          200.,            0.,            0.,NA,NA,"",   999.580E+03,   999.140E+03,   999.140E+03
C:/temp/Job-2.odb,Step-1,Increment      1: Step Time =    1.000,"P-2-1",            41,            0.,            0.,            0.,NA,NA,"",   2.38028E+06,   2.49748E+06,   2.49748E+06
C:/temp/Job-2.odb,Step-1,Increment      1: Step Time =    1.000,"P-2-1",            42,          200.,          190.,            0.,NA,NA,"",   1.00286E+06,   1.00057E+06,   1.00057E+06
C:/temp/Job-2.odb,Step-1,Increment      1: Step Time =    1.000,"P-2-1",            43,          200.,          180.,            0.,NA,NA,"",   1.00290E+06,   1.00302E+06,   1.00302E+06
C:/temp/Job-2.odb,Step-1,Increment      1: Step Time =    1.000,"P-2-1",            44,          200.,          170.,            0.,NA,NA,"",   986.481E+03,   1.00515E+06,   1.00515E+06
C:/temp/Job-2.odb,Step-1,Increment      1: Step Time =    1.000,"P-2-1",            45,          200.,          160.,            0.,NA,NA,"",   947.507E+03,   1.00472E+06,   1.00472E+06
C:/temp/Job-2.odb,Step-1,Increment      1: Step Time =    1.000,"P-2-1",            46,          200.,          150.,            0.,NA,NA,"",   898.024E+03,   1.00491E+06,   1.00491E+06
C:/temp/Job-2.odb,Step-1,Increment      1: Step Time =    1.000,"P-2-1",            47,          200.,          140.,            0.,NA,NA,"",   875.998E+03,   1.00877E+06,   1.00877E+06
C:/temp/Job-2.odb,Step-1,Increment      1: Step Time =    1.000,"P-2-1",            48,          200.,          130.,            0.,NA,NA,"",   923.863E+03,   1.02118E+06,   1.02118E+06
C:/temp/Job-2.odb,Step-1,Increment      1: Step Time =    1.000,"P-2-1",            49,          200.,          120.,            0.,NA,NA,"",   1.02785E+06,   1.08897E+06,   1.08897E+06
C:/temp/Job-2.odb,Step-1,Increment      1: Step Time =    1.000,"P-2-1",            50,          200.,          110.,            0.,NA,NA,"",   1.13214E+06,   1.23623E+06,   1.23623E+06
C:/temp/Job-2.odb,Step-1,Increment      1: Step Time =    1.000,"P-2-1",            51,          200.,          100.,            0.,NA,NA,"",   1.17753E+06,   1.30211E+06,   1.30211E+06
C:/temp/Job-2.odb,Step-1,Increment      1: Step Time =    1.000,"P-2-1",            52,          200.,           90.,            0.,NA,NA,"",   1.13292E+06,   1.23723E+06,   1.23723E+06
C:/temp/Job-2.odb,Step-1,Increment      1: Step Time =    1.000,"P-2-1",            53,          200.,           80.,            0.,NA,NA,"",   1.02622E+06,   1.08897E+06,   1.08897E+06
C:/temp/Job-2.odb,Step-1,Increment      1: Step Time =    1.000,"P-2-1",            54,          200.,           70.,            0.,NA,NA,"",   921.285E+03,   1.02055E+06,   1.02055E+06
C:/temp/Job-2.odb,Step-1,Increment      1: Step Time =    1.000,"P-2-1",            55,          200.,           60.,            0.,NA,NA,"",   877.641E+03,   1.01093E+06,   1.01093E+06
C:/temp/Job-2.odb,Step-1,Increment      1: Step Time =    1.000,"P-2-1",            56,          200.,           50.,            0.,NA,NA,"",   900.672E+03,   1.00730E+06,   1.00730E+06
C:/temp/Job-2.odb,Step-1,Increment      1: Step Time =    1.000,"P-2-1",            57,          200.,           40.,            0.,NA,NA,"",   950.194E+03,   1.00569E+06,   1.00569E+06
C:/temp/Job-2.odb,Step-1,Increment      1: Step Time =    1.000,"P-2-1",            58,          200.,           30.,            0.,NA,NA,"",   987.173E+03,   1.00402E+06,   1.00402E+06
C:/temp/Job-2.odb,Step-1,Increment      1: Step Time =    1.000,"P-2-1",            59,          200.,           20.,            0.,NA,NA,"",   1.00296E+06,   1.00248E+06,   1.00248E+06
C:/temp/Job-2.odb,Step-1,Increment      1: Step Time =    1.000,"P-2-1",            60,          200.,           10.,            0.,NA,NA,"",   1.00279E+06,   1.00048E+06,   1.00048E+06
C:/temp/Job-2.odb,Step-1,Increment      1: Step Time =    1.000,"P-2-1",            61,          200.,          200.,            0.,NA,NA,"",   999.568E+03,   999.138E+03,   999.138E+03
C:/temp/Job-2.odb,Step-1,Increment      1: Step Time =    1.000,"P-2-1",            62,           10.,          200.,            0.,NA,NA,"",   1.98536E+06,   1.98786E+06,   1.98786E+06
C:/temp/Job-2.odb,Step-1,Increment      1: Step Time =    1.000,"P-2-1",            63,           20.,          200.,            0.,NA,NA,"",   1.84674E+06,   1.84649E+06,   1.84649E+06
C:/temp/Job-2.odb,Step-1,Increment      1: Step Time =    1.000,"P-2-1",            64,           30.,          200.,            0.,NA,NA,"",   1.78097E+06,   1.77929E+06,   1.77929E+06
C:/temp/Job-2.odb,Step-1,Increment      1: Step Time =    1.000,"P-2-1",            65,           40.,          200.,            0.,NA,NA,"",   1.70287E+06,   1.70147E+06,   1.70147E+06
C:/temp/Job-2.odb,Step-1,Increment      1: Step Time =    1.000,"P-2-1",            66,           50.,          200.,            0.,NA,NA,"",   1.58566E+06,   1.58432E+06,   1.58432E+06
C:/temp/Job-2.odb,Step-1,Increment      1: Step Time =    1.000,"P-2-1",            67,           60.,          200.,            0.,NA,NA,"",   1.41717E+06,   1.41532E+06,   1.41532E+06
C:/temp/Job-2.odb,Step-1,Increment      1: Step Time =    1.000,"P-2-1",            68,           70.,          200.,            0.,NA,NA,"",   1.20771E+06,   1.20531E+06,   1.20531E+06
C:/temp/Job-2.odb,Step-1,Increment      1: Step Time =    1.000,"P-2-1",            69,           80.,          200.,            0.,NA,NA,"",   982.791E+03,   981.574E+03,   981.574E+03
C:/temp/Job-2.odb,Step-1,Increment      1: Step Time =    1.000,"P-2-1",            70,           90.,          200.,            0.,NA,NA,"",   783.051E+03,   784.055E+03,   784.055E+03
C:/temp/Job-2.odb,Step-1,Increment      1: Step Time =    1.000,"P-2-1",            71,          100.,          200.,            0.,NA,NA,"",   642.057E+03,   644.646E+03,   644.646E+03
C:/temp/Job-2.odb,Step-1,Increment      1: Step Time =    1.000,"P-2-1",            72,          110.,          200.,            0.,NA,NA,"",   592.451E+03,   595.336E+03,   595.336E+03
C:/temp/Job-2.odb,Step-1,Increment      1: Step Time =    1.000,"P-2-1",            73,          120.,          200.,            0.,NA,NA,"",   629.852E+03,   631.482E+03,   631.482E+03
C:/temp/Job-2.odb,Step-1,Increment      1: Step Time =    1.000,"P-2-1",            74,          130.,          200.,            0.,NA,NA,"",   722.823E+03,   722.607E+03,   722.607E+03
C:/temp/Job-2.odb,Step-1,Increment      1: Step Time =    1.000,"P-2-1",            75,          140.,          200.,            0.,NA,NA,"",   829.730E+03,   828.671E+03,   828.671E+03
C:/temp/Job-2.odb,Step-1,Increment      1: Step Time =    1.000,"P-2-1",            76,          150.,          200.,            0.,NA,NA,"",   917.490E+03,   916.227E+03,   916.227E+03
C:/temp/Job-2.odb,Step-1,Increment      1: Step Time =    1.000,"P-2-1",            77,          160.,          200.,            0.,NA,NA,"",   970.704E+03,   969.461E+03,   969.461E+03
C:/temp/Job-2.odb,Step-1,Increment      1: Step Time =    1.000,"P-2-1",            78,          170.,          200.,            0.,NA,NA,"",   989.588E+03,   989.044E+03,   989.044E+03
C:/temp/Job-2.odb,Step-1,Increment      1: Step Time =    1.000,"P-2-1",            79,          180.,          200.,            0.,NA,NA,"",   992.224E+03,   992.252E+03,   992.252E+03
C:/temp/Job-2.odb,Step-1,Increment      1: Step Time =    1.000,"P-2-1",            80,          190.,          200.,            0.,NA,NA,"",   994.966E+03,   995.132E+03,   995.132E+03
C:/temp/Job-2.odb,Step-1,Increment      1: Step Time =    1.000,"P-2-1",            81,            0.,          200.,            0.,NA,NA,"",   2.37958E+06,   2.49743E+06,   2.49743E+06
C:/temp/Job-2.odb,Step-1,Increment      1: Step Time =    1.000,"P-2-1",            82,            0.,           10.,            0.,NA,NA,"",   1.70108E+06,   1.86406E+06,   1.86406E+06
C:/temp/Job-2.odb,Step-1,Increment      1: Step Time =    1.000,"P-2-1",            83,            0.,           20.,            0.,NA,NA,"",   1.39410E+06,   1.54940E+06,   1.54940E+06
C:/temp/Job-2.odb,Step-1,Increment      1: Step Time =    1.000,"P-2-1",            84,            0.,           30.,            0.,NA,NA,"",   1.18562E+06,   1.32424E+06,   1.32424E+06
C:/temp/Job-2.odb,Step-1,Increment      1: Step Time =    1.000,"P-2-1",            85,            0.,           40.,            0.,NA,NA,"",   1.00546E+06,   1.12485E+06,   1.12485E+06
C:/temp/Job-2.odb,Step-1,Increment      1: Step Time =    1.000,"P-2-1",            86,            0.,           50.,            0.,NA,NA,"",   836.334E+03,   935.244E+03,   935.244E+03
C:/temp/Job-2.odb,Step-1,Increment      1: Step Time =    1.000,"P-2-1",            87,            0.,           60.,            0.,NA,NA,"",   671.968E+03,   749.530E+03,   749.530E+03
C:/temp/Job-2.odb,Step-1,Increment      1: Step Time =    1.000,"P-2-1",            88,            0.,           70.,            0.,NA,NA,"",   513.492E+03,   570.032E+03,   570.032E+03
C:/temp/Job-2.odb,Step-1,Increment      1: Step Time =    1.000,"P-2-1",            89,            0.,           80.,            0.,NA,NA,"",   368.271E+03,   409.535E+03,   409.535E+03
C:/temp/Job-2.odb,Step-1,Increment      1: Step Time =    1.000,"P-2-1",            90,            0.,           90.,            0.,NA,NA,"",   254.026E+03,   288.139E+03,   288.139E+03
C:/temp/Job-2.odb,Step-1,Increment      1: Step Time =    1.000,"P-2-1",            91,            0.,          100.,            0.,NA,NA,"",   204.808E+03,   235.961E+03,   235.961E+03
C:/temp/Job-2.odb,Step-1,Increment      1: Step Time =    1.000,"P-2-1",            92,            0.,          110.,            0.,NA,NA,"",   256.000E+03,   290.523E+03,   290.523E+03
C:/temp/Job-2.odb,Step-1,Increment      1: Step Time =    1.000,"P-2-1",            93,            0.,          120.,            0.,NA,NA,"",   373.372E+03,   415.690E+03,   415.690E+03
C:/temp/Job-2.odb,Step-1,Increment      1: Step Time =    1.000,"P-2-1",            94,            0.,          130.,            0.,NA,NA,"",   515.482E+03,   572.605E+03,   572.605E+03
C:/temp/Job-2.odb,Step-1,Increment      1: Step Time =    1.000,"P-2-1",            95,            0.,          140.,            0.,NA,NA,"",   678.651E+03,   756.704E+03,   756.704E+03
C:/temp/Job-2.odb,Step-1,Increment      1: Step Time =    1.000,"P-2-1",            96,            0.,          150.,            0.,NA,NA,"",   843.828E+03,   944.009E+03,   944.009E+03
C:/temp/Job-2.odb,Step-1,Increment      1: Step Time =    1.000,"P-2-1",            97,            0.,          160.,            0.,NA,NA,"",   1.00892E+06,   1.13004E+06,   1.13004E+06
C:/temp/Job-2.odb,Step-1,Increment      1: Step Time =    1.000,"P-2-1",            98,            0.,          170.,            0.,NA,NA,"",   1.18743E+06,   1.32801E+06,   1.32801E+06
C:/temp/Job-2.odb,Step-1,Increment      1: Step Time =    1.000,"P-2-1",            99,            0.,          180.,            0.,NA,NA,"",   1.39379E+06,   1.55015E+06,   1.55015E+06
C:/temp/Job-2.odb,Step-1,Increment      1: Step Time =    1.000,"P-2-1",           100,            0.,          190.,            0.,NA,NA,"",   1.70132E+06,   1.86504E+06,   1.86504E+06
C:/temp/Job-2.odb,Step-1,Increment      1: Step Time =    1.000,"P-2-1",           101,       108.854,       52.0359,            0.,NA,NA,"",   2.84569E+06,   2.99445E+06,   2.99445E+06
C:/temp/Job-2.odb,Step-1,Increment      1: Step Time =    1.000,"P-2-1",           102,       190.205,       50.2235,            0.,NA,NA,"",   986.020E+03,   1.06955E+06,   1.06955E+06
C:/temp/Job-2.odb,Step-1,Increment      1: Step Time =    1.000,"P-2-1",           103,       187.123,       147.752,            0.,NA,NA,"",   1.03413E+06,   1.10691E+06,   1.10691E+06
C:/temp/Job-2.odb,Step-1,Increment      1: Step Time =    1.000,"P-2-1",           104,       178.505,       145.618,            0.,NA,NA,"",   1.20125E+06,   1.20732E+06,   1.20732E+06
C:/temp/Job-2.odb,Step-1,Increment      1: Step Time =    1.000,"P-2-1",           105,       169.425,       145.264,            0.,NA,NA,"",   1.39578E+06,   1.30863E+06,   1.30863E+06
C:/temp/Job-2.odb,Step-1,Increment      1: Step Time =    1.000,"P-2-1",           106,       158.660,       145.392,            0.,NA,NA,"",   1.60541E+06,   1.42715E+06,   1.42715E+06
C:/temp/Job-2.odb,Step-1,Increment      1: Step Time =    1.000,"P-2-1",           107,       146.130,       145.312,            0.,NA,NA,"",   1.79896E+06,   1.60617E+06,   1.60617E+06
C:/temp/Job-2.odb,Step-1,Increment      1: Step Time =    1.000,"P-2-1",           108,       139.127,       147.042,            0.,NA,NA,"",   1.86306E+06,   1.73738E+06,   1.73738E+06
C:/temp/Job-2.odb,Step-1,Increment      1: Step Time =    1.000,"P-2-1",           109,       128.495,       148.458,            0.,NA,NA,"",   1.97176E+06,   2.00036E+06,   2.00036E+06
C:/temp/Job-2.odb,Step-1,Increment      1: Step Time =    1.000,"P-2-1",           110,       119.068,       149.832,            0.,NA,NA,"",   2.22426E+06,   2.34579E+06,   2.34579E+06
C:/temp/Job-2.odb,Step-1,Increment      1: Step Time =    1.000,"P-2-1",           111,       105.083,       147.866,            0.,NA,NA,"",   2.94814E+06,   3.09138E+06,   3.09138E+06
C:/temp/Job-2.odb,Step-1,Increment      1: Step Time =    1.000,"P-2-1",           112,       93.6720,       147.248,            0.,NA,NA,"",   2.82321E+06,   2.93731E+06,   2.93731E+06
C:/temp/Job-2.odb,Step-1,Increment      1: Step Time =    1.000,"P-2-1",           113,       81.7063,       148.124,            0.,NA,NA,"",   2.10871E+06,   2.15749E+06,   2.15749E+06
C:/temp/Job-2.odb,Step-1,Increment      1: Step Time =    1.000,"P-2-1",           114,       69.6190,       150.129,            0.,NA,NA,"",   1.77998E+06,   1.69362E+06,   1.69362E+06
C:/temp/Job-2.odb,Step-1,Increment      1: Step Time =    1.000,"P-2-1",           115,       62.8760,       148.591,            0.,NA,NA,"",   1.65317E+06,   1.51447E+06,   1.51447E+06
C:/temp/Job-2.odb,Step-1,Increment      1: Step Time =    1.000,"P-2-1",           116,       53.0441,       147.079,            0.,NA,NA,"",   1.45991E+06,   1.30679E+06,   1.30679E+06
C:/temp/Job-2.odb,Step-1,Increment      1: Step Time =    1.000,"P-2-1",           117,       44.4320,       147.010,            0.,NA,NA,"",   1.30901E+06,   1.18938E+06,   1.18938E+06
C:/temp/Job-2.odb,Step-1,Increment      1: Step Time =    1.000,"P-2-1",           118,       31.8570,       143.216,            0.,NA,NA,"",   989.600E+03,   951.830E+03,   951.830E+03
C:/temp/Job-2.odb,Step-1,Increment      1: Step Time =    1.000,"P-2-1",           119,       22.2035,       146.732,            0.,NA,NA,"",   951.444E+03,   970.506E+03,   970.506E+03
C:/temp/Job-2.odb,Step-1,Increment      1: Step Time =    1.000,"P-2-1",           120,       10.8437,       150.369,            0.,NA,NA,"",   912.901E+03,   987.845E+03,   987.845E+03
C:/temp/Job-2.odb,Step-1,Increment      1: Step Time =    1.000,"P-2-1",           121,       9.81000,       135.090,            0.,NA,NA,"",   609.658E+03,   668.983E+03,   668.983E+03
C:/temp/Job-2.odb,Step-1,Increment      1: Step Time =    1.000,"P-2-1",           122,       18.8070,       136.375,            0.,NA,NA,"",   683.467E+03,   722.539E+03,   722.539E+03
C:/temp/Job-2.odb,Step-1,Increment      1: Step Time =    1.000,"P-2-1",           123,       32.5030,       134.883,            0.,NA,NA,"",   789.798E+03,   751.363E+03,   751.363E+03
C:/temp/Job-2.odb,Step-1,Increment      1: Step Time =    1.000,"P-2-1",           124,       41.1694,       135.679,            0.,NA,NA,"",   925.252E+03,   820.710E+03,   820.710E+03
C:/temp/Job-2.odb,Step-1,Increment      1: Step Time =    1.000,"P-2-1",           125,       61.7708,       134.851,            0.,NA,NA,"",   1.06603E+06,   915.423E+03,   915.423E+03
C:/temp/Job-2.odb,Step-1,Increment      1: Step Time =    1.000,"P-2-1",           126,       134.724,       137.401,            0.,NA,NA,"",   1.77976E+06,   1.69149E+06,   1.69149E+06
C:/temp/Job-2.odb,Step-1,Increment      1: Step Time =    1.000,"P-2-1",           127,       158.051,       138.004,            0.,NA,NA,"",   1.59989E+06,   1.37170E+06,   1.37170E+06
C:/temp/Job-2.odb,Step-1,Increment      1: Step Time =    1.000,"P-2-1",           128,       169.873,       137.222,            0.,NA,NA,"",   1.36968E+06,   1.27237E+06,   1.27237E+06
C:/temp/Job-2.odb,Step-1,Increment      1: Step Time =    1.000,"P-2-1",           129,       177.937,       136.677,            0.,NA,NA,"",   1.20302E+06,   1.21295E+06,   1.21295E+06
C:/temp/Job-2.odb,Step-1,Increment      1: Step Time =    1.000,"P-2-1",           130,       191.044,       135.030,            0.,NA,NA,"",   956.332E+03,   1.08956E+06,   1.08956E+06
C:/temp/Job-2.odb,Step-1,Increment      1: Step Time =    1.000,"P-2-1",           131,       146.558,       128.607,            0.,NA,NA,"",   1.44925E+06,   1.11037E+06,   1.11037E+06
C:/temp/Job-2.odb,Step-1,Increment      1: Step Time =    1.000,"P-2-1",           132,       157.934,       130.441,            0.,NA,NA,"",   1.48883E+06,   1.21886E+06,   1.21886E+06
C:/temp/Job-2.odb,Step-1,Increment      1: Step Time =    1.000,"P-2-1",           133,       168.552,       128.644,            0.,NA,NA,"",   1.27808E+06,   1.16588E+06,   1.16588E+06
C:/temp/Job-2.odb,Step-1,Increment      1: Step Time =    1.000,"P-2-1",           134,       179.351,       126.656,            0.,NA,NA,"",   1.07510E+06,   1.13341E+06,   1.13341E+06
C:/temp/Job-2.odb,Step-1,Increment      1: Step Time =    1.000,"P-2-1",           135,       190.094,       125.335,            0.,NA,NA,"",   957.178E+03,   1.09704E+06,   1.09704E+06
C:/temp/Job-2.odb,Step-1,Increment      1: Step Time =    1.000,"P-2-1",           136,       148.487,       118.925,            0.,NA,NA,"",   1.05298E+06,  -290.800E+03,  -290.800E+03
C:/temp/Job-2.odb,Step-1,Increment      1: Step Time =    1.000,"P-2-1",           137,       157.714,       118.196,            0.,NA,NA,"",   1.07842E+06,   782.097E+03,   782.097E+03
C:/temp/Job-2.odb,Step-1,Increment      1: Step Time =    1.000,"P-2-1",           138,       166.735,       114.841,            0.,NA,NA,"",   887.901E+03,   810.812E+03,   810.812E+03
C:/temp/Job-2.odb,Step-1,Increment      1: Step Time =    1.000,"P-2-1",           139,       179.872,       112.323,            0.,NA,NA,"",   813.120E+03,   928.097E+03,   928.097E+03
C:/temp/Job-2.odb,Step-1,Increment      1: Step Time =    1.000,"P-2-1",           140,       189.367,       115.187,            0.,NA,NA,"",   934.976E+03,   1.05762E+06,   1.05762E+06
C:/temp/Job-2.odb,Step-1,Increment      1: Step Time =    1.000,"P-2-1",           141,       146.508,       107.257,            0.,NA,NA,"",   1.12254E+06,  -1.11587E+06,  -1.11587E+06
C:/temp/Job-2.odb,Step-1,Increment      1: Step Time =    1.000,"P-2-1",           142,       158.178,       107.004,            0.,NA,NA,"",   563.985E+03,  -27.2755E+03,  -27.2755E+03
C:/temp/Job-2.odb,Step-1,Increment      1: Step Time =    1.000,"P-2-1",           143,       170.165,       103.802,            0.,NA,NA,"",   522.189E+03,   580.745E+03,   580.745E+03
C:/temp/Job-2.odb,Step-1,Increment      1: Step Time =    1.000,"P-2-1",           144,       180.360,       104.321,            0.,NA,NA,"",   715.032E+03,   813.821E+03,   813.821E+03
C:/temp/Job-2.odb,Step-1,Increment      1: Step Time =    1.000,"P-2-1",           145,       189.887,       104.861,            0.,NA,NA,"",   924.733E+03,   988.680E+03,   988.680E+03
C:/temp/Job-2.odb,Step-1,Increment      1: Step Time =    1.000,"P-2-1",           146,       147.976,       96.0285,            0.,NA,NA,"",   1.02869E+06,  -1.03997E+06,  -1.03997E+06
C:/temp/Job-2.odb,Step-1,Increment      1: Step Time =    1.000,"P-2-1",           147,       158.791,       92.8839,            0.,NA,NA,"",   559.893E+03,   42.6068E+03,   42.6068E+03
C:/temp/Job-2.odb,Step-1,Increment      1: Step Time =    1.000,"P-2-1",           148,       169.896,       93.7266,            0.,NA,NA,"",   562.554E+03,   610.747E+03,   610.747E+03
C:/temp/Job-2.odb,Step-1,Increment      1: Step Time =    1.000,"P-2-1",           149,       180.066,       94.8992,            0.,NA,NA,"",   704.717E+03,   802.188E+03,   802.188E+03
C:/temp/Job-2.odb,Step-1,Increment      1: Step Time =    1.000,"P-2-1",           150,       189.880,       94.7841,            0.,NA,NA,"",   924.915E+03,   991.424E+03,   991.424E+03
C:/temp/Job-2.odb,Step-1,Increment      1: Step Time =    1.000,"P-2-1",           151,       147.801,       84.1419,            0.,NA,NA,"",   952.879E+03,  -718.068E+03,  -718.068E+03
C:/temp/Job-2.odb,Step-1,Increment      1: Step Time =    1.000,"P-2-1",           152,       156.806,       84.7688,            0.,NA,NA,"",   943.135E+03,   628.407E+03,   628.407E+03
C:/temp/Job-2.odb,Step-1,Increment      1: Step Time =    1.000,"P-2-1",           153,       168.501,       85.3050,            0.,NA,NA,"",   858.554E+03,   818.188E+03,   818.188E+03
C:/temp/Job-2.odb,Step-1,Increment      1: Step Time =    1.000,"P-2-1",           154,       179.201,       84.1529,            0.,NA,NA,"",   888.626E+03,   987.095E+03,   987.095E+03
C:/temp/Job-2.odb,Step-1,Increment      1: Step Time =    1.000,"P-2-1",           155,       189.778,       84.6855,            0.,NA,NA,"",   940.664E+03,   1.06393E+06,   1.06393E+06
C:/temp/Job-2.odb,Step-1,Increment      1: Step Time =    1.000,"P-2-1",           156,       140.125,       75.8239,            0.,NA,NA,"",   854.367E+03,   467.179E+03,   467.179E+03
C:/temp/Job-2.odb,Step-1,Increment      1: Step Time =    1.000,"P-2-1",           157,       150.443,       71.4476,            0.,NA,NA,"",   1.48855E+06,   1.13755E+06,   1.13755E+06
C:/temp/Job-2.odb,Step-1,Increment      1: Step Time =    1.000,"P-2-1",           158,       160.066,       72.4269,            0.,NA,NA,"",   1.39259E+06,   1.14053E+06,   1.14053E+06
C:/temp/Job-2.odb,Step-1,Increment      1: Step Time =    1.000,"P-2-1",           159,       170.070,       76.7951,            0.,NA,NA,"",   1.12403E+06,   1.05692E+06,   1.05692E+06
C:/temp/Job-2.odb,Step-1,Increment      1: Step Time =    1.000,"P-2-1",           160,       180.084,       73.8518,            0.,NA,NA,"",   1.05780E+06,   1.12822E+06,   1.12822E+06
C:/temp/Job-2.odb,Step-1,Increment      1: Step Time =    1.000,"P-2-1",           161,       190.008,       74.6659,            0.,NA,NA,"",   957.388E+03,   1.09712E+06,   1.09712E+06
C:/temp/Job-2.odb,Step-1,Increment      1: Step Time =    1.000,"P-2-1",           162,       128.404,       63.2183,            0.,NA,NA,"",   2.00683E+06,   2.01948E+06,   2.01948E+06
C:/temp/Job-2.odb,Step-1,Increment      1: Step Time =    1.000,"P-2-1",           163,       140.690,       64.9402,            0.,NA,NA,"",   1.65200E+06,   1.44940E+06,   1.44940E+06
C:/temp/Job-2.odb,Step-1,Increment      1: Step Time =    1.000,"P-2-1",           164,       147.782,       62.2844,            0.,NA,NA,"",   1.72753E+06,   1.47039E+06,   1.47039E+06
C:/temp/Job-2.odb,Step-1,Increment      1: Step Time =    1.000,"P-2-1",           165,       158.311,       62.0630,            0.,NA,NA,"",   1.59633E+06,   1.36903E+06,   1.36903E+06
C:/temp/Job-2.odb,Step-1,Increment      1: Step Time =    1.000,"P-2-1",           166,       167.339,       64.2740,            0.,NA,NA,"",   1.40050E+06,   1.27023E+06,   1.27023E+06
C:/temp/Job-2.odb,Step-1,Increment      1: Step Time =    1.000,"P-2-1",           167,       180.711,       64.4143,            0.,NA,NA,"",   1.13587E+06,   1.18102E+06,   1.18102E+06
C:/temp/Job-2.odb,Step-1,Increment      1: Step Time =    1.000,"P-2-1",           168,       190.264,       64.8357,            0.,NA,NA,"",   965.863E+03,   1.09575E+06,   1.09575E+06
C:/temp/Job-2.odb,Step-1,Increment      1: Step Time =    1.000,"P-2-1",           169,       9.87074,       52.0839,            0.,NA,NA,"",   856.860E+03,   932.042E+03,   932.042E+03
C:/temp/Job-2.odb,Step-1,Increment      1: Step Time =    1.000,"P-2-1",           170,       20.6987,       51.1357,            0.,NA,NA,"",   986.325E+03,   1.01401E+06,   1.01401E+06
C:/temp/Job-2.odb,Step-1,Increment      1: Step Time =    1.000,"P-2-1",           171,       30.7872,       53.6393,            0.,NA,NA,"",   1.05972E+06,   1.02990E+06,   1.02990E+06
C:/temp/Job-2.odb,Step-1,Increment      1: Step Time =    1.000,"P-2-1",           172,       41.4889,       51.1834,            0.,NA,NA,"",   1.28560E+06,   1.18702E+06,   1.18702E+06
C:/temp/Job-2.odb,Step-1,Increment      1: Step Time =    1.000,"P-2-1",           173,       51.4642,       51.4817,            0.,NA,NA,"",   1.45905E+06,   1.30981E+06,   1.30981E+06
C:/temp/Job-2.odb,Step-1,Increment      1: Step Time =    1.000,"P-2-1",           174,       62.9655,       50.7199,            0.,NA,NA,"",   1.68574E+06,   1.55163E+06,   1.55163E+06
C:/temp/Job-2.odb,Step-1,Increment      1: Step Time =    1.000,"P-2-1",           175,       72.9378,       53.0038,            0.,NA,NA,"",   1.79746E+06,   1.74840E+06,   1.74840E+06
C:/temp/Job-2.odb,Step-1,Increment      1: Step Time =    1.000,"P-2-1",           176,       84.5117,       51.6750,            0.,NA,NA,"",   2.20711E+06,   2.28166E+06,   2.28166E+06
C:/temp/Job-2.odb,Step-1,Increment      1: Step Time =    1.000,"P-2-1",           177,       96.6926,       53.2363,            0.,NA,NA,"",   3.04356E+06,   3.15322E+06,   3.15322E+06
C:/temp/Job-2.odb,Step-1,Increment      1: Step Time =    1.000,"P-2-1",           178,       117.787,       51.2503,            0.,NA,NA,"",   2.32671E+06,   2.45777E+06,   2.45777E+06
C:/temp/Job-2.odb,Step-1,Increment      1: Step Time =    1.000,"P-2-1",           179,       129.425,       53.0597,            0.,NA,NA,"",   1.99337E+06,   1.99873E+06,   1.99873E+06
C:/temp/Job-2.odb,Step-1,Increment      1: Step Time =    1.000,"P-2-1",           180,       136.594,       51.5417,            0.,NA,NA,"",   1.88282E+06,   1.79284E+06,   1.79284E+06
C:/temp/Job-2.odb,Step-1,Increment      1: Step Time =    1.000,"P-2-1",           181,       148.285,       51.9282,            0.,NA,NA,"",   1.75717E+06,   1.58130E+06,   1.58130E+06
C:/temp/Job-2.odb,Step-1,Increment      1: Step Time =    1.000,"P-2-1",           182,       160.645,       52.3052,            0.,NA,NA,"",   1.55853E+06,   1.40881E+06,   1.40881E+06
C:/temp/Job-2.odb,Step-1,Increment      1: Step Time =    1.000,"P-2-1",           183,       168.000,       53.6344,            0.,NA,NA,"",   1.42229E+06,   1.32343E+06,   1.32343E+06
C:/temp/Job-2.odb,Step-1,Increment      1: Step Time =    1.000,"P-2-1",           184,       180.746,       55.3616,            0.,NA,NA,"",   1.15776E+06,   1.18549E+06,   1.18549E+06
C:/temp/Job-2.odb,Step-1,Increment      1: Step Time =    1.000,"P-2-1",           185,       76.6085,       60.3700,            0.,NA,NA,"",   1.73209E+06,   1.74523E+06,   1.74523E+06
C:/temp/Job-2.odb,Step-1,Increment      1: Step Time =    1.000,"P-2-1",           186,       63.6678,       61.8093,            0.,NA,NA,"",   1.26728E+06,   1.13562E+06,   1.13562E+06
C:/temp/Job-2.odb,Step-1,Increment      1: Step Time =    1.000,"P-2-1",           187,       51.4993,       62.0064,            0.,NA,NA,"",   1.16358E+06,   993.252E+03,   993.252E+03
C:/temp/Job-2.odb,Step-1,Increment      1: Step Time =    1.000,"P-2-1",           188,       40.6129,       62.7024,            0.,NA,NA,"",   977.111E+03,   876.985E+03,   876.985E+03
C:/temp/Job-2.odb,Step-1,Increment      1: Step Time =    1.000,"P-2-1",           189,       34.1170,       64.2088,            0.,NA,NA,"",   834.471E+03,   781.194E+03,   781.194E+03
C:/temp/Job-2.odb,Step-1,Increment      1: Step Time =    1.000,"P-2-1",           190,       23.8094,       61.4796,            0.,NA,NA,"",   782.808E+03,   795.687E+03,   795.687E+03
C:/temp/Job-2.odb,Step-1,Increment      1: Step Time =    1.000,"P-2-1",           191,       8.55754,       66.1012,            0.,NA,NA,"",   583.726E+03,   643.617E+03,   643.617E+03
C:/temp/Job-2.odb,Step-1,Increment      1: Step Time =    1.000,"P-2-1",           192,       63.8847,       70.4509,            0.,NA,NA,"",   610.230E+03,   410.803E+03,   410.803E+03
C:/temp/Job-2.odb,Step-1,Increment      1: Step Time =    1.000,"P-2-1",           193,       52.7592,       69.2462,            0.,NA,NA,"",   884.828E+03,   689.369E+03,   689.369E+03
C:/temp/Job-2.odb,Step-1,Increment      1: Step Time =    1.000,"P-2-1",           194,       41.5681,       71.8247,            0.,NA,NA,"",   696.089E+03,   583.245E+03,   583.245E+03
C:/temp/Job-2.odb,Step-1,Increment      1: Step Time =    1.000,"P-2-1",           195,       32.7938,       75.6346,            0.,NA,NA,"",   502.165E+03,   468.329E+03,   468.329E+03
C:/temp/Job-2.odb,Step-1,Increment      1: Step Time =    1.000,"P-2-1",           196,       19.8646,       71.6875,            0.,NA,NA,"",   509.468E+03,   542.954E+03,   542.954E+03
C:/temp/Job-2.odb,Step-1,Increment      1: Step Time =    1.000,"P-2-1",           197,       8.61221,       75.5842,            0.,NA,NA,"",   415.229E+03,   464.761E+03,   464.761E+03
C:/temp/Job-2.odb,Step-1,Increment      1: Step Time =    1.000,"P-2-1",           198,       51.8706,       81.2469,            0.,NA,NA,"",   476.147E+03,  -364.828E+03,  -364.828E+03
C:/temp/Job-2.odb,Step-1,Increment      1: Step Time =    1.000,"P-2-1",           199,       41.6660,       82.7383,            0.,NA,NA,"",   373.033E+03,   59.0198E+03,   59.0198E+03
C:/temp/Job-2.odb,Step-1,Increment      1: Step Time =    1.000,"P-2-1",           200,       31.3154,       82.1460,            0.,NA,NA,"",   331.289E+03,   315.755E+03,   315.755E+03
C:/temp/Job-2.odb,Step-1,Increment      1: Step Time =    1.000,"P-2-1",           201,       23.2929,       84.0289,            0.,NA,NA,"",   278.670E+03,   304.711E+03,   304.711E+03
C:/temp/Job-2.odb,Step-1,Increment      1: Step Time =    1.000,"P-2-1",           202,       9.17424,       85.1765,            0.,NA,NA,"",   278.379E+03,   318.878E+03,   318.878E+03
C:/temp/Job-2.odb,Step-1,Increment      1: Step Time =    1.000,"P-2-1",           203,       52.4695,       89.8458,            0.,NA,NA,"",   538.812E+03,  -549.821E+03,  -549.821E+03
C:/temp/Job-2.odb,Step-1,Increment      1: Step Time =    1.000,"P-2-1",           204,       41.4007,       94.0826,            0.,NA,NA,"",   171.437E+03,  -159.494E+03,  -159.494E+03
C:/temp/Job-2.odb,Step-1,Increment      1: Step Time =    1.000,"P-2-1",           205,       32.1197,       97.2238,            0.,NA,NA,"",   75.7842E+03,   79.9262E+03,   79.9262E+03
C:/temp/Job-2.odb,Step-1,Increment      1: Step Time =    1.000,"P-2-1",           206,       19.4841,       94.9342,            0.,NA,NA,"",   166.598E+03,   187.204E+03,   187.204E+03
C:/temp/Job-2.odb,Step-1,Increment      1: Step Time =    1.000,"P-2-1",           207,       9.56402,       94.9906,            0.,NA,NA,"",   194.725E+03,   219.480E+03,   219.480E+03
C:/temp/Job-2.odb,Step-1,Increment      1: Step Time =    1.000,"P-2-1",           208,       53.6436,       101.568,            0.,NA,NA,"",   697.083E+03,  -721.290E+03,  -721.290E+03
C:/temp/Job-2.odb,Step-1,Increment      1: Step Time =    1.000,"P-2-1",           209,       44.3074,       103.760,            0.,NA,NA,"",   227.893E+03,  -241.629E+03,  -241.629E+03
C:/temp/Job-2.odb,Step-1,Increment      1: Step Time =    1.000,"P-2-1",           210,       34.6407,       106.779,            0.,NA,NA,"",   121.833E+03,   32.2281E+03,   32.2281E+03
C:/temp/Job-2.odb,Step-1,Increment      1: Step Time =    1.000,"P-2-1",           211,       18.9946,       104.779,            0.,NA,NA,"",   168.514E+03,   189.584E+03,   189.584E+03
C:/temp/Job-2.odb,Step-1,Increment      1: Step Time =    1.000,"P-2-1",           212,       9.64106,       104.805,            0.,NA,NA,"",   193.787E+03,   218.258E+03,   218.258E+03
C:/temp/Job-2.odb,Step-1,Increment      1: Step Time =    1.000,"P-2-1",           213,       53.5563,       116.173,            0.,NA,NA,"",   486.090E+03,  -457.285E+03,  -457.285E+03
C:/temp/Job-2.odb,Step-1,Increment      1: Step Time =    1.000,"P-2-1",           214,       42.8765,       114.955,            0.,NA,NA,"",   326.901E+03,  -15.3941E+03,  -15.3941E+03
C:/temp/Job-2.odb,Step-1,Increment      1: Step Time =    1.000,"P-2-1",           215,       30.0192,       118.515,            0.,NA,NA,"",   342.955E+03,   337.840E+03,   337.840E+03
C:/temp/Job-2.odb,Step-1,Increment      1: Step Time =    1.000,"P-2-1",           216,       10.1001,       114.755,            0.,NA,NA,"",   279.697E+03,   320.142E+03,   320.142E+03
C:/temp/Job-2.odb,Step-1,Increment      1: Step Time =    1.000,"P-2-1",           217,       50.0359,       129.088,            0.,NA,NA,"",   793.247E+03,   609.421E+03,   609.421E+03
C:/temp/Job-2.odb,Step-1,Increment      1: Step Time =    1.000,"P-2-1",           218,       43.0771,       126.259,            0.,NA,NA,"",   651.399E+03,   518.525E+03,   518.525E+03
C:/temp/Job-2.odb,Step-1,Increment      1: Step Time =    1.000,"P-2-1",           219,       34.0516,       125.517,            0.,NA,NA,"",   550.640E+03,   502.514E+03,   502.514E+03
C:/temp/Job-2.odb,Step-1,Increment      1: Step Time =    1.000,"P-2-1",           220,       23.0476,       126.376,            0.,NA,NA,"",   484.972E+03,   507.575E+03,   507.575E+03
C:/temp/Job-2.odb,Step-1,Increment      1: Step Time =    1.000,"P-2-1",           221,       10.6058,       125.004,            0.,NA,NA,"",   427.561E+03,   477.243E+03,   477.243E+03
C:/temp/Job-2.odb,Step-1,Increment      1: Step Time =    1.000,"P-2-1",           222,       189.770,       10.3097,            0.,NA,NA,"",   1.00359E+06,   1.00520E+06,   1.00520E+06
C:/temp/Job-2.odb,Step-1,Increment      1: Step Time =    1.000,"P-2-1",           223,       179.674,       10.8462,            0.,NA,NA,"",   1.01905E+06,   1.01955E+06,   1.01955E+06
C:/temp/Job-2.odb,Step-1,Increment      1: Step Time =    1.000,"P-2-1",           224,       168.565,       12.3577,            0.,NA,NA,"",   1.05769E+06,   1.05007E+06,   1.05007E+06
C:/temp/Job-2.odb,Step-1,Increment      1: Step Time =    1.000,"P-2-1",           225,       158.432,       9.44532,            0.,NA,NA,"",   1.03583E+06,   1.02726E+06,   1.02726E+06
C:/temp/Job-2.odb,Step-1,Increment      1: Step Time =    1.000,"P-2-1",           226,       149.042,       8.77700,            0.,NA,NA,"",   1.00840E+06,   999.647E+03,   999.647E+03
C:/temp/Job-2.odb,Step-1,Increment      1: Step Time =    1.000,"P-2-1",           227,       134.800,       9.18464,            0.,NA,NA,"",   947.159E+03,   942.713E+03,   942.713E+03
C:/temp/Job-2.odb,Step-1,Increment      1: Step Time =    1.000,"P-2-1",           228,       125.062,       9.80120,            0.,NA,NA,"",   904.976E+03,   910.336E+03,   910.336E+03
C:/temp/Job-2.odb,Step-1,Increment      1: Step Time =    1.000,"P-2-1",           229,       114.950,       10.5357,            0.,NA,NA,"",   879.688E+03,   899.770E+03,   899.770E+03
C:/temp/Job-2.odb,Step-1,Increment      1: Step Time =    1.000,"P-2-1",           230,       104.687,       10.2242,            0.,NA,NA,"",   891.525E+03,   913.061E+03,   913.061E+03
C:/temp/Job-2.odb,Step-1,Increment      1: Step Time =    1.000,"P-2-1",           231,       94.7683,       10.0842,            0.,NA,NA,"",   978.903E+03,   990.411E+03,   990.411E+03
C:/temp/Job-2.odb,Step-1,Increment      1: Step Time =    1.000,"P-2-1",           232,       84.8081,       9.97482,            0.,NA,NA,"",   1.12031E+06,   1.11783E+06,   1.11783E+06
C:/temp/Job-2.odb,Step-1,Increment      1: Step Time =    1.000,"P-2-1",           233,       74.8343,       10.0168,            0.,NA,NA,"",   1.27980E+06,   1.26423E+06,   1.26423E+06
C:/temp/Job-2.odb,Step-1,Increment      1: Step Time =    1.000,"P-2-1",           234,       64.9406,       10.0899,            0.,NA,NA,"",   1.42119E+06,   1.40026E+06,   1.40026E+06
C:/temp/Job-2.odb,Step-1,Increment      1: Step Time =    1.000,"P-2-1",           235,       50.0466,       10.2922,            0.,NA,NA,"",   1.58323E+06,   1.56395E+06,   1.56395E+06
C:/temp/Job-2.odb,Step-1,Increment      1: Step Time =    1.000,"P-2-1",           236,       40.1603,       10.3994,            0.,NA,NA,"",   1.65711E+06,   1.64349E+06,   1.64349E+06
C:/temp/Job-2.odb,Step-1,Increment      1: Step Time =    1.000,"P-2-1",           237,       30.2402,       10.0900,            0.,NA,NA,"",   1.71698E+06,   1.71184E+06,   1.71184E+06
C:/temp/Job-2.odb,Step-1,Increment      1: Step Time =    1.000,"P-2-1",           238,       20.2753,       10.1278,            0.,NA,NA,"",   1.77489E+06,   1.78633E+06,   1.78633E+06
C:/temp/Job-2.odb,Step-1,Increment      1: Step Time =    1.000,"P-2-1",           239,       10.2331,       10.2402,            0.,NA,NA,"",   1.83588E+06,   1.89499E+06,   1.89499E+06
C:/temp/Job-2.odb,Step-1,Increment      1: Step Time =    1.000,"P-2-1",           240,       189.879,       20.2020,            0.,NA,NA,"",   1.00856E+06,   1.01606E+06,   1.01606E+06
C:/temp/Job-2.odb,Step-1,Increment      1: Step Time =    1.000,"P-2-1",           241,       179.830,       22.4710,            0.,NA,NA,"",   1.06483E+06,   1.06642E+06,   1.06642E+06
C:/temp/Job-2.odb,Step-1,Increment      1: Step Time =    1.000,"P-2-1",           242,       166.919,       20.5380,            0.,NA,NA,"",   1.13694E+06,   1.11758E+06,   1.11758E+06
C:/temp/Job-2.odb,Step-1,Increment      1: Step Time =    1.000,"P-2-1",           243,       159.096,       22.1842,            0.,NA,NA,"",   1.20187E+06,   1.16961E+06,   1.16961E+06
C:/temp/Job-2.odb,Step-1,Increment      1: Step Time =    1.000,"P-2-1",           244,       148.170,       21.9518,            0.,NA,NA,"",   1.25243E+06,   1.21593E+06,   1.21593E+06
C:/temp/Job-2.odb,Step-1,Increment      1: Step Time =    1.000,"P-2-1",           245,       135.086,       18.7281,            0.,NA,NA,"",   1.18879E+06,   1.17799E+06,   1.17799E+06
C:/temp/Job-2.odb,Step-1,Increment      1: Step Time =    1.000,"P-2-1",           246,       125.795,       19.6829,            0.,NA,NA,"",   1.17712E+06,   1.19590E+06,   1.19590E+06
C:/temp/Job-2.odb,Step-1,Increment      1: Step Time =    1.000,"P-2-1",           247,       111.882,       21.0660,            0.,NA,NA,"",   1.17132E+06,   1.23748E+06,   1.23748E+06
C:/temp/Job-2.odb,Step-1,Increment      1: Step Time =    1.000,"P-2-1",           248,       104.094,       20.2627,            0.,NA,NA,"",   1.17580E+06,   1.23935E+06,   1.23935E+06
C:/temp/Job-2.odb,Step-1,Increment      1: Step Time =    1.000,"P-2-1",           249,       94.1789,       20.5179,            0.,NA,NA,"",   1.27895E+06,   1.32130E+06,   1.32130E+06
C:/temp/Job-2.odb,Step-1,Increment      1: Step Time =    1.000,"P-2-1",           250,       84.6050,       19.7737,            0.,NA,NA,"",   1.38452E+06,   1.38816E+06,   1.38816E+06
C:/temp/Job-2.odb,Step-1,Increment      1: Step Time =    1.000,"P-2-1",           251,       75.0541,       20.2762,            0.,NA,NA,"",   1.50897E+06,   1.47642E+06,   1.47642E+06
C:/temp/Job-2.odb,Step-1,Increment      1: Step Time =    1.000,"P-2-1",           252,       65.0463,       20.5025,            0.,NA,NA,"",   1.58420E+06,   1.52918E+06,   1.52918E+06
C:/temp/Job-2.odb,Step-1,Increment      1: Step Time =    1.000,"P-2-1",           253,       55.3731,       20.5335,            0.,NA,NA,"",   1.61441E+06,   1.55660E+06,   1.55660E+06
C:/temp/Job-2.odb,Step-1,Increment      1: Step Time =    1.000,"P-2-1",           254,       45.5085,       21.2907,            0.,NA,NA,"",   1.62381E+06,   1.57312E+06,   1.57312E+06
C:/temp/Job-2.odb,Step-1,Increment      1: Step Time =    1.000,"P-2-1",           255,       29.4936,       19.8260,            0.,NA,NA,"",   1.62447E+06,   1.61699E+06,   1.61699E+06
C:/temp/Job-2.odb,Step-1,Increment      1: Step Time =    1.000,"P-2-1",           256,       21.6379,       20.7156,            0.,NA,NA,"",   1.59826E+06,   1.61883E+06,   1.61883E+06
C:/temp/Job-2.odb,Step-1,Increment      1: Step Time =    1.000,"P-2-1",           257,       10.4235,       20.3914,            0.,NA,NA,"",   1.50696E+06,   1.60316E+06,   1.60316E+06
C:/temp/Job-2.odb,Step-1,Increment      1: Step Time =    1.000,"P-2-1",           258,       187.883,       30.4604,            0.,NA,NA,"",   1.02606E+06,   1.04580E+06,   1.04580E+06
C:/temp/Job-2.odb,Step-1,Increment      1: Step Time =    1.000,"P-2-1",           259,       178.896,       31.1222,            0.,NA,NA,"",   1.11006E+06,   1.11054E+06,   1.11054E+06
C:/temp/Job-2.odb,Step-1,Increment      1: Step Time =    1.000,"P-2-1",           260,       164.995,       28.0992,            0.,NA,NA,"",   1.23705E+06,   1.19974E+06,   1.19974E+06
C:/temp/Job-2.odb,Step-1,Increment      1: Step Time =    1.000,"P-2-1",           261,       158.492,       30.8261,            0.,NA,NA,"",   1.33200E+06,   1.27502E+06,   1.27502E+06
C:/temp/Job-2.odb,Step-1,Increment      1: Step Time =    1.000,"P-2-1",           262,       148.974,       29.9463,            0.,NA,NA,"",   1.40293E+06,   1.34293E+06,   1.34293E+06
C:/temp/Job-2.odb,Step-1,Increment      1: Step Time =    1.000,"P-2-1",           263,       136.008,       29.5149,            0.,NA,NA,"",   1.44121E+06,   1.41909E+06,   1.41909E+06
C:/temp/Job-2.odb,Step-1,Increment      1: Step Time =    1.000,"P-2-1",           264,       127.587,       30.3118,            0.,NA,NA,"",   1.45652E+06,   1.48116E+06,   1.48116E+06
C:/temp/Job-2.odb,Step-1,Increment      1: Step Time =    1.000,"P-2-1",           265,       117.057,       31.3765,            0.,NA,NA,"",   1.46038E+06,   1.55275E+06,   1.55275E+06
C:/temp/Job-2.odb,Step-1,Increment      1: Step Time =    1.000,"P-2-1",           266,       101.963,       31.1725,            0.,NA,NA,"",   1.48930E+06,   1.60475E+06,   1.60475E+06
C:/temp/Job-2.odb,Step-1,Increment      1: Step Time =    1.000,"P-2-1",           267,       93.4965,       32.1732,            0.,NA,NA,"",   1.59909E+06,   1.68795E+06,   1.68795E+06
C:/temp/Job-2.odb,Step-1,Increment      1: Step Time =    1.000,"P-2-1",           268,       85.1988,       31.9153,            0.,NA,NA,"",   1.67181E+06,   1.70627E+06,   1.70627E+06
C:/temp/Job-2.odb,Step-1,Increment      1: Step Time =    1.000,"P-2-1",           269,       74.1256,       31.4623,            0.,NA,NA,"",   1.73810E+06,   1.68970E+06,   1.68970E+06
C:/temp/Job-2.odb,Step-1,Increment      1: Step Time =    1.000,"P-2-1",           270,       65.0287,       30.9651,            0.,NA,NA,"",   1.71405E+06,   1.62843E+06,   1.62843E+06
C:/temp/Job-2.odb,Step-1,Increment      1: Step Time =    1.000,"P-2-1",           271,       55.3375,       31.4501,            0.,NA,NA,"",   1.67967E+06,   1.58272E+06,   1.58272E+06
C:/temp/Job-2.odb,Step-1,Increment      1: Step Time =    1.000,"P-2-1",           272,       44.2388,       32.9727,            0.,NA,NA,"",   1.58369E+06,   1.50091E+06,   1.50091E+06
C:/temp/Job-2.odb,Step-1,Increment      1: Step Time =    1.000,"P-2-1",           273,       33.0672,       29.2671,            0.,NA,NA,"",   1.52816E+06,   1.49664E+06,   1.49664E+06
C:/temp/Job-2.odb,Step-1,Increment      1: Step Time =    1.000,"P-2-1",           274,       24.9825,       30.8866,            0.,NA,NA,"",   1.43903E+06,   1.44680E+06,   1.44680E+06
C:/temp/Job-2.odb,Step-1,Increment      1: Step Time =    1.000,"P-2-1",           275,       15.6203,       30.5423,            0.,NA,NA,"",   1.34240E+06,   1.40583E+06,   1.40583E+06
C:/temp/Job-2.odb,Step-1,Increment      1: Step Time =    1.000,"P-2-1",           276,       189.910,       40.5706,            0.,NA,NA,"",   1.00031E+06,   1.05011E+06,   1.05011E+06
C:/temp/Job-2.odb,Step-1,Increment      1: Step Time =    1.000,"P-2-1",           277,       180.128,       45.9673,            0.,NA,NA,"",   1.15400E+06,   1.16632E+06,   1.16632E+06
C:/temp/Job-2.odb,Step-1,Increment      1: Step Time =    1.000,"P-2-1",           278,       168.722,       40.2604,            0.,NA,NA,"",   1.32422E+06,   1.26825E+06,   1.26825E+06
C:/temp/Job-2.odb,Step-1,Increment      1: Step Time =    1.000,"P-2-1",           279,       159.239,       41.6174,            0.,NA,NA,"",   1.48905E+06,   1.38719E+06,   1.38719E+06
C:/temp/Job-2.odb,Step-1,Increment      1: Step Time =    1.000,"P-2-1",           280,       148.979,       41.6254,            0.,NA,NA,"",   1.62252E+06,   1.51048E+06,   1.51048E+06
C:/temp/Job-2.odb,Step-1,Increment      1: Step Time =    1.000,"P-2-1",           281,       137.565,       40.7808,            0.,NA,NA,"",   1.69681E+06,   1.63978E+06,   1.63978E+06
C:/temp/Job-2.odb,Step-1,Increment      1: Step Time =    1.000,"P-2-1",           282,       127.618,       40.6124,            0.,NA,NA,"",   1.72538E+06,   1.76055E+06,   1.76055E+06
C:/temp/Job-2.odb,Step-1,Increment      1: Step Time =    1.000,"P-2-1",           283,       119.232,       38.5992,            0.,NA,NA,"",   1.68873E+06,   1.79086E+06,   1.79086E+06
C:/temp/Job-2.odb,Step-1,Increment      1: Step Time =    1.000,"P-2-1",           284,       104.626,       40.7344,            0.,NA,NA,"",   1.85841E+06,   2.02137E+06,   2.02137E+06
C:/temp/Job-2.odb,Step-1,Increment      1: Step Time =    1.000,"P-2-1",           285,       94.0981,       42.9159,            0.,NA,NA,"",   2.00090E+06,   2.13793E+06,   2.13793E+06
C:/temp/Job-2.odb,Step-1,Increment      1: Step Time =    1.000,"P-2-1",           286,       81.6668,       40.2623,            0.,NA,NA,"",   1.86964E+06,   1.88904E+06,   1.88904E+06
C:/temp/Job-2.odb,Step-1,Increment      1: Step Time =    1.000,"P-2-1",           287,       74.5865,       40.9960,            0.,NA,NA,"",   1.84923E+06,   1.80288E+06,   1.80288E+06
C:/temp/Job-2.odb,Step-1,Increment      1: Step Time =    1.000,"P-2-1",           288,       67.0308,       41.5277,            0.,NA,NA,"",   1.79709E+06,   1.69902E+06,   1.69902E+06
C:/temp/Job-2.odb,Step-1,Increment      1: Step Time =    1.000,"P-2-1",           289,       55.5579,       42.3313,            0.,NA,NA,"",   1.65826E+06,   1.52659E+06,   1.52659E+06
C:/temp/Job-2.odb,Step-1,Increment      1: Step Time =    1.000,"P-2-1",           290,       41.5471,       40.7512,            0.,NA,NA,"",   1.47819E+06,   1.39138E+06,   1.39138E+06
C:/temp/Job-2.odb,Step-1,Increment      1: Step Time =    1.000,"P-2-1",           291,       31.1747,       39.0270,            0.,NA,NA,"",   1.36817E+06,   1.33906E+06,   1.33906E+06
C:/temp/Job-2.odb,Step-1,Increment      1: Step Time =    1.000,"P-2-1",           292,       18.4729,       42.9353,            0.,NA,NA,"",   1.12946E+06,   1.17389E+06,   1.17389E+06
C:/temp/Job-2.odb,Step-1,Increment      1: Step Time =    1.000,"P-2-1",           293,       12.0065,       41.8172,            0.,NA,NA,"",   1.07752E+06,   1.15485E+06,   1.15485E+06
C:/temp/Job-2.odb,Step-1,Increment      1: Step Time =    1.000,"P-2-1",           294,       188.453,       158.107,            0.,NA,NA,"",   1.01546E+06,   1.06434E+06,   1.06434E+06
C:/temp/Job-2.odb,Step-1,Increment      1: Step Time =    1.000,"P-2-1",           295,       181.393,       156.925,            0.,NA,NA,"",   1.11752E+06,   1.13596E+06,   1.13596E+06
C:/temp/Job-2.odb,Step-1,Increment      1: Step Time =    1.000,"P-2-1",           296,       169.450,       157.263,            0.,NA,NA,"",   1.32786E+06,   1.27099E+06,   1.27099E+06
C:/temp/Job-2.odb,Step-1,Increment      1: Step Time =    1.000,"P-2-1",           297,       158.277,       157.617,            0.,NA,NA,"",   1.50468E+06,   1.39524E+06,   1.39524E+06
C:/temp/Job-2.odb,Step-1,Increment      1: Step Time =    1.000,"P-2-1",           298,       150.695,       158.965,            0.,NA,NA,"",   1.58906E+06,   1.47762E+06,   1.47762E+06
C:/temp/Job-2.odb,Step-1,Increment      1: Step Time =    1.000,"P-2-1",           299,       136.098,       157.152,            0.,NA,NA,"",   1.74412E+06,   1.69429E+06,   1.69429E+06
C:/temp/Job-2.odb,Step-1,Increment      1: Step Time =    1.000,"P-2-1",           300,       125.301,       157.701,            0.,NA,NA,"",   1.79040E+06,   1.85141E+06,   1.85141E+06
C:/temp/Job-2.odb,Step-1,Increment      1: Step Time =    1.000,"P-2-1",           301,       115.742,       157.794,            0.,NA,NA,"",   1.85116E+06,   1.98716E+06,   1.98716E+06
C:/temp/Job-2.odb,Step-1,Increment      1: Step Time =    1.000,"P-2-1",           302,       104.096,       155.669,            0.,NA,NA,"",   2.10542E+06,   2.28095E+06,   2.28095E+06
C:/temp/Job-2.odb,Step-1,Increment      1: Step Time =    1.000,"P-2-1",           303,       94.2459,       157.904,            0.,NA,NA,"",   1.95799E+06,   2.09536E+06,   2.09536E+06
C:/temp/Job-2.odb,Step-1,Increment      1: Step Time =    1.000,"P-2-1",           304,       81.5079,       157.866,            0.,NA,NA,"",   1.90369E+06,   1.92732E+06,   1.92732E+06
C:/temp/Job-2.odb,Step-1,Increment      1: Step Time =    1.000,"P-2-1",           305,       72.3368,       160.123,            0.,NA,NA,"",   1.83283E+06,   1.77143E+06,   1.77143E+06
C:/temp/Job-2.odb,Step-1,Increment      1: Step Time =    1.000,"P-2-1",           306,       61.3673,       158.334,            0.,NA,NA,"",   1.73253E+06,   1.60740E+06,   1.60740E+06
C:/temp/Job-2.odb,Step-1,Increment      1: Step Time =    1.000,"P-2-1",           307,       50.4395,       157.091,            0.,NA,NA,"",   1.57706E+06,   1.45482E+06,   1.45482E+06
C:/temp/Job-2.odb,Step-1,Increment      1: Step Time =    1.000,"P-2-1",           308,       44.8940,       159.767,            0.,NA,NA,"",   1.52372E+06,   1.42448E+06,   1.42448E+06
C:/temp/Job-2.odb,Step-1,Increment      1: Step Time =    1.000,"P-2-1",           309,       31.6160,       157.359,            0.,NA,NA,"",   1.31134E+06,   1.27703E+06,   1.27703E+06
C:/temp/Job-2.odb,Step-1,Increment      1: Step Time =    1.000,"P-2-1",           310,       20.9850,       158.400,            0.,NA,NA,"",   1.18527E+06,   1.21528E+06,   1.21528E+06
C:/temp/Job-2.odb,Step-1,Increment      1: Step Time =    1.000,"P-2-1",           311,       10.0777,       160.509,            0.,NA,NA,"",   1.10028E+06,   1.19019E+06,   1.19019E+06
C:/temp/Job-2.odb,Step-1,Increment      1: Step Time =    1.000,"P-2-1",           312,       187.375,       169.242,            0.,NA,NA,"",   1.02832E+06,   1.04883E+06,   1.04883E+06
C:/temp/Job-2.odb,Step-1,Increment      1: Step Time =    1.000,"P-2-1",           313,       179.224,       167.826,            0.,NA,NA,"",   1.10998E+06,   1.11202E+06,   1.11202E+06
C:/temp/Job-2.odb,Step-1,Increment      1: Step Time =    1.000,"P-2-1",           314,       167.683,       167.371,            0.,NA,NA,"",   1.25268E+06,   1.21298E+06,   1.21298E+06
C:/temp/Job-2.odb,Step-1,Increment      1: Step Time =    1.000,"P-2-1",           315,       156.529,       168.803,            0.,NA,NA,"",   1.37329E+06,   1.30711E+06,   1.30711E+06
C:/temp/Job-2.odb,Step-1,Increment      1: Step Time =    1.000,"P-2-1",           316,       144.601,       169.726,            0.,NA,NA,"",   1.44775E+06,   1.39323E+06,   1.39323E+06
C:/temp/Job-2.odb,Step-1,Increment      1: Step Time =    1.000,"P-2-1",           317,       134.940,       168.669,            0.,NA,NA,"",   1.49201E+06,   1.47453E+06,   1.47453E+06
C:/temp/Job-2.odb,Step-1,Increment      1: Step Time =    1.000,"P-2-1",           318,       124.379,       167.168,            0.,NA,NA,"",   1.51704E+06,   1.57148E+06,   1.57148E+06
C:/temp/Job-2.odb,Step-1,Increment      1: Step Time =    1.000,"P-2-1",           319,       115.977,       166.850,            0.,NA,NA,"",   1.50786E+06,   1.61120E+06,   1.61120E+06
C:/temp/Job-2.odb,Step-1,Increment      1: Step Time =    1.000,"P-2-1",           320,       104.513,       166.705,            0.,NA,NA,"",   1.54717E+06,   1.67750E+06,   1.67750E+06
C:/temp/Job-2.odb,Step-1,Increment      1: Step Time =    1.000,"P-2-1",           321,       83.6041,       166.053,            0.,NA,NA,"",   1.73176E+06,   1.75482E+06,   1.75482E+06
C:/temp/Job-2.odb,Step-1,Increment      1: Step Time =    1.000,"P-2-1",           322,       74.8037,       170.644,            0.,NA,NA,"",   1.68709E+06,   1.64790E+06,   1.64790E+06
C:/temp/Job-2.odb,Step-1,Increment      1: Step Time =    1.000,"P-2-1",           323,       63.3631,       167.911,            0.,NA,NA,"",   1.72490E+06,   1.63164E+06,   1.63164E+06
C:/temp/Job-2.odb,Step-1,Increment      1: Step Time =    1.000,"P-2-1",           324,       54.3368,       165.811,            0.,NA,NA,"",   1.67048E+06,   1.56444E+06,   1.56444E+06
C:/temp/Job-2.odb,Step-1,Increment      1: Step Time =    1.000,"P-2-1",           325,       44.7890,       167.806,            0.,NA,NA,"",   1.59139E+06,   1.51230E+06,   1.51230E+06
C:/temp/Job-2.odb,Step-1,Increment      1: Step Time =    1.000,"P-2-1",           326,       31.5673,       171.724,            0.,NA,NA,"",   1.53030E+06,   1.50647E+06,   1.50647E+06
C:/temp/Job-2.odb,Step-1,Increment      1: Step Time =    1.000,"P-2-1",           327,       20.4030,       170.411,            0.,NA,NA,"",   1.41143E+06,   1.44625E+06,   1.44625E+06
C:/temp/Job-2.odb,Step-1,Increment      1: Step Time =    1.000,"P-2-1",           328,       9.67453,       170.200,            0.,NA,NA,"",   1.28432E+06,   1.38642E+06,   1.38642E+06
C:/temp/Job-2.odb,Step-1,Increment      1: Step Time =    1.000,"P-2-1",           329,       189.190,       179.902,            0.,NA,NA,"",   1.01264E+06,   1.01979E+06,   1.01979E+06
C:/temp/Job-2.odb,Step-1,Increment      1: Step Time =    1.000,"P-2-1",           330,       177.735,       180.444,            0.,NA,NA,"",   1.06493E+06,   1.06319E+06,   1.06319E+06
C:/temp/Job-2.odb,Step-1,Increment      1: Step Time =    1.000,"P-2-1",           331,       169.137,       179.689,            0.,NA,NA,"",   1.12174E+06,   1.10597E+06,   1.10597E+06
C:/temp/Job-2.odb,Step-1,Increment      1: Step Time =    1.000,"P-2-1",           332,       156.250,       179.838,            0.,NA,NA,"",   1.19066E+06,   1.16017E+06,   1.16017E+06
C:/temp/Job-2.odb,Step-1,Increment      1: Step Time =    1.000,"P-2-1",           333,       145.969,       180.117,            0.,NA,NA,"",   1.21597E+06,   1.18721E+06,   1.18721E+06
C:/temp/Job-2.odb,Step-1,Increment      1: Step Time =    1.000,"P-2-1",           334,       136.592,       180.861,            0.,NA,NA,"",   1.19464E+06,   1.18140E+06,   1.18140E+06
C:/temp/Job-2.odb,Step-1,Increment      1: Step Time =    1.000,"P-2-1",           335,       127.123,       178.506,            0.,NA,NA,"",   1.22548E+06,   1.24284E+06,   1.24284E+06
C:/temp/Job-2.odb,Step-1,Increment      1: Step Time =    1.000,"P-2-1",           336,       116.837,       180.044,            0.,NA,NA,"",   1.14694E+06,   1.19308E+06,   1.19308E+06
C:/temp/Job-2.odb,Step-1,Increment      1: Step Time =    1.000,"P-2-1",           337,       106.607,       178.309,            0.,NA,NA,"",   1.19767E+06,   1.26862E+06,   1.26862E+06
C:/temp/Job-2.odb,Step-1,Increment      1: Step Time =    1.000,"P-2-1",           338,       98.6341,       178.362,            0.,NA,NA,"",   1.25672E+06,   1.31697E+06,   1.31697E+06
C:/temp/Job-2.odb,Step-1,Increment      1: Step Time =    1.000,"P-2-1",           339,       89.3587,       177.748,            0.,NA,NA,"",   1.38568E+06,   1.41559E+06,   1.41559E+06
C:/temp/Job-2.odb,Step-1,Increment      1: Step Time =    1.000,"P-2-1",           340,       74.5262,       180.874,            0.,NA,NA,"",   1.48737E+06,   1.45463E+06,   1.45463E+06
C:/temp/Job-2.odb,Step-1,Increment      1: Step Time =    1.000,"P-2-1",           341,       65.6733,       177.138,            0.,NA,NA,"",   1.61669E+06,   1.55597E+06,   1.55597E+06
C:/temp/Job-2.odb,Step-1,Increment      1: Step Time =    1.000,"P-2-1",           342,       53.7988,       178.419,            0.,NA,NA,"",   1.62820E+06,   1.56513E+06,   1.56513E+06
C:/temp/Job-2.odb,Step-1,Increment      1: Step Time =    1.000,"P-2-1",           343,       42.8301,       180.040,            0.,NA,NA,"",   1.62261E+06,   1.58241E+06,   1.58241E+06
C:/temp/Job-2.odb,Step-1,Increment      1: Step Time =    1.000,"P-2-1",           344,       31.1433,       178.871,            0.,NA,NA,"",   1.60869E+06,   1.59264E+06,   1.59264E+06
C:/temp/Job-2.odb,Step-1,Increment      1: Step Time =    1.000,"P-2-1",           345,       18.5759,       179.660,            0.,NA,NA,"",   1.58869E+06,   1.62653E+06,   1.62653E+06
C:/temp/Job-2.odb,Step-1,Increment      1: Step Time =    1.000,"P-2-1",           346,       9.70727,       179.898,            0.,NA,NA,"",   1.50402E+06,   1.60573E+06,   1.60573E+06
C:/temp/Job-2.odb,Step-1,Increment      1: Step Time =    1.000,"P-2-1",           347,       189.723,       189.817,            0.,NA,NA,"",   1.00350E+06,   1.00501E+06,   1.00501E+06
C:/temp/Job-2.odb,Step-1,Increment      1: Step Time =    1.000,"P-2-1",           348,       179.841,       190.008,            0.,NA,NA,"",   1.01438E+06,   1.01509E+06,   1.01509E+06
C:/temp/Job-2.odb,Step-1,Increment      1: Step Time =    1.000,"P-2-1",           349,       169.750,       188.294,            0.,NA,NA,"",   1.04905E+06,   1.04290E+06,   1.04290E+06
C:/temp/Job-2.odb,Step-1,Increment      1: Step Time =    1.000,"P-2-1",           350,       159.844,       190.175,            0.,NA,NA,"",   1.04025E+06,   1.03147E+06,   1.03147E+06
C:/temp/Job-2.odb,Step-1,Increment      1: Step Time =    1.000,"P-2-1",           351,       150.439,       190.008,            0.,NA,NA,"",   1.02783E+06,   1.01757E+06,   1.01757E+06
C:/temp/Job-2.odb,Step-1,Increment      1: Step Time =    1.000,"P-2-1",           352,       135.700,       190.092,            0.,NA,NA,"",   970.094E+03,   964.365E+03,   964.365E+03
C:/temp/Job-2.odb,Step-1,Increment      1: Step Time =    1.000,"P-2-1",           353,       125.778,       189.840,            0.,NA,NA,"",   916.445E+03,   921.379E+03,   921.379E+03
C:/temp/Job-2.odb,Step-1,Increment      1: Step Time =    1.000,"P-2-1",           354,       115.751,       189.733,            0.,NA,NA,"",   876.739E+03,   894.371E+03,   894.371E+03
C:/temp/Job-2.odb,Step-1,Increment      1: Step Time =    1.000,"P-2-1",           355,       105.744,       189.652,            0.,NA,NA,"",   887.188E+03,   909.594E+03,   909.594E+03
C:/temp/Job-2.odb,Step-1,Increment      1: Step Time =    1.000,"P-2-1",           356,       95.8618,       189.463,            0.,NA,NA,"",   980.723E+03,   996.033E+03,   996.033E+03
C:/temp/Job-2.odb,Step-1,Increment      1: Step Time =    1.000,"P-2-1",           357,       85.6629,       189.080,            0.,NA,NA,"",   1.13351E+06,   1.13243E+06,   1.13243E+06
C:/temp/Job-2.odb,Step-1,Increment      1: Step Time =    1.000,"P-2-1",           358,       75.2468,       190.223,            0.,NA,NA,"",   1.26988E+06,   1.25495E+06,   1.25495E+06
C:/temp/Job-2.odb,Step-1,Increment      1: Step Time =    1.000,"P-2-1",           359,       65.5170,       190.921,            0.,NA,NA,"",   1.39882E+06,   1.38092E+06,   1.38092E+06
C:/temp/Job-2.odb,Step-1,Increment      1: Step Time =    1.000,"P-2-1",           360,       52.8309,       186.333,            0.,NA,NA,"",   1.57913E+06,   1.54750E+06,   1.54750E+06
C:/temp/Job-2.odb,Step-1,Increment      1: Step Time =    1.000,"P-2-1",           361,       41.7718,       187.799,            0.,NA,NA,"",   1.64129E+06,   1.62273E+06,   1.62273E+06
C:/temp/Job-2.odb,Step-1,Increment      1: Step Time =    1.000,"P-2-1",           362,       30.3755,       187.156,            0.,NA,NA,"",   1.68994E+06,   1.68349E+06,   1.68349E+06
C:/temp/Job-2.odb,Step-1,Increment      1: Step Time =    1.000,"P-2-1",           363,       19.7474,       189.350,            0.,NA,NA,"",   1.76955E+06,   1.78352E+06,   1.78352E+06
C:/temp/Job-2.odb,Step-1,Increment      1: Step Time =    1.000,"P-2-1",           364,       9.94238,       189.869,            0.,NA,NA,"",   1.83842E+06,   1.89992E+06,   1.89992E+06
C:/temp/Job-2.odb,Step-1,Increment      1: Step Time =    1.000,"P-2-1",           365,       95.0325,       141.705,            0.,NA,NA,"",   3.29186E+06,   3.37338E+06,   3.37338E+06
C:/temp/Job-2.odb,Step-1,Increment      1: Step Time =    1.000,"P-2-1",           366,       90.1348,       140.825,            0.,NA,NA,"",   2.96280E+06,   3.02419E+06,   3.02419E+06
C:/temp/Job-2.odb,Step-1,Increment      1: Step Time =    1.000,"P-2-1",           367,       80.8216,       137.366,            0.,NA,NA,"",   2.00529E+06,   2.03842E+06,   2.03842E+06
C:/temp/Job-2.odb,Step-1,Increment      1: Step Time =    1.000,"P-2-1",           368,       72.5815,       131.815,            0.,NA,NA,"",   930.745E+03,   928.784E+03,   928.784E+03
C:/temp/Job-2.odb,Step-1,Increment      1: Step Time =    1.000,"P-2-1",           369,       69.0110,       128.349,            0.,NA,NA,"",   508.289E+03,   468.283E+03,   468.283E+03
C:/temp/Job-2.odb,Step-1,Increment      1: Step Time =    1.000,"P-2-1",           370,       63.2191,       120.277,            0.,NA,NA,"",   416.719E+03,  -391.673E+03,  -391.673E+03
C:/temp/Job-2.odb,Step-1,Increment      1: Step Time =    1.000,"P-2-1",           371,       61.0790,       115.785,            0.,NA,NA,"",   606.045E+03,  -606.395E+03,  -606.395E+03
C:/temp/Job-2.odb,Step-1,Increment      1: Step Time =    1.000,"P-2-1",           372,       58.4603,       106.201,            0.,NA,NA,"",   856.891E+03,  -871.871E+03,  -871.871E+03
C:/temp/Job-2.odb,Step-1,Increment      1: Step Time =    1.000,"P-2-1",           373,       58.1659,       96.2706,            0.,NA,NA,"",   821.618E+03,  -840.355E+03,  -840.355E+03
C:/temp/Job-2.odb,Step-1,Increment      1: Step Time =    1.000,"P-2-1",           374,       58.9006,       91.3489,            0.,NA,NA,"",   749.343E+03,  -771.183E+03,  -771.183E+03
C:/temp/Job-2.odb,Step-1,Increment      1: Step Time =    1.000,"P-2-1",           375,       62.0825,       81.9373,            0.,NA,NA,"",   509.067E+03,  -501.871E+03,  -501.871E+03
C:/temp/Job-2.odb,Step-1,Increment      1: Step Time =    1.000,"P-2-1",           376,       64.4850,       77.5794,            0.,NA,NA,"",   348.353E+03,  -289.332E+03,  -289.332E+03
C:/temp/Job-2.odb,Step-1,Increment      1: Step Time =    1.000,"P-2-1",           377,       70.7449,       69.8647,            0.,NA,NA,"",   712.174E+03,   694.189E+03,   694.189E+03
C:/temp/Job-2.odb,Step-1,Increment      1: Step Time =    1.000,"P-2-1",           378,       78.6417,       63.8362,            0.,NA,NA,"",   1.73762E+06,   1.75970E+06,   1.75970E+06
C:/temp/Job-2.odb,Step-1,Increment      1: Step Time =    1.000,"P-2-1",           379,       83.0688,       61.5639,            0.,NA,NA,"",   2.30159E+06,   2.33897E+06,   2.33897E+06
C:/temp/Job-2.odb,Step-1,Increment      1: Step Time =    1.000,"P-2-1",           380,       92.5706,       58.6623,            0.,NA,NA,"",   3.19575E+06,   3.26249E+06,   3.26249E+06
C:/temp/Job-2.odb,Step-1,Increment      1: Step Time =    1.000,"P-2-1",           381,       97.5119,       58.0738,            0.,NA,NA,"",   3.44596E+06,   3.51936E+06,   3.51936E+06
C:/temp/Job-2.odb,Step-1,Increment      1: Step Time =    1.000,"P-2-1",           382,       107.429,       58.6623,            0.,NA,NA,"",   3.45621E+06,   3.56706E+06,   3.56706E+06
C:/temp/Job-2.odb,Step-1,Increment      1: Step Time =    1.000,"P-2-1",           383,       116.931,       61.5639,            0.,NA,NA,"",   3.03446E+06,   3.09133E+06,   3.09133E+06
C:/temp/Job-2.odb,Step-1,Increment      1: Step Time =    1.000,"P-2-1",           384,       121.358,       63.8362,            0.,NA,NA,"",   2.61266E+06,   2.65667E+06,   2.65667E+06
C:/temp/Job-2.odb,Step-1,Increment      1: Step Time =    1.000,"P-2-1",           385,       129.255,       69.8647,            0.,NA,NA,"",   1.50579E+06,   1.49669E+06,   1.49669E+06
C:/temp/Job-2.odb,Step-1,Increment      1: Step Time =    1.000,"P-2-1",           386,       135.515,       77.5794,            0.,NA,NA,"",   587.334E+03,   158.515E+03,   158.515E+03
C:/temp/Job-2.odb,Step-1,Increment      1: Step Time =    1.000,"P-2-1",           387,       137.918,       81.9373,            0.,NA,NA,"",   621.572E+03,  -562.002E+03,  -562.002E+03
C:/temp/Job-2.odb,Step-1,Increment      1: Step Time =    1.000,"P-2-1",           388,       141.099,       91.3489,            0.,NA,NA,"",   1.27025E+06,  -1.28986E+06,  -1.28986E+06
C:/temp/Job-2.odb,Step-1,Increment      1: Step Time =    1.000,"P-2-1",           389,       141.834,       96.2706,            0.,NA,NA,"",   1.43639E+06,  -1.46803E+06,  -1.46803E+06
C:/temp/Job-2.odb,Step-1,Increment      1: Step Time =    1.000,"P-2-1",           390,       141.540,       106.201,            0.,NA,NA,"",   1.39061E+06,  -1.40742E+06,  -1.40742E+06
C:/temp/Job-2.odb,Step-1,Increment      1: Step Time =    1.000,"P-2-1",           391,       138.921,       115.785,            0.,NA,NA,"",   795.527E+03,  -743.039E+03,  -743.039E+03
C:/temp/Job-2.odb,Step-1,Increment      1: Step Time =    1.000,"P-2-1",           392,       136.781,       120.277,            0.,NA,NA,"",   562.345E+03,  -76.3601E+03,  -76.3601E+03
C:/temp/Job-2.odb,Step-1,Increment      1: Step Time =    1.000,"P-2-1",           393,       130.989,       128.349,            0.,NA,NA,"",   1.18879E+06,   1.18691E+06,   1.18691E+06
C:/temp/Job-2.odb,Step-1,Increment      1: Step Time =    1.000,"P-2-1",           394,       127.419,       131.815,            0.,NA,NA,"",   1.73858E+06,   1.75866E+06,   1.75866E+06
C:/temp/Job-2.odb,Step-1,Increment      1: Step Time =    1.000,"P-2-1",           395,       119.178,       137.366,            0.,NA,NA,"",   2.68127E+06,   2.76029E+06,   2.76029E+06
C:/temp/Job-2.odb,Step-1,Increment      1: Step Time =    1.000,"P-2-1",           396,       109.865,       140.825,            0.,NA,NA,"",   3.46280E+06,   3.54416E+06,   3.54416E+06
C:/temp/Job-2.odb,Step-1,Increment      1: Step Time =    1.000,"P-2-1",           397,       104.967,       141.705,            0.,NA,NA,"",   3.54122E+06,   3.63782E+06,   3.63782E+06
C:/temp/Job-2.odb,Step-1,Increment      1: Step Time =    1.000,"P-2-1",           398,          195.,            0.,            0.,NA,NA,"",   998.083E+03,   997.870E+03,   997.870E+03
C:/temp/Job-2.odb,Step-1,Increment      1: Step Time =    1.000,"P-2-1",           399,          185.,            0.,            0.,NA,NA,"",   992.938E+03,   993.185E+03,   993.185E+03
C:/temp/Job-2.odb,Step-1,Increment      1: Step Time =    1.000,"P-2-1",           400,          175.,            0.,            0.,NA,NA,"",   991.636E+03,   991.295E+03,   991.295E+03
C:/temp/Job-2.odb,Step-1,Increment      1: Step Time =    1.000,"P-2-1",           401,          165.,            0.,            0.,NA,NA,"",   982.789E+03,   981.961E+03,   981.961E+03
C:/temp/Job-2.odb,Step-1,Increment      1: Step Time =    1.000,"P-2-1",           402,          155.,            0.,            0.,NA,NA,"",   947.277E+03,   946.311E+03,   946.311E+03
C:/temp/Job-2.odb,Step-1,Increment      1: Step Time =    1.000,"P-2-1",           403,          145.,            0.,            0.,NA,NA,"",   873.489E+03,   872.448E+03,   872.448E+03
C:/temp/Job-2.odb,Step-1,Increment      1: Step Time =    1.000,"P-2-1",           404,          135.,            0.,            0.,NA,NA,"",   771.675E+03,   770.863E+03,   770.863E+03
C:/temp/Job-2.odb,Step-1,Increment      1: Step Time =    1.000,"P-2-1",           405,          125.,            0.,            0.,NA,NA,"",   665.562E+03,   666.236E+03,   666.236E+03
C:/temp/Job-2.odb,Step-1,Increment      1: Step Time =    1.000,"P-2-1",           406,          115.,            0.,            0.,NA,NA,"",   597.476E+03,   599.710E+03,   599.710E+03
C:/temp/Job-2.odb,Step-1,Increment      1: Step Time =    1.000,"P-2-1",           407,          105.,            0.,            0.,NA,NA,"",   602.961E+03,   606.018E+03,   606.018E+03
C:/temp/Job-2.odb,Step-1,Increment      1: Step Time =    1.000,"P-2-1",           408,           95.,            0.,            0.,NA,NA,"",   702.282E+03,   703.739E+03,   703.739E+03
C:/temp/Job-2.odb,Step-1,Increment      1: Step Time =    1.000,"P-2-1",           409,           85.,            0.,            0.,NA,NA,"",   878.236E+03,   878.221E+03,   878.221E+03
C:/temp/Job-2.odb,Step-1,Increment      1: Step Time =    1.000,"P-2-1",           410,           75.,            0.,            0.,NA,NA,"",   1.09977E+06,   1.09837E+06,   1.09837E+06
C:/temp/Job-2.odb,Step-1,Increment      1: Step Time =    1.000,"P-2-1",           411,           65.,            0.,            0.,NA,NA,"",   1.32234E+06,   1.32040E+06,   1.32040E+06
C:/temp/Job-2.odb,Step-1,Increment      1: Step Time =    1.000,"P-2-1",           412,           55.,            0.,            0.,NA,NA,"",   1.51279E+06,   1.51073E+06,   1.51073E+06
C:/temp/Job-2.odb,Step-1,Increment      1: Step Time =    1.000,"P-2-1",           413,           45.,            0.,            0.,NA,NA,"",   1.65425E+06,   1.65259E+06,   1.65259E+06
C:/temp/Job-2.odb,Step-1,Increment      1: Step Time =    1.000,"P-2-1",           414,           35.,            0.,            0.,NA,NA,"",   1.74912E+06,   1.74837E+06,   1.74837E+06
C:/temp/Job-2.odb,Step-1,Increment      1: Step Time =    1.000,"P-2-1",           415,           25.,            0.,            0.,NA,NA,"",   1.81472E+06,   1.81571E+06,   1.81571E+06
C:/temp/Job-2.odb,Step-1,Increment      1: Step Time =    1.000,"P-2-1",           416,           15.,            0.,            0.,NA,NA,"",   1.89431E+06,   1.90118E+06,   1.90118E+06
C:/temp/Job-2.odb,Step-1,Increment      1: Step Time =    1.000,"P-2-1",           417,            5.,            0.,            0.,NA,NA,"",   2.21940E+06,   2.27049E+06,   2.27049E+06
C:/temp/Job-2.odb,Step-1,Increment      1: Step Time =    1.000,"P-2-1",           418,          200.,          195.,            0.,NA,NA,"",   1.00063E+06,   999.569E+03,   999.569E+03
C:/temp/Job-2.odb,Step-1,Increment      1: Step Time =    1.000,"P-2-1",           419,          200.,          185.,            0.,NA,NA,"",   1.00408E+06,   1.00159E+06,   1.00159E+06
C:/temp/Job-2.odb,Step-1,Increment      1: Step Time =    1.000,"P-2-1",           420,          200.,          175.,            0.,NA,NA,"",   997.070E+03,   1.00406E+06,   1.00406E+06
C:/temp/Job-2.odb,Step-1,Increment      1: Step Time =    1.000,"P-2-1",           421,          200.,          165.,            0.,NA,NA,"",   969.792E+03,   1.00539E+06,   1.00539E+06
C:/temp/Job-2.odb,Step-1,Increment      1: Step Time =    1.000,"P-2-1",           422,          200.,          155.,            0.,NA,NA,"",   923.168E+03,   1.00511E+06,   1.00511E+06
C:/temp/Job-2.odb,Step-1,Increment      1: Step Time =    1.000,"P-2-1",           423,          200.,          145.,            0.,NA,NA,"",   880.607E+03,   1.00680E+06,   1.00680E+06
C:/temp/Job-2.odb,Step-1,Increment      1: Step Time =    1.000,"P-2-1",           424,          200.,          135.,            0.,NA,NA,"",   889.950E+03,   1.01281E+06,   1.01281E+06
C:/temp/Job-2.odb,Step-1,Increment      1: Step Time =    1.000,"P-2-1",           425,          200.,          125.,            0.,NA,NA,"",   971.162E+03,   1.03914E+06,   1.03914E+06
C:/temp/Job-2.odb,Step-1,Increment      1: Step Time =    1.000,"P-2-1",           426,          200.,          115.,            0.,NA,NA,"",   1.08396E+06,   1.16470E+06,   1.16470E+06
C:/temp/Job-2.odb,Step-1,Increment      1: Step Time =    1.000,"P-2-1",           427,          200.,          105.,            0.,NA,NA,"",   1.16551E+06,   1.28493E+06,   1.28493E+06
C:/temp/Job-2.odb,Step-1,Increment      1: Step Time =    1.000,"P-2-1",           428,          200.,           95.,            0.,NA,NA,"",   1.16599E+06,   1.28542E+06,   1.28542E+06
C:/temp/Job-2.odb,Step-1,Increment      1: Step Time =    1.000,"P-2-1",           429,          200.,           85.,            0.,NA,NA,"",   1.08401E+06,   1.16489E+06,   1.16489E+06
C:/temp/Job-2.odb,Step-1,Increment      1: Step Time =    1.000,"P-2-1",           430,          200.,           75.,            0.,NA,NA,"",     969.5E+03,   1.04015E+06,   1.04015E+06
C:/temp/Job-2.odb,Step-1,Increment      1: Step Time =    1.000,"P-2-1",           431,          200.,           65.,            0.,NA,NA,"",   889.702E+03,   1.01383E+06,   1.01383E+06
C:/temp/Job-2.odb,Step-1,Increment      1: Step Time =    1.000,"P-2-1",           432,          200.,           55.,            0.,NA,NA,"",   882.684E+03,   1.00850E+06,   1.00850E+06
C:/temp/Job-2.odb,Step-1,Increment      1: Step Time =    1.000,"P-2-1",           433,          200.,           45.,            0.,NA,NA,"",   924.342E+03,   1.00575E+06,   1.00575E+06
C:/temp/Job-2.odb,Step-1,Increment      1: Step Time =    1.000,"P-2-1",           434,          200.,           35.,            0.,NA,NA,"",   972.115E+03,   1.00535E+06,   1.00535E+06
C:/temp/Job-2.odb,Step-1,Increment      1: Step Time =    1.000,"P-2-1",           435,          200.,           25.,            0.,NA,NA,"",   997.628E+03,   1.00347E+06,   1.00347E+06
C:/temp/Job-2.odb,Step-1,Increment      1: Step Time =    1.000,"P-2-1",           436,          200.,           15.,            0.,NA,NA,"",   1.00405E+06,   1.00135E+06,   1.00135E+06
C:/temp/Job-2.odb,Step-1,Increment      1: Step Time =    1.000,"P-2-1",           437,          200.,            5.,            0.,NA,NA,"",   1.00064E+06,   999.579E+03,   999.579E+03
C:/temp/Job-2.odb,Step-1,Increment      1: Step Time =    1.000,"P-2-1",           438,            5.,          200.,            0.,NA,NA,"",   2.21896E+06,   2.27029E+06,   2.27029E+06
C:/temp/Job-2.odb,Step-1,Increment      1: Step Time =    1.000,"P-2-1",           439,           15.,          200.,            0.,NA,NA,"",   1.89221E+06,   1.89905E+06,   1.89905E+06
C:/temp/Job-2.odb,Step-1,Increment      1: Step Time =    1.000,"P-2-1",           440,           25.,          200.,            0.,NA,NA,"",   1.81030E+06,   1.81123E+06,   1.81123E+06
C:/temp/Job-2.odb,Step-1,Increment      1: Step Time =    1.000,"P-2-1",           441,           35.,          200.,            0.,NA,NA,"",   1.74513E+06,   1.74399E+06,   1.74399E+06
C:/temp/Job-2.odb,Step-1,Increment      1: Step Time =    1.000,"P-2-1",           442,           45.,          200.,            0.,NA,NA,"",   1.65066E+06,   1.64942E+06,   1.64942E+06
C:/temp/Job-2.odb,Step-1,Increment      1: Step Time =    1.000,"P-2-1",           443,           55.,          200.,            0.,NA,NA,"",   1.50713E+06,   1.50578E+06,   1.50578E+06
C:/temp/Job-2.odb,Step-1,Increment      1: Step Time =    1.000,"P-2-1",           444,           65.,          200.,            0.,NA,NA,"",   1.31645E+06,   1.31450E+06,   1.31450E+06
C:/temp/Job-2.odb,Step-1,Increment      1: Step Time =    1.000,"P-2-1",           445,           75.,          200.,            0.,NA,NA,"",   1.09365E+06,   1.09213E+06,   1.09213E+06
C:/temp/Job-2.odb,Step-1,Increment      1: Step Time =    1.000,"P-2-1",           446,           85.,          200.,            0.,NA,NA,"",   878.759E+03,   878.169E+03,   878.169E+03
C:/temp/Job-2.odb,Step-1,Increment      1: Step Time =    1.000,"P-2-1",           447,           95.,          200.,            0.,NA,NA,"",   702.086E+03,   704.281E+03,   704.281E+03
C:/temp/Job-2.odb,Step-1,Increment      1: Step Time =    1.000,"P-2-1",           448,          105.,          200.,            0.,NA,NA,"",   604.984E+03,   608.081E+03,   608.081E+03
C:/temp/Job-2.odb,Step-1,Increment      1: Step Time =    1.000,"P-2-1",           449,          115.,          200.,            0.,NA,NA,"",   602.377E+03,   604.461E+03,   604.461E+03
C:/temp/Job-2.odb,Step-1,Increment      1: Step Time =    1.000,"P-2-1",           450,          125.,          200.,            0.,NA,NA,"",   671.894E+03,   672.525E+03,   672.525E+03
C:/temp/Job-2.odb,Step-1,Increment      1: Step Time =    1.000,"P-2-1",           451,          135.,          200.,            0.,NA,NA,"",   776.783E+03,   776.150E+03,   776.150E+03
C:/temp/Job-2.odb,Step-1,Increment      1: Step Time =    1.000,"P-2-1",           452,          145.,          200.,            0.,NA,NA,"",   877.602E+03,   876.284E+03,   876.284E+03
C:/temp/Job-2.odb,Step-1,Increment      1: Step Time =    1.000,"P-2-1",           453,          155.,          200.,            0.,NA,NA,"",   948.633E+03,   947.444E+03,   947.444E+03
C:/temp/Job-2.odb,Step-1,Increment      1: Step Time =    1.000,"P-2-1",           454,          165.,          200.,            0.,NA,NA,"",   983.421E+03,   982.602E+03,   982.602E+03
C:/temp/Job-2.odb,Step-1,Increment      1: Step Time =    1.000,"P-2-1",           455,          175.,          200.,            0.,NA,NA,"",   991.857E+03,    991.56E+03,    991.56E+03
C:/temp/Job-2.odb,Step-1,Increment      1: Step Time =    1.000,"P-2-1",           456,          185.,          200.,            0.,NA,NA,"",   992.795E+03,   993.035E+03,   993.035E+03
C:/temp/Job-2.odb,Step-1,Increment      1: Step Time =    1.000,"P-2-1",           457,          195.,          200.,            0.,NA,NA,"",   998.084E+03,   997.854E+03,   997.854E+03
C:/temp/Job-2.odb,Step-1,Increment      1: Step Time =    1.000,"P-2-1",           458,            0.,            5.,            0.,NA,NA,"",   2.08704E+06,   2.22711E+06,   2.22711E+06
C:/temp/Job-2.odb,Step-1,Increment      1: Step Time =    1.000,"P-2-1",           459,            0.,           15.,            0.,NA,NA,"",   1.52888E+06,   1.68954E+06,   1.68954E+06
C:/temp/Job-2.odb,Step-1,Increment      1: Step Time =    1.000,"P-2-1",           460,            0.,           25.,            0.,NA,NA,"",   1.28530E+06,   1.43298E+06,   1.43298E+06
C:/temp/Job-2.odb,Step-1,Increment      1: Step Time =    1.000,"P-2-1",           461,            0.,           35.,            0.,NA,NA,"",   1.09242E+06,   1.22138E+06,   1.22138E+06
C:/temp/Job-2.odb,Step-1,Increment      1: Step Time =    1.000,"P-2-1",           462,            0.,           45.,            0.,NA,NA,"",   921.680E+03,   1.03121E+06,   1.03121E+06
C:/temp/Job-2.odb,Step-1,Increment      1: Step Time =    1.000,"P-2-1",           463,            0.,           55.,            0.,NA,NA,"",   753.325E+03,   841.798E+03,   841.798E+03
C:/temp/Job-2.odb,Step-1,Increment      1: Step Time =    1.000,"P-2-1",           464,            0.,           65.,            0.,NA,NA,"",   592.066E+03,   658.744E+03,   658.744E+03
C:/temp/Job-2.odb,Step-1,Increment      1: Step Time =    1.000,"P-2-1",           465,            0.,           75.,            0.,NA,NA,"",   438.332E+03,   486.155E+03,   486.155E+03
C:/temp/Job-2.odb,Step-1,Increment      1: Step Time =    1.000,"P-2-1",           466,            0.,           85.,            0.,NA,NA,"",   305.717E+03,   342.606E+03,   342.606E+03
C:/temp/Job-2.odb,Step-1,Increment      1: Step Time =    1.000,"P-2-1",           467,            0.,           95.,            0.,NA,NA,"",   218.236E+03,   250.341E+03,   250.341E+03
C:/temp/Job-2.odb,Step-1,Increment      1: Step Time =    1.000,"P-2-1",           468,            0.,          105.,            0.,NA,NA,"",   218.006E+03,   250.145E+03,   250.145E+03
C:/temp/Job-2.odb,Step-1,Increment      1: Step Time =    1.000,"P-2-1",           469,            0.,          115.,            0.,NA,NA,"",   310.631E+03,   348.152E+03,   348.152E+03
C:/temp/Job-2.odb,Step-1,Increment      1: Step Time =    1.000,"P-2-1",           470,            0.,          125.,            0.,NA,NA,"",   441.835E+03,   490.805E+03,   490.805E+03
C:/temp/Job-2.odb,Step-1,Increment      1: Step Time =    1.000,"P-2-1",           471,            0.,          135.,            0.,NA,NA,"",   594.800E+03,   661.977E+03,   661.977E+03
C:/temp/Job-2.odb,Step-1,Increment      1: Step Time =    1.000,"P-2-1",           472,            0.,          145.,            0.,NA,NA,"",   762.722E+03,   851.914E+03,   851.914E+03
C:/temp/Job-2.odb,Step-1,Increment      1: Step Time =    1.000,"P-2-1",           473,            0.,          155.,            0.,NA,NA,"",   924.857E+03,   1.03599E+06,   1.03599E+06
C:/temp/Job-2.odb,Step-1,Increment      1: Step Time =    1.000,"P-2-1",           474,            0.,          165.,            0.,NA,NA,"",   1.09693E+06,   1.22818E+06,   1.22818E+06
C:/temp/Job-2.odb,Step-1,Increment      1: Step Time =    1.000,"P-2-1",           475,            0.,          175.,            0.,NA,NA,"",   1.28541E+06,   1.43423E+06,   1.43423E+06
C:/temp/Job-2.odb,Step-1,Increment      1: Step Time =    1.000,"P-2-1",           476,            0.,          185.,            0.,NA,NA,"",   1.52860E+06,   1.69015E+06,   1.69015E+06
C:/temp/Job-2.odb,Step-1,Increment      1: Step Time =    1.000,"P-2-1",           477,            0.,          195.,            0.,NA,NA,"",   2.08707E+06,   2.22781E+06,   2.22781E+06
C:/temp/Job-2.odb,Step-1,Increment      1: Step Time =    1.000,"P-2-1",           478,       138.264,       70.2477,            0.,NA,NA,"",   1.25623E+06,   1.10208E+06,   1.10208E+06
C:/temp/Job-2.odb,Step-1,Increment      1: Step Time =    1.000,"P-2-1",           479,       67.4979,       66.3039,            0.,NA,NA,"",   914.022E+03,   852.657E+03,   852.657E+03
C:/temp/Job-2.odb,Step-1,Increment      1: Step Time =    1.000,"P-2-1",           480,       60.8151,       74.9279,            0.,NA,NA,"",   475.496E+03,  -104.855E+03,  -104.855E+03
C:/temp/Job-2.odb,Step-1,Increment      1: Step Time =    1.000,"P-2-1",           481,       55.6570,       111.054,            0.,NA,NA,"",   661.658E+03,  -671.642E+03,  -671.642E+03
C:/temp/Job-2.odb,Step-1,Increment      1: Step Time =    1.000,"P-2-1",           482,       58.9447,       123.426,            0.,NA,NA,"",   506.331E+03,  -172.968E+03,  -172.968E+03
C:/temp/Job-2.odb,Step-1,Increment      1: Step Time =    1.000,"P-2-1",           483,       83.3703,       143.582,            0.,NA,NA,"",   2.35123E+06,   2.40122E+06,   2.40122E+06
C:/temp/Job-2.odb,Step-1,Increment      1: Step Time =    1.000,"P-2-1",           484,       56.5627,       114.329,            0.,NA,NA,"",   612.837E+03,  -613.976E+03,  -613.976E+03
C:/temp/Job-2.odb,Step-1,Increment      1: Step Time =    1.000,"P-2-1",           485,       65.4774,       131.469,            0.,NA,NA,"",   723.850E+03,   637.867E+03,   637.867E+03
C:/temp/Job-2.odb,Step-1,Increment      1: Step Time =    1.000,"P-2-1",           486,       55.6876,       84.3150,            0.,NA,NA,"",   558.354E+03,  -541.682E+03,  -541.682E+03
C:/temp/Job-2.odb,Step-1,Increment      1: Step Time =    1.000,"P-2-1",           487,       53.0163,       96.1938,            0.,NA,NA,"",   645.802E+03,  -671.663E+03,  -671.663E+03
C:/temp/Job-2.odb,Step-1,Increment      1: Step Time =    1.000,"P-2-1",           488,       73.6975,       138.703,            0.,NA,NA,"",   1.50505E+06,   1.49680E+06,   1.49680E+06
C:/temp/Job-2.odb,Step-1,Increment      1: Step Time =    1.000,"P-2-1",           489,       78.2901,       141.714,            0.,NA,NA,"",   1.93628E+06,   1.95873E+06,   1.95873E+06
C:/temp/Job-2.odb,Step-1,Increment      1: Step Time =    1.000,"P-2-1",           490,       69.4116,       135.206,            0.,NA,NA,"",   1.07441E+06,   1.03323E+06,   1.03323E+06
C:/temp/Job-2.odb,Step-1,Increment      1: Step Time =    1.000,"P-2-1",           491,       56.2935,       119.664,            0.,NA,NA,"",   510.259E+03,  -441.206E+03,  -441.206E+03
C:/temp/Job-2.odb,Step-1,Increment      1: Step Time =    1.000,"P-2-1",           492,       58.1739,       79.5208,            0.,NA,NA,"",   506.361E+03,  -439.334E+03,  -439.334E+03
C:/temp/Job-2.odb,Step-1,Increment      1: Step Time =    1.000,"P-2-1",           493,       130.898,       134.659,            0.,NA,NA,"",   1.74361E+06,   1.73077E+06,   1.73077E+06
C:/temp/Job-2.odb,Step-1,Increment      1: Step Time =    1.000,"P-2-1",           494,       61.9566,       127.516,            0.,NA,NA,"",   533.687E+03,   269.623E+03,   269.623E+03
C:/temp/Job-2.odb,Step-1,Increment      1: Step Time =    1.000,"P-2-1",           495,       119.260,       144.698,            0.,NA,NA,"",   2.55078E+06,   2.65093E+06,   2.65093E+06
C:/temp/Job-2.odb,Step-1,Increment      1: Step Time =    1.000,"P-2-1",           496,       86.3154,       55.8634,            0.,NA,NA,"",   2.57010E+06,   2.63901E+06,   2.63901E+06
C:/temp/Job-2.odb,Step-1,Increment      1: Step Time =    1.000,"P-2-1",           497,       91.3894,       54.2480,            0.,NA,NA,"",   2.86143E+06,   2.95471E+06,   2.95471E+06
C:/temp/Job-2.odb,Step-1,Increment      1: Step Time =    1.000,"P-2-1",           498,       141.950,       80.6546,            0.,NA,NA,"",   775.700E+03,  -305.341E+03,  -305.341E+03
C:/temp/Job-2.odb,Step-1,Increment      1: Step Time =    1.000,"P-2-1",           499,       127.806,       138.175,            0.,NA,NA,"",   2.10782E+06,   2.12811E+06,   2.12811E+06
C:/temp/Job-2.odb,Step-1,Increment      1: Step Time =    1.000,"P-2-1",           500,       137.523,       127.173,            0.,NA,NA,"",   971.752E+03,   826.374E+03,   826.374E+03
C:/temp/Job-2.odb,Step-1,Increment      1: Step Time =    1.000,"P-2-1",           501,       123.898,       60.4000,            0.,NA,NA,"",   2.41180E+06,   2.46339E+06,   2.46339E+06
C:/temp/Job-2.odb,Step-1,Increment      1: Step Time =    1.000,"P-2-1",           502,       125.415,       141.556,            0.,NA,NA,"",   2.24858E+06,   2.30731E+06,   2.30731E+06
C:/temp/Job-2.odb,Step-1,Increment      1: Step Time =    1.000,"P-2-1",           503,       114.488,       55.2038,            0.,NA,NA,"",   2.93079E+06,   3.04191E+06,   3.04191E+06
C:/temp/Job-2.odb,Step-1,Increment      1: Step Time =    1.000,"P-2-1",           504,       145.650,       90.3544,            0.,NA,NA,"",   1.08059E+06,  -1.06766E+06,  -1.06766E+06
C:/temp/Job-2.odb,Step-1,Increment      1: Step Time =    1.000,"P-2-1",           505,       115.107,       144.929,            0.,NA,NA,"",   2.87021E+06,   2.97579E+06,   2.97579E+06
C:/temp/Job-2.odb,Step-1,Increment      1: Step Time =    1.000,"P-2-1",           506,       143.576,       117.624,            0.,NA,NA,"",   880.751E+03,  -707.287E+03,  -707.287E+03
C:/temp/Job-2.odb,Step-1,Increment      1: Step Time =    1.000,"P-2-1",           507,       141.780,       123.117,            0.,NA,NA,"",   913.344E+03,   197.733E+03,   197.733E+03
C:/temp/Job-2.odb,Step-1,Increment      1: Step Time =    1.000,"P-2-1",           508,       119.305,       57.7922,            0.,NA,NA,"",   2.74891E+06,   2.82672E+06,   2.82672E+06
C:/temp/Job-2.odb,Step-1,Increment      1: Step Time =    1.000,"P-2-1",           509,       143.771,       85.4301,            0.,NA,NA,"",   938.384E+03,  -871.576E+03,  -871.576E+03
C:/temp/Job-2.odb,Step-1,Increment      1: Step Time =    1.000,"P-2-1",           510,       81.3946,       57.9477,            0.,NA,NA,"",   2.17906E+06,   2.22038E+06,   2.22038E+06
C:/temp/Job-2.odb,Step-1,Increment      1: Step Time =    1.000,"P-2-1",           511,       134.180,       130.998,            0.,NA,NA,"",   1.31505E+06,   1.26075E+06,   1.26075E+06
C:/temp/Job-2.odb,Step-1,Increment      1: Step Time =    1.000,"P-2-1",           512,       194.904,       5.10198,            0.,NA,NA,"",   999.605E+03,   999.150E+03,   999.150E+03
C:/temp/Job-2.odb,Step-1,Increment      1: Step Time =    1.000,"P-2-1",           513,       164.381,       5.32779,            0.,NA,NA,"",   1.00290E+06,   999.966E+03,   999.966E+03
C:/temp/Job-2.odb,Step-1,Increment      1: Step Time =    1.000,"P-2-1",           514,       174.575,       5.70558,            0.,NA,NA,"",   1.00575E+06,   1.00475E+06,   1.00475E+06
C:/temp/Job-2.odb,Step-1,Increment      1: Step Time =    1.000,"P-2-1",           515,       184.782,       5.31025,            0.,NA,NA,"",   998.508E+03,   999.193E+03,   999.193E+03
C:/temp/Job-2.odb,Step-1,Increment      1: Step Time =    1.000,"P-2-1",           516,       145.278,       195.035,            0.,NA,NA,"",   921.541E+03,   917.676E+03,   917.676E+03
C:/temp/Job-2.odb,Step-1,Increment      1: Step Time =    1.000,"P-2-1",           517,       135.330,       195.017,            0.,NA,NA,"",   841.669E+03,   839.504E+03,   839.504E+03
C:/temp/Job-2.odb,Step-1,Increment      1: Step Time =    1.000,"P-2-1",           518,       104.887,       5.12691,            0.,NA,NA,"",   706.157E+03,   714.273E+03,   714.273E+03
C:/temp/Job-2.odb,Step-1,Increment      1: Step Time =    1.000,"P-2-1",           519,       114.958,       5.18068,            0.,NA,NA,"",   695.564E+03,   702.425E+03,   702.425E+03
C:/temp/Job-2.odb,Step-1,Increment      1: Step Time =    1.000,"P-2-1",           520,       5.01222,       194.961,            0.,NA,NA,"",   2.06183E+06,   2.14460E+06,   2.14460E+06
C:/temp/Job-2.odb,Step-1,Increment      1: Step Time =    1.000,"P-2-1",           521,       35.4865,       194.040,            0.,NA,NA,"",   1.71700E+06,   1.71234E+06,   1.71234E+06
C:/temp/Job-2.odb,Step-1,Increment      1: Step Time =    1.000,"P-2-1",           522,       25.1441,       194.221,            0.,NA,NA,"",   1.78653E+06,   1.78695E+06,   1.78695E+06
C:/temp/Job-2.odb,Step-1,Increment      1: Step Time =    1.000,"P-2-1",           523,       15.0081,       194.792,            0.,NA,NA,"",   1.87439E+06,   1.88607E+06,   1.88607E+06
C:/temp/Job-2.odb,Step-1,Increment      1: Step Time =    1.000,"P-2-1",           524,       54.9875,       5.06609,            0.,NA,NA,"",   1.51656E+06,   1.50924E+06,   1.50924E+06
C:/temp/Job-2.odb,Step-1,Increment      1: Step Time =    1.000,"P-2-1",           525,       64.9567,       5.01885,            0.,NA,NA,"",   1.35225E+06,   1.34477E+06,   1.34477E+06
C:/temp/Job-2.odb,Step-1,Increment      1: Step Time =    1.000,"P-2-1",           526,       95.3471,       194.737,            0.,NA,NA,"",   801.847E+03,   807.158E+03,   807.158E+03
C:/temp/Job-2.odb,Step-1,Increment      1: Step Time =    1.000,"P-2-1",           527,       85.3374,       194.662,            0.,NA,NA,"",   964.554E+03,   962.817E+03,   962.817E+03
C:/temp/Job-2.odb,Step-1,Increment      1: Step Time =    1.000,"P-2-1",           528,       5.13284,       10.1427,            0.,NA,NA,"",   1.76848E+06,   1.89327E+06,   1.89327E+06
C:/temp/Job-2.odb,Step-1,Increment      1: Step Time =    1.000,"P-2-1",           529,       5.20928,       20.2123,            0.,NA,NA,"",   1.43606E+06,   1.57193E+06,   1.57193E+06
C:/temp/Job-2.odb,Step-1,Increment      1: Step Time =    1.000,"P-2-1",           530,       5.38202,       30.3590,            0.,NA,NA,"",   1.21828E+06,   1.34319E+06,   1.34319E+06
C:/temp/Job-2.odb,Step-1,Increment      1: Step Time =    1.000,"P-2-1",           531,       5.60660,       35.5814,            0.,NA,NA,"",   1.12050E+06,   1.23658E+06,   1.23658E+06
C:/temp/Job-2.odb,Step-1,Increment      1: Step Time =    1.000,"P-2-1",           532,       5.39392,       45.9034,            0.,NA,NA,"",   935.038E+03,   1.03429E+06,   1.03429E+06
C:/temp/Job-2.odb,Step-1,Increment      1: Step Time =    1.000,"P-2-1",           533,       4.61788,       55.7600,            0.,NA,NA,"",   756.675E+03,   839.632E+03,   839.632E+03
C:/temp/Job-2.odb,Step-1,Increment      1: Step Time =    1.000,"P-2-1",           534,       15.1314,       5.12231,            0.,NA,NA,"",   1.87517E+06,   1.88653E+06,   1.88653E+06
C:/temp/Job-2.odb,Step-1,Increment      1: Step Time =    1.000,"P-2-1",           535,       25.1273,       5.05012,            0.,NA,NA,"",   1.79357E+06,   1.79397E+06,   1.79397E+06
C:/temp/Job-2.odb,Step-1,Increment      1: Step Time =    1.000,"P-2-1",           536,       35.1347,       5.10400,            0.,NA,NA,"",   1.72684E+06,   1.72332E+06,   1.72332E+06
C:/temp/Job-2.odb,Step-1,Increment      1: Step Time =    1.000,"P-2-1",           537,       45.0256,       5.13112,            0.,NA,NA,"",   1.64019E+06,   1.63433E+06,   1.63433E+06
C:/temp/Job-2.odb,Step-1,Increment      1: Step Time =    1.000,"P-2-1",           538,       74.9081,       4.99848,            0.,NA,NA,"",   1.15962E+06,   1.15369E+06,   1.15369E+06
C:/temp/Job-2.odb,Step-1,Increment      1: Step Time =    1.000,"P-2-1",           539,       84.9062,       5.00224,            0.,NA,NA,"",   961.766E+03,   960.444E+03,   960.444E+03
C:/temp/Job-2.odb,Step-1,Increment      1: Step Time =    1.000,"P-2-1",           540,       94.9005,       5.03865,            0.,NA,NA,"",   799.942E+03,   803.629E+03,   803.629E+03
C:/temp/Job-2.odb,Step-1,Increment      1: Step Time =    1.000,"P-2-1",           541,       124.955,       4.88313,            0.,NA,NA,"",   748.417E+03,   750.236E+03,   750.236E+03
C:/temp/Job-2.odb,Step-1,Increment      1: Step Time =    1.000,"P-2-1",           542,       134.847,       4.55230,            0.,NA,NA,"",   829.579E+03,   827.541E+03,   827.541E+03
C:/temp/Job-2.odb,Step-1,Increment      1: Step Time =    1.000,"P-2-1",           543,       144.652,       4.36042,            0.,NA,NA,"",   910.165E+03,   907.098E+03,   907.098E+03
C:/temp/Job-2.odb,Step-1,Increment      1: Step Time =    1.000,"P-2-1",           544,       154.437,       4.50696,            0.,NA,NA,"",   970.017E+03,   966.946E+03,   966.946E+03
C:/temp/Job-2.odb,Step-1,Increment      1: Step Time =    1.000,"P-2-1",           545,       194.869,       15.1483,            0.,NA,NA,"",   1.00363E+06,   1.00373E+06,   1.00373E+06
C:/temp/Job-2.odb,Step-1,Increment      1: Step Time =    1.000,"P-2-1",           546,       194.645,       25.2122,            0.,NA,NA,"",   1.00078E+06,   1.01031E+06,   1.01031E+06
C:/temp/Job-2.odb,Step-1,Increment      1: Step Time =    1.000,"P-2-1",           547,       194.653,       35.1832,            0.,NA,NA,"",   981.623E+03,   1.01704E+06,   1.01704E+06
C:/temp/Job-2.odb,Step-1,Increment      1: Step Time =    1.000,"P-2-1",           548,       195.018,       45.1295,            0.,NA,NA,"",   942.245E+03,   1.02058E+06,   1.02058E+06
C:/temp/Job-2.odb,Step-1,Increment      1: Step Time =    1.000,"P-2-1",           549,       195.133,       55.0482,            0.,NA,NA,"",   909.867E+03,   1.03023E+06,   1.03023E+06
C:/temp/Job-2.odb,Step-1,Increment      1: Step Time =    1.000,"P-2-1",           550,       195.125,       64.9368,            0.,NA,NA,"",   909.691E+03,   1.04198E+06,   1.04198E+06
C:/temp/Job-2.odb,Step-1,Increment      1: Step Time =    1.000,"P-2-1",           551,       195.004,       74.8684,            0.,NA,NA,"",   957.209E+03,   1.06211E+06,   1.06211E+06
C:/temp/Job-2.odb,Step-1,Increment      1: Step Time =    1.000,"P-2-1",           552,       194.900,       84.8581,            0.,NA,NA,"",   1.02712E+06,   1.12207E+06,   1.12207E+06
C:/temp/Job-2.odb,Step-1,Increment      1: Step Time =    1.000,"P-2-1",           553,       194.914,       94.8883,            0.,NA,NA,"",   1.07774E+06,   1.16525E+06,   1.16525E+06
C:/temp/Job-2.odb,Step-1,Increment      1: Step Time =    1.000,"P-2-1",           554,       194.886,       104.972,            0.,NA,NA,"",   1.07639E+06,   1.16290E+06,   1.16290E+06
C:/temp/Job-2.odb,Step-1,Increment      1: Step Time =    1.000,"P-2-1",           555,       194.771,       115.086,            0.,NA,NA,"",   1.02561E+06,   1.12038E+06,   1.12038E+06
C:/temp/Job-2.odb,Step-1,Increment      1: Step Time =    1.000,"P-2-1",           556,       195.092,       125.069,            0.,NA,NA,"",   958.106E+03,   1.06166E+06,   1.06166E+06
C:/temp/Job-2.odb,Step-1,Increment      1: Step Time =    1.000,"P-2-1",           557,       195.552,       134.931,            0.,NA,NA,"",   906.787E+03,   1.03877E+06,   1.03877E+06
C:/temp/Job-2.odb,Step-1,Increment      1: Step Time =    1.000,"P-2-1",           558,       195.702,       144.641,            0.,NA,NA,"",   901.966E+03,   1.02485E+06,   1.02485E+06
C:/temp/Job-2.odb,Step-1,Increment      1: Step Time =    1.000,"P-2-1",           559,       195.019,       154.376,            0.,NA,NA,"",   940.103E+03,   1.02044E+06,   1.02044E+06
C:/temp/Job-2.odb,Step-1,Increment      1: Step Time =    1.000,"P-2-1",           560,       194.267,       164.419,            0.,NA,NA,"",   981.497E+03,   1.01875E+06,   1.01875E+06
C:/temp/Job-2.odb,Step-1,Increment      1: Step Time =    1.000,"P-2-1",           561,       155.082,       195.051,            0.,NA,NA,"",   975.241E+03,   971.714E+03,   971.714E+03
C:/temp/Job-2.odb,Step-1,Increment      1: Step Time =    1.000,"P-2-1",           562,       194.258,       174.704,            0.,NA,NA,"",   1.00149E+06,   1.01198E+06,   1.01198E+06
C:/temp/Job-2.odb,Step-1,Increment      1: Step Time =    1.000,"P-2-1",           563,       164.947,       194.815,            0.,NA,NA,"",   1.00304E+06,   1.00026E+06,   1.00026E+06
C:/temp/Job-2.odb,Step-1,Increment      1: Step Time =    1.000,"P-2-1",           564,       194.715,       184.828,            0.,NA,NA,"",   1.00414E+06,   1.00439E+06,   1.00439E+06
C:/temp/Job-2.odb,Step-1,Increment      1: Step Time =    1.000,"P-2-1",           565,       174.846,       194.747,            0.,NA,NA,"",   1.00395E+06,   1.00319E+06,   1.00319E+06
C:/temp/Job-2.odb,Step-1,Increment      1: Step Time =    1.000,"P-2-1",           566,       194.906,       194.917,            0.,NA,NA,"",   999.576E+03,   999.110E+03,   999.110E+03
C:/temp/Job-2.odb,Step-1,Increment      1: Step Time =    1.000,"P-2-1",           567,       184.874,       194.899,            0.,NA,NA,"",   997.764E+03,   998.443E+03,   998.443E+03
C:/temp/Job-2.odb,Step-1,Increment      1: Step Time =    1.000,"P-2-1",           568,       125.349,       194.927,            0.,NA,NA,"",   756.869E+03,   758.401E+03,   758.401E+03
C:/temp/Job-2.odb,Step-1,Increment      1: Step Time =    1.000,"P-2-1",           569,       115.348,       194.844,            0.,NA,NA,"",   699.145E+03,   705.424E+03,   705.424E+03
C:/temp/Job-2.odb,Step-1,Increment      1: Step Time =    1.000,"P-2-1",           570,       105.336,       194.823,            0.,NA,NA,"",   706.265E+03,   714.539E+03,   714.539E+03
C:/temp/Job-2.odb,Step-1,Increment      1: Step Time =    1.000,"P-2-1",           571,       75.2308,       195.099,            0.,NA,NA,"",   1.15199E+06,   1.14627E+06,   1.14627E+06
C:/temp/Job-2.odb,Step-1,Increment      1: Step Time =    1.000,"P-2-1",           572,       65.2971,       195.480,            0.,NA,NA,"",   1.34044E+06,   1.33389E+06,   1.33389E+06
C:/temp/Job-2.odb,Step-1,Increment      1: Step Time =    1.000,"P-2-1",           573,       55.5460,       195.478,            0.,NA,NA,"",   1.50587E+06,   1.50023E+06,   1.50023E+06
C:/temp/Job-2.odb,Step-1,Increment      1: Step Time =    1.000,"P-2-1",           574,       45.6768,       194.709,            0.,NA,NA,"",   1.63157E+06,   1.62591E+06,   1.62591E+06
C:/temp/Job-2.odb,Step-1,Increment      1: Step Time =    1.000,"P-2-1",           575,       4.94400,       184.955,            0.,NA,NA,"",   1.56857E+06,   1.70715E+06,   1.70715E+06
C:/temp/Job-2.odb,Step-1,Increment      1: Step Time =    1.000,"P-2-1",           576,       4.85269,       174.981,            0.,NA,NA,"",   1.31842E+06,   1.45325E+06,   1.45325E+06
C:/temp/Job-2.odb,Step-1,Increment      1: Step Time =    1.000,"P-2-1",           577,       4.91202,       165.149,            0.,NA,NA,"",   1.12740E+06,   1.24793E+06,   1.24793E+06
C:/temp/Job-2.odb,Step-1,Increment      1: Step Time =    1.000,"P-2-1",           578,       5.22137,       155.159,            0.,NA,NA,"",   949.858E+03,   1.05202E+06,   1.05202E+06
C:/temp/Job-2.odb,Step-1,Increment      1: Step Time =    1.000,"P-2-1",           579,       5.15760,       145.174,            0.,NA,NA,"",   777.651E+03,   861.419E+03,   861.419E+03
C:/temp/Job-2.odb,Step-1,Increment      1: Step Time =    1.000,"P-2-1",           580,       4.98428,       135.013,            0.,NA,NA,"",   597.324E+03,   662.445E+03,   662.445E+03
C:/temp/Job-2.odb,Step-1,Increment      1: Step Time =    1.000,"P-2-1",           581,       5.22236,       124.962,            0.,NA,NA,"",   434.818E+03,   484.772E+03,   484.772E+03
C:/temp/Job-2.odb,Step-1,Increment      1: Step Time =    1.000,"P-2-1",           582,       5.08774,       114.959,            0.,NA,NA,"",   299.359E+03,   338.783E+03,   338.783E+03
C:/temp/Job-2.odb,Step-1,Increment      1: Step Time =    1.000,"P-2-1",           583,       4.84386,       104.927,            0.,NA,NA,"",   208.401E+03,   238.534E+03,   238.534E+03
C:/temp/Job-2.odb,Step-1,Increment      1: Step Time =    1.000,"P-2-1",           584,       4.74823,       95.0207,            0.,NA,NA,"",   208.966E+03,   239.202E+03,   239.202E+03
C:/temp/Job-2.odb,Step-1,Increment      1: Step Time =    1.000,"P-2-1",           585,       4.54633,       85.1476,            0.,NA,NA,"",   294.924E+03,   333.711E+03,   333.711E+03
C:/temp/Job-2.odb,Step-1,Increment      1: Step Time =    1.000,"P-2-1",           586,       4.28505,       75.3309,            0.,NA,NA,"",   428.970E+03,   477.963E+03,   477.963E+03
C:/temp/Job-2.odb,Step-1,Increment      1: Step Time =    1.000,"P-2-1",           587,       4.25769,       65.5186,            0.,NA,NA,"",   588.279E+03,   653.126E+03,   653.126E+03
C:/temp/Job-2.odb,Step-1,Increment      1: Step Time =    1.000,"P-2-1",           588,       189.845,       5.19844,            0.,NA,NA,"",   998.107E+03,   998.601E+03,   998.601E+03
C:/temp/Job-2.odb,Step-1,Increment      1: Step Time =    1.000,"P-2-1",           589,       179.726,       5.48230,            0.,NA,NA,"",   1.00147E+06,   1.00155E+06,   1.00155E+06
C:/temp/Job-2.odb,Step-1,Increment      1: Step Time =    1.000,"P-2-1",           590,       169.396,       5.83247,            0.,NA,NA,"",   1.00764E+06,   1.00548E+06,   1.00548E+06
C:/temp/Job-2.odb,Step-1,Increment      1: Step Time =    1.000,"P-2-1",           591,       159.372,       4.81826,            0.,NA,NA,"",   990.019E+03,   986.855E+03,   986.855E+03
C:/temp/Job-2.odb,Step-1,Increment      1: Step Time =    1.000,"P-2-1",           592,       149.541,       4.37732,            0.,NA,NA,"",   943.441E+03,   940.357E+03,   940.357E+03
C:/temp/Job-2.odb,Step-1,Increment      1: Step Time =    1.000,"P-2-1",           593,       139.755,       4.43221,            0.,NA,NA,"",   871.305E+03,   868.700E+03,   868.700E+03
C:/temp/Job-2.odb,Step-1,Increment      1: Step Time =    1.000,"P-2-1",           594,       129.916,       4.70920,            0.,NA,NA,"",   787.725E+03,   786.997E+03,   786.997E+03
C:/temp/Job-2.odb,Step-1,Increment      1: Step Time =    1.000,"P-2-1",           595,       119.952,       5.06110,            0.,NA,NA,"",   716.173E+03,   720.745E+03,   720.745E+03
C:/temp/Job-2.odb,Step-1,Increment      1: Step Time =    1.000,"P-2-1",           596,       109.940,       5.18077,            0.,NA,NA,"",   690.610E+03,   699.024E+03,   699.024E+03
C:/temp/Job-2.odb,Step-1,Increment      1: Step Time =    1.000,"P-2-1",           597,       99.8797,       5.07500,            0.,NA,NA,"",   743.528E+03,   749.433E+03,   749.433E+03
C:/temp/Job-2.odb,Step-1,Increment      1: Step Time =    1.000,"P-2-1",           598,       89.9129,       5.01367,            0.,NA,NA,"",   873.607E+03,   875.083E+03,   875.083E+03
C:/temp/Job-2.odb,Step-1,Increment      1: Step Time =    1.000,"P-2-1",           599,       79.8982,       4.99445,            0.,NA,NA,"",   1.05909E+06,   1.05519E+06,   1.05519E+06
C:/temp/Job-2.odb,Step-1,Increment      1: Step Time =    1.000,"P-2-1",           600,       69.9299,       5.00904,            0.,NA,NA,"",   1.25839E+06,   1.25131E+06,   1.25131E+06
C:/temp/Job-2.odb,Step-1,Increment      1: Step Time =    1.000,"P-2-1",           601,       59.9749,       5.04020,            0.,NA,NA,"",   1.43896E+06,   1.43140E+06,   1.43140E+06
C:/temp/Job-2.odb,Step-1,Increment      1: Step Time =    1.000,"P-2-1",           602,       50.0044,       5.11399,            0.,NA,NA,"",   1.58377E+06,   1.57705E+06,   1.57705E+06
C:/temp/Job-2.odb,Step-1,Increment      1: Step Time =    1.000,"P-2-1",           603,       40.0873,       5.13608,            0.,NA,NA,"",   1.68717E+06,   1.68248E+06,   1.68248E+06
C:/temp/Job-2.odb,Step-1,Increment      1: Step Time =    1.000,"P-2-1",           604,       30.1404,       5.06379,            0.,NA,NA,"",   1.76162E+06,   1.75960E+06,   1.75960E+06
C:/temp/Job-2.odb,Step-1,Increment      1: Step Time =    1.000,"P-2-1",           605,       20.1185,       5.07573,            0.,NA,NA,"",   1.83041E+06,   1.83418E+06,   1.83418E+06
C:/temp/Job-2.odb,Step-1,Increment      1: Step Time =    1.000,"P-2-1",           606,       10.1196,       5.12108,            0.,NA,NA,"",   1.96641E+06,   1.98693E+06,   1.98693E+06
C:/temp/Job-2.odb,Step-1,Increment      1: Step Time =    1.000,"P-2-1",           607,       194.823,       189.873,            0.,NA,NA,"",   1.00237E+06,   1.00169E+06,   1.00169E+06
C:/temp/Job-2.odb,Step-1,Increment      1: Step Time =    1.000,"P-2-1",           608,       194.533,       179.823,            0.,NA,NA,"",   1.00423E+06,   1.00776E+06,   1.00776E+06
C:/temp/Job-2.odb,Step-1,Increment      1: Step Time =    1.000,"P-2-1",           609,       194.000,       169.602,            0.,NA,NA,"",   994.754E+03,   1.01613E+06,   1.01613E+06
C:/temp/Job-2.odb,Step-1,Increment      1: Step Time =    1.000,"P-2-1",           610,       194.451,       159.252,            0.,NA,NA,"",   962.399E+03,   1.01989E+06,   1.01989E+06
C:/temp/Job-2.odb,Step-1,Increment      1: Step Time =    1.000,"P-2-1",           611,       195.496,       149.492,            0.,NA,NA,"",   917.454E+03,   1.02122E+06,   1.02122E+06
C:/temp/Job-2.odb,Step-1,Increment      1: Step Time =    1.000,"P-2-1",           612,       195.700,       139.804,            0.,NA,NA,"",   897.653E+03,   1.03073E+06,   1.03073E+06
C:/temp/Job-2.odb,Step-1,Increment      1: Step Time =    1.000,"P-2-1",           613,       195.328,       130.018,            0.,NA,NA,"",   928.465E+03,   1.04857E+06,   1.04857E+06
C:/temp/Job-2.odb,Step-1,Increment      1: Step Time =    1.000,"P-2-1",           614,       194.884,       120.085,            0.,NA,NA,"",   992.124E+03,   1.08665E+06,   1.08665E+06
C:/temp/Job-2.odb,Step-1,Increment      1: Step Time =    1.000,"P-2-1",           615,       194.807,       110.042,            0.,NA,NA,"",   1.05475E+06,   1.14822E+06,   1.14822E+06
C:/temp/Job-2.odb,Step-1,Increment      1: Step Time =    1.000,"P-2-1",           616,       194.923,       99.9228,            0.,NA,NA,"",   1.08506E+06,   1.16747E+06,   1.16747E+06
C:/temp/Job-2.odb,Step-1,Increment      1: Step Time =    1.000,"P-2-1",           617,       194.896,       89.8658,            0.,NA,NA,"",   1.05709E+06,   1.15103E+06,   1.15103E+06
C:/temp/Job-2.odb,Step-1,Increment      1: Step Time =    1.000,"P-2-1",           618,       194.942,       79.8594,            0.,NA,NA,"",   991.947E+03,   1.08729E+06,   1.08729E+06
C:/temp/Job-2.odb,Step-1,Increment      1: Step Time =    1.000,"P-2-1",           619,       195.077,       69.8954,            0.,NA,NA,"",   928.295E+03,   1.04965E+06,   1.04965E+06
C:/temp/Job-2.odb,Step-1,Increment      1: Step Time =    1.000,"P-2-1",           620,       195.153,       59.9926,            0.,NA,NA,"",   903.857E+03,   1.03577E+06,   1.03577E+06
C:/temp/Job-2.odb,Step-1,Increment      1: Step Time =    1.000,"P-2-1",           621,       195.097,       50.0875,            0.,NA,NA,"",   924.037E+03,   1.02513E+06,   1.02513E+06
C:/temp/Job-2.odb,Step-1,Increment      1: Step Time =    1.000,"P-2-1",           622,       194.904,       40.2031,            0.,NA,NA,"",   962.647E+03,   1.01825E+06,   1.01825E+06
C:/temp/Job-2.odb,Step-1,Increment      1: Step Time =    1.000,"P-2-1",           623,       194.366,       30.2336,            0.,NA,NA,"",   994.257E+03,   1.01440E+06,   1.01440E+06
C:/temp/Job-2.odb,Step-1,Increment      1: Step Time =    1.000,"P-2-1",           624,       194.842,       20.1447,            0.,NA,NA,"",   1.00346E+06,   1.00639E+06,   1.00639E+06
C:/temp/Job-2.odb,Step-1,Increment      1: Step Time =    1.000,"P-2-1",           625,       194.877,       10.1481,            0.,NA,NA,"",   1.00226E+06,   1.00158E+06,   1.00158E+06
C:/temp/Job-2.odb,Step-1,Increment      1: Step Time =    1.000,"P-2-1",           626,       10.0009,       194.906,            0.,NA,NA,"",   1.96779E+06,   1.98862E+06,   1.98862E+06
C:/temp/Job-2.odb,Step-1,Increment      1: Step Time =    1.000,"P-2-1",           627,       20.0188,       194.572,            0.,NA,NA,"",   1.82726E+06,   1.83145E+06,   1.83145E+06
C:/temp/Job-2.odb,Step-1,Increment      1: Step Time =    1.000,"P-2-1",           628,       30.2621,       193.873,            0.,NA,NA,"",   1.75240E+06,   1.74973E+06,   1.74973E+06
C:/temp/Job-2.odb,Step-1,Increment      1: Step Time =    1.000,"P-2-1",           629,       40.7100,       194.143,            0.,NA,NA,"",   1.67711E+06,   1.67180E+06,   1.67180E+06
C:/temp/Job-2.odb,Step-1,Increment      1: Step Time =    1.000,"P-2-1",           630,       50.6663,       195.212,            0.,NA,NA,"",   1.57443E+06,   1.56897E+06,   1.56897E+06
C:/temp/Job-2.odb,Step-1,Increment      1: Step Time =    1.000,"P-2-1",           631,       60.4031,       195.538,            0.,NA,NA,"",   1.42730E+06,   1.42124E+06,   1.42124E+06
C:/temp/Job-2.odb,Step-1,Increment      1: Step Time =    1.000,"P-2-1",           632,       70.2403,       195.322,            0.,NA,NA,"",   1.24818E+06,   1.24127E+06,   1.24127E+06
C:/temp/Job-2.odb,Step-1,Increment      1: Step Time =    1.000,"P-2-1",           633,       80.2873,       194.835,            0.,NA,NA,"",   1.05585E+06,   1.05198E+06,   1.05198E+06
C:/temp/Job-2.odb,Step-1,Increment      1: Step Time =    1.000,"P-2-1",           634,       90.3406,       194.654,            0.,NA,NA,"",   878.876E+03,   880.670E+03,   880.670E+03
C:/temp/Job-2.odb,Step-1,Increment      1: Step Time =    1.000,"P-2-1",           635,       100.338,       194.802,            0.,NA,NA,"",   742.457E+03,   749.751E+03,   749.751E+03
C:/temp/Job-2.odb,Step-1,Increment      1: Step Time =    1.000,"P-2-1",           636,       110.323,       194.835,            0.,NA,NA,"",   692.793E+03,   700.601E+03,   700.601E+03
C:/temp/Job-2.odb,Step-1,Increment      1: Step Time =    1.000,"P-2-1",           637,       120.374,       194.881,            0.,NA,NA,"",   722.171E+03,   726.383E+03,   726.383E+03
C:/temp/Job-2.odb,Step-1,Increment      1: Step Time =    1.000,"P-2-1",           638,       130.320,       194.982,            0.,NA,NA,"",   797.799E+03,   797.191E+03,   797.191E+03
C:/temp/Job-2.odb,Step-1,Increment      1: Step Time =    1.000,"P-2-1",           639,       140.322,       195.040,            0.,NA,NA,"",   884.307E+03,   880.926E+03,   880.926E+03
C:/temp/Job-2.odb,Step-1,Increment      1: Step Time =    1.000,"P-2-1",           640,       150.203,       195.051,            0.,NA,NA,"",   951.784E+03,   948.068E+03,   948.068E+03
C:/temp/Job-2.odb,Step-1,Increment      1: Step Time =    1.000,"P-2-1",           641,       159.966,       195.031,            0.,NA,NA,"",   992.484E+03,   989.091E+03,   989.091E+03
C:/temp/Job-2.odb,Step-1,Increment      1: Step Time =    1.000,"P-2-1",           642,       169.887,       194.533,            0.,NA,NA,"",   1.00641E+06,   1.00454E+06,   1.00454E+06
C:/temp/Job-2.odb,Step-1,Increment      1: Step Time =    1.000,"P-2-1",           643,       179.892,       194.909,            0.,NA,NA,"",   999.902E+03,   1.00013E+06,   1.00013E+06
C:/temp/Job-2.odb,Step-1,Increment      1: Step Time =    1.000,"P-2-1",           644,       189.870,       194.901,            0.,NA,NA,"",   997.914E+03,   998.374E+03,   998.374E+03
C:/temp/Job-2.odb,Step-1,Increment      1: Step Time =    1.000,"P-2-1",           645,       5.17966,       15.1906,            0.,NA,NA,"",   1.56866E+06,   1.70522E+06,   1.70522E+06
C:/temp/Job-2.odb,Step-1,Increment      1: Step Time =    1.000,"P-2-1",           646,       5.27030,       25.2510,            0.,NA,NA,"",   1.31938E+06,   1.45134E+06,   1.45134E+06
C:/temp/Job-2.odb,Step-1,Increment      1: Step Time =    1.000,"P-2-1",           647,       5.77422,       40.8587,            0.,NA,NA,"",   1.02761E+06,   1.13477E+06,   1.13477E+06
C:/temp/Job-2.odb,Step-1,Increment      1: Step Time =    1.000,"P-2-1",           648,       4.97443,       50.8709,            0.,NA,NA,"",   843.788E+03,   935.177E+03,   935.177E+03
C:/temp/Job-2.odb,Step-1,Increment      1: Step Time =    1.000,"P-2-1",           649,       4.38753,       60.6313,            0.,NA,NA,"",   671.880E+03,   745.824E+03,   745.824E+03
C:/temp/Job-2.odb,Step-1,Increment      1: Step Time =    1.000,"P-2-1",           650,       4.22630,       70.4248,            0.,NA,NA,"",   506.717E+03,   563.025E+03,   563.025E+03
C:/temp/Job-2.odb,Step-1,Increment      1: Step Time =    1.000,"P-2-1",           651,       4.40164,       80.2311,            0.,NA,NA,"",   357.589E+03,   400.815E+03,   400.815E+03
C:/temp/Job-2.odb,Step-1,Increment      1: Step Time =    1.000,"P-2-1",           652,       4.66276,       90.0796,            0.,NA,NA,"",   243.782E+03,   278.555E+03,   278.555E+03
C:/temp/Job-2.odb,Step-1,Increment      1: Step Time =    1.000,"P-2-1",           653,       4.79235,       99.9673,            0.,NA,NA,"",   196.178E+03,   223.914E+03,   223.914E+03
C:/temp/Job-2.odb,Step-1,Increment      1: Step Time =    1.000,"P-2-1",           654,       4.93313,       109.916,            0.,NA,NA,"",   244.604E+03,   279.514E+03,   279.514E+03
C:/temp/Job-2.odb,Step-1,Increment      1: Step Time =    1.000,"P-2-1",           655,       5.22866,       119.983,            0.,NA,NA,"",   364.017E+03,   408.198E+03,   408.198E+03
C:/temp/Job-2.odb,Step-1,Increment      1: Step Time =    1.000,"P-2-1",           656,       5.10437,       129.973,            0.,NA,NA,"",   512.713E+03,   569.673E+03,   569.673E+03
C:/temp/Job-2.odb,Step-1,Increment      1: Step Time =    1.000,"P-2-1",           657,       5.00519,       140.096,            0.,NA,NA,"",   687.116E+03,   761.336E+03,   761.336E+03
C:/temp/Job-2.odb,Step-1,Increment      1: Step Time =    1.000,"P-2-1",           658,       5.29056,       150.198,            0.,NA,NA,"",   864.539E+03,   957.584E+03,   957.584E+03
C:/temp/Job-2.odb,Step-1,Increment      1: Step Time =    1.000,"P-2-1",           659,       5.05722,       160.168,            0.,NA,NA,"",   1.03809E+06,   1.14960E+06,   1.14960E+06
C:/temp/Job-2.odb,Step-1,Increment      1: Step Time =    1.000,"P-2-1",           660,       4.83392,       170.083,            0.,NA,NA,"",   1.22063E+06,   1.34896E+06,   1.34896E+06
C:/temp/Job-2.odb,Step-1,Increment      1: Step Time =    1.000,"P-2-1",           661,       4.87819,       179.966,            0.,NA,NA,"",   1.43492E+06,   1.57321E+06,   1.57321E+06
C:/temp/Job-2.odb,Step-1,Increment      1: Step Time =    1.000,"P-2-1",           662,       4.97769,       189.952,            0.,NA,NA,"",   1.76955E+06,   1.89585E+06,   1.89585E+06
C:/temp/Job-2.odb,Step-1,Increment      1: Step Time =    1.000,"P-2-1",           663,       147.151,       101.986,            0.,NA,NA,"",   1.14982E+06,  -1.16748E+06,  -1.16748E+06
C:/temp/Job-2.odb,Step-1,Increment      1: Step Time =    1.000,"P-2-1",           664,       145.116,       112.392,            0.,NA,NA,"",   1.00862E+06,  -949.424E+03,  -949.424E+03
C:/temp/Job-2.odb,Step-1,Increment      1: Step Time =    1.000,"P-2-1",           665,       102.294,       52.5951,            0.,NA,NA,"",   3.06542E+06,   3.19706E+06,   3.19706E+06
C:/temp/Job-2.odb,Step-1,Increment      1: Step Time =    1.000,"P-2-1",           666,       111.629,       150.732,            0.,NA,NA,"",   2.37452E+06,   2.53782E+06,   2.53782E+06
C:/temp/Job-2.odb,Step-1,Increment      1: Step Time =    1.000,"P-2-1",           667,       86.6772,       148.943,            0.,NA,NA,"",   2.28841E+06,   2.38235E+06,   2.38235E+06
C:/temp/Job-2.odb,Step-1,Increment      1: Step Time =    1.000,"P-2-1",           668,       122.144,       54.0965,            0.,NA,NA,"",   2.29453E+06,   2.38450E+06,   2.38450E+06
C:/temp/Job-2.odb,Step-1,Increment      1: Step Time =    1.000,"P-2-1",           669,       79.5498,       54.2206,            0.,NA,NA,"",   2.00775E+06,   2.03913E+06,   2.03913E+06
C:/temp/Job-2.odb,Step-1,Increment      1: Step Time =    1.000,"P-2-1",           670,       149.735,       88.5078,            0.,NA,NA,"",   861.936E+03,  -728.902E+03,  -728.902E+03
C:/temp/Job-2.odb,Step-1,Increment      1: Step Time =    1.000,"P-2-1",           671,       47.9143,       97.3251,            0.,NA,NA,"",   357.324E+03,  -385.017E+03,  -385.017E+03
C:/temp/Job-2.odb,Step-1,Increment      1: Step Time =    1.000,"P-2-1",           672,       54.1423,       76.7366,            0.,NA,NA,"",   569.928E+03,  -145.925E+03,  -145.925E+03
C:/temp/Job-2.odb,Step-1,Increment      1: Step Time =    1.000,"P-2-1",           673,       146.348,       79.6962,            0.,NA,NA,"",   1.05056E+06,   13.9216E+03,   13.9216E+03
C:/temp/Job-2.odb,Step-1,Increment      1: Step Time =    1.000,"P-2-1",           674,       145.035,       70.8346,            0.,NA,NA,"",   1.44319E+06,   1.12724E+06,   1.12724E+06
C:/temp/Job-2.odb,Step-1,Increment      1: Step Time =    1.000,"P-2-1",           675,       60.0413,       67.3157,            0.,NA,NA,"",   941.518E+03,   771.163E+03,   771.163E+03
C:/temp/Job-2.odb,Step-1,Increment      1: Step Time =    1.000,"P-2-1",           676,       110.424,       146.040,            0.,NA,NA,"",   3.03902E+06,   3.16099E+06,   3.16099E+06
C:/temp/Job-2.odb,Step-1,Increment      1: Step Time =    1.000,"P-2-1",           677,       88.4204,       145.023,            0.,NA,NA,"",   2.70561E+06,   2.78425E+06,   2.78425E+06
C:/temp/Job-2.odb,Step-1,Increment      1: Step Time =    1.000,"P-2-1",           678,       149.598,       113.849,            0.,NA,NA,"",   907.020E+03,  -693.293E+03,  -693.293E+03
C:/temp/Job-2.odb,Step-1,Increment      1: Step Time =    1.000,"P-2-1",           679,       139.582,       8.95000,            0.,NA,NA,"",   969.958E+03,   962.885E+03,   962.885E+03
C:/temp/Job-2.odb,Step-1,Increment      1: Step Time =    1.000,"P-2-1",           680,       129.958,       9.47411,            0.,NA,NA,"",   925.035E+03,   924.288E+03,   924.288E+03
C:/temp/Job-2.odb,Step-1,Increment      1: Step Time =    1.000,"P-2-1",           681,       120.021,       10.2005,            0.,NA,NA,"",   889.692E+03,   903.053E+03,   903.053E+03
C:/temp/Job-2.odb,Step-1,Increment      1: Step Time =    1.000,"P-2-1",           682,       109.807,       10.3786,            0.,NA,NA,"",   876.051E+03,   899.662E+03,   899.662E+03
C:/temp/Job-2.odb,Step-1,Increment      1: Step Time =    1.000,"P-2-1",           683,       89.8074,       10.0090,            0.,NA,NA,"",   1.04396E+06,   1.04901E+06,   1.04901E+06
C:/temp/Job-2.odb,Step-1,Increment      1: Step Time =    1.000,"P-2-1",           684,       79.8083,       9.97183,            0.,NA,NA,"",   1.20095E+06,   1.19104E+06,   1.19104E+06
C:/temp/Job-2.odb,Step-1,Increment      1: Step Time =    1.000,"P-2-1",           685,       69.8953,       10.0665,            0.,NA,NA,"",   1.35375E+06,   1.33457E+06,   1.33457E+06
C:/temp/Job-2.odb,Step-1,Increment      1: Step Time =    1.000,"P-2-1",           686,       59.9916,       10.1277,            0.,NA,NA,"",   1.48204E+06,   1.46080E+06,   1.46080E+06
C:/temp/Job-2.odb,Step-1,Increment      1: Step Time =    1.000,"P-2-1",           687,       191.362,       139.694,            0.,NA,NA,"",   953.894E+03,   1.07792E+06,   1.07792E+06
C:/temp/Job-2.odb,Step-1,Increment      1: Step Time =    1.000,"P-2-1",           688,       190.583,       130.232,            0.,NA,NA,"",   959.282E+03,   1.09775E+06,   1.09775E+06
C:/temp/Job-2.odb,Step-1,Increment      1: Step Time =    1.000,"P-2-1",           689,       189.649,       120.306,            0.,NA,NA,"",   947.395E+03,   1.08261E+06,   1.08261E+06
C:/temp/Job-2.odb,Step-1,Increment      1: Step Time =    1.000,"P-2-1",           690,       189.647,       109.980,            0.,NA,NA,"",   927.058E+03,   1.02537E+06,   1.02537E+06
C:/temp/Job-2.odb,Step-1,Increment      1: Step Time =    1.000,"P-2-1",           691,       189.945,       99.8138,            0.,NA,NA,"",   923.533E+03,   970.026E+03,   970.026E+03
C:/temp/Job-2.odb,Step-1,Increment      1: Step Time =    1.000,"P-2-1",           692,       189.791,       89.7222,            0.,NA,NA,"",   931.540E+03,   1.03157E+06,   1.03157E+06
C:/temp/Job-2.odb,Step-1,Increment      1: Step Time =    1.000,"P-2-1",           693,       189.869,       79.6587,            0.,NA,NA,"",   949.849E+03,   1.08560E+06,   1.08560E+06
C:/temp/Job-2.odb,Step-1,Increment      1: Step Time =    1.000,"P-2-1",           694,       190.164,       69.7260,            0.,NA,NA,"",   962.406E+03,   1.09992E+06,   1.09992E+06
C:/temp/Job-2.odb,Step-1,Increment      1: Step Time =    1.000,"P-2-1",           695,       190.325,       59.9798,            0.,NA,NA,"",   970.372E+03,   1.08804E+06,   1.08804E+06
C:/temp/Job-2.odb,Step-1,Increment      1: Step Time =    1.000,"P-2-1",           696,       60.8063,       191.023,            0.,NA,NA,"",   1.45999E+06,   1.44265E+06,   1.44265E+06
C:/temp/Job-2.odb,Step-1,Increment      1: Step Time =    1.000,"P-2-1",           697,       70.3364,       190.650,            0.,NA,NA,"",   1.33450E+06,   1.31702E+06,   1.31702E+06
C:/temp/Job-2.odb,Step-1,Increment      1: Step Time =    1.000,"P-2-1",           698,       80.3993,       189.599,            0.,NA,NA,"",   1.20404E+06,   1.19494E+06,   1.19494E+06
C:/temp/Job-2.odb,Step-1,Increment      1: Step Time =    1.000,"P-2-1",           699,       90.8526,       189.193,            0.,NA,NA,"",   1.05575E+06,   1.06316E+06,   1.06316E+06
C:/temp/Job-2.odb,Step-1,Increment      1: Step Time =    1.000,"P-2-1",           700,       110.711,       189.689,            0.,NA,NA,"",   874.287E+03,   895.107E+03,   895.107E+03
C:/temp/Job-2.odb,Step-1,Increment      1: Step Time =    1.000,"P-2-1",           701,       120.849,       189.777,            0.,NA,NA,"",   892.929E+03,   904.384E+03,   904.384E+03
C:/temp/Job-2.odb,Step-1,Increment      1: Step Time =    1.000,"P-2-1",           702,       130.696,       189.994,            0.,NA,NA,"",   942.918E+03,   942.155E+03,   942.155E+03
C:/temp/Job-2.odb,Step-1,Increment      1: Step Time =    1.000,"P-2-1",           703,       140.671,       190.107,            0.,NA,NA,"",   994.062E+03,   985.240E+03,   985.240E+03
C:/temp/Job-2.odb,Step-1,Increment      1: Step Time =    1.000,"P-2-1",           704,       8.47872,       70.8397,            0.,NA,NA,"",   496.871E+03,   551.341E+03,   551.341E+03
C:/temp/Job-2.odb,Step-1,Increment      1: Step Time =    1.000,"P-2-1",           705,       8.86856,       80.3440,            0.,NA,NA,"",   341.808E+03,   386.902E+03,   386.902E+03
C:/temp/Job-2.odb,Step-1,Increment      1: Step Time =    1.000,"P-2-1",           706,       9.40931,       90.0706,            0.,NA,NA,"",   228.014E+03,   262.346E+03,   262.346E+03
C:/temp/Job-2.odb,Step-1,Increment      1: Step Time =    1.000,"P-2-1",           707,       9.59957,       99.9006,            0.,NA,NA,"",   182.813E+03,   201.686E+03,   201.686E+03
C:/temp/Job-2.odb,Step-1,Increment      1: Step Time =    1.000,"P-2-1",           708,       9.74320,       109.706,            0.,NA,NA,"",   225.833E+03,   259.692E+03,   259.692E+03
C:/temp/Job-2.odb,Step-1,Increment      1: Step Time =    1.000,"P-2-1",           709,       10.6472,       119.892,            0.,NA,NA,"",   348.880E+03,   394.354E+03,   394.354E+03
C:/temp/Job-2.odb,Step-1,Increment      1: Step Time =    1.000,"P-2-1",           710,       10.2038,       130.089,            0.,NA,NA,"",   516.635E+03,   570.556E+03,   570.556E+03
C:/temp/Job-2.odb,Step-1,Increment      1: Step Time =    1.000,"P-2-1",           711,       9.80476,       140.099,            0.,NA,NA,"",   705.480E+03,   770.535E+03,   770.535E+03
C:/temp/Job-2.odb,Step-1,Increment      1: Step Time =    1.000,"P-2-1",           712,       99.6873,       10.1540,            0.,NA,NA,"",   928.035E+03,   944.645E+03,   944.645E+03
C:/temp/Job-2.odb,Step-1,Increment      1: Step Time =    1.000,"P-2-1",           713,       100.812,       189.647,            0.,NA,NA,"",   921.929E+03,   943.107E+03,   943.107E+03
C:/temp/Job-2.odb,Step-1,Increment      1: Step Time =    1.000,"P-2-1",           714,       8.83972,       61.4165,            0.,NA,NA,"",   672.903E+03,   738.356E+03,   738.356E+03
C:/temp/Job-2.odb,Step-1,Increment      1: Step Time =    1.000,"P-2-1",           715,       101.027,       47.2435,            0.,NA,NA,"",   2.34690E+06,   2.51790E+06,   2.51790E+06
C:/temp/Job-2.odb,Step-1,Increment      1: Step Time =    1.000,"P-2-1",           716,       106.402,       45.9418,            0.,NA,NA,"",   2.19067E+06,   2.36772E+06,   2.36772E+06
C:/temp/Job-2.odb,Step-1,Increment      1: Step Time =    1.000,"P-2-1",           717,       75.2894,       147.173,            0.,NA,NA,"",   1.86156E+06,   1.84335E+06,   1.84335E+06
C:/temp/Job-2.odb,Step-1,Increment      1: Step Time =    1.000,"P-2-1",           718,       57.7092,       130.893,            0.,NA,NA,"",   857.599E+03,   665.578E+03,   665.578E+03
C:/temp/Job-2.odb,Step-1,Increment      1: Step Time =    1.000,"P-2-1",           719,       132.133,       140.894,            0.,NA,NA,"",   1.91438E+06,   1.87734E+06,   1.87734E+06
C:/temp/Job-2.odb,Step-1,Increment      1: Step Time =    1.000,"P-2-1",           720,       54.5551,       126.505,            0.,NA,NA,"",   677.422E+03,   301.787E+03,   301.787E+03
C:/temp/Job-2.odb,Step-1,Increment      1: Step Time =    1.000,"P-2-1",           721,       143.002,       127.342,            0.,NA,NA,"",   1.29967E+06,   985.945E+03,   985.945E+03
C:/temp/Job-2.odb,Step-1,Increment      1: Step Time =    1.000,"P-2-1",           722,       66.0742,       138.640,            0.,NA,NA,"",   1.31593E+06,   1.20910E+06,   1.20910E+06
C:/temp/Job-2.odb,Step-1,Increment      1: Step Time =    1.000,"P-2-1",           723,       123.925,       146.237,            0.,NA,NA,"",   2.19644E+06,   2.27827E+06,   2.27827E+06
C:/temp/Job-2.odb,Step-1,Increment      1: Step Time =    1.000,"P-2-1",           724,       70.4543,       142.573,            0.,NA,NA,"",   1.59191E+06,   1.52808E+06,   1.52808E+06
C:/temp/Job-2.odb,Step-1,Increment      1: Step Time =    1.000,"P-2-1",           725,       130.140,       144.344,            0.,NA,NA,"",   1.96201E+06,   1.96465E+06,   1.96465E+06
C:/temp/Job-2.odb,Step-1,Increment      1: Step Time =    1.000,"P-2-1",           726,       140.487,       130.211,            0.,NA,NA,"",   1.39456E+06,   1.15488E+06,   1.15488E+06
C:/temp/Job-2.odb,Step-1,Increment      1: Step Time =    1.000,"P-2-1",           727,       89.7170,       49.4004,            0.,NA,NA,"",   2.33137E+06,   2.44493E+06,   2.44493E+06
C:/temp/Job-2.odb,Step-1,Increment      1: Step Time =    1.000,"P-2-1",           728,       133.002,       66.3590,            0.,NA,NA,"",   1.58938E+06,   1.54450E+06,   1.54450E+06
C:/temp/Job-2.odb,Step-1,Increment      1: Step Time =    1.000,"P-2-1",           729,       71.9132,       63.1001,            0.,NA,NA,"",   1.29454E+06,   1.27312E+06,   1.27312E+06
C:/temp/Job-2.odb,Step-1,Increment      1: Step Time =    1.000,"P-2-1",           730,       60.0587,       15.2775,            0.,NA,NA,"",   1.54109E+06,   1.50192E+06,   1.50192E+06
C:/temp/Job-2.odb,Step-1,Increment      1: Step Time =    1.000,"P-2-1",           731,       13.3638,       62.3850,            0.,NA,NA,"",   675.608E+03,   729.879E+03,   729.879E+03
C:/temp/Job-2.odb,Step-1,Increment      1: Step Time =    1.000,"P-2-1",           732,       185.546,       59.9535,            0.,NA,NA,"",   1.05665E+06,   1.14015E+06,   1.14015E+06
C:/temp/Job-2.odb,Step-1,Increment      1: Step Time =    1.000,"P-2-1",           733,       61.1602,       186.432,            0.,NA,NA,"",   1.51304E+06,   1.47992E+06,   1.47992E+06
C:/temp/Job-2.odb,Step-1,Increment      1: Step Time =    1.000,"P-2-1",           734,       139.511,       13.5478,            0.,NA,NA,"",   1.07639E+06,   1.06368E+06,   1.06368E+06
C:/temp/Job-2.odb,Step-1,Increment      1: Step Time =    1.000,"P-2-1",           735,       14.1429,       139.932,            0.,NA,NA,"",   724.701E+03,   778.401E+03,   778.401E+03
C:/temp/Job-2.odb,Step-1,Increment      1: Step Time =    1.000,"P-2-1",           736,       187.008,       139.784,            0.,NA,NA,"",   1.02929E+06,   1.12635E+06,   1.12635E+06
C:/temp/Job-2.odb,Step-1,Increment      1: Step Time =    1.000,"P-2-1",           737,       141.005,       185.266,            0.,NA,NA,"",   1.10167E+06,   1.08662E+06,   1.08662E+06
C:/temp/Job-2.odb,Step-1,Increment      1: Step Time =    1.000,"P-2-1",           738,       51.8322,       122.204,            0.,NA,NA,"",   531.950E+03,  -138.269E+03,  -138.269E+03
C:/temp/Job-2.odb,Step-1,Increment      1: Step Time =    1.000,"P-2-1",           739,       147.791,       123.997,            0.,NA,NA,"",   1.24624E+06,   540.934E+03,   540.934E+03
C:/temp/Job-2.odb,Step-1,Increment      1: Step Time =    1.000,"P-2-1",           740,       99.6646,       42.0053,            0.,NA,NA,"",   1.94816E+06,   2.10823E+06,   2.10823E+06
C:/temp/Job-2.odb,Step-1,Increment      1: Step Time =    1.000,"P-2-1",           741,       122.802,       151.210,            0.,NA,NA,"",   2.05997E+06,   2.15088E+06,   2.15088E+06
C:/temp/Job-2.odb,Step-1,Increment      1: Step Time =    1.000,"P-2-1",           742,       76.2174,       153.478,            0.,NA,NA,"",   1.90700E+06,   1.88577E+06,   1.88577E+06
C:/temp/Job-2.odb,Step-1,Increment      1: Step Time =    1.000,"P-2-1",           743,       62.6736,       142.041,            0.,NA,NA,"",   1.46308E+06,   1.31754E+06,   1.31754E+06
C:/temp/Job-2.odb,Step-1,Increment      1: Step Time =    1.000,"P-2-1",           744,       136.067,       143.409,            0.,NA,NA,"",   1.87655E+06,   1.77872E+06,   1.77872E+06
C:/temp/Job-2.odb,Step-1,Increment      1: Step Time =    1.000,"P-2-1",           745,       121.314,       47.6164,            0.,NA,NA,"",   1.99974E+06,   2.10432E+06,   2.10432E+06
C:/temp/Job-2.odb,Step-1,Increment      1: Step Time =    1.000,"P-2-1",           746,       77.4718,       50.5501,            0.,NA,NA,"",   1.93522E+06,   1.93503E+06,   1.93503E+06
C:/temp/Job-2.odb,Step-1,Increment      1: Step Time =    1.000,"P-2-1",           747,       115.797,       153.880,            0.,NA,NA,"",   2.05704E+06,   2.20071E+06,   2.20071E+06
C:/temp/Job-2.odb,Step-1,Increment      1: Step Time =    1.000,"P-2-1",           748,       86.0198,       153.236,            0.,NA,NA,"",   2.06215E+06,   2.14526E+06,   2.14526E+06
C:/temp/Job-2.odb,Step-1,Increment      1: Step Time =    1.000,"P-2-1",           749,       12.6738,       71.2234,            0.,NA,NA,"",   494.194E+03,   543.867E+03,   543.867E+03
C:/temp/Job-2.odb,Step-1,Increment      1: Step Time =    1.000,"P-2-1",           750,       69.9385,       15.2109,            0.,NA,NA,"",   1.45492E+06,   1.42164E+06,   1.42164E+06
C:/temp/Job-2.odb,Step-1,Increment      1: Step Time =    1.000,"P-2-1",           751,       130.132,       14.2876,            0.,NA,NA,"",   1.05519E+06,   1.05647E+06,   1.05647E+06
C:/temp/Job-2.odb,Step-1,Increment      1: Step Time =    1.000,"P-2-1",           752,       15.2645,       130.585,            0.,NA,NA,"",   542.643E+03,   589.209E+03,   589.209E+03
C:/temp/Job-2.odb,Step-1,Increment      1: Step Time =    1.000,"P-2-1",           753,       185.794,       130.709,            0.,NA,NA,"",   1.02327E+06,   1.13569E+06,   1.13569E+06
C:/temp/Job-2.odb,Step-1,Increment      1: Step Time =    1.000,"P-2-1",           754,       131.175,       185.076,            0.,NA,NA,"",   1.07887E+06,   1.07813E+06,   1.07813E+06
C:/temp/Job-2.odb,Step-1,Increment      1: Step Time =    1.000,"P-2-1",           755,       70.2916,       186.015,            0.,NA,NA,"",   1.42561E+06,   1.39635E+06,   1.39635E+06
C:/temp/Job-2.odb,Step-1,Increment      1: Step Time =    1.000,"P-2-1",           756,       185.281,       69.4572,            0.,NA,NA,"",   1.02640E+06,   1.13608E+06,   1.13608E+06
C:/temp/Job-2.odb,Step-1,Increment      1: Step Time =    1.000,"P-2-1",           757,       46.4969,       92.1919,            0.,NA,NA,"",   301.076E+03,  -306.793E+03,  -306.793E+03
C:/temp/Job-2.odb,Step-1,Increment      1: Step Time =    1.000,"P-2-1",           758,       152.304,       92.5031,            0.,NA,NA,"",   709.110E+03,  -617.356E+03,  -617.356E+03
C:/temp/Job-2.odb,Step-1,Increment      1: Step Time =    1.000,"P-2-1",           759,       48.8224,       78.7626,            0.,NA,NA,"",   514.028E+03,  -81.0095E+03,  -81.0095E+03
C:/temp/Job-2.odb,Step-1,Increment      1: Step Time =    1.000,"P-2-1",           760,       150.889,       79.0637,            0.,NA,NA,"",   1.20492E+06,   458.347E+03,   458.347E+03
C:/temp/Job-2.odb,Step-1,Increment      1: Step Time =    1.000,"P-2-1",           761,       56.8824,       72.1086,            0.,NA,NA,"",   710.416E+03,   344.986E+03,   344.986E+03
C:/temp/Job-2.odb,Step-1,Increment      1: Step Time =    1.000,"P-2-1",           762,       99.3754,       147.265,            0.,NA,NA,"",   3.05848E+06,   3.18456E+06,   3.18456E+06
C:/temp/Job-2.odb,Step-1,Increment      1: Step Time =    1.000,"P-2-1",           763,       13.3816,       80.2766,            0.,NA,NA,"",   336.726E+03,   380.287E+03,   380.287E+03
C:/temp/Job-2.odb,Step-1,Increment      1: Step Time =    1.000,"P-2-1",           764,       120.380,       15.2942,            0.,NA,NA,"",   1.03951E+06,   1.06423E+06,   1.06423E+06
C:/temp/Job-2.odb,Step-1,Increment      1: Step Time =    1.000,"P-2-1",           765,       79.7636,       14.8995,            0.,NA,NA,"",   1.33098E+06,   1.31707E+06,   1.31707E+06
C:/temp/Job-2.odb,Step-1,Increment      1: Step Time =    1.000,"P-2-1",           766,       16.6659,       119.451,            0.,NA,NA,"",   335.617E+03,   375.776E+03,   375.776E+03
C:/temp/Job-2.odb,Step-1,Increment      1: Step Time =    1.000,"P-2-1",           767,       184.357,       120.792,            0.,NA,NA,"",   954.067E+03,   1.07874E+06,   1.07874E+06
C:/temp/Job-2.odb,Step-1,Increment      1: Step Time =    1.000,"P-2-1",           768,       80.0806,       184.515,            0.,NA,NA,"",   1.34177E+06,   1.32804E+06,   1.32804E+06
C:/temp/Job-2.odb,Step-1,Increment      1: Step Time =    1.000,"P-2-1",           769,       184.771,       79.3621,            0.,NA,NA,"",   951.910E+03,   1.08056E+06,   1.08056E+06
C:/temp/Job-2.odb,Step-1,Increment      1: Step Time =    1.000,"P-2-1",           770,       121.427,       184.707,            0.,NA,NA,"",   1.04327E+06,   1.06554E+06,   1.06554E+06
C:/temp/Job-2.odb,Step-1,Increment      1: Step Time =    1.000,"P-2-1",           771,       95.3735,       48.1401,            0.,NA,NA,"",   2.39190E+06,   2.53840E+06,   2.53840E+06
C:/temp/Job-2.odb,Step-1,Increment      1: Step Time =    1.000,"P-2-1",           772,       111.182,       43.6117,            0.,NA,NA,"",   1.98256E+06,   2.14622E+06,   2.14622E+06
C:/temp/Job-2.odb,Step-1,Increment      1: Step Time =    1.000,"P-2-1",           773,       145.353,       75.2284,            0.,NA,NA,"",   1.23157E+06,   856.945E+03,   856.945E+03
C:/temp/Job-2.odb,Step-1,Increment      1: Step Time =    1.000,"P-2-1",           774,       137.601,       133.782,            0.,NA,NA,"",   1.57073E+06,   1.41626E+06,   1.41626E+06
C:/temp/Job-2.odb,Step-1,Increment      1: Step Time =    1.000,"P-2-1",           775,       109.407,       15.4108,            0.,NA,NA,"",   1.02724E+06,   1.07116E+06,   1.07116E+06
C:/temp/Job-2.odb,Step-1,Increment      1: Step Time =    1.000,"P-2-1",           776,       14.2477,       89.9673,            0.,NA,NA,"",   217.523E+03,   249.963E+03,   249.963E+03
C:/temp/Job-2.odb,Step-1,Increment      1: Step Time =    1.000,"P-2-1",           777,       89.6605,       14.9659,            0.,NA,NA,"",   1.19379E+06,   1.20700E+06,   1.20700E+06
C:/temp/Job-2.odb,Step-1,Increment      1: Step Time =    1.000,"P-2-1",           778,       14.3155,       109.398,            0.,NA,NA,"",   212.772E+03,   244.549E+03,   244.549E+03
C:/temp/Job-2.odb,Step-1,Increment      1: Step Time =    1.000,"P-2-1",           779,       91.8083,       183.783,            0.,NA,NA,"",   1.19796E+06,   1.21900E+06,   1.21900E+06
C:/temp/Job-2.odb,Step-1,Increment      1: Step Time =    1.000,"P-2-1",           780,       184.731,       109.553,            0.,NA,NA,"",   838.215E+03,   954.586E+03,   954.586E+03
C:/temp/Job-2.odb,Step-1,Increment      1: Step Time =    1.000,"P-2-1",           781,       184.644,       89.6056,            0.,NA,NA,"",   846.651E+03,   966.056E+03,   966.056E+03
C:/temp/Job-2.odb,Step-1,Increment      1: Step Time =    1.000,"P-2-1",           782,       111.206,       184.543,            0.,NA,NA,"",   1.02516E+06,   1.06452E+06,   1.06452E+06
C:/temp/Job-2.odb,Step-1,Increment      1: Step Time =    1.000,"P-2-1",           783,       14.3984,       99.8690,            0.,NA,NA,"",   171.514E+03,   184.949E+03,   184.949E+03
C:/temp/Job-2.odb,Step-1,Increment      1: Step Time =    1.000,"P-2-1",           784,       99.4166,       15.3036,            0.,NA,NA,"",   1.08184E+06,   1.11531E+06,   1.11531E+06
C:/temp/Job-2.odb,Step-1,Increment      1: Step Time =    1.000,"P-2-1",           785,       185.102,       99.7106,            0.,NA,NA,"",   796.564E+03,   864.120E+03,   864.120E+03
C:/temp/Job-2.odb,Step-1,Increment      1: Step Time =    1.000,"P-2-1",           786,       101.448,       184.656,            0.,NA,NA,"",   1.06831E+06,   1.10988E+06,   1.10988E+06
C:/temp/Job-2.odb,Step-1,Increment      1: Step Time =    1.000,"P-2-1",           787,       151.830,       82.9248,            0.,NA,NA,"",   1.03730E+06,   7.41695E+03,   7.41695E+03
C:/temp/Job-2.odb,Step-1,Increment      1: Step Time =    1.000,"P-2-1",           788,       58.1982,       138.564,            0.,NA,NA,"",   1.26475E+06,   1.09332E+06,   1.09332E+06
C:/temp/Job-2.odb,Step-1,Increment      1: Step Time =    1.000,"P-2-1",           789,       141.269,       136.533,            0.,NA,NA,"",   1.73592E+06,   1.51910E+06,   1.51910E+06
C:/temp/Job-2.odb,Step-1,Increment      1: Step Time =    1.000,"P-2-1",           790,       42.9338,       98.8681,            0.,NA,NA,"",   178.964E+03,  -193.674E+03,  -193.674E+03
C:/temp/Job-2.odb,Step-1,Increment      1: Step Time =    1.000,"P-2-1",           791,       98.8676,       152.435,            0.,NA,NA,"",   2.36310E+06,   2.52972E+06,   2.52972E+06
C:/temp/Job-2.odb,Step-1,Increment      1: Step Time =    1.000,"P-2-1",           792,       49.0422,       102.462,            0.,NA,NA,"",   413.148E+03,  -441.559E+03,  -441.559E+03
C:/temp/Job-2.odb,Step-1,Increment      1: Step Time =    1.000,"P-2-1",           793,       55.7285,       64.6695,            0.,NA,NA,"",   1.09959E+06,   917.393E+03,   917.393E+03
C:/temp/Job-2.odb,Step-1,Increment      1: Step Time =    1.000,"P-2-1",           794,       48.4763,       84.9057,            0.,NA,NA,"",   388.831E+03,  -323.341E+03,  -323.341E+03
C:/temp/Job-2.odb,Step-1,Increment      1: Step Time =    1.000,"P-2-1",           795,       65.0001,       15.2653,            0.,NA,NA,"",   1.50219E+06,   1.46462E+06,   1.46462E+06
C:/temp/Job-2.odb,Step-1,Increment      1: Step Time =    1.000,"P-2-1",           796,       17.9156,       63.6397,            0.,NA,NA,"",   675.952E+03,   715.565E+03,   715.565E+03
C:/temp/Job-2.odb,Step-1,Increment      1: Step Time =    1.000,"P-2-1",           797,       185.479,       64.6694,            0.,NA,NA,"",   1.04478E+06,   1.14185E+06,   1.14185E+06
C:/temp/Job-2.odb,Step-1,Increment      1: Step Time =    1.000,"P-2-1",           798,       65.6916,       186.321,            0.,NA,NA,"",   1.46992E+06,   1.43807E+06,   1.43807E+06
C:/temp/Job-2.odb,Step-1,Increment      1: Step Time =    1.000,"P-2-1",           799,       134.865,       13.9021,            0.,NA,NA,"",   1.06777E+06,   1.06064E+06,   1.06064E+06
C:/temp/Job-2.odb,Step-1,Increment      1: Step Time =    1.000,"P-2-1",           800,       14.4097,       135.399,            0.,NA,NA,"",   634.396E+03,   685.551E+03,   685.551E+03
C:/temp/Job-2.odb,Step-1,Increment      1: Step Time =    1.000,"P-2-1",           801,       136.147,       185.338,            0.,NA,NA,"",   1.08919E+06,   1.07963E+06,   1.07963E+06
C:/temp/Job-2.odb,Step-1,Increment      1: Step Time =    1.000,"P-2-1",           802,       186.517,       135.362,            0.,NA,NA,"",   1.03021E+06,   1.13574E+06,   1.13574E+06
C:/temp/Job-2.odb,Step-1,Increment      1: Step Time =    1.000,"P-2-1",           803,       47.4014,       124.310,            0.,NA,NA,"",   608.055E+03,   276.321E+03,   276.321E+03
C:/temp/Job-2.odb,Step-1,Increment      1: Step Time =    1.000,"P-2-1",           804,       153.845,       125.606,            0.,NA,NA,"",   1.37452E+06,   1.02564E+06,   1.02564E+06
C:/temp/Job-2.odb,Step-1,Increment      1: Step Time =    1.000,"P-2-1",           805,       126.962,       153.032,            0.,NA,NA,"",   1.91116E+06,   1.95967E+06,   1.95967E+06
C:/temp/Job-2.odb,Step-1,Increment      1: Step Time =    1.000,"P-2-1",           806,       71.2049,       155.032,            0.,NA,NA,"",   1.84189E+06,   1.77025E+06,   1.77025E+06
C:/temp/Job-2.odb,Step-1,Increment      1: Step Time =    1.000,"P-2-1",           807,       66.5616,       145.816,            0.,NA,NA,"",   1.64627E+06,   1.53385E+06,   1.53385E+06
C:/temp/Job-2.odb,Step-1,Increment      1: Step Time =    1.000,"P-2-1",           808,       87.3190,       43.6089,            0.,NA,NA,"",   1.99284E+06,   2.07684E+06,   2.07684E+06
C:/temp/Job-2.odb,Step-1,Increment      1: Step Time =    1.000,"P-2-1",           809,       118.039,       44.5442,            0.,NA,NA,"",   1.92199E+06,   2.04941E+06,   2.04941E+06
C:/temp/Job-2.odb,Step-1,Increment      1: Step Time =    1.000,"P-2-1",           810,       107.757,       152.762,            0.,NA,NA,"",   2.28822E+06,   2.46328E+06,   2.46328E+06
C:/temp/Job-2.odb,Step-1,Increment      1: Step Time =    1.000,"P-2-1",           811,       90.3266,       153.438,            0.,NA,NA,"",   2.17102E+06,   2.29156E+06,   2.29156E+06
C:/temp/Job-2.odb,Step-1,Increment      1: Step Time =    1.000,"P-2-1",           812,       12.9162,       75.7033,            0.,NA,NA,"",   410.871E+03,   457.757E+03,   457.757E+03
C:/temp/Job-2.odb,Step-1,Increment      1: Step Time =    1.000,"P-2-1",           813,       74.8596,       15.0792,            0.,NA,NA,"",   1.39741E+06,   1.37229E+06,   1.37229E+06
C:/temp/Job-2.odb,Step-1,Increment      1: Step Time =    1.000,"P-2-1",           814,       16.3172,       125.326,            0.,NA,NA,"",   440.870E+03,   483.534E+03,   483.534E+03
C:/temp/Job-2.odb,Step-1,Increment      1: Step Time =    1.000,"P-2-1",           815,       125.348,       14.7129,            0.,NA,NA,"",   1.04401E+06,   1.05496E+06,   1.05496E+06
C:/temp/Job-2.odb,Step-1,Increment      1: Step Time =    1.000,"P-2-1",           816,       184.946,       125.833,            0.,NA,NA,"",   1.00081E+06,   1.11919E+06,   1.11919E+06
C:/temp/Job-2.odb,Step-1,Increment      1: Step Time =    1.000,"P-2-1",           817,       126.377,       184.614,            0.,NA,NA,"",   1.06437E+06,   1.07516E+06,   1.07516E+06
C:/temp/Job-2.odb,Step-1,Increment      1: Step Time =    1.000,"P-2-1",           818,       185.038,       74.3433,            0.,NA,NA,"",   996.723E+03,   1.11724E+06,   1.11724E+06
C:/temp/Job-2.odb,Step-1,Increment      1: Step Time =    1.000,"P-2-1",           819,       75.0262,       185.454,            0.,NA,NA,"",   1.38309E+06,   1.35863E+06,   1.35863E+06
C:/temp/Job-2.odb,Step-1,Increment      1: Step Time =    1.000,"P-2-1",           820,       49.0894,       73.9776,            0.,NA,NA,"",   673.408E+03,   352.196E+03,   352.196E+03
C:/temp/Job-2.odb,Step-1,Increment      1: Step Time =    1.000,"P-2-1",           821,       150.442,       75.2262,            0.,NA,NA,"",   1.35762E+06,   966.952E+03,   966.952E+03
C:/temp/Job-2.odb,Step-1,Increment      1: Step Time =    1.000,"P-2-1",           822,       84.7132,       14.8848,            0.,NA,NA,"",   1.26196E+06,   1.26096E+06,   1.26096E+06
C:/temp/Job-2.odb,Step-1,Increment      1: Step Time =    1.000,"P-2-1",           823,       14.6604,       114.136,            0.,NA,NA,"",   262.171E+03,   300.029E+03,   300.029E+03
C:/temp/Job-2.odb,Step-1,Increment      1: Step Time =    1.000,"P-2-1",           824,       13.8528,       85.0339,            0.,NA,NA,"",   270.865E+03,   310.130E+03,   310.130E+03
C:/temp/Job-2.odb,Step-1,Increment      1: Step Time =    1.000,"P-2-1",           825,       114.914,       16.5362,            0.,NA,NA,"",   1.05830E+06,   1.10021E+06,   1.10021E+06
C:/temp/Job-2.odb,Step-1,Increment      1: Step Time =    1.000,"P-2-1",           826,       184.582,       84.4539,            0.,NA,NA,"",   898.942E+03,   1.02987E+06,   1.02987E+06
C:/temp/Job-2.odb,Step-1,Increment      1: Step Time =    1.000,"P-2-1",           827,       116.303,       184.745,            0.,NA,NA,"",   1.02629E+06,   1.05839E+06,   1.05839E+06
C:/temp/Job-2.odb,Step-1,Increment      1: Step Time =    1.000,"P-2-1",           828,       183.337,       115.178,            0.,NA,NA,"",   882.796E+03,   1.00769E+06,   1.00769E+06
C:/temp/Job-2.odb,Step-1,Increment      1: Step Time =    1.000,"P-2-1",           829,       86.0427,       182.760,            0.,NA,NA,"",   1.30575E+06,   1.31232E+06,   1.31232E+06
C:/temp/Job-2.odb,Step-1,Increment      1: Step Time =    1.000,"P-2-1",           830,       94.5544,       15.1919,            0.,NA,NA,"",   1.13276E+06,   1.15767E+06,   1.15767E+06
C:/temp/Job-2.odb,Step-1,Increment      1: Step Time =    1.000,"P-2-1",           831,       14.3130,       104.709,            0.,NA,NA,"",   183.284E+03,   203.907E+03,   203.907E+03
C:/temp/Job-2.odb,Step-1,Increment      1: Step Time =    1.000,"P-2-1",           832,       184.910,       94.7172,            0.,NA,NA,"",   807.276E+03,   895.525E+03,   895.525E+03
C:/temp/Job-2.odb,Step-1,Increment      1: Step Time =    1.000,"P-2-1",           833,       106.351,       184.392,            0.,NA,NA,"",   1.03779E+06,   1.08096E+06,   1.08096E+06
C:/temp/Job-2.odb,Step-1,Increment      1: Step Time =    1.000,"P-2-1",           834,       14.4249,       94.9311,            0.,NA,NA,"",   183.250E+03,   204.062E+03,   204.062E+03
C:/temp/Job-2.odb,Step-1,Increment      1: Step Time =    1.000,"P-2-1",           835,       104.330,       15.2656,            0.,NA,NA,"",   1.04166E+06,   1.08192E+06,   1.08192E+06
C:/temp/Job-2.odb,Step-1,Increment      1: Step Time =    1.000,"P-2-1",           836,       185.072,       104.600,            0.,NA,NA,"",   811.658E+03,   897.425E+03,   897.425E+03
C:/temp/Job-2.odb,Step-1,Increment      1: Step Time =    1.000,"P-2-1",           837,       96.8781,       184.175,            0.,NA,NA,"",   1.12315E+06,   1.15604E+06,   1.15604E+06
C:/temp/Job-2.odb,Step-1,Increment      1: Step Time =    1.000,"P-2-1",           838,       155.345,       72.0534,            0.,NA,NA,"",   1.45561E+06,   1.13713E+06,   1.13713E+06
C:/temp/Job-2.odb,Step-1,Increment      1: Step Time =    1.000,"P-2-1",           839,       45.6524,       69.4005,            0.,NA,NA,"",   826.661E+03,   679.581E+03,   679.581E+03
C:/temp/Job-2.odb,Step-1,Increment      1: Step Time =    1.000,"P-2-1",           840,       19.1731,       89.7510,            0.,NA,NA,"",   206.851E+03,   237.063E+03,   237.063E+03
C:/temp/Job-2.odb,Step-1,Increment      1: Step Time =    1.000,"P-2-1",           841,       108.520,       19.9437,            0.,NA,NA,"",   1.14723E+06,   1.21213E+06,   1.21213E+06
C:/temp/Job-2.odb,Step-1,Increment      1: Step Time =    1.000,"P-2-1",           842,       180.233,       108.693,            0.,NA,NA,"",   761.642E+03,   874.471E+03,   874.471E+03
C:/temp/Job-2.odb,Step-1,Increment      1: Step Time =    1.000,"P-2-1",           843,       93.4298,       178.791,            0.,NA,NA,"",   1.30637E+06,   1.34610E+06,   1.34610E+06
C:/temp/Job-2.odb,Step-1,Increment      1: Step Time =    1.000,"P-2-1",           844,       19.1205,       99.9990,            0.,NA,NA,"",   154.090E+03,   168.740E+03,   168.740E+03
C:/temp/Job-2.odb,Step-1,Increment      1: Step Time =    1.000,"P-2-1",           845,       99.1416,       20.7508,            0.,NA,NA,"",   1.22927E+06,   1.28507E+06,   1.28507E+06
C:/temp/Job-2.odb,Step-1,Increment      1: Step Time =    1.000,"P-2-1",           846,       180.403,       99.6776,            0.,NA,NA,"",   687.466E+03,   774.143E+03,   774.143E+03
C:/temp/Job-2.odb,Step-1,Increment      1: Step Time =    1.000,"P-2-1",           847,       102.057,       180.405,            0.,NA,NA,"",   1.16877E+06,   1.22809E+06,   1.22809E+06
C:/temp/Job-2.odb,Step-1,Increment      1: Step Time =    1.000,"P-2-1",           848,       50.2232,       107.418,            0.,NA,NA,"",   442.350E+03,  -459.495E+03,  -459.495E+03
C:/temp/Job-2.odb,Step-1,Increment      1: Step Time =    1.000,"P-2-1",           849,       146.020,       66.5465,            0.,NA,NA,"",   1.62262E+06,   1.33905E+06,   1.33905E+06
C:/temp/Job-2.odb,Step-1,Increment      1: Step Time =    1.000,"P-2-1",           850,       19.8226,       55.3412,            0.,NA,NA,"",   882.437E+03,   914.822E+03,   914.822E+03
C:/temp/Job-2.odb,Step-1,Increment      1: Step Time =    1.000,"P-2-1",           851,       60.1572,       20.4978,            0.,NA,NA,"",   1.60221E+06,   1.54410E+06,   1.54410E+06
C:/temp/Job-2.odb,Step-1,Increment      1: Step Time =    1.000,"P-2-1",           852,       57.1579,       181.083,            0.,NA,NA,"",   1.59891E+06,   1.54611E+06,   1.54611E+06
C:/temp/Job-2.odb,Step-1,Increment      1: Step Time =    1.000,"P-2-1",           853,       180.784,       59.9126,            0.,NA,NA,"",   1.15420E+06,   1.18884E+06,   1.18884E+06
C:/temp/Job-2.odb,Step-1,Increment      1: Step Time =    1.000,"P-2-1",           854,       139.606,       18.2245,            0.,NA,NA,"",   1.18403E+06,   1.16519E+06,   1.16519E+06
C:/temp/Job-2.odb,Step-1,Increment      1: Step Time =    1.000,"P-2-1",           855,       19.6748,       142.541,            0.,NA,NA,"",   824.521E+03,   859.461E+03,   859.461E+03
C:/temp/Job-2.odb,Step-1,Increment      1: Step Time =    1.000,"P-2-1",           856,       183.087,       144.033,            0.,NA,NA,"",   1.10730E+06,   1.15958E+06,   1.15958E+06
C:/temp/Job-2.odb,Step-1,Increment      1: Step Time =    1.000,"P-2-1",           857,       141.210,       180.589,            0.,NA,NA,"",   1.20789E+06,   1.18618E+06,   1.18618E+06
C:/temp/Job-2.odb,Step-1,Increment      1: Step Time =    1.000,"P-2-1",           858,       45.1425,       130.711,            0.,NA,NA,"",   822.063E+03,   678.044E+03,   678.044E+03
C:/temp/Job-2.odb,Step-1,Increment      1: Step Time =    1.000,"P-2-1",           859,       49.4072,       117.975,            0.,NA,NA,"",   433.122E+03,  -324.563E+03,  -324.563E+03
C:/temp/Job-2.odb,Step-1,Increment      1: Step Time =    1.000,"P-2-1",           860,       150.699,       130.929,            0.,NA,NA,"",   1.56944E+06,   1.24057E+06,   1.24057E+06
C:/temp/Job-2.odb,Step-1,Increment      1: Step Time =    1.000,"P-2-1",           861,       153.251,       119.567,            0.,NA,NA,"",   1.13629E+06,   434.879E+03,   434.879E+03
C:/temp/Job-2.odb,Step-1,Increment      1: Step Time =    1.000,"P-2-1",           862,       120.731,       156.451,            0.,NA,NA,"",   1.87178E+06,   1.97644E+06,   1.97644E+06
C:/temp/Job-2.odb,Step-1,Increment      1: Step Time =    1.000,"P-2-1",           863,       133.104,       150.566,            0.,NA,NA,"",   1.88699E+06,   1.85127E+06,   1.85127E+06
C:/temp/Job-2.odb,Step-1,Increment      1: Step Time =    1.000,"P-2-1",           864,       64.9523,       152.450,            0.,NA,NA,"",   1.74003E+06,   1.61791E+06,   1.61791E+06
C:/temp/Job-2.odb,Step-1,Increment      1: Step Time =    1.000,"P-2-1",           865,       76.9805,       158.759,            0.,NA,NA,"",   1.86924E+06,   1.84865E+06,   1.84865E+06
C:/temp/Job-2.odb,Step-1,Increment      1: Step Time =    1.000,"P-2-1",           866,       82.0665,       47.5232,            0.,NA,NA,"",   2.01566E+06,   2.05830E+06,   2.05830E+06
C:/temp/Job-2.odb,Step-1,Increment      1: Step Time =    1.000,"P-2-1",           867,       113.932,       47.8652,            0.,NA,NA,"",   2.20056E+06,   2.35815E+06,   2.35815E+06
C:/temp/Job-2.odb,Step-1,Increment      1: Step Time =    1.000,"P-2-1",           868,       17.0874,       67.6142,            0.,NA,NA,"",   583.317E+03,   625.394E+03,   625.394E+03
C:/temp/Job-2.odb,Step-1,Increment      1: Step Time =    1.000,"P-2-1",           869,       70.1158,       20.4957,            0.,NA,NA,"",   1.55418E+06,   1.50772E+06,   1.50772E+06
C:/temp/Job-2.odb,Step-1,Increment      1: Step Time =    1.000,"P-2-1",           870,       181.137,       131.614,            0.,NA,NA,"",   1.10480E+06,   1.16692E+06,   1.16692E+06
C:/temp/Job-2.odb,Step-1,Increment      1: Step Time =    1.000,"P-2-1",           871,       131.976,       180.519,            0.,NA,NA,"",   1.19530E+06,   1.19312E+06,   1.19312E+06
C:/temp/Job-2.odb,Step-1,Increment      1: Step Time =    1.000,"P-2-1",           872,       130.459,       19.1585,            0.,NA,NA,"",   1.18570E+06,   1.18887E+06,   1.18887E+06
C:/temp/Job-2.odb,Step-1,Increment      1: Step Time =    1.000,"P-2-1",           873,       19.9631,       131.898,            0.,NA,NA,"",   595.674E+03,   629.366E+03,   629.366E+03
C:/temp/Job-2.odb,Step-1,Increment      1: Step Time =    1.000,"P-2-1",           874,       70.1516,       181.342,            0.,NA,NA,"",   1.51657E+06,   1.47571E+06,   1.47571E+06
C:/temp/Job-2.odb,Step-1,Increment      1: Step Time =    1.000,"P-2-1",           875,       180.418,       69.0359,            0.,NA,NA,"",   1.10425E+06,   1.16211E+06,   1.16211E+06
C:/temp/Job-2.odb,Step-1,Increment      1: Step Time =    1.000,"P-2-1",           876,       43.7767,       76.0873,            0.,NA,NA,"",   575.744E+03,   436.915E+03,   436.915E+03
C:/temp/Job-2.odb,Step-1,Increment      1: Step Time =    1.000,"P-2-1",           877,       155.356,       75.4844,            0.,NA,NA,"",   1.35045E+06,   1.01027E+06,   1.01027E+06
C:/temp/Job-2.odb,Step-1,Increment      1: Step Time =    1.000,"P-2-1",           878,       17.9592,       79.9207,            0.,NA,NA,"",   343.250E+03,   382.133E+03,   382.133E+03
C:/temp/Job-2.odb,Step-1,Increment      1: Step Time =    1.000,"P-2-1",           879,       117.710,       21.2719,            0.,NA,NA,"",   1.18562E+06,   1.23869E+06,   1.23869E+06
C:/temp/Job-2.odb,Step-1,Increment      1: Step Time =    1.000,"P-2-1",           880,       177.796,       117.488,            0.,NA,NA,"",   921.477E+03,   1.00063E+06,   1.00063E+06
C:/temp/Job-2.odb,Step-1,Increment      1: Step Time =    1.000,"P-2-1",           881,       83.2613,       178.113,            0.,NA,NA,"",   1.46169E+06,   1.46307E+06,   1.46307E+06
C:/temp/Job-2.odb,Step-1,Increment      1: Step Time =    1.000,"P-2-1",           882,       18.8633,       109.346,            0.,NA,NA,"",   203.221E+03,   233.594E+03,   233.594E+03
C:/temp/Job-2.odb,Step-1,Increment      1: Step Time =    1.000,"P-2-1",           883,       38.0865,       100.461,            0.,NA,NA,"",   81.1547E+03,  -63.8271E+03,  -63.8271E+03
C:/temp/Job-2.odb,Step-1,Increment      1: Step Time =    1.000,"P-2-1",           884,       135.818,       62.3624,            0.,NA,NA,"",   1.75231E+06,   1.64483E+06,   1.64483E+06
C:/temp/Job-2.odb,Step-1,Increment      1: Step Time =    1.000,"P-2-1",           885,       69.5872,       59.1773,            0.,NA,NA,"",   1.49681E+06,   1.42761E+06,   1.42761E+06
C:/temp/Job-2.odb,Step-1,Increment      1: Step Time =    1.000,"P-2-1",           886,       155.815,       95.6425,            0.,NA,NA,"",   520.596E+03,  -423.131E+03,  -423.131E+03
C:/temp/Job-2.odb,Step-1,Increment      1: Step Time =    1.000,"P-2-1",           887,       59.5152,       145.497,            0.,NA,NA,"",   1.53289E+06,   1.37426E+06,   1.37426E+06
C:/temp/Job-2.odb,Step-1,Increment      1: Step Time =    1.000,"P-2-1",           888,       98.6851,       36.9380,            0.,NA,NA,"",   1.71486E+06,   1.85004E+06,   1.85004E+06
C:/temp/Job-2.odb,Step-1,Increment      1: Step Time =    1.000,"P-2-1",           889,       134.425,       146.471,            0.,NA,NA,"",   1.90665E+06,   1.84250E+06,   1.84250E+06
C:/temp/Job-2.odb,Step-1,Increment      1: Step Time =    1.000,"P-2-1",           890,       152.376,       108.788,            0.,NA,NA,"",   760.472E+03,  -625.806E+03,  -625.806E+03
C:/temp/Job-2.odb,Step-1,Increment      1: Step Time =    1.000,"P-2-1",           891,       159.215,       87.4262,            0.,NA,NA,"",   814.937E+03,   567.226E+03,   567.226E+03
C:/temp/Job-2.odb,Step-1,Increment      1: Step Time =    1.000,"P-2-1",           892,       45.7479,       108.646,            0.,NA,NA,"",   291.842E+03,  -283.872E+03,  -283.872E+03
C:/temp/Job-2.odb,Step-1,Increment      1: Step Time =    1.000,"P-2-1",           893,       88.4817,       37.5938,            0.,NA,NA,"",   1.78890E+06,   1.86500E+06,   1.86500E+06
C:/temp/Job-2.odb,Step-1,Increment      1: Step Time =    1.000,"P-2-1",           894,       88.9596,       23.7196,            0.,NA,NA,"",   1.42564E+06,   1.45634E+06,   1.45634E+06
C:/temp/Job-2.odb,Step-1,Increment      1: Step Time =    1.000,"P-2-1",           895,       24.0810,       110.594,            0.,NA,NA,"",   202.384E+03,   226.992E+03,   226.992E+03
C:/temp/Job-2.odb,Step-1,Increment      1: Step Time =    1.000,"P-2-1",           896,       173.839,       90.1652,            0.,NA,NA,"",   711.003E+03,   777.584E+03,   777.584E+03
C:/temp/Job-2.odb,Step-1,Increment      1: Step Time =    1.000,"P-2-1",           897,       109.809,       173.311,            0.,NA,NA,"",   1.32497E+06,   1.41820E+06,   1.41820E+06
C:/temp/Job-2.odb,Step-1,Increment      1: Step Time =    1.000,"P-2-1",           898,       120.866,       24.9977,            0.,NA,NA,"",   1.29501E+06,   1.34874E+06,   1.34874E+06
C:/temp/Job-2.odb,Step-1,Increment      1: Step Time =    1.000,"P-2-1",           899,       80.0873,       23.6073,            0.,NA,NA,"",   1.52906E+06,   1.51713E+06,   1.51713E+06
C:/temp/Job-2.odb,Step-1,Increment      1: Step Time =    1.000,"P-2-1",           900,       25.6428,       121.452,            0.,NA,NA,"",   387.604E+03,   404.032E+03,   404.032E+03
C:/temp/Job-2.odb,Step-1,Increment      1: Step Time =    1.000,"P-2-1",           901,       172.692,       119.254,            0.,NA,NA,"",   999.511E+03,   994.221E+03,   994.221E+03
C:/temp/Job-2.odb,Step-1,Increment      1: Step Time =    1.000,"P-2-1",           902,       78.0658,       176.090,            0.,NA,NA,"",   1.56182E+06,   1.54037E+06,   1.54037E+06
C:/temp/Job-2.odb,Step-1,Increment      1: Step Time =    1.000,"P-2-1",           903,       174.745,       78.0613,            0.,NA,NA,"",   1.04503E+06,   1.06223E+06,   1.06223E+06
C:/temp/Job-2.odb,Step-1,Increment      1: Step Time =    1.000,"P-2-1",           904,       121.268,       176.255,            0.,NA,NA,"",   1.25893E+06,   1.30432E+06,   1.30432E+06
C:/temp/Job-2.odb,Step-1,Increment      1: Step Time =    1.000,"P-2-1",           905,       159.495,       98.6347,            0.,NA,NA,"",   372.154E+03,  -30.9792E+03,  -30.9792E+03
C:/temp/Job-2.odb,Step-1,Increment      1: Step Time =    1.000,"P-2-1",           906,       175.886,       99.6572,            0.,NA,NA,"",   588.251E+03,   675.294E+03,   675.294E+03
C:/temp/Job-2.odb,Step-1,Increment      1: Step Time =    1.000,"P-2-1",           907,       23.4743,       100.540,            0.,NA,NA,"",   130.787E+03,   145.187E+03,   145.187E+03
C:/temp/Job-2.odb,Step-1,Increment      1: Step Time =    1.000,"P-2-1",           908,       99.2435,       26.8404,            0.,NA,NA,"",   1.39117E+06,   1.47721E+06,   1.47721E+06
C:/temp/Job-2.odb,Step-1,Increment      1: Step Time =    1.000,"P-2-1",           909,       23.7525,       138.748,            0.,NA,NA,"",   778.276E+03,   792.110E+03,   792.110E+03
C:/temp/Job-2.odb,Step-1,Increment      1: Step Time =    1.000,"P-2-1",           910,       24.9359,       57.0558,            0.,NA,NA,"",   899.569E+03,   905.113E+03,   905.113E+03
C:/temp/Job-2.odb,Step-1,Increment      1: Step Time =    1.000,"P-2-1",           911,       60.2103,       25.8003,            0.,NA,NA,"",   1.65712E+06,   1.58040E+06,   1.58040E+06
C:/temp/Job-2.odb,Step-1,Increment      1: Step Time =    1.000,"P-2-1",           912,       59.5319,       175.077,            0.,NA,NA,"",   1.65003E+06,   1.57588E+06,   1.57588E+06
C:/temp/Job-2.odb,Step-1,Increment      1: Step Time =    1.000,"P-2-1",           913,       176.052,       60.0363,            0.,NA,NA,"",   1.25222E+06,   1.23262E+06,   1.23262E+06
C:/temp/Job-2.odb,Step-1,Increment      1: Step Time =    1.000,"P-2-1",           914,       178.090,       140.863,            0.,NA,NA,"",   1.20876E+06,   1.21552E+06,   1.21552E+06
C:/temp/Job-2.odb,Step-1,Increment      1: Step Time =    1.000,"P-2-1",           915,       141.040,       176.066,            0.,NA,NA,"",   1.31761E+06,   1.28824E+06,   1.28824E+06
C:/temp/Job-2.odb,Step-1,Increment      1: Step Time =    1.000,"P-2-1",           916,       26.2904,       131.782,            0.,NA,NA,"",   643.336E+03,   647.281E+03,   647.281E+03
C:/temp/Job-2.odb,Step-1,Increment      1: Step Time =    1.000,"P-2-1",           917,       175.477,       68.3974,            0.,NA,NA,"",   1.19718E+06,   1.18702E+06,   1.18702E+06
C:/temp/Job-2.odb,Step-1,Increment      1: Step Time =    1.000,"P-2-1",           918,       70.3131,       25.8042,            0.,NA,NA,"",   1.64571E+06,   1.58740E+06,   1.58740E+06
C:/temp/Job-2.odb,Step-1,Increment      1: Step Time =    1.000,"P-2-1",           919,       131.469,       174.674,            0.,NA,NA,"",   1.33618E+06,   1.33934E+06,   1.33934E+06
C:/temp/Job-2.odb,Step-1,Increment      1: Step Time =    1.000,"P-2-1",           920,       78.5123,       43.9855,            0.,NA,NA,"",   1.91402E+06,   1.91006E+06,   1.91006E+06
C:/temp/Job-2.odb,Step-1,Increment      1: Step Time =    1.000,"P-2-1",           921,       14.7723,       53.6272,            0.,NA,NA,"",   868.990E+03,   924.774E+03,   924.774E+03
C:/temp/Job-2.odb,Step-1,Increment      1: Step Time =    1.000,"P-2-1",           922,       55.1641,       15.3653,            0.,NA,NA,"",   1.57294E+06,   1.53438E+06,   1.53438E+06
C:/temp/Job-2.odb,Step-1,Increment      1: Step Time =    1.000,"P-2-1",           923,       187.306,       143.899,            0.,NA,NA,"",   1.02726E+06,   1.11417E+06,   1.11417E+06
C:/temp/Job-2.odb,Step-1,Increment      1: Step Time =    1.000,"P-2-1",           924,       145.851,       185.073,            0.,NA,NA,"",   1.11275E+06,   1.09432E+06,   1.09432E+06
C:/temp/Job-2.odb,Step-1,Increment      1: Step Time =    1.000,"P-2-1",           925,       56.9389,       186.376,            0.,NA,NA,"",   1.54904E+06,   1.51626E+06,   1.51626E+06
C:/temp/Job-2.odb,Step-1,Increment      1: Step Time =    1.000,"P-2-1",           926,       185.535,       55.2449,            0.,NA,NA,"",   1.06368E+06,   1.13331E+06,   1.13331E+06
C:/temp/Job-2.odb,Step-1,Increment      1: Step Time =    1.000,"P-2-1",           927,       144.084,       13.2895,            0.,NA,NA,"",   1.08147E+06,   1.06603E+06,   1.06603E+06
C:/temp/Job-2.odb,Step-1,Increment      1: Step Time =    1.000,"P-2-1",           928,       15.2672,       144.623,            0.,NA,NA,"",   833.312E+03,   886.336E+03,   886.336E+03
C:/temp/Job-2.odb,Step-1,Increment      1: Step Time =    1.000,"P-2-1",           929,       44.8494,       119.752,            0.,NA,NA,"",   457.172E+03,   29.0855E+03,   29.0855E+03
C:/temp/Job-2.odb,Step-1,Increment      1: Step Time =    1.000,"P-2-1",           930,       52.7044,       134.821,            0.,NA,NA,"",   1.04658E+06,   869.774E+03,   869.774E+03
C:/temp/Job-2.odb,Step-1,Increment      1: Step Time =    1.000,"P-2-1",           931,       144.057,       132.774,            0.,NA,NA,"",   1.61535E+06,   1.33866E+06,   1.33866E+06
C:/temp/Job-2.odb,Step-1,Increment      1: Step Time =    1.000,"P-2-1",           932,       66.3227,       156.807,            0.,NA,NA,"",   1.78585E+06,   1.67782E+06,   1.67782E+06
C:/temp/Job-2.odb,Step-1,Increment      1: Step Time =    1.000,"P-2-1",           933,       159.956,       79.4817,            0.,NA,NA,"",   1.15880E+06,   906.628E+03,   906.628E+03
C:/temp/Job-2.odb,Step-1,Increment      1: Step Time =    1.000,"P-2-1",           934,       39.5451,       105.237,            0.,NA,NA,"",   134.839E+03,   -114.99E+03,   -114.99E+03
C:/temp/Job-2.odb,Step-1,Increment      1: Step Time =    1.000,"P-2-1",           935,       138.451,       58.1273,            0.,NA,NA,"",   1.84898E+06,   1.70720E+06,   1.70720E+06
C:/temp/Job-2.odb,Step-1,Increment      1: Step Time =    1.000,"P-2-1",           936,       63.3597,       55.5979,            0.,NA,NA,"",   1.54938E+06,   1.41209E+06,   1.41209E+06
C:/temp/Job-2.odb,Step-1,Increment      1: Step Time =    1.000,"P-2-1",           937,       56.7626,       149.334,            0.,NA,NA,"",   1.57173E+06,   1.41853E+06,   1.41853E+06
C:/temp/Job-2.odb,Step-1,Increment      1: Step Time =    1.000,"P-2-1",           938,       93.6850,       37.5673,            0.,NA,NA,"",   1.76611E+06,   1.88076E+06,   1.88076E+06
C:/temp/Job-2.odb,Step-1,Increment      1: Step Time =    1.000,"P-2-1",           939,       115.478,       41.0370,            0.,NA,NA,"",   1.80170E+06,   1.93717E+06,   1.93717E+06
C:/temp/Job-2.odb,Step-1,Increment      1: Step Time =    1.000,"P-2-1",           940,       155.906,       113.426,            0.,NA,NA,"",   876.540E+03,   72.3319E+03,   72.3319E+03
C:/temp/Job-2.odb,Step-1,Increment      1: Step Time =    1.000,"P-2-1",           941,       41.1416,       110.072,            0.,NA,NA,"",   219.835E+03,  -89.2425E+03,  -89.2425E+03
C:/temp/Job-2.odb,Step-1,Increment      1: Step Time =    1.000,"P-2-1",           942,       143.101,       60.3833,            0.,NA,NA,"",   1.78567E+06,   1.57718E+06,   1.57718E+06
C:/temp/Job-2.odb,Step-1,Increment      1: Step Time =    1.000,"P-2-1",           943,       131.540,       155.120,            0.,NA,NA,"",   1.81173E+06,   1.80574E+06,   1.80574E+06
C:/temp/Job-2.odb,Step-1,Increment      1: Step Time =    1.000,"P-2-1",           944,       179.663,       78.8894,            0.,NA,NA,"",   986.117E+03,   1.06966E+06,   1.06966E+06
C:/temp/Job-2.odb,Step-1,Increment      1: Step Time =    1.000,"P-2-1",           945,       21.9238,       121.011,            0.,NA,NA,"",   365.032E+03,   396.077E+03,   396.077E+03
C:/temp/Job-2.odb,Step-1,Increment      1: Step Time =    1.000,"P-2-1",           946,       121.814,       179.858,            0.,NA,NA,"",   1.17174E+06,   1.20633E+06,   1.20633E+06
C:/temp/Job-2.odb,Step-1,Increment      1: Step Time =    1.000,"P-2-1",           947,       79.8390,       19.6523,            0.,NA,NA,"",   1.44651E+06,   1.43251E+06,   1.43251E+06
C:/temp/Job-2.odb,Step-1,Increment      1: Step Time =    1.000,"P-2-1",           948,       162.229,       84.7045,            0.,NA,NA,"",   923.361E+03,   742.391E+03,   742.391E+03
C:/temp/Job-2.odb,Step-1,Increment      1: Step Time =    1.000,"P-2-1",           949,       120.459,       162.202,            0.,NA,NA,"",   1.65904E+06,   1.75186E+06,   1.75186E+06
C:/temp/Job-2.odb,Step-1,Increment      1: Step Time =    1.000,"P-2-1",           950,       77.9402,       163.583,            0.,NA,NA,"",   1.80045E+06,   1.78289E+06,   1.78289E+06
C:/temp/Job-2.odb,Step-1,Increment      1: Step Time =    1.000,"P-2-1",           951,       164.474,       92.9468,            0.,NA,NA,"",   551.023E+03,   511.547E+03,   511.547E+03
C:/temp/Job-2.odb,Step-1,Increment      1: Step Time =    1.000,"P-2-1",           952,       142.155,       142.937,            0.,NA,NA,"",   1.83219E+06,   1.65167E+06,   1.65167E+06
C:/temp/Job-2.odb,Step-1,Increment      1: Step Time =    1.000,"P-2-1",           953,       36.6291,       95.7449,            0.,NA,NA,"",   92.6011E+03,  -17.5962E+03,  -17.5962E+03
C:/temp/Job-2.odb,Step-1,Increment      1: Step Time =    1.000,"P-2-1",           954,       44.1593,       87.3838,            0.,NA,NA,"",   299.354E+03,  -235.695E+03,  -235.695E+03
C:/temp/Job-2.odb,Step-1,Increment      1: Step Time =    1.000,"P-2-1",           955,       74.9807,       47.0946,            0.,NA,NA,"",   1.89371E+06,   1.85752E+06,   1.85752E+06
C:/temp/Job-2.odb,Step-1,Increment      1: Step Time =    1.000,"P-2-1",           956,       77.1904,       37.5540,            0.,NA,NA,"",   1.81283E+06,   1.78655E+06,   1.78655E+06
C:/temp/Job-2.odb,Step-1,Increment      1: Step Time =    1.000,"P-2-1",           957,       39.7255,       121.744,            0.,NA,NA,"",   488.210E+03,   388.399E+03,   388.399E+03
C:/temp/Job-2.odb,Step-1,Increment      1: Step Time =    1.000,"P-2-1",           958,       9.30026,       56.7681,            0.,NA,NA,"",   763.695E+03,   834.387E+03,   834.387E+03
C:/temp/Job-2.odb,Step-1,Increment      1: Step Time =    1.000,"P-2-1",           959,       56.2343,       190.948,            0.,NA,NA,"",   1.51597E+06,   1.49919E+06,   1.49919E+06
C:/temp/Job-2.odb,Step-1,Increment      1: Step Time =    1.000,"P-2-1",           960,       144.328,       8.80305,            0.,NA,NA,"",   990.705E+03,   982.337E+03,   982.337E+03
C:/temp/Job-2.odb,Step-1,Increment      1: Step Time =    1.000,"P-2-1",           961,       191.453,       144.224,            0.,NA,NA,"",   956.694E+03,   1.06705E+06,   1.06705E+06
C:/temp/Job-2.odb,Step-1,Increment      1: Step Time =    1.000,"P-2-1",           962,       92.8497,       26.4743,            0.,NA,NA,"",   1.44933E+06,   1.50735E+06,   1.50735E+06
C:/temp/Job-2.odb,Step-1,Increment      1: Step Time =    1.000,"P-2-1",           963,       23.3832,       104.855,            0.,NA,NA,"",   148.185E+03,   168.705E+03,   168.705E+03
C:/temp/Job-2.odb,Step-1,Increment      1: Step Time =    1.000,"P-2-1",           964,       175.588,       95.5586,            0.,NA,NA,"",   605.220E+03,   693.816E+03,   693.816E+03
C:/temp/Job-2.odb,Step-1,Increment      1: Step Time =    1.000,"P-2-1",           965,       103.161,       174.184,            0.,NA,NA,"",   1.32933E+06,   1.42097E+06,   1.42097E+06
C:/temp/Job-2.odb,Step-1,Increment      1: Step Time =    1.000,"P-2-1",           966,       84.4912,       25.2366,            0.,NA,NA,"",   1.51281E+06,   1.52579E+06,   1.52579E+06
C:/temp/Job-2.odb,Step-1,Increment      1: Step Time =    1.000,"P-2-1",           967,       26.9421,       116.040,            0.,NA,NA,"",   290.164E+03,   303.803E+03,   303.803E+03
C:/temp/Job-2.odb,Step-1,Increment      1: Step Time =    1.000,"P-2-1",           968,       27.6559,       83.3533,            0.,NA,NA,"",   293.623E+03,   303.565E+03,   303.565E+03
C:/temp/Job-2.odb,Step-1,Increment      1: Step Time =    1.000,"P-2-1",           969,       116.149,       27.0695,            0.,NA,NA,"",   1.33598E+06,   1.41689E+06,   1.41689E+06
C:/temp/Job-2.odb,Step-1,Increment      1: Step Time =    1.000,"P-2-1",           970,       171.489,       114.062,            0.,NA,NA,"",   835.137E+03,   851.970E+03,   851.970E+03
C:/temp/Job-2.odb,Step-1,Increment      1: Step Time =    1.000,"P-2-1",           971,       84.4305,       170.806,            0.,NA,NA,"",   1.61244E+06,   1.62987E+06,   1.62987E+06
C:/temp/Job-2.odb,Step-1,Increment      1: Step Time =    1.000,"P-2-1",           972,       173.349,       83.5535,            0.,NA,NA,"",   916.937E+03,   939.235E+03,   939.235E+03
C:/temp/Job-2.odb,Step-1,Increment      1: Step Time =    1.000,"P-2-1",           973,       117.774,       175.618,            0.,NA,NA,"",   1.26168E+06,   1.32089E+06,   1.32089E+06
C:/temp/Job-2.odb,Step-1,Increment      1: Step Time =    1.000,"P-2-1",           974,       135.544,       23.6957,            0.,NA,NA,"",   1.30802E+06,   1.29205E+06,   1.29205E+06
C:/temp/Job-2.odb,Step-1,Increment      1: Step Time =    1.000,"P-2-1",           975,       28.3353,       139.041,            0.,NA,NA,"",   847.280E+03,   833.677E+03,   833.677E+03
C:/temp/Job-2.odb,Step-1,Increment      1: Step Time =    1.000,"P-2-1",           976,       65.1035,       25.7702,            0.,NA,NA,"",   1.65663E+06,   1.58525E+06,   1.58525E+06
C:/temp/Job-2.odb,Step-1,Increment      1: Step Time =    1.000,"P-2-1",           977,       29.0529,       64.3993,            0.,NA,NA,"",   761.686E+03,   746.658E+03,   746.658E+03
C:/temp/Job-2.odb,Step-1,Increment      1: Step Time =    1.000,"P-2-1",           978,       64.5261,       172.747,            0.,NA,NA,"",   1.67991E+06,   1.60300E+06,   1.60300E+06
C:/temp/Job-2.odb,Step-1,Increment      1: Step Time =    1.000,"P-2-1",           979,       176.035,       63.9904,            0.,NA,NA,"",   1.23306E+06,   1.21749E+06,   1.21749E+06
C:/temp/Job-2.odb,Step-1,Increment      1: Step Time =    1.000,"P-2-1",           980,       135.870,       172.892,            0.,NA,NA,"",   1.38928E+06,   1.37313E+06,   1.37313E+06
C:/temp/Job-2.odb,Step-1,Increment      1: Step Time =    1.000,"P-2-1",           981,       173.774,       136.139,            0.,NA,NA,"",   1.28564E+06,   1.23945E+06,   1.23945E+06
C:/temp/Job-2.odb,Step-1,Increment      1: Step Time =    1.000,"P-2-1",           982,       46.2302,       135.231,            0.,NA,NA,"",   985.685E+03,   842.486E+03,   842.486E+03
C:/temp/Job-2.odb,Step-1,Increment      1: Step Time =    1.000,"P-2-1",           983,       147.721,       135.351,            0.,NA,NA,"",   1.69495E+06,   1.41209E+06,   1.41209E+06
C:/temp/Job-2.odb,Step-1,Increment      1: Step Time =    1.000,"P-2-1",           984,       137.694,       152.157,            0.,NA,NA,"",   1.81975E+06,   1.73653E+06,   1.73653E+06
C:/temp/Job-2.odb,Step-1,Increment      1: Step Time =    1.000,"P-2-1",           985,       133.889,       55.6248,            0.,NA,NA,"",   1.92051E+06,   1.85520E+06,   1.85520E+06
C:/temp/Job-2.odb,Step-1,Increment      1: Step Time =    1.000,"P-2-1",           986,       68.1765,       54.7512,            0.,NA,NA,"",   1.65564E+06,   1.55695E+06,   1.55695E+06
C:/temp/Job-2.odb,Step-1,Increment      1: Step Time =    1.000,"P-2-1",           987,       57.9875,       60.0047,            0.,NA,NA,"",   1.31288E+06,   1.14420E+06,   1.14420E+06
C:/temp/Job-2.odb,Step-1,Increment      1: Step Time =    1.000,"P-2-1",           988,       59.9442,       150.737,            0.,NA,NA,"",   1.64386E+06,   1.49764E+06,   1.49764E+06
C:/temp/Job-2.odb,Step-1,Increment      1: Step Time =    1.000,"P-2-1",           989,       98.0968,       31.9462,            0.,NA,NA,"",   1.54636E+06,   1.65365E+06,   1.65365E+06
C:/temp/Job-2.odb,Step-1,Increment      1: Step Time =    1.000,"P-2-1",           990,       152.914,       115.488,            0.,NA,NA,"",   964.740E+03,  -196.793E+03,  -196.793E+03
C:/temp/Job-2.odb,Step-1,Increment      1: Step Time =    1.000,"P-2-1",           991,       67.4692,       161.602,            0.,NA,NA,"",   1.79005E+06,   1.69739E+06,   1.69739E+06
C:/temp/Job-2.odb,Step-1,Increment      1: Step Time =    1.000,"P-2-1",           992,       129.714,       159.548,            0.,NA,NA,"",   1.72260E+06,   1.74070E+06,   1.74070E+06
C:/temp/Job-2.odb,Step-1,Increment      1: Step Time =    1.000,"P-2-1",           993,       150.126,       58.1341,            0.,NA,NA,"",   1.74348E+06,   1.51577E+06,   1.51577E+06
C:/temp/Job-2.odb,Step-1,Increment      1: Step Time =    1.000,"P-2-1",           994,       124.320,       162.403,            0.,NA,NA,"",   1.65294E+06,   1.71570E+06,   1.71570E+06
C:/temp/Job-2.odb,Step-1,Increment      1: Step Time =    1.000,"P-2-1",           995,       73.3396,       165.231,            0.,NA,NA,"",   1.77491E+06,   1.72334E+06,   1.72334E+06
C:/temp/Job-2.odb,Step-1,Increment      1: Step Time =    1.000,"P-2-1",           996,       164.953,       87.6422,            0.,NA,NA,"",   787.184E+03,   694.059E+03,   694.059E+03
C:/temp/Job-2.odb,Step-1,Increment      1: Step Time =    1.000,"P-2-1",           997,       144.204,       149.448,            0.,NA,NA,"",   1.79761E+06,   1.64307E+06,   1.64307E+06
C:/temp/Job-2.odb,Step-1,Increment      1: Step Time =    1.000,"P-2-1",           998,       33.2295,       101.952,            0.,NA,NA,"",   65.1472E+03,   40.5810E+03,   40.5810E+03
C:/temp/Job-2.odb,Step-1,Increment      1: Step Time =    1.000,"P-2-1",           999,       39.5391,       89.3914,            0.,NA,NA,"",   215.682E+03,  -73.9943E+03,  -73.9943E+03
C:/temp/Job-2.odb,Step-1,Increment      1: Step Time =    1.000,"P-2-1",          1000,       160.310,       111.471,            0.,NA,NA,"",   754.813E+03,   343.563E+03,   343.563E+03
C:/temp/Job-2.odb,Step-1,Increment      1: Step Time =    1.000,"P-2-1",          1001,       88.9652,       32.7897,            0.,NA,NA,"",   1.65542E+06,   1.71719E+06,   1.71719E+06
C:/temp/Job-2.odb,Step-1,Increment      1: Step Time =    1.000,"P-2-1",          1002,       76.0636,       26.1626,            0.,NA,NA,"",   1.61949E+06,   1.58714E+06,   1.58714E+06
C:/temp/Job-2.odb,Step-1,Increment      1: Step Time =    1.000,"P-2-1",          1003,       124.521,       172.802,            0.,NA,NA,"",   1.36396E+06,   1.40505E+06,   1.40505E+06
C:/temp/Job-2.odb,Step-1,Increment      1: Step Time =    1.000,"P-2-1",          1004,       29.3918,       126.118,            0.,NA,NA,"",   520.732E+03,   508.661E+03,   508.661E+03
C:/temp/Job-2.odb,Step-1,Increment      1: Step Time =    1.000,"P-2-1",          1005,       175.198,       73.1722,            0.,NA,NA,"",   1.13368E+06,   1.13590E+06,   1.13590E+06
C:/temp/Job-2.odb,Step-1,Increment      1: Step Time =    1.000,"P-2-1",          1006,       165.238,       76.3806,            0.,NA,NA,"",   1.20331E+06,   1.04657E+06,   1.04657E+06
C:/temp/Job-2.odb,Step-1,Increment      1: Step Time =    1.000,"P-2-1",          1007,       25.0494,       95.1822,            0.,NA,NA,"",   137.780E+03,   155.170E+03,   155.170E+03
C:/temp/Job-2.odb,Step-1,Increment      1: Step Time =    1.000,"P-2-1",          1008,       104.677,       25.0997,            0.,NA,NA,"",   1.29901E+06,   1.38845E+06,   1.38845E+06
C:/temp/Job-2.odb,Step-1,Increment      1: Step Time =    1.000,"P-2-1",          1009,       175.441,       104.129,            0.,NA,NA,"",   621.372E+03,   713.072E+03,   713.072E+03
C:/temp/Job-2.odb,Step-1,Increment      1: Step Time =    1.000,"P-2-1",          1010,       97.4762,       174.720,            0.,NA,NA,"",   1.37061E+06,   1.44728E+06,   1.44728E+06
C:/temp/Job-2.odb,Step-1,Increment      1: Step Time =    1.000,"P-2-1",          1011,       121.645,       41.4086,            0.,NA,NA,"",   1.77143E+06,   1.86262E+06,   1.86262E+06
C:/temp/Job-2.odb,Step-1,Increment      1: Step Time =    1.000,"P-2-1",          1012,       82.1664,       162.268,            0.,NA,NA,"",   1.82814E+06,   1.84985E+06,   1.84985E+06
C:/temp/Job-2.odb,Step-1,Increment      1: Step Time =    1.000,"P-2-1",          1013,       116.484,       162.561,            0.,NA,NA,"",   1.65407E+06,   1.77129E+06,   1.77129E+06
C:/temp/Job-2.odb,Step-1,Increment      1: Step Time =    1.000,"P-2-1",          1014,       159.323,       123.081,            0.,NA,NA,"",   1.24927E+06,   986.804E+03,   986.804E+03
C:/temp/Job-2.odb,Step-1,Increment      1: Step Time =    1.000,"P-2-1",          1015,       51.1491,       181.415,            0.,NA,NA,"",   1.60987E+06,   1.56228E+06,   1.56228E+06
C:/temp/Job-2.odb,Step-1,Increment      1: Step Time =    1.000,"P-2-1",          1016,       185.424,       50.4526,            0.,NA,NA,"",   1.06871E+06,   1.12384E+06,   1.12384E+06
C:/temp/Job-2.odb,Step-1,Increment      1: Step Time =    1.000,"P-2-1",          1017,       182.056,       148.977,            0.,NA,NA,"",   1.12438E+06,   1.15877E+06,   1.15877E+06
C:/temp/Job-2.odb,Step-1,Increment      1: Step Time =    1.000,"P-2-1",          1018,       150.735,       184.920,            0.,NA,NA,"",   1.11561E+06,   1.09590E+06,   1.09590E+06
C:/temp/Job-2.odb,Step-1,Increment      1: Step Time =    1.000,"P-2-1",          1019,       15.6426,       49.2806,            0.,NA,NA,"",   969.882E+03,   1.02410E+06,   1.02410E+06
C:/temp/Job-2.odb,Step-1,Increment      1: Step Time =    1.000,"P-2-1",          1020,       50.2093,       15.5585,            0.,NA,NA,"",   1.59996E+06,   1.56335E+06,   1.56335E+06
C:/temp/Job-2.odb,Step-1,Increment      1: Step Time =    1.000,"P-2-1",          1021,       152.353,       17.6136,            0.,NA,NA,"",   1.16175E+06,   1.13569E+06,   1.13569E+06
C:/temp/Job-2.odb,Step-1,Increment      1: Step Time =    1.000,"P-2-1",          1022,       17.3136,       150.451,            0.,NA,NA,"",   978.904E+03,   1.02547E+06,   1.02547E+06
C:/temp/Job-2.odb,Step-1,Increment      1: Step Time =    1.000,"P-2-1",          1023,       89.3953,       19.7593,            0.,NA,NA,"",   1.32889E+06,   1.35227E+06,   1.35227E+06
C:/temp/Job-2.odb,Step-1,Increment      1: Step Time =    1.000,"P-2-1",          1024,       18.1033,       112.931,            0.,NA,NA,"",   243.255E+03,   278.120E+03,   278.120E+03
C:/temp/Job-2.odb,Step-1,Increment      1: Step Time =    1.000,"P-2-1",          1025,       179.366,       89.6307,            0.,NA,NA,"",   782.782E+03,   891.226E+03,   891.226E+03
C:/temp/Job-2.odb,Step-1,Increment      1: Step Time =    1.000,"P-2-1",          1026,       112.013,       179.505,            0.,NA,NA,"",   1.15556E+06,   1.21434E+06,   1.21434E+06
C:/temp/Job-2.odb,Step-1,Increment      1: Step Time =    1.000,"P-2-1",          1027,       50.9084,       140.542,            0.,NA,NA,"",   1.24372E+06,   1.08426E+06,   1.08426E+06
C:/temp/Job-2.odb,Step-1,Increment      1: Step Time =    1.000,"P-2-1",          1028,       151.349,       138.487,            0.,NA,NA,"",   1.71113E+06,   1.44869E+06,   1.44869E+06
C:/temp/Job-2.odb,Step-1,Increment      1: Step Time =    1.000,"P-2-1",          1029,       124.677,       44.1175,            0.,NA,NA,"",   1.83533E+06,   1.90230E+06,   1.90230E+06
C:/temp/Job-2.odb,Step-1,Increment      1: Step Time =    1.000,"P-2-1",          1030,       29.5273,       108.471,            0.,NA,NA,"",   156.771E+03,   164.834E+03,   164.834E+03
C:/temp/Job-2.odb,Step-1,Increment      1: Step Time =    1.000,"P-2-1",          1031,       124.521,       38.3716,            0.,NA,NA,"",   1.67312E+06,   1.73352E+06,   1.73352E+06
C:/temp/Job-2.odb,Step-1,Increment      1: Step Time =    1.000,"P-2-1",          1032,       130.911,       23.8846,            0.,NA,NA,"",   1.31266E+06,   1.31486E+06,   1.31486E+06
C:/temp/Job-2.odb,Step-1,Increment      1: Step Time =    1.000,"P-2-1",          1033,       69.9235,       176.456,            0.,NA,NA,"",   1.60967E+06,   1.55665E+06,   1.55665E+06
C:/temp/Job-2.odb,Step-1,Increment      1: Step Time =    1.000,"P-2-1",          1034,       25.8037,       67.0513,            0.,NA,NA,"",   655.973E+03,   662.354E+03,   662.354E+03
C:/temp/Job-2.odb,Step-1,Increment      1: Step Time =    1.000,"P-2-1",          1035,       174.930,       129.582,            0.,NA,NA,"",   1.18910E+06,   1.17382E+06,   1.17382E+06
C:/temp/Job-2.odb,Step-1,Increment      1: Step Time =    1.000,"P-2-1",          1036,       67.2816,       50.5081,            0.,NA,NA,"",   1.75235E+06,   1.64196E+06,   1.64196E+06
C:/temp/Job-2.odb,Step-1,Increment      1: Step Time =    1.000,"P-2-1",          1037,       132.289,       49.1584,            0.,NA,NA,"",   1.89418E+06,   1.86590E+06,   1.86590E+06
C:/temp/Job-2.odb,Step-1,Increment      1: Step Time =    1.000,"P-2-1",          1038,       163.815,       120.953,            0.,NA,NA,"",   1.12816E+06,   959.946E+03,   959.946E+03
C:/temp/Job-2.odb,Step-1,Increment      1: Step Time =    1.000,"P-2-1",          1039,       83.6180,       35.9690,            0.,NA,NA,"",   1.77699E+06,   1.80716E+06,   1.80716E+06
C:/temp/Job-2.odb,Step-1,Increment      1: Step Time =    1.000,"P-2-1",          1040,       37.7359,       125.193,            0.,NA,NA,"",   574.375E+03,   495.558E+03,   495.558E+03
C:/temp/Job-2.odb,Step-1,Increment      1: Step Time =    1.000,"P-2-1",          1041,       87.8444,       28.9965,            0.,NA,NA,"",   1.57594E+06,   1.61819E+06,   1.61819E+06
C:/temp/Job-2.odb,Step-1,Increment      1: Step Time =    1.000,"P-2-1",          1042,       169.857,       88.7070,            0.,NA,NA,"",   743.877E+03,   753.997E+03,   753.997E+03
C:/temp/Job-2.odb,Step-1,Increment      1: Step Time =    1.000,"P-2-1",          1043,       112.230,       170.195,            0.,NA,NA,"",   1.40633E+06,   1.50894E+06,   1.50894E+06
C:/temp/Job-2.odb,Step-1,Increment      1: Step Time =    1.000,"P-2-1",          1044,       28.0567,       78.1672,            0.,NA,NA,"",   405.999E+03,   407.543E+03,   407.543E+03
C:/temp/Job-2.odb,Step-1,Increment      1: Step Time =    1.000,"P-2-1",          1045,       121.936,       30.4567,            0.,NA,NA,"",   1.44737E+06,   1.51071E+06,   1.51071E+06
C:/temp/Job-2.odb,Step-1,Increment      1: Step Time =    1.000,"P-2-1",          1046,       81.1584,       29.3663,            0.,NA,NA,"",   1.65333E+06,   1.65413E+06,   1.65413E+06
C:/temp/Job-2.odb,Step-1,Increment      1: Step Time =    1.000,"P-2-1",          1047,       29.6401,       122.038,            0.,NA,NA,"",   413.994E+03,   407.115E+03,   407.115E+03
C:/temp/Job-2.odb,Step-1,Increment      1: Step Time =    1.000,"P-2-1",          1048,       167.963,       119.321,            0.,NA,NA,"",   1.04065E+06,   956.763E+03,   956.763E+03
C:/temp/Job-2.odb,Step-1,Increment      1: Step Time =    1.000,"P-2-1",          1049,       78.7017,       172.837,            0.,NA,NA,"",   1.62103E+06,   1.60474E+06,   1.60474E+06
C:/temp/Job-2.odb,Step-1,Increment      1: Step Time =    1.000,"P-2-1",          1050,       169.507,       80.3267,            0.,NA,NA,"",   1.03805E+06,   982.929E+03,   982.929E+03
C:/temp/Job-2.odb,Step-1,Increment      1: Step Time =    1.000,"P-2-1",          1051,       119.399,       171.503,            0.,NA,NA,"",   1.38491E+06,   1.45473E+06,   1.45473E+06
C:/temp/Job-2.odb,Step-1,Increment      1: Step Time =    1.000,"P-2-1",          1052,       140.950,       27.5172,            0.,NA,NA,"",   1.39514E+06,   1.35631E+06,   1.35631E+06
C:/temp/Job-2.odb,Step-1,Increment      1: Step Time =    1.000,"P-2-1",          1053,       28.6507,       142.063,            0.,NA,NA,"",   921.997E+03,   903.695E+03,   903.695E+03
C:/temp/Job-2.odb,Step-1,Increment      1: Step Time =    1.000,"P-2-1",          1054,       29.9221,       58.5548,            0.,NA,NA,"",   928.827E+03,   904.958E+03,   904.958E+03
C:/temp/Job-2.odb,Step-1,Increment      1: Step Time =    1.000,"P-2-1",          1055,       57.8304,       169.156,            0.,NA,NA,"",   1.68845E+06,   1.59224E+06,   1.59224E+06
C:/temp/Job-2.odb,Step-1,Increment      1: Step Time =    1.000,"P-2-1",          1056,       170.351,       57.1670,            0.,NA,NA,"",   1.37365E+06,   1.29158E+06,   1.29158E+06
C:/temp/Job-2.odb,Step-1,Increment      1: Step Time =    1.000,"P-2-1",          1057,       173.554,       140.886,            0.,NA,NA,"",   1.30686E+06,   1.25936E+06,   1.25936E+06
C:/temp/Job-2.odb,Step-1,Increment      1: Step Time =    1.000,"P-2-1",          1058,       140.196,       171.957,            0.,NA,NA,"",   1.41118E+06,   1.37654E+06,   1.37654E+06
C:/temp/Job-2.odb,Step-1,Increment      1: Step Time =    1.000,"P-2-1",          1059,       40.5125,       131.878,            0.,NA,NA,"",   800.124E+03,   698.476E+03,   698.476E+03
C:/temp/Job-2.odb,Step-1,Increment      1: Step Time =    1.000,"P-2-1",          1060,       154.518,       134.374,            0.,NA,NA,"",   1.61410E+06,   1.33109E+06,   1.33109E+06
C:/temp/Job-2.odb,Step-1,Increment      1: Step Time =    1.000,"P-2-1",          1061,       153.728,       8.96453,            0.,NA,NA,"",   1.02335E+06,   1.01466E+06,   1.01466E+06
C:/temp/Job-2.odb,Step-1,Increment      1: Step Time =    1.000,"P-2-1",          1062,       190.191,       153.258,            0.,NA,NA,"",   987.139E+03,   1.05918E+06,   1.05918E+06
C:/temp/Job-2.odb,Step-1,Increment      1: Step Time =    1.000,"P-2-1",          1063,       46.8860,       189.619,            0.,NA,NA,"",   1.60852E+06,   1.59122E+06,   1.59122E+06
C:/temp/Job-2.odb,Step-1,Increment      1: Step Time =    1.000,"P-2-1",          1064,       10.6632,       47.2111,            0.,NA,NA,"",   956.558E+03,   1.03477E+06,   1.03477E+06
C:/temp/Job-2.odb,Step-1,Increment      1: Step Time =    1.000,"P-2-1",          1065,       131.164,       59.5494,            0.,NA,NA,"",   1.92834E+06,   1.90645E+06,   1.90645E+06
C:/temp/Job-2.odb,Step-1,Increment      1: Step Time =    1.000,"P-2-1",          1066,       74.6734,       56.7255,            0.,NA,NA,"",   1.75214E+06,   1.73767E+06,   1.73767E+06
C:/temp/Job-2.odb,Step-1,Increment      1: Step Time =    1.000,"P-2-1",          1067,       59.0005,       55.1295,            0.,NA,NA,"",   1.49299E+06,   1.33379E+06,   1.33379E+06
C:/temp/Job-2.odb,Step-1,Increment      1: Step Time =    1.000,"P-2-1",          1068,       103.247,       35.8073,            0.,NA,NA,"",   1.64042E+06,   1.78111E+06,   1.78111E+06
C:/temp/Job-2.odb,Step-1,Increment      1: Step Time =    1.000,"P-2-1",          1069,       145.651,       56.0734,            0.,NA,NA,"",   1.80006E+06,   1.60356E+06,   1.60356E+06
C:/temp/Job-2.odb,Step-1,Increment      1: Step Time =    1.000,"P-2-1",          1070,       154.423,       60.0872,            0.,NA,NA,"",   1.67628E+06,   1.43834E+06,   1.43834E+06
C:/temp/Job-2.odb,Step-1,Increment      1: Step Time =    1.000,"P-2-1",          1071,       79.3253,       167.518,            0.,NA,NA,"",   1.71953E+06,   1.70771E+06,   1.70771E+06
C:/temp/Job-2.odb,Step-1,Increment      1: Step Time =    1.000,"P-2-1",          1072,       37.4477,       84.7574,            0.,NA,NA,"",   300.130E+03,   142.921E+03,   142.921E+03
C:/temp/Job-2.odb,Step-1,Increment      1: Step Time =    1.000,"P-2-1",          1073,       36.4244,       111.566,            0.,NA,NA,"",   211.006E+03,   113.022E+03,   113.022E+03
C:/temp/Job-2.odb,Step-1,Increment      1: Step Time =    1.000,"P-2-1",          1074,       163.169,       103.469,            0.,NA,NA,"",   431.692E+03,   380.338E+03,   380.338E+03
C:/temp/Job-2.odb,Step-1,Increment      1: Step Time =    1.000,"P-2-1",          1075,       70.1231,       30.9335,            0.,NA,NA,"",   1.72861E+06,   1.65994E+06,   1.65994E+06
C:/temp/Job-2.odb,Step-1,Increment      1: Step Time =    1.000,"P-2-1",          1076,       129.990,       170.576,            0.,NA,NA,"",   1.43896E+06,   1.45112E+06,   1.45112E+06
C:/temp/Job-2.odb,Step-1,Increment      1: Step Time =    1.000,"P-2-1",          1077,       27.8749,       135.889,            0.,NA,NA,"",   761.134E+03,   753.452E+03,   753.452E+03
C:/temp/Job-2.odb,Step-1,Increment      1: Step Time =    1.000,"P-2-1",          1078,       170.388,       72.4958,            0.,NA,NA,"",   1.21991E+06,   1.14275E+06,   1.14275E+06
C:/temp/Job-2.odb,Step-1,Increment      1: Step Time =    1.000,"P-2-1",          1079,       165.229,       81.2484,            0.,NA,NA,"",   1.04228E+06,   911.728E+03,   911.728E+03
C:/temp/Job-2.odb,Step-1,Increment      1: Step Time =    1.000,"P-2-1",          1080,       159.563,       69.2164,            0.,NA,NA,"",   1.47221E+06,   1.22343E+06,   1.22343E+06
C:/temp/Job-2.odb,Step-1,Increment      1: Step Time =    1.000,"P-2-1",          1081,       28.4191,       98.4172,            0.,NA,NA,"",   94.6540E+03,   104.736E+03,   104.736E+03
C:/temp/Job-2.odb,Step-1,Increment      1: Step Time =    1.000,"P-2-1",          1082,       109.005,       23.6574,            0.,NA,NA,"",   1.24131E+06,   1.32359E+06,   1.32359E+06
C:/temp/Job-2.odb,Step-1,Increment      1: Step Time =    1.000,"P-2-1",          1083,       24.0483,       89.2972,            0.,NA,NA,"",   199.973E+03,   224.697E+03,   224.697E+03
C:/temp/Job-2.odb,Step-1,Increment      1: Step Time =    1.000,"P-2-1",          1084,       175.478,       108.649,            0.,NA,NA,"",   697.568E+03,   787.869E+03,   787.869E+03
C:/temp/Job-2.odb,Step-1,Increment      1: Step Time =    1.000,"P-2-1",          1085,       94.2632,       174.748,            0.,NA,NA,"",   1.40494E+06,   1.46710E+06,   1.46710E+06
C:/temp/Job-2.odb,Step-1,Increment      1: Step Time =    1.000,"P-2-1",          1086,       171.304,       98.3932,            0.,NA,NA,"",   500.933E+03,   570.725E+03,   570.725E+03
C:/temp/Job-2.odb,Step-1,Increment      1: Step Time =    1.000,"P-2-1",          1087,       99.8481,       170.321,            0.,NA,NA,"",   1.46575E+06,   1.57039E+06,   1.57039E+06
C:/temp/Job-2.odb,Step-1,Increment      1: Step Time =    1.000,"P-2-1",          1088,       85.5570,       161.084,            0.,NA,NA,"",   1.85056E+06,   1.90355E+06,   1.90355E+06
C:/temp/Job-2.odb,Step-1,Increment      1: Step Time =    1.000,"P-2-1",          1089,       111.678,       160.293,            0.,NA,NA,"",   1.75066E+06,   1.89609E+06,   1.89609E+06
C:/temp/Job-2.odb,Step-1,Increment      1: Step Time =    1.000,"P-2-1",          1090,       120.135,       167.054,            0.,NA,NA,"",   1.50588E+06,   1.58591E+06,   1.58591E+06
C:/temp/Job-2.odb,Step-1,Increment      1: Step Time =    1.000,"P-2-1",          1091,       50.6242,       151.064,            0.,NA,NA,"",   1.49207E+06,   1.35529E+06,   1.35529E+06
C:/temp/Job-2.odb,Step-1,Increment      1: Step Time =    1.000,"P-2-1",          1092,       54.8315,       154.360,            0.,NA,NA,"",   1.60902E+06,   1.47085E+06,   1.47085E+06
C:/temp/Job-2.odb,Step-1,Increment      1: Step Time =    1.000,"P-2-1",          1093,       190.059,       45.3258,            0.,NA,NA,"",   992.891E+03,   1.05871E+06,   1.05871E+06
C:/temp/Job-2.odb,Step-1,Increment      1: Step Time =    1.000,"P-2-1",          1094,       155.214,       190.086,            0.,NA,NA,"",   1.03615E+06,   1.02637E+06,   1.02637E+06
C:/temp/Job-2.odb,Step-1,Increment      1: Step Time =    1.000,"P-2-1",          1095,       45.0698,       10.3989,            0.,NA,NA,"",   1.62327E+06,   1.60643E+06,   1.60643E+06
C:/temp/Job-2.odb,Step-1,Increment      1: Step Time =    1.000,"P-2-1",          1096,       10.5598,       155.497,            0.,NA,NA,"",   1.00878E+06,   1.09056E+06,   1.09056E+06
C:/temp/Job-2.odb,Step-1,Increment      1: Step Time =    1.000,"P-2-1",          1097,       165.929,       98.2870,            0.,NA,NA,"",   397.124E+03,   418.751E+03,   418.751E+03
C:/temp/Job-2.odb,Step-1,Increment      1: Step Time =    1.000,"P-2-1",          1098,       142.363,       153.867,            0.,NA,NA,"",   1.75773E+06,   1.64361E+06,   1.64361E+06
C:/temp/Job-2.odb,Step-1,Increment      1: Step Time =    1.000,"P-2-1",          1099,       34.9265,       91.1596,            0.,NA,NA,"",   158.251E+03,   85.1531E+03,   85.1531E+03
C:/temp/Job-2.odb,Step-1,Increment      1: Step Time =    1.000,"P-2-1",          1100,       55.4673,       142.755,            0.,NA,NA,"",   1.38610E+06,   1.21851E+06,   1.21851E+06
C:/temp/Job-2.odb,Step-1,Increment      1: Step Time =    1.000,"P-2-1",          1101,       146.847,       155.675,            0.,NA,NA,"",   1.68567E+06,   1.56081E+06,   1.56081E+06
C:/temp/Job-2.odb,Step-1,Increment      1: Step Time =    1.000,"P-2-1",          1102,       143.745,       49.6517,            0.,NA,NA,"",   1.79260E+06,   1.65069E+06,   1.65069E+06
C:/temp/Job-2.odb,Step-1,Increment      1: Step Time =    1.000,"P-2-1",          1103,       33.1549,       86.6183,            0.,NA,NA,"",   243.131E+03,   218.261E+03,   218.261E+03
C:/temp/Job-2.odb,Step-1,Increment      1: Step Time =    1.000,"P-2-1",          1104,       144.822,       139.212,            0.,NA,NA,"",   1.77521E+06,   1.54232E+06,   1.54232E+06
C:/temp/Job-2.odb,Step-1,Increment      1: Step Time =    1.000,"P-2-1",          1105,       117.808,       35.5031,            0.,NA,NA,"",   1.58772E+06,   1.68940E+06,   1.68940E+06
C:/temp/Job-2.odb,Step-1,Increment      1: Step Time =    1.000,"P-2-1",          1106,       25.7684,       71.9381,            0.,NA,NA,"",   542.970E+03,   553.216E+03,   553.216E+03
C:/temp/Job-2.odb,Step-1,Increment      1: Step Time =    1.000,"P-2-1",          1107,       175.662,       123.422,            0.,NA,NA,"",   1.06363E+06,   1.08443E+06,   1.08443E+06
C:/temp/Job-2.odb,Step-1,Increment      1: Step Time =    1.000,"P-2-1",          1108,       126.223,       24.6774,            0.,NA,NA,"",   1.31155E+06,   1.33744E+06,   1.33744E+06
C:/temp/Job-2.odb,Step-1,Increment      1: Step Time =    1.000,"P-2-1",          1109,       74.2127,       176.055,            0.,NA,NA,"",   1.58976E+06,   1.55060E+06,   1.55060E+06
C:/temp/Job-2.odb,Step-1,Increment      1: Step Time =    1.000,"P-2-1",          1110,       66.8828,       46.3272,            0.,NA,NA,"",   1.78991E+06,   1.68030E+06,   1.68030E+06
C:/temp/Job-2.odb,Step-1,Increment      1: Step Time =    1.000,"P-2-1",          1111,       135.055,       45.1118,            0.,NA,NA,"",   1.80006E+06,   1.75060E+06,   1.75060E+06
C:/temp/Job-2.odb,Step-1,Increment      1: Step Time =    1.000,"P-2-1",          1112,       161.892,       127.458,            0.,NA,NA,"",   1.35568E+06,   1.13590E+06,   1.13590E+06
C:/temp/Job-2.odb,Step-1,Increment      1: Step Time =    1.000,"P-2-1",          1113,       79.0424,       33.5329,            0.,NA,NA,"",   1.74904E+06,   1.73653E+06,   1.73653E+06
C:/temp/Job-2.odb,Step-1,Increment      1: Step Time =    1.000,"P-2-1",          1114,       145.661,       159.492,            0.,NA,NA,"",   1.63151E+06,   1.53222E+06,   1.53222E+06
C:/temp/Job-2.odb,Step-1,Increment      1: Step Time =    1.000,"P-2-1",          1115,       34.9329,       129.292,            0.,NA,NA,"",   665.229E+03,   610.187E+03,   610.187E+03
C:/temp/Job-2.odb,Step-1,Increment      1: Step Time =    1.000,"P-2-1",          1116,       26.0884,       143.914,            0.,NA,NA,"",   931.036E+03,   927.976E+03,   927.976E+03
C:/temp/Job-2.odb,Step-1,Increment      1: Step Time =    1.000,"P-2-1",          1117,       148.438,       26.1463,            0.,NA,NA,"",   1.33101E+06,   1.28361E+06,   1.28361E+06
C:/temp/Job-2.odb,Step-1,Increment      1: Step Time =    1.000,"P-2-1",          1118,       55.6010,       25.7645,            0.,NA,NA,"",   1.65154E+06,   1.57457E+06,   1.57457E+06
C:/temp/Job-2.odb,Step-1,Increment      1: Step Time =    1.000,"P-2-1",          1119,       25.7826,       52.5205,            0.,NA,NA,"",   1.01706E+06,   1.01688E+06,   1.01688E+06
C:/temp/Job-2.odb,Step-1,Increment      1: Step Time =    1.000,"P-2-1",          1120,       175.272,       55.0231,            0.,NA,NA,"",   1.26755E+06,   1.24112E+06,   1.24112E+06
C:/temp/Job-2.odb,Step-1,Increment      1: Step Time =    1.000,"P-2-1",          1121,       53.0652,       172.415,            0.,NA,NA,"",   1.65115E+06,   1.56890E+06,   1.56890E+06
C:/temp/Job-2.odb,Step-1,Increment      1: Step Time =    1.000,"P-2-1",          1122,       173.527,       145.115,            0.,NA,NA,"",   1.31174E+06,   1.26527E+06,   1.26527E+06
C:/temp/Job-2.odb,Step-1,Increment      1: Step Time =    1.000,"P-2-1",          1123,       53.5529,       57.9331,            0.,NA,NA,"",   1.32098E+06,   1.15473E+06,   1.15473E+06
C:/temp/Job-2.odb,Step-1,Increment      1: Step Time =    1.000,"P-2-1",          1124,       141.116,       53.8581,            0.,NA,NA,"",   1.84782E+06,   1.69933E+06,   1.69933E+06
C:/temp/Job-2.odb,Step-1,Increment      1: Step Time =    1.000,"P-2-1",          1125,       152.824,       54.0807,            0.,NA,NA,"",   1.70431E+06,   1.51006E+06,   1.51006E+06
C:/temp/Job-2.odb,Step-1,Increment      1: Step Time =    1.000,"P-2-1",          1126,       152.357,       63.8858,            0.,NA,NA,"",   1.66231E+06,   1.38575E+06,   1.38575E+06
C:/temp/Job-2.odb,Step-1,Increment      1: Step Time =    1.000,"P-2-1",          1127,       165.168,       109.646,            0.,NA,NA,"",   665.789E+03,   609.329E+03,   609.329E+03
C:/temp/Job-2.odb,Step-1,Increment      1: Step Time =    1.000,"P-2-1",          1128,       155.586,       68.6525,            0.,NA,NA,"",   1.53566E+06,   1.24367E+06,   1.24367E+06
C:/temp/Job-2.odb,Step-1,Increment      1: Step Time =    1.000,"P-2-1",          1129,       39.4139,       78.1640,            0.,NA,NA,"",   482.247E+03,   389.076E+03,   389.076E+03
C:/temp/Job-2.odb,Step-1,Increment      1: Step Time =    1.000,"P-2-1",          1130,       85.8189,       157.497,            0.,NA,NA,"",   1.93753E+06,   2.00361E+06,   2.00361E+06
C:/temp/Job-2.odb,Step-1,Increment      1: Step Time =    1.000,"P-2-1",          1131,       113.209,       163.009,            0.,NA,NA,"",   1.64235E+06,   1.77319E+06,   1.77319E+06
C:/temp/Job-2.odb,Step-1,Increment      1: Step Time =    1.000,"P-2-1",          1132,       113.068,       154.754,            0.,NA,NA,"",   2.02994E+06,   2.18625E+06,   2.18625E+06
C:/temp/Job-2.odb,Step-1,Increment      1: Step Time =    1.000,"P-2-1",          1133,       33.5450,       117.415,            0.,NA,NA,"",   335.066E+03,   304.878E+03,   304.878E+03
C:/temp/Job-2.odb,Step-1,Increment      1: Step Time =    1.000,"P-2-1",          1134,       47.1355,       148.784,            0.,NA,NA,"",   1.38704E+06,   1.25804E+06,   1.25804E+06
C:/temp/Job-2.odb,Step-1,Increment      1: Step Time =    1.000,"P-2-1",          1135,       185.029,       45.5439,            0.,NA,NA,"",   1.07034E+06,   1.11161E+06,   1.11161E+06
C:/temp/Job-2.odb,Step-1,Increment      1: Step Time =    1.000,"P-2-1",          1136,       155.556,       185.005,            0.,NA,NA,"",   1.10890E+06,   1.09028E+06,   1.09028E+06
C:/temp/Job-2.odb,Step-1,Increment      1: Step Time =    1.000,"P-2-1",          1137,       45.1683,       15.8323,            0.,NA,NA,"",   1.62096E+06,   1.58846E+06,   1.58846E+06
C:/temp/Job-2.odb,Step-1,Increment      1: Step Time =    1.000,"P-2-1",          1138,       15.9026,       156.346,            0.,NA,NA,"",   1.08545E+06,   1.14316E+06,   1.14316E+06
C:/temp/Job-2.odb,Step-1,Increment      1: Step Time =    1.000,"P-2-1",          1139,       28.7558,       88.1460,            0.,NA,NA,"",   209.252E+03,   218.237E+03,   218.237E+03
C:/temp/Job-2.odb,Step-1,Increment      1: Step Time =    1.000,"P-2-1",          1140,       128.286,       46.6980,            0.,NA,NA,"",   1.87655E+06,   1.90340E+06,   1.90340E+06
C:/temp/Job-2.odb,Step-1,Increment      1: Step Time =    1.000,"P-2-1",          1141,       111.398,       27.5030,            0.,NA,NA,"",   1.34295E+06,   1.43931E+06,   1.43931E+06
C:/temp/Job-2.odb,Step-1,Increment      1: Step Time =    1.000,"P-2-1",          1142,       170.475,       108.913,            0.,NA,NA,"",   656.508E+03,   695.390E+03,   695.390E+03
C:/temp/Job-2.odb,Step-1,Increment      1: Step Time =    1.000,"P-2-1",          1143,       89.2401,       168.345,            0.,NA,NA,"",   1.61732E+06,   1.67692E+06,   1.67692E+06
C:/temp/Job-2.odb,Step-1,Increment      1: Step Time =    1.000,"P-2-1",          1144,       107.787,       34.1910,            0.,NA,NA,"",   1.55885E+06,   1.69429E+06,   1.69429E+06
C:/temp/Job-2.odb,Step-1,Increment      1: Step Time =    1.000,"P-2-1",          1145,       165.168,       71.9019,            0.,NA,NA,"",   1.32538E+06,   1.15810E+06,   1.15810E+06
C:/temp/Job-2.odb,Step-1,Increment      1: Step Time =    1.000,"P-2-1",          1146,       93.9427,       166.872,            0.,NA,NA,"",   1.61231E+06,   1.70849E+06,   1.70849E+06
C:/temp/Job-2.odb,Step-1,Increment      1: Step Time =    1.000,"P-2-1",          1147,       68.4799,       166.566,            0.,NA,NA,"",   1.75325E+06,   1.67542E+06,   1.67542E+06
C:/temp/Job-2.odb,Step-1,Increment      1: Step Time =    1.000,"P-2-1",          1148,       35.2091,       80.1407,            0.,NA,NA,"",   399.035E+03,   347.596E+03,   347.596E+03
C:/temp/Job-2.odb,Step-1,Increment      1: Step Time =    1.000,"P-2-1",          1149,       122.060,       35.3559,            0.,NA,NA,"",   1.58719E+06,   1.65977E+06,   1.65977E+06
C:/temp/Job-2.odb,Step-1,Increment      1: Step Time =    1.000,"P-2-1",          1150,       34.1677,       121.646,            0.,NA,NA,"",   439.948E+03,   397.513E+03,   397.513E+03
C:/temp/Job-2.odb,Step-1,Increment      1: Step Time =    1.000,"P-2-1",          1151,       58.2755,       49.8837,            0.,NA,NA,"",   1.61032E+06,   1.46077E+06,   1.46077E+06
C:/temp/Job-2.odb,Step-1,Increment      1: Step Time =    1.000,"P-2-1",          1152,       30.6326,       130.445,            0.,NA,NA,"",   647.696E+03,   624.874E+03,   624.874E+03
C:/temp/Job-2.odb,Step-1,Increment      1: Step Time =    1.000,"P-2-1",          1153,       129.036,       165.966,            0.,NA,NA,"",   1.55860E+06,   1.58090E+06,   1.58090E+06
C:/temp/Job-2.odb,Step-1,Increment      1: Step Time =    1.000,"P-2-1",          1154,       69.3880,       35.1192,            0.,NA,NA,"",   1.77318E+06,   1.69567E+06,   1.69567E+06
C:/temp/Job-2.odb,Step-1,Increment      1: Step Time =    1.000,"P-2-1",          1155,       56.4281,       159.644,            0.,NA,NA,"",   1.67869E+06,   1.55291E+06,   1.55291E+06
C:/temp/Job-2.odb,Step-1,Increment      1: Step Time =    1.000,"P-2-1",          1156,       126.267,       35.1993,            0.,NA,NA,"",   1.58472E+06,   1.62553E+06,   1.62553E+06
C:/temp/Job-2.odb,Step-1,Increment      1: Step Time =    1.000,"P-2-1",          1157,       108.350,       163.369,            0.,NA,NA,"",   1.64688E+06,   1.79010E+06,   1.79010E+06
C:/temp/Job-2.odb,Step-1,Increment      1: Step Time =    1.000,"P-2-1",          1158,       88.4581,       163.348,            0.,NA,NA,"",   1.77269E+06,   1.84480E+06,   1.84480E+06
C:/temp/Job-2.odb,Step-1,Increment      1: Step Time =    1.000,"P-2-1",          1159,       162.133,       116.381,            0.,NA,NA,"",   974.662E+03,   789.074E+03,   789.074E+03
C:/temp/Job-2.odb,Step-1,Increment      1: Step Time =    1.000,"P-2-1",          1160,       51.1600,       25.6947,            0.,NA,NA,"",   1.64188E+06,   1.56818E+06,   1.56818E+06
C:/temp/Job-2.odb,Step-1,Increment      1: Step Time =    1.000,"P-2-1",          1161,       175.497,       153.008,            0.,NA,NA,"",   1.24043E+06,   1.21996E+06,   1.21996E+06
C:/temp/Job-2.odb,Step-1,Increment      1: Step Time =    1.000,"P-2-1",          1162,       25.6481,       150.373,            0.,NA,NA,"",   1.08237E+06,   1.08285E+06,   1.08285E+06
C:/temp/Job-2.odb,Step-1,Increment      1: Step Time =    1.000,"P-2-1",          1163,       152.045,       21.7626,            0.,NA,NA,"",   1.23566E+06,   1.19921E+06,   1.19921E+06
C:/temp/Job-2.odb,Step-1,Increment      1: Step Time =    1.000,"P-2-1",          1164,       172.038,       50.9414,            0.,NA,NA,"",   1.32852E+06,   1.27319E+06,   1.27319E+06
C:/temp/Job-2.odb,Step-1,Increment      1: Step Time =    1.000,"P-2-1",          1165,       49.0731,       174.112,            0.,NA,NA,"",   1.63205E+06,   1.56059E+06,   1.56059E+06
C:/temp/Job-2.odb,Step-1,Increment      1: Step Time =    1.000,"P-2-1",          1166,       160.093,       66.6400,            0.,NA,NA,"",   1.51207E+06,   1.27821E+06,   1.27821E+06
C:/temp/Job-2.odb,Step-1,Increment      1: Step Time =    1.000,"P-2-1",          1167,       146.382,       45.5242,            0.,NA,NA,"",   1.71069E+06,   1.58248E+06,   1.58248E+06
C:/temp/Job-2.odb,Step-1,Increment      1: Step Time =    1.000,"P-2-1",          1168,       17.1644,       75.5505,            0.,NA,NA,"",   417.943E+03,   458.519E+03,   458.519E+03
C:/temp/Job-2.odb,Step-1,Increment      1: Step Time =    1.000,"P-2-1",          1169,       121.303,       20.0645,            0.,NA,NA,"",   1.16896E+06,   1.20559E+06,   1.20559E+06
C:/temp/Job-2.odb,Step-1,Increment      1: Step Time =    1.000,"P-2-1",          1170,       179.333,       121.754,            0.,NA,NA,"",   996.152E+03,   1.07491E+06,   1.07491E+06
C:/temp/Job-2.odb,Step-1,Increment      1: Step Time =    1.000,"P-2-1",          1171,       79.0006,       180.029,            0.,NA,NA,"",   1.46299E+06,   1.44462E+06,   1.44462E+06
C:/temp/Job-2.odb,Step-1,Increment      1: Step Time =    1.000,"P-2-1",          1172,       148.319,       142.021,            0.,NA,NA,"",   1.76779E+06,   1.54004E+06,   1.54004E+06
C:/temp/Job-2.odb,Step-1,Increment      1: Step Time =    1.000,"P-2-1",          1173,       109.259,       38.9441,            0.,NA,NA,"",   1.74849E+06,   1.90246E+06,   1.90246E+06
C:/temp/Job-2.odb,Step-1,Increment      1: Step Time =    1.000,"P-2-1",          1174,       30.7872,       70.4354,            0.,NA,NA,"",   620.783E+03,   597.186E+03,   597.186E+03
C:/temp/Job-2.odb,Step-1,Increment      1: Step Time =    1.000,"P-2-1",          1175,       171.197,       132.152,            0.,NA,NA,"",   1.29286E+06,   1.21426E+06,   1.21426E+06
C:/temp/Job-2.odb,Step-1,Increment      1: Step Time =    1.000,"P-2-1",          1176,       131.433,       27.8056,            0.,NA,NA,"",   1.40153E+06,   1.40160E+06,   1.40160E+06
C:/temp/Job-2.odb,Step-1,Increment      1: Step Time =    1.000,"P-2-1",          1177,       69.4439,       171.504,            0.,NA,NA,"",   1.69122E+06,   1.62621E+06,   1.62621E+06
C:/temp/Job-2.odb,Step-1,Increment      1: Step Time =    1.000,"P-2-1",          1178,       69.9869,       46.5382,            0.,NA,NA,"",   1.82786E+06,   1.74067E+06,   1.74067E+06
C:/temp/Job-2.odb,Step-1,Increment      1: Step Time =    1.000,"P-2-1",          1179,       131.149,       42.9265,            0.,NA,NA,"",   1.76953E+06,   1.76583E+06,   1.76583E+06
C:/temp/Job-2.odb,Step-1,Increment      1: Step Time =    1.000,"P-2-1",          1180,       73.5222,       35.6444,            0.,NA,NA,"",   1.78795E+06,   1.73395E+06,   1.73395E+06
C:/temp/Job-2.odb,Step-1,Increment      1: Step Time =    1.000,"P-2-1",          1181,       139.996,       163.469,            0.,NA,NA,"",   1.59524E+06,   1.53867E+06,   1.53867E+06
C:/temp/Job-2.odb,Step-1,Increment      1: Step Time =    1.000,"P-2-1",          1182,       37.2201,       73.7406,            0.,NA,NA,"",   592.185E+03,   519.901E+03,   519.901E+03
C:/temp/Job-2.odb,Step-1,Increment      1: Step Time =    1.000,"P-2-1",          1183,       44.3286,       151.771,            0.,NA,NA,"",   1.40536E+06,   1.29400E+06,   1.29400E+06
C:/temp/Job-2.odb,Step-1,Increment      1: Step Time =    1.000,"P-2-1",          1184,       180.965,       50.8167,            0.,NA,NA,"",   1.15312E+06,   1.17488E+06,   1.17488E+06
C:/temp/Job-2.odb,Step-1,Increment      1: Step Time =    1.000,"P-2-1",          1185,       151.012,       179.803,            0.,NA,NA,"",   1.21196E+06,   1.17987E+06,   1.17987E+06
C:/temp/Job-2.odb,Step-1,Increment      1: Step Time =    1.000,"P-2-1",          1186,       50.5783,       20.7439,            0.,NA,NA,"",   1.62214E+06,   1.56669E+06,   1.56669E+06
C:/temp/Job-2.odb,Step-1,Increment      1: Step Time =    1.000,"P-2-1",          1187,       22.6653,       154.022,            0.,NA,NA,"",   1.11997E+06,   1.13844E+06,   1.13844E+06
C:/temp/Job-2.odb,Step-1,Increment      1: Step Time =    1.000,"P-2-1",          1188,       161.340,       134.391,            0.,NA,NA,"",   1.50566E+06,   1.29489E+06,   1.29489E+06
C:/temp/Job-2.odb,Step-1,Increment      1: Step Time =    1.000,"P-2-1",          1189,       47.3218,       59.1582,            0.,NA,NA,"",   1.17798E+06,   1.03537E+06,   1.03537E+06
C:/temp/Job-2.odb,Step-1,Increment      1: Step Time =    1.000,"P-2-1",          1190,       62.5060,       163.018,            0.,NA,NA,"",   1.74488E+06,   1.63515E+06,   1.63515E+06
C:/temp/Job-2.odb,Step-1,Increment      1: Step Time =    1.000,"P-2-1",          1191,       129.886,       37.0083,            0.,NA,NA,"",   1.63133E+06,   1.64377E+06,   1.64377E+06
C:/temp/Job-2.odb,Step-1,Increment      1: Step Time =    1.000,"P-2-1",          1192,       184.805,       40.8676,            0.,NA,NA,"",   1.06421E+06,   1.09589E+06,   1.09589E+06
C:/temp/Job-2.odb,Step-1,Increment      1: Step Time =    1.000,"P-2-1",          1193,       160.021,       185.458,            0.,NA,NA,"",   1.09592E+06,   1.07987E+06,   1.07987E+06
C:/temp/Job-2.odb,Step-1,Increment      1: Step Time =    1.000,"P-2-1",          1194,       40.1872,       15.9542,            0.,NA,NA,"",   1.63826E+06,   1.61187E+06,   1.61187E+06
C:/temp/Job-2.odb,Step-1,Increment      1: Step Time =    1.000,"P-2-1",          1195,       14.9072,       161.255,            0.,NA,NA,"",   1.17012E+06,   1.23587E+06,   1.23587E+06
C:/temp/Job-2.odb,Step-1,Increment      1: Step Time =    1.000,"P-2-1",          1196,       51.7573,       161.809,            0.,NA,NA,"",   1.62749E+06,   1.51296E+06,   1.51296E+06
C:/temp/Job-2.odb,Step-1,Increment      1: Step Time =    1.000,"P-2-1",          1197,       93.4304,       162.574,            0.,NA,NA,"",   1.75749E+06,   1.87238E+06,   1.87238E+06
C:/temp/Job-2.odb,Step-1,Increment      1: Step Time =    1.000,"P-2-1",          1198,       112.407,       32.5560,            0.,NA,NA,"",   1.49645E+06,   1.61371E+06,   1.61371E+06
C:/temp/Job-2.odb,Step-1,Increment      1: Step Time =    1.000,"P-2-1",          1199,       65.3339,       36.1379,            0.,NA,NA,"",   1.76013E+06,   1.66367E+06,   1.66367E+06
C:/temp/Job-2.odb,Step-1,Increment      1: Step Time =    1.000,"P-2-1",          1200,       102.249,       162.605,            0.,NA,NA,"",   1.71725E+06,   1.86517E+06,   1.86517E+06
C:/temp/Job-2.odb,Step-1,Increment      1: Step Time =    1.000,"P-2-1",          1201,       60.8040,       43.4731,            0.,NA,NA,"",   1.72325E+06,   1.59616E+06,   1.59616E+06
C:/temp/Job-2.odb,Step-1,Increment      1: Step Time =    1.000,"P-2-1",          1202,       53.7542,       47.2664,            0.,NA,NA,"",   1.57889E+06,   1.43517E+06,   1.43517E+06
C:/temp/Job-2.odb,Step-1,Increment      1: Step Time =    1.000,"P-2-1",          1203,       36.2211,       132.820,            0.,NA,NA,"",   775.782E+03,   710.764E+03,   710.764E+03
C:/temp/Job-2.odb,Step-1,Increment      1: Step Time =    1.000,"P-2-1",          1204,       81.2460,       153.074,            0.,NA,NA,"",   1.98135E+06,   2.01515E+06,   2.01515E+06
C:/temp/Job-2.odb,Step-1,Increment      1: Step Time =    1.000,"P-2-1",          1205,       41.2525,       155.560,            0.,NA,NA,"",   1.41829E+06,   1.32882E+06,   1.32882E+06
C:/temp/Job-2.odb,Step-1,Increment      1: Step Time =    1.000,"P-2-1",          1206,       71.5718,       34.4447,            0.,NA,NA,"",   1.77448E+06,   1.70892E+06,   1.70892E+06
C:/temp/Job-2.odb,Step-1,Increment      1: Step Time =    1.000,"P-2-1",          1207,       21.5648,       47.1774,            0.,NA,NA,"",   1.07941E+06,   1.10382E+06,   1.10382E+06
C:/temp/Job-2.odb,Step-1,Increment      1: Step Time =    1.000,"P-2-1",          1208,       51.4884,       29.9968,            0.,NA,NA,"",   1.65672E+06,   1.56770E+06,   1.56770E+06
C:/temp/Job-2.odb,Step-1,Increment      1: Step Time =    1.000,"P-2-1",          1209,       180.253,       151.729,            0.,NA,NA,"",   1.15436E+06,   1.17074E+06,   1.17074E+06
C:/temp/Job-2.odb,Step-1,Increment      1: Step Time =    1.000,"P-2-1",          1210,       30.1534,       147.641,            0.,NA,NA,"",   1.07622E+06,   1.04877E+06,   1.04877E+06
C:/temp/Job-2.odb,Step-1,Increment      1: Step Time =    1.000,"P-2-1",          1211,       155.690,       21.8170,            0.,NA,NA,"",   1.22009E+06,   1.18498E+06,   1.18498E+06
C:/temp/Job-2.odb,Step-1,Increment      1: Step Time =    1.000,"P-2-1",          1212,       48.4385,       179.441,            0.,NA,NA,"",   1.62210E+06,   1.56964E+06,   1.56964E+06
C:/temp/Job-2.odb,Step-1,Increment      1: Step Time =    1.000,"P-2-1",          1213,       150.947,       47.8589,            0.,NA,NA,"",   1.68505E+06,   1.53388E+06,   1.53388E+06
C:/temp/Job-2.odb,Step-1,Increment      1: Step Time =    1.000,"P-2-1",          1214,       141.905,       43.0085,            0.,NA,NA,"",   1.71211E+06,   1.61795E+06,   1.61795E+06
C:/temp/Job-2.odb,Step-1,Increment      1: Step Time =    1.000,"P-2-1",          1215,       71.3473,       49.4077,            0.,NA,NA,"",   1.82449E+06,   1.75008E+06,   1.75008E+06
C:/temp/Job-2.odb,Step-1,Increment      1: Step Time =    1.000,"P-2-1",          1216,       145.214,       164.170,            0.,NA,NA,"",   1.55267E+06,   1.47577E+06,   1.47577E+06
C:/temp/Job-2.odb,Step-1,Increment      1: Step Time =    1.000,"P-2-1",          1217,       39.4216,       67.7518,            0.,NA,NA,"",   807.435E+03,   715.124E+03,   715.124E+03
C:/temp/Job-2.odb,Step-1,Increment      1: Step Time =    1.000,"P-2-1",          1218,       47.4473,       158.730,            0.,NA,NA,"",   1.55265E+06,   1.44242E+06,   1.44242E+06
C:/temp/Job-2.odb,Step-1,Increment      1: Step Time =    1.000,"P-2-1",          1219,       164.620,       137.788,            0.,NA,NA,"",   1.47699E+06,   1.31587E+06,   1.31587E+06
C:/temp/Job-2.odb,Step-1,Increment      1: Step Time =    1.000,"P-2-1",          1220,       45.5788,       62.7371,            0.,NA,NA,"",   1.04214E+06,   905.835E+03,   905.835E+03
C:/temp/Job-2.odb,Step-1,Increment      1: Step Time =    1.000,"P-2-1",          1221,       185.505,       36.9869,            0.,NA,NA,"",   1.05291E+06,   1.07969E+06,   1.07969E+06
C:/temp/Job-2.odb,Step-1,Increment      1: Step Time =    1.000,"P-2-1",          1222,       163.570,       186.235,            0.,NA,NA,"",   1.08216E+06,   1.06910E+06,   1.06910E+06
C:/temp/Job-2.odb,Step-1,Increment      1: Step Time =    1.000,"P-2-1",          1223,       35.1782,       15.4572,            0.,NA,NA,"",   1.65551E+06,   1.63769E+06,   1.63769E+06
C:/temp/Job-2.odb,Step-1,Increment      1: Step Time =    1.000,"P-2-1",          1224,       14.3152,       165.894,            0.,NA,NA,"",   1.25777E+06,   1.32788E+06,   1.32788E+06
C:/temp/Job-2.odb,Step-1,Increment      1: Step Time =    1.000,"P-2-1",          1225,       48.4160,       161.070,            0.,NA,NA,"",   1.57875E+06,   1.47017E+06,   1.47017E+06
C:/temp/Job-2.odb,Step-1,Increment      1: Step Time =    1.000,"P-2-1",          1226,       57.8903,       164.134,            0.,NA,NA,"",   1.70310E+06,   1.59067E+06,   1.59067E+06
C:/temp/Job-2.odb,Step-1,Increment      1: Step Time =    1.000,"P-2-1",          1227,       60.2470,       31.2486,            0.,NA,NA,"",   1.70127E+06,   1.60731E+06,   1.60731E+06
C:/temp/Job-2.odb,Step-1,Increment      1: Step Time =    1.000,"P-2-1",          1228,       133.530,       39.1761,            0.,NA,NA,"",   1.67129E+06,   1.65017E+06,   1.65017E+06
C:/temp/Job-2.odb,Step-1,Increment      1: Step Time =    1.000,"P-2-1",          1229,       97.0181,       162.238,            0.,NA,NA,"",   1.75752E+06,   1.89249E+06,   1.89249E+06
C:/temp/Job-2.odb,Step-1,Increment      1: Step Time =    1.000,"P-2-1",          1230,       47.2873,       49.1251,            0.,NA,NA,"",   1.43240E+06,   1.30297E+06,   1.30297E+06
C:/temp/Job-2.odb,Step-1,Increment      1: Step Time =    1.000,"P-2-1",          1231,       36.5343,       139.583,            0.,NA,NA,"",   965.195E+03,   894.884E+03,   894.884E+03
C:/temp/Job-2.odb,Step-1,Increment      1: Step Time =    1.000,"P-2-1",          1232,       46.5955,       26.3642,            0.,NA,NA,"",   1.62693E+06,   1.55764E+06,   1.55764E+06
C:/temp/Job-2.odb,Step-1,Increment      1: Step Time =    1.000,"P-2-1",          1233,       175.605,       47.8906,            0.,NA,NA,"",   1.23913E+06,   1.21990E+06,   1.21990E+06
C:/temp/Job-2.odb,Step-1,Increment      1: Step Time =    1.000,"P-2-1",          1234,       154.793,       142.081,            0.,NA,NA,"",   1.67820E+06,   1.45577E+06,   1.45577E+06
C:/temp/Job-2.odb,Step-1,Increment      1: Step Time =    1.000,"P-2-1",          1235,       164.322,       61.5734,            0.,NA,NA,"",   1.48756E+06,   1.32178E+06,   1.32178E+06
C:/temp/Job-2.odb,Step-1,Increment      1: Step Time =    1.000,"P-2-1",          1236,       35.2730,       69.1224,            0.,NA,NA,"",   708.874E+03,   650.137E+03,   650.137E+03
C:/temp/Job-2.odb,Step-1,Increment      1: Step Time =    1.000,"P-2-1",          1237,       164.802,       131.314,            0.,NA,NA,"",   1.39567E+06,   1.22509E+06,   1.22509E+06
C:/temp/Job-2.odb,Step-1,Increment      1: Step Time =    1.000,"P-2-1",          1238,       135.065,       35.8369,            0.,NA,NA,"",   1.59634E+06,   1.56949E+06,   1.56949E+06
C:/temp/Job-2.odb,Step-1,Increment      1: Step Time =    1.000,"P-2-1",          1239,       31.4124,       152.595,            0.,NA,NA,"",   1.21181E+06,   1.17696E+06,   1.17696E+06
C:/temp/Job-2.odb,Step-1,Increment      1: Step Time =    1.000,"P-2-1",          1240,       164.707,       48.1090,            0.,NA,NA,"",   1.47000E+06,   1.36078E+06,   1.36078E+06
C:/temp/Job-2.odb,Step-1,Increment      1: Step Time =    1.000,"P-2-1",          1241,       150.721,       169.315,            0.,NA,NA,"",   1.41793E+06,   1.35129E+06,   1.35129E+06
C:/temp/Job-2.odb,Step-1,Increment      1: Step Time =    1.000,"P-2-1",          1242,       49.2950,       33.2020,            0.,NA,NA,"",   1.63371E+06,   1.53617E+06,   1.53617E+06
C:/temp/Job-2.odb,Step-1,Increment      1: Step Time =    1.000,"P-2-1",          1243,       42.4647,       27.8363,            0.,NA,NA,"",   1.60021E+06,   1.53764E+06,   1.53764E+06
C:/temp/Job-2.odb,Step-1,Increment      1: Step Time =    1.000,"P-2-1",          1244,       156.880,       174.504,            0.,NA,NA,"",   1.27567E+06,   1.23038E+06,   1.23038E+06
C:/temp/Job-2.odb,Step-1,Increment      1: Step Time =    1.000,"P-2-1",          1245,       25.7765,       160.876,            0.,NA,NA,"",   1.29616E+06,   1.29665E+06,   1.29665E+06
C:/temp/Job-2.odb,Step-1,Increment      1: Step Time =    1.000,"P-2-1",          1246,       173.102,       43.8563,            0.,NA,NA,"",   1.27241E+06,   1.23626E+06,   1.23626E+06
C:/temp/Job-2.odb,Step-1,Increment      1: Step Time =    1.000,"P-2-1",          1247,       38.0414,       63.9236,            0.,NA,NA,"",   897.200E+03,   818.164E+03,   818.164E+03
C:/temp/Job-2.odb,Step-1,Increment      1: Step Time =    1.000,"P-2-1",          1248,       40.8547,       148.541,            0.,NA,NA,"",   1.27926E+06,   1.18281E+06,   1.18281E+06
C:/temp/Job-2.odb,Step-1,Increment      1: Step Time =    1.000,"P-2-1",          1249,       46.1562,       162.779,            0.,NA,NA,"",   1.56468E+06,   1.46750E+06,   1.46750E+06
C:/temp/Job-2.odb,Step-1,Increment      1: Step Time =    1.000,"P-2-1",          1250,       153.395,       43.8828,            0.,NA,NA,"",   1.60362E+06,   1.47741E+06,   1.47741E+06
C:/temp/Job-2.odb,Step-1,Increment      1: Step Time =    1.000,"P-2-1",          1251,       48.9775,       65.8850,            0.,NA,NA,"",   990.143E+03,   824.058E+03,   824.058E+03
C:/temp/Job-2.odb,Step-1,Increment      1: Step Time =    1.000,"P-2-1",          1252,       42.7033,       60.7714,            0.,NA,NA,"",   1.05687E+06,   941.002E+03,   941.002E+03
C:/temp/Job-2.odb,Step-1,Increment      1: Step Time =    1.000,"P-2-1",          1253,       178.484,       154.428,            0.,NA,NA,"",   1.17990E+06,   1.18060E+06,   1.18060E+06
C:/temp/Job-2.odb,Step-1,Increment      1: Step Time =    1.000,"P-2-1",          1254,       45.9485,       176.906,            0.,NA,NA,"",   1.62219E+06,   1.56605E+06,   1.56605E+06
C:/temp/Job-2.odb,Step-1,Increment      1: Step Time =    1.000,"P-2-1",          1255,       155.643,       25.2057,            0.,NA,NA,"",   1.27599E+06,   1.23153E+06,   1.23153E+06
C:/temp/Job-2.odb,Step-1,Increment      1: Step Time =    1.000,"P-2-1",          1256,       182.600,       34.5127,            0.,NA,NA,"",   1.08163E+06,   1.09566E+06,   1.09566E+06
C:/temp/Job-2.odb,Step-1,Increment      1: Step Time =    1.000,"P-2-1",          1257,       166.038,       183.570,            0.,NA,NA,"",   1.10373E+06,   1.08857E+06,   1.08857E+06
C:/temp/Job-2.odb,Step-1,Increment      1: Step Time =    1.000,"P-2-1",          1258,       34.6990,       20.2779,            0.,NA,NA,"",   1.62599E+06,   1.60115E+06,   1.60115E+06
C:/temp/Job-2.odb,Step-1,Increment      1: Step Time =    1.000,"P-2-1",          1259,       18.0524,       166.230,            0.,NA,NA,"",   1.30550E+06,   1.35341E+06,   1.35341E+06
C:/temp/Job-2.odb,Step-1,Increment      1: Step Time =    1.000,"P-2-1",          1260,       60.6005,       36.9361,            0.,NA,NA,"",   1.73027E+06,   1.61974E+06,   1.61974E+06
C:/temp/Job-2.odb,Step-1,Increment      1: Step Time =    1.000,"P-2-1",          1261,       45.2157,       52.9235,            0.,NA,NA,"",   1.31288E+06,   1.18849E+06,   1.18849E+06
C:/temp/Job-2.odb,Step-1,Increment      1: Step Time =    1.000,"P-2-1",          1262,       45.0266,       143.836,            0.,NA,NA,"",   1.24408E+06,   1.11723E+06,   1.11723E+06
C:/temp/Job-2.odb,Step-1,Increment      1: Step Time =    1.000,"P-2-1",          1263,       161.515,       141.229,            0.,NA,NA,"",   1.55405E+06,   1.37465E+06,   1.37465E+06
C:/temp/Job-2.odb,Step-1,Increment      1: Step Time =    1.000,"P-2-1",          1264,       16.8762,       45.4645,            0.,NA,NA,"",   1.06272E+06,   1.11269E+06,   1.11269E+06
C:/temp/Job-2.odb,Step-1,Increment      1: Step Time =    1.000,"P-2-1",          1265,       184.020,       154.424,            0.,NA,NA,"",   1.08052E+06,   1.11829E+06,   1.11829E+06
C:/temp/Job-2.odb,Step-1,Increment      1: Step Time =    1.000,"P-2-1",          1266,       156.250,       17.9402,            0.,NA,NA,"",   1.15588E+06,   1.13067E+06,   1.13067E+06
C:/temp/Job-2.odb,Step-1,Increment      1: Step Time =    1.000,"P-2-1",          1267,       45.5380,       183.130,            0.,NA,NA,"",   1.61977E+06,   1.58447E+06,   1.58447E+06
C:/temp/Job-2.odb,Step-1,Increment      1: Step Time =    1.000,"P-2-1",          1268,       26.2528,       39.2578,            0.,NA,NA,"",   1.30132E+06,   1.30072E+06,   1.30072E+06
C:/temp/Job-2.odb,Step-1,Increment      1: Step Time =    1.000,"P-2-1",          1269,       174.859,       160.352,            0.,NA,NA,"",   1.21367E+06,   1.19306E+06,   1.19306E+06
C:/temp/Job-2.odb,Step-1,Increment      1: Step Time =    1.000,"P-2-1",          1270,       159.192,       25.5154,            0.,NA,NA,"",   1.25640E+06,   1.21437E+06,   1.21437E+06
C:/temp/Job-2.odb,Step-1,Increment      1: Step Time =    1.000,"P-2-1",          1271,       40.2667,       176.446,            0.,NA,NA,"",   1.60855E+06,   1.56419E+06,   1.56419E+06
C:/temp/Job-2.odb,Step-1,Increment      1: Step Time =    1.000,"P-2-1",          1272,       38.5041,       60.4173,            0.,NA,NA,"",   998.199E+03,   916.656E+03,   916.656E+03
C:/temp/Job-2.odb,Step-1,Increment      1: Step Time =    1.000,"P-2-1",          1273,       42.7346,       164.337,            0.,NA,NA,"",   1.54364E+06,   1.46344E+06,   1.46344E+06
C:/temp/Job-2.odb,Step-1,Increment      1: Step Time =    1.000,"P-2-1",          1274,       50.7631,       168.636,            0.,NA,NA,"",   1.64302E+06,   1.55016E+06,   1.55016E+06
C:/temp/Job-2.odb,Step-1,Increment      1: Step Time =    1.000,"P-2-1",          1275,       132.255,       33.1565,            0.,NA,NA,"",   1.54195E+06,   1.53614E+06,   1.53614E+06
C:/temp/Job-2.odb,Step-1,Increment      1: Step Time =    1.000,"P-2-1",          1276,       150.363,       164.088,            0.,NA,NA,"",   1.51073E+06,   1.42327E+06,   1.42327E+06
C:/temp/Job-2.odb,Step-1,Increment      1: Step Time =    1.000,"P-2-1",          1277,       52.0708,       36.7906,            0.,NA,NA,"",   1.64725E+06,   1.53407E+06,   1.53407E+06
C:/temp/Job-2.odb,Step-1,Increment      1: Step Time =    1.000,"P-2-1",          1278,       39.9723,       22.2608,            0.,NA,NA,"",   1.61553E+06,   1.57400E+06,   1.57400E+06
C:/temp/Job-2.odb,Step-1,Increment      1: Step Time =    1.000,"P-2-1",          1279,       161.448,       180.800,            0.,NA,NA,"",   1.15345E+06,   1.12918E+06,   1.12918E+06
C:/temp/Job-2.odb,Step-1,Increment      1: Step Time =    1.000,"P-2-1",          1280,       23.6709,       165.374,            0.,NA,NA,"",   1.35540E+06,   1.37017E+06,   1.37017E+06
C:/temp/Job-2.odb,Step-1,Increment      1: Step Time =    1.000,"P-2-1",          1281,       178.695,       40.0588,            0.,NA,NA,"",   1.15575E+06,   1.15654E+06,   1.15654E+06
C:/temp/Job-2.odb,Step-1,Increment      1: Step Time =    1.000,"P-2-1",          1282,       168.477,       140.969,            0.,NA,NA,"",   1.41362E+06,   1.30566E+06,   1.30566E+06
C:/temp/Job-2.odb,Step-1,Increment      1: Step Time =    1.000,"P-2-1",          1283,       35.5696,       152.339,            0.,NA,NA,"",   1.27034E+06,   1.20925E+06,   1.20925E+06
C:/temp/Job-2.odb,Step-1,Increment      1: Step Time =    1.000,"P-2-1",          1284,       26.6617,       43.6873,            0.,NA,NA,"",   1.21661E+06,   1.21381E+06,   1.21381E+06
C:/temp/Job-2.odb,Step-1,Increment      1: Step Time =    1.000,"P-2-1",          1285,       173.709,       156.159,            0.,NA,NA,"",   1.25371E+06,   1.22421E+06,   1.22421E+06
C:/temp/Job-2.odb,Step-1,Increment      1: Step Time =    1.000,"P-2-1",          1286,       156.450,       27.9852,            0.,NA,NA,"",   1.31589E+06,   1.26335E+06,   1.26335E+06
C:/temp/Job-2.odb,Step-1,Increment      1: Step Time =    1.000,"P-2-1",          1287,       56.0945,       36.9725,            0.,NA,NA,"",   1.69030E+06,   1.57399E+06,   1.57399E+06
C:/temp/Job-2.odb,Step-1,Increment      1: Step Time =    1.000,"P-2-1",          1288,       185.899,       151.315,            0.,NA,NA,"",   1.05290E+06,   1.10860E+06,   1.10860E+06
C:/temp/Job-2.odb,Step-1,Increment      1: Step Time =    1.000,"P-2-1",          1289,       152.987,       13.3330,            0.,NA,NA,"",   1.08923E+06,   1.07255E+06,   1.07255E+06
C:/temp/Job-2.odb,Step-1,Increment      1: Step Time =    1.000,"P-2-1",          1290,       48.9003,       185.162,            0.,NA,NA,"",   1.60460E+06,   1.57233E+06,   1.57233E+06
C:/temp/Job-2.odb,Step-1,Increment      1: Step Time =    1.000,"P-2-1",          1291,       151.654,       37.8641,            0.,NA,NA,"",   1.53211E+06,   1.43777E+06,   1.43777E+06
C:/temp/Job-2.odb,Step-1,Increment      1: Step Time =    1.000,"P-2-1",          1292,       36.2020,       156.835,            0.,NA,NA,"",   1.36708E+06,   1.30727E+06,   1.30727E+06
C:/temp/Job-2.odb,Step-1,Increment      1: Step Time =    1.000,"P-2-1",          1293,       25.5688,       34.9692,            0.,NA,NA,"",   1.37339E+06,   1.37722E+06,   1.37722E+06
C:/temp/Job-2.odb,Step-1,Increment      1: Step Time =    1.000,"P-2-1",          1294,       176.785,       164.105,            0.,NA,NA,"",   1.16200E+06,   1.15365E+06,   1.15365E+06
C:/temp/Job-2.odb,Step-1,Increment      1: Step Time =    1.000,"P-2-1",          1295,       162.349,       19.5221,            0.,NA,NA,"",   1.15233E+06,   1.12889E+06,   1.12889E+06
C:/temp/Job-2.odb,Step-1,Increment      1: Step Time =    1.000,"P-2-1",          1296,       37.0234,       179.261,            0.,NA,NA,"",   1.61778E+06,   1.58622E+06,   1.58622E+06
C:/temp/Job-2.odb,Step-1,Increment      1: Step Time =    1.000,"P-2-1",          1297,       48.3588,       165.448,            0.,NA,NA,"",   1.61104E+06,   1.51379E+06,   1.51379E+06
C:/temp/Job-2.odb,Step-1,Increment      1: Step Time =    1.000,"P-2-1",          1298,       162.941,       41.4456,            0.,NA,NA,"",   1.43112E+06,   1.34356E+06,   1.34356E+06
C:/temp/Job-2.odb,Step-1,Increment      1: Step Time =    1.000,"P-2-1",          1299,       165.865,       50.5054,            0.,NA,NA,"",   1.45705E+06,   1.34912E+06,   1.34912E+06
C:/temp/Job-2.odb,Step-1,Increment      1: Step Time =    1.000,"P-2-1",          1300,       155.629,       162.590,            0.,NA,NA,"",   1.47750E+06,   1.38408E+06,   1.38408E+06
C:/temp/Job-2.odb,Step-1,Increment      1: Step Time =    1.000,"P-2-1",          1301,       43.3052,       37.5746,            0.,NA,NA,"",   1.54076E+06,   1.45046E+06,   1.45046E+06
C:/temp/Job-2.odb,Step-1,Increment      1: Step Time =    1.000,"P-2-1",          1302,       36.3448,       26.3363,            0.,NA,NA,"",   1.57476E+06,   1.53504E+06,   1.53504E+06
C:/temp/Job-2.odb,Step-1,Increment      1: Step Time =    1.000,"P-2-1",          1303,       163.869,       175.063,            0.,NA,NA,"",   1.21237E+06,   1.17867E+06,   1.17867E+06
C:/temp/Job-2.odb,Step-1,Increment      1: Step Time =    1.000,"P-2-1",          1304,       27.9592,       168.031,            0.,NA,NA,"",   1.45057E+06,   1.44264E+06,   1.44264E+06
C:/temp/Job-2.odb,Step-1,Increment      1: Step Time =    1.000,"P-2-1",          1305,       174.128,       35.5386,            0.,NA,NA,"",   1.20004E+06,   1.18000E+06,   1.18000E+06
C:/temp/Job-2.odb,Step-1,Increment      1: Step Time =    1.000,"P-2-1",          1306,       147.600,       35.4184,            0.,NA,NA,"",   1.52205E+06,   1.44353E+06,   1.44353E+06
C:/temp/Job-2.odb,Step-1,Increment      1: Step Time =    1.000,"P-2-1",          1307,       154.387,       33.7072,            0.,NA,NA,"",   1.42249E+06,   1.34986E+06,   1.34986E+06
C:/temp/Job-2.odb,Step-1,Increment      1: Step Time =    1.000,"P-2-1",          1308,       168.495,       153.067,            0.,NA,NA,"",   1.36927E+06,   1.29799E+06,   1.29799E+06
C:/temp/Job-2.odb,Step-1,Increment      1: Step Time =    1.000,"P-2-1",          1309,       31.7954,       43.9447,            0.,NA,NA,"",   1.28237E+06,   1.24814E+06,   1.24814E+06
C:/temp/Job-2.odb,Step-1,Increment      1: Step Time =    1.000,"P-2-1",          1310,       139.573,       35.1453,            0.,NA,NA,"",   1.56830E+06,   1.51732E+06,   1.51732E+06
C:/temp/Job-2.odb,Step-1,Increment      1: Step Time =    1.000,"P-2-1",          1311,       71.1421,       38.4111,            0.,NA,NA,"",   1.80758E+06,   1.73664E+06,   1.73664E+06
C:/temp/Job-2.odb,Step-1,Increment      1: Step Time =    1.000,"P-2-1",          1312,       35.2330,       10.2627,            0.,NA,NA,"",   1.68783E+06,   1.67808E+06,   1.67808E+06
C:/temp/Job-2.odb,Step-1,Increment      1: Step Time =    1.000,"P-2-1",          1313,       189.534,       35.7355,            0.,NA,NA,"",   1.01253E+06,   1.04680E+06,   1.04680E+06
C:/temp/Job-2.odb,Step-1,Increment      1: Step Time =    1.000,"P-2-1",          1314,       9.72352,       165.462,            0.,NA,NA,"",   1.19200E+06,   1.28917E+06,   1.28917E+06
C:/temp/Job-2.odb,Step-1,Increment      1: Step Time =    1.000,"P-2-1",          1315,       164.575,       189.945,            0.,NA,NA,"",   1.04470E+06,   1.03697E+06,   1.03697E+06
C:/temp/Job-2.odb,Step-1,Increment      1: Step Time =    1.000,"P-2-1",          1316,       29.2311,       30.6411,            0.,NA,NA,"",   1.48217E+06,   1.46736E+06,   1.46736E+06
C:/temp/Job-2.odb,Step-1,Increment      1: Step Time =    1.000,"P-2-1",          1317,       16.9554,       39.7128,            0.,NA,NA,"",   1.17507E+06,   1.22767E+06,   1.22767E+06
C:/temp/Job-2.odb,Step-1,Increment      1: Step Time =    1.000,"P-2-1",          1318,       172.533,       165.799,            0.,NA,NA,"",   1.20276E+06,   1.17921E+06,   1.17921E+06
C:/temp/Job-2.odb,Step-1,Increment      1: Step Time =    1.000,"P-2-1",          1319,       180.436,       162.238,            0.,NA,NA,"",   1.12139E+06,   1.12903E+06,   1.12903E+06
C:/temp/Job-2.odb,Step-1,Increment      1: Step Time =    1.000,"P-2-1",          1320,       159.728,       18.6427,            0.,NA,NA,"",   1.15277E+06,   1.12863E+06,   1.12863E+06
C:/temp/Job-2.odb,Step-1,Increment      1: Step Time =    1.000,"P-2-1",          1321,       162.883,       23.1404,            0.,NA,NA,"",   1.19135E+06,   1.16141E+06,   1.16141E+06
C:/temp/Job-2.odb,Step-1,Increment      1: Step Time =    1.000,"P-2-1",          1322,       34.4050,       175.594,            0.,NA,NA,"",   1.58535E+06,   1.55490E+06,   1.55490E+06
C:/temp/Job-2.odb,Step-1,Increment      1: Step Time =    1.000,"P-2-1",          1323,       167.115,       59.1806,            0.,NA,NA,"",   1.44251E+06,   1.31649E+06,   1.31649E+06
C:/temp/Job-2.odb,Step-1,Increment      1: Step Time =    1.000,"P-2-1",          1324,       161.533,       47.8901,            0.,NA,NA,"",     1.514E+06,   1.39246E+06,   1.39246E+06
C:/temp/Job-2.odb,Step-1,Increment      1: Step Time =    1.000,"P-2-1",          1325,       46.8900,       39.3218,            0.,NA,NA,"",   1.56659E+06,   1.46161E+06,   1.46161E+06
C:/temp/Job-2.odb,Step-1,Increment      1: Step Time =    1.000,"P-2-1",          1326,       144.538,       38.7833,            0.,NA,NA,"",   1.61184E+06,   1.52545E+06,   1.52545E+06
C:/temp/Job-2.odb,Step-1,Increment      1: Step Time =    1.000,"P-2-1",          1327,       158.384,       36.4032,            0.,NA,NA,"",   1.42224E+06,   1.34360E+06,   1.34360E+06
C:/temp/Job-2.odb,Step-1,Increment      1: Step Time =    1.000,"P-2-1",          1328,       165.216,       158.523,            0.,NA,NA,"",   1.38403E+06,   1.30885E+06,   1.30885E+06
C:/temp/Job-2.odb,Step-1,Increment      1: Step Time =    1.000,"P-2-1",          1329,       35.9428,       38.4142,            0.,NA,NA,"",   1.43424E+06,   1.38090E+06,   1.38090E+06
C:/temp/Job-2.odb,Step-1,Increment      1: Step Time =    1.000,"P-2-1",          1330,       144.197,       31.1726,            0.,NA,NA,"",   1.45603E+06,   1.39983E+06,   1.39983E+06
C:/temp/Job-2.odb,Step-1,Increment      1: Step Time =    1.000,"P-2-1",          1331,       164.025,       55.9739,            0.,NA,NA,"",   1.50852E+06,   1.36305E+06,   1.36305E+06
C:/temp/Job-2.odb,Step-1,Increment      1: Step Time =    1.000,"P-2-1",          1332,       158.200,       45.7009,            0.,NA,NA,"",   1.54600E+06,   1.42229E+06,   1.42229E+06
C:/temp/Job-2.odb,Step-1,Increment      1: Step Time =    1.000,"P-2-1",          1333,       153.699,       154.419,            0.,NA,NA,"",   1.61433E+06,   1.47673E+06,   1.47673E+06
C:/temp/Job-2.odb,Step-1,Increment      1: Step Time =    1.000,"P-2-1",          1334,       37.7029,       172.648,            0.,NA,NA,"",   1.57708E+06,   1.53153E+06,   1.53153E+06
C:/temp/Job-2.odb,Step-1,Increment      1: Step Time =    1.000,"P-2-1",          1335,       161.895,       32.9901,            0.,NA,NA,"",   1.32753E+06,   1.27062E+06,   1.27062E+06
C:/temp/Job-2.odb,Step-1,Increment      1: Step Time =    1.000,"P-2-1",          1336,       162.581,       152.809,            0.,NA,NA,"",   1.48371E+06,   1.37066E+06,   1.37066E+06
C:/temp/Job-2.odb,Step-1,Increment      1: Step Time =    1.000,"P-2-1",          1337,       166.586,       162.601,            0.,NA,NA,"",   1.31291E+06,   1.25865E+06,   1.25865E+06
C:/temp/Job-2.odb,Step-1,Increment      1: Step Time =    1.000,"P-2-1",          1338,       35.3173,       33.1987,            0.,NA,NA,"",   1.49812E+06,   1.45371E+06,   1.45371E+06
C:/temp/Job-2.odb,Step-1,Increment      1: Step Time =    1.000,"P-2-1",          1339,       37.6706,       44.0398,            0.,NA,NA,"",   1.36739E+06,   1.29821E+06,   1.29821E+06
C:/temp/Job-2.odb,Step-1,Increment      1: Step Time =    1.000,"P-2-1",          1340,       156.366,       149.766,            0.,NA,NA,"",   1.62128E+06,   1.45958E+06,   1.45958E+06
C:/temp/Job-2.odb,Step-1,Increment      1: Step Time =    1.000,"P-2-1",          1341,       160.868,       28.0480,            0.,NA,NA,"",   1.27770E+06,   1.23128E+06,   1.23128E+06
C:/temp/Job-2.odb,Step-1,Increment      1: Step Time =    1.000,"P-2-1",          1342,       170.864,       161.550,            0.,NA,NA,"",   1.26516E+06,   1.22644E+06,   1.22644E+06
C:/temp/Job-2.odb,Step-1,Increment      1: Step Time =    1.000,"P-2-1",          1343,       30.3104,       34.5088,            0.,NA,NA,"",   1.43252E+06,   1.41095E+06,   1.41095E+06
C:/temp/Job-2.odb,Step-1,Increment      1: Step Time =    1.000,"P-2-1",          1344,       151.130,       146.302,            0.,NA,NA,"",   1.72958E+06,   1.53208E+06,   1.53208E+06
C:/temp/Job-2.odb,Step-1,Increment      1: Step Time =    1.000,"P-2-1",          1345,       157.173,       56.3088,            0.,NA,NA,"",   1.63985E+06,   1.44252E+06,   1.44252E+06
C:/temp/Job-2.odb,Step-1,Increment      1: Step Time =    1.000,"P-2-1",          1346,       36.1796,       143.742,            0.,NA,NA,"",   1.07084E+06,   1.00396E+06,   1.00396E+06
C:/temp/Job-2.odb,Step-1,Increment      1: Step Time =    1.000,"P-2-1",          1347,       33.7199,       182.472,            0.,NA,NA,"",   1.63977E+06,   1.62183E+06,   1.62183E+06
C:/temp/Job-2.odb,Step-1,Increment      1: Step Time =    1.000,"P-2-1",          1348,       20.9028,       35.0748,            0.,NA,NA,"",   1.31490E+06,   1.34598E+06,   1.34598E+06
C:/temp/Job-2.odb,Step-1,Increment      1: Step Time =    1.000,"P-2-1",          1349,       164.807,       16.8648,            0.,NA,NA,"",   1.11418E+06,   1.09707E+06,   1.09707E+06
C:/temp/Job-2.odb,Step-1,Increment      1: Step Time =    1.000,"P-2-1",          1350,       183.091,       165.658,            0.,NA,NA,"",   1.07423E+06,   1.09065E+06,   1.09065E+06
C:/temp/Job-2.odb,Step-1,Increment      1: Step Time =    1.000,"P-2-1",          1351,       111.250,       166.725,            0.,NA,NA,"",   1.51754E+06,   1.63875E+06,   1.63875E+06
C:/temp/Job-2.odb,Step-1,Increment      1: Step Time =    1.000,"P-2-1",          1352,       161.565,       38.7145,            0.,NA,NA,"",   1.41973E+06,   1.33840E+06,   1.33840E+06
C:/temp/Job-2.odb,Step-1,Increment      1: Step Time =    1.000,"P-2-1",          1353,       39.9533,       37.4509,            0.,NA,NA,"",   1.49803E+06,   1.42370E+06,   1.42370E+06
C:/temp/Job-2.odb,Step-1,Increment      1: Step Time =    1.000,"P-2-1",          1354,       161.625,       162.176,            0.,NA,NA,"",   1.39560E+06,   1.31771E+06,   1.31771E+06
C:/temp/Job-2.odb,Step-1,Increment      1: Step Time =    1.000,"P-2-1",          1355,       49.3575,       45.1711,            0.,NA,NA,"",   1.53184E+06,   1.40475E+06,   1.40475E+06
C:/temp/Job-2.odb,Step-1,Increment      1: Step Time =    1.000,"P-2-1",          1356,       40.7408,       143.851,            0.,NA,NA,"",   1.15530E+06,   1.05607E+06,   1.05607E+06
C:/temp/Job-2.odb,Step-1,Increment      1: Step Time =    1.000,"P-2-1",          1357,       169.423,       24.8008,            0.,NA,NA,"",   1.15663E+06,   1.13653E+06,   1.13653E+06
C:/temp/Job-2.odb,Step-1,Increment      1: Step Time =    1.000,"P-2-1",          1358,       174.665,       169.828,            0.,NA,NA,"",   1.15074E+06,   1.13789E+06,   1.13789E+06
C:/temp/Job-2.odb,Step-1,Increment      1: Step Time =    1.000,"P-2-1",          1359,       28.5907,       175.156,            0.,NA,NA,"",   1.55564E+06,   1.54685E+06,   1.54685E+06
C:/temp/Job-2.odb,Step-1,Increment      1: Step Time =    1.000,"P-2-1",          1360,       28.5628,       27.4008,            0.,NA,NA,"",   1.52636E+06,   1.51655E+06,   1.51655E+06
C:/temp/Job-2.odb,Step-1,Increment      1: Step Time =    1.000,"P-2-1",          1361,       151.051,       174.608,            0.,NA,NA,"",   1.31407E+06,   1.26645E+06,   1.26645E+06
C:/temp/Job-2.odb,Step-1,Increment      1: Step Time =    1.000,"P-2-1",          1362,       28.0754,       153.163,            0.,NA,NA,"",   1.17584E+06,   1.16109E+06,   1.16109E+06
C:/temp/Job-2.odb,Step-1,Increment      1: Step Time =    1.000,"P-2-1",          1363,       47.8205,       30.6045,            0.,NA,NA,"",   1.62945E+06,   1.54352E+06,   1.54352E+06
C:/temp/Job-2.odb,Step-1,Increment      1: Step Time =    1.000,"P-2-1",          1364,       169.489,       47.5800,            0.,NA,NA,"",   1.36816E+06,   1.29664E+06,   1.29664E+06
C:/temp/Job-2.odb,Step-1,Increment      1: Step Time =    1.000,"P-2-1",          1365,       49.1679,       145.032,            0.,NA,NA,"",   1.34424E+06,   1.19938E+06,   1.19938E+06
C:/temp/Job-2.odb,Step-1,Increment      1: Step Time =    1.000,"P-2-1",          1366,       34.9033,       168.442,            0.,NA,NA,"",   1.51681E+06,   1.47552E+06,   1.47552E+06
C:/temp/Job-2.odb,Step-1,Increment      1: Step Time =    1.000,"P-2-1",          1367,       99.3078,       158.190,            0.,NA,NA,"",   1.93269E+06,   2.09007E+06,   2.09007E+06
C:/temp/Job-2.odb,Step-1,Increment      1: Step Time =    1.000,"P-2-1",          1368,       36.5948,       49.7839,            0.,NA,NA,"",   1.23452E+06,   1.16755E+06,   1.16755E+06
C:/temp/Job-2.odb,Step-1,Increment      1: Step Time =    1.000,"P-2-1",          1369,       166.497,       145.869,            0.,NA,NA,"",   1.44959E+06,   1.33854E+06,   1.33854E+06
C:/temp/Job-2.odb,Step-1,Increment      1: Step Time =    1.000,"P-2-1",          1370,       157.285,       103.478,            0.,NA,NA,"",   447.485E+03,  -82.3500E+03,  -82.3500E+03
C:/temp/Job-2.odb,Step-1,Increment      1: Step Time =    1.000,"P-2-1",          1371,       139.718,       168.215,            0.,NA,NA,"",   1.49880E+06,   1.45715E+06,   1.45715E+06
C:/temp/Job-2.odb,Step-1,Increment      1: Step Time =    1.000,"P-2-1",          1372,       163.247,       10.4405,            0.,NA,NA,"",   1.04699E+06,   1.03867E+06,   1.03867E+06
C:/temp/Job-2.odb,Step-1,Increment      1: Step Time =    1.000,"P-2-1",          1373,       11.0186,       35.8003,            0.,NA,NA,"",   1.18205E+06,   1.27091E+06,   1.27091E+06
C:/temp/Job-2.odb,Step-1,Increment      1: Step Time =    1.000,"P-2-1",          1374,       188.989,       163.753,            0.,NA,NA,"",   1.01273E+06,   1.04830E+06,   1.04830E+06
C:/temp/Job-2.odb,Step-1,Increment      1: Step Time =    1.000,"P-2-1",          1375,       36.0002,       188.521,            0.,NA,NA,"",   1.67538E+06,   1.66303E+06,   1.66303E+06
C:/temp/Job-2.odb,Step-1,Increment      1: Step Time =    1.000,"P-2-1",          1376,       126.624,       56.7972,            0.,NA,NA,"",   2.12847E+06,   2.17047E+06,   2.17047E+06
C:/temp/Job-2.odb,Step-1,Increment      1: Step Time =    1.000,"P-2-1",          1377,       152.290,       103.285,            0.,NA,NA,"",   656.402E+03,  -629.058E+03,  -629.058E+03
C:/temp/Job-2.odb,Step-1,Increment      1: Step Time =    1.000,"P-2-1",          1378,       134.084,       162.975,            0.,NA,NA,"",   1.62807E+06,   1.60877E+06,   1.60877E+06
C:/temp/Job-2.odb,Step-1,Increment      1: Step Time =    1.000,"P-2-1",          1379,       25.2344,       9.98083,            0.,NA,NA,"",   1.74704E+06,   1.74794E+06,   1.74794E+06
C:/temp/Job-2.odb,Step-1,Increment      1: Step Time =    1.000,"P-2-1",          1380,       10.4651,       25.4175,            0.,NA,NA,"",   1.38845E+06,   1.48655E+06,   1.48655E+06
C:/temp/Job-2.odb,Step-1,Increment      1: Step Time =    1.000,"P-2-1",          1381,       9.62946,       174.951,            0.,NA,NA,"",   1.38593E+06,   1.48979E+06,   1.48979E+06
C:/temp/Job-2.odb,Step-1,Increment      1: Step Time =    1.000,"P-2-1",          1382,       174.507,       11.3256,            0.,NA,NA,"",   1.03341E+06,   1.03105E+06,   1.03105E+06
C:/temp/Job-2.odb,Step-1,Increment      1: Step Time =    1.000,"P-2-1",          1383,       189.605,       25.0762,            0.,NA,NA,"",   1.01257E+06,   1.02538E+06,   1.02538E+06
C:/temp/Job-2.odb,Step-1,Increment      1: Step Time =    1.000,"P-2-1",          1384,       24.7680,       188.595,            0.,NA,NA,"",   1.73431E+06,   1.73723E+06,   1.73723E+06
C:/temp/Job-2.odb,Step-1,Increment      1: Step Time =    1.000,"P-2-1",          1385,       175.004,       189.841,            0.,NA,NA,"",   1.02601E+06,   1.02448E+06,   1.02448E+06
C:/temp/Job-2.odb,Step-1,Increment      1: Step Time =    1.000,"P-2-1",          1386,       188.597,       174.869,            0.,NA,NA,"",   1.01851E+06,   1.03105E+06,   1.03105E+06
C:/temp/Job-2.odb,Step-1,Increment      1: Step Time =    1.000,"P-2-1",          1387,       38.2175,       116.380,            0.,NA,NA,"",   329.652E+03,   249.184E+03,   249.184E+03
C:/temp/Job-2.odb,Step-1,Increment      1: Step Time =    1.000,"P-2-1",          1388,       94.4625,       152.845,            0.,NA,NA,"",   2.28836E+06,   2.43633E+06,   2.43633E+06
C:/temp/Job-2.odb,Step-1,Increment      1: Step Time =    1.000,"P-2-1",          1389,       102.519,       152.148,            0.,NA,NA,"",   2.39558E+06,   2.57246E+06,   2.57246E+06
C:/temp/Job-2.odb,Step-1,Increment      1: Step Time =    1.000,"P-2-1",          1390,       47.3963,       113.426,            0.,NA,NA,"",   358.459E+03,  -311.205E+03,  -311.205E+03
C:/temp/Job-2.odb,Step-1,Increment      1: Step Time =    1.000,"P-2-1",          1391,       45.1263,       43.1029,            0.,NA,NA,"",   1.49360E+06,   1.38789E+06,   1.38789E+06
C:/temp/Job-2.odb,Step-1,Increment      1: Step Time =    1.000,"P-2-1",          1392,       9.79997,       184.887,            0.,NA,NA,"",   1.64591E+06,   1.73762E+06,   1.73762E+06
C:/temp/Job-2.odb,Step-1,Increment      1: Step Time =    1.000,"P-2-1",          1393,       184.693,       10.5450,            0.,NA,NA,"",   1.00953E+06,   1.01141E+06,   1.01141E+06
C:/temp/Job-2.odb,Step-1,Increment      1: Step Time =    1.000,"P-2-1",          1394,       15.2967,       10.2327,            0.,NA,NA,"",   1.81107E+06,   1.83615E+06,   1.83615E+06
C:/temp/Job-2.odb,Step-1,Increment      1: Step Time =    1.000,"P-2-1",          1395,       10.3558,       15.3360,            0.,NA,NA,"",   1.64634E+06,   1.73337E+06,   1.73337E+06
C:/temp/Job-2.odb,Step-1,Increment      1: Step Time =    1.000,"P-2-1",          1396,       184.711,       189.897,            0.,NA,NA,"",   1.00815E+06,   1.00985E+06,   1.00985E+06
C:/temp/Job-2.odb,Step-1,Increment      1: Step Time =    1.000,"P-2-1",          1397,       189.509,       184.821,            0.,NA,NA,"",   1.00831E+06,   1.01196E+06,   1.01196E+06
C:/temp/Job-2.odb,Step-1,Increment      1: Step Time =    1.000,"P-2-1",          1398,       189.802,       15.3401,            0.,NA,NA,"",   1.00696E+06,   1.01088E+06,   1.01088E+06
C:/temp/Job-2.odb,Step-1,Increment      1: Step Time =    1.000,"P-2-1",          1399,       14.8317,       189.706,            0.,NA,NA,"",   1.81173E+06,   1.83921E+06,   1.83921E+06
C:/temp/Job-2.odb,Step-1,Increment      1: Step Time =    1.000,"P-2-1",          1400,       183.081,       27.0898,            0.,NA,NA,"",   1.05255E+06,   1.06224E+06,   1.06224E+06
C:/temp/Job-2.odb,Step-1,Increment      1: Step Time =    1.000,"P-2-1",          1401,       30.1421,       14.9635,            0.,NA,NA,"",   1.67430E+06,   1.66627E+06,   1.66627E+06
C:/temp/Job-2.odb,Step-1,Increment      1: Step Time =    1.000,"P-2-1",          1402,       173.100,       183.559,            0.,NA,NA,"",   1.06827E+06,   1.06224E+06,   1.06224E+06
C:/temp/Job-2.odb,Step-1,Increment      1: Step Time =    1.000,"P-2-1",          1403,       14.5260,       170.410,            0.,NA,NA,"",   1.35103E+06,   1.42257E+06,   1.42257E+06
C:/temp/Job-2.odb,Step-1,Increment      1: Step Time =    1.000,"P-2-1",          1404,       185.353,       163.198,            0.,NA,NA,"",   1.04946E+06,   1.07723E+06,   1.07723E+06
C:/temp/Job-2.odb,Step-1,Increment      1: Step Time =    1.000,"P-2-1",          1405,       36.3905,       184.639,            0.,NA,NA,"",   1.65154E+06,   1.63245E+06,   1.63245E+06
C:/temp/Job-2.odb,Step-1,Increment      1: Step Time =    1.000,"P-2-1",          1406,       161.331,       14.8388,            0.,NA,NA,"",   1.09821E+06,   1.08250E+06,   1.08250E+06
C:/temp/Job-2.odb,Step-1,Increment      1: Step Time =    1.000,"P-2-1",          1407,       16.0323,       35.3161,            0.,NA,NA,"",   1.25039E+06,   1.30988E+06,   1.30988E+06
C:/temp/Job-2.odb,Step-1,Increment      1: Step Time =    1.000,"P-2-1",          1408,       34.5567,       59.3354,            0.,NA,NA,"",   970.988E+03,   914.797E+03,   914.797E+03
C:/temp/Job-2.odb,Step-1,Increment      1: Step Time =    1.000,"P-2-1",          1409,       42.8356,       65.7515,            0.,NA,NA,"",   918.755E+03,   797.822E+03,   797.822E+03
C:/temp/Job-2.odb,Step-1,Increment      1: Step Time =    1.000,"P-2-1",          1410,       47.0481,       171.082,            0.,NA,NA,"",   1.62050E+06,   1.54458E+06,   1.54458E+06
C:/temp/Job-2.odb,Step-1,Increment      1: Step Time =    1.000,"P-2-1",          1411,       152.222,       25.6523,            0.,NA,NA,"",   1.30188E+06,   1.25468E+06,   1.25468E+06
C:/temp/Job-2.odb,Step-1,Increment      1: Step Time =    1.000,"P-2-1",          1412,       172.956,       149.128,            0.,NA,NA,"",   1.30670E+06,   1.26225E+06,   1.26225E+06
C:/temp/Job-2.odb,Step-1,Increment      1: Step Time =    1.000,"P-2-1",          1413,       118.424,       153.480,            0.,NA,NA,"",   2.05035E+06,   2.17926E+06,   2.17926E+06
C:/temp/Job-2.odb,Step-1,Increment      1: Step Time =    1.000,"P-2-1",          1414,       29.1194,       24.9127,            0.,NA,NA,"",   1.55674E+06,   1.54697E+06,   1.54697E+06
C:/temp/Job-2.odb,Step-1,Increment      1: Step Time =    1.000,"P-2-1",          1415,       151.058,       67.7041,            0.,NA,NA,"",   1.59357E+06,   1.27965E+06,   1.27965E+06
C:/temp/Job-2.odb,Step-1,Increment      1: Step Time =    1.000,"P-2-1",          1416,       36.9207,       161.549,            0.,NA,NA,"",   1.44927E+06,   1.38943E+06,   1.38943E+06
C:/temp/Job-2.odb,Step-1,Increment      1: Step Time =    1.000,"P-2-1",          1417,       190.317,       55.1258,            0.,NA,NA,"",   977.553E+03,   1.07930E+06,   1.07930E+06
C:/temp/Job-2.odb,Step-1,Increment      1: Step Time =    1.000,"P-2-1",          1418,       55.0409,       10.2046,            0.,NA,NA,"",   1.53633E+06,   1.51557E+06,   1.51557E+06
C:/temp/Job-2.odb,Step-1,Increment      1: Step Time =    1.000,"P-2-1",          1419,       145.583,       190.066,            0.,NA,NA,"",   1.01348E+06,   1.00343E+06,   1.00343E+06
C:/temp/Job-2.odb,Step-1,Increment      1: Step Time =    1.000,"P-2-1",          1420,       10.3312,       145.194,            0.,NA,NA,"",   809.713E+03,   879.599E+03,   879.599E+03
C:/temp/Job-2.odb,Step-1,Increment      1: Step Time =    1.000,"P-2-1",          1421,       164.662,       143.850,            0.,NA,NA,"",   1.49516E+06,   1.35715E+06,   1.35715E+06
C:/temp/Job-2.odb,Step-1,Increment      1: Step Time =    1.000,"P-2-1",          1422,       165.646,       35.7055,            0.,NA,NA,"",   1.32100E+06,   1.26510E+06,   1.26510E+06
C:/temp/Job-2.odb,Step-1,Increment      1: Step Time =    1.000,"P-2-1",          1423,       162.382,       168.446,            0.,NA,NA,"",   1.31359E+06,   1.25797E+06,   1.25797E+06
C:/temp/Job-2.odb,Step-1,Increment      1: Step Time =    1.000,"P-2-1",          1424,       25.3160,       14.5903,            0.,NA,NA,"",   1.68876E+06,   1.69222E+06,   1.69222E+06
C:/temp/Job-2.odb,Step-1,Increment      1: Step Time =    1.000,"P-2-1",          1425,       15.6315,       25.5756,            0.,NA,NA,"",   1.44757E+06,   1.50979E+06,   1.50979E+06
C:/temp/Job-2.odb,Step-1,Increment      1: Step Time =    1.000,"P-2-1",          1426,       14.2739,       174.911,            0.,NA,NA,"",   1.44471E+06,   1.51641E+06,   1.51641E+06
C:/temp/Job-2.odb,Step-1,Increment      1: Step Time =    1.000,"P-2-1",          1427,       175.139,       16.4665,            0.,NA,NA,"",   1.06208E+06,   1.05801E+06,   1.05801E+06
C:/temp/Job-2.odb,Step-1,Increment      1: Step Time =    1.000,"P-2-1",          1428,       185.900,       24.2592,            0.,NA,NA,"",   1.02880E+06,   1.03969E+06,   1.03969E+06
C:/temp/Job-2.odb,Step-1,Increment      1: Step Time =    1.000,"P-2-1",          1429,       23.5404,       183.570,            0.,NA,NA,"",   1.66570E+06,   1.67616E+06,   1.67616E+06
C:/temp/Job-2.odb,Step-1,Increment      1: Step Time =    1.000,"P-2-1",          1430,       175.814,       186.212,            0.,NA,NA,"",   1.04188E+06,   1.03994E+06,   1.03994E+06
C:/temp/Job-2.odb,Step-1,Increment      1: Step Time =    1.000,"P-2-1",          1431,       183.464,       175.834,            0.,NA,NA,"",   1.04784E+06,   1.05494E+06,   1.05494E+06
C:/temp/Job-2.odb,Step-1,Increment      1: Step Time =    1.000,"P-2-1",          1432,       31.4135,       163.266,            0.,NA,NA,"",   1.40727E+06,   1.37796E+06,   1.37796E+06
C:/temp/Job-2.odb,Step-1,Increment      1: Step Time =    1.000,"P-2-1",          1433,       184.724,       15.7267,            0.,NA,NA,"",   1.01965E+06,   1.02368E+06,   1.02368E+06
C:/temp/Job-2.odb,Step-1,Increment      1: Step Time =    1.000,"P-2-1",          1434,       184.364,       184.956,            0.,NA,NA,"",   1.01972E+06,   1.02292E+06,   1.02292E+06
C:/temp/Job-2.odb,Step-1,Increment      1: Step Time =    1.000,"P-2-1",          1435,       15.5415,       15.3844,            0.,NA,NA,"",   1.69274E+06,   1.73649E+06,   1.73649E+06
C:/temp/Job-2.odb,Step-1,Increment      1: Step Time =    1.000,"P-2-1",          1436,       14.5344,       184.744,            0.,NA,NA,"",   1.69090E+06,   1.74144E+06,   1.74144E+06
C:/temp/Job-2.odb,Step-1,Increment      1: Step Time =    1.000,"P-2-1",          1437,       175.656,       27.4767,            0.,NA,NA,"",   1.12549E+06,   1.11679E+06,   1.11679E+06
C:/temp/Job-2.odb,Step-1,Increment      1: Step Time =    1.000,"P-2-1",          1438,       21.4728,       174.978,            0.,NA,NA,"",   1.51206E+06,   1.53606E+06,   1.53606E+06
C:/temp/Job-2.odb,Step-1,Increment      1: Step Time =    1.000,"P-2-1",          1439,       26.1623,       23.2269,            0.,NA,NA,"",   1.57203E+06,   1.57379E+06,   1.57379E+06
C:/temp/Job-2.odb,Step-1,Increment      1: Step Time =    1.000,"P-2-1",          1440,       173.174,       176.469,            0.,NA,NA,"",   1.12314E+06,   1.11063E+06,   1.11063E+06
C:/temp/Job-2.odb,Step-1,Increment      1: Step Time =    1.000,"P-2-1",          1441,       173.534,       24.6969,            0.,NA,NA,"",   1.12714E+06,   1.11485E+06,   1.11485E+06
C:/temp/Job-2.odb,Step-1,Increment      1: Step Time =    1.000,"P-2-1",          1442,       24.9763,       26.8886,            0.,NA,NA,"",   1.50826E+06,   1.51539E+06,   1.51539E+06
C:/temp/Job-2.odb,Step-1,Increment      1: Step Time =    1.000,"P-2-1",          1443,       24.1196,       174.805,            0.,NA,NA,"",   1.52724E+06,   1.53970E+06,   1.53970E+06
C:/temp/Job-2.odb,Step-1,Increment      1: Step Time =    1.000,"P-2-1",          1444,       25.4825,       18.2307,            0.,NA,NA,"",   1.64384E+06,   1.64731E+06,   1.64731E+06
C:/temp/Job-2.odb,Step-1,Increment      1: Step Time =    1.000,"P-2-1",          1445,       18.4401,       175.085,            0.,NA,NA,"",   1.48417E+06,   1.52859E+06,   1.52859E+06
C:/temp/Job-2.odb,Step-1,Increment      1: Step Time =    1.000,"P-2-1",          1446,       42.9390,       46.9002,            0.,NA,NA,"",   1.39681E+06,   1.29409E+06,   1.29409E+06
C:/temp/Job-2.odb,Step-1,Increment      1: Step Time =    1.000,"P-2-1",          1447,       177.164,       173.609,            0.,NA,NA,"",   1.10525E+06,   1.10067E+06,   1.10067E+06
C:/temp/Job-2.odb,Step-1,Increment      1: Step Time =    1.000,"P-2-1",          1448,       25.7133,       177.748,            0.,NA,NA,"",   1.57835E+06,   1.58330E+06,   1.58330E+06
C:/temp/Job-2.odb,Step-1,Increment      1: Step Time =    1.000,"P-2-1",          1449,       171.803,       20.9632,            0.,NA,NA,"",   1.11259E+06,   1.10007E+06,   1.10007E+06
C:/temp/Job-2.odb,Step-1,Increment      1: Step Time =    1.000,"P-2-1",          1450,       20.4923,       30.6639,            0.,NA,NA,"",   1.39583E+06,   1.42899E+06,   1.42899E+06
C:/temp/Job-2.odb,Step-1,Increment      1: Step Time =    1.000,"P-2-1",          1451,       22.2648,       179.105,            0.,NA,NA,"",   1.59340E+06,   1.61190E+06,   1.61190E+06
C:/temp/Job-2.odb,Step-1,Increment      1: Step Time =    1.000,"P-2-1",          1452,       179.338,       176.630,            0.,NA,NA,"",   1.07370E+06,   1.07420E+06,   1.07420E+06
C:/temp/Job-2.odb,Step-1,Increment      1: Step Time =    1.000,"P-2-1",          1453,       20.6075,       25.9614,            0.,NA,NA,"",   1.48524E+06,   1.51676E+06,   1.51676E+06
C:/temp/Job-2.odb,Step-1,Increment      1: Step Time =    1.000,"P-2-1",          1454,       175.156,       21.1594,            0.,NA,NA,"",   1.09514E+06,   1.08774E+06,   1.08774E+06
C:/temp/Job-2.odb,Step-1,Increment      1: Step Time =    1.000,"P-2-1",          1455,       15.7922,       20.5266,            0.,NA,NA,"",   1.56159E+06,   1.61824E+06,   1.61824E+06
C:/temp/Job-2.odb,Step-1,Increment      1: Step Time =    1.000,"P-2-1",          1456,       20.5642,       15.1411,            0.,NA,NA,"",   1.69694E+06,   1.71521E+06,   1.71521E+06
C:/temp/Job-2.odb,Step-1,Increment      1: Step Time =    1.000,"P-2-1",          1457,       179.828,       16.2729,            0.,NA,NA,"",   1.03862E+06,   1.03969E+06,   1.03969E+06
C:/temp/Job-2.odb,Step-1,Increment      1: Step Time =    1.000,"P-2-1",          1458,       14.2624,       179.835,            0.,NA,NA,"",   1.55486E+06,   1.62182E+06,   1.62182E+06
C:/temp/Job-2.odb,Step-1,Increment      1: Step Time =    1.000,"P-2-1",          1459,       19.1126,       184.401,            0.,NA,NA,"",   1.68683E+06,   1.71254E+06,   1.71254E+06
C:/temp/Job-2.odb,Step-1,Increment      1: Step Time =    1.000,"P-2-1",          1460,       185.040,       20.6342,            0.,NA,NA,"",   1.02667E+06,   1.03399E+06,   1.03399E+06
C:/temp/Job-2.odb,Step-1,Increment      1: Step Time =    1.000,"P-2-1",          1461,       183.860,       180.332,            0.,NA,NA,"",   1.03199E+06,   1.03718E+06,   1.03718E+06
C:/temp/Job-2.odb,Step-1,Increment      1: Step Time =    1.000,"P-2-1",          1462,       179.452,       185.349,            0.,NA,NA,"",   1.03297E+06,   1.03358E+06,   1.03358E+06
C:/temp/Job-2.odb,Step-1,Increment      1: Step Time =    1.000,"P-2-1",          1463,       35.8393,       54.6945,            0.,NA,NA,"",   1.10686E+06,   1.04401E+06,   1.04401E+06
C:/temp/Job-2.odb,Step-1,Increment      1: Step Time =    1.000,"P-2-1",          1464,       41.8510,       56.4243,            0.,NA,NA,"",   1.15519E+06,   1.05138E+06,   1.05138E+06
C:/temp/Job-2.odb,Step-1,Increment      1: Step Time =    1.000,"P-2-1",          1465,       5.07932,       5.07963,            0.,NA,NA,"",   2.06070E+06,   2.14280E+06,   2.14280E+06
C:/temp/Job-2.odb,Step-1,Increment      1: Step Time =    1.000,"P-2-1",          1466,       54.5313,       106.569,            0.,NA,NA,"",   697.415E+03,  -717.634E+03,  -717.634E+03
C:/temp/Job-2.odb,Step-1,Increment      1: Step Time =    1.000,"P-2-1",          1467,       10.6162,       30.5195,            0.,NA,NA,"",   1.28131E+06,   1.37679E+06,   1.37679E+06
C:/temp/Job-2.odb,Step-1,Increment      1: Step Time =    1.000,"P-2-1",          1468,       191.146,       148.724,            0.,NA,NA,"",   967.755E+03,   1.06037E+06,   1.06037E+06
C:/temp/Job-2.odb,Step-1,Increment      1: Step Time =    1.000,"P-2-1",          1469,       51.6553,       190.588,            0.,NA,NA,"",   1.56578E+06,   1.54923E+06,   1.54923E+06
C:/temp/Job-2.odb,Step-1,Increment      1: Step Time =    1.000,"P-2-1",          1470,       90.1629,       149.939,            0.,NA,NA,"",   2.36473E+06,   2.48477E+06,   2.48477E+06
C:/temp/Job-2.odb,Step-1,Increment      1: Step Time =    1.000,"P-2-1",          1471,       51.6203,       112.035,            0.,NA,NA,"",   461.289E+03,  -457.556E+03,  -457.556E+03
C:/temp/Job-2.odb,Step-1,Increment      1: Step Time =    1.000,"P-2-1",          1472,       27.6320,       181.879,            0.,NA,NA,"",   1.64085E+06,   1.63748E+06,   1.63748E+06
C:/temp/Job-2.odb,Step-1,Increment      1: Step Time =    1.000,"P-2-1",          1473,       170.574,       17.5834,            0.,NA,NA,"",   1.09280E+06,   1.08216E+06,   1.08216E+06
C:/temp/Job-2.odb,Step-1,Increment      1: Step Time =    1.000,"P-2-1",          1474,       181.842,       171.675,            0.,NA,NA,"",   1.07135E+06,   1.07841E+06,   1.07841E+06
C:/temp/Job-2.odb,Step-1,Increment      1: Step Time =    1.000,"P-2-1",          1475,       153.207,       98.8472,            0.,NA,NA,"",   578.218E+03,  -553.241E+03,  -553.241E+03
C:/temp/Job-2.odb,Step-1,Increment      1: Step Time =    1.000,"P-2-1",          1476,       157.282,       13.8108,            0.,NA,NA,"",   1.09234E+06,   1.07623E+06,   1.07623E+06
C:/temp/Job-2.odb,Step-1,Increment      1: Step Time =    1.000,"P-2-1",          1477,       183.970,       160.110,            0.,NA,NA,"",   1.07382E+06,   1.10011E+06,   1.10011E+06
C:/temp/Job-2.odb,Step-1,Increment      1: Step Time =    1.000,"P-2-1",          1478,       39.5258,       182.980,            0.,NA,NA,"",   1.63517E+06,   1.60729E+06,   1.60729E+06
C:/temp/Job-2.odb,Step-1,Increment      1: Step Time =    1.000,"P-2-1",          1479,       115.383,       149.768,            0.,NA,NA,"",   2.34342E+06,   2.49041E+06,   2.49041E+06
C:/temp/Job-2.odb,Step-1,Increment      1: Step Time =    1.000,"P-2-1",          1480,       138.572,       140.141,            0.,NA,NA,"",   1.82441E+06,   1.67307E+06,   1.67307E+06
C:/temp/Job-2.odb,Step-1,Increment      1: Step Time =    1.000,"P-2-1",          1481,       148.581,       13.1981,            0.,NA,NA,"",   1.08584E+06,   1.06926E+06,   1.06926E+06
C:/temp/Job-2.odb,Step-1,Increment      1: Step Time =    1.000,"P-2-1",          1482,       21.6179,       39.2751,            0.,NA,NA,"",   1.24299E+06,   1.27018E+06,   1.27018E+06
C:/temp/Job-2.odb,Step-1,Increment      1: Step Time =    1.000,"P-2-1",          1483,       178.337,       159.090,            0.,NA,NA,"",   1.16303E+06,   1.16167E+06,   1.16167E+06
C:/temp/Job-2.odb,Step-1,Increment      1: Step Time =    1.000,"P-2-1",          1484,       109.693,       156.914,            0.,NA,NA,"",   1.94729E+06,   2.11274E+06,   2.11274E+06
C:/temp/Job-2.odb,Step-1,Increment      1: Step Time =    1.000,"P-2-1",          1485,       106.063,       159.652,            0.,NA,NA,"",   1.83036E+06,   1.99320E+06,   1.99320E+06
C:/temp/Job-2.odb,Step-1,Increment      1: Step Time =    1.000,"P-2-1",          1486,       89.8330,       157.925,            0.,NA,NA,"",   1.95828E+06,   2.06374E+06,   2.06374E+06
C:/temp/Job-2.odb,Step-1,Increment      1: Step Time =    1.000,"P-2-1",          1487,       153.505,       86.5821,            0.,NA,NA,"",   867.858E+03,  -31.3296E+03,  -31.3296E+03
C:/temp/Job-2.odb,Step-1,Increment      1: Step Time =    1.000,"P-2-1",          1488,       155.897,       89.8923,            0.,NA,NA,"",   715.743E+03,  -14.1946E+03,  -14.1946E+03
C:/temp/Job-2.odb,Step-1,Increment      1: Step Time =    1.000,"P-2-1",          1489,       170.152,       30.7490,            0.,NA,NA,"",   1.21216E+06,   1.18327E+06,   1.18327E+06
C:/temp/Job-2.odb,Step-1,Increment      1: Step Time =    1.000,"P-2-1",          1490,       169.737,       172.174,            0.,NA,NA,"",   1.18795E+06,   1.16238E+06,   1.16238E+06
C:/temp/Job-2.odb,Step-1,Increment      1: Step Time =    1.000,"P-2-1",          1491,       22.1093,       43.2949,            0.,NA,NA,"",   1.16509E+06,   1.18952E+06,   1.18952E+06
C:/temp/Job-2.odb,Step-1,Increment      1: Step Time =    1.000,"P-2-1",          1492,       183.974,       146.938,            0.,NA,NA,"",   1.09317E+06,   1.14499E+06,   1.14499E+06
C:/temp/Job-2.odb,Step-1,Increment      1: Step Time =    1.000,"P-2-1",          1493,       53.5678,       182.944,            0.,NA,NA,"",   1.59449E+06,   1.55087E+06,   1.55087E+06
C:/temp/Job-2.odb,Step-1,Increment      1: Step Time =    1.000,"P-2-1",          1494,       148.263,       17.5938,            0.,NA,NA,"",   1.17020E+06,   1.14401E+06,   1.14401E+06
C:/temp/Job-2.odb,Step-1,Increment      1: Step Time =    1.000,"P-2-1",          1495,       143.994,       17.8132,            0.,NA,NA,"",   1.17778E+06,   1.15406E+06,   1.15406E+06
C:/temp/Job-2.odb,Step-1,Increment      1: Step Time =    1.000,"P-2-1",          1496,       113.667,       37.0530,            0.,NA,NA,"",   1.65034E+06,   1.78182E+06,   1.78182E+06
C:/temp/Job-2.odb,Step-1,Increment      1: Step Time =    1.000,"P-2-1",          1497,       156.843,       100.423,            0.,NA,NA,"",   407.782E+03,  -193.484E+03,  -193.484E+03
C:/temp/Job-2.odb,Step-1,Increment      1: Step Time =    1.000,"P-2-1",          1498,       125.231,       50.4031,            0.,NA,NA,"",   2.02893E+06,   2.09207E+06,   2.09207E+06
C:/temp/Job-2.odb,Step-1,Increment      1: Step Time =    1.000,"P-2-1",          1499,       61.4832,       181.808,            0.,NA,NA,"",   1.57171E+06,   1.52197E+06,   1.52197E+06
C:/temp/Job-2.odb,Step-1,Increment      1: Step Time =    1.000,"P-2-1",          1500,       182.561,       140.212,            0.,NA,NA,"",   1.11592E+06,   1.17215E+06,   1.17215E+06
C:/temp/Job-2.odb,Step-1,Increment      1: Step Time =    1.000,"P-2-1",          1501,       182.086,       135.969,            0.,NA,NA,"",   1.11566E+06,   1.17598E+06,   1.17598E+06
C:/temp/Job-2.odb,Step-1,Increment      1: Step Time =    1.000,"P-2-1",          1502,       176.918,       156.554,            0.,NA,NA,"",   1.19656E+06,   1.18730E+06,   1.18730E+06
C:/temp/Job-2.odb,Step-1,Increment      1: Step Time =    1.000,"P-2-1",          1503,       65.8058,       181.728,            0.,NA,NA,"",   1.54407E+06,   1.49815E+06,   1.49815E+06
C:/temp/Job-2.odb,Step-1,Increment      1: Step Time =    1.000,"P-2-1",          1504,       14.0400,       58.0211,            0.,NA,NA,"",   770.582E+03,   825.976E+03,   825.976E+03
C:/temp/Job-2.odb,Step-1,Increment      1: Step Time =    1.000,"P-2-1",          1505,       43.5571,       173.713,            0.,NA,NA,"",   1.60864E+06,   1.54921E+06,   1.54921E+06
C:/temp/Job-2.odb,Step-1,Increment      1: Step Time =    1.000,"P-2-1",          1506,       12.8582,       66.7632,            0.,NA,NA,"",   583.920E+03,   636.132E+03,   636.132E+03
C:/temp/Job-2.odb,Step-1,Increment      1: Step Time =    1.000,"P-2-1",          1507,       45.5878,       80.5648,            0.,NA,NA,"",   452.717E+03,   46.4823E+03,   46.4823E+03
C:/temp/Job-2.odb,Step-1,Increment      1: Step Time =    1.000,"P-2-1",          1508,       165.924,       124.936,            0.,NA,NA,"",   1.22624E+06,   1.08242E+06,   1.08242E+06
C:/temp/Job-2.odb,Step-1,Increment      1: Step Time =    1.000,"P-2-1",          1509,       140.912,       158.508,            0.,NA,NA,"",   1.68647E+06,   1.60627E+06,   1.60627E+06
C:/temp/Job-2.odb,Step-1,Increment      1: Step Time =    1.000,"P-2-1",          1510,       55.3552,       53.7621,            0.,NA,NA,"",   1.47095E+06,   1.30921E+06,   1.30921E+06
C:/temp/Job-2.odb,Step-1,Increment      1: Step Time =    1.000,"P-2-1",          1511,       25.4008,       172.020,            0.,NA,NA,"",   1.49409E+06,   1.50040E+06,   1.50040E+06
C:/temp/Job-2.odb,Step-1,Increment      1: Step Time =    1.000,"P-2-1",          1512,       176.731,       149.789,            0.,NA,NA,"",   1.22978E+06,   1.21779E+06,   1.21779E+06
C:/temp/Job-2.odb,Step-1,Increment      1: Step Time =    1.000,"P-2-1",          1513,       51.1314,       176.321,            0.,NA,NA,"",   1.63514E+06,   1.56735E+06,   1.56735E+06
C:/temp/Job-2.odb,Step-1,Increment      1: Step Time =    1.000,"P-2-1",          1514,       156.523,       65.3200,            0.,NA,NA,"",   1.58521E+06,   1.32321E+06,   1.32321E+06
C:/temp/Job-2.odb,Step-1,Increment      1: Step Time =    1.000,"P-2-1",          1515,       39.2053,       128.146,            0.,NA,NA,"",   671.690E+03,   580.007E+03,   580.007E+03
C:/temp/Job-2.odb,Step-1,Increment      1: Step Time =    1.000,"P-2-1",          1516,       31.6555,       113.227,            0.,NA,NA,"",   237.315E+03,   226.512E+03,   226.512E+03
C:/temp/Job-2.odb,Step-1,Increment      1: Step Time =    1.000,"P-2-1",          1517,       161.809,       90.2173,            0.,NA,NA,"",   680.425E+03,   532.823E+03,   532.823E+03
C:/temp/Job-2.odb,Step-1,Increment      1: Step Time =    1.000,"P-2-1",          1518,       162.054,       95.8269,            0.,NA,NA,"",   422.276E+03,   221.042E+03,   221.042E+03
C:/temp/Job-2.odb,Step-1,Increment      1: Step Time =    1.000,"P-2-1",          1519,       127.677,       162.675,            0.,NA,NA,"",   1.64682E+06,   1.68089E+06,   1.68089E+06
C:/temp/Job-2.odb,Step-1,Increment      1: Step Time =    1.000,"P-2-1",          1520,       98.4121,       165.454,            0.,NA,NA,"",   1.63737E+06,   1.76271E+06,   1.76271E+06
C:/temp/Job-2.odb,Step-1,Increment      1: Step Time =    1.000,"P-2-1",          1521,       45.8777,       139.698,            0.,NA,NA,"",   1.13043E+06,   993.875E+03,   993.875E+03
C:/temp/Job-2.odb,Step-1,Increment      1: Step Time =    1.000,"P-2-1",          1522,       86.7775,       174.741,            0.,NA,NA,"",   1.48910E+06,   1.51281E+06,   1.51281E+06
C:/temp/Job-2.odb,Step-1,Increment      1: Step Time =    1.000,"P-2-1",          1523,       114.383,       23.9069,            0.,NA,NA,"",   1.24107E+06,   1.31256E+06,   1.31256E+06
C:/temp/Job-2.odb,Step-1,Increment      1: Step Time =    1.000,"P-2-1",          1524,       155.433,       78.8841,            0.,NA,NA,"",   1.22115E+06,   867.826E+03,   867.826E+03
C:/temp/Job-2.odb,Step-1,Increment      1: Step Time =    1.000,"P-2-1",          1525,       18.8949,       59.5583,            0.,NA,NA,"",   778.381E+03,   814.492E+03,   814.492E+03
C:/temp/Job-2.odb,Step-1,Increment      1: Step Time =    1.000,"P-2-1",          1526,       169.629,       122.639,            0.,NA,NA,"",   1.11876E+06,   1.04700E+06,   1.04700E+06
C:/temp/Job-2.odb,Step-1,Increment      1: Step Time =    1.000,"P-2-1",          1527,       155.588,       82.0728,            0.,NA,NA,"",   1.07922E+06,   730.922E+03,   730.922E+03
C:/temp/Job-2.odb,Step-1,Increment      1: Step Time =    1.000,"P-2-1",          1528,       144.140,       22.3003,            0.,NA,NA,"",   1.27318E+06,   1.23946E+06,   1.23946E+06
C:/temp/Job-2.odb,Step-1,Increment      1: Step Time =    1.000,"P-2-1",          1529,       139.994,       22.9319,            0.,NA,NA,"",   1.29468E+06,   1.26792E+06,   1.26792E+06
C:/temp/Job-2.odb,Step-1,Increment      1: Step Time =    1.000,"P-2-1",          1530,       16.6310,       71.5323,            0.,NA,NA,"",   499.621E+03,   541.400E+03,   541.400E+03
C:/temp/Job-2.odb,Step-1,Increment      1: Step Time =    1.000,"P-2-1",          1531,       107.030,       170.275,            0.,NA,NA,"",   1.41774E+06,   1.52956E+06,   1.52956E+06
C:/temp/Job-2.odb,Step-1,Increment      1: Step Time =    1.000,"P-2-1",          1532,       41.1036,       139.644,            0.,NA,NA,"",   1.04091E+06,   937.612E+03,   937.612E+03
C:/temp/Job-2.odb,Step-1,Increment      1: Step Time =    1.000,"P-2-1",          1533,       18.5937,       84.6626,            0.,NA,NA,"",   270.924E+03,   306.607E+03,   306.607E+03
C:/temp/Job-2.odb,Step-1,Increment      1: Step Time =    1.000,"P-2-1",          1534,       41.1603,       170.135,            0.,NA,NA,"",   1.57857E+06,   1.51722E+06,   1.51722E+06
C:/temp/Job-2.odb,Step-1,Increment      1: Step Time =    1.000,"P-2-1",          1535,       26.4277,       48.1081,            0.,NA,NA,"",   1.12136E+06,   1.11895E+06,   1.11895E+06
C:/temp/Job-2.odb,Step-1,Increment      1: Step Time =    1.000,"P-2-1",          1536,       60.3188,       154.097,            0.,NA,NA,"",   1.68998E+06,   1.55282E+06,   1.55282E+06
C:/temp/Job-2.odb,Step-1,Increment      1: Step Time =    1.000,"P-2-1",          1537,       172.269,       126.062,            0.,NA,NA,"",   1.16257E+06,   1.11801E+06,   1.11801E+06
C:/temp/Job-2.odb,Step-1,Increment      1: Step Time =    1.000,"P-2-1",          1538,       30.2541,       92.8375,            0.,NA,NA,"",   135.228E+03,   142.103E+03,   142.103E+03
C:/temp/Job-2.odb,Step-1,Increment      1: Step Time =    1.000,"P-2-1",          1539,       19.5433,       162.822,            0.,NA,NA,"",   1.25646E+06,   1.29658E+06,   1.29658E+06
C:/temp/Job-2.odb,Step-1,Increment      1: Step Time =    1.000,"P-2-1",          1540,       62.2434,       177.917,            0.,NA,NA,"",   1.61526E+06,   1.55328E+06,   1.55328E+06
C:/temp/Job-2.odb,Step-1,Increment      1: Step Time =    1.000,"P-2-1",          1541,       55.5466,       175.261,            0.,NA,NA,"",   1.64756E+06,   1.57261E+06,   1.57261E+06
C:/temp/Job-2.odb,Step-1,Increment      1: Step Time =    1.000,"P-2-1",          1542,       81.2882,       174.667,            0.,NA,NA,"",   1.55886E+06,   1.55461E+06,   1.55461E+06
C:/temp/Job-2.odb,Step-1,Increment      1: Step Time =    1.000,"P-2-1",          1543,       17.5530,       139.604,            0.,NA,NA,"",   740.454E+03,   783.850E+03,   783.850E+03
C:/temp/Job-2.odb,Step-1,Increment      1: Step Time =    1.000,"P-2-1",          1544,       36.7232,       135.941,            0.,NA,NA,"",   872.670E+03,   801.697E+03,   801.697E+03
C:/temp/Job-2.odb,Step-1,Increment      1: Step Time =    1.000,"P-2-1",          1545,       177.051,       133.226,            0.,NA,NA,"",   1.19651E+06,   1.20091E+06,   1.20091E+06
C:/temp/Job-2.odb,Step-1,Increment      1: Step Time =    1.000,"P-2-1",          1546,       49.3357,       55.4728,            0.,NA,NA,"",   1.31865E+06,   1.17117E+06,   1.17117E+06
C:/temp/Job-2.odb,Step-1,Increment      1: Step Time =    1.000,"P-2-1",          1547,       71.7577,       43.9954,            0.,NA,NA,"",   1.85018E+06,   1.78032E+06,   1.78032E+06
C:/temp/Job-2.odb,Step-1,Increment      1: Step Time =    1.000,"P-2-1",          1548,       63.6105,       46.7747,            0.,NA,NA,"",   1.74667E+06,   1.61933E+06,   1.61933E+06
C:/temp/Job-2.odb,Step-1,Increment      1: Step Time =    1.000,"P-2-1",          1549,       160.233,       75.9614,            0.,NA,NA,"",   1.28279E+06,   1.03233E+06,   1.03233E+06
C:/temp/Job-2.odb,Step-1,Increment      1: Step Time =    1.000,"P-2-1",          1550,       166.539,       45.2537,            0.,NA,NA,"",   1.41131E+06,   1.32548E+06,   1.32548E+06
C:/temp/Job-2.odb,Step-1,Increment      1: Step Time =    1.000,"P-2-1",          1551,       149.026,       151.505,            0.,NA,NA,"",   1.71846E+06,   1.56168E+06,   1.56168E+06
C:/temp/Job-2.odb,Step-1,Increment      1: Step Time =    1.000,"P-2-1",          1552,       106.368,       29.4871,            0.,NA,NA,"",   1.41715E+06,   1.53094E+06,   1.53094E+06
C:/temp/Job-2.odb,Step-1,Increment      1: Step Time =    1.000,"P-2-1",          1553,       166.756,       95.0338,            0.,NA,NA,"",   475.685E+03,   500.658E+03,   500.658E+03
C:/temp/Job-2.odb,Step-1,Increment      1: Step Time =    1.000,"P-2-1",          1554,       167.354,       90.7344,            0.,NA,NA,"",   668.136E+03,   658.032E+03,   658.032E+03
C:/temp/Job-2.odb,Step-1,Increment      1: Step Time =    1.000,"P-2-1",          1555,       158.885,       82.5729,            0.,NA,NA,"",   1.04025E+06,   774.584E+03,   774.584E+03
C:/temp/Job-2.odb,Step-1,Increment      1: Step Time =    1.000,"P-2-1",          1556,       160.883,       58.8732,            0.,NA,NA,"",   1.56787E+06,   1.38018E+06,   1.38018E+06
C:/temp/Job-2.odb,Step-1,Increment      1: Step Time =    1.000,"P-2-1",          1557,       31.4859,       48.8557,            0.,NA,NA,"",   1.17637E+06,   1.14251E+06,   1.14251E+06
C:/temp/Job-2.odb,Step-1,Increment      1: Step Time =    1.000,"P-2-1",          1558,       133.288,       177.264,            0.,NA,NA,"",   1.27547E+06,   1.27070E+06,   1.27070E+06
C:/temp/Job-2.odb,Step-1,Increment      1: Step Time =    1.000,"P-2-1",          1559,       162.508,       44.7226,            0.,NA,NA,"",   1.46618E+06,   1.36529E+06,   1.36529E+06
C:/temp/Job-2.odb,Step-1,Increment      1: Step Time =    1.000,"P-2-1",          1560,       136.726,       176.776,            0.,NA,NA,"",   1.29547E+06,   1.27968E+06,   1.27968E+06
C:/temp/Job-2.odb,Step-1,Increment      1: Step Time =    1.000,"P-2-1",          1561,       177.339,       51.1482,            0.,NA,NA,"",   1.21781E+06,   1.21167E+06,   1.21167E+06
C:/temp/Job-2.odb,Step-1,Increment      1: Step Time =    1.000,"P-2-1",          1562,       172.598,       152.653,            0.,NA,NA,"",   1.29399E+06,   1.25267E+06,   1.25267E+06
C:/temp/Job-2.odb,Step-1,Increment      1: Step Time =    1.000,"P-2-1",          1563,       139.300,       47.3259,            0.,NA,NA,"",   1.80765E+06,   1.71054E+06,   1.71054E+06
C:/temp/Job-2.odb,Step-1,Increment      1: Step Time =    1.000,"P-2-1",          1564,       22.3035,       65.2943,            0.,NA,NA,"",   668.311E+03,   689.528E+03,   689.528E+03
C:/temp/Job-2.odb,Step-1,Increment      1: Step Time =    1.000,"P-2-1",          1565,       21.2433,       69.0785,            0.,NA,NA,"",   570.372E+03,   599.534E+03,   599.534E+03
C:/temp/Job-2.odb,Step-1,Increment      1: Step Time =    1.000,"P-2-1",          1566,       38.8041,       166.136,            0.,NA,NA,"",   1.52310E+06,   1.46241E+06,   1.46241E+06
C:/temp/Job-2.odb,Step-1,Increment      1: Step Time =    1.000,"P-2-1",          1567,       94.5773,       170.740,            0.,NA,NA,"",   1.50298E+06,   1.58491E+06,   1.58491E+06
C:/temp/Job-2.odb,Step-1,Increment      1: Step Time =    1.000,"P-2-1",          1568,       30.6554,       22.9029,            0.,NA,NA,"",   1.58431E+06,   1.57062E+06,   1.57062E+06
C:/temp/Job-2.odb,Step-1,Increment      1: Step Time =    1.000,"P-2-1",          1569,       22.7568,       79.1361,            0.,NA,NA,"",   368.506E+03,   395.205E+03,   395.205E+03
C:/temp/Job-2.odb,Step-1,Increment      1: Step Time =    1.000,"P-2-1",          1570,       145.718,       175.138,            0.,NA,NA,"",   1.32791E+06,   1.28650E+06,   1.28650E+06
C:/temp/Job-2.odb,Step-1,Increment      1: Step Time =    1.000,"P-2-1",          1571,       161.839,       64.1175,            0.,NA,NA,"",   1.51395E+06,   1.30921E+06,   1.30921E+06
C:/temp/Job-2.odb,Step-1,Increment      1: Step Time =    1.000,"P-2-1",          1572,       167.589,       134.631,            0.,NA,NA,"",   1.38894E+06,   1.26199E+06,   1.26199E+06
C:/temp/Job-2.odb,Step-1,Increment      1: Step Time =    1.000,"P-2-1",          1573,       153.025,       29.3114,            0.,NA,NA,"",   1.35718E+06,   1.29939E+06,   1.29939E+06
C:/temp/Job-2.odb,Step-1,Increment      1: Step Time =    1.000,"P-2-1",          1574,       144.584,       26.5818,            0.,NA,NA,"",   1.35785E+06,   1.31289E+06,   1.31289E+06
C:/temp/Job-2.odb,Step-1,Increment      1: Step Time =    1.000,"P-2-1",          1575,       115.331,       170.812,            0.,NA,NA,"",   1.39713E+06,   1.48749E+06,   1.48749E+06
C:/temp/Job-2.odb,Step-1,Increment      1: Step Time =    1.000,"P-2-1",          1576,       80.7437,       170.278,            0.,NA,NA,"",   1.65506E+06,   1.64857E+06,   1.64857E+06
C:/temp/Job-2.odb,Step-1,Increment      1: Step Time =    1.000,"P-2-1",          1577,       113.675,       174.865,            0.,NA,NA,"",   1.27814E+06,   1.35366E+06,   1.35366E+06
C:/temp/Job-2.odb,Step-1,Increment      1: Step Time =    1.000,"P-2-1",          1578,       27.7557,       102.967,            0.,NA,NA,"",   109.553E+03,   122.112E+03,   122.112E+03
C:/temp/Job-2.odb,Step-1,Increment      1: Step Time =    1.000,"P-2-1",          1579,       20.5326,       115.035,            0.,NA,NA,"",   267.672E+03,   301.500E+03,   301.500E+03
C:/temp/Job-2.odb,Step-1,Increment      1: Step Time =    1.000,"P-2-1",          1580,       23.0337,       117.211,            0.,NA,NA,"",   300.019E+03,   329.740E+03,   329.740E+03
C:/temp/Job-2.odb,Step-1,Increment      1: Step Time =    1.000,"P-2-1",          1581,       91.3862,       174.723,            0.,NA,NA,"",   1.43762E+06,   1.48533E+06,   1.48533E+06
C:/temp/Job-2.odb,Step-1,Increment      1: Step Time =    1.000,"P-2-1",          1582,       176.143,       113.270,            0.,NA,NA,"",   814.532E+03,   897.364E+03,   897.364E+03
C:/temp/Job-2.odb,Step-1,Increment      1: Step Time =    1.000,"P-2-1",          1583,       38.6717,       29.8593,            0.,NA,NA,"",   1.55932E+06,   1.50565E+06,   1.50565E+06
C:/temp/Job-2.odb,Step-1,Increment      1: Step Time =    1.000,"P-2-1",          1584,       47.6577,       154.118,            0.,NA,NA,"",   1.50010E+06,   1.38006E+06,   1.38006E+06
C:/temp/Job-2.odb,Step-1,Increment      1: Step Time =    1.000,"P-2-1",          1585,       31.2456,       26.4596,            0.,NA,NA,"",   1.54646E+06,   1.52669E+06,   1.52669E+06
C:/temp/Job-2.odb,Step-1,Increment      1: Step Time =    1.000,"P-2-1",          1586,       169.018,       149.279,            0.,NA,NA,"",   1.38581E+06,   1.30731E+06,   1.30731E+06
C:/temp/Job-2.odb,Step-1,Increment      1: Step Time =    1.000,"P-2-1",          1587,       155.614,       39.9474,            0.,NA,NA,"",   1.51520E+06,   1.41321E+06,   1.41321E+06
C:/temp/Job-2.odb,Step-1,Increment      1: Step Time =    1.000,"P-2-1",          1588,       33.3868,       23.8855,            0.,NA,NA,"",   1.58501E+06,   1.55927E+06,   1.55927E+06
C:/temp/Job-2.odb,Step-1,Increment      1: Step Time =    1.000,"P-2-1",          1589,       51.0522,       40.9868,            0.,NA,NA,"",   1.60600E+06,   1.48414E+06,   1.48414E+06
C:/temp/Job-2.odb,Step-1,Increment      1: Step Time =    1.000,"P-2-1",          1590,       32.3876,       139.118,            0.,NA,NA,"",   897.971E+03,   857.438E+03,   857.438E+03
C:/temp/Job-2.odb,Step-1,Increment      1: Step Time =    1.000,"P-2-1",          1591,       162.555,       147.596,            0.,NA,NA,"",   1.52569E+06,   1.38570E+06,   1.38570E+06
C:/temp/Job-2.odb,Step-1,Increment      1: Step Time =    1.000,"P-2-1",          1592,       155.579,       50.0088,            0.,NA,NA,"",   1.63480E+06,   1.47523E+06,   1.47523E+06
C:/temp/Job-2.odb,Step-1,Increment      1: Step Time =    1.000,"P-2-1",          1593,       45.3292,       156.882,            0.,NA,NA,"",   1.50535E+06,   1.39863E+06,   1.39863E+06
C:/temp/Job-2.odb,Step-1,Increment      1: Step Time =    1.000,"P-2-1",          1594,       165.445,       148.876,            0.,NA,NA,"",   1.45718E+06,   1.34781E+06,   1.34781E+06
C:/temp/Job-2.odb,Step-1,Increment      1: Step Time =    1.000,"P-2-1",          1595,       90.3479,       172.078,            0.,NA,NA,"",   1.51157E+06,   1.56319E+06,   1.56319E+06
C:/temp/Job-2.odb,Step-1,Increment      1: Step Time =    1.000,"P-2-1",          1596,       35.6787,       147.984,            0.,NA,NA,"",   1.17153E+06,   1.10785E+06,   1.10785E+06
C:/temp/Job-2.odb,Step-1,Increment      1: Step Time =    1.000,"P-2-1",          1597,       21.4870,       74.6696,            0.,NA,NA,"",   452.749E+03,   482.207E+03,   482.207E+03
C:/temp/Job-2.odb,Step-1,Increment      1: Step Time =    1.000,"P-2-1",          1598,       41.3529,       160.300,            0.,NA,NA,"",   1.48750E+06,   1.40489E+06,   1.40489E+06
C:/temp/Job-2.odb,Step-1,Increment      1: Step Time =    1.000,"P-2-1",          1599,       162.570,       68.4789,            0.,NA,NA,"",   1.43851E+06,   1.22917E+06,   1.22917E+06
C:/temp/Job-2.odb,Step-1,Increment      1: Step Time =    1.000,"P-2-1",          1600,       23.3355,       133.909,            0.,NA,NA,"",   658.635E+03,   677.730E+03,   677.730E+03
C:/temp/Job-2.odb,Step-1,Increment      1: Step Time =    1.000,"P-2-1",          1601,       150.132,       33.0028,            0.,NA,NA,"",   1.45441E+06,   1.38271E+06,   1.38271E+06
C:/temp/Job-2.odb,Step-1,Increment      1: Step Time =    1.000,"P-2-1",          1602,       71.8958,       32.4639,            0.,NA,NA,"",   1.76533E+06,   1.70136E+06,   1.70136E+06
C:/temp/Job-2.odb,Step-1,Increment      1: Step Time =    1.000,"P-2-1",          1603,       27.0341,       156.482,            0.,NA,NA,"",   1.23153E+06,   1.22260E+06,   1.22260E+06
C:/temp/Job-2.odb,Step-1,Increment      1: Step Time =    1.000,"P-2-1",          1604,       39.7578,       33.4404,            0.,NA,NA,"",   1.53430E+06,   1.46942E+06,   1.46942E+06
C:/temp/Job-2.odb,Step-1,Increment      1: Step Time =    1.000,"P-2-1",          1605,       48.0976,       35.6537,            0.,NA,NA,"",   1.61127E+06,   1.50966E+06,   1.50966E+06
C:/temp/Job-2.odb,Step-1,Increment      1: Step Time =    1.000,"P-2-1",          1606,       164.676,       66.3929,            0.,NA,NA,"",   1.42596E+06,   1.25398E+06,   1.25398E+06
C:/temp/Job-2.odb,Step-1,Increment      1: Step Time =    1.000,"P-2-1",          1607,       171.283,       62.0566,            0.,NA,NA,"",   1.33774E+06,   1.26111E+06,   1.26111E+06
C:/temp/Job-2.odb,Step-1,Increment      1: Step Time =    1.000,"P-2-1",          1608,       170.466,       67.5471,            0.,NA,NA,"",   1.30202E+06,   1.21604E+06,   1.21604E+06
C:/temp/Job-2.odb,Step-1,Increment      1: Step Time =    1.000,"P-2-1",          1609,       52.0280,       33.0466,            0.,NA,NA,"",   1.66069E+06,   1.55897E+06,   1.55897E+06
C:/temp/Job-2.odb,Step-1,Increment      1: Step Time =    1.000,"P-2-1",          1610,       39.1795,       152.154,            0.,NA,NA,"",   1.32348E+06,   1.24132E+06,   1.24132E+06
C:/temp/Job-2.odb,Step-1,Increment      1: Step Time =    1.000,"P-2-1",          1611,       166.746,       68.6456,            0.,NA,NA,"",   1.35161E+06,   1.21222E+06,   1.21222E+06
