ODB Name,Step,Frame,Part Instance Name,    Node Label,X,Y,Z,Section Name,Material Name,Section Point,       S-Mises,S-Max. In-Plane Principal (Abs),S-Max. Principal (Abs)
C:/temp/Job-7.odb,Step-1,Increment      1: Step Time =    1.000,"P-7-1",             1,       90.1615,       126.215,            0.,NA,NA,"",   2.34412E+06,   2.39529E+06,   2.39529E+06
C:/temp/Job-7.odb,Step-1,Increment      1: Step Time =    1.000,"P-7-1",             2,       81.5777,       121.086,            0.,NA,NA,"",   1.19664E+06,   1.20421E+06,   1.20421E+06
C:/temp/Job-7.odb,Step-1,Increment      1: Step Time =    1.000,"P-7-1",             3,       73.3704,       108.652,            0.,NA,NA,"",   526.135E+03,  -510.844E+03,  -510.844E+03
C:/temp/Job-7.odb,Step-1,Increment      1: Step Time =    1.000,"P-7-1",             4,       72.0282,       98.7438,            0.,NA,NA,"",   702.739E+03,  -713.247E+03,  -713.247E+03
C:/temp/Job-7.odb,Step-1,Increment      1: Step Time =    1.000,"P-7-1",             5,       74.2532,       88.9953,            0.,NA,NA,"",   389.081E+03,  -125.529E+03,  -125.529E+03
C:/temp/Job-7.odb,Step-1,Increment      1: Step Time =    1.000,"P-7-1",             6,       79.7617,       80.6502,            0.,NA,NA,"",   879.260E+03,   876.787E+03,   876.787E+03
C:/temp/Job-7.odb,Step-1,Increment      1: Step Time =    1.000,"P-7-1",             7,       87.8513,       74.7729,            0.,NA,NA,"",   2.13074E+06,   2.17798E+06,   2.17798E+06
C:/temp/Job-7.odb,Step-1,Increment      1: Step Time =    1.000,"P-7-1",             8,       97.4901,       72.1127,            0.,NA,NA,"",   2.75390E+06,   2.84253E+06,   2.84253E+06
C:/temp/Job-7.odb,Step-1,Increment      1: Step Time =    1.000,"P-7-1",             9,       112.149,       74.7729,            0.,NA,NA,"",   2.24220E+06,   2.29671E+06,   2.29671E+06
C:/temp/Job-7.odb,Step-1,Increment      1: Step Time =    1.000,"P-7-1",            10,       120.238,       80.6502,            0.,NA,NA,"",   1.13145E+06,   1.10582E+06,   1.10582E+06
C:/temp/Job-7.odb,Step-1,Increment      1: Step Time =    1.000,"P-7-1",            11,       125.747,       88.9953,            0.,NA,NA,"",   493.310E+03,  -443.067E+03,  -443.067E+03
C:/temp/Job-7.odb,Step-1,Increment      1: Step Time =    1.000,"P-7-1",            12,       127.972,       98.7438,            0.,NA,NA,"",   818.668E+03,  -834.693E+03,  -834.693E+03
C:/temp/Job-7.odb,Step-1,Increment      1: Step Time =    1.000,"P-7-1",            13,       126.630,       108.652,            0.,NA,NA,"",   622.575E+03,  -593.194E+03,  -593.194E+03
C:/temp/Job-7.odb,Step-1,Increment      1: Step Time =    1.000,"P-7-1",            14,       118.422,       121.086,            0.,NA,NA,"",   1.36918E+06,   1.38603E+06,   1.38603E+06
C:/temp/Job-7.odb,Step-1,Increment      1: Step Time =    1.000,"P-7-1",            15,       109.838,       126.215,            0.,NA,NA,"",   2.38803E+06,   2.46045E+06,   2.46045E+06
C:/temp/Job-7.odb,Step-1,Increment      1: Step Time =    1.000,"P-7-1",            16,          100.,          128.,            0.,NA,NA,"",   2.88723E+06,   2.96078E+06,   2.96078E+06
C:/temp/Job-7.odb,Step-1,Increment      1: Step Time =    1.000,"P-7-1",            17,          190.,            0.,            0.,NA,NA,"",   998.611E+03,   998.723E+03,   998.723E+03
C:/temp/Job-7.odb,Step-1,Increment      1: Step Time =    1.000,"P-7-1",            18,          180.,            0.,            0.,NA,NA,"",   999.190E+03,   999.271E+03,   999.271E+03
C:/temp/Job-7.odb,Step-1,Increment      1: Step Time =    1.000,"P-7-1",            19,          170.,            0.,            0.,NA,NA,"",   1.00110E+06,   1.00079E+06,   1.00079E+06
C:/temp/Job-7.odb,Step-1,Increment      1: Step Time =    1.000,"P-7-1",            20,          160.,            0.,            0.,NA,NA,"",   996.135E+03,   995.747E+03,   995.747E+03
C:/temp/Job-7.odb,Step-1,Increment      1: Step Time =    1.000,"P-7-1",            21,          150.,            0.,            0.,NA,NA,"",    977.23E+03,   976.821E+03,   976.821E+03
C:/temp/Job-7.odb,Step-1,Increment      1: Step Time =    1.000,"P-7-1",            22,          140.,            0.,            0.,NA,NA,"",   940.606E+03,   940.184E+03,   940.184E+03
C:/temp/Job-7.odb,Step-1,Increment      1: Step Time =    1.000,"P-7-1",            23,          130.,            0.,            0.,NA,NA,"",   893.814E+03,   893.595E+03,   893.595E+03
C:/temp/Job-7.odb,Step-1,Increment      1: Step Time =    1.000,"P-7-1",            24,          120.,            0.,            0.,NA,NA,"",   847.863E+03,   848.255E+03,   848.255E+03
C:/temp/Job-7.odb,Step-1,Increment      1: Step Time =    1.000,"P-7-1",            25,          110.,            0.,            0.,NA,NA,"",   818.758E+03,   819.799E+03,   819.799E+03
C:/temp/Job-7.odb,Step-1,Increment      1: Step Time =    1.000,"P-7-1",            26,          100.,            0.,            0.,NA,NA,"",   821.339E+03,   822.576E+03,   822.576E+03
C:/temp/Job-7.odb,Step-1,Increment      1: Step Time =    1.000,"P-7-1",            27,           90.,            0.,            0.,NA,NA,"",   861.191E+03,   861.959E+03,   861.959E+03
C:/temp/Job-7.odb,Step-1,Increment      1: Step Time =    1.000,"P-7-1",            28,           80.,            0.,            0.,NA,NA,"",   931.644E+03,   931.735E+03,   931.735E+03
C:/temp/Job-7.odb,Step-1,Increment      1: Step Time =    1.000,"P-7-1",            29,           70.,            0.,            0.,NA,NA,"",   1.01832E+06,   1.01818E+06,   1.01818E+06
C:/temp/Job-7.odb,Step-1,Increment      1: Step Time =    1.000,"P-7-1",            30,           60.,            0.,            0.,NA,NA,"",   1.10695E+06,   1.10706E+06,   1.10706E+06
C:/temp/Job-7.odb,Step-1,Increment      1: Step Time =    1.000,"P-7-1",            31,           50.,            0.,            0.,NA,NA,"",   1.18089E+06,   1.17881E+06,   1.17881E+06
C:/temp/Job-7.odb,Step-1,Increment      1: Step Time =    1.000,"P-7-1",            32,           40.,            0.,            0.,NA,NA,"",   1.23662E+06,   1.23616E+06,   1.23616E+06
C:/temp/Job-7.odb,Step-1,Increment      1: Step Time =    1.000,"P-7-1",            33,           30.,            0.,            0.,NA,NA,"",   1.28352E+06,   1.28367E+06,   1.28367E+06
C:/temp/Job-7.odb,Step-1,Increment      1: Step Time =    1.000,"P-7-1",            34,           20.,            0.,            0.,NA,NA,"",   1.34456E+06,   1.34508E+06,   1.34508E+06
C:/temp/Job-7.odb,Step-1,Increment      1: Step Time =    1.000,"P-7-1",            35,           10.,            0.,            0.,NA,NA,"",   1.48382E+06,   1.48638E+06,   1.48638E+06
C:/temp/Job-7.odb,Step-1,Increment      1: Step Time =    1.000,"P-7-1",            36,          200.,            0.,            0.,NA,NA,"",   999.860E+03,   999.721E+03,   999.721E+03
C:/temp/Job-7.odb,Step-1,Increment      1: Step Time =    1.000,"P-7-1",            37,            0.,            0.,            0.,NA,NA,"",   1.84419E+06,   1.93339E+06,   1.93339E+06
C:/temp/Job-7.odb,Step-1,Increment      1: Step Time =    1.000,"P-7-1",            38,          200.,          190.,            0.,NA,NA,"",   1.00096E+06,   1.00030E+06,   1.00030E+06
C:/temp/Job-7.odb,Step-1,Increment      1: Step Time =    1.000,"P-7-1",            39,          200.,          180.,            0.,NA,NA,"",   1.00021E+06,   1.00092E+06,   1.00092E+06
C:/temp/Job-7.odb,Step-1,Increment      1: Step Time =    1.000,"P-7-1",            40,          200.,          170.,            0.,NA,NA,"",   993.175E+03,   1.00168E+06,   1.00168E+06
C:/temp/Job-7.odb,Step-1,Increment      1: Step Time =    1.000,"P-7-1",            41,          200.,          160.,            0.,NA,NA,"",   975.944E+03,   1.00151E+06,   1.00151E+06
C:/temp/Job-7.odb,Step-1,Increment      1: Step Time =    1.000,"P-7-1",            42,          200.,          150.,            0.,NA,NA,"",   948.868E+03,   1.00123E+06,   1.00123E+06
C:/temp/Job-7.odb,Step-1,Increment      1: Step Time =    1.000,"P-7-1",            43,          200.,          140.,            0.,NA,NA,"",   916.839E+03,   1.00158E+06,   1.00158E+06
C:/temp/Job-7.odb,Step-1,Increment      1: Step Time =    1.000,"P-7-1",            44,          200.,          130.,            0.,NA,NA,"",   888.635E+03,   1.00110E+06,   1.00110E+06
C:/temp/Job-7.odb,Step-1,Increment      1: Step Time =    1.000,"P-7-1",            45,          200.,          120.,            0.,NA,NA,"",   870.603E+03,   999.362E+03,   999.362E+03
C:/temp/Job-7.odb,Step-1,Increment      1: Step Time =    1.000,"P-7-1",            46,          200.,          110.,            0.,NA,NA,"",   864.127E+03,   997.502E+03,   997.502E+03
C:/temp/Job-7.odb,Step-1,Increment      1: Step Time =    1.000,"P-7-1",            47,          200.,          100.,            0.,NA,NA,"",   862.984E+03,   996.406E+03,   996.406E+03
C:/temp/Job-7.odb,Step-1,Increment      1: Step Time =    1.000,"P-7-1",            48,          200.,           90.,            0.,NA,NA,"",   863.971E+03,   997.285E+03,   997.285E+03
C:/temp/Job-7.odb,Step-1,Increment      1: Step Time =    1.000,"P-7-1",            49,          200.,           80.,            0.,NA,NA,"",   870.825E+03,   999.323E+03,   999.323E+03
C:/temp/Job-7.odb,Step-1,Increment      1: Step Time =    1.000,"P-7-1",            50,          200.,           70.,            0.,NA,NA,"",   888.643E+03,   1.00075E+06,   1.00075E+06
C:/temp/Job-7.odb,Step-1,Increment      1: Step Time =    1.000,"P-7-1",            51,          200.,           60.,            0.,NA,NA,"",   917.644E+03,   1.00117E+06,   1.00117E+06
C:/temp/Job-7.odb,Step-1,Increment      1: Step Time =    1.000,"P-7-1",            52,          200.,           50.,            0.,NA,NA,"",   952.014E+03,   1.00382E+06,   1.00382E+06
C:/temp/Job-7.odb,Step-1,Increment      1: Step Time =    1.000,"P-7-1",            53,          200.,           40.,            0.,NA,NA,"",   976.860E+03,   1.00154E+06,   1.00154E+06
C:/temp/Job-7.odb,Step-1,Increment      1: Step Time =    1.000,"P-7-1",            54,          200.,           30.,            0.,NA,NA,"",   993.171E+03,   1.00099E+06,   1.00099E+06
C:/temp/Job-7.odb,Step-1,Increment      1: Step Time =    1.000,"P-7-1",            55,          200.,           20.,            0.,NA,NA,"",   1.00019E+06,   1.00062E+06,   1.00062E+06
C:/temp/Job-7.odb,Step-1,Increment      1: Step Time =    1.000,"P-7-1",            56,          200.,           10.,            0.,NA,NA,"",   1.00091E+06,   1.00021E+06,   1.00021E+06
C:/temp/Job-7.odb,Step-1,Increment      1: Step Time =    1.000,"P-7-1",            57,          200.,          200.,            0.,NA,NA,"",   999.846E+03,   999.699E+03,   999.699E+03
C:/temp/Job-7.odb,Step-1,Increment      1: Step Time =    1.000,"P-7-1",            58,           10.,          200.,            0.,NA,NA,"",   1.48200E+06,   1.48457E+06,   1.48457E+06
C:/temp/Job-7.odb,Step-1,Increment      1: Step Time =    1.000,"P-7-1",            59,           20.,          200.,            0.,NA,NA,"",   1.34366E+06,   1.34408E+06,   1.34408E+06
C:/temp/Job-7.odb,Step-1,Increment      1: Step Time =    1.000,"P-7-1",            60,           30.,          200.,            0.,NA,NA,"",   1.28293E+06,   1.28270E+06,   1.28270E+06
C:/temp/Job-7.odb,Step-1,Increment      1: Step Time =    1.000,"P-7-1",            61,           40.,          200.,            0.,NA,NA,"",   1.23487E+06,   1.23439E+06,   1.23439E+06
C:/temp/Job-7.odb,Step-1,Increment      1: Step Time =    1.000,"P-7-1",            62,           50.,          200.,            0.,NA,NA,"",   1.17795E+06,   1.17756E+06,   1.17756E+06
C:/temp/Job-7.odb,Step-1,Increment      1: Step Time =    1.000,"P-7-1",            63,           60.,          200.,            0.,NA,NA,"",   1.10410E+06,   1.10358E+06,   1.10358E+06
C:/temp/Job-7.odb,Step-1,Increment      1: Step Time =    1.000,"P-7-1",            64,           70.,          200.,            0.,NA,NA,"",   1.01812E+06,   1.01772E+06,   1.01772E+06
C:/temp/Job-7.odb,Step-1,Increment      1: Step Time =    1.000,"P-7-1",            65,           80.,          200.,            0.,NA,NA,"",   933.043E+03,   933.128E+03,   933.128E+03
C:/temp/Job-7.odb,Step-1,Increment      1: Step Time =    1.000,"P-7-1",            66,           90.,          200.,            0.,NA,NA,"",   863.085E+03,   863.917E+03,   863.917E+03
C:/temp/Job-7.odb,Step-1,Increment      1: Step Time =    1.000,"P-7-1",            67,          100.,          200.,            0.,NA,NA,"",   822.108E+03,   823.237E+03,   823.237E+03
C:/temp/Job-7.odb,Step-1,Increment      1: Step Time =    1.000,"P-7-1",            68,          110.,          200.,            0.,NA,NA,"",   819.697E+03,   820.728E+03,   820.728E+03
C:/temp/Job-7.odb,Step-1,Increment      1: Step Time =    1.000,"P-7-1",            69,          120.,          200.,            0.,NA,NA,"",   848.520E+03,   849.044E+03,   849.044E+03
C:/temp/Job-7.odb,Step-1,Increment      1: Step Time =    1.000,"P-7-1",            70,          130.,          200.,            0.,NA,NA,"",   895.919E+03,   895.772E+03,   895.772E+03
C:/temp/Job-7.odb,Step-1,Increment      1: Step Time =    1.000,"P-7-1",            71,          140.,          200.,            0.,NA,NA,"",   944.670E+03,   944.277E+03,   944.277E+03
C:/temp/Job-7.odb,Step-1,Increment      1: Step Time =    1.000,"P-7-1",            72,          150.,          200.,            0.,NA,NA,"",   979.110E+03,   978.288E+03,   978.288E+03
C:/temp/Job-7.odb,Step-1,Increment      1: Step Time =    1.000,"P-7-1",            73,          160.,          200.,            0.,NA,NA,"",   996.045E+03,   995.732E+03,   995.732E+03
C:/temp/Job-7.odb,Step-1,Increment      1: Step Time =    1.000,"P-7-1",            74,          170.,          200.,            0.,NA,NA,"",   1.00004E+06,   999.897E+03,   999.897E+03
C:/temp/Job-7.odb,Step-1,Increment      1: Step Time =    1.000,"P-7-1",            75,          180.,          200.,            0.,NA,NA,"",   998.310E+03,   998.362E+03,   998.362E+03
C:/temp/Job-7.odb,Step-1,Increment      1: Step Time =    1.000,"P-7-1",            76,          190.,          200.,            0.,NA,NA,"",   998.346E+03,   998.418E+03,   998.418E+03
C:/temp/Job-7.odb,Step-1,Increment      1: Step Time =    1.000,"P-7-1",            77,            0.,          200.,            0.,NA,NA,"",   1.84080E+06,   1.93078E+06,   1.93078E+06
C:/temp/Job-7.odb,Step-1,Increment      1: Step Time =    1.000,"P-7-1",            78,            0.,           10.,            0.,NA,NA,"",   1.33089E+06,   1.45334E+06,   1.45334E+06
C:/temp/Job-7.odb,Step-1,Increment      1: Step Time =    1.000,"P-7-1",            79,            0.,           20.,            0.,NA,NA,"",   1.13287E+06,   1.25534E+06,   1.25534E+06
C:/temp/Job-7.odb,Step-1,Increment      1: Step Time =    1.000,"P-7-1",            80,            0.,           30.,            0.,NA,NA,"",   1.01900E+06,   1.13716E+06,   1.13716E+06
C:/temp/Job-7.odb,Step-1,Increment      1: Step Time =    1.000,"P-7-1",            81,            0.,           40.,            0.,NA,NA,"",   930.727E+03,   1.04314E+06,   1.04314E+06
C:/temp/Job-7.odb,Step-1,Increment      1: Step Time =    1.000,"P-7-1",            82,            0.,           50.,            0.,NA,NA,"",   851.331E+03,   956.346E+03,   956.346E+03
C:/temp/Job-7.odb,Step-1,Increment      1: Step Time =    1.000,"P-7-1",            83,            0.,           60.,            0.,NA,NA,"",   773.653E+03,   870.451E+03,   870.451E+03
C:/temp/Job-7.odb,Step-1,Increment      1: Step Time =    1.000,"P-7-1",            84,            0.,           70.,            0.,NA,NA,"",   696.865E+03,   785.448E+03,   785.448E+03
C:/temp/Job-7.odb,Step-1,Increment      1: Step Time =    1.000,"P-7-1",            85,            0.,           80.,            0.,NA,NA,"",   627.418E+03,   709.077E+03,   709.077E+03
C:/temp/Job-7.odb,Step-1,Increment      1: Step Time =    1.000,"P-7-1",            86,            0.,           90.,            0.,NA,NA,"",   577.547E+03,   654.688E+03,   654.688E+03
C:/temp/Job-7.odb,Step-1,Increment      1: Step Time =    1.000,"P-7-1",            87,            0.,          100.,            0.,NA,NA,"",   559.595E+03,   635.216E+03,   635.216E+03
C:/temp/Job-7.odb,Step-1,Increment      1: Step Time =    1.000,"P-7-1",            88,            0.,          110.,            0.,NA,NA,"",   578.875E+03,   656.140E+03,   656.140E+03
C:/temp/Job-7.odb,Step-1,Increment      1: Step Time =    1.000,"P-7-1",            89,            0.,          120.,            0.,NA,NA,"",   627.616E+03,   709.358E+03,   709.358E+03
C:/temp/Job-7.odb,Step-1,Increment      1: Step Time =    1.000,"P-7-1",            90,            0.,          130.,            0.,NA,NA,"",   695.083E+03,   783.473E+03,   783.473E+03
C:/temp/Job-7.odb,Step-1,Increment      1: Step Time =    1.000,"P-7-1",            91,            0.,          140.,            0.,NA,NA,"",   775.480E+03,   870.835E+03,   870.835E+03
C:/temp/Job-7.odb,Step-1,Increment      1: Step Time =    1.000,"P-7-1",            92,            0.,          150.,            0.,NA,NA,"",   854.723E+03,   959.586E+03,   959.586E+03
C:/temp/Job-7.odb,Step-1,Increment      1: Step Time =    1.000,"P-7-1",            93,            0.,          160.,            0.,NA,NA,"",   930.918E+03,   1.04392E+06,   1.04392E+06
C:/temp/Job-7.odb,Step-1,Increment      1: Step Time =    1.000,"P-7-1",            94,            0.,          170.,            0.,NA,NA,"",   1.01798E+06,   1.13621E+06,   1.13621E+06
C:/temp/Job-7.odb,Step-1,Increment      1: Step Time =    1.000,"P-7-1",            95,            0.,          180.,            0.,NA,NA,"",   1.13224E+06,   1.25439E+06,   1.25439E+06
C:/temp/Job-7.odb,Step-1,Increment      1: Step Time =    1.000,"P-7-1",            96,            0.,          190.,            0.,NA,NA,"",   1.32911E+06,   1.45108E+06,   1.45108E+06
C:/temp/Job-7.odb,Step-1,Increment      1: Step Time =    1.000,"P-7-1",            97,       107.034,       62.1194,            0.,NA,NA,"",   1.72562E+06,   1.87800E+06,   1.87800E+06
C:/temp/Job-7.odb,Step-1,Increment      1: Step Time =    1.000,"P-7-1",            98,       190.775,       134.897,            0.,NA,NA,"",   933.549E+03,   1.01365E+06,   1.01365E+06
C:/temp/Job-7.odb,Step-1,Increment      1: Step Time =    1.000,"P-7-1",            99,       181.449,       134.788,            0.,NA,NA,"",   989.951E+03,   1.03528E+06,   1.03528E+06
C:/temp/Job-7.odb,Step-1,Increment      1: Step Time =    1.000,"P-7-1",           100,       169.378,       136.563,            0.,NA,NA,"",   1.09604E+06,   1.08134E+06,   1.08134E+06
C:/temp/Job-7.odb,Step-1,Increment      1: Step Time =    1.000,"P-7-1",           101,       158.818,       133.787,            0.,NA,NA,"",   1.18968E+06,   1.11579E+06,   1.11579E+06
C:/temp/Job-7.odb,Step-1,Increment      1: Step Time =    1.000,"P-7-1",           102,       149.020,       139.724,            0.,NA,NA,"",   1.34861E+06,   1.23532E+06,   1.23532E+06
C:/temp/Job-7.odb,Step-1,Increment      1: Step Time =    1.000,"P-7-1",           103,       135.134,       138.117,            0.,NA,NA,"",   1.51276E+06,   1.38444E+06,   1.38444E+06
C:/temp/Job-7.odb,Step-1,Increment      1: Step Time =    1.000,"P-7-1",           104,       128.046,       137.894,            0.,NA,NA,"",   1.56625E+06,   1.48512E+06,   1.48512E+06
C:/temp/Job-7.odb,Step-1,Increment      1: Step Time =    1.000,"P-7-1",           105,       120.621,       138.594,            0.,NA,NA,"",   1.58154E+06,   1.59352E+06,   1.59352E+06
C:/temp/Job-7.odb,Step-1,Increment      1: Step Time =    1.000,"P-7-1",           106,       105.822,       136.587,            0.,NA,NA,"",   1.90113E+06,   2.05313E+06,   2.05313E+06
C:/temp/Job-7.odb,Step-1,Increment      1: Step Time =    1.000,"P-7-1",           107,       93.0103,       134.898,            0.,NA,NA,"",   1.91164E+06,   2.04345E+06,   2.04345E+06
C:/temp/Job-7.odb,Step-1,Increment      1: Step Time =    1.000,"P-7-1",           108,       71.6107,       139.247,            0.,NA,NA,"",   1.47940E+06,   1.41218E+06,   1.41218E+06
C:/temp/Job-7.odb,Step-1,Increment      1: Step Time =    1.000,"P-7-1",           109,       60.1499,       140.250,            0.,NA,NA,"",   1.33072E+06,   1.24147E+06,   1.24147E+06
C:/temp/Job-7.odb,Step-1,Increment      1: Step Time =    1.000,"P-7-1",           110,       50.6819,       136.692,            0.,NA,NA,"",   1.15832E+06,   1.09160E+06,   1.09160E+06
C:/temp/Job-7.odb,Step-1,Increment      1: Step Time =    1.000,"P-7-1",           111,       41.7493,       139.145,            0.,NA,NA,"",   1.06035E+06,   1.03910E+06,   1.03910E+06
C:/temp/Job-7.odb,Step-1,Increment      1: Step Time =    1.000,"P-7-1",           112,       32.2577,       135.727,            0.,NA,NA,"",   905.111E+03,   930.516E+03,   930.516E+03
C:/temp/Job-7.odb,Step-1,Increment      1: Step Time =    1.000,"P-7-1",           113,       21.2167,       133.737,            0.,NA,NA,"",   797.194E+03,   860.314E+03,   860.314E+03
C:/temp/Job-7.odb,Step-1,Increment      1: Step Time =    1.000,"P-7-1",           114,       9.98734,       133.450,            0.,NA,NA,"",   744.246E+03,   827.683E+03,   827.683E+03
C:/temp/Job-7.odb,Step-1,Increment      1: Step Time =    1.000,"P-7-1",           115,       9.46331,       124.215,            0.,NA,NA,"",   660.676E+03,   742.427E+03,   742.427E+03
C:/temp/Job-7.odb,Step-1,Increment      1: Step Time =    1.000,"P-7-1",           116,       19.1854,       123.943,            0.,NA,NA,"",   678.625E+03,   750.704E+03,   750.704E+03
C:/temp/Job-7.odb,Step-1,Increment      1: Step Time =    1.000,"P-7-1",           117,       33.8203,       125.197,            0.,NA,NA,"",   753.544E+03,   787.746E+03,   787.746E+03
C:/temp/Job-7.odb,Step-1,Increment      1: Step Time =    1.000,"P-7-1",           118,       45.6164,       127.670,            0.,NA,NA,"",   912.747E+03,   881.109E+03,   881.109E+03
C:/temp/Job-7.odb,Step-1,Increment      1: Step Time =    1.000,"P-7-1",           119,       51.9236,       125.678,            0.,NA,NA,"",   971.812E+03,   898.897E+03,   898.897E+03
C:/temp/Job-7.odb,Step-1,Increment      1: Step Time =    1.000,"P-7-1",           120,       59.2880,       126.148,            0.,NA,NA,"",   1.10053E+06,   973.069E+03,   973.069E+03
C:/temp/Job-7.odb,Step-1,Increment      1: Step Time =    1.000,"P-7-1",           121,       69.8781,       126.959,            0.,NA,NA,"",   1.27402E+06,   1.14136E+06,   1.14136E+06
C:/temp/Job-7.odb,Step-1,Increment      1: Step Time =    1.000,"P-7-1",           122,       124.509,       127.152,            0.,NA,NA,"",   1.51674E+06,   1.43094E+06,   1.43094E+06
C:/temp/Job-7.odb,Step-1,Increment      1: Step Time =    1.000,"P-7-1",           123,       139.197,       128.403,            0.,NA,NA,"",   1.41258E+06,   1.21778E+06,   1.21778E+06
C:/temp/Job-7.odb,Step-1,Increment      1: Step Time =    1.000,"P-7-1",           124,       147.746,       126.660,            0.,NA,NA,"",   1.24007E+06,   1.08922E+06,   1.08922E+06
C:/temp/Job-7.odb,Step-1,Increment      1: Step Time =    1.000,"P-7-1",           125,       158.024,       124.625,            0.,NA,NA,"",   1.07638E+06,   1.00906E+06,   1.00906E+06
C:/temp/Job-7.odb,Step-1,Increment      1: Step Time =    1.000,"P-7-1",           126,       168.337,       126.766,            0.,NA,NA,"",   1.03028E+06,   1.02237E+06,   1.02237E+06
C:/temp/Job-7.odb,Step-1,Increment      1: Step Time =    1.000,"P-7-1",           127,       181.364,       125.154,            0.,NA,NA,"",   941.537E+03,   1.00579E+06,   1.00579E+06
C:/temp/Job-7.odb,Step-1,Increment      1: Step Time =    1.000,"P-7-1",           128,       190.478,       125.059,            0.,NA,NA,"",   902.674E+03,   1.00380E+06,   1.00380E+06
C:/temp/Job-7.odb,Step-1,Increment      1: Step Time =    1.000,"P-7-1",           129,       138.464,       116.855,            0.,NA,NA,"",   1.03968E+06,   794.934E+03,   794.934E+03
C:/temp/Job-7.odb,Step-1,Increment      1: Step Time =    1.000,"P-7-1",           130,       147.485,       114.708,            0.,NA,NA,"",   910.732E+03,   778.813E+03,   778.813E+03
C:/temp/Job-7.odb,Step-1,Increment      1: Step Time =    1.000,"P-7-1",           131,       155.976,       117.362,            0.,NA,NA,"",   932.857E+03,   873.696E+03,   873.696E+03
C:/temp/Job-7.odb,Step-1,Increment      1: Step Time =    1.000,"P-7-1",           132,       170.975,       118.073,            0.,NA,NA,"",   907.284E+03,   941.128E+03,   941.128E+03
C:/temp/Job-7.odb,Step-1,Increment      1: Step Time =    1.000,"P-7-1",           133,       180.640,       115.449,            0.,NA,NA,"",   874.129E+03,   955.683E+03,   955.683E+03
C:/temp/Job-7.odb,Step-1,Increment      1: Step Time =    1.000,"P-7-1",           134,       190.191,       115.083,            0.,NA,NA,"",   871.810E+03,   987.075E+03,   987.075E+03
C:/temp/Job-7.odb,Step-1,Increment      1: Step Time =    1.000,"P-7-1",           135,       137.061,       109.123,            0.,NA,NA,"",   653.213E+03,  -25.2260E+03,  -25.2260E+03
C:/temp/Job-7.odb,Step-1,Increment      1: Step Time =    1.000,"P-7-1",           136,       146.437,       105.758,            0.,NA,NA,"",   525.669E+03,   452.770E+03,   452.770E+03
C:/temp/Job-7.odb,Step-1,Increment      1: Step Time =    1.000,"P-7-1",           137,       160.687,       109.144,            0.,NA,NA,"",   731.984E+03,   747.772E+03,   747.772E+03
C:/temp/Job-7.odb,Step-1,Increment      1: Step Time =    1.000,"P-7-1",           138,       168.947,       106.696,            0.,NA,NA,"",   756.770E+03,   812.530E+03,   812.530E+03
C:/temp/Job-7.odb,Step-1,Increment      1: Step Time =    1.000,"P-7-1",           139,       179.914,       105.094,            0.,NA,NA,"",   818.027E+03,   910.421E+03,   910.421E+03
C:/temp/Job-7.odb,Step-1,Increment      1: Step Time =    1.000,"P-7-1",           140,       189.993,       105.095,            0.,NA,NA,"",   852.604E+03,   973.744E+03,   973.744E+03
C:/temp/Job-7.odb,Step-1,Increment      1: Step Time =    1.000,"P-7-1",           141,       138.669,       93.4011,            0.,NA,NA,"",   527.379E+03,   22.3172E+03,   22.3172E+03
C:/temp/Job-7.odb,Step-1,Increment      1: Step Time =    1.000,"P-7-1",           142,       145.602,       95.0282,            0.,NA,NA,"",   486.983E+03,   412.338E+03,   412.338E+03
C:/temp/Job-7.odb,Step-1,Increment      1: Step Time =    1.000,"P-7-1",           143,       158.624,       94.9202,            0.,NA,NA,"",   637.754E+03,   662.115E+03,   662.115E+03
C:/temp/Job-7.odb,Step-1,Increment      1: Step Time =    1.000,"P-7-1",           144,       169.128,       94.9795,            0.,NA,NA,"",   745.737E+03,   804.809E+03,   804.809E+03
C:/temp/Job-7.odb,Step-1,Increment      1: Step Time =    1.000,"P-7-1",           145,       180.670,       94.7970,            0.,NA,NA,"",   821.585E+03,   915.737E+03,   915.737E+03
C:/temp/Job-7.odb,Step-1,Increment      1: Step Time =    1.000,"P-7-1",           146,       189.988,       94.9257,            0.,NA,NA,"",   851.444E+03,   972.473E+03,   972.473E+03
C:/temp/Job-7.odb,Step-1,Increment      1: Step Time =    1.000,"P-7-1",           147,       139.178,       84.8440,            0.,NA,NA,"",   988.301E+03,   745.180E+03,   745.180E+03
C:/temp/Job-7.odb,Step-1,Increment      1: Step Time =    1.000,"P-7-1",           148,       147.219,       79.9532,            0.,NA,NA,"",   1.07522E+06,   925.098E+03,   925.098E+03
C:/temp/Job-7.odb,Step-1,Increment      1: Step Time =    1.000,"P-7-1",           149,       158.540,       85.9933,            0.,NA,NA,"",   841.561E+03,   818.678E+03,   818.678E+03
C:/temp/Job-7.odb,Step-1,Increment      1: Step Time =    1.000,"P-7-1",           150,       169.955,       88.2506,            0.,NA,NA,"",   820.242E+03,   868.624E+03,   868.624E+03
C:/temp/Job-7.odb,Step-1,Increment      1: Step Time =    1.000,"P-7-1",           151,       179.725,       84.7064,            0.,NA,NA,"",    875.21E+03,   953.533E+03,   953.533E+03
C:/temp/Job-7.odb,Step-1,Increment      1: Step Time =    1.000,"P-7-1",           152,       189.891,       84.7782,            0.,NA,NA,"",   873.734E+03,   987.760E+03,   987.760E+03
C:/temp/Job-7.odb,Step-1,Increment      1: Step Time =    1.000,"P-7-1",           153,       127.967,       74.4045,            0.,NA,NA,"",   1.38336E+06,   1.24350E+06,   1.24350E+06
C:/temp/Job-7.odb,Step-1,Increment      1: Step Time =    1.000,"P-7-1",           154,       138.594,       72.8255,            0.,NA,NA,"",   1.38429E+06,   1.18004E+06,   1.18004E+06
C:/temp/Job-7.odb,Step-1,Increment      1: Step Time =    1.000,"P-7-1",           155,       155.678,       73.4083,            0.,NA,NA,"",   1.13468E+06,   1.04340E+06,   1.04340E+06
C:/temp/Job-7.odb,Step-1,Increment      1: Step Time =    1.000,"P-7-1",           156,       168.497,       74.7381,            0.,NA,NA,"",   1.00227E+06,   1.00241E+06,   1.00241E+06
C:/temp/Job-7.odb,Step-1,Increment      1: Step Time =    1.000,"P-7-1",           157,       179.368,       74.5845,            0.,NA,NA,"",   950.996E+03,   1.00603E+06,   1.00603E+06
C:/temp/Job-7.odb,Step-1,Increment      1: Step Time =    1.000,"P-7-1",           158,       189.794,       74.8155,            0.,NA,NA,"",   905.461E+03,   1.00401E+06,   1.00401E+06
C:/temp/Job-7.odb,Step-1,Increment      1: Step Time =    1.000,"P-7-1",           159,       9.75417,       64.8933,            0.,NA,NA,"",   759.246E+03,   843.334E+03,   843.334E+03
C:/temp/Job-7.odb,Step-1,Increment      1: Step Time =    1.000,"P-7-1",           160,       19.4451,       65.2116,            0.,NA,NA,"",   796.320E+03,   863.286E+03,   863.286E+03
C:/temp/Job-7.odb,Step-1,Increment      1: Step Time =    1.000,"P-7-1",           161,       32.1868,       65.2617,            0.,NA,NA,"",   888.459E+03,   915.841E+03,   915.841E+03
C:/temp/Job-7.odb,Step-1,Increment      1: Step Time =    1.000,"P-7-1",           162,       40.7326,       62.4362,            0.,NA,NA,"",   1.02519E+06,   1.00986E+06,   1.00986E+06
C:/temp/Job-7.odb,Step-1,Increment      1: Step Time =    1.000,"P-7-1",           163,       52.6770,       63.1582,            0.,NA,NA,"",   1.18284E+06,   1.10983E+06,   1.10983E+06
C:/temp/Job-7.odb,Step-1,Increment      1: Step Time =    1.000,"P-7-1",           164,       64.7391,       62.6580,            0.,NA,NA,"",   1.37593E+06,   1.27266E+06,   1.27266E+06
C:/temp/Job-7.odb,Step-1,Increment      1: Step Time =    1.000,"P-7-1",           165,       73.1080,       63.9431,            0.,NA,NA,"",   1.48709E+06,   1.41032E+06,   1.41032E+06
C:/temp/Job-7.odb,Step-1,Increment      1: Step Time =    1.000,"P-7-1",           166,       84.0393,       62.3954,            0.,NA,NA,"",   1.62350E+06,   1.67490E+06,   1.67490E+06
C:/temp/Job-7.odb,Step-1,Increment      1: Step Time =    1.000,"P-7-1",           167,       95.7289,       62.9851,            0.,NA,NA,"",   1.83333E+06,   1.98369E+06,   1.98369E+06
C:/temp/Job-7.odb,Step-1,Increment      1: Step Time =    1.000,"P-7-1",           168,       116.575,       59.9709,            0.,NA,NA,"",   1.56817E+06,   1.62971E+06,   1.62971E+06
C:/temp/Job-7.odb,Step-1,Increment      1: Step Time =    1.000,"P-7-1",           169,       127.417,       63.1955,            0.,NA,NA,"",   1.57711E+06,   1.49855E+06,   1.49855E+06
C:/temp/Job-7.odb,Step-1,Increment      1: Step Time =    1.000,"P-7-1",           170,       138.087,       61.9617,            0.,NA,NA,"",   1.47746E+06,   1.34260E+06,   1.34260E+06
C:/temp/Job-7.odb,Step-1,Increment      1: Step Time =    1.000,"P-7-1",           171,       149.368,       62.5057,            0.,NA,NA,"",   1.33696E+06,   1.21730E+06,   1.21730E+06
C:/temp/Job-7.odb,Step-1,Increment      1: Step Time =    1.000,"P-7-1",           172,       159.071,       62.6829,            0.,NA,NA,"",   1.20993E+06,   1.14012E+06,   1.14012E+06
C:/temp/Job-7.odb,Step-1,Increment      1: Step Time =    1.000,"P-7-1",           173,       167.097,       63.6899,            0.,NA,NA,"",   1.12052E+06,   1.09178E+06,   1.09178E+06
C:/temp/Job-7.odb,Step-1,Increment      1: Step Time =    1.000,"P-7-1",           174,       179.203,       64.8246,            0.,NA,NA,"",   1.00605E+06,   1.04098E+06,   1.04098E+06
C:/temp/Job-7.odb,Step-1,Increment      1: Step Time =    1.000,"P-7-1",           175,       189.703,       65.0967,            0.,NA,NA,"",   938.069E+03,   1.01486E+06,   1.01486E+06
C:/temp/Job-7.odb,Step-1,Increment      1: Step Time =    1.000,"P-7-1",           176,       84.2161,       72.3639,            0.,NA,NA,"",   1.75140E+06,   1.78904E+06,   1.78904E+06
C:/temp/Job-7.odb,Step-1,Increment      1: Step Time =    1.000,"P-7-1",           177,       73.5372,       74.3226,            0.,NA,NA,"",   1.26549E+06,   1.15667E+06,   1.15667E+06
C:/temp/Job-7.odb,Step-1,Increment      1: Step Time =    1.000,"P-7-1",           178,       61.8148,       72.9516,            0.,NA,NA,"",   1.19028E+06,   1.04858E+06,   1.04858E+06
C:/temp/Job-7.odb,Step-1,Increment      1: Step Time =    1.000,"P-7-1",           179,       51.6065,       68.5741,            0.,NA,NA,"",   1.09323E+06,   1.01838E+06,   1.01838E+06
C:/temp/Job-7.odb,Step-1,Increment      1: Step Time =    1.000,"P-7-1",           180,       42.1132,       74.3849,            0.,NA,NA,"",   837.094E+03,   828.565E+03,   828.565E+03
C:/temp/Job-7.odb,Step-1,Increment      1: Step Time =    1.000,"P-7-1",           181,       18.3957,       74.7444,            0.,NA,NA,"",   688.217E+03,   760.595E+03,   760.595E+03
C:/temp/Job-7.odb,Step-1,Increment      1: Step Time =    1.000,"P-7-1",           182,       9.70040,       74.9417,            0.,NA,NA,"",   667.691E+03,   749.224E+03,   749.224E+03
C:/temp/Job-7.odb,Step-1,Increment      1: Step Time =    1.000,"P-7-1",           183,       57.2407,       81.3045,            0.,NA,NA,"",   850.614E+03,   731.770E+03,   731.770E+03
C:/temp/Job-7.odb,Step-1,Increment      1: Step Time =    1.000,"P-7-1",           184,       52.8535,       83.2180,            0.,NA,NA,"",   732.573E+03,   662.321E+03,   662.321E+03
C:/temp/Job-7.odb,Step-1,Increment      1: Step Time =    1.000,"P-7-1",           185,       41.7775,       83.1980,            0.,NA,NA,"",   645.611E+03,   662.299E+03,   662.299E+03
C:/temp/Job-7.odb,Step-1,Increment      1: Step Time =    1.000,"P-7-1",           186,       32.1637,       82.0145,            0.,NA,NA,"",   629.450E+03,   682.055E+03,   682.055E+03
C:/temp/Job-7.odb,Step-1,Increment      1: Step Time =    1.000,"P-7-1",           187,       20.6507,       85.5432,            0.,NA,NA,"",   581.799E+03,   655.620E+03,   655.620E+03
C:/temp/Job-7.odb,Step-1,Increment      1: Step Time =    1.000,"P-7-1",           188,       9.84589,       85.0687,            0.,NA,NA,"",   590.850E+03,   670.236E+03,   670.236E+03
C:/temp/Job-7.odb,Step-1,Increment      1: Step Time =    1.000,"P-7-1",           189,       54.0707,       94.0592,            0.,NA,NA,"",   342.361E+03,   321.548E+03,   321.548E+03
C:/temp/Job-7.odb,Step-1,Increment      1: Step Time =    1.000,"P-7-1",           190,       44.5210,       95.6705,            0.,NA,NA,"",   385.402E+03,   428.977E+03,   428.977E+03
C:/temp/Job-7.odb,Step-1,Increment      1: Step Time =    1.000,"P-7-1",           191,       31.4704,       95.3186,            0.,NA,NA,"",   477.325E+03,   543.012E+03,   543.012E+03
C:/temp/Job-7.odb,Step-1,Increment      1: Step Time =    1.000,"P-7-1",           192,       18.6902,       94.8810,            0.,NA,NA,"",   525.512E+03,   601.011E+03,   601.011E+03
C:/temp/Job-7.odb,Step-1,Increment      1: Step Time =    1.000,"P-7-1",           193,       9.70562,       95.0783,            0.,NA,NA,"",   546.600E+03,   624.286E+03,   624.286E+03
C:/temp/Job-7.odb,Step-1,Increment      1: Step Time =    1.000,"P-7-1",           194,       62.6282,       105.654,            0.,NA,NA,"",   349.656E+03,  -54.9021E+03,  -54.9021E+03
C:/temp/Job-7.odb,Step-1,Increment      1: Step Time =    1.000,"P-7-1",           195,       51.9836,       104.886,            0.,NA,NA,"",   338.209E+03,   344.687E+03,   344.687E+03
C:/temp/Job-7.odb,Step-1,Increment      1: Step Time =    1.000,"P-7-1",           196,       43.6496,       103.400,            0.,NA,NA,"",   392.665E+03,   437.668E+03,   437.668E+03
C:/temp/Job-7.odb,Step-1,Increment      1: Step Time =    1.000,"P-7-1",           197,       32.4584,       103.210,            0.,NA,NA,"",   467.740E+03,   532.198E+03,   532.198E+03
C:/temp/Job-7.odb,Step-1,Increment      1: Step Time =    1.000,"P-7-1",           198,       20.3233,       104.684,            0.,NA,NA,"",   523.028E+03,   597.753E+03,   597.753E+03
C:/temp/Job-7.odb,Step-1,Increment      1: Step Time =    1.000,"P-7-1",           199,       9.83336,       104.911,            0.,NA,NA,"",   548.228E+03,   625.983E+03,   625.983E+03
C:/temp/Job-7.odb,Step-1,Increment      1: Step Time =    1.000,"P-7-1",           200,       61.7873,       118.347,            0.,NA,NA,"",   902.061E+03,   739.475E+03,   739.475E+03
C:/temp/Job-7.odb,Step-1,Increment      1: Step Time =    1.000,"P-7-1",           201,       54.8690,       118.548,            0.,NA,NA,"",   827.850E+03,   736.738E+03,   736.738E+03
C:/temp/Job-7.odb,Step-1,Increment      1: Step Time =    1.000,"P-7-1",           202,       44.7640,       115.362,            0.,NA,NA,"",   629.248E+03,   634.045E+03,   634.045E+03
C:/temp/Job-7.odb,Step-1,Increment      1: Step Time =    1.000,"P-7-1",           203,       31.3363,       116.844,            0.,NA,NA,"",   614.281E+03,   669.122E+03,   669.122E+03
C:/temp/Job-7.odb,Step-1,Increment      1: Step Time =    1.000,"P-7-1",           204,       20.0880,       114.494,            0.,NA,NA,"",   584.286E+03,   658.582E+03,   658.582E+03
C:/temp/Job-7.odb,Step-1,Increment      1: Step Time =    1.000,"P-7-1",           205,       9.70624,       114.667,            0.,NA,NA,"",   590.718E+03,   670.199E+03,   670.199E+03
C:/temp/Job-7.odb,Step-1,Increment      1: Step Time =    1.000,"P-7-1",           206,       190.214,       10.2794,            0.,NA,NA,"",   1.00135E+06,   1.00226E+06,   1.00226E+06
C:/temp/Job-7.odb,Step-1,Increment      1: Step Time =    1.000,"P-7-1",           207,       179.316,       11.7535,            0.,NA,NA,"",   1.01060E+06,   1.01096E+06,   1.01096E+06
C:/temp/Job-7.odb,Step-1,Increment      1: Step Time =    1.000,"P-7-1",           208,       169.016,       10.1842,            0.,NA,NA,"",   1.01722E+06,   1.01526E+06,   1.01526E+06
C:/temp/Job-7.odb,Step-1,Increment      1: Step Time =    1.000,"P-7-1",           209,       158.338,       11.3915,            0.,NA,NA,"",   1.02652E+06,   1.02165E+06,   1.02165E+06
C:/temp/Job-7.odb,Step-1,Increment      1: Step Time =    1.000,"P-7-1",           210,       148.704,       8.65508,            0.,NA,NA,"",   1.00580E+06,   1.00213E+06,   1.00213E+06
C:/temp/Job-7.odb,Step-1,Increment      1: Step Time =    1.000,"P-7-1",           211,       134.755,       9.79217,            0.,NA,NA,"",   982.253E+03,   979.883E+03,   979.883E+03
C:/temp/Job-7.odb,Step-1,Increment      1: Step Time =    1.000,"P-7-1",           212,       124.837,       10.2106,            0.,NA,NA,"",   955.801E+03,   957.422E+03,   957.422E+03
C:/temp/Job-7.odb,Step-1,Increment      1: Step Time =    1.000,"P-7-1",           213,       114.767,       10.3223,            0.,NA,NA,"",   930.466E+03,   937.265E+03,   937.265E+03
C:/temp/Job-7.odb,Step-1,Increment      1: Step Time =    1.000,"P-7-1",           214,       104.797,       10.1973,            0.,NA,NA,"",   921.368E+03,   931.102E+03,   931.102E+03
C:/temp/Job-7.odb,Step-1,Increment      1: Step Time =    1.000,"P-7-1",           215,       94.8752,       9.93186,            0.,NA,NA,"",   940.016E+03,   948.107E+03,   948.107E+03
C:/temp/Job-7.odb,Step-1,Increment      1: Step Time =    1.000,"P-7-1",           216,       85.0988,       9.50169,            0.,NA,NA,"",   982.909E+03,   986.428E+03,   986.428E+03
C:/temp/Job-7.odb,Step-1,Increment      1: Step Time =    1.000,"P-7-1",           217,       75.6085,       9.21641,            0.,NA,NA,"",   1.04054E+06,   1.03968E+06,   1.03968E+06
C:/temp/Job-7.odb,Step-1,Increment      1: Step Time =    1.000,"P-7-1",           218,       66.4799,       9.82467,            0.,NA,NA,"",   1.10616E+06,   1.10239E+06,   1.10239E+06
C:/temp/Job-7.odb,Step-1,Increment      1: Step Time =    1.000,"P-7-1",           219,       52.0421,       11.6465,            0.,NA,NA,"",   1.19855E+06,   1.19092E+06,   1.19092E+06
C:/temp/Job-7.odb,Step-1,Increment      1: Step Time =    1.000,"P-7-1",           220,       39.6129,       9.35629,            0.,NA,NA,"",   1.24376E+06,   1.24128E+06,   1.24128E+06
C:/temp/Job-7.odb,Step-1,Increment      1: Step Time =    1.000,"P-7-1",           221,       30.3755,       9.50301,            0.,NA,NA,"",   1.28570E+06,   1.28742E+06,   1.28742E+06
C:/temp/Job-7.odb,Step-1,Increment      1: Step Time =    1.000,"P-7-1",           222,       20.2207,       10.7741,            0.,NA,NA,"",   1.33606E+06,   1.35052E+06,   1.35052E+06
C:/temp/Job-7.odb,Step-1,Increment      1: Step Time =    1.000,"P-7-1",           223,       9.87127,       9.86148,            0.,NA,NA,"",   1.42041E+06,   1.46805E+06,   1.46805E+06
C:/temp/Job-7.odb,Step-1,Increment      1: Step Time =    1.000,"P-7-1",           224,       191.177,       24.9463,            0.,NA,NA,"",   1.00044E+06,   1.00702E+06,   1.00702E+06
C:/temp/Job-7.odb,Step-1,Increment      1: Step Time =    1.000,"P-7-1",           225,       178.476,       22.0008,            0.,NA,NA,"",   1.02625E+06,   1.02686E+06,   1.02686E+06
C:/temp/Job-7.odb,Step-1,Increment      1: Step Time =    1.000,"P-7-1",           226,       170.036,       23.4557,            0.,NA,NA,"",   1.05591E+06,   1.04915E+06,   1.04915E+06
C:/temp/Job-7.odb,Step-1,Increment      1: Step Time =    1.000,"P-7-1",           227,       160.852,       21.3264,            0.,NA,NA,"",   1.07309E+06,   1.06075E+06,   1.06075E+06
C:/temp/Job-7.odb,Step-1,Increment      1: Step Time =    1.000,"P-7-1",           228,       145.194,       18.8152,            0.,NA,NA,"",   1.07627E+06,   1.06322E+06,   1.06322E+06
C:/temp/Job-7.odb,Step-1,Increment      1: Step Time =    1.000,"P-7-1",           229,       134.819,       19.6522,            0.,NA,NA,"",   1.07658E+06,   1.06912E+06,   1.06912E+06
C:/temp/Job-7.odb,Step-1,Increment      1: Step Time =    1.000,"P-7-1",           230,       124.645,       20.6806,            0.,NA,NA,"",   1.06195E+06,   1.06790E+06,   1.06790E+06
C:/temp/Job-7.odb,Step-1,Increment      1: Step Time =    1.000,"P-7-1",           231,       114.166,       20.8976,            0.,NA,NA,"",   1.03378E+06,   1.05678E+06,   1.05678E+06
C:/temp/Job-7.odb,Step-1,Increment      1: Step Time =    1.000,"P-7-1",           232,       103.867,       20.8910,            0.,NA,NA,"",   1.02255E+06,   1.05445E+06,   1.05445E+06
C:/temp/Job-7.odb,Step-1,Increment      1: Step Time =    1.000,"P-7-1",           233,       94.0906,       20.0976,            0.,NA,NA,"",   1.04174E+06,   1.06663E+06,   1.06663E+06
C:/temp/Job-7.odb,Step-1,Increment      1: Step Time =    1.000,"P-7-1",           234,       84.4799,       18.8562,            0.,NA,NA,"",   1.08065E+06,   1.09234E+06,   1.09234E+06
C:/temp/Job-7.odb,Step-1,Increment      1: Step Time =    1.000,"P-7-1",           235,       75.7747,       18.2984,            0.,NA,NA,"",   1.12574E+06,   1.12421E+06,   1.12421E+06
C:/temp/Job-7.odb,Step-1,Increment      1: Step Time =    1.000,"P-7-1",           236,       66.2221,       20.6319,            0.,NA,NA,"",   1.19120E+06,   1.17907E+06,   1.17907E+06
C:/temp/Job-7.odb,Step-1,Increment      1: Step Time =    1.000,"P-7-1",           237,       53.3329,       21.7553,            0.,NA,NA,"",   1.23903E+06,   1.22062E+06,   1.22062E+06
C:/temp/Job-7.odb,Step-1,Increment      1: Step Time =    1.000,"P-7-1",           238,       43.1614,       20.2628,            0.,NA,NA,"",   1.25088E+06,   1.23956E+06,   1.23956E+06
C:/temp/Job-7.odb,Step-1,Increment      1: Step Time =    1.000,"P-7-1",           239,       31.5298,       22.6956,            0.,NA,NA,"",   1.25261E+06,   1.25835E+06,   1.25835E+06
C:/temp/Job-7.odb,Step-1,Increment      1: Step Time =    1.000,"P-7-1",           240,       19.7515,       20.2414,            0.,NA,NA,"",   1.25832E+06,   1.29575E+06,   1.29575E+06
C:/temp/Job-7.odb,Step-1,Increment      1: Step Time =    1.000,"P-7-1",           241,       10.9467,       20.3927,            0.,NA,NA,"",   1.21085E+06,   1.28848E+06,   1.28848E+06
C:/temp/Job-7.odb,Step-1,Increment      1: Step Time =    1.000,"P-7-1",           242,       191.091,       34.3777,            0.,NA,NA,"",   994.713E+03,   1.01068E+06,   1.01068E+06
C:/temp/Job-7.odb,Step-1,Increment      1: Step Time =    1.000,"P-7-1",           243,       181.941,       33.7124,            0.,NA,NA,"",   1.02705E+06,   1.03441E+06,   1.03441E+06
C:/temp/Job-7.odb,Step-1,Increment      1: Step Time =    1.000,"P-7-1",           244,       171.639,       32.1690,            0.,NA,NA,"",   1.07369E+06,   1.06574E+06,   1.06574E+06
C:/temp/Job-7.odb,Step-1,Increment      1: Step Time =    1.000,"P-7-1",           245,       158.701,       31.6005,            0.,NA,NA,"",   1.13970E+06,   1.11301E+06,   1.11301E+06
C:/temp/Job-7.odb,Step-1,Increment      1: Step Time =    1.000,"P-7-1",           246,       145.139,       30.8780,            0.,NA,NA,"",   1.18243E+06,   1.15152E+06,   1.15152E+06
C:/temp/Job-7.odb,Step-1,Increment      1: Step Time =    1.000,"P-7-1",           247,       127.521,       30.8458,            0.,NA,NA,"",   1.17558E+06,   1.17575E+06,   1.17575E+06
C:/temp/Job-7.odb,Step-1,Increment      1: Step Time =    1.000,"P-7-1",           248,       113.898,       31.1483,            0.,NA,NA,"",   1.12201E+06,   1.16436E+06,   1.16436E+06
C:/temp/Job-7.odb,Step-1,Increment      1: Step Time =    1.000,"P-7-1",           249,       103.630,       33.1687,            0.,NA,NA,"",   1.11479E+06,   1.18170E+06,   1.18170E+06
C:/temp/Job-7.odb,Step-1,Increment      1: Step Time =    1.000,"P-7-1",           250,       92.4473,       33.0712,            0.,NA,NA,"",   1.14943E+06,   1.20318E+06,   1.20318E+06
C:/temp/Job-7.odb,Step-1,Increment      1: Step Time =    1.000,"P-7-1",           251,       86.3105,       29.5969,            0.,NA,NA,"",   1.16187E+06,   1.19263E+06,   1.19263E+06
C:/temp/Job-7.odb,Step-1,Increment      1: Step Time =    1.000,"P-7-1",           252,       75.2633,       27.4282,            0.,NA,NA,"",   1.20642E+06,   1.20512E+06,   1.20512E+06
C:/temp/Job-7.odb,Step-1,Increment      1: Step Time =    1.000,"P-7-1",           253,       64.8423,       30.8127,            0.,NA,NA,"",   1.27498E+06,   1.25058E+06,   1.25058E+06
C:/temp/Job-7.odb,Step-1,Increment      1: Step Time =    1.000,"P-7-1",           254,       51.6841,       31.9798,            0.,NA,NA,"",   1.27508E+06,   1.24506E+06,   1.24506E+06
C:/temp/Job-7.odb,Step-1,Increment      1: Step Time =    1.000,"P-7-1",           255,       32.8846,       30.5082,            0.,NA,NA,"",   1.22046E+06,   1.22563E+06,   1.22563E+06
C:/temp/Job-7.odb,Step-1,Increment      1: Step Time =    1.000,"P-7-1",           256,       24.0101,       31.5136,            0.,NA,NA,"",     1.171E+06,   1.20515E+06,   1.20515E+06
C:/temp/Job-7.odb,Step-1,Increment      1: Step Time =    1.000,"P-7-1",           257,       9.61163,       35.3829,            0.,NA,NA,"",   1.02846E+06,   1.12066E+06,   1.12066E+06
C:/temp/Job-7.odb,Step-1,Increment      1: Step Time =    1.000,"P-7-1",           258,       190.573,       43.6614,            0.,NA,NA,"",   985.085E+03,   1.01561E+06,   1.01561E+06
C:/temp/Job-7.odb,Step-1,Increment      1: Step Time =    1.000,"P-7-1",           259,       176.837,       46.4277,            0.,NA,NA,"",   1.06484E+06,   1.06837E+06,   1.06837E+06
C:/temp/Job-7.odb,Step-1,Increment      1: Step Time =    1.000,"P-7-1",           260,       169.449,       41.6333,            0.,NA,NA,"",   1.10978E+06,   1.09438E+06,   1.09438E+06
C:/temp/Job-7.odb,Step-1,Increment      1: Step Time =    1.000,"P-7-1",           261,       160.211,       41.3367,            0.,NA,NA,"",   1.18137E+06,   1.14251E+06,   1.14251E+06
C:/temp/Job-7.odb,Step-1,Increment      1: Step Time =    1.000,"P-7-1",           262,       145.984,       40.8850,            0.,NA,NA,"",   1.27217E+06,   1.21778E+06,   1.21778E+06
C:/temp/Job-7.odb,Step-1,Increment      1: Step Time =    1.000,"P-7-1",           263,       134.830,       44.4159,            0.,NA,NA,"",   1.34321E+06,   1.29652E+06,   1.29652E+06
C:/temp/Job-7.odb,Step-1,Increment      1: Step Time =    1.000,"P-7-1",           264,       128.066,       42.2085,            0.,NA,NA,"",   1.30853E+06,   1.29761E+06,   1.29761E+06
C:/temp/Job-7.odb,Step-1,Increment      1: Step Time =    1.000,"P-7-1",           265,       114.600,       40.8972,            0.,NA,NA,"",   1.22730E+06,   1.28572E+06,   1.28572E+06
C:/temp/Job-7.odb,Step-1,Increment      1: Step Time =    1.000,"P-7-1",           266,       105.516,       43.4108,            0.,NA,NA,"",   1.21175E+06,   1.31056E+06,   1.31056E+06
C:/temp/Job-7.odb,Step-1,Increment      1: Step Time =    1.000,"P-7-1",           267,       95.1410,       42.0951,            0.,NA,NA,"",   1.21700E+06,   1.30477E+06,   1.30477E+06
C:/temp/Job-7.odb,Step-1,Increment      1: Step Time =    1.000,"P-7-1",           268,       80.8041,       41.5600,            0.,NA,NA,"",   1.31201E+06,   1.33379E+06,   1.33379E+06
C:/temp/Job-7.odb,Step-1,Increment      1: Step Time =    1.000,"P-7-1",           269,       72.2386,       42.3491,            0.,NA,NA,"",   1.35681E+06,   1.33666E+06,   1.33666E+06
C:/temp/Job-7.odb,Step-1,Increment      1: Step Time =    1.000,"P-7-1",           270,       62.6434,       41.4286,            0.,NA,NA,"",   1.34391E+06,   1.29892E+06,   1.29892E+06
C:/temp/Job-7.odb,Step-1,Increment      1: Step Time =    1.000,"P-7-1",           271,       53.9555,       44.1107,            0.,NA,NA,"",   1.30333E+06,   1.25421E+06,   1.25421E+06
C:/temp/Job-7.odb,Step-1,Increment      1: Step Time =    1.000,"P-7-1",           272,       39.7244,       38.3952,            0.,NA,NA,"",   1.21736E+06,   1.20355E+06,   1.20355E+06
C:/temp/Job-7.odb,Step-1,Increment      1: Step Time =    1.000,"P-7-1",           273,       29.2642,       39.6085,            0.,NA,NA,"",   1.13837E+06,   1.15900E+06,   1.15900E+06
C:/temp/Job-7.odb,Step-1,Increment      1: Step Time =    1.000,"P-7-1",           274,       19.8342,       45.0625,            0.,NA,NA,"",   1.01745E+06,   1.07456E+06,   1.07456E+06
C:/temp/Job-7.odb,Step-1,Increment      1: Step Time =    1.000,"P-7-1",           275,       9.79321,       45.0654,            0.,NA,NA,"",   940.687E+03,   1.03063E+06,   1.03063E+06
C:/temp/Job-7.odb,Step-1,Increment      1: Step Time =    1.000,"P-7-1",           276,       189.415,       52.3789,            0.,NA,NA,"",   974.963E+03,   1.02086E+06,   1.02086E+06
C:/temp/Job-7.odb,Step-1,Increment      1: Step Time =    1.000,"P-7-1",           277,       179.929,       55.6141,            0.,NA,NA,"",   1.03226E+06,   1.05460E+06,   1.05460E+06
C:/temp/Job-7.odb,Step-1,Increment      1: Step Time =    1.000,"P-7-1",           278,       170.480,       53.6075,            0.,NA,NA,"",   1.11510E+06,   1.09954E+06,   1.09954E+06
C:/temp/Job-7.odb,Step-1,Increment      1: Step Time =    1.000,"P-7-1",           279,       158.241,       53.4139,            0.,NA,NA,"",   1.23756E+06,   1.17269E+06,   1.17269E+06
C:/temp/Job-7.odb,Step-1,Increment      1: Step Time =    1.000,"P-7-1",           280,       145.955,       53.6735,            0.,NA,NA,"",   1.36100E+06,   1.26640E+06,   1.26640E+06
C:/temp/Job-7.odb,Step-1,Increment      1: Step Time =    1.000,"P-7-1",           281,       135.854,       54.7683,            0.,NA,NA,"",   1.45797E+06,   1.36543E+06,   1.36543E+06
C:/temp/Job-7.odb,Step-1,Increment      1: Step Time =    1.000,"P-7-1",           282,       125.367,       53.0021,            0.,NA,NA,"",   1.45785E+06,    1.4414E+06,    1.4414E+06
C:/temp/Job-7.odb,Step-1,Increment      1: Step Time =    1.000,"P-7-1",           283,       115.899,       50.2833,            0.,NA,NA,"",   1.37114E+06,   1.43384E+06,   1.43384E+06
C:/temp/Job-7.odb,Step-1,Increment      1: Step Time =    1.000,"P-7-1",           284,       107.374,       52.5474,            0.,NA,NA,"",   1.37402E+06,   1.49921E+06,   1.49921E+06
C:/temp/Job-7.odb,Step-1,Increment      1: Step Time =    1.000,"P-7-1",           285,       92.7951,       53.5510,            0.,NA,NA,"",   1.42005E+06,   1.53456E+06,   1.53456E+06
C:/temp/Job-7.odb,Step-1,Increment      1: Step Time =    1.000,"P-7-1",           286,       82.1135,       51.5663,            0.,NA,NA,"",   1.42914E+06,   1.46126E+06,   1.46126E+06
C:/temp/Job-7.odb,Step-1,Increment      1: Step Time =    1.000,"P-7-1",           287,       72.8136,       52.6845,            0.,NA,NA,"",   1.45473E+06,   1.41713E+06,   1.41713E+06
C:/temp/Job-7.odb,Step-1,Increment      1: Step Time =    1.000,"P-7-1",           288,       63.3438,       53.6568,            0.,NA,NA,"",   1.39288E+06,   1.31739E+06,   1.31739E+06
C:/temp/Job-7.odb,Step-1,Increment      1: Step Time =    1.000,"P-7-1",           289,       52.8510,       53.4828,            0.,NA,NA,"",   1.27297E+06,   1.21112E+06,   1.21112E+06
C:/temp/Job-7.odb,Step-1,Increment      1: Step Time =    1.000,"P-7-1",           290,       42.1231,       53.3509,            0.,NA,NA,"",   1.14533E+06,   1.12148E+06,   1.12148E+06
C:/temp/Job-7.odb,Step-1,Increment      1: Step Time =    1.000,"P-7-1",           291,       31.2816,       54.4558,            0.,NA,NA,"",   1.02255E+06,   1.04115E+06,   1.04115E+06
C:/temp/Job-7.odb,Step-1,Increment      1: Step Time =    1.000,"P-7-1",           292,       20.0755,       55.3344,            0.,NA,NA,"",   914.339E+03,   974.620E+03,   974.620E+03
C:/temp/Job-7.odb,Step-1,Increment      1: Step Time =    1.000,"P-7-1",           293,       9.86529,       50.0105,            0.,NA,NA,"",   896.864E+03,   985.210E+03,   985.210E+03
C:/temp/Job-7.odb,Step-1,Increment      1: Step Time =    1.000,"P-7-1",           294,       191.518,       148.711,            0.,NA,NA,"",   966.198E+03,   1.01353E+06,   1.01353E+06
C:/temp/Job-7.odb,Step-1,Increment      1: Step Time =    1.000,"P-7-1",           295,       181.252,       144.905,            0.,NA,NA,"",   1.02230E+06,   1.04917E+06,   1.04917E+06
C:/temp/Job-7.odb,Step-1,Increment      1: Step Time =    1.000,"P-7-1",           296,       166.951,       144.831,            0.,NA,NA,"",   1.15140E+06,   1.11954E+06,   1.11954E+06
C:/temp/Job-7.odb,Step-1,Increment      1: Step Time =    1.000,"P-7-1",           297,       157.569,       145.922,            0.,NA,NA,"",   1.24729E+06,   1.17986E+06,   1.17986E+06
C:/temp/Job-7.odb,Step-1,Increment      1: Step Time =    1.000,"P-7-1",           298,       148.673,       146.477,            0.,NA,NA,"",   1.33686E+06,   1.24559E+06,   1.24559E+06
C:/temp/Job-7.odb,Step-1,Increment      1: Step Time =    1.000,"P-7-1",           299,       130.105,       149.790,            0.,NA,NA,"",   1.41746E+06,   1.37315E+06,   1.37315E+06
C:/temp/Job-7.odb,Step-1,Increment      1: Step Time =    1.000,"P-7-1",           300,       115.987,       149.428,            0.,NA,NA,"",   1.36720E+06,   1.43537E+06,   1.43537E+06
C:/temp/Job-7.odb,Step-1,Increment      1: Step Time =    1.000,"P-7-1",           301,       102.142,       145.729,            0.,NA,NA,"",   1.42481E+06,   1.56941E+06,   1.56941E+06
C:/temp/Job-7.odb,Step-1,Increment      1: Step Time =    1.000,"P-7-1",           302,       93.8350,       143.233,            0.,NA,NA,"",   1.51054E+06,   1.63801E+06,   1.63801E+06
C:/temp/Job-7.odb,Step-1,Increment      1: Step Time =    1.000,"P-7-1",           303,       82.7082,       148.382,            0.,NA,NA,"",   1.42785E+06,   1.46316E+06,   1.46316E+06
C:/temp/Job-7.odb,Step-1,Increment      1: Step Time =    1.000,"P-7-1",           304,       73.6090,       148.818,            0.,NA,NA,"",   1.43676E+06,   1.40902E+06,   1.40902E+06
C:/temp/Job-7.odb,Step-1,Increment      1: Step Time =    1.000,"P-7-1",           305,       63.4584,       147.945,            0.,NA,NA,"",   1.38963E+06,   1.32028E+06,   1.32028E+06
C:/temp/Job-7.odb,Step-1,Increment      1: Step Time =    1.000,"P-7-1",           306,       51.9899,       149.867,            0.,NA,NA,"",   1.27330E+06,   1.21949E+06,   1.21949E+06
C:/temp/Job-7.odb,Step-1,Increment      1: Step Time =    1.000,"P-7-1",           307,       42.9538,       144.445,            0.,NA,NA,"",   1.12987E+06,   1.10242E+06,   1.10242E+06
C:/temp/Job-7.odb,Step-1,Increment      1: Step Time =    1.000,"P-7-1",           308,       31.4186,       148.353,            0.,NA,NA,"",   1.05001E+06,   1.06847E+06,   1.06847E+06
C:/temp/Job-7.odb,Step-1,Increment      1: Step Time =    1.000,"P-7-1",           309,       21.5196,       146.434,            0.,NA,NA,"",   944.508E+03,   1.00009E+06,   1.00009E+06
C:/temp/Job-7.odb,Step-1,Increment      1: Step Time =    1.000,"P-7-1",           310,       11.5637,       147.842,            0.,NA,NA,"",   891.424E+03,   974.270E+03,   974.270E+03
C:/temp/Job-7.odb,Step-1,Increment      1: Step Time =    1.000,"P-7-1",           311,       188.674,       158.354,            0.,NA,NA,"",   996.007E+03,   1.01996E+06,   1.01996E+06
C:/temp/Job-7.odb,Step-1,Increment      1: Step Time =    1.000,"P-7-1",           312,       178.758,       161.209,            0.,NA,NA,"",   1.04786E+06,   1.05219E+06,   1.05219E+06
C:/temp/Job-7.odb,Step-1,Increment      1: Step Time =    1.000,"P-7-1",           313,       166.043,       156.519,            0.,NA,NA,"",   1.14531E+06,   1.11797E+06,   1.11797E+06
C:/temp/Job-7.odb,Step-1,Increment      1: Step Time =    1.000,"P-7-1",           314,       156.757,       159.806,            0.,NA,NA,"",   1.19712E+06,   1.15497E+06,   1.15497E+06
C:/temp/Job-7.odb,Step-1,Increment      1: Step Time =    1.000,"P-7-1",           315,       146.744,       157.982,            0.,NA,NA,"",   1.27146E+06,   1.21564E+06,   1.21564E+06
C:/temp/Job-7.odb,Step-1,Increment      1: Step Time =    1.000,"P-7-1",           316,       138.294,       156.074,            0.,NA,NA,"",   1.32980E+06,   1.27485E+06,   1.27485E+06
C:/temp/Job-7.odb,Step-1,Increment      1: Step Time =    1.000,"P-7-1",           317,       129.367,       159.145,            0.,NA,NA,"",   1.29711E+06,   1.28180E+06,   1.28180E+06
C:/temp/Job-7.odb,Step-1,Increment      1: Step Time =    1.000,"P-7-1",           318,       118.682,       155.777,            0.,NA,NA,"",   1.28897E+06,   1.33060E+06,   1.33060E+06
C:/temp/Job-7.odb,Step-1,Increment      1: Step Time =    1.000,"P-7-1",           319,       103.513,       158.539,            0.,NA,NA,"",   1.18606E+06,   1.28092E+06,   1.28092E+06
C:/temp/Job-7.odb,Step-1,Increment      1: Step Time =    1.000,"P-7-1",           320,       91.7859,       160.427,            0.,NA,NA,"",   1.21843E+06,   1.28556E+06,   1.28556E+06
C:/temp/Job-7.odb,Step-1,Increment      1: Step Time =    1.000,"P-7-1",           321,       81.9529,       157.462,            0.,NA,NA,"",   1.31475E+06,   1.34421E+06,   1.34421E+06
C:/temp/Job-7.odb,Step-1,Increment      1: Step Time =    1.000,"P-7-1",           322,       72.2044,       158.684,            0.,NA,NA,"",   1.34642E+06,   1.32819E+06,   1.32819E+06
C:/temp/Job-7.odb,Step-1,Increment      1: Step Time =    1.000,"P-7-1",           323,       64.3618,       158.554,            0.,NA,NA,"",   1.34871E+06,   1.30737E+06,   1.30737E+06
C:/temp/Job-7.odb,Step-1,Increment      1: Step Time =    1.000,"P-7-1",           324,       52.9863,       160.119,            0.,NA,NA,"",   1.29383E+06,   1.25279E+06,   1.25279E+06
C:/temp/Job-7.odb,Step-1,Increment      1: Step Time =    1.000,"P-7-1",           325,       40.4000,       160.954,            0.,NA,NA,"",   1.22133E+06,   1.20614E+06,   1.20614E+06
C:/temp/Job-7.odb,Step-1,Increment      1: Step Time =    1.000,"P-7-1",           326,       30.0255,       160.392,            0.,NA,NA,"",   1.14457E+06,   1.16250E+06,   1.16250E+06
C:/temp/Job-7.odb,Step-1,Increment      1: Step Time =    1.000,"P-7-1",           327,       20.0508,       156.278,            0.,NA,NA,"",   1.03276E+06,   1.08819E+06,   1.08819E+06
C:/temp/Job-7.odb,Step-1,Increment      1: Step Time =    1.000,"P-7-1",           328,       9.31759,       160.197,            0.,NA,NA,"",   984.114E+03,   1.07697E+06,   1.07697E+06
C:/temp/Job-7.odb,Step-1,Increment      1: Step Time =    1.000,"P-7-1",           329,       189.935,       169.078,            0.,NA,NA,"",   1.00047E+06,   1.01162E+06,   1.01162E+06
C:/temp/Job-7.odb,Step-1,Increment      1: Step Time =    1.000,"P-7-1",           330,       176.929,       170.448,            0.,NA,NA,"",   1.04534E+06,   1.04477E+06,   1.04477E+06
C:/temp/Job-7.odb,Step-1,Increment      1: Step Time =    1.000,"P-7-1",           331,       169.164,       172.674,            0.,NA,NA,"",   1.07123E+06,   1.06186E+06,   1.06186E+06
C:/temp/Job-7.odb,Step-1,Increment      1: Step Time =    1.000,"P-7-1",           332,       157.512,       169.264,            0.,NA,NA,"",   1.13654E+06,   1.11057E+06,   1.11057E+06
C:/temp/Job-7.odb,Step-1,Increment      1: Step Time =    1.000,"P-7-1",           333,       143.991,       170.504,            0.,NA,NA,"",   1.17159E+06,   1.14374E+06,   1.14374E+06
C:/temp/Job-7.odb,Step-1,Increment      1: Step Time =    1.000,"P-7-1",           334,       135.172,       166.890,            0.,NA,NA,"",   1.21351E+06,   1.19106E+06,   1.19106E+06
C:/temp/Job-7.odb,Step-1,Increment      1: Step Time =    1.000,"P-7-1",           335,       127.610,       167.891,            0.,NA,NA,"",   1.19051E+06,   1.18965E+06,   1.18965E+06
C:/temp/Job-7.odb,Step-1,Increment      1: Step Time =    1.000,"P-7-1",           336,       112.141,       168.084,            0.,NA,NA,"",   1.11895E+06,   1.16850E+06,   1.16850E+06
C:/temp/Job-7.odb,Step-1,Increment      1: Step Time =    1.000,"P-7-1",           337,       104.026,       168.636,            0.,NA,NA,"",   1.09953E+06,   1.15947E+06,   1.15947E+06
C:/temp/Job-7.odb,Step-1,Increment      1: Step Time =    1.000,"P-7-1",           338,       93.5984,       166.633,            0.,NA,NA,"",   1.14444E+06,   1.20127E+06,   1.20127E+06
C:/temp/Job-7.odb,Step-1,Increment      1: Step Time =    1.000,"P-7-1",           339,       83.3198,       168.667,            0.,NA,NA,"",   1.19842E+06,   1.22071E+06,   1.22071E+06
C:/temp/Job-7.odb,Step-1,Increment      1: Step Time =    1.000,"P-7-1",           340,       74.5404,       168.958,            0.,NA,NA,"",   1.24335E+06,   1.23992E+06,   1.23992E+06
C:/temp/Job-7.odb,Step-1,Increment      1: Step Time =    1.000,"P-7-1",           341,       62.7791,       169.487,            0.,NA,NA,"",   1.27815E+06,   1.25093E+06,   1.25093E+06
C:/temp/Job-7.odb,Step-1,Increment      1: Step Time =    1.000,"P-7-1",           342,       52.4437,       171.002,            0.,NA,NA,"",   1.26864E+06,   1.24141E+06,   1.24141E+06
C:/temp/Job-7.odb,Step-1,Increment      1: Step Time =    1.000,"P-7-1",           343,       42.3212,       170.200,            0.,NA,NA,"",   1.24948E+06,   1.23455E+06,   1.23455E+06
C:/temp/Job-7.odb,Step-1,Increment      1: Step Time =    1.000,"P-7-1",           344,       31.3119,       170.126,            0.,NA,NA,"",   1.21717E+06,   1.22691E+06,   1.22691E+06
C:/temp/Job-7.odb,Step-1,Increment      1: Step Time =    1.000,"P-7-1",           345,       18.4418,       168.167,            0.,NA,NA,"",   1.13284E+06,   1.18957E+06,   1.18957E+06
C:/temp/Job-7.odb,Step-1,Increment      1: Step Time =    1.000,"P-7-1",           346,       9.50545,       169.290,            0.,NA,NA,"",   1.07296E+06,   1.16564E+06,   1.16564E+06
C:/temp/Job-7.odb,Step-1,Increment      1: Step Time =    1.000,"P-7-1",           347,       188.348,       179.383,            0.,NA,NA,"",   1.00537E+06,   1.00920E+06,   1.00920E+06
C:/temp/Job-7.odb,Step-1,Increment      1: Step Time =    1.000,"P-7-1",           348,       178.128,       178.787,            0.,NA,NA,"",   1.02590E+06,   1.02609E+06,   1.02609E+06
C:/temp/Job-7.odb,Step-1,Increment      1: Step Time =    1.000,"P-7-1",           349,       166.454,       182.396,            0.,NA,NA,"",   1.04325E+06,   1.03719E+06,   1.03719E+06
C:/temp/Job-7.odb,Step-1,Increment      1: Step Time =    1.000,"P-7-1",           350,       157.221,       177.561,            0.,NA,NA,"",   1.08854E+06,   1.07272E+06,   1.07272E+06
C:/temp/Job-7.odb,Step-1,Increment      1: Step Time =    1.000,"P-7-1",           351,       145.130,       179.786,            0.,NA,NA,"",   1.08652E+06,   1.07206E+06,   1.07206E+06
C:/temp/Job-7.odb,Step-1,Increment      1: Step Time =    1.000,"P-7-1",           352,       135.932,       180.902,            0.,NA,NA,"",   1.07181E+06,   1.06346E+06,   1.06346E+06
C:/temp/Job-7.odb,Step-1,Increment      1: Step Time =    1.000,"P-7-1",           353,       124.650,       176.781,            0.,NA,NA,"",   1.08838E+06,   1.09637E+06,   1.09637E+06
C:/temp/Job-7.odb,Step-1,Increment      1: Step Time =    1.000,"P-7-1",           354,       117.800,       175.621,            0.,NA,NA,"",   1.07383E+06,   1.09639E+06,   1.09639E+06
C:/temp/Job-7.odb,Step-1,Increment      1: Step Time =    1.000,"P-7-1",           355,       104.949,       179.917,            0.,NA,NA,"",   1.01758E+06,   1.04644E+06,   1.04644E+06
C:/temp/Job-7.odb,Step-1,Increment      1: Step Time =    1.000,"P-7-1",           356,       92.2670,       176.829,            0.,NA,NA,"",   1.07345E+06,   1.10426E+06,   1.10426E+06
C:/temp/Job-7.odb,Step-1,Increment      1: Step Time =    1.000,"P-7-1",           357,       88.2055,       177.129,            0.,NA,NA,"",   1.09063E+06,   1.11370E+06,   1.11370E+06
C:/temp/Job-7.odb,Step-1,Increment      1: Step Time =    1.000,"P-7-1",           358,       74.8326,       180.422,            0.,NA,NA,"",   1.14275E+06,   1.14061E+06,   1.14061E+06
C:/temp/Job-7.odb,Step-1,Increment      1: Step Time =    1.000,"P-7-1",           359,       61.6650,       178.801,            0.,NA,NA,"",   1.21527E+06,   1.19865E+06,   1.19865E+06
C:/temp/Job-7.odb,Step-1,Increment      1: Step Time =    1.000,"P-7-1",           360,       51.6075,       176.945,            0.,NA,NA,"",   1.24742E+06,   1.22784E+06,   1.22784E+06
C:/temp/Job-7.odb,Step-1,Increment      1: Step Time =    1.000,"P-7-1",           361,       39.1538,       175.096,            0.,NA,NA,"",   1.25140E+06,   1.24308E+06,   1.24308E+06
C:/temp/Job-7.odb,Step-1,Increment      1: Step Time =    1.000,"P-7-1",           362,       30.8682,       179.743,            0.,NA,NA,"",   1.26333E+06,   1.26900E+06,   1.26900E+06
C:/temp/Job-7.odb,Step-1,Increment      1: Step Time =    1.000,"P-7-1",           363,       21.8984,       178.851,            0.,NA,NA,"",   1.25726E+06,   1.28616E+06,   1.28616E+06
C:/temp/Job-7.odb,Step-1,Increment      1: Step Time =    1.000,"P-7-1",           364,       11.1707,       179.347,            0.,NA,NA,"",   1.20768E+06,   1.28454E+06,   1.28454E+06
C:/temp/Job-7.odb,Step-1,Increment      1: Step Time =    1.000,"P-7-1",           365,       189.769,       190.244,            0.,NA,NA,"",   1.00137E+06,   1.00215E+06,   1.00215E+06
C:/temp/Job-7.odb,Step-1,Increment      1: Step Time =    1.000,"P-7-1",           366,       175.189,       191.329,            0.,NA,NA,"",   1.00913E+06,   1.00883E+06,   1.00883E+06
C:/temp/Job-7.odb,Step-1,Increment      1: Step Time =    1.000,"P-7-1",           367,       165.813,       191.383,            0.,NA,NA,"",   1.01376E+06,   1.01196E+06,   1.01196E+06
C:/temp/Job-7.odb,Step-1,Increment      1: Step Time =    1.000,"P-7-1",           368,       156.677,       190.853,            0.,NA,NA,"",   1.01544E+06,   1.01192E+06,   1.01192E+06
C:/temp/Job-7.odb,Step-1,Increment      1: Step Time =    1.000,"P-7-1",           369,       148.379,       189.512,            0.,NA,NA,"",   1.01575E+06,   1.01062E+06,   1.01062E+06
C:/temp/Job-7.odb,Step-1,Increment      1: Step Time =    1.000,"P-7-1",           370,       135.580,       190.216,            0.,NA,NA,"",   984.355E+03,   981.551E+03,   981.551E+03
C:/temp/Job-7.odb,Step-1,Increment      1: Step Time =    1.000,"P-7-1",           371,       125.906,       190.243,            0.,NA,NA,"",   955.568E+03,   956.355E+03,   956.355E+03
C:/temp/Job-7.odb,Step-1,Increment      1: Step Time =    1.000,"P-7-1",           372,       115.792,       189.412,            0.,NA,NA,"",   935.066E+03,   941.611E+03,   941.611E+03
C:/temp/Job-7.odb,Step-1,Increment      1: Step Time =    1.000,"P-7-1",           373,       105.532,       189.982,            0.,NA,NA,"",   920.153E+03,   929.475E+03,   929.475E+03
C:/temp/Job-7.odb,Step-1,Increment      1: Step Time =    1.000,"P-7-1",           374,       95.5826,       190.282,            0.,NA,NA,"",   935.852E+03,   943.963E+03,   943.963E+03
C:/temp/Job-7.odb,Step-1,Increment      1: Step Time =    1.000,"P-7-1",           375,       85.4627,       189.756,            0.,NA,NA,"",   988.561E+03,   992.834E+03,   992.834E+03
C:/temp/Job-7.odb,Step-1,Increment      1: Step Time =    1.000,"P-7-1",           376,       75.4430,       190.447,            0.,NA,NA,"",   1.04597E+06,   1.04516E+06,   1.04516E+06
C:/temp/Job-7.odb,Step-1,Increment      1: Step Time =    1.000,"P-7-1",           377,       65.7091,       191.219,            0.,NA,NA,"",   1.10441E+06,   1.10067E+06,   1.10067E+06
C:/temp/Job-7.odb,Step-1,Increment      1: Step Time =    1.000,"P-7-1",           378,       51.4298,       190.896,            0.,NA,NA,"",   1.18905E+06,   1.18444E+06,   1.18444E+06
C:/temp/Job-7.odb,Step-1,Increment      1: Step Time =    1.000,"P-7-1",           379,       41.3970,       188.659,            0.,NA,NA,"",   1.24059E+06,   1.23640E+06,   1.23640E+06
C:/temp/Job-7.odb,Step-1,Increment      1: Step Time =    1.000,"P-7-1",           380,       30.4705,       189.626,            0.,NA,NA,"",   1.28526E+06,   1.28716E+06,   1.28716E+06
C:/temp/Job-7.odb,Step-1,Increment      1: Step Time =    1.000,"P-7-1",           381,       20.3460,       189.524,            0.,NA,NA,"",   1.33933E+06,   1.35191E+06,   1.35191E+06
C:/temp/Job-7.odb,Step-1,Increment      1: Step Time =    1.000,"P-7-1",           382,       10.1825,       189.881,            0.,NA,NA,"",   1.41200E+06,   1.45996E+06,   1.45996E+06
C:/temp/Job-7.odb,Step-1,Increment      1: Step Time =    1.000,"P-7-1",           383,       95.0004,       127.550,            0.,NA,NA,"",   2.74811E+06,   2.80906E+06,   2.80906E+06
C:/temp/Job-7.odb,Step-1,Increment      1: Step Time =    1.000,"P-7-1",           384,       85.6388,       124.037,            0.,NA,NA,"",   1.77544E+06,   1.80340E+06,   1.80340E+06
C:/temp/Job-7.odb,Step-1,Increment      1: Step Time =    1.000,"P-7-1",           385,       78.1087,       117.458,            0.,NA,NA,"",   664.632E+03,   618.088E+03,   618.088E+03
C:/temp/Job-7.odb,Step-1,Increment      1: Step Time =    1.000,"P-7-1",           386,       75.3433,       113.268,            0.,NA,NA,"",   411.225E+03,  -37.0535E+03,  -37.0535E+03
C:/temp/Job-7.odb,Step-1,Increment      1: Step Time =    1.000,"P-7-1",           387,       72.2534,       103.759,            0.,NA,NA,"",   684.623E+03,  -690.828E+03,  -690.828E+03
C:/temp/Job-7.odb,Step-1,Increment      1: Step Time =    1.000,"P-7-1",           388,       72.7020,       93.7694,            0.,NA,NA,"",   538.776E+03,  -521.632E+03,  -521.632E+03
C:/temp/Job-7.odb,Step-1,Increment      1: Step Time =    1.000,"P-7-1",           389,       76.6320,       84.5749,            0.,NA,NA,"",   460.491E+03,   390.870E+03,   390.870E+03
C:/temp/Job-7.odb,Step-1,Increment      1: Step Time =    1.000,"P-7-1",           390,       83.5420,       77.3475,            0.,NA,NA,"",   1.52590E+06,   1.55611E+06,   1.55611E+06
C:/temp/Job-7.odb,Step-1,Increment      1: Step Time =    1.000,"P-7-1",           391,       92.5510,       73.0090,            0.,NA,NA,"",   2.54758E+06,   2.61366E+06,   2.61366E+06
C:/temp/Job-7.odb,Step-1,Increment      1: Step Time =    1.000,"P-7-1",           392,       102.510,       72.1127,            0.,NA,NA,"",   2.76384E+06,   2.86743E+06,   2.86743E+06
C:/temp/Job-7.odb,Step-1,Increment      1: Step Time =    1.000,"P-7-1",           393,       107.449,       73.0090,            0.,NA,NA,"",   2.59859E+06,   2.68063E+06,   2.68063E+06
C:/temp/Job-7.odb,Step-1,Increment      1: Step Time =    1.000,"P-7-1",           394,       116.458,       77.3475,            0.,NA,NA,"",   1.74318E+06,   1.76974E+06,   1.76974E+06
C:/temp/Job-7.odb,Step-1,Increment      1: Step Time =    1.000,"P-7-1",           395,       123.368,       84.5749,            0.,NA,NA,"",   551.533E+03,   218.714E+03,   218.714E+03
C:/temp/Job-7.odb,Step-1,Increment      1: Step Time =    1.000,"P-7-1",           396,       127.298,       93.7694,            0.,NA,NA,"",   739.824E+03,  -739.642E+03,  -739.642E+03
C:/temp/Job-7.odb,Step-1,Increment      1: Step Time =    1.000,"P-7-1",           397,       127.747,       103.759,            0.,NA,NA,"",   846.814E+03,  -853.143E+03,  -853.143E+03
C:/temp/Job-7.odb,Step-1,Increment      1: Step Time =    1.000,"P-7-1",           398,       124.657,       113.268,            0.,NA,NA,"",   483.865E+03,   3.47806E+03,   3.47806E+03
C:/temp/Job-7.odb,Step-1,Increment      1: Step Time =    1.000,"P-7-1",           399,       121.891,       117.458,            0.,NA,NA,"",   774.111E+03,   739.839E+03,   739.839E+03
C:/temp/Job-7.odb,Step-1,Increment      1: Step Time =    1.000,"P-7-1",           400,       114.361,       124.037,            0.,NA,NA,"",   1.95086E+06,   1.99307E+06,   1.99307E+06
C:/temp/Job-7.odb,Step-1,Increment      1: Step Time =    1.000,"P-7-1",           401,       105.000,       127.550,            0.,NA,NA,"",   2.59758E+06,   2.70676E+06,   2.70676E+06
C:/temp/Job-7.odb,Step-1,Increment      1: Step Time =    1.000,"P-7-1",           402,          195.,            0.,            0.,NA,NA,"",   999.398E+03,   999.347E+03,   999.347E+03
C:/temp/Job-7.odb,Step-1,Increment      1: Step Time =    1.000,"P-7-1",           403,          185.,            0.,            0.,NA,NA,"",   998.510E+03,   998.633E+03,   998.633E+03
C:/temp/Job-7.odb,Step-1,Increment      1: Step Time =    1.000,"P-7-1",           404,          175.,            0.,            0.,NA,NA,"",   1.00037E+06,   1.00029E+06,   1.00029E+06
C:/temp/Job-7.odb,Step-1,Increment      1: Step Time =    1.000,"P-7-1",           405,          165.,            0.,            0.,NA,NA,"",   999.900E+03,   999.520E+03,   999.520E+03
C:/temp/Job-7.odb,Step-1,Increment      1: Step Time =    1.000,"P-7-1",           406,          155.,            0.,            0.,NA,NA,"",   989.108E+03,   988.595E+03,   988.595E+03
C:/temp/Job-7.odb,Step-1,Increment      1: Step Time =    1.000,"P-7-1",           407,          145.,            0.,            0.,NA,NA,"",   960.859E+03,   960.358E+03,   960.358E+03
C:/temp/Job-7.odb,Step-1,Increment      1: Step Time =    1.000,"P-7-1",           408,          135.,            0.,            0.,NA,NA,"",   917.812E+03,   917.535E+03,   917.535E+03
C:/temp/Job-7.odb,Step-1,Increment      1: Step Time =    1.000,"P-7-1",           409,          125.,            0.,            0.,NA,NA,"",   869.538E+03,   869.812E+03,   869.812E+03
C:/temp/Job-7.odb,Step-1,Increment      1: Step Time =    1.000,"P-7-1",           410,          115.,            0.,            0.,NA,NA,"",   830.028E+03,   830.893E+03,   830.893E+03
C:/temp/Job-7.odb,Step-1,Increment      1: Step Time =    1.000,"P-7-1",           411,          105.,            0.,            0.,NA,NA,"",   815.533E+03,   816.669E+03,   816.669E+03
C:/temp/Job-7.odb,Step-1,Increment      1: Step Time =    1.000,"P-7-1",           412,           95.,            0.,            0.,NA,NA,"",   836.993E+03,   837.897E+03,   837.897E+03
C:/temp/Job-7.odb,Step-1,Increment      1: Step Time =    1.000,"P-7-1",           413,           85.,            0.,            0.,NA,NA,"",   893.321E+03,   893.806E+03,   893.806E+03
C:/temp/Job-7.odb,Step-1,Increment      1: Step Time =    1.000,"P-7-1",           414,           75.,            0.,            0.,NA,NA,"",   973.672E+03,   973.851E+03,   973.851E+03
C:/temp/Job-7.odb,Step-1,Increment      1: Step Time =    1.000,"P-7-1",           415,           65.,            0.,            0.,NA,NA,"",   1.06282E+06,   1.06316E+06,   1.06316E+06
C:/temp/Job-7.odb,Step-1,Increment      1: Step Time =    1.000,"P-7-1",           416,           55.,            0.,            0.,NA,NA,"",   1.14613E+06,   1.14495E+06,   1.14495E+06
C:/temp/Job-7.odb,Step-1,Increment      1: Step Time =    1.000,"P-7-1",           417,           45.,            0.,            0.,NA,NA,"",   1.21087E+06,   1.21014E+06,   1.21014E+06
C:/temp/Job-7.odb,Step-1,Increment      1: Step Time =    1.000,"P-7-1",           418,           35.,            0.,            0.,NA,NA,"",   1.25959E+06,   1.25976E+06,   1.25976E+06
C:/temp/Job-7.odb,Step-1,Increment      1: Step Time =    1.000,"P-7-1",           419,           25.,            0.,            0.,NA,NA,"",   1.30978E+06,   1.31114E+06,   1.31114E+06
C:/temp/Job-7.odb,Step-1,Increment      1: Step Time =    1.000,"P-7-1",           420,           15.,            0.,            0.,NA,NA,"",   1.39140E+06,   1.39741E+06,   1.39741E+06
C:/temp/Job-7.odb,Step-1,Increment      1: Step Time =    1.000,"P-7-1",           421,            5.,            0.,            0.,NA,NA,"",   1.69855E+06,   1.73759E+06,   1.73759E+06
C:/temp/Job-7.odb,Step-1,Increment      1: Step Time =    1.000,"P-7-1",           422,          200.,          195.,            0.,NA,NA,"",   1.00024E+06,   999.890E+03,   999.890E+03
C:/temp/Job-7.odb,Step-1,Increment      1: Step Time =    1.000,"P-7-1",           423,          200.,          185.,            0.,NA,NA,"",   1.00111E+06,   1.00064E+06,   1.00064E+06
C:/temp/Job-7.odb,Step-1,Increment      1: Step Time =    1.000,"P-7-1",           424,          200.,          175.,            0.,NA,NA,"",   997.904E+03,   1.00137E+06,   1.00137E+06
C:/temp/Job-7.odb,Step-1,Increment      1: Step Time =    1.000,"P-7-1",           425,          200.,          165.,            0.,NA,NA,"",   985.426E+03,   1.00143E+06,   1.00143E+06
C:/temp/Job-7.odb,Step-1,Increment      1: Step Time =    1.000,"P-7-1",           426,          200.,          155.,            0.,NA,NA,"",   963.950E+03,   1.00152E+06,   1.00152E+06
C:/temp/Job-7.odb,Step-1,Increment      1: Step Time =    1.000,"P-7-1",           427,          200.,          145.,            0.,NA,NA,"",   932.817E+03,   1.00145E+06,   1.00145E+06
C:/temp/Job-7.odb,Step-1,Increment      1: Step Time =    1.000,"P-7-1",           428,          200.,          135.,            0.,NA,NA,"",   901.948E+03,   1.00160E+06,   1.00160E+06
C:/temp/Job-7.odb,Step-1,Increment      1: Step Time =    1.000,"P-7-1",           429,          200.,          125.,            0.,NA,NA,"",   877.969E+03,   1.00028E+06,   1.00028E+06
C:/temp/Job-7.odb,Step-1,Increment      1: Step Time =    1.000,"P-7-1",           430,          200.,          115.,            0.,NA,NA,"",   866.158E+03,   998.303E+03,   998.303E+03
C:/temp/Job-7.odb,Step-1,Increment      1: Step Time =    1.000,"P-7-1",           431,          200.,          105.,            0.,NA,NA,"",   863.258E+03,   996.759E+03,   996.759E+03
C:/temp/Job-7.odb,Step-1,Increment      1: Step Time =    1.000,"P-7-1",           432,          200.,           95.,            0.,NA,NA,"",   863.054E+03,   996.524E+03,   996.524E+03
C:/temp/Job-7.odb,Step-1,Increment      1: Step Time =    1.000,"P-7-1",           433,          200.,           85.,            0.,NA,NA,"",   866.249E+03,   998.264E+03,   998.264E+03
C:/temp/Job-7.odb,Step-1,Increment      1: Step Time =    1.000,"P-7-1",           434,          200.,           75.,            0.,NA,NA,"",   878.182E+03,   1.00015E+06,   1.00015E+06
C:/temp/Job-7.odb,Step-1,Increment      1: Step Time =    1.000,"P-7-1",           435,          200.,           65.,            0.,NA,NA,"",   901.664E+03,   1.00074E+06,   1.00074E+06
C:/temp/Job-7.odb,Step-1,Increment      1: Step Time =    1.000,"P-7-1",           436,          200.,           55.,            0.,NA,NA,"",   935.724E+03,   1.00329E+06,   1.00329E+06
C:/temp/Job-7.odb,Step-1,Increment      1: Step Time =    1.000,"P-7-1",           437,          200.,           45.,            0.,NA,NA,"",   965.368E+03,   1.00231E+06,   1.00231E+06
C:/temp/Job-7.odb,Step-1,Increment      1: Step Time =    1.000,"P-7-1",           438,          200.,           35.,            0.,NA,NA,"",   986.346E+03,   1.00131E+06,   1.00131E+06
C:/temp/Job-7.odb,Step-1,Increment      1: Step Time =    1.000,"P-7-1",           439,          200.,           25.,            0.,NA,NA,"",   997.741E+03,   1.00084E+06,   1.00084E+06
C:/temp/Job-7.odb,Step-1,Increment      1: Step Time =    1.000,"P-7-1",           440,          200.,           15.,            0.,NA,NA,"",   1.00110E+06,   1.00046E+06,   1.00046E+06
C:/temp/Job-7.odb,Step-1,Increment      1: Step Time =    1.000,"P-7-1",           441,          200.,            5.,            0.,NA,NA,"",   1.00022E+06,   999.881E+03,   999.881E+03
C:/temp/Job-7.odb,Step-1,Increment      1: Step Time =    1.000,"P-7-1",           442,            5.,          200.,            0.,NA,NA,"",   1.69530E+06,   1.73466E+06,   1.73466E+06
C:/temp/Job-7.odb,Step-1,Increment      1: Step Time =    1.000,"P-7-1",           443,           15.,          200.,            0.,NA,NA,"",   1.39077E+06,   1.39675E+06,   1.39675E+06
C:/temp/Job-7.odb,Step-1,Increment      1: Step Time =    1.000,"P-7-1",           444,           25.,          200.,            0.,NA,NA,"",   1.30880E+06,   1.31015E+06,   1.31015E+06
C:/temp/Job-7.odb,Step-1,Increment      1: Step Time =    1.000,"P-7-1",           445,           35.,          200.,            0.,NA,NA,"",   1.25816E+06,   1.25833E+06,   1.25833E+06
C:/temp/Job-7.odb,Step-1,Increment      1: Step Time =    1.000,"P-7-1",           446,           45.,          200.,            0.,NA,NA,"",   1.20850E+06,   1.20822E+06,   1.20822E+06
C:/temp/Job-7.odb,Step-1,Increment      1: Step Time =    1.000,"P-7-1",           447,           55.,          200.,            0.,NA,NA,"",   1.14280E+06,   1.14248E+06,   1.14248E+06
C:/temp/Job-7.odb,Step-1,Increment      1: Step Time =    1.000,"P-7-1",           448,           65.,          200.,            0.,NA,NA,"",   1.06201E+06,   1.06158E+06,   1.06158E+06
C:/temp/Job-7.odb,Step-1,Increment      1: Step Time =    1.000,"P-7-1",           449,           75.,          200.,            0.,NA,NA,"",   974.209E+03,   974.186E+03,   974.186E+03
C:/temp/Job-7.odb,Step-1,Increment      1: Step Time =    1.000,"P-7-1",           450,           85.,          200.,            0.,NA,NA,"",   895.505E+03,   895.970E+03,   895.970E+03
C:/temp/Job-7.odb,Step-1,Increment      1: Step Time =    1.000,"P-7-1",           451,           95.,          200.,            0.,NA,NA,"",   837.905E+03,   839.035E+03,   839.035E+03
C:/temp/Job-7.odb,Step-1,Increment      1: Step Time =    1.000,"P-7-1",           452,          105.,          200.,            0.,NA,NA,"",   816.009E+03,   817.265E+03,   817.265E+03
C:/temp/Job-7.odb,Step-1,Increment      1: Step Time =    1.000,"P-7-1",           453,          115.,          200.,            0.,NA,NA,"",   831.346E+03,   831.969E+03,   831.969E+03
C:/temp/Job-7.odb,Step-1,Increment      1: Step Time =    1.000,"P-7-1",           454,          125.,          200.,            0.,NA,NA,"",   870.648E+03,   870.904E+03,   870.904E+03
C:/temp/Job-7.odb,Step-1,Increment      1: Step Time =    1.000,"P-7-1",           455,          135.,          200.,            0.,NA,NA,"",   921.076E+03,   920.934E+03,   920.934E+03
C:/temp/Job-7.odb,Step-1,Increment      1: Step Time =    1.000,"P-7-1",           456,          145.,          200.,            0.,NA,NA,"",   964.430E+03,   963.460E+03,   963.460E+03
C:/temp/Job-7.odb,Step-1,Increment      1: Step Time =    1.000,"P-7-1",           457,          155.,          200.,            0.,NA,NA,"",   989.599E+03,   989.141E+03,   989.141E+03
C:/temp/Job-7.odb,Step-1,Increment      1: Step Time =    1.000,"P-7-1",           458,          165.,          200.,            0.,NA,NA,"",   999.284E+03,   999.060E+03,   999.060E+03
C:/temp/Job-7.odb,Step-1,Increment      1: Step Time =    1.000,"P-7-1",           459,          175.,          200.,            0.,NA,NA,"",   999.283E+03,   999.279E+03,   999.279E+03
C:/temp/Job-7.odb,Step-1,Increment      1: Step Time =    1.000,"P-7-1",           460,          185.,          200.,            0.,NA,NA,"",   997.863E+03,   997.979E+03,   997.979E+03
C:/temp/Job-7.odb,Step-1,Increment      1: Step Time =    1.000,"P-7-1",           461,          195.,          200.,            0.,NA,NA,"",   999.338E+03,   999.273E+03,   999.273E+03
C:/temp/Job-7.odb,Step-1,Increment      1: Step Time =    1.000,"P-7-1",           462,            0.,            5.,            0.,NA,NA,"",   1.62157E+06,   1.72699E+06,   1.72699E+06
C:/temp/Job-7.odb,Step-1,Increment      1: Step Time =    1.000,"P-7-1",           463,            0.,           15.,            0.,NA,NA,"",   1.21365E+06,   1.33688E+06,   1.33688E+06
C:/temp/Job-7.odb,Step-1,Increment      1: Step Time =    1.000,"P-7-1",           464,            0.,           25.,            0.,NA,NA,"",   1.07196E+06,   1.19241E+06,   1.19241E+06
C:/temp/Job-7.odb,Step-1,Increment      1: Step Time =    1.000,"P-7-1",           465,            0.,           35.,            0.,NA,NA,"",   972.991E+03,   1.08861E+06,   1.08861E+06
C:/temp/Job-7.odb,Step-1,Increment      1: Step Time =    1.000,"P-7-1",           466,            0.,           45.,            0.,NA,NA,"",   890.602E+03,   999.450E+03,   999.450E+03
C:/temp/Job-7.odb,Step-1,Increment      1: Step Time =    1.000,"P-7-1",           467,            0.,           55.,            0.,NA,NA,"",   812.502E+03,   913.466E+03,   913.466E+03
C:/temp/Job-7.odb,Step-1,Increment      1: Step Time =    1.000,"P-7-1",           468,            0.,           65.,            0.,NA,NA,"",   735.025E+03,   827.630E+03,   827.630E+03
C:/temp/Job-7.odb,Step-1,Increment      1: Step Time =    1.000,"P-7-1",           469,            0.,           75.,            0.,NA,NA,"",   660.558E+03,   745.446E+03,   745.446E+03
C:/temp/Job-7.odb,Step-1,Increment      1: Step Time =    1.000,"P-7-1",           470,            0.,           85.,            0.,NA,NA,"",   599.303E+03,   678.404E+03,   678.404E+03
C:/temp/Job-7.odb,Step-1,Increment      1: Step Time =    1.000,"P-7-1",           471,            0.,           95.,            0.,NA,NA,"",   563.912E+03,   639.955E+03,   639.955E+03
C:/temp/Job-7.odb,Step-1,Increment      1: Step Time =    1.000,"P-7-1",           472,            0.,          105.,            0.,NA,NA,"",   564.840E+03,   640.923E+03,   640.923E+03
C:/temp/Job-7.odb,Step-1,Increment      1: Step Time =    1.000,"P-7-1",           473,            0.,          115.,            0.,NA,NA,"",   600.319E+03,   679.473E+03,   679.473E+03
C:/temp/Job-7.odb,Step-1,Increment      1: Step Time =    1.000,"P-7-1",           474,            0.,          125.,            0.,NA,NA,"",   659.611E+03,   744.457E+03,   744.457E+03
C:/temp/Job-7.odb,Step-1,Increment      1: Step Time =    1.000,"P-7-1",           475,            0.,          135.,            0.,NA,NA,"",   733.594E+03,   825.573E+03,   825.573E+03
C:/temp/Job-7.odb,Step-1,Increment      1: Step Time =    1.000,"P-7-1",           476,            0.,          145.,            0.,NA,NA,"",   816.074E+03,   915.530E+03,   915.530E+03
C:/temp/Job-7.odb,Step-1,Increment      1: Step Time =    1.000,"P-7-1",           477,            0.,          155.,            0.,NA,NA,"",   892.940E+03,   1.00251E+06,   1.00251E+06
C:/temp/Job-7.odb,Step-1,Increment      1: Step Time =    1.000,"P-7-1",           478,            0.,          165.,            0.,NA,NA,"",   972.429E+03,   1.08839E+06,   1.08839E+06
C:/temp/Job-7.odb,Step-1,Increment      1: Step Time =    1.000,"P-7-1",           479,            0.,          175.,            0.,NA,NA,"",   1.07127E+06,   1.19183E+06,   1.19183E+06
C:/temp/Job-7.odb,Step-1,Increment      1: Step Time =    1.000,"P-7-1",           480,            0.,          185.,            0.,NA,NA,"",   1.21361E+06,   1.33653E+06,   1.33653E+06
C:/temp/Job-7.odb,Step-1,Increment      1: Step Time =    1.000,"P-7-1",           481,            0.,          195.,            0.,NA,NA,"",   1.61764E+06,   1.72283E+06,   1.72283E+06
C:/temp/Job-7.odb,Step-1,Increment      1: Step Time =    1.000,"P-7-1",           482,       122.846,       73.8863,            0.,NA,NA,"",   1.47202E+06,   1.42172E+06,   1.42172E+06
C:/temp/Job-7.odb,Step-1,Increment      1: Step Time =    1.000,"P-7-1",           483,       79.2900,       73.8175,            0.,NA,NA,"",   1.37983E+06,   1.36951E+06,   1.36951E+06
C:/temp/Job-7.odb,Step-1,Increment      1: Step Time =    1.000,"P-7-1",           484,       87.3657,       70.8823,            0.,NA,NA,"",   1.99843E+06,   2.05749E+06,   2.05749E+06
C:/temp/Job-7.odb,Step-1,Increment      1: Step Time =    1.000,"P-7-1",           485,       114.128,       70.1388,            0.,NA,NA,"",   2.02955E+06,   2.09410E+06,   2.09410E+06
C:/temp/Job-7.odb,Step-1,Increment      1: Step Time =    1.000,"P-7-1",           486,       195.237,       44.4003,            0.,NA,NA,"",   970.156E+03,   1.00575E+06,   1.00575E+06
C:/temp/Job-7.odb,Step-1,Increment      1: Step Time =    1.000,"P-7-1",           487,       4.81678,       40.0952,            0.,NA,NA,"",   948.312E+03,   1.05415E+06,   1.05415E+06
C:/temp/Job-7.odb,Step-1,Increment      1: Step Time =    1.000,"P-7-1",           488,       4.85997,       30.2396,            0.,NA,NA,"",   1.03870E+06,   1.14842E+06,   1.14842E+06
C:/temp/Job-7.odb,Step-1,Increment      1: Step Time =    1.000,"P-7-1",           489,       5.28946,       20.1847,            0.,NA,NA,"",   1.16098E+06,   1.26937E+06,   1.26937E+06
C:/temp/Job-7.odb,Step-1,Increment      1: Step Time =    1.000,"P-7-1",           490,       25.1487,       5.01110,            0.,NA,NA,"",   1.31230E+06,   1.31462E+06,   1.31462E+06
C:/temp/Job-7.odb,Step-1,Increment      1: Step Time =    1.000,"P-7-1",           491,       34.9972,       4.64556,            0.,NA,NA,"",   1.26135E+06,   1.26112E+06,   1.26112E+06
C:/temp/Job-7.odb,Step-1,Increment      1: Step Time =    1.000,"P-7-1",           492,       194.934,       84.8897,            0.,NA,NA,"",   868.863E+03,   995.787E+03,   995.787E+03
C:/temp/Job-7.odb,Step-1,Increment      1: Step Time =    1.000,"P-7-1",           493,       194.952,       94.9658,            0.,NA,NA,"",   859.904E+03,   990.274E+03,   990.274E+03
C:/temp/Job-7.odb,Step-1,Increment      1: Step Time =    1.000,"P-7-1",           494,       95.2723,       195.090,            0.,NA,NA,"",   873.574E+03,   876.534E+03,   876.534E+03
C:/temp/Job-7.odb,Step-1,Increment      1: Step Time =    1.000,"P-7-1",           495,       85.2331,       194.985,            0.,NA,NA,"",   927.606E+03,   928.885E+03,   928.885E+03
C:/temp/Job-7.odb,Step-1,Increment      1: Step Time =    1.000,"P-7-1",           496,       4.88002,       104.958,            0.,NA,NA,"",   559.077E+03,   636.015E+03,   636.015E+03
C:/temp/Job-7.odb,Step-1,Increment      1: Step Time =    1.000,"P-7-1",           497,       4.88043,       95.0333,            0.,NA,NA,"",   557.938E+03,   634.820E+03,   634.820E+03
C:/temp/Job-7.odb,Step-1,Increment      1: Step Time =    1.000,"P-7-1",           498,       5.00045,       9.96446,            0.,NA,NA,"",   1.37886E+06,   1.47397E+06,   1.47397E+06
C:/temp/Job-7.odb,Step-1,Increment      1: Step Time =    1.000,"P-7-1",           499,       14.9868,       5.06842,            0.,NA,NA,"",   1.39617E+06,   1.40641E+06,   1.40641E+06
C:/temp/Job-7.odb,Step-1,Increment      1: Step Time =    1.000,"P-7-1",           500,       44.6107,       4.84426,            0.,NA,NA,"",   1.21441E+06,   1.21265E+06,   1.21265E+06
C:/temp/Job-7.odb,Step-1,Increment      1: Step Time =    1.000,"P-7-1",           501,       55.1278,       6.99546,            0.,NA,NA,"",   1.16157E+06,   1.15780E+06,   1.15780E+06
C:/temp/Job-7.odb,Step-1,Increment      1: Step Time =    1.000,"P-7-1",           502,       65.5533,       5.02780,            0.,NA,NA,"",   1.07662E+06,   1.07566E+06,   1.07566E+06
C:/temp/Job-7.odb,Step-1,Increment      1: Step Time =    1.000,"P-7-1",           503,       75.3102,       4.61041,            0.,NA,NA,"",   996.246E+03,   995.991E+03,   995.991E+03
C:/temp/Job-7.odb,Step-1,Increment      1: Step Time =    1.000,"P-7-1",           504,       85.1035,       4.73791,            0.,NA,NA,"",   924.492E+03,   925.714E+03,   925.714E+03
C:/temp/Job-7.odb,Step-1,Increment      1: Step Time =    1.000,"P-7-1",           505,       94.9890,       4.94587,            0.,NA,NA,"",   873.652E+03,   876.457E+03,   876.457E+03
C:/temp/Job-7.odb,Step-1,Increment      1: Step Time =    1.000,"P-7-1",           506,       104.938,       5.07139,            0.,NA,NA,"",   853.496E+03,   856.878E+03,   856.878E+03
C:/temp/Job-7.odb,Step-1,Increment      1: Step Time =    1.000,"P-7-1",           507,       114.910,       5.13324,            0.,NA,NA,"",   865.494E+03,   867.843E+03,   867.843E+03
C:/temp/Job-7.odb,Step-1,Increment      1: Step Time =    1.000,"P-7-1",           508,       124.906,       5.07249,            0.,NA,NA,"",   898.982E+03,   899.516E+03,   899.516E+03
C:/temp/Job-7.odb,Step-1,Increment      1: Step Time =    1.000,"P-7-1",           509,       134.828,       4.85283,            0.,NA,NA,"",   938.698E+03,   937.816E+03,   937.816E+03
C:/temp/Job-7.odb,Step-1,Increment      1: Step Time =    1.000,"P-7-1",           510,       144.616,       4.47701,            0.,NA,NA,"",   972.343E+03,   971.067E+03,   971.067E+03
C:/temp/Job-7.odb,Step-1,Increment      1: Step Time =    1.000,"P-7-1",           511,       154.421,       4.81109,            0.,NA,NA,"",   997.127E+03,   995.609E+03,   995.609E+03
C:/temp/Job-7.odb,Step-1,Increment      1: Step Time =    1.000,"P-7-1",           512,       164.388,       5.31804,            0.,NA,NA,"",   1.00642E+06,   1.00525E+06,   1.00525E+06
C:/temp/Job-7.odb,Step-1,Increment      1: Step Time =    1.000,"P-7-1",           513,       174.611,       5.36979,            0.,NA,NA,"",   1.00465E+06,   1.00440E+06,   1.00440E+06
C:/temp/Job-7.odb,Step-1,Increment      1: Step Time =    1.000,"P-7-1",           514,       184.885,       5.46046,            0.,NA,NA,"",   1.00073E+06,   1.00112E+06,   1.00112E+06
C:/temp/Job-7.odb,Step-1,Increment      1: Step Time =    1.000,"P-7-1",           515,       195.033,       5.06213,            0.,NA,NA,"",   999.904E+03,   999.820E+03,   999.820E+03
C:/temp/Job-7.odb,Step-1,Increment      1: Step Time =    1.000,"P-7-1",           516,       195.316,       15.0221,            0.,NA,NA,"",   1.00087E+06,   1.00135E+06,   1.00135E+06
C:/temp/Job-7.odb,Step-1,Increment      1: Step Time =    1.000,"P-7-1",           517,       195.584,       24.9282,            0.,NA,NA,"",   997.757E+03,   1.00244E+06,   1.00244E+06
C:/temp/Job-7.odb,Step-1,Increment      1: Step Time =    1.000,"P-7-1",           518,       195.575,       34.7038,            0.,NA,NA,"",   987.822E+03,   1.00373E+06,   1.00373E+06
C:/temp/Job-7.odb,Step-1,Increment      1: Step Time =    1.000,"P-7-1",           519,       193.874,       54.5594,            0.,NA,NA,"",   948.889E+03,   1.00965E+06,   1.00965E+06
C:/temp/Job-7.odb,Step-1,Increment      1: Step Time =    1.000,"P-7-1",           520,       194.808,       65.0038,            0.,NA,NA,"",   912.541E+03,   1.00489E+06,   1.00489E+06
C:/temp/Job-7.odb,Step-1,Increment      1: Step Time =    1.000,"P-7-1",           521,       194.914,       74.9114,            0.,NA,NA,"",   886.737E+03,   1.00163E+06,   1.00163E+06
C:/temp/Job-7.odb,Step-1,Increment      1: Step Time =    1.000,"P-7-1",           522,       194.988,       105.039,            0.,NA,NA,"",   860.319E+03,   990.781E+03,   990.781E+03
C:/temp/Job-7.odb,Step-1,Increment      1: Step Time =    1.000,"P-7-1",           523,       105.330,       194.981,            0.,NA,NA,"",   853.473E+03,   856.902E+03,   856.902E+03
C:/temp/Job-7.odb,Step-1,Increment      1: Step Time =    1.000,"P-7-1",           524,       195.085,       115.023,            0.,NA,NA,"",   868.286E+03,   995.654E+03,   995.654E+03
C:/temp/Job-7.odb,Step-1,Increment      1: Step Time =    1.000,"P-7-1",           525,       115.373,       194.818,            0.,NA,NA,"",   867.172E+03,   869.273E+03,   869.273E+03
C:/temp/Job-7.odb,Step-1,Increment      1: Step Time =    1.000,"P-7-1",           526,       195.228,       125.006,            0.,NA,NA,"",   885.715E+03,   1.00156E+06,   1.00156E+06
C:/temp/Job-7.odb,Step-1,Increment      1: Step Time =    1.000,"P-7-1",           527,       125.398,       195.071,            0.,NA,NA,"",   900.095E+03,   900.524E+03,   900.524E+03
C:/temp/Job-7.odb,Step-1,Increment      1: Step Time =    1.000,"P-7-1",           528,       195.419,       134.915,            0.,NA,NA,"",   911.320E+03,   1.00503E+06,   1.00503E+06
C:/temp/Job-7.odb,Step-1,Increment      1: Step Time =    1.000,"P-7-1",           529,       135.365,       195.013,            0.,NA,NA,"",   941.736E+03,   940.839E+03,   940.839E+03
C:/temp/Job-7.odb,Step-1,Increment      1: Step Time =    1.000,"P-7-1",           530,       195.680,       144.656,            0.,NA,NA,"",   938.948E+03,   1.00479E+06,   1.00479E+06
C:/temp/Job-7.odb,Step-1,Increment      1: Step Time =    1.000,"P-7-1",           531,       195.252,       154.431,            0.,NA,NA,"",   967.840E+03,   1.00545E+06,   1.00545E+06
C:/temp/Job-7.odb,Step-1,Increment      1: Step Time =    1.000,"P-7-1",           532,       145.894,       193.988,            0.,NA,NA,"",   984.390E+03,   981.991E+03,   981.991E+03
C:/temp/Job-7.odb,Step-1,Increment      1: Step Time =    1.000,"P-7-1",           533,       194.727,       164.400,            0.,NA,NA,"",   988.152E+03,   1.00523E+06,   1.00523E+06
C:/temp/Job-7.odb,Step-1,Increment      1: Step Time =    1.000,"P-7-1",           534,       155.746,       195.381,            0.,NA,NA,"",   997.037E+03,   995.811E+03,   995.811E+03
C:/temp/Job-7.odb,Step-1,Increment      1: Step Time =    1.000,"P-7-1",           535,       194.683,       174.640,            0.,NA,NA,"",   998.587E+03,   1.00377E+06,   1.00377E+06
C:/temp/Job-7.odb,Step-1,Increment      1: Step Time =    1.000,"P-7-1",           536,       165.395,       195.711,            0.,NA,NA,"",   1.00363E+06,   1.00297E+06,   1.00297E+06
C:/temp/Job-7.odb,Step-1,Increment      1: Step Time =    1.000,"P-7-1",           537,       194.575,       184.908,            0.,NA,NA,"",   1.00125E+06,   1.00189E+06,   1.00189E+06
C:/temp/Job-7.odb,Step-1,Increment      1: Step Time =    1.000,"P-7-1",           538,       175.144,       195.655,            0.,NA,NA,"",   1.00242E+06,   1.00235E+06,   1.00235E+06
C:/temp/Job-7.odb,Step-1,Increment      1: Step Time =    1.000,"P-7-1",           539,       194.950,       195.042,            0.,NA,NA,"",   999.894E+03,   999.780E+03,   999.780E+03
C:/temp/Job-7.odb,Step-1,Increment      1: Step Time =    1.000,"P-7-1",           540,       185.015,       195.342,            0.,NA,NA,"",   999.775E+03,   1.00008E+06,   1.00008E+06
C:/temp/Job-7.odb,Step-1,Increment      1: Step Time =    1.000,"P-7-1",           541,       75.3053,       195.266,            0.,NA,NA,"",   997.946E+03,   997.669E+03,   997.669E+03
C:/temp/Job-7.odb,Step-1,Increment      1: Step Time =    1.000,"P-7-1",           542,       65.4037,       195.620,            0.,NA,NA,"",   1.07518E+06,   1.07378E+06,   1.07378E+06
C:/temp/Job-7.odb,Step-1,Increment      1: Step Time =    1.000,"P-7-1",           543,       55.5283,       195.626,            0.,NA,NA,"",   1.14822E+06,   1.14668E+06,   1.14668E+06
C:/temp/Job-7.odb,Step-1,Increment      1: Step Time =    1.000,"P-7-1",           544,       45.6248,       195.003,            0.,NA,NA,"",   1.20965E+06,   1.20814E+06,   1.20814E+06
C:/temp/Job-7.odb,Step-1,Increment      1: Step Time =    1.000,"P-7-1",           545,       35.4392,       194.635,            0.,NA,NA,"",   1.26035E+06,   1.25973E+06,   1.25973E+06
C:/temp/Job-7.odb,Step-1,Increment      1: Step Time =    1.000,"P-7-1",           546,       25.2171,       194.768,            0.,NA,NA,"",   1.31236E+06,   1.31449E+06,   1.31449E+06
C:/temp/Job-7.odb,Step-1,Increment      1: Step Time =    1.000,"P-7-1",           547,       15.1583,       194.856,            0.,NA,NA,"",   1.39358E+06,   1.40368E+06,   1.40368E+06
C:/temp/Job-7.odb,Step-1,Increment      1: Step Time =    1.000,"P-7-1",           548,       5.07841,       194.938,            0.,NA,NA,"",   1.58252E+06,   1.64460E+06,   1.64460E+06
C:/temp/Job-7.odb,Step-1,Increment      1: Step Time =    1.000,"P-7-1",           549,       5.25850,       184.819,            0.,NA,NA,"",   1.24028E+06,   1.34574E+06,   1.34574E+06
C:/temp/Job-7.odb,Step-1,Increment      1: Step Time =    1.000,"P-7-1",           550,       5.07679,       174.698,            0.,NA,NA,"",   1.09169E+06,   1.20154E+06,   1.20154E+06
C:/temp/Job-7.odb,Step-1,Increment      1: Step Time =    1.000,"P-7-1",           551,       4.61583,       164.868,            0.,NA,NA,"",   989.683E+03,   1.09866E+06,   1.09866E+06
C:/temp/Job-7.odb,Step-1,Increment      1: Step Time =    1.000,"P-7-1",           552,       4.80906,       155.322,            0.,NA,NA,"",   910.176E+03,   1.01407E+06,   1.01407E+06
C:/temp/Job-7.odb,Step-1,Increment      1: Step Time =    1.000,"P-7-1",           553,       6.98900,       144.813,            0.,NA,NA,"",   835.785E+03,   928.044E+03,   928.044E+03
C:/temp/Job-7.odb,Step-1,Increment      1: Step Time =    1.000,"P-7-1",           554,       5.09860,       134.408,            0.,NA,NA,"",   737.213E+03,   826.533E+03,   826.533E+03
C:/temp/Job-7.odb,Step-1,Increment      1: Step Time =    1.000,"P-7-1",           555,       4.71021,       124.609,            0.,NA,NA,"",   659.501E+03,   743.518E+03,   743.518E+03
C:/temp/Job-7.odb,Step-1,Increment      1: Step Time =    1.000,"P-7-1",           556,       4.79924,       114.814,            0.,NA,NA,"",   596.784E+03,   676.316E+03,   676.316E+03
C:/temp/Job-7.odb,Step-1,Increment      1: Step Time =    1.000,"P-7-1",           557,       4.92478,       85.0218,            0.,NA,NA,"",   596.039E+03,   675.486E+03,   675.486E+03
C:/temp/Job-7.odb,Step-1,Increment      1: Step Time =    1.000,"P-7-1",           558,       4.90250,       74.9756,            0.,NA,NA,"",   662.280E+03,   746.308E+03,   746.308E+03
C:/temp/Job-7.odb,Step-1,Increment      1: Step Time =    1.000,"P-7-1",           559,       4.90061,       64.9301,            0.,NA,NA,"",   742.721E+03,   832.753E+03,   832.753E+03
C:/temp/Job-7.odb,Step-1,Increment      1: Step Time =    1.000,"P-7-1",           560,       4.91710,       54.9596,            0.,NA,NA,"",   825.114E+03,   921.735E+03,   921.735E+03
C:/temp/Job-7.odb,Step-1,Increment      1: Step Time =    1.000,"P-7-1",           561,       190.009,       5.22050,            0.,NA,NA,"",   999.706E+03,   1.00003E+06,   1.00003E+06
C:/temp/Job-7.odb,Step-1,Increment      1: Step Time =    1.000,"P-7-1",           562,       179.709,       5.65284,            0.,NA,NA,"",   1.00264E+06,   1.00280E+06,   1.00280E+06
C:/temp/Job-7.odb,Step-1,Increment      1: Step Time =    1.000,"P-7-1",           563,       169.480,       5.24436,            0.,NA,NA,"",   1.00628E+06,   1.00550E+06,   1.00550E+06
C:/temp/Job-7.odb,Step-1,Increment      1: Step Time =    1.000,"P-7-1",           564,       159.326,       5.34001,            0.,NA,NA,"",   1.00384E+06,   1.00241E+06,   1.00241E+06
C:/temp/Job-7.odb,Step-1,Increment      1: Step Time =    1.000,"P-7-1",           565,       149.401,       4.45023,            0.,NA,NA,"",   986.085E+03,   984.722E+03,   984.722E+03
C:/temp/Job-7.odb,Step-1,Increment      1: Step Time =    1.000,"P-7-1",           566,       139.759,       4.66914,            0.,NA,NA,"",   956.658E+03,   955.482E+03,   955.482E+03
C:/temp/Job-7.odb,Step-1,Increment      1: Step Time =    1.000,"P-7-1",           567,       129.869,       4.97994,            0.,NA,NA,"",   918.967E+03,   918.633E+03,   918.633E+03
C:/temp/Job-7.odb,Step-1,Increment      1: Step Time =    1.000,"P-7-1",           568,       119.911,       5.12305,            0.,NA,NA,"",   880.518E+03,   881.926E+03,   881.926E+03
C:/temp/Job-7.odb,Step-1,Increment      1: Step Time =    1.000,"P-7-1",           569,       109.917,       5.11329,            0.,NA,NA,"",   855.933E+03,   858.971E+03,   858.971E+03
C:/temp/Job-7.odb,Step-1,Increment      1: Step Time =    1.000,"P-7-1",           570,       99.9663,       5.01586,            0.,NA,NA,"",   859.315E+03,   862.694E+03,   862.694E+03
C:/temp/Job-7.odb,Step-1,Increment      1: Step Time =    1.000,"P-7-1",           571,       90.0383,       4.84175,            0.,NA,NA,"",   895.790E+03,   897.886E+03,   897.886E+03
C:/temp/Job-7.odb,Step-1,Increment      1: Step Time =    1.000,"P-7-1",           572,       80.1918,       4.63840,            0.,NA,NA,"",   958.523E+03,   958.894E+03,   958.894E+03
C:/temp/Job-7.odb,Step-1,Increment      1: Step Time =    1.000,"P-7-1",           573,       70.4387,       4.70739,            0.,NA,NA,"",   1.03626E+06,   1.03549E+06,   1.03549E+06
C:/temp/Job-7.odb,Step-1,Increment      1: Step Time =    1.000,"P-7-1",           574,       60.6052,       5.71099,            0.,NA,NA,"",   1.11732E+06,   1.11565E+06,   1.11565E+06
C:/temp/Job-7.odb,Step-1,Increment      1: Step Time =    1.000,"P-7-1",           575,       49.5164,       5.44676,            0.,NA,NA,"",   1.18899E+06,   1.18617E+06,   1.18617E+06
C:/temp/Job-7.odb,Step-1,Increment      1: Step Time =    1.000,"P-7-1",           576,       39.8246,       4.65357,            0.,NA,NA,"",   1.23831E+06,   1.23744E+06,   1.23744E+06
C:/temp/Job-7.odb,Step-1,Increment      1: Step Time =    1.000,"P-7-1",           577,       30.1069,       4.76838,            0.,NA,NA,"",   1.28516E+06,   1.28594E+06,   1.28594E+06
C:/temp/Job-7.odb,Step-1,Increment      1: Step Time =    1.000,"P-7-1",           578,       20.1039,       5.22151,            0.,NA,NA,"",   1.34794E+06,   1.35274E+06,   1.35274E+06
C:/temp/Job-7.odb,Step-1,Increment      1: Step Time =    1.000,"P-7-1",           579,       9.94723,       4.97467,            0.,NA,NA,"",   1.48852E+06,   1.50483E+06,   1.50483E+06
C:/temp/Job-7.odb,Step-1,Increment      1: Step Time =    1.000,"P-7-1",           580,       194.805,       190.027,            0.,NA,NA,"",   1.00087E+06,   1.00082E+06,   1.00082E+06
C:/temp/Job-7.odb,Step-1,Increment      1: Step Time =    1.000,"P-7-1",           581,       194.394,       179.744,            0.,NA,NA,"",   1.00064E+06,   1.00289E+06,   1.00289E+06
C:/temp/Job-7.odb,Step-1,Increment      1: Step Time =    1.000,"P-7-1",           582,       194.808,       169.504,            0.,NA,NA,"",   994.508E+03,   1.00450E+06,   1.00450E+06
C:/temp/Job-7.odb,Step-1,Increment      1: Step Time =    1.000,"P-7-1",           583,       194.703,       159.335,            0.,NA,NA,"",   979.692E+03,   1.00584E+06,   1.00584E+06
C:/temp/Job-7.odb,Step-1,Increment      1: Step Time =    1.000,"P-7-1",           584,       195.653,       149.427,            0.,NA,NA,"",   953.228E+03,   1.00464E+06,   1.00464E+06
C:/temp/Job-7.odb,Step-1,Increment      1: Step Time =    1.000,"P-7-1",           585,       195.553,       139.825,            0.,NA,NA,"",   925.183E+03,   1.00525E+06,   1.00525E+06
C:/temp/Job-7.odb,Step-1,Increment      1: Step Time =    1.000,"P-7-1",           586,       195.322,       129.975,            0.,NA,NA,"",   897.887E+03,   1.00382E+06,   1.00382E+06
C:/temp/Job-7.odb,Step-1,Increment      1: Step Time =    1.000,"P-7-1",           587,       195.158,       120.014,            0.,NA,NA,"",   875.689E+03,   998.669E+03,   998.669E+03
C:/temp/Job-7.odb,Step-1,Increment      1: Step Time =    1.000,"P-7-1",           588,       195.031,       110.032,            0.,NA,NA,"",   863.365E+03,   992.964E+03,   992.964E+03
C:/temp/Job-7.odb,Step-1,Increment      1: Step Time =    1.000,"P-7-1",           589,       194.966,       100.017,            0.,NA,NA,"",   859.034E+03,   989.661E+03,   989.661E+03
C:/temp/Job-7.odb,Step-1,Increment      1: Step Time =    1.000,"P-7-1",           590,       194.946,       89.9125,            0.,NA,NA,"",   863.169E+03,   992.550E+03,   992.550E+03
C:/temp/Job-7.odb,Step-1,Increment      1: Step Time =    1.000,"P-7-1",           591,       194.925,       79.8887,            0.,NA,NA,"",   876.712E+03,   998.960E+03,   998.960E+03
C:/temp/Job-7.odb,Step-1,Increment      1: Step Time =    1.000,"P-7-1",           592,       194.886,       69.9522,            0.,NA,NA,"",   898.883E+03,   1.00367E+06,   1.00367E+06
C:/temp/Job-7.odb,Step-1,Increment      1: Step Time =    1.000,"P-7-1",           593,       194.584,       60.0082,            0.,NA,NA,"",   928.506E+03,   1.00637E+06,   1.00637E+06
C:/temp/Job-7.odb,Step-1,Increment      1: Step Time =    1.000,"P-7-1",           594,       194.850,       49.3230,            0.,NA,NA,"",   959.575E+03,   1.00767E+06,   1.00767E+06
C:/temp/Job-7.odb,Step-1,Increment      1: Step Time =    1.000,"P-7-1",           595,       195.459,       39.5472,            0.,NA,NA,"",   979.805E+03,   1.00450E+06,   1.00450E+06
C:/temp/Job-7.odb,Step-1,Increment      1: Step Time =    1.000,"P-7-1",           596,       195.623,       29.8436,            0.,NA,NA,"",   993.743E+03,   1.00302E+06,   1.00302E+06
C:/temp/Job-7.odb,Step-1,Increment      1: Step Time =    1.000,"P-7-1",           597,       195.477,       19.9881,            0.,NA,NA,"",   1.00002E+06,   1.00191E+06,   1.00191E+06
C:/temp/Job-7.odb,Step-1,Increment      1: Step Time =    1.000,"P-7-1",           598,       195.148,       10.0660,            0.,NA,NA,"",   1.00073E+06,   1.00070E+06,   1.00070E+06
C:/temp/Job-7.odb,Step-1,Increment      1: Step Time =    1.000,"P-7-1",           599,       10.1074,       194.908,            0.,NA,NA,"",   1.48283E+06,   1.49944E+06,   1.49944E+06
C:/temp/Job-7.odb,Step-1,Increment      1: Step Time =    1.000,"P-7-1",           600,       20.1939,       194.783,            0.,NA,NA,"",   1.34773E+06,   1.35215E+06,   1.35215E+06
C:/temp/Job-7.odb,Step-1,Increment      1: Step Time =    1.000,"P-7-1",           601,       30.2808,       194.732,            0.,NA,NA,"",   1.28539E+06,   1.28594E+06,   1.28594E+06
C:/temp/Job-7.odb,Step-1,Increment      1: Step Time =    1.000,"P-7-1",           602,       40.6112,       194.570,            0.,NA,NA,"",   1.23576E+06,   1.23453E+06,   1.23453E+06
C:/temp/Job-7.odb,Step-1,Increment      1: Step Time =    1.000,"P-7-1",           603,       50.5953,       195.394,            0.,NA,NA,"",   1.18039E+06,   1.17891E+06,   1.17891E+06
C:/temp/Job-7.odb,Step-1,Increment      1: Step Time =    1.000,"P-7-1",           604,       60.4628,       195.682,            0.,NA,NA,"",   1.11292E+06,   1.11138E+06,   1.11138E+06
C:/temp/Job-7.odb,Step-1,Increment      1: Step Time =    1.000,"P-7-1",           605,       70.3542,       195.461,            0.,NA,NA,"",   1.03654E+06,   1.03550E+06,   1.03550E+06
C:/temp/Job-7.odb,Step-1,Increment      1: Step Time =    1.000,"P-7-1",           606,       80.2725,       195.082,            0.,NA,NA,"",   961.216E+03,   961.699E+03,   961.699E+03
C:/temp/Job-7.odb,Step-1,Increment      1: Step Time =    1.000,"P-7-1",           607,       90.2292,       195.028,            0.,NA,NA,"",   897.541E+03,   899.841E+03,   899.841E+03
C:/temp/Job-7.odb,Step-1,Increment      1: Step Time =    1.000,"P-7-1",           608,       100.313,       195.073,            0.,NA,NA,"",   858.682E+03,   861.908E+03,   861.908E+03
C:/temp/Job-7.odb,Step-1,Increment      1: Step Time =    1.000,"P-7-1",           609,       110.366,       194.856,            0.,NA,NA,"",   857.164E+03,   860.125E+03,   860.125E+03
C:/temp/Job-7.odb,Step-1,Increment      1: Step Time =    1.000,"P-7-1",           610,       120.368,       194.926,            0.,NA,NA,"",   881.588E+03,   883.032E+03,   883.032E+03
C:/temp/Job-7.odb,Step-1,Increment      1: Step Time =    1.000,"P-7-1",           611,       130.396,       195.115,            0.,NA,NA,"",   920.875E+03,   920.373E+03,   920.373E+03
C:/temp/Job-7.odb,Step-1,Increment      1: Step Time =    1.000,"P-7-1",           612,       140.394,       194.714,            0.,NA,NA,"",   962.342E+03,   960.880E+03,   960.880E+03
C:/temp/Job-7.odb,Step-1,Increment      1: Step Time =    1.000,"P-7-1",           613,       150.908,       194.965,            0.,NA,NA,"",   990.342E+03,   988.612E+03,   988.612E+03
C:/temp/Job-7.odb,Step-1,Increment      1: Step Time =    1.000,"P-7-1",           614,       160.572,       195.620,            0.,NA,NA,"",   1.00165E+06,   1.00073E+06,   1.00073E+06
C:/temp/Job-7.odb,Step-1,Increment      1: Step Time =    1.000,"P-7-1",           615,       170.243,       195.730,            0.,NA,NA,"",   1.00359E+06,   1.00322E+06,   1.00322E+06
C:/temp/Job-7.odb,Step-1,Increment      1: Step Time =    1.000,"P-7-1",           616,       180.070,       195.527,            0.,NA,NA,"",   1.00090E+06,   1.00107E+06,   1.00107E+06
C:/temp/Job-7.odb,Step-1,Increment      1: Step Time =    1.000,"P-7-1",           617,       189.960,       195.168,            0.,NA,NA,"",   999.477E+03,   999.710E+03,   999.710E+03
C:/temp/Job-7.odb,Step-1,Increment      1: Step Time =    1.000,"P-7-1",           618,       5.12187,       15.0353,            0.,NA,NA,"",   1.24118E+06,   1.34735E+06,   1.34735E+06
C:/temp/Job-7.odb,Step-1,Increment      1: Step Time =    1.000,"P-7-1",           619,       5.05998,       25.2510,            0.,NA,NA,"",   1.09287E+06,   1.20279E+06,   1.20279E+06
C:/temp/Job-7.odb,Step-1,Increment      1: Step Time =    1.000,"P-7-1",           620,       4.79857,       35.1840,            0.,NA,NA,"",   991.035E+03,   1.09932E+06,   1.09932E+06
C:/temp/Job-7.odb,Step-1,Increment      1: Step Time =    1.000,"P-7-1",           621,       4.86563,       45.0465,            0.,NA,NA,"",   906.814E+03,   1.00979E+06,   1.00979E+06
C:/temp/Job-7.odb,Step-1,Increment      1: Step Time =    1.000,"P-7-1",           622,       4.89865,       50.0097,            0.,NA,NA,"",   866.099E+03,   965.949E+03,   965.949E+03
C:/temp/Job-7.odb,Step-1,Increment      1: Step Time =    1.000,"P-7-1",           623,       4.90884,       59.9341,            0.,NA,NA,"",   784.007E+03,   877.318E+03,   877.318E+03
C:/temp/Job-7.odb,Step-1,Increment      1: Step Time =    1.000,"P-7-1",           624,       4.88699,       69.9378,            0.,NA,NA,"",   701.846E+03,   788.734E+03,   788.734E+03
C:/temp/Job-7.odb,Step-1,Increment      1: Step Time =    1.000,"P-7-1",           625,       4.91914,       80.0164,            0.,NA,NA,"",   626.448E+03,   707.969E+03,   707.969E+03
C:/temp/Job-7.odb,Step-1,Increment      1: Step Time =    1.000,"P-7-1",           626,       4.89265,       90.0224,            0.,NA,NA,"",   572.677E+03,   650.550E+03,   650.550E+03
C:/temp/Job-7.odb,Step-1,Increment      1: Step Time =    1.000,"P-7-1",           627,       4.87609,       100.015,            0.,NA,NA,"",   553.357E+03,   629.919E+03,   629.919E+03
C:/temp/Job-7.odb,Step-1,Increment      1: Step Time =    1.000,"P-7-1",           628,       4.84838,       109.892,            0.,NA,NA,"",   573.972E+03,   651.931E+03,   651.931E+03
C:/temp/Job-7.odb,Step-1,Increment      1: Step Time =    1.000,"P-7-1",           629,       4.73625,       119.718,            0.,NA,NA,"",    625.82E+03,   707.395E+03,   707.395E+03
C:/temp/Job-7.odb,Step-1,Increment      1: Step Time =    1.000,"P-7-1",           630,       4.80201,       129.498,            0.,NA,NA,"",   696.881E+03,   783.598E+03,   783.598E+03
C:/temp/Job-7.odb,Step-1,Increment      1: Step Time =    1.000,"P-7-1",           631,       5.75293,       139.360,            0.,NA,NA,"",   781.220E+03,   872.613E+03,   872.613E+03
C:/temp/Job-7.odb,Step-1,Increment      1: Step Time =    1.000,"P-7-1",           632,       5.41779,       150.429,            0.,NA,NA,"",   873.998E+03,   973.403E+03,   973.403E+03
C:/temp/Job-7.odb,Step-1,Increment      1: Step Time =    1.000,"P-7-1",           633,       4.61583,       160.079,            0.,NA,NA,"",    948.17E+03,   1.05501E+06,   1.05501E+06
C:/temp/Job-7.odb,Step-1,Increment      1: Step Time =    1.000,"P-7-1",           634,       4.77559,       169.745,            0.,NA,NA,"",   1.03718E+06,   1.14719E+06,   1.14719E+06
C:/temp/Job-7.odb,Step-1,Increment      1: Step Time =    1.000,"P-7-1",           635,       5.37079,       179.712,            0.,NA,NA,"",   1.16004E+06,   1.26813E+06,   1.26813E+06
C:/temp/Job-7.odb,Step-1,Increment      1: Step Time =    1.000,"P-7-1",           636,       5.14203,       189.904,            0.,NA,NA,"",   1.37515E+06,   1.46970E+06,   1.46970E+06
C:/temp/Job-7.odb,Step-1,Increment      1: Step Time =    1.000,"P-7-1",           637,       124.890,       120.015,            0.,NA,NA,"",   988.428E+03,   895.180E+03,   895.180E+03
C:/temp/Job-7.odb,Step-1,Increment      1: Step Time =    1.000,"P-7-1",           638,       113.100,       130.496,            0.,NA,NA,"",   2.09246E+06,   2.16915E+06,   2.16915E+06
C:/temp/Job-7.odb,Step-1,Increment      1: Step Time =    1.000,"P-7-1",           639,       132.159,       106.443,            0.,NA,NA,"",   722.082E+03,  -651.259E+03,  -651.259E+03
C:/temp/Job-7.odb,Step-1,Increment      1: Step Time =    1.000,"P-7-1",           640,       68.7288,       109.865,            0.,NA,NA,"",   523.407E+03,  -247.403E+03,  -247.403E+03
C:/temp/Job-7.odb,Step-1,Increment      1: Step Time =    1.000,"P-7-1",           641,       67.3571,       87.9646,            0.,NA,NA,"",   601.075E+03,   42.4005E+03,   42.4005E+03
C:/temp/Job-7.odb,Step-1,Increment      1: Step Time =    1.000,"P-7-1",           642,       130.363,       111.008,            0.,NA,NA,"",   703.447E+03,  -280.022E+03,  -280.022E+03
C:/temp/Job-7.odb,Step-1,Increment      1: Step Time =    1.000,"P-7-1",           643,       129.970,       87.4666,            0.,NA,NA,"",   682.456E+03,  -181.889E+03,  -181.889E+03
C:/temp/Job-7.odb,Step-1,Increment      1: Step Time =    1.000,"P-7-1",           644,       103.227,       66.3045,            0.,NA,NA,"",   2.24517E+06,   2.38493E+06,   2.38493E+06
C:/temp/Job-7.odb,Step-1,Increment      1: Step Time =    1.000,"P-7-1",           645,       109.401,       133.180,            0.,NA,NA,"",   2.10095E+06,   2.22485E+06,   2.22485E+06
C:/temp/Job-7.odb,Step-1,Increment      1: Step Time =    1.000,"P-7-1",           646,       73.6334,       120.009,            0.,NA,NA,"",   847.494E+03,   744.185E+03,   744.185E+03
C:/temp/Job-7.odb,Step-1,Increment      1: Step Time =    1.000,"P-7-1",           647,       133.962,       95.7457,            0.,NA,NA,"",   619.056E+03,  -568.365E+03,  -568.365E+03
C:/temp/Job-7.odb,Step-1,Increment      1: Step Time =    1.000,"P-7-1",           648,       76.8905,       125.970,            0.,NA,NA,"",   1.30391E+06,   1.26004E+06,   1.26004E+06
C:/temp/Job-7.odb,Step-1,Increment      1: Step Time =    1.000,"P-7-1",           649,       66.8211,       99.7404,            0.,NA,NA,"",   495.912E+03,  -495.360E+03,  -495.360E+03
C:/temp/Job-7.odb,Step-1,Increment      1: Step Time =    1.000,"P-7-1",           650,       98.6099,       131.975,            0.,NA,NA,"",   2.49692E+06,   2.61167E+06,   2.61167E+06
C:/temp/Job-7.odb,Step-1,Increment      1: Step Time =    1.000,"P-7-1",           651,       65.7689,       95.1962,            0.,NA,NA,"",   443.465E+03,  -397.012E+03,  -397.012E+03
C:/temp/Job-7.odb,Step-1,Increment      1: Step Time =    1.000,"P-7-1",           652,       91.8626,       69.0915,            0.,NA,NA,"",   2.26880E+06,   2.36057E+06,   2.36057E+06
C:/temp/Job-7.odb,Step-1,Increment      1: Step Time =    1.000,"P-7-1",           653,       109.011,       68.4549,            0.,NA,NA,"",   2.26542E+06,   2.37305E+06,   2.37305E+06
C:/temp/Job-7.odb,Step-1,Increment      1: Step Time =    1.000,"P-7-1",           654,       127.098,       79.3722,            0.,NA,NA,"",   1.09938E+06,   957.123E+03,   957.123E+03
C:/temp/Job-7.odb,Step-1,Increment      1: Step Time =    1.000,"P-7-1",           655,       127.941,       83.4062,            0.,NA,NA,"",   808.381E+03,   502.851E+03,   502.851E+03
C:/temp/Job-7.odb,Step-1,Increment      1: Step Time =    1.000,"P-7-1",           656,       70.3559,       84.9437,            0.,NA,NA,"",   625.659E+03,   261.459E+03,   261.459E+03
C:/temp/Job-7.odb,Step-1,Increment      1: Step Time =    1.000,"P-7-1",           657,       67.6221,       104.752,            0.,NA,NA,"",   532.924E+03,  -508.553E+03,  -508.553E+03
C:/temp/Job-7.odb,Step-1,Increment      1: Step Time =    1.000,"P-7-1",           658,       76.6192,       77.5076,            0.,NA,NA,"",   1.03816E+06,   988.521E+03,   988.521E+03
C:/temp/Job-7.odb,Step-1,Increment      1: Step Time =    1.000,"P-7-1",           659,       83.4244,       128.370,            0.,NA,NA,"",   1.71632E+06,   1.74663E+06,   1.74663E+06
C:/temp/Job-7.odb,Step-1,Increment      1: Step Time =    1.000,"P-7-1",           660,       117.194,       127.466,            0.,NA,NA,"",   1.83096E+06,   1.86126E+06,   1.86126E+06
C:/temp/Job-7.odb,Step-1,Increment      1: Step Time =    1.000,"P-7-1",           661,       70.8850,       114.883,            0.,NA,NA,"",   574.611E+03,   243.228E+03,   243.228E+03
C:/temp/Job-7.odb,Step-1,Increment      1: Step Time =    1.000,"P-7-1",           662,       133.661,       102.506,            0.,NA,NA,"",   618.090E+03,  -590.853E+03,  -590.853E+03
C:/temp/Job-7.odb,Step-1,Increment      1: Step Time =    1.000,"P-7-1",           663,       102.581,       133.273,            0.,NA,NA,"",   2.28572E+06,   2.42553E+06,   2.42553E+06
C:/temp/Job-7.odb,Step-1,Increment      1: Step Time =    1.000,"P-7-1",           664,       127.970,       115.672,            0.,NA,NA,"",   726.256E+03,   357.593E+03,   357.593E+03
C:/temp/Job-7.odb,Step-1,Increment      1: Step Time =    1.000,"P-7-1",           665,       81.8334,       69.6328,            0.,NA,NA,"",   1.63041E+06,   1.65379E+06,   1.65379E+06
C:/temp/Job-7.odb,Step-1,Increment      1: Step Time =    1.000,"P-7-1",           666,       118.766,       71.9286,            0.,NA,NA,"",   1.71571E+06,   1.72848E+06,   1.72848E+06
C:/temp/Job-7.odb,Step-1,Increment      1: Step Time =    1.000,"P-7-1",           667,       139.676,       9.43457,            0.,NA,NA,"",   992.503E+03,   989.149E+03,   989.149E+03
C:/temp/Job-7.odb,Step-1,Increment      1: Step Time =    1.000,"P-7-1",           668,       119.790,       10.3036,            0.,NA,NA,"",   941.956E+03,   946.327E+03,   946.327E+03
C:/temp/Job-7.odb,Step-1,Increment      1: Step Time =    1.000,"P-7-1",           669,       109.739,       10.2925,            0.,NA,NA,"",   923.203E+03,   931.849E+03,   931.849E+03
C:/temp/Job-7.odb,Step-1,Increment      1: Step Time =    1.000,"P-7-1",           670,       99.8312,       10.0737,            0.,NA,NA,"",   926.812E+03,   936.321E+03,   936.321E+03
C:/temp/Job-7.odb,Step-1,Increment      1: Step Time =    1.000,"P-7-1",           671,       89.9581,       9.71667,            0.,NA,NA,"",   959.139E+03,   964.992E+03,   964.992E+03
C:/temp/Job-7.odb,Step-1,Increment      1: Step Time =    1.000,"P-7-1",           672,       80.3057,       9.29282,            0.,NA,NA,"",   1.01028E+06,   1.01154E+06,   1.01154E+06
C:/temp/Job-7.odb,Step-1,Increment      1: Step Time =    1.000,"P-7-1",           673,       71.0004,       9.32951,            0.,NA,NA,"",   1.07264E+06,   1.07028E+06,   1.07028E+06
C:/temp/Job-7.odb,Step-1,Increment      1: Step Time =    1.000,"P-7-1",           674,       62.1965,       10.8971,            0.,NA,NA,"",   1.13993E+06,   1.13437E+06,   1.13437E+06
C:/temp/Job-7.odb,Step-1,Increment      1: Step Time =    1.000,"P-7-1",           675,       190.990,       139.751,            0.,NA,NA,"",   946.452E+03,   1.01500E+06,   1.01500E+06
C:/temp/Job-7.odb,Step-1,Increment      1: Step Time =    1.000,"P-7-1",           676,       190.636,       129.995,            0.,NA,NA,"",   918.670E+03,   1.00991E+06,   1.00991E+06
C:/temp/Job-7.odb,Step-1,Increment      1: Step Time =    1.000,"P-7-1",           677,       190.355,       120.061,            0.,NA,NA,"",   886.382E+03,   995.637E+03,   995.637E+03
C:/temp/Job-7.odb,Step-1,Increment      1: Step Time =    1.000,"P-7-1",           678,       190.071,       110.088,            0.,NA,NA,"",   860.523E+03,   979.619E+03,   979.619E+03
C:/temp/Job-7.odb,Step-1,Increment      1: Step Time =    1.000,"P-7-1",           679,       189.994,       100.038,            0.,NA,NA,"",   848.959E+03,   970.750E+03,   970.750E+03
C:/temp/Job-7.odb,Step-1,Increment      1: Step Time =    1.000,"P-7-1",           680,       189.956,       89.8142,            0.,NA,NA,"",   860.488E+03,   979.022E+03,   979.022E+03
C:/temp/Job-7.odb,Step-1,Increment      1: Step Time =    1.000,"P-7-1",           681,       189.753,       69.9154,            0.,NA,NA,"",   922.140E+03,   1.01030E+06,   1.01030E+06
C:/temp/Job-7.odb,Step-1,Increment      1: Step Time =    1.000,"P-7-1",           682,       189.581,       60.4094,            0.,NA,NA,"",   953.266E+03,   1.01819E+06,   1.01819E+06
C:/temp/Job-7.odb,Step-1,Increment      1: Step Time =    1.000,"P-7-1",           683,       60.8960,       191.364,            0.,NA,NA,"",   1.13403E+06,   1.12967E+06,   1.12967E+06
C:/temp/Job-7.odb,Step-1,Increment      1: Step Time =    1.000,"P-7-1",           684,       70.5693,       190.870,            0.,NA,NA,"",   1.07487E+06,   1.07222E+06,   1.07222E+06
C:/temp/Job-7.odb,Step-1,Increment      1: Step Time =    1.000,"P-7-1",           685,       80.4273,       190.005,            0.,NA,NA,"",   1.01722E+06,   1.01898E+06,   1.01898E+06
C:/temp/Job-7.odb,Step-1,Increment      1: Step Time =    1.000,"P-7-1",           686,       90.5429,       190.072,            0.,NA,NA,"",   959.557E+03,   966.101E+03,   966.101E+03
C:/temp/Job-7.odb,Step-1,Increment      1: Step Time =    1.000,"P-7-1",           687,       9.81048,       59.9117,            0.,NA,NA,"",   805.589E+03,   891.044E+03,   891.044E+03
C:/temp/Job-7.odb,Step-1,Increment      1: Step Time =    1.000,"P-7-1",           688,       9.68011,       69.8881,            0.,NA,NA,"",   713.269E+03,   796.019E+03,   796.019E+03
C:/temp/Job-7.odb,Step-1,Increment      1: Step Time =    1.000,"P-7-1",           689,       9.78962,       80.0391,            0.,NA,NA,"",   625.463E+03,   705.917E+03,   705.917E+03
C:/temp/Job-7.odb,Step-1,Increment      1: Step Time =    1.000,"P-7-1",           690,       9.72904,       90.0759,            0.,NA,NA,"",   563.761E+03,   642.160E+03,   642.160E+03
C:/temp/Job-7.odb,Step-1,Increment      1: Step Time =    1.000,"P-7-1",           691,       9.77286,       100.030,            0.,NA,NA,"",   541.792E+03,   619.231E+03,   619.231E+03
C:/temp/Job-7.odb,Step-1,Increment      1: Step Time =    1.000,"P-7-1",           692,       9.57063,       119.463,            0.,NA,NA,"",   623.643E+03,   704.221E+03,   704.221E+03
C:/temp/Job-7.odb,Step-1,Increment      1: Step Time =    1.000,"P-7-1",           693,       9.54860,       128.872,            0.,NA,NA,"",   700.922E+03,   783.731E+03,   783.731E+03
C:/temp/Job-7.odb,Step-1,Increment      1: Step Time =    1.000,"P-7-1",           694,       11.0245,       137.746,            0.,NA,NA,"",   789.973E+03,   872.665E+03,   872.665E+03
C:/temp/Job-7.odb,Step-1,Increment      1: Step Time =    1.000,"P-7-1",           695,       189.834,       79.7744,            0.,NA,NA,"",   888.992E+03,   996.331E+03,   996.331E+03
C:/temp/Job-7.odb,Step-1,Increment      1: Step Time =    1.000,"P-7-1",           696,       100.569,       190.221,            0.,NA,NA,"",   923.058E+03,    932.01E+03,    932.01E+03
C:/temp/Job-7.odb,Step-1,Increment      1: Step Time =    1.000,"P-7-1",           697,       110.632,       189.609,            0.,NA,NA,"",   925.723E+03,   934.271E+03,   934.271E+03
C:/temp/Job-7.odb,Step-1,Increment      1: Step Time =    1.000,"P-7-1",           698,       120.886,       189.841,            0.,NA,NA,"",   944.416E+03,   948.137E+03,   948.137E+03
C:/temp/Job-7.odb,Step-1,Increment      1: Step Time =    1.000,"P-7-1",           699,       130.793,       190.350,            0.,NA,NA,"",   969.239E+03,   967.943E+03,   967.943E+03
C:/temp/Job-7.odb,Step-1,Increment      1: Step Time =    1.000,"P-7-1",           700,       140.303,       189.876,            0.,NA,NA,"",   999.520E+03,   995.443E+03,   995.443E+03
C:/temp/Job-7.odb,Step-1,Increment      1: Step Time =    1.000,"P-7-1",           701,       9.79219,       109.796,            0.,NA,NA,"",   564.899E+03,   643.403E+03,   643.403E+03
C:/temp/Job-7.odb,Step-1,Increment      1: Step Time =    1.000,"P-7-1",           702,       128.363,       123.087,            0.,NA,NA,"",   1.31414E+06,   1.14012E+06,   1.14012E+06
C:/temp/Job-7.odb,Step-1,Increment      1: Step Time =    1.000,"P-7-1",           703,       111.090,       64.0417,            0.,NA,NA,"",   1.77734E+06,   1.90297E+06,   1.90297E+06
C:/temp/Job-7.odb,Step-1,Increment      1: Step Time =    1.000,"P-7-1",           704,       97.1356,       135.710,            0.,NA,NA,"",   1.92749E+06,   2.08386E+06,   2.08386E+06
C:/temp/Job-7.odb,Step-1,Increment      1: Step Time =    1.000,"P-7-1",           705,       134.404,       113.961,            0.,NA,NA,"",   891.567E+03,   379.782E+03,   379.782E+03
C:/temp/Job-7.odb,Step-1,Increment      1: Step Time =    1.000,"P-7-1",           706,       62.7486,       111.251,            0.,NA,NA,"",   563.098E+03,   276.861E+03,   276.861E+03
C:/temp/Job-7.odb,Step-1,Increment      1: Step Time =    1.000,"P-7-1",           707,       63.8098,       83.3297,            0.,NA,NA,"",   817.324E+03,   634.591E+03,   634.591E+03
C:/temp/Job-7.odb,Step-1,Increment      1: Step Time =    1.000,"P-7-1",           708,       113.001,       137.875,            0.,NA,NA,"",   1.65289E+06,   1.76045E+06,   1.76045E+06
C:/temp/Job-7.odb,Step-1,Increment      1: Step Time =    1.000,"P-7-1",           709,       88.0340,       134.138,            0.,NA,NA,"",   1.79505E+06,   1.88810E+06,   1.88810E+06
C:/temp/Job-7.odb,Step-1,Increment      1: Step Time =    1.000,"P-7-1",           710,       68.4593,       121.519,            0.,NA,NA,"",   1.06373E+06,   894.056E+03,   894.056E+03
C:/temp/Job-7.odb,Step-1,Increment      1: Step Time =    1.000,"P-7-1",           711,       67.1170,       80.6500,            0.,NA,NA,"",   957.586E+03,   764.747E+03,   764.747E+03
C:/temp/Job-7.odb,Step-1,Increment      1: Step Time =    1.000,"P-7-1",           712,       131.611,       82.4703,            0.,NA,NA,"",   1.08836E+06,   806.993E+03,   806.993E+03
C:/temp/Job-7.odb,Step-1,Increment      1: Step Time =    1.000,"P-7-1",           713,       65.9826,       116.415,            0.,NA,NA,"",   809.425E+03,   609.497E+03,   609.497E+03
C:/temp/Job-7.odb,Step-1,Increment      1: Step Time =    1.000,"P-7-1",           714,       137.135,       99.6087,            0.,NA,NA,"",   435.007E+03,  -381.482E+03,  -381.482E+03
C:/temp/Job-7.odb,Step-1,Increment      1: Step Time =    1.000,"P-7-1",           715,       116.771,       134.652,            0.,NA,NA,"",   1.70096E+06,   1.75984E+06,   1.75984E+06
C:/temp/Job-7.odb,Step-1,Increment      1: Step Time =    1.000,"P-7-1",           716,       131.813,       118.785,            0.,NA,NA,"",   1.10585E+06,   848.827E+03,   848.827E+03
C:/temp/Job-7.odb,Step-1,Increment      1: Step Time =    1.000,"P-7-1",           717,       82.5271,       133.252,            0.,NA,NA,"",   1.63348E+06,   1.66332E+06,   1.66332E+06
C:/temp/Job-7.odb,Step-1,Increment      1: Step Time =    1.000,"P-7-1",           718,       132.085,       79.3284,            0.,NA,NA,"",   1.23094E+06,   975.046E+03,   975.046E+03
C:/temp/Job-7.odb,Step-1,Increment      1: Step Time =    1.000,"P-7-1",           719,       61.9058,       100.921,            0.,NA,NA,"",   245.284E+03,  -71.7977E+03,  -71.7977E+03
C:/temp/Job-7.odb,Step-1,Increment      1: Step Time =    1.000,"P-7-1",           720,       124.631,       69.2146,            0.,NA,NA,"",   1.61556E+06,   1.53593E+06,   1.53593E+06
C:/temp/Job-7.odb,Step-1,Increment      1: Step Time =    1.000,"P-7-1",           721,       75.8045,       70.8630,            0.,NA,NA,"",   1.41405E+06,   1.34917E+06,   1.34917E+06
C:/temp/Job-7.odb,Step-1,Increment      1: Step Time =    1.000,"P-7-1",           722,       163.983,       10.5698,            0.,NA,NA,"",   1.02115E+06,   1.01801E+06,   1.01801E+06
C:/temp/Job-7.odb,Step-1,Increment      1: Step Time =    1.000,"P-7-1",           723,       9.28812,       164.674,            0.,NA,NA,"",   1.02571E+06,   1.11927E+06,   1.11927E+06
C:/temp/Job-7.odb,Step-1,Increment      1: Step Time =    1.000,"P-7-1",           724,       9.68077,       40.2011,            0.,NA,NA,"",   984.028E+03,   1.07539E+06,   1.07539E+06
C:/temp/Job-7.odb,Step-1,Increment      1: Step Time =    1.000,"P-7-1",           725,       35.0379,       9.32348,            0.,NA,NA,"",   1.26476E+06,   1.26391E+06,   1.26391E+06
C:/temp/Job-7.odb,Step-1,Increment      1: Step Time =    1.000,"P-7-1",           726,       189.527,       164.034,            0.,NA,NA,"",   998.169E+03,   1.01476E+06,   1.01476E+06
C:/temp/Job-7.odb,Step-1,Increment      1: Step Time =    1.000,"P-7-1",           727,       161.248,       191.248,            0.,NA,NA,"",   1.01497E+06,   1.01236E+06,   1.01236E+06
C:/temp/Job-7.odb,Step-1,Increment      1: Step Time =    1.000,"P-7-1",           728,       35.6228,       189.411,            0.,NA,NA,"",   1.26370E+06,   1.26224E+06,   1.26224E+06
C:/temp/Job-7.odb,Step-1,Increment      1: Step Time =    1.000,"P-7-1",           729,       190.887,       39.0343,            0.,NA,NA,"",   990.234E+03,   1.01290E+06,   1.01290E+06
C:/temp/Job-7.odb,Step-1,Increment      1: Step Time =    1.000,"P-7-1",           730,       78.4583,       64.9883,            0.,NA,NA,"",   1.54732E+06,   1.52862E+06,   1.52862E+06
C:/temp/Job-7.odb,Step-1,Increment      1: Step Time =    1.000,"P-7-1",           731,       121.583,       65.7345,            0.,NA,NA,"",   1.64310E+06,   1.62466E+06,   1.62466E+06
C:/temp/Job-7.odb,Step-1,Increment      1: Step Time =    1.000,"P-7-1",           732,       56.1375,       97.9120,            0.,NA,NA,"",   233.837E+03,   210.803E+03,   210.803E+03
C:/temp/Job-7.odb,Step-1,Increment      1: Step Time =    1.000,"P-7-1",           733,       141.405,       97.2920,            0.,NA,NA,"",   384.404E+03,   40.8776E+03,   40.8776E+03
C:/temp/Job-7.odb,Step-1,Increment      1: Step Time =    1.000,"P-7-1",           734,       60.4358,       17.2338,            0.,NA,NA,"",   1.19152E+06,   1.17915E+06,   1.17915E+06
C:/temp/Job-7.odb,Step-1,Increment      1: Step Time =    1.000,"P-7-1",           735,       14.6848,       59.9958,            0.,NA,NA,"",   829.453E+03,   905.000E+03,   905.000E+03
C:/temp/Job-7.odb,Step-1,Increment      1: Step Time =    1.000,"P-7-1",           736,       184.537,       60.4495,            0.,NA,NA,"",   984.294E+03,   1.03266E+06,   1.03266E+06
C:/temp/Job-7.odb,Step-1,Increment      1: Step Time =    1.000,"P-7-1",           737,       61.2491,       187.067,            0.,NA,NA,"",   1.16014E+06,   1.15197E+06,   1.15197E+06
C:/temp/Job-7.odb,Step-1,Increment      1: Step Time =    1.000,"P-7-1",           738,       139.780,       14.2493,            0.,NA,NA,"",   1.03415E+06,   1.02732E+06,   1.02732E+06
C:/temp/Job-7.odb,Step-1,Increment      1: Step Time =    1.000,"P-7-1",           739,       17.4350,       139.482,            0.,NA,NA,"",   840.488E+03,   909.059E+03,   909.059E+03
C:/temp/Job-7.odb,Step-1,Increment      1: Step Time =    1.000,"P-7-1",           740,       186.349,       139.768,            0.,NA,NA,"",   974.806E+03,   1.02833E+06,   1.02833E+06
C:/temp/Job-7.odb,Step-1,Increment      1: Step Time =    1.000,"P-7-1",           741,       140.390,       185.087,            0.,NA,NA,"",   1.03924E+06,   1.03165E+06,   1.03165E+06
C:/temp/Job-7.odb,Step-1,Increment      1: Step Time =    1.000,"P-7-1",           742,       111.190,       144.984,            0.,NA,NA,"",   1.43769E+06,   1.54692E+06,   1.54692E+06
C:/temp/Job-7.odb,Step-1,Increment      1: Step Time =    1.000,"P-7-1",           743,       87.7359,       138.726,            0.,NA,NA,"",   1.61991E+06,   1.71022E+06,   1.71022E+06
C:/temp/Job-7.odb,Step-1,Increment      1: Step Time =    1.000,"P-7-1",           744,       64.1557,       126.728,            0.,NA,NA,"",   1.20073E+06,   1.05267E+06,   1.05267E+06
C:/temp/Job-7.odb,Step-1,Increment      1: Step Time =    1.000,"P-7-1",           745,       132.033,       126.705,            0.,NA,NA,"",   1.46251E+06,   1.26859E+06,   1.26859E+06
C:/temp/Job-7.odb,Step-1,Increment      1: Step Time =    1.000,"P-7-1",           746,       164.352,       15.4486,            0.,NA,NA,"",   1.03887E+06,   1.03310E+06,   1.03310E+06
C:/temp/Job-7.odb,Step-1,Increment      1: Step Time =    1.000,"P-7-1",           747,       13.9401,       164.461,            0.,NA,NA,"",   1.06267E+06,   1.13876E+06,   1.13876E+06
C:/temp/Job-7.odb,Step-1,Increment      1: Step Time =    1.000,"P-7-1",           748,       14.6001,       40.2793,            0.,NA,NA,"",   1.02216E+06,   1.09667E+06,   1.09667E+06
C:/temp/Job-7.odb,Step-1,Increment      1: Step Time =    1.000,"P-7-1",           749,       35.0846,       13.9539,            0.,NA,NA,"",   1.26571E+06,   1.26446E+06,   1.26446E+06
C:/temp/Job-7.odb,Step-1,Increment      1: Step Time =    1.000,"P-7-1",           750,       184.716,       164.496,            0.,NA,NA,"",   1.01585E+06,   1.02766E+06,   1.02766E+06
C:/temp/Job-7.odb,Step-1,Increment      1: Step Time =    1.000,"P-7-1",           751,       161.965,       186.986,            0.,NA,NA,"",   1.03139E+06,   1.02634E+06,   1.02634E+06
C:/temp/Job-7.odb,Step-1,Increment      1: Step Time =    1.000,"P-7-1",           752,       35.2218,       184.487,            0.,NA,NA,"",   1.26393E+06,   1.26237E+06,   1.26237E+06
C:/temp/Job-7.odb,Step-1,Increment      1: Step Time =    1.000,"P-7-1",           753,       186.286,       38.5265,            0.,NA,NA,"",   1.00812E+06,   1.02533E+06,   1.02533E+06
C:/temp/Job-7.odb,Step-1,Increment      1: Step Time =    1.000,"P-7-1",           754,       14.3344,       69.8880,            0.,NA,NA,"",   727.461E+03,   804.596E+03,   804.596E+03
C:/temp/Job-7.odb,Step-1,Increment      1: Step Time =    1.000,"P-7-1",           755,       71.5453,       13.7692,            0.,NA,NA,"",   1.10810E+06,   1.10416E+06,   1.10416E+06
C:/temp/Job-7.odb,Step-1,Increment      1: Step Time =    1.000,"P-7-1",           756,       129.782,       10.0350,            0.,NA,NA,"",   969.781E+03,   969.086E+03,   969.086E+03
C:/temp/Job-7.odb,Step-1,Increment      1: Step Time =    1.000,"P-7-1",           757,       14.1793,       128.275,            0.,NA,NA,"",   707.594E+03,   785.440E+03,   785.440E+03
C:/temp/Job-7.odb,Step-1,Increment      1: Step Time =    1.000,"P-7-1",           758,       185.984,       130.022,            0.,NA,NA,"",   942.992E+03,   1.01678E+06,   1.01678E+06
C:/temp/Job-7.odb,Step-1,Increment      1: Step Time =    1.000,"P-7-1",           759,       131.220,       185.711,            0.,NA,NA,"",   1.01548E+06,   1.01312E+06,   1.01312E+06
C:/temp/Job-7.odb,Step-1,Increment      1: Step Time =    1.000,"P-7-1",           760,       70.5906,       186.244,            0.,NA,NA,"",   1.11553E+06,   1.11089E+06,   1.11089E+06
C:/temp/Job-7.odb,Step-1,Increment      1: Step Time =    1.000,"P-7-1",           761,       184.533,       69.8215,            0.,NA,NA,"",   950.345E+03,   1.01808E+06,   1.01808E+06
C:/temp/Job-7.odb,Step-1,Increment      1: Step Time =    1.000,"P-7-1",           762,       63.1002,       90.2689,            0.,NA,NA,"",   507.608E+03,   45.6439E+03,   45.6439E+03
C:/temp/Job-7.odb,Step-1,Increment      1: Step Time =    1.000,"P-7-1",           763,       14.6002,       80.0028,            0.,NA,NA,"",   627.633E+03,   705.380E+03,   705.380E+03
C:/temp/Job-7.odb,Step-1,Increment      1: Step Time =    1.000,"P-7-1",           764,       119.614,       15.5384,            0.,NA,NA,"",   997.118E+03,   1.00605E+06,   1.00605E+06
C:/temp/Job-7.odb,Step-1,Increment      1: Step Time =    1.000,"P-7-1",           765,       80.2842,       13.9066,            0.,NA,NA,"",   1.05842E+06,   1.06118E+06,   1.06118E+06
C:/temp/Job-7.odb,Step-1,Increment      1: Step Time =    1.000,"P-7-1",           766,       14.5466,       119.289,            0.,NA,NA,"",   624.229E+03,   702.283E+03,   702.283E+03
C:/temp/Job-7.odb,Step-1,Increment      1: Step Time =    1.000,"P-7-1",           767,       80.2800,       184.767,            0.,NA,NA,"",   1.07127E+06,   1.07489E+06,   1.07489E+06
C:/temp/Job-7.odb,Step-1,Increment      1: Step Time =    1.000,"P-7-1",           768,       185.661,       120.136,            0.,NA,NA,"",   897.422E+03,   989.722E+03,   989.722E+03
C:/temp/Job-7.odb,Step-1,Increment      1: Step Time =    1.000,"P-7-1",           769,       184.706,       79.6707,            0.,NA,NA,"",   901.288E+03,   989.794E+03,   989.794E+03
C:/temp/Job-7.odb,Step-1,Increment      1: Step Time =    1.000,"P-7-1",           770,       121.803,       184.945,            0.,NA,NA,"",   998.510E+03,   1.00454E+06,   1.00454E+06
C:/temp/Job-7.odb,Step-1,Increment      1: Step Time =    1.000,"P-7-1",           771,       101.379,       140.147,            0.,NA,NA,"",   1.66960E+06,   1.82763E+06,   1.82763E+06
C:/temp/Job-7.odb,Step-1,Increment      1: Step Time =    1.000,"P-7-1",           772,       56.9751,       109.257,            0.,NA,NA,"",   467.314E+03,   391.223E+03,   391.223E+03
C:/temp/Job-7.odb,Step-1,Increment      1: Step Time =    1.000,"P-7-1",           773,       140.478,       112.895,            0.,NA,NA,"",   845.863E+03,   630.635E+03,   630.635E+03
C:/temp/Job-7.odb,Step-1,Increment      1: Step Time =    1.000,"P-7-1",           774,       112.416,       59.8231,            0.,NA,NA,"",   1.56205E+06,   1.67156E+06,   1.67156E+06
C:/temp/Job-7.odb,Step-1,Increment      1: Step Time =    1.000,"P-7-1",           775,       136.498,       89.5778,            0.,NA,NA,"",   726.697E+03,   37.5089E+03,   37.5089E+03
C:/temp/Job-7.odb,Step-1,Increment      1: Step Time =    1.000,"P-7-1",           776,       120.615,       131.016,            0.,NA,NA,"",   1.66835E+06,   1.66026E+06,   1.66026E+06
C:/temp/Job-7.odb,Step-1,Increment      1: Step Time =    1.000,"P-7-1",           777,       14.4319,       90.2294,            0.,NA,NA,"",   555.184E+03,   632.586E+03,   632.586E+03
C:/temp/Job-7.odb,Step-1,Increment      1: Step Time =    1.000,"P-7-1",           778,       109.410,       15.5871,            0.,NA,NA,"",   978.212E+03,   995.526E+03,   995.526E+03
C:/temp/Job-7.odb,Step-1,Increment      1: Step Time =    1.000,"P-7-1",           779,       89.7026,       14.6164,            0.,NA,NA,"",   1.01313E+06,   1.02456E+06,   1.02456E+06
C:/temp/Job-7.odb,Step-1,Increment      1: Step Time =    1.000,"P-7-1",           780,       14.8468,       109.706,            0.,NA,NA,"",   556.034E+03,   633.448E+03,   633.448E+03
C:/temp/Job-7.odb,Step-1,Increment      1: Step Time =    1.000,"P-7-1",           781,       185.111,       110.177,            0.,NA,NA,"",   853.815E+03,   958.231E+03,   958.231E+03
C:/temp/Job-7.odb,Step-1,Increment      1: Step Time =    1.000,"P-7-1",           782,       91.1626,       185.350,            0.,NA,NA,"",   1.00670E+06,   1.01953E+06,   1.01953E+06
C:/temp/Job-7.odb,Step-1,Increment      1: Step Time =    1.000,"P-7-1",           783,       185.062,       89.7337,            0.,NA,NA,"",   854.502E+03,   958.281E+03,   958.281E+03
C:/temp/Job-7.odb,Step-1,Increment      1: Step Time =    1.000,"P-7-1",           784,       110.520,       184.276,            0.,NA,NA,"",   981.049E+03,   998.016E+03,   998.016E+03
C:/temp/Job-7.odb,Step-1,Increment      1: Step Time =    1.000,"P-7-1",           785,       129.682,       68.4184,            0.,NA,NA,"",   1.55599E+06,   1.42403E+06,   1.42403E+06
C:/temp/Job-7.odb,Step-1,Increment      1: Step Time =    1.000,"P-7-1",           786,       71.4773,       69.9910,            0.,NA,NA,"",   1.38962E+06,   1.27854E+06,   1.27854E+06
C:/temp/Job-7.odb,Step-1,Increment      1: Step Time =    1.000,"P-7-1",           787,       96.3958,       139.367,            0.,NA,NA,"",   1.66744E+06,   1.81872E+06,   1.81872E+06
C:/temp/Job-7.odb,Step-1,Increment      1: Step Time =    1.000,"P-7-1",           788,       99.5496,       15.1643,            0.,NA,NA,"",   980.729E+03,   999.807E+03,   999.807E+03
C:/temp/Job-7.odb,Step-1,Increment      1: Step Time =    1.000,"P-7-1",           789,       14.7305,       99.9751,            0.,NA,NA,"",   530.922E+03,   607.722E+03,   607.722E+03
C:/temp/Job-7.odb,Step-1,Increment      1: Step Time =    1.000,"P-7-1",           790,       185.128,       100.043,            0.,NA,NA,"",   833.236E+03,   942.054E+03,   942.054E+03
C:/temp/Job-7.odb,Step-1,Increment      1: Step Time =    1.000,"P-7-1",           791,       100.697,       185.465,            0.,NA,NA,"",   973.475E+03,   990.896E+03,   990.896E+03
C:/temp/Job-7.odb,Step-1,Increment      1: Step Time =    1.000,"P-7-1",           792,       136.554,       80.3601,            0.,NA,NA,"",   1.19212E+06,   934.871E+03,   934.871E+03
C:/temp/Job-7.odb,Step-1,Increment      1: Step Time =    1.000,"P-7-1",           793,       124.273,       134.518,            0.,NA,NA,"",   1.60558E+06,   1.55292E+06,   1.55292E+06
C:/temp/Job-7.odb,Step-1,Increment      1: Step Time =    1.000,"P-7-1",           794,       98.8093,       144.627,            0.,NA,NA,"",   1.45134E+06,   1.59395E+06,   1.59395E+06
C:/temp/Job-7.odb,Step-1,Increment      1: Step Time =    1.000,"P-7-1",           795,       142.874,       91.2539,            0.,NA,NA,"",   644.870E+03,   490.745E+03,   490.745E+03
C:/temp/Job-7.odb,Step-1,Increment      1: Step Time =    1.000,"P-7-1",           796,       57.3733,       101.711,            0.,NA,NA,"",   219.224E+03,   184.801E+03,   184.801E+03
C:/temp/Job-7.odb,Step-1,Increment      1: Step Time =    1.000,"P-7-1",           797,       14.5379,       64.9816,            0.,NA,NA,"",   776.972E+03,   853.498E+03,   853.498E+03
C:/temp/Job-7.odb,Step-1,Increment      1: Step Time =    1.000,"P-7-1",           798,       63.9754,       15.6511,            0.,NA,NA,"",   1.16386E+06,   1.15471E+06,   1.15471E+06
C:/temp/Job-7.odb,Step-1,Increment      1: Step Time =    1.000,"P-7-1",           799,       184.503,       65.0569,            0.,NA,NA,"",   969.436E+03,   1.02701E+06,   1.02701E+06
C:/temp/Job-7.odb,Step-1,Increment      1: Step Time =    1.000,"P-7-1",           800,       65.7910,       182.567,            0.,NA,NA,"",   1.17205E+06,   1.16149E+06,   1.16149E+06
C:/temp/Job-7.odb,Step-1,Increment      1: Step Time =    1.000,"P-7-1",           801,       134.713,       14.7385,            0.,NA,NA,"",   1.02846E+06,   1.02408E+06,   1.02408E+06
C:/temp/Job-7.odb,Step-1,Increment      1: Step Time =    1.000,"P-7-1",           802,       15.9476,       135.962,            0.,NA,NA,"",   793.699E+03,   867.270E+03,   867.270E+03
C:/temp/Job-7.odb,Step-1,Increment      1: Step Time =    1.000,"P-7-1",           803,       186.156,       134.847,            0.,NA,NA,"",   960.041E+03,   1.02400E+06,   1.02400E+06
C:/temp/Job-7.odb,Step-1,Increment      1: Step Time =    1.000,"P-7-1",           804,       135.795,       185.504,            0.,NA,NA,"",   1.02799E+06,   1.02270E+06,   1.02270E+06
C:/temp/Job-7.odb,Step-1,Increment      1: Step Time =    1.000,"P-7-1",           805,       116.733,       143.352,            0.,NA,NA,"",   1.49532E+06,   1.55895E+06,   1.55895E+06
C:/temp/Job-7.odb,Step-1,Increment      1: Step Time =    1.000,"P-7-1",           806,       82.6596,       143.417,            0.,NA,NA,"",   1.50342E+06,   1.53688E+06,   1.53688E+06
C:/temp/Job-7.odb,Step-1,Increment      1: Step Time =    1.000,"P-7-1",           807,       128.046,       130.615,            0.,NA,NA,"",   1.56749E+06,   1.44066E+06,   1.44066E+06
C:/temp/Job-7.odb,Step-1,Increment      1: Step Time =    1.000,"P-7-1",           808,       136.634,       122.659,            0.,NA,NA,"",   1.29083E+06,   1.05892E+06,   1.05892E+06
C:/temp/Job-7.odb,Step-1,Increment      1: Step Time =    1.000,"P-7-1",           809,       69.3544,       133.292,            0.,NA,NA,"",   1.40425E+06,   1.30056E+06,   1.30056E+06
C:/temp/Job-7.odb,Step-1,Increment      1: Step Time =    1.000,"P-7-1",           810,       14.0963,       168.711,            0.,NA,NA,"",   1.10547E+06,   1.17967E+06,   1.17967E+06
C:/temp/Job-7.odb,Step-1,Increment      1: Step Time =    1.000,"P-7-1",           811,       168.775,       14.7857,            0.,NA,NA,"",   1.02994E+06,   1.02640E+06,   1.02640E+06
C:/temp/Job-7.odb,Step-1,Increment      1: Step Time =    1.000,"P-7-1",           812,       19.3113,       31.4538,            0.,NA,NA,"",   1.14322E+06,   1.19527E+06,   1.19527E+06
C:/temp/Job-7.odb,Step-1,Increment      1: Step Time =    1.000,"P-7-1",           813,       30.7501,       14.1194,            0.,NA,NA,"",   1.28148E+06,   1.28415E+06,   1.28415E+06
C:/temp/Job-7.odb,Step-1,Increment      1: Step Time =    1.000,"P-7-1",           814,       185.413,       168.922,            0.,NA,NA,"",   1.01245E+06,   1.02151E+06,   1.02151E+06
C:/temp/Job-7.odb,Step-1,Increment      1: Step Time =    1.000,"P-7-1",           815,       166.190,       187.084,            0.,NA,NA,"",   1.02702E+06,   1.02347E+06,   1.02347E+06
C:/temp/Job-7.odb,Step-1,Increment      1: Step Time =    1.000,"P-7-1",           816,       186.603,       34.1144,            0.,NA,NA,"",   1.00824E+06,   1.02117E+06,   1.02117E+06
C:/temp/Job-7.odb,Step-1,Increment      1: Step Time =    1.000,"P-7-1",           817,       30.5779,       184.641,            0.,NA,NA,"",   1.27818E+06,   1.28147E+06,   1.28147E+06
C:/temp/Job-7.odb,Step-1,Increment      1: Step Time =    1.000,"P-7-1",           818,       14.2935,       123.904,            0.,NA,NA,"",   665.800E+03,   743.869E+03,   743.869E+03
C:/temp/Job-7.odb,Step-1,Increment      1: Step Time =    1.000,"P-7-1",           819,       124.724,       15.4183,            0.,NA,NA,"",   1.00960E+06,   1.01314E+06,   1.01314E+06
C:/temp/Job-7.odb,Step-1,Increment      1: Step Time =    1.000,"P-7-1",           820,       14.2557,       74.8895,            0.,NA,NA,"",   676.867E+03,   754.392E+03,   754.392E+03
C:/temp/Job-7.odb,Step-1,Increment      1: Step Time =    1.000,"P-7-1",           821,       75.7985,       13.7418,            0.,NA,NA,"",   1.08390E+06,   1.08267E+06,   1.08267E+06
C:/temp/Job-7.odb,Step-1,Increment      1: Step Time =    1.000,"P-7-1",           822,       185.873,       125.101,            0.,NA,NA,"",   921.767E+03,   1.00520E+06,   1.00520E+06
C:/temp/Job-7.odb,Step-1,Increment      1: Step Time =    1.000,"P-7-1",           823,       126.603,       185.592,            0.,NA,NA,"",   1.00462E+06,   1.00575E+06,   1.00575E+06
C:/temp/Job-7.odb,Step-1,Increment      1: Step Time =    1.000,"P-7-1",           824,       75.3465,       185.516,            0.,NA,NA,"",   1.09365E+06,   1.09231E+06,   1.09231E+06
C:/temp/Job-7.odb,Step-1,Increment      1: Step Time =    1.000,"P-7-1",           825,       184.600,       74.7023,            0.,NA,NA,"",   926.945E+03,   1.00524E+06,   1.00524E+06
C:/temp/Job-7.odb,Step-1,Increment      1: Step Time =    1.000,"P-7-1",           826,       84.9119,       14.1980,            0.,NA,NA,"",   1.03385E+06,   1.04115E+06,   1.04115E+06
C:/temp/Job-7.odb,Step-1,Increment      1: Step Time =    1.000,"P-7-1",           827,       14.7639,       114.546,            0.,NA,NA,"",   586.916E+03,   664.738E+03,   664.738E+03
C:/temp/Job-7.odb,Step-1,Increment      1: Step Time =    1.000,"P-7-1",           828,       14.8706,       85.1942,            0.,NA,NA,"",   586.852E+03,   664.577E+03,   664.577E+03
C:/temp/Job-7.odb,Step-1,Increment      1: Step Time =    1.000,"P-7-1",           829,       114.461,       15.6066,            0.,NA,NA,"",   985.521E+03,   999.453E+03,   999.453E+03
C:/temp/Job-7.odb,Step-1,Increment      1: Step Time =    1.000,"P-7-1",           830,       184.845,       84.6844,            0.,NA,NA,"",   876.596E+03,   973.854E+03,   973.854E+03
C:/temp/Job-7.odb,Step-1,Increment      1: Step Time =    1.000,"P-7-1",           831,       116.320,       183.197,            0.,NA,NA,"",   1.00192E+06,   1.01596E+06,   1.01596E+06
C:/temp/Job-7.odb,Step-1,Increment      1: Step Time =    1.000,"P-7-1",           832,       85.8028,       183.873,            0.,NA,NA,"",   1.04741E+06,   1.05783E+06,   1.05783E+06
C:/temp/Job-7.odb,Step-1,Increment      1: Step Time =    1.000,"P-7-1",           833,       185.398,       115.177,            0.,NA,NA,"",   873.463E+03,   972.823E+03,   972.823E+03
C:/temp/Job-7.odb,Step-1,Increment      1: Step Time =    1.000,"P-7-1",           834,       104.878,       143.423,            0.,NA,NA,"",   1.49774E+06,   1.64581E+06,   1.64581E+06
C:/temp/Job-7.odb,Step-1,Increment      1: Step Time =    1.000,"P-7-1",           835,       141.853,       107.265,            0.,NA,NA,"",   569.056E+03,   255.308E+03,   255.308E+03
C:/temp/Job-7.odb,Step-1,Increment      1: Step Time =    1.000,"P-7-1",           836,       104.642,       58.5233,            0.,NA,NA,"",   1.57773E+06,   1.73349E+06,   1.73349E+06
C:/temp/Job-7.odb,Step-1,Increment      1: Step Time =    1.000,"P-7-1",           837,       94.5516,       14.9417,            0.,NA,NA,"",   994.698E+03,   1.01033E+06,   1.01033E+06
C:/temp/Job-7.odb,Step-1,Increment      1: Step Time =    1.000,"P-7-1",           838,       14.9098,       104.809,            0.,NA,NA,"",   537.165E+03,   614.155E+03,   614.155E+03
C:/temp/Job-7.odb,Step-1,Increment      1: Step Time =    1.000,"P-7-1",           839,       185.193,       94.8613,            0.,NA,NA,"",   838.388E+03,   946.046E+03,   946.046E+03
C:/temp/Job-7.odb,Step-1,Increment      1: Step Time =    1.000,"P-7-1",           840,       105.461,       184.969,            0.,NA,NA,"",   972.490E+03,   990.291E+03,   990.291E+03
C:/temp/Job-7.odb,Step-1,Increment      1: Step Time =    1.000,"P-7-1",           841,       64.9126,       70.5113,            0.,NA,NA,"",   1.29664E+06,   1.15939E+06,   1.15939E+06
C:/temp/Job-7.odb,Step-1,Increment      1: Step Time =    1.000,"P-7-1",           842,       134.521,       71.0089,            0.,NA,NA,"",   1.46806E+06,   1.27944E+06,   1.27944E+06
C:/temp/Job-7.odb,Step-1,Increment      1: Step Time =    1.000,"P-7-1",           843,       92.5927,       138.814,            0.,NA,NA,"",   1.65715E+06,   1.78911E+06,   1.78911E+06
C:/temp/Job-7.odb,Step-1,Increment      1: Step Time =    1.000,"P-7-1",           844,       104.434,       15.4352,            0.,NA,NA,"",   975.823E+03,   995.143E+03,   995.143E+03
C:/temp/Job-7.odb,Step-1,Increment      1: Step Time =    1.000,"P-7-1",           845,       14.3691,       95.1032,            0.,NA,NA,"",   535.519E+03,   612.485E+03,   612.485E+03
C:/temp/Job-7.odb,Step-1,Increment      1: Step Time =    1.000,"P-7-1",           846,       185.032,       105.130,            0.,NA,NA,"",   839.756E+03,   947.355E+03,   947.355E+03
C:/temp/Job-7.odb,Step-1,Increment      1: Step Time =    1.000,"P-7-1",           847,       95.9411,       185.632,            0.,NA,NA,"",   984.404E+03,   999.831E+03,   999.831E+03
C:/temp/Job-7.odb,Step-1,Increment      1: Step Time =    1.000,"P-7-1",           848,       137.435,       76.4744,            0.,NA,NA,"",   1.31136E+06,   1.08356E+06,   1.08356E+06
C:/temp/Job-7.odb,Step-1,Increment      1: Step Time =    1.000,"P-7-1",           849,       108.890,       21.0634,            0.,NA,NA,"",   1.02579E+06,   1.05485E+06,   1.05485E+06
C:/temp/Job-7.odb,Step-1,Increment      1: Step Time =    1.000,"P-7-1",           850,       18.7008,       90.7748,            0.,NA,NA,"",   544.937E+03,   620.712E+03,   620.712E+03
C:/temp/Job-7.odb,Step-1,Increment      1: Step Time =    1.000,"P-7-1",           851,       180.110,       110.366,            0.,NA,NA,"",   842.386E+03,   930.075E+03,   930.075E+03
C:/temp/Job-7.odb,Step-1,Increment      1: Step Time =    1.000,"P-7-1",           852,       88.7927,       180.675,            0.,NA,NA,"",   1.06056E+06,   1.07894E+06,   1.07894E+06
C:/temp/Job-7.odb,Step-1,Increment      1: Step Time =    1.000,"P-7-1",           853,       99.0726,       20.1654,            0.,NA,NA,"",   1.02703E+06,   1.05754E+06,   1.05754E+06
C:/temp/Job-7.odb,Step-1,Increment      1: Step Time =    1.000,"P-7-1",           854,       19.9339,       99.6098,            0.,NA,NA,"",   517.693E+03,   592.581E+03,   592.581E+03
C:/temp/Job-7.odb,Step-1,Increment      1: Step Time =    1.000,"P-7-1",           855,       180.465,       99.9492,            0.,NA,NA,"",   811.222E+03,   906.320E+03,   906.320E+03
C:/temp/Job-7.odb,Step-1,Increment      1: Step Time =    1.000,"P-7-1",           856,       100.554,       180.789,            0.,NA,NA,"",   1.01627E+06,   1.04366E+06,   1.04366E+06
C:/temp/Job-7.odb,Step-1,Increment      1: Step Time =    1.000,"P-7-1",           857,       132.867,       75.2955,            0.,NA,NA,"",   1.37121E+06,   1.15497E+06,   1.15497E+06
C:/temp/Job-7.odb,Step-1,Increment      1: Step Time =    1.000,"P-7-1",           858,       124.861,       141.861,            0.,NA,NA,"",   1.53152E+06,   1.50160E+06,   1.50160E+06
C:/temp/Job-7.odb,Step-1,Increment      1: Step Time =    1.000,"P-7-1",           859,       52.1272,       99.3561,            0.,NA,NA,"",   256.781E+03,   276.541E+03,   276.541E+03
C:/temp/Job-7.odb,Step-1,Increment      1: Step Time =    1.000,"P-7-1",           860,       112.237,       148.826,            0.,NA,NA,"",   1.36344E+06,   1.45765E+06,   1.45765E+06
C:/temp/Job-7.odb,Step-1,Increment      1: Step Time =    1.000,"P-7-1",           861,       19.4292,       60.2559,            0.,NA,NA,"",   855.008E+03,   918.540E+03,   918.540E+03
C:/temp/Job-7.odb,Step-1,Increment      1: Step Time =    1.000,"P-7-1",           862,       62.3289,       20.8742,            0.,NA,NA,"",   1.20884E+06,   1.19336E+06,   1.19336E+06
C:/temp/Job-7.odb,Step-1,Increment      1: Step Time =    1.000,"P-7-1",           863,       57.4589,       182.660,            0.,NA,NA,"",   1.20390E+06,   1.19059E+06,   1.19059E+06
C:/temp/Job-7.odb,Step-1,Increment      1: Step Time =    1.000,"P-7-1",           864,       179.469,       60.1555,            0.,NA,NA,"",   1.02265E+06,   1.05030E+06,   1.05030E+06
C:/temp/Job-7.odb,Step-1,Increment      1: Step Time =    1.000,"P-7-1",           865,       139.828,       18.8233,            0.,NA,NA,"",   1.07564E+06,   1.06456E+06,   1.06456E+06
C:/temp/Job-7.odb,Step-1,Increment      1: Step Time =    1.000,"P-7-1",           866,       21.3287,       137.605,            0.,NA,NA,"",   843.202E+03,   903.678E+03,   903.678E+03
C:/temp/Job-7.odb,Step-1,Increment      1: Step Time =    1.000,"P-7-1",           867,       181.921,       139.569,            0.,NA,NA,"",   1.00542E+06,   1.04261E+06,   1.04261E+06
C:/temp/Job-7.odb,Step-1,Increment      1: Step Time =    1.000,"P-7-1",           868,       140.402,       180.412,            0.,NA,NA,"",   1.08071E+06,   1.06880E+06,   1.06880E+06
C:/temp/Job-7.odb,Step-1,Increment      1: Step Time =    1.000,"P-7-1",           869,       87.9499,       143.484,            0.,NA,NA,"",   1.49622E+06,   1.58012E+06,   1.58012E+06
C:/temp/Job-7.odb,Step-1,Increment      1: Step Time =    1.000,"P-7-1",           870,       77.6255,       143.562,            0.,NA,NA,"",   1.49446E+06,   1.48374E+06,   1.48374E+06
C:/temp/Job-7.odb,Step-1,Increment      1: Step Time =    1.000,"P-7-1",           871,       76.4393,       132.638,            0.,NA,NA,"",   1.50503E+06,   1.46018E+06,   1.46018E+06
C:/temp/Job-7.odb,Step-1,Increment      1: Step Time =    1.000,"P-7-1",           872,       63.2737,       130.839,            0.,NA,NA,"",   1.27290E+06,   1.14354E+06,   1.14354E+06
C:/temp/Job-7.odb,Step-1,Increment      1: Step Time =    1.000,"P-7-1",           873,       172.792,       14.6905,            0.,NA,NA,"",   1.02412E+06,   1.02221E+06,   1.02221E+06
C:/temp/Job-7.odb,Step-1,Increment      1: Step Time =    1.000,"P-7-1",           874,       14.7265,       172.875,            0.,NA,NA,"",   1.15507E+06,   1.22346E+06,   1.22346E+06
C:/temp/Job-7.odb,Step-1,Increment      1: Step Time =    1.000,"P-7-1",           875,       18.3014,       164.411,            0.,NA,NA,"",   1.09745E+06,   1.15649E+06,   1.15649E+06
C:/temp/Job-7.odb,Step-1,Increment      1: Step Time =    1.000,"P-7-1",           876,       165.003,       20.1443,            0.,NA,NA,"",   1.05736E+06,   1.04871E+06,   1.04871E+06
C:/temp/Job-7.odb,Step-1,Increment      1: Step Time =    1.000,"P-7-1",           877,       35.0156,       18.2394,            0.,NA,NA,"",   1.26313E+06,   1.26166E+06,   1.26166E+06
C:/temp/Job-7.odb,Step-1,Increment      1: Step Time =    1.000,"P-7-1",           878,       19.3527,       35.7332,            0.,NA,NA,"",   1.10219E+06,   1.15717E+06,   1.15717E+06
C:/temp/Job-7.odb,Step-1,Increment      1: Step Time =    1.000,"P-7-1",           879,       26.4580,       14.6073,            0.,NA,NA,"",   1.29465E+06,   1.30372E+06,   1.30372E+06
C:/temp/Job-7.odb,Step-1,Increment      1: Step Time =    1.000,"P-7-1",           880,       14.7390,       26.8191,            0.,NA,NA,"",   1.16091E+06,   1.22791E+06,   1.22791E+06
C:/temp/Job-7.odb,Step-1,Increment      1: Step Time =    1.000,"P-7-1",           881,       180.111,       165.345,            0.,NA,NA,"",   1.03702E+06,   1.04196E+06,   1.04196E+06
C:/temp/Job-7.odb,Step-1,Increment      1: Step Time =    1.000,"P-7-1",           882,       162.507,       183.142,            0.,NA,NA,"",   1.04644E+06,   1.03899E+06,   1.03899E+06
C:/temp/Job-7.odb,Step-1,Increment      1: Step Time =    1.000,"P-7-1",           883,       170.576,       187.255,            0.,NA,NA,"",   1.02179E+06,   1.01970E+06,   1.01970E+06
C:/temp/Job-7.odb,Step-1,Increment      1: Step Time =    1.000,"P-7-1",           884,       185.507,       172.912,            0.,NA,NA,"",   1.01193E+06,   1.01841E+06,   1.01841E+06
C:/temp/Job-7.odb,Step-1,Increment      1: Step Time =    1.000,"P-7-1",           885,       25.7029,       184.465,            0.,NA,NA,"",   1.29069E+06,   1.30289E+06,   1.30289E+06
C:/temp/Job-7.odb,Step-1,Increment      1: Step Time =    1.000,"P-7-1",           886,       186.881,       29.6966,            0.,NA,NA,"",   1.00813E+06,   1.01736E+06,   1.01736E+06
C:/temp/Job-7.odb,Step-1,Increment      1: Step Time =    1.000,"P-7-1",           887,       181.693,       38.0749,            0.,NA,NA,"",   1.03105E+06,   1.04064E+06,   1.04064E+06
C:/temp/Job-7.odb,Step-1,Increment      1: Step Time =    1.000,"P-7-1",           888,       35.0875,       179.632,            0.,NA,NA,"",   1.25954E+06,   1.25800E+06,   1.25800E+06
C:/temp/Job-7.odb,Step-1,Increment      1: Step Time =    1.000,"P-7-1",           889,       129.731,       15.1645,            0.,NA,NA,"",   1.02003E+06,   1.01903E+06,   1.01903E+06
C:/temp/Job-7.odb,Step-1,Increment      1: Step Time =    1.000,"P-7-1",           890,       18.2532,       131.327,            0.,NA,NA,"",   755.166E+03,   826.051E+03,   826.051E+03
C:/temp/Job-7.odb,Step-1,Increment      1: Step Time =    1.000,"P-7-1",           891,       70.2941,       181.637,            0.,NA,NA,"",   1.15735E+06,   1.15019E+06,   1.15019E+06
C:/temp/Job-7.odb,Step-1,Increment      1: Step Time =    1.000,"P-7-1",           892,       18.8432,       70.0925,            0.,NA,NA,"",   742.352E+03,   812.278E+03,   812.278E+03
C:/temp/Job-7.odb,Step-1,Increment      1: Step Time =    1.000,"P-7-1",           893,       68.5600,       17.7202,            0.,NA,NA,"",   1.15676E+06,   1.14881E+06,   1.14881E+06
C:/temp/Job-7.odb,Step-1,Increment      1: Step Time =    1.000,"P-7-1",           894,       181.372,       129.996,            0.,NA,NA,"",   969.291E+03,   1.02352E+06,   1.02352E+06
C:/temp/Job-7.odb,Step-1,Increment      1: Step Time =    1.000,"P-7-1",           895,       131.610,       181.195,            0.,NA,NA,"",   1.06125E+06,   1.05732E+06,   1.05732E+06
C:/temp/Job-7.odb,Step-1,Increment      1: Step Time =    1.000,"P-7-1",           896,       179.205,       69.6620,            0.,NA,NA,"",   982.303E+03,   1.02648E+06,   1.02648E+06
C:/temp/Job-7.odb,Step-1,Increment      1: Step Time =    1.000,"P-7-1",           897,       19.2051,       79.5801,            0.,NA,NA,"",   637.234E+03,   710.795E+03,   710.795E+03
C:/temp/Job-7.odb,Step-1,Increment      1: Step Time =    1.000,"P-7-1",           898,       119.363,       20.7500,            0.,NA,NA,"",   1.04696E+06,   1.06159E+06,   1.06159E+06
C:/temp/Job-7.odb,Step-1,Increment      1: Step Time =    1.000,"P-7-1",           899,       84.0479,       178.361,            0.,NA,NA,"",   1.10727E+06,   1.12138E+06,   1.12138E+06
C:/temp/Job-7.odb,Step-1,Increment      1: Step Time =    1.000,"P-7-1",           900,       181.186,       120.256,            0.,NA,NA,"",   908.715E+03,   982.395E+03,   982.395E+03
C:/temp/Job-7.odb,Step-1,Increment      1: Step Time =    1.000,"P-7-1",           901,       119.910,       179.034,            0.,NA,NA,"",   1.05208E+06,   1.06666E+06,   1.06666E+06
C:/temp/Job-7.odb,Step-1,Increment      1: Step Time =    1.000,"P-7-1",           902,       137.060,       104.962,            0.,NA,NA,"",   463.300E+03,  -346.752E+03,  -346.752E+03
C:/temp/Job-7.odb,Step-1,Increment      1: Step Time =    1.000,"P-7-1",           903,       100.552,       61.0301,            0.,NA,NA,"",   1.71987E+06,   1.88325E+06,   1.88325E+06
C:/temp/Job-7.odb,Step-1,Increment      1: Step Time =    1.000,"P-7-1",           904,       108.377,       56.4662,            0.,NA,NA,"",   1.47991E+06,   1.61216E+06,   1.61216E+06
C:/temp/Job-7.odb,Step-1,Increment      1: Step Time =    1.000,"P-7-1",           905,       109.529,       178.989,            0.,NA,NA,"",   1.02708E+06,   1.05550E+06,   1.05550E+06
C:/temp/Job-7.odb,Step-1,Increment      1: Step Time =    1.000,"P-7-1",           906,       67.5776,       67.3687,            0.,NA,NA,"",   1.37901E+06,   1.26071E+06,   1.26071E+06
C:/temp/Job-7.odb,Step-1,Increment      1: Step Time =    1.000,"P-7-1",           907,       64.3549,       76.6845,            0.,NA,NA,"",   1.10963E+06,   946.065E+03,   946.065E+03
C:/temp/Job-7.odb,Step-1,Increment      1: Step Time =    1.000,"P-7-1",           908,       134.300,       64.5519,            0.,NA,NA,"",   1.53003E+06,   1.38841E+06,   1.38841E+06
C:/temp/Job-7.odb,Step-1,Increment      1: Step Time =    1.000,"P-7-1",           909,       140.739,       87.7651,            0.,NA,NA,"",   833.068E+03,   621.222E+03,   621.222E+03
C:/temp/Job-7.odb,Step-1,Increment      1: Step Time =    1.000,"P-7-1",           910,       97.9926,       149.283,            0.,NA,NA,"",   1.33942E+06,   1.46310E+06,   1.46310E+06
C:/temp/Job-7.odb,Step-1,Increment      1: Step Time =    1.000,"P-7-1",           911,       135.339,       131.003,            0.,NA,NA,"",   1.49601E+06,   1.31769E+06,   1.31769E+06
C:/temp/Job-7.odb,Step-1,Increment      1: Step Time =    1.000,"P-7-1",           912,       131.602,       134.309,            0.,NA,NA,"",   1.55224E+06,   1.41672E+06,   1.41672E+06
C:/temp/Job-7.odb,Step-1,Increment      1: Step Time =    1.000,"P-7-1",           913,       115.928,       65.0633,            0.,NA,NA,"",   1.72627E+06,   1.79446E+06,   1.79446E+06
C:/temp/Job-7.odb,Step-1,Increment      1: Step Time =    1.000,"P-7-1",           914,       77.9724,       58.0568,            0.,NA,NA,"",   1.51896E+06,   1.50766E+06,   1.50766E+06
C:/temp/Job-7.odb,Step-1,Increment      1: Step Time =    1.000,"P-7-1",           915,       121.215,       59.5584,            0.,NA,NA,"",   1.56112E+06,   1.56665E+06,   1.56665E+06
C:/temp/Job-7.odb,Step-1,Increment      1: Step Time =    1.000,"P-7-1",           916,       88.1482,       24.5443,            0.,NA,NA,"",   1.10697E+06,   1.13170E+06,   1.13170E+06
C:/temp/Job-7.odb,Step-1,Increment      1: Step Time =    1.000,"P-7-1",           917,       24.2340,       109.672,            0.,NA,NA,"",   538.923E+03,   610.766E+03,   610.766E+03
C:/temp/Job-7.odb,Step-1,Increment      1: Step Time =    1.000,"P-7-1",           918,       175.953,       90.3138,            0.,NA,NA,"",   822.705E+03,   896.922E+03,   896.922E+03
C:/temp/Job-7.odb,Step-1,Increment      1: Step Time =    1.000,"P-7-1",           919,       108.514,       173.695,            0.,NA,NA,"",   1.06676E+06,   1.10879E+06,   1.10879E+06
C:/temp/Job-7.odb,Step-1,Increment      1: Step Time =    1.000,"P-7-1",           920,       23.4529,       77.7669,            0.,NA,NA,"",   665.170E+03,   732.099E+03,   732.099E+03
C:/temp/Job-7.odb,Step-1,Increment      1: Step Time =    1.000,"P-7-1",           921,       119.070,       25.8026,            0.,NA,NA,"",   1.09251E+06,   1.11350E+06,   1.11350E+06
C:/temp/Job-7.odb,Step-1,Increment      1: Step Time =    1.000,"P-7-1",           922,       79.8585,       22.7626,            0.,NA,NA,"",   1.14256E+06,   1.14875E+06,   1.14875E+06
C:/temp/Job-7.odb,Step-1,Increment      1: Step Time =    1.000,"P-7-1",           923,       24.8581,       119.718,            0.,NA,NA,"",   643.342E+03,   708.756E+03,   708.756E+03
C:/temp/Job-7.odb,Step-1,Increment      1: Step Time =    1.000,"P-7-1",           924,       78.7805,       174.111,            0.,NA,NA,"",   1.17672E+06,   1.18307E+06,   1.18307E+06
C:/temp/Job-7.odb,Step-1,Increment      1: Step Time =    1.000,"P-7-1",           925,       177.064,       120.489,            0.,NA,NA,"",   921.615E+03,   976.401E+03,   976.401E+03
C:/temp/Job-7.odb,Step-1,Increment      1: Step Time =    1.000,"P-7-1",           926,       174.455,       79.4304,            0.,NA,NA,"",   927.332E+03,   970.792E+03,   970.792E+03
C:/temp/Job-7.odb,Step-1,Increment      1: Step Time =    1.000,"P-7-1",           927,       122.009,       176.480,            0.,NA,NA,"",   1.08185E+06,   1.09527E+06,   1.09527E+06
C:/temp/Job-7.odb,Step-1,Increment      1: Step Time =    1.000,"P-7-1",           928,       60.9576,       79.1106,            0.,NA,NA,"",   974.012E+03,   822.493E+03,   822.493E+03
C:/temp/Job-7.odb,Step-1,Increment      1: Step Time =    1.000,"P-7-1",           929,       176.309,       99.4546,            0.,NA,NA,"",   788.064E+03,   871.248E+03,   871.248E+03
C:/temp/Job-7.odb,Step-1,Increment      1: Step Time =    1.000,"P-7-1",           930,       96.1797,       172.855,            0.,NA,NA,"",   1.08753E+06,   1.13436E+06,   1.13436E+06
C:/temp/Job-7.odb,Step-1,Increment      1: Step Time =    1.000,"P-7-1",           931,       98.4527,       24.3955,            0.,NA,NA,"",   1.05931E+06,   1.09883E+06,   1.09883E+06
C:/temp/Job-7.odb,Step-1,Increment      1: Step Time =    1.000,"P-7-1",           932,       25.6201,       98.2084,            0.,NA,NA,"",   499.305E+03,   570.544E+03,   570.544E+03
C:/temp/Job-7.odb,Step-1,Increment      1: Step Time =    1.000,"P-7-1",           933,       111.685,       51.2388,            0.,NA,NA,"",   1.36343E+06,   1.45855E+06,   1.45855E+06
C:/temp/Job-7.odb,Step-1,Increment      1: Step Time =    1.000,"P-7-1",           934,       23.4035,       60.6404,            0.,NA,NA,"",   874.744E+03,   928.079E+03,   928.079E+03
C:/temp/Job-7.odb,Step-1,Increment      1: Step Time =    1.000,"P-7-1",           935,       60.0398,       24.6692,            0.,NA,NA,"",   1.24042E+06,   1.21934E+06,   1.21934E+06
C:/temp/Job-7.odb,Step-1,Increment      1: Step Time =    1.000,"P-7-1",           936,       143.431,       23.1477,            0.,NA,NA,"",   1.11399E+06,   1.09616E+06,   1.09616E+06
C:/temp/Job-7.odb,Step-1,Increment      1: Step Time =    1.000,"P-7-1",           937,       25.0900,       140.015,            0.,NA,NA,"",   898.315E+03,   945.989E+03,   945.989E+03
C:/temp/Job-7.odb,Step-1,Increment      1: Step Time =    1.000,"P-7-1",           938,       176.633,       142.345,            0.,NA,NA,"",   1.05174E+06,   1.06468E+06,   1.06468E+06
C:/temp/Job-7.odb,Step-1,Increment      1: Step Time =    1.000,"P-7-1",           939,       140.153,       175.782,            0.,NA,NA,"",   1.12448E+06,   1.10735E+06,   1.10735E+06
C:/temp/Job-7.odb,Step-1,Increment      1: Step Time =    1.000,"P-7-1",           940,       174.262,       59.4861,            0.,NA,NA,"",   1.06973E+06,   1.07317E+06,   1.07317E+06
C:/temp/Job-7.odb,Step-1,Increment      1: Step Time =    1.000,"P-7-1",           941,       54.3749,       174.535,            0.,NA,NA,"",   1.25481E+06,   1.23177E+06,   1.23177E+06
C:/temp/Job-7.odb,Step-1,Increment      1: Step Time =    1.000,"P-7-1",           942,       146.588,       88.9919,            0.,NA,NA,"",   749.718E+03,   636.173E+03,   636.173E+03
C:/temp/Job-7.odb,Step-1,Increment      1: Step Time =    1.000,"P-7-1",           943,       70.9907,       22.2351,            0.,NA,NA,"",   1.18403E+06,   1.17642E+06,   1.17642E+06
C:/temp/Job-7.odb,Step-1,Increment      1: Step Time =    1.000,"P-7-1",           944,       173.707,       69.5113,            0.,NA,NA,"",   1.02020E+06,   1.03657E+06,   1.03657E+06
C:/temp/Job-7.odb,Step-1,Increment      1: Step Time =    1.000,"P-7-1",           945,       128.041,       176.859,            0.,NA,NA,"",   1.09778E+06,   1.09846E+06,   1.09846E+06
C:/temp/Job-7.odb,Step-1,Increment      1: Step Time =    1.000,"P-7-1",           946,       23.1362,       128.993,            0.,NA,NA,"",   752.061E+03,   813.663E+03,   813.663E+03
C:/temp/Job-7.odb,Step-1,Increment      1: Step Time =    1.000,"P-7-1",           947,       35.0731,       22.0756,            0.,NA,NA,"",   1.25668E+06,   1.25479E+06,   1.25479E+06
C:/temp/Job-7.odb,Step-1,Increment      1: Step Time =    1.000,"P-7-1",           948,       24.1747,       35.6624,            0.,NA,NA,"",   1.13681E+06,   1.17336E+06,   1.17336E+06
C:/temp/Job-7.odb,Step-1,Increment      1: Step Time =    1.000,"P-7-1",           949,       21.7540,       164.808,            0.,NA,NA,"",   1.12282E+06,   1.16908E+06,   1.16908E+06
C:/temp/Job-7.odb,Step-1,Increment      1: Step Time =    1.000,"P-7-1",           950,       165.827,       24.6842,            0.,NA,NA,"",   1.07475E+06,   1.06326E+06,   1.06326E+06
C:/temp/Job-7.odb,Step-1,Increment      1: Step Time =    1.000,"P-7-1",           951,       173.475,       38.4937,            0.,NA,NA,"",   1.08056E+06,   1.07383E+06,   1.07383E+06
C:/temp/Job-7.odb,Step-1,Increment      1: Step Time =    1.000,"P-7-1",           952,       35.2840,       174.902,            0.,NA,NA,"",   1.24768E+06,   1.24658E+06,   1.24658E+06
C:/temp/Job-7.odb,Step-1,Increment      1: Step Time =    1.000,"P-7-1",           953,       175.695,       166.452,            0.,NA,NA,"",   1.05771E+06,   1.05562E+06,   1.05562E+06
C:/temp/Job-7.odb,Step-1,Increment      1: Step Time =    1.000,"P-7-1",           954,       161.695,       176.181,            0.,NA,NA,"",   1.08581E+06,   1.07103E+06,   1.07103E+06
C:/temp/Job-7.odb,Step-1,Increment      1: Step Time =    1.000,"P-7-1",           955,       128.929,       144.706,            0.,NA,NA,"",   1.48746E+06,   1.43201E+06,   1.43201E+06
C:/temp/Job-7.odb,Step-1,Increment      1: Step Time =    1.000,"P-7-1",           956,       52.4762,       186.438,            0.,NA,NA,"",   1.20370E+06,   1.19452E+06,   1.19452E+06
C:/temp/Job-7.odb,Step-1,Increment      1: Step Time =    1.000,"P-7-1",           957,       144.827,       13.7307,            0.,NA,NA,"",   1.03588E+06,   1.02827E+06,   1.02827E+06
C:/temp/Job-7.odb,Step-1,Increment      1: Step Time =    1.000,"P-7-1",           958,       15.2423,       145.006,            0.,NA,NA,"",   885.384E+03,   959.561E+03,   959.561E+03
C:/temp/Job-7.odb,Step-1,Increment      1: Step Time =    1.000,"P-7-1",           959,       14.8825,       55.0479,            0.,NA,NA,"",   881.774E+03,   956.559E+03,   956.559E+03
C:/temp/Job-7.odb,Step-1,Increment      1: Step Time =    1.000,"P-7-1",           960,       54.8599,       15.3071,            0.,NA,NA,"",   1.20212E+06,   1.19091E+06,   1.19091E+06
C:/temp/Job-7.odb,Step-1,Increment      1: Step Time =    1.000,"P-7-1",           961,       184.617,       55.9965,            0.,NA,NA,"",   995.352E+03,   1.03563E+06,   1.03563E+06
C:/temp/Job-7.odb,Step-1,Increment      1: Step Time =    1.000,"P-7-1",           962,       186.540,       144.736,            0.,NA,NA,"",   986.548E+03,   1.02984E+06,   1.02984E+06
C:/temp/Job-7.odb,Step-1,Increment      1: Step Time =    1.000,"P-7-1",           963,       144.995,       184.630,            0.,NA,NA,"",   1.04643E+06,   1.03731E+06,   1.03731E+06
C:/temp/Job-7.odb,Step-1,Increment      1: Step Time =    1.000,"P-7-1",           964,       77.9334,       148.487,            0.,NA,NA,"",   1.44111E+06,   1.44027E+06,   1.44027E+06
C:/temp/Job-7.odb,Step-1,Increment      1: Step Time =    1.000,"P-7-1",           965,       64.2945,       137.454,            0.,NA,NA,"",   1.37507E+06,   1.27325E+06,   1.27325E+06
C:/temp/Job-7.odb,Step-1,Increment      1: Step Time =    1.000,"P-7-1",           966,       173.951,       10.3654,            0.,NA,NA,"",   1.01389E+06,   1.01303E+06,   1.01303E+06
C:/temp/Job-7.odb,Step-1,Increment      1: Step Time =    1.000,"P-7-1",           967,       18.9928,       171.840,            0.,NA,NA,"",   1.17113E+06,   1.22231E+06,   1.22231E+06
C:/temp/Job-7.odb,Step-1,Increment      1: Step Time =    1.000,"P-7-1",           968,       172.866,       18.2049,            0.,NA,NA,"",   1.03255E+06,   1.02993E+06,   1.02993E+06
C:/temp/Job-7.odb,Step-1,Increment      1: Step Time =    1.000,"P-7-1",           969,       14.1640,       160.319,            0.,NA,NA,"",   1.02355E+06,   1.09962E+06,   1.09962E+06
C:/temp/Job-7.odb,Step-1,Increment      1: Step Time =    1.000,"P-7-1",           970,       159.859,       16.6922,            0.,NA,NA,"",   1.05095E+06,   1.04237E+06,   1.04237E+06
C:/temp/Job-7.odb,Step-1,Increment      1: Step Time =    1.000,"P-7-1",           971,       39.4080,       14.1123,            0.,NA,NA,"",   1.25204E+06,   1.24715E+06,   1.24715E+06
C:/temp/Job-7.odb,Step-1,Increment      1: Step Time =    1.000,"P-7-1",           972,       27.1881,       19.0397,            0.,NA,NA,"",   1.27059E+06,   1.28326E+06,   1.28326E+06
C:/temp/Job-7.odb,Step-1,Increment      1: Step Time =    1.000,"P-7-1",           973,       14.7850,       45.1247,            0.,NA,NA,"",   977.184E+03,   1.05164E+06,   1.05164E+06
C:/temp/Job-7.odb,Step-1,Increment      1: Step Time =    1.000,"P-7-1",           974,       19.4421,       27.4498,            0.,NA,NA,"",   1.18260E+06,   1.23020E+06,   1.23020E+06
C:/temp/Job-7.odb,Step-1,Increment      1: Step Time =    1.000,"P-7-1",           975,       9.67521,       30.6242,            0.,NA,NA,"",   1.07544E+06,   1.16732E+06,   1.16732E+06
C:/temp/Job-7.odb,Step-1,Increment      1: Step Time =    1.000,"P-7-1",           976,       157.673,       186.479,            0.,NA,NA,"",   1.03648E+06,   1.02990E+06,   1.02990E+06
C:/temp/Job-7.odb,Step-1,Increment      1: Step Time =    1.000,"P-7-1",           977,       183.363,       159.986,            0.,NA,NA,"",   1.02259E+06,   1.03626E+06,   1.03626E+06
C:/temp/Job-7.odb,Step-1,Increment      1: Step Time =    1.000,"P-7-1",           978,       189.757,       174.021,            0.,NA,NA,"",   1.00294E+06,   1.00995E+06,   1.00995E+06
C:/temp/Job-7.odb,Step-1,Increment      1: Step Time =    1.000,"P-7-1",           979,       182.037,       173.055,            0.,NA,NA,"",   1.02166E+06,   1.02605E+06,   1.02605E+06
C:/temp/Job-7.odb,Step-1,Increment      1: Step Time =    1.000,"P-7-1",           980,       170.757,       183.363,            0.,NA,NA,"",   1.03129E+06,   1.02823E+06,   1.02823E+06
C:/temp/Job-7.odb,Step-1,Increment      1: Step Time =    1.000,"P-7-1",           981,       185.961,       43.0488,            0.,NA,NA,"",   1.00790E+06,   1.02993E+06,   1.02993E+06
C:/temp/Job-7.odb,Step-1,Increment      1: Step Time =    1.000,"P-7-1",           982,       39.0552,       179.300,            0.,NA,NA,"",   1.25597E+06,   1.24890E+06,   1.24890E+06
C:/temp/Job-7.odb,Step-1,Increment      1: Step Time =    1.000,"P-7-1",           983,       182.736,       29.6876,            0.,NA,NA,"",   1.02165E+06,   1.02754E+06,   1.02754E+06
C:/temp/Job-7.odb,Step-1,Increment      1: Step Time =    1.000,"P-7-1",           984,       26.3990,       179.599,            0.,NA,NA,"",   1.26029E+06,   1.27673E+06,   1.27673E+06
C:/temp/Job-7.odb,Step-1,Increment      1: Step Time =    1.000,"P-7-1",           985,       25.3930,       189.580,            0.,NA,NA,"",   1.31114E+06,   1.31708E+06,   1.31708E+06
C:/temp/Job-7.odb,Step-1,Increment      1: Step Time =    1.000,"P-7-1",           986,       103.126,       54.3197,            0.,NA,NA,"",   1.41856E+06,   1.56303E+06,   1.56303E+06
C:/temp/Job-7.odb,Step-1,Increment      1: Step Time =    1.000,"P-7-1",           987,       112.358,       55.5365,            0.,NA,NA,"",   1.45371E+06,   1.55274E+06,   1.55274E+06
C:/temp/Job-7.odb,Step-1,Increment      1: Step Time =    1.000,"P-7-1",           988,       58.5178,       129.376,            0.,NA,NA,"",   1.16112E+06,   1.04439E+06,   1.04439E+06
C:/temp/Job-7.odb,Step-1,Increment      1: Step Time =    1.000,"P-7-1",           989,       103.329,       153.570,            0.,NA,NA,"",   1.24976E+06,   1.36335E+06,   1.36335E+06
C:/temp/Job-7.odb,Step-1,Increment      1: Step Time =    1.000,"P-7-1",           990,       142.101,       132.717,            0.,NA,NA,"",   1.42068E+06,   1.25745E+06,   1.25745E+06
C:/temp/Job-7.odb,Step-1,Increment      1: Step Time =    1.000,"P-7-1",           991,       76.9573,       138.348,            0.,NA,NA,"",   1.53023E+06,   1.50198E+06,   1.50198E+06
C:/temp/Job-7.odb,Step-1,Increment      1: Step Time =    1.000,"P-7-1",           992,       131.836,       141.306,            0.,NA,NA,"",   1.51712E+06,   1.42457E+06,   1.42457E+06
C:/temp/Job-7.odb,Step-1,Increment      1: Step Time =    1.000,"P-7-1",           993,       73.2599,       58.1638,            0.,NA,NA,"",   1.49611E+06,   1.44309E+06,   1.44309E+06
C:/temp/Job-7.odb,Step-1,Increment      1: Step Time =    1.000,"P-7-1",           994,       126.187,       58.1013,            0.,NA,NA,"",   1.53366E+06,   1.49142E+06,   1.49142E+06
C:/temp/Job-7.odb,Step-1,Increment      1: Step Time =    1.000,"P-7-1",           995,       85.8586,       66.8377,            0.,NA,NA,"",   1.77616E+06,   1.84099E+06,   1.84099E+06
C:/temp/Job-7.odb,Step-1,Increment      1: Step Time =    1.000,"P-7-1",           996,       179.528,       79.5905,            0.,NA,NA,"",   913.694E+03,   980.467E+03,   980.467E+03
C:/temp/Job-7.odb,Step-1,Increment      1: Step Time =    1.000,"P-7-1",           997,       123.420,       180.635,            0.,NA,NA,"",   1.04615E+06,   1.05348E+06,   1.05348E+06
C:/temp/Job-7.odb,Step-1,Increment      1: Step Time =    1.000,"P-7-1",           998,       80.1007,       18.4267,            0.,NA,NA,"",   1.10362E+06,   1.10809E+06,   1.10809E+06
C:/temp/Job-7.odb,Step-1,Increment      1: Step Time =    1.000,"P-7-1",           999,       19.7228,       119.285,            0.,NA,NA,"",   629.310E+03,   702.570E+03,   702.570E+03
C:/temp/Job-7.odb,Step-1,Increment      1: Step Time =    1.000,"P-7-1",          1000,       180.327,       89.7948,            0.,NA,NA,"",   842.904E+03,   931.078E+03,   931.078E+03
C:/temp/Job-7.odb,Step-1,Increment      1: Step Time =    1.000,"P-7-1",          1001,       113.938,       177.690,            0.,NA,NA,"",   1.04574E+06,   1.07209E+06,   1.07209E+06
C:/temp/Job-7.odb,Step-1,Increment      1: Step Time =    1.000,"P-7-1",          1002,       89.1678,       19.5608,            0.,NA,NA,"",   1.06006E+06,   1.07838E+06,   1.07838E+06
C:/temp/Job-7.odb,Step-1,Increment      1: Step Time =    1.000,"P-7-1",          1003,       19.9093,       109.633,            0.,NA,NA,"",   546.406E+03,   621.130E+03,   621.130E+03
C:/temp/Job-7.odb,Step-1,Increment      1: Step Time =    1.000,"P-7-1",          1004,       63.6177,       122.480,            0.,NA,NA,"",   1.07508E+06,   908.398E+03,   908.398E+03
C:/temp/Job-7.odb,Step-1,Increment      1: Step Time =    1.000,"P-7-1",          1005,       122.268,       146.354,            0.,NA,NA,"",   1.45481E+06,   1.46286E+06,   1.46286E+06
C:/temp/Job-7.odb,Step-1,Increment      1: Step Time =    1.000,"P-7-1",          1006,       46.8071,       98.1871,            0.,NA,NA,"",   339.085E+03,   379.333E+03,   379.333E+03
C:/temp/Job-7.odb,Step-1,Increment      1: Step Time =    1.000,"P-7-1",          1007,       137.398,       67.4024,            0.,NA,NA,"",   1.49275E+06,   1.32188E+06,   1.32188E+06
C:/temp/Job-7.odb,Step-1,Increment      1: Step Time =    1.000,"P-7-1",          1008,       109.016,       152.475,            0.,NA,NA,"",   1.28483E+06,   1.38639E+06,   1.38639E+06
C:/temp/Job-7.odb,Step-1,Increment      1: Step Time =    1.000,"P-7-1",          1009,       140.910,       69.7012,            0.,NA,NA,"",   1.41781E+06,   1.23706E+06,   1.23706E+06
C:/temp/Job-7.odb,Step-1,Increment      1: Step Time =    1.000,"P-7-1",          1010,       59.5930,       69.1277,            0.,NA,NA,"",   1.22663E+06,   1.10872E+06,   1.10872E+06
C:/temp/Job-7.odb,Step-1,Increment      1: Step Time =    1.000,"P-7-1",          1011,       90.6541,       64.7932,            0.,NA,NA,"",   1.84961E+06,   1.96370E+06,   1.96370E+06
C:/temp/Job-7.odb,Step-1,Increment      1: Step Time =    1.000,"P-7-1",          1012,       72.8294,       144.274,            0.,NA,NA,"",   1.47125E+06,   1.42815E+06,   1.42815E+06
C:/temp/Job-7.odb,Step-1,Increment      1: Step Time =    1.000,"P-7-1",          1013,       9.86329,       54.9721,            0.,NA,NA,"",   851.860E+03,   938.679E+03,   938.679E+03
C:/temp/Job-7.odb,Step-1,Increment      1: Step Time =    1.000,"P-7-1",          1014,       56.1419,       191.261,            0.,NA,NA,"",   1.16259E+06,   1.15795E+06,   1.15795E+06
C:/temp/Job-7.odb,Step-1,Increment      1: Step Time =    1.000,"P-7-1",          1015,       144.385,       8.96662,            0.,NA,NA,"",   999.990E+03,   996.305E+03,   996.305E+03
C:/temp/Job-7.odb,Step-1,Increment      1: Step Time =    1.000,"P-7-1",          1016,       191.297,       144.400,            0.,NA,NA,"",   956.817E+03,   1.01445E+06,   1.01445E+06
C:/temp/Job-7.odb,Step-1,Increment      1: Step Time =    1.000,"P-7-1",          1017,       26.6589,       105.125,            0.,NA,NA,"",   507.901E+03,   578.065E+03,   578.065E+03
C:/temp/Job-7.odb,Step-1,Increment      1: Step Time =    1.000,"P-7-1",          1018,       93.6734,       25.8528,            0.,NA,NA,"",   1.08925E+06,   1.12726E+06,   1.12726E+06
C:/temp/Job-7.odb,Step-1,Increment      1: Step Time =    1.000,"P-7-1",          1019,       103.708,       174.348,            0.,NA,NA,"",   1.06094E+06,   1.10375E+06,   1.10375E+06
C:/temp/Job-7.odb,Step-1,Increment      1: Step Time =    1.000,"P-7-1",          1020,       176.653,       94.7823,            0.,NA,NA,"",   802.183E+03,   884.774E+03,   884.774E+03
C:/temp/Job-7.odb,Step-1,Increment      1: Step Time =    1.000,"P-7-1",          1021,       77.8192,       153.352,            0.,NA,NA,"",   1.38483E+06,   1.38845E+06,   1.38845E+06
C:/temp/Job-7.odb,Step-1,Increment      1: Step Time =    1.000,"P-7-1",          1022,       25.9338,       82.6325,            0.,NA,NA,"",   614.407E+03,   679.981E+03,   679.981E+03
C:/temp/Job-7.odb,Step-1,Increment      1: Step Time =    1.000,"P-7-1",          1023,       113.873,       26.1183,            0.,NA,NA,"",   1.07769E+06,   1.11046E+06,   1.11046E+06
C:/temp/Job-7.odb,Step-1,Increment      1: Step Time =    1.000,"P-7-1",          1024,       83.5920,       23.2369,            0.,NA,NA,"",   1.12355E+06,   1.13812E+06,   1.13812E+06
C:/temp/Job-7.odb,Step-1,Increment      1: Step Time =    1.000,"P-7-1",          1025,       26.3114,       114.120,            0.,NA,NA,"",   577.262E+03,   644.621E+03,   644.621E+03
C:/temp/Job-7.odb,Step-1,Increment      1: Step Time =    1.000,"P-7-1",          1026,       176.021,       116.107,            0.,NA,NA,"",   880.930E+03,   942.300E+03,   942.300E+03
C:/temp/Job-7.odb,Step-1,Increment      1: Step Time =    1.000,"P-7-1",          1027,       174.210,       85.0516,            0.,NA,NA,"",   867.892E+03,   923.803E+03,   923.803E+03
C:/temp/Job-7.odb,Step-1,Increment      1: Step Time =    1.000,"P-7-1",          1028,       83.4936,       173.371,            0.,NA,NA,"",   1.15560E+06,   1.17401E+06,   1.17401E+06
C:/temp/Job-7.odb,Step-1,Increment      1: Step Time =    1.000,"P-7-1",          1029,       112.689,       172.816,            0.,NA,NA,"",   1.08226E+06,   1.12039E+06,   1.12039E+06
C:/temp/Job-7.odb,Step-1,Increment      1: Step Time =    1.000,"P-7-1",          1030,       106.422,       48.1303,            0.,NA,NA,"",   1.28152E+06,   1.39485E+06,   1.39485E+06
C:/temp/Job-7.odb,Step-1,Increment      1: Step Time =    1.000,"P-7-1",          1031,       25.1141,       65.4605,            0.,NA,NA,"",   828.957E+03,   881.220E+03,   881.220E+03
C:/temp/Job-7.odb,Step-1,Increment      1: Step Time =    1.000,"P-7-1",          1032,       65.3873,       25.8218,            0.,NA,NA,"",   1.23615E+06,   1.21819E+06,   1.21819E+06
C:/temp/Job-7.odb,Step-1,Increment      1: Step Time =    1.000,"P-7-1",          1033,       137.281,       27.9248,            0.,NA,NA,"",   1.16168E+06,   1.14346E+06,   1.14346E+06
C:/temp/Job-7.odb,Step-1,Increment      1: Step Time =    1.000,"P-7-1",          1034,       26.8890,       134.719,            0.,NA,NA,"",   846.388E+03,   892.019E+03,   892.019E+03
C:/temp/Job-7.odb,Step-1,Increment      1: Step Time =    1.000,"P-7-1",          1035,       135.635,       171.614,            0.,NA,NA,"",   1.16559E+06,   1.14856E+06,   1.14856E+06
C:/temp/Job-7.odb,Step-1,Increment      1: Step Time =    1.000,"P-7-1",          1036,       173.566,       64.3842,            0.,NA,NA,"",   1.05319E+06,   1.06030E+06,   1.06030E+06
C:/temp/Job-7.odb,Step-1,Increment      1: Step Time =    1.000,"P-7-1",          1037,       66.2272,       172.400,            0.,NA,NA,"",   1.25222E+06,   1.23252E+06,   1.23252E+06
C:/temp/Job-7.odb,Step-1,Increment      1: Step Time =    1.000,"P-7-1",          1038,       141.833,       81.3643,            0.,NA,NA,"",   1.09373E+06,   883.462E+03,   883.462E+03
C:/temp/Job-7.odb,Step-1,Increment      1: Step Time =    1.000,"P-7-1",          1039,       57.4794,       105.483,            0.,NA,NA,"",   321.303E+03,   262.819E+03,   262.819E+03
C:/temp/Job-7.odb,Step-1,Increment      1: Step Time =    1.000,"P-7-1",          1040,       28.4972,       31.1944,            0.,NA,NA,"",   1.19690E+06,   1.21543E+06,   1.21543E+06
C:/temp/Job-7.odb,Step-1,Increment      1: Step Time =    1.000,"P-7-1",          1041,       32.1303,       26.5968,            0.,NA,NA,"",   1.23695E+06,   1.24277E+06,   1.24277E+06
C:/temp/Job-7.odb,Step-1,Increment      1: Step Time =    1.000,"P-7-1",          1042,       22.4704,       167.655,            0.,NA,NA,"",   1.15191E+06,   1.19310E+06,   1.19310E+06
C:/temp/Job-7.odb,Step-1,Increment      1: Step Time =    1.000,"P-7-1",          1043,       170.929,       27.9343,            0.,NA,NA,"",   1.06671E+06,   1.05891E+06,   1.05891E+06
C:/temp/Job-7.odb,Step-1,Increment      1: Step Time =    1.000,"P-7-1",          1044,       176.409,       32.6165,            0.,NA,NA,"",   1.05144E+06,   1.05059E+06,   1.05059E+06
C:/temp/Job-7.odb,Step-1,Increment      1: Step Time =    1.000,"P-7-1",          1045,       31.1751,       174.929,            0.,NA,NA,"",   1.24128E+06,   1.24922E+06,   1.24922E+06
C:/temp/Job-7.odb,Step-1,Increment      1: Step Time =    1.000,"P-7-1",          1046,       172.605,       171.323,            0.,NA,NA,"",   1.06069E+06,   1.05515E+06,   1.05515E+06
C:/temp/Job-7.odb,Step-1,Increment      1: Step Time =    1.000,"P-7-1",          1047,       165.334,       175.566,            0.,NA,NA,"",   1.07460E+06,   1.06295E+06,   1.06295E+06
C:/temp/Job-7.odb,Step-1,Increment      1: Step Time =    1.000,"P-7-1",          1048,       15.9842,       176.747,            0.,NA,NA,"",   1.20507E+06,   1.26354E+06,   1.26354E+06
C:/temp/Job-7.odb,Step-1,Increment      1: Step Time =    1.000,"P-7-1",          1049,       175.767,       15.9899,            0.,NA,NA,"",   1.02201E+06,   1.02121E+06,   1.02121E+06
C:/temp/Job-7.odb,Step-1,Increment      1: Step Time =    1.000,"P-7-1",          1050,       22.4288,       15.4981,            0.,NA,NA,"",   1.30084E+06,   1.31940E+06,   1.31940E+06
C:/temp/Job-7.odb,Step-1,Increment      1: Step Time =    1.000,"P-7-1",          1051,       15.5063,       23.0294,            0.,NA,NA,"",   1.21109E+06,   1.26976E+06,   1.26976E+06
C:/temp/Job-7.odb,Step-1,Increment      1: Step Time =    1.000,"P-7-1",          1052,       184.184,       175.923,            0.,NA,NA,"",   1.01401E+06,   1.01842E+06,   1.01842E+06
C:/temp/Job-7.odb,Step-1,Increment      1: Step Time =    1.000,"P-7-1",          1053,       175.096,       187.169,            0.,NA,NA,"",   1.01633E+06,   1.01567E+06,   1.01567E+06
C:/temp/Job-7.odb,Step-1,Increment      1: Step Time =    1.000,"P-7-1",          1054,       20.3079,       183.905,            0.,NA,NA,"",   1.30445E+06,   1.32824E+06,   1.32824E+06
C:/temp/Job-7.odb,Step-1,Increment      1: Step Time =    1.000,"P-7-1",          1055,       186.886,       25.1299,            0.,NA,NA,"",   1.00763E+06,   1.01386E+06,   1.01386E+06
C:/temp/Job-7.odb,Step-1,Increment      1: Step Time =    1.000,"P-7-1",          1056,       98.8007,       56.3193,            0.,NA,NA,"",   1.48639E+06,   1.63450E+06,   1.63450E+06
C:/temp/Job-7.odb,Step-1,Increment      1: Step Time =    1.000,"P-7-1",          1057,       55.2943,       125.637,            0.,NA,NA,"",   1.01979E+06,   922.822E+03,   922.822E+03
C:/temp/Job-7.odb,Step-1,Increment      1: Step Time =    1.000,"P-7-1",          1058,       97.8805,       154.200,            0.,NA,NA,"",   1.25529E+06,   1.36101E+06,   1.36101E+06
C:/temp/Job-7.odb,Step-1,Increment      1: Step Time =    1.000,"P-7-1",          1059,       120.767,       54.2470,            0.,NA,NA,"",   1.46168E+06,   1.48388E+06,   1.48388E+06
C:/temp/Job-7.odb,Step-1,Increment      1: Step Time =    1.000,"P-7-1",          1060,       77.4547,       52.3146,            0.,NA,NA,"",   1.45259E+06,   1.44792E+06,   1.44792E+06
C:/temp/Job-7.odb,Step-1,Increment      1: Step Time =    1.000,"P-7-1",          1061,       132.283,       60.7643,            0.,NA,NA,"",   1.52942E+06,   1.42239E+06,   1.42239E+06
C:/temp/Job-7.odb,Step-1,Increment      1: Step Time =    1.000,"P-7-1",          1062,       68.6888,       62.9775,            0.,NA,NA,"",   1.43203E+06,   1.33411E+06,   1.33411E+06
C:/temp/Job-7.odb,Step-1,Increment      1: Step Time =    1.000,"P-7-1",          1063,       59.2090,       122.865,            0.,NA,NA,"",   1.01106E+06,   878.945E+03,   878.945E+03
C:/temp/Job-7.odb,Step-1,Increment      1: Step Time =    1.000,"P-7-1",          1064,       47.5321,       92.7108,            0.,NA,NA,"",   417.519E+03,   440.195E+03,   440.195E+03
C:/temp/Job-7.odb,Step-1,Increment      1: Step Time =    1.000,"P-7-1",          1065,       58.5516,       75.0445,            0.,NA,NA,"",   1.07476E+06,   947.612E+03,   947.612E+03
C:/temp/Job-7.odb,Step-1,Increment      1: Step Time =    1.000,"P-7-1",          1066,       114.136,       154.147,            0.,NA,NA,"",   1.28265E+06,   1.35276E+06,   1.35276E+06
C:/temp/Job-7.odb,Step-1,Increment      1: Step Time =    1.000,"P-7-1",          1067,       66.5996,       141.486,            0.,NA,NA,"",   1.42460E+06,   1.34128E+06,   1.34128E+06
C:/temp/Job-7.odb,Step-1,Increment      1: Step Time =    1.000,"P-7-1",          1068,       23.9878,       124.513,            0.,NA,NA,"",   701.462E+03,   764.492E+03,   764.492E+03
C:/temp/Job-7.odb,Step-1,Increment      1: Step Time =    1.000,"P-7-1",          1069,       75.4855,       22.7772,            0.,NA,NA,"",   1.16561E+06,   1.16433E+06,   1.16433E+06
C:/temp/Job-7.odb,Step-1,Increment      1: Step Time =    1.000,"P-7-1",          1070,       124.650,       172.912,            0.,NA,NA,"",   1.12593E+06,   1.13502E+06,   1.13502E+06
C:/temp/Job-7.odb,Step-1,Increment      1: Step Time =    1.000,"P-7-1",          1071,       174.058,       74.5058,            0.,NA,NA,"",   976.746E+03,   1.00631E+06,   1.00631E+06
C:/temp/Job-7.odb,Step-1,Increment      1: Step Time =    1.000,"P-7-1",          1072,       44.8425,       184.113,            0.,NA,NA,"",   1.23762E+06,   1.22907E+06,   1.22907E+06
C:/temp/Job-7.odb,Step-1,Increment      1: Step Time =    1.000,"P-7-1",          1073,       184.773,       154.119,            0.,NA,NA,"",   1.00982E+06,   1.03417E+06,   1.03417E+06
C:/temp/Job-7.odb,Step-1,Increment      1: Step Time =    1.000,"P-7-1",          1074,       14.9157,       50.0953,            0.,NA,NA,"",   930.255E+03,   1.00477E+06,   1.00477E+06
C:/temp/Job-7.odb,Step-1,Increment      1: Step Time =    1.000,"P-7-1",          1075,       154.113,       15.2487,            0.,NA,NA,"",   1.04721E+06,   1.03843E+06,   1.03843E+06
C:/temp/Job-7.odb,Step-1,Increment      1: Step Time =    1.000,"P-7-1",          1076,       142.104,       76.9860,            0.,NA,NA,"",   1.24544E+06,   1.04383E+06,   1.04383E+06
C:/temp/Job-7.odb,Step-1,Increment      1: Step Time =    1.000,"P-7-1",          1077,       97.9985,       159.402,            0.,NA,NA,"",   1.19024E+06,   1.27881E+06,   1.27881E+06
C:/temp/Job-7.odb,Step-1,Increment      1: Step Time =    1.000,"P-7-1",          1078,       23.2461,       71.0796,            0.,NA,NA,"",   746.120E+03,   808.288E+03,   808.288E+03
C:/temp/Job-7.odb,Step-1,Increment      1: Step Time =    1.000,"P-7-1",          1079,       176.782,       129.729,            0.,NA,NA,"",   994.952E+03,   1.02851E+06,   1.02851E+06
C:/temp/Job-7.odb,Step-1,Increment      1: Step Time =    1.000,"P-7-1",          1080,       129.816,       20.4923,            0.,NA,NA,"",   1.07334E+06,   1.07169E+06,   1.07169E+06
C:/temp/Job-7.odb,Step-1,Increment      1: Step Time =    1.000,"P-7-1",          1081,       65.0047,       175.474,            0.,NA,NA,"",   1.22730E+06,   1.20995E+06,   1.20995E+06
C:/temp/Job-7.odb,Step-1,Increment      1: Step Time =    1.000,"P-7-1",          1082,       175.078,       110.891,            0.,NA,NA,"",   831.653E+03,   900.404E+03,   900.404E+03
C:/temp/Job-7.odb,Step-1,Increment      1: Step Time =    1.000,"P-7-1",          1083,       24.6732,       89.8623,            0.,NA,NA,"",   537.781E+03,   608.937E+03,   608.937E+03
C:/temp/Job-7.odb,Step-1,Increment      1: Step Time =    1.000,"P-7-1",          1084,       108.446,       26.6345,            0.,NA,NA,"",   1.06900E+06,   1.11142E+06,   1.11142E+06
C:/temp/Job-7.odb,Step-1,Increment      1: Step Time =    1.000,"P-7-1",          1085,       17.8299,       13.9881,            0.,NA,NA,"",   1.33199E+06,   1.35643E+06,   1.35643E+06
C:/temp/Job-7.odb,Step-1,Increment      1: Step Time =    1.000,"P-7-1",          1086,       14.8019,       181.623,            0.,NA,NA,"",   1.25949E+06,   1.31434E+06,   1.31434E+06
C:/temp/Job-7.odb,Step-1,Increment      1: Step Time =    1.000,"P-7-1",          1087,       186.576,       20.4899,            0.,NA,NA,"",   1.00717E+06,   1.01112E+06,   1.01112E+06
C:/temp/Job-7.odb,Step-1,Increment      1: Step Time =    1.000,"P-7-1",          1088,       179.668,       186.749,            0.,NA,NA,"",   1.01144E+06,   1.01204E+06,   1.01204E+06
C:/temp/Job-7.odb,Step-1,Increment      1: Step Time =    1.000,"P-7-1",          1089,       89.2139,       60.2600,            0.,NA,NA,"",   1.62059E+06,   1.72349E+06,   1.72349E+06
C:/temp/Job-7.odb,Step-1,Increment      1: Step Time =    1.000,"P-7-1",          1090,       140.509,       64.5659,            0.,NA,NA,"",   1.45906E+06,   1.30584E+06,   1.30584E+06
C:/temp/Job-7.odb,Step-1,Increment      1: Step Time =    1.000,"P-7-1",          1091,       30.5675,       109.985,            0.,NA,NA,"",   528.360E+03,   592.140E+03,   592.140E+03
C:/temp/Job-7.odb,Step-1,Increment      1: Step Time =    1.000,"P-7-1",          1092,       90.8481,       29.5988,            0.,NA,NA,"",   1.13214E+06,   1.17475E+06,   1.17475E+06
C:/temp/Job-7.odb,Step-1,Increment      1: Step Time =    1.000,"P-7-1",          1093,       172.144,       91.8551,            0.,NA,NA,"",   790.767E+03,   854.285E+03,   854.285E+03
C:/temp/Job-7.odb,Step-1,Increment      1: Step Time =    1.000,"P-7-1",          1094,       82.4195,       153.184,            0.,NA,NA,"",   1.36311E+06,   1.39610E+06,   1.39610E+06
C:/temp/Job-7.odb,Step-1,Increment      1: Step Time =    1.000,"P-7-1",          1095,       118.795,       30.6824,            0.,NA,NA,"",   1.13892E+06,   1.16616E+06,   1.16616E+06
C:/temp/Job-7.odb,Step-1,Increment      1: Step Time =    1.000,"P-7-1",          1096,       80.8756,       27.2132,            0.,NA,NA,"",   1.17319E+06,   1.18526E+06,   1.18526E+06
C:/temp/Job-7.odb,Step-1,Increment      1: Step Time =    1.000,"P-7-1",          1097,       31.5552,       77.7187,            0.,NA,NA,"",   697.816E+03,   745.218E+03,   745.218E+03
C:/temp/Job-7.odb,Step-1,Increment      1: Step Time =    1.000,"P-7-1",          1098,       29.3921,       120.896,            0.,NA,NA,"",   668.976E+03,   722.654E+03,   722.654E+03
C:/temp/Job-7.odb,Step-1,Increment      1: Step Time =    1.000,"P-7-1",          1099,       173.823,       121.010,            0.,NA,NA,"",   932.816E+03,   973.020E+03,   973.020E+03
C:/temp/Job-7.odb,Step-1,Increment      1: Step Time =    1.000,"P-7-1",          1100,       78.7269,       168.768,            0.,NA,NA,"",   1.22271E+06,   1.23087E+06,   1.23087E+06
C:/temp/Job-7.odb,Step-1,Increment      1: Step Time =    1.000,"P-7-1",          1101,       169.523,       79.3031,            0.,NA,NA,"",   939.004E+03,   956.992E+03,   956.992E+03
C:/temp/Job-7.odb,Step-1,Increment      1: Step Time =    1.000,"P-7-1",          1102,       116.566,       171.637,            0.,NA,NA,"",   1.10565E+06,   1.13715E+06,   1.13715E+06
C:/temp/Job-7.odb,Step-1,Increment      1: Step Time =    1.000,"P-7-1",          1103,       110.886,       46.7317,            0.,NA,NA,"",   1.28222E+06,   1.37188E+06,   1.37188E+06
C:/temp/Job-7.odb,Step-1,Increment      1: Step Time =    1.000,"P-7-1",          1104,       101.943,       49.8015,            0.,NA,NA,"",   1.30626E+06,   1.43335E+06,   1.43335E+06
C:/temp/Job-7.odb,Step-1,Increment      1: Step Time =    1.000,"P-7-1",          1105,       29.3277,       61.5457,            0.,NA,NA,"",   911.920E+03,   945.222E+03,   945.222E+03
C:/temp/Job-7.odb,Step-1,Increment      1: Step Time =    1.000,"P-7-1",          1106,       60.3222,       30.3406,            0.,NA,NA,"",   1.27790E+06,   1.24899E+06,   1.24899E+06
C:/temp/Job-7.odb,Step-1,Increment      1: Step Time =    1.000,"P-7-1",          1107,       30.9916,       140.259,            0.,NA,NA,"",   953.134E+03,   978.878E+03,   978.878E+03
C:/temp/Job-7.odb,Step-1,Increment      1: Step Time =    1.000,"P-7-1",          1108,       139.107,       30.9313,            0.,NA,NA,"",   1.19463E+06,   1.16880E+06,   1.16880E+06
C:/temp/Job-7.odb,Step-1,Increment      1: Step Time =    1.000,"P-7-1",          1109,       168.233,       139.599,            0.,NA,NA,"",   1.12051E+06,   1.09716E+06,   1.09716E+06
C:/temp/Job-7.odb,Step-1,Increment      1: Step Time =    1.000,"P-7-1",          1110,       139.712,       171.110,            0.,NA,NA,"",   1.17051E+06,   1.14722E+06,   1.14722E+06
C:/temp/Job-7.odb,Step-1,Increment      1: Step Time =    1.000,"P-7-1",          1111,       169.005,       58.1369,            0.,NA,NA,"",   1.12055E+06,   1.10005E+06,   1.10005E+06
C:/temp/Job-7.odb,Step-1,Increment      1: Step Time =    1.000,"P-7-1",          1112,       15.1507,       17.9381,            0.,NA,NA,"",   1.27207E+06,   1.32248E+06,   1.32248E+06
C:/temp/Job-7.odb,Step-1,Increment      1: Step Time =    1.000,"P-7-1",          1113,       181.475,       16.7960,            0.,NA,NA,"",   1.01335E+06,   1.01484E+06,   1.01484E+06
C:/temp/Job-7.odb,Step-1,Increment      1: Step Time =    1.000,"P-7-1",          1114,       15.0311,       185.129,            0.,NA,NA,"",   1.31591E+06,   1.35801E+06,   1.35801E+06
C:/temp/Job-7.odb,Step-1,Increment      1: Step Time =    1.000,"P-7-1",          1115,       183.318,       181.619,            0.,NA,NA,"",   1.01169E+06,   1.01394E+06,   1.01394E+06
C:/temp/Job-7.odb,Step-1,Increment      1: Step Time =    1.000,"P-7-1",          1116,       35.9392,       25.5834,            0.,NA,NA,"",   1.24851E+06,   1.24539E+06,   1.24539E+06
C:/temp/Job-7.odb,Step-1,Increment      1: Step Time =    1.000,"P-7-1",          1117,       28.8960,       35.3048,            0.,NA,NA,"",   1.16978E+06,   1.18918E+06,   1.18918E+06
C:/temp/Job-7.odb,Step-1,Increment      1: Step Time =    1.000,"P-7-1",          1118,       27.6593,       23.1836,            0.,NA,NA,"",   1.24687E+06,   1.26209E+06,   1.26209E+06
C:/temp/Job-7.odb,Step-1,Increment      1: Step Time =    1.000,"P-7-1",          1119,       23.8661,       27.5130,            0.,NA,NA,"",   1.20283E+06,   1.23428E+06,   1.23428E+06
C:/temp/Job-7.odb,Step-1,Increment      1: Step Time =    1.000,"P-7-1",          1120,       166.679,       29.1601,            0.,NA,NA,"",   1.09032E+06,   1.07616E+06,   1.07616E+06
C:/temp/Job-7.odb,Step-1,Increment      1: Step Time =    1.000,"P-7-1",          1121,       26.2703,       166.469,            0.,NA,NA,"",   1.16737E+06,   1.19443E+06,   1.19443E+06
C:/temp/Job-7.odb,Step-1,Increment      1: Step Time =    1.000,"P-7-1",          1122,       23.1482,       174.895,            0.,NA,NA,"",   1.22456E+06,   1.25505E+06,   1.25505E+06
C:/temp/Job-7.odb,Step-1,Increment      1: Step Time =    1.000,"P-7-1",          1123,       174.525,       21.9634,            0.,NA,NA,"",   1.03724E+06,   1.03487E+06,   1.03487E+06
C:/temp/Job-7.odb,Step-1,Increment      1: Step Time =    1.000,"P-7-1",          1124,       170.467,       38.9862,            0.,NA,NA,"",   1.10110E+06,   1.08775E+06,   1.08775E+06
C:/temp/Job-7.odb,Step-1,Increment      1: Step Time =    1.000,"P-7-1",          1125,       36.1231,       169.745,            0.,NA,NA,"",   1.23161E+06,   1.22904E+06,   1.22904E+06
C:/temp/Job-7.odb,Step-1,Increment      1: Step Time =    1.000,"P-7-1",          1126,       26.9897,       175.049,            0.,NA,NA,"",   1.23264E+06,   1.25124E+06,   1.25124E+06
C:/temp/Job-7.odb,Step-1,Increment      1: Step Time =    1.000,"P-7-1",          1127,       168.895,       178.292,            0.,NA,NA,"",   1.05084E+06,   1.04454E+06,   1.04454E+06
C:/temp/Job-7.odb,Step-1,Increment      1: Step Time =    1.000,"P-7-1",          1128,       178.169,       174.806,            0.,NA,NA,"",   1.03194E+06,   1.03259E+06,   1.03259E+06
C:/temp/Job-7.odb,Step-1,Increment      1: Step Time =    1.000,"P-7-1",          1129,       169.820,       163.953,            0.,NA,NA,"",   1.09680E+06,   1.08341E+06,   1.08341E+06
C:/temp/Job-7.odb,Step-1,Increment      1: Step Time =    1.000,"P-7-1",          1130,       162.400,       170.994,            0.,NA,NA,"",   1.10798E+06,   1.08893E+06,   1.08893E+06
C:/temp/Job-7.odb,Step-1,Increment      1: Step Time =    1.000,"P-7-1",          1131,       153.394,       9.33256,            0.,NA,NA,"",   1.01430E+06,   1.01035E+06,   1.01035E+06
C:/temp/Job-7.odb,Step-1,Increment      1: Step Time =    1.000,"P-7-1",          1132,       190.766,       153.396,            0.,NA,NA,"",   978.542E+03,   1.01487E+06,   1.01487E+06
C:/temp/Job-7.odb,Step-1,Increment      1: Step Time =    1.000,"P-7-1",          1133,       46.6401,       190.118,            0.,NA,NA,"",   1.21486E+06,   1.21012E+06,   1.21012E+06
C:/temp/Job-7.odb,Step-1,Increment      1: Step Time =    1.000,"P-7-1",          1134,       54.5302,       134.622,            0.,NA,NA,"",   1.19022E+06,   1.10276E+06,   1.10276E+06
C:/temp/Job-7.odb,Step-1,Increment      1: Step Time =    1.000,"P-7-1",          1135,       92.5732,       154.236,            0.,NA,NA,"",   1.28450E+06,   1.37202E+06,   1.37202E+06
C:/temp/Job-7.odb,Step-1,Increment      1: Step Time =    1.000,"P-7-1",          1136,       116.465,       54.9966,            0.,NA,NA,"",   1.45670E+06,   1.51839E+06,   1.51839E+06
C:/temp/Job-7.odb,Step-1,Increment      1: Step Time =    1.000,"P-7-1",          1137,       82.8823,       56.9695,            0.,NA,NA,"",   1.51250E+06,   1.55196E+06,   1.55196E+06
C:/temp/Job-7.odb,Step-1,Increment      1: Step Time =    1.000,"P-7-1",          1138,       131.059,       56.3239,            0.,NA,NA,"",   1.49724E+06,   1.42212E+06,   1.42212E+06
C:/temp/Job-7.odb,Step-1,Increment      1: Step Time =    1.000,"P-7-1",          1139,       51.1979,       89.9234,            0.,NA,NA,"",   481.351E+03,   462.035E+03,   462.035E+03
C:/temp/Job-7.odb,Step-1,Increment      1: Step Time =    1.000,"P-7-1",          1140,       43.0865,       98.9411,            0.,NA,NA,"",   375.896E+03,   424.904E+03,   424.904E+03
C:/temp/Job-7.odb,Step-1,Increment      1: Step Time =    1.000,"P-7-1",          1141,       120.646,       151.375,            0.,NA,NA,"",   1.36756E+06,   1.39766E+06,   1.39766E+06
C:/temp/Job-7.odb,Step-1,Increment      1: Step Time =    1.000,"P-7-1",          1142,       120.154,       49.3596,            0.,NA,NA,"",   1.37944E+06,   1.41008E+06,   1.41008E+06
C:/temp/Job-7.odb,Step-1,Increment      1: Step Time =    1.000,"P-7-1",          1143,       76.9440,       47.0880,            0.,NA,NA,"",   1.39279E+06,   1.39115E+06,   1.39115E+06
C:/temp/Job-7.odb,Step-1,Increment      1: Step Time =    1.000,"P-7-1",          1144,       28.3060,       129.861,            0.,NA,NA,"",   791.264E+03,   838.025E+03,   838.025E+03
C:/temp/Job-7.odb,Step-1,Increment      1: Step Time =    1.000,"P-7-1",          1145,       70.2797,       26.7898,            0.,NA,NA,"",   1.22559E+06,   1.21433E+06,   1.21433E+06
C:/temp/Job-7.odb,Step-1,Increment      1: Step Time =    1.000,"P-7-1",          1146,       128.077,       172.449,            0.,NA,NA,"",   1.14264E+06,   1.14267E+06,   1.14267E+06
C:/temp/Job-7.odb,Step-1,Increment      1: Step Time =    1.000,"P-7-1",          1147,       167.982,       69.6590,            0.,NA,NA,"",   1.06291E+06,   1.04755E+06,   1.04755E+06
C:/temp/Job-7.odb,Step-1,Increment      1: Step Time =    1.000,"P-7-1",          1148,       53.0421,       108.040,            0.,NA,NA,"",   420.558E+03,   402.615E+03,   402.615E+03
C:/temp/Job-7.odb,Step-1,Increment      1: Step Time =    1.000,"P-7-1",          1149,       149.233,       92.5651,            0.,NA,NA,"",   609.423E+03,   557.526E+03,   557.526E+03
C:/temp/Job-7.odb,Step-1,Increment      1: Step Time =    1.000,"P-7-1",          1150,       68.6388,       58.1045,            0.,NA,NA,"",   1.45148E+06,   1.37195E+06,   1.37195E+06
C:/temp/Job-7.odb,Step-1,Increment      1: Step Time =    1.000,"P-7-1",          1151,       108.414,       158.181,            0.,NA,NA,"",   1.20029E+06,   1.28667E+06,   1.28667E+06
C:/temp/Job-7.odb,Step-1,Increment      1: Step Time =    1.000,"P-7-1",          1152,       143.288,       66.8764,            0.,NA,NA,"",   1.41269E+06,   1.25130E+06,   1.25130E+06
C:/temp/Job-7.odb,Step-1,Increment      1: Step Time =    1.000,"P-7-1",          1153,       143.580,       62.0557,            0.,NA,NA,"",   1.41778E+06,   1.28296E+06,   1.28296E+06
C:/temp/Job-7.odb,Step-1,Increment      1: Step Time =    1.000,"P-7-1",          1154,       151.623,       12.9036,            0.,NA,NA,"",   1.03313E+06,   1.02614E+06,   1.02614E+06
C:/temp/Job-7.odb,Step-1,Increment      1: Step Time =    1.000,"P-7-1",          1155,       187.201,       151.598,            0.,NA,NA,"",   993.001E+03,   1.02637E+06,   1.02637E+06
C:/temp/Job-7.odb,Step-1,Increment      1: Step Time =    1.000,"P-7-1",          1156,       48.3601,       185.487,            0.,NA,NA,"",   1.22352E+06,   1.21425E+06,   1.21425E+06
C:/temp/Job-7.odb,Step-1,Increment      1: Step Time =    1.000,"P-7-1",          1157,       50.7678,       110.160,            0.,NA,NA,"",   485.558E+03,   471.461E+03,   471.461E+03
C:/temp/Job-7.odb,Step-1,Increment      1: Step Time =    1.000,"P-7-1",          1158,       58.6031,       115.130,            0.,NA,NA,"",   732.184E+03,   605.826E+03,   605.826E+03
C:/temp/Job-7.odb,Step-1,Increment      1: Step Time =    1.000,"P-7-1",          1159,       152.387,       82.1971,            0.,NA,NA,"",   973.683E+03,   880.532E+03,   880.532E+03
C:/temp/Job-7.odb,Step-1,Increment      1: Step Time =    1.000,"P-7-1",          1160,       94.1797,       58.2807,            0.,NA,NA,"",   1.55909E+06,   1.69481E+06,   1.69481E+06
C:/temp/Job-7.odb,Step-1,Increment      1: Step Time =    1.000,"P-7-1",          1161,       103.736,       163.561,            0.,NA,NA,"",   1.13911E+06,   1.21610E+06,   1.21610E+06
C:/temp/Job-7.odb,Step-1,Increment      1: Step Time =    1.000,"P-7-1",          1162,       124.319,       25.7883,            0.,NA,NA,"",   1.10988E+06,   1.11875E+06,   1.11875E+06
C:/temp/Job-7.odb,Step-1,Increment      1: Step Time =    1.000,"P-7-1",          1163,       73.7413,       174.710,            0.,NA,NA,"",   1.19892E+06,   1.19464E+06,   1.19464E+06
C:/temp/Job-7.odb,Step-1,Increment      1: Step Time =    1.000,"P-7-1",          1164,       27.2536,       74.1727,            0.,NA,NA,"",   726.364E+03,   780.603E+03,   780.603E+03
C:/temp/Job-7.odb,Step-1,Increment      1: Step Time =    1.000,"P-7-1",          1165,       177.186,       125.053,            0.,NA,NA,"",   958.613E+03,   1.00443E+06,   1.00443E+06
C:/temp/Job-7.odb,Step-1,Increment      1: Step Time =    1.000,"P-7-1",          1166,       92.4223,       172.327,            0.,NA,NA,"",   1.10699E+06,   1.14859E+06,   1.14859E+06
C:/temp/Job-7.odb,Step-1,Increment      1: Step Time =    1.000,"P-7-1",          1167,       174.199,       104.652,            0.,NA,NA,"",   780.962E+03,   856.177E+03,   856.177E+03
C:/temp/Job-7.odb,Step-1,Increment      1: Step Time =    1.000,"P-7-1",          1168,       28.1938,       93.4492,            0.,NA,NA,"",   501.909E+03,   570.387E+03,   570.387E+03
C:/temp/Job-7.odb,Step-1,Increment      1: Step Time =    1.000,"P-7-1",          1169,       102.301,       27.2541,            0.,NA,NA,"",   1.07169E+06,   1.11987E+06,   1.11987E+06
C:/temp/Job-7.odb,Step-1,Increment      1: Step Time =    1.000,"P-7-1",          1170,       18.9190,       16.8187,            0.,NA,NA,"",   1.30163E+06,   1.33238E+06,   1.33238E+06
C:/temp/Job-7.odb,Step-1,Increment      1: Step Time =    1.000,"P-7-1",          1171,       177.607,       18.8556,            0.,NA,NA,"",   1.02294E+06,   1.02289E+06,   1.02289E+06
C:/temp/Job-7.odb,Step-1,Increment      1: Step Time =    1.000,"P-7-1",          1172,       181.274,       177.845,            0.,NA,NA,"",   1.01872E+06,   1.02114E+06,   1.02114E+06
C:/temp/Job-7.odb,Step-1,Increment      1: Step Time =    1.000,"P-7-1",          1173,       77.5931,       158.100,            0.,NA,NA,"",   1.33367E+06,   1.33970E+06,   1.33970E+06
C:/temp/Job-7.odb,Step-1,Increment      1: Step Time =    1.000,"P-7-1",          1174,       87.8621,       148.515,            0.,NA,NA,"",   1.40069E+06,   1.47533E+06,   1.47533E+06
C:/temp/Job-7.odb,Step-1,Increment      1: Step Time =    1.000,"P-7-1",          1175,       115.225,       45.6387,            0.,NA,NA,"",   1.29383E+06,   1.35609E+06,   1.35609E+06
C:/temp/Job-7.odb,Step-1,Increment      1: Step Time =    1.000,"P-7-1",          1176,       37.7698,       102.256,            0.,NA,NA,"",   429.671E+03,   487.043E+03,   487.043E+03
C:/temp/Job-7.odb,Step-1,Increment      1: Step Time =    1.000,"P-7-1",          1177,       26.0007,       56.4217,            0.,NA,NA,"",   945.406E+03,   986.975E+03,   986.975E+03
C:/temp/Job-7.odb,Step-1,Increment      1: Step Time =    1.000,"P-7-1",          1178,       55.0493,       26.2665,            0.,NA,NA,"",   1.25800E+06,   1.23355E+06,   1.23355E+06
C:/temp/Job-7.odb,Step-1,Increment      1: Step Time =    1.000,"P-7-1",          1179,       26.1756,       144.849,            0.,NA,NA,"",   966.391E+03,   1.00680E+06,   1.00680E+06
C:/temp/Job-7.odb,Step-1,Increment      1: Step Time =    1.000,"P-7-1",          1180,       142.882,       28.2900,            0.,NA,NA,"",   1.16430E+06,   1.13901E+06,   1.13901E+06
C:/temp/Job-7.odb,Step-1,Increment      1: Step Time =    1.000,"P-7-1",          1181,       144.590,       175.124,            0.,NA,NA,"",   1.12830E+06,   1.10762E+06,   1.10762E+06
C:/temp/Job-7.odb,Step-1,Increment      1: Step Time =    1.000,"P-7-1",          1182,       170.587,       142.383,            0.,NA,NA,"",   1.10808E+06,   1.09333E+06,   1.09333E+06
C:/temp/Job-7.odb,Step-1,Increment      1: Step Time =    1.000,"P-7-1",          1183,       175.191,       54.8918,            0.,NA,NA,"",   1.07294E+06,   1.07617E+06,   1.07617E+06
C:/temp/Job-7.odb,Step-1,Increment      1: Step Time =    1.000,"P-7-1",          1184,       9.97254,       14.7793,            0.,NA,NA,"",   1.29726E+06,   1.36897E+06,   1.36897E+06
C:/temp/Job-7.odb,Step-1,Increment      1: Step Time =    1.000,"P-7-1",          1185,       185.079,       10.7668,            0.,NA,NA,"",   1.00428E+06,   1.00538E+06,   1.00538E+06
C:/temp/Job-7.odb,Step-1,Increment      1: Step Time =    1.000,"P-7-1",          1186,       15.2083,       189.817,            0.,NA,NA,"",   1.37731E+06,   1.40038E+06,   1.40038E+06
C:/temp/Job-7.odb,Step-1,Increment      1: Step Time =    1.000,"P-7-1",          1187,       189.313,       185.131,            0.,NA,NA,"",   1.00299E+06,   1.00486E+06,   1.00486E+06
C:/temp/Job-7.odb,Step-1,Increment      1: Step Time =    1.000,"P-7-1",          1188,       28.0561,       27.1723,            0.,NA,NA,"",   1.22173E+06,   1.23908E+06,   1.23908E+06
C:/temp/Job-7.odb,Step-1,Increment      1: Step Time =    1.000,"P-7-1",          1189,       39.6282,       23.7774,            0.,NA,NA,"",   1.25465E+06,   1.24596E+06,   1.24596E+06
C:/temp/Job-7.odb,Step-1,Increment      1: Step Time =    1.000,"P-7-1",          1190,       23.8589,       158.635,            0.,NA,NA,"",   1.08301E+06,   1.12363E+06,   1.12363E+06
C:/temp/Job-7.odb,Step-1,Increment      1: Step Time =    1.000,"P-7-1",          1191,       175.000,       27.0071,            0.,NA,NA,"",   1.04695E+06,   1.04446E+06,   1.04446E+06
C:/temp/Job-7.odb,Step-1,Increment      1: Step Time =    1.000,"P-7-1",          1192,       26.9601,       170.656,            0.,NA,NA,"",   1.20342E+06,   1.22520E+06,   1.22520E+06
C:/temp/Job-7.odb,Step-1,Increment      1: Step Time =    1.000,"P-7-1",          1193,       173.386,       42.1187,            0.,NA,NA,"",   1.08468E+06,   1.07838E+06,   1.07838E+06
C:/temp/Job-7.odb,Step-1,Increment      1: Step Time =    1.000,"P-7-1",          1194,       156.469,       172.850,            0.,NA,NA,"",   1.11830E+06,   1.09655E+06,   1.09655E+06
C:/temp/Job-7.odb,Step-1,Increment      1: Step Time =    1.000,"P-7-1",          1195,       172.668,       175.336,            0.,NA,NA,"",   1.05004E+06,   1.04553E+06,   1.04553E+06
C:/temp/Job-7.odb,Step-1,Increment      1: Step Time =    1.000,"P-7-1",          1196,       57.1550,       137.412,            0.,NA,NA,"",   1.27168E+06,   1.17977E+06,   1.17977E+06
C:/temp/Job-7.odb,Step-1,Increment      1: Step Time =    1.000,"P-7-1",          1197,       48.5315,       101.417,            0.,NA,NA,"",   317.944E+03,   352.345E+03,   352.345E+03
C:/temp/Job-7.odb,Step-1,Increment      1: Step Time =    1.000,"P-7-1",          1198,       55.5909,       87.7491,            0.,NA,NA,"",   576.379E+03,   492.822E+03,   492.822E+03
C:/temp/Job-7.odb,Step-1,Increment      1: Step Time =    1.000,"P-7-1",          1199,       43.9532,       89.4830,            0.,NA,NA,"",   499.394E+03,   527.040E+03,   527.040E+03
C:/temp/Job-7.odb,Step-1,Increment      1: Step Time =    1.000,"P-7-1",          1200,       124.624,       48.1778,            0.,NA,NA,"",   1.38079E+06,   1.38077E+06,   1.38077E+06
C:/temp/Job-7.odb,Step-1,Increment      1: Step Time =    1.000,"P-7-1",          1201,       72.3456,       47.4417,            0.,NA,NA,"",   1.40425E+06,   1.37663E+06,   1.37663E+06
C:/temp/Job-7.odb,Step-1,Increment      1: Step Time =    1.000,"P-7-1",          1202,       64.2386,       58.4613,            0.,NA,NA,"",   1.39413E+06,   1.30431E+06,   1.30431E+06
C:/temp/Job-7.odb,Step-1,Increment      1: Step Time =    1.000,"P-7-1",          1203,       130.272,       51.4540,            0.,NA,NA,"",   1.43949E+06,   1.39098E+06,   1.39098E+06
C:/temp/Job-7.odb,Step-1,Increment      1: Step Time =    1.000,"P-7-1",          1204,       68.0591,       52.9834,            0.,NA,NA,"",   1.43356E+06,   1.37116E+06,   1.37116E+06
C:/temp/Job-7.odb,Step-1,Increment      1: Step Time =    1.000,"P-7-1",          1205,       87.9211,       55.3448,            0.,NA,NA,"",   1.47675E+06,   1.56213E+06,   1.56213E+06
C:/temp/Job-7.odb,Step-1,Increment      1: Step Time =    1.000,"P-7-1",          1206,       22.9438,       150.256,            0.,NA,NA,"",   997.150E+03,   1.04569E+06,   1.04569E+06
C:/temp/Job-7.odb,Step-1,Increment      1: Step Time =    1.000,"P-7-1",          1207,       148.453,       27.6396,            0.,NA,NA,"",   1.14416E+06,   1.11862E+06,   1.11862E+06
C:/temp/Job-7.odb,Step-1,Increment      1: Step Time =    1.000,"P-7-1",          1208,       25.2816,       50.1042,            0.,NA,NA,"",   1.01128E+06,   1.05136E+06,   1.05136E+06
C:/temp/Job-7.odb,Step-1,Increment      1: Step Time =    1.000,"P-7-1",          1209,       49.2047,       23.5027,            0.,NA,NA,"",   1.25202E+06,   1.23319E+06,   1.23319E+06
C:/temp/Job-7.odb,Step-1,Increment      1: Step Time =    1.000,"P-7-1",          1210,       48.0409,       174.114,            0.,NA,NA,"",   1.25638E+06,   1.23620E+06,   1.23620E+06
C:/temp/Job-7.odb,Step-1,Increment      1: Step Time =    1.000,"P-7-1",          1211,       149.017,       174.237,            0.,NA,NA,"",   1.12916E+06,   1.10640E+06,   1.10640E+06
C:/temp/Job-7.odb,Step-1,Increment      1: Step Time =    1.000,"P-7-1",          1212,       171.197,       148.555,            0.,NA,NA,"",   1.11170E+06,   1.09761E+06,   1.09761E+06
C:/temp/Job-7.odb,Step-1,Increment      1: Step Time =    1.000,"P-7-1",          1213,       86.8726,       50.2951,            0.,NA,NA,"",   1.38534E+06,   1.45316E+06,   1.45316E+06
C:/temp/Job-7.odb,Step-1,Increment      1: Step Time =    1.000,"P-7-1",          1214,       182.886,       150.533,            0.,NA,NA,"",   1.01720E+06,   1.04229E+06,   1.04229E+06
C:/temp/Job-7.odb,Step-1,Increment      1: Step Time =    1.000,"P-7-1",          1215,       49.9506,       180.968,            0.,NA,NA,"",   1.23452E+06,   1.21996E+06,   1.21996E+06
C:/temp/Job-7.odb,Step-1,Increment      1: Step Time =    1.000,"P-7-1",          1216,       150.607,       17.1004,            0.,NA,NA,"",   1.05932E+06,   1.04835E+06,   1.04835E+06
C:/temp/Job-7.odb,Step-1,Increment      1: Step Time =    1.000,"P-7-1",          1217,       56.8819,       142.280,            0.,NA,NA,"",   1.30031E+06,   1.22081E+06,   1.22081E+06
C:/temp/Job-7.odb,Step-1,Increment      1: Step Time =    1.000,"P-7-1",          1218,       79.4851,       179.443,            0.,NA,NA,"",   1.12537E+06,   1.13063E+06,   1.13063E+06
C:/temp/Job-7.odb,Step-1,Increment      1: Step Time =    1.000,"P-7-1",          1219,       141.071,       60.4185,            0.,NA,NA,"",   1.44352E+06,   1.31436E+06,   1.31436E+06
C:/temp/Job-7.odb,Step-1,Increment      1: Step Time =    1.000,"P-7-1",          1220,       45.1360,       25.1908,            0.,NA,NA,"",   1.25670E+06,   1.23944E+06,   1.23944E+06
C:/temp/Job-7.odb,Step-1,Increment      1: Step Time =    1.000,"P-7-1",          1221,       24.3793,       153.775,            0.,NA,NA,"",   1.04209E+06,   1.08393E+06,   1.08393E+06
C:/temp/Job-7.odb,Step-1,Increment      1: Step Time =    1.000,"P-7-1",          1222,       176.114,       50.5917,            0.,NA,NA,"",   1.06979E+06,   1.07338E+06,   1.07338E+06
C:/temp/Job-7.odb,Step-1,Increment      1: Step Time =    1.000,"P-7-1",          1223,       154.438,       175.747,            0.,NA,NA,"",   1.10518E+06,   1.08620E+06,   1.08620E+06
C:/temp/Job-7.odb,Step-1,Increment      1: Step Time =    1.000,"P-7-1",          1224,       108.125,       163.315,            0.,NA,NA,"",   1.14677E+06,   1.21838E+06,   1.21838E+06
C:/temp/Job-7.odb,Step-1,Increment      1: Step Time =    1.000,"P-7-1",          1225,       98.8977,       164.329,            0.,NA,NA,"",   1.14099E+06,   1.21380E+06,   1.21380E+06
C:/temp/Job-7.odb,Step-1,Increment      1: Step Time =    1.000,"P-7-1",          1226,       130.291,       26.5899,            0.,NA,NA,"",   1.13688E+06,   1.13244E+06,   1.13244E+06
C:/temp/Job-7.odb,Step-1,Increment      1: Step Time =    1.000,"P-7-1",          1227,       66.9579,       169.860,            0.,NA,NA,"",   1.26960E+06,   1.24842E+06,   1.24842E+06
C:/temp/Job-7.odb,Step-1,Increment      1: Step Time =    1.000,"P-7-1",          1228,       29.4440,       68.8348,            0.,NA,NA,"",   818.554E+03,   858.973E+03,   858.973E+03
C:/temp/Job-7.odb,Step-1,Increment      1: Step Time =    1.000,"P-7-1",          1229,       170.987,       132.762,            0.,NA,NA,"",   1.06228E+06,   1.05942E+06,   1.05942E+06
C:/temp/Job-7.odb,Step-1,Increment      1: Step Time =    1.000,"P-7-1",          1230,       88.1034,       172.579,            0.,NA,NA,"",   1.13141E+06,   1.16269E+06,   1.16269E+06
C:/temp/Job-7.odb,Step-1,Increment      1: Step Time =    1.000,"P-7-1",          1231,       170.161,       112.158,            0.,NA,NA,"",   827.982E+03,   875.187E+03,   875.187E+03
C:/temp/Job-7.odb,Step-1,Increment      1: Step Time =    1.000,"P-7-1",          1232,       27.7561,       87.1146,            0.,NA,NA,"",   560.995E+03,   627.656E+03,   627.656E+03
C:/temp/Job-7.odb,Step-1,Increment      1: Step Time =    1.000,"P-7-1",          1233,       108.769,       31.9399,            0.,NA,NA,"",   1.11178E+06,   1.16791E+06,   1.16791E+06
C:/temp/Job-7.odb,Step-1,Increment      1: Step Time =    1.000,"P-7-1",          1234,       37.6150,       97.4886,            0.,NA,NA,"",   429.941E+03,   487.424E+03,   487.424E+03
C:/temp/Job-7.odb,Step-1,Increment      1: Step Time =    1.000,"P-7-1",          1235,       123.749,       43.7250,            0.,NA,NA,"",   1.31560E+06,   1.32538E+06,   1.32538E+06
C:/temp/Job-7.odb,Step-1,Increment      1: Step Time =    1.000,"P-7-1",          1236,       76.5342,       42.1692,            0.,NA,NA,"",   1.34055E+06,   1.34085E+06,   1.34085E+06
C:/temp/Job-7.odb,Step-1,Increment      1: Step Time =    1.000,"P-7-1",          1237,       86.6356,       158.144,            0.,NA,NA,"",   1.27867E+06,   1.32959E+06,   1.32959E+06
C:/temp/Job-7.odb,Step-1,Increment      1: Step Time =    1.000,"P-7-1",          1238,       87.4805,       153.561,            0.,NA,NA,"",   1.32589E+06,   1.38879E+06,   1.38879E+06
C:/temp/Job-7.odb,Step-1,Increment      1: Step Time =    1.000,"P-7-1",          1239,       39.8120,       86.8926,            0.,NA,NA,"",   558.905E+03,   595.277E+03,   595.277E+03
C:/temp/Job-7.odb,Step-1,Increment      1: Step Time =    1.000,"P-7-1",          1240,       184.375,       186.010,            0.,NA,NA,"",   1.00684E+06,   1.00844E+06,   1.00844E+06
C:/temp/Job-7.odb,Step-1,Increment      1: Step Time =    1.000,"P-7-1",          1241,       185.908,       15.7336,            0.,NA,NA,"",   1.00631E+06,   1.00855E+06,   1.00855E+06
C:/temp/Job-7.odb,Step-1,Increment      1: Step Time =    1.000,"P-7-1",          1242,       14.3435,       14.0623,            0.,NA,NA,"",   1.33493E+06,   1.37473E+06,   1.37473E+06
C:/temp/Job-7.odb,Step-1,Increment      1: Step Time =    1.000,"P-7-1",          1243,       147.205,       68.4438,            0.,NA,NA,"",   1.33324E+06,   1.18317E+06,   1.18317E+06
C:/temp/Job-7.odb,Step-1,Increment      1: Step Time =    1.000,"P-7-1",          1244,       96.6394,       169.356,            0.,NA,NA,"",   1.10822E+06,   1.16345E+06,   1.16345E+06
C:/temp/Job-7.odb,Step-1,Increment      1: Step Time =    1.000,"P-7-1",          1245,       170.695,       99.9868,            0.,NA,NA,"",   742.105E+03,   810.102E+03,   810.102E+03
C:/temp/Job-7.odb,Step-1,Increment      1: Step Time =    1.000,"P-7-1",          1246,       31.7105,       98.7612,            0.,NA,NA,"",   467.023E+03,   532.652E+03,   532.652E+03
C:/temp/Job-7.odb,Step-1,Increment      1: Step Time =    1.000,"P-7-1",          1247,       96.8089,       30.5420,            0.,NA,NA,"",   1.10943E+06,   1.16477E+06,   1.16477E+06
C:/temp/Job-7.odb,Step-1,Increment      1: Step Time =    1.000,"P-7-1",          1248,       60.0344,       59.5947,            0.,NA,NA,"",   1.32938E+06,   1.23959E+06,   1.23959E+06
C:/temp/Job-7.odb,Step-1,Increment      1: Step Time =    1.000,"P-7-1",          1249,       58.7874,       120.021,            0.,NA,NA,"",   924.469E+03,   793.907E+03,   793.907E+03
C:/temp/Job-7.odb,Step-1,Increment      1: Step Time =    1.000,"P-7-1",          1250,       190.601,       15.2368,            0.,NA,NA,"",   1.00207E+06,   1.00405E+06,   1.00405E+06
C:/temp/Job-7.odb,Step-1,Increment      1: Step Time =    1.000,"P-7-1",          1251,       184.843,       190.663,            0.,NA,NA,"",   1.00322E+06,   1.00409E+06,   1.00409E+06
C:/temp/Job-7.odb,Step-1,Increment      1: Step Time =    1.000,"P-7-1",          1252,       14.7088,       9.80001,            0.,NA,NA,"",   1.38654E+06,   1.40942E+06,   1.40942E+06
C:/temp/Job-7.odb,Step-1,Increment      1: Step Time =    1.000,"P-7-1",          1253,       10.2806,       184.885,            0.,NA,NA,"",   1.29212E+06,   1.36314E+06,   1.36314E+06
C:/temp/Job-7.odb,Step-1,Increment      1: Step Time =    1.000,"P-7-1",          1254,       55.1721,       122.535,            0.,NA,NA,"",   942.858E+03,   847.772E+03,   847.772E+03
C:/temp/Job-7.odb,Step-1,Increment      1: Step Time =    1.000,"P-7-1",          1255,       28.1152,       152.361,            0.,NA,NA,"",   1.06132E+06,   1.09029E+06,   1.09029E+06
C:/temp/Job-7.odb,Step-1,Increment      1: Step Time =    1.000,"P-7-1",          1256,       18.8064,       151.877,            0.,NA,NA,"",   978.178E+03,   1.04031E+06,   1.04031E+06
C:/temp/Job-7.odb,Step-1,Increment      1: Step Time =    1.000,"P-7-1",          1257,       47.7083,       19.1400,            0.,NA,NA,"",   1.24037E+06,   1.22672E+06,   1.22672E+06
C:/temp/Job-7.odb,Step-1,Increment      1: Step Time =    1.000,"P-7-1",          1258,       46.4901,       29.4327,            0.,NA,NA,"",   1.26154E+06,   1.23949E+06,   1.23949E+06
C:/temp/Job-7.odb,Step-1,Increment      1: Step Time =    1.000,"P-7-1",          1259,       180.502,       51.2462,            0.,NA,NA,"",   1.03520E+06,   1.05393E+06,   1.05393E+06
C:/temp/Job-7.odb,Step-1,Increment      1: Step Time =    1.000,"P-7-1",          1260,       171.877,       49.6032,            0.,NA,NA,"",   1.10604E+06,   1.09441E+06,   1.09441E+06
C:/temp/Job-7.odb,Step-1,Increment      1: Step Time =    1.000,"P-7-1",          1261,       150.468,       179.165,            0.,NA,NA,"",   1.08775E+06,   1.07214E+06,   1.07214E+06
C:/temp/Job-7.odb,Step-1,Increment      1: Step Time =    1.000,"P-7-1",          1262,       148.364,       169.815,            0.,NA,NA,"",   1.16817E+06,   1.13780E+06,   1.13780E+06
C:/temp/Job-7.odb,Step-1,Increment      1: Step Time =    1.000,"P-7-1",          1263,       85.9682,       45.3427,            0.,NA,NA,"",   1.32122E+06,   1.37517E+06,   1.37517E+06
C:/temp/Job-7.odb,Step-1,Increment      1: Step Time =    1.000,"P-7-1",          1264,       178.680,       150.103,            0.,NA,NA,"",   1.04759E+06,   1.06019E+06,   1.06019E+06
C:/temp/Job-7.odb,Step-1,Increment      1: Step Time =    1.000,"P-7-1",          1265,       46.5093,       179.566,            0.,NA,NA,"",   1.24448E+06,   1.23052E+06,   1.23052E+06
C:/temp/Job-7.odb,Step-1,Increment      1: Step Time =    1.000,"P-7-1",          1266,       150.204,       21.0112,            0.,NA,NA,"",   1.08934E+06,   1.07351E+06,   1.07351E+06
C:/temp/Job-7.odb,Step-1,Increment      1: Step Time =    1.000,"P-7-1",          1267,       20.1110,       50.2010,            0.,NA,NA,"",   967.699E+03,   1.02584E+06,   1.02584E+06
C:/temp/Job-7.odb,Step-1,Increment      1: Step Time =    1.000,"P-7-1",          1268,       61.9597,       143.908,            0.,NA,NA,"",   1.37082E+06,   1.28920E+06,   1.28920E+06
C:/temp/Job-7.odb,Step-1,Increment      1: Step Time =    1.000,"P-7-1",          1269,       136.743,       58.7297,            0.,NA,NA,"",   1.47898E+06,   1.36429E+06,   1.36429E+06
C:/temp/Job-7.odb,Step-1,Increment      1: Step Time =    1.000,"P-7-1",          1270,       141.251,       57.6707,            0.,NA,NA,"",   1.43181E+06,   1.31611E+06,   1.31611E+06
C:/temp/Job-7.odb,Step-1,Increment      1: Step Time =    1.000,"P-7-1",          1271,       98.5681,       35.2545,            0.,NA,NA,"",   1.13788E+06,   1.20974E+06,   1.20974E+06
C:/temp/Job-7.odb,Step-1,Increment      1: Step Time =    1.000,"P-7-1",          1272,       164.816,       97.1206,            0.,NA,NA,"",   687.280E+03,   736.920E+03,   736.920E+03
C:/temp/Job-7.odb,Step-1,Increment      1: Step Time =    1.000,"P-7-1",          1273,       155.455,       64.6350,            0.,NA,NA,"",   1.24594E+06,   1.15305E+06,   1.15305E+06
C:/temp/Job-7.odb,Step-1,Increment      1: Step Time =    1.000,"P-7-1",          1274,       61.1675,       63.6216,            0.,NA,NA,"",   1.31421E+06,   1.21123E+06,   1.21123E+06
C:/temp/Job-7.odb,Step-1,Increment      1: Step Time =    1.000,"P-7-1",          1275,       51.3454,       123.140,            0.,NA,NA,"",   900.160E+03,   834.253E+03,   834.253E+03
C:/temp/Job-7.odb,Step-1,Increment      1: Step Time =    1.000,"P-7-1",          1276,       33.5385,       87.5282,            0.,NA,NA,"",   551.844E+03,   608.678E+03,   608.678E+03
C:/temp/Job-7.odb,Step-1,Increment      1: Step Time =    1.000,"P-7-1",          1277,       87.1848,       163.869,            0.,NA,NA,"",   1.21216E+06,   1.25414E+06,   1.25414E+06
C:/temp/Job-7.odb,Step-1,Increment      1: Step Time =    1.000,"P-7-1",          1278,       147.905,       165.619,            0.,NA,NA,"",   1.20568E+06,   1.16683E+06,   1.16683E+06
C:/temp/Job-7.odb,Step-1,Increment      1: Step Time =    1.000,"P-7-1",          1279,       168.002,       48.0086,            0.,NA,NA,"",   1.13752E+06,   1.11342E+06,   1.11342E+06
C:/temp/Job-7.odb,Step-1,Increment      1: Step Time =    1.000,"P-7-1",          1280,       42.3183,       31.3830,            0.,NA,NA,"",   1.25003E+06,   1.23309E+06,   1.23309E+06
C:/temp/Job-7.odb,Step-1,Increment      1: Step Time =    1.000,"P-7-1",          1281,       28.8765,       155.108,            0.,NA,NA,"",   1.09168E+06,   1.11701E+06,   1.11701E+06
C:/temp/Job-7.odb,Step-1,Increment      1: Step Time =    1.000,"P-7-1",          1282,       24.7769,       44.8202,            0.,NA,NA,"",   1.05955E+06,   1.09882E+06,   1.09882E+06
C:/temp/Job-7.odb,Step-1,Increment      1: Step Time =    1.000,"P-7-1",          1283,       153.882,       28.6174,            0.,NA,NA,"",   1.13890E+06,   1.11306E+06,   1.11306E+06
C:/temp/Job-7.odb,Step-1,Increment      1: Step Time =    1.000,"P-7-1",          1284,       43.1944,       174.598,            0.,NA,NA,"",   1.25421E+06,   1.23968E+06,   1.23968E+06
C:/temp/Job-7.odb,Step-1,Increment      1: Step Time =    1.000,"P-7-1",          1285,       170.400,       154.691,            0.,NA,NA,"",   1.11523E+06,   1.09876E+06,   1.09876E+06
C:/temp/Job-7.odb,Step-1,Increment      1: Step Time =    1.000,"P-7-1",          1286,       14.4693,       149.614,            0.,NA,NA,"",   925.690E+03,   1.00130E+06,   1.00130E+06
C:/temp/Job-7.odb,Step-1,Increment      1: Step Time =    1.000,"P-7-1",          1287,       50.1815,       14.6352,            0.,NA,NA,"",   1.21821E+06,   1.20795E+06,   1.20795E+06
C:/temp/Job-7.odb,Step-1,Increment      1: Step Time =    1.000,"P-7-1",          1288,       184.959,       51.7816,            0.,NA,NA,"",   1.00269E+06,   1.03582E+06,   1.03582E+06
C:/temp/Job-7.odb,Step-1,Increment      1: Step Time =    1.000,"P-7-1",          1289,       149.353,       184.692,            0.,NA,NA,"",   1.04767E+06,   1.03834E+06,   1.03834E+06
C:/temp/Job-7.odb,Step-1,Increment      1: Step Time =    1.000,"P-7-1",          1290,       90.5312,       43.8559,            0.,NA,NA,"",   1.26835E+06,   1.34387E+06,   1.34387E+06
C:/temp/Job-7.odb,Step-1,Increment      1: Step Time =    1.000,"P-7-1",          1291,       81.4274,       46.4029,            0.,NA,NA,"",   1.36477E+06,   1.39156E+06,   1.39156E+06
C:/temp/Job-7.odb,Step-1,Increment      1: Step Time =    1.000,"P-7-1",          1292,       140.892,       53.9373,            0.,NA,NA,"",   1.41103E+06,   1.31296E+06,   1.31296E+06
C:/temp/Job-7.odb,Step-1,Increment      1: Step Time =    1.000,"P-7-1",          1293,       37.7485,       105.471,            0.,NA,NA,"",   451.756E+03,   507.597E+03,   507.597E+03
C:/temp/Job-7.odb,Step-1,Increment      1: Step Time =    1.000,"P-7-1",          1294,       153.044,       68.9043,            0.,NA,NA,"",   1.23977E+06,   1.12636E+06,   1.12636E+06
C:/temp/Job-7.odb,Step-1,Increment      1: Step Time =    1.000,"P-7-1",          1295,       153.479,       60.9868,            0.,NA,NA,"",   1.28893E+06,   1.19240E+06,   1.19240E+06
C:/temp/Job-7.odb,Step-1,Increment      1: Step Time =    1.000,"P-7-1",          1296,       56.2302,       61.2499,            0.,NA,NA,"",   1.25845E+06,   1.17489E+06,   1.17489E+06
C:/temp/Job-7.odb,Step-1,Increment      1: Step Time =    1.000,"P-7-1",          1297,       50.1935,       120.422,            0.,NA,NA,"",   816.928E+03,   765.054E+03,   765.054E+03
C:/temp/Job-7.odb,Step-1,Increment      1: Step Time =    1.000,"P-7-1",          1298,       83.4092,       164.666,            0.,NA,NA,"",   1.22938E+06,   1.25583E+06,   1.25583E+06
C:/temp/Job-7.odb,Step-1,Increment      1: Step Time =    1.000,"P-7-1",          1299,       88.1272,       167.827,            0.,NA,NA,"",   1.17340E+06,   1.21274E+06,   1.21274E+06
C:/temp/Job-7.odb,Step-1,Increment      1: Step Time =    1.000,"P-7-1",          1300,       48.1234,       124.365,            0.,NA,NA,"",   878.181E+03,   836.099E+03,   836.099E+03
C:/temp/Job-7.odb,Step-1,Increment      1: Step Time =    1.000,"P-7-1",          1301,       50.8042,       59.4044,            0.,NA,NA,"",   1.19522E+06,   1.13483E+06,   1.13483E+06
C:/temp/Job-7.odb,Step-1,Increment      1: Step Time =    1.000,"P-7-1",          1302,       140.467,       49.5751,            0.,NA,NA,"",   1.37740E+06,   1.29858E+06,   1.29858E+06
C:/temp/Job-7.odb,Step-1,Increment      1: Step Time =    1.000,"P-7-1",          1303,       161.764,       25.8811,            0.,NA,NA,"",   1.09480E+06,   1.07835E+06,   1.07835E+06
C:/temp/Job-7.odb,Step-1,Increment      1: Step Time =    1.000,"P-7-1",          1304,       174.228,       162.522,            0.,NA,NA,"",   1.07310E+06,   1.06819E+06,   1.06819E+06
C:/temp/Job-7.odb,Step-1,Increment      1: Step Time =    1.000,"P-7-1",          1305,       24.4219,       40.0632,            0.,NA,NA,"",   1.09984E+06,   1.13809E+06,   1.13809E+06
C:/temp/Job-7.odb,Step-1,Increment      1: Step Time =    1.000,"P-7-1",          1306,       39.1977,       171.624,            0.,NA,NA,"",   1.24549E+06,   1.23659E+06,   1.23659E+06
C:/temp/Job-7.odb,Step-1,Increment      1: Step Time =    1.000,"P-7-1",          1307,       147.384,       161.625,            0.,NA,NA,"",   1.24107E+06,   1.19295E+06,   1.19295E+06
C:/temp/Job-7.odb,Step-1,Increment      1: Step Time =    1.000,"P-7-1",          1308,       165.741,       51.3568,            0.,NA,NA,"",   1.15766E+06,   1.12501E+06,   1.12501E+06
C:/temp/Job-7.odb,Step-1,Increment      1: Step Time =    1.000,"P-7-1",          1309,       52.3960,       36.1127,            0.,NA,NA,"",   1.28689E+06,   1.25085E+06,   1.25085E+06
C:/temp/Job-7.odb,Step-1,Increment      1: Step Time =    1.000,"P-7-1",          1310,       35.5949,       148.225,            0.,NA,NA,"",   1.08577E+06,   1.08772E+06,   1.08772E+06
C:/temp/Job-7.odb,Step-1,Increment      1: Step Time =    1.000,"P-7-1",          1311,       150.382,       30.3195,            0.,NA,NA,"",   1.16268E+06,   1.13268E+06,   1.13268E+06
C:/temp/Job-7.odb,Step-1,Increment      1: Step Time =    1.000,"P-7-1",          1312,       30.0772,       49.2669,            0.,NA,NA,"",   1.06118E+06,   1.08262E+06,   1.08262E+06
C:/temp/Job-7.odb,Step-1,Increment      1: Step Time =    1.000,"P-7-1",          1313,       164.078,       152.788,            0.,NA,NA,"",   1.16969E+06,   1.13392E+06,   1.13392E+06
C:/temp/Job-7.odb,Step-1,Increment      1: Step Time =    1.000,"P-7-1",          1314,       46.4414,       168.880,            0.,NA,NA,"",   1.26073E+06,   1.23753E+06,   1.23753E+06
C:/temp/Job-7.odb,Step-1,Increment      1: Step Time =    1.000,"P-7-1",          1315,       14.4650,       156.287,            0.,NA,NA,"",   987.052E+03,   1.06255E+06,   1.06255E+06
C:/temp/Job-7.odb,Step-1,Increment      1: Step Time =    1.000,"P-7-1",          1316,       43.4635,       14.5216,            0.,NA,NA,"",   1.23892E+06,   1.23139E+06,   1.23139E+06
C:/temp/Job-7.odb,Step-1,Increment      1: Step Time =    1.000,"P-7-1",          1317,       181.073,       46.9281,            0.,NA,NA,"",   1.03471E+06,   1.05038E+06,   1.05038E+06
C:/temp/Job-7.odb,Step-1,Increment      1: Step Time =    1.000,"P-7-1",          1318,       154.933,       181.238,            0.,NA,NA,"",   1.06775E+06,   1.05564E+06,   1.05564E+06
C:/temp/Job-7.odb,Step-1,Increment      1: Step Time =    1.000,"P-7-1",          1319,       146.726,       58.4113,            0.,NA,NA,"",   1.37402E+06,   1.26125E+06,   1.26125E+06
C:/temp/Job-7.odb,Step-1,Increment      1: Step Time =    1.000,"P-7-1",          1320,       54.6123,       57.3085,            0.,NA,NA,"",   1.26817E+06,   1.19631E+06,   1.19631E+06
C:/temp/Job-7.odb,Step-1,Increment      1: Step Time =    1.000,"P-7-1",          1321,       40.9684,       107.309,            0.,NA,NA,"",   459.870E+03,   507.405E+03,   507.405E+03
C:/temp/Job-7.odb,Step-1,Increment      1: Step Time =    1.000,"P-7-1",          1322,       50.2096,       129.071,            0.,NA,NA,"",   1.01034E+06,   946.294E+03,   946.294E+03
C:/temp/Job-7.odb,Step-1,Increment      1: Step Time =    1.000,"P-7-1",          1323,       46.7289,       122.248,            0.,NA,NA,"",   817.019E+03,   787.274E+03,   787.274E+03
C:/temp/Job-7.odb,Step-1,Increment      1: Step Time =    1.000,"P-7-1",          1324,       47.4903,       61.6444,            0.,NA,NA,"",   1.12342E+06,   1.07569E+06,   1.07569E+06
C:/temp/Job-7.odb,Step-1,Increment      1: Step Time =    1.000,"P-7-1",          1325,       135.300,       50.0986,            0.,NA,NA,"",   1.41168E+06,   1.34255E+06,   1.34255E+06
C:/temp/Job-7.odb,Step-1,Increment      1: Step Time =    1.000,"P-7-1",          1326,       57.1533,       51.3234,            0.,NA,NA,"",   1.33018E+06,   1.26346E+06,   1.26346E+06
C:/temp/Job-7.odb,Step-1,Increment      1: Step Time =    1.000,"P-7-1",          1327,       152.785,       165.046,            0.,NA,NA,"",   1.18689E+06,   1.14957E+06,   1.14957E+06
C:/temp/Job-7.odb,Step-1,Increment      1: Step Time =    1.000,"P-7-1",          1328,       143.005,       161.756,            0.,NA,NA,"",   1.25989E+06,   1.21343E+06,   1.21343E+06
C:/temp/Job-7.odb,Step-1,Increment      1: Step Time =    1.000,"P-7-1",          1329,       163.987,       55.6240,            0.,NA,NA,"",   1.17490E+06,   1.13235E+06,   1.13235E+06
C:/temp/Job-7.odb,Step-1,Increment      1: Step Time =    1.000,"P-7-1",          1330,       165.508,       45.0964,            0.,NA,NA,"",   1.14992E+06,   1.12101E+06,   1.12101E+06
C:/temp/Job-7.odb,Step-1,Increment      1: Step Time =    1.000,"P-7-1",          1331,       56.8209,       39.2836,            0.,NA,NA,"",   1.31551E+06,   1.27148E+06,   1.27148E+06
C:/temp/Job-7.odb,Step-1,Increment      1: Step Time =    1.000,"P-7-1",          1332,       43.5430,       35.0201,            0.,NA,NA,"",   1.24793E+06,   1.22658E+06,   1.22658E+06
C:/temp/Job-7.odb,Step-1,Increment      1: Step Time =    1.000,"P-7-1",          1333,       31.8764,       155.951,            0.,NA,NA,"",   1.12196E+06,   1.13577E+06,   1.13577E+06
C:/temp/Job-7.odb,Step-1,Increment      1: Step Time =    1.000,"P-7-1",          1334,       39.2914,       144.862,            0.,NA,NA,"",   1.08914E+06,   1.07815E+06,   1.07815E+06
C:/temp/Job-7.odb,Step-1,Increment      1: Step Time =    1.000,"P-7-1",          1335,       44.4394,       109.945,            0.,NA,NA,"",   491.842E+03,   520.658E+03,   520.658E+03
C:/temp/Job-7.odb,Step-1,Increment      1: Step Time =    1.000,"P-7-1",          1336,       52.9113,       131.485,            0.,NA,NA,"",   1.10264E+06,   1.02183E+06,   1.02183E+06
C:/temp/Job-7.odb,Step-1,Increment      1: Step Time =    1.000,"P-7-1",          1337,       42.4472,       122.496,            0.,NA,NA,"",   782.245E+03,   778.821E+03,   778.821E+03
C:/temp/Job-7.odb,Step-1,Increment      1: Step Time =    1.000,"P-7-1",          1338,       67.4448,       47.6542,            0.,NA,NA,"",   1.39793E+06,   1.34997E+06,   1.34997E+06
C:/temp/Job-7.odb,Step-1,Increment      1: Step Time =    1.000,"P-7-1",          1339,       132.436,       147.565,            0.,NA,NA,"",   1.44353E+06,   1.37846E+06,   1.37846E+06
C:/temp/Job-7.odb,Step-1,Increment      1: Step Time =    1.000,"P-7-1",          1340,       108.141,       168.438,            0.,NA,NA,"",   1.10502E+06,   1.16154E+06,   1.16154E+06
C:/temp/Job-7.odb,Step-1,Increment      1: Step Time =    1.000,"P-7-1",          1341,       48.7168,       133.473,            0.,NA,NA,"",   1.07405E+06,   1.01748E+06,   1.01748E+06
C:/temp/Job-7.odb,Step-1,Increment      1: Step Time =    1.000,"P-7-1",          1342,       135.380,       144.799,            0.,NA,NA,"",   1.45983E+06,   1.36909E+06,   1.36909E+06
C:/temp/Job-7.odb,Step-1,Increment      1: Step Time =    1.000,"P-7-1",          1343,       44.7028,       58.2331,            0.,NA,NA,"",   1.13073E+06,   1.09533E+06,   1.09533E+06
C:/temp/Job-7.odb,Step-1,Increment      1: Step Time =    1.000,"P-7-1",          1344,       49.2974,       65.2911,            0.,NA,NA,"",   1.10347E+06,   1.04381E+06,   1.04381E+06
C:/temp/Job-7.odb,Step-1,Increment      1: Step Time =    1.000,"P-7-1",          1345,       139.176,       166.427,            0.,NA,NA,"",   1.21725E+06,   1.18683E+06,   1.18683E+06
C:/temp/Job-7.odb,Step-1,Increment      1: Step Time =    1.000,"P-7-1",          1346,       151.986,       160.905,            0.,NA,NA,"",   1.21883E+06,   1.17294E+06,   1.17294E+06
C:/temp/Job-7.odb,Step-1,Increment      1: Step Time =    1.000,"P-7-1",          1347,       160.839,       47.5229,            0.,NA,NA,"",   1.19584E+06,   1.15042E+06,   1.15042E+06
C:/temp/Job-7.odb,Step-1,Increment      1: Step Time =    1.000,"P-7-1",          1348,       49.1432,       41.2667,            0.,NA,NA,"",   1.27091E+06,   1.23314E+06,   1.23314E+06
C:/temp/Job-7.odb,Step-1,Increment      1: Step Time =    1.000,"P-7-1",          1349,       60.3140,       35.0155,            0.,NA,NA,"",   1.30488E+06,   1.26894E+06,   1.26894E+06
C:/temp/Job-7.odb,Step-1,Increment      1: Step Time =    1.000,"P-7-1",          1350,       41.0315,       151.309,            0.,NA,NA,"",   1.16769E+06,   1.14860E+06,   1.14860E+06
C:/temp/Job-7.odb,Step-1,Increment      1: Step Time =    1.000,"P-7-1",          1351,       35.3291,       144.562,            0.,NA,NA,"",   1.04599E+06,   1.05113E+06,   1.05113E+06
C:/temp/Job-7.odb,Step-1,Increment      1: Step Time =    1.000,"P-7-1",          1352,       47.5743,       107.134,            0.,NA,NA,"",   419.905E+03,   442.476E+03,   442.476E+03
C:/temp/Job-7.odb,Step-1,Increment      1: Step Time =    1.000,"P-7-1",          1353,       41.3067,       112.878,            0.,NA,NA,"",   560.006E+03,   592.303E+03,   592.303E+03
C:/temp/Job-7.odb,Step-1,Increment      1: Step Time =    1.000,"P-7-1",          1354,       112.144,       163.364,            0.,NA,NA,"",   1.16211E+06,   1.22259E+06,   1.22259E+06
C:/temp/Job-7.odb,Step-1,Increment      1: Step Time =    1.000,"P-7-1",          1355,       67.5882,       42.0970,            0.,NA,NA,"",   1.35740E+06,   1.32173E+06,   1.32173E+06
C:/temp/Job-7.odb,Step-1,Increment      1: Step Time =    1.000,"P-7-1",          1356,       129.492,       46.5528,            0.,NA,NA,"",   1.37080E+06,   1.34358E+06,   1.34358E+06
C:/temp/Job-7.odb,Step-1,Increment      1: Step Time =    1.000,"P-7-1",          1357,       55.2277,       47.9117,            0.,NA,NA,"",   1.31600E+06,   1.25894E+06,   1.25894E+06
C:/temp/Job-7.odb,Step-1,Increment      1: Step Time =    1.000,"P-7-1",          1358,       153.968,       50.4616,            0.,NA,NA,"",   1.27351E+06,   1.20205E+06,   1.20205E+06
C:/temp/Job-7.odb,Step-1,Increment      1: Step Time =    1.000,"P-7-1",          1359,       50.0184,       45.5045,            0.,NA,NA,"",   1.27231E+06,   1.22784E+06,   1.22784E+06
C:/temp/Job-7.odb,Step-1,Increment      1: Step Time =    1.000,"P-7-1",          1360,       150.642,       156.732,            0.,NA,NA,"",   1.25825E+06,   1.20073E+06,   1.20073E+06
C:/temp/Job-7.odb,Step-1,Increment      1: Step Time =    1.000,"P-7-1",          1361,       42.7953,       147.889,            0.,NA,NA,"",   1.16113E+06,   1.13503E+06,   1.13503E+06
C:/temp/Job-7.odb,Step-1,Increment      1: Step Time =    1.000,"P-7-1",          1362,       54.5993,       66.9291,            0.,NA,NA,"",   1.16872E+06,   1.07955E+06,   1.07955E+06
C:/temp/Job-7.odb,Step-1,Increment      1: Step Time =    1.000,"P-7-1",          1363,       126.064,       154.239,            0.,NA,NA,"",   1.35202E+06,   1.34462E+06,   1.34462E+06
C:/temp/Job-7.odb,Step-1,Increment      1: Step Time =    1.000,"P-7-1",          1364,       34.4183,       113.324,            0.,NA,NA,"",   566.129E+03,   619.172E+03,   619.172E+03
C:/temp/Job-7.odb,Step-1,Increment      1: Step Time =    1.000,"P-7-1",          1365,       72.6247,       37.4635,            0.,NA,NA,"",   1.30924E+06,   1.29590E+06,   1.29590E+06
C:/temp/Job-7.odb,Step-1,Increment      1: Step Time =    1.000,"P-7-1",          1366,       51.2621,       49.6744,            0.,NA,NA,"",   1.27411E+06,   1.22123E+06,   1.22123E+06
C:/temp/Job-7.odb,Step-1,Increment      1: Step Time =    1.000,"P-7-1",          1367,       58.4565,       46.1909,            0.,NA,NA,"",   1.33862E+06,   1.28248E+06,   1.28248E+06
C:/temp/Job-7.odb,Step-1,Increment      1: Step Time =    1.000,"P-7-1",          1368,       62.0521,       48.0833,            0.,NA,NA,"",   1.36845E+06,   1.30838E+06,   1.30838E+06
C:/temp/Job-7.odb,Step-1,Increment      1: Step Time =    1.000,"P-7-1",          1369,       37.8992,       57.0332,            0.,NA,NA,"",   1.06239E+06,   1.05617E+06,   1.05617E+06
C:/temp/Job-7.odb,Step-1,Increment      1: Step Time =    1.000,"P-7-1",          1370,       120.387,       161.711,            0.,NA,NA,"",   1.22435E+06,   1.25365E+06,   1.25365E+06
C:/temp/Job-7.odb,Step-1,Increment      1: Step Time =    1.000,"P-7-1",          1371,       59.8705,       38.5768,            0.,NA,NA,"",   1.32271E+06,   1.28054E+06,   1.28054E+06
C:/temp/Job-7.odb,Step-1,Increment      1: Step Time =    1.000,"P-7-1",          1372,       162.339,       59.7046,            0.,NA,NA,"",   1.18840E+06,   1.13481E+06,   1.13481E+06
C:/temp/Job-7.odb,Step-1,Increment      1: Step Time =    1.000,"P-7-1",          1373,       39.8407,       142.170,            0.,NA,NA,"",   1.06737E+06,   1.05480E+06,   1.05480E+06
C:/temp/Job-7.odb,Step-1,Increment      1: Step Time =    1.000,"P-7-1",          1374,       138.637,       161.609,            0.,NA,NA,"",   1.26919E+06,   1.22954E+06,   1.22954E+06
C:/temp/Job-7.odb,Step-1,Increment      1: Step Time =    1.000,"P-7-1",          1375,       45.9881,       46.8019,            0.,NA,NA,"",   1.23091E+06,   1.19540E+06,   1.19540E+06
C:/temp/Job-7.odb,Step-1,Increment      1: Step Time =    1.000,"P-7-1",          1376,       152.950,       56.7626,            0.,NA,NA,"",   1.29820E+06,   1.20899E+06,   1.20899E+06
C:/temp/Job-7.odb,Step-1,Increment      1: Step Time =    1.000,"P-7-1",          1377,       145.314,       149.212,            0.,NA,NA,"",   1.35124E+06,   1.26642E+06,   1.26642E+06
C:/temp/Job-7.odb,Step-1,Increment      1: Step Time =    1.000,"P-7-1",          1378,       47.7329,       145.062,            0.,NA,NA,"",   1.19955E+06,   1.15286E+06,   1.15286E+06
C:/temp/Job-7.odb,Step-1,Increment      1: Step Time =    1.000,"P-7-1",          1379,       158.822,       57.4951,            0.,NA,NA,"",   1.23026E+06,   1.16223E+06,   1.16223E+06
C:/temp/Job-7.odb,Step-1,Increment      1: Step Time =    1.000,"P-7-1",          1380,       57.9888,       42.8083,            0.,NA,NA,"",   1.32993E+06,   1.27914E+06,   1.27914E+06
C:/temp/Job-7.odb,Step-1,Increment      1: Step Time =    1.000,"P-7-1",          1381,       143.156,       157.880,            0.,NA,NA,"",   1.29227E+06,   1.23671E+06,   1.23671E+06
C:/temp/Job-7.odb,Step-1,Increment      1: Step Time =    1.000,"P-7-1",          1382,       161.643,       66.2738,            0.,NA,NA,"",   1.16139E+06,   1.10381E+06,   1.10381E+06
C:/temp/Job-7.odb,Step-1,Increment      1: Step Time =    1.000,"P-7-1",          1383,       68.4630,       36.7032,            0.,NA,NA,"",   1.31388E+06,   1.28925E+06,   1.28925E+06
C:/temp/Job-7.odb,Step-1,Increment      1: Step Time =    1.000,"P-7-1",          1384,       134.495,       162.142,            0.,NA,NA,"",   1.26581E+06,   1.23647E+06,   1.23647E+06
C:/temp/Job-7.odb,Step-1,Increment      1: Step Time =    1.000,"P-7-1",          1385,       36.9579,       137.399,            0.,NA,NA,"",   976.489E+03,   979.325E+03,   979.325E+03
C:/temp/Job-7.odb,Step-1,Increment      1: Step Time =    1.000,"P-7-1",          1386,       133.280,       157.611,            0.,NA,NA,"",   1.32301E+06,   1.28738E+06,   1.28738E+06
C:/temp/Job-7.odb,Step-1,Increment      1: Step Time =    1.000,"P-7-1",          1387,       38.2148,       116.008,            0.,NA,NA,"",   619.622E+03,   655.495E+03,   655.495E+03
C:/temp/Job-7.odb,Step-1,Increment      1: Step Time =    1.000,"P-7-1",          1388,       76.2162,       37.4933,            0.,NA,NA,"",   1.29528E+06,   1.29594E+06,   1.29594E+06
C:/temp/Job-7.odb,Step-1,Increment      1: Step Time =    1.000,"P-7-1",          1389,       62.5628,       67.3105,            0.,NA,NA,"",   1.30720E+06,   1.18744E+06,   1.18744E+06
C:/temp/Job-7.odb,Step-1,Increment      1: Step Time =    1.000,"P-7-1",          1390,       48.7523,       55.6268,            0.,NA,NA,"",   1.20743E+06,   1.15719E+06,   1.15719E+06
C:/temp/Job-7.odb,Step-1,Increment      1: Step Time =    1.000,"P-7-1",          1391,       35.6022,       63.3593,            0.,NA,NA,"",   946.705E+03,   957.564E+03,   957.564E+03
C:/temp/Job-7.odb,Step-1,Increment      1: Step Time =    1.000,"P-7-1",          1392,       122.972,       158.479,            0.,NA,NA,"",   1.27855E+06,   1.29545E+06,   1.29545E+06
C:/temp/Job-7.odb,Step-1,Increment      1: Step Time =    1.000,"P-7-1",          1393,       56.4747,       70.9549,            0.,NA,NA,"",   1.13463E+06,   1.02743E+06,   1.02743E+06
C:/temp/Job-7.odb,Step-1,Increment      1: Step Time =    1.000,"P-7-1",          1394,       38.7457,       122.617,            0.,NA,NA,"",   749.235E+03,   766.852E+03,   766.852E+03
C:/temp/Job-7.odb,Step-1,Increment      1: Step Time =    1.000,"P-7-1",          1395,       162.441,       70.3214,            0.,NA,NA,"",   1.11186E+06,   1.06302E+06,   1.06302E+06
C:/temp/Job-7.odb,Step-1,Increment      1: Step Time =    1.000,"P-7-1",          1396,       69.5559,       31.6992,            0.,NA,NA,"",   1.26985E+06,   1.25331E+06,   1.25331E+06
C:/temp/Job-7.odb,Step-1,Increment      1: Step Time =    1.000,"P-7-1",          1397,       131.274,       167.410,            0.,NA,NA,"",   1.20594E+06,   1.19338E+06,   1.19338E+06
C:/temp/Job-7.odb,Step-1,Increment      1: Step Time =    1.000,"P-7-1",          1398,       34.8077,       130.375,            0.,NA,NA,"",   849.292E+03,   870.801E+03,   870.801E+03
C:/temp/Job-7.odb,Step-1,Increment      1: Step Time =    1.000,"P-7-1",          1399,       135.217,       151.335,            0.,NA,NA,"",   1.39035E+06,   1.32755E+06,   1.32755E+06
C:/temp/Job-7.odb,Step-1,Increment      1: Step Time =    1.000,"P-7-1",          1400,       79.7953,       32.2799,            0.,NA,NA,"",   1.22674E+06,   1.24035E+06,   1.24035E+06
C:/temp/Job-7.odb,Step-1,Increment      1: Step Time =    1.000,"P-7-1",          1401,       40.0876,       69.1377,            0.,NA,NA,"",   909.943E+03,   904.569E+03,   904.569E+03
C:/temp/Job-7.odb,Step-1,Increment      1: Step Time =    1.000,"P-7-1",          1402,       33.5265,       59.0810,            0.,NA,NA,"",   986.903E+03,   1.00045E+06,   1.00045E+06
C:/temp/Job-7.odb,Step-1,Increment      1: Step Time =    1.000,"P-7-1",          1403,       40.9405,       127.426,            0.,NA,NA,"",   858.493E+03,   854.482E+03,   854.482E+03
C:/temp/Job-7.odb,Step-1,Increment      1: Step Time =    1.000,"P-7-1",          1404,       43.8555,       124.353,            0.,NA,NA,"",   825.379E+03,   810.918E+03,   810.918E+03
C:/temp/Job-7.odb,Step-1,Increment      1: Step Time =    1.000,"P-7-1",          1405,       80.1849,       36.8996,            0.,NA,NA,"",   1.26981E+06,   1.28656E+06,   1.28656E+06
C:/temp/Job-7.odb,Step-1,Increment      1: Step Time =    1.000,"P-7-1",          1406,       45.3726,       64.6861,            0.,NA,NA,"",   1.05803E+06,   1.01892E+06,   1.01892E+06
C:/temp/Job-7.odb,Step-1,Increment      1: Step Time =    1.000,"P-7-1",          1407,       130.688,       162.886,            0.,NA,NA,"",   1.25269E+06,   1.23722E+06,   1.23722E+06
C:/temp/Job-7.odb,Step-1,Increment      1: Step Time =    1.000,"P-7-1",          1408,       141.803,       152.164,            0.,NA,NA,"",   1.35098E+06,   1.27774E+06,   1.27774E+06
C:/temp/Job-7.odb,Step-1,Increment      1: Step Time =    1.000,"P-7-1",          1409,       141.986,       145.584,            0.,NA,NA,"",   1.40295E+06,   1.30363E+06,   1.30363E+06
C:/temp/Job-7.odb,Step-1,Increment      1: Step Time =    1.000,"P-7-1",          1410,       138.640,       141.877,            0.,NA,NA,"",   1.45850E+06,   1.34439E+06,   1.34439E+06
C:/temp/Job-7.odb,Step-1,Increment      1: Step Time =    1.000,"P-7-1",          1411,       145.390,       142.680,            0.,NA,NA,"",   1.38691E+06,   1.27666E+06,   1.27666E+06
C:/temp/Job-7.odb,Step-1,Increment      1: Step Time =    1.000,"P-7-1",          1412,       142.077,       138.988,            0.,NA,NA,"",   1.43328E+06,   1.30364E+06,   1.30364E+06
C:/temp/Job-7.odb,Step-1,Increment      1: Step Time =    1.000,"P-7-1",          1413,       100.876,       45.0787,            0.,NA,NA,"",   1.23137E+06,   1.33991E+06,   1.33991E+06
C:/temp/Job-7.odb,Step-1,Increment      1: Step Time =    1.000,"P-7-1",          1414,       166.428,       90.8367,            0.,NA,NA,"",   768.448E+03,   810.063E+03,   810.063E+03
C:/temp/Job-7.odb,Step-1,Increment      1: Step Time =    1.000,"P-7-1",          1415,       88.1834,       34.6727,            0.,NA,NA,"",   1.19114E+06,   1.23698E+06,   1.23698E+06
C:/temp/Job-7.odb,Step-1,Increment      1: Step Time =    1.000,"P-7-1",          1416,       119.432,       166.761,            0.,NA,NA,"",   1.16643E+06,   1.19625E+06,   1.19625E+06
C:/temp/Job-7.odb,Step-1,Increment      1: Step Time =    1.000,"P-7-1",          1417,       143.472,       127.059,            0.,NA,NA,"",   1.32152E+06,   1.14128E+06,   1.14128E+06
C:/temp/Job-7.odb,Step-1,Increment      1: Step Time =    1.000,"P-7-1",          1418,       126.621,       162.644,            0.,NA,NA,"",   1.24623E+06,   1.24671E+06,   1.24671E+06
C:/temp/Job-7.odb,Step-1,Increment      1: Step Time =    1.000,"P-7-1",          1419,       104.599,       38.4427,            0.,NA,NA,"",   1.15825E+06,   1.24152E+06,   1.24152E+06
C:/temp/Job-7.odb,Step-1,Increment      1: Step Time =    1.000,"P-7-1",          1420,       162.642,       103.370,            0.,NA,NA,"",   662.529E+03,   704.978E+03,   704.978E+03
C:/temp/Job-7.odb,Step-1,Increment      1: Step Time =    1.000,"P-7-1",          1421,       131.959,       39.5944,            0.,NA,NA,"",   1.28595E+06,   1.26167E+06,   1.26167E+06
C:/temp/Job-7.odb,Step-1,Increment      1: Step Time =    1.000,"P-7-1",          1422,       35.3817,       67.3285,            0.,NA,NA,"",   892.030E+03,   907.359E+03,   907.359E+03
C:/temp/Job-7.odb,Step-1,Increment      1: Step Time =    1.000,"P-7-1",          1423,       68.1265,       145.766,            0.,NA,NA,"",   1.43649E+06,   1.37313E+06,   1.37313E+06
C:/temp/Job-7.odb,Step-1,Increment      1: Step Time =    1.000,"P-7-1",          1424,       156.292,       59.4394,            0.,NA,NA,"",   1.25247E+06,   1.17369E+06,   1.17369E+06
C:/temp/Job-7.odb,Step-1,Increment      1: Step Time =    1.000,"P-7-1",          1425,       110.102,       42.0016,            0.,NA,NA,"",   1.21326E+06,   1.29414E+06,   1.29414E+06
C:/temp/Job-7.odb,Step-1,Increment      1: Step Time =    1.000,"P-7-1",          1426,       140.558,       45.0304,            0.,NA,NA,"",   1.33572E+06,   1.27315E+06,   1.27315E+06
C:/temp/Job-7.odb,Step-1,Increment      1: Step Time =    1.000,"P-7-1",          1427,       153.516,       85.0758,            0.,NA,NA,"",   875.517E+03,   812.266E+03,   812.266E+03
C:/temp/Job-7.odb,Step-1,Increment      1: Step Time =    1.000,"P-7-1",          1428,       164.701,       80.7355,            0.,NA,NA,"",   933.255E+03,   929.918E+03,   929.918E+03
C:/temp/Job-7.odb,Step-1,Increment      1: Step Time =    1.000,"P-7-1",          1429,       44.0655,       141.774,            0.,NA,NA,"",   1.12158E+06,   1.08854E+06,   1.08854E+06
C:/temp/Job-7.odb,Step-1,Increment      1: Step Time =    1.000,"P-7-1",          1430,       145.062,       155.062,            0.,NA,NA,"",   1.30716E+06,   1.24314E+06,   1.24314E+06
C:/temp/Job-7.odb,Step-1,Increment      1: Step Time =    1.000,"P-7-1",          1431,       118.960,       40.0356,            0.,NA,NA,"",   1.24329E+06,   1.27859E+06,   1.27859E+06
C:/temp/Job-7.odb,Step-1,Increment      1: Step Time =    1.000,"P-7-1",          1432,       185.513,       47.4965,            0.,NA,NA,"",   1.00652E+06,   1.03370E+06,   1.03370E+06
C:/temp/Job-7.odb,Step-1,Increment      1: Step Time =    1.000,"P-7-1",          1433,       153.478,       185.597,            0.,NA,NA,"",   1.04313E+06,   1.03496E+06,   1.03496E+06
C:/temp/Job-7.odb,Step-1,Increment      1: Step Time =    1.000,"P-7-1",          1434,       159.605,       154.084,            0.,NA,NA,"",   1.20294E+06,   1.15685E+06,   1.15685E+06
C:/temp/Job-7.odb,Step-1,Increment      1: Step Time =    1.000,"P-7-1",          1435,       155.289,       36.9172,            0.,NA,NA,"",   1.19030E+06,   1.15082E+06,   1.15082E+06
C:/temp/Job-7.odb,Step-1,Increment      1: Step Time =    1.000,"P-7-1",          1436,       34.1448,       43.5351,            0.,NA,NA,"",   1.14452E+06,   1.14872E+06,   1.14872E+06
C:/temp/Job-7.odb,Step-1,Increment      1: Step Time =    1.000,"P-7-1",          1437,       44.8970,       164.760,            0.,NA,NA,"",   1.25350E+06,   1.22928E+06,   1.22928E+06
C:/temp/Job-7.odb,Step-1,Increment      1: Step Time =    1.000,"P-7-1",          1438,       41.1225,       27.3512,            0.,NA,NA,"",   1.25184E+06,   1.23927E+06,   1.23927E+06
C:/temp/Job-7.odb,Step-1,Increment      1: Step Time =    1.000,"P-7-1",          1439,       153.078,       172.911,            0.,NA,NA,"",   1.12735E+06,   1.10395E+06,   1.10395E+06
C:/temp/Job-7.odb,Step-1,Increment      1: Step Time =    1.000,"P-7-1",          1440,       172.851,       45.8355,            0.,NA,NA,"",   1.09390E+06,   1.08589E+06,   1.08589E+06
C:/temp/Job-7.odb,Step-1,Increment      1: Step Time =    1.000,"P-7-1",          1441,       153.302,       96.2100,            0.,NA,NA,"",   556.273E+03,   558.010E+03,   558.010E+03
C:/temp/Job-7.odb,Step-1,Increment      1: Step Time =    1.000,"P-7-1",          1442,       162.745,       93.0454,            0.,NA,NA,"",   708.328E+03,   743.047E+03,   743.047E+03
C:/temp/Job-7.odb,Step-1,Increment      1: Step Time =    1.000,"P-7-1",          1443,       93.9110,       37.3906,            0.,NA,NA,"",   1.17793E+06,   1.24748E+06,   1.24748E+06
C:/temp/Job-7.odb,Step-1,Increment      1: Step Time =    1.000,"P-7-1",          1444,       150.958,       71.6327,            0.,NA,NA,"",   1.23182E+06,   1.10234E+06,   1.10234E+06
C:/temp/Job-7.odb,Step-1,Increment      1: Step Time =    1.000,"P-7-1",          1445,       35.4922,       165.226,            0.,NA,NA,"",   1.20971E+06,   1.20867E+06,   1.20867E+06
C:/temp/Job-7.odb,Step-1,Increment      1: Step Time =    1.000,"P-7-1",          1446,       163.407,       161.989,            0.,NA,NA,"",   1.14348E+06,   1.11622E+06,   1.11622E+06
C:/temp/Job-7.odb,Step-1,Increment      1: Step Time =    1.000,"P-7-1",          1447,       33.6066,       34.6014,            0.,NA,NA,"",   1.20197E+06,   1.20597E+06,   1.20597E+06
C:/temp/Job-7.odb,Step-1,Increment      1: Step Time =    1.000,"P-7-1",          1448,       163.564,       35.0836,            0.,NA,NA,"",   1.13156E+06,   1.10724E+06,   1.10724E+06
C:/temp/Job-7.odb,Step-1,Increment      1: Step Time =    1.000,"P-7-1",          1449,       35.5657,       52.9150,            0.,NA,NA,"",   1.08290E+06,   1.08418E+06,   1.08418E+06
C:/temp/Job-7.odb,Step-1,Increment      1: Step Time =    1.000,"P-7-1",          1450,       53.1765,       72.5844,            0.,NA,NA,"",   1.04397E+06,   957.798E+03,   957.798E+03
C:/temp/Job-7.odb,Step-1,Increment      1: Step Time =    1.000,"P-7-1",          1451,       37.5131,       81.3289,            0.,NA,NA,"",   664.058E+03,   696.688E+03,   696.688E+03
C:/temp/Job-7.odb,Step-1,Increment      1: Step Time =    1.000,"P-7-1",          1452,       52.9815,       140.616,            0.,NA,NA,"",   1.23614E+06,   1.16511E+06,   1.16511E+06
C:/temp/Job-7.odb,Step-1,Increment      1: Step Time =    1.000,"P-7-1",          1453,       149.671,       49.2351,            0.,NA,NA,"",   1.30741E+06,   1.23120E+06,   1.23120E+06
C:/temp/Job-7.odb,Step-1,Increment      1: Step Time =    1.000,"P-7-1",          1454,       42.7702,       131.585,            0.,NA,NA,"",   957.982E+03,   938.260E+03,   938.260E+03
C:/temp/Job-7.odb,Step-1,Increment      1: Step Time =    1.000,"P-7-1",          1455,       151.835,       143.629,            0.,NA,NA,"",   1.30840E+06,   1.21698E+06,   1.21698E+06
C:/temp/Job-7.odb,Step-1,Increment      1: Step Time =    1.000,"P-7-1",          1456,       161.688,       75.8906,            0.,NA,NA,"",   1.03353E+06,   993.799E+03,   993.799E+03
C:/temp/Job-7.odb,Step-1,Increment      1: Step Time =    1.000,"P-7-1",          1457,       81.9134,       160.682,            0.,NA,NA,"",   1.28314E+06,   1.31026E+06,   1.31026E+06
C:/temp/Job-7.odb,Step-1,Increment      1: Step Time =    1.000,"P-7-1",          1458,       73.6282,       153.433,            0.,NA,NA,"",   1.39554E+06,   1.37548E+06,   1.37548E+06
C:/temp/Job-7.odb,Step-1,Increment      1: Step Time =    1.000,"P-7-1",          1459,       48.7038,       69.3277,            0.,NA,NA,"",   1.03468E+06,   977.655E+03,   977.655E+03
C:/temp/Job-7.odb,Step-1,Increment      1: Step Time =    1.000,"P-7-1",          1460,       25.5393,       9.89114,            0.,NA,NA,"",   1.31133E+06,   1.31634E+06,   1.31634E+06
C:/temp/Job-7.odb,Step-1,Increment      1: Step Time =    1.000,"P-7-1",          1461,       10.0445,       174.092,            0.,NA,NA,"",   1.12882E+06,   1.21738E+06,   1.21738E+06
C:/temp/Job-7.odb,Step-1,Increment      1: Step Time =    1.000,"P-7-1",          1462,       191.228,       29.7503,            0.,NA,NA,"",   998.110E+03,   1.00873E+06,   1.00873E+06
C:/temp/Job-7.odb,Step-1,Increment      1: Step Time =    1.000,"P-7-1",          1463,       170.434,       191.462,            0.,NA,NA,"",   1.01183E+06,   1.01078E+06,   1.01078E+06
C:/temp/Job-7.odb,Step-1,Increment      1: Step Time =    1.000,"P-7-1",          1464,       141.766,       74.0269,            0.,NA,NA,"",   1.31853E+06,   1.12481E+06,   1.12481E+06
C:/temp/Job-7.odb,Step-1,Increment      1: Step Time =    1.000,"P-7-1",          1465,       119.499,       44.7065,            0.,NA,NA,"",   1.30712E+06,   1.34209E+06,   1.34209E+06
C:/temp/Job-7.odb,Step-1,Increment      1: Step Time =    1.000,"P-7-1",          1466,       35.7219,       160.678,            0.,NA,NA,"",   1.18874E+06,   1.18698E+06,   1.18698E+06
C:/temp/Job-7.odb,Step-1,Increment      1: Step Time =    1.000,"P-7-1",          1467,       158.501,       164.585,            0.,NA,NA,"",   1.15817E+06,   1.12687E+06,   1.12687E+06
C:/temp/Job-7.odb,Step-1,Increment      1: Step Time =    1.000,"P-7-1",          1468,       38.1500,       33.4011,            0.,NA,NA,"",   1.22923E+06,   1.22103E+06,   1.22103E+06
C:/temp/Job-7.odb,Step-1,Increment      1: Step Time =    1.000,"P-7-1",          1469,       165.217,       40.0544,            0.,NA,NA,"",   1.13854E+06,   1.11293E+06,   1.11293E+06
C:/temp/Job-7.odb,Step-1,Increment      1: Step Time =    1.000,"P-7-1",          1470,       126.784,       148.755,            0.,NA,NA,"",   1.43250E+06,   1.40560E+06,   1.40560E+06
C:/temp/Job-7.odb,Step-1,Increment      1: Step Time =    1.000,"P-7-1",          1471,       145.432,       49.3728,            0.,NA,NA,"",   1.34006E+06,   1.26017E+06,   1.26017E+06
C:/temp/Job-7.odb,Step-1,Increment      1: Step Time =    1.000,"P-7-1",          1472,       141.478,       35.1525,            0.,NA,NA,"",   1.22963E+06,   1.19318E+06,   1.19318E+06
C:/temp/Job-7.odb,Step-1,Increment      1: Step Time =    1.000,"P-7-1",          1473,       56.4622,       168.855,            0.,NA,NA,"",   1.28205E+06,   1.25066E+06,   1.25066E+06
C:/temp/Job-7.odb,Step-1,Increment      1: Step Time =    1.000,"P-7-1",          1474,       164.949,       139.956,            0.,NA,NA,"",   1.15751E+06,   1.11673E+06,   1.11673E+06
C:/temp/Job-7.odb,Step-1,Increment      1: Step Time =    1.000,"P-7-1",          1475,       37.0239,       29.2302,            0.,NA,NA,"",   1.23927E+06,   1.23420E+06,   1.23420E+06
C:/temp/Job-7.odb,Step-1,Increment      1: Step Time =    1.000,"P-7-1",          1476,       30.7581,       165.485,            0.,NA,NA,"",   1.18661E+06,   1.19954E+06,   1.19954E+06
C:/temp/Job-7.odb,Step-1,Increment      1: Step Time =    1.000,"P-7-1",          1477,       168.856,       36.8382,            0.,NA,NA,"",   1.10371E+06,   1.08859E+06,   1.08859E+06
C:/temp/Job-7.odb,Step-1,Increment      1: Step Time =    1.000,"P-7-1",          1478,       162.262,       167.118,            0.,NA,NA,"",   1.12693E+06,   1.10361E+06,   1.10361E+06
C:/temp/Job-7.odb,Step-1,Increment      1: Step Time =    1.000,"P-7-1",          1479,       38.2349,       43.2675,            0.,NA,NA,"",   1.18004E+06,   1.17022E+06,   1.17022E+06
C:/temp/Job-7.odb,Step-1,Increment      1: Step Time =    1.000,"P-7-1",          1480,       78.8358,       163.173,            0.,NA,NA,"",   1.27335E+06,   1.28533E+06,   1.28533E+06
C:/temp/Job-7.odb,Step-1,Increment      1: Step Time =    1.000,"P-7-1",          1481,       47.4082,       85.0686,            0.,NA,NA,"",   624.978E+03,   612.146E+03,   612.146E+03
C:/temp/Job-7.odb,Step-1,Increment      1: Step Time =    1.000,"P-7-1",          1482,       128.880,       35.1223,            0.,NA,NA,"",   1.22700E+06,   1.22132E+06,   1.22132E+06
C:/temp/Job-7.odb,Step-1,Increment      1: Step Time =    1.000,"P-7-1",          1483,       68.9319,       165.799,            0.,NA,NA,"",   1.29194E+06,   1.27147E+06,   1.27147E+06
C:/temp/Job-7.odb,Step-1,Increment      1: Step Time =    1.000,"P-7-1",          1484,       166.304,       130.654,            0.,NA,NA,"",   1.08458E+06,   1.05952E+06,   1.05952E+06
C:/temp/Job-7.odb,Step-1,Increment      1: Step Time =    1.000,"P-7-1",          1485,       84.2684,       36.2012,            0.,NA,NA,"",   1.23250E+06,   1.26518E+06,   1.26518E+06
C:/temp/Job-7.odb,Step-1,Increment      1: Step Time =    1.000,"P-7-1",          1486,       47.9103,       112.679,            0.,NA,NA,"",   563.547E+03,   558.065E+03,   558.065E+03
C:/temp/Job-7.odb,Step-1,Increment      1: Step Time =    1.000,"P-7-1",          1487,       157.502,       68.9114,            0.,NA,NA,"",   1.18353E+06,   1.10003E+06,   1.10003E+06
C:/temp/Job-7.odb,Step-1,Increment      1: Step Time =    1.000,"P-7-1",          1488,       34.1129,       79.3559,            0.,NA,NA,"",   682.740E+03,   724.865E+03,   724.865E+03
C:/temp/Job-7.odb,Step-1,Increment      1: Step Time =    1.000,"P-7-1",          1489,       118.770,       35.4210,            0.,NA,NA,"",   1.18832E+06,   1.22068E+06,   1.22068E+06
C:/temp/Job-7.odb,Step-1,Increment      1: Step Time =    1.000,"P-7-1",          1490,       169.538,       123.204,            0.,NA,NA,"",   975.483E+03,   985.157E+03,   985.157E+03
C:/temp/Job-7.odb,Step-1,Increment      1: Step Time =    1.000,"P-7-1",          1491,       96.2641,       46.8859,            0.,NA,NA,"",   1.27350E+06,   1.38092E+06,   1.38092E+06
C:/temp/Job-7.odb,Step-1,Increment      1: Step Time =    1.000,"P-7-1",          1492,       58.3901,       92.1600,            0.,NA,NA,"",   407.670E+03,   195.290E+03,   195.290E+03
C:/temp/Job-7.odb,Step-1,Increment      1: Step Time =    1.000,"P-7-1",          1493,       144.221,       101.351,            0.,NA,NA,"",   380.355E+03,   208.822E+03,   208.822E+03
C:/temp/Job-7.odb,Step-1,Increment      1: Step Time =    1.000,"P-7-1",          1494,       109.373,       37.0821,            0.,NA,NA,"",   1.15861E+06,   1.22798E+06,   1.22798E+06
C:/temp/Job-7.odb,Step-1,Increment      1: Step Time =    1.000,"P-7-1",          1495,       164.495,       108.057,            0.,NA,NA,"",   740.512E+03,   776.587E+03,   776.587E+03
C:/temp/Job-7.odb,Step-1,Increment      1: Step Time =    1.000,"P-7-1",          1496,       142.321,       122.666,            0.,NA,NA,"",   1.22440E+06,   1.03042E+06,   1.03042E+06
C:/temp/Job-7.odb,Step-1,Increment      1: Step Time =    1.000,"P-7-1",          1497,       41.9642,       156.079,            0.,NA,NA,"",   1.20894E+06,   1.18764E+06,   1.18764E+06
C:/temp/Job-7.odb,Step-1,Increment      1: Step Time =    1.000,"P-7-1",          1498,       144.773,       130.591,            0.,NA,NA,"",   1.36577E+06,   1.20186E+06,   1.20186E+06
C:/temp/Job-7.odb,Step-1,Increment      1: Step Time =    1.000,"P-7-1",          1499,       189.218,       56.0612,            0.,NA,NA,"",   966.378E+03,   1.02058E+06,   1.02058E+06
C:/temp/Job-7.odb,Step-1,Increment      1: Step Time =    1.000,"P-7-1",          1500,       58.2724,       12.6281,            0.,NA,NA,"",   1.17206E+06,   1.16403E+06,   1.16403E+06
C:/temp/Job-7.odb,Step-1,Increment      1: Step Time =    1.000,"P-7-1",          1501,       144.766,       189.335,            0.,NA,NA,"",   1.01116E+06,   1.00611E+06,   1.00611E+06
C:/temp/Job-7.odb,Step-1,Increment      1: Step Time =    1.000,"P-7-1",          1502,       12.6952,       141.639,            0.,NA,NA,"",   837.096E+03,   916.722E+03,   916.722E+03
C:/temp/Job-7.odb,Step-1,Increment      1: Step Time =    1.000,"P-7-1",          1503,       89.4298,       39.1819,            0.,NA,NA,"",   1.22459E+06,   1.28426E+06,   1.28426E+06
C:/temp/Job-7.odb,Step-1,Increment      1: Step Time =    1.000,"P-7-1",          1504,       36.9674,       72.7907,            0.,NA,NA,"",   812.153E+03,   827.545E+03,   827.545E+03
C:/temp/Job-7.odb,Step-1,Increment      1: Step Time =    1.000,"P-7-1",          1505,       57.2799,       145.601,            0.,NA,NA,"",   1.31765E+06,   1.24461E+06,   1.24461E+06
C:/temp/Job-7.odb,Step-1,Increment      1: Step Time =    1.000,"P-7-1",          1506,       152.858,       150.400,            0.,NA,NA,"",   1.27877E+06,   1.20803E+06,   1.20803E+06
C:/temp/Job-7.odb,Step-1,Increment      1: Step Time =    1.000,"P-7-1",          1507,       45.5142,       152.657,            0.,NA,NA,"",   1.22110E+06,   1.18757E+06,   1.18757E+06
C:/temp/Job-7.odb,Step-1,Increment      1: Step Time =    1.000,"P-7-1",          1508,       47.7547,       141.407,            0.,NA,NA,"",   1.16601E+06,   1.11746E+06,   1.11746E+06
C:/temp/Job-7.odb,Step-1,Increment      1: Step Time =    1.000,"P-7-1",          1509,       141.340,       40.4640,            0.,NA,NA,"",   1.28757E+06,   1.23833E+06,   1.23833E+06
C:/temp/Job-7.odb,Step-1,Increment      1: Step Time =    1.000,"P-7-1",          1510,       43.8274,       161.530,            0.,NA,NA,"",   1.24230E+06,   1.21868E+06,   1.21868E+06
C:/temp/Job-7.odb,Step-1,Increment      1: Step Time =    1.000,"P-7-1",          1511,       154.932,       155.289,            0.,NA,NA,"",   1.23514E+06,   1.18101E+06,   1.18101E+06
C:/temp/Job-7.odb,Step-1,Increment      1: Step Time =    1.000,"P-7-1",          1512,       155.423,       41.4759,            0.,NA,NA,"",   1.21757E+06,   1.16900E+06,   1.16900E+06
C:/temp/Job-7.odb,Step-1,Increment      1: Step Time =    1.000,"P-7-1",          1513,       49.6506,       73.6579,            0.,NA,NA,"",   959.251E+03,   900.746E+03,   900.746E+03
C:/temp/Job-7.odb,Step-1,Increment      1: Step Time =    1.000,"P-7-1",          1514,       161.210,       83.4222,            0.,NA,NA,"",   897.119E+03,   882.248E+03,   882.248E+03
C:/temp/Job-7.odb,Step-1,Increment      1: Step Time =    1.000,"P-7-1",          1515,       55.0031,       76.8944,            0.,NA,NA,"",   958.762E+03,   859.249E+03,   859.249E+03
C:/temp/Job-7.odb,Step-1,Increment      1: Step Time =    1.000,"P-7-1",          1516,       69.4207,       149.728,            0.,NA,NA,"",   1.41823E+06,   1.37206E+06,   1.37206E+06
C:/temp/Job-7.odb,Step-1,Increment      1: Step Time =    1.000,"P-7-1",          1517,       149.366,       131.859,            0.,NA,NA,"",   1.30299E+06,   1.16864E+06,   1.16864E+06
C:/temp/Job-7.odb,Step-1,Increment      1: Step Time =    1.000,"P-7-1",          1518,       156.448,       83.8049,            0.,NA,NA,"",   901.429E+03,   853.306E+03,   853.306E+03
C:/temp/Job-7.odb,Step-1,Increment      1: Step Time =    1.000,"P-7-1",          1519,       147.616,       75.5061,            0.,NA,NA,"",   1.19945E+06,   1.04424E+06,   1.04424E+06
C:/temp/Job-7.odb,Step-1,Increment      1: Step Time =    1.000,"P-7-1",          1520,       48.1896,       10.1495,            0.,NA,NA,"",   1.20761E+06,   1.20214E+06,   1.20214E+06
C:/temp/Job-7.odb,Step-1,Increment      1: Step Time =    1.000,"P-7-1",          1521,       190.157,       48.2673,            0.,NA,NA,"",   980.186E+03,   1.01870E+06,   1.01870E+06
C:/temp/Job-7.odb,Step-1,Increment      1: Step Time =    1.000,"P-7-1",          1522,       10.0743,       151.687,            0.,NA,NA,"",   914.026E+03,   1.00204E+06,   1.00204E+06
C:/temp/Job-7.odb,Step-1,Increment      1: Step Time =    1.000,"P-7-1",          1523,       152.262,       190.308,            0.,NA,NA,"",   1.01574E+06,   1.01134E+06,   1.01134E+06
C:/temp/Job-7.odb,Step-1,Increment      1: Step Time =    1.000,"P-7-1",          1524,       46.4242,       138.041,            0.,NA,NA,"",   1.11326E+06,   1.06833E+06,   1.06833E+06
C:/temp/Job-7.odb,Step-1,Increment      1: Step Time =    1.000,"P-7-1",          1525,       126.642,       39.0216,            0.,NA,NA,"",   1.26550E+06,   1.26474E+06,   1.26474E+06
C:/temp/Job-7.odb,Step-1,Increment      1: Step Time =    1.000,"P-7-1",          1526,       33.3602,       70.8662,            0.,NA,NA,"",   816.248E+03,   843.776E+03,   843.776E+03
C:/temp/Job-7.odb,Step-1,Increment      1: Step Time =    1.000,"P-7-1",          1527,       161.415,       158.179,            0.,NA,NA,"",   1.17319E+06,   1.13715E+06,   1.13715E+06
C:/temp/Job-7.odb,Step-1,Increment      1: Step Time =    1.000,"P-7-1",          1528,       159.500,       36.2653,            0.,NA,NA,"",   1.16144E+06,   1.12903E+06,   1.12903E+06
C:/temp/Job-7.odb,Step-1,Increment      1: Step Time =    1.000,"P-7-1",          1529,       34.1449,       38.9586,            0.,NA,NA,"",   1.17814E+06,   1.18141E+06,   1.18141E+06
C:/temp/Job-7.odb,Step-1,Increment      1: Step Time =    1.000,"P-7-1",          1530,       40.0823,       166.084,            0.,NA,NA,"",   1.23391E+06,    1.2215E+06,    1.2215E+06
C:/temp/Job-7.odb,Step-1,Increment      1: Step Time =    1.000,"P-7-1",          1531,       154.251,       92.4259,            0.,NA,NA,"",   649.577E+03,   639.175E+03,   639.175E+03
C:/temp/Job-7.odb,Step-1,Increment      1: Step Time =    1.000,"P-7-1",          1532,       160.477,       99.0567,            0.,NA,NA,"",   624.481E+03,   663.306E+03,   663.306E+03
C:/temp/Job-7.odb,Step-1,Increment      1: Step Time =    1.000,"P-7-1",          1533,       99.8055,       40.1885,            0.,NA,NA,"",   1.17788E+06,   1.26777E+06,   1.26777E+06
C:/temp/Job-7.odb,Step-1,Increment      1: Step Time =    1.000,"P-7-1",          1534,       45.8225,       74.1057,            0.,NA,NA,"",   889.944E+03,   858.545E+03,   858.545E+03
C:/temp/Job-7.odb,Step-1,Increment      1: Step Time =    1.000,"P-7-1",          1535,       161.256,       113.671,            0.,NA,NA,"",   834.537E+03,   832.359E+03,   832.359E+03
C:/temp/Job-7.odb,Step-1,Increment      1: Step Time =    1.000,"P-7-1",          1536,       114.129,       36.0917,            0.,NA,NA,"",   1.17083E+06,   1.22217E+06,   1.22217E+06
C:/temp/Job-7.odb,Step-1,Increment      1: Step Time =    1.000,"P-7-1",          1537,       64.6602,       164.819,            0.,NA,NA,"",   1.30589E+06,   1.27502E+06,   1.27502E+06
C:/temp/Job-7.odb,Step-1,Increment      1: Step Time =    1.000,"P-7-1",          1538,       164.786,       135.043,            0.,NA,NA,"",   1.13314E+06,   1.09452E+06,   1.09452E+06
C:/temp/Job-7.odb,Step-1,Increment      1: Step Time =    1.000,"P-7-1",          1539,       137.485,       40.4054,            0.,NA,NA,"",   1.29587E+06,   1.25283E+06,   1.25283E+06
C:/temp/Job-7.odb,Step-1,Increment      1: Step Time =    1.000,"P-7-1",          1540,       148.713,       99.2212,            0.,NA,NA,"",   435.512E+03,   415.961E+03,   415.961E+03
C:/temp/Job-7.odb,Step-1,Increment      1: Step Time =    1.000,"P-7-1",          1541,       73.7529,       163.970,            0.,NA,NA,"",   1.29105E+06,   1.28333E+06,   1.28333E+06
C:/temp/Job-7.odb,Step-1,Increment      1: Step Time =    1.000,"P-7-1",          1542,       162.002,       128.085,            0.,NA,NA,"",   1.08978E+06,   1.04352E+06,   1.04352E+06
C:/temp/Job-7.odb,Step-1,Increment      1: Step Time =    1.000,"P-7-1",          1543,       38.6716,       77.9857,            0.,NA,NA,"",   736.245E+03,   754.850E+03,   754.850E+03
C:/temp/Job-7.odb,Step-1,Increment      1: Step Time =    1.000,"P-7-1",          1544,       54.9685,       164.474,            0.,NA,NA,"",   1.29413E+06,   1.25715E+06,   1.25715E+06
C:/temp/Job-7.odb,Step-1,Increment      1: Step Time =    1.000,"P-7-1",          1545,       146.568,       36.6333,            0.,NA,NA,"",   1.22906E+06,   1.18589E+06,   1.18589E+06
C:/temp/Job-7.odb,Step-1,Increment      1: Step Time =    1.000,"P-7-1",          1546,       161.745,       145.017,            0.,NA,NA,"",   1.20363E+06,   1.15130E+06,   1.15130E+06
C:/temp/Job-7.odb,Step-1,Increment      1: Step Time =    1.000,"P-7-1",          1547,       154.124,       146.672,            0.,NA,NA,"",   1.28045E+06,   1.20348E+06,   1.20348E+06
C:/temp/Job-7.odb,Step-1,Increment      1: Step Time =    1.000,"P-7-1",          1548,       153.316,       136.646,            0.,NA,NA,"",   1.28352E+06,   1.18070E+06,   1.18070E+06
C:/temp/Job-7.odb,Step-1,Increment      1: Step Time =    1.000,"P-7-1",          1549,       46.7926,       79.2057,            0.,NA,NA,"",   783.316E+03,   755.590E+03,   755.590E+03
C:/temp/Job-7.odb,Step-1,Increment      1: Step Time =    1.000,"P-7-1",          1550,       144.472,       71.8818,            0.,NA,NA,"",   1.32449E+06,   1.15012E+06,   1.15012E+06
C:/temp/Job-7.odb,Step-1,Increment      1: Step Time =    1.000,"P-7-1",          1551,       163.948,       87.0852,            0.,NA,NA,"",   822.321E+03,   839.687E+03,   839.687E+03
C:/temp/Job-7.odb,Step-1,Increment      1: Step Time =    1.000,"P-7-1",          1552,       142.720,       118.205,            0.,NA,NA,"",   1.07809E+06,   885.087E+03,   885.087E+03
C:/temp/Job-7.odb,Step-1,Increment      1: Step Time =    1.000,"P-7-1",          1553,       143.452,       111.010,            0.,NA,NA,"",   749.066E+03,   585.623E+03,   585.623E+03
C:/temp/Job-7.odb,Step-1,Increment      1: Step Time =    1.000,"P-7-1",          1554,       38.4531,       47.6703,            0.,NA,NA,"",   1.15127E+06,   1.14105E+06,   1.14105E+06
C:/temp/Job-7.odb,Step-1,Increment      1: Step Time =    1.000,"P-7-1",          1555,       152.874,       77.0964,            0.,NA,NA,"",   1.08487E+06,   983.890E+03,   983.890E+03
C:/temp/Job-7.odb,Step-1,Increment      1: Step Time =    1.000,"P-7-1",          1556,       150.860,       45.3798,            0.,NA,NA,"",   1.28142E+06,   1.21470E+06,   1.21470E+06
C:/temp/Job-7.odb,Step-1,Increment      1: Step Time =    1.000,"P-7-1",          1557,       146.567,       122.656,            0.,NA,NA,"",   1.16280E+06,   1.00606E+06,   1.00606E+06
C:/temp/Job-7.odb,Step-1,Increment      1: Step Time =    1.000,"P-7-1",          1558,       157.300,       91.2549,            0.,NA,NA,"",   700.854E+03,   699.492E+03,   699.492E+03
C:/temp/Job-7.odb,Step-1,Increment      1: Step Time =    1.000,"P-7-1",          1559,       143.656,       114.356,            0.,NA,NA,"",   917.416E+03,   739.795E+03,   739.795E+03
C:/temp/Job-7.odb,Step-1,Increment      1: Step Time =    1.000,"P-7-1",          1560,       147.541,       110.342,            0.,NA,NA,"",   718.721E+03,   617.833E+03,   617.833E+03
C:/temp/Job-7.odb,Step-1,Increment      1: Step Time =    1.000,"P-7-1",          1561,       70.4422,       152.909,            0.,NA,NA,"",   1.39784E+06,   1.36267E+06,   1.36267E+06
C:/temp/Job-7.odb,Step-1,Increment      1: Step Time =    1.000,"P-7-1",          1562,       161.176,       119.456,            0.,NA,NA,"",   955.624E+03,   927.763E+03,   927.763E+03
C:/temp/Job-7.odb,Step-1,Increment      1: Step Time =    1.000,"P-7-1",          1563,       60.2564,       162.459,            0.,NA,NA,"",   1.31465E+06,   1.27530E+06,   1.27530E+06
C:/temp/Job-7.odb,Step-1,Increment      1: Step Time =    1.000,"P-7-1",          1564,       160.322,       140.174,            0.,NA,NA,"",   1.21055E+06,   1.14729E+06,   1.14729E+06
C:/temp/Job-7.odb,Step-1,Increment      1: Step Time =    1.000,"P-7-1",          1565,       67.4373,       161.738,            0.,NA,NA,"",   1.32605E+06,   1.29696E+06,   1.29696E+06
C:/temp/Job-7.odb,Step-1,Increment      1: Step Time =    1.000,"P-7-1",          1566,       156.006,       101.113,            0.,NA,NA,"",   561.436E+03,   584.732E+03,   584.732E+03
C:/temp/Job-7.odb,Step-1,Increment      1: Step Time =    1.000,"P-7-1",          1567,       48.8362,       162.580,            0.,NA,NA,"",   1.27247E+06,   1.23921E+06,   1.23921E+06
C:/temp/Job-7.odb,Step-1,Increment      1: Step Time =    1.000,"P-7-1",          1568,       151.041,       37.1301,            0.,NA,NA,"",   1.21495E+06,   1.17111E+06,   1.17111E+06
C:/temp/Job-7.odb,Step-1,Increment      1: Step Time =    1.000,"P-7-1",          1569,       162.494,       149.027,            0.,NA,NA,"",   1.18891E+06,   1.14511E+06,   1.14511E+06
C:/temp/Job-7.odb,Step-1,Increment      1: Step Time =    1.000,"P-7-1",          1570,       155.854,       141.432,            0.,NA,NA,"",   1.26433E+06,   1.18255E+06,   1.18255E+06
C:/temp/Job-7.odb,Step-1,Increment      1: Step Time =    1.000,"P-7-1",          1571,       152.340,       110.250,            0.,NA,NA,"",   723.476E+03,   677.963E+03,   677.963E+03
C:/temp/Job-7.odb,Step-1,Increment      1: Step Time =    1.000,"P-7-1",          1572,       57.8523,       150.513,            0.,NA,NA,"",   1.33303E+06,   1.27061E+06,   1.27061E+06
C:/temp/Job-7.odb,Step-1,Increment      1: Step Time =    1.000,"P-7-1",          1573,       39.3776,       75.0334,            0.,NA,NA,"",   798.206E+03,   806.124E+03,   806.124E+03
C:/temp/Job-7.odb,Step-1,Increment      1: Step Time =    1.000,"P-7-1",          1574,       157.126,       80.3802,            0.,NA,NA,"",   977.501E+03,   919.537E+03,   919.537E+03
C:/temp/Job-7.odb,Step-1,Increment      1: Step Time =    1.000,"P-7-1",          1575,       145.636,       45.1355,            0.,NA,NA,"",   1.31065E+06,   1.24376E+06,   1.24376E+06
C:/temp/Job-7.odb,Step-1,Increment      1: Step Time =    1.000,"P-7-1",          1576,       50.4210,       155.144,            0.,NA,NA,"",   1.27562E+06,   1.23169E+06,   1.23169E+06
C:/temp/Job-7.odb,Step-1,Increment      1: Step Time =    1.000,"P-7-1",          1577,       65.4188,       151.883,            0.,NA,NA,"",   1.38972E+06,   1.33495E+06,   1.33495E+06
C:/temp/Job-7.odb,Step-1,Increment      1: Step Time =    1.000,"P-7-1",          1578,       47.0447,       148.881,            0.,NA,NA,"",   1.21634E+06,   1.17523E+06,   1.17523E+06
C:/temp/Job-7.odb,Step-1,Increment      1: Step Time =    1.000,"P-7-1",          1579,       154.824,       46.2023,            0.,NA,NA,"",   1.25111E+06,   1.18959E+06,   1.18959E+06
C:/temp/Job-7.odb,Step-1,Increment      1: Step Time =    1.000,"P-7-1",          1580,       154.414,       128.891,            0.,NA,NA,"",   1.18942E+06,   1.08746E+06,   1.08746E+06
C:/temp/Job-7.odb,Step-1,Increment      1: Step Time =    1.000,"P-7-1",          1581,       149.518,       122.391,            0.,NA,NA,"",   1.12653E+06,   993.522E+03,   993.522E+03
C:/temp/Job-7.odb,Step-1,Increment      1: Step Time =    1.000,"P-7-1",          1582,       151.651,       104.398,            0.,NA,NA,"",   545.096E+03,   533.016E+03,   533.016E+03
C:/temp/Job-7.odb,Step-1,Increment      1: Step Time =    1.000,"P-7-1",          1583,       42.5114,       78.9101,            0.,NA,NA,"",   745.590E+03,   744.887E+03,   744.887E+03
C:/temp/Job-7.odb,Step-1,Increment      1: Step Time =    1.000,"P-7-1",          1584,       61.3451,       154.770,            0.,NA,NA,"",   1.35641E+06,   1.30214E+06,   1.30214E+06
C:/temp/Job-7.odb,Step-1,Increment      1: Step Time =    1.000,"P-7-1",          1585,       151.490,       124.991,            0.,NA,NA,"",   1.15946E+06,   1.03833E+06,   1.03833E+06
C:/temp/Job-7.odb,Step-1,Increment      1: Step Time =    1.000,"P-7-1",          1586,       150.584,       119.537,            0.,NA,NA,"",   1.04651E+06,   927.674E+03,   927.674E+03
C:/temp/Job-7.odb,Step-1,Increment      1: Step Time =    1.000,"P-7-1",          1587,       68.0529,       155.541,            0.,NA,NA,"",   1.37644E+06,   1.33783E+06,   1.33783E+06
C:/temp/Job-7.odb,Step-1,Increment      1: Step Time =    1.000,"P-7-1",          1588,       154.195,       121.606,            0.,NA,NA,"",   1.05616E+06,   965.190E+03,   965.190E+03
C:/temp/Job-7.odb,Step-1,Increment      1: Step Time =    1.000,"P-7-1",          1589,       158.630,       105.042,            0.,NA,NA,"",   638.641E+03,   662.716E+03,   662.716E+03
C:/temp/Job-7.odb,Step-1,Increment      1: Step Time =    1.000,"P-7-1",          1590,       55.3641,       154.621,            0.,NA,NA,"",   1.31425E+06,   1.26123E+06,   1.26123E+06
C:/temp/Job-7.odb,Step-1,Increment      1: Step Time =    1.000,"P-7-1",          1591,       151.581,       115.475,            0.,NA,NA,"",   911.137E+03,   819.462E+03,   819.462E+03
C:/temp/Job-7.odb,Step-1,Increment      1: Step Time =    1.000,"P-7-1",          1592,       4.98149,       4.97724,            0.,NA,NA,"",   1.58766E+06,   1.64961E+06,   1.64961E+06
C:/temp/Job-7.odb,Step-1,Increment      1: Step Time =    1.000,"P-7-1",          1593,       88.8590,       129.960,            0.,NA,NA,"",   2.12169E+06,   2.19371E+06,   2.19371E+06
C:/temp/Job-7.odb,Step-1,Increment      1: Step Time =    1.000,"P-7-1",          1594,       93.9523,       131.064,            0.,NA,NA,"",   2.42403E+06,   2.51827E+06,   2.51827E+06
C:/temp/Job-7.odb,Step-1,Increment      1: Step Time =    1.000,"P-7-1",          1595,       121.232,       123.985,            0.,NA,NA,"",   1.41747E+06,   1.39868E+06,   1.39868E+06
C:/temp/Job-7.odb,Step-1,Increment      1: Step Time =    1.000,"P-7-1",          1596,       131.961,       91.7713,            0.,NA,NA,"",   708.398E+03,  -601.641E+03,  -601.641E+03
C:/temp/Job-7.odb,Step-1,Increment      1: Step Time =    1.000,"P-7-1",          1597,       97.0948,       67.5897,            0.,NA,NA,"",   2.38876E+06,   2.51010E+06,   2.51010E+06
C:/temp/Job-7.odb,Step-1,Increment      1: Step Time =    1.000,"P-7-1",          1598,       73.4549,       81.2948,            0.,NA,NA,"",   729.123E+03,   614.020E+03,   614.020E+03
C:/temp/Job-7.odb,Step-1,Increment      1: Step Time =    1.000,"P-7-1",          1599,       43.9863,       9.60599,            0.,NA,NA,"",   1.22441E+06,   1.22037E+06,   1.22037E+06
C:/temp/Job-7.odb,Step-1,Increment      1: Step Time =    1.000,"P-7-1",          1600,       9.99536,       25.7801,            0.,NA,NA,"",   1.13166E+06,   1.22032E+06,   1.22032E+06
C:/temp/Job-7.odb,Step-1,Increment      1: Step Time =    1.000,"P-7-1",          1601,       190.971,       20.1409,            0.,NA,NA,"",   1.00180E+06,   1.00557E+06,   1.00557E+06
C:/temp/Job-7.odb,Step-1,Increment      1: Step Time =    1.000,"P-7-1",          1602,       179.978,       191.083,            0.,NA,NA,"",   1.00605E+06,   1.00645E+06,   1.00645E+06
C:/temp/Job-7.odb,Step-1,Increment      1: Step Time =    1.000,"P-7-1",          1603,       108.825,       140.649,            0.,NA,NA,"",   1.58422E+06,   1.72148E+06,   1.72148E+06
C:/temp/Job-7.odb,Step-1,Increment      1: Step Time =    1.000,"P-7-1",          1604,       60.5767,       96.5546,            0.,NA,NA,"",   274.911E+03,  -27.5190E+03,  -27.5190E+03
C:/temp/Job-7.odb,Step-1,Increment      1: Step Time =    1.000,"P-7-1",          1605,       59.9821,       85.6277,            0.,NA,NA,"",   691.237E+03,   546.015E+03,   546.015E+03
C:/temp/Job-7.odb,Step-1,Increment      1: Step Time =    1.000,"P-7-1",          1606,       134.763,       84.9939,            0.,NA,NA,"",   975.488E+03,   497.086E+03,   497.086E+03
C:/temp/Job-7.odb,Step-1,Increment      1: Step Time =    1.000,"P-7-1",          1607,       70.3755,       77.4885,            0.,NA,NA,"",   1.11518E+06,   953.007E+03,   953.007E+03
C:/temp/Job-7.odb,Step-1,Increment      1: Step Time =    1.000,"P-7-1",          1608,       9.55264,       155.871,            0.,NA,NA,"",   946.984E+03,   1.03807E+06,   1.03807E+06
C:/temp/Job-7.odb,Step-1,Increment      1: Step Time =    1.000,"P-7-1",          1609,       140.101,       103.340,            0.,NA,NA,"",   412.284E+03,  -126.487E+03,  -126.487E+03
C:/temp/Job-7.odb,Step-1,Increment      1: Step Time =    1.000,"P-7-1",          1610,       100.330,       136.414,            0.,NA,NA,"",   1.89875E+06,   2.06375E+06,   2.06375E+06
C:/temp/Job-7.odb,Step-1,Increment      1: Step Time =    1.000,"P-7-1",          1611,       39.4010,       183.781,            0.,NA,NA,"",   1.25371E+06,   1.24771E+06,   1.24771E+06
C:/temp/Job-7.odb,Step-1,Increment      1: Step Time =    1.000,"P-7-1",          1612,       57.0794,       19.6890,            0.,NA,NA,"",   1.21825E+06,   1.20227E+06,   1.20227E+06
C:/temp/Job-7.odb,Step-1,Increment      1: Step Time =    1.000,"P-7-1",          1613,       67.5304,       14.2530,            0.,NA,NA,"",   1.13540E+06,   1.12907E+06,   1.12907E+06
C:/temp/Job-7.odb,Step-1,Increment      1: Step Time =    1.000,"P-7-1",          1614,       148.233,       12.2013,            0.,NA,NA,"",   1.02657E+06,   1.02035E+06,   1.02035E+06
C:/temp/Job-7.odb,Step-1,Increment      1: Step Time =    1.000,"P-7-1",          1615,       56.7889,       186.923,            0.,NA,NA,"",   1.18208E+06,   1.17329E+06,   1.17329E+06
C:/temp/Job-7.odb,Step-1,Increment      1: Step Time =    1.000,"P-7-1",          1616,       65.8761,       186.793,            0.,NA,NA,"",   1.13785E+06,   1.13096E+06,   1.13096E+06
C:/temp/Job-7.odb,Step-1,Increment      1: Step Time =    1.000,"P-7-1",          1617,       187.978,       148.194,            0.,NA,NA,"",   982.925E+03,   1.02395E+06,   1.02395E+06
C:/temp/Job-7.odb,Step-1,Increment      1: Step Time =    1.000,"P-7-1",          1618,       180.989,       155.490,            0.,NA,NA,"",   1.03443E+06,   1.04798E+06,   1.04798E+06
C:/temp/Job-7.odb,Step-1,Increment      1: Step Time =    1.000,"P-7-1",          1619,       155.398,       18.8847,            0.,NA,NA,"",   1.06843E+06,   1.05624E+06,   1.05624E+06
C:/temp/Job-7.odb,Step-1,Increment      1: Step Time =    1.000,"P-7-1",          1620,       14.4731,       31.1081,            0.,NA,NA,"",   1.11079E+06,   1.18286E+06,   1.18286E+06
C:/temp/Job-7.odb,Step-1,Increment      1: Step Time =    1.000,"P-7-1",          1621,       14.4621,       35.6226,            0.,NA,NA,"",   1.06568E+06,   1.13972E+06,   1.13972E+06
C:/temp/Job-7.odb,Step-1,Increment      1: Step Time =    1.000,"P-7-1",          1622,       51.5790,       17.7185,            0.,NA,NA,"",   1.22591E+06,   1.21225E+06,   1.21225E+06
C:/temp/Job-7.odb,Step-1,Increment      1: Step Time =    1.000,"P-7-1",          1623,       106.953,       147.535,            0.,NA,NA,"",   1.37446E+06,   1.50315E+06,   1.50315E+06
C:/temp/Job-7.odb,Step-1,Increment      1: Step Time =    1.000,"P-7-1",          1624,       82.4135,       138.372,            0.,NA,NA,"",   1.57665E+06,   1.60570E+06,   1.60570E+06
C:/temp/Job-7.odb,Step-1,Increment      1: Step Time =    1.000,"P-7-1",          1625,       42.4494,       182.440,            0.,NA,NA,"",   1.24705E+06,   1.23851E+06,   1.23851E+06
C:/temp/Job-7.odb,Step-1,Increment      1: Step Time =    1.000,"P-7-1",          1626,       16.7133,       20.4409,            0.,NA,NA,"",   1.24327E+06,   1.29422E+06,   1.29422E+06
C:/temp/Job-7.odb,Step-1,Increment      1: Step Time =    1.000,"P-7-1",          1627,       67.7224,       73.7236,            0.,NA,NA,"",   1.25823E+06,   1.10406E+06,   1.10406E+06
C:/temp/Job-7.odb,Step-1,Increment      1: Step Time =    1.000,"P-7-1",          1628,       182.420,       21.1481,            0.,NA,NA,"",   1.01542E+06,   1.01831E+06,   1.01831E+06
C:/temp/Job-7.odb,Step-1,Increment      1: Step Time =    1.000,"P-7-1",          1629,       179.028,       182.685,            0.,NA,NA,"",   1.01788E+06,   1.01842E+06,   1.01842E+06
C:/temp/Job-7.odb,Step-1,Increment      1: Step Time =    1.000,"P-7-1",          1630,       47.2508,       14.5794,            0.,NA,NA,"",   1.22674E+06,   1.21737E+06,   1.21737E+06
C:/temp/Job-7.odb,Step-1,Increment      1: Step Time =    1.000,"P-7-1",          1631,       144.412,       85.4231,            0.,NA,NA,"",   909.968E+03,   745.485E+03,   745.485E+03
C:/temp/Job-7.odb,Step-1,Increment      1: Step Time =    1.000,"P-7-1",          1632,       42.8904,       178.943,            0.,NA,NA,"",   1.25141E+06,   1.23984E+06,   1.23984E+06
C:/temp/Job-7.odb,Step-1,Increment      1: Step Time =    1.000,"P-7-1",          1633,       19.7421,       142.824,            0.,NA,NA,"",   891.910E+03,   954.191E+03,   954.191E+03
C:/temp/Job-7.odb,Step-1,Increment      1: Step Time =    1.000,"P-7-1",          1634,       14.6090,       132.364,            0.,NA,NA,"",   750.623E+03,   827.133E+03,   827.133E+03
C:/temp/Job-7.odb,Step-1,Increment      1: Step Time =    1.000,"P-7-1",          1635,       53.6969,       101.997,            0.,NA,NA,"",   249.168E+03,   257.293E+03,   257.293E+03
C:/temp/Job-7.odb,Step-1,Increment      1: Step Time =    1.000,"P-7-1",          1636,       50.2168,       96.0436,            0.,NA,NA,"",   323.966E+03,   345.158E+03,   345.158E+03
C:/temp/Job-7.odb,Step-1,Increment      1: Step Time =    1.000,"P-7-1",          1637,       19.5361,       40.2764,            0.,NA,NA,"",   1.06102E+06,   1.11748E+06,   1.11748E+06
C:/temp/Job-7.odb,Step-1,Increment      1: Step Time =    1.000,"P-7-1",          1638,       156.593,       22.9192,            0.,NA,NA,"",   1.09205E+06,   1.07562E+06,   1.07562E+06
C:/temp/Job-7.odb,Step-1,Increment      1: Step Time =    1.000,"P-7-1",          1639,       152.292,       24.8842,            0.,NA,NA,"",   1.11489E+06,   1.09419E+06,   1.09419E+06
C:/temp/Job-7.odb,Step-1,Increment      1: Step Time =    1.000,"P-7-1",          1640,       176.813,       156.937,            0.,NA,NA,"",   1.06315E+06,   1.06497E+06,   1.06497E+06
C:/temp/Job-7.odb,Step-1,Increment      1: Step Time =    1.000,"P-7-1",          1641,       53.5809,       182.075,            0.,NA,NA,"",   1.22020E+06,   1.20601E+06,   1.20601E+06
C:/temp/Job-7.odb,Step-1,Increment      1: Step Time =    1.000,"P-7-1",          1642,       61.4807,       182.840,            0.,NA,NA,"",   1.18764E+06,   1.17536E+06,   1.17536E+06
C:/temp/Job-7.odb,Step-1,Increment      1: Step Time =    1.000,"P-7-1",          1643,       92.0896,       181.160,            0.,NA,NA,"",   1.04211E+06,   1.06347E+06,   1.06347E+06
C:/temp/Job-7.odb,Step-1,Increment      1: Step Time =    1.000,"P-7-1",          1644,       96.1690,       181.197,            0.,NA,NA,"",   1.02459E+06,   1.04893E+06,   1.04893E+06
C:/temp/Job-7.odb,Step-1,Increment      1: Step Time =    1.000,"P-7-1",          1645,       127.410,       181.180,            0.,NA,NA,"",   1.05130E+06,   1.05243E+06,   1.05243E+06
C:/temp/Job-7.odb,Step-1,Increment      1: Step Time =    1.000,"P-7-1",          1646,       158.820,       182.501,            0.,NA,NA,"",   1.05491E+06,   1.04553E+06,   1.04553E+06
C:/temp/Job-7.odb,Step-1,Increment      1: Step Time =    1.000,"P-7-1",          1647,       174.417,       152.546,            0.,NA,NA,"",   1.08388E+06,   1.08015E+06,   1.08015E+06
C:/temp/Job-7.odb,Step-1,Increment      1: Step Time =    1.000,"P-7-1",          1648,       181.494,       42.5739,            0.,NA,NA,"",   1.03357E+06,   1.04607E+06,   1.04607E+06
C:/temp/Job-7.odb,Step-1,Increment      1: Step Time =    1.000,"P-7-1",          1649,       17.4908,       148.176,            0.,NA,NA,"",   932.145E+03,   1.00002E+06,   1.00002E+06
C:/temp/Job-7.odb,Step-1,Increment      1: Step Time =    1.000,"P-7-1",          1650,       60.6450,       134.492,            0.,NA,NA,"",   1.29312E+06,   1.18154E+06,   1.18154E+06
C:/temp/Job-7.odb,Step-1,Increment      1: Step Time =    1.000,"P-7-1",          1651,       91.6117,       48.6595,            0.,NA,NA,"",   1.32900E+06,   1.42322E+06,   1.42322E+06
C:/temp/Job-7.odb,Step-1,Increment      1: Step Time =    1.000,"P-7-1",          1652,       51.0460,       78.3566,            0.,NA,NA,"",   856.283E+03,   793.311E+03,   793.311E+03
C:/temp/Job-7.odb,Step-1,Increment      1: Step Time =    1.000,"P-7-1",          1653,       17.9553,       180.119,            0.,NA,NA,"",   1.26406E+06,   1.30610E+06,   1.30610E+06
C:/temp/Job-7.odb,Step-1,Increment      1: Step Time =    1.000,"P-7-1",          1654,       150.062,       14.8743,            0.,NA,NA,"",   1.04618E+06,   1.03714E+06,   1.03714E+06
C:/temp/Job-7.odb,Step-1,Increment      1: Step Time =    1.000,"P-7-1",          1655,       147.756,       14.5352,            0.,NA,NA,"",   1.04617E+06,   1.03730E+06,   1.03730E+06
C:/temp/Job-7.odb,Step-1,Increment      1: Step Time =    1.000,"P-7-1",          1656,       185.220,       149.997,            0.,NA,NA,"",   1.00470E+06,   1.03501E+06,   1.03501E+06
C:/temp/Job-7.odb,Step-1,Increment      1: Step Time =    1.000,"P-7-1",          1657,       185.615,       147.666,            0.,NA,NA,"",   1.00146E+06,   1.03499E+06,   1.03499E+06
C:/temp/Job-7.odb,Step-1,Increment      1: Step Time =    1.000,"P-7-1",          1658,       174.853,       183.244,            0.,NA,NA,"",   1.02357E+06,   1.02249E+06,   1.02249E+06
C:/temp/Job-7.odb,Step-1,Increment      1: Step Time =    1.000,"P-7-1",          1659,       182.789,       25.4440,            0.,NA,NA,"",   1.01725E+06,   1.02177E+06,   1.02177E+06
C:/temp/Job-7.odb,Step-1,Increment      1: Step Time =    1.000,"P-7-1",          1660,       97.4414,       51.6289,            0.,NA,NA,"",   1.35740E+06,   1.48516E+06,   1.48516E+06
C:/temp/Job-7.odb,Step-1,Increment      1: Step Time =    1.000,"P-7-1",          1661,       23.3432,       19.6287,            0.,NA,NA,"",   1.26930E+06,   1.29206E+06,   1.29206E+06
C:/temp/Job-7.odb,Step-1,Increment      1: Step Time =    1.000,"P-7-1",          1662,       178.750,       25.9888,            0.,NA,NA,"",   1.03047E+06,   1.03205E+06,   1.03205E+06
C:/temp/Job-7.odb,Step-1,Increment      1: Step Time =    1.000,"P-7-1",          1663,       174.254,       179.340,            0.,NA,NA,"",   1.03323E+06,   1.03128E+06,   1.03128E+06
C:/temp/Job-7.odb,Step-1,Increment      1: Step Time =    1.000,"P-7-1",          1664,       50.6275,       27.7941,            0.,NA,NA,"",   1.26390E+06,   1.23949E+06,   1.23949E+06
C:/temp/Job-7.odb,Step-1,Increment      1: Step Time =    1.000,"P-7-1",          1665,       54.5929,       112.504,            0.,NA,NA,"",   592.170E+03,   523.046E+03,   523.046E+03
C:/temp/Job-7.odb,Step-1,Increment      1: Step Time =    1.000,"P-7-1",          1666,       19.7056,       23.7101,            0.,NA,NA,"",   1.21940E+06,   1.26207E+06,   1.26207E+06
C:/temp/Job-7.odb,Step-1,Increment      1: Step Time =    1.000,"P-7-1",          1667,       169.115,       19.1641,            0.,NA,NA,"",   1.04367E+06,   1.03837E+06,   1.03837E+06
C:/temp/Job-7.odb,Step-1,Increment      1: Step Time =    1.000,"P-7-1",          1668,       181.117,       169.398,            0.,NA,NA,"",   1.02838E+06,   1.03308E+06,   1.03308E+06
C:/temp/Job-7.odb,Step-1,Increment      1: Step Time =    1.000,"P-7-1",          1669,       14.4351,       152.494,            0.,NA,NA,"",   951.549E+03,   1.02694E+06,   1.02694E+06
C:/temp/Job-7.odb,Step-1,Increment      1: Step Time =    1.000,"P-7-1",          1670,       102.677,       149.132,            0.,NA,NA,"",   1.33720E+06,   1.46893E+06,   1.46893E+06
C:/temp/Job-7.odb,Step-1,Increment      1: Step Time =    1.000,"P-7-1",          1671,       109.329,       59.4223,            0.,NA,NA,"",   1.56050E+06,   1.69600E+06,   1.69600E+06
C:/temp/Job-7.odb,Step-1,Increment      1: Step Time =    1.000,"P-7-1",          1672,       40.8006,       93.2296,            0.,NA,NA,"",   441.767E+03,   489.606E+03,   489.606E+03
C:/temp/Job-7.odb,Step-1,Increment      1: Step Time =    1.000,"P-7-1",          1673,       37.2215,       90.3454,            0.,NA,NA,"",   499.826E+03,   552.357E+03,   552.357E+03
C:/temp/Job-7.odb,Step-1,Increment      1: Step Time =    1.000,"P-7-1",          1674,       93.0635,       148.808,            0.,NA,NA,"",   1.36816E+06,   1.47377E+06,   1.47377E+06
C:/temp/Job-7.odb,Step-1,Increment      1: Step Time =    1.000,"P-7-1",          1675,       71.7527,       18.0871,            0.,NA,NA,"",   1.14490E+06,   1.13947E+06,   1.13947E+06
C:/temp/Job-7.odb,Step-1,Increment      1: Step Time =    1.000,"P-7-1",          1676,       148.386,       83.6156,            0.,NA,NA,"",   948.493E+03,   822.060E+03,   822.060E+03
C:/temp/Job-7.odb,Step-1,Increment      1: Step Time =    1.000,"P-7-1",          1677,       150.066,       86.9093,            0.,NA,NA,"",   822.727E+03,   735.699E+03,   735.699E+03
C:/temp/Job-7.odb,Step-1,Increment      1: Step Time =    1.000,"P-7-1",          1678,       152.126,       90.0360,            0.,NA,NA,"",   714.616E+03,   672.713E+03,   672.713E+03
C:/temp/Job-7.odb,Step-1,Increment      1: Step Time =    1.000,"P-7-1",          1679,       112.823,       158.721,            0.,NA,NA,"",   1.21693E+06,   1.28529E+06,   1.28529E+06
C:/temp/Job-7.odb,Step-1,Increment      1: Step Time =    1.000,"P-7-1",          1680,       38.9766,       18.5197,            0.,NA,NA,"",   1.25501E+06,   1.24895E+06,   1.24895E+06
C:/temp/Job-7.odb,Step-1,Increment      1: Step Time =    1.000,"P-7-1",          1681,       31.0908,       18.4848,            0.,NA,NA,"",   1.26930E+06,   1.27368E+06,   1.27368E+06
C:/temp/Job-7.odb,Step-1,Increment      1: Step Time =    1.000,"P-7-1",          1682,       55.9201,       30.9014,            0.,NA,NA,"",   1.27847E+06,   1.24773E+06,   1.24773E+06
C:/temp/Job-7.odb,Step-1,Increment      1: Step Time =    1.000,"P-7-1",          1683,       155.333,       107.251,            0.,NA,NA,"",   653.926E+03,   652.637E+03,   652.637E+03
C:/temp/Job-7.odb,Step-1,Increment      1: Step Time =    1.000,"P-7-1",          1684,       56.9610,       132.324,            0.,NA,NA,"",   1.19308E+06,   1.08894E+06,   1.08894E+06
C:/temp/Job-7.odb,Step-1,Increment      1: Step Time =    1.000,"P-7-1",          1685,       145.828,       64.6924,            0.,NA,NA,"",   1.38157E+06,   1.23958E+06,   1.23958E+06
C:/temp/Job-7.odb,Step-1,Increment      1: Step Time =    1.000,"P-7-1",          1686,       138.687,       135.232,            0.,NA,NA,"",   1.47414E+06,   1.32209E+06,   1.32209E+06
C:/temp/Job-7.odb,Step-1,Increment      1: Step Time =    1.000,"P-7-1",          1687,       54.5696,       178.070,            0.,NA,NA,"",   1.23794E+06,   1.21904E+06,   1.21904E+06
C:/temp/Job-7.odb,Step-1,Increment      1: Step Time =    1.000,"P-7-1",          1688,       58.0829,       178.281,            0.,NA,NA,"",   1.22805E+06,   1.20976E+06,   1.20976E+06
C:/temp/Job-7.odb,Step-1,Increment      1: Step Time =    1.000,"P-7-1",          1689,       65.4472,       178.671,            0.,NA,NA,"",   1.20228E+06,   1.18821E+06,   1.18821E+06
C:/temp/Job-7.odb,Step-1,Increment      1: Step Time =    1.000,"P-7-1",          1690,       69.4056,       177.421,            0.,NA,NA,"",   1.19600E+06,   1.18549E+06,   1.18549E+06
C:/temp/Job-7.odb,Step-1,Increment      1: Step Time =    1.000,"P-7-1",          1691,       96.0854,       176.835,            0.,NA,NA,"",   1.05782E+06,   1.09312E+06,   1.09312E+06
C:/temp/Job-7.odb,Step-1,Increment      1: Step Time =    1.000,"P-7-1",          1692,       99.9159,       176.440,            0.,NA,NA,"",   1.05103E+06,   1.08837E+06,   1.08837E+06
C:/temp/Job-7.odb,Step-1,Increment      1: Step Time =    1.000,"P-7-1",          1693,       131.831,       176.675,            0.,NA,NA,"",   1.10800E+06,   1.10180E+06,   1.10180E+06
C:/temp/Job-7.odb,Step-1,Increment      1: Step Time =    1.000,"P-7-1",          1694,       135.882,       176.304,            0.,NA,NA,"",   1.11729E+06,   1.10516E+06,   1.10516E+06
C:/temp/Job-7.odb,Step-1,Increment      1: Step Time =    1.000,"P-7-1",          1695,       160.344,       179.077,            0.,NA,NA,"",   1.07261E+06,   1.06028E+06,   1.06028E+06
C:/temp/Job-7.odb,Step-1,Increment      1: Step Time =    1.000,"P-7-1",          1696,       163.577,       180.007,            0.,NA,NA,"",   1.05885E+06,   1.04959E+06,   1.04959E+06
C:/temp/Job-7.odb,Step-1,Increment      1: Step Time =    1.000,"P-7-1",          1697,       177.293,       42.2843,            0.,NA,NA,"",   1.05947E+06,   1.06244E+06,   1.06244E+06
C:/temp/Job-7.odb,Step-1,Increment      1: Step Time =    1.000,"P-7-1",          1698,       177.298,       37.8977,            0.,NA,NA,"",   1.05541E+06,   1.05687E+06,   1.05687E+06
C:/temp/Job-7.odb,Step-1,Increment      1: Step Time =    1.000,"P-7-1",          1699,       172.429,       158.568,            0.,NA,NA,"",   1.09266E+06,   1.08300E+06,   1.08300E+06
C:/temp/Job-7.odb,Step-1,Increment      1: Step Time =    1.000,"P-7-1",          1700,       168.027,       151.050,            0.,NA,NA,"",   1.14021E+06,   1.11486E+06,   1.11486E+06
C:/temp/Job-7.odb,Step-1,Increment      1: Step Time =    1.000,"P-7-1",          1701,       174.187,       145.820,            0.,NA,NA,"",   1.08189E+06,   1.08068E+06,   1.08068E+06
C:/temp/Job-7.odb,Step-1,Increment      1: Step Time =    1.000,"P-7-1",          1702,       183.250,       147.658,            0.,NA,NA,"",   1.01581E+06,   1.04346E+06,   1.04346E+06
C:/temp/Job-7.odb,Step-1,Increment      1: Step Time =    1.000,"P-7-1",          1703,       157.767,       27.1828,            0.,NA,NA,"",   1.11631E+06,   1.09500E+06,   1.09500E+06
C:/temp/Job-7.odb,Step-1,Increment      1: Step Time =    1.000,"P-7-1",          1704,       146.259,       25.0924,            0.,NA,NA,"",   1.12743E+06,   1.10604E+06,   1.10604E+06
C:/temp/Job-7.odb,Step-1,Increment      1: Step Time =    1.000,"P-7-1",          1705,       147.805,       16.8086,            0.,NA,NA,"",   1.06106E+06,   1.04990E+06,   1.04990E+06
C:/temp/Job-7.odb,Step-1,Increment      1: Step Time =    1.000,"P-7-1",          1706,       35.7770,       84.4740,            0.,NA,NA,"",   600.404E+03,   646.257E+03,   646.257E+03
C:/temp/Job-7.odb,Step-1,Increment      1: Step Time =    1.000,"P-7-1",          1707,       64.9517,       65.8450,            0.,NA,NA,"",   1.35584E+06,   1.24029E+06,   1.24029E+06
C:/temp/Job-7.odb,Step-1,Increment      1: Step Time =    1.000,"P-7-1",          1708,       120.311,       170.282,            0.,NA,NA,"",   1.13441E+06,   1.15751E+06,   1.15751E+06
C:/temp/Job-7.odb,Step-1,Increment      1: Step Time =    1.000,"P-7-1",          1709,       179.385,       29.3669,            0.,NA,NA,"",   1.03300E+06,   1.03564E+06,   1.03564E+06
C:/temp/Job-7.odb,Step-1,Increment      1: Step Time =    1.000,"P-7-1",          1710,       116.852,       159.790,            0.,NA,NA,"",   1.22766E+06,   1.27474E+06,   1.27474E+06
C:/temp/Job-7.odb,Step-1,Increment      1: Step Time =    1.000,"P-7-1",          1711,       171.263,       180.319,            0.,NA,NA,"",   1.03824E+06,   1.03461E+06,   1.03461E+06
C:/temp/Job-7.odb,Step-1,Increment      1: Step Time =    1.000,"P-7-1",          1712,       51.4112,       115.334,            0.,NA,NA,"",   677.467E+03,   628.457E+03,   628.457E+03
C:/temp/Job-7.odb,Step-1,Increment      1: Step Time =    1.000,"P-7-1",          1713,       27.1785,       148.905,            0.,NA,NA,"",   1.01920E+06,   1.05334E+06,   1.05334E+06
C:/temp/Job-7.odb,Step-1,Increment      1: Step Time =    1.000,"P-7-1",          1714,       47.5877,       33.3530,            0.,NA,NA,"",   1.26619E+06,   1.23943E+06,   1.23943E+06
C:/temp/Job-7.odb,Step-1,Increment      1: Step Time =    1.000,"P-7-1",          1715,       34.4161,       93.3262,            0.,NA,NA,"",   477.457E+03,   538.917E+03,   538.917E+03
C:/temp/Job-7.odb,Step-1,Increment      1: Step Time =    1.000,"P-7-1",          1716,       31.0256,       90.3102,            0.,NA,NA,"",   519.643E+03,   583.909E+03,   583.909E+03
C:/temp/Job-7.odb,Step-1,Increment      1: Step Time =    1.000,"P-7-1",          1717,       18.7510,       128.080,            0.,NA,NA,"",   723.880E+03,   795.143E+03,   795.143E+03
C:/temp/Job-7.odb,Step-1,Increment      1: Step Time =    1.000,"P-7-1",          1718,       19.0072,       160.694,            0.,NA,NA,"",   1.06624E+06,   1.12444E+06,   1.12444E+06
C:/temp/Job-7.odb,Step-1,Increment      1: Step Time =    1.000,"P-7-1",          1719,       19.8131,       175.369,            0.,NA,NA,"",   1.21252E+06,   1.25606E+06,   1.25606E+06
C:/temp/Job-7.odb,Step-1,Increment      1: Step Time =    1.000,"P-7-1",          1720,       30.9474,       144.406,            0.,NA,NA,"",   1.00176E+06,   1.02458E+06,   1.02458E+06
C:/temp/Job-7.odb,Step-1,Increment      1: Step Time =    1.000,"P-7-1",          1721,       157.704,       109.843,            0.,NA,NA,"",   725.914E+03,   723.934E+03,   723.934E+03
C:/temp/Job-7.odb,Step-1,Increment      1: Step Time =    1.000,"P-7-1",          1722,       121.153,       173.797,            0.,NA,NA,"",   1.10301E+06,   1.12013E+06,   1.12013E+06
C:/temp/Job-7.odb,Step-1,Increment      1: Step Time =    1.000,"P-7-1",          1723,       131.711,       172.065,            0.,NA,NA,"",   1.15572E+06,   1.14685E+06,   1.14685E+06
C:/temp/Job-7.odb,Step-1,Increment      1: Step Time =    1.000,"P-7-1",          1724,       152.885,       169.136,            0.,NA,NA,"",   1.15634E+06,   1.12652E+06,   1.12652E+06
C:/temp/Job-7.odb,Step-1,Increment      1: Step Time =    1.000,"P-7-1",          1725,       56.3518,       35.2746,            0.,NA,NA,"",   1.29670E+06,   1.25964E+06,   1.25964E+06
C:/temp/Job-7.odb,Step-1,Increment      1: Step Time =    1.000,"P-7-1",          1726,       165.824,       148.250,            0.,NA,NA,"",   1.16094E+06,   1.12721E+06,   1.12721E+06
C:/temp/Job-7.odb,Step-1,Increment      1: Step Time =    1.000,"P-7-1",          1727,       173.164,       139.083,            0.,NA,NA,"",   1.07323E+06,   1.07374E+06,   1.07374E+06
C:/temp/Job-7.odb,Step-1,Increment      1: Step Time =    1.000,"P-7-1",          1728,       167.934,       160.219,            0.,NA,NA,"",   1.12049E+06,   1.10077E+06,   1.10077E+06
C:/temp/Job-7.odb,Step-1,Increment      1: Step Time =    1.000,"P-7-1",          1729,       171.332,       167.699,            0.,NA,NA,"",   1.07575E+06,   1.06726E+06,   1.06726E+06
C:/temp/Job-7.odb,Step-1,Increment      1: Step Time =    1.000,"P-7-1",          1730,       162.649,       30.4303,            0.,NA,NA,"",   1.11488E+06,   1.09432E+06,   1.09432E+06
C:/temp/Job-7.odb,Step-1,Increment      1: Step Time =    1.000,"P-7-1",          1731,       154.858,       32.6051,            0.,NA,NA,"",   1.16451E+06,   1.13240E+06,   1.13240E+06
C:/temp/Job-7.odb,Step-1,Increment      1: Step Time =    1.000,"P-7-1",          1732,       151.211,       33.3241,            0.,NA,NA,"",   1.18546E+06,   1.14971E+06,   1.14971E+06
C:/temp/Job-7.odb,Step-1,Increment      1: Step Time =    1.000,"P-7-1",          1733,       140.891,       25.7784,            0.,NA,NA,"",   1.14032E+06,   1.12050E+06,   1.12050E+06
C:/temp/Job-7.odb,Step-1,Increment      1: Step Time =    1.000,"P-7-1",          1734,       151.018,       79.7448,            0.,NA,NA,"",   1.04562E+06,   933.190E+03,   933.190E+03
C:/temp/Job-7.odb,Step-1,Increment      1: Step Time =    1.000,"P-7-1",          1735,       155.362,       88.0855,            0.,NA,NA,"",   784.595E+03,   752.718E+03,   752.718E+03
C:/temp/Job-7.odb,Step-1,Increment      1: Step Time =    1.000,"P-7-1",          1736,       54.7376,       128.529,            0.,NA,NA,"",   1.07165E+06,   979.601E+03,   979.601E+03
C:/temp/Job-7.odb,Step-1,Increment      1: Step Time =    1.000,"P-7-1",          1737,       115.741,       163.631,            0.,NA,NA,"",   1.17889E+06,   1.22565E+06,   1.22565E+06
C:/temp/Job-7.odb,Step-1,Increment      1: Step Time =    1.000,"P-7-1",          1738,       44.9057,       69.2252,            0.,NA,NA,"",   979.834E+03,   946.299E+03,   946.299E+03
C:/temp/Job-7.odb,Step-1,Increment      1: Step Time =    1.000,"P-7-1",          1739,       57.8463,       65.1862,            0.,NA,NA,"",   1.24520E+06,   1.14656E+06,   1.14656E+06
C:/temp/Job-7.odb,Step-1,Increment      1: Step Time =    1.000,"P-7-1",          1740,       58.8061,       55.3453,            0.,NA,NA,"",   1.33538E+06,   1.25789E+06,   1.25789E+06
C:/temp/Job-7.odb,Step-1,Increment      1: Step Time =    1.000,"P-7-1",          1741,       131.183,       153.275,            0.,NA,NA,"",   1.37449E+06,   1.33531E+06,   1.33531E+06
C:/temp/Job-7.odb,Step-1,Increment      1: Step Time =    1.000,"P-7-1",          1742,       58.6648,       173.230,            0.,NA,NA,"",   1.25696E+06,   1.23254E+06,   1.23254E+06
C:/temp/Job-7.odb,Step-1,Increment      1: Step Time =    1.000,"P-7-1",          1743,       62.1782,       175.135,            0.,NA,NA,"",   1.23865E+06,   1.21835E+06,   1.21835E+06
C:/temp/Job-7.odb,Step-1,Increment      1: Step Time =    1.000,"P-7-1",          1744,       67.7871,       174.340,            0.,NA,NA,"",   1.22941E+06,   1.21433E+06,   1.21433E+06
C:/temp/Job-7.odb,Step-1,Increment      1: Step Time =    1.000,"P-7-1",          1745,       69.9991,       171.998,            0.,NA,NA,"",   1.24213E+06,   1.22909E+06,   1.22909E+06
C:/temp/Job-7.odb,Step-1,Increment      1: Step Time =    1.000,"P-7-1",          1746,       50.6481,       166.771,            0.,NA,NA,"",   1.27616E+06,   1.24517E+06,   1.24517E+06
C:/temp/Job-7.odb,Step-1,Increment      1: Step Time =    1.000,"P-7-1",          1747,       99.8295,       172.976,            0.,NA,NA,"",   1.07627E+06,   1.12343E+06,   1.12343E+06
C:/temp/Job-7.odb,Step-1,Increment      1: Step Time =    1.000,"P-7-1",          1748,       37.9345,       21.5199,            0.,NA,NA,"",   1.25641E+06,   1.25024E+06,   1.25024E+06
C:/temp/Job-7.odb,Step-1,Increment      1: Step Time =    1.000,"P-7-1",          1749,       23.6983,       23.5619,            0.,NA,NA,"",   1.23489E+06,   1.26276E+06,   1.26276E+06
C:/temp/Job-7.odb,Step-1,Increment      1: Step Time =    1.000,"P-7-1",          1750,       172.575,       35.1957,            0.,NA,NA,"",   1.07733E+06,   1.06985E+06,   1.06985E+06
C:/temp/Job-7.odb,Step-1,Increment      1: Step Time =    1.000,"P-7-1",          1751,       29.5342,       44.2396,            0.,NA,NA,"",   1.10195E+06,   1.12365E+06,   1.12365E+06
C:/temp/Job-7.odb,Step-1,Increment      1: Step Time =    1.000,"P-7-1",          1752,       115.815,       167.622,            0.,NA,NA,"",   1.13905E+06,   1.17955E+06,   1.17955E+06
C:/temp/Job-7.odb,Step-1,Increment      1: Step Time =    1.000,"P-7-1",          1753,       30.0714,       84.7370,            0.,NA,NA,"",   591.111E+03,   651.585E+03,   651.585E+03
C:/temp/Job-7.odb,Step-1,Increment      1: Step Time =    1.000,"P-7-1",          1754,       35.3903,       76.1928,            0.,NA,NA,"",   741.920E+03,   772.263E+03,   772.263E+03
C:/temp/Job-7.odb,Step-1,Increment      1: Step Time =    1.000,"P-7-1",          1755,       166.831,       101.757,            0.,NA,NA,"",   705.029E+03,   761.779E+03,   761.779E+03
C:/temp/Job-7.odb,Step-1,Increment      1: Step Time =    1.000,"P-7-1",          1756,       156.856,       112.875,            0.,NA,NA,"",   806.622E+03,   780.697E+03,   780.697E+03
C:/temp/Job-7.odb,Step-1,Increment      1: Step Time =    1.000,"P-7-1",          1757,       85.1110,       40.5951,            0.,NA,NA,"",   1.27197E+06,   1.31445E+06,   1.31445E+06
C:/temp/Job-7.odb,Step-1,Increment      1: Step Time =    1.000,"P-7-1",          1758,       145.685,       135.981,            0.,NA,NA,"",   1.38637E+06,   1.24988E+06,   1.24988E+06
C:/temp/Job-7.odb,Step-1,Increment      1: Step Time =    1.000,"P-7-1",          1759,       151.341,       66.0622,            0.,NA,NA,"",   1.28849E+06,   1.16905E+06,   1.16905E+06
C:/temp/Job-7.odb,Step-1,Increment      1: Step Time =    1.000,"P-7-1",          1760,       99.9298,       168.691,            0.,NA,NA,"",   1.10318E+06,   1.16186E+06,   1.16186E+06
C:/temp/Job-7.odb,Step-1,Increment      1: Step Time =    1.000,"P-7-1",          1761,       139.804,       22.8939,            0.,NA,NA,"",   1.11132E+06,   1.09598E+06,   1.09598E+06
C:/temp/Job-7.odb,Step-1,Increment      1: Step Time =    1.000,"P-7-1",          1762,       178.328,       139.168,            0.,NA,NA,"",   1.02954E+06,   1.05365E+06,   1.05365E+06
C:/temp/Job-7.odb,Step-1,Increment      1: Step Time =    1.000,"P-7-1",          1763,       71.3249,       168.986,            0.,NA,NA,"",   1.25821E+06,   1.24650E+06,   1.24650E+06
C:/temp/Job-7.odb,Step-1,Increment      1: Step Time =    1.000,"P-7-1",          1764,       22.9426,       171.202,            0.,NA,NA,"",   1.18681E+06,   1.22265E+06,   1.22265E+06
C:/temp/Job-7.odb,Step-1,Increment      1: Step Time =    1.000,"P-7-1",          1765,       48.4380,       37.1873,            0.,NA,NA,"",   1.26919E+06,   1.23721E+06,   1.23721E+06
C:/temp/Job-7.odb,Step-1,Increment      1: Step Time =    1.000,"P-7-1",          1766,       44.4705,       38.2852,            0.,NA,NA,"",   1.24735E+06,   1.22175E+06,   1.22175E+06
C:/temp/Job-7.odb,Step-1,Increment      1: Step Time =    1.000,"P-7-1",          1767,       135.413,       24.3160,            0.,NA,NA,"",   1.12165E+06,   1.10958E+06,   1.10958E+06
C:/temp/Job-7.odb,Step-1,Increment      1: Step Time =    1.000,"P-7-1",          1768,       176.157,       135.035,            0.,NA,NA,"",   1.03124E+06,   1.05149E+06,   1.05149E+06
C:/temp/Job-7.odb,Step-1,Increment      1: Step Time =    1.000,"P-7-1",          1769,       118.484,       164.032,            0.,NA,NA,"",   1.19005E+06,   1.22540E+06,   1.22540E+06
C:/temp/Job-7.odb,Step-1,Increment      1: Step Time =    1.000,"P-7-1",          1770,       148.012,       32.8254,            0.,NA,NA,"",   1.19179E+06,   1.15659E+06,   1.15659E+06
C:/temp/Job-7.odb,Step-1,Increment      1: Step Time =    1.000,"P-7-1",          1771,       64.2496,       35.8755,            0.,NA,NA,"",   1.31177E+06,   1.27932E+06,   1.27932E+06
C:/temp/Job-7.odb,Step-1,Increment      1: Step Time =    1.000,"P-7-1",          1772,       160.717,       89.3411,            0.,NA,NA,"",   764.694E+03,   773.908E+03,   773.908E+03
C:/temp/Job-7.odb,Step-1,Increment      1: Step Time =    1.000,"P-7-1",          1773,       31.9471,       152.101,            0.,NA,NA,"",   1.09030E+06,   1.10498E+06,   1.10498E+06
C:/temp/Job-7.odb,Step-1,Increment      1: Step Time =    1.000,"P-7-1",          1774,       52.4997,       145.416,            0.,NA,NA,"",   1.26014E+06,   1.19848E+06,   1.19848E+06
C:/temp/Job-7.odb,Step-1,Increment      1: Step Time =    1.000,"P-7-1",          1775,       123.977,       168.949,            0.,NA,NA,"",   1.16488E+06,   1.17692E+06,   1.17692E+06
C:/temp/Job-7.odb,Step-1,Increment      1: Step Time =    1.000,"P-7-1",          1776,       167.573,       33.4275,            0.,NA,NA,"",   1.10052E+06,   1.08498E+06,   1.08498E+06
C:/temp/Job-7.odb,Step-1,Increment      1: Step Time =    1.000,"P-7-1",          1777,       34.4717,       48.3089,            0.,NA,NA,"",   1.10871E+06,   1.11351E+06,   1.11351E+06
C:/temp/Job-7.odb,Step-1,Increment      1: Step Time =    1.000,"P-7-1",          1778,       44.9518,       134.848,            0.,NA,NA,"",   1.04366E+06,   1.00884E+06,   1.00884E+06
C:/temp/Job-7.odb,Step-1,Increment      1: Step Time =    1.000,"P-7-1",          1779,       159.538,       174.295,            0.,NA,NA,"",   1.10157E+06,   1.08338E+06,   1.08338E+06
C:/temp/Job-7.odb,Step-1,Increment      1: Step Time =    1.000,"P-7-1",          1780,       167.188,       169.240,            0.,NA,NA,"",   1.09091E+06,   1.07708E+06,   1.07708E+06
C:/temp/Job-7.odb,Step-1,Increment      1: Step Time =    1.000,"P-7-1",          1781,       24.1905,       162.220,            0.,NA,NA,"",   1.11719E+06,   1.15512E+06,   1.15512E+06
C:/temp/Job-7.odb,Step-1,Increment      1: Step Time =    1.000,"P-7-1",          1782,       143.426,       166.073,            0.,NA,NA,"",   1.21571E+06,   1.17954E+06,   1.17954E+06
C:/temp/Job-7.odb,Step-1,Increment      1: Step Time =    1.000,"P-7-1",          1783,       52.2622,       127.691,            0.,NA,NA,"",   1.01754E+06,   942.083E+03,   942.083E+03
C:/temp/Job-7.odb,Step-1,Increment      1: Step Time =    1.000,"P-7-1",          1784,       47.8661,       117.781,            0.,NA,NA,"",   723.008E+03,   695.967E+03,   695.967E+03
C:/temp/Job-7.odb,Step-1,Increment      1: Step Time =    1.000,"P-7-1",          1785,       37.7742,       110.267,            0.,NA,NA,"",   516.219E+03,   566.154E+03,   566.154E+03
C:/temp/Job-7.odb,Step-1,Increment      1: Step Time =    1.000,"P-7-1",          1786,       146.798,       118.736,            0.,NA,NA,"",   1.06115E+06,   909.736E+03,   909.736E+03
C:/temp/Job-7.odb,Step-1,Increment      1: Step Time =    1.000,"P-7-1",          1787,       64.0513,       172.979,            0.,NA,NA,"",   1.25024E+06,   1.22895E+06,   1.22895E+06
C:/temp/Job-7.odb,Step-1,Increment      1: Step Time =    1.000,"P-7-1",          1788,       35.7554,       141.014,            0.,NA,NA,"",   1.01017E+06,   1.01540E+06,   1.01540E+06
C:/temp/Job-7.odb,Step-1,Increment      1: Step Time =    1.000,"P-7-1",          1789,       150.678,       52.7172,            0.,NA,NA,"",   1.31237E+06,   1.22839E+06,   1.22839E+06
C:/temp/Job-7.odb,Step-1,Increment      1: Step Time =    1.000,"P-7-1",          1790,       122.733,       164.998,            0.,NA,NA,"",   1.20141E+06,   1.21951E+06,   1.21951E+06
C:/temp/Job-7.odb,Step-1,Increment      1: Step Time =    1.000,"P-7-1",          1791,       53.0680,       40.2239,            0.,NA,NA,"",   1.29618E+06,   1.25369E+06,   1.25369E+06
C:/temp/Job-7.odb,Step-1,Increment      1: Step Time =    1.000,"P-7-1",          1792,       74.6967,       32.9056,            0.,NA,NA,"",   1.25910E+06,   1.25569E+06,   1.25569E+06
C:/temp/Job-7.odb,Step-1,Increment      1: Step Time =    1.000,"P-7-1",          1793,       158.234,       149.948,            0.,NA,NA,"",   1.22809E+06,   1.17165E+06,   1.17165E+06
C:/temp/Job-7.odb,Step-1,Increment      1: Step Time =    1.000,"P-7-1",          1794,       136.076,       36.7412,            0.,NA,NA,"",   1.25770E+06,   1.22603E+06,   1.22603E+06
C:/temp/Job-7.odb,Step-1,Increment      1: Step Time =    1.000,"P-7-1",          1795,       29.1410,       79.1381,            0.,NA,NA,"",   664.747E+03,   720.559E+03,   720.559E+03
C:/temp/Job-7.odb,Step-1,Increment      1: Step Time =    1.000,"P-7-1",          1796,       46.7275,       130.475,            0.,NA,NA,"",   984.611E+03,   942.119E+03,   942.119E+03
C:/temp/Job-7.odb,Step-1,Increment      1: Step Time =    1.000,"P-7-1",          1797,       138.634,       148.543,            0.,NA,NA,"",   1.40236E+06,   1.31986E+06,   1.31986E+06
C:/temp/Job-7.odb,Step-1,Increment      1: Step Time =    1.000,"P-7-1",          1798,       165.515,       113.088,            0.,NA,NA,"",   832.060E+03,   854.870E+03,   854.870E+03
C:/temp/Job-7.odb,Step-1,Increment      1: Step Time =    1.000,"P-7-1",          1799,       59.8324,       167.088,            0.,NA,NA,"",   1.29202E+06,   1.25896E+06,   1.25896E+06
C:/temp/Job-7.odb,Step-1,Increment      1: Step Time =    1.000,"P-7-1",          1800,       84.8015,       161.749,            0.,NA,NA,"",   1.25183E+06,   1.28866E+06,   1.28866E+06
C:/temp/Job-7.odb,Step-1,Increment      1: Step Time =    1.000,"P-7-1",          1801,       172.315,       128.552,            0.,NA,NA,"",   1.01806E+06,   1.02953E+06,   1.02953E+06
C:/temp/Job-7.odb,Step-1,Increment      1: Step Time =    1.000,"P-7-1",          1802,       173.166,       124.482,            0.,NA,NA,"",   967.941E+03,   995.975E+03,   995.975E+03
C:/temp/Job-7.odb,Step-1,Increment      1: Step Time =    1.000,"P-7-1",          1803,       36.2114,       152.044,            0.,NA,NA,"",   1.12778E+06,   1.12578E+06,   1.12578E+06
C:/temp/Job-7.odb,Step-1,Increment      1: Step Time =    1.000,"P-7-1",          1804,       45.2046,       42.2616,            0.,NA,NA,"",   1.24272E+06,   1.21270E+06,   1.21270E+06
C:/temp/Job-7.odb,Step-1,Increment      1: Step Time =    1.000,"P-7-1",          1805,       36.3863,       156.215,            0.,NA,NA,"",   1.16326E+06,   1.16008E+06,   1.16008E+06
C:/temp/Job-7.odb,Step-1,Increment      1: Step Time =    1.000,"P-7-1",          1806,       123.154,       39.3439,            0.,NA,NA,"",   1.25644E+06,   1.27073E+06,   1.27073E+06
C:/temp/Job-7.odb,Step-1,Increment      1: Step Time =    1.000,"P-7-1",          1807,       21.6253,       74.5710,            0.,NA,NA,"",   697.964E+03,   765.555E+03,   765.555E+03
C:/temp/Job-7.odb,Step-1,Increment      1: Step Time =    1.000,"P-7-1",          1808,       134.171,       31.6166,            0.,NA,NA,"",   1.19918E+06,   1.18108E+06,   1.18108E+06
C:/temp/Job-7.odb,Step-1,Increment      1: Step Time =    1.000,"P-7-1",          1809,       83.3763,       32.6943,            0.,NA,NA,"",   1.20670E+06,   1.23248E+06,   1.23248E+06
C:/temp/Job-7.odb,Step-1,Increment      1: Step Time =    1.000,"P-7-1",          1810,       165.612,       165.557,            0.,NA,NA,"",   1.11577E+06,   1.09595E+06,   1.09595E+06
C:/temp/Job-7.odb,Step-1,Increment      1: Step Time =    1.000,"P-7-1",          1811,       165.993,       118.236,            0.,NA,NA,"",   918.602E+03,   924.583E+03,   924.583E+03
C:/temp/Job-7.odb,Step-1,Increment      1: Step Time =    1.000,"P-7-1",          1812,       169.062,       45.0252,            0.,NA,NA,"",   1.12035E+06,   1.10217E+06,   1.10217E+06
C:/temp/Job-7.odb,Step-1,Increment      1: Step Time =    1.000,"P-7-1",          1813,       48.9950,       126.688,            0.,NA,NA,"",   943.809E+03,   890.863E+03,   890.863E+03
C:/temp/Job-7.odb,Step-1,Increment      1: Step Time =    1.000,"P-7-1",          1814,       150.919,       41.2494,            0.,NA,NA,"",   1.24855E+06,   1.19421E+06,   1.19421E+06
C:/temp/Job-7.odb,Step-1,Increment      1: Step Time =    1.000,"P-7-1",          1815,       44.6160,       120.134,            0.,NA,NA,"",   754.618E+03,   743.846E+03,   743.846E+03
C:/temp/Job-7.odb,Step-1,Increment      1: Step Time =    1.000,"P-7-1",          1816,       41.6361,       118.291,            0.,NA,NA,"",   684.682E+03,   698.322E+03,   698.322E+03
C:/temp/Job-7.odb,Step-1,Increment      1: Step Time =    1.000,"P-7-1",          1817,       22.0563,       93.3023,            0.,NA,NA,"",   525.073E+03,   598.942E+03,   598.942E+03
C:/temp/Job-7.odb,Step-1,Increment      1: Step Time =    1.000,"P-7-1",          1818,       31.8349,       74.6388,            0.,NA,NA,"",   743.419E+03,   783.807E+03,   783.807E+03
C:/temp/Job-7.odb,Step-1,Increment      1: Step Time =    1.000,"P-7-1",          1819,       47.0018,       51.4802,            0.,NA,NA,"",   1.21848E+06,   1.17634E+06,   1.17634E+06
C:/temp/Job-7.odb,Step-1,Increment      1: Step Time =    1.000,"P-7-1",          1820,       38.6698,       51.4034,            0.,NA,NA,"",   1.12344E+06,   1.11351E+06,   1.11351E+06
C:/temp/Job-7.odb,Step-1,Increment      1: Step Time =    1.000,"P-7-1",          1821,       39.5219,       147.891,            0.,NA,NA,"",   1.11994E+06,   1.10749E+06,   1.10749E+06
C:/temp/Job-7.odb,Step-1,Increment      1: Step Time =    1.000,"P-7-1",          1822,       41.9048,       136.084,            0.,NA,NA,"",   1.02178E+06,   1.00133E+06,   1.00133E+06
C:/temp/Job-7.odb,Step-1,Increment      1: Step Time =    1.000,"P-7-1",          1823,       57.4885,       157.992,            0.,NA,NA,"",   1.32250E+06,   1.27384E+06,   1.27384E+06
C:/temp/Job-7.odb,Step-1,Increment      1: Step Time =    1.000,"P-7-1",          1824,       28.7838,       125.279,            0.,NA,NA,"",   731.653E+03,   781.733E+03,   781.733E+03
C:/temp/Job-7.odb,Step-1,Increment      1: Step Time =    1.000,"P-7-1",          1825,       46.3050,       158.821,            0.,NA,NA,"",   1.25239E+06,   1.22117E+06,   1.22117E+06
C:/temp/Job-7.odb,Step-1,Increment      1: Step Time =    1.000,"P-7-1",          1826,       41.5553,       42.9898,            0.,NA,NA,"",   1.21094E+06,   1.19081E+06,   1.19081E+06
C:/temp/Job-7.odb,Step-1,Increment      1: Step Time =    1.000,"P-7-1",          1827,       167.206,       84.8478,            0.,NA,NA,"",   864.603E+03,   890.227E+03,   890.227E+03
C:/temp/Job-7.odb,Step-1,Increment      1: Step Time =    1.000,"P-7-1",          1828,       173.313,       98.2524,            0.,NA,NA,"",   769.695E+03,   844.639E+03,   844.639E+03
C:/temp/Job-7.odb,Step-1,Increment      1: Step Time =    1.000,"P-7-1",          1829,       38.9954,       133.875,            0.,NA,NA,"",   954.341E+03,   950.107E+03,   950.107E+03
C:/temp/Job-7.odb,Step-1,Increment      1: Step Time =    1.000,"P-7-1",          1830,       173.024,       95.0249,            0.,NA,NA,"",   776.190E+03,    847.76E+03,    847.76E+03
C:/temp/Job-7.odb,Step-1,Increment      1: Step Time =    1.000,"P-7-1",          1831,       34.5226,       107.236,            0.,NA,NA,"",   485.380E+03,   545.241E+03,   545.241E+03
C:/temp/Job-7.odb,Step-1,Increment      1: Step Time =    1.000,"P-7-1",          1832,       123.413,       35.0373,            0.,NA,NA,"",   1.20742E+06,   1.22149E+06,   1.22149E+06
C:/temp/Job-7.odb,Step-1,Increment      1: Step Time =    1.000,"P-7-1",          1833,       26.7336,       156.989,            0.,NA,NA,"",   1.08826E+06,   1.12082E+06,   1.12082E+06
C:/temp/Job-7.odb,Step-1,Increment      1: Step Time =    1.000,"P-7-1",          1834,       170.194,       83.0142,            0.,NA,NA,"",   889.383E+03,   922.472E+03,   922.472E+03
C:/temp/Job-7.odb,Step-1,Increment      1: Step Time =    1.000,"P-7-1",          1835,       45.7183,       125.557,            0.,NA,NA,"",   869.123E+03,   842.145E+03,   842.145E+03
C:/temp/Job-7.odb,Step-1,Increment      1: Step Time =    1.000,"P-7-1",          1836,       123.541,       30.5536,            0.,NA,NA,"",   1.15886E+06,   1.17071E+06,   1.17071E+06
C:/temp/Job-7.odb,Step-1,Increment      1: Step Time =    1.000,"P-7-1",          1837,       148.539,       152.814,            0.,NA,NA,"",   1.30316E+06,   1.23230E+06,   1.23230E+06
C:/temp/Job-7.odb,Step-1,Increment      1: Step Time =    1.000,"P-7-1",          1838,       165.279,       123.385,            0.,NA,NA,"",   1.00086E+06,   986.360E+03,   986.360E+03
C:/temp/Job-7.odb,Step-1,Increment      1: Step Time =    1.000,"P-7-1",          1839,       35.3615,       119.319,            0.,NA,NA,"",   666.317E+03,   705.926E+03,   705.926E+03
C:/temp/Job-7.odb,Step-1,Increment      1: Step Time =    1.000,"P-7-1",          1840,       32.9091,       121.850,            0.,NA,NA,"",   694.638E+03,   737.239E+03,   737.239E+03
C:/temp/Job-7.odb,Step-1,Increment      1: Step Time =    1.000,"P-7-1",          1841,       42.1252,       47.6174,            0.,NA,NA,"",   1.19043E+06,   1.16650E+06,   1.16650E+06
C:/temp/Job-7.odb,Step-1,Increment      1: Step Time =    1.000,"P-7-1",          1842,       152.052,       48.9218,            0.,NA,NA,"",   1.28807E+06,   1.21522E+06,   1.21522E+06
C:/temp/Job-7.odb,Step-1,Increment      1: Step Time =    1.000,"P-7-1",          1843,       152.534,       47.0284,            0.,NA,NA,"",   1.28119E+06,   1.21050E+06,   1.21050E+06
