ODB Name,Step,Frame,Part Instance Name,    Node Label,X,Y,Z,Section Name,Material Name,Section Point,       S-Mises,S-Max. In-Plane Principal (Abs),S-Max. Principal (Abs)
C:/temp/Job-5.odb,Step-1,Increment      1: Step Time =    1.000,"P-5-1",             1,       85.4612,       138.336,            0.,NA,NA,"",   2.46846E+06,   2.52858E+06,   2.52858E+06
C:/temp/Job-5.odb,Step-1,Increment      1: Step Time =    1.000,"P-5-1",             2,       76.7093,       133.742,            0.,NA,NA,"",   1.42110E+06,   1.42636E+06,   1.42636E+06
C:/temp/Job-5.odb,Step-1,Increment      1: Step Time =    1.000,"P-5-1",             3,       66.2577,       123.291,            0.,NA,NA,"",   376.894E+03,  -27.5191E+03,  -27.5191E+03
C:/temp/Job-5.odb,Step-1,Increment      1: Step Time =    1.000,"P-5-1",             4,       60.1914,       109.812,            0.,NA,NA,"",   767.397E+03,  -777.734E+03,  -777.734E+03
C:/temp/Job-5.odb,Step-1,Increment      1: Step Time =    1.000,"P-5-1",             5,       59.2989,       95.0580,            0.,NA,NA,"",   835.059E+03,  -851.203E+03,  -851.203E+03
C:/temp/Job-5.odb,Step-1,Increment      1: Step Time =    1.000,"P-5-1",             6,       61.6643,       85.4612,            0.,NA,NA,"",   649.353E+03,  -653.603E+03,  -653.603E+03
C:/temp/Job-5.odb,Step-1,Increment      1: Step Time =    1.000,"P-5-1",             7,       69.3111,       72.8120,            0.,NA,NA,"",   476.429E+03,   434.452E+03,   434.452E+03
C:/temp/Job-5.odb,Step-1,Increment      1: Step Time =    1.000,"P-5-1",             8,       80.9464,       63.6963,            0.,NA,NA,"",   1.89288E+06,   1.92387E+06,   1.92387E+06
C:/temp/Job-5.odb,Step-1,Increment      1: Step Time =    1.000,"P-5-1",             9,       95.0580,       59.2989,            0.,NA,NA,"",   3.34409E+06,   3.40809E+06,   3.40809E+06
C:/temp/Job-5.odb,Step-1,Increment      1: Step Time =    1.000,"P-5-1",            10,       104.942,       59.2989,            0.,NA,NA,"",   3.59035E+06,   3.66093E+06,   3.66093E+06
C:/temp/Job-5.odb,Step-1,Increment      1: Step Time =    1.000,"P-5-1",            11,       119.054,       63.6963,            0.,NA,NA,"",   2.69721E+06,   2.75686E+06,   2.75686E+06
C:/temp/Job-5.odb,Step-1,Increment      1: Step Time =    1.000,"P-5-1",            12,       130.689,       72.8120,            0.,NA,NA,"",   1.13862E+06,   1.12660E+06,   1.12660E+06
C:/temp/Job-5.odb,Step-1,Increment      1: Step Time =    1.000,"P-5-1",            13,       138.336,       85.4612,            0.,NA,NA,"",   781.233E+03,  -754.108E+03,  -754.108E+03
C:/temp/Job-5.odb,Step-1,Increment      1: Step Time =    1.000,"P-5-1",            14,       140.701,       95.0580,            0.,NA,NA,"",   1.23207E+06,  -1.26076E+06,  -1.26076E+06
C:/temp/Job-5.odb,Step-1,Increment      1: Step Time =    1.000,"P-5-1",            15,       139.809,       109.812,            0.,NA,NA,"",   1.17708E+06,  -1.18597E+06,  -1.18597E+06
C:/temp/Job-5.odb,Step-1,Increment      1: Step Time =    1.000,"P-5-1",            16,       133.742,       123.291,            0.,NA,NA,"",   592.509E+03,   518.642E+03,   518.642E+03
C:/temp/Job-5.odb,Step-1,Increment      1: Step Time =    1.000,"P-5-1",            17,       123.291,       133.742,            0.,NA,NA,"",   2.23581E+06,   2.27281E+06,   2.27281E+06
C:/temp/Job-5.odb,Step-1,Increment      1: Step Time =    1.000,"P-5-1",            18,       114.539,       138.336,            0.,NA,NA,"",   3.07441E+06,   3.14416E+06,   3.14416E+06
C:/temp/Job-5.odb,Step-1,Increment      1: Step Time =    1.000,"P-5-1",            19,          100.,          141.,            0.,NA,NA,"",   3.57060E+06,   3.64359E+06,   3.64359E+06
C:/temp/Job-5.odb,Step-1,Increment      1: Step Time =    1.000,"P-5-1",            20,          190.,            0.,            0.,NA,NA,"",   995.537E+03,   995.657E+03,   995.657E+03
C:/temp/Job-5.odb,Step-1,Increment      1: Step Time =    1.000,"P-5-1",            21,          180.,            0.,            0.,NA,NA,"",   992.814E+03,     992.9E+03,     992.9E+03
C:/temp/Job-5.odb,Step-1,Increment      1: Step Time =    1.000,"P-5-1",            22,          170.,            0.,            0.,NA,NA,"",   990.764E+03,   990.228E+03,   990.228E+03
C:/temp/Job-5.odb,Step-1,Increment      1: Step Time =    1.000,"P-5-1",            23,          160.,            0.,            0.,NA,NA,"",   973.311E+03,   972.137E+03,   972.137E+03
C:/temp/Job-5.odb,Step-1,Increment      1: Step Time =    1.000,"P-5-1",            24,          150.,            0.,            0.,NA,NA,"",   922.811E+03,   921.660E+03,   921.660E+03
C:/temp/Job-5.odb,Step-1,Increment      1: Step Time =    1.000,"P-5-1",            25,          140.,            0.,            0.,NA,NA,"",   839.544E+03,   838.696E+03,   838.696E+03
C:/temp/Job-5.odb,Step-1,Increment      1: Step Time =    1.000,"P-5-1",            26,          130.,            0.,            0.,NA,NA,"",   739.503E+03,   739.460E+03,   739.460E+03
C:/temp/Job-5.odb,Step-1,Increment      1: Step Time =    1.000,"P-5-1",            27,          120.,            0.,            0.,NA,NA,"",   649.539E+03,   651.062E+03,   651.062E+03
C:/temp/Job-5.odb,Step-1,Increment      1: Step Time =    1.000,"P-5-1",            28,          110.,            0.,            0.,NA,NA,"",   612.666E+03,   615.051E+03,   615.051E+03
C:/temp/Job-5.odb,Step-1,Increment      1: Step Time =    1.000,"P-5-1",            29,          100.,            0.,            0.,NA,NA,"",   655.925E+03,   658.041E+03,   658.041E+03
C:/temp/Job-5.odb,Step-1,Increment      1: Step Time =    1.000,"P-5-1",            30,           90.,            0.,            0.,NA,NA,"",   782.887E+03,   783.982E+03,   783.982E+03
C:/temp/Job-5.odb,Step-1,Increment      1: Step Time =    1.000,"P-5-1",            31,           80.,            0.,            0.,NA,NA,"",   975.971E+03,   975.269E+03,   975.269E+03
C:/temp/Job-5.odb,Step-1,Increment      1: Step Time =    1.000,"P-5-1",            32,           70.,            0.,            0.,NA,NA,"",   1.19051E+06,   1.18851E+06,   1.18851E+06
C:/temp/Job-5.odb,Step-1,Increment      1: Step Time =    1.000,"P-5-1",            33,           60.,            0.,            0.,NA,NA,"",   1.38769E+06,   1.38560E+06,   1.38560E+06
C:/temp/Job-5.odb,Step-1,Increment      1: Step Time =    1.000,"P-5-1",            34,           50.,            0.,            0.,NA,NA,"",   1.54818E+06,   1.54623E+06,   1.54623E+06
C:/temp/Job-5.odb,Step-1,Increment      1: Step Time =    1.000,"P-5-1",            35,           40.,            0.,            0.,NA,NA,"",   1.66184E+06,   1.66030E+06,   1.66030E+06
C:/temp/Job-5.odb,Step-1,Increment      1: Step Time =    1.000,"P-5-1",            36,           30.,            0.,            0.,NA,NA,"",   1.73684E+06,   1.73587E+06,   1.73587E+06
C:/temp/Job-5.odb,Step-1,Increment      1: Step Time =    1.000,"P-5-1",            37,           20.,            0.,            0.,NA,NA,"",   1.80144E+06,   1.80119E+06,   1.80119E+06
C:/temp/Job-5.odb,Step-1,Increment      1: Step Time =    1.000,"P-5-1",            38,           10.,            0.,            0.,NA,NA,"",   1.93543E+06,   1.93835E+06,   1.93835E+06
C:/temp/Job-5.odb,Step-1,Increment      1: Step Time =    1.000,"P-5-1",            39,          200.,            0.,            0.,NA,NA,"",   999.597E+03,   999.201E+03,   999.201E+03
C:/temp/Job-5.odb,Step-1,Increment      1: Step Time =    1.000,"P-5-1",            40,            0.,            0.,            0.,NA,NA,"",   2.32809E+06,   2.44127E+06,   2.44127E+06
C:/temp/Job-5.odb,Step-1,Increment      1: Step Time =    1.000,"P-5-1",            41,          200.,          190.,            0.,NA,NA,"",   1.00258E+06,   1.00051E+06,   1.00051E+06
C:/temp/Job-5.odb,Step-1,Increment      1: Step Time =    1.000,"P-5-1",            42,          200.,          180.,            0.,NA,NA,"",   1.00213E+06,   1.00203E+06,   1.00203E+06
C:/temp/Job-5.odb,Step-1,Increment      1: Step Time =    1.000,"P-5-1",            43,          200.,          170.,            0.,NA,NA,"",   986.934E+03,   1.00434E+06,   1.00434E+06
C:/temp/Job-5.odb,Step-1,Increment      1: Step Time =    1.000,"P-5-1",            44,          200.,          160.,            0.,NA,NA,"",   949.387E+03,   1.00412E+06,   1.00412E+06
C:/temp/Job-5.odb,Step-1,Increment      1: Step Time =    1.000,"P-5-1",            45,          200.,          150.,            0.,NA,NA,"",   901.656E+03,   1.00494E+06,   1.00494E+06
C:/temp/Job-5.odb,Step-1,Increment      1: Step Time =    1.000,"P-5-1",            46,          200.,          140.,            0.,NA,NA,"",   874.711E+03,   1.00754E+06,   1.00754E+06
C:/temp/Job-5.odb,Step-1,Increment      1: Step Time =    1.000,"P-5-1",            47,          200.,          130.,            0.,NA,NA,"",   907.149E+03,   1.01525E+06,   1.01525E+06
C:/temp/Job-5.odb,Step-1,Increment      1: Step Time =    1.000,"P-5-1",            48,          200.,          120.,            0.,NA,NA,"",   995.727E+03,   1.05285E+06,   1.05285E+06
C:/temp/Job-5.odb,Step-1,Increment      1: Step Time =    1.000,"P-5-1",            49,          200.,          110.,            0.,NA,NA,"",   1.08910E+06,   1.16965E+06,   1.16965E+06
C:/temp/Job-5.odb,Step-1,Increment      1: Step Time =    1.000,"P-5-1",            50,          200.,          100.,            0.,NA,NA,"",   1.12727E+06,   1.22642E+06,   1.22642E+06
C:/temp/Job-5.odb,Step-1,Increment      1: Step Time =    1.000,"P-5-1",            51,          200.,           90.,            0.,NA,NA,"",   1.08962E+06,   1.16954E+06,   1.16954E+06
C:/temp/Job-5.odb,Step-1,Increment      1: Step Time =    1.000,"P-5-1",            52,          200.,           80.,            0.,NA,NA,"",   997.622E+03,   1.05304E+06,   1.05304E+06
C:/temp/Job-5.odb,Step-1,Increment      1: Step Time =    1.000,"P-5-1",            53,          200.,           70.,            0.,NA,NA,"",   907.340E+03,   1.01454E+06,   1.01454E+06
C:/temp/Job-5.odb,Step-1,Increment      1: Step Time =    1.000,"P-5-1",            54,          200.,           60.,            0.,NA,NA,"",   875.663E+03,   1.00853E+06,   1.00853E+06
C:/temp/Job-5.odb,Step-1,Increment      1: Step Time =    1.000,"P-5-1",            55,          200.,           50.,            0.,NA,NA,"",   902.462E+03,   1.00601E+06,   1.00601E+06
C:/temp/Job-5.odb,Step-1,Increment      1: Step Time =    1.000,"P-5-1",            56,          200.,           40.,            0.,NA,NA,"",   949.701E+03,   1.00439E+06,   1.00439E+06
C:/temp/Job-5.odb,Step-1,Increment      1: Step Time =    1.000,"P-5-1",            57,          200.,           30.,            0.,NA,NA,"",   986.159E+03,   1.00334E+06,   1.00334E+06
C:/temp/Job-5.odb,Step-1,Increment      1: Step Time =    1.000,"P-5-1",            58,          200.,           20.,            0.,NA,NA,"",   1.00162E+06,   1.00211E+06,   1.00211E+06
C:/temp/Job-5.odb,Step-1,Increment      1: Step Time =    1.000,"P-5-1",            59,          200.,           10.,            0.,NA,NA,"",   1.00255E+06,   1.00062E+06,   1.00062E+06
C:/temp/Job-5.odb,Step-1,Increment      1: Step Time =    1.000,"P-5-1",            60,          200.,          200.,            0.,NA,NA,"",   999.613E+03,   999.220E+03,   999.220E+03
C:/temp/Job-5.odb,Step-1,Increment      1: Step Time =    1.000,"P-5-1",            61,           10.,          200.,            0.,NA,NA,"",   1.93756E+06,   1.94022E+06,   1.94022E+06
C:/temp/Job-5.odb,Step-1,Increment      1: Step Time =    1.000,"P-5-1",            62,           20.,          200.,            0.,NA,NA,"",   1.80127E+06,   1.80130E+06,   1.80130E+06
C:/temp/Job-5.odb,Step-1,Increment      1: Step Time =    1.000,"P-5-1",            63,           30.,          200.,            0.,NA,NA,"",   1.73580E+06,   1.73460E+06,   1.73460E+06
C:/temp/Job-5.odb,Step-1,Increment      1: Step Time =    1.000,"P-5-1",            64,           40.,          200.,            0.,NA,NA,"",   1.66073E+06,   1.65947E+06,   1.65947E+06
C:/temp/Job-5.odb,Step-1,Increment      1: Step Time =    1.000,"P-5-1",            65,           50.,          200.,            0.,NA,NA,"",   1.54805E+06,   1.54656E+06,   1.54656E+06
C:/temp/Job-5.odb,Step-1,Increment      1: Step Time =    1.000,"P-5-1",            66,           60.,          200.,            0.,NA,NA,"",   1.38833E+06,   1.38613E+06,   1.38613E+06
C:/temp/Job-5.odb,Step-1,Increment      1: Step Time =    1.000,"P-5-1",            67,           70.,          200.,            0.,NA,NA,"",   1.18970E+06,   1.18788E+06,   1.18788E+06
C:/temp/Job-5.odb,Step-1,Increment      1: Step Time =    1.000,"P-5-1",            68,           80.,          200.,            0.,NA,NA,"",   976.144E+03,   975.480E+03,   975.480E+03
C:/temp/Job-5.odb,Step-1,Increment      1: Step Time =    1.000,"P-5-1",            69,           90.,          200.,            0.,NA,NA,"",   784.829E+03,   785.646E+03,   785.646E+03
C:/temp/Job-5.odb,Step-1,Increment      1: Step Time =    1.000,"P-5-1",            70,          100.,          200.,            0.,NA,NA,"",   654.523E+03,   656.731E+03,   656.731E+03
C:/temp/Job-5.odb,Step-1,Increment      1: Step Time =    1.000,"P-5-1",            71,          110.,          200.,            0.,NA,NA,"",   611.192E+03,   613.901E+03,   613.901E+03
C:/temp/Job-5.odb,Step-1,Increment      1: Step Time =    1.000,"P-5-1",            72,          120.,          200.,            0.,NA,NA,"",   650.844E+03,   652.283E+03,   652.283E+03
C:/temp/Job-5.odb,Step-1,Increment      1: Step Time =    1.000,"P-5-1",            73,          130.,          200.,            0.,NA,NA,"",   739.523E+03,   739.415E+03,   739.415E+03
C:/temp/Job-5.odb,Step-1,Increment      1: Step Time =    1.000,"P-5-1",            74,          140.,          200.,            0.,NA,NA,"",   841.247E+03,   840.133E+03,   840.133E+03
C:/temp/Job-5.odb,Step-1,Increment      1: Step Time =    1.000,"P-5-1",            75,          150.,          200.,            0.,NA,NA,"",   924.808E+03,   923.460E+03,   923.460E+03
C:/temp/Job-5.odb,Step-1,Increment      1: Step Time =    1.000,"P-5-1",            76,          160.,          200.,            0.,NA,NA,"",   973.571E+03,   972.597E+03,   972.597E+03
C:/temp/Job-5.odb,Step-1,Increment      1: Step Time =    1.000,"P-5-1",            77,          170.,          200.,            0.,NA,NA,"",   990.772E+03,   990.346E+03,   990.346E+03
C:/temp/Job-5.odb,Step-1,Increment      1: Step Time =    1.000,"P-5-1",            78,          180.,          200.,            0.,NA,NA,"",   992.809E+03,   992.850E+03,   992.850E+03
C:/temp/Job-5.odb,Step-1,Increment      1: Step Time =    1.000,"P-5-1",            79,          190.,          200.,            0.,NA,NA,"",   995.441E+03,   995.583E+03,   995.583E+03
C:/temp/Job-5.odb,Step-1,Increment      1: Step Time =    1.000,"P-5-1",            80,            0.,          200.,            0.,NA,NA,"",   2.32762E+06,   2.44250E+06,   2.44250E+06
C:/temp/Job-5.odb,Step-1,Increment      1: Step Time =    1.000,"P-5-1",            81,            0.,           10.,            0.,NA,NA,"",   1.66718E+06,   1.82431E+06,   1.82431E+06
C:/temp/Job-5.odb,Step-1,Increment      1: Step Time =    1.000,"P-5-1",            82,            0.,           20.,            0.,NA,NA,"",   1.36957E+06,   1.52003E+06,   1.52003E+06
C:/temp/Job-5.odb,Step-1,Increment      1: Step Time =    1.000,"P-5-1",            83,            0.,           30.,            0.,NA,NA,"",   1.16729E+06,   1.30431E+06,   1.30431E+06
C:/temp/Job-5.odb,Step-1,Increment      1: Step Time =    1.000,"P-5-1",            84,            0.,           40.,            0.,NA,NA,"",   997.669E+03,   1.11874E+06,   1.11874E+06
C:/temp/Job-5.odb,Step-1,Increment      1: Step Time =    1.000,"P-5-1",            85,            0.,           50.,            0.,NA,NA,"",   837.842E+03,   939.390E+03,   939.390E+03
C:/temp/Job-5.odb,Step-1,Increment      1: Step Time =    1.000,"P-5-1",            86,            0.,           60.,            0.,NA,NA,"",   686.093E+03,   766.664E+03,   766.664E+03
C:/temp/Job-5.odb,Step-1,Increment      1: Step Time =    1.000,"P-5-1",            87,            0.,           70.,            0.,NA,NA,"",   532.758E+03,   593.209E+03,   593.209E+03
C:/temp/Job-5.odb,Step-1,Increment      1: Step Time =    1.000,"P-5-1",            88,            0.,           80.,            0.,NA,NA,"",   391.298E+03,   437.205E+03,   437.205E+03
C:/temp/Job-5.odb,Step-1,Increment      1: Step Time =    1.000,"P-5-1",            89,            0.,           90.,            0.,NA,NA,"",   280.050E+03,   318.194E+03,   318.194E+03
C:/temp/Job-5.odb,Step-1,Increment      1: Step Time =    1.000,"P-5-1",            90,            0.,          100.,            0.,NA,NA,"",   232.981E+03,   267.998E+03,   267.998E+03
C:/temp/Job-5.odb,Step-1,Increment      1: Step Time =    1.000,"P-5-1",            91,            0.,          110.,            0.,NA,NA,"",   281.705E+03,   320.001E+03,   320.001E+03
C:/temp/Job-5.odb,Step-1,Increment      1: Step Time =    1.000,"P-5-1",            92,            0.,          120.,            0.,NA,NA,"",   391.845E+03,   437.788E+03,   437.788E+03
C:/temp/Job-5.odb,Step-1,Increment      1: Step Time =    1.000,"P-5-1",            93,            0.,          130.,            0.,NA,NA,"",   532.289E+03,   592.600E+03,   592.600E+03
C:/temp/Job-5.odb,Step-1,Increment      1: Step Time =    1.000,"P-5-1",            94,            0.,          140.,            0.,NA,NA,"",   684.514E+03,   764.536E+03,   764.536E+03
C:/temp/Job-5.odb,Step-1,Increment      1: Step Time =    1.000,"P-5-1",            95,            0.,          150.,            0.,NA,NA,"",   840.872E+03,   941.820E+03,   941.820E+03
C:/temp/Job-5.odb,Step-1,Increment      1: Step Time =    1.000,"P-5-1",            96,            0.,          160.,            0.,NA,NA,"",   1.00234E+06,   1.12312E+06,   1.12312E+06
C:/temp/Job-5.odb,Step-1,Increment      1: Step Time =    1.000,"P-5-1",            97,            0.,          170.,            0.,NA,NA,"",   1.17130E+06,   1.30945E+06,   1.30945E+06
C:/temp/Job-5.odb,Step-1,Increment      1: Step Time =    1.000,"P-5-1",            98,            0.,          180.,            0.,NA,NA,"",   1.36870E+06,   1.52130E+06,   1.52130E+06
C:/temp/Job-5.odb,Step-1,Increment      1: Step Time =    1.000,"P-5-1",            99,            0.,          190.,            0.,NA,NA,"",   1.66558E+06,   1.82497E+06,   1.82497E+06
C:/temp/Job-5.odb,Step-1,Increment      1: Step Time =    1.000,"P-5-1",           100,       94.7418,       49.4628,            0.,NA,NA,"",   2.34049E+06,   2.48331E+06,   2.48331E+06
C:/temp/Job-5.odb,Step-1,Increment      1: Step Time =    1.000,"P-5-1",           101,       190.611,       50.4640,            0.,NA,NA,"",   974.519E+03,   1.05890E+06,   1.05890E+06
C:/temp/Job-5.odb,Step-1,Increment      1: Step Time =    1.000,"P-5-1",           102,       148.283,       83.9226,            0.,NA,NA,"",   967.400E+03,  -332.229E+03,  -332.229E+03
C:/temp/Job-5.odb,Step-1,Increment      1: Step Time =    1.000,"P-5-1",           103,       52.3418,       85.8687,            0.,NA,NA,"",   445.178E+03,  -405.184E+03,  -405.184E+03
C:/temp/Job-5.odb,Step-1,Increment      1: Step Time =    1.000,"P-5-1",           104,       186.926,       148.773,            0.,NA,NA,"",   1.02702E+06,   1.09443E+06,   1.09443E+06
C:/temp/Job-5.odb,Step-1,Increment      1: Step Time =    1.000,"P-5-1",           105,       177.471,       144.675,            0.,NA,NA,"",   1.20455E+06,   1.20336E+06,   1.20336E+06
C:/temp/Job-5.odb,Step-1,Increment      1: Step Time =    1.000,"P-5-1",           106,       167.479,       145.845,            0.,NA,NA,"",   1.40769E+06,   1.30906E+06,   1.30906E+06
C:/temp/Job-5.odb,Step-1,Increment      1: Step Time =    1.000,"P-5-1",           107,       156.420,       146.086,            0.,NA,NA,"",   1.61001E+06,   1.43227E+06,   1.43227E+06
C:/temp/Job-5.odb,Step-1,Increment      1: Step Time =    1.000,"P-5-1",           108,       149.348,       145.465,            0.,NA,NA,"",   1.72404E+06,   1.52756E+06,   1.52756E+06
C:/temp/Job-5.odb,Step-1,Increment      1: Step Time =    1.000,"P-5-1",           109,       136.621,       147.904,            0.,NA,NA,"",   1.84585E+06,   1.75549E+06,   1.75549E+06
C:/temp/Job-5.odb,Step-1,Increment      1: Step Time =    1.000,"P-5-1",           110,       128.976,       147.044,            0.,NA,NA,"",   1.93888E+06,   1.94732E+06,   1.94732E+06
C:/temp/Job-5.odb,Step-1,Increment      1: Step Time =    1.000,"P-5-1",           111,       117.573,       149.548,            0.,NA,NA,"",   2.15193E+06,   2.28372E+06,   2.28372E+06
C:/temp/Job-5.odb,Step-1,Increment      1: Step Time =    1.000,"P-5-1",           112,       106.370,       149.400,            0.,NA,NA,"",   2.49707E+06,   2.66297E+06,   2.66297E+06
C:/temp/Job-5.odb,Step-1,Increment      1: Step Time =    1.000,"P-5-1",           113,       94.8771,       149.859,            0.,NA,NA,"",   2.38708E+06,   2.53520E+06,   2.53520E+06
C:/temp/Job-5.odb,Step-1,Increment      1: Step Time =    1.000,"P-5-1",           114,       84.6368,       149.612,            0.,NA,NA,"",   2.09071E+06,   2.16876E+06,   2.16876E+06
C:/temp/Job-5.odb,Step-1,Increment      1: Step Time =    1.000,"P-5-1",           115,       73.8723,       149.070,            0.,NA,NA,"",   1.81299E+06,   1.76941E+06,   1.76941E+06
C:/temp/Job-5.odb,Step-1,Increment      1: Step Time =    1.000,"P-5-1",           116,       63.5144,       150.240,            0.,NA,NA,"",   1.68262E+06,   1.55560E+06,   1.55560E+06
C:/temp/Job-5.odb,Step-1,Increment      1: Step Time =    1.000,"P-5-1",           117,       52.9663,       147.137,            0.,NA,NA,"",   1.45482E+06,   1.30800E+06,   1.30800E+06
C:/temp/Job-5.odb,Step-1,Increment      1: Step Time =    1.000,"P-5-1",           118,       42.3379,       149.716,            0.,NA,NA,"",   1.31897E+06,   1.22333E+06,   1.22333E+06
C:/temp/Job-5.odb,Step-1,Increment      1: Step Time =    1.000,"P-5-1",           119,       34.0347,       148.529,            0.,NA,NA,"",   1.16334E+06,   1.11511E+06,   1.11511E+06
C:/temp/Job-5.odb,Step-1,Increment      1: Step Time =    1.000,"P-5-1",           120,       19.5696,       145.241,            0.,NA,NA,"",   892.638E+03,   929.612E+03,   929.612E+03
C:/temp/Job-5.odb,Step-1,Increment      1: Step Time =    1.000,"P-5-1",           121,       9.72608,       149.965,            0.,NA,NA,"",   895.372E+03,   974.790E+03,   974.790E+03
C:/temp/Job-5.odb,Step-1,Increment      1: Step Time =    1.000,"P-5-1",           122,       10.0284,       134.932,            0.,NA,NA,"",   621.384E+03,   682.922E+03,   682.922E+03
C:/temp/Job-5.odb,Step-1,Increment      1: Step Time =    1.000,"P-5-1",           123,       20.0403,       134.866,            0.,NA,NA,"",   672.223E+03,   707.638E+03,   707.638E+03
C:/temp/Job-5.odb,Step-1,Increment      1: Step Time =    1.000,"P-5-1",           124,       31.7559,       135.419,            0.,NA,NA,"",   803.621E+03,   774.020E+03,   774.020E+03
C:/temp/Job-5.odb,Step-1,Increment      1: Step Time =    1.000,"P-5-1",           125,       42.0253,       134.054,            0.,NA,NA,"",   910.414E+03,   803.322E+03,   803.322E+03
C:/temp/Job-5.odb,Step-1,Increment      1: Step Time =    1.000,"P-5-1",           126,       51.7126,       136.093,            0.,NA,NA,"",   1.11233E+06,   946.162E+03,   946.162E+03
C:/temp/Job-5.odb,Step-1,Increment      1: Step Time =    1.000,"P-5-1",           127,       61.9624,       136.345,            0.,NA,NA,"",   1.21004E+06,   1.05368E+06,   1.05368E+06
C:/temp/Job-5.odb,Step-1,Increment      1: Step Time =    1.000,"P-5-1",           128,       73.4790,       138.165,            0.,NA,NA,"",   1.50370E+06,   1.48516E+06,   1.48516E+06
C:/temp/Job-5.odb,Step-1,Increment      1: Step Time =    1.000,"P-5-1",           129,       126.296,       136.946,            0.,NA,NA,"",   2.10497E+06,   2.13374E+06,   2.13374E+06
C:/temp/Job-5.odb,Step-1,Increment      1: Step Time =    1.000,"P-5-1",           130,       133.718,       136.744,            0.,NA,NA,"",   1.74274E+06,   1.66566E+06,   1.66566E+06
C:/temp/Job-5.odb,Step-1,Increment      1: Step Time =    1.000,"P-5-1",           131,       145.466,       138.585,            0.,NA,NA,"",   1.73866E+06,   1.49837E+06,   1.49837E+06
C:/temp/Job-5.odb,Step-1,Increment      1: Step Time =    1.000,"P-5-1",           132,       159.429,       136.384,            0.,NA,NA,"",   1.52733E+06,   1.32044E+06,   1.32044E+06
C:/temp/Job-5.odb,Step-1,Increment      1: Step Time =    1.000,"P-5-1",           133,       167.846,       131.726,            0.,NA,NA,"",   1.30710E+06,   1.19719E+06,   1.19719E+06
C:/temp/Job-5.odb,Step-1,Increment      1: Step Time =    1.000,"P-5-1",           134,       181.707,       135.108,            0.,NA,NA,"",   1.09570E+06,   1.15639E+06,   1.15639E+06
C:/temp/Job-5.odb,Step-1,Increment      1: Step Time =    1.000,"P-5-1",           135,       190.768,       135.030,            0.,NA,NA,"",   947.836E+03,   1.07806E+06,   1.07806E+06
C:/temp/Job-5.odb,Step-1,Increment      1: Step Time =    1.000,"P-5-1",           136,       136.865,       125.634,            0.,NA,NA,"",   861.150E+03,   716.212E+03,   716.212E+03
C:/temp/Job-5.odb,Step-1,Increment      1: Step Time =    1.000,"P-5-1",           137,       146.841,       126.061,            0.,NA,NA,"",   1.36542E+06,   998.972E+03,   998.972E+03
C:/temp/Job-5.odb,Step-1,Increment      1: Step Time =    1.000,"P-5-1",           138,       156.887,       125.679,            0.,NA,NA,"",   1.34889E+06,   1.06809E+06,   1.06809E+06
C:/temp/Job-5.odb,Step-1,Increment      1: Step Time =    1.000,"P-5-1",           139,       171.868,       124.863,            0.,NA,NA,"",   1.12657E+06,   1.09036E+06,   1.09036E+06
C:/temp/Job-5.odb,Step-1,Increment      1: Step Time =    1.000,"P-5-1",           140,       181.305,       125.810,            0.,NA,NA,"",   1.02288E+06,   1.11241E+06,   1.11241E+06
C:/temp/Job-5.odb,Step-1,Increment      1: Step Time =    1.000,"P-5-1",           141,       190.330,       125.241,            0.,NA,NA,"",   943.749E+03,   1.08327E+06,   1.08327E+06
C:/temp/Job-5.odb,Step-1,Increment      1: Step Time =    1.000,"P-5-1",           142,       147.221,       114.140,            0.,NA,NA,"",   909.481E+03,  -714.894E+03,  -714.894E+03
C:/temp/Job-5.odb,Step-1,Increment      1: Step Time =    1.000,"P-5-1",           143,       156.564,       114.930,            0.,NA,NA,"",   914.852E+03,   624.134E+03,   624.134E+03
C:/temp/Job-5.odb,Step-1,Increment      1: Step Time =    1.000,"P-5-1",           144,       169.525,       116.876,            0.,NA,NA,"",   939.247E+03,   912.318E+03,   912.318E+03
C:/temp/Job-5.odb,Step-1,Increment      1: Step Time =    1.000,"P-5-1",           145,       179.032,       111.947,            0.,NA,NA,"",   799.002E+03,   907.700E+03,   907.700E+03
C:/temp/Job-5.odb,Step-1,Increment      1: Step Time =    1.000,"P-5-1",           146,       189.586,       115.159,            0.,NA,NA,"",   921.327E+03,   1.04467E+06,   1.04467E+06
C:/temp/Job-5.odb,Step-1,Increment      1: Step Time =    1.000,"P-5-1",           147,       151.063,       105.398,            0.,NA,NA,"",   668.961E+03,  -609.290E+03,  -609.290E+03
C:/temp/Job-5.odb,Step-1,Increment      1: Step Time =    1.000,"P-5-1",           148,       160.968,       108.253,            0.,NA,NA,"",   597.173E+03,   478.874E+03,   478.874E+03
C:/temp/Job-5.odb,Step-1,Increment      1: Step Time =    1.000,"P-5-1",           149,       168.874,       105.398,            0.,NA,NA,"",   543.364E+03,    588.47E+03,    588.47E+03
C:/temp/Job-5.odb,Step-1,Increment      1: Step Time =    1.000,"P-5-1",           150,       179.997,       105.596,            0.,NA,NA,"",   721.511E+03,   826.901E+03,   826.901E+03
C:/temp/Job-5.odb,Step-1,Increment      1: Step Time =    1.000,"P-5-1",           151,       189.675,       104.948,            0.,NA,NA,"",   897.334E+03,   960.573E+03,   960.573E+03
C:/temp/Job-5.odb,Step-1,Increment      1: Step Time =    1.000,"P-5-1",           152,       150.809,       94.4633,            0.,NA,NA,"",   708.193E+03,  -659.194E+03,  -659.194E+03
C:/temp/Job-5.odb,Step-1,Increment      1: Step Time =    1.000,"P-5-1",           153,       162.380,       95.8559,            0.,NA,NA,"",   436.145E+03,   388.934E+03,   388.934E+03
C:/temp/Job-5.odb,Step-1,Increment      1: Step Time =    1.000,"P-5-1",           154,       169.993,       93.8225,            0.,NA,NA,"",   554.305E+03,   611.466E+03,   611.466E+03
C:/temp/Job-5.odb,Step-1,Increment      1: Step Time =    1.000,"P-5-1",           155,       178.704,       93.6813,            0.,NA,NA,"",   706.934E+03,   810.314E+03,   810.314E+03
C:/temp/Job-5.odb,Step-1,Increment      1: Step Time =    1.000,"P-5-1",           156,       189.576,       94.7622,            0.,NA,NA,"",   900.559E+03,   966.682E+03,   966.682E+03
C:/temp/Job-5.odb,Step-1,Increment      1: Step Time =    1.000,"P-5-1",           157,       137.390,       73.6009,            0.,NA,NA,"",   961.877E+03,   803.388E+03,   803.388E+03
C:/temp/Job-5.odb,Step-1,Increment      1: Step Time =    1.000,"P-5-1",           158,       147.701,       73.2995,            0.,NA,NA,"",   1.41429E+06,   1.05085E+06,   1.05085E+06
C:/temp/Job-5.odb,Step-1,Increment      1: Step Time =    1.000,"P-5-1",           159,       157.321,       74.4479,            0.,NA,NA,"",   1.34971E+06,   1.07553E+06,   1.07553E+06
C:/temp/Job-5.odb,Step-1,Increment      1: Step Time =    1.000,"P-5-1",           160,       169.575,       73.4025,            0.,NA,NA,"",   1.19753E+06,   1.11965E+06,   1.11965E+06
C:/temp/Job-5.odb,Step-1,Increment      1: Step Time =    1.000,"P-5-1",           161,       181.799,       74.1946,            0.,NA,NA,"",   1.02186E+06,   1.11061E+06,   1.11061E+06
C:/temp/Job-5.odb,Step-1,Increment      1: Step Time =    1.000,"P-5-1",           162,       190.584,       74.6228,            0.,NA,NA,"",   941.419E+03,   1.08028E+06,   1.08028E+06
C:/temp/Job-5.odb,Step-1,Increment      1: Step Time =    1.000,"P-5-1",           163,       190.176,       84.5196,            0.,NA,NA,"",   925.462E+03,   1.04669E+06,   1.04669E+06
C:/temp/Job-5.odb,Step-1,Increment      1: Step Time =    1.000,"P-5-1",           164,       180.798,       83.3272,            0.,NA,NA,"",   895.615E+03,   1.00658E+06,   1.00658E+06
C:/temp/Job-5.odb,Step-1,Increment      1: Step Time =    1.000,"P-5-1",           165,       168.306,       83.5892,            0.,NA,NA,"",   922.469E+03,   878.336E+03,   878.336E+03
C:/temp/Job-5.odb,Step-1,Increment      1: Step Time =    1.000,"P-5-1",           166,       159.108,       84.1098,            0.,NA,NA,"",   942.355E+03,   718.727E+03,   718.727E+03
C:/temp/Job-5.odb,Step-1,Increment      1: Step Time =    1.000,"P-5-1",           167,       126.205,       62.5403,            0.,NA,NA,"",   2.13477E+06,   2.16026E+06,   2.16026E+06
C:/temp/Job-5.odb,Step-1,Increment      1: Step Time =    1.000,"P-5-1",           168,       139.114,       64.8453,            0.,NA,NA,"",   1.64667E+06,   1.46291E+06,   1.46291E+06
C:/temp/Job-5.odb,Step-1,Increment      1: Step Time =    1.000,"P-5-1",           169,       150.063,       62.8738,            0.,NA,NA,"",   1.67721E+06,   1.41441E+06,   1.41441E+06
C:/temp/Job-5.odb,Step-1,Increment      1: Step Time =    1.000,"P-5-1",           170,       159.601,       64.4621,            0.,NA,NA,"",   1.51648E+06,   1.30703E+06,   1.30703E+06
C:/temp/Job-5.odb,Step-1,Increment      1: Step Time =    1.000,"P-5-1",           171,       170.650,       64.2624,            0.,NA,NA,"",   1.30115E+06,   1.23061E+06,   1.23061E+06
C:/temp/Job-5.odb,Step-1,Increment      1: Step Time =    1.000,"P-5-1",           172,       181.141,       65.1578,            0.,NA,NA,"",   1.10543E+06,   1.16114E+06,   1.16114E+06
C:/temp/Job-5.odb,Step-1,Increment      1: Step Time =    1.000,"P-5-1",           173,       190.611,       64.9620,            0.,NA,NA,"",   952.444E+03,   1.08182E+06,   1.08182E+06
C:/temp/Job-5.odb,Step-1,Increment      1: Step Time =    1.000,"P-5-1",           174,       102.192,       50.2208,            0.,NA,NA,"",   2.48088E+06,   2.64575E+06,   2.64575E+06
C:/temp/Job-5.odb,Step-1,Increment      1: Step Time =    1.000,"P-5-1",           175,       116.899,       50.5376,            0.,NA,NA,"",   2.17027E+06,   2.30816E+06,   2.30816E+06
C:/temp/Job-5.odb,Step-1,Increment      1: Step Time =    1.000,"P-5-1",           176,       9.07285,       50.2317,            0.,NA,NA,"",   888.278E+03,   969.989E+03,   969.989E+03
C:/temp/Job-5.odb,Step-1,Increment      1: Step Time =    1.000,"P-5-1",           177,       20.0429,       50.6794,            0.,NA,NA,"",   986.556E+03,   1.02128E+06,   1.02128E+06
C:/temp/Job-5.odb,Step-1,Increment      1: Step Time =    1.000,"P-5-1",           178,       30.4162,       53.2562,            0.,NA,NA,"",   1.06393E+06,   1.04009E+06,   1.04009E+06
C:/temp/Job-5.odb,Step-1,Increment      1: Step Time =    1.000,"P-5-1",           179,       40.8403,       54.1760,            0.,NA,NA,"",   1.21590E+06,   1.12402E+06,   1.12402E+06
C:/temp/Job-5.odb,Step-1,Increment      1: Step Time =    1.000,"P-5-1",           180,       50.4492,       53.6847,            0.,NA,NA,"",   1.39402E+06,   1.25056E+06,   1.25056E+06
C:/temp/Job-5.odb,Step-1,Increment      1: Step Time =    1.000,"P-5-1",           181,       62.0868,       50.5879,            0.,NA,NA,"",   1.65024E+06,   1.51727E+06,   1.51727E+06
C:/temp/Job-5.odb,Step-1,Increment      1: Step Time =    1.000,"P-5-1",           182,       70.5971,       52.0386,            0.,NA,NA,"",   1.75765E+06,   1.68075E+06,   1.68075E+06
C:/temp/Job-5.odb,Step-1,Increment      1: Step Time =    1.000,"P-5-1",           183,       81.7152,       49.3820,            0.,NA,NA,"",   1.96760E+06,   2.01570E+06,   2.01570E+06
C:/temp/Job-5.odb,Step-1,Increment      1: Step Time =    1.000,"P-5-1",           184,       127.546,       52.5534,            0.,NA,NA,"",   1.94223E+06,   1.97045E+06,   1.97045E+06
C:/temp/Job-5.odb,Step-1,Increment      1: Step Time =    1.000,"P-5-1",           185,       138.383,       53.3983,            0.,NA,NA,"",   1.83492E+06,   1.71448E+06,   1.71448E+06
C:/temp/Job-5.odb,Step-1,Increment      1: Step Time =    1.000,"P-5-1",           186,       146.124,       53.9426,            0.,NA,NA,"",   1.76686E+06,   1.58717E+06,   1.58717E+06
C:/temp/Job-5.odb,Step-1,Increment      1: Step Time =    1.000,"P-5-1",           187,       159.150,       54.5357,            0.,NA,NA,"",   1.56098E+06,   1.39687E+06,   1.39687E+06
C:/temp/Job-5.odb,Step-1,Increment      1: Step Time =    1.000,"P-5-1",           188,       167.792,       52.7555,            0.,NA,NA,"",   1.38863E+06,   1.29895E+06,   1.29895E+06
C:/temp/Job-5.odb,Step-1,Increment      1: Step Time =    1.000,"P-5-1",           189,       181.275,       50.9669,            0.,NA,NA,"",   1.12879E+06,   1.15599E+06,   1.15599E+06
C:/temp/Job-5.odb,Step-1,Increment      1: Step Time =    1.000,"P-5-1",           190,       73.3521,       62.6881,            0.,NA,NA,"",   1.43560E+06,   1.41994E+06,   1.41994E+06
C:/temp/Job-5.odb,Step-1,Increment      1: Step Time =    1.000,"P-5-1",           191,       64.7545,       62.2523,            0.,NA,NA,"",   1.30599E+06,   1.18104E+06,   1.18104E+06
C:/temp/Job-5.odb,Step-1,Increment      1: Step Time =    1.000,"P-5-1",           192,       52.3549,       63.4701,            0.,NA,NA,"",   1.14257E+06,   972.305E+03,   972.305E+03
C:/temp/Job-5.odb,Step-1,Increment      1: Step Time =    1.000,"P-5-1",           193,       41.5861,       63.5721,            0.,NA,NA,"",   980.306E+03,   877.802E+03,   877.802E+03
C:/temp/Job-5.odb,Step-1,Increment      1: Step Time =    1.000,"P-5-1",           194,       34.2745,       64.3505,            0.,NA,NA,"",   845.678E+03,   799.573E+03,   799.573E+03
C:/temp/Job-5.odb,Step-1,Increment      1: Step Time =    1.000,"P-5-1",           195,       23.2110,       64.9317,            0.,NA,NA,"",   702.685E+03,   725.024E+03,   725.024E+03
C:/temp/Job-5.odb,Step-1,Increment      1: Step Time =    1.000,"P-5-1",           196,       9.50559,       65.0238,            0.,NA,NA,"",   622.014E+03,   684.356E+03,   684.356E+03
C:/temp/Job-5.odb,Step-1,Increment      1: Step Time =    1.000,"P-5-1",           197,       62.8246,       74.3863,            0.,NA,NA,"",   479.424E+03,   41.9359E+03,   41.9359E+03
C:/temp/Job-5.odb,Step-1,Increment      1: Step Time =    1.000,"P-5-1",           198,       52.4960,       74.4484,            0.,NA,NA,"",   701.290E+03,   328.033E+03,   328.033E+03
C:/temp/Job-5.odb,Step-1,Increment      1: Step Time =    1.000,"P-5-1",           199,       41.9458,       73.9442,            0.,NA,NA,"",   662.161E+03,   552.617E+03,   552.617E+03
C:/temp/Job-5.odb,Step-1,Increment      1: Step Time =    1.000,"P-5-1",           200,       31.5098,       76.9566,            0.,NA,NA,"",   481.234E+03,   465.710E+03,   465.710E+03
C:/temp/Job-5.odb,Step-1,Increment      1: Step Time =    1.000,"P-5-1",           201,       19.4422,       74.5059,            0.,NA,NA,"",   475.172E+03,   513.938E+03,   513.938E+03
C:/temp/Job-5.odb,Step-1,Increment      1: Step Time =    1.000,"P-5-1",           202,       9.98260,       75.1238,            0.,NA,NA,"",   447.183E+03,   499.760E+03,   499.760E+03
C:/temp/Job-5.odb,Step-1,Increment      1: Step Time =    1.000,"P-5-1",           203,       41.4997,       84.6611,            0.,NA,NA,"",   346.135E+03,   55.3081E+03,   55.3081E+03
C:/temp/Job-5.odb,Step-1,Increment      1: Step Time =    1.000,"P-5-1",           204,       35.3192,       84.8178,            0.,NA,NA,"",   311.806E+03,   276.589E+03,   276.589E+03
C:/temp/Job-5.odb,Step-1,Increment      1: Step Time =    1.000,"P-5-1",           205,       10.4045,       85.5726,            0.,NA,NA,"",   297.187E+03,   340.744E+03,   340.744E+03
C:/temp/Job-5.odb,Step-1,Increment      1: Step Time =    1.000,"P-5-1",           206,       47.9658,       104.384,            0.,NA,NA,"",   301.907E+03,  -321.829E+03,  -321.829E+03
C:/temp/Job-5.odb,Step-1,Increment      1: Step Time =    1.000,"P-5-1",           207,       39.9188,       109.302,            0.,NA,NA,"",   208.381E+03,   21.9091E+03,   21.9091E+03
C:/temp/Job-5.odb,Step-1,Increment      1: Step Time =    1.000,"P-5-1",           208,       28.9056,       104.600,            0.,NA,NA,"",   137.045E+03,   153.262E+03,   153.262E+03
C:/temp/Job-5.odb,Step-1,Increment      1: Step Time =    1.000,"P-5-1",           209,       18.8199,       104.508,            0.,NA,NA,"",   190.622E+03,   212.233E+03,   212.233E+03
C:/temp/Job-5.odb,Step-1,Increment      1: Step Time =    1.000,"P-5-1",           210,       9.52043,       105.035,            0.,NA,NA,"",   220.218E+03,   250.605E+03,   250.605E+03
C:/temp/Job-5.odb,Step-1,Increment      1: Step Time =    1.000,"P-5-1",           211,       9.43541,       95.5177,            0.,NA,NA,"",   216.419E+03,   245.495E+03,   245.495E+03
C:/temp/Job-5.odb,Step-1,Increment      1: Step Time =    1.000,"P-5-1",           212,       22.3347,       95.4900,            0.,NA,NA,"",   171.566E+03,   191.135E+03,   191.135E+03
C:/temp/Job-5.odb,Step-1,Increment      1: Step Time =    1.000,"P-5-1",           213,       31.5356,       92.6532,            0.,NA,NA,"",   155.129E+03,   162.888E+03,   162.888E+03
C:/temp/Job-5.odb,Step-1,Increment      1: Step Time =    1.000,"P-5-1",           214,       41.3231,       91.2593,            0.,NA,NA,"",   203.299E+03,  -80.5643E+03,  -80.5643E+03
C:/temp/Job-5.odb,Step-1,Increment      1: Step Time =    1.000,"P-5-1",           215,       50.3232,       93.3201,            0.,NA,NA,"",   380.849E+03,  -398.834E+03,  -398.834E+03
C:/temp/Job-5.odb,Step-1,Increment      1: Step Time =    1.000,"P-5-1",           216,       52.4785,       116.739,            0.,NA,NA,"",   452.303E+03,  -370.284E+03,  -370.284E+03
C:/temp/Job-5.odb,Step-1,Increment      1: Step Time =    1.000,"P-5-1",           217,       41.8074,       116.617,            0.,NA,NA,"",   384.661E+03,   187.839E+03,   187.839E+03
C:/temp/Job-5.odb,Step-1,Increment      1: Step Time =    1.000,"P-5-1",           218,       32.8508,       120.367,            0.,NA,NA,"",   433.671E+03,    414.35E+03,    414.35E+03
C:/temp/Job-5.odb,Step-1,Increment      1: Step Time =    1.000,"P-5-1",           219,       21.0296,       116.329,            0.,NA,NA,"",   309.578E+03,   344.839E+03,   344.839E+03
C:/temp/Job-5.odb,Step-1,Increment      1: Step Time =    1.000,"P-5-1",           220,       10.3354,       114.848,            0.,NA,NA,"",   302.035E+03,   346.103E+03,   346.103E+03
C:/temp/Job-5.odb,Step-1,Increment      1: Step Time =    1.000,"P-5-1",           221,       60.2058,       126.361,            0.,NA,NA,"",   601.326E+03,   316.227E+03,   316.227E+03
C:/temp/Job-5.odb,Step-1,Increment      1: Step Time =    1.000,"P-5-1",           222,       48.0336,       125.974,            0.,NA,NA,"",   711.149E+03,   539.692E+03,   539.692E+03
C:/temp/Job-5.odb,Step-1,Increment      1: Step Time =    1.000,"P-5-1",           223,       38.9695,       125.995,            0.,NA,NA,"",   627.637E+03,   546.968E+03,   546.968E+03
C:/temp/Job-5.odb,Step-1,Increment      1: Step Time =    1.000,"P-5-1",           224,       31.5102,       125.608,            0.,NA,NA,"",   538.030E+03,   524.720E+03,   524.720E+03
C:/temp/Job-5.odb,Step-1,Increment      1: Step Time =    1.000,"P-5-1",           225,       20.3207,       125.194,            0.,NA,NA,"",   467.936E+03,   504.875E+03,   504.875E+03
C:/temp/Job-5.odb,Step-1,Increment      1: Step Time =    1.000,"P-5-1",           226,       10.2181,       124.909,            0.,NA,NA,"",     447.1E+03,   499.659E+03,   499.659E+03
C:/temp/Job-5.odb,Step-1,Increment      1: Step Time =    1.000,"P-5-1",           227,       189.544,       10.3544,            0.,NA,NA,"",   1.00432E+06,   1.00588E+06,   1.00588E+06
C:/temp/Job-5.odb,Step-1,Increment      1: Step Time =    1.000,"P-5-1",           228,       179.354,       10.1214,            0.,NA,NA,"",   1.01762E+06,   1.01785E+06,   1.01785E+06
C:/temp/Job-5.odb,Step-1,Increment      1: Step Time =    1.000,"P-5-1",           229,       169.076,       9.92130,            0.,NA,NA,"",   1.03452E+06,   1.03000E+06,   1.03000E+06
C:/temp/Job-5.odb,Step-1,Increment      1: Step Time =    1.000,"P-5-1",           230,       158.375,       10.6309,            0.,NA,NA,"",   1.04834E+06,   1.03851E+06,   1.03851E+06
C:/temp/Job-5.odb,Step-1,Increment      1: Step Time =    1.000,"P-5-1",           231,       149.280,       9.08506,            0.,NA,NA,"",   1.01601E+06,   1.00737E+06,   1.00737E+06
C:/temp/Job-5.odb,Step-1,Increment      1: Step Time =    1.000,"P-5-1",           232,       135.054,       10.2224,            0.,NA,NA,"",    974.03E+03,   968.970E+03,   968.970E+03
C:/temp/Job-5.odb,Step-1,Increment      1: Step Time =    1.000,"P-5-1",           233,       124.827,       9.73260,            0.,NA,NA,"",   907.351E+03,   913.138E+03,   913.138E+03
C:/temp/Job-5.odb,Step-1,Increment      1: Step Time =    1.000,"P-5-1",           234,       114.808,       9.75036,            0.,NA,NA,"",   865.211E+03,   880.589E+03,   880.589E+03
C:/temp/Job-5.odb,Step-1,Increment      1: Step Time =    1.000,"P-5-1",           235,       104.955,       9.94832,            0.,NA,NA,"",   881.305E+03,   901.163E+03,   901.163E+03
C:/temp/Job-5.odb,Step-1,Increment      1: Step Time =    1.000,"P-5-1",           236,       95.0651,       9.98666,            0.,NA,NA,"",   964.514E+03,   976.892E+03,   976.892E+03
C:/temp/Job-5.odb,Step-1,Increment      1: Step Time =    1.000,"P-5-1",           237,       85.1836,       9.81802,            0.,NA,NA,"",   1.09558E+06,   1.09567E+06,   1.09567E+06
C:/temp/Job-5.odb,Step-1,Increment      1: Step Time =    1.000,"P-5-1",           238,       75.2358,       10.2208,            0.,NA,NA,"",   1.25323E+06,   1.23893E+06,   1.23893E+06
C:/temp/Job-5.odb,Step-1,Increment      1: Step Time =    1.000,"P-5-1",           239,       65.1053,       10.0929,            0.,NA,NA,"",   1.38819E+06,   1.36914E+06,   1.36914E+06
C:/temp/Job-5.odb,Step-1,Increment      1: Step Time =    1.000,"P-5-1",           240,       50.2488,       9.50318,            0.,NA,NA,"",   1.54197E+06,   1.52622E+06,   1.52622E+06
C:/temp/Job-5.odb,Step-1,Increment      1: Step Time =    1.000,"P-5-1",           241,       40.5795,       9.32454,            0.,NA,NA,"",   1.61787E+06,   1.60703E+06,   1.60703E+06
C:/temp/Job-5.odb,Step-1,Increment      1: Step Time =    1.000,"P-5-1",           242,       30.7687,       9.54436,            0.,NA,NA,"",   1.67748E+06,   1.67329E+06,   1.67329E+06
C:/temp/Job-5.odb,Step-1,Increment      1: Step Time =    1.000,"P-5-1",           243,       20.7214,       9.90443,            0.,NA,NA,"",   1.73561E+06,   1.74428E+06,   1.74428E+06
C:/temp/Job-5.odb,Step-1,Increment      1: Step Time =    1.000,"P-5-1",           244,       10.5747,       10.1655,            0.,NA,NA,"",   1.79716E+06,   1.85208E+06,   1.85208E+06
C:/temp/Job-5.odb,Step-1,Increment      1: Step Time =    1.000,"P-5-1",           245,       189.249,       20.9527,            0.,NA,NA,"",   1.01160E+06,   1.01970E+06,   1.01970E+06
C:/temp/Job-5.odb,Step-1,Increment      1: Step Time =    1.000,"P-5-1",           246,       176.258,       23.4572,            0.,NA,NA,"",   1.08745E+06,   1.08362E+06,   1.08362E+06
C:/temp/Job-5.odb,Step-1,Increment      1: Step Time =    1.000,"P-5-1",           247,       168.282,       23.4156,            0.,NA,NA,"",   1.15000E+06,   1.12964E+06,   1.12964E+06
C:/temp/Job-5.odb,Step-1,Increment      1: Step Time =    1.000,"P-5-1",           248,       159.098,       19.9831,            0.,NA,NA,"",   1.16396E+06,   1.13775E+06,   1.13775E+06
C:/temp/Job-5.odb,Step-1,Increment      1: Step Time =    1.000,"P-5-1",           249,       148.213,       20.1024,            0.,NA,NA,"",   1.20120E+06,   1.17197E+06,   1.17197E+06
C:/temp/Job-5.odb,Step-1,Increment      1: Step Time =    1.000,"P-5-1",           250,       133.722,       21.8909,            0.,NA,NA,"",   1.24269E+06,   1.23720E+06,   1.23720E+06
C:/temp/Job-5.odb,Step-1,Increment      1: Step Time =    1.000,"P-5-1",           251,       124.138,       18.4307,            0.,NA,NA,"",   1.12507E+06,   1.14429E+06,   1.14429E+06
C:/temp/Job-5.odb,Step-1,Increment      1: Step Time =    1.000,"P-5-1",           252,       114.865,       19.6431,            0.,NA,NA,"",   1.12286E+06,   1.17034E+06,   1.17034E+06
C:/temp/Job-5.odb,Step-1,Increment      1: Step Time =    1.000,"P-5-1",           253,       104.983,       20.0767,            0.,NA,NA,"",   1.14804E+06,   1.20861E+06,   1.20861E+06
C:/temp/Job-5.odb,Step-1,Increment      1: Step Time =    1.000,"P-5-1",           254,       95.0500,       20.3392,            0.,NA,NA,"",   1.23437E+06,   1.27969E+06,   1.27969E+06
C:/temp/Job-5.odb,Step-1,Increment      1: Step Time =    1.000,"P-5-1",           255,       85.4764,       18.1843,            0.,NA,NA,"",   1.30585E+06,   1.31319E+06,   1.31319E+06
C:/temp/Job-5.odb,Step-1,Increment      1: Step Time =    1.000,"P-5-1",           256,       76.5898,       22.2070,            0.,NA,NA,"",   1.49487E+06,   1.47133E+06,   1.47133E+06
C:/temp/Job-5.odb,Step-1,Increment      1: Step Time =    1.000,"P-5-1",           257,       64.7670,       20.3027,            0.,NA,NA,"",   1.54527E+06,   1.49441E+06,   1.49441E+06
C:/temp/Job-5.odb,Step-1,Increment      1: Step Time =    1.000,"P-5-1",           258,       50.0838,       19.0499,            0.,NA,NA,"",   1.57867E+06,   1.53374E+06,   1.53374E+06
C:/temp/Job-5.odb,Step-1,Increment      1: Step Time =    1.000,"P-5-1",           259,       41.1563,       18.3023,            0.,NA,NA,"",   1.59577E+06,   1.56373E+06,   1.56373E+06
C:/temp/Job-5.odb,Step-1,Increment      1: Step Time =    1.000,"P-5-1",           260,       32.0193,       18.5683,            0.,NA,NA,"",   1.60453E+06,   1.59064E+06,   1.59064E+06
C:/temp/Job-5.odb,Step-1,Increment      1: Step Time =    1.000,"P-5-1",           261,       21.3959,       20.4808,            0.,NA,NA,"",   1.56888E+06,   1.59285E+06,   1.59285E+06
C:/temp/Job-5.odb,Step-1,Increment      1: Step Time =    1.000,"P-5-1",           262,       12.4306,       21.3901,            0.,NA,NA,"",   1.48102E+06,   1.56069E+06,   1.56069E+06
C:/temp/Job-5.odb,Step-1,Increment      1: Step Time =    1.000,"P-5-1",           263,       190.294,       31.1775,            0.,NA,NA,"",   1.00596E+06,   1.03002E+06,   1.03002E+06
C:/temp/Job-5.odb,Step-1,Increment      1: Step Time =    1.000,"P-5-1",           264,       181.271,       32.9314,            0.,NA,NA,"",   1.08589E+06,   1.09400E+06,   1.09400E+06
C:/temp/Job-5.odb,Step-1,Increment      1: Step Time =    1.000,"P-5-1",           265,       169.922,       31.7189,            0.,NA,NA,"",   1.20494E+06,   1.17734E+06,   1.17734E+06
C:/temp/Job-5.odb,Step-1,Increment      1: Step Time =    1.000,"P-5-1",           266,       159.693,       30.0476,            0.,NA,NA,"",   1.29926E+06,   1.24727E+06,   1.24727E+06
C:/temp/Job-5.odb,Step-1,Increment      1: Step Time =    1.000,"P-5-1",           267,       144.450,       27.8509,            0.,NA,NA,"",   1.37013E+06,   1.32311E+06,   1.32311E+06
C:/temp/Job-5.odb,Step-1,Increment      1: Step Time =    1.000,"P-5-1",           268,       134.760,       32.7310,            0.,NA,NA,"",   1.49975E+06,   1.48043E+06,   1.48043E+06
C:/temp/Job-5.odb,Step-1,Increment      1: Step Time =    1.000,"P-5-1",           269,       124.744,       30.3084,            0.,NA,NA,"",   1.42001E+06,   1.46409E+06,   1.46409E+06
C:/temp/Job-5.odb,Step-1,Increment      1: Step Time =    1.000,"P-5-1",           270,       117.327,       31.8027,            0.,NA,NA,"",   1.42870E+06,   1.51286E+06,   1.51286E+06
C:/temp/Job-5.odb,Step-1,Increment      1: Step Time =    1.000,"P-5-1",           271,       104.801,       30.4117,            0.,NA,NA,"",   1.40769E+06,   1.51603E+06,   1.51603E+06
C:/temp/Job-5.odb,Step-1,Increment      1: Step Time =    1.000,"P-5-1",           272,       96.6072,       30.9035,            0.,NA,NA,"",   1.48545E+06,   1.58135E+06,   1.58135E+06
C:/temp/Job-5.odb,Step-1,Increment      1: Step Time =    1.000,"P-5-1",           273,       81.3943,       27.7887,            0.,NA,NA,"",   1.56911E+06,   1.56953E+06,   1.56953E+06
C:/temp/Job-5.odb,Step-1,Increment      1: Step Time =    1.000,"P-5-1",           274,       72.7766,       32.0830,            0.,NA,NA,"",   1.69436E+06,   1.64367E+06,   1.64367E+06
C:/temp/Job-5.odb,Step-1,Increment      1: Step Time =    1.000,"P-5-1",           275,       63.7233,       30.0688,            0.,NA,NA,"",   1.66654E+06,   1.58536E+06,   1.58536E+06
C:/temp/Job-5.odb,Step-1,Increment      1: Step Time =    1.000,"P-5-1",           276,       54.1954,       29.3724,            0.,NA,NA,"",   1.62761E+06,   1.54388E+06,   1.54388E+06
C:/temp/Job-5.odb,Step-1,Increment      1: Step Time =    1.000,"P-5-1",           277,       42.9826,       27.7845,            0.,NA,NA,"",   1.57384E+06,   1.51397E+06,   1.51397E+06
C:/temp/Job-5.odb,Step-1,Increment      1: Step Time =    1.000,"P-5-1",           278,       31.8091,       35.0333,            0.,NA,NA,"",   1.42192E+06,   1.39456E+06,   1.39456E+06
C:/temp/Job-5.odb,Step-1,Increment      1: Step Time =    1.000,"P-5-1",           279,       23.9758,       33.1947,            0.,NA,NA,"",   1.36956E+06,   1.38318E+06,   1.38318E+06
C:/temp/Job-5.odb,Step-1,Increment      1: Step Time =    1.000,"P-5-1",           280,       9.84319,       31.9136,            0.,NA,NA,"",   1.22607E+06,   1.32441E+06,   1.32441E+06
C:/temp/Job-5.odb,Step-1,Increment      1: Step Time =    1.000,"P-5-1",           281,       190.598,       40.8269,            0.,NA,NA,"",   991.592E+03,   1.04222E+06,   1.04222E+06
C:/temp/Job-5.odb,Step-1,Increment      1: Step Time =    1.000,"P-5-1",           282,       181.230,       41.7710,            0.,NA,NA,"",   1.11190E+06,   1.12764E+06,   1.12764E+06
C:/temp/Job-5.odb,Step-1,Increment      1: Step Time =    1.000,"P-5-1",           283,       171.075,       41.8116,            0.,NA,NA,"",   1.27521E+06,   1.23333E+06,   1.23333E+06
C:/temp/Job-5.odb,Step-1,Increment      1: Step Time =    1.000,"P-5-1",           284,       156.717,       42.6911,            0.,NA,NA,"",   1.50967E+06,   1.39986E+06,   1.39986E+06
C:/temp/Job-5.odb,Step-1,Increment      1: Step Time =    1.000,"P-5-1",           285,       138.801,       41.6036,            0.,NA,NA,"",   1.67635E+06,   1.60668E+06,   1.60668E+06
C:/temp/Job-5.odb,Step-1,Increment      1: Step Time =    1.000,"P-5-1",           286,       125.714,       39.2260,            0.,NA,NA,"",   1.64876E+06,   1.69612E+06,   1.69612E+06
C:/temp/Job-5.odb,Step-1,Increment      1: Step Time =    1.000,"P-5-1",           287,       112.373,       40.8563,            0.,NA,NA,"",   1.73020E+06,   1.87269E+06,   1.87269E+06
C:/temp/Job-5.odb,Step-1,Increment      1: Step Time =    1.000,"P-5-1",           288,       103.717,       40.7340,            0.,NA,NA,"",   1.78076E+06,   1.93778E+06,   1.93778E+06
C:/temp/Job-5.odb,Step-1,Increment      1: Step Time =    1.000,"P-5-1",           289,       95.2341,       40.1680,            0.,NA,NA,"",   1.79706E+06,   1.92462E+06,   1.92462E+06
C:/temp/Job-5.odb,Step-1,Increment      1: Step Time =    1.000,"P-5-1",           290,       81.4507,       40.6315,            0.,NA,NA,"",   1.81507E+06,   1.83814E+06,   1.83814E+06
C:/temp/Job-5.odb,Step-1,Increment      1: Step Time =    1.000,"P-5-1",           291,       70.4653,       40.2446,            0.,NA,NA,"",   1.77603E+06,   1.70155E+06,   1.70155E+06
C:/temp/Job-5.odb,Step-1,Increment      1: Step Time =    1.000,"P-5-1",           292,       63.4688,       39.0490,            0.,NA,NA,"",   1.71744E+06,   1.61473E+06,   1.61473E+06
C:/temp/Job-5.odb,Step-1,Increment      1: Step Time =    1.000,"P-5-1",           293,       54.6227,       39.6810,            0.,NA,NA,"",   1.63990E+06,   1.52473E+06,   1.52473E+06
C:/temp/Job-5.odb,Step-1,Increment      1: Step Time =    1.000,"P-5-1",           294,       43.4763,       40.1238,            0.,NA,NA,"",   1.48953E+06,   1.40129E+06,   1.40129E+06
C:/temp/Job-5.odb,Step-1,Increment      1: Step Time =    1.000,"P-5-1",           295,       31.9168,       43.4952,            0.,NA,NA,"",   1.28428E+06,   1.25105E+06,   1.25105E+06
C:/temp/Job-5.odb,Step-1,Increment      1: Step Time =    1.000,"P-5-1",           296,       22.1481,       41.2676,            0.,NA,NA,"",   1.20045E+06,   1.22517E+06,   1.22517E+06
C:/temp/Job-5.odb,Step-1,Increment      1: Step Time =    1.000,"P-5-1",           297,       8.52019,       41.2342,            0.,NA,NA,"",   1.04325E+06,   1.13943E+06,   1.13943E+06
C:/temp/Job-5.odb,Step-1,Increment      1: Step Time =    1.000,"P-5-1",           298,       188.619,       158.586,            0.,NA,NA,"",   1.01346E+06,   1.05947E+06,   1.05947E+06
C:/temp/Job-5.odb,Step-1,Increment      1: Step Time =    1.000,"P-5-1",           299,       180.672,       155.684,            0.,NA,NA,"",   1.12457E+06,   1.14008E+06,   1.14008E+06
C:/temp/Job-5.odb,Step-1,Increment      1: Step Time =    1.000,"P-5-1",           300,       170.830,       157.248,            0.,NA,NA,"",   1.28255E+06,   1.23799E+06,   1.23799E+06
C:/temp/Job-5.odb,Step-1,Increment      1: Step Time =    1.000,"P-5-1",           301,       154.549,       158.477,            0.,NA,NA,"",   1.53086E+06,   1.42111E+06,   1.42111E+06
C:/temp/Job-5.odb,Step-1,Increment      1: Step Time =    1.000,"P-5-1",           302,       146.625,       159.802,            0.,NA,NA,"",   1.59052E+06,   1.49425E+06,   1.49425E+06
C:/temp/Job-5.odb,Step-1,Increment      1: Step Time =    1.000,"P-5-1",           303,       129.680,       158.994,            0.,NA,NA,"",   1.69019E+06,   1.69956E+06,   1.69956E+06
C:/temp/Job-5.odb,Step-1,Increment      1: Step Time =    1.000,"P-5-1",           304,       116.698,       158.086,            0.,NA,NA,"",   1.76242E+06,   1.88565E+06,   1.88565E+06
C:/temp/Job-5.odb,Step-1,Increment      1: Step Time =    1.000,"P-5-1",           305,       106.402,       159.217,            0.,NA,NA,"",   1.77557E+06,   1.93440E+06,   1.93440E+06
C:/temp/Job-5.odb,Step-1,Increment      1: Step Time =    1.000,"P-5-1",           306,       93.6019,       158.541,            0.,NA,NA,"",   1.82808E+06,   1.95077E+06,   1.95077E+06
C:/temp/Job-5.odb,Step-1,Increment      1: Step Time =    1.000,"P-5-1",           307,       84.3222,       159.659,            0.,NA,NA,"",   1.81410E+06,   1.86397E+06,   1.86397E+06
C:/temp/Job-5.odb,Step-1,Increment      1: Step Time =    1.000,"P-5-1",           308,       72.0547,       159.212,            0.,NA,NA,"",   1.78959E+06,   1.72626E+06,   1.72626E+06
C:/temp/Job-5.odb,Step-1,Increment      1: Step Time =    1.000,"P-5-1",           309,       62.0357,       159.059,            0.,NA,NA,"",   1.71800E+06,   1.60621E+06,   1.60621E+06
C:/temp/Job-5.odb,Step-1,Increment      1: Step Time =    1.000,"P-5-1",           310,       55.3459,       156.941,            0.,NA,NA,"",   1.63023E+06,   1.50561E+06,   1.50561E+06
C:/temp/Job-5.odb,Step-1,Increment      1: Step Time =    1.000,"P-5-1",           311,       44.9332,       158.395,            0.,NA,NA,"",   1.49229E+06,   1.39518E+06,   1.39518E+06
C:/temp/Job-5.odb,Step-1,Increment      1: Step Time =    1.000,"P-5-1",           312,       32.7485,       158.920,            0.,NA,NA,"",   1.33491E+06,   1.29813E+06,   1.29813E+06
C:/temp/Job-5.odb,Step-1,Increment      1: Step Time =    1.000,"P-5-1",           313,       18.3492,       159.424,            0.,NA,NA,"",   1.16764E+06,   1.21435E+06,   1.21435E+06
C:/temp/Job-5.odb,Step-1,Increment      1: Step Time =    1.000,"P-5-1",           314,       9.58605,       159.758,            0.,NA,NA,"",   1.07337E+06,   1.16472E+06,   1.16472E+06
C:/temp/Job-5.odb,Step-1,Increment      1: Step Time =    1.000,"P-5-1",           315,       190.076,       169.600,            0.,NA,NA,"",   1.00754E+06,   1.02960E+06,   1.02960E+06
C:/temp/Job-5.odb,Step-1,Increment      1: Step Time =    1.000,"P-5-1",           316,       177.255,       170.218,            0.,NA,NA,"",   1.11332E+06,   1.10963E+06,   1.10963E+06
C:/temp/Job-5.odb,Step-1,Increment      1: Step Time =    1.000,"P-5-1",           317,       168.977,       172.334,            0.,NA,NA,"",   1.18387E+06,   1.15808E+06,   1.15808E+06
C:/temp/Job-5.odb,Step-1,Increment      1: Step Time =    1.000,"P-5-1",           318,       159.484,       169.838,            0.,NA,NA,"",   1.30327E+06,   1.25031E+06,   1.25031E+06
C:/temp/Job-5.odb,Step-1,Increment      1: Step Time =    1.000,"P-5-1",           319,       145.247,       165.550,            0.,NA,NA,"",   1.48797E+06,   1.41977E+06,   1.41977E+06
C:/temp/Job-5.odb,Step-1,Increment      1: Step Time =    1.000,"P-5-1",           320,       135.999,       169.865,            0.,NA,NA,"",   1.43943E+06,   1.41513E+06,   1.41513E+06
C:/temp/Job-5.odb,Step-1,Increment      1: Step Time =    1.000,"P-5-1",           321,       126.404,       167.589,            0.,NA,NA,"",   1.47463E+06,   1.50772E+06,   1.50772E+06
C:/temp/Job-5.odb,Step-1,Increment      1: Step Time =    1.000,"P-5-1",           322,       115.111,       169.545,            0.,NA,NA,"",   1.39163E+06,   1.48284E+06,   1.48284E+06
C:/temp/Job-5.odb,Step-1,Increment      1: Step Time =    1.000,"P-5-1",           323,       104.138,       168.798,            0.,NA,NA,"",   1.43175E+06,   1.54716E+06,   1.54716E+06
C:/temp/Job-5.odb,Step-1,Increment      1: Step Time =    1.000,"P-5-1",           324,       92.6213,       167.274,            0.,NA,NA,"",   1.57256E+06,   1.65187E+06,   1.65187E+06
C:/temp/Job-5.odb,Step-1,Increment      1: Step Time =    1.000,"P-5-1",           325,       85.3240,       168.041,            0.,NA,NA,"",   1.62390E+06,   1.66129E+06,   1.66129E+06
C:/temp/Job-5.odb,Step-1,Increment      1: Step Time =    1.000,"P-5-1",           326,       71.2625,       170.861,            0.,NA,NA,"",   1.65296E+06,   1.59727E+06,   1.59727E+06
C:/temp/Job-5.odb,Step-1,Increment      1: Step Time =    1.000,"P-5-1",           327,       60.9613,       167.779,            0.,NA,NA,"",   1.67531E+06,   1.58486E+06,   1.58486E+06
C:/temp/Job-5.odb,Step-1,Increment      1: Step Time =    1.000,"P-5-1",           328,       52.5923,       169.608,            0.,NA,NA,"",   1.62629E+06,   1.54110E+06,   1.54110E+06
C:/temp/Job-5.odb,Step-1,Increment      1: Step Time =    1.000,"P-5-1",           329,       41.2208,       171.055,            0.,NA,NA,"",   1.55992E+06,   1.50245E+06,   1.50245E+06
C:/temp/Job-5.odb,Step-1,Increment      1: Step Time =    1.000,"P-5-1",           330,       30.2907,       168.731,            0.,NA,NA,"",   1.45663E+06,   1.44000E+06,   1.44000E+06
C:/temp/Job-5.odb,Step-1,Increment      1: Step Time =    1.000,"P-5-1",           331,       19.7719,       166.339,            0.,NA,NA,"",   1.31809E+06,   1.35873E+06,   1.35873E+06
C:/temp/Job-5.odb,Step-1,Increment      1: Step Time =    1.000,"P-5-1",           332,       10.0451,       169.448,            0.,NA,NA,"",   1.25781E+06,   1.35623E+06,   1.35623E+06
C:/temp/Job-5.odb,Step-1,Increment      1: Step Time =    1.000,"P-5-1",           333,       190.069,       179.700,            0.,NA,NA,"",   1.00883E+06,   1.01631E+06,   1.01631E+06
C:/temp/Job-5.odb,Step-1,Increment      1: Step Time =    1.000,"P-5-1",           334,       177.138,       177.157,            0.,NA,NA,"",   1.07908E+06,   1.07635E+06,   1.07635E+06
C:/temp/Job-5.odb,Step-1,Increment      1: Step Time =    1.000,"P-5-1",           335,       167.940,       181.578,            0.,NA,NA,"",   1.10607E+06,   1.09209E+06,   1.09209E+06
C:/temp/Job-5.odb,Step-1,Increment      1: Step Time =    1.000,"P-5-1",           336,       159.324,       181.069,            0.,NA,NA,"",   1.14831E+06,   1.12450E+06,   1.12450E+06
C:/temp/Job-5.odb,Step-1,Increment      1: Step Time =    1.000,"P-5-1",           337,       150.011,       180.728,            0.,NA,NA,"",   1.18755E+06,   1.15827E+06,   1.15827E+06
C:/temp/Job-5.odb,Step-1,Increment      1: Step Time =    1.000,"P-5-1",           338,       135.035,       179.470,            0.,NA,NA,"",   1.21681E+06,   1.20584E+06,   1.20584E+06
C:/temp/Job-5.odb,Step-1,Increment      1: Step Time =    1.000,"P-5-1",           339,       123.610,       178.139,            0.,NA,NA,"",   1.20673E+06,   1.23658E+06,   1.23658E+06
C:/temp/Job-5.odb,Step-1,Increment      1: Step Time =    1.000,"P-5-1",           340,       113.185,       179.587,            0.,NA,NA,"",   1.13741E+06,   1.19231E+06,   1.19231E+06
C:/temp/Job-5.odb,Step-1,Increment      1: Step Time =    1.000,"P-5-1",           341,       104.914,       182.135,            0.,NA,NA,"",   1.08775E+06,   1.13505E+06,   1.13505E+06
C:/temp/Job-5.odb,Step-1,Increment      1: Step Time =    1.000,"P-5-1",           342,       95.7236,       179.134,            0.,NA,NA,"",   1.24056E+06,   1.28877E+06,   1.28877E+06
C:/temp/Job-5.odb,Step-1,Increment      1: Step Time =    1.000,"P-5-1",           343,       86.9055,       178.563,            0.,NA,NA,"",   1.36007E+06,   1.37746E+06,   1.37746E+06
C:/temp/Job-5.odb,Step-1,Increment      1: Step Time =    1.000,"P-5-1",           344,       74.9760,       180.103,            0.,NA,NA,"",   1.46372E+06,   1.43508E+06,   1.43508E+06
C:/temp/Job-5.odb,Step-1,Increment      1: Step Time =    1.000,"P-5-1",           345,       65.0223,       181.265,            0.,NA,NA,"",   1.52092E+06,   1.47514E+06,   1.47514E+06
C:/temp/Job-5.odb,Step-1,Increment      1: Step Time =    1.000,"P-5-1",           346,       55.1459,       181.355,            0.,NA,NA,"",   1.56246E+06,   1.51515E+06,   1.51515E+06
C:/temp/Job-5.odb,Step-1,Increment      1: Step Time =    1.000,"P-5-1",           347,       40.2672,       175.238,            0.,NA,NA,"",   1.57654E+06,   1.52975E+06,   1.52975E+06
C:/temp/Job-5.odb,Step-1,Increment      1: Step Time =    1.000,"P-5-1",           348,       31.4157,       180.030,            0.,NA,NA,"",   1.59250E+06,   1.57831E+06,   1.57831E+06
C:/temp/Job-5.odb,Step-1,Increment      1: Step Time =    1.000,"P-5-1",           349,       24.0348,       178.951,            0.,NA,NA,"",   1.56100E+06,   1.57193E+06,   1.57193E+06
C:/temp/Job-5.odb,Step-1,Increment      1: Step Time =    1.000,"P-5-1",           350,       9.97795,       179.575,            0.,NA,NA,"",   1.47300E+06,   1.57118E+06,   1.57118E+06
C:/temp/Job-5.odb,Step-1,Increment      1: Step Time =    1.000,"P-5-1",           351,       189.784,       189.696,            0.,NA,NA,"",   1.00370E+06,   1.00529E+06,   1.00529E+06
C:/temp/Job-5.odb,Step-1,Increment      1: Step Time =    1.000,"P-5-1",           352,       179.268,       189.488,            0.,NA,NA,"",   1.01887E+06,   1.01901E+06,   1.01901E+06
C:/temp/Job-5.odb,Step-1,Increment      1: Step Time =    1.000,"P-5-1",           353,       169.080,       190.441,            0.,NA,NA,"",   1.03208E+06,   1.02788E+06,   1.02788E+06
C:/temp/Job-5.odb,Step-1,Increment      1: Step Time =    1.000,"P-5-1",           354,       159.497,       190.571,            0.,NA,NA,"",   1.03497E+06,   1.02725E+06,   1.02725E+06
C:/temp/Job-5.odb,Step-1,Increment      1: Step Time =    1.000,"P-5-1",           355,       149.782,       190.325,            0.,NA,NA,"",   1.02504E+06,   1.01505E+06,   1.01505E+06
C:/temp/Job-5.odb,Step-1,Increment      1: Step Time =    1.000,"P-5-1",           356,       134.764,       189.781,            0.,NA,NA,"",   975.537E+03,   971.042E+03,   971.042E+03
C:/temp/Job-5.odb,Step-1,Increment      1: Step Time =    1.000,"P-5-1",           357,       124.618,       189.641,            0.,NA,NA,"",   918.343E+03,   925.446E+03,   925.446E+03
C:/temp/Job-5.odb,Step-1,Increment      1: Step Time =    1.000,"P-5-1",           358,       114.683,       190.075,            0.,NA,NA,"",   869.019E+03,   884.922E+03,   884.922E+03
C:/temp/Job-5.odb,Step-1,Increment      1: Step Time =    1.000,"P-5-1",           359,       104.843,       190.474,            0.,NA,NA,"",   872.572E+03,   890.934E+03,   890.934E+03
C:/temp/Job-5.odb,Step-1,Increment      1: Step Time =    1.000,"P-5-1",           360,       95.1094,       190.165,            0.,NA,NA,"",   958.514E+03,   971.203E+03,   971.203E+03
C:/temp/Job-5.odb,Step-1,Increment      1: Step Time =    1.000,"P-5-1",           361,       85.3251,       189.883,            0.,NA,NA,"",   1.10207E+06,   1.10107E+06,   1.10107E+06
C:/temp/Job-5.odb,Step-1,Increment      1: Step Time =    1.000,"P-5-1",           362,       75.2029,       190.044,            0.,NA,NA,"",   1.24866E+06,   1.23562E+06,   1.23562E+06
C:/temp/Job-5.odb,Step-1,Increment      1: Step Time =    1.000,"P-5-1",           363,       65.1313,       190.484,            0.,NA,NA,"",   1.38127E+06,   1.36330E+06,   1.36330E+06
C:/temp/Job-5.odb,Step-1,Increment      1: Step Time =    1.000,"P-5-1",           364,       50.8120,       186.460,            0.,NA,NA,"",   1.55212E+06,   1.52482E+06,   1.52482E+06
C:/temp/Job-5.odb,Step-1,Increment      1: Step Time =    1.000,"P-5-1",           365,       41.2590,       189.050,            0.,NA,NA,"",   1.60769E+06,   1.59360E+06,   1.59360E+06
C:/temp/Job-5.odb,Step-1,Increment      1: Step Time =    1.000,"P-5-1",           366,       30.6324,       189.714,            0.,NA,NA,"",   1.67286E+06,   1.66793E+06,   1.66793E+06
C:/temp/Job-5.odb,Step-1,Increment      1: Step Time =    1.000,"P-5-1",           367,       20.5369,       189.295,            0.,NA,NA,"",   1.72544E+06,   1.73690E+06,   1.73690E+06
C:/temp/Job-5.odb,Step-1,Increment      1: Step Time =    1.000,"P-5-1",           368,       10.1920,       189.676,            0.,NA,NA,"",   1.79115E+06,   1.85098E+06,   1.85098E+06
C:/temp/Job-5.odb,Step-1,Increment      1: Step Time =    1.000,"P-5-1",           369,       95.0580,       140.701,            0.,NA,NA,"",   3.33913E+06,   3.40751E+06,   3.40751E+06
C:/temp/Job-5.odb,Step-1,Increment      1: Step Time =    1.000,"P-5-1",           370,       90.1881,       139.809,            0.,NA,NA,"",   2.94737E+06,   3.00683E+06,   3.00683E+06
C:/temp/Job-5.odb,Step-1,Increment      1: Step Time =    1.000,"P-5-1",           371,       80.9464,       136.304,            0.,NA,NA,"",   1.95152E+06,   1.98970E+06,   1.98970E+06
C:/temp/Job-5.odb,Step-1,Increment      1: Step Time =    1.000,"P-5-1",           372,       72.8120,       130.689,            0.,NA,NA,"",   947.319E+03,   935.017E+03,   935.017E+03
C:/temp/Job-5.odb,Step-1,Increment      1: Step Time =    1.000,"P-5-1",           373,       69.3111,       127.188,            0.,NA,NA,"",   551.040E+03,   488.895E+03,   488.895E+03
C:/temp/Job-5.odb,Step-1,Increment      1: Step Time =    1.000,"P-5-1",           374,       63.6963,       119.054,            0.,NA,NA,"",   471.243E+03,  -436.959E+03,  -436.959E+03
C:/temp/Job-5.odb,Step-1,Increment      1: Step Time =    1.000,"P-5-1",           375,       61.6643,       114.539,            0.,NA,NA,"",   640.437E+03,  -641.609E+03,  -641.609E+03
C:/temp/Job-5.odb,Step-1,Increment      1: Step Time =    1.000,"P-5-1",           376,       59.2989,       104.942,            0.,NA,NA,"",   823.603E+03,  -841.440E+03,  -841.440E+03
C:/temp/Job-5.odb,Step-1,Increment      1: Step Time =    1.000,"P-5-1",           377,           59.,          100.,            0.,NA,NA,"",   780.937E+03,  -807.333E+03,  -807.333E+03
C:/temp/Job-5.odb,Step-1,Increment      1: Step Time =    1.000,"P-5-1",           378,       60.1914,       90.1881,            0.,NA,NA,"",   775.552E+03,  -786.132E+03,  -786.132E+03
C:/temp/Job-5.odb,Step-1,Increment      1: Step Time =    1.000,"P-5-1",           379,       63.6963,       80.9464,            0.,NA,NA,"",   456.940E+03,  -443.396E+03,  -443.396E+03
C:/temp/Job-5.odb,Step-1,Increment      1: Step Time =    1.000,"P-5-1",           380,       66.2577,       76.7093,            0.,NA,NA,"",   323.109E+03,  -44.3443E+03,  -44.3443E+03
C:/temp/Job-5.odb,Step-1,Increment      1: Step Time =    1.000,"P-5-1",           381,       72.8120,       69.3111,            0.,NA,NA,"",   884.480E+03,   878.940E+03,   878.940E+03
C:/temp/Job-5.odb,Step-1,Increment      1: Step Time =    1.000,"P-5-1",           382,       76.7093,       66.2577,            0.,NA,NA,"",   1.37682E+06,   1.39260E+06,   1.39260E+06
C:/temp/Job-5.odb,Step-1,Increment      1: Step Time =    1.000,"P-5-1",           383,       85.4612,       61.6643,            0.,NA,NA,"",   2.37750E+06,   2.43557E+06,   2.43557E+06
C:/temp/Job-5.odb,Step-1,Increment      1: Step Time =    1.000,"P-5-1",           384,       90.1881,       60.1914,            0.,NA,NA,"",   2.79393E+06,   2.88135E+06,   2.88135E+06
C:/temp/Job-5.odb,Step-1,Increment      1: Step Time =    1.000,"P-5-1",           385,          100.,           59.,            0.,NA,NA,"",   3.57153E+06,   3.63855E+06,   3.63855E+06
C:/temp/Job-5.odb,Step-1,Increment      1: Step Time =    1.000,"P-5-1",           386,       109.812,       60.1914,            0.,NA,NA,"",   3.40708E+06,   3.48363E+06,   3.48363E+06
C:/temp/Job-5.odb,Step-1,Increment      1: Step Time =    1.000,"P-5-1",           387,       114.539,       61.6643,            0.,NA,NA,"",   3.09281E+06,   3.17878E+06,   3.17878E+06
C:/temp/Job-5.odb,Step-1,Increment      1: Step Time =    1.000,"P-5-1",           388,       123.291,       66.2577,            0.,NA,NA,"",   2.22439E+06,   2.25534E+06,   2.25534E+06
C:/temp/Job-5.odb,Step-1,Increment      1: Step Time =    1.000,"P-5-1",           389,       127.188,       69.3111,            0.,NA,NA,"",   1.69227E+06,   1.70847E+06,   1.70847E+06
C:/temp/Job-5.odb,Step-1,Increment      1: Step Time =    1.000,"P-5-1",           390,       133.742,       76.7093,            0.,NA,NA,"",   662.181E+03,   583.939E+03,   583.939E+03
C:/temp/Job-5.odb,Step-1,Increment      1: Step Time =    1.000,"P-5-1",           391,       136.304,       80.9464,            0.,NA,NA,"",   528.367E+03,  -116.466E+03,  -116.466E+03
C:/temp/Job-5.odb,Step-1,Increment      1: Step Time =    1.000,"P-5-1",           392,       139.809,       90.1881,            0.,NA,NA,"",   1.09649E+06,  -1.10484E+06,  -1.10484E+06
C:/temp/Job-5.odb,Step-1,Increment      1: Step Time =    1.000,"P-5-1",           393,          141.,          100.,            0.,NA,NA,"",   1.43883E+06,  -1.46184E+06,  -1.46184E+06
C:/temp/Job-5.odb,Step-1,Increment      1: Step Time =    1.000,"P-5-1",           394,       140.701,       104.942,            0.,NA,NA,"",   1.39586E+06,  -1.41214E+06,  -1.41214E+06
C:/temp/Job-5.odb,Step-1,Increment      1: Step Time =    1.000,"P-5-1",           395,       138.336,       114.539,            0.,NA,NA,"",   820.660E+03,  -806.039E+03,  -806.039E+03
C:/temp/Job-5.odb,Step-1,Increment      1: Step Time =    1.000,"P-5-1",           396,       136.304,       119.054,            0.,NA,NA,"",   499.940E+03,  -163.542E+03,  -163.542E+03
C:/temp/Job-5.odb,Step-1,Increment      1: Step Time =    1.000,"P-5-1",           397,       130.689,       127.188,            0.,NA,NA,"",   1.09206E+06,   1.08509E+06,   1.08509E+06
C:/temp/Job-5.odb,Step-1,Increment      1: Step Time =    1.000,"P-5-1",           398,       127.188,       130.689,            0.,NA,NA,"",   1.67813E+06,   1.69598E+06,   1.69598E+06
C:/temp/Job-5.odb,Step-1,Increment      1: Step Time =    1.000,"P-5-1",           399,       119.054,       136.304,            0.,NA,NA,"",   2.71497E+06,   2.76640E+06,   2.76640E+06
C:/temp/Job-5.odb,Step-1,Increment      1: Step Time =    1.000,"P-5-1",           400,       109.812,       139.809,            0.,NA,NA,"",   3.32094E+06,   3.41428E+06,   3.41428E+06
C:/temp/Job-5.odb,Step-1,Increment      1: Step Time =    1.000,"P-5-1",           401,       104.942,       140.701,            0.,NA,NA,"",   3.63382E+06,   3.70598E+06,   3.70598E+06
C:/temp/Job-5.odb,Step-1,Increment      1: Step Time =    1.000,"P-5-1",           402,          195.,            0.,            0.,NA,NA,"",   998.269E+03,   998.079E+03,   998.079E+03
C:/temp/Job-5.odb,Step-1,Increment      1: Step Time =    1.000,"P-5-1",           403,          185.,            0.,            0.,NA,NA,"",   993.464E+03,   993.679E+03,   993.679E+03
C:/temp/Job-5.odb,Step-1,Increment      1: Step Time =    1.000,"P-5-1",           404,          175.,            0.,            0.,NA,NA,"",   992.716E+03,   992.439E+03,   992.439E+03
C:/temp/Job-5.odb,Step-1,Increment      1: Step Time =    1.000,"P-5-1",           405,          165.,            0.,            0.,NA,NA,"",   984.956E+03,   984.153E+03,   984.153E+03
C:/temp/Job-5.odb,Step-1,Increment      1: Step Time =    1.000,"P-5-1",           406,          155.,            0.,            0.,NA,NA,"",   952.456E+03,   951.599E+03,   951.599E+03
C:/temp/Job-5.odb,Step-1,Increment      1: Step Time =    1.000,"P-5-1",           407,          145.,            0.,            0.,NA,NA,"",   884.523E+03,   883.352E+03,   883.352E+03
C:/temp/Job-5.odb,Step-1,Increment      1: Step Time =    1.000,"P-5-1",           408,          135.,            0.,            0.,NA,NA,"",   790.927E+03,   790.049E+03,   790.049E+03
C:/temp/Job-5.odb,Step-1,Increment      1: Step Time =    1.000,"P-5-1",           409,          125.,            0.,            0.,NA,NA,"",   690.400E+03,   691.134E+03,   691.134E+03
C:/temp/Job-5.odb,Step-1,Increment      1: Step Time =    1.000,"P-5-1",           410,          115.,            0.,            0.,NA,NA,"",   622.621E+03,   624.497E+03,   624.497E+03
C:/temp/Job-5.odb,Step-1,Increment      1: Step Time =    1.000,"P-5-1",           411,          105.,            0.,            0.,NA,NA,"",   623.062E+03,   625.719E+03,   625.719E+03
C:/temp/Job-5.odb,Step-1,Increment      1: Step Time =    1.000,"P-5-1",           412,           95.,            0.,            0.,NA,NA,"",   709.482E+03,   711.234E+03,   711.234E+03
C:/temp/Job-5.odb,Step-1,Increment      1: Step Time =    1.000,"P-5-1",           413,           85.,            0.,            0.,NA,NA,"",   873.470E+03,   873.792E+03,   873.792E+03
C:/temp/Job-5.odb,Step-1,Increment      1: Step Time =    1.000,"P-5-1",           414,           75.,            0.,            0.,NA,NA,"",   1.08316E+06,   1.08202E+06,   1.08202E+06
C:/temp/Job-5.odb,Step-1,Increment      1: Step Time =    1.000,"P-5-1",           415,           65.,            0.,            0.,NA,NA,"",   1.29253E+06,   1.29052E+06,   1.29052E+06
C:/temp/Job-5.odb,Step-1,Increment      1: Step Time =    1.000,"P-5-1",           416,           55.,            0.,            0.,NA,NA,"",   1.47362E+06,   1.47157E+06,   1.47157E+06
C:/temp/Job-5.odb,Step-1,Increment      1: Step Time =    1.000,"P-5-1",           417,           45.,            0.,            0.,NA,NA,"",   1.61038E+06,   1.60901E+06,   1.60901E+06
C:/temp/Job-5.odb,Step-1,Increment      1: Step Time =    1.000,"P-5-1",           418,           35.,            0.,            0.,NA,NA,"",   1.70230E+06,   1.70177E+06,   1.70177E+06
C:/temp/Job-5.odb,Step-1,Increment      1: Step Time =    1.000,"P-5-1",           419,           25.,            0.,            0.,NA,NA,"",   1.76633E+06,   1.76738E+06,   1.76738E+06
C:/temp/Job-5.odb,Step-1,Increment      1: Step Time =    1.000,"P-5-1",           420,           15.,            0.,            0.,NA,NA,"",   1.84544E+06,   1.85192E+06,   1.85192E+06
C:/temp/Job-5.odb,Step-1,Increment      1: Step Time =    1.000,"P-5-1",           421,            5.,            0.,            0.,NA,NA,"",   2.16696E+06,   2.21650E+06,   2.21650E+06
C:/temp/Job-5.odb,Step-1,Increment      1: Step Time =    1.000,"P-5-1",           422,          200.,          195.,            0.,NA,NA,"",   1.00058E+06,   999.617E+03,   999.617E+03
C:/temp/Job-5.odb,Step-1,Increment      1: Step Time =    1.000,"P-5-1",           423,          200.,          185.,            0.,NA,NA,"",   1.00355E+06,   1.00125E+06,   1.00125E+06
C:/temp/Job-5.odb,Step-1,Increment      1: Step Time =    1.000,"P-5-1",           424,          200.,          175.,            0.,NA,NA,"",   996.954E+03,   1.00300E+06,   1.00300E+06
C:/temp/Job-5.odb,Step-1,Increment      1: Step Time =    1.000,"P-5-1",           425,          200.,          165.,            0.,NA,NA,"",   970.241E+03,   1.00435E+06,   1.00435E+06
C:/temp/Job-5.odb,Step-1,Increment      1: Step Time =    1.000,"P-5-1",           426,          200.,          155.,            0.,NA,NA,"",   926.827E+03,   1.00531E+06,   1.00531E+06
C:/temp/Job-5.odb,Step-1,Increment      1: Step Time =    1.000,"P-5-1",           427,          200.,          145.,            0.,NA,NA,"",   882.531E+03,   1.00599E+06,   1.00599E+06
C:/temp/Job-5.odb,Step-1,Increment      1: Step Time =    1.000,"P-5-1",           428,          200.,          135.,            0.,NA,NA,"",   882.524E+03,   1.01074E+06,   1.01074E+06
C:/temp/Job-5.odb,Step-1,Increment      1: Step Time =    1.000,"P-5-1",           429,          200.,          125.,            0.,NA,NA,"",   946.081E+03,   1.02390E+06,   1.02390E+06
C:/temp/Job-5.odb,Step-1,Increment      1: Step Time =    1.000,"P-5-1",           430,          200.,          115.,            0.,NA,NA,"",   1.04582E+06,   1.10771E+06,   1.10771E+06
C:/temp/Job-5.odb,Step-1,Increment      1: Step Time =    1.000,"P-5-1",           431,          200.,          105.,            0.,NA,NA,"",   1.11763E+06,   1.21257E+06,   1.21257E+06
C:/temp/Job-5.odb,Step-1,Increment      1: Step Time =    1.000,"P-5-1",           432,          200.,           95.,            0.,NA,NA,"",   1.11738E+06,   1.21104E+06,   1.21104E+06
C:/temp/Job-5.odb,Step-1,Increment      1: Step Time =    1.000,"P-5-1",           433,          200.,           85.,            0.,NA,NA,"",   1.04794E+06,   1.10888E+06,   1.10888E+06
C:/temp/Job-5.odb,Step-1,Increment      1: Step Time =    1.000,"P-5-1",           434,          200.,           75.,            0.,NA,NA,"",   947.865E+03,   1.02429E+06,   1.02429E+06
C:/temp/Job-5.odb,Step-1,Increment      1: Step Time =    1.000,"P-5-1",           435,          200.,           65.,            0.,NA,NA,"",   882.461E+03,   1.01034E+06,   1.01034E+06
C:/temp/Job-5.odb,Step-1,Increment      1: Step Time =    1.000,"P-5-1",           436,          200.,           55.,            0.,NA,NA,"",   883.945E+03,   1.00719E+06,   1.00719E+06
C:/temp/Job-5.odb,Step-1,Increment      1: Step Time =    1.000,"P-5-1",           437,          200.,           45.,            0.,NA,NA,"",   926.093E+03,   1.00525E+06,   1.00525E+06
C:/temp/Job-5.odb,Step-1,Increment      1: Step Time =    1.000,"P-5-1",           438,          200.,           35.,            0.,NA,NA,"",   970.431E+03,   1.00382E+06,   1.00382E+06
C:/temp/Job-5.odb,Step-1,Increment      1: Step Time =    1.000,"P-5-1",           439,          200.,           25.,            0.,NA,NA,"",   996.120E+03,   1.00259E+06,   1.00259E+06
C:/temp/Job-5.odb,Step-1,Increment      1: Step Time =    1.000,"P-5-1",           440,          200.,           15.,            0.,NA,NA,"",   1.00339E+06,   1.00148E+06,   1.00148E+06
C:/temp/Job-5.odb,Step-1,Increment      1: Step Time =    1.000,"P-5-1",           441,          200.,            5.,            0.,NA,NA,"",   1.00062E+06,   999.675E+03,   999.675E+03
C:/temp/Job-5.odb,Step-1,Increment      1: Step Time =    1.000,"P-5-1",           442,            5.,          200.,            0.,NA,NA,"",   2.16805E+06,   2.21842E+06,   2.21842E+06
C:/temp/Job-5.odb,Step-1,Increment      1: Step Time =    1.000,"P-5-1",           443,           15.,          200.,            0.,NA,NA,"",   1.84589E+06,   1.85278E+06,   1.85278E+06
C:/temp/Job-5.odb,Step-1,Increment      1: Step Time =    1.000,"P-5-1",           444,           25.,          200.,            0.,NA,NA,"",   1.76590E+06,   1.76687E+06,   1.76687E+06
C:/temp/Job-5.odb,Step-1,Increment      1: Step Time =    1.000,"P-5-1",           445,           35.,          200.,            0.,NA,NA,"",   1.70035E+06,   1.69979E+06,   1.69979E+06
C:/temp/Job-5.odb,Step-1,Increment      1: Step Time =    1.000,"P-5-1",           446,           45.,          200.,            0.,NA,NA,"",   1.61106E+06,   1.60969E+06,   1.60969E+06
C:/temp/Job-5.odb,Step-1,Increment      1: Step Time =    1.000,"P-5-1",           447,           55.,          200.,            0.,NA,NA,"",   1.47302E+06,   1.47152E+06,   1.47152E+06
C:/temp/Job-5.odb,Step-1,Increment      1: Step Time =    1.000,"P-5-1",           448,           65.,          200.,            0.,NA,NA,"",   1.29278E+06,   1.29081E+06,   1.29081E+06
C:/temp/Job-5.odb,Step-1,Increment      1: Step Time =    1.000,"P-5-1",           449,           75.,          200.,            0.,NA,NA,"",   1.08290E+06,   1.08138E+06,   1.08138E+06
C:/temp/Job-5.odb,Step-1,Increment      1: Step Time =    1.000,"P-5-1",           450,           85.,          200.,            0.,NA,NA,"",   875.034E+03,   875.281E+03,   875.281E+03
C:/temp/Job-5.odb,Step-1,Increment      1: Step Time =    1.000,"P-5-1",           451,           95.,          200.,            0.,NA,NA,"",   709.275E+03,   711.246E+03,   711.246E+03
C:/temp/Job-5.odb,Step-1,Increment      1: Step Time =    1.000,"P-5-1",           452,          105.,          200.,            0.,NA,NA,"",   621.755E+03,   624.119E+03,   624.119E+03
C:/temp/Job-5.odb,Step-1,Increment      1: Step Time =    1.000,"P-5-1",           453,          115.,          200.,            0.,NA,NA,"",   622.978E+03,   624.788E+03,   624.788E+03
C:/temp/Job-5.odb,Step-1,Increment      1: Step Time =    1.000,"P-5-1",           454,          125.,          200.,            0.,NA,NA,"",   691.109E+03,   691.924E+03,   691.924E+03
C:/temp/Job-5.odb,Step-1,Increment      1: Step Time =    1.000,"P-5-1",           455,          135.,          200.,            0.,NA,NA,"",   790.704E+03,   790.172E+03,   790.172E+03
C:/temp/Job-5.odb,Step-1,Increment      1: Step Time =    1.000,"P-5-1",           456,          145.,          200.,            0.,NA,NA,"",   886.758E+03,   885.518E+03,   885.518E+03
C:/temp/Job-5.odb,Step-1,Increment      1: Step Time =    1.000,"P-5-1",           457,          155.,          200.,            0.,NA,NA,"",   953.614E+03,   952.491E+03,   952.491E+03
C:/temp/Job-5.odb,Step-1,Increment      1: Step Time =    1.000,"P-5-1",           458,          165.,          200.,            0.,NA,NA,"",   985.372E+03,   984.617E+03,   984.617E+03
C:/temp/Job-5.odb,Step-1,Increment      1: Step Time =    1.000,"P-5-1",           459,          175.,          200.,            0.,NA,NA,"",   992.519E+03,   992.331E+03,   992.331E+03
C:/temp/Job-5.odb,Step-1,Increment      1: Step Time =    1.000,"P-5-1",           460,          185.,          200.,            0.,NA,NA,"",   993.421E+03,   993.638E+03,   993.638E+03
C:/temp/Job-5.odb,Step-1,Increment      1: Step Time =    1.000,"P-5-1",           461,          195.,          200.,            0.,NA,NA,"",   998.262E+03,   998.054E+03,   998.054E+03
C:/temp/Job-5.odb,Step-1,Increment      1: Step Time =    1.000,"P-5-1",           462,            0.,            5.,            0.,NA,NA,"",   2.04310E+06,   2.17864E+06,   2.17864E+06
C:/temp/Job-5.odb,Step-1,Increment      1: Step Time =    1.000,"P-5-1",           463,            0.,           15.,            0.,NA,NA,"",   1.49819E+06,   1.65287E+06,   1.65287E+06
C:/temp/Job-5.odb,Step-1,Increment      1: Step Time =    1.000,"P-5-1",           464,            0.,           25.,            0.,NA,NA,"",   1.26513E+06,   1.40925E+06,   1.40925E+06
C:/temp/Job-5.odb,Step-1,Increment      1: Step Time =    1.000,"P-5-1",           465,            0.,           35.,            0.,NA,NA,"",    1.0804E+06,   1.21011E+06,   1.21011E+06
C:/temp/Job-5.odb,Step-1,Increment      1: Step Time =    1.000,"P-5-1",           466,            0.,           45.,            0.,NA,NA,"",   916.613E+03,   1.02837E+06,   1.02837E+06
C:/temp/Job-5.odb,Step-1,Increment      1: Step Time =    1.000,"P-5-1",           467,            0.,           55.,            0.,NA,NA,"",   762.149E+03,   853.128E+03,   853.128E+03
C:/temp/Job-5.odb,Step-1,Increment      1: Step Time =    1.000,"P-5-1",           468,            0.,           65.,            0.,NA,NA,"",   609.182E+03,   679.216E+03,   679.216E+03
C:/temp/Job-5.odb,Step-1,Increment      1: Step Time =    1.000,"P-5-1",           469,            0.,           75.,            0.,NA,NA,"",   459.386E+03,   511.583E+03,   511.583E+03
C:/temp/Job-5.odb,Step-1,Increment      1: Step Time =    1.000,"P-5-1",           470,            0.,           85.,            0.,NA,NA,"",   330.557E+03,   371.913E+03,   371.913E+03
C:/temp/Job-5.odb,Step-1,Increment      1: Step Time =    1.000,"P-5-1",           471,            0.,           95.,            0.,NA,NA,"",   245.169E+03,   281.142E+03,   281.142E+03
C:/temp/Job-5.odb,Step-1,Increment      1: Step Time =    1.000,"P-5-1",           472,            0.,          105.,            0.,NA,NA,"",   246.810E+03,   282.837E+03,   282.837E+03
C:/temp/Job-5.odb,Step-1,Increment      1: Step Time =    1.000,"P-5-1",           473,            0.,          115.,            0.,NA,NA,"",   331.676E+03,   373.138E+03,   373.138E+03
C:/temp/Job-5.odb,Step-1,Increment      1: Step Time =    1.000,"P-5-1",           474,            0.,          125.,            0.,NA,NA,"",   459.504E+03,   511.835E+03,   511.835E+03
C:/temp/Job-5.odb,Step-1,Increment      1: Step Time =    1.000,"P-5-1",           475,            0.,          135.,            0.,NA,NA,"",   607.814E+03,   677.588E+03,   677.588E+03
C:/temp/Job-5.odb,Step-1,Increment      1: Step Time =    1.000,"P-5-1",           476,            0.,          145.,            0.,NA,NA,"",   762.456E+03,   852.902E+03,   852.902E+03
C:/temp/Job-5.odb,Step-1,Increment      1: Step Time =    1.000,"P-5-1",           477,            0.,          155.,            0.,NA,NA,"",   920.923E+03,   1.03201E+06,   1.03201E+06
C:/temp/Job-5.odb,Step-1,Increment      1: Step Time =    1.000,"P-5-1",           478,            0.,          165.,            0.,NA,NA,"",   1.08574E+06,   1.21560E+06,   1.21560E+06
C:/temp/Job-5.odb,Step-1,Increment      1: Step Time =    1.000,"P-5-1",           479,            0.,          175.,            0.,NA,NA,"",   1.26436E+06,   1.41028E+06,   1.41028E+06
C:/temp/Job-5.odb,Step-1,Increment      1: Step Time =    1.000,"P-5-1",           480,            0.,          185.,            0.,NA,NA,"",   1.49949E+06,   1.65706E+06,   1.65706E+06
C:/temp/Job-5.odb,Step-1,Increment      1: Step Time =    1.000,"P-5-1",           481,            0.,          195.,            0.,NA,NA,"",   2.04108E+06,   2.17806E+06,   2.17806E+06
C:/temp/Job-5.odb,Step-1,Increment      1: Step Time =    1.000,"P-5-1",           482,       94.9529,       145.223,            0.,NA,NA,"",   2.96576E+06,   3.07146E+06,   3.07146E+06
C:/temp/Job-5.odb,Step-1,Increment      1: Step Time =    1.000,"P-5-1",           483,       55.0123,       92.5406,            0.,NA,NA,"",   655.900E+03,  -673.798E+03,  -673.798E+03
C:/temp/Job-5.odb,Step-1,Increment      1: Step Time =    1.000,"P-5-1",           484,       57.2653,       115.836,            0.,NA,NA,"",   551.818E+03,  -532.481E+03,  -532.481E+03
C:/temp/Job-5.odb,Step-1,Increment      1: Step Time =    1.000,"P-5-1",           485,       58.1365,       83.5446,            0.,NA,NA,"",   561.762E+03,  -540.663E+03,  -540.663E+03
C:/temp/Job-5.odb,Step-1,Increment      1: Step Time =    1.000,"P-5-1",           486,       56.4261,       88.1920,            0.,NA,NA,"",   634.132E+03,  -638.878E+03,  -638.878E+03
C:/temp/Job-5.odb,Step-1,Increment      1: Step Time =    1.000,"P-5-1",           487,       55.9162,       111.066,            0.,NA,NA,"",   624.939E+03,  -631.512E+03,  -631.512E+03
C:/temp/Job-5.odb,Step-1,Increment      1: Step Time =    1.000,"P-5-1",           488,       69.1935,       66.0483,            0.,NA,NA,"",   1.03940E+06,   989.926E+03,   989.926E+03
C:/temp/Job-5.odb,Step-1,Increment      1: Step Time =    1.000,"P-5-1",           489,       89.5312,       144.570,            0.,NA,NA,"",   2.68298E+06,   2.77086E+06,   2.77086E+06
C:/temp/Job-5.odb,Step-1,Increment      1: Step Time =    1.000,"P-5-1",           490,       54.4750,       106.503,            0.,NA,NA,"",   637.533E+03,  -657.978E+03,  -657.978E+03
C:/temp/Job-5.odb,Step-1,Increment      1: Step Time =    1.000,"P-5-1",           491,       83.5342,       143.988,            0.,NA,NA,"",   2.24137E+06,   2.30477E+06,   2.30477E+06
C:/temp/Job-5.odb,Step-1,Increment      1: Step Time =    1.000,"P-5-1",           492,       141.659,       116.494,            0.,NA,NA,"",   846.906E+03,  -733.710E+03,  -733.710E+03
C:/temp/Job-5.odb,Step-1,Increment      1: Step Time =    1.000,"P-5-1",           493,       144.953,       107.000,            0.,NA,NA,"",   1.13210E+06,  -1.12808E+06,  -1.12808E+06
C:/temp/Job-5.odb,Step-1,Increment      1: Step Time =    1.000,"P-5-1",           494,       108.466,       144.151,            0.,NA,NA,"",   3.17250E+06,   3.28795E+06,   3.28795E+06
C:/temp/Job-5.odb,Step-1,Increment      1: Step Time =    1.000,"P-5-1",           495,       68.0155,       135.471,            0.,NA,NA,"",   1.14818E+06,   1.07336E+06,   1.07336E+06
C:/temp/Job-5.odb,Step-1,Increment      1: Step Time =    1.000,"P-5-1",           496,       130.208,       133.589,            0.,NA,NA,"",   1.68687E+06,   1.67632E+06,   1.67632E+06
C:/temp/Job-5.odb,Step-1,Increment      1: Step Time =    1.000,"P-5-1",           497,       81.8072,       56.8462,            0.,NA,NA,"",   2.18678E+06,   2.23122E+06,   2.23122E+06
C:/temp/Job-5.odb,Step-1,Increment      1: Step Time =    1.000,"P-5-1",           498,       142.148,       82.7796,            0.,NA,NA,"",   868.138E+03,  -704.126E+03,  -704.126E+03
C:/temp/Job-5.odb,Step-1,Increment      1: Step Time =    1.000,"P-5-1",           499,       106.008,       55.0419,            0.,NA,NA,"",   3.17057E+06,   3.28443E+06,   3.28443E+06
C:/temp/Job-5.odb,Step-1,Increment      1: Step Time =    1.000,"P-5-1",           500,       146.752,       90.8907,            0.,NA,NA,"",   954.684E+03,  -905.026E+03,  -905.026E+03
C:/temp/Job-5.odb,Step-1,Increment      1: Step Time =    1.000,"P-5-1",           501,       144.395,       87.1444,            0.,NA,NA,"",   1.00434E+06,  -914.753E+03,  -914.753E+03
C:/temp/Job-5.odb,Step-1,Increment      1: Step Time =    1.000,"P-5-1",           502,       92.5360,       53.3074,            0.,NA,NA,"",   2.64677E+06,   2.76096E+06,   2.76096E+06
C:/temp/Job-5.odb,Step-1,Increment      1: Step Time =    1.000,"P-5-1",           503,       85.4692,       54.0401,            0.,NA,NA,"",   2.31696E+06,   2.40205E+06,   2.40205E+06
C:/temp/Job-5.odb,Step-1,Increment      1: Step Time =    1.000,"P-5-1",           504,       117.332,       56.2695,            0.,NA,NA,"",   2.63490E+06,   2.74474E+06,   2.74474E+06
C:/temp/Job-5.odb,Step-1,Increment      1: Step Time =    1.000,"P-5-1",           505,       114.262,       145.006,            0.,NA,NA,"",   2.74431E+06,   2.86854E+06,   2.86854E+06
C:/temp/Job-5.odb,Step-1,Increment      1: Step Time =    1.000,"P-5-1",           506,       111.274,       55.5254,            0.,NA,NA,"",   3.00270E+06,   3.11968E+06,   3.11968E+06
C:/temp/Job-5.odb,Step-1,Increment      1: Step Time =    1.000,"P-5-1",           507,       143.434,       111.738,            0.,NA,NA,"",   1.02717E+06,  -989.208E+03,  -989.208E+03
C:/temp/Job-5.odb,Step-1,Increment      1: Step Time =    1.000,"P-5-1",           508,       117.965,       142.598,            0.,NA,NA,"",   2.69622E+06,   2.78564E+06,   2.78564E+06
C:/temp/Job-5.odb,Step-1,Increment      1: Step Time =    1.000,"P-5-1",           509,       134.379,       69.2255,            0.,NA,NA,"",   1.32737E+06,   1.25161E+06,   1.25161E+06
C:/temp/Job-5.odb,Step-1,Increment      1: Step Time =    1.000,"P-5-1",           510,       194.855,       5.12412,            0.,NA,NA,"",   999.712E+03,   999.340E+03,   999.340E+03
C:/temp/Job-5.odb,Step-1,Increment      1: Step Time =    1.000,"P-5-1",           511,       85.0711,       4.94903,            0.,NA,NA,"",   950.373E+03,   949.998E+03,   949.998E+03
C:/temp/Job-5.odb,Step-1,Increment      1: Step Time =    1.000,"P-5-1",           512,       95.0409,       4.97340,            0.,NA,NA,"",   799.547E+03,   803.791E+03,   803.791E+03
C:/temp/Job-5.odb,Step-1,Increment      1: Step Time =    1.000,"P-5-1",           513,       104.921,       195.182,            0.,NA,NA,"",   711.469E+03,   718.251E+03,   718.251E+03
C:/temp/Job-5.odb,Step-1,Increment      1: Step Time =    1.000,"P-5-1",           514,       95.0141,       195.101,            0.,NA,NA,"",   798.361E+03,   802.768E+03,   802.768E+03
C:/temp/Job-5.odb,Step-1,Increment      1: Step Time =    1.000,"P-5-1",           515,       5.11411,       124.935,            0.,NA,NA,"",   453.279E+03,   506.339E+03,   506.339E+03
C:/temp/Job-5.odb,Step-1,Increment      1: Step Time =    1.000,"P-5-1",           516,       5.08622,       114.974,            0.,NA,NA,"",   320.619E+03,   363.753E+03,   363.753E+03
C:/temp/Job-5.odb,Step-1,Increment      1: Step Time =    1.000,"P-5-1",           517,       5.38240,       10.1966,            0.,NA,NA,"",   1.73396E+06,   1.85291E+06,   1.85291E+06
C:/temp/Job-5.odb,Step-1,Increment      1: Step Time =    1.000,"P-5-1",           518,       5.67037,       15.3948,            0.,NA,NA,"",   1.54050E+06,   1.66936E+06,   1.66936E+06
C:/temp/Job-5.odb,Step-1,Increment      1: Step Time =    1.000,"P-5-1",           519,       5.51443,       25.7209,            0.,NA,NA,"",     1.292E+06,   1.41918E+06,   1.41918E+06
C:/temp/Job-5.odb,Step-1,Increment      1: Step Time =    1.000,"P-5-1",           520,       4.56883,       35.6799,            0.,NA,NA,"",   1.09714E+06,   1.21712E+06,   1.21712E+06
C:/temp/Job-5.odb,Step-1,Increment      1: Step Time =    1.000,"P-5-1",           521,       4.23490,       45.4468,            0.,NA,NA,"",   931.813E+03,   1.03634E+06,   1.03634E+06
C:/temp/Job-5.odb,Step-1,Increment      1: Step Time =    1.000,"P-5-1",           522,       4.77945,       105.078,            0.,NA,NA,"",   236.745E+03,   271.695E+03,   271.695E+03
C:/temp/Job-5.odb,Step-1,Increment      1: Step Time =    1.000,"P-5-1",           523,       15.2982,       5.02799,            0.,NA,NA,"",   1.82797E+06,   1.83835E+06,   1.83835E+06
C:/temp/Job-5.odb,Step-1,Increment      1: Step Time =    1.000,"P-5-1",           524,       25.3361,       4.89125,            0.,NA,NA,"",   1.74775E+06,   1.74815E+06,   1.74815E+06
C:/temp/Job-5.odb,Step-1,Increment      1: Step Time =    1.000,"P-5-1",           525,       35.3237,       4.72407,            0.,NA,NA,"",   1.68300E+06,   1.68018E+06,   1.68018E+06
C:/temp/Job-5.odb,Step-1,Increment      1: Step Time =    1.000,"P-5-1",           526,       45.2165,       4.68932,            0.,NA,NA,"",   1.59775E+06,   1.59299E+06,   1.59299E+06
C:/temp/Job-5.odb,Step-1,Increment      1: Step Time =    1.000,"P-5-1",           527,       55.0986,       4.82067,            0.,NA,NA,"",   1.47757E+06,   1.47111E+06,   1.47111E+06
C:/temp/Job-5.odb,Step-1,Increment      1: Step Time =    1.000,"P-5-1",           528,       65.0801,       5.01272,            0.,NA,NA,"",   1.32072E+06,   1.31388E+06,   1.31388E+06
C:/temp/Job-5.odb,Step-1,Increment      1: Step Time =    1.000,"P-5-1",           529,       75.0747,       5.05179,            0.,NA,NA,"",   1.13998E+06,   1.13448E+06,   1.13448E+06
C:/temp/Job-5.odb,Step-1,Increment      1: Step Time =    1.000,"P-5-1",           530,       104.968,       4.95537,            0.,NA,NA,"",   714.912E+03,   722.117E+03,   722.117E+03
C:/temp/Job-5.odb,Step-1,Increment      1: Step Time =    1.000,"P-5-1",           531,       114.900,       4.88392,            0.,NA,NA,"",   708.311E+03,   713.768E+03,   713.768E+03
C:/temp/Job-5.odb,Step-1,Increment      1: Step Time =    1.000,"P-5-1",           532,       124.953,       4.91737,            0.,NA,NA,"",   765.778E+03,   767.716E+03,   767.716E+03
C:/temp/Job-5.odb,Step-1,Increment      1: Step Time =    1.000,"P-5-1",           533,       135.021,       5.00509,            0.,NA,NA,"",   851.452E+03,   849.150E+03,   849.150E+03
C:/temp/Job-5.odb,Step-1,Increment      1: Step Time =    1.000,"P-5-1",           534,       144.785,       4.72091,            0.,NA,NA,"",   922.084E+03,   919.048E+03,   919.048E+03
C:/temp/Job-5.odb,Step-1,Increment      1: Step Time =    1.000,"P-5-1",           535,       154.527,       4.69409,            0.,NA,NA,"",   977.032E+03,   973.664E+03,   973.664E+03
C:/temp/Job-5.odb,Step-1,Increment      1: Step Time =    1.000,"P-5-1",           536,       164.399,       5.10716,            0.,NA,NA,"",   1.00184E+06,   999.344E+03,   999.344E+03
C:/temp/Job-5.odb,Step-1,Increment      1: Step Time =    1.000,"P-5-1",           537,       174.611,       5.05183,            0.,NA,NA,"",   1.00319E+06,   1.00251E+06,   1.00251E+06
C:/temp/Job-5.odb,Step-1,Increment      1: Step Time =    1.000,"P-5-1",           538,       184.747,       5.15682,            0.,NA,NA,"",   998.993E+03,   999.568E+03,   999.568E+03
C:/temp/Job-5.odb,Step-1,Increment      1: Step Time =    1.000,"P-5-1",           539,       194.651,       15.3381,            0.,NA,NA,"",   1.00358E+06,   1.00443E+06,   1.00443E+06
C:/temp/Job-5.odb,Step-1,Increment      1: Step Time =    1.000,"P-5-1",           540,       194.868,       25.4692,            0.,NA,NA,"",   997.953E+03,   1.00846E+06,   1.00846E+06
C:/temp/Job-5.odb,Step-1,Increment      1: Step Time =    1.000,"P-5-1",           541,       195.232,       35.4640,            0.,NA,NA,"",   976.164E+03,   1.01221E+06,   1.01221E+06
C:/temp/Job-5.odb,Step-1,Increment      1: Step Time =    1.000,"P-5-1",           542,       195.318,       45.3036,            0.,NA,NA,"",   940.812E+03,   1.01769E+06,   1.01769E+06
C:/temp/Job-5.odb,Step-1,Increment      1: Step Time =    1.000,"P-5-1",           543,       195.318,       55.1502,            0.,NA,NA,"",   906.836E+03,   1.02510E+06,   1.02510E+06
C:/temp/Job-5.odb,Step-1,Increment      1: Step Time =    1.000,"P-5-1",           544,       195.324,       64.9743,            0.,NA,NA,"",   901.063E+03,   1.03422E+06,   1.03422E+06
C:/temp/Job-5.odb,Step-1,Increment      1: Step Time =    1.000,"P-5-1",           545,       195.264,       74.8368,            0.,NA,NA,"",   939.202E+03,   1.04600E+06,   1.04600E+06
C:/temp/Job-5.odb,Step-1,Increment      1: Step Time =    1.000,"P-5-1",           546,       195.042,       84.8251,            0.,NA,NA,"",   998.569E+03,   1.08214E+06,   1.08214E+06
C:/temp/Job-5.odb,Step-1,Increment      1: Step Time =    1.000,"P-5-1",           547,       194.794,       94.9145,            0.,NA,NA,"",   1.03810E+06,   1.10665E+06,   1.10665E+06
C:/temp/Job-5.odb,Step-1,Increment      1: Step Time =    1.000,"P-5-1",           548,       194.797,       104.979,            0.,NA,NA,"",   1.03646E+06,   1.10475E+06,   1.10475E+06
C:/temp/Job-5.odb,Step-1,Increment      1: Step Time =    1.000,"P-5-1",           549,       194.847,       115.058,            0.,NA,NA,"",   996.485E+03,   1.08261E+06,   1.08261E+06
C:/temp/Job-5.odb,Step-1,Increment      1: Step Time =    1.000,"P-5-1",           550,       195.134,       125.059,            0.,NA,NA,"",   938.785E+03,   1.04703E+06,   1.04703E+06
C:/temp/Job-5.odb,Step-1,Increment      1: Step Time =    1.000,"P-5-1",           551,       195.397,       134.979,            0.,NA,NA,"",   899.632E+03,   1.03304E+06,   1.03304E+06
C:/temp/Job-5.odb,Step-1,Increment      1: Step Time =    1.000,"P-5-1",           552,       195.569,       144.762,            0.,NA,NA,"",   902.446E+03,   1.02179E+06,   1.02179E+06
C:/temp/Job-5.odb,Step-1,Increment      1: Step Time =    1.000,"P-5-1",           553,       195.207,       154.582,            0.,NA,NA,"",   942.018E+03,   1.01875E+06,   1.01875E+06
C:/temp/Job-5.odb,Step-1,Increment      1: Step Time =    1.000,"P-5-1",           554,       144.869,       195.087,            0.,NA,NA,"",   927.176E+03,   923.435E+03,   923.435E+03
C:/temp/Job-5.odb,Step-1,Increment      1: Step Time =    1.000,"P-5-1",           555,       134.851,       194.915,            0.,NA,NA,"",   851.816E+03,   849.954E+03,   849.954E+03
C:/temp/Job-5.odb,Step-1,Increment      1: Step Time =    1.000,"P-5-1",           556,       194.750,       164.564,            0.,NA,NA,"",   979.417E+03,   1.01496E+06,   1.01496E+06
C:/temp/Job-5.odb,Step-1,Increment      1: Step Time =    1.000,"P-5-1",           557,       154.805,       195.244,            0.,NA,NA,"",   977.358E+03,   974.054E+03,   974.054E+03
C:/temp/Job-5.odb,Step-1,Increment      1: Step Time =    1.000,"P-5-1",           558,       195.017,       174.809,            0.,NA,NA,"",   998.545E+03,   1.00828E+06,   1.00828E+06
C:/temp/Job-5.odb,Step-1,Increment      1: Step Time =    1.000,"P-5-1",           559,       164.651,       195.269,            0.,NA,NA,"",   1.00019E+06,   998.015E+03,   998.015E+03
C:/temp/Job-5.odb,Step-1,Increment      1: Step Time =    1.000,"P-5-1",           560,       194.943,       184.869,            0.,NA,NA,"",   1.00332E+06,   1.00369E+06,   1.00369E+06
C:/temp/Job-5.odb,Step-1,Increment      1: Step Time =    1.000,"P-5-1",           561,       174.628,       194.966,            0.,NA,NA,"",   1.00296E+06,   1.00239E+06,   1.00239E+06
C:/temp/Job-5.odb,Step-1,Increment      1: Step Time =    1.000,"P-5-1",           562,       194.920,       194.901,            0.,NA,NA,"",   999.683E+03,   999.281E+03,   999.281E+03
C:/temp/Job-5.odb,Step-1,Increment      1: Step Time =    1.000,"P-5-1",           563,       184.757,       194.745,            0.,NA,NA,"",   999.134E+03,   999.711E+03,   999.711E+03
C:/temp/Job-5.odb,Step-1,Increment      1: Step Time =    1.000,"P-5-1",           564,       124.840,       194.875,            0.,NA,NA,"",   769.317E+03,   771.427E+03,   771.427E+03
C:/temp/Job-5.odb,Step-1,Increment      1: Step Time =    1.000,"P-5-1",           565,       114.897,       195.043,            0.,NA,NA,"",   709.712E+03,   715.297E+03,   715.297E+03
C:/temp/Job-5.odb,Step-1,Increment      1: Step Time =    1.000,"P-5-1",           566,       85.1257,       194.981,            0.,NA,NA,"",   953.005E+03,   952.283E+03,   952.283E+03
C:/temp/Job-5.odb,Step-1,Increment      1: Step Time =    1.000,"P-5-1",           567,       5.02867,       134.954,            0.,NA,NA,"",   610.395E+03,   678.104E+03,   678.104E+03
C:/temp/Job-5.odb,Step-1,Increment      1: Step Time =    1.000,"P-5-1",           568,       75.1290,       195.034,            0.,NA,NA,"",   1.13728E+06,   1.13207E+06,   1.13207E+06
C:/temp/Job-5.odb,Step-1,Increment      1: Step Time =    1.000,"P-5-1",           569,       65.1010,       195.239,            0.,NA,NA,"",   1.31973E+06,   1.31305E+06,   1.31305E+06
C:/temp/Job-5.odb,Step-1,Increment      1: Step Time =    1.000,"P-5-1",           570,       55.1993,       195.427,            0.,NA,NA,"",   1.47553E+06,   1.47003E+06,   1.47003E+06
C:/temp/Job-5.odb,Step-1,Increment      1: Step Time =    1.000,"P-5-1",           571,       45.3960,       195.233,            0.,NA,NA,"",   1.59530E+06,   1.59055E+06,   1.59055E+06
C:/temp/Job-5.odb,Step-1,Increment      1: Step Time =    1.000,"P-5-1",           572,       35.3989,       194.755,            0.,NA,NA,"",   1.67931E+06,   1.67595E+06,   1.67595E+06
C:/temp/Job-5.odb,Step-1,Increment      1: Step Time =    1.000,"P-5-1",           573,       25.2692,       194.758,            0.,NA,NA,"",   1.74587E+06,   1.74641E+06,   1.74641E+06
C:/temp/Job-5.odb,Step-1,Increment      1: Step Time =    1.000,"P-5-1",           574,       15.2064,       194.728,            0.,NA,NA,"",   1.82719E+06,   1.83857E+06,   1.83857E+06
C:/temp/Job-5.odb,Step-1,Increment      1: Step Time =    1.000,"P-5-1",           575,       5.07911,       194.906,            0.,NA,NA,"",   2.01338E+06,   2.09413E+06,   2.09413E+06
C:/temp/Job-5.odb,Step-1,Increment      1: Step Time =    1.000,"P-5-1",           576,       5.07889,       184.824,            0.,NA,NA,"",   1.53694E+06,   1.67162E+06,   1.67162E+06
C:/temp/Job-5.odb,Step-1,Increment      1: Step Time =    1.000,"P-5-1",           577,       5.01631,       174.725,            0.,NA,NA,"",   1.29499E+06,   1.42638E+06,   1.42638E+06
C:/temp/Job-5.odb,Step-1,Increment      1: Step Time =    1.000,"P-5-1",           578,       4.89259,       164.840,            0.,NA,NA,"",   1.11183E+06,   1.23100E+06,   1.23100E+06
C:/temp/Job-5.odb,Step-1,Increment      1: Step Time =    1.000,"P-5-1",           579,       4.83444,       154.934,            0.,NA,NA,"",   941.223E+03,   1.04441E+06,   1.04441E+06
C:/temp/Job-5.odb,Step-1,Increment      1: Step Time =    1.000,"P-5-1",           580,       4.94952,       144.957,            0.,NA,NA,"",   774.846E+03,   860.127E+03,   860.127E+03
C:/temp/Job-5.odb,Step-1,Increment      1: Step Time =    1.000,"P-5-1",           581,       4.77447,       95.1987,            0.,NA,NA,"",   234.248E+03,   268.718E+03,   268.718E+03
C:/temp/Job-5.odb,Step-1,Increment      1: Step Time =    1.000,"P-5-1",           582,       5.11304,       85.2136,            0.,NA,NA,"",   318.610E+03,   361.522E+03,   361.522E+03
C:/temp/Job-5.odb,Step-1,Increment      1: Step Time =    1.000,"P-5-1",           583,       5.01538,       75.1214,            0.,NA,NA,"",   453.036E+03,   506.021E+03,   506.021E+03
C:/temp/Job-5.odb,Step-1,Increment      1: Step Time =    1.000,"P-5-1",           584,       4.76682,       65.0393,            0.,NA,NA,"",   611.625E+03,   679.726E+03,   679.726E+03
C:/temp/Job-5.odb,Step-1,Increment      1: Step Time =    1.000,"P-5-1",           585,       4.60905,       55.0930,            0.,NA,NA,"",   774.008E+03,   860.337E+03,   860.337E+03
C:/temp/Job-5.odb,Step-1,Increment      1: Step Time =    1.000,"P-5-1",           586,       189.776,       5.17316,            0.,NA,NA,"",   998.552E+03,   998.996E+03,   998.996E+03
C:/temp/Job-5.odb,Step-1,Increment      1: Step Time =    1.000,"P-5-1",           587,       179.700,       5.10550,            0.,NA,NA,"",   1.00087E+06,   1.00100E+06,   1.00100E+06
C:/temp/Job-5.odb,Step-1,Increment      1: Step Time =    1.000,"P-5-1",           588,       169.500,       5.05376,            0.,NA,NA,"",   1.00436E+06,   1.00278E+06,   1.00278E+06
C:/temp/Job-5.odb,Step-1,Increment      1: Step Time =    1.000,"P-5-1",           589,       159.350,       5.06816,            0.,NA,NA,"",   993.591E+03,   990.360E+03,   990.360E+03
C:/temp/Job-5.odb,Step-1,Increment      1: Step Time =    1.000,"P-5-1",           590,       149.607,       4.58501,            0.,NA,NA,"",   951.695E+03,   948.538E+03,   948.538E+03
C:/temp/Job-5.odb,Step-1,Increment      1: Step Time =    1.000,"P-5-1",           591,       139.929,       4.91696,            0.,NA,NA,"",   889.694E+03,   886.637E+03,   886.637E+03
C:/temp/Job-5.odb,Step-1,Increment      1: Step Time =    1.000,"P-5-1",           592,       130.025,       4.98528,            0.,NA,NA,"",   808.156E+03,   807.884E+03,   807.884E+03
C:/temp/Job-5.odb,Step-1,Increment      1: Step Time =    1.000,"P-5-1",           593,       119.902,       4.87635,            0.,NA,NA,"",   730.759E+03,   734.623E+03,   734.623E+03
C:/temp/Job-5.odb,Step-1,Increment      1: Step Time =    1.000,"P-5-1",           594,       109.932,       4.91534,            0.,NA,NA,"",   702.242E+03,   708.986E+03,   708.986E+03
C:/temp/Job-5.odb,Step-1,Increment      1: Step Time =    1.000,"P-5-1",           595,       100.003,       4.97202,            0.,NA,NA,"",   747.693E+03,   753.841E+03,   753.841E+03
C:/temp/Job-5.odb,Step-1,Increment      1: Step Time =    1.000,"P-5-1",           596,       90.0733,       4.95052,            0.,NA,NA,"",   867.674E+03,   869.806E+03,   869.806E+03
C:/temp/Job-5.odb,Step-1,Increment      1: Step Time =    1.000,"P-5-1",           597,       80.0463,       4.99412,            0.,NA,NA,"",   1.04393E+06,   1.04073E+06,   1.04073E+06
C:/temp/Job-5.odb,Step-1,Increment      1: Step Time =    1.000,"P-5-1",           598,       70.0907,       5.07045,            0.,NA,NA,"",   1.23250E+06,   1.22587E+06,   1.22587E+06
C:/temp/Job-5.odb,Step-1,Increment      1: Step Time =    1.000,"P-5-1",           599,       60.0747,       4.92289,            0.,NA,NA,"",   1.40335E+06,   1.39655E+06,   1.39655E+06
C:/temp/Job-5.odb,Step-1,Increment      1: Step Time =    1.000,"P-5-1",           600,       50.1548,       4.73610,            0.,NA,NA,"",   1.54239E+06,   1.53675E+06,   1.53675E+06
C:/temp/Job-5.odb,Step-1,Increment      1: Step Time =    1.000,"P-5-1",           601,       40.2819,       4.67003,            0.,NA,NA,"",   1.64432E+06,   1.64047E+06,   1.64047E+06
C:/temp/Job-5.odb,Step-1,Increment      1: Step Time =    1.000,"P-5-1",           602,       30.3446,       4.79201,            0.,NA,NA,"",   1.71664E+06,   1.71514E+06,   1.71514E+06
C:/temp/Job-5.odb,Step-1,Increment      1: Step Time =    1.000,"P-5-1",           603,       20.3301,       4.96313,            0.,NA,NA,"",   1.78418E+06,   1.78717E+06,   1.78717E+06
C:/temp/Job-5.odb,Step-1,Increment      1: Step Time =    1.000,"P-5-1",           604,       10.2567,       5.08994,            0.,NA,NA,"",   1.91755E+06,   1.93683E+06,   1.93683E+06
C:/temp/Job-5.odb,Step-1,Increment      1: Step Time =    1.000,"P-5-1",           605,       194.908,       189.862,            0.,NA,NA,"",   1.00215E+06,   1.00162E+06,   1.00162E+06
C:/temp/Job-5.odb,Step-1,Increment      1: Step Time =    1.000,"P-5-1",           606,       195.002,       179.867,            0.,NA,NA,"",   1.00232E+06,   1.00573E+06,   1.00573E+06
C:/temp/Job-5.odb,Step-1,Increment      1: Step Time =    1.000,"P-5-1",           607,       194.924,       169.708,            0.,NA,NA,"",   991.269E+03,   1.01155E+06,   1.01155E+06
C:/temp/Job-5.odb,Step-1,Increment      1: Step Time =    1.000,"P-5-1",           608,       194.687,       159.470,            0.,NA,NA,"",   963.450E+03,   1.01781E+06,   1.01781E+06
C:/temp/Job-5.odb,Step-1,Increment      1: Step Time =    1.000,"P-5-1",           609,       195.519,       149.620,            0.,NA,NA,"",   918.494E+03,   1.01868E+06,   1.01868E+06
C:/temp/Job-5.odb,Step-1,Increment      1: Step Time =    1.000,"P-5-1",           610,       195.503,       139.893,            0.,NA,NA,"",   895.799E+03,   1.02693E+06,   1.02693E+06
C:/temp/Job-5.odb,Step-1,Increment      1: Step Time =    1.000,"P-5-1",           611,       195.282,       130.038,            0.,NA,NA,"",   914.875E+03,   1.03984E+06,   1.03984E+06
C:/temp/Job-5.odb,Step-1,Increment      1: Step Time =    1.000,"P-5-1",           612,       194.976,       120.045,            0.,NA,NA,"",   967.904E+03,   1.06064E+06,   1.06064E+06
C:/temp/Job-5.odb,Step-1,Increment      1: Step Time =    1.000,"P-5-1",           613,       194.820,       110.047,            0.,NA,NA,"",   1.02013E+06,   1.10097E+06,   1.10097E+06
C:/temp/Job-5.odb,Step-1,Increment      1: Step Time =    1.000,"P-5-1",           614,       194.773,       99.9460,            0.,NA,NA,"",   1.04309E+06,   1.10369E+06,   1.10369E+06
C:/temp/Job-5.odb,Step-1,Increment      1: Step Time =    1.000,"P-5-1",           615,       194.902,       89.8668,            0.,NA,NA,"",   1.02233E+06,   1.10162E+06,   1.10162E+06
C:/temp/Job-5.odb,Step-1,Increment      1: Step Time =    1.000,"P-5-1",           616,       195.178,       79.8200,            0.,NA,NA,"",   969.332E+03,   1.05992E+06,   1.05992E+06
C:/temp/Job-5.odb,Step-1,Increment      1: Step Time =    1.000,"P-5-1",           617,       195.318,       69.8909,            0.,NA,NA,"",   914.862E+03,   1.03919E+06,   1.03919E+06
C:/temp/Job-5.odb,Step-1,Increment      1: Step Time =    1.000,"P-5-1",           618,       195.327,       60.0629,            0.,NA,NA,"",   898.841E+03,   1.02956E+06,   1.02956E+06
C:/temp/Job-5.odb,Step-1,Increment      1: Step Time =    1.000,"P-5-1",           619,       195.333,       50.2292,            0.,NA,NA,"",   922.093E+03,   1.02114E+06,   1.02114E+06
C:/temp/Job-5.odb,Step-1,Increment      1: Step Time =    1.000,"P-5-1",           620,       195.310,       40.3954,            0.,NA,NA,"",   959.536E+03,   1.01464E+06,   1.01464E+06
C:/temp/Job-5.odb,Step-1,Increment      1: Step Time =    1.000,"P-5-1",           621,       195.095,       30.5064,            0.,NA,NA,"",   989.471E+03,   1.01046E+06,   1.01046E+06
C:/temp/Job-5.odb,Step-1,Increment      1: Step Time =    1.000,"P-5-1",           622,       194.672,       20.4234,            0.,NA,NA,"",   1.00218E+06,   1.00636E+06,   1.00636E+06
C:/temp/Job-5.odb,Step-1,Increment      1: Step Time =    1.000,"P-5-1",           623,       194.732,       10.2286,            0.,NA,NA,"",   1.00239E+06,   1.00201E+06,   1.00201E+06
C:/temp/Job-5.odb,Step-1,Increment      1: Step Time =    1.000,"P-5-1",           624,       10.1386,       194.810,            0.,NA,NA,"",   1.91809E+06,   1.93877E+06,   1.93877E+06
C:/temp/Job-5.odb,Step-1,Increment      1: Step Time =    1.000,"P-5-1",           625,       20.2521,       194.691,            0.,NA,NA,"",   1.78244E+06,   1.78636E+06,   1.78636E+06
C:/temp/Job-5.odb,Step-1,Increment      1: Step Time =    1.000,"P-5-1",           626,       30.3237,       194.790,            0.,NA,NA,"",   1.71429E+06,   1.71235E+06,   1.71235E+06
C:/temp/Job-5.odb,Step-1,Increment      1: Step Time =    1.000,"P-5-1",           627,       40.4672,       194.783,            0.,NA,NA,"",   1.64082E+06,   1.63657E+06,   1.63657E+06
C:/temp/Job-5.odb,Step-1,Increment      1: Step Time =    1.000,"P-5-1",           628,       50.3367,       195.440,            0.,NA,NA,"",   1.53968E+06,   1.53490E+06,   1.53490E+06
C:/temp/Job-5.odb,Step-1,Increment      1: Step Time =    1.000,"P-5-1",           629,       60.1220,       195.340,            0.,NA,NA,"",   1.40221E+06,   1.39577E+06,   1.39577E+06
C:/temp/Job-5.odb,Step-1,Increment      1: Step Time =    1.000,"P-5-1",           630,       70.1135,       195.132,            0.,NA,NA,"",   1.23012E+06,   1.22401E+06,   1.22401E+06
C:/temp/Job-5.odb,Step-1,Increment      1: Step Time =    1.000,"P-5-1",           631,       80.1412,       194.974,            0.,NA,NA,"",   1.04430E+06,   1.04086E+06,   1.04086E+06
C:/temp/Job-5.odb,Step-1,Increment      1: Step Time =    1.000,"P-5-1",           632,       90.0742,       195.044,            0.,NA,NA,"",   868.798E+03,   870.840E+03,   870.840E+03
C:/temp/Job-5.odb,Step-1,Increment      1: Step Time =    1.000,"P-5-1",           633,       99.9408,       195.165,            0.,NA,NA,"",   744.961E+03,   750.811E+03,   750.811E+03
C:/temp/Job-5.odb,Step-1,Increment      1: Step Time =    1.000,"P-5-1",           634,       109.921,       195.146,            0.,NA,NA,"",   700.495E+03,   707.314E+03,   707.314E+03
C:/temp/Job-5.odb,Step-1,Increment      1: Step Time =    1.000,"P-5-1",           635,       119.870,       194.944,            0.,NA,NA,"",   734.318E+03,   738.369E+03,   738.369E+03
C:/temp/Job-5.odb,Step-1,Increment      1: Step Time =    1.000,"P-5-1",           636,       129.834,       194.861,            0.,NA,NA,"",   809.839E+03,   809.743E+03,   809.743E+03
C:/temp/Job-5.odb,Step-1,Increment      1: Step Time =    1.000,"P-5-1",           637,       139.866,       194.995,            0.,NA,NA,"",   891.918E+03,   888.765E+03,   888.765E+03
C:/temp/Job-5.odb,Step-1,Increment      1: Step Time =    1.000,"P-5-1",           638,       149.850,       195.169,            0.,NA,NA,"",   955.829E+03,   952.124E+03,   952.124E+03
C:/temp/Job-5.odb,Step-1,Increment      1: Step Time =    1.000,"P-5-1",           639,       159.735,       195.294,            0.,NA,NA,"",   991.891E+03,   989.108E+03,   989.108E+03
C:/temp/Job-5.odb,Step-1,Increment      1: Step Time =    1.000,"P-5-1",           640,       169.606,       195.169,            0.,NA,NA,"",   1.00335E+06,   1.00196E+06,   1.00196E+06
C:/temp/Job-5.odb,Step-1,Increment      1: Step Time =    1.000,"P-5-1",           641,       179.684,       194.779,            0.,NA,NA,"",   1.00104E+06,   1.00115E+06,   1.00115E+06
C:/temp/Job-5.odb,Step-1,Increment      1: Step Time =    1.000,"P-5-1",           642,       189.849,       194.811,            0.,NA,NA,"",   998.545E+03,   999.011E+03,   999.011E+03
C:/temp/Job-5.odb,Step-1,Increment      1: Step Time =    1.000,"P-5-1",           643,       5.90957,       20.6598,            0.,NA,NA,"",   1.40992E+06,   1.53810E+06,   1.53810E+06
C:/temp/Job-5.odb,Step-1,Increment      1: Step Time =    1.000,"P-5-1",           644,       5.00141,       30.7512,            0.,NA,NA,"",   1.18890E+06,   1.31341E+06,   1.31341E+06
C:/temp/Job-5.odb,Step-1,Increment      1: Step Time =    1.000,"P-5-1",           645,       4.29285,       40.5556,            0.,NA,NA,"",   1.01399E+06,   1.12709E+06,   1.12709E+06
C:/temp/Job-5.odb,Step-1,Increment      1: Step Time =    1.000,"P-5-1",           646,       4.42160,       50.2304,            0.,NA,NA,"",   851.620E+03,   947.131E+03,   947.131E+03
C:/temp/Job-5.odb,Step-1,Increment      1: Step Time =    1.000,"P-5-1",           647,       4.70042,       60.0468,            0.,NA,NA,"",   693.837E+03,   770.823E+03,   770.823E+03
C:/temp/Job-5.odb,Step-1,Increment      1: Step Time =    1.000,"P-5-1",           648,       4.87705,       70.0640,            0.,NA,NA,"",   531.048E+03,   590.995E+03,   590.995E+03
C:/temp/Job-5.odb,Step-1,Increment      1: Step Time =    1.000,"P-5-1",           649,       5.12794,       80.1934,            0.,NA,NA,"",   380.726E+03,   428.177E+03,   428.177E+03
C:/temp/Job-5.odb,Step-1,Increment      1: Step Time =    1.000,"P-5-1",           650,       4.93417,       90.1861,            0.,NA,NA,"",   268.131E+03,   306.726E+03,   306.726E+03
C:/temp/Job-5.odb,Step-1,Increment      1: Step Time =    1.000,"P-5-1",           651,       4.71285,       100.153,            0.,NA,NA,"",   223.635E+03,   256.460E+03,   256.460E+03
C:/temp/Job-5.odb,Step-1,Increment      1: Step Time =    1.000,"P-5-1",           652,       4.92843,       110.022,            0.,NA,NA,"",   270.870E+03,   309.814E+03,   309.814E+03
C:/temp/Job-5.odb,Step-1,Increment      1: Step Time =    1.000,"P-5-1",           653,       5.13154,       119.932,            0.,NA,NA,"",   382.113E+03,   429.707E+03,   429.707E+03
C:/temp/Job-5.odb,Step-1,Increment      1: Step Time =    1.000,"P-5-1",           654,       5.06699,       129.949,            0.,NA,NA,"",   530.297E+03,   590.146E+03,   590.146E+03
C:/temp/Job-5.odb,Step-1,Increment      1: Step Time =    1.000,"P-5-1",           655,       4.99194,       139.952,            0.,NA,NA,"",   692.474E+03,   768.726E+03,   768.726E+03
C:/temp/Job-5.odb,Step-1,Increment      1: Step Time =    1.000,"P-5-1",           656,       4.87767,       149.952,            0.,NA,NA,"",   857.830E+03,   952.163E+03,   952.163E+03
C:/temp/Job-5.odb,Step-1,Increment      1: Step Time =    1.000,"P-5-1",           657,       4.81846,       159.893,            0.,NA,NA,"",   1.02603E+06,   1.13756E+06,   1.13756E+06
C:/temp/Job-5.odb,Step-1,Increment      1: Step Time =    1.000,"P-5-1",           658,       4.96926,       169.757,            0.,NA,NA,"",   1.20052E+06,   1.32631E+06,   1.32631E+06
C:/temp/Job-5.odb,Step-1,Increment      1: Step Time =    1.000,"P-5-1",           659,       5.03841,       179.789,            0.,NA,NA,"",   1.40808E+06,   1.54266E+06,   1.54266E+06
C:/temp/Job-5.odb,Step-1,Increment      1: Step Time =    1.000,"P-5-1",           660,       5.10176,       189.850,            0.,NA,NA,"",   1.72979E+06,   1.85249E+06,   1.85249E+06
C:/temp/Job-5.odb,Step-1,Increment      1: Step Time =    1.000,"P-5-1",           661,       50.9287,       90.0160,            0.,NA,NA,"",   404.714E+03,  -404.715E+03,  -404.715E+03
C:/temp/Job-5.odb,Step-1,Increment      1: Step Time =    1.000,"P-5-1",           662,       106.866,       50.5264,            0.,NA,NA,"",   2.47404E+06,   2.64235E+06,   2.64235E+06
C:/temp/Job-5.odb,Step-1,Increment      1: Step Time =    1.000,"P-5-1",           663,       88.9735,       49.9866,            0.,NA,NA,"",   2.24532E+06,   2.35792E+06,   2.35792E+06
C:/temp/Job-5.odb,Step-1,Increment      1: Step Time =    1.000,"P-5-1",           664,       50.0375,       108.205,            0.,NA,NA,"",   370.466E+03,  -379.511E+03,  -379.511E+03
C:/temp/Job-5.odb,Step-1,Increment      1: Step Time =    1.000,"P-5-1",           665,       89.6129,       149.290,            0.,NA,NA,"",   2.27500E+06,   2.39304E+06,   2.39304E+06
C:/temp/Job-5.odb,Step-1,Increment      1: Step Time =    1.000,"P-5-1",           666,       149.095,       109.641,            0.,NA,NA,"",   817.253E+03,  -712.661E+03,  -712.661E+03
C:/temp/Job-5.odb,Step-1,Increment      1: Step Time =    1.000,"P-5-1",           667,       110.793,       147.609,            0.,NA,NA,"",   2.63431E+06,   2.78677E+06,   2.78677E+06
C:/temp/Job-5.odb,Step-1,Increment      1: Step Time =    1.000,"P-5-1",           668,       150.977,       87.3382,            0.,NA,NA,"",   831.883E+03,  -336.536E+03,  -336.536E+03
C:/temp/Job-5.odb,Step-1,Increment      1: Step Time =    1.000,"P-5-1",           669,       58.6699,       120.773,            0.,NA,NA,"",   495.714E+03,  -230.395E+03,  -230.395E+03
C:/temp/Job-5.odb,Step-1,Increment      1: Step Time =    1.000,"P-5-1",           670,       139.900,       78.2197,            0.,NA,NA,"",   781.848E+03,   7.92397E+03,   7.92397E+03
C:/temp/Job-5.odb,Step-1,Increment      1: Step Time =    1.000,"P-5-1",           671,       77.6364,       59.6868,            0.,NA,NA,"",   1.84630E+06,   1.85892E+06,   1.85892E+06
C:/temp/Job-5.odb,Step-1,Increment      1: Step Time =    1.000,"P-5-1",           672,       122.133,       139.918,            0.,NA,NA,"",   2.46143E+06,   2.52110E+06,   2.52110E+06
C:/temp/Job-5.odb,Step-1,Increment      1: Step Time =    1.000,"P-5-1",           673,       100.246,       145.530,            0.,NA,NA,"",   3.12029E+06,   3.23686E+06,   3.23686E+06
C:/temp/Job-5.odb,Step-1,Increment      1: Step Time =    1.000,"P-5-1",           674,       52.8105,       102.473,            0.,NA,NA,"",   560.414E+03,  -590.156E+03,  -590.156E+03
C:/temp/Job-5.odb,Step-1,Increment      1: Step Time =    1.000,"P-5-1",           675,       147.972,       98.4491,            0.,NA,NA,"",   917.313E+03,  -927.908E+03,  -927.908E+03
C:/temp/Job-5.odb,Step-1,Increment      1: Step Time =    1.000,"P-5-1",           676,       96.4408,       54.2990,            0.,NA,NA,"",   2.97457E+06,   3.08393E+06,   3.08393E+06
C:/temp/Job-5.odb,Step-1,Increment      1: Step Time =    1.000,"P-5-1",           677,       105.010,       144.897,            0.,NA,NA,"",   3.18637E+06,   3.30164E+06,   3.30164E+06
C:/temp/Job-5.odb,Step-1,Increment      1: Step Time =    1.000,"P-5-1",           678,       146.409,       102.463,            0.,NA,NA,"",   1.09420E+06,  -1.10638E+06,  -1.10638E+06
C:/temp/Job-5.odb,Step-1,Increment      1: Step Time =    1.000,"P-5-1",           679,       140.007,       10.1411,            0.,NA,NA,"",   995.360E+03,   987.365E+03,   987.365E+03
C:/temp/Job-5.odb,Step-1,Increment      1: Step Time =    1.000,"P-5-1",           680,       129.980,       9.98155,            0.,NA,NA,"",   942.489E+03,   942.624E+03,   942.624E+03
C:/temp/Job-5.odb,Step-1,Increment      1: Step Time =    1.000,"P-5-1",           681,       119.763,       9.66971,            0.,NA,NA,"",   879.599E+03,   890.473E+03,   890.473E+03
C:/temp/Job-5.odb,Step-1,Increment      1: Step Time =    1.000,"P-5-1",           682,       109.884,       9.85248,            0.,NA,NA,"",   865.107E+03,   883.857E+03,   883.857E+03
C:/temp/Job-5.odb,Step-1,Increment      1: Step Time =    1.000,"P-5-1",           683,       100.003,       9.98961,            0.,NA,NA,"",   915.318E+03,   933.083E+03,   933.083E+03
C:/temp/Job-5.odb,Step-1,Increment      1: Step Time =    1.000,"P-5-1",           684,       90.1460,       9.89280,            0.,NA,NA,"",   1.02364E+06,   1.03019E+06,   1.03019E+06
C:/temp/Job-5.odb,Step-1,Increment      1: Step Time =    1.000,"P-5-1",           685,       70.2126,       10.2600,            0.,NA,NA,"",   1.32326E+06,   1.30580E+06,   1.30580E+06
C:/temp/Job-5.odb,Step-1,Increment      1: Step Time =    1.000,"P-5-1",           686,       60.0719,       9.88800,            0.,NA,NA,"",   1.44597E+06,   1.42677E+06,   1.42677E+06
C:/temp/Job-5.odb,Step-1,Increment      1: Step Time =    1.000,"P-5-1",           687,       190.955,       139.846,            0.,NA,NA,"",   951.151E+03,   1.07012E+06,   1.07012E+06
C:/temp/Job-5.odb,Step-1,Increment      1: Step Time =    1.000,"P-5-1",           688,       190.596,       130.156,            0.,NA,NA,"",   946.065E+03,   1.08355E+06,   1.08355E+06
C:/temp/Job-5.odb,Step-1,Increment      1: Step Time =    1.000,"P-5-1",           689,       189.971,       120.193,            0.,NA,NA,"",   935.532E+03,   1.07067E+06,   1.07067E+06
C:/temp/Job-5.odb,Step-1,Increment      1: Step Time =    1.000,"P-5-1",           690,       189.715,       110.080,            0.,NA,NA,"",   905.769E+03,   1.00440E+06,   1.00440E+06
C:/temp/Job-5.odb,Step-1,Increment      1: Step Time =    1.000,"P-5-1",           691,       189.540,       99.8762,            0.,NA,NA,"",   896.799E+03,   943.533E+03,   943.533E+03
C:/temp/Job-5.odb,Step-1,Increment      1: Step Time =    1.000,"P-5-1",           692,       189.868,       89.5976,            0.,NA,NA,"",   911.274E+03,   1.00915E+06,   1.00915E+06
C:/temp/Job-5.odb,Step-1,Increment      1: Step Time =    1.000,"P-5-1",           693,       190.444,       79.5542,            0.,NA,NA,"",   935.446E+03,   1.06969E+06,   1.06969E+06
C:/temp/Job-5.odb,Step-1,Increment      1: Step Time =    1.000,"P-5-1",           694,       190.644,       69.7753,            0.,NA,NA,"",   947.062E+03,   1.08396E+06,   1.08396E+06
C:/temp/Job-5.odb,Step-1,Increment      1: Step Time =    1.000,"P-5-1",           695,       190.607,       60.1479,            0.,NA,NA,"",   958.259E+03,   1.07541E+06,   1.07541E+06
C:/temp/Job-5.odb,Step-1,Increment      1: Step Time =    1.000,"P-5-1",           696,       60.1767,       190.651,            0.,NA,NA,"",   1.44050E+06,   1.42269E+06,   1.42269E+06
C:/temp/Job-5.odb,Step-1,Increment      1: Step Time =    1.000,"P-5-1",           697,       70.1628,       190.273,            0.,NA,NA,"",   1.31715E+06,   1.30066E+06,   1.30066E+06
C:/temp/Job-5.odb,Step-1,Increment      1: Step Time =    1.000,"P-5-1",           698,       80.3015,       189.878,            0.,NA,NA,"",   1.17697E+06,   1.16869E+06,   1.16869E+06
C:/temp/Job-5.odb,Step-1,Increment      1: Step Time =    1.000,"P-5-1",           699,       90.2418,       190.060,            0.,NA,NA,"",   1.02535E+06,   1.03275E+06,   1.03275E+06
C:/temp/Job-5.odb,Step-1,Increment      1: Step Time =    1.000,"P-5-1",           700,       99.9251,       190.370,            0.,NA,NA,"",   907.418E+03,   923.529E+03,   923.529E+03
C:/temp/Job-5.odb,Step-1,Increment      1: Step Time =    1.000,"P-5-1",           701,       119.631,       189.820,            0.,NA,NA,"",   889.545E+03,   902.197E+03,   902.197E+03
C:/temp/Job-5.odb,Step-1,Increment      1: Step Time =    1.000,"P-5-1",           702,       129.666,       189.628,            0.,NA,NA,"",   948.920E+03,   949.774E+03,   949.774E+03
C:/temp/Job-5.odb,Step-1,Increment      1: Step Time =    1.000,"P-5-1",           703,       139.815,       189.965,            0.,NA,NA,"",   997.147E+03,   988.947E+03,   988.947E+03
C:/temp/Job-5.odb,Step-1,Increment      1: Step Time =    1.000,"P-5-1",           704,       9.45135,       60.0536,            0.,NA,NA,"",   713.211E+03,   781.256E+03,   781.256E+03
C:/temp/Job-5.odb,Step-1,Increment      1: Step Time =    1.000,"P-5-1",           705,       9.68928,       70.0341,            0.,NA,NA,"",   533.049E+03,   590.293E+03,   590.293E+03
C:/temp/Job-5.odb,Step-1,Increment      1: Step Time =    1.000,"P-5-1",           706,       10.3207,       80.3667,            0.,NA,NA,"",   365.837E+03,   414.060E+03,   414.060E+03
C:/temp/Job-5.odb,Step-1,Increment      1: Step Time =    1.000,"P-5-1",           707,       9.81467,       90.5577,            0.,NA,NA,"",   246.321E+03,   283.120E+03,   283.120E+03
C:/temp/Job-5.odb,Step-1,Increment      1: Step Time =    1.000,"P-5-1",           708,       9.35736,       100.297,            0.,NA,NA,"",   208.930E+03,   234.898E+03,   234.898E+03
C:/temp/Job-5.odb,Step-1,Increment      1: Step Time =    1.000,"P-5-1",           709,       9.87362,       109.877,            0.,NA,NA,"",   251.776E+03,   289.788E+03,   289.788E+03
C:/temp/Job-5.odb,Step-1,Increment      1: Step Time =    1.000,"P-5-1",           710,       10.3278,       119.869,            0.,NA,NA,"",   368.732E+03,   417.196E+03,   417.196E+03
C:/temp/Job-5.odb,Step-1,Increment      1: Step Time =    1.000,"P-5-1",           711,       80.1842,       9.99715,            0.,NA,NA,"",   1.17666E+06,   1.16866E+06,   1.16866E+06
C:/temp/Job-5.odb,Step-1,Increment      1: Step Time =    1.000,"P-5-1",           712,       109.771,       190.379,            0.,NA,NA,"",   860.506E+03,   878.384E+03,   878.384E+03
C:/temp/Job-5.odb,Step-1,Increment      1: Step Time =    1.000,"P-5-1",           713,       10.0954,       129.936,            0.,NA,NA,"",   531.684E+03,   588.512E+03,   588.512E+03
C:/temp/Job-5.odb,Step-1,Increment      1: Step Time =    1.000,"P-5-1",           714,       9.96343,       139.921,            0.,NA,NA,"",   712.632E+03,   779.674E+03,   779.674E+03
C:/temp/Job-5.odb,Step-1,Increment      1: Step Time =    1.000,"P-5-1",           715,       153.253,       101.546,            0.,NA,NA,"",   524.856E+03,  -462.109E+03,  -462.109E+03
C:/temp/Job-5.odb,Step-1,Increment      1: Step Time =    1.000,"P-5-1",           716,       59.9576,       14.8765,            0.,NA,NA,"",   1.50255E+06,   1.46720E+06,   1.46720E+06
C:/temp/Job-5.odb,Step-1,Increment      1: Step Time =    1.000,"P-5-1",           717,       14.1830,       60.1222,            0.,NA,NA,"",   738.934E+03,   794.369E+03,   794.369E+03
C:/temp/Job-5.odb,Step-1,Increment      1: Step Time =    1.000,"P-5-1",           718,       185.889,       60.2771,            0.,NA,NA,"",   1.03690E+06,   1.12355E+06,   1.12355E+06
C:/temp/Job-5.odb,Step-1,Increment      1: Step Time =    1.000,"P-5-1",           719,       60.1746,       185.977,            0.,NA,NA,"",   1.49148E+06,   1.45879E+06,   1.45879E+06
C:/temp/Job-5.odb,Step-1,Increment      1: Step Time =    1.000,"P-5-1",           720,       140.368,       15.9334,            0.,NA,NA,"",   1.12026E+06,   1.10519E+06,   1.10519E+06
C:/temp/Job-5.odb,Step-1,Increment      1: Step Time =    1.000,"P-5-1",           721,       14.8924,       139.883,            0.,NA,NA,"",   741.907E+03,   795.561E+03,   795.561E+03
C:/temp/Job-5.odb,Step-1,Increment      1: Step Time =    1.000,"P-5-1",           722,       186.387,       139.864,            0.,NA,NA,"",   1.02724E+06,   1.11736E+06,   1.11736E+06
C:/temp/Job-5.odb,Step-1,Increment      1: Step Time =    1.000,"P-5-1",           723,       139.890,       184.931,            0.,NA,NA,"",   1.10590E+06,   1.09131E+06,   1.09131E+06
C:/temp/Job-5.odb,Step-1,Increment      1: Step Time =    1.000,"P-5-1",           724,       53.4306,       96.0287,            0.,NA,NA,"",   582.280E+03,  -608.801E+03,  -608.801E+03
C:/temp/Job-5.odb,Step-1,Increment      1: Step Time =    1.000,"P-5-1",           725,       101.057,       54.6875,            0.,NA,NA,"",   3.15690E+06,   3.26791E+06,   3.26791E+06
C:/temp/Job-5.odb,Step-1,Increment      1: Step Time =    1.000,"P-5-1",           726,       78.0346,       52.6783,            0.,NA,NA,"",   1.92116E+06,   1.93104E+06,   1.93104E+06
C:/temp/Job-5.odb,Step-1,Increment      1: Step Time =    1.000,"P-5-1",           727,       53.1957,       121.389,            0.,NA,NA,"",   544.265E+03,   21.3453E+03,   21.3453E+03
C:/temp/Job-5.odb,Step-1,Increment      1: Step Time =    1.000,"P-5-1",           728,       145.874,       79.9306,            0.,NA,NA,"",   1.07240E+06,   55.2018E+03,   55.2018E+03
C:/temp/Job-5.odb,Step-1,Increment      1: Step Time =    1.000,"P-5-1",           729,       121.494,       146.573,            0.,NA,NA,"",   2.16346E+06,   2.25931E+06,   2.25931E+06
C:/temp/Job-5.odb,Step-1,Increment      1: Step Time =    1.000,"P-5-1",           730,       49.9473,       98.4096,            0.,NA,NA,"",   412.212E+03,  -440.965E+03,  -440.965E+03
C:/temp/Job-5.odb,Step-1,Increment      1: Step Time =    1.000,"P-5-1",           731,       97.9808,       49.7953,            0.,NA,NA,"",   2.40563E+06,   2.56301E+06,   2.56301E+06
C:/temp/Job-5.odb,Step-1,Increment      1: Step Time =    1.000,"P-5-1",           732,       100.932,       151.065,            0.,NA,NA,"",   2.34626E+06,   2.51210E+06,   2.51210E+06
C:/temp/Job-5.odb,Step-1,Increment      1: Step Time =    1.000,"P-5-1",           733,       14.3882,       69.9012,            0.,NA,NA,"",   546.291E+03,   596.875E+03,   596.875E+03
C:/temp/Job-5.odb,Step-1,Increment      1: Step Time =    1.000,"P-5-1",           734,       129.683,       14.8684,            0.,NA,NA,"",   1.06620E+06,   1.06866E+06,   1.06866E+06
C:/temp/Job-5.odb,Step-1,Increment      1: Step Time =    1.000,"P-5-1",           735,       70.3439,       15.6280,            0.,NA,NA,"",   1.42477E+06,   1.39472E+06,   1.39472E+06
C:/temp/Job-5.odb,Step-1,Increment      1: Step Time =    1.000,"P-5-1",           736,       15.0398,       129.977,            0.,NA,NA,"",   544.468E+03,   593.752E+03,   593.752E+03
C:/temp/Job-5.odb,Step-1,Increment      1: Step Time =    1.000,"P-5-1",           737,       186.002,       130.302,            0.,NA,NA,"",   999.536E+03,   1.11578E+06,   1.11578E+06
C:/temp/Job-5.odb,Step-1,Increment      1: Step Time =    1.000,"P-5-1",           738,       129.527,       184.267,            0.,NA,NA,"",   1.08474E+06,   1.08846E+06,   1.08846E+06
C:/temp/Job-5.odb,Step-1,Increment      1: Step Time =    1.000,"P-5-1",           739,       70.1191,       185.469,            0.,NA,NA,"",   1.40858E+06,   1.38025E+06,   1.38025E+06
C:/temp/Job-5.odb,Step-1,Increment      1: Step Time =    1.000,"P-5-1",           740,       186.011,       69.7064,            0.,NA,NA,"",   1.00384E+06,   1.11863E+06,   1.11863E+06
C:/temp/Job-5.odb,Step-1,Increment      1: Step Time =    1.000,"P-5-1",           741,       107.511,       45.7630,            0.,NA,NA,"",   2.02998E+06,   2.20285E+06,   2.20285E+06
C:/temp/Job-5.odb,Step-1,Increment      1: Step Time =    1.000,"P-5-1",           742,       93.2094,       45.5594,            0.,NA,NA,"",   2.07209E+06,   2.20404E+06,   2.20404E+06
C:/temp/Job-5.odb,Step-1,Increment      1: Step Time =    1.000,"P-5-1",           743,       94.1840,       154.273,            0.,NA,NA,"",   2.04541E+06,   2.18889E+06,   2.18889E+06
C:/temp/Job-5.odb,Step-1,Increment      1: Step Time =    1.000,"P-5-1",           744,       155.101,       108.405,            0.,NA,NA,"",   634.740E+03,  -21.8032E+03,  -21.8032E+03
C:/temp/Job-5.odb,Step-1,Increment      1: Step Time =    1.000,"P-5-1",           745,       104.402,       155.653,            0.,NA,NA,"",   1.96932E+06,   2.13574E+06,   2.13574E+06
C:/temp/Job-5.odb,Step-1,Increment      1: Step Time =    1.000,"P-5-1",           746,       157.990,       93.6496,            0.,NA,NA,"",   525.388E+03,   169.483E+03,   169.483E+03
C:/temp/Job-5.odb,Step-1,Increment      1: Step Time =    1.000,"P-5-1",           747,       43.5401,       106.471,            0.,NA,NA,"",   204.050E+03,  -185.628E+03,  -185.628E+03
C:/temp/Job-5.odb,Step-1,Increment      1: Step Time =    1.000,"P-5-1",           748,       74.1032,       55.8311,            0.,NA,NA,"",   1.78005E+06,   1.74764E+06,   1.74764E+06
C:/temp/Job-5.odb,Step-1,Increment      1: Step Time =    1.000,"P-5-1",           749,       53.4791,       126.109,            0.,NA,NA,"",   715.583E+03,   506.012E+03,   506.012E+03
C:/temp/Job-5.odb,Step-1,Increment      1: Step Time =    1.000,"P-5-1",           750,       143.726,       75.5259,            0.,NA,NA,"",   1.19329E+06,   552.782E+03,   552.782E+03
C:/temp/Job-5.odb,Step-1,Increment      1: Step Time =    1.000,"P-5-1",           751,       125.591,       143.513,            0.,NA,NA,"",   2.09696E+06,   2.14562E+06,   2.14562E+06
C:/temp/Job-5.odb,Step-1,Increment      1: Step Time =    1.000,"P-5-1",           752,       15.4825,       80.3170,            0.,NA,NA,"",   364.769E+03,   409.966E+03,   409.966E+03
C:/temp/Job-5.odb,Step-1,Increment      1: Step Time =    1.000,"P-5-1",           753,       119.621,       14.3275,            0.,NA,NA,"",   1.00549E+06,   1.02735E+06,   1.02735E+06
C:/temp/Job-5.odb,Step-1,Increment      1: Step Time =    1.000,"P-5-1",           754,       15.5058,       119.981,            0.,NA,NA,"",   369.173E+03,   414.434E+03,   414.434E+03
C:/temp/Job-5.odb,Step-1,Increment      1: Step Time =    1.000,"P-5-1",           755,       80.5804,       15.0067,            0.,NA,NA,"",   1.29545E+06,   1.28542E+06,   1.28542E+06
C:/temp/Job-5.odb,Step-1,Increment      1: Step Time =    1.000,"P-5-1",           756,       185.210,       120.614,            0.,NA,NA,"",   942.740E+03,   1.07356E+06,   1.07356E+06
C:/temp/Job-5.odb,Step-1,Increment      1: Step Time =    1.000,"P-5-1",           757,       80.4743,       184.691,            0.,NA,NA,"",   1.30229E+06,   1.29213E+06,   1.29213E+06
C:/temp/Job-5.odb,Step-1,Increment      1: Step Time =    1.000,"P-5-1",           758,       185.849,       79.2085,            0.,NA,NA,"",   937.695E+03,   1.07069E+06,   1.07069E+06
C:/temp/Job-5.odb,Step-1,Increment      1: Step Time =    1.000,"P-5-1",           759,       119.208,       184.623,            0.,NA,NA,"",   1.02972E+06,   1.05644E+06,   1.05644E+06
C:/temp/Job-5.odb,Step-1,Increment      1: Step Time =    1.000,"P-5-1",           760,       14.3372,       91.3520,            0.,NA,NA,"",   226.770E+03,   259.366E+03,   259.366E+03
C:/temp/Job-5.odb,Step-1,Increment      1: Step Time =    1.000,"P-5-1",           761,       109.880,       14.8414,            0.,NA,NA,"",   1.00295E+06,   1.03894E+06,   1.03894E+06
C:/temp/Job-5.odb,Step-1,Increment      1: Step Time =    1.000,"P-5-1",           762,       90.1287,       14.8886,            0.,NA,NA,"",   1.16050E+06,   1.17601E+06,   1.17601E+06
C:/temp/Job-5.odb,Step-1,Increment      1: Step Time =    1.000,"P-5-1",           763,       14.6127,       109.362,            0.,NA,NA,"",   234.899E+03,   269.648E+03,   269.648E+03
C:/temp/Job-5.odb,Step-1,Increment      1: Step Time =    1.000,"P-5-1",           764,       184.968,       109.906,            0.,NA,NA,"",   829.702E+03,   947.771E+03,   947.771E+03
C:/temp/Job-5.odb,Step-1,Increment      1: Step Time =    1.000,"P-5-1",           765,       90.5517,       185.159,            0.,NA,NA,"",   1.16269E+06,   1.18025E+06,   1.18025E+06
C:/temp/Job-5.odb,Step-1,Increment      1: Step Time =    1.000,"P-5-1",           766,       184.971,       89.0865,            0.,NA,NA,"",   840.969E+03,   961.503E+03,   961.503E+03
C:/temp/Job-5.odb,Step-1,Increment      1: Step Time =    1.000,"P-5-1",           767,       109.443,       185.815,            0.,NA,NA,"",   988.253E+03,   1.02172E+06,   1.02172E+06
C:/temp/Job-5.odb,Step-1,Increment      1: Step Time =    1.000,"P-5-1",           768,       100.005,       15.0704,            0.,NA,NA,"",   1.05654E+06,   1.09182E+06,   1.09182E+06
C:/temp/Job-5.odb,Step-1,Increment      1: Step Time =    1.000,"P-5-1",           769,       13.9211,       100.389,            0.,NA,NA,"",   197.202E+03,   214.602E+03,   214.602E+03
C:/temp/Job-5.odb,Step-1,Increment      1: Step Time =    1.000,"P-5-1",           770,       184.183,       99.8873,            0.,NA,NA,"",   777.320E+03,   861.136E+03,   861.136E+03
C:/temp/Job-5.odb,Step-1,Increment      1: Step Time =    1.000,"P-5-1",           771,       100.043,       185.665,            0.,NA,NA,"",   1.03811E+06,   1.06970E+06,   1.06970E+06
C:/temp/Job-5.odb,Step-1,Increment      1: Step Time =    1.000,"P-5-1",           772,       14.1711,       65.0025,            0.,NA,NA,"",   641.108E+03,   694.204E+03,   694.204E+03
C:/temp/Job-5.odb,Step-1,Increment      1: Step Time =    1.000,"P-5-1",           773,       65.0632,       15.2558,            0.,NA,NA,"",   1.46834E+06,   1.43361E+06,   1.43361E+06
C:/temp/Job-5.odb,Step-1,Increment      1: Step Time =    1.000,"P-5-1",           774,       185.939,       65.0270,            0.,NA,NA,"",   1.02357E+06,   1.12489E+06,   1.12489E+06
C:/temp/Job-5.odb,Step-1,Increment      1: Step Time =    1.000,"P-5-1",           775,       65.1227,       185.798,            0.,NA,NA,"",   1.45236E+06,   1.42054E+06,   1.42054E+06
C:/temp/Job-5.odb,Step-1,Increment      1: Step Time =    1.000,"P-5-1",           776,       134.861,       15.7957,            0.,NA,NA,"",   1.10412E+06,   1.09694E+06,   1.09694E+06
C:/temp/Job-5.odb,Step-1,Increment      1: Step Time =    1.000,"P-5-1",           777,       14.9753,       134.914,            0.,NA,NA,"",   642.222E+03,   693.483E+03,   693.483E+03
C:/temp/Job-5.odb,Step-1,Increment      1: Step Time =    1.000,"P-5-1",           778,       186.222,       135.070,            0.,NA,NA,"",   1.01705E+06,   1.12050E+06,   1.12050E+06
C:/temp/Job-5.odb,Step-1,Increment      1: Step Time =    1.000,"P-5-1",           779,       134.785,       184.585,            0.,NA,NA,"",   1.09881E+06,   1.09156E+06,   1.09156E+06
C:/temp/Job-5.odb,Step-1,Increment      1: Step Time =    1.000,"P-5-1",           780,       14.8254,       74.9619,            0.,NA,NA,"",   454.437E+03,   502.563E+03,   502.563E+03
C:/temp/Job-5.odb,Step-1,Increment      1: Step Time =    1.000,"P-5-1",           781,       124.529,       14.3125,            0.,NA,NA,"",   1.02859E+06,   1.04048E+06,   1.04048E+06
C:/temp/Job-5.odb,Step-1,Increment      1: Step Time =    1.000,"P-5-1",           782,       75.6821,       15.7449,            0.,NA,NA,"",   1.36803E+06,   1.34637E+06,   1.34637E+06
C:/temp/Job-5.odb,Step-1,Increment      1: Step Time =    1.000,"P-5-1",           783,       15.2417,       124.984,            0.,NA,NA,"",   451.716E+03,   499.245E+03,   499.245E+03
C:/temp/Job-5.odb,Step-1,Increment      1: Step Time =    1.000,"P-5-1",           784,       185.764,       125.512,            0.,NA,NA,"",   977.416E+03,   1.10388E+06,   1.10388E+06
C:/temp/Job-5.odb,Step-1,Increment      1: Step Time =    1.000,"P-5-1",           785,       186.083,       74.4031,            0.,NA,NA,"",   974.145E+03,   1.09995E+06,   1.09995E+06
C:/temp/Job-5.odb,Step-1,Increment      1: Step Time =    1.000,"P-5-1",           786,       124.249,       184.179,            0.,NA,NA,"",   1.06096E+06,   1.07754E+06,   1.07754E+06
C:/temp/Job-5.odb,Step-1,Increment      1: Step Time =    1.000,"P-5-1",           787,       75.2117,       185.048,            0.,NA,NA,"",   1.35951E+06,   1.33845E+06,   1.33845E+06
C:/temp/Job-5.odb,Step-1,Increment      1: Step Time =    1.000,"P-5-1",           788,       47.2265,       94.2204,            0.,NA,NA,"",   295.734E+03,  -305.070E+03,  -305.070E+03
C:/temp/Job-5.odb,Step-1,Increment      1: Step Time =    1.000,"P-5-1",           789,       45.7305,       88.6594,            0.,NA,NA,"",   301.985E+03,  -240.375E+03,  -240.375E+03
C:/temp/Job-5.odb,Step-1,Increment      1: Step Time =    1.000,"P-5-1",           790,       103.007,       45.5553,            0.,NA,NA,"",   2.05980E+06,   2.23054E+06,   2.23054E+06
C:/temp/Job-5.odb,Step-1,Increment      1: Step Time =    1.000,"P-5-1",           791,       112.110,       45.7785,            0.,NA,NA,"",   1.97196E+06,   2.13122E+06,   2.13122E+06
C:/temp/Job-5.odb,Step-1,Increment      1: Step Time =    1.000,"P-5-1",           792,       89.1312,       42.5678,            0.,NA,NA,"",   1.89004E+06,   1.98912E+06,   1.98912E+06
C:/temp/Job-5.odb,Step-1,Increment      1: Step Time =    1.000,"P-5-1",           793,       108.740,       153.969,            0.,NA,NA,"",   2.06276E+06,   2.23131E+06,   2.23131E+06
C:/temp/Job-5.odb,Step-1,Increment      1: Step Time =    1.000,"P-5-1",           794,       152.956,       112.391,            0.,NA,NA,"",   813.404E+03,  -27.0048E+03,  -27.0048E+03
C:/temp/Job-5.odb,Step-1,Increment      1: Step Time =    1.000,"P-5-1",           795,       89.7009,       153.615,            0.,NA,NA,"",   2.03868E+06,   2.15181E+06,   2.15181E+06
C:/temp/Job-5.odb,Step-1,Increment      1: Step Time =    1.000,"P-5-1",           796,       157.182,       87.2998,            0.,NA,NA,"",   805.278E+03,   542.144E+03,   542.144E+03
C:/temp/Job-5.odb,Step-1,Increment      1: Step Time =    1.000,"P-5-1",           797,       46.1769,       109.889,            0.,NA,NA,"",   276.809E+03,  -248.870E+03,  -248.870E+03
C:/temp/Job-5.odb,Step-1,Increment      1: Step Time =    1.000,"P-5-1",           798,       69.9278,       58.9528,            0.,NA,NA,"",   1.55374E+06,   1.47970E+06,   1.47970E+06
C:/temp/Job-5.odb,Step-1,Increment      1: Step Time =    1.000,"P-5-1",           799,       57.8690,       131.547,            0.,NA,NA,"",   972.254E+03,   788.903E+03,   788.903E+03
C:/temp/Job-5.odb,Step-1,Increment      1: Step Time =    1.000,"P-5-1",           800,       141.568,       70.6382,            0.,NA,NA,"",   1.39604E+06,   1.12556E+06,   1.12556E+06
C:/temp/Job-5.odb,Step-1,Increment      1: Step Time =    1.000,"P-5-1",           801,       129.731,       140.309,            0.,NA,NA,"",   1.94286E+06,   1.93340E+06,   1.93340E+06
C:/temp/Job-5.odb,Step-1,Increment      1: Step Time =    1.000,"P-5-1",           802,       16.0271,       114.556,            0.,NA,NA,"",   286.750E+03,   327.585E+03,   327.585E+03
C:/temp/Job-5.odb,Step-1,Increment      1: Step Time =    1.000,"P-5-1",           803,       85.3913,       14.4474,            0.,NA,NA,"",   1.22039E+06,   1.22392E+06,   1.22392E+06
C:/temp/Job-5.odb,Step-1,Increment      1: Step Time =    1.000,"P-5-1",           804,       16.4263,       86.3634,            0.,NA,NA,"",   275.020E+03,   314.683E+03,   314.683E+03
C:/temp/Job-5.odb,Step-1,Increment      1: Step Time =    1.000,"P-5-1",           805,       114.738,       14.6205,            0.,NA,NA,"",   998.010E+03,   1.02800E+06,   1.02800E+06
C:/temp/Job-5.odb,Step-1,Increment      1: Step Time =    1.000,"P-5-1",           806,       185.482,       84.0288,            0.,NA,NA,"",   895.523E+03,   1.02830E+06,   1.02830E+06
C:/temp/Job-5.odb,Step-1,Increment      1: Step Time =    1.000,"P-5-1",           807,       114.203,       185.056,            0.,NA,NA,"",   1.00242E+06,   1.03412E+06,   1.03412E+06
C:/temp/Job-5.odb,Step-1,Increment      1: Step Time =    1.000,"P-5-1",           808,       183.792,       115.213,            0.,NA,NA,"",   881.934E+03,   1.00803E+06,   1.00803E+06
C:/temp/Job-5.odb,Step-1,Increment      1: Step Time =    1.000,"P-5-1",           809,       85.7627,       184.632,            0.,NA,NA,"",   1.23630E+06,   1.23948E+06,   1.23948E+06
C:/temp/Job-5.odb,Step-1,Increment      1: Step Time =    1.000,"P-5-1",           810,       95.0430,       15.0905,            0.,NA,NA,"",   1.10682E+06,   1.13323E+06,   1.13323E+06
C:/temp/Job-5.odb,Step-1,Increment      1: Step Time =    1.000,"P-5-1",           811,       14.1340,       104.815,            0.,NA,NA,"",   206.951E+03,   231.532E+03,   231.532E+03
C:/temp/Job-5.odb,Step-1,Increment      1: Step Time =    1.000,"P-5-1",           812,       184.280,       94.4305,            0.,NA,NA,"",   793.514E+03,   891.871E+03,   891.871E+03
C:/temp/Job-5.odb,Step-1,Increment      1: Step Time =    1.000,"P-5-1",           813,       104.806,       186.077,            0.,NA,NA,"",   997.618E+03,   1.03061E+06,   1.03061E+06
C:/temp/Job-5.odb,Step-1,Increment      1: Step Time =    1.000,"P-5-1",           814,       104.950,       14.9776,            0.,NA,NA,"",   1.02112E+06,   1.05966E+06,   1.05966E+06
C:/temp/Job-5.odb,Step-1,Increment      1: Step Time =    1.000,"P-5-1",           815,       13.8504,       95.9642,            0.,NA,NA,"",   203.579E+03,   225.388E+03,   225.388E+03
C:/temp/Job-5.odb,Step-1,Increment      1: Step Time =    1.000,"P-5-1",           816,       184.738,       104.940,            0.,NA,NA,"",   794.552E+03,   889.274E+03,   889.274E+03
C:/temp/Job-5.odb,Step-1,Increment      1: Step Time =    1.000,"P-5-1",           817,       95.3783,       185.142,            0.,NA,NA,"",   1.09503E+06,   1.12275E+06,   1.12275E+06
C:/temp/Job-5.odb,Step-1,Increment      1: Step Time =    1.000,"P-5-1",           818,       74.4424,       48.9767,            0.,NA,NA,"",   1.84109E+06,   1.80526E+06,   1.80526E+06
C:/temp/Job-5.odb,Step-1,Increment      1: Step Time =    1.000,"P-5-1",           819,       47.8328,       121.495,            0.,NA,NA,"",   558.115E+03,   230.666E+03,   230.666E+03
C:/temp/Job-5.odb,Step-1,Increment      1: Step Time =    1.000,"P-5-1",           820,       149.457,       77.3813,            0.,NA,NA,"",   1.25419E+06,   856.744E+03,   856.744E+03
C:/temp/Job-5.odb,Step-1,Increment      1: Step Time =    1.000,"P-5-1",           821,       124.855,       150.150,            0.,NA,NA,"",   1.94522E+06,   2.00638E+06,   2.00638E+06
C:/temp/Job-5.odb,Step-1,Increment      1: Step Time =    1.000,"P-5-1",           822,       52.7463,       130.931,            0.,NA,NA,"",   925.626E+03,   740.219E+03,   740.219E+03
C:/temp/Job-5.odb,Step-1,Increment      1: Step Time =    1.000,"P-5-1",           823,       66.7648,       54.8940,            0.,NA,NA,"",   1.63561E+06,   1.52174E+06,   1.52174E+06
C:/temp/Job-5.odb,Step-1,Increment      1: Step Time =    1.000,"P-5-1",           824,       133.347,       143.899,            0.,NA,NA,"",   1.89261E+06,   1.83099E+06,   1.83099E+06
C:/temp/Job-5.odb,Step-1,Increment      1: Step Time =    1.000,"P-5-1",           825,       146.173,       68.7242,            0.,NA,NA,"",   1.57139E+06,   1.26309E+06,   1.26309E+06
C:/temp/Job-5.odb,Step-1,Increment      1: Step Time =    1.000,"P-5-1",           826,       98.4849,       45.3472,            0.,NA,NA,"",   2.06445E+06,   2.22190E+06,   2.22190E+06
C:/temp/Job-5.odb,Step-1,Increment      1: Step Time =    1.000,"P-5-1",           827,       45.5000,       100.284,            0.,NA,NA,"",   228.771E+03,  -248.026E+03,  -248.026E+03
C:/temp/Job-5.odb,Step-1,Increment      1: Step Time =    1.000,"P-5-1",           828,       163.923,       10.1358,            0.,NA,NA,"",   1.04088E+06,   1.03389E+06,   1.03389E+06
C:/temp/Job-5.odb,Step-1,Increment      1: Step Time =    1.000,"P-5-1",           829,       9.75315,       164.615,            0.,NA,NA,"",   1.16522E+06,   1.26064E+06,   1.26064E+06
C:/temp/Job-5.odb,Step-1,Increment      1: Step Time =    1.000,"P-5-1",           830,       35.7151,       9.37375,            0.,NA,NA,"",   1.64944E+06,   1.64136E+06,   1.64136E+06
C:/temp/Job-5.odb,Step-1,Increment      1: Step Time =    1.000,"P-5-1",           831,       9.08514,       36.6688,            0.,NA,NA,"",   1.12895E+06,   1.22750E+06,   1.22750E+06
C:/temp/Job-5.odb,Step-1,Increment      1: Step Time =    1.000,"P-5-1",           832,       189.555,       164.394,            0.,NA,NA,"",   1.00727E+06,   1.04039E+06,   1.04039E+06
C:/temp/Job-5.odb,Step-1,Increment      1: Step Time =    1.000,"P-5-1",           833,       164.271,       190.593,            0.,NA,NA,"",   1.03490E+06,   1.02878E+06,   1.02878E+06
C:/temp/Job-5.odb,Step-1,Increment      1: Step Time =    1.000,"P-5-1",           834,       190.527,       36.0327,            0.,NA,NA,"",   999.238E+03,   1.03539E+06,   1.03539E+06
C:/temp/Job-5.odb,Step-1,Increment      1: Step Time =    1.000,"P-5-1",           835,       35.6898,       189.572,            0.,NA,NA,"",   1.64423E+06,   1.63494E+06,   1.63494E+06
C:/temp/Job-5.odb,Step-1,Increment      1: Step Time =    1.000,"P-5-1",           836,       109.936,       19.9484,            0.,NA,NA,"",   1.12978E+06,   1.18690E+06,   1.18690E+06
C:/temp/Job-5.odb,Step-1,Increment      1: Step Time =    1.000,"P-5-1",           837,       20.3035,       90.9561,            0.,NA,NA,"",   212.921E+03,   244.473E+03,   244.473E+03
C:/temp/Job-5.odb,Step-1,Increment      1: Step Time =    1.000,"P-5-1",           838,       181.323,       109.233,            0.,NA,NA,"",   778.307E+03,   895.672E+03,   895.672E+03
C:/temp/Job-5.odb,Step-1,Increment      1: Step Time =    1.000,"P-5-1",           839,       90.9631,       180.974,            0.,NA,NA,"",   1.25765E+06,   1.28520E+06,   1.28520E+06
C:/temp/Job-5.odb,Step-1,Increment      1: Step Time =    1.000,"P-5-1",           840,       100.039,       20.2055,            0.,NA,NA,"",   1.18326E+06,   1.23990E+06,   1.23990E+06
C:/temp/Job-5.odb,Step-1,Increment      1: Step Time =    1.000,"P-5-1",           841,       18.5451,       100.344,            0.,NA,NA,"",   180.553E+03,   193.023E+03,   193.023E+03
C:/temp/Job-5.odb,Step-1,Increment      1: Step Time =    1.000,"P-5-1",           842,       178.375,       100.352,            0.,NA,NA,"",   659.896E+03,   755.633E+03,   755.633E+03
C:/temp/Job-5.odb,Step-1,Increment      1: Step Time =    1.000,"P-5-1",           843,       100.654,       181.329,            0.,NA,NA,"",   1.13857E+06,   1.18755E+06,   1.18755E+06
C:/temp/Job-5.odb,Step-1,Increment      1: Step Time =    1.000,"P-5-1",           844,       163.863,       14.8187,            0.,NA,NA,"",   1.08814E+06,   1.07485E+06,   1.07485E+06
C:/temp/Job-5.odb,Step-1,Increment      1: Step Time =    1.000,"P-5-1",           845,       14.4028,       164.161,            0.,NA,NA,"",   1.21196E+06,   1.28197E+06,   1.28197E+06
C:/temp/Job-5.odb,Step-1,Increment      1: Step Time =    1.000,"P-5-1",           846,       36.1842,       13.9121,            0.,NA,NA,"",   1.62350E+06,   1.60833E+06,   1.60833E+06
C:/temp/Job-5.odb,Step-1,Increment      1: Step Time =    1.000,"P-5-1",           847,       13.5516,       38.0272,            0.,NA,NA,"",   1.15561E+06,   1.22982E+06,   1.22982E+06
C:/temp/Job-5.odb,Step-1,Increment      1: Step Time =    1.000,"P-5-1",           848,       184.851,       164.992,            0.,NA,NA,"",   1.04900E+06,   1.07131E+06,   1.07131E+06
C:/temp/Job-5.odb,Step-1,Increment      1: Step Time =    1.000,"P-5-1",           849,       163.920,       185.972,            0.,NA,NA,"",   1.07766E+06,   1.06586E+06,   1.06586E+06
C:/temp/Job-5.odb,Step-1,Increment      1: Step Time =    1.000,"P-5-1",           850,       185.900,       36.6584,            0.,NA,NA,"",   1.04182E+06,   1.06912E+06,   1.06912E+06
C:/temp/Job-5.odb,Step-1,Increment      1: Step Time =    1.000,"P-5-1",           851,       35.5140,       184.599,            0.,NA,NA,"",   1.61704E+06,   1.60028E+06,   1.60028E+06
C:/temp/Job-5.odb,Step-1,Increment      1: Step Time =    1.000,"P-5-1",           852,       59.7105,       19.8417,            0.,NA,NA,"",   1.55991E+06,   1.50739E+06,   1.50739E+06
C:/temp/Job-5.odb,Step-1,Increment      1: Step Time =    1.000,"P-5-1",           853,       18.8516,       60.4445,            0.,NA,NA,"",   769.109E+03,   808.175E+03,   808.175E+03
C:/temp/Job-5.odb,Step-1,Increment      1: Step Time =    1.000,"P-5-1",           854,       60.1986,       181.465,            0.,NA,NA,"",   1.54317E+06,   1.49531E+06,   1.49531E+06
C:/temp/Job-5.odb,Step-1,Increment      1: Step Time =    1.000,"P-5-1",           855,       181.250,       60.4337,            0.,NA,NA,"",   1.12361E+06,   1.16750E+06,   1.16750E+06
C:/temp/Job-5.odb,Step-1,Increment      1: Step Time =    1.000,"P-5-1",           856,       141.088,       22.5829,            0.,NA,NA,"",   1.26997E+06,   1.24326E+06,   1.24326E+06
C:/temp/Job-5.odb,Step-1,Increment      1: Step Time =    1.000,"P-5-1",           857,       19.7363,       139.813,            0.,NA,NA,"",   780.419E+03,   816.054E+03,   816.054E+03
C:/temp/Job-5.odb,Step-1,Increment      1: Step Time =    1.000,"P-5-1",           858,       181.902,       139.885,            0.,NA,NA,"",   1.11273E+06,   1.16221E+06,   1.16221E+06
C:/temp/Job-5.odb,Step-1,Increment      1: Step Time =    1.000,"P-5-1",           859,       140.136,       179.936,            0.,NA,NA,"",   1.21241E+06,   1.19055E+06,   1.19055E+06
C:/temp/Job-5.odb,Step-1,Increment      1: Step Time =    1.000,"P-5-1",           860,       18.9840,       69.6647,            0.,NA,NA,"",   570.812E+03,   610.373E+03,   610.373E+03
C:/temp/Job-5.odb,Step-1,Increment      1: Step Time =    1.000,"P-5-1",           861,       70.2098,       21.0132,            0.,NA,NA,"",   1.52418E+06,   1.48138E+06,   1.48138E+06
C:/temp/Job-5.odb,Step-1,Increment      1: Step Time =    1.000,"P-5-1",           862,       181.512,       130.375,            0.,NA,NA,"",   1.06477E+06,   1.13913E+06,   1.13913E+06
C:/temp/Job-5.odb,Step-1,Increment      1: Step Time =    1.000,"P-5-1",           863,       129.605,       178.885,            0.,NA,NA,"",   1.21415E+06,   1.22064E+06,   1.22064E+06
C:/temp/Job-5.odb,Step-1,Increment      1: Step Time =    1.000,"P-5-1",           864,       128.772,       19.1776,            0.,NA,NA,"",   1.16318E+06,   1.17074E+06,   1.17074E+06
C:/temp/Job-5.odb,Step-1,Increment      1: Step Time =    1.000,"P-5-1",           865,       19.8087,       130.085,            0.,NA,NA,"",   567.501E+03,   603.818E+03,   603.818E+03
C:/temp/Job-5.odb,Step-1,Increment      1: Step Time =    1.000,"P-5-1",           866,       69.9089,       180.814,            0.,NA,NA,"",   1.49608E+06,   1.45629E+06,   1.45629E+06
C:/temp/Job-5.odb,Step-1,Increment      1: Step Time =    1.000,"P-5-1",           867,       181.332,       69.7932,            0.,NA,NA,"",   1.07188E+06,   1.14316E+06,   1.14316E+06
C:/temp/Job-5.odb,Step-1,Increment      1: Step Time =    1.000,"P-5-1",           868,       85.3611,       45.8201,            0.,NA,NA,"",   1.95779E+06,   2.03642E+06,   2.03642E+06
C:/temp/Job-5.odb,Step-1,Increment      1: Step Time =    1.000,"P-5-1",           869,       113.488,       152.252,            0.,NA,NA,"",   2.11636E+06,   2.27396E+06,   2.27396E+06
C:/temp/Job-5.odb,Step-1,Increment      1: Step Time =    1.000,"P-5-1",           870,       155.070,       83.7686,            0.,NA,NA,"",   973.056E+03,   429.141E+03,   429.141E+03
C:/temp/Job-5.odb,Step-1,Increment      1: Step Time =    1.000,"P-5-1",           871,       47.3508,       113.128,            0.,NA,NA,"",   338.068E+03,  -270.775E+03,  -270.775E+03
C:/temp/Job-5.odb,Step-1,Increment      1: Step Time =    1.000,"P-5-1",           872,       21.6632,       84.5971,            0.,NA,NA,"",   296.026E+03,   330.672E+03,   330.672E+03
C:/temp/Job-5.odb,Step-1,Increment      1: Step Time =    1.000,"P-5-1",           873,       119.686,       18.7784,            0.,NA,NA,"",   1.11827E+06,   1.15238E+06,   1.15238E+06
C:/temp/Job-5.odb,Step-1,Increment      1: Step Time =    1.000,"P-5-1",           874,       179.622,       118.072,            0.,NA,NA,"",   927.447E+03,   1.02424E+06,   1.02424E+06
C:/temp/Job-5.odb,Step-1,Increment      1: Step Time =    1.000,"P-5-1",           875,       80.4686,       179.649,            0.,NA,NA,"",   1.41604E+06,   1.40623E+06,   1.40623E+06
C:/temp/Job-5.odb,Step-1,Increment      1: Step Time =    1.000,"P-5-1",           876,       99.3497,       40.5742,            0.,NA,NA,"",   1.80056E+06,   1.94741E+06,   1.94741E+06
C:/temp/Job-5.odb,Step-1,Increment      1: Step Time =    1.000,"P-5-1",           877,       38.4150,       97.5482,            0.,NA,NA,"",   95.8151E+03,  -20.8571E+03,  -20.8571E+03
C:/temp/Job-5.odb,Step-1,Increment      1: Step Time =    1.000,"P-5-1",           878,       67.2788,       48.0430,            0.,NA,NA,"",   1.75602E+06,   1.65355E+06,   1.65355E+06
C:/temp/Job-5.odb,Step-1,Increment      1: Step Time =    1.000,"P-5-1",           879,       47.6678,       130.483,            0.,NA,NA,"",   867.662E+03,   709.716E+03,   709.716E+03
C:/temp/Job-5.odb,Step-1,Increment      1: Step Time =    1.000,"P-5-1",           880,       150.827,       67.2860,            0.,NA,NA,"",   1.60205E+06,   1.30406E+06,   1.30406E+06
C:/temp/Job-5.odb,Step-1,Increment      1: Step Time =    1.000,"P-5-1",           881,       131.959,       150.611,            0.,NA,NA,"",   1.85697E+06,   1.83086E+06,   1.83086E+06
C:/temp/Job-5.odb,Step-1,Increment      1: Step Time =    1.000,"P-5-1",           882,       151.960,       71.5169,            0.,NA,NA,"",   1.48540E+06,   1.16002E+06,   1.16002E+06
C:/temp/Job-5.odb,Step-1,Increment      1: Step Time =    1.000,"P-5-1",           883,       128.055,       153.279,            0.,NA,NA,"",   1.83253E+06,   1.85549E+06,   1.85549E+06
C:/temp/Job-5.odb,Step-1,Increment      1: Step Time =    1.000,"P-5-1",           884,       43.2201,       125.890,            0.,NA,NA,"",   669.250E+03,   546.469E+03,   546.469E+03
C:/temp/Job-5.odb,Step-1,Increment      1: Step Time =    1.000,"P-5-1",           885,       71.2141,       45.7264,            0.,NA,NA,"",   1.81271E+06,   1.74194E+06,   1.74194E+06
C:/temp/Job-5.odb,Step-1,Increment      1: Step Time =    1.000,"P-5-1",           886,       155.729,       97.7352,            0.,NA,NA,"",   460.925E+03,  -240.328E+03,  -240.328E+03
C:/temp/Job-5.odb,Step-1,Increment      1: Step Time =    1.000,"P-5-1",           887,       101.343,       158.233,            0.,NA,NA,"",   1.85613E+06,   2.01635E+06,   2.01635E+06
C:/temp/Job-5.odb,Step-1,Increment      1: Step Time =    1.000,"P-5-1",           888,       90.8675,       25.0564,            0.,NA,NA,"",   1.39996E+06,   1.44687E+06,   1.44687E+06
C:/temp/Job-5.odb,Step-1,Increment      1: Step Time =    1.000,"P-5-1",           889,       18.9489,       108.496,            0.,NA,NA,"",   216.092E+03,   248.165E+03,   248.165E+03
C:/temp/Job-5.odb,Step-1,Increment      1: Step Time =    1.000,"P-5-1",           890,       174.809,       89.6517,            0.,NA,NA,"",   742.599E+03,   822.280E+03,   822.280E+03
C:/temp/Job-5.odb,Step-1,Increment      1: Step Time =    1.000,"P-5-1",           891,       109.615,       176.985,            0.,NA,NA,"",   1.20086E+06,   1.27350E+06,   1.27350E+06
C:/temp/Job-5.odb,Step-1,Increment      1: Step Time =    1.000,"P-5-1",           892,       24.7161,       78.7358,            0.,NA,NA,"",   407.688E+03,   430.574E+03,   430.574E+03
C:/temp/Job-5.odb,Step-1,Increment      1: Step Time =    1.000,"P-5-1",           893,       120.462,       22.7325,            0.,NA,NA,"",   1.21535E+06,   1.25883E+06,   1.25883E+06
C:/temp/Job-5.odb,Step-1,Increment      1: Step Time =    1.000,"P-5-1",           894,       177.606,       121.250,            0.,NA,NA,"",   994.171E+03,   1.05659E+06,   1.05659E+06
C:/temp/Job-5.odb,Step-1,Increment      1: Step Time =    1.000,"P-5-1",           895,       79.9219,       175.330,            0.,NA,NA,"",   1.51506E+06,   1.50565E+06,   1.50565E+06
C:/temp/Job-5.odb,Step-1,Increment      1: Step Time =    1.000,"P-5-1",           896,       176.982,       77.7583,            0.,NA,NA,"",   1.01732E+06,   1.06792E+06,   1.06792E+06
C:/temp/Job-5.odb,Step-1,Increment      1: Step Time =    1.000,"P-5-1",           897,       119.008,       175.484,            0.,NA,NA,"",   1.25369E+06,   1.30834E+06,   1.30834E+06
C:/temp/Job-5.odb,Step-1,Increment      1: Step Time =    1.000,"P-5-1",           898,       100.063,       175.075,            0.,NA,NA,"",   1.29293E+06,   1.36984E+06,   1.36984E+06
C:/temp/Job-5.odb,Step-1,Increment      1: Step Time =    1.000,"P-5-1",           899,       100.215,       25.4002,            0.,NA,NA,"",   1.30768E+06,   1.38779E+06,   1.38779E+06
C:/temp/Job-5.odb,Step-1,Increment      1: Step Time =    1.000,"P-5-1",           900,       23.3232,       100.016,            0.,NA,NA,"",   155.494E+03,   168.403E+03,   168.403E+03
C:/temp/Job-5.odb,Step-1,Increment      1: Step Time =    1.000,"P-5-1",           901,       24.1206,       139.825,            0.,NA,NA,"",   819.210E+03,   834.298E+03,   834.298E+03
C:/temp/Job-5.odb,Step-1,Increment      1: Step Time =    1.000,"P-5-1",           902,       24.4040,       56.7357,            0.,NA,NA,"",   904.892E+03,   917.377E+03,   917.377E+03
C:/temp/Job-5.odb,Step-1,Increment      1: Step Time =    1.000,"P-5-1",           903,       59.3649,       24.7734,            0.,NA,NA,"",   1.61016E+06,   1.54073E+06,   1.54073E+06
C:/temp/Job-5.odb,Step-1,Increment      1: Step Time =    1.000,"P-5-1",           904,       60.4262,       177.189,            0.,NA,NA,"",   1.59127E+06,   1.52899E+06,   1.52899E+06
C:/temp/Job-5.odb,Step-1,Increment      1: Step Time =    1.000,"P-5-1",           905,       176.790,       60.4789,            0.,NA,NA,"",   1.21096E+06,   1.20689E+06,   1.20689E+06
C:/temp/Job-5.odb,Step-1,Increment      1: Step Time =    1.000,"P-5-1",           906,       177.564,       139.764,            0.,NA,NA,"",   1.19636E+06,   1.20088E+06,   1.20088E+06
C:/temp/Job-5.odb,Step-1,Increment      1: Step Time =    1.000,"P-5-1",           907,       140.596,       174.901,            0.,NA,NA,"",   1.31933E+06,   1.28750E+06,   1.28750E+06
C:/temp/Job-5.odb,Step-1,Increment      1: Step Time =    1.000,"P-5-1",           908,       23.7935,       130.136,            0.,NA,NA,"",   588.777E+03,   612.067E+03,   612.067E+03
C:/temp/Job-5.odb,Step-1,Increment      1: Step Time =    1.000,"P-5-1",           909,       175.991,       70.6952,            0.,NA,NA,"",   1.14352E+06,   1.15249E+06,   1.15249E+06
C:/temp/Job-5.odb,Step-1,Increment      1: Step Time =    1.000,"P-5-1",           910,       69.2699,       25.9816,            0.,NA,NA,"",   1.61378E+06,   1.55757E+06,   1.55757E+06
C:/temp/Job-5.odb,Step-1,Increment      1: Step Time =    1.000,"P-5-1",           911,       130.309,       173.780,            0.,NA,NA,"",   1.33949E+06,   1.34524E+06,   1.34524E+06
C:/temp/Job-5.odb,Step-1,Increment      1: Step Time =    1.000,"P-5-1",           912,       15.4779,       169.095,            0.,NA,NA,"",   1.31875E+06,   1.38381E+06,   1.38381E+06
C:/temp/Job-5.odb,Step-1,Increment      1: Step Time =    1.000,"P-5-1",           913,       168.408,       19.0596,            0.,NA,NA,"",   1.11035E+06,   1.09589E+06,   1.09589E+06
C:/temp/Job-5.odb,Step-1,Increment      1: Step Time =    1.000,"P-5-1",           914,       14.4819,       33.5259,            0.,NA,NA,"",   1.25305E+06,   1.32423E+06,   1.32423E+06
C:/temp/Job-5.odb,Step-1,Increment      1: Step Time =    1.000,"P-5-1",           915,       31.3161,       14.1384,            0.,NA,NA,"",   1.64101E+06,   1.63220E+06,   1.63220E+06
C:/temp/Job-5.odb,Step-1,Increment      1: Step Time =    1.000,"P-5-1",           916,       181.281,       169.925,            0.,NA,NA,"",   1.07337E+06,   1.08128E+06,   1.08128E+06
C:/temp/Job-5.odb,Step-1,Increment      1: Step Time =    1.000,"P-5-1",           917,       168.470,       185.940,            0.,NA,NA,"",   1.06650E+06,   1.05805E+06,   1.05805E+06
C:/temp/Job-5.odb,Step-1,Increment      1: Step Time =    1.000,"P-5-1",           918,       185.722,       32.0358,            0.,NA,NA,"",   1.03917E+06,   1.05844E+06,   1.05844E+06
C:/temp/Job-5.odb,Step-1,Increment      1: Step Time =    1.000,"P-5-1",           919,       30.9656,       184.804,            0.,NA,NA,"",   1.63391E+06,   1.62438E+06,   1.62438E+06
C:/temp/Job-5.odb,Step-1,Increment      1: Step Time =    1.000,"P-5-1",           920,       55.0466,       14.5621,            0.,NA,NA,"",   1.53165E+06,   1.49850E+06,   1.49850E+06
C:/temp/Job-5.odb,Step-1,Increment      1: Step Time =    1.000,"P-5-1",           921,       14.3516,       55.0119,            0.,NA,NA,"",   841.502E+03,   899.800E+03,   899.800E+03
C:/temp/Job-5.odb,Step-1,Increment      1: Step Time =    1.000,"P-5-1",           922,       186.622,       144.483,            0.,NA,NA,"",   1.02981E+06,   1.10779E+06,   1.10779E+06
C:/temp/Job-5.odb,Step-1,Increment      1: Step Time =    1.000,"P-5-1",           923,       144.887,       185.237,            0.,NA,NA,"",   1.10722E+06,   1.08924E+06,   1.08924E+06
C:/temp/Job-5.odb,Step-1,Increment      1: Step Time =    1.000,"P-5-1",           924,       55.3095,       186.101,            0.,NA,NA,"",   1.52508E+06,   1.49415E+06,   1.49415E+06
C:/temp/Job-5.odb,Step-1,Increment      1: Step Time =    1.000,"P-5-1",           925,       185.908,       55.4899,            0.,NA,NA,"",   1.04435E+06,   1.11690E+06,   1.11690E+06
C:/temp/Job-5.odb,Step-1,Increment      1: Step Time =    1.000,"P-5-1",           926,       145.488,       14.7359,            0.,NA,NA,"",   1.10953E+06,   1.09201E+06,   1.09201E+06
C:/temp/Job-5.odb,Step-1,Increment      1: Step Time =    1.000,"P-5-1",           927,       14.7410,       145.032,            0.,NA,NA,"",   843.133E+03,   900.181E+03,   900.181E+03
C:/temp/Job-5.odb,Step-1,Increment      1: Step Time =    1.000,"P-5-1",           928,       156.916,       79.0516,            0.,NA,NA,"",   1.18901E+06,   901.221E+03,   901.221E+03
C:/temp/Job-5.odb,Step-1,Increment      1: Step Time =    1.000,"P-5-1",           929,       120.999,       153.699,            0.,NA,NA,"",   1.89459E+06,   1.99271E+06,   1.99271E+06
C:/temp/Job-5.odb,Step-1,Increment      1: Step Time =    1.000,"P-5-1",           930,       77.9654,       45.3001,            0.,NA,NA,"",   1.87115E+06,   1.86761E+06,   1.86761E+06
C:/temp/Job-5.odb,Step-1,Increment      1: Step Time =    1.000,"P-5-1",           931,       42.8537,       121.584,            0.,NA,NA,"",   535.599E+03,   410.843E+03,   410.843E+03
C:/temp/Job-5.odb,Step-1,Increment      1: Step Time =    1.000,"P-5-1",           932,       69.0630,       43.0668,            0.,NA,NA,"",   1.78549E+06,   1.69827E+06,   1.69827E+06
C:/temp/Job-5.odb,Step-1,Increment      1: Step Time =    1.000,"P-5-1",           933,       42.9308,       130.015,            0.,NA,NA,"",   796.393E+03,   680.195E+03,   680.195E+03
C:/temp/Job-5.odb,Step-1,Increment      1: Step Time =    1.000,"P-5-1",           934,       130.637,       155.742,            0.,NA,NA,"",   1.76200E+06,   1.75847E+06,   1.75847E+06
C:/temp/Job-5.odb,Step-1,Increment      1: Step Time =    1.000,"P-5-1",           935,       155.327,       65.9864,            0.,NA,NA,"",   1.56814E+06,   1.31007E+06,   1.31007E+06
C:/temp/Job-5.odb,Step-1,Increment      1: Step Time =    1.000,"P-5-1",           936,       97.8670,       159.147,            0.,NA,NA,"",   1.80492E+06,   1.95099E+06,   1.95099E+06
C:/temp/Job-5.odb,Step-1,Increment      1: Step Time =    1.000,"P-5-1",           937,       161.406,       101.121,            0.,NA,NA,"",   394.486E+03,   246.915E+03,   246.915E+03
C:/temp/Job-5.odb,Step-1,Increment      1: Step Time =    1.000,"P-5-1",           938,       96.3334,       35.4438,            0.,NA,NA,"",   1.62031E+06,   1.73496E+06,   1.73496E+06
C:/temp/Job-5.odb,Step-1,Increment      1: Step Time =    1.000,"P-5-1",           939,       35.1219,       105.097,            0.,NA,NA,"",   117.599E+03,   76.5928E+03,   76.5928E+03
C:/temp/Job-5.odb,Step-1,Increment      1: Step Time =    1.000,"P-5-1",           940,       181.390,       78.7435,            0.,NA,NA,"",    962.95E+03,   1.06518E+06,   1.06518E+06
C:/temp/Job-5.odb,Step-1,Increment      1: Step Time =    1.000,"P-5-1",           941,       20.6126,       120.551,            0.,NA,NA,"",   384.038E+03,   420.506E+03,   420.506E+03
C:/temp/Job-5.odb,Step-1,Increment      1: Step Time =    1.000,"P-5-1",           942,       118.555,       179.646,            0.,NA,NA,"",   1.14945E+06,   1.19137E+06,   1.19137E+06
C:/temp/Job-5.odb,Step-1,Increment      1: Step Time =    1.000,"P-5-1",           943,       81.8662,       19.9290,            0.,NA,NA,"",   1.38664E+06,   1.38282E+06,   1.38282E+06
C:/temp/Job-5.odb,Step-1,Increment      1: Step Time =    1.000,"P-5-1",           944,       36.9330,       92.8742,            0.,NA,NA,"",   150.581E+03,   74.5073E+03,   74.5073E+03
C:/temp/Job-5.odb,Step-1,Increment      1: Step Time =    1.000,"P-5-1",           945,       104.346,       35.6554,            0.,NA,NA,"",   1.57200E+06,   1.70620E+06,   1.70620E+06
C:/temp/Job-5.odb,Step-1,Increment      1: Step Time =    1.000,"P-5-1",           946,       56.9354,       136.314,            0.,NA,NA,"",   1.18547E+06,   1.01242E+06,   1.01242E+06
C:/temp/Job-5.odb,Step-1,Increment      1: Step Time =    1.000,"P-5-1",           947,       63.8623,       57.5907,            0.,NA,NA,"",   1.51386E+06,   1.37757E+06,   1.37757E+06
C:/temp/Job-5.odb,Step-1,Increment      1: Step Time =    1.000,"P-5-1",           948,       145.177,       63.8545,            0.,NA,NA,"",   1.69728E+06,   1.43950E+06,   1.43950E+06
C:/temp/Job-5.odb,Step-1,Increment      1: Step Time =    1.000,"P-5-1",           949,       161.008,       68.7758,            0.,NA,NA,"",   1.43070E+06,   1.22314E+06,   1.22314E+06
C:/temp/Job-5.odb,Step-1,Increment      1: Step Time =    1.000,"P-5-1",           950,       135.270,       159.956,            0.,NA,NA,"",   1.65169E+06,   1.61320E+06,   1.61320E+06
C:/temp/Job-5.odb,Step-1,Increment      1: Step Time =    1.000,"P-5-1",           951,       66.8352,       39.1888,            0.,NA,NA,"",   1.74528E+06,   1.65321E+06,   1.65321E+06
C:/temp/Job-5.odb,Step-1,Increment      1: Step Time =    1.000,"P-5-1",           952,       38.6653,       129.547,            0.,NA,NA,"",   726.364E+03,   648.896E+03,   648.896E+03
C:/temp/Job-5.odb,Step-1,Increment      1: Step Time =    1.000,"P-5-1",           953,       9.39923,       55.0507,            0.,NA,NA,"",   804.545E+03,   879.033E+03,   879.033E+03
C:/temp/Job-5.odb,Step-1,Increment      1: Step Time =    1.000,"P-5-1",           954,       55.3484,       190.820,            0.,NA,NA,"",   1.49209E+06,   1.47601E+06,   1.47601E+06
C:/temp/Job-5.odb,Step-1,Increment      1: Step Time =    1.000,"P-5-1",           955,       144.785,       9.61356,            0.,NA,NA,"",   1.00783E+06,   999.506E+03,   999.506E+03
C:/temp/Job-5.odb,Step-1,Increment      1: Step Time =    1.000,"P-5-1",           956,       191.125,       144.540,            0.,NA,NA,"",   955.667E+03,   1.06050E+06,   1.06050E+06
C:/temp/Job-5.odb,Step-1,Increment      1: Step Time =    1.000,"P-5-1",           957,       95.3521,       25.9400,            0.,NA,NA,"",   1.37170E+06,   1.44125E+06,   1.44125E+06
C:/temp/Job-5.odb,Step-1,Increment      1: Step Time =    1.000,"P-5-1",           958,       23.6798,       104.422,            0.,NA,NA,"",   167.431E+03,   188.007E+03,   188.007E+03
C:/temp/Job-5.odb,Step-1,Increment      1: Step Time =    1.000,"P-5-1",           959,       104.943,       173.658,            0.,NA,NA,"",   1.29909E+06,   1.39063E+06,   1.39063E+06
C:/temp/Job-5.odb,Step-1,Increment      1: Step Time =    1.000,"P-5-1",           960,       26.1072,       83.3118,            0.,NA,NA,"",   321.662E+03,    342.93E+03,    342.93E+03
C:/temp/Job-5.odb,Step-1,Increment      1: Step Time =    1.000,"P-5-1",           961,       26.1431,       120.433,            0.,NA,NA,"",   394.279E+03,   414.787E+03,   414.787E+03
C:/temp/Job-5.odb,Step-1,Increment      1: Step Time =    1.000,"P-5-1",           962,       84.9559,       23.7820,            0.,NA,NA,"",   1.44054E+06,   1.45435E+06,   1.45435E+06
C:/temp/Job-5.odb,Step-1,Increment      1: Step Time =    1.000,"P-5-1",           963,       115.493,       25.2864,            0.,NA,NA,"",   1.26380E+06,   1.33113E+06,   1.33113E+06
C:/temp/Job-5.odb,Step-1,Increment      1: Step Time =    1.000,"P-5-1",           964,       176.012,       115.090,            0.,NA,NA,"",   864.715E+03,   939.339E+03,   939.339E+03
C:/temp/Job-5.odb,Step-1,Increment      1: Step Time =    1.000,"P-5-1",           965,       84.7988,       173.861,            0.,NA,NA,"",   1.49663E+06,   1.51520E+06,   1.51520E+06
C:/temp/Job-5.odb,Step-1,Increment      1: Step Time =    1.000,"P-5-1",           966,       175.464,       82.7108,            0.,NA,NA,"",   914.137E+03,   968.198E+03,   968.198E+03
C:/temp/Job-5.odb,Step-1,Increment      1: Step Time =    1.000,"P-5-1",           967,       114.364,       174.395,            0.,NA,NA,"",   1.27075E+06,   1.34515E+06,   1.34515E+06
C:/temp/Job-5.odb,Step-1,Increment      1: Step Time =    1.000,"P-5-1",           968,       26.1638,       134.572,            0.,NA,NA,"",   712.339E+03,   720.801E+03,   720.801E+03
C:/temp/Job-5.odb,Step-1,Increment      1: Step Time =    1.000,"P-5-1",           969,       134.193,       27.7400,            0.,NA,NA,"",   1.38378E+06,   1.37116E+06,   1.37116E+06
C:/temp/Job-5.odb,Step-1,Increment      1: Step Time =    1.000,"P-5-1",           970,       27.9042,       63.5144,            0.,NA,NA,"",   785.431E+03,   781.737E+03,   781.737E+03
C:/temp/Job-5.odb,Step-1,Increment      1: Step Time =    1.000,"P-5-1",           971,       64.2833,       25.2292,            0.,NA,NA,"",   1.61299E+06,   1.54643E+06,   1.54643E+06
C:/temp/Job-5.odb,Step-1,Increment      1: Step Time =    1.000,"P-5-1",           972,       60.7200,       173.623,            0.,NA,NA,"",   1.62529E+06,   1.55246E+06,   1.55246E+06
C:/temp/Job-5.odb,Step-1,Increment      1: Step Time =    1.000,"P-5-1",           973,       176.220,       65.2236,            0.,NA,NA,"",   1.19334E+06,   1.19288E+06,   1.19288E+06
C:/temp/Job-5.odb,Step-1,Increment      1: Step Time =    1.000,"P-5-1",           974,       177.449,       135.005,            0.,NA,NA,"",   1.17538E+06,   1.18612E+06,   1.18612E+06
C:/temp/Job-5.odb,Step-1,Increment      1: Step Time =    1.000,"P-5-1",           975,       135.545,       174.502,            0.,NA,NA,"",   1.33208E+06,   1.31524E+06,   1.31524E+06
C:/temp/Job-5.odb,Step-1,Increment      1: Step Time =    1.000,"P-5-1",           976,       14.6275,       174.319,            0.,NA,NA,"",   1.41173E+06,   1.48123E+06,   1.48123E+06
C:/temp/Job-5.odb,Step-1,Increment      1: Step Time =    1.000,"P-5-1",           977,       18.5192,       163.199,            0.,NA,NA,"",   1.24744E+06,   1.29249E+06,   1.29249E+06
C:/temp/Job-5.odb,Step-1,Increment      1: Step Time =    1.000,"P-5-1",           978,       163.777,       19.4655,            0.,NA,NA,"",   1.13773E+06,   1.11703E+06,   1.11703E+06
C:/temp/Job-5.odb,Step-1,Increment      1: Step Time =    1.000,"P-5-1",           979,       36.7175,       18.3040,            0.,NA,NA,"",   1.60117E+06,   1.57731E+06,   1.57731E+06
C:/temp/Job-5.odb,Step-1,Increment      1: Step Time =    1.000,"P-5-1",           980,       18.7902,       35.3189,            0.,NA,NA,"",   1.27221E+06,   1.31690E+06,   1.31690E+06
C:/temp/Job-5.odb,Step-1,Increment      1: Step Time =    1.000,"P-5-1",           981,       15.7972,       29.0183,            0.,NA,NA,"",   1.35734E+06,   1.42027E+06,   1.42027E+06
C:/temp/Job-5.odb,Step-1,Increment      1: Step Time =    1.000,"P-5-1",           982,       26.2742,       14.5286,            0.,NA,NA,"",   1.65430E+06,   1.65576E+06,   1.65576E+06
C:/temp/Job-5.odb,Step-1,Increment      1: Step Time =    1.000,"P-5-1",           983,       173.172,       185.470,            0.,NA,NA,"",   1.05482E+06,   1.05012E+06,   1.05012E+06
C:/temp/Job-5.odb,Step-1,Increment      1: Step Time =    1.000,"P-5-1",           984,       180.557,       165.815,            0.,NA,NA,"",   1.09427E+06,   1.10236E+06,   1.10236E+06
C:/temp/Job-5.odb,Step-1,Increment      1: Step Time =    1.000,"P-5-1",           985,       163.720,       181.310,            0.,NA,NA,"",   1.12815E+06,   1.10879E+06,   1.10879E+06
C:/temp/Job-5.odb,Step-1,Increment      1: Step Time =    1.000,"P-5-1",           986,       181.325,       37.2715,            0.,NA,NA,"",   1.09988E+06,   1.11117E+06,   1.11117E+06
C:/temp/Job-5.odb,Step-1,Increment      1: Step Time =    1.000,"P-5-1",           987,       26.2257,       184.571,            0.,NA,NA,"",   1.64291E+06,   1.64440E+06,   1.64440E+06
C:/temp/Job-5.odb,Step-1,Increment      1: Step Time =    1.000,"P-5-1",           988,       185.106,       27.2474,            0.,NA,NA,"",   1.03795E+06,   1.05010E+06,   1.05010E+06
C:/temp/Job-5.odb,Step-1,Increment      1: Step Time =    1.000,"P-5-1",           989,       35.5893,       179.796,            0.,NA,NA,"",   1.59210E+06,   1.56718E+06,   1.56718E+06
C:/temp/Job-5.odb,Step-1,Increment      1: Step Time =    1.000,"P-5-1",           990,       46.7528,       135.133,            0.,NA,NA,"",   1.01455E+06,   872.599E+03,   872.599E+03
C:/temp/Job-5.odb,Step-1,Increment      1: Step Time =    1.000,"P-5-1",           991,       65.2779,       43.1606,            0.,NA,NA,"",   1.74637E+06,   1.64055E+06,   1.64055E+06
C:/temp/Job-5.odb,Step-1,Increment      1: Step Time =    1.000,"P-5-1",           992,       134.244,       154.700,            0.,NA,NA,"",   1.77092E+06,   1.72884E+06,   1.72884E+06
C:/temp/Job-5.odb,Step-1,Increment      1: Step Time =    1.000,"P-5-1",           993,       154.372,       61.9544,            0.,NA,NA,"",   1.63082E+06,   1.39084E+06,   1.39084E+06
C:/temp/Job-5.odb,Step-1,Increment      1: Step Time =    1.000,"P-5-1",           994,       104.086,       163.050,            0.,NA,NA,"",   1.63731E+06,   1.78077E+06,   1.78077E+06
C:/temp/Job-5.odb,Step-1,Increment      1: Step Time =    1.000,"P-5-1",           995,       166.658,       96.6679,            0.,NA,NA,"",   446.721E+03,   479.703E+03,   479.703E+03
C:/temp/Job-5.odb,Step-1,Increment      1: Step Time =    1.000,"P-5-1",           996,       91.7061,       38.9180,            0.,NA,NA,"",   1.76716E+06,   1.87231E+06,   1.87231E+06
C:/temp/Job-5.odb,Step-1,Increment      1: Step Time =    1.000,"P-5-1",           997,       37.3898,       112.913,            0.,NA,NA,"",   274.971E+03,   223.377E+03,   223.377E+03
C:/temp/Job-5.odb,Step-1,Increment      1: Step Time =    1.000,"P-5-1",           998,       36.4066,       89.6026,            0.,NA,NA,"",   207.068E+03,   173.259E+03,   173.259E+03
C:/temp/Job-5.odb,Step-1,Increment      1: Step Time =    1.000,"P-5-1",           999,       33.3409,       98.7572,            0.,NA,NA,"",   84.3124E+03,   91.6568E+03,   91.6568E+03
C:/temp/Job-5.odb,Step-1,Increment      1: Step Time =    1.000,"P-5-1",          1000,       100.160,       35.5993,            0.,NA,NA,"",   1.59534E+06,   1.72334E+06,   1.72334E+06
C:/temp/Job-5.odb,Step-1,Increment      1: Step Time =    1.000,"P-5-1",          1001,       108.607,       35.7248,            0.,NA,NA,"",   1.55633E+06,   1.68845E+06,   1.68845E+06
C:/temp/Job-5.odb,Step-1,Increment      1: Step Time =    1.000,"P-5-1",          1002,       56.8441,       140.791,            0.,NA,NA,"",   1.33804E+06,   1.17323E+06,   1.17323E+06
C:/temp/Job-5.odb,Step-1,Increment      1: Step Time =    1.000,"P-5-1",          1003,       142.473,       144.546,            0.,NA,NA,"",   1.79872E+06,   1.63015E+06,   1.63015E+06
C:/temp/Job-5.odb,Step-1,Increment      1: Step Time =    1.000,"P-5-1",          1004,       59.9052,       55.9302,            0.,NA,NA,"",   1.50386E+06,   1.34999E+06,   1.34999E+06
C:/temp/Job-5.odb,Step-1,Increment      1: Step Time =    1.000,"P-5-1",          1005,       145.414,       58.7371,            0.,NA,NA,"",   1.76808E+06,   1.55134E+06,   1.55134E+06
C:/temp/Job-5.odb,Step-1,Increment      1: Step Time =    1.000,"P-5-1",          1006,       74.0562,       27.3107,            0.,NA,NA,"",   1.61719E+06,   1.57898E+06,   1.57898E+06
C:/temp/Job-5.odb,Step-1,Increment      1: Step Time =    1.000,"P-5-1",          1007,       125.153,       172.563,            0.,NA,NA,"",   1.35059E+06,   1.38449E+06,   1.38449E+06
C:/temp/Job-5.odb,Step-1,Increment      1: Step Time =    1.000,"P-5-1",          1008,       25.7394,       125.777,            0.,NA,NA,"",   508.969E+03,   526.964E+03,   526.964E+03
C:/temp/Job-5.odb,Step-1,Increment      1: Step Time =    1.000,"P-5-1",          1009,       173.242,       75.5102,            0.,NA,NA,"",   1.10244E+06,   1.08770E+06,   1.08770E+06
C:/temp/Job-5.odb,Step-1,Increment      1: Step Time =    1.000,"P-5-1",          1010,       104.970,       25.1949,            0.,NA,NA,"",   1.27125E+06,   1.35505E+06,   1.35505E+06
C:/temp/Job-5.odb,Step-1,Increment      1: Step Time =    1.000,"P-5-1",          1011,       26.6807,       94.3030,            0.,NA,NA,"",   155.319E+03,   176.184E+03,   176.184E+03
C:/temp/Job-5.odb,Step-1,Increment      1: Step Time =    1.000,"P-5-1",          1012,       92.3712,       174.443,            0.,NA,NA,"",   1.39790E+06,   1.45120E+06,   1.45120E+06
C:/temp/Job-5.odb,Step-1,Increment      1: Step Time =    1.000,"P-5-1",          1013,       173.402,       103.672,            0.,NA,NA,"",   588.544E+03,   671.832E+03,   671.832E+03
C:/temp/Job-5.odb,Step-1,Increment      1: Step Time =    1.000,"P-5-1",          1014,       122.746,       160.969,            0.,NA,NA,"",   1.64188E+06,   1.71286E+06,   1.71286E+06
C:/temp/Job-5.odb,Step-1,Increment      1: Step Time =    1.000,"P-5-1",          1015,       160.752,       79.6919,            0.,NA,NA,"",   1.11999E+06,   910.311E+03,   910.311E+03
C:/temp/Job-5.odb,Step-1,Increment      1: Step Time =    1.000,"P-5-1",          1016,       76.1904,       38.3255,            0.,NA,NA,"",   1.77073E+06,   1.74215E+06,   1.74215E+06
C:/temp/Job-5.odb,Step-1,Increment      1: Step Time =    1.000,"P-5-1",          1017,       38.4296,       122.407,            0.,NA,NA,"",   519.777E+03,   446.594E+03,   446.594E+03
C:/temp/Job-5.odb,Step-1,Increment      1: Step Time =    1.000,"P-5-1",          1018,       93.5372,       162.999,            0.,NA,NA,"",   1.67949E+06,   1.78056E+06,   1.78056E+06
C:/temp/Job-5.odb,Step-1,Increment      1: Step Time =    1.000,"P-5-1",          1019,       164.410,       106.395,            0.,NA,NA,"",   534.937E+03,   511.944E+03,   511.944E+03
C:/temp/Job-5.odb,Step-1,Increment      1: Step Time =    1.000,"P-5-1",          1020,       185.945,       50.7151,            0.,NA,NA,"",   1.04660E+06,   1.10621E+06,   1.10621E+06
C:/temp/Job-5.odb,Step-1,Increment      1: Step Time =    1.000,"P-5-1",          1021,       182.596,       149.351,            0.,NA,NA,"",   1.10317E+06,   1.14031E+06,   1.14031E+06
C:/temp/Job-5.odb,Step-1,Increment      1: Step Time =    1.000,"P-5-1",          1022,       149.837,       185.501,            0.,NA,NA,"",   1.10415E+06,   1.08550E+06,   1.08550E+06
C:/temp/Job-5.odb,Step-1,Increment      1: Step Time =    1.000,"P-5-1",          1023,       50.2502,       14.2578,            0.,NA,NA,"",   1.55820E+06,   1.52852E+06,   1.52852E+06
C:/temp/Job-5.odb,Step-1,Increment      1: Step Time =    1.000,"P-5-1",          1024,       14.4752,       49.2718,            0.,NA,NA,"",   956.336E+03,   1.01882E+06,   1.01882E+06
C:/temp/Job-5.odb,Step-1,Increment      1: Step Time =    1.000,"P-5-1",          1025,       149.490,       13.1800,            0.,NA,NA,"",   1.08492E+06,   1.06874E+06,   1.06874E+06
C:/temp/Job-5.odb,Step-1,Increment      1: Step Time =    1.000,"P-5-1",          1026,       14.4276,       150.087,            0.,NA,NA,"",   940.913E+03,   1.00217E+06,   1.00217E+06
C:/temp/Job-5.odb,Step-1,Increment      1: Step Time =    1.000,"P-5-1",          1027,       89.4384,       20.4102,            0.,NA,NA,"",   1.30642E+06,   1.33275E+06,   1.33275E+06
C:/temp/Job-5.odb,Step-1,Increment      1: Step Time =    1.000,"P-5-1",          1028,       19.2553,       111.770,            0.,NA,NA,"",   243.559E+03,   280.065E+03,   280.065E+03
C:/temp/Job-5.odb,Step-1,Increment      1: Step Time =    1.000,"P-5-1",          1029,       180.507,       88.1752,            0.,NA,NA,"",   808.762E+03,   922.785E+03,   922.785E+03
C:/temp/Job-5.odb,Step-1,Increment      1: Step Time =    1.000,"P-5-1",          1030,       108.624,       181.774,            0.,NA,NA,"",   1.08493E+06,   1.13485E+06,   1.13485E+06
C:/temp/Job-5.odb,Step-1,Increment      1: Step Time =    1.000,"P-5-1",          1031,       85.9402,       154.053,            0.,NA,NA,"",   1.97847E+06,   2.05648E+06,   2.05648E+06
C:/temp/Job-5.odb,Step-1,Increment      1: Step Time =    1.000,"P-5-1",          1032,       151.007,       116.721,            0.,NA,NA,"",   1.00287E+06,   26.4376E+03,   26.4376E+03
C:/temp/Job-5.odb,Step-1,Increment      1: Step Time =    1.000,"P-5-1",          1033,       116.758,       45.4720,            0.,NA,NA,"",   1.90227E+06,   2.03420E+06,   2.03420E+06
C:/temp/Job-5.odb,Step-1,Increment      1: Step Time =    1.000,"P-5-1",          1034,       48.0505,       83.6232,            0.,NA,NA,"",   413.489E+03,  -134.384E+03,  -134.384E+03
C:/temp/Job-5.odb,Step-1,Increment      1: Step Time =    1.000,"P-5-1",          1035,       79.1313,       151.325,            0.,NA,NA,"",   1.91653E+06,   1.93263E+06,   1.93263E+06
C:/temp/Job-5.odb,Step-1,Increment      1: Step Time =    1.000,"P-5-1",          1036,       149.013,       121.331,            0.,NA,NA,"",   1.18548E+06,   479.296E+03,   479.296E+03
C:/temp/Job-5.odb,Step-1,Increment      1: Step Time =    1.000,"P-5-1",          1037,       50.2495,       79.0187,            0.,NA,NA,"",   544.538E+03,   31.1490E+03,   31.1490E+03
C:/temp/Job-5.odb,Step-1,Increment      1: Step Time =    1.000,"P-5-1",          1038,       121.915,       49.4000,            0.,NA,NA,"",   1.99151E+06,   2.08585E+06,   2.08585E+06
C:/temp/Job-5.odb,Step-1,Increment      1: Step Time =    1.000,"P-5-1",          1039,       128.515,       24.8640,            0.,NA,NA,"",   1.29398E+06,   1.30886E+06,   1.30886E+06
C:/temp/Job-5.odb,Step-1,Increment      1: Step Time =    1.000,"P-5-1",          1040,       69.3584,       176.498,            0.,NA,NA,"",   1.57405E+06,   1.52286E+06,   1.52286E+06
C:/temp/Job-5.odb,Step-1,Increment      1: Step Time =    1.000,"P-5-1",          1041,       23.5863,       69.3127,            0.,NA,NA,"",   609.173E+03,   632.311E+03,   632.311E+03
C:/temp/Job-5.odb,Step-1,Increment      1: Step Time =    1.000,"P-5-1",          1042,       177.076,       130.320,            0.,NA,NA,"",   1.13609E+06,   1.15581E+06,   1.15581E+06
C:/temp/Job-5.odb,Step-1,Increment      1: Step Time =    1.000,"P-5-1",          1043,       37.3708,       22.6743,            0.,NA,NA,"",   1.57868E+06,   1.54556E+06,   1.54556E+06
C:/temp/Job-5.odb,Step-1,Increment      1: Step Time =    1.000,"P-5-1",          1044,       27.3975,       38.3785,            0.,NA,NA,"",   1.31900E+06,   1.31286E+06,   1.31286E+06
C:/temp/Job-5.odb,Step-1,Increment      1: Step Time =    1.000,"P-5-1",          1045,       21.6977,       162.568,            0.,NA,NA,"",   1.27233E+06,   1.29813E+06,   1.29813E+06
C:/temp/Job-5.odb,Step-1,Increment      1: Step Time =    1.000,"P-5-1",          1046,       163.845,       24.1156,            0.,NA,NA,"",   1.18976E+06,   1.16020E+06,   1.16020E+06
C:/temp/Job-5.odb,Step-1,Increment      1: Step Time =    1.000,"P-5-1",          1047,       176.831,       37.7708,            0.,NA,NA,"",   1.16491E+06,   1.15623E+06,   1.15623E+06
C:/temp/Job-5.odb,Step-1,Increment      1: Step Time =    1.000,"P-5-1",          1048,       35.7964,       175.041,            0.,NA,NA,"",   1.55861E+06,   1.52614E+06,   1.52614E+06
C:/temp/Job-5.odb,Step-1,Increment      1: Step Time =    1.000,"P-5-1",          1049,       176.537,       166.668,            0.,NA,NA,"",   1.13871E+06,   1.13213E+06,   1.13213E+06
C:/temp/Job-5.odb,Step-1,Increment      1: Step Time =    1.000,"P-5-1",          1050,       163.824,       176.448,            0.,NA,NA,"",   1.18245E+06,   1.15411E+06,   1.15411E+06
C:/temp/Job-5.odb,Step-1,Increment      1: Step Time =    1.000,"P-5-1",          1051,       162.564,       74.0799,            0.,NA,NA,"",   1.28363E+06,   1.09639E+06,   1.09639E+06
C:/temp/Job-5.odb,Step-1,Increment      1: Step Time =    1.000,"P-5-1",          1052,       127.945,       163.033,            0.,NA,NA,"",   1.58751E+06,   1.61132E+06,   1.61132E+06
C:/temp/Job-5.odb,Step-1,Increment      1: Step Time =    1.000,"P-5-1",          1053,       35.4212,       126.289,            0.,NA,NA,"",   600.393E+03,   552.655E+03,   552.655E+03
C:/temp/Job-5.odb,Step-1,Increment      1: Step Time =    1.000,"P-5-1",          1054,       71.7551,       36.4690,            0.,NA,NA,"",   1.74407E+06,   1.68254E+06,   1.68254E+06
C:/temp/Job-5.odb,Step-1,Increment      1: Step Time =    1.000,"P-5-1",          1055,       89.7172,       30.9689,            0.,NA,NA,"",   1.55437E+06,   1.62140E+06,   1.62140E+06
C:/temp/Job-5.odb,Step-1,Increment      1: Step Time =    1.000,"P-5-1",          1056,       23.4557,       108.597,            0.,NA,NA,"",   201.237E+03,   230.633E+03,   230.633E+03
C:/temp/Job-5.odb,Step-1,Increment      1: Step Time =    1.000,"P-5-1",          1057,       172.177,       91.9679,            0.,NA,NA,"",   646.317E+03,   712.472E+03,   712.472E+03
C:/temp/Job-5.odb,Step-1,Increment      1: Step Time =    1.000,"P-5-1",          1058,       109.781,       173.395,            0.,NA,NA,"",   1.28730E+06,   1.37580E+06,   1.37580E+06
C:/temp/Job-5.odb,Step-1,Increment      1: Step Time =    1.000,"P-5-1",          1059,       28.6909,       77.8897,            0.,NA,NA,"",   446.229E+03,   448.736E+03,   448.736E+03
C:/temp/Job-5.odb,Step-1,Increment      1: Step Time =    1.000,"P-5-1",          1060,       29.1692,       123.028,            0.,NA,NA,"",   468.070E+03,   468.581E+03,   468.581E+03
C:/temp/Job-5.odb,Step-1,Increment      1: Step Time =    1.000,"P-5-1",          1061,       77.6256,       29.4552,            0.,NA,NA,"",   1.62886E+06,   1.60707E+06,   1.60707E+06
C:/temp/Job-5.odb,Step-1,Increment      1: Step Time =    1.000,"P-5-1",          1062,       173.742,       119.414,            0.,NA,NA,"",   979.105E+03,   999.937E+03,   999.937E+03
C:/temp/Job-5.odb,Step-1,Increment      1: Step Time =    1.000,"P-5-1",          1063,       79.8165,       172.163,            0.,NA,NA,"",   1.58594E+06,   1.57800E+06,   1.57800E+06
C:/temp/Job-5.odb,Step-1,Increment      1: Step Time =    1.000,"P-5-1",          1064,       170.922,       79.7322,            0.,NA,NA,"",   1.02525E+06,   996.411E+03,   996.411E+03
C:/temp/Job-5.odb,Step-1,Increment      1: Step Time =    1.000,"P-5-1",          1065,       120.197,       170.854,            0.,NA,NA,"",   1.37002E+06,   1.43473E+06,   1.43473E+06
C:/temp/Job-5.odb,Step-1,Increment      1: Step Time =    1.000,"P-5-1",          1066,       31.0451,       141.907,            0.,NA,NA,"",   958.692E+03,   930.330E+03,   930.330E+03
C:/temp/Job-5.odb,Step-1,Increment      1: Step Time =    1.000,"P-5-1",          1067,       138.395,       27.4656,            0.,NA,NA,"",   1.37576E+06,   1.34803E+06,   1.34803E+06
C:/temp/Job-5.odb,Step-1,Increment      1: Step Time =    1.000,"P-5-1",          1068,       59.0476,       29.6724,            0.,NA,NA,"",   1.64883E+06,   1.56330E+06,   1.56330E+06
C:/temp/Job-5.odb,Step-1,Increment      1: Step Time =    1.000,"P-5-1",          1069,       29.2435,       58.2123,            0.,NA,NA,"",   936.260E+03,   920.030E+03,   920.030E+03
C:/temp/Job-5.odb,Step-1,Increment      1: Step Time =    1.000,"P-5-1",          1070,       173.072,       60.2702,            0.,NA,NA,"",   1.27842E+06,   1.23620E+06,   1.23620E+06
C:/temp/Job-5.odb,Step-1,Increment      1: Step Time =    1.000,"P-5-1",          1071,       57.4771,       171.891,            0.,NA,NA,"",   1.63248E+06,   1.55433E+06,   1.55433E+06
C:/temp/Job-5.odb,Step-1,Increment      1: Step Time =    1.000,"P-5-1",          1072,       141.334,       169.308,            0.,NA,NA,"",   1.43518E+06,   1.38819E+06,   1.38819E+06
C:/temp/Job-5.odb,Step-1,Increment      1: Step Time =    1.000,"P-5-1",          1073,       169.228,       138.197,            0.,NA,NA,"",   1.35180E+06,   1.26007E+06,   1.26007E+06
C:/temp/Job-5.odb,Step-1,Increment      1: Step Time =    1.000,"P-5-1",          1074,       174.193,       9.93974,            0.,NA,NA,"",   1.02656E+06,   1.02452E+06,   1.02452E+06
C:/temp/Job-5.odb,Step-1,Increment      1: Step Time =    1.000,"P-5-1",          1075,       19.6249,       171.192,            0.,NA,NA,"",   1.39795E+06,   1.43820E+06,   1.43820E+06
C:/temp/Job-5.odb,Step-1,Increment      1: Step Time =    1.000,"P-5-1",          1076,       173.044,       18.9974,            0.,NA,NA,"",   1.08439E+06,   1.07646E+06,   1.07646E+06
C:/temp/Job-5.odb,Step-1,Increment      1: Step Time =    1.000,"P-5-1",          1077,       14.0625,       159.568,            0.,NA,NA,"",   1.12043E+06,   1.18980E+06,   1.18980E+06
C:/temp/Job-5.odb,Step-1,Increment      1: Step Time =    1.000,"P-5-1",          1078,       159.161,       15.3491,            0.,NA,NA,"",   1.10430E+06,   1.08731E+06,   1.08731E+06
C:/temp/Job-5.odb,Step-1,Increment      1: Step Time =    1.000,"P-5-1",          1079,       27.0816,       19.1339,            0.,NA,NA,"",    1.6001E+06,   1.59954E+06,   1.59954E+06
C:/temp/Job-5.odb,Step-1,Increment      1: Step Time =    1.000,"P-5-1",          1080,       21.7973,       27.6358,            0.,NA,NA,"",   1.44305E+06,   1.46890E+06,   1.46890E+06
C:/temp/Job-5.odb,Step-1,Increment      1: Step Time =    1.000,"P-5-1",          1081,       10.9023,       26.9360,            0.,NA,NA,"",   1.33585E+06,   1.42972E+06,   1.42972E+06
C:/temp/Job-5.odb,Step-1,Increment      1: Step Time =    1.000,"P-5-1",          1082,       40.8861,       13.8454,            0.,NA,NA,"",   1.60434E+06,   1.58353E+06,   1.58353E+06
C:/temp/Job-5.odb,Step-1,Increment      1: Step Time =    1.000,"P-5-1",          1083,       17.7955,       39.6788,            0.,NA,NA,"",   1.17749E+06,   1.22722E+06,   1.22722E+06
C:/temp/Job-5.odb,Step-1,Increment      1: Step Time =    1.000,"P-5-1",          1084,       181.423,       174.132,            0.,NA,NA,"",   1.05974E+06,   1.06552E+06,   1.06552E+06
C:/temp/Job-5.odb,Step-1,Increment      1: Step Time =    1.000,"P-5-1",          1085,       175.179,       180.055,            0.,NA,NA,"",   1.07543E+06,   1.07087E+06,   1.07087E+06
C:/temp/Job-5.odb,Step-1,Increment      1: Step Time =    1.000,"P-5-1",          1086,       190.205,       174.660,            0.,NA,NA,"",   1.00898E+06,   1.02247E+06,   1.02247E+06
C:/temp/Job-5.odb,Step-1,Increment      1: Step Time =    1.000,"P-5-1",          1087,       159.351,       185.879,            0.,NA,NA,"",   1.08863E+06,   1.07364E+06,   1.07364E+06
C:/temp/Job-5.odb,Step-1,Increment      1: Step Time =    1.000,"P-5-1",          1088,       183.397,       160.306,            0.,NA,NA,"",   1.07475E+06,   1.09822E+06,   1.09822E+06
C:/temp/Job-5.odb,Step-1,Increment      1: Step Time =    1.000,"P-5-1",          1089,       185.948,       41.3112,            0.,NA,NA,"",   1.04491E+06,   1.08157E+06,   1.08157E+06
C:/temp/Job-5.odb,Step-1,Increment      1: Step Time =    1.000,"P-5-1",          1090,       39.9674,       179.526,            0.,NA,NA,"",   1.59251E+06,   1.55684E+06,   1.55684E+06
C:/temp/Job-5.odb,Step-1,Increment      1: Step Time =    1.000,"P-5-1",          1091,       179.357,       25.4659,            0.,NA,NA,"",   1.07351E+06,   1.07527E+06,   1.07527E+06
C:/temp/Job-5.odb,Step-1,Increment      1: Step Time =    1.000,"P-5-1",          1092,       27.4029,       180.002,            0.,NA,NA,"",   1.58227E+06,   1.58050E+06,   1.58050E+06
C:/temp/Job-5.odb,Step-1,Increment      1: Step Time =    1.000,"P-5-1",          1093,       25.6154,       189.559,            0.,NA,NA,"",   1.69968E+06,   1.70058E+06,   1.70058E+06
C:/temp/Job-5.odb,Step-1,Increment      1: Step Time =    1.000,"P-5-1",          1094,       153.843,       9.16003,            0.,NA,NA,"",   1.02764E+06,   1.01843E+06,   1.01843E+06
C:/temp/Job-5.odb,Step-1,Increment      1: Step Time =    1.000,"P-5-1",          1095,       190.680,       153.717,            0.,NA,NA,"",   980.807E+03,   1.05065E+06,   1.05065E+06
C:/temp/Job-5.odb,Step-1,Increment      1: Step Time =    1.000,"P-5-1",          1096,       46.1511,       190.774,            0.,NA,NA,"",   1.57615E+06,   1.56264E+06,   1.56264E+06
C:/temp/Job-5.odb,Step-1,Increment      1: Step Time =    1.000,"P-5-1",          1097,       8.36491,       45.7826,            0.,NA,NA,"",   965.433E+03,   1.05535E+06,   1.05535E+06
C:/temp/Job-5.odb,Step-1,Increment      1: Step Time =    1.000,"P-5-1",          1098,       110.243,       163.878,            0.,NA,NA,"",   1.56375E+06,   1.69530E+06,   1.69530E+06
C:/temp/Job-5.odb,Step-1,Increment      1: Step Time =    1.000,"P-5-1",          1099,       163.905,       91.4884,            0.,NA,NA,"",   604.332E+03,   547.476E+03,   547.476E+03
C:/temp/Job-5.odb,Step-1,Increment      1: Step Time =    1.000,"P-5-1",          1100,       86.2064,       38.8577,            0.,NA,NA,"",   1.77093E+06,   1.83514E+06,   1.83514E+06
C:/temp/Job-5.odb,Step-1,Increment      1: Step Time =    1.000,"P-5-1",          1101,       43.6088,       112.346,            0.,NA,NA,"",   293.306E+03,  -113.450E+03,  -113.450E+03
C:/temp/Job-5.odb,Step-1,Increment      1: Step Time =    1.000,"P-5-1",          1102,       33.4849,       88.3127,            0.,NA,NA,"",   232.803E+03,   219.713E+03,   219.713E+03
C:/temp/Job-5.odb,Step-1,Increment      1: Step Time =    1.000,"P-5-1",          1103,       50.5706,       142.024,            0.,NA,NA,"",   1.27813E+06,   1.13013E+06,   1.13013E+06
C:/temp/Job-5.odb,Step-1,Increment      1: Step Time =    1.000,"P-5-1",          1104,       137.671,       140.239,            0.,NA,NA,"",   1.80910E+06,   1.66953E+06,   1.66953E+06
C:/temp/Job-5.odb,Step-1,Increment      1: Step Time =    1.000,"P-5-1",          1105,       143.636,       150.797,            0.,NA,NA,"",   1.74859E+06,   1.61264E+06,   1.61264E+06
C:/temp/Job-5.odb,Step-1,Increment      1: Step Time =    1.000,"P-5-1",          1106,       55.8303,       49.8128,            0.,NA,NA,"",   1.55934E+06,   1.41617E+06,   1.41617E+06
C:/temp/Job-5.odb,Step-1,Increment      1: Step Time =    1.000,"P-5-1",          1107,       58.7866,       60.7139,            0.,NA,NA,"",   1.31943E+06,   1.15281E+06,   1.15281E+06
C:/temp/Job-5.odb,Step-1,Increment      1: Step Time =    1.000,"P-5-1",          1108,       140.763,       58.7356,            0.,NA,NA,"",   1.80889E+06,   1.63298E+06,   1.63298E+06
C:/temp/Job-5.odb,Step-1,Increment      1: Step Time =    1.000,"P-5-1",          1109,       149.967,       58.2460,            0.,NA,NA,"",   1.71467E+06,   1.48879E+06,   1.48879E+06
C:/temp/Job-5.odb,Step-1,Increment      1: Step Time =    1.000,"P-5-1",          1110,       68.3287,       30.8253,            0.,NA,NA,"",   1.68178E+06,   1.61231E+06,   1.61231E+06
C:/temp/Job-5.odb,Step-1,Increment      1: Step Time =    1.000,"P-5-1",          1111,       131.211,       169.026,            0.,NA,NA,"",   1.45252E+06,   1.45377E+06,   1.45377E+06
C:/temp/Job-5.odb,Step-1,Increment      1: Step Time =    1.000,"P-5-1",          1112,       32.9958,       127.515,            0.,NA,NA,"",   601.555E+03,   575.337E+03,   575.337E+03
C:/temp/Job-5.odb,Step-1,Increment      1: Step Time =    1.000,"P-5-1",          1113,       171.043,       69.6040,            0.,NA,NA,"",   1.24196E+06,   1.17827E+06,   1.17827E+06
C:/temp/Job-5.odb,Step-1,Increment      1: Step Time =    1.000,"P-5-1",          1114,       100.466,       30.5353,            0.,NA,NA,"",   1.44151E+06,   1.54613E+06,   1.54613E+06
C:/temp/Job-5.odb,Step-1,Increment      1: Step Time =    1.000,"P-5-1",          1115,       28.2381,       99.4831,            0.,NA,NA,"",   120.603E+03,   135.330E+03,   135.330E+03
C:/temp/Job-5.odb,Step-1,Increment      1: Step Time =    1.000,"P-5-1",          1116,       109.911,       25.1429,            0.,NA,NA,"",   1.25534E+06,   1.33579E+06,   1.33579E+06
C:/temp/Job-5.odb,Step-1,Increment      1: Step Time =    1.000,"P-5-1",          1117,       24.1101,       89.3823,            0.,NA,NA,"",   221.139E+03,   250.295E+03,   250.295E+03
C:/temp/Job-5.odb,Step-1,Increment      1: Step Time =    1.000,"P-5-1",          1118,       175.731,       107.989,            0.,NA,NA,"",   692.939E+03,   785.376E+03,   785.376E+03
C:/temp/Job-5.odb,Step-1,Increment      1: Step Time =    1.000,"P-5-1",          1119,       97.5458,       169.935,            0.,NA,NA,"",   1.45771E+06,   1.55219E+06,   1.55219E+06
C:/temp/Job-5.odb,Step-1,Increment      1: Step Time =    1.000,"P-5-1",          1120,       170.527,       96.5111,            0.,NA,NA,"",   505.863E+03,   573.524E+03,   573.524E+03
C:/temp/Job-5.odb,Step-1,Increment      1: Step Time =    1.000,"P-5-1",          1121,       89.4846,       162.500,            0.,NA,NA,"",   1.71529E+06,   1.79535E+06,   1.79535E+06
C:/temp/Job-5.odb,Step-1,Increment      1: Step Time =    1.000,"P-5-1",          1122,       98.3019,       163.846,            0.,NA,NA,"",   1.63572E+06,   1.76147E+06,   1.76147E+06
C:/temp/Job-5.odb,Step-1,Increment      1: Step Time =    1.000,"P-5-1",          1123,       163.005,       111.040,            0.,NA,NA,"",   716.414E+03,   618.449E+03,   618.449E+03
C:/temp/Job-5.odb,Step-1,Increment      1: Step Time =    1.000,"P-5-1",          1124,       167.043,       100.812,            0.,NA,NA,"",   438.687E+03,   481.623E+03,   481.623E+03
C:/temp/Job-5.odb,Step-1,Increment      1: Step Time =    1.000,"P-5-1",          1125,       190.637,       45.6355,            0.,NA,NA,"",   983.302E+03,   1.05028E+06,   1.05028E+06
C:/temp/Job-5.odb,Step-1,Increment      1: Step Time =    1.000,"P-5-1",          1126,       154.685,       190.481,            0.,NA,NA,"",   1.03196E+06,   1.02284E+06,   1.02284E+06
C:/temp/Job-5.odb,Step-1,Increment      1: Step Time =    1.000,"P-5-1",          1127,       45.4116,       9.35706,            0.,NA,NA,"",   1.58257E+06,   1.56913E+06,   1.56913E+06
C:/temp/Job-5.odb,Step-1,Increment      1: Step Time =    1.000,"P-5-1",          1128,       9.57345,       154.894,            0.,NA,NA,"",   984.609E+03,   1.07043E+06,   1.07043E+06
C:/temp/Job-5.odb,Step-1,Increment      1: Step Time =    1.000,"P-5-1",          1129,       32.8533,       110.679,            0.,NA,NA,"",   215.890E+03,   211.237E+03,   211.237E+03
C:/temp/Job-5.odb,Step-1,Increment      1: Step Time =    1.000,"P-5-1",          1130,       89.0827,       37.4236,            0.,NA,NA,"",   1.73047E+06,   1.81527E+06,   1.81527E+06
C:/temp/Job-5.odb,Step-1,Increment      1: Step Time =    1.000,"P-5-1",          1131,       47.4081,       117.085,            0.,NA,NA,"",   428.456E+03,  -133.377E+03,  -133.377E+03
C:/temp/Job-5.odb,Step-1,Increment      1: Step Time =    1.000,"P-5-1",          1132,       37.1116,       118.884,            0.,NA,NA,"",   411.502E+03,   357.098E+03,   357.098E+03
C:/temp/Job-5.odb,Step-1,Increment      1: Step Time =    1.000,"P-5-1",          1133,       81.4070,       34.1182,            0.,NA,NA,"",   1.69220E+06,   1.70159E+06,   1.70159E+06
C:/temp/Job-5.odb,Step-1,Increment      1: Step Time =    1.000,"P-5-1",          1134,       164.564,       81.3804,            0.,NA,NA,"",   1.02701E+06,   901.628E+03,   901.628E+03
C:/temp/Job-5.odb,Step-1,Increment      1: Step Time =    1.000,"P-5-1",          1135,       53.9331,       59.1589,            0.,NA,NA,"",   1.30984E+06,   1.14430E+06,   1.14430E+06
C:/temp/Job-5.odb,Step-1,Increment      1: Step Time =    1.000,"P-5-1",          1136,       58.9234,       145.108,            0.,NA,NA,"",   1.50413E+06,   1.35160E+06,   1.35160E+06
C:/temp/Job-5.odb,Step-1,Increment      1: Step Time =    1.000,"P-5-1",          1137,       141.996,       53.9297,            0.,NA,NA,"",   1.80974E+06,   1.65514E+06,   1.65514E+06
C:/temp/Job-5.odb,Step-1,Increment      1: Step Time =    1.000,"P-5-1",          1138,       57.0216,       65.3018,            0.,NA,NA,"",   1.11332E+06,   933.074E+03,   933.074E+03
C:/temp/Job-5.odb,Step-1,Increment      1: Step Time =    1.000,"P-5-1",          1139,       64.4950,       145.967,            0.,NA,NA,"",   1.62679E+06,   1.49779E+06,   1.49779E+06
C:/temp/Job-5.odb,Step-1,Increment      1: Step Time =    1.000,"P-5-1",          1140,       136.583,       57.3376,            0.,NA,NA,"",   1.85263E+06,   1.73635E+06,   1.73635E+06
C:/temp/Job-5.odb,Step-1,Increment      1: Step Time =    1.000,"P-5-1",          1141,       141.163,       135.698,            0.,NA,NA,"",   1.68704E+06,   1.46831E+06,   1.46831E+06
C:/temp/Job-5.odb,Step-1,Increment      1: Step Time =    1.000,"P-5-1",          1142,       112.782,       35.9003,            0.,NA,NA,"",   1.54937E+06,   1.67113E+06,   1.67113E+06
C:/temp/Job-5.odb,Step-1,Increment      1: Step Time =    1.000,"P-5-1",          1143,       38.7930,       87.5484,            0.,NA,NA,"",   260.236E+03,   114.142E+03,   114.142E+03
C:/temp/Job-5.odb,Step-1,Increment      1: Step Time =    1.000,"P-5-1",          1144,       113.610,       30.8222,            0.,NA,NA,"",   1.40413E+06,   1.50196E+06,   1.50196E+06
C:/temp/Job-5.odb,Step-1,Increment      1: Step Time =    1.000,"P-5-1",          1145,       27.8706,       87.8299,            0.,NA,NA,"",   239.839E+03,   257.682E+03,   257.682E+03
C:/temp/Job-5.odb,Step-1,Increment      1: Step Time =    1.000,"P-5-1",          1146,       85.4592,       34.2528,            0.,NA,NA,"",   1.67184E+06,   1.71490E+06,   1.71490E+06
C:/temp/Job-5.odb,Step-1,Increment      1: Step Time =    1.000,"P-5-1",          1147,       35.2876,       115.951,            0.,NA,NA,"",   332.712E+03,   297.699E+03,   297.699E+03
C:/temp/Job-5.odb,Step-1,Increment      1: Step Time =    1.000,"P-5-1",          1148,       81.9541,       155.880,            0.,NA,NA,"",   1.89563E+06,   1.93318E+06,   1.93318E+06
C:/temp/Job-5.odb,Step-1,Increment      1: Step Time =    1.000,"P-5-1",          1149,       154.736,       119.123,            0.,NA,NA,"",   1.11070E+06,   776.434E+03,   776.434E+03
C:/temp/Job-5.odb,Step-1,Increment      1: Step Time =    1.000,"P-5-1",          1150,       121.454,       44.7186,            0.,NA,NA,"",   1.83142E+06,   1.92475E+06,   1.92475E+06
C:/temp/Job-5.odb,Step-1,Increment      1: Step Time =    1.000,"P-5-1",          1151,       43.9078,       80.7996,            0.,NA,NA,"",   463.746E+03,   220.451E+03,   220.451E+03
C:/temp/Job-5.odb,Step-1,Increment      1: Step Time =    1.000,"P-5-1",          1152,       23.9361,       73.9763,            0.,NA,NA,"",   507.165E+03,   530.587E+03,   530.587E+03
C:/temp/Job-5.odb,Step-1,Increment      1: Step Time =    1.000,"P-5-1",          1153,       176.904,       125.576,            0.,NA,NA,"",   1.07196E+06,   1.10831E+06,   1.10831E+06
C:/temp/Job-5.odb,Step-1,Increment      1: Step Time =    1.000,"P-5-1",          1154,       123.396,       25.8954,            0.,NA,NA,"",   1.30363E+06,   1.34462E+06,   1.34462E+06
C:/temp/Job-5.odb,Step-1,Increment      1: Step Time =    1.000,"P-5-1",          1155,       74.4789,       174.852,            0.,NA,NA,"",   1.57084E+06,   1.53483E+06,   1.53483E+06
C:/temp/Job-5.odb,Step-1,Increment      1: Step Time =    1.000,"P-5-1",          1156,       27.9532,       34.5502,            0.,NA,NA,"",   1.38893E+06,   1.38079E+06,   1.38079E+06
C:/temp/Job-5.odb,Step-1,Increment      1: Step Time =    1.000,"P-5-1",          1157,       29.8766,       27.8732,            0.,NA,NA,"",   1.49320E+06,   1.48094E+06,   1.48094E+06
C:/temp/Job-5.odb,Step-1,Increment      1: Step Time =    1.000,"P-5-1",          1158,       21.2108,       168.583,            0.,NA,NA,"",   1.36439E+06,   1.40014E+06,   1.40014E+06
C:/temp/Job-5.odb,Step-1,Increment      1: Step Time =    1.000,"P-5-1",          1159,       168.681,       27.6898,            0.,NA,NA,"",   1.18361E+06,   1.15823E+06,   1.15823E+06
C:/temp/Job-5.odb,Step-1,Increment      1: Step Time =    1.000,"P-5-1",          1160,       176.373,       33.2595,            0.,NA,NA,"",   1.14065E+06,   1.13337E+06,   1.13337E+06
C:/temp/Job-5.odb,Step-1,Increment      1: Step Time =    1.000,"P-5-1",          1161,       31.5644,       175.052,            0.,NA,NA,"",   1.54201E+06,   1.52468E+06,   1.52468E+06
C:/temp/Job-5.odb,Step-1,Increment      1: Step Time =    1.000,"P-5-1",          1162,       173.266,       170.845,            0.,NA,NA,"",   1.15154E+06,   1.13617E+06,   1.13617E+06
C:/temp/Job-5.odb,Step-1,Increment      1: Step Time =    1.000,"P-5-1",          1163,       168.290,       176.962,            0.,NA,NA,"",   1.14511E+06,   1.12566E+06,   1.12566E+06
C:/temp/Job-5.odb,Step-1,Increment      1: Step Time =    1.000,"P-5-1",          1164,       167.039,       70.7845,            0.,NA,NA,"",   1.29021E+06,   1.16903E+06,   1.16903E+06
C:/temp/Job-5.odb,Step-1,Increment      1: Step Time =    1.000,"P-5-1",          1165,       132.539,       164.568,            0.,NA,NA,"",   1.55037E+06,   1.53934E+06,   1.53934E+06
C:/temp/Job-5.odb,Step-1,Increment      1: Step Time =    1.000,"P-5-1",          1166,       35.0758,       128.926,            0.,NA,NA,"",   663.427E+03,   615.906E+03,   615.906E+03
C:/temp/Job-5.odb,Step-1,Increment      1: Step Time =    1.000,"P-5-1",          1167,       67.5333,       35.2338,            0.,NA,NA,"",   1.72244E+06,   1.64099E+06,   1.64099E+06
C:/temp/Job-5.odb,Step-1,Increment      1: Step Time =    1.000,"P-5-1",          1168,       24.6183,       145.677,            0.,NA,NA,"",   962.710E+03,   971.798E+03,   971.798E+03
C:/temp/Job-5.odb,Step-1,Increment      1: Step Time =    1.000,"P-5-1",          1169,       25.2644,       51.9553,            0.,NA,NA,"",   1.02307E+06,   1.02908E+06,   1.02908E+06
C:/temp/Job-5.odb,Step-1,Increment      1: Step Time =    1.000,"P-5-1",          1170,       171.477,       56.0657,            0.,NA,NA,"",   1.31291E+06,   1.25638E+06,   1.25638E+06
C:/temp/Job-5.odb,Step-1,Increment      1: Step Time =    1.000,"P-5-1",          1171,       146.153,       171.357,            0.,NA,NA,"",   1.37379E+06,   1.32220E+06,   1.32220E+06
C:/temp/Job-5.odb,Step-1,Increment      1: Step Time =    1.000,"P-5-1",          1172,       172.770,       143.596,            0.,NA,NA,"",   1.29497E+06,   1.24776E+06,   1.24776E+06
C:/temp/Job-5.odb,Step-1,Increment      1: Step Time =    1.000,"P-5-1",          1173,       18.6867,       174.610,            0.,NA,NA,"",   1.45845E+06,   1.50172E+06,   1.50172E+06
C:/temp/Job-5.odb,Step-1,Increment      1: Step Time =    1.000,"P-5-1",          1174,       17.8506,       24.7606,            0.,NA,NA,"",   1.45892E+06,   1.50698E+06,   1.50698E+06
C:/temp/Job-5.odb,Step-1,Increment      1: Step Time =    1.000,"P-5-1",          1175,       21.1764,       14.8784,            0.,NA,NA,"",   1.66644E+06,   1.68111E+06,   1.68111E+06
C:/temp/Job-5.odb,Step-1,Increment      1: Step Time =    1.000,"P-5-1",          1176,       178.669,       183.768,            0.,NA,NA,"",   1.04213E+06,   1.04201E+06,   1.04201E+06
C:/temp/Job-5.odb,Step-1,Increment      1: Step Time =    1.000,"P-5-1",          1177,       183.268,       21.7087,            0.,NA,NA,"",   1.03866E+06,   1.04408E+06,   1.04408E+06
C:/temp/Job-5.odb,Step-1,Increment      1: Step Time =    1.000,"P-5-1",          1178,       20.9203,       183.432,            0.,NA,NA,"",   1.63214E+06,   1.65199E+06,   1.65199E+06
C:/temp/Job-5.odb,Step-1,Increment      1: Step Time =    1.000,"P-5-1",          1179,       110.559,       158.931,            0.,NA,NA,"",   1.75895E+06,   1.91182E+06,   1.91182E+06
C:/temp/Job-5.odb,Step-1,Increment      1: Step Time =    1.000,"P-5-1",          1180,       160.378,       89.6080,            0.,NA,NA,"",   690.798E+03,   531.430E+03,   531.430E+03
C:/temp/Job-5.odb,Step-1,Increment      1: Step Time =    1.000,"P-5-1",          1181,       185.963,       45.9851,            0.,NA,NA,"",   1.04643E+06,   1.09401E+06,   1.09401E+06
C:/temp/Job-5.odb,Step-1,Increment      1: Step Time =    1.000,"P-5-1",          1182,       154.680,       185.723,            0.,NA,NA,"",   1.09775E+06,   1.08030E+06,   1.08030E+06
C:/temp/Job-5.odb,Step-1,Increment      1: Step Time =    1.000,"P-5-1",          1183,       45.5309,       13.9740,            0.,NA,NA,"",   1.58202E+06,   1.55659E+06,   1.55659E+06
C:/temp/Job-5.odb,Step-1,Increment      1: Step Time =    1.000,"P-5-1",          1184,       14.1309,       154.939,            0.,NA,NA,"",   1.03369E+06,   1.09929E+06,   1.09929E+06
C:/temp/Job-5.odb,Step-1,Increment      1: Step Time =    1.000,"P-5-1",          1185,       138.768,       152.652,            0.,NA,NA,"",   1.77000E+06,   1.67744E+06,   1.67744E+06
C:/temp/Job-5.odb,Step-1,Increment      1: Step Time =    1.000,"P-5-1",          1186,       154.005,       57.8116,            0.,NA,NA,"",   1.65351E+06,   1.44061E+06,   1.44061E+06
C:/temp/Job-5.odb,Step-1,Increment      1: Step Time =    1.000,"P-5-1",          1187,       45.2103,       139.651,            0.,NA,NA,"",   1.12454E+06,   1.00001E+06,   1.00001E+06
C:/temp/Job-5.odb,Step-1,Increment      1: Step Time =    1.000,"P-5-1",          1188,       60.5360,       44.5456,            0.,NA,NA,"",   1.68861E+06,   1.56432E+06,   1.56432E+06
C:/temp/Job-5.odb,Step-1,Increment      1: Step Time =    1.000,"P-5-1",          1189,       34.5257,       123.589,            0.,NA,NA,"",   519.464E+03,   483.740E+03,   483.740E+03
C:/temp/Job-5.odb,Step-1,Increment      1: Step Time =    1.000,"P-5-1",          1190,       77.1637,       33.5703,            0.,NA,NA,"",   1.69921E+06,   1.67649E+06,   1.67649E+06
C:/temp/Job-5.odb,Step-1,Increment      1: Step Time =    1.000,"P-5-1",          1191,       166.863,       77.1435,            0.,NA,NA,"",   1.13813E+06,   1.03311E+06,   1.03311E+06
C:/temp/Job-5.odb,Step-1,Increment      1: Step Time =    1.000,"P-5-1",          1192,       121.286,       165.839,            0.,NA,NA,"",   1.50497E+06,   1.57696E+06,   1.57696E+06
C:/temp/Job-5.odb,Step-1,Increment      1: Step Time =    1.000,"P-5-1",          1193,       89.0490,       170.415,            0.,NA,NA,"",   1.53465E+06,   1.58603E+06,   1.58603E+06
C:/temp/Job-5.odb,Step-1,Increment      1: Step Time =    1.000,"P-5-1",          1194,       171.248,       111.167,            0.,NA,NA,"",   741.827E+03,   779.388E+03,   779.388E+03
C:/temp/Job-5.odb,Step-1,Increment      1: Step Time =    1.000,"P-5-1",          1195,       45.3212,       185.181,            0.,NA,NA,"",   1.58269E+06,   1.55635E+06,   1.55635E+06
C:/temp/Job-5.odb,Step-1,Increment      1: Step Time =    1.000,"P-5-1",          1196,       184.642,       154.032,            0.,NA,NA,"",   1.06653E+06,   1.10716E+06,   1.10716E+06
C:/temp/Job-5.odb,Step-1,Increment      1: Step Time =    1.000,"P-5-1",          1197,       16.6977,       44.2137,            0.,NA,NA,"",   1.07678E+06,   1.13103E+06,   1.13103E+06
C:/temp/Job-5.odb,Step-1,Increment      1: Step Time =    1.000,"P-5-1",          1198,       154.886,       15.2089,            0.,NA,NA,"",   1.10778E+06,   1.08912E+06,   1.08912E+06
C:/temp/Job-5.odb,Step-1,Increment      1: Step Time =    1.000,"P-5-1",          1199,       167.338,       92.8574,            0.,NA,NA,"",   561.703E+03,   580.364E+03,   580.364E+03
C:/temp/Job-5.odb,Step-1,Increment      1: Step Time =    1.000,"P-5-1",          1200,       109.872,       168.817,            0.,NA,NA,"",   1.41235E+06,   1.52224E+06,   1.52224E+06
C:/temp/Job-5.odb,Step-1,Increment      1: Step Time =    1.000,"P-5-1",          1201,       167.622,       121.491,            0.,NA,NA,"",   1.09497E+06,   1.00920E+06,   1.00920E+06
C:/temp/Job-5.odb,Step-1,Increment      1: Step Time =    1.000,"P-5-1",          1202,       77.0627,       170.543,            0.,NA,NA,"",   1.63630E+06,   1.61360E+06,   1.61360E+06
C:/temp/Job-5.odb,Step-1,Increment      1: Step Time =    1.000,"P-5-1",          1203,       34.0071,       79.1190,            0.,NA,NA,"",   447.534E+03,   416.920E+03,   416.920E+03
C:/temp/Job-5.odb,Step-1,Increment      1: Step Time =    1.000,"P-5-1",          1204,       120.688,       31.6599,            0.,NA,NA,"",   1.43506E+06,   1.50262E+06,   1.50262E+06
C:/temp/Job-5.odb,Step-1,Increment      1: Step Time =    1.000,"P-5-1",          1205,       174.704,       176.120,            0.,NA,NA,"",   1.10251E+06,   1.09492E+06,   1.09492E+06
C:/temp/Job-5.odb,Step-1,Increment      1: Step Time =    1.000,"P-5-1",          1206,       174.208,       173.801,            0.,NA,NA,"",   1.12200E+06,   1.11151E+06,   1.11151E+06
C:/temp/Job-5.odb,Step-1,Increment      1: Step Time =    1.000,"P-5-1",          1207,       175.097,       26.0753,            0.,NA,NA,"",   1.11184E+06,   1.10472E+06,   1.10472E+06
C:/temp/Job-5.odb,Step-1,Increment      1: Step Time =    1.000,"P-5-1",          1208,       28.1819,       176.217,            0.,NA,NA,"",   1.53875E+06,   1.53271E+06,   1.53271E+06
C:/temp/Job-5.odb,Step-1,Increment      1: Step Time =    1.000,"P-5-1",          1209,       22.1504,       174.756,            0.,NA,NA,"",   1.50074E+06,   1.52562E+06,   1.52562E+06
C:/temp/Job-5.odb,Step-1,Increment      1: Step Time =    1.000,"P-5-1",          1210,       172.406,       26.6517,            0.,NA,NA,"",   1.14003E+06,   1.12565E+06,   1.12565E+06
C:/temp/Job-5.odb,Step-1,Increment      1: Step Time =    1.000,"P-5-1",          1211,       25.1893,       29.9679,            0.,NA,NA,"",   1.43751E+06,   1.44434E+06,   1.44434E+06
C:/temp/Job-5.odb,Step-1,Increment      1: Step Time =    1.000,"P-5-1",          1212,       28.5368,       23.4542,            0.,NA,NA,"",   1.54859E+06,   1.54281E+06,   1.54281E+06
C:/temp/Job-5.odb,Step-1,Increment      1: Step Time =    1.000,"P-5-1",          1213,       75.2741,       155.563,            0.,NA,NA,"",   1.83811E+06,   1.80318E+06,   1.80318E+06
C:/temp/Job-5.odb,Step-1,Increment      1: Step Time =    1.000,"P-5-1",          1214,       152.920,       123.802,            0.,NA,NA,"",   1.30875E+06,   963.615E+03,   963.615E+03
C:/temp/Job-5.odb,Step-1,Increment      1: Step Time =    1.000,"P-5-1",          1215,       46.1497,       76.5226,            0.,NA,NA,"",   612.231E+03,   453.732E+03,   453.732E+03
C:/temp/Job-5.odb,Step-1,Increment      1: Step Time =    1.000,"P-5-1",          1216,       126.033,       43.7154,            0.,NA,NA,"",   1.77144E+06,   1.81806E+06,   1.81806E+06
C:/temp/Job-5.odb,Step-1,Increment      1: Step Time =    1.000,"P-5-1",          1217,       158.391,       121.137,            0.,NA,NA,"",   1.17994E+06,   919.439E+03,   919.439E+03
C:/temp/Job-5.odb,Step-1,Increment      1: Step Time =    1.000,"P-5-1",          1218,       80.7082,       161.951,            0.,NA,NA,"",   1.77279E+06,   1.78602E+06,   1.78602E+06
C:/temp/Job-5.odb,Step-1,Increment      1: Step Time =    1.000,"P-5-1",          1219,       121.220,       40.0978,            0.,NA,NA,"",   1.67572E+06,   1.76156E+06,   1.76156E+06
C:/temp/Job-5.odb,Step-1,Increment      1: Step Time =    1.000,"P-5-1",          1220,       39.8710,       77.9745,            0.,NA,NA,"",   519.826E+03,   434.197E+03,   434.197E+03
C:/temp/Job-5.odb,Step-1,Increment      1: Step Time =    1.000,"P-5-1",          1221,       49.6619,       23.9478,            0.,NA,NA,"",   1.59568E+06,   1.53532E+06,   1.53532E+06
C:/temp/Job-5.odb,Step-1,Increment      1: Step Time =    1.000,"P-5-1",          1222,       26.1125,       47.1751,            0.,NA,NA,"",   1.13295E+06,   1.13441E+06,   1.13441E+06
C:/temp/Job-5.odb,Step-1,Increment      1: Step Time =    1.000,"P-5-1",          1223,       150.293,       176.128,            0.,NA,NA,"",   1.26585E+06,   1.22506E+06,   1.22506E+06
C:/temp/Job-5.odb,Step-1,Increment      1: Step Time =    1.000,"P-5-1",          1224,       171.737,       147.793,            0.,NA,NA,"",   1.31664E+06,   1.26130E+06,   1.26130E+06
C:/temp/Job-5.odb,Step-1,Increment      1: Step Time =    1.000,"P-5-1",          1225,       23.1135,       151.172,            0.,NA,NA,"",   1.06436E+06,   1.08098E+06,   1.08098E+06
C:/temp/Job-5.odb,Step-1,Increment      1: Step Time =    1.000,"P-5-1",          1226,       149.376,       25.8144,            0.,NA,NA,"",   1.30760E+06,   1.26258E+06,   1.26258E+06
C:/temp/Job-5.odb,Step-1,Increment      1: Step Time =    1.000,"P-5-1",          1227,       50.8361,       175.631,            0.,NA,NA,"",   1.60097E+06,   1.53757E+06,   1.53757E+06
C:/temp/Job-5.odb,Step-1,Increment      1: Step Time =    1.000,"P-5-1",          1228,       14.6751,       179.355,            0.,NA,NA,"",   1.51722E+06,   1.58131E+06,   1.58131E+06
C:/temp/Job-5.odb,Step-1,Increment      1: Step Time =    1.000,"P-5-1",          1229,       61.7135,       67.3846,            0.,NA,NA,"",   984.822E+03,   825.837E+03,   825.837E+03
C:/temp/Job-5.odb,Step-1,Increment      1: Step Time =    1.000,"P-5-1",          1230,       66.2872,       141.277,            0.,NA,NA,"",   1.49059E+06,   1.37370E+06,   1.37370E+06
C:/temp/Job-5.odb,Step-1,Increment      1: Step Time =    1.000,"P-5-1",          1231,       133.835,       61.5331,            0.,NA,NA,"",   1.80594E+06,   1.72719E+06,   1.72719E+06
C:/temp/Job-5.odb,Step-1,Increment      1: Step Time =    1.000,"P-5-1",          1232,       137.246,       132.667,            0.,NA,NA,"",   1.51752E+06,   1.36139E+06,   1.36139E+06
C:/temp/Job-5.odb,Step-1,Increment      1: Step Time =    1.000,"P-5-1",          1233,       20.2702,       79.5989,            0.,NA,NA,"",   378.990E+03,   416.506E+03,   416.506E+03
C:/temp/Job-5.odb,Step-1,Increment      1: Step Time =    1.000,"P-5-1",          1234,       181.136,       121.526,            0.,NA,NA,"",   974.061E+03,   1.07449E+06,   1.07449E+06
C:/temp/Job-5.odb,Step-1,Increment      1: Step Time =    1.000,"P-5-1",          1235,       28.1687,       68.9143,            0.,NA,NA,"",   654.934E+03,   653.441E+03,   653.441E+03
C:/temp/Job-5.odb,Step-1,Increment      1: Step Time =    1.000,"P-5-1",          1236,       172.748,       130.449,            0.,NA,NA,"",   1.20903E+06,   1.17018E+06,   1.17018E+06
C:/temp/Job-5.odb,Step-1,Increment      1: Step Time =    1.000,"P-5-1",          1237,       129.410,       29.0316,            0.,NA,NA,"",   1.40130E+06,   1.41422E+06,   1.41422E+06
C:/temp/Job-5.odb,Step-1,Increment      1: Step Time =    1.000,"P-5-1",          1238,       64.5767,       171.750,            0.,NA,NA,"",   1.64572E+06,   1.57286E+06,   1.57286E+06
C:/temp/Job-5.odb,Step-1,Increment      1: Step Time =    1.000,"P-5-1",          1239,       34.9217,       30.7576,            0.,NA,NA,"",   1.49418E+06,   1.45772E+06,   1.45772E+06
C:/temp/Job-5.odb,Step-1,Increment      1: Step Time =    1.000,"P-5-1",          1240,       31.9217,       39.1133,            0.,NA,NA,"",   1.36347E+06,   1.33148E+06,   1.33148E+06
C:/temp/Job-5.odb,Step-1,Increment      1: Step Time =    1.000,"P-5-1",          1241,       164.342,       28.9488,            0.,NA,NA,"",   1.24064E+06,   1.20145E+06,   1.20145E+06
C:/temp/Job-5.odb,Step-1,Increment      1: Step Time =    1.000,"P-5-1",          1242,       27.4477,       161.765,            0.,NA,NA,"",   1.31273E+06,   1.30888E+06,   1.30888E+06
C:/temp/Job-5.odb,Step-1,Increment      1: Step Time =    1.000,"P-5-1",          1243,       36.2726,       170.687,            0.,NA,NA,"",   1.52436E+06,   1.48314E+06,   1.48314E+06
C:/temp/Job-5.odb,Step-1,Increment      1: Step Time =    1.000,"P-5-1",          1244,       171.692,       35.2096,            0.,NA,NA,"",   1.21340E+06,   1.18662E+06,   1.18662E+06
C:/temp/Job-5.odb,Step-1,Increment      1: Step Time =    1.000,"P-5-1",          1245,       172.502,       167.484,            0.,NA,NA,"",   1.18524E+06,   1.16351E+06,   1.16351E+06
C:/temp/Job-5.odb,Step-1,Increment      1: Step Time =    1.000,"P-5-1",          1246,       164.248,       171.967,            0.,NA,NA,"",   1.23284E+06,   1.19498E+06,   1.19498E+06
C:/temp/Job-5.odb,Step-1,Increment      1: Step Time =    1.000,"P-5-1",          1247,       16.5314,       18.7716,            0.,NA,NA,"",   1.57616E+06,   1.62360E+06,   1.62360E+06
C:/temp/Job-5.odb,Step-1,Increment      1: Step Time =    1.000,"P-5-1",          1248,       178.825,       15.0571,            0.,NA,NA,"",   1.03760E+06,   1.03744E+06,   1.03744E+06
C:/temp/Job-5.odb,Step-1,Increment      1: Step Time =    1.000,"P-5-1",          1249,       15.2364,       184.285,            0.,NA,NA,"",   1.64486E+06,   1.69279E+06,   1.69279E+06
C:/temp/Job-5.odb,Step-1,Increment      1: Step Time =    1.000,"P-5-1",          1250,       185.228,       179.392,            0.,NA,NA,"",   1.02590E+06,   1.03268E+06,   1.03268E+06
C:/temp/Job-5.odb,Step-1,Increment      1: Step Time =    1.000,"P-5-1",          1251,       165.554,       66.5691,            0.,NA,NA,"",   1.38026E+06,   1.23536E+06,   1.23536E+06
C:/temp/Job-5.odb,Step-1,Increment      1: Step Time =    1.000,"P-5-1",          1252,       135.874,       166.221,            0.,NA,NA,"",   1.51915E+06,   1.48824E+06,   1.48824E+06
C:/temp/Job-5.odb,Step-1,Increment      1: Step Time =    1.000,"P-5-1",          1253,       37.6302,       133.040,            0.,NA,NA,"",   818.508E+03,   747.427E+03,   747.427E+03
C:/temp/Job-5.odb,Step-1,Increment      1: Step Time =    1.000,"P-5-1",          1254,       63.3724,       34.6750,            0.,NA,NA,"",   1.70164E+06,   1.60715E+06,   1.60715E+06
C:/temp/Job-5.odb,Step-1,Increment      1: Step Time =    1.000,"P-5-1",          1255,       181.223,       46.3498,            0.,NA,NA,"",   1.12155E+06,   1.14251E+06,   1.14251E+06
C:/temp/Job-5.odb,Step-1,Increment      1: Step Time =    1.000,"P-5-1",          1256,       154.805,       180.942,            0.,NA,NA,"",   1.16821E+06,   1.14077E+06,   1.14077E+06
C:/temp/Job-5.odb,Step-1,Increment      1: Step Time =    1.000,"P-5-1",          1257,       45.4810,       18.5491,            0.,NA,NA,"",   1.58821E+06,   1.54919E+06,   1.54919E+06
C:/temp/Job-5.odb,Step-1,Increment      1: Step Time =    1.000,"P-5-1",          1258,       18.5201,       155.192,            0.,NA,NA,"",   1.08992E+06,   1.13388E+06,   1.13388E+06
C:/temp/Job-5.odb,Step-1,Increment      1: Step Time =    1.000,"P-5-1",          1259,       140.465,       157.478,            0.,NA,NA,"",   1.67645E+06,   1.59326E+06,   1.59326E+06
C:/temp/Job-5.odb,Step-1,Increment      1: Step Time =    1.000,"P-5-1",          1260,       158.269,       60.6948,            0.,NA,NA,"",   1.57284E+06,   1.36912E+06,   1.36912E+06
C:/temp/Job-5.odb,Step-1,Increment      1: Step Time =    1.000,"P-5-1",          1261,       42.5371,       143.742,            0.,NA,NA,"",   1.18952E+06,   1.08529E+06,   1.08529E+06
C:/temp/Job-5.odb,Step-1,Increment      1: Step Time =    1.000,"P-5-1",          1262,       177.271,       150.280,            0.,NA,NA,"",   1.20091E+06,   1.19521E+06,   1.19521E+06
C:/temp/Job-5.odb,Step-1,Increment      1: Step Time =    1.000,"P-5-1",          1263,       21.1644,       45.8597,            0.,NA,NA,"",   1.09772E+06,   1.12759E+06,   1.12759E+06
C:/temp/Job-5.odb,Step-1,Increment      1: Step Time =    1.000,"P-5-1",          1264,       154.288,       20.3012,            0.,NA,NA,"",   1.18724E+06,   1.15732E+06,   1.15732E+06
C:/temp/Job-5.odb,Step-1,Increment      1: Step Time =    1.000,"P-5-1",          1265,       163.874,       119.274,            0.,NA,NA,"",   1.05829E+06,   918.117E+03,   918.117E+03
C:/temp/Job-5.odb,Step-1,Increment      1: Step Time =    1.000,"P-5-1",          1266,       82.8850,       165.112,            0.,NA,NA,"",   1.70240E+06,   1.72803E+06,   1.72803E+06
C:/temp/Job-5.odb,Step-1,Increment      1: Step Time =    1.000,"P-5-1",          1267,       49.3862,       57.7755,            0.,NA,NA,"",   1.27626E+06,   1.12939E+06,   1.12939E+06
C:/temp/Job-5.odb,Step-1,Increment      1: Step Time =    1.000,"P-5-1",          1268,       59.0470,       150.514,            0.,NA,NA,"",   1.61812E+06,   1.47950E+06,   1.47950E+06
C:/temp/Job-5.odb,Step-1,Increment      1: Step Time =    1.000,"P-5-1",          1269,       142.647,       49.4857,            0.,NA,NA,"",   1.76046E+06,   1.62919E+06,   1.62919E+06
C:/temp/Job-5.odb,Step-1,Increment      1: Step Time =    1.000,"P-5-1",          1270,       116.882,       36.0571,            0.,NA,NA,"",   1.54971E+06,   1.65183E+06,   1.65183E+06
C:/temp/Job-5.odb,Step-1,Increment      1: Step Time =    1.000,"P-5-1",          1271,       37.6193,       81.6287,            0.,NA,NA,"",   402.197E+03,   343.117E+03,   343.117E+03
C:/temp/Job-5.odb,Step-1,Increment      1: Step Time =    1.000,"P-5-1",          1272,       173.683,       29.9852,            0.,NA,NA,"",   1.15099E+06,   1.13724E+06,   1.13724E+06
C:/temp/Job-5.odb,Step-1,Increment      1: Step Time =    1.000,"P-5-1",          1273,       171.279,       175.030,            0.,NA,NA,"",   1.13965E+06,   1.12348E+06,   1.12348E+06
C:/temp/Job-5.odb,Step-1,Increment      1: Step Time =    1.000,"P-5-1",          1274,       89.2545,       34.3693,            0.,NA,NA,"",   1.64812E+06,   1.72372E+06,   1.72372E+06
C:/temp/Job-5.odb,Step-1,Increment      1: Step Time =    1.000,"P-5-1",          1275,       30.8207,       116.137,            0.,NA,NA,"",   325.707E+03,   324.499E+03,   324.499E+03
C:/temp/Job-5.odb,Step-1,Increment      1: Step Time =    1.000,"P-5-1",          1276,       115.859,       164.347,            0.,NA,NA,"",   1.53661E+06,   1.64343E+06,   1.64343E+06
C:/temp/Job-5.odb,Step-1,Increment      1: Step Time =    1.000,"P-5-1",          1277,       165.939,       87.4927,            0.,NA,NA,"",   781.237E+03,   724.933E+03,   724.933E+03
C:/temp/Job-5.odb,Step-1,Increment      1: Step Time =    1.000,"P-5-1",          1278,       35.9848,       75.5172,            0.,NA,NA,"",   554.459E+03,   504.378E+03,   504.378E+03
C:/temp/Job-5.odb,Step-1,Increment      1: Step Time =    1.000,"P-5-1",          1279,       121.037,       35.6774,            0.,NA,NA,"",   1.54245E+06,   1.61885E+06,   1.61885E+06
C:/temp/Job-5.odb,Step-1,Increment      1: Step Time =    1.000,"P-5-1",          1280,       150.552,       171.832,            0.,NA,NA,"",   1.33408E+06,   1.28201E+06,   1.28201E+06
C:/temp/Job-5.odb,Step-1,Increment      1: Step Time =    1.000,"P-5-1",          1281,       31.6659,       151.785,            0.,NA,NA,"",   1.19715E+06,   1.16501E+06,   1.16501E+06
C:/temp/Job-5.odb,Step-1,Increment      1: Step Time =    1.000,"P-5-1",          1282,       173.116,       51.6563,            0.,NA,NA,"",   1.27934E+06,   1.24088E+06,   1.24088E+06
C:/temp/Job-5.odb,Step-1,Increment      1: Step Time =    1.000,"P-5-1",          1283,       18.8708,       178.812,            0.,NA,NA,"",   1.54439E+06,   1.58165E+06,   1.58165E+06
C:/temp/Job-5.odb,Step-1,Increment      1: Step Time =    1.000,"P-5-1",          1284,       177.862,       19.6625,            0.,NA,NA,"",   1.06097E+06,   1.05954E+06,   1.05954E+06
C:/temp/Job-5.odb,Step-1,Increment      1: Step Time =    1.000,"P-5-1",          1285,       180.749,       178.633,            0.,NA,NA,"",   1.05016E+06,   1.05304E+06,   1.05304E+06
C:/temp/Job-5.odb,Step-1,Increment      1: Step Time =    1.000,"P-5-1",          1286,       58.9979,       72.0754,            0.,NA,NA,"",   739.850E+03,   383.576E+03,   383.576E+03
C:/temp/Job-5.odb,Step-1,Increment      1: Step Time =    1.000,"P-5-1",          1287,       71.1624,       142.784,            0.,NA,NA,"",   1.64826E+06,   1.58493E+06,   1.58493E+06
C:/temp/Job-5.odb,Step-1,Increment      1: Step Time =    1.000,"P-5-1",          1288,       129.083,       57.8219,            0.,NA,NA,"",   1.98572E+06,   1.98853E+06,   1.98853E+06
C:/temp/Job-5.odb,Step-1,Increment      1: Step Time =    1.000,"P-5-1",          1289,       140.355,       128.185,            0.,NA,NA,"",   1.29265E+06,   1.04051E+06,   1.04051E+06
C:/temp/Job-5.odb,Step-1,Increment      1: Step Time =    1.000,"P-5-1",          1290,       41.4083,       22.7371,            0.,NA,NA,"",   1.58496E+06,   1.54068E+06,   1.54068E+06
C:/temp/Job-5.odb,Step-1,Increment      1: Step Time =    1.000,"P-5-1",          1291,       26.5084,       156.288,            0.,NA,NA,"",   1.20630E+06,   1.20369E+06,   1.20369E+06
C:/temp/Job-5.odb,Step-1,Increment      1: Step Time =    1.000,"P-5-1",          1292,       176.402,       42.1744,            0.,NA,NA,"",   1.19022E+06,   1.17902E+06,   1.17902E+06
C:/temp/Job-5.odb,Step-1,Increment      1: Step Time =    1.000,"P-5-1",          1293,       159.405,       175.985,            0.,NA,NA,"",   1.21779E+06,   1.18218E+06,   1.18218E+06
C:/temp/Job-5.odb,Step-1,Increment      1: Step Time =    1.000,"P-5-1",          1294,       11.1015,       15.3769,            0.,NA,NA,"",   1.62147E+06,   1.70055E+06,   1.70055E+06
C:/temp/Job-5.odb,Step-1,Increment      1: Step Time =    1.000,"P-5-1",          1295,       184.434,       10.3317,            0.,NA,NA,"",   1.00980E+06,   1.01137E+06,   1.01137E+06
C:/temp/Job-5.odb,Step-1,Increment      1: Step Time =    1.000,"P-5-1",          1296,       15.3405,       189.451,            0.,NA,NA,"",   1.76228E+06,   1.78848E+06,   1.78848E+06
C:/temp/Job-5.odb,Step-1,Increment      1: Step Time =    1.000,"P-5-1",          1297,       189.858,       184.692,            0.,NA,NA,"",   1.00699E+06,   1.01076E+06,   1.01076E+06
C:/temp/Job-5.odb,Step-1,Increment      1: Step Time =    1.000,"P-5-1",          1298,       144.921,       155.725,            0.,NA,NA,"",   1.66984E+06,   1.55823E+06,   1.55823E+06
C:/temp/Job-5.odb,Step-1,Increment      1: Step Time =    1.000,"P-5-1",          1299,       154.769,       53.6569,            0.,NA,NA,"",   1.64002E+06,   1.45852E+06,   1.45852E+06
C:/temp/Job-5.odb,Step-1,Increment      1: Step Time =    1.000,"P-5-1",          1300,       45.9675,       146.327,            0.,NA,NA,"",   1.30874E+06,   1.18907E+06,   1.18907E+06
C:/temp/Job-5.odb,Step-1,Increment      1: Step Time =    1.000,"P-5-1",          1301,       55.3897,       44.7303,            0.,NA,NA,"",   1.61710E+06,   1.48746E+06,   1.48746E+06
C:/temp/Job-5.odb,Step-1,Increment      1: Step Time =    1.000,"P-5-1",          1302,       45.2214,       174.572,            0.,NA,NA,"",   1.58951E+06,   1.53030E+06,   1.53030E+06
C:/temp/Job-5.odb,Step-1,Increment      1: Step Time =    1.000,"P-5-1",          1303,       173.698,       154.072,            0.,NA,NA,"",   1.25393E+06,   1.22256E+06,   1.22256E+06
C:/temp/Job-5.odb,Step-1,Increment      1: Step Time =    1.000,"P-5-1",          1304,       26.8367,       42.6059,            0.,NA,NA,"",   1.23306E+06,   1.23025E+06,   1.23025E+06
C:/temp/Job-5.odb,Step-1,Increment      1: Step Time =    1.000,"P-5-1",          1305,       154.475,       25.2098,            0.,NA,NA,"",   1.26699E+06,   1.22414E+06,   1.22414E+06
C:/temp/Job-5.odb,Step-1,Increment      1: Step Time =    1.000,"P-5-1",          1306,       86.9581,       165.929,            0.,NA,NA,"",   1.65117E+06,   1.70649E+06,   1.70649E+06
C:/temp/Job-5.odb,Step-1,Increment      1: Step Time =    1.000,"P-5-1",          1307,       166.119,       110.944,            0.,NA,NA,"",   720.650E+03,   681.667E+03,   681.667E+03
C:/temp/Job-5.odb,Step-1,Increment      1: Step Time =    1.000,"P-5-1",          1308,       161.993,       123.017,            0.,NA,NA,"",   1.21372E+06,   1.02109E+06,   1.02109E+06
C:/temp/Job-5.odb,Step-1,Increment      1: Step Time =    1.000,"P-5-1",          1309,       77.4237,       164.732,            0.,NA,NA,"",   1.73438E+06,   1.71564E+06,   1.71564E+06
C:/temp/Job-5.odb,Step-1,Increment      1: Step Time =    1.000,"P-5-1",          1310,       47.8654,       61.7299,            0.,NA,NA,"",   1.13478E+06,   990.161E+03,   990.161E+03
C:/temp/Job-5.odb,Step-1,Increment      1: Step Time =    1.000,"P-5-1",          1311,       63.0226,       153.571,            0.,NA,NA,"",   1.71239E+06,   1.58900E+06,   1.58900E+06
C:/temp/Job-5.odb,Step-1,Increment      1: Step Time =    1.000,"P-5-1",          1312,       135.233,       49.7534,            0.,NA,NA,"",   1.82673E+06,   1.75372E+06,   1.75372E+06
C:/temp/Job-5.odb,Step-1,Increment      1: Step Time =    1.000,"P-5-1",          1313,       149.992,       140.499,            0.,NA,NA,"",   1.72003E+06,   1.48451E+06,   1.48451E+06
C:/temp/Job-5.odb,Step-1,Increment      1: Step Time =    1.000,"P-5-1",          1314,       36.3209,       136.590,            0.,NA,NA,"",   898.535E+03,   834.709E+03,   834.709E+03
C:/temp/Job-5.odb,Step-1,Increment      1: Step Time =    1.000,"P-5-1",          1315,       58.9623,       34.5677,            0.,NA,NA,"",   1.67245E+06,   1.57287E+06,   1.57287E+06
C:/temp/Job-5.odb,Step-1,Increment      1: Step Time =    1.000,"P-5-1",          1316,       138.893,       164.270,            0.,NA,NA,"",   1.54885E+06,   1.49864E+06,   1.49864E+06
C:/temp/Job-5.odb,Step-1,Increment      1: Step Time =    1.000,"P-5-1",          1317,       163.694,       62.4114,            0.,NA,NA,"",   1.45797E+06,   1.29941E+06,   1.29941E+06
C:/temp/Job-5.odb,Step-1,Increment      1: Step Time =    1.000,"P-5-1",          1318,       45.1014,       23.0919,            0.,NA,NA,"",   1.58923E+06,   1.53637E+06,   1.53637E+06
C:/temp/Job-5.odb,Step-1,Increment      1: Step Time =    1.000,"P-5-1",          1319,       154.976,       176.165,            0.,NA,NA,"",   1.24273E+06,   1.20324E+06,   1.20324E+06
C:/temp/Job-5.odb,Step-1,Increment      1: Step Time =    1.000,"P-5-1",          1320,       22.7092,       155.755,            0.,NA,NA,"",   1.15345E+06,   1.17395E+06,   1.17395E+06
C:/temp/Job-5.odb,Step-1,Increment      1: Step Time =    1.000,"P-5-1",          1321,       176.325,       46.8038,            0.,NA,NA,"",   1.20667E+06,   1.19506E+06,   1.19506E+06
C:/temp/Job-5.odb,Step-1,Increment      1: Step Time =    1.000,"P-5-1",          1322,       187.326,       152.254,            0.,NA,NA,"",   1.02255E+06,   1.08259E+06,   1.08259E+06
C:/temp/Job-5.odb,Step-1,Increment      1: Step Time =    1.000,"P-5-1",          1323,       47.3270,       187.359,            0.,NA,NA,"",   1.57154E+06,   1.54872E+06,   1.54872E+06
C:/temp/Job-5.odb,Step-1,Increment      1: Step Time =    1.000,"P-5-1",          1324,       152.819,       12.4968,            0.,NA,NA,"",   1.06796E+06,   1.05370E+06,   1.05370E+06
C:/temp/Job-5.odb,Step-1,Increment      1: Step Time =    1.000,"P-5-1",          1325,       11.7567,       45.6934,            0.,NA,NA,"",   995.624E+03,   1.07299E+06,   1.07299E+06
C:/temp/Job-5.odb,Step-1,Increment      1: Step Time =    1.000,"P-5-1",          1326,       151.026,       128.676,            0.,NA,NA,"",   1.48500E+06,   1.15571E+06,   1.15571E+06
C:/temp/Job-5.odb,Step-1,Increment      1: Step Time =    1.000,"P-5-1",          1327,       68.8586,       157.078,            0.,NA,NA,"",   1.77921E+06,   1.69162E+06,   1.69162E+06
C:/temp/Job-5.odb,Step-1,Increment      1: Step Time =    1.000,"P-5-1",          1328,       48.3225,       72.1784,            0.,NA,NA,"",   779.725E+03,   611.168E+03,   611.168E+03
C:/temp/Job-5.odb,Step-1,Increment      1: Step Time =    1.000,"P-5-1",          1329,       130.817,       46.9916,            0.,NA,NA,"",   1.81598E+06,   1.80681E+06,   1.80681E+06
C:/temp/Job-5.odb,Step-1,Increment      1: Step Time =    1.000,"P-5-1",          1330,       26.4972,       27.5998,            0.,NA,NA,"",   1.47732E+06,   1.47912E+06,   1.47912E+06
C:/temp/Job-5.odb,Step-1,Increment      1: Step Time =    1.000,"P-5-1",          1331,       25.6243,       174.256,            0.,NA,NA,"",   1.51029E+06,   1.51624E+06,   1.51624E+06
C:/temp/Job-5.odb,Step-1,Increment      1: Step Time =    1.000,"P-5-1",          1332,       161.758,       113.742,            0.,NA,NA,"",   831.464E+03,   685.553E+03,   685.553E+03
C:/temp/Job-5.odb,Step-1,Increment      1: Step Time =    1.000,"P-5-1",          1333,       85.9102,       163.215,            0.,NA,NA,"",   1.72077E+06,   1.77549E+06,   1.77549E+06
C:/temp/Job-5.odb,Step-1,Increment      1: Step Time =    1.000,"P-5-1",          1334,       38.6279,       167.428,            0.,NA,NA,"",   1.51413E+06,   1.45848E+06,   1.45848E+06
C:/temp/Job-5.odb,Step-1,Increment      1: Step Time =    1.000,"P-5-1",          1335,       167.923,       37.6041,            0.,NA,NA,"",   1.28924E+06,   1.24102E+06,   1.24102E+06
C:/temp/Job-5.odb,Step-1,Increment      1: Step Time =    1.000,"P-5-1",          1336,       168.170,       164.180,            0.,NA,NA,"",   1.26820E+06,   1.22417E+06,   1.22417E+06
C:/temp/Job-5.odb,Step-1,Increment      1: Step Time =    1.000,"P-5-1",          1337,       164.179,       168.247,            0.,NA,NA,"",   1.27917E+06,   1.23108E+06,   1.23108E+06
C:/temp/Job-5.odb,Step-1,Increment      1: Step Time =    1.000,"P-5-1",          1338,       36.3876,       38.9886,            0.,NA,NA,"",   1.41947E+06,   1.36583E+06,   1.36583E+06
C:/temp/Job-5.odb,Step-1,Increment      1: Step Time =    1.000,"P-5-1",          1339,       35.6873,       34.7249,            0.,NA,NA,"",   1.45797E+06,   1.41400E+06,   1.41400E+06
C:/temp/Job-5.odb,Step-1,Increment      1: Step Time =    1.000,"P-5-1",          1340,       165.616,       33.6872,            0.,NA,NA,"",   1.27701E+06,   1.23043E+06,   1.23043E+06
C:/temp/Job-5.odb,Step-1,Increment      1: Step Time =    1.000,"P-5-1",          1341,       35.2821,       164.054,            0.,NA,NA,"",   1.44171E+06,   1.39566E+06,   1.39566E+06
C:/temp/Job-5.odb,Step-1,Increment      1: Step Time =    1.000,"P-5-1",          1342,       158.525,       111.302,            0.,NA,NA,"",   736.016E+03,   519.016E+03,   519.016E+03
C:/temp/Job-5.odb,Step-1,Increment      1: Step Time =    1.000,"P-5-1",          1343,       88.6555,       157.848,            0.,NA,NA,"",    1.8651E+06,   1.95530E+06,   1.95530E+06
C:/temp/Job-5.odb,Step-1,Increment      1: Step Time =    1.000,"P-5-1",          1344,       34.5468,       154.015,            0.,NA,NA,"",   1.28089E+06,   1.23078E+06,   1.23078E+06
C:/temp/Job-5.odb,Step-1,Increment      1: Step Time =    1.000,"P-5-1",          1345,       170.809,       47.9214,            0.,NA,NA,"",   1.31010E+06,   1.25679E+06,   1.25679E+06
C:/temp/Job-5.odb,Step-1,Increment      1: Step Time =    1.000,"P-5-1",          1346,       150.641,       167.752,            0.,NA,NA,"",   1.41162E+06,   1.34522E+06,   1.34522E+06
C:/temp/Job-5.odb,Step-1,Increment      1: Step Time =    1.000,"P-5-1",          1347,       49.0104,       28.8494,            0.,NA,NA,"",   1.60288E+06,   1.52767E+06,   1.52767E+06
C:/temp/Job-5.odb,Step-1,Increment      1: Step Time =    1.000,"P-5-1",          1348,       164.006,       163.763,            0.,NA,NA,"",   1.32661E+06,   1.26623E+06,   1.26623E+06
C:/temp/Job-5.odb,Step-1,Increment      1: Step Time =    1.000,"P-5-1",          1349,       164.137,       40.2730,            0.,NA,NA,"",   1.37311E+06,   1.29925E+06,   1.29925E+06
C:/temp/Job-5.odb,Step-1,Increment      1: Step Time =    1.000,"P-5-1",          1350,       39.8221,       37.7725,            0.,NA,NA,"",   1.46778E+06,   1.40007E+06,   1.40007E+06
C:/temp/Job-5.odb,Step-1,Increment      1: Step Time =    1.000,"P-5-1",          1351,       39.6107,       147.328,            0.,NA,NA,"",   1.22477E+06,   1.14201E+06,   1.14201E+06
C:/temp/Job-5.odb,Step-1,Increment      1: Step Time =    1.000,"P-5-1",          1352,       142.768,       161.862,            0.,NA,NA,"",   1.57834E+06,   1.50336E+06,   1.50336E+06
C:/temp/Job-5.odb,Step-1,Increment      1: Step Time =    1.000,"P-5-1",          1353,       54.1957,       34.4650,            0.,NA,NA,"",   1.63887E+06,   1.53951E+06,   1.53951E+06
C:/temp/Job-5.odb,Step-1,Increment      1: Step Time =    1.000,"P-5-1",          1354,       161.638,       58.6338,            0.,NA,NA,"",   1.51586E+06,   1.35089E+06,   1.35089E+06
C:/temp/Job-5.odb,Step-1,Increment      1: Step Time =    1.000,"P-5-1",          1355,       169.612,       151.491,            0.,NA,NA,"",   1.34017E+06,   1.27611E+06,   1.27611E+06
C:/temp/Job-5.odb,Step-1,Increment      1: Step Time =    1.000,"P-5-1",          1356,       31.2585,       48.2724,            0.,NA,NA,"",   1.18071E+06,   1.15078E+06,   1.15078E+06
C:/temp/Job-5.odb,Step-1,Increment      1: Step Time =    1.000,"P-5-1",          1357,       150.426,       30.7145,            0.,NA,NA,"",   1.39962E+06,   1.33714E+06,   1.33714E+06
C:/temp/Job-5.odb,Step-1,Increment      1: Step Time =    1.000,"P-5-1",          1358,       47.5852,       170.437,            0.,NA,NA,"",   1.59807E+06,   1.52296E+06,   1.52296E+06
C:/temp/Job-5.odb,Step-1,Increment      1: Step Time =    1.000,"P-5-1",          1359,       176.944,       157.701,            0.,NA,NA,"",   1.17945E+06,   1.17148E+06,   1.17148E+06
C:/temp/Job-5.odb,Step-1,Increment      1: Step Time =    1.000,"P-5-1",          1360,       159.252,       24.7752,            0.,NA,NA,"",   1.22933E+06,   1.19169E+06,   1.19169E+06
C:/temp/Job-5.odb,Step-1,Increment      1: Step Time =    1.000,"P-5-1",          1361,       89.4932,       166.319,            0.,NA,NA,"",   1.62650E+06,   1.69310E+06,   1.69310E+06
C:/temp/Job-5.odb,Step-1,Increment      1: Step Time =    1.000,"P-5-1",          1362,       43.5444,       59.8344,            0.,NA,NA,"",   1.11540E+06,   1.00129E+06,   1.00129E+06
C:/temp/Job-5.odb,Step-1,Increment      1: Step Time =    1.000,"P-5-1",          1363,       50.4345,       67.8397,            0.,NA,NA,"",   962.400E+03,   790.307E+03,   790.307E+03
C:/temp/Job-5.odb,Step-1,Increment      1: Step Time =    1.000,"P-5-1",          1364,       59.7951,       155.085,            0.,NA,NA,"",   1.67991E+06,   1.55400E+06,   1.55400E+06
C:/temp/Job-5.odb,Step-1,Increment      1: Step Time =    1.000,"P-5-1",          1365,       67.6103,       151.367,            0.,NA,NA,"",   1.75140E+06,   1.64859E+06,   1.64859E+06
C:/temp/Job-5.odb,Step-1,Increment      1: Step Time =    1.000,"P-5-1",          1366,       138.881,       45.6045,            0.,NA,NA,"",   1.74172E+06,   1.65405E+06,   1.65405E+06
C:/temp/Job-5.odb,Step-1,Increment      1: Step Time =    1.000,"P-5-1",          1367,       131.571,       51.0057,            0.,NA,NA,"",   1.87238E+06,   1.84656E+06,   1.84656E+06
C:/temp/Job-5.odb,Step-1,Increment      1: Step Time =    1.000,"P-5-1",          1368,       148.360,       133.477,            0.,NA,NA,"",   1.63119E+06,   1.33602E+06,   1.33602E+06
C:/temp/Job-5.odb,Step-1,Increment      1: Step Time =    1.000,"P-5-1",          1369,       156.219,       139.448,            0.,NA,NA,"",   1.60855E+06,   1.39157E+06,   1.39157E+06
C:/temp/Job-5.odb,Step-1,Increment      1: Step Time =    1.000,"P-5-1",          1370,       66.3573,       160.679,            0.,NA,NA,"",   1.74683E+06,   1.65283E+06,   1.65283E+06
C:/temp/Job-5.odb,Step-1,Increment      1: Step Time =    1.000,"P-5-1",          1371,       156.195,       131.368,            0.,NA,NA,"",   1.50478E+06,   1.23928E+06,   1.23928E+06
C:/temp/Job-5.odb,Step-1,Increment      1: Step Time =    1.000,"P-5-1",          1372,       43.9843,       69.8371,            0.,NA,NA,"",   818.514E+03,   691.373E+03,   691.373E+03
C:/temp/Job-5.odb,Step-1,Increment      1: Step Time =    1.000,"P-5-1",          1373,       134.728,       41.9732,            0.,NA,NA,"",   1.70092E+06,   1.66169E+06,   1.66169E+06
C:/temp/Job-5.odb,Step-1,Increment      1: Step Time =    1.000,"P-5-1",          1374,       184.600,       184.404,            0.,NA,NA,"",   1.01924E+06,   1.02283E+06,   1.02283E+06
C:/temp/Job-5.odb,Step-1,Increment      1: Step Time =    1.000,"P-5-1",          1375,       183.999,       15.6781,            0.,NA,NA,"",   1.02170E+06,   1.02488E+06,   1.02488E+06
C:/temp/Job-5.odb,Step-1,Increment      1: Step Time =    1.000,"P-5-1",          1376,       16.0901,       14.7677,            0.,NA,NA,"",   1.66764E+06,   1.70549E+06,   1.70549E+06
C:/temp/Job-5.odb,Step-1,Increment      1: Step Time =    1.000,"P-5-1",          1377,       189.297,       15.6338,            0.,NA,NA,"",   1.00910E+06,   1.01306E+06,   1.01306E+06
C:/temp/Job-5.odb,Step-1,Increment      1: Step Time =    1.000,"P-5-1",          1378,       184.567,       189.520,            0.,NA,NA,"",   1.01010E+06,   1.01177E+06,   1.01177E+06
C:/temp/Job-5.odb,Step-1,Increment      1: Step Time =    1.000,"P-5-1",          1379,       15.6619,       9.98307,            0.,NA,NA,"",   1.77031E+06,   1.79227E+06,   1.79227E+06
C:/temp/Job-5.odb,Step-1,Increment      1: Step Time =    1.000,"P-5-1",          1380,       10.1168,       184.620,            0.,NA,NA,"",   1.60863E+06,   1.69693E+06,   1.69693E+06
C:/temp/Job-5.odb,Step-1,Increment      1: Step Time =    1.000,"P-5-1",          1381,       36.9164,       150.564,            0.,NA,NA,"",   1.24789E+06,   1.18309E+06,   1.18309E+06
C:/temp/Job-5.odb,Step-1,Increment      1: Step Time =    1.000,"P-5-1",          1382,       162.728,       53.8080,            0.,NA,NA,"",   1.49144E+06,   1.35673E+06,   1.35673E+06
C:/temp/Job-5.odb,Step-1,Increment      1: Step Time =    1.000,"P-5-1",          1383,       149.613,       163.156,            0.,NA,NA,"",   1.50912E+06,   1.42315E+06,   1.42315E+06
C:/temp/Job-5.odb,Step-1,Increment      1: Step Time =    1.000,"P-5-1",          1384,       49.0497,       34.2505,            0.,NA,NA,"",   1.59616E+06,   1.50482E+06,   1.50482E+06
C:/temp/Job-5.odb,Step-1,Increment      1: Step Time =    1.000,"P-5-1",          1385,       159.549,       163.455,            0.,NA,NA,"",   1.38879E+06,   1.31368E+06,   1.31368E+06
C:/temp/Job-5.odb,Step-1,Increment      1: Step Time =    1.000,"P-5-1",          1386,       165.851,       46.5040,            0.,NA,NA,"",   1.39705E+06,   1.31054E+06,   1.31054E+06
C:/temp/Job-5.odb,Step-1,Increment      1: Step Time =    1.000,"P-5-1",          1387,       37.9563,       157.816,            0.,NA,NA,"",   1.38833E+06,   1.32171E+06,   1.32171E+06
C:/temp/Job-5.odb,Step-1,Increment      1: Step Time =    1.000,"P-5-1",          1388,       39.7381,       34.1248,            0.,NA,NA,"",   1.50222E+06,   1.44019E+06,   1.44019E+06
C:/temp/Job-5.odb,Step-1,Increment      1: Step Time =    1.000,"P-5-1",          1389,       167.613,       59.7550,            0.,NA,NA,"",   1.39525E+06,   1.28641E+06,   1.28641E+06
C:/temp/Job-5.odb,Step-1,Increment      1: Step Time =    1.000,"P-5-1",          1390,       35.0812,       140.056,            0.,NA,NA,"",   969.078E+03,   913.629E+03,   913.629E+03
C:/temp/Job-5.odb,Step-1,Increment      1: Step Time =    1.000,"P-5-1",          1391,       54.8123,       69.9127,            0.,NA,NA,"",   895.672E+03,   699.300E+03,   699.300E+03
C:/temp/Job-5.odb,Step-1,Increment      1: Step Time =    1.000,"P-5-1",          1392,       69.2958,       147.258,            0.,NA,NA,"",   1.72691E+06,   1.63601E+06,   1.63601E+06
C:/temp/Job-5.odb,Step-1,Increment      1: Step Time =    1.000,"P-5-1",          1393,       133.200,       54.7782,            0.,NA,NA,"",   1.88396E+06,   1.82373E+06,   1.82373E+06
C:/temp/Job-5.odb,Step-1,Increment      1: Step Time =    1.000,"P-5-1",          1394,       144.194,       130.854,            0.,NA,NA,"",   1.53351E+06,   1.23573E+06,   1.23573E+06
C:/temp/Job-5.odb,Step-1,Increment      1: Step Time =    1.000,"P-5-1",          1395,       69.0712,       162.526,            0.,NA,NA,"",   1.75468E+06,   1.67674E+06,   1.67674E+06
C:/temp/Job-5.odb,Step-1,Increment      1: Step Time =    1.000,"P-5-1",          1396,       162.308,       129.859,            0.,NA,NA,"",   1.37737E+06,   1.18727E+06,   1.18727E+06
C:/temp/Job-5.odb,Step-1,Increment      1: Step Time =    1.000,"P-5-1",          1397,       130.219,       38.2541,            0.,NA,NA,"",   1.62538E+06,   1.63302E+06,   1.63302E+06
C:/temp/Job-5.odb,Step-1,Increment      1: Step Time =    1.000,"P-5-1",          1398,       37.9148,       43.7949,            0.,NA,NA,"",   1.36201E+06,   1.29505E+06,   1.29505E+06
C:/temp/Job-5.odb,Step-1,Increment      1: Step Time =    1.000,"P-5-1",          1399,       39.9888,       161.244,            0.,NA,NA,"",   1.45635E+06,   1.38456E+06,   1.38456E+06
C:/temp/Job-5.odb,Step-1,Increment      1: Step Time =    1.000,"P-5-1",          1400,       160.373,       36.3827,            0.,NA,NA,"",   1.37848E+06,   1.30593E+06,   1.30593E+06
C:/temp/Job-5.odb,Step-1,Increment      1: Step Time =    1.000,"P-5-1",          1401,       164.884,       159.136,            0.,NA,NA,"",   1.35971E+06,   1.28950E+06,   1.28950E+06
C:/temp/Job-5.odb,Step-1,Increment      1: Step Time =    1.000,"P-5-1",          1402,       155.114,       35.3585,            0.,NA,NA,"",   1.43378E+06,   1.35366E+06,   1.35366E+06
C:/temp/Job-5.odb,Step-1,Increment      1: Step Time =    1.000,"P-5-1",          1403,       45.3600,       167.597,            0.,NA,NA,"",   1.57472E+06,   1.49847E+06,   1.49847E+06
C:/temp/Job-5.odb,Step-1,Increment      1: Step Time =    1.000,"P-5-1",          1404,       163.113,       152.894,            0.,NA,NA,"",   1.44410E+06,   1.34227E+06,   1.34227E+06
C:/temp/Job-5.odb,Step-1,Increment      1: Step Time =    1.000,"P-5-1",          1405,       36.2404,       49.2120,            0.,NA,NA,"",   1.23378E+06,   1.17328E+06,   1.17328E+06
C:/temp/Job-5.odb,Step-1,Increment      1: Step Time =    1.000,"P-5-1",          1406,       154.789,       171.658,            0.,NA,NA,"",   1.31124E+06,   1.25959E+06,   1.25959E+06
C:/temp/Job-5.odb,Step-1,Increment      1: Step Time =    1.000,"P-5-1",          1407,       26.7333,       152.539,            0.,NA,NA,"",   1.13565E+06,   1.13158E+06,   1.13158E+06
C:/temp/Job-5.odb,Step-1,Increment      1: Step Time =    1.000,"P-5-1",          1408,       164.076,       50.5554,            0.,NA,NA,"",   1.45193E+06,   1.33986E+06,   1.33986E+06
C:/temp/Job-5.odb,Step-1,Increment      1: Step Time =    1.000,"P-5-1",          1409,       43.9918,       34.0202,            0.,NA,NA,"",   1.55046E+06,   1.47173E+06,   1.47173E+06
C:/temp/Job-5.odb,Step-1,Increment      1: Step Time =    1.000,"P-5-1",          1410,       154.872,       163.217,            0.,NA,NA,"",   1.45252E+06,   1.36740E+06,   1.36740E+06
C:/temp/Job-5.odb,Step-1,Increment      1: Step Time =    1.000,"P-5-1",          1411,       37.2188,       154.913,            0.,NA,NA,"",   1.33319E+06,   1.26958E+06,   1.26958E+06
C:/temp/Job-5.odb,Step-1,Increment      1: Step Time =    1.000,"P-5-1",          1412,       160.257,       126.183,            0.,NA,NA,"",   1.33395E+06,   1.10611E+06,   1.10611E+06
C:/temp/Job-5.odb,Step-1,Increment      1: Step Time =    1.000,"P-5-1",          1413,       71.4990,       165.072,            0.,NA,NA,"",   1.73726E+06,   1.67487E+06,   1.67487E+06
C:/temp/Job-5.odb,Step-1,Increment      1: Step Time =    1.000,"P-5-1",          1414,       125.383,       34.7299,            0.,NA,NA,"",   1.52877E+06,   1.57432E+06,   1.57432E+06
C:/temp/Job-5.odb,Step-1,Increment      1: Step Time =    1.000,"P-5-1",          1415,       37.6365,       71.4919,            0.,NA,NA,"",   687.711E+03,   619.923E+03,   619.923E+03
C:/temp/Job-5.odb,Step-1,Increment      1: Step Time =    1.000,"P-5-1",          1416,       154.126,       39.3582,            0.,NA,NA,"",   1.49096E+06,   1.39552E+06,   1.39552E+06
C:/temp/Job-5.odb,Step-1,Increment      1: Step Time =    1.000,"P-5-1",          1417,       45.8515,       162.140,            0.,NA,NA,"",   1.54019E+06,   1.44844E+06,   1.44844E+06
C:/temp/Job-5.odb,Step-1,Increment      1: Step Time =    1.000,"P-5-1",          1418,       41.8024,       46.9378,            0.,NA,NA,"",   1.36517E+06,   1.27255E+06,   1.27255E+06
C:/temp/Job-5.odb,Step-1,Increment      1: Step Time =    1.000,"P-5-1",          1419,       68.0714,       168.021,            0.,NA,NA,"",   1.69665E+06,   1.62327E+06,   1.62327E+06
C:/temp/Job-5.odb,Step-1,Increment      1: Step Time =    1.000,"P-5-1",          1420,       129.946,       33.6640,            0.,NA,NA,"",   1.51707E+06,   1.52818E+06,   1.52818E+06
C:/temp/Job-5.odb,Step-1,Increment      1: Step Time =    1.000,"P-5-1",          1421,       159.946,       49.4563,            0.,NA,NA,"",   1.52395E+06,   1.39067E+06,   1.39067E+06
C:/temp/Job-5.odb,Step-1,Increment      1: Step Time =    1.000,"P-5-1",          1422,       39.5467,       152.639,            0.,NA,NA,"",   1.32689E+06,   1.25011E+06,   1.25011E+06
C:/temp/Job-5.odb,Step-1,Increment      1: Step Time =    1.000,"P-5-1",          1423,       49.4112,       39.6722,            0.,NA,NA,"",   1.57559E+06,   1.46796E+06,   1.46796E+06
C:/temp/Job-5.odb,Step-1,Increment      1: Step Time =    1.000,"P-5-1",          1424,       150.045,       158.900,            0.,NA,NA,"",   1.57331E+06,   1.46617E+06,   1.46617E+06
C:/temp/Job-5.odb,Step-1,Increment      1: Step Time =    1.000,"P-5-1",          1425,       150.507,       39.8824,            0.,NA,NA,"",   1.53679E+06,   1.43799E+06,   1.43799E+06
C:/temp/Job-5.odb,Step-1,Increment      1: Step Time =    1.000,"P-5-1",          1426,       50.2624,       163.817,            0.,NA,NA,"",   1.59880E+06,   1.49960E+06,   1.49960E+06
C:/temp/Job-5.odb,Step-1,Increment      1: Step Time =    1.000,"P-5-1",          1427,       162.162,       146.668,            0.,NA,NA,"",   1.49495E+06,   1.36107E+06,   1.36107E+06
C:/temp/Job-5.odb,Step-1,Increment      1: Step Time =    1.000,"P-5-1",          1428,       40.2495,       50.0551,            0.,NA,NA,"",   1.28359E+06,   1.19802E+06,   1.19802E+06
C:/temp/Job-5.odb,Step-1,Increment      1: Step Time =    1.000,"P-5-1",          1429,       151.215,       44.1825,            0.,NA,NA,"",   1.60082E+06,   1.47687E+06,   1.47687E+06
C:/temp/Job-5.odb,Step-1,Increment      1: Step Time =    1.000,"P-5-1",          1430,       50.3681,       158.256,            0.,NA,NA,"",   1.57100E+06,   1.45476E+06,   1.45476E+06
C:/temp/Job-5.odb,Step-1,Increment      1: Step Time =    1.000,"P-5-1",          1431,       43.1260,       49.6686,            0.,NA,NA,"",   1.34332E+06,   1.23772E+06,   1.23772E+06
C:/temp/Job-5.odb,Step-1,Increment      1: Step Time =    1.000,"P-5-1",          1432,       155.708,       48.7664,            0.,NA,NA,"",   1.59460E+06,   1.44650E+06,   1.44650E+06
C:/temp/Job-5.odb,Step-1,Increment      1: Step Time =    1.000,"P-5-1",          1433,       44.6122,       152.375,            0.,NA,NA,"",   1.40826E+06,   1.30257E+06,   1.30257E+06
C:/temp/Job-5.odb,Step-1,Increment      1: Step Time =    1.000,"P-5-1",          1434,       50.2963,       44.6373,            0.,NA,NA,"",   1.53679E+06,   1.41473E+06,   1.41473E+06
C:/temp/Job-5.odb,Step-1,Increment      1: Step Time =    1.000,"P-5-1",          1435,       149.039,       154.899,            0.,NA,NA,"",   1.64382E+06,   1.51514E+06,   1.51514E+06
C:/temp/Job-5.odb,Step-1,Increment      1: Step Time =    1.000,"P-5-1",          1436,       134.737,       37.4362,            0.,NA,NA,"",   1.60347E+06,   1.57531E+06,   1.57531E+06
C:/temp/Job-5.odb,Step-1,Increment      1: Step Time =    1.000,"P-5-1",          1437,       65.3351,       164.807,            0.,NA,NA,"",   1.71828E+06,   1.62914E+06,   1.62914E+06
C:/temp/Job-5.odb,Step-1,Increment      1: Step Time =    1.000,"P-5-1",          1438,       39.4351,       67.3569,            0.,NA,NA,"",   834.864E+03,   749.002E+03,   749.002E+03
C:/temp/Job-5.odb,Step-1,Increment      1: Step Time =    1.000,"P-5-1",          1439,       162.372,       134.251,            0.,NA,NA,"",   1.45150E+06,   1.26740E+06,   1.26740E+06
C:/temp/Job-5.odb,Step-1,Increment      1: Step Time =    1.000,"P-5-1",          1440,       145.274,       35.3037,            0.,NA,NA,"",   1.50895E+06,   1.43668E+06,   1.43668E+06
C:/temp/Job-5.odb,Step-1,Increment      1: Step Time =    1.000,"P-5-1",          1441,       164.272,       144.453,            0.,NA,NA,"",   1.46418E+06,   1.33636E+06,   1.33636E+06
C:/temp/Job-5.odb,Step-1,Increment      1: Step Time =    1.000,"P-5-1",          1442,       56.8114,       161.896,            0.,NA,NA,"",   1.66798E+06,   1.55723E+06,   1.55723E+06
C:/temp/Job-5.odb,Step-1,Increment      1: Step Time =    1.000,"P-5-1",          1443,       134.886,       46.0827,            0.,NA,NA,"",   1.77699E+06,   1.72330E+06,   1.72330E+06
C:/temp/Job-5.odb,Step-1,Increment      1: Step Time =    1.000,"P-5-1",          1444,       152.602,       136.090,            0.,NA,NA,"",   1.64232E+06,   1.38006E+06,   1.38006E+06
C:/temp/Job-5.odb,Step-1,Increment      1: Step Time =    1.000,"P-5-1",          1445,       46.0083,       65.7926,            0.,NA,NA,"",   977.954E+03,   839.902E+03,   839.902E+03
C:/temp/Job-5.odb,Step-1,Increment      1: Step Time =    1.000,"P-5-1",          1446,       65.4670,       155.277,            0.,NA,NA,"",   1.75036E+06,   1.63960E+06,   1.63960E+06
C:/temp/Job-5.odb,Step-1,Increment      1: Step Time =    1.000,"P-5-1",          1447,       153.661,       148.694,            0.,NA,NA,"",   1.64358E+06,   1.47311E+06,   1.47311E+06
C:/temp/Job-5.odb,Step-1,Increment      1: Step Time =    1.000,"P-5-1",          1448,       146.682,       49.3199,            0.,NA,NA,"",   1.71908E+06,   1.57053E+06,   1.57053E+06
C:/temp/Job-5.odb,Step-1,Increment      1: Step Time =    1.000,"P-5-1",          1449,       49.9262,       153.750,            0.,NA,NA,"",   1.51506E+06,   1.38798E+06,   1.38798E+06
C:/temp/Job-5.odb,Step-1,Increment      1: Step Time =    1.000,"P-5-1",          1450,       46.4023,       52.9921,            0.,NA,NA,"",   1.34096E+06,   1.21617E+06,   1.21617E+06
C:/temp/Job-5.odb,Step-1,Increment      1: Step Time =    1.000,"P-5-1",          1451,       61.3268,       163.380,            0.,NA,NA,"",   1.70224E+06,   1.59949E+06,   1.59949E+06
C:/temp/Job-5.odb,Step-1,Increment      1: Step Time =    1.000,"P-5-1",          1452,       139.026,       37.1489,            0.,NA,NA,"",   1.58783E+06,   1.53181E+06,   1.53181E+06
C:/temp/Job-5.odb,Step-1,Increment      1: Step Time =    1.000,"P-5-1",          1453,       165.623,       136.197,            0.,NA,NA,"",   1.41494E+06,   1.27126E+06,   1.27126E+06
C:/temp/Job-5.odb,Step-1,Increment      1: Step Time =    1.000,"P-5-1",          1454,       37.5273,       61.1053,            0.,NA,NA,"",   982.102E+03,   909.103E+03,   909.103E+03
C:/temp/Job-5.odb,Step-1,Increment      1: Step Time =    1.000,"P-5-1",          1455,       148.299,       150.486,            0.,NA,NA,"",   1.70697E+06,   1.54891E+06,   1.54891E+06
C:/temp/Job-5.odb,Step-1,Increment      1: Step Time =    1.000,"P-5-1",          1456,       48.3829,       149.684,            0.,NA,NA,"",   1.42122E+06,   1.29291E+06,   1.29291E+06
C:/temp/Job-5.odb,Step-1,Increment      1: Step Time =    1.000,"P-5-1",          1457,       50.7961,       49.2868,            0.,NA,NA,"",   1.47965E+06,   1.34484E+06,   1.34484E+06
C:/temp/Job-5.odb,Step-1,Increment      1: Step Time =    1.000,"P-5-1",          1458,       150.491,       53.6940,            0.,NA,NA,"",   1.70836E+06,   1.51939E+06,   1.51939E+06
C:/temp/Job-5.odb,Step-1,Increment      1: Step Time =    1.000,"P-5-1",          1459,       142.674,       41.3122,            0.,NA,NA,"",   1.63780E+06,   1.54886E+06,   1.54886E+06
C:/temp/Job-5.odb,Step-1,Increment      1: Step Time =    1.000,"P-5-1",          1460,       39.4797,       57.6908,            0.,NA,NA,"",   1.09981E+06,   1.01430E+06,   1.01430E+06
C:/temp/Job-5.odb,Step-1,Increment      1: Step Time =    1.000,"P-5-1",          1461,       159.446,       143.157,            0.,NA,NA,"",   1.55539E+06,   1.38318E+06,   1.38318E+06
C:/temp/Job-5.odb,Step-1,Increment      1: Step Time =    1.000,"P-5-1",          1462,       140.342,       31.9379,            0.,NA,NA,"",   1.46635E+06,   1.42154E+06,   1.42154E+06
C:/temp/Job-5.odb,Step-1,Increment      1: Step Time =    1.000,"P-5-1",          1463,       56.8304,       166.280,            0.,NA,NA,"",   1.66173E+06,   1.56304E+06,   1.56304E+06
C:/temp/Job-5.odb,Step-1,Increment      1: Step Time =    1.000,"P-5-1",          1464,       34.0319,       59.3619,            0.,NA,NA,"",   967.746E+03,   922.264E+03,   922.264E+03
C:/temp/Job-5.odb,Step-1,Increment      1: Step Time =    1.000,"P-5-1",          1465,       163.368,       140.437,            0.,NA,NA,"",   1.48108E+06,   1.33005E+06,   1.33005E+06
C:/temp/Job-5.odb,Step-1,Increment      1: Step Time =    1.000,"P-5-1",          1466,       54.3455,       152.027,            0.,NA,NA,"",   1.56527E+06,   1.42741E+06,   1.42741E+06
C:/temp/Job-5.odb,Step-1,Increment      1: Step Time =    1.000,"P-5-1",          1467,       45.1175,       56.3715,            0.,NA,NA,"",   1.23622E+06,   1.11561E+06,   1.11561E+06
C:/temp/Job-5.odb,Step-1,Increment      1: Step Time =    1.000,"P-5-1",          1468,       153.226,       142.743,            0.,NA,NA,"",   1.67093E+06,   1.45801E+06,   1.45801E+06
C:/temp/Job-5.odb,Step-1,Increment      1: Step Time =    1.000,"P-5-1",          1469,       142.799,       45.2970,            0.,NA,NA,"",   1.70369E+06,   1.59409E+06,   1.59409E+06
C:/temp/Job-5.odb,Step-1,Increment      1: Step Time =    1.000,"P-5-1",          1470,       25.7493,       9.72998,            0.,NA,NA,"",   1.70690E+06,   1.70737E+06,   1.70737E+06
C:/temp/Job-5.odb,Step-1,Increment      1: Step Time =    1.000,"P-5-1",          1471,       9.95281,       174.451,            0.,NA,NA,"",   1.35763E+06,   1.45791E+06,   1.45791E+06
C:/temp/Job-5.odb,Step-1,Increment      1: Step Time =    1.000,"P-5-1",          1472,       189.825,       26.1571,            0.,NA,NA,"",   1.01059E+06,   1.02522E+06,   1.02522E+06
C:/temp/Job-5.odb,Step-1,Increment      1: Step Time =    1.000,"P-5-1",          1473,       174.083,       190.049,            0.,NA,NA,"",   1.02661E+06,   1.02462E+06,   1.02462E+06
C:/temp/Job-5.odb,Step-1,Increment      1: Step Time =    1.000,"P-5-1",          1474,       157.767,       104.778,            0.,NA,NA,"",   482.091E+03,   28.4484E+03,   28.4484E+03
C:/temp/Job-5.odb,Step-1,Increment      1: Step Time =    1.000,"P-5-1",          1475,       54.2867,       81.3487,            0.,NA,NA,"",   491.137E+03,  -380.863E+03,  -380.863E+03
C:/temp/Job-5.odb,Step-1,Increment      1: Step Time =    1.000,"P-5-1",          1476,       122.894,       53.7403,            0.,NA,NA,"",   2.11990E+06,   2.20367E+06,   2.20367E+06
C:/temp/Job-5.odb,Step-1,Increment      1: Step Time =    1.000,"P-5-1",          1477,       79.4026,       146.688,            0.,NA,NA,"",   1.94750E+06,   1.97882E+06,   1.97882E+06
C:/temp/Job-5.odb,Step-1,Increment      1: Step Time =    1.000,"P-5-1",          1478,       145.235,       118.819,            0.,NA,NA,"",   987.206E+03,  -296.361E+03,  -296.361E+03
C:/temp/Job-5.odb,Step-1,Increment      1: Step Time =    1.000,"P-5-1",          1479,       108.045,       40.8211,            0.,NA,NA,"",   1.75359E+06,   1.90888E+06,   1.90888E+06
C:/temp/Job-5.odb,Step-1,Increment      1: Step Time =    1.000,"P-5-1",          1480,       75.7390,       144.775,            0.,NA,NA,"",   1.83112E+06,   1.82188E+06,   1.82188E+06
C:/temp/Job-5.odb,Step-1,Increment      1: Step Time =    1.000,"P-5-1",          1481,       56.5267,       76.7214,            0.,NA,NA,"",   577.444E+03,  -130.759E+03,  -130.759E+03
C:/temp/Job-5.odb,Step-1,Increment      1: Step Time =    1.000,"P-5-1",          1482,       142.990,       123.523,            0.,NA,NA,"",   1.10891E+06,   489.419E+03,   489.419E+03
C:/temp/Job-5.odb,Step-1,Increment      1: Step Time =    1.000,"P-5-1",          1483,       124.406,       57.1600,            0.,NA,NA,"",   2.18364E+06,   2.24784E+06,   2.24784E+06
C:/temp/Job-5.odb,Step-1,Increment      1: Step Time =    1.000,"P-5-1",          1484,       98.4770,       155.421,            0.,NA,NA,"",   1.99497E+06,   2.15630E+06,   2.15630E+06
C:/temp/Job-5.odb,Step-1,Increment      1: Step Time =    1.000,"P-5-1",          1485,       190.628,       55.3172,            0.,NA,NA,"",   965.801E+03,   1.06742E+06,   1.06742E+06
C:/temp/Job-5.odb,Step-1,Increment      1: Step Time =    1.000,"P-5-1",          1486,       55.1330,       9.68151,            0.,NA,NA,"",   1.49689E+06,   1.47903E+06,   1.47903E+06
C:/temp/Job-5.odb,Step-1,Increment      1: Step Time =    1.000,"P-5-1",          1487,       144.823,       190.153,            0.,NA,NA,"",   1.01353E+06,   1.00364E+06,   1.00364E+06
C:/temp/Job-5.odb,Step-1,Increment      1: Step Time =    1.000,"P-5-1",          1488,       9.85885,       144.954,            0.,NA,NA,"",   804.357E+03,   877.381E+03,   877.381E+03
C:/temp/Job-5.odb,Step-1,Increment      1: Step Time =    1.000,"P-5-1",          1489,       60.2849,       78.9121,            0.,NA,NA,"",   480.671E+03,  -399.305E+03,  -399.305E+03
C:/temp/Job-5.odb,Step-1,Increment      1: Step Time =    1.000,"P-5-1",          1490,       78.3733,       140.702,            0.,NA,NA,"",   1.90138E+06,   1.92619E+06,   1.92619E+06
C:/temp/Job-5.odb,Step-1,Increment      1: Step Time =    1.000,"P-5-1",          1491,       139.477,       121.158,            0.,NA,NA,"",   720.025E+03,  -42.0890E+03,  -42.0890E+03
C:/temp/Job-5.odb,Step-1,Increment      1: Step Time =    1.000,"P-5-1",          1492,       121.757,       60.0285,            0.,NA,NA,"",   2.48411E+06,   2.54974E+06,   2.54974E+06
C:/temp/Job-5.odb,Step-1,Increment      1: Step Time =    1.000,"P-5-1",          1493,       5.17464,       5.10086,            0.,NA,NA,"",   2.01404E+06,   2.09298E+06,   2.09298E+06
C:/temp/Job-5.odb,Step-1,Increment      1: Step Time =    1.000,"P-5-1",          1494,       64.8501,       130.408,            0.,NA,NA,"",   756.192E+03,   647.049E+03,   647.049E+03
C:/temp/Job-5.odb,Step-1,Increment      1: Step Time =    1.000,"P-5-1",          1495,       133.743,       129.808,            0.,NA,NA,"",   1.24456E+06,   1.18488E+06,   1.18488E+06
C:/temp/Job-5.odb,Step-1,Increment      1: Step Time =    1.000,"P-5-1",          1496,       130.491,       65.6335,            0.,NA,NA,"",   1.72574E+06,   1.70861E+06,   1.70861E+06
C:/temp/Job-5.odb,Step-1,Increment      1: Step Time =    1.000,"P-5-1",          1497,       65.7895,       70.0528,            0.,NA,NA,"",   681.331E+03,   591.182E+03,   591.182E+03
C:/temp/Job-5.odb,Step-1,Increment      1: Step Time =    1.000,"P-5-1",          1498,       191.168,       149.097,            0.,NA,NA,"",   963.026E+03,   1.05199E+06,   1.05199E+06
C:/temp/Job-5.odb,Step-1,Increment      1: Step Time =    1.000,"P-5-1",          1499,       50.7369,       190.978,            0.,NA,NA,"",   1.53635E+06,   1.52237E+06,   1.52237E+06
C:/temp/Job-5.odb,Step-1,Increment      1: Step Time =    1.000,"P-5-1",          1500,       51.5325,       112.288,            0.,NA,NA,"",   417.746E+03,  -397.849E+03,  -397.849E+03
C:/temp/Job-5.odb,Step-1,Increment      1: Step Time =    1.000,"P-5-1",          1501,       61.5970,       132.828,            0.,NA,NA,"",   1.02080E+06,   857.699E+03,   857.699E+03
C:/temp/Job-5.odb,Step-1,Increment      1: Step Time =    1.000,"P-5-1",          1502,       61.3470,       140.572,            0.,NA,NA,"",   1.39517E+06,   1.23995E+06,   1.23995E+06
C:/temp/Job-5.odb,Step-1,Increment      1: Step Time =    1.000,"P-5-1",          1503,       154.080,       90.6925,            0.,NA,NA,"",   682.447E+03,  -25.0753E+03,  -25.0753E+03
C:/temp/Job-5.odb,Step-1,Increment      1: Step Time =    1.000,"P-5-1",          1504,       39.8601,       183.997,            0.,NA,NA,"",   1.60229E+06,   1.57788E+06,   1.57788E+06
C:/temp/Job-5.odb,Step-1,Increment      1: Step Time =    1.000,"P-5-1",          1505,       111.841,       50.7042,            0.,NA,NA,"",   2.35405E+06,   2.51599E+06,   2.51599E+06
C:/temp/Job-5.odb,Step-1,Increment      1: Step Time =    1.000,"P-5-1",          1506,       185.643,       174.475,            0.,NA,NA,"",   1.03089E+06,   1.04234E+06,   1.04234E+06
C:/temp/Job-5.odb,Step-1,Increment      1: Step Time =    1.000,"P-5-1",          1507,       185.532,       169.719,            0.,NA,NA,"",   1.03650E+06,   1.05373E+06,   1.05373E+06
C:/temp/Job-5.odb,Step-1,Increment      1: Step Time =    1.000,"P-5-1",          1508,       173.681,       14.6158,            0.,NA,NA,"",   1.05423E+06,   1.04971E+06,   1.04971E+06
C:/temp/Job-5.odb,Step-1,Increment      1: Step Time =    1.000,"P-5-1",          1509,       168.721,       14.5657,            0.,NA,NA,"",   1.07051E+06,   1.06153E+06,   1.06153E+06
C:/temp/Job-5.odb,Step-1,Increment      1: Step Time =    1.000,"P-5-1",          1510,       40.5866,       102.320,            0.,NA,NA,"",   115.502E+03,  -91.3152E+03,  -91.3152E+03
C:/temp/Job-5.odb,Step-1,Increment      1: Step Time =    1.000,"P-5-1",          1511,       78.2021,       158.692,            0.,NA,NA,"",   1.82514E+06,   1.81855E+06,   1.81855E+06
C:/temp/Job-5.odb,Step-1,Increment      1: Step Time =    1.000,"P-5-1",          1512,       71.5249,       153.201,            0.,NA,NA,"",   1.80794E+06,   1.73847E+06,   1.73847E+06
C:/temp/Job-5.odb,Step-1,Increment      1: Step Time =    1.000,"P-5-1",          1513,       43.3197,       183.012,            0.,NA,NA,"",   1.58986E+06,   1.55942E+06,   1.55942E+06
C:/temp/Job-5.odb,Step-1,Increment      1: Step Time =    1.000,"P-5-1",          1514,       43.2051,       95.8231,            0.,NA,NA,"",   183.062E+03,  -178.369E+03,  -178.369E+03
C:/temp/Job-5.odb,Step-1,Increment      1: Step Time =    1.000,"P-5-1",          1515,       151.664,       80.9451,            0.,NA,NA,"",   1.10832E+06,   445.366E+03,   445.366E+03
C:/temp/Job-5.odb,Step-1,Increment      1: Step Time =    1.000,"P-5-1",          1516,       44.5179,       179.494,            0.,NA,NA,"",   1.58946E+06,   1.54692E+06,   1.54692E+06
C:/temp/Job-5.odb,Step-1,Increment      1: Step Time =    1.000,"P-5-1",          1517,       12.7363,       42.3191,            0.,NA,NA,"",   1.06347E+06,   1.13949E+06,   1.13949E+06
C:/temp/Job-5.odb,Step-1,Increment      1: Step Time =    1.000,"P-5-1",          1518,       179.209,       161.751,            0.,NA,NA,"",   1.12615E+06,   1.13058E+06,   1.13058E+06
C:/temp/Job-5.odb,Step-1,Increment      1: Step Time =    1.000,"P-5-1",          1519,       40.6665,       137.957,            0.,NA,NA,"",   1.00006E+06,   904.854E+03,   904.854E+03
C:/temp/Job-5.odb,Step-1,Increment      1: Step Time =    1.000,"P-5-1",          1520,       74.7970,       161.878,            0.,NA,NA,"",   1.77667E+06,   1.73558E+06,   1.73558E+06
C:/temp/Job-5.odb,Step-1,Increment      1: Step Time =    1.000,"P-5-1",          1521,       125.126,       156.819,            0.,NA,NA,"",   1.75801E+06,   1.81370E+06,   1.81370E+06
C:/temp/Job-5.odb,Step-1,Increment      1: Step Time =    1.000,"P-5-1",          1522,       74.1334,       42.3495,            0.,NA,NA,"",   1.81424E+06,   1.76958E+06,   1.76958E+06
C:/temp/Job-5.odb,Step-1,Increment      1: Step Time =    1.000,"P-5-1",          1523,       126.577,       48.1468,            0.,NA,NA,"",   1.87410E+06,   1.91488E+06,   1.91488E+06
C:/temp/Job-5.odb,Step-1,Increment      1: Step Time =    1.000,"P-5-1",          1524,       162.512,       85.6715,            0.,NA,NA,"",   870.046E+03,   729.400E+03,   729.400E+03
C:/temp/Job-5.odb,Step-1,Increment      1: Step Time =    1.000,"P-5-1",          1525,       153.988,       78.4484,            0.,NA,NA,"",   1.22762E+06,   883.999E+03,   883.999E+03
C:/temp/Job-5.odb,Step-1,Increment      1: Step Time =    1.000,"P-5-1",          1526,       169.254,       89.4674,            0.,NA,NA,"",   708.507E+03,   722.953E+03,   722.953E+03
C:/temp/Job-5.odb,Step-1,Increment      1: Step Time =    1.000,"P-5-1",          1527,       21.8017,       177.585,            0.,NA,NA,"",   1.54043E+06,   1.56281E+06,   1.56281E+06
C:/temp/Job-5.odb,Step-1,Increment      1: Step Time =    1.000,"P-5-1",          1528,       182.080,       144.648,            0.,NA,NA,"",   1.11564E+06,   1.15646E+06,   1.15646E+06
C:/temp/Job-5.odb,Step-1,Increment      1: Step Time =    1.000,"P-5-1",          1529,       153.128,       75.3744,            0.,NA,NA,"",   1.34404E+06,   1.00439E+06,   1.00439E+06
C:/temp/Job-5.odb,Step-1,Increment      1: Step Time =    1.000,"P-5-1",          1530,       171.822,       86.2369,            0.,NA,NA,"",   822.955E+03,   848.723E+03,   848.723E+03
C:/temp/Job-5.odb,Step-1,Increment      1: Step Time =    1.000,"P-5-1",          1531,       116.754,       40.6535,            0.,NA,NA,"",   1.70469E+06,   1.82336E+06,   1.82336E+06
C:/temp/Job-5.odb,Step-1,Increment      1: Step Time =    1.000,"P-5-1",          1532,       92.8316,       34.9895,            0.,NA,NA,"",   1.63455E+06,   1.73282E+06,   1.73282E+06
C:/temp/Job-5.odb,Step-1,Increment      1: Step Time =    1.000,"P-5-1",          1533,       86.0320,       29.9160,            0.,NA,NA,"",   1.56827E+06,   1.60414E+06,   1.60414E+06
C:/temp/Job-5.odb,Step-1,Increment      1: Step Time =    1.000,"P-5-1",          1534,       160.131,       117.233,            0.,NA,NA,"",   1.00233E+06,   792.904E+03,   792.904E+03
C:/temp/Job-5.odb,Step-1,Increment      1: Step Time =    1.000,"P-5-1",          1535,       38.8160,       141.698,            0.,NA,NA,"",   1.07030E+06,   988.999E+03,   988.999E+03
C:/temp/Job-5.odb,Step-1,Increment      1: Step Time =    1.000,"P-5-1",          1536,       20.0369,       31.2558,            0.,NA,NA,"",   1.36311E+06,   1.39982E+06,   1.39982E+06
C:/temp/Job-5.odb,Step-1,Increment      1: Step Time =    1.000,"P-5-1",          1537,       181.006,       28.9551,            0.,NA,NA,"",   1.07482E+06,   1.08010E+06,   1.08010E+06
C:/temp/Job-5.odb,Step-1,Increment      1: Step Time =    1.000,"P-5-1",          1538,       172.418,       23.0227,            0.,NA,NA,"",   1.11454E+06,   1.10296E+06,   1.10296E+06
C:/temp/Job-5.odb,Step-1,Increment      1: Step Time =    1.000,"P-5-1",          1539,       181.294,       55.6864,            0.,NA,NA,"",   1.13032E+06,   1.16526E+06,   1.16526E+06
C:/temp/Job-5.odb,Step-1,Increment      1: Step Time =    1.000,"P-5-1",          1540,       171.769,       181.537,            0.,NA,NA,"",   1.08542E+06,   1.07703E+06,   1.07703E+06
C:/temp/Job-5.odb,Step-1,Increment      1: Step Time =    1.000,"P-5-1",          1541,       177.628,       173.736,            0.,NA,NA,"",   1.09280E+06,   1.09037E+06,   1.09037E+06
C:/temp/Job-5.odb,Step-1,Increment      1: Step Time =    1.000,"P-5-1",          1542,       175.511,       163.152,            0.,NA,NA,"",   1.17231E+06,   1.15956E+06,   1.15956E+06
C:/temp/Job-5.odb,Step-1,Increment      1: Step Time =    1.000,"P-5-1",          1543,       173.767,       159.819,            0.,NA,NA,"",   1.21962E+06,   1.19462E+06,   1.19462E+06
C:/temp/Job-5.odb,Step-1,Increment      1: Step Time =    1.000,"P-5-1",          1544,       145.091,       180.386,            0.,NA,NA,"",   1.20263E+06,   1.17497E+06,   1.17497E+06
C:/temp/Job-5.odb,Step-1,Increment      1: Step Time =    1.000,"P-5-1",          1545,       49.5048,       181.406,            0.,NA,NA,"",   1.57636E+06,   1.53395E+06,   1.53395E+06
C:/temp/Job-5.odb,Step-1,Increment      1: Step Time =    1.000,"P-5-1",          1546,       28.1599,       109.345,            0.,NA,NA,"",   198.455E+03,   218.386E+03,   218.386E+03
C:/temp/Job-5.odb,Step-1,Increment      1: Step Time =    1.000,"P-5-1",          1547,       130.437,       42.7162,            0.,NA,NA,"",   1.72913E+06,   1.72967E+06,   1.72967E+06
C:/temp/Job-5.odb,Step-1,Increment      1: Step Time =    1.000,"P-5-1",          1548,       171.457,       99.9889,            0.,NA,NA,"",   517.055E+03,   593.012E+03,   593.012E+03
C:/temp/Job-5.odb,Step-1,Increment      1: Step Time =    1.000,"P-5-1",          1549,       79.9663,       167.567,            0.,NA,NA,"",   1.67609E+06,   1.67563E+06,   1.67563E+06
C:/temp/Job-5.odb,Step-1,Increment      1: Step Time =    1.000,"P-5-1",          1550,       74.2376,       167.870,            0.,NA,NA,"",   1.69335E+06,   1.65047E+06,   1.65047E+06
C:/temp/Job-5.odb,Step-1,Increment      1: Step Time =    1.000,"P-5-1",          1551,       24.5652,       24.7374,            0.,NA,NA,"",   1.50778E+06,   1.51858E+06,   1.51858E+06
C:/temp/Job-5.odb,Step-1,Increment      1: Step Time =    1.000,"P-5-1",          1552,       167.067,       155.141,            0.,NA,NA,"",   1.36055E+06,   1.28960E+06,   1.28960E+06
C:/temp/Job-5.odb,Step-1,Increment      1: Step Time =    1.000,"P-5-1",          1553,       165.472,       115.305,            0.,NA,NA,"",   893.513E+03,   810.149E+03,   810.149E+03
C:/temp/Job-5.odb,Step-1,Increment      1: Step Time =    1.000,"P-5-1",          1554,       150.784,       16.1063,            0.,NA,NA,"",   1.13188E+06,   1.10988E+06,   1.10988E+06
C:/temp/Job-5.odb,Step-1,Increment      1: Step Time =    1.000,"P-5-1",          1555,       23.0330,       172.126,            0.,NA,NA,"",   1.45613E+06,   1.47599E+06,   1.47599E+06
C:/temp/Job-5.odb,Step-1,Increment      1: Step Time =    1.000,"P-5-1",          1556,       156.476,       70.1708,            0.,NA,NA,"",   1.47292E+06,   1.20364E+06,   1.20364E+06
C:/temp/Job-5.odb,Step-1,Increment      1: Step Time =    1.000,"P-5-1",          1557,       55.1058,       54.6089,            0.,NA,NA,"",   1.45706E+06,   1.30040E+06,   1.30040E+06
C:/temp/Job-5.odb,Step-1,Increment      1: Step Time =    1.000,"P-5-1",          1558,       54.8366,       19.4604,            0.,NA,NA,"",   1.57044E+06,   1.52039E+06,   1.52039E+06
C:/temp/Job-5.odb,Step-1,Increment      1: Step Time =    1.000,"P-5-1",          1559,       176.972,       87.0424,            0.,NA,NA,"",   808.997E+03,   900.274E+03,   900.274E+03
C:/temp/Job-5.odb,Step-1,Increment      1: Step Time =    1.000,"P-5-1",          1560,       174.728,       98.4566,            0.,NA,NA,"",   577.535E+03,   666.316E+03,   666.316E+03
C:/temp/Job-5.odb,Step-1,Increment      1: Step Time =    1.000,"P-5-1",          1561,       171.934,       164.165,            0.,NA,NA,"",   1.21837E+06,   1.18983E+06,   1.18983E+06
C:/temp/Job-5.odb,Step-1,Increment      1: Step Time =    1.000,"P-5-1",          1562,       171.524,       161.506,            0.,NA,NA,"",   1.24158E+06,   1.20764E+06,   1.20764E+06
C:/temp/Job-5.odb,Step-1,Increment      1: Step Time =    1.000,"P-5-1",          1563,       168.793,       160.477,            0.,NA,NA,"",   1.28582E+06,   1.23818E+06,   1.23818E+06
C:/temp/Job-5.odb,Step-1,Increment      1: Step Time =    1.000,"P-5-1",          1564,       173.006,       177.443,            0.,NA,NA,"",   1.10698E+06,   1.09715E+06,   1.09715E+06
C:/temp/Job-5.odb,Step-1,Increment      1: Step Time =    1.000,"P-5-1",          1565,       82.5744,       170.424,            0.,NA,NA,"",   1.59865E+06,   1.61120E+06,   1.61120E+06
C:/temp/Job-5.odb,Step-1,Increment      1: Step Time =    1.000,"P-5-1",          1566,       46.4707,       154.728,            0.,NA,NA,"",   1.47532E+06,   1.36294E+06,   1.36294E+06
C:/temp/Job-5.odb,Step-1,Increment      1: Step Time =    1.000,"P-5-1",          1567,       36.5439,       145.248,            0.,NA,NA,"",   1.12416E+06,   1.05903E+06,   1.05903E+06
C:/temp/Job-5.odb,Step-1,Increment      1: Step Time =    1.000,"P-5-1",          1568,       33.4922,       143.395,            0.,NA,NA,"",   1.02501E+06,   980.987E+03,   980.987E+03
C:/temp/Job-5.odb,Step-1,Increment      1: Step Time =    1.000,"P-5-1",          1569,       176.511,       27.9217,            0.,NA,NA,"",   1.10926E+06,   1.10496E+06,   1.10496E+06
C:/temp/Job-5.odb,Step-1,Increment      1: Step Time =    1.000,"P-5-1",          1570,       155.018,       30.3453,            0.,NA,NA,"",   1.35341E+06,   1.29298E+06,   1.29298E+06
C:/temp/Job-5.odb,Step-1,Increment      1: Step Time =    1.000,"P-5-1",          1571,       93.2439,       31.3182,            0.,NA,NA,"",   1.52654E+06,   1.61251E+06,   1.61251E+06
C:/temp/Job-5.odb,Step-1,Increment      1: Step Time =    1.000,"P-5-1",          1572,       87.8458,       26.7028,            0.,NA,NA,"",   1.47276E+06,   1.50857E+06,   1.50857E+06
C:/temp/Job-5.odb,Step-1,Increment      1: Step Time =    1.000,"P-5-1",          1573,       90.4198,       27.8980,            0.,NA,NA,"",   1.47660E+06,   1.53558E+06,   1.53558E+06
C:/temp/Job-5.odb,Step-1,Increment      1: Step Time =    1.000,"P-5-1",          1574,       33.4880,       131.755,            0.,NA,NA,"",   724.559E+03,   687.331E+03,   687.331E+03
C:/temp/Job-5.odb,Step-1,Increment      1: Step Time =    1.000,"P-5-1",          1575,       31.2757,       139.028,            0.,NA,NA,"",   893.033E+03,   865.022E+03,   865.022E+03
C:/temp/Job-5.odb,Step-1,Increment      1: Step Time =    1.000,"P-5-1",          1576,       23.0152,       37.0399,            0.,NA,NA,"",   1.29079E+06,   1.31015E+06,   1.31015E+06
C:/temp/Job-5.odb,Step-1,Increment      1: Step Time =    1.000,"P-5-1",          1577,       168.288,       141.974,            0.,NA,NA,"",   1.38793E+06,   1.28927E+06,   1.28927E+06
C:/temp/Job-5.odb,Step-1,Increment      1: Step Time =    1.000,"P-5-1",          1578,       165.641,       149.276,            0.,NA,NA,"",   1.42410E+06,   1.32490E+06,   1.32490E+06
C:/temp/Job-5.odb,Step-1,Increment      1: Step Time =    1.000,"P-5-1",          1579,       26.7086,       113.752,            0.,NA,NA,"",   270.286E+03,   293.538E+03,   293.538E+03
C:/temp/Job-5.odb,Step-1,Increment      1: Step Time =    1.000,"P-5-1",          1580,       22.5973,       112.627,            0.,NA,NA,"",   248.622E+03,   281.634E+03,   281.634E+03
C:/temp/Job-5.odb,Step-1,Increment      1: Step Time =    1.000,"P-5-1",          1581,       173.379,       139.258,            0.,NA,NA,"",   1.27417E+06,   1.23345E+06,   1.23345E+06
C:/temp/Job-5.odb,Step-1,Increment      1: Step Time =    1.000,"P-5-1",          1582,       59.3867,       39.5199,            0.,NA,NA,"",   1.68668E+06,   1.57415E+06,   1.57415E+06
C:/temp/Job-5.odb,Step-1,Increment      1: Step Time =    1.000,"P-5-1",          1583,       55.7765,       176.587,            0.,NA,NA,"",   1.59785E+06,   1.53435E+06,   1.53435E+06
C:/temp/Job-5.odb,Step-1,Increment      1: Step Time =    1.000,"P-5-1",          1584,       102.133,       178.267,            0.,NA,NA,"",   1.20179E+06,   1.26555E+06,   1.26555E+06
C:/temp/Job-5.odb,Step-1,Increment      1: Step Time =    1.000,"P-5-1",          1585,       30.6257,       86.2520,            0.,NA,NA,"",   266.465E+03,   268.283E+03,   268.283E+03
C:/temp/Job-5.odb,Step-1,Increment      1: Step Time =    1.000,"P-5-1",          1586,       30.8920,       82.2652,            0.,NA,NA,"",   353.017E+03,   347.347E+03,   347.347E+03
C:/temp/Job-5.odb,Step-1,Increment      1: Step Time =    1.000,"P-5-1",          1587,       106.028,       178.368,            0.,NA,NA,"",   1.17541E+06,   1.24133E+06,   1.24133E+06
C:/temp/Job-5.odb,Step-1,Increment      1: Step Time =    1.000,"P-5-1",          1588,       171.125,       178.664,            0.,NA,NA,"",   1.11007E+06,   1.09842E+06,   1.09842E+06
C:/temp/Job-5.odb,Step-1,Increment      1: Step Time =    1.000,"P-5-1",          1589,       177.951,       29.9185,            0.,NA,NA,"",   1.10522E+06,   1.10401E+06,   1.10401E+06
C:/temp/Job-5.odb,Step-1,Increment      1: Step Time =    1.000,"P-5-1",          1590,       173.517,       134.876,            0.,NA,NA,"",   1.25021E+06,   1.21136E+06,   1.21136E+06
C:/temp/Job-5.odb,Step-1,Increment      1: Step Time =    1.000,"P-5-1",          1591,       170.296,       134.998,            0.,NA,NA,"",   1.30902E+06,   1.22988E+06,   1.22988E+06
C:/temp/Job-5.odb,Step-1,Increment      1: Step Time =    1.000,"P-5-1",          1592,       92.9724,       28.4163,            0.,NA,NA,"",   1.46001E+06,   1.53493E+06,   1.53493E+06
C:/temp/Job-5.odb,Step-1,Increment      1: Step Time =    1.000,"P-5-1",          1593,       135.675,       52.6302,            0.,NA,NA,"",   1.84679E+06,   1.75736E+06,   1.75736E+06
C:/temp/Job-5.odb,Step-1,Increment      1: Step Time =    1.000,"P-5-1",          1594,       19.3419,       55.6361,            0.,NA,NA,"",   875.227E+03,   913.422E+03,   913.422E+03
C:/temp/Job-5.odb,Step-1,Increment      1: Step Time =    1.000,"P-5-1",          1595,       64.8511,       176.863,            0.,NA,NA,"",   1.58330E+06,   1.52426E+06,   1.52426E+06
C:/temp/Job-5.odb,Step-1,Increment      1: Step Time =    1.000,"P-5-1",          1596,       159.807,       157.313,            0.,NA,NA,"",   1.46235E+06,   1.36173E+06,   1.36173E+06
C:/temp/Job-5.odb,Step-1,Increment      1: Step Time =    1.000,"P-5-1",          1597,       165.142,       125.371,            0.,NA,NA,"",   1.23055E+06,   1.09396E+06,   1.09396E+06
C:/temp/Job-5.odb,Step-1,Increment      1: Step Time =    1.000,"P-5-1",          1598,       174.219,       95.1868,            0.,NA,NA,"",   595.101E+03,   682.417E+03,   682.417E+03
C:/temp/Job-5.odb,Step-1,Increment      1: Step Time =    1.000,"P-5-1",          1599,       41.8088,       155.338,            0.,NA,NA,"",   1.40552E+06,   1.31890E+06,   1.31890E+06
C:/temp/Job-5.odb,Step-1,Increment      1: Step Time =    1.000,"P-5-1",          1600,       18.7310,       64.9924,            0.,NA,NA,"",   667.202E+03,   706.574E+03,   706.574E+03
C:/temp/Job-5.odb,Step-1,Increment      1: Step Time =    1.000,"P-5-1",          1601,       42.4756,       164.623,            0.,NA,NA,"",   1.52467E+06,   1.44905E+06,   1.44905E+06
C:/temp/Job-5.odb,Step-1,Increment      1: Step Time =    1.000,"P-5-1",          1602,       68.4965,       173.092,            0.,NA,NA,"",   1.62722E+06,   1.56673E+06,   1.56673E+06
C:/temp/Job-5.odb,Step-1,Increment      1: Step Time =    1.000,"P-5-1",          1603,       109.272,       30.4298,            0.,NA,NA,"",   1.39338E+06,   1.49945E+06,   1.49945E+06
C:/temp/Job-5.odb,Step-1,Increment      1: Step Time =    1.000,"P-5-1",          1604,       178.333,       74.2436,            0.,NA,NA,"",   1.06116E+06,   1.11353E+06,   1.11353E+06
C:/temp/Job-5.odb,Step-1,Increment      1: Step Time =    1.000,"P-5-1",          1605,       31.1022,       146.226,            0.,NA,NA,"",   1.06116E+06,   1.03290E+06,   1.03290E+06
C:/temp/Job-5.odb,Step-1,Increment      1: Step Time =    1.000,"P-5-1",          1606,       28.4978,       143.321,            0.,NA,NA,"",   956.276E+03,   942.677E+03,   942.677E+03
C:/temp/Job-5.odb,Step-1,Increment      1: Step Time =    1.000,"P-5-1",          1607,       176.833,       51.3013,            0.,NA,NA,"",   1.21422E+06,   1.20486E+06,   1.20486E+06
C:/temp/Job-5.odb,Step-1,Increment      1: Step Time =    1.000,"P-5-1",          1608,       145.452,       175.669,            0.,NA,NA,"",   1.29452E+06,   1.25548E+06,   1.25548E+06
C:/temp/Job-5.odb,Step-1,Increment      1: Step Time =    1.000,"P-5-1",          1609,       176.717,       55.8886,            0.,NA,NA,"",   1.21540E+06,   1.20933E+06,   1.20933E+06
C:/temp/Job-5.odb,Step-1,Increment      1: Step Time =    1.000,"P-5-1",          1610,       24.6778,       116.905,            0.,NA,NA,"",   320.721E+03,   347.851E+03,   347.851E+03
C:/temp/Job-5.odb,Step-1,Increment      1: Step Time =    1.000,"P-5-1",          1611,       146.732,       31.2322,            0.,NA,NA,"",   1.42841E+06,   1.36801E+06,   1.36801E+06
C:/temp/Job-5.odb,Step-1,Increment      1: Step Time =    1.000,"P-5-1",          1612,       150.349,       35.3006,            0.,NA,NA,"",   1.47450E+06,   1.39485E+06,   1.39485E+06
C:/temp/Job-5.odb,Step-1,Increment      1: Step Time =    1.000,"P-5-1",          1613,       168.389,       168.095,            0.,NA,NA,"",   1.23444E+06,   1.19808E+06,   1.19808E+06
C:/temp/Job-5.odb,Step-1,Increment      1: Step Time =    1.000,"P-5-1",          1614,       17.6695,       92.7572,            0.,NA,NA,"",   208.504E+03,   237.673E+03,   237.673E+03
C:/temp/Job-5.odb,Step-1,Increment      1: Step Time =    1.000,"P-5-1",          1615,       18.1067,       96.2177,            0.,NA,NA,"",   189.036E+03,   207.155E+03,   207.155E+03
C:/temp/Job-5.odb,Step-1,Increment      1: Step Time =    1.000,"P-5-1",          1616,       18.9446,       150.427,            0.,NA,NA,"",   997.335E+03,   1.03715E+06,   1.03715E+06
C:/temp/Job-5.odb,Step-1,Increment      1: Step Time =    1.000,"P-5-1",          1617,       138.899,       49.4742,            0.,NA,NA,"",   1.79428E+06,   1.68788E+06,   1.68788E+06
C:/temp/Job-5.odb,Step-1,Increment      1: Step Time =    1.000,"P-5-1",          1618,       151.105,       48.9546,            0.,NA,NA,"",   1.66226E+06,   1.50809E+06,   1.50809E+06
C:/temp/Job-5.odb,Step-1,Increment      1: Step Time =    1.000,"P-5-1",          1619,       28.5355,       31.1912,            0.,NA,NA,"",   1.44440E+06,   1.43500E+06,   1.43500E+06
C:/temp/Job-5.odb,Step-1,Increment      1: Step Time =    1.000,"P-5-1",          1620,       29.9149,       129.181,            0.,NA,NA,"",   612.059E+03,   603.829E+03,   603.829E+03
C:/temp/Job-5.odb,Step-1,Increment      1: Step Time =    1.000,"P-5-1",          1621,       159.583,       149.626,            0.,NA,NA,"",   1.53083E+06,   1.39308E+06,   1.39308E+06
C:/temp/Job-5.odb,Step-1,Increment      1: Step Time =    1.000,"P-5-1",          1622,       156.646,       152.459,            0.,NA,NA,"",   1.56338E+06,   1.42496E+06,   1.42496E+06
C:/temp/Job-5.odb,Step-1,Increment      1: Step Time =    1.000,"P-5-1",          1623,       32.9026,       22.8741,            0.,NA,NA,"",   1.56849E+06,   1.54800E+06,   1.54800E+06
C:/temp/Job-5.odb,Step-1,Increment      1: Step Time =    1.000,"P-5-1",          1624,       33.8773,       27.0068,            0.,NA,NA,"",   1.53193E+06,   1.50367E+06,   1.50367E+06
C:/temp/Job-5.odb,Step-1,Increment      1: Step Time =    1.000,"P-5-1",          1625,       168.180,       127.247,            0.,NA,NA,"",   1.23111E+06,   1.13178E+06,   1.13178E+06
C:/temp/Job-5.odb,Step-1,Increment      1: Step Time =    1.000,"P-5-1",          1626,       157.061,       57.7602,            0.,NA,NA,"",   1.60470E+06,   1.40763E+06,   1.40763E+06
C:/temp/Job-5.odb,Step-1,Increment      1: Step Time =    1.000,"P-5-1",          1627,       146.800,       44.8487,            0.,NA,NA,"",   1.66026E+06,   1.53773E+06,   1.53773E+06
C:/temp/Job-5.odb,Step-1,Increment      1: Step Time =    1.000,"P-5-1",          1628,       27.5752,       139.315,            0.,NA,NA,"",   848.927E+03,   844.685E+03,   844.685E+03
C:/temp/Job-5.odb,Step-1,Increment      1: Step Time =    1.000,"P-5-1",          1629,       164.958,       56.3130,            0.,NA,NA,"",   1.45513E+06,   1.32846E+06,   1.32846E+06
C:/temp/Job-5.odb,Step-1,Increment      1: Step Time =    1.000,"P-5-1",          1630,       23.5558,       164.817,            0.,NA,NA,"",   1.32915E+06,   1.34769E+06,   1.34769E+06
C:/temp/Job-5.odb,Step-1,Increment      1: Step Time =    1.000,"P-5-1",          1631,       24.6086,       168.459,            0.,NA,NA,"",   1.39518E+06,   1.41047E+06,   1.41047E+06
C:/temp/Job-5.odb,Step-1,Increment      1: Step Time =    1.000,"P-5-1",          1632,       119.185,       28.4637,            0.,NA,NA,"",   1.35304E+06,   1.41841E+06,   1.41841E+06
C:/temp/Job-5.odb,Step-1,Increment      1: Step Time =    1.000,"P-5-1",          1633,       127.166,       22.1044,            0.,NA,NA,"",   1.22264E+06,   1.23794E+06,   1.23794E+06
C:/temp/Job-5.odb,Step-1,Increment      1: Step Time =    1.000,"P-5-1",          1634,       123.895,       22.0732,            0.,NA,NA,"",   1.20931E+06,   1.23704E+06,   1.23704E+06
C:/temp/Job-5.odb,Step-1,Increment      1: Step Time =    1.000,"P-5-1",          1635,       23.4437,       61.1306,            0.,NA,NA,"",   794.323E+03,   813.430E+03,   813.430E+03
C:/temp/Job-5.odb,Step-1,Increment      1: Step Time =    1.000,"P-5-1",          1636,       32.1373,       73.8030,            0.,NA,NA,"",   562.805E+03,   540.172E+03,   540.172E+03
C:/temp/Job-5.odb,Step-1,Increment      1: Step Time =    1.000,"P-5-1",          1637,       33.0195,       69.5304,            0.,NA,NA,"",   685.957E+03,   653.418E+03,   653.418E+03
C:/temp/Job-5.odb,Step-1,Increment      1: Step Time =    1.000,"P-5-1",          1638,       54.5139,       24.4069,            0.,NA,NA,"",   1.60448E+06,   1.53718E+06,   1.53718E+06
C:/temp/Job-5.odb,Step-1,Increment      1: Step Time =    1.000,"P-5-1",          1639,       28.5876,       149.065,            0.,NA,NA,"",   1.09306E+06,   1.08008E+06,   1.08008E+06
C:/temp/Job-5.odb,Step-1,Increment      1: Step Time =    1.000,"P-5-1",          1640,       46.5510,       49.1779,            0.,NA,NA,"",   1.41050E+06,   1.28957E+06,   1.28957E+06
C:/temp/Job-5.odb,Step-1,Increment      1: Step Time =    1.000,"P-5-1",          1641,       45.5467,       45.1085,            0.,NA,NA,"",   1.45295E+06,   1.34553E+06,   1.34553E+06
C:/temp/Job-5.odb,Step-1,Increment      1: Step Time =    1.000,"P-5-1",          1642,       22.5374,       159.817,            0.,NA,NA,"",   1.22660E+06,   1.24924E+06,   1.24924E+06
C:/temp/Job-5.odb,Step-1,Increment      1: Step Time =    1.000,"P-5-1",          1643,       153.104,       154.243,            0.,NA,NA,"",   1.60423E+06,   1.46695E+06,   1.46695E+06
C:/temp/Job-5.odb,Step-1,Increment      1: Step Time =    1.000,"P-5-1",          1644,       151.724,       151.012,            0.,NA,NA,"",   1.65801E+06,   1.49796E+06,   1.49796E+06
C:/temp/Job-5.odb,Step-1,Increment      1: Step Time =    1.000,"P-5-1",          1645,       146.445,       40.4372,            0.,NA,NA,"",   1.58956E+06,   1.49128E+06,   1.49128E+06
C:/temp/Job-5.odb,Step-1,Increment      1: Step Time =    1.000,"P-5-1",          1646,       161.459,       44.6184,            0.,NA,NA,"",   1.45668E+06,   1.35374E+06,   1.35374E+06
C:/temp/Job-5.odb,Step-1,Increment      1: Step Time =    1.000,"P-5-1",          1647,       173.200,       38.1411,            0.,NA,NA,"",   1.21612E+06,   1.19107E+06,   1.19107E+06
C:/temp/Job-5.odb,Step-1,Increment      1: Step Time =    1.000,"P-5-1",          1648,       147.299,       168.199,            0.,NA,NA,"",   1.42763E+06,   1.36501E+06,   1.36501E+06
C:/temp/Job-5.odb,Step-1,Increment      1: Step Time =    1.000,"P-5-1",          1649,       38.0459,       26.6296,            0.,NA,NA,"",   1.55743E+06,   1.51494E+06,   1.51494E+06
C:/temp/Job-5.odb,Step-1,Increment      1: Step Time =    1.000,"P-5-1",          1650,       29.4793,       154.920,            0.,NA,NA,"",   1.22006E+06,   1.20137E+06,   1.20137E+06
C:/temp/Job-5.odb,Step-1,Increment      1: Step Time =    1.000,"P-5-1",          1651,       142.226,       37.8751,            0.,NA,NA,"",   1.58034E+06,   1.50699E+06,   1.50699E+06
C:/temp/Job-5.odb,Step-1,Increment      1: Step Time =    1.000,"P-5-1",          1652,       154.769,       167.859,            0.,NA,NA,"",   1.37688E+06,   1.31147E+06,   1.31147E+06
C:/temp/Job-5.odb,Step-1,Increment      1: Step Time =    1.000,"P-5-1",          1653,       31.4964,       31.3518,            0.,NA,NA,"",   1.46141E+06,   1.43930E+06,   1.43930E+06
C:/temp/Job-5.odb,Step-1,Increment      1: Step Time =    1.000,"P-5-1",          1654,       28.1390,       73.5425,            0.,NA,NA,"",   541.683E+03,   544.209E+03,   544.209E+03
C:/temp/Job-5.odb,Step-1,Increment      1: Step Time =    1.000,"P-5-1",          1655,       43.4708,       52.2459,            0.,NA,NA,"",   1.31050E+06,   1.20135E+06,   1.20135E+06
C:/temp/Job-5.odb,Step-1,Increment      1: Step Time =    1.000,"P-5-1",          1656,       167.001,       42.9153,            0.,NA,NA,"",   1.35404E+06,   1.28498E+06,   1.28498E+06
C:/temp/Job-5.odb,Step-1,Increment      1: Step Time =    1.000,"P-5-1",          1657,       38.8068,       30.0121,            0.,NA,NA,"",   1.53487E+06,   1.48236E+06,   1.48236E+06
C:/temp/Job-5.odb,Step-1,Increment      1: Step Time =    1.000,"P-5-1",          1658,       35.8886,       54.6783,            0.,NA,NA,"",   1.11263E+06,   1.05341E+06,   1.05341E+06
