ODB Name,Step,Frame,Part Instance Name,    Node Label,X,Y,Z,Section Name,Material Name,Section Point,       S-Mises,S-Max. In-Plane Principal (Abs),S-Max. Principal (Abs)
C:/temp/Job-8.odb,Step-1,Increment      1: Step Time =    1.000,"P-8-1",             1,       90.5954,       112.944,            0.,NA,NA,"",   1.38604E+06,   1.40337E+06,   1.40337E+06
C:/temp/Job-8.odb,Step-1,Increment      1: Step Time =    1.000,"P-8-1",             2,       87.0557,       109.405,            0.,NA,NA,"",   681.658E+03,   349.587E+03,   349.587E+03
C:/temp/Job-8.odb,Step-1,Increment      1: Step Time =    1.000,"P-8-1",             3,           84.,          100.,            0.,NA,NA,"",   543.526E+03,  -533.506E+03,  -533.506E+03
C:/temp/Job-8.odb,Step-1,Increment      1: Step Time =    1.000,"P-8-1",             4,       87.0557,       90.5954,            0.,NA,NA,"",   816.602E+03,   713.292E+03,   713.292E+03
C:/temp/Job-8.odb,Step-1,Increment      1: Step Time =    1.000,"P-8-1",             5,       90.5954,       87.0557,            0.,NA,NA,"",   1.44715E+06,   1.47080E+06,   1.47080E+06
C:/temp/Job-8.odb,Step-1,Increment      1: Step Time =    1.000,"P-8-1",             6,          100.,           84.,            0.,NA,NA,"",   2.30167E+06,   2.39872E+06,   2.39872E+06
C:/temp/Job-8.odb,Step-1,Increment      1: Step Time =    1.000,"P-8-1",             7,       109.405,       87.0557,            0.,NA,NA,"",   1.50156E+06,   1.51937E+06,   1.51937E+06
C:/temp/Job-8.odb,Step-1,Increment      1: Step Time =    1.000,"P-8-1",             8,       112.944,       90.5954,            0.,NA,NA,"",   873.135E+03,   542.662E+03,   542.662E+03
C:/temp/Job-8.odb,Step-1,Increment      1: Step Time =    1.000,"P-8-1",             9,          116.,          100.,            0.,NA,NA,"",   621.915E+03,  -622.887E+03,  -622.887E+03
C:/temp/Job-8.odb,Step-1,Increment      1: Step Time =    1.000,"P-8-1",            10,       112.944,       109.405,            0.,NA,NA,"",   870.485E+03,   741.943E+03,   741.943E+03
C:/temp/Job-8.odb,Step-1,Increment      1: Step Time =    1.000,"P-8-1",            11,       109.405,       112.944,            0.,NA,NA,"",   1.45321E+06,   1.47298E+06,   1.47298E+06
C:/temp/Job-8.odb,Step-1,Increment      1: Step Time =    1.000,"P-8-1",            12,          100.,          116.,            0.,NA,NA,"",   2.30668E+06,   2.39592E+06,   2.39592E+06
C:/temp/Job-8.odb,Step-1,Increment      1: Step Time =    1.000,"P-8-1",            13,          190.,            0.,            0.,NA,NA,"",   999.527E+03,   999.529E+03,   999.529E+03
C:/temp/Job-8.odb,Step-1,Increment      1: Step Time =    1.000,"P-8-1",            14,          180.,            0.,            0.,NA,NA,"",   998.996E+03,   998.987E+03,   998.987E+03
C:/temp/Job-8.odb,Step-1,Increment      1: Step Time =    1.000,"P-8-1",            15,          170.,            0.,            0.,NA,NA,"",   998.044E+03,   997.960E+03,   997.960E+03
C:/temp/Job-8.odb,Step-1,Increment      1: Step Time =    1.000,"P-8-1",            16,          160.,            0.,            0.,NA,NA,"",   994.553E+03,   994.430E+03,   994.430E+03
C:/temp/Job-8.odb,Step-1,Increment      1: Step Time =    1.000,"P-8-1",            17,          150.,            0.,            0.,NA,NA,"",   986.181E+03,   986.005E+03,   986.005E+03
C:/temp/Job-8.odb,Step-1,Increment      1: Step Time =    1.000,"P-8-1",            18,          140.,            0.,            0.,NA,NA,"",   971.841E+03,   971.659E+03,   971.659E+03
C:/temp/Job-8.odb,Step-1,Increment      1: Step Time =    1.000,"P-8-1",            19,          130.,            0.,            0.,NA,NA,"",   953.044E+03,   952.982E+03,   952.982E+03
C:/temp/Job-8.odb,Step-1,Increment      1: Step Time =    1.000,"P-8-1",            20,          120.,            0.,            0.,NA,NA,"",   933.462E+03,   933.593E+03,   933.593E+03
C:/temp/Job-8.odb,Step-1,Increment      1: Step Time =    1.000,"P-8-1",            21,          110.,            0.,            0.,NA,NA,"",   918.642E+03,   918.927E+03,   918.927E+03
C:/temp/Job-8.odb,Step-1,Increment      1: Step Time =    1.000,"P-8-1",            22,          100.,            0.,            0.,NA,NA,"",   913.283E+03,   913.652E+03,   913.652E+03
C:/temp/Job-8.odb,Step-1,Increment      1: Step Time =    1.000,"P-8-1",            23,           90.,            0.,            0.,NA,NA,"",   919.445E+03,   919.761E+03,   919.761E+03
C:/temp/Job-8.odb,Step-1,Increment      1: Step Time =    1.000,"P-8-1",            24,           80.,            0.,            0.,NA,NA,"",   935.723E+03,   935.875E+03,   935.875E+03
C:/temp/Job-8.odb,Step-1,Increment      1: Step Time =    1.000,"P-8-1",            25,           70.,            0.,            0.,NA,NA,"",   957.973E+03,   957.956E+03,   957.956E+03
C:/temp/Job-8.odb,Step-1,Increment      1: Step Time =    1.000,"P-8-1",            26,           60.,            0.,            0.,NA,NA,"",   981.683E+03,   981.566E+03,   981.566E+03
C:/temp/Job-8.odb,Step-1,Increment      1: Step Time =    1.000,"P-8-1",            27,           50.,            0.,            0.,NA,NA,"",   1.00459E+06,   1.00443E+06,   1.00443E+06
C:/temp/Job-8.odb,Step-1,Increment      1: Step Time =    1.000,"P-8-1",            28,           40.,            0.,            0.,NA,NA,"",   1.02801E+06,   1.02795E+06,   1.02795E+06
C:/temp/Job-8.odb,Step-1,Increment      1: Step Time =    1.000,"P-8-1",            29,           30.,            0.,            0.,NA,NA,"",   1.05900E+06,   1.05926E+06,   1.05926E+06
C:/temp/Job-8.odb,Step-1,Increment      1: Step Time =    1.000,"P-8-1",            30,           20.,            0.,            0.,NA,NA,"",   1.11554E+06,   1.11639E+06,   1.11639E+06
C:/temp/Job-8.odb,Step-1,Increment      1: Step Time =    1.000,"P-8-1",            31,           10.,            0.,            0.,NA,NA,"",   1.25692E+06,   1.25988E+06,   1.25988E+06
C:/temp/Job-8.odb,Step-1,Increment      1: Step Time =    1.000,"P-8-1",            32,          200.,            0.,            0.,NA,NA,"",   999.959E+03,   999.920E+03,   999.920E+03
C:/temp/Job-8.odb,Step-1,Increment      1: Step Time =    1.000,"P-8-1",            33,            0.,            0.,            0.,NA,NA,"",   1.60400E+06,   1.67938E+06,   1.67938E+06
C:/temp/Job-8.odb,Step-1,Increment      1: Step Time =    1.000,"P-8-1",            34,          200.,          190.,            0.,NA,NA,"",   1.00026E+06,   1.00004E+06,   1.00004E+06
C:/temp/Job-8.odb,Step-1,Increment      1: Step Time =    1.000,"P-8-1",            35,          200.,          180.,            0.,NA,NA,"",   1.00032E+06,   1.00020E+06,   1.00020E+06
C:/temp/Job-8.odb,Step-1,Increment      1: Step Time =    1.000,"P-8-1",            36,          200.,          170.,            0.,NA,NA,"",   998.852E+03,   1.00047E+06,   1.00047E+06
C:/temp/Job-8.odb,Step-1,Increment      1: Step Time =    1.000,"P-8-1",            37,          200.,          160.,            0.,NA,NA,"",   994.317E+03,   1.00042E+06,   1.00042E+06
C:/temp/Job-8.odb,Step-1,Increment      1: Step Time =    1.000,"P-8-1",            38,          200.,          150.,            0.,NA,NA,"",   986.133E+03,   1.00034E+06,   1.00034E+06
C:/temp/Job-8.odb,Step-1,Increment      1: Step Time =    1.000,"P-8-1",            39,          200.,          140.,            0.,NA,NA,"",   974.569E+03,   1.00033E+06,   1.00033E+06
C:/temp/Job-8.odb,Step-1,Increment      1: Step Time =    1.000,"P-8-1",            40,          200.,          130.,            0.,NA,NA,"",   961.405E+03,   1.00017E+06,   1.00017E+06
C:/temp/Job-8.odb,Step-1,Increment      1: Step Time =    1.000,"P-8-1",            41,          200.,          120.,            0.,NA,NA,"",   948.900E+03,   999.653E+03,   999.653E+03
C:/temp/Job-8.odb,Step-1,Increment      1: Step Time =    1.000,"P-8-1",            42,          200.,          110.,            0.,NA,NA,"",   939.911E+03,   999.071E+03,   999.071E+03
C:/temp/Job-8.odb,Step-1,Increment      1: Step Time =    1.000,"P-8-1",            43,          200.,          100.,            0.,NA,NA,"",   936.631E+03,   998.939E+03,   998.939E+03
C:/temp/Job-8.odb,Step-1,Increment      1: Step Time =    1.000,"P-8-1",            44,          200.,           90.,            0.,NA,NA,"",   939.902E+03,   999.152E+03,   999.152E+03
C:/temp/Job-8.odb,Step-1,Increment      1: Step Time =    1.000,"P-8-1",            45,          200.,           80.,            0.,NA,NA,"",   948.952E+03,   999.603E+03,   999.603E+03
C:/temp/Job-8.odb,Step-1,Increment      1: Step Time =    1.000,"P-8-1",            46,          200.,           70.,            0.,NA,NA,"",   961.643E+03,   1.00007E+06,   1.00007E+06
C:/temp/Job-8.odb,Step-1,Increment      1: Step Time =    1.000,"P-8-1",            47,          200.,           60.,            0.,NA,NA,"",   975.008E+03,   1.00037E+06,   1.00037E+06
C:/temp/Job-8.odb,Step-1,Increment      1: Step Time =    1.000,"P-8-1",            48,          200.,           50.,            0.,NA,NA,"",   986.456E+03,   1.00050E+06,   1.00050E+06
C:/temp/Job-8.odb,Step-1,Increment      1: Step Time =    1.000,"P-8-1",            49,          200.,           40.,            0.,NA,NA,"",   994.481E+03,   1.00047E+06,   1.00047E+06
C:/temp/Job-8.odb,Step-1,Increment      1: Step Time =    1.000,"P-8-1",            50,          200.,           30.,            0.,NA,NA,"",   998.848E+03,   1.00036E+06,   1.00036E+06
C:/temp/Job-8.odb,Step-1,Increment      1: Step Time =    1.000,"P-8-1",            51,          200.,           20.,            0.,NA,NA,"",   1.00029E+06,   1.00020E+06,   1.00020E+06
C:/temp/Job-8.odb,Step-1,Increment      1: Step Time =    1.000,"P-8-1",            52,          200.,           10.,            0.,NA,NA,"",   1.00025E+06,   1.00004E+06,   1.00004E+06
C:/temp/Job-8.odb,Step-1,Increment      1: Step Time =    1.000,"P-8-1",            53,          200.,          200.,            0.,NA,NA,"",   999.962E+03,   999.924E+03,   999.924E+03
C:/temp/Job-8.odb,Step-1,Increment      1: Step Time =    1.000,"P-8-1",            54,           10.,          200.,            0.,NA,NA,"",   1.25899E+06,   1.26194E+06,   1.26194E+06
C:/temp/Job-8.odb,Step-1,Increment      1: Step Time =    1.000,"P-8-1",            55,           20.,          200.,            0.,NA,NA,"",   1.11704E+06,   1.11812E+06,   1.11812E+06
C:/temp/Job-8.odb,Step-1,Increment      1: Step Time =    1.000,"P-8-1",            56,           30.,          200.,            0.,NA,NA,"",   1.05964E+06,   1.05995E+06,   1.05995E+06
C:/temp/Job-8.odb,Step-1,Increment      1: Step Time =    1.000,"P-8-1",            57,           40.,          200.,            0.,NA,NA,"",   1.02840E+06,   1.02839E+06,   1.02839E+06
C:/temp/Job-8.odb,Step-1,Increment      1: Step Time =    1.000,"P-8-1",            58,           50.,          200.,            0.,NA,NA,"",   1.00401E+06,   1.00400E+06,   1.00400E+06
C:/temp/Job-8.odb,Step-1,Increment      1: Step Time =    1.000,"P-8-1",            59,           60.,          200.,            0.,NA,NA,"",   980.979E+03,   980.816E+03,   980.816E+03
C:/temp/Job-8.odb,Step-1,Increment      1: Step Time =    1.000,"P-8-1",            60,           70.,          200.,            0.,NA,NA,"",   957.510E+03,   957.465E+03,   957.465E+03
C:/temp/Job-8.odb,Step-1,Increment      1: Step Time =    1.000,"P-8-1",            61,           80.,          200.,            0.,NA,NA,"",   935.503E+03,   935.636E+03,   935.636E+03
C:/temp/Job-8.odb,Step-1,Increment      1: Step Time =    1.000,"P-8-1",            62,           90.,          200.,            0.,NA,NA,"",   919.363E+03,   919.676E+03,   919.676E+03
C:/temp/Job-8.odb,Step-1,Increment      1: Step Time =    1.000,"P-8-1",            63,          100.,          200.,            0.,NA,NA,"",   913.306E+03,   913.690E+03,   913.690E+03
C:/temp/Job-8.odb,Step-1,Increment      1: Step Time =    1.000,"P-8-1",            64,          110.,          200.,            0.,NA,NA,"",   918.806E+03,   919.116E+03,   919.116E+03
C:/temp/Job-8.odb,Step-1,Increment      1: Step Time =    1.000,"P-8-1",            65,          120.,          200.,            0.,NA,NA,"",   933.832E+03,   933.967E+03,   933.967E+03
C:/temp/Job-8.odb,Step-1,Increment      1: Step Time =    1.000,"P-8-1",            66,          130.,          200.,            0.,NA,NA,"",   953.480E+03,   953.439E+03,   953.439E+03
C:/temp/Job-8.odb,Step-1,Increment      1: Step Time =    1.000,"P-8-1",            67,          140.,          200.,            0.,NA,NA,"",   972.257E+03,   972.104E+03,   972.104E+03
C:/temp/Job-8.odb,Step-1,Increment      1: Step Time =    1.000,"P-8-1",            68,          150.,          200.,            0.,NA,NA,"",   986.438E+03,   986.240E+03,   986.240E+03
C:/temp/Job-8.odb,Step-1,Increment      1: Step Time =    1.000,"P-8-1",            69,          160.,          200.,            0.,NA,NA,"",   994.771E+03,   994.607E+03,   994.607E+03
C:/temp/Job-8.odb,Step-1,Increment      1: Step Time =    1.000,"P-8-1",            70,          170.,          200.,            0.,NA,NA,"",   998.192E+03,   998.109E+03,   998.109E+03
C:/temp/Job-8.odb,Step-1,Increment      1: Step Time =    1.000,"P-8-1",            71,          180.,          200.,            0.,NA,NA,"",   999.064E+03,   999.052E+03,   999.052E+03
C:/temp/Job-8.odb,Step-1,Increment      1: Step Time =    1.000,"P-8-1",            72,          190.,          200.,            0.,NA,NA,"",   999.528E+03,   999.535E+03,   999.535E+03
C:/temp/Job-8.odb,Step-1,Increment      1: Step Time =    1.000,"P-8-1",            73,            0.,          200.,            0.,NA,NA,"",   1.60394E+06,   1.68022E+06,   1.68022E+06
C:/temp/Job-8.odb,Step-1,Increment      1: Step Time =    1.000,"P-8-1",            74,            0.,           10.,            0.,NA,NA,"",   1.16365E+06,   1.26564E+06,   1.26564E+06
C:/temp/Job-8.odb,Step-1,Increment      1: Step Time =    1.000,"P-8-1",            75,            0.,           20.,            0.,NA,NA,"",   1.01333E+06,   1.11853E+06,   1.11853E+06
C:/temp/Job-8.odb,Step-1,Increment      1: Step Time =    1.000,"P-8-1",            76,            0.,           30.,            0.,NA,NA,"",   938.692E+03,   1.04482E+06,   1.04482E+06
C:/temp/Job-8.odb,Step-1,Increment      1: Step Time =    1.000,"P-8-1",            77,            0.,           40.,            0.,NA,NA,"",   889.844E+03,   996.199E+03,   996.199E+03
C:/temp/Job-8.odb,Step-1,Increment      1: Step Time =    1.000,"P-8-1",            78,            0.,           50.,            0.,NA,NA,"",   852.661E+03,   957.529E+03,   957.529E+03
C:/temp/Job-8.odb,Step-1,Increment      1: Step Time =    1.000,"P-8-1",            79,            0.,           60.,            0.,NA,NA,"",   821.449E+03,   924.236E+03,   924.236E+03
C:/temp/Job-8.odb,Step-1,Increment      1: Step Time =    1.000,"P-8-1",            80,            0.,           70.,            0.,NA,NA,"",   792.925E+03,   893.446E+03,   893.446E+03
C:/temp/Job-8.odb,Step-1,Increment      1: Step Time =    1.000,"P-8-1",            81,            0.,           80.,            0.,NA,NA,"",    769.17E+03,     867.7E+03,     867.7E+03
C:/temp/Job-8.odb,Step-1,Increment      1: Step Time =    1.000,"P-8-1",            82,            0.,           90.,            0.,NA,NA,"",   753.091E+03,   850.218E+03,   850.218E+03
C:/temp/Job-8.odb,Step-1,Increment      1: Step Time =    1.000,"P-8-1",            83,            0.,          100.,            0.,NA,NA,"",   747.324E+03,   843.945E+03,   843.945E+03
C:/temp/Job-8.odb,Step-1,Increment      1: Step Time =    1.000,"P-8-1",            84,            0.,          110.,            0.,NA,NA,"",   753.319E+03,   850.465E+03,   850.465E+03
C:/temp/Job-8.odb,Step-1,Increment      1: Step Time =    1.000,"P-8-1",            85,            0.,          120.,            0.,NA,NA,"",   769.519E+03,   868.043E+03,   868.043E+03
C:/temp/Job-8.odb,Step-1,Increment      1: Step Time =    1.000,"P-8-1",            86,            0.,          130.,            0.,NA,NA,"",   793.431E+03,   893.903E+03,   893.903E+03
C:/temp/Job-8.odb,Step-1,Increment      1: Step Time =    1.000,"P-8-1",            87,            0.,          140.,            0.,NA,NA,"",   822.212E+03,   924.832E+03,   924.832E+03
C:/temp/Job-8.odb,Step-1,Increment      1: Step Time =    1.000,"P-8-1",            88,            0.,          150.,            0.,NA,NA,"",   854.132E+03,   958.717E+03,   958.717E+03
C:/temp/Job-8.odb,Step-1,Increment      1: Step Time =    1.000,"P-8-1",            89,            0.,          160.,            0.,NA,NA,"",   890.984E+03,   996.957E+03,   996.957E+03
C:/temp/Job-8.odb,Step-1,Increment      1: Step Time =    1.000,"P-8-1",            90,            0.,          170.,            0.,NA,NA,"",   938.777E+03,   1.04536E+06,   1.04536E+06
C:/temp/Job-8.odb,Step-1,Increment      1: Step Time =    1.000,"P-8-1",            91,            0.,          180.,            0.,NA,NA,"",   1.01162E+06,   1.11776E+06,   1.11776E+06
C:/temp/Job-8.odb,Step-1,Increment      1: Step Time =    1.000,"P-8-1",            92,            0.,          190.,            0.,NA,NA,"",   1.16220E+06,   1.26541E+06,   1.26541E+06
C:/temp/Job-8.odb,Step-1,Increment      1: Step Time =    1.000,"P-8-1",            93,       189.963,       125.149,            0.,NA,NA,"",   965.227E+03,   998.858E+03,   998.858E+03
C:/temp/Job-8.odb,Step-1,Increment      1: Step Time =    1.000,"P-8-1",            94,       180.043,       125.911,            0.,NA,NA,"",   977.417E+03,   997.031E+03,   997.031E+03
C:/temp/Job-8.odb,Step-1,Increment      1: Step Time =    1.000,"P-8-1",            95,       170.422,       126.989,            0.,NA,NA,"",   992.118E+03,   997.809E+03,   997.809E+03
C:/temp/Job-8.odb,Step-1,Increment      1: Step Time =    1.000,"P-8-1",            96,       161.288,       128.868,            0.,NA,NA,"",   1.01967E+06,   1.00944E+06,   1.00944E+06
C:/temp/Job-8.odb,Step-1,Increment      1: Step Time =    1.000,"P-8-1",            97,       151.740,       124.944,            0.,NA,NA,"",   1.02905E+06,   1.00346E+06,   1.00346E+06
C:/temp/Job-8.odb,Step-1,Increment      1: Step Time =    1.000,"P-8-1",            98,       137.711,       127.623,            0.,NA,NA,"",   1.16157E+06,   1.09395E+06,   1.09395E+06
C:/temp/Job-8.odb,Step-1,Increment      1: Step Time =    1.000,"P-8-1",            99,       126.064,       125.073,            0.,NA,NA,"",   1.28238E+06,   1.19297E+06,   1.19297E+06
C:/temp/Job-8.odb,Step-1,Increment      1: Step Time =    1.000,"P-8-1",           100,       116.363,       123.370,            0.,NA,NA,"",   1.41198E+06,   1.35733E+06,   1.35733E+06
C:/temp/Job-8.odb,Step-1,Increment      1: Step Time =    1.000,"P-8-1",           101,       104.289,       128.738,            0.,NA,NA,"",   1.26067E+06,   1.37575E+06,   1.37575E+06
C:/temp/Job-8.odb,Step-1,Increment      1: Step Time =    1.000,"P-8-1",           102,       94.0287,       126.025,            0.,NA,NA,"",   1.34082E+06,   1.44581E+06,   1.44581E+06
C:/temp/Job-8.odb,Step-1,Increment      1: Step Time =    1.000,"P-8-1",           103,       83.5040,       124.760,            0.,NA,NA,"",   1.37290E+06,   1.35019E+06,   1.35019E+06
C:/temp/Job-8.odb,Step-1,Increment      1: Step Time =    1.000,"P-8-1",           104,       73.0899,       129.619,            0.,NA,NA,"",   1.24238E+06,   1.19231E+06,   1.19231E+06
C:/temp/Job-8.odb,Step-1,Increment      1: Step Time =    1.000,"P-8-1",           105,       63.4650,       126.064,            0.,NA,NA,"",   1.08988E+06,   1.05595E+06,   1.05595E+06
C:/temp/Job-8.odb,Step-1,Increment      1: Step Time =    1.000,"P-8-1",           106,       53.8874,       124.718,            0.,NA,NA,"",   966.801E+03,   974.816E+03,   974.816E+03
C:/temp/Job-8.odb,Step-1,Increment      1: Step Time =    1.000,"P-8-1",           107,       41.6953,       124.305,            0.,NA,NA,"",   891.636E+03,   935.816E+03,   935.816E+03
C:/temp/Job-8.odb,Step-1,Increment      1: Step Time =    1.000,"P-8-1",           108,       32.9029,       127.986,            0.,NA,NA,"",   880.327E+03,   939.661E+03,   939.661E+03
C:/temp/Job-8.odb,Step-1,Increment      1: Step Time =    1.000,"P-8-1",           109,       20.0854,       126.009,            0.,NA,NA,"",   827.923E+03,   909.523E+03,   909.523E+03
C:/temp/Job-8.odb,Step-1,Increment      1: Step Time =    1.000,"P-8-1",           110,       10.0242,       125.288,            0.,NA,NA,"",   798.360E+03,   891.665E+03,   891.665E+03
C:/temp/Job-8.odb,Step-1,Increment      1: Step Time =    1.000,"P-8-1",           111,       10.2133,       115.324,            0.,NA,NA,"",   771.867E+03,   865.223E+03,   865.223E+03
C:/temp/Job-8.odb,Step-1,Increment      1: Step Time =    1.000,"P-8-1",           112,       21.1849,       116.054,            0.,NA,NA,"",   791.377E+03,   875.016E+03,   875.016E+03
C:/temp/Job-8.odb,Step-1,Increment      1: Step Time =    1.000,"P-8-1",           113,       33.2669,       114.780,            0.,NA,NA,"",   802.306E+03,   871.712E+03,   871.712E+03
C:/temp/Job-8.odb,Step-1,Increment      1: Step Time =    1.000,"P-8-1",           114,       42.4423,       114.414,            0.,NA,NA,"",   809.948E+03,   865.455E+03,   865.455E+03
C:/temp/Job-8.odb,Step-1,Increment      1: Step Time =    1.000,"P-8-1",           115,       50.7164,       116.506,            0.,NA,NA,"",   849.896E+03,   883.219E+03,   883.219E+03
C:/temp/Job-8.odb,Step-1,Increment      1: Step Time =    1.000,"P-8-1",           116,       62.5060,       118.146,            0.,NA,NA,"",   951.874E+03,   932.764E+03,   932.764E+03
C:/temp/Job-8.odb,Step-1,Increment      1: Step Time =    1.000,"P-8-1",           117,       72.2901,       116.393,            0.,NA,NA,"",   1.07020E+06,   980.886E+03,   980.886E+03
C:/temp/Job-8.odb,Step-1,Increment      1: Step Time =    1.000,"P-8-1",           118,       83.4257,       114.842,            0.,NA,NA,"",   1.20308E+06,   1.11959E+06,   1.11959E+06
C:/temp/Job-8.odb,Step-1,Increment      1: Step Time =    1.000,"P-8-1",           119,       116.685,       115.469,            0.,NA,NA,"",   1.25980E+06,   1.14962E+06,   1.14962E+06
C:/temp/Job-8.odb,Step-1,Increment      1: Step Time =    1.000,"P-8-1",           120,       128.399,       117.111,            0.,NA,NA,"",   1.15624E+06,   1.03209E+06,   1.03209E+06
C:/temp/Job-8.odb,Step-1,Increment      1: Step Time =    1.000,"P-8-1",           121,       138.856,       113.363,            0.,NA,NA,"",   910.303E+03,   872.861E+03,   872.861E+03
C:/temp/Job-8.odb,Step-1,Increment      1: Step Time =    1.000,"P-8-1",           122,       148.849,       115.348,            0.,NA,NA,"",   933.822E+03,   920.192E+03,   920.192E+03
C:/temp/Job-8.odb,Step-1,Increment      1: Step Time =    1.000,"P-8-1",           123,       158.575,       119.296,            0.,NA,NA,"",   969.120E+03,   965.178E+03,   965.178E+03
C:/temp/Job-8.odb,Step-1,Increment      1: Step Time =    1.000,"P-8-1",           124,       168.578,       119.047,            0.,NA,NA,"",   964.158E+03,   974.987E+03,   974.987E+03
C:/temp/Job-8.odb,Step-1,Increment      1: Step Time =    1.000,"P-8-1",           125,       178.599,       111.493,            0.,NA,NA,"",   946.637E+03,   974.875E+03,   974.875E+03
C:/temp/Job-8.odb,Step-1,Increment      1: Step Time =    1.000,"P-8-1",           126,       189.266,       114.917,            0.,NA,NA,"",   952.812E+03,   993.927E+03,   993.927E+03
C:/temp/Job-8.odb,Step-1,Increment      1: Step Time =    1.000,"P-8-1",           127,       124.794,       105.413,            0.,NA,NA,"",   615.609E+03,   490.172E+03,   490.172E+03
C:/temp/Job-8.odb,Step-1,Increment      1: Step Time =    1.000,"P-8-1",           128,       134.943,       103.712,            0.,NA,NA,"",   633.490E+03,   633.792E+03,   633.792E+03
C:/temp/Job-8.odb,Step-1,Increment      1: Step Time =    1.000,"P-8-1",           129,       145.466,       104.305,            0.,NA,NA,"",   776.617E+03,   787.824E+03,   787.824E+03
C:/temp/Job-8.odb,Step-1,Increment      1: Step Time =    1.000,"P-8-1",           130,       159.484,       104.339,            0.,NA,NA,"",   876.582E+03,   893.976E+03,   893.976E+03
C:/temp/Job-8.odb,Step-1,Increment      1: Step Time =    1.000,"P-8-1",           131,       169.954,       102.622,            0.,NA,NA,"",   917.109E+03,   941.229E+03,   941.229E+03
C:/temp/Job-8.odb,Step-1,Increment      1: Step Time =    1.000,"P-8-1",           132,       179.952,       103.426,            0.,NA,NA,"",   939.048E+03,   971.961E+03,   971.961E+03
C:/temp/Job-8.odb,Step-1,Increment      1: Step Time =    1.000,"P-8-1",           133,       189.806,       104.649,            0.,NA,NA,"",   944.868E+03,   991.459E+03,   991.459E+03
C:/temp/Job-8.odb,Step-1,Increment      1: Step Time =    1.000,"P-8-1",           134,       126.092,       96.3990,            0.,NA,NA,"",   501.236E+03,   426.736E+03,   426.736E+03
C:/temp/Job-8.odb,Step-1,Increment      1: Step Time =    1.000,"P-8-1",           135,       137.946,       95.3655,            0.,NA,NA,"",   690.580E+03,   693.824E+03,   693.824E+03
C:/temp/Job-8.odb,Step-1,Increment      1: Step Time =    1.000,"P-8-1",           136,       148.226,       94.9272,            0.,NA,NA,"",   808.280E+03,   820.445E+03,   820.445E+03
C:/temp/Job-8.odb,Step-1,Increment      1: Step Time =    1.000,"P-8-1",           137,       156.697,       95.6112,            0.,NA,NA,"",   859.822E+03,   876.258E+03,   876.258E+03
C:/temp/Job-8.odb,Step-1,Increment      1: Step Time =    1.000,"P-8-1",           138,       168.521,       92.7420,            0.,NA,NA,"",   920.595E+03,   941.610E+03,   941.610E+03
C:/temp/Job-8.odb,Step-1,Increment      1: Step Time =    1.000,"P-8-1",           139,       180.007,       94.0001,            0.,NA,NA,"",   941.041E+03,   973.525E+03,   973.525E+03
C:/temp/Job-8.odb,Step-1,Increment      1: Step Time =    1.000,"P-8-1",           140,       190.011,       94.6820,            0.,NA,NA,"",   945.216E+03,   992.004E+03,   992.004E+03
C:/temp/Job-8.odb,Step-1,Increment      1: Step Time =    1.000,"P-8-1",           141,       116.765,       84.8552,            0.,NA,NA,"",   1.23936E+06,   1.13493E+06,   1.13493E+06
C:/temp/Job-8.odb,Step-1,Increment      1: Step Time =    1.000,"P-8-1",           142,       128.189,       84.2141,            0.,NA,NA,"",   1.11669E+06,   988.738E+03,   988.738E+03
C:/temp/Job-8.odb,Step-1,Increment      1: Step Time =    1.000,"P-8-1",           143,       134.585,       83.8688,            0.,NA,NA,"",   1.01870E+06,   939.671E+03,   939.671E+03
C:/temp/Job-8.odb,Step-1,Increment      1: Step Time =    1.000,"P-8-1",           144,       148.225,       84.6252,            0.,NA,NA,"",   928.691E+03,   914.386E+03,   914.386E+03
C:/temp/Job-8.odb,Step-1,Increment      1: Step Time =    1.000,"P-8-1",           145,       158.255,       84.5483,            0.,NA,NA,"",   939.904E+03,   941.408E+03,   941.408E+03
C:/temp/Job-8.odb,Step-1,Increment      1: Step Time =    1.000,"P-8-1",           146,       171.133,       83.4428,            0.,NA,NA,"",   955.909E+03,   972.073E+03,   972.073E+03
C:/temp/Job-8.odb,Step-1,Increment      1: Step Time =    1.000,"P-8-1",           147,       180.320,       84.2632,            0.,NA,NA,"",   956.279E+03,   983.859E+03,   983.859E+03
C:/temp/Job-8.odb,Step-1,Increment      1: Step Time =    1.000,"P-8-1",           148,       190.085,       84.7249,            0.,NA,NA,"",   952.891E+03,   994.895E+03,   994.895E+03
C:/temp/Job-8.odb,Step-1,Increment      1: Step Time =    1.000,"P-8-1",           149,       9.77360,       75.0740,            0.,NA,NA,"",   796.662E+03,   890.213E+03,   890.213E+03
C:/temp/Job-8.odb,Step-1,Increment      1: Step Time =    1.000,"P-8-1",           150,       19.6078,       74.7604,            0.,NA,NA,"",   822.173E+03,   904.967E+03,   904.967E+03
C:/temp/Job-8.odb,Step-1,Increment      1: Step Time =    1.000,"P-8-1",           151,       30.0833,       74.1675,            0.,NA,NA,"",   856.762E+03,   923.316E+03,   923.316E+03
C:/temp/Job-8.odb,Step-1,Increment      1: Step Time =    1.000,"P-8-1",           152,       38.8062,       72.1879,            0.,NA,NA,"",   904.952E+03,   951.845E+03,   951.845E+03
C:/temp/Job-8.odb,Step-1,Increment      1: Step Time =    1.000,"P-8-1",           153,       52.8450,       73.2747,            0.,NA,NA,"",   987.672E+03,   995.128E+03,   995.128E+03
C:/temp/Job-8.odb,Step-1,Increment      1: Step Time =    1.000,"P-8-1",           154,       63.7195,       72.6856,            0.,NA,NA,"",   1.10729E+06,   1.07407E+06,   1.07407E+06
C:/temp/Job-8.odb,Step-1,Increment      1: Step Time =    1.000,"P-8-1",           155,       72.2498,       75.1985,            0.,NA,NA,"",   1.21033E+06,   1.14620E+06,   1.14620E+06
C:/temp/Job-8.odb,Step-1,Increment      1: Step Time =    1.000,"P-8-1",           156,       82.8443,       71.7402,            0.,NA,NA,"",   1.32602E+06,   1.31099E+06,   1.31099E+06
C:/temp/Job-8.odb,Step-1,Increment      1: Step Time =    1.000,"P-8-1",           157,       98.7643,       73.9210,            0.,NA,NA,"",   1.30490E+06,   1.44372E+06,   1.44372E+06
C:/temp/Job-8.odb,Step-1,Increment      1: Step Time =    1.000,"P-8-1",           158,       106.965,       71.8265,            0.,NA,NA,"",   1.30043E+06,   1.39544E+06,   1.39544E+06
C:/temp/Job-8.odb,Step-1,Increment      1: Step Time =    1.000,"P-8-1",           159,       116.294,       72.0368,            0.,NA,NA,"",   1.34302E+06,   1.32113E+06,   1.32113E+06
C:/temp/Job-8.odb,Step-1,Increment      1: Step Time =    1.000,"P-8-1",           160,       125.965,       72.5505,            0.,NA,NA,"",   1.28587E+06,   1.20689E+06,   1.20689E+06
C:/temp/Job-8.odb,Step-1,Increment      1: Step Time =    1.000,"P-8-1",           161,       136.459,       73.8505,            0.,NA,NA,"",   1.16424E+06,   1.09215E+06,   1.09215E+06
C:/temp/Job-8.odb,Step-1,Increment      1: Step Time =    1.000,"P-8-1",           162,       149.531,       69.9252,            0.,NA,NA,"",   1.08040E+06,   1.04493E+06,   1.04493E+06
C:/temp/Job-8.odb,Step-1,Increment      1: Step Time =    1.000,"P-8-1",           163,       157.387,       75.3400,            0.,NA,NA,"",   1.00941E+06,   995.342E+03,   995.342E+03
C:/temp/Job-8.odb,Step-1,Increment      1: Step Time =    1.000,"P-8-1",           164,       170.985,       74.4331,            0.,NA,NA,"",   986.055E+03,   993.778E+03,   993.778E+03
C:/temp/Job-8.odb,Step-1,Increment      1: Step Time =    1.000,"P-8-1",           165,       180.387,       74.4643,            0.,NA,NA,"",   976.624E+03,   996.830E+03,   996.830E+03
C:/temp/Job-8.odb,Step-1,Increment      1: Step Time =    1.000,"P-8-1",           166,       190.165,       74.7681,            0.,NA,NA,"",   965.164E+03,   998.963E+03,   998.963E+03
C:/temp/Job-8.odb,Step-1,Increment      1: Step Time =    1.000,"P-8-1",           167,       84.5099,       83.4186,            0.,NA,NA,"",   1.28773E+06,   1.23181E+06,   1.23181E+06
C:/temp/Job-8.odb,Step-1,Increment      1: Step Time =    1.000,"P-8-1",           168,       72.0997,       84.0865,            0.,NA,NA,"",   1.07372E+06,   984.821E+03,   984.821E+03
C:/temp/Job-8.odb,Step-1,Increment      1: Step Time =    1.000,"P-8-1",           169,       62.8410,       81.0765,            0.,NA,NA,"",   982.951E+03,   959.023E+03,   959.023E+03
C:/temp/Job-8.odb,Step-1,Increment      1: Step Time =    1.000,"P-8-1",           170,       47.6327,       84.2308,            0.,NA,NA,"",   828.413E+03,   871.041E+03,   871.041E+03
C:/temp/Job-8.odb,Step-1,Increment      1: Step Time =    1.000,"P-8-1",           171,       39.0714,       84.2038,            0.,NA,NA,"",   818.010E+03,   877.337E+03,   877.337E+03
C:/temp/Job-8.odb,Step-1,Increment      1: Step Time =    1.000,"P-8-1",           172,       30.4769,       83.0218,            0.,NA,NA,"",   810.554E+03,   882.706E+03,   882.706E+03
C:/temp/Job-8.odb,Step-1,Increment      1: Step Time =    1.000,"P-8-1",           173,       19.2702,       87.8789,            0.,NA,NA,"",   776.947E+03,   863.388E+03,   863.388E+03
C:/temp/Job-8.odb,Step-1,Increment      1: Step Time =    1.000,"P-8-1",           174,       10.3480,       85.0606,            0.,NA,NA,"",   770.951E+03,   864.238E+03,   864.238E+03
C:/temp/Job-8.odb,Step-1,Increment      1: Step Time =    1.000,"P-8-1",           175,       71.8285,       93.4883,            0.,NA,NA,"",   620.218E+03,   572.123E+03,   572.123E+03
C:/temp/Job-8.odb,Step-1,Increment      1: Step Time =    1.000,"P-8-1",           176,       61.7929,       96.1622,            0.,NA,NA,"",    607.38E+03,   647.324E+03,   647.324E+03
C:/temp/Job-8.odb,Step-1,Increment      1: Step Time =    1.000,"P-8-1",           177,       50.2379,       95.3990,            0.,NA,NA,"",   714.952E+03,   771.266E+03,   771.266E+03
C:/temp/Job-8.odb,Step-1,Increment      1: Step Time =    1.000,"P-8-1",           178,       43.7310,       95.0037,            0.,NA,NA,"",   744.788E+03,   808.320E+03,   808.320E+03
C:/temp/Job-8.odb,Step-1,Increment      1: Step Time =    1.000,"P-8-1",           179,       32.7757,       94.0173,            0.,NA,NA,"",   767.005E+03,   841.889E+03,   841.889E+03
C:/temp/Job-8.odb,Step-1,Increment      1: Step Time =    1.000,"P-8-1",           180,       19.6298,       95.7548,            0.,NA,NA,"",   763.183E+03,   850.255E+03,   850.255E+03
C:/temp/Job-8.odb,Step-1,Increment      1: Step Time =    1.000,"P-8-1",           181,       10.0922,       95.3283,            0.,NA,NA,"",   755.267E+03,   848.804E+03,   848.804E+03
C:/temp/Job-8.odb,Step-1,Increment      1: Step Time =    1.000,"P-8-1",           182,       74.5392,       102.225,            0.,NA,NA,"",   361.550E+03,   329.542E+03,   329.542E+03
C:/temp/Job-8.odb,Step-1,Increment      1: Step Time =    1.000,"P-8-1",           183,       64.9271,       108.454,            0.,NA,NA,"",   705.923E+03,   712.169E+03,   712.169E+03
C:/temp/Job-8.odb,Step-1,Increment      1: Step Time =    1.000,"P-8-1",           184,       53.2400,       107.311,            0.,NA,NA,"",   728.920E+03,   776.461E+03,   776.461E+03
C:/temp/Job-8.odb,Step-1,Increment      1: Step Time =    1.000,"P-8-1",           185,       42.8158,       106.082,            0.,NA,NA,"",   756.244E+03,   819.465E+03,   819.465E+03
C:/temp/Job-8.odb,Step-1,Increment      1: Step Time =    1.000,"P-8-1",           186,       31.4831,       105.980,            0.,NA,NA,"",   769.059E+03,   844.936E+03,   844.936E+03
C:/temp/Job-8.odb,Step-1,Increment      1: Step Time =    1.000,"P-8-1",           187,       20.8409,       105.751,            0.,NA,NA,"",   766.252E+03,   852.176E+03,   852.176E+03
C:/temp/Job-8.odb,Step-1,Increment      1: Step Time =    1.000,"P-8-1",           188,       10.2099,       105.354,            0.,NA,NA,"",   756.321E+03,   849.795E+03,   849.795E+03
C:/temp/Job-8.odb,Step-1,Increment      1: Step Time =    1.000,"P-8-1",           189,       189.543,       10.3470,            0.,NA,NA,"",   1.00036E+06,   1.00045E+06,   1.00045E+06
C:/temp/Job-8.odb,Step-1,Increment      1: Step Time =    1.000,"P-8-1",           190,       179.335,       10.0955,            0.,NA,NA,"",   1.00141E+06,   1.00130E+06,   1.00130E+06
C:/temp/Job-8.odb,Step-1,Increment      1: Step Time =    1.000,"P-8-1",           191,       169.099,       9.82181,            0.,NA,NA,"",   1.00240E+06,   1.00169E+06,   1.00169E+06
C:/temp/Job-8.odb,Step-1,Increment      1: Step Time =    1.000,"P-8-1",           192,       158.626,       10.2565,            0.,NA,NA,"",   1.00175E+06,   1.00039E+06,   1.00039E+06
C:/temp/Job-8.odb,Step-1,Increment      1: Step Time =    1.000,"P-8-1",           193,       149.623,       9.10460,            0.,NA,NA,"",   996.062E+03,   994.693E+03,   994.693E+03
C:/temp/Job-8.odb,Step-1,Increment      1: Step Time =    1.000,"P-8-1",           194,       135.216,       9.76386,            0.,NA,NA,"",   983.582E+03,   982.639E+03,   982.639E+03
C:/temp/Job-8.odb,Step-1,Increment      1: Step Time =    1.000,"P-8-1",           195,       125.114,       9.86216,            0.,NA,NA,"",   970.524E+03,   970.828E+03,   970.828E+03
C:/temp/Job-8.odb,Step-1,Increment      1: Step Time =    1.000,"P-8-1",           196,       115.016,       9.94925,            0.,NA,NA,"",   958.201E+03,   960.027E+03,   960.027E+03
C:/temp/Job-8.odb,Step-1,Increment      1: Step Time =    1.000,"P-8-1",           197,       104.987,       10.0666,            0.,NA,NA,"",   951.639E+03,   954.540E+03,   954.540E+03
C:/temp/Job-8.odb,Step-1,Increment      1: Step Time =    1.000,"P-8-1",           198,       94.9466,       10.0817,            0.,NA,NA,"",   953.432E+03,   956.448E+03,   956.448E+03
C:/temp/Job-8.odb,Step-1,Increment      1: Step Time =    1.000,"P-8-1",           199,       84.8381,       10.0342,            0.,NA,NA,"",   964.194E+03,   966.287E+03,   966.287E+03
C:/temp/Job-8.odb,Step-1,Increment      1: Step Time =    1.000,"P-8-1",           200,       74.7983,       9.95569,            0.,NA,NA,"",   981.427E+03,   982.140E+03,   982.140E+03
C:/temp/Job-8.odb,Step-1,Increment      1: Step Time =    1.000,"P-8-1",           201,       64.9447,       9.89710,            0.,NA,NA,"",   1.00119E+06,   1.00098E+06,   1.00098E+06
C:/temp/Job-8.odb,Step-1,Increment      1: Step Time =    1.000,"P-8-1",           202,       50.2099,       9.77981,            0.,NA,NA,"",   1.03215E+06,   1.03215E+06,   1.03215E+06
C:/temp/Job-8.odb,Step-1,Increment      1: Step Time =    1.000,"P-8-1",           203,       40.5131,       9.56470,            0.,NA,NA,"",   1.05522E+06,   1.05658E+06,   1.05658E+06
C:/temp/Job-8.odb,Step-1,Increment      1: Step Time =    1.000,"P-8-1",           204,       30.6709,       9.59423,            0.,NA,NA,"",   1.08758E+06,   1.09238E+06,   1.09238E+06
C:/temp/Job-8.odb,Step-1,Increment      1: Step Time =    1.000,"P-8-1",           205,       20.6653,       9.91872,            0.,NA,NA,"",   1.14059E+06,   1.15304E+06,   1.15304E+06
C:/temp/Job-8.odb,Step-1,Increment      1: Step Time =    1.000,"P-8-1",           206,       10.5691,       10.1821,            0.,NA,NA,"",   1.21794E+06,   1.25805E+06,   1.25805E+06
C:/temp/Job-8.odb,Step-1,Increment      1: Step Time =    1.000,"P-8-1",           207,       189.240,       20.9164,            0.,NA,NA,"",   1.00129E+06,   1.00193E+06,   1.00193E+06
C:/temp/Job-8.odb,Step-1,Increment      1: Step Time =    1.000,"P-8-1",           208,       176.125,       23.5867,            0.,NA,NA,"",   1.00979E+06,   1.00880E+06,   1.00880E+06
C:/temp/Job-8.odb,Step-1,Increment      1: Step Time =    1.000,"P-8-1",           209,       167.904,       23.5467,            0.,NA,NA,"",   1.01724E+06,   1.01392E+06,   1.01392E+06
C:/temp/Job-8.odb,Step-1,Increment      1: Step Time =    1.000,"P-8-1",           210,       158.268,       19.5124,            0.,NA,NA,"",   1.01676E+06,   1.01270E+06,   1.01270E+06
C:/temp/Job-8.odb,Step-1,Increment      1: Step Time =    1.000,"P-8-1",           211,       145.156,       20.4300,            0.,NA,NA,"",   1.02092E+06,   1.01582E+06,   1.01582E+06
C:/temp/Job-8.odb,Step-1,Increment      1: Step Time =    1.000,"P-8-1",           212,       136.162,       20.3555,            0.,NA,NA,"",   1.01756E+06,   1.01399E+06,   1.01399E+06
C:/temp/Job-8.odb,Step-1,Increment      1: Step Time =    1.000,"P-8-1",           213,       125.202,       19.5582,            0.,NA,NA,"",   1.00429E+06,   1.00520E+06,   1.00520E+06
C:/temp/Job-8.odb,Step-1,Increment      1: Step Time =    1.000,"P-8-1",           214,       115.229,       20.0507,            0.,NA,NA,"",   993.914E+03,   999.764E+03,   999.764E+03
C:/temp/Job-8.odb,Step-1,Increment      1: Step Time =    1.000,"P-8-1",           215,       105.055,       20.4186,            0.,NA,NA,"",   987.448E+03,   997.295E+03,   997.295E+03
C:/temp/Job-8.odb,Step-1,Increment      1: Step Time =    1.000,"P-8-1",           216,       94.8875,       20.4025,            0.,NA,NA,"",   990.311E+03,   1.00035E+06,   1.00035E+06
C:/temp/Job-8.odb,Step-1,Increment      1: Step Time =    1.000,"P-8-1",           217,       84.6515,       20.2429,            0.,NA,NA,"",   1.00354E+06,   1.01049E+06,   1.01049E+06
C:/temp/Job-8.odb,Step-1,Increment      1: Step Time =    1.000,"P-8-1",           218,       74.4809,       20.4081,            0.,NA,NA,"",   1.02336E+06,   1.02589E+06,   1.02589E+06
C:/temp/Job-8.odb,Step-1,Increment      1: Step Time =    1.000,"P-8-1",           219,       64.6491,       20.3844,            0.,NA,NA,"",   1.04128E+06,   1.04108E+06,   1.04108E+06
C:/temp/Job-8.odb,Step-1,Increment      1: Step Time =    1.000,"P-8-1",           220,       49.8332,       19.6891,            0.,NA,NA,"",   1.06274E+06,   1.06387E+06,   1.06387E+06
C:/temp/Job-8.odb,Step-1,Increment      1: Step Time =    1.000,"P-8-1",           221,       40.3150,       18.7537,            0.,NA,NA,"",   1.07645E+06,   1.08181E+06,   1.08181E+06
C:/temp/Job-8.odb,Step-1,Increment      1: Step Time =    1.000,"P-8-1",           222,       31.5978,       18.1945,            0.,NA,NA,"",   1.09185E+06,   1.10470E+06,   1.10470E+06
C:/temp/Job-8.odb,Step-1,Increment      1: Step Time =    1.000,"P-8-1",           223,       21.4040,       20.5626,            0.,NA,NA,"",   1.09595E+06,   1.13157E+06,   1.13157E+06
C:/temp/Job-8.odb,Step-1,Increment      1: Step Time =    1.000,"P-8-1",           224,       12.4563,       21.4865,            0.,NA,NA,"",   1.06429E+06,   1.13157E+06,   1.13157E+06
C:/temp/Job-8.odb,Step-1,Increment      1: Step Time =    1.000,"P-8-1",           225,       190.257,       31.1289,            0.,NA,NA,"",   1.00063E+06,   1.00302E+06,   1.00302E+06
C:/temp/Job-8.odb,Step-1,Increment      1: Step Time =    1.000,"P-8-1",           226,       181.429,       32.7528,            0.,NA,NA,"",   1.00891E+06,   1.00958E+06,   1.00958E+06
C:/temp/Job-8.odb,Step-1,Increment      1: Step Time =    1.000,"P-8-1",           227,       169.367,       33.5704,            0.,NA,NA,"",   1.02655E+06,   1.02189E+06,   1.02189E+06
C:/temp/Job-8.odb,Step-1,Increment      1: Step Time =    1.000,"P-8-1",           228,       158.273,       29.3948,            0.,NA,NA,"",   1.03687E+06,   1.02870E+06,   1.02870E+06
C:/temp/Job-8.odb,Step-1,Increment      1: Step Time =    1.000,"P-8-1",           229,       143.530,       31.8832,            0.,NA,NA,"",   1.05700E+06,   1.04577E+06,   1.04577E+06
C:/temp/Job-8.odb,Step-1,Increment      1: Step Time =    1.000,"P-8-1",           230,       135.109,       31.2601,            0.,NA,NA,"",   1.05536E+06,   1.04756E+06,   1.04756E+06
C:/temp/Job-8.odb,Step-1,Increment      1: Step Time =    1.000,"P-8-1",           231,       126.936,       33.5708,            0.,NA,NA,"",   1.05828E+06,   1.05667E+06,   1.05667E+06
C:/temp/Job-8.odb,Step-1,Increment      1: Step Time =    1.000,"P-8-1",           232,       116.145,       31.3104,            0.,NA,NA,"",   1.03006E+06,   1.04127E+06,   1.04127E+06
C:/temp/Job-8.odb,Step-1,Increment      1: Step Time =    1.000,"P-8-1",           233,       105.513,       30.8547,            0.,NA,NA,"",   1.01331E+06,   1.03309E+06,   1.03309E+06
C:/temp/Job-8.odb,Step-1,Increment      1: Step Time =    1.000,"P-8-1",           234,       94.3383,       31.0878,            0.,NA,NA,"",   1.01738E+06,   1.03776E+06,   1.03776E+06
C:/temp/Job-8.odb,Step-1,Increment      1: Step Time =    1.000,"P-8-1",           235,       84.6478,       30.0471,            0.,NA,NA,"",   1.03310E+06,   1.04646E+06,   1.04646E+06
C:/temp/Job-8.odb,Step-1,Increment      1: Step Time =    1.000,"P-8-1",           236,       74.5191,       31.5778,            0.,NA,NA,"",   1.06108E+06,   1.06622E+06,   1.06622E+06
C:/temp/Job-8.odb,Step-1,Increment      1: Step Time =    1.000,"P-8-1",           237,       63.6159,       31.8255,            0.,NA,NA,"",   1.07839E+06,   1.07779E+06,   1.07779E+06
C:/temp/Job-8.odb,Step-1,Increment      1: Step Time =    1.000,"P-8-1",           238,       53.4718,       29.8576,            0.,NA,NA,"",   1.07899E+06,   1.08005E+06,   1.08005E+06
C:/temp/Job-8.odb,Step-1,Increment      1: Step Time =    1.000,"P-8-1",           239,       38.8606,       28.3084,            0.,NA,NA,"",   1.07484E+06,   1.08941E+06,   1.08941E+06
C:/temp/Job-8.odb,Step-1,Increment      1: Step Time =    1.000,"P-8-1",           240,       34.0210,       31.9937,            0.,NA,NA,"",   1.06027E+06,   1.08542E+06,   1.08542E+06
C:/temp/Job-8.odb,Step-1,Increment      1: Step Time =    1.000,"P-8-1",           241,       24.7172,       33.6445,            0.,NA,NA,"",   1.03217E+06,   1.07876E+06,   1.07876E+06
C:/temp/Job-8.odb,Step-1,Increment      1: Step Time =    1.000,"P-8-1",           242,       9.87173,       32.0142,            0.,NA,NA,"",   970.777E+03,   1.05853E+06,   1.05853E+06
C:/temp/Job-8.odb,Step-1,Increment      1: Step Time =    1.000,"P-8-1",           243,       190.422,       40.7987,            0.,NA,NA,"",   997.867E+03,   1.00386E+06,   1.00386E+06
C:/temp/Job-8.odb,Step-1,Increment      1: Step Time =    1.000,"P-8-1",           244,       181.119,       41.3075,            0.,NA,NA,"",   1.01019E+06,   1.01236E+06,   1.01236E+06
C:/temp/Job-8.odb,Step-1,Increment      1: Step Time =    1.000,"P-8-1",           245,       172.286,       40.2870,            0.,NA,NA,"",   1.02632E+06,   1.02268E+06,   1.02268E+06
C:/temp/Job-8.odb,Step-1,Increment      1: Step Time =    1.000,"P-8-1",           246,       158.728,       39.5433,            0.,NA,NA,"",   1.05482E+06,   1.04224E+06,   1.04224E+06
C:/temp/Job-8.odb,Step-1,Increment      1: Step Time =    1.000,"P-8-1",           247,       148.842,       40.2247,            0.,NA,NA,"",   1.07673E+06,   1.05931E+06,   1.05931E+06
C:/temp/Job-8.odb,Step-1,Increment      1: Step Time =    1.000,"P-8-1",           248,       138.733,       41.6847,            0.,NA,NA,"",   1.09612E+06,   1.07814E+06,   1.07814E+06
C:/temp/Job-8.odb,Step-1,Increment      1: Step Time =    1.000,"P-8-1",           249,       126.326,       44.1356,            0.,NA,NA,"",   1.10376E+06,   1.09795E+06,   1.09795E+06
C:/temp/Job-8.odb,Step-1,Increment      1: Step Time =    1.000,"P-8-1",           250,       118.066,       40.9542,            0.,NA,NA,"",   1.06639E+06,   1.07857E+06,   1.07857E+06
C:/temp/Job-8.odb,Step-1,Increment      1: Step Time =    1.000,"P-8-1",           251,       104.461,       39.6256,            0.,NA,NA,"",   1.02920E+06,   1.06217E+06,   1.06217E+06
C:/temp/Job-8.odb,Step-1,Increment      1: Step Time =    1.000,"P-8-1",           252,       98.2963,       42.0189,            0.,NA,NA,"",   1.03401E+06,   1.07144E+06,   1.07144E+06
C:/temp/Job-8.odb,Step-1,Increment      1: Step Time =    1.000,"P-8-1",           253,       84.2489,       43.3903,            0.,NA,NA,"",   1.07448E+06,   1.09715E+06,   1.09715E+06
C:/temp/Job-8.odb,Step-1,Increment      1: Step Time =    1.000,"P-8-1",           254,       73.5588,       42.4909,            0.,NA,NA,"",   1.10184E+06,   1.10572E+06,   1.10572E+06
C:/temp/Job-8.odb,Step-1,Increment      1: Step Time =    1.000,"P-8-1",           255,       53.7274,       43.9781,            0.,NA,NA,"",   1.09192E+06,   1.09329E+06,   1.09329E+06
C:/temp/Job-8.odb,Step-1,Increment      1: Step Time =    1.000,"P-8-1",           256,       41.6435,       39.7450,            0.,NA,NA,"",   1.05978E+06,   1.07748E+06,   1.07748E+06
C:/temp/Job-8.odb,Step-1,Increment      1: Step Time =    1.000,"P-8-1",           257,       32.8439,       39.8835,            0.,NA,NA,"",   1.03273E+06,   1.06756E+06,   1.06756E+06
C:/temp/Job-8.odb,Step-1,Increment      1: Step Time =    1.000,"P-8-1",           258,       22.4647,       41.9616,            0.,NA,NA,"",   983.446E+03,   1.04396E+06,   1.04396E+06
C:/temp/Job-8.odb,Step-1,Increment      1: Step Time =    1.000,"P-8-1",           259,       8.47019,       41.3224,            0.,NA,NA,"",   916.965E+03,   1.01109E+06,   1.01109E+06
C:/temp/Job-8.odb,Step-1,Increment      1: Step Time =    1.000,"P-8-1",           260,       190.301,       50.4369,            0.,NA,NA,"",   992.340E+03,   1.00416E+06,   1.00416E+06
C:/temp/Job-8.odb,Step-1,Increment      1: Step Time =    1.000,"P-8-1",           261,       180.472,       50.6297,            0.,NA,NA,"",   1.00901E+06,   1.01374E+06,   1.01374E+06
C:/temp/Job-8.odb,Step-1,Increment      1: Step Time =    1.000,"P-8-1",           262,       170.224,       55.2885,            0.,NA,NA,"",   1.03192E+06,   1.02713E+06,   1.02713E+06
C:/temp/Job-8.odb,Step-1,Increment      1: Step Time =    1.000,"P-8-1",           263,       156.341,       49.8745,            0.,NA,NA,"",   1.07717E+06,   1.05735E+06,   1.05735E+06
C:/temp/Job-8.odb,Step-1,Increment      1: Step Time =    1.000,"P-8-1",           264,       149.429,       49.8850,            0.,NA,NA,"",   1.09848E+06,   1.07351E+06,   1.07351E+06
C:/temp/Job-8.odb,Step-1,Increment      1: Step Time =    1.000,"P-8-1",           265,       137.738,       51.6487,            0.,NA,NA,"",   1.13918E+06,   1.10901E+06,   1.10901E+06
C:/temp/Job-8.odb,Step-1,Increment      1: Step Time =    1.000,"P-8-1",           266,       125.505,       50.8178,            0.,NA,NA,"",   1.14186E+06,   1.13092E+06,   1.13092E+06
C:/temp/Job-8.odb,Step-1,Increment      1: Step Time =    1.000,"P-8-1",           267,       115.378,       51.0402,            0.,NA,NA,"",   1.10380E+06,   1.12730E+06,   1.12730E+06
C:/temp/Job-8.odb,Step-1,Increment      1: Step Time =    1.000,"P-8-1",           268,       103.497,       48.6604,            0.,NA,NA,"",   1.04788E+06,   1.09652E+06,   1.09652E+06
C:/temp/Job-8.odb,Step-1,Increment      1: Step Time =    1.000,"P-8-1",           269,       93.6342,       54.3139,            0.,NA,NA,"",   1.07919E+06,   1.13638E+06,   1.13638E+06
C:/temp/Job-8.odb,Step-1,Increment      1: Step Time =    1.000,"P-8-1",           270,       84.7936,       54.4311,            0.,NA,NA,"",   1.12523E+06,   1.15505E+06,   1.15505E+06
C:/temp/Job-8.odb,Step-1,Increment      1: Step Time =    1.000,"P-8-1",           271,       74.3037,       53.6747,            0.,NA,NA,"",   1.15405E+06,   1.15117E+06,   1.15117E+06
C:/temp/Job-8.odb,Step-1,Increment      1: Step Time =    1.000,"P-8-1",           272,       64.2600,       55.5539,            0.,NA,NA,"",   1.13912E+06,   1.12596E+06,   1.12596E+06
C:/temp/Job-8.odb,Step-1,Increment      1: Step Time =    1.000,"P-8-1",           273,       55.5449,       53.6121,            0.,NA,NA,"",   1.09574E+06,   1.09337E+06,   1.09337E+06
C:/temp/Job-8.odb,Step-1,Increment      1: Step Time =    1.000,"P-8-1",           274,       40.8562,       51.3265,            0.,NA,NA,"",   1.02643E+06,   1.05248E+06,   1.05248E+06
C:/temp/Job-8.odb,Step-1,Increment      1: Step Time =    1.000,"P-8-1",           275,       32.9046,       49.7734,            0.,NA,NA,"",   996.780E+03,   1.03848E+06,   1.03848E+06
C:/temp/Job-8.odb,Step-1,Increment      1: Step Time =    1.000,"P-8-1",           276,       19.9859,       51.1132,            0.,NA,NA,"",   929.372E+03,   1.00152E+06,   1.00152E+06
C:/temp/Job-8.odb,Step-1,Increment      1: Step Time =    1.000,"P-8-1",           277,       8.99788,       50.3386,            0.,NA,NA,"",   881.754E+03,   975.761E+03,   975.761E+03
C:/temp/Job-8.odb,Step-1,Increment      1: Step Time =    1.000,"P-8-1",           278,       190.209,       64.9695,            0.,NA,NA,"",   977.851E+03,   1.00221E+06,   1.00221E+06
C:/temp/Job-8.odb,Step-1,Increment      1: Step Time =    1.000,"P-8-1",           279,       180.221,       64.9065,            0.,NA,NA,"",   994.547E+03,   1.00719E+06,   1.00719E+06
C:/temp/Job-8.odb,Step-1,Increment      1: Step Time =    1.000,"P-8-1",           280,       169.725,       65.1142,            0.,NA,NA,"",   1.01761E+06,   1.01625E+06,   1.01625E+06
C:/temp/Job-8.odb,Step-1,Increment      1: Step Time =    1.000,"P-8-1",           281,       158.005,       63.4167,            0.,NA,NA,"",   1.06300E+06,   1.04194E+06,   1.04194E+06
C:/temp/Job-8.odb,Step-1,Increment      1: Step Time =    1.000,"P-8-1",           282,       149.050,       60.2090,            0.,NA,NA,"",   1.11005E+06,   1.07600E+06,   1.07600E+06
C:/temp/Job-8.odb,Step-1,Increment      1: Step Time =    1.000,"P-8-1",           283,       134.883,       61.2033,            0.,NA,NA,"",   1.18634E+06,   1.13900E+06,   1.13900E+06
C:/temp/Job-8.odb,Step-1,Increment      1: Step Time =    1.000,"P-8-1",           284,       127.941,       61.9712,            0.,NA,NA,"",   1.21673E+06,   1.17555E+06,   1.17555E+06
C:/temp/Job-8.odb,Step-1,Increment      1: Step Time =    1.000,"P-8-1",           285,       117.889,       62.8001,            0.,NA,NA,"",   1.21501E+06,   1.21422E+06,   1.21422E+06
C:/temp/Job-8.odb,Step-1,Increment      1: Step Time =    1.000,"P-8-1",           286,       103.213,       61.6408,            0.,NA,NA,"",   1.10093E+06,   1.18428E+06,   1.18428E+06
C:/temp/Job-8.odb,Step-1,Increment      1: Step Time =    1.000,"P-8-1",           287,       94.8246,       64.8712,            0.,NA,NA,"",   1.13942E+06,   1.22623E+06,   1.22623E+06
C:/temp/Job-8.odb,Step-1,Increment      1: Step Time =    1.000,"P-8-1",           288,       84.4892,       62.9552,            0.,NA,NA,"",   1.19782E+06,   1.22356E+06,   1.22356E+06
C:/temp/Job-8.odb,Step-1,Increment      1: Step Time =    1.000,"P-8-1",           289,       71.9901,       62.4238,            0.,NA,NA,"",   1.19930E+06,   1.17444E+06,   1.17444E+06
C:/temp/Job-8.odb,Step-1,Increment      1: Step Time =    1.000,"P-8-1",           290,       62.7130,       65.9012,            0.,NA,NA,"",   1.12684E+06,   1.10338E+06,   1.10338E+06
C:/temp/Job-8.odb,Step-1,Increment      1: Step Time =    1.000,"P-8-1",           291,       52.4909,       63.1471,            0.,NA,NA,"",   1.05057E+06,   1.05457E+06,   1.05457E+06
C:/temp/Job-8.odb,Step-1,Increment      1: Step Time =    1.000,"P-8-1",           292,       34.6438,       61.4106,            0.,NA,NA,"",   948.836E+03,   995.939E+03,   995.939E+03
C:/temp/Job-8.odb,Step-1,Increment      1: Step Time =    1.000,"P-8-1",           293,       23.3556,       65.7479,            0.,NA,NA,"",   875.544E+03,   948.680E+03,   948.680E+03
C:/temp/Job-8.odb,Step-1,Increment      1: Step Time =    1.000,"P-8-1",           294,       9.40633,       65.1985,            0.,NA,NA,"",   828.377E+03,   922.171E+03,   922.171E+03
C:/temp/Job-8.odb,Step-1,Increment      1: Step Time =    1.000,"P-8-1",           295,       190.518,       135.015,            0.,NA,NA,"",   977.291E+03,   1.00213E+06,   1.00213E+06
C:/temp/Job-8.odb,Step-1,Increment      1: Step Time =    1.000,"P-8-1",           296,       180.825,       135.181,            0.,NA,NA,"",   993.437E+03,   1.00679E+06,   1.00679E+06
C:/temp/Job-8.odb,Step-1,Increment      1: Step Time =    1.000,"P-8-1",           297,       166.991,       136.556,            0.,NA,NA,"",   1.02762E+06,   1.02170E+06,   1.02170E+06
C:/temp/Job-8.odb,Step-1,Increment      1: Step Time =    1.000,"P-8-1",           298,       151.673,       138.125,            0.,NA,NA,"",   1.09318E+06,   1.06200E+06,   1.06200E+06
C:/temp/Job-8.odb,Step-1,Increment      1: Step Time =    1.000,"P-8-1",           299,       135.475,       137.446,            0.,NA,NA,"",   1.18705E+06,   1.13640E+06,   1.13640E+06
C:/temp/Job-8.odb,Step-1,Increment      1: Step Time =    1.000,"P-8-1",           300,       129.221,       136.299,            0.,NA,NA,"",   1.22485E+06,   1.17565E+06,   1.17565E+06
C:/temp/Job-8.odb,Step-1,Increment      1: Step Time =    1.000,"P-8-1",           301,       115.512,       140.682,            0.,NA,NA,"",   1.16990E+06,   1.18836E+06,   1.18836E+06
C:/temp/Job-8.odb,Step-1,Increment      1: Step Time =    1.000,"P-8-1",           302,       104.027,       134.800,            0.,NA,NA,"",   1.13606E+06,   1.23207E+06,   1.23207E+06
C:/temp/Job-8.odb,Step-1,Increment      1: Step Time =    1.000,"P-8-1",           303,       90.6386,       135.704,            0.,NA,NA,"",   1.16516E+06,   1.22775E+06,   1.22775E+06
C:/temp/Job-8.odb,Step-1,Increment      1: Step Time =    1.000,"P-8-1",           304,       81.4396,       139.026,            0.,NA,NA,"",   1.18733E+06,   1.19884E+06,   1.19884E+06
C:/temp/Job-8.odb,Step-1,Increment      1: Step Time =    1.000,"P-8-1",           305,       72.3066,       138.662,            0.,NA,NA,"",   1.19413E+06,   1.17451E+06,   1.17451E+06
C:/temp/Job-8.odb,Step-1,Increment      1: Step Time =    1.000,"P-8-1",           306,       63.3082,       134.094,            0.,NA,NA,"",   1.13824E+06,   1.11175E+06,   1.11175E+06
C:/temp/Job-8.odb,Step-1,Increment      1: Step Time =    1.000,"P-8-1",           307,       51.0054,       135.750,            0.,NA,NA,"",   1.03296E+06,   1.04072E+06,   1.04072E+06
C:/temp/Job-8.odb,Step-1,Increment      1: Step Time =    1.000,"P-8-1",           308,       39.3037,       136.612,            0.,NA,NA,"",   961.852E+03,   999.831E+03,   999.831E+03
C:/temp/Job-8.odb,Step-1,Increment      1: Step Time =    1.000,"P-8-1",           309,       29.3606,       135.955,            0.,NA,NA,"",   908.997E+03,   969.774E+03,   969.774E+03
C:/temp/Job-8.odb,Step-1,Increment      1: Step Time =    1.000,"P-8-1",           310,       19.6385,       135.595,            0.,NA,NA,"",   867.783E+03,   946.601E+03,   946.601E+03
C:/temp/Job-8.odb,Step-1,Increment      1: Step Time =    1.000,"P-8-1",           311,       9.83958,       135.215,            0.,NA,NA,"",   831.532E+03,   924.743E+03,   924.743E+03
C:/temp/Job-8.odb,Step-1,Increment      1: Step Time =    1.000,"P-8-1",           312,       186.758,       148.769,            0.,NA,NA,"",   996.660E+03,   1.00684E+06,   1.00684E+06
C:/temp/Job-8.odb,Step-1,Increment      1: Step Time =    1.000,"P-8-1",           313,       175.161,       145.160,            0.,NA,NA,"",   1.01821E+06,   1.01933E+06,   1.01933E+06
C:/temp/Job-8.odb,Step-1,Increment      1: Step Time =    1.000,"P-8-1",           314,       167.158,       144.793,            0.,NA,NA,"",   1.04010E+06,   1.03177E+06,   1.03177E+06
C:/temp/Job-8.odb,Step-1,Increment      1: Step Time =    1.000,"P-8-1",           315,       158.209,       146.219,            0.,NA,NA,"",   1.07123E+06,   1.05161E+06,   1.05161E+06
C:/temp/Job-8.odb,Step-1,Increment      1: Step Time =    1.000,"P-8-1",           316,       147.855,       147.302,            0.,NA,NA,"",   1.11042E+06,   1.08101E+06,   1.08101E+06
C:/temp/Job-8.odb,Step-1,Increment      1: Step Time =    1.000,"P-8-1",           317,       137.171,       147.816,            0.,NA,NA,"",   1.14473E+06,   1.11350E+06,   1.11350E+06
C:/temp/Job-8.odb,Step-1,Increment      1: Step Time =    1.000,"P-8-1",           318,       128.066,       148.195,            0.,NA,NA,"",   1.15077E+06,   1.13317E+06,   1.13317E+06
C:/temp/Job-8.odb,Step-1,Increment      1: Step Time =    1.000,"P-8-1",           319,       115.585,       151.839,            0.,NA,NA,"",   1.09076E+06,   1.11041E+06,   1.11041E+06
C:/temp/Job-8.odb,Step-1,Increment      1: Step Time =    1.000,"P-8-1",           320,       101.146,       145.321,            0.,NA,NA,"",   1.05813E+06,   1.12580E+06,   1.12580E+06
C:/temp/Job-8.odb,Step-1,Increment      1: Step Time =    1.000,"P-8-1",           321,       91.7005,       150.228,            0.,NA,NA,"",   1.06887E+06,   1.11286E+06,   1.11286E+06
C:/temp/Job-8.odb,Step-1,Increment      1: Step Time =    1.000,"P-8-1",           322,       83.9289,       148.503,            0.,NA,NA,"",   1.11192E+06,   1.13686E+06,   1.13686E+06
C:/temp/Job-8.odb,Step-1,Increment      1: Step Time =    1.000,"P-8-1",           323,       75.8899,       147.473,            0.,NA,NA,"",   1.14329E+06,   1.14598E+06,   1.14598E+06
C:/temp/Job-8.odb,Step-1,Increment      1: Step Time =    1.000,"P-8-1",           324,       61.8709,       147.891,            0.,NA,NA,"",   1.12473E+06,   1.11623E+06,   1.11623E+06
C:/temp/Job-8.odb,Step-1,Increment      1: Step Time =    1.000,"P-8-1",           325,       49.2495,       146.489,            0.,NA,NA,"",   1.06290E+06,   1.07196E+06,   1.07196E+06
C:/temp/Job-8.odb,Step-1,Increment      1: Step Time =    1.000,"P-8-1",           326,       42.3707,       148.611,            0.,NA,NA,"",   1.03480E+06,   1.05729E+06,   1.05729E+06
C:/temp/Job-8.odb,Step-1,Increment      1: Step Time =    1.000,"P-8-1",           327,       31.0153,       149.782,            0.,NA,NA,"",   984.280E+03,   1.03103E+06,   1.03103E+06
C:/temp/Job-8.odb,Step-1,Increment      1: Step Time =    1.000,"P-8-1",           328,       19.7448,       145.077,            0.,NA,NA,"",   910.361E+03,   985.083E+03,   985.083E+03
C:/temp/Job-8.odb,Step-1,Increment      1: Step Time =    1.000,"P-8-1",           329,       9.70022,       149.863,            0.,NA,NA,"",   885.833E+03,   978.514E+03,   978.514E+03
C:/temp/Job-8.odb,Step-1,Increment      1: Step Time =    1.000,"P-8-1",           330,       188.594,       158.570,            0.,NA,NA,"",   999.638E+03,   1.00540E+06,   1.00540E+06
C:/temp/Job-8.odb,Step-1,Increment      1: Step Time =    1.000,"P-8-1",           331,       180.633,       155.640,            0.,NA,NA,"",   1.01053E+06,   1.01333E+06,   1.01333E+06
C:/temp/Job-8.odb,Step-1,Increment      1: Step Time =    1.000,"P-8-1",           332,       168.620,       155.039,            0.,NA,NA,"",   1.03761E+06,   1.03054E+06,   1.03054E+06
C:/temp/Job-8.odb,Step-1,Increment      1: Step Time =    1.000,"P-8-1",           333,       159.641,       158.287,            0.,NA,NA,"",   1.05746E+06,   1.04398E+06,   1.04398E+06
C:/temp/Job-8.odb,Step-1,Increment      1: Step Time =    1.000,"P-8-1",           334,       148.676,       157.283,            0.,NA,NA,"",   1.08617E+06,   1.06632E+06,   1.06632E+06
C:/temp/Job-8.odb,Step-1,Increment      1: Step Time =    1.000,"P-8-1",           335,       135.590,       157.887,            0.,NA,NA,"",   1.09975E+06,   1.08388E+06,   1.08388E+06
C:/temp/Job-8.odb,Step-1,Increment      1: Step Time =    1.000,"P-8-1",           336,       125.202,       158.829,            0.,NA,NA,"",   1.08582E+06,   1.08404E+06,   1.08404E+06
C:/temp/Job-8.odb,Step-1,Increment      1: Step Time =    1.000,"P-8-1",           337,       115.075,       159.118,            0.,NA,NA,"",   1.05934E+06,   1.07682E+06,   1.07682E+06
C:/temp/Job-8.odb,Step-1,Increment      1: Step Time =    1.000,"P-8-1",           338,       101.710,       157.550,            0.,NA,NA,"",   1.03181E+06,   1.07080E+06,   1.07080E+06
C:/temp/Job-8.odb,Step-1,Increment      1: Step Time =    1.000,"P-8-1",           339,       84.9846,       158.269,            0.,NA,NA,"",   1.06620E+06,   1.08887E+06,   1.08887E+06
C:/temp/Job-8.odb,Step-1,Increment      1: Step Time =    1.000,"P-8-1",           340,       75.1023,       155.822,            0.,NA,NA,"",   1.10544E+06,   1.11182E+06,   1.11182E+06
C:/temp/Job-8.odb,Step-1,Increment      1: Step Time =    1.000,"P-8-1",           341,       60.2433,       158.067,            0.,NA,NA,"",   1.10315E+06,   1.10051E+06,   1.10051E+06
C:/temp/Job-8.odb,Step-1,Increment      1: Step Time =    1.000,"P-8-1",           342,       52.0027,       160.087,            0.,NA,NA,"",   1.08590E+06,   1.08931E+06,   1.08931E+06
C:/temp/Job-8.odb,Step-1,Increment      1: Step Time =    1.000,"P-8-1",           343,       41.2770,       159.809,            0.,NA,NA,"",   1.05948E+06,   1.07804E+06,   1.07804E+06
C:/temp/Job-8.odb,Step-1,Increment      1: Step Time =    1.000,"P-8-1",           344,       28.4375,       159.733,            0.,NA,NA,"",   1.01768E+06,   1.06222E+06,   1.06222E+06
C:/temp/Job-8.odb,Step-1,Increment      1: Step Time =    1.000,"P-8-1",           345,       17.8294,       159.771,            0.,NA,NA,"",   972.052E+03,   1.04258E+06,   1.04258E+06
C:/temp/Job-8.odb,Step-1,Increment      1: Step Time =    1.000,"P-8-1",           346,       9.37978,       159.419,            0.,NA,NA,"",   924.428E+03,   1.01628E+06,   1.01628E+06
C:/temp/Job-8.odb,Step-1,Increment      1: Step Time =    1.000,"P-8-1",           347,       190.018,       169.570,            0.,NA,NA,"",   1.00085E+06,   1.00307E+06,   1.00307E+06
C:/temp/Job-8.odb,Step-1,Increment      1: Step Time =    1.000,"P-8-1",           348,       176.903,       170.149,            0.,NA,NA,"",   1.01299E+06,   1.01200E+06,   1.01200E+06
C:/temp/Job-8.odb,Step-1,Increment      1: Step Time =    1.000,"P-8-1",           349,       169.961,       172.067,            0.,NA,NA,"",   1.02008E+06,   1.01657E+06,   1.01657E+06
C:/temp/Job-8.odb,Step-1,Increment      1: Step Time =    1.000,"P-8-1",           350,       159.282,       170.003,            0.,NA,NA,"",   1.03637E+06,   1.02833E+06,   1.02833E+06
C:/temp/Job-8.odb,Step-1,Increment      1: Step Time =    1.000,"P-8-1",           351,       144.254,       170.373,            0.,NA,NA,"",   1.05009E+06,   1.03998E+06,   1.03998E+06
C:/temp/Job-8.odb,Step-1,Increment      1: Step Time =    1.000,"P-8-1",           352,       134.921,       170.447,            0.,NA,NA,"",   1.04918E+06,   1.04252E+06,   1.04252E+06
C:/temp/Job-8.odb,Step-1,Increment      1: Step Time =    1.000,"P-8-1",           353,       125.162,       170.377,            0.,NA,NA,"",   1.03982E+06,   1.04086E+06,   1.04086E+06
C:/temp/Job-8.odb,Step-1,Increment      1: Step Time =    1.000,"P-8-1",           354,       116.084,       171.043,            0.,NA,NA,"",   1.02258E+06,   1.03218E+06,   1.03218E+06
C:/temp/Job-8.odb,Step-1,Increment      1: Step Time =    1.000,"P-8-1",           355,       106.768,       168.216,            0.,NA,NA,"",   1.01644E+06,   1.03685E+06,   1.03685E+06
C:/temp/Job-8.odb,Step-1,Increment      1: Step Time =    1.000,"P-8-1",           356,       95.4591,       169.454,            0.,NA,NA,"",   1.01425E+06,   1.03500E+06,   1.03500E+06
C:/temp/Job-8.odb,Step-1,Increment      1: Step Time =    1.000,"P-8-1",           357,       85.5634,       170.163,            0.,NA,NA,"",   1.03144E+06,   1.04509E+06,   1.04509E+06
C:/temp/Job-8.odb,Step-1,Increment      1: Step Time =    1.000,"P-8-1",           358,       70.9048,       165.276,            0.,NA,NA,"",   1.07787E+06,   1.08039E+06,   1.08039E+06
C:/temp/Job-8.odb,Step-1,Increment      1: Step Time =    1.000,"P-8-1",           359,       62.1495,       166.316,            0.,NA,NA,"",   1.08462E+06,   1.08395E+06,   1.08395E+06
C:/temp/Job-8.odb,Step-1,Increment      1: Step Time =    1.000,"P-8-1",           360,       51.3577,       171.443,            0.,NA,NA,"",   1.07704E+06,   1.07929E+06,   1.07929E+06
C:/temp/Job-8.odb,Step-1,Increment      1: Step Time =    1.000,"P-8-1",           361,       40.3566,       170.805,            0.,NA,NA,"",   1.07422E+06,   1.08647E+06,   1.08647E+06
C:/temp/Job-8.odb,Step-1,Increment      1: Step Time =    1.000,"P-8-1",           362,       30.1594,       170.847,            0.,NA,NA,"",   1.06411E+06,   1.09342E+06,   1.09342E+06
C:/temp/Job-8.odb,Step-1,Increment      1: Step Time =    1.000,"P-8-1",           363,       20.4648,       164.481,            0.,NA,NA,"",   1.00226E+06,   1.06342E+06,   1.06342E+06
C:/temp/Job-8.odb,Step-1,Increment      1: Step Time =    1.000,"P-8-1",           364,       9.76843,       168.994,            0.,NA,NA,"",   976.999E+03,   1.06436E+06,   1.06436E+06
C:/temp/Job-8.odb,Step-1,Increment      1: Step Time =    1.000,"P-8-1",           365,       190.068,       179.668,            0.,NA,NA,"",   1.00098E+06,   1.00161E+06,   1.00161E+06
C:/temp/Job-8.odb,Step-1,Increment      1: Step Time =    1.000,"P-8-1",           366,       176.460,       177.301,            0.,NA,NA,"",   1.00885E+06,   1.00797E+06,   1.00797E+06
C:/temp/Job-8.odb,Step-1,Increment      1: Step Time =    1.000,"P-8-1",           367,       167.775,       180.944,            0.,NA,NA,"",   1.01199E+06,   1.00962E+06,   1.00962E+06
C:/temp/Job-8.odb,Step-1,Increment      1: Step Time =    1.000,"P-8-1",           368,       158.703,       180.684,            0.,NA,NA,"",   1.01697E+06,   1.01289E+06,   1.01289E+06
C:/temp/Job-8.odb,Step-1,Increment      1: Step Time =    1.000,"P-8-1",           369,       149.355,       180.347,            0.,NA,NA,"",   1.01977E+06,   1.01478E+06,   1.01478E+06
C:/temp/Job-8.odb,Step-1,Increment      1: Step Time =    1.000,"P-8-1",           370,       134.988,       180.234,            0.,NA,NA,"",   1.01499E+06,   1.01195E+06,   1.01195E+06
C:/temp/Job-8.odb,Step-1,Increment      1: Step Time =    1.000,"P-8-1",           371,       125.308,       180.234,            0.,NA,NA,"",   1.00538E+06,   1.00604E+06,   1.00604E+06
C:/temp/Job-8.odb,Step-1,Increment      1: Step Time =    1.000,"P-8-1",           372,       115.507,       180.145,            0.,NA,NA,"",   994.126E+03,   999.736E+03,   999.736E+03
C:/temp/Job-8.odb,Step-1,Increment      1: Step Time =    1.000,"P-8-1",           373,       105.475,       179.641,            0.,NA,NA,"",   987.361E+03,   996.985E+03,   996.985E+03
C:/temp/Job-8.odb,Step-1,Increment      1: Step Time =    1.000,"P-8-1",           374,       95.3799,       179.619,            0.,NA,NA,"",   989.468E+03,   999.716E+03,   999.716E+03
C:/temp/Job-8.odb,Step-1,Increment      1: Step Time =    1.000,"P-8-1",           375,       85.2169,       179.976,            0.,NA,NA,"",   1.00178E+06,   1.00870E+06,   1.00870E+06
C:/temp/Job-8.odb,Step-1,Increment      1: Step Time =    1.000,"P-8-1",           376,       75.3181,       180.279,            0.,NA,NA,"",   1.01891E+06,   1.02164E+06,   1.02164E+06
C:/temp/Job-8.odb,Step-1,Increment      1: Step Time =    1.000,"P-8-1",           377,       65.3876,       180.368,            0.,NA,NA,"",   1.03695E+06,   1.03694E+06,   1.03694E+06
C:/temp/Job-8.odb,Step-1,Increment      1: Step Time =    1.000,"P-8-1",           378,       54.2114,       179.824,            0.,NA,NA,"",   1.05687E+06,   1.05698E+06,   1.05698E+06
C:/temp/Job-8.odb,Step-1,Increment      1: Step Time =    1.000,"P-8-1",           379,       39.4912,       175.292,            0.,NA,NA,"",   1.07819E+06,   1.08847E+06,   1.08847E+06
C:/temp/Job-8.odb,Step-1,Increment      1: Step Time =    1.000,"P-8-1",           380,       31.3638,       180.345,            0.,NA,NA,"",   1.09116E+06,   1.10595E+06,   1.10595E+06
C:/temp/Job-8.odb,Step-1,Increment      1: Step Time =    1.000,"P-8-1",           381,       24.4323,       178.793,            0.,NA,NA,"",   1.08953E+06,   1.11912E+06,   1.11912E+06
C:/temp/Job-8.odb,Step-1,Increment      1: Step Time =    1.000,"P-8-1",           382,       10.0827,       179.208,            0.,NA,NA,"",   1.05846E+06,   1.13470E+06,   1.13470E+06
C:/temp/Job-8.odb,Step-1,Increment      1: Step Time =    1.000,"P-8-1",           383,       189.790,       189.678,            0.,NA,NA,"",   1.00031E+06,   1.00042E+06,   1.00042E+06
C:/temp/Job-8.odb,Step-1,Increment      1: Step Time =    1.000,"P-8-1",           384,       179.298,       189.396,            0.,NA,NA,"",   1.00165E+06,   1.00153E+06,   1.00153E+06
C:/temp/Job-8.odb,Step-1,Increment      1: Step Time =    1.000,"P-8-1",           385,       169.082,       190.118,            0.,NA,NA,"",   1.00255E+06,   1.00184E+06,   1.00184E+06
C:/temp/Job-8.odb,Step-1,Increment      1: Step Time =    1.000,"P-8-1",           386,       159.317,       190.275,            0.,NA,NA,"",   1.00160E+06,   1.00035E+06,   1.00035E+06
C:/temp/Job-8.odb,Step-1,Increment      1: Step Time =    1.000,"P-8-1",           387,       149.622,       190.230,            0.,NA,NA,"",   997.503E+03,   995.975E+03,   995.975E+03
C:/temp/Job-8.odb,Step-1,Increment      1: Step Time =    1.000,"P-8-1",           388,       135.003,       190.176,            0.,NA,NA,"",   983.756E+03,   982.823E+03,   982.823E+03
C:/temp/Job-8.odb,Step-1,Increment      1: Step Time =    1.000,"P-8-1",           389,       125.163,       190.117,            0.,NA,NA,"",   970.982E+03,   971.212E+03,   971.212E+03
C:/temp/Job-8.odb,Step-1,Increment      1: Step Time =    1.000,"P-8-1",           390,       115.173,       189.999,            0.,NA,NA,"",   958.752E+03,   960.555E+03,   960.555E+03
C:/temp/Job-8.odb,Step-1,Increment      1: Step Time =    1.000,"P-8-1",           391,       105.109,       189.882,            0.,NA,NA,"",   951.875E+03,   954.813E+03,   954.813E+03
C:/temp/Job-8.odb,Step-1,Increment      1: Step Time =    1.000,"P-8-1",           392,       95.0853,       189.862,            0.,NA,NA,"",   953.409E+03,   956.451E+03,   956.451E+03
C:/temp/Job-8.odb,Step-1,Increment      1: Step Time =    1.000,"P-8-1",           393,       85.0514,       189.987,            0.,NA,NA,"",   963.582E+03,   965.665E+03,   965.665E+03
C:/temp/Job-8.odb,Step-1,Increment      1: Step Time =    1.000,"P-8-1",           394,       75.0494,       190.161,            0.,NA,NA,"",   980.183E+03,   980.893E+03,   980.893E+03
C:/temp/Job-8.odb,Step-1,Increment      1: Step Time =    1.000,"P-8-1",           395,       65.0567,       190.297,            0.,NA,NA,"",   999.877E+03,   999.687E+03,   999.687E+03
C:/temp/Job-8.odb,Step-1,Increment      1: Step Time =    1.000,"P-8-1",           396,       50.9685,       186.545,            0.,NA,NA,"",   1.04476E+06,   1.04484E+06,   1.04484E+06
C:/temp/Job-8.odb,Step-1,Increment      1: Step Time =    1.000,"P-8-1",           397,       41.1191,       188.979,            0.,NA,NA,"",   1.05805E+06,   1.05980E+06,   1.05980E+06
C:/temp/Job-8.odb,Step-1,Increment      1: Step Time =    1.000,"P-8-1",           398,       30.5773,       189.805,            0.,NA,NA,"",   1.08877E+06,   1.09408E+06,   1.09408E+06
C:/temp/Job-8.odb,Step-1,Increment      1: Step Time =    1.000,"P-8-1",           399,       20.5711,       189.243,            0.,NA,NA,"",   1.13864E+06,   1.15386E+06,   1.15386E+06
C:/temp/Job-8.odb,Step-1,Increment      1: Step Time =    1.000,"P-8-1",           400,       10.2819,       189.588,            0.,NA,NA,"",   1.21478E+06,   1.25774E+06,   1.25774E+06
C:/temp/Job-8.odb,Step-1,Increment      1: Step Time =    1.000,"P-8-1",           401,       95.0557,       115.217,            0.,NA,NA,"",   2.07617E+06,   2.14698E+06,   2.14698E+06
C:/temp/Job-8.odb,Step-1,Increment      1: Step Time =    1.000,"P-8-1",           402,       84.7831,       104.944,            0.,NA,NA,"",   471.726E+03,  -394.954E+03,  -394.954E+03
C:/temp/Job-8.odb,Step-1,Increment      1: Step Time =    1.000,"P-8-1",           403,       84.7831,       95.0557,            0.,NA,NA,"",   511.361E+03,  -147.497E+03,  -147.497E+03
C:/temp/Job-8.odb,Step-1,Increment      1: Step Time =    1.000,"P-8-1",           404,       95.0557,       84.7831,            0.,NA,NA,"",   2.08253E+06,   2.15961E+06,   2.15961E+06
C:/temp/Job-8.odb,Step-1,Increment      1: Step Time =    1.000,"P-8-1",           405,       104.944,       84.7831,            0.,NA,NA,"",   1.97476E+06,   2.06649E+06,   2.06649E+06
C:/temp/Job-8.odb,Step-1,Increment      1: Step Time =    1.000,"P-8-1",           406,       115.217,       95.0557,            0.,NA,NA,"",   570.770E+03,  -469.318E+03,  -469.318E+03
C:/temp/Job-8.odb,Step-1,Increment      1: Step Time =    1.000,"P-8-1",           407,       115.217,       104.944,            0.,NA,NA,"",   570.148E+03,  -160.433E+03,  -160.433E+03
C:/temp/Job-8.odb,Step-1,Increment      1: Step Time =    1.000,"P-8-1",           408,       104.944,       115.217,            0.,NA,NA,"",   1.92739E+06,   2.02820E+06,   2.02820E+06
C:/temp/Job-8.odb,Step-1,Increment      1: Step Time =    1.000,"P-8-1",           409,          195.,            0.,            0.,NA,NA,"",   999.825E+03,   999.803E+03,   999.803E+03
C:/temp/Job-8.odb,Step-1,Increment      1: Step Time =    1.000,"P-8-1",           410,          185.,            0.,            0.,NA,NA,"",   999.227E+03,   999.240E+03,   999.240E+03
C:/temp/Job-8.odb,Step-1,Increment      1: Step Time =    1.000,"P-8-1",           411,          175.,            0.,            0.,NA,NA,"",   998.688E+03,   998.644E+03,   998.644E+03
C:/temp/Job-8.odb,Step-1,Increment      1: Step Time =    1.000,"P-8-1",           412,          165.,            0.,            0.,NA,NA,"",   996.763E+03,   996.643E+03,   996.643E+03
C:/temp/Job-8.odb,Step-1,Increment      1: Step Time =    1.000,"P-8-1",           413,          155.,            0.,            0.,NA,NA,"",   991.145E+03,   990.989E+03,   990.989E+03
C:/temp/Job-8.odb,Step-1,Increment      1: Step Time =    1.000,"P-8-1",           414,          145.,            0.,            0.,NA,NA,"",   979.658E+03,   979.503E+03,   979.503E+03
C:/temp/Job-8.odb,Step-1,Increment      1: Step Time =    1.000,"P-8-1",           415,          135.,            0.,            0.,NA,NA,"",   962.788E+03,   962.683E+03,   962.683E+03
C:/temp/Job-8.odb,Step-1,Increment      1: Step Time =    1.000,"P-8-1",           416,          125.,            0.,            0.,NA,NA,"",   943.034E+03,   943.070E+03,   943.070E+03
C:/temp/Job-8.odb,Step-1,Increment      1: Step Time =    1.000,"P-8-1",           417,          115.,            0.,            0.,NA,NA,"",   925.083E+03,   925.319E+03,   925.319E+03
C:/temp/Job-8.odb,Step-1,Increment      1: Step Time =    1.000,"P-8-1",           418,          105.,            0.,            0.,NA,NA,"",   914.564E+03,   914.920E+03,   914.920E+03
C:/temp/Job-8.odb,Step-1,Increment      1: Step Time =    1.000,"P-8-1",           419,           95.,            0.,            0.,NA,NA,"",   914.922E+03,   915.290E+03,   915.290E+03
C:/temp/Job-8.odb,Step-1,Increment      1: Step Time =    1.000,"P-8-1",           420,           85.,            0.,            0.,NA,NA,"",   926.523E+03,   926.781E+03,   926.781E+03
C:/temp/Job-8.odb,Step-1,Increment      1: Step Time =    1.000,"P-8-1",           421,           75.,            0.,            0.,NA,NA,"",   946.376E+03,   946.475E+03,   946.475E+03
C:/temp/Job-8.odb,Step-1,Increment      1: Step Time =    1.000,"P-8-1",           422,           65.,            0.,            0.,NA,NA,"",   969.783E+03,   969.793E+03,   969.793E+03
C:/temp/Job-8.odb,Step-1,Increment      1: Step Time =    1.000,"P-8-1",           423,           55.,            0.,            0.,NA,NA,"",   993.076E+03,   993.116E+03,   993.116E+03
C:/temp/Job-8.odb,Step-1,Increment      1: Step Time =    1.000,"P-8-1",           424,           45.,            0.,            0.,NA,NA,"",   1.01564E+06,   1.01585E+06,   1.01585E+06
C:/temp/Job-8.odb,Step-1,Increment      1: Step Time =    1.000,"P-8-1",           425,           35.,            0.,            0.,NA,NA,"",   1.04130E+06,   1.04191E+06,   1.04191E+06
C:/temp/Job-8.odb,Step-1,Increment      1: Step Time =    1.000,"P-8-1",           426,           25.,            0.,            0.,NA,NA,"",   1.08134E+06,   1.08294E+06,   1.08294E+06
C:/temp/Job-8.odb,Step-1,Increment      1: Step Time =    1.000,"P-8-1",           427,           15.,            0.,            0.,NA,NA,"",   1.16531E+06,   1.17068E+06,   1.17068E+06
C:/temp/Job-8.odb,Step-1,Increment      1: Step Time =    1.000,"P-8-1",           428,            5.,            0.,            0.,NA,NA,"",   1.46340E+06,   1.49679E+06,   1.49679E+06
C:/temp/Job-8.odb,Step-1,Increment      1: Step Time =    1.000,"P-8-1",           429,          200.,          195.,            0.,NA,NA,"",   1.00005E+06,   999.955E+03,   999.955E+03
C:/temp/Job-8.odb,Step-1,Increment      1: Step Time =    1.000,"P-8-1",           430,          200.,          185.,            0.,NA,NA,"",   1.00039E+06,   1.00011E+06,   1.00011E+06
C:/temp/Job-8.odb,Step-1,Increment      1: Step Time =    1.000,"P-8-1",           431,          200.,          175.,            0.,NA,NA,"",   999.859E+03,   1.00031E+06,   1.00031E+06
C:/temp/Job-8.odb,Step-1,Increment      1: Step Time =    1.000,"P-8-1",           432,          200.,          165.,            0.,NA,NA,"",   996.922E+03,   1.00042E+06,   1.00042E+06
C:/temp/Job-8.odb,Step-1,Increment      1: Step Time =    1.000,"P-8-1",           433,          200.,          155.,            0.,NA,NA,"",   990.874E+03,   1.00047E+06,   1.00047E+06
C:/temp/Job-8.odb,Step-1,Increment      1: Step Time =    1.000,"P-8-1",           434,          200.,          145.,            0.,NA,NA,"",   980.664E+03,   1.00036E+06,   1.00036E+06
C:/temp/Job-8.odb,Step-1,Increment      1: Step Time =    1.000,"P-8-1",           435,          200.,          135.,            0.,NA,NA,"",   968.167E+03,   1.00035E+06,   1.00035E+06
C:/temp/Job-8.odb,Step-1,Increment      1: Step Time =    1.000,"P-8-1",           436,          200.,          125.,            0.,NA,NA,"",   954.732E+03,   999.825E+03,   999.825E+03
C:/temp/Job-8.odb,Step-1,Increment      1: Step Time =    1.000,"P-8-1",           437,          200.,          115.,            0.,NA,NA,"",   943.874E+03,   999.375E+03,   999.375E+03
C:/temp/Job-8.odb,Step-1,Increment      1: Step Time =    1.000,"P-8-1",           438,          200.,          105.,            0.,NA,NA,"",   937.428E+03,   998.922E+03,   998.922E+03
C:/temp/Job-8.odb,Step-1,Increment      1: Step Time =    1.000,"P-8-1",           439,          200.,           95.,            0.,NA,NA,"",   937.481E+03,   999.024E+03,   999.024E+03
C:/temp/Job-8.odb,Step-1,Increment      1: Step Time =    1.000,"P-8-1",           440,          200.,           85.,            0.,NA,NA,"",   943.815E+03,   999.367E+03,   999.367E+03
C:/temp/Job-8.odb,Step-1,Increment      1: Step Time =    1.000,"P-8-1",           441,          200.,           75.,            0.,NA,NA,"",   955.034E+03,   999.862E+03,   999.862E+03
C:/temp/Job-8.odb,Step-1,Increment      1: Step Time =    1.000,"P-8-1",           442,          200.,           65.,            0.,NA,NA,"",   968.432E+03,   1.00025E+06,   1.00025E+06
C:/temp/Job-8.odb,Step-1,Increment      1: Step Time =    1.000,"P-8-1",           443,          200.,           55.,            0.,NA,NA,"",   981.089E+03,   1.00045E+06,   1.00045E+06
C:/temp/Job-8.odb,Step-1,Increment      1: Step Time =    1.000,"P-8-1",           444,          200.,           45.,            0.,NA,NA,"",   990.913E+03,   1.00047E+06,   1.00047E+06
C:/temp/Job-8.odb,Step-1,Increment      1: Step Time =    1.000,"P-8-1",           445,          200.,           35.,            0.,NA,NA,"",   997.083E+03,   1.00040E+06,   1.00040E+06
C:/temp/Job-8.odb,Step-1,Increment      1: Step Time =    1.000,"P-8-1",           446,          200.,           25.,            0.,NA,NA,"",   999.832E+03,   1.00027E+06,   1.00027E+06
C:/temp/Job-8.odb,Step-1,Increment      1: Step Time =    1.000,"P-8-1",           447,          200.,           15.,            0.,NA,NA,"",   1.00040E+06,   1.00014E+06,   1.00014E+06
C:/temp/Job-8.odb,Step-1,Increment      1: Step Time =    1.000,"P-8-1",           448,          200.,            5.,            0.,NA,NA,"",   1.00006E+06,   999.961E+03,   999.961E+03
C:/temp/Job-8.odb,Step-1,Increment      1: Step Time =    1.000,"P-8-1",           449,            5.,          200.,            0.,NA,NA,"",   1.46452E+06,   1.49833E+06,   1.49833E+06
C:/temp/Job-8.odb,Step-1,Increment      1: Step Time =    1.000,"P-8-1",           450,           15.,          200.,            0.,NA,NA,"",   1.16707E+06,   1.17263E+06,   1.17263E+06
C:/temp/Job-8.odb,Step-1,Increment      1: Step Time =    1.000,"P-8-1",           451,           25.,          200.,            0.,NA,NA,"",   1.08237E+06,   1.08413E+06,   1.08413E+06
C:/temp/Job-8.odb,Step-1,Increment      1: Step Time =    1.000,"P-8-1",           452,           35.,          200.,            0.,NA,NA,"",   1.04154E+06,   1.04227E+06,   1.04227E+06
C:/temp/Job-8.odb,Step-1,Increment      1: Step Time =    1.000,"P-8-1",           453,           45.,          200.,            0.,NA,NA,"",   1.01590E+06,   1.01610E+06,   1.01610E+06
C:/temp/Job-8.odb,Step-1,Increment      1: Step Time =    1.000,"P-8-1",           454,           55.,          200.,            0.,NA,NA,"",   992.273E+03,   992.334E+03,   992.334E+03
C:/temp/Job-8.odb,Step-1,Increment      1: Step Time =    1.000,"P-8-1",           455,           65.,          200.,            0.,NA,NA,"",   969.133E+03,   969.161E+03,   969.161E+03
C:/temp/Job-8.odb,Step-1,Increment      1: Step Time =    1.000,"P-8-1",           456,           75.,          200.,            0.,NA,NA,"",   946.021E+03,   946.129E+03,   946.129E+03
C:/temp/Job-8.odb,Step-1,Increment      1: Step Time =    1.000,"P-8-1",           457,           85.,          200.,            0.,NA,NA,"",   926.357E+03,   926.620E+03,   926.620E+03
C:/temp/Job-8.odb,Step-1,Increment      1: Step Time =    1.000,"P-8-1",           458,           95.,          200.,            0.,NA,NA,"",   914.909E+03,   915.274E+03,   915.274E+03
C:/temp/Job-8.odb,Step-1,Increment      1: Step Time =    1.000,"P-8-1",           459,          105.,          200.,            0.,NA,NA,"",   914.667E+03,   915.020E+03,   915.020E+03
C:/temp/Job-8.odb,Step-1,Increment      1: Step Time =    1.000,"P-8-1",           460,          115.,          200.,            0.,NA,NA,"",   925.405E+03,   925.617E+03,   925.617E+03
C:/temp/Job-8.odb,Step-1,Increment      1: Step Time =    1.000,"P-8-1",           461,          125.,          200.,            0.,NA,NA,"",   943.471E+03,   943.486E+03,   943.486E+03
C:/temp/Job-8.odb,Step-1,Increment      1: Step Time =    1.000,"P-8-1",           462,          135.,          200.,            0.,NA,NA,"",   963.281E+03,   963.164E+03,   963.164E+03
C:/temp/Job-8.odb,Step-1,Increment      1: Step Time =    1.000,"P-8-1",           463,          145.,          200.,            0.,NA,NA,"",   980.040E+03,   979.872E+03,   979.872E+03
C:/temp/Job-8.odb,Step-1,Increment      1: Step Time =    1.000,"P-8-1",           464,          155.,          200.,            0.,NA,NA,"",   991.281E+03,   991.127E+03,   991.127E+03
C:/temp/Job-8.odb,Step-1,Increment      1: Step Time =    1.000,"P-8-1",           465,          165.,          200.,            0.,NA,NA,"",   996.952E+03,   996.842E+03,   996.842E+03
C:/temp/Job-8.odb,Step-1,Increment      1: Step Time =    1.000,"P-8-1",           466,          175.,          200.,            0.,NA,NA,"",   998.783E+03,   998.743E+03,   998.743E+03
C:/temp/Job-8.odb,Step-1,Increment      1: Step Time =    1.000,"P-8-1",           467,          185.,          200.,            0.,NA,NA,"",   999.262E+03,   999.273E+03,   999.273E+03
C:/temp/Job-8.odb,Step-1,Increment      1: Step Time =    1.000,"P-8-1",           468,          195.,          200.,            0.,NA,NA,"",   999.828E+03,   999.805E+03,   999.805E+03
C:/temp/Job-8.odb,Step-1,Increment      1: Step Time =    1.000,"P-8-1",           469,            0.,            5.,            0.,NA,NA,"",   1.41079E+06,   1.49875E+06,   1.49875E+06
C:/temp/Job-8.odb,Step-1,Increment      1: Step Time =    1.000,"P-8-1",           470,            0.,           15.,            0.,NA,NA,"",   1.07215E+06,   1.17615E+06,   1.17615E+06
C:/temp/Job-8.odb,Step-1,Increment      1: Step Time =    1.000,"P-8-1",           471,            0.,           25.,            0.,NA,NA,"",   972.180E+03,   1.07787E+06,   1.07787E+06
C:/temp/Job-8.odb,Step-1,Increment      1: Step Time =    1.000,"P-8-1",           472,            0.,           35.,            0.,NA,NA,"",   912.456E+03,   1.01908E+06,   1.01908E+06
C:/temp/Job-8.odb,Step-1,Increment      1: Step Time =    1.000,"P-8-1",           473,            0.,           45.,            0.,NA,NA,"",   870.250E+03,    976.05E+03,    976.05E+03
C:/temp/Job-8.odb,Step-1,Increment      1: Step Time =    1.000,"P-8-1",           474,            0.,           55.,            0.,NA,NA,"",   836.764E+03,   940.629E+03,   940.629E+03
C:/temp/Job-8.odb,Step-1,Increment      1: Step Time =    1.000,"P-8-1",           475,            0.,           65.,            0.,NA,NA,"",   806.806E+03,   908.437E+03,   908.437E+03
C:/temp/Job-8.odb,Step-1,Increment      1: Step Time =    1.000,"P-8-1",           476,            0.,           75.,            0.,NA,NA,"",   780.237E+03,   879.706E+03,   879.706E+03
C:/temp/Job-8.odb,Step-1,Increment      1: Step Time =    1.000,"P-8-1",           477,            0.,           85.,            0.,NA,NA,"",    760.07E+03,   857.778E+03,   857.778E+03
C:/temp/Job-8.odb,Step-1,Increment      1: Step Time =    1.000,"P-8-1",           478,            0.,           95.,            0.,NA,NA,"",   748.729E+03,   845.486E+03,   845.486E+03
C:/temp/Job-8.odb,Step-1,Increment      1: Step Time =    1.000,"P-8-1",           479,            0.,          105.,            0.,NA,NA,"",   748.918E+03,   845.698E+03,   845.698E+03
C:/temp/Job-8.odb,Step-1,Increment      1: Step Time =    1.000,"P-8-1",           480,            0.,          115.,            0.,NA,NA,"",   760.301E+03,   858.039E+03,   858.039E+03
C:/temp/Job-8.odb,Step-1,Increment      1: Step Time =    1.000,"P-8-1",           481,            0.,          125.,            0.,NA,NA,"",   780.701E+03,   880.146E+03,   880.146E+03
C:/temp/Job-8.odb,Step-1,Increment      1: Step Time =    1.000,"P-8-1",           482,            0.,          135.,            0.,NA,NA,"",   807.377E+03,   908.934E+03,   908.934E+03
C:/temp/Job-8.odb,Step-1,Increment      1: Step Time =    1.000,"P-8-1",           483,            0.,          145.,            0.,NA,NA,"",   837.866E+03,   941.522E+03,   941.522E+03
C:/temp/Job-8.odb,Step-1,Increment      1: Step Time =    1.000,"P-8-1",           484,            0.,          155.,            0.,NA,NA,"",   871.814E+03,   977.211E+03,   977.211E+03
C:/temp/Job-8.odb,Step-1,Increment      1: Step Time =    1.000,"P-8-1",           485,            0.,          165.,            0.,NA,NA,"",   913.121E+03,   1.01961E+06,   1.01961E+06
C:/temp/Job-8.odb,Step-1,Increment      1: Step Time =    1.000,"P-8-1",           486,            0.,          175.,            0.,NA,NA,"",   970.600E+03,   1.07719E+06,   1.07719E+06
C:/temp/Job-8.odb,Step-1,Increment      1: Step Time =    1.000,"P-8-1",           487,            0.,          185.,            0.,NA,NA,"",   1.07174E+06,   1.17705E+06,   1.17705E+06
C:/temp/Job-8.odb,Step-1,Increment      1: Step Time =    1.000,"P-8-1",           488,            0.,          195.,            0.,NA,NA,"",   1.40942E+06,   1.49817E+06,   1.49817E+06
C:/temp/Job-8.odb,Step-1,Increment      1: Step Time =    1.000,"P-8-1",           489,       194.848,       25.4476,            0.,NA,NA,"",   999.983E+03,   1.00086E+06,   1.00086E+06
C:/temp/Job-8.odb,Step-1,Increment      1: Step Time =    1.000,"P-8-1",           490,       5.67112,       15.4165,            0.,NA,NA,"",   1.09143E+06,   1.18051E+06,   1.18051E+06
C:/temp/Job-8.odb,Step-1,Increment      1: Step Time =    1.000,"P-8-1",           491,       5.38782,       10.2076,            0.,NA,NA,"",   1.19825E+06,   1.27699E+06,   1.27699E+06
C:/temp/Job-8.odb,Step-1,Increment      1: Step Time =    1.000,"P-8-1",           492,       5.52137,       25.7623,            0.,NA,NA,"",   985.660E+03,   1.08275E+06,   1.08275E+06
C:/temp/Job-8.odb,Step-1,Increment      1: Step Time =    1.000,"P-8-1",           493,       4.55162,       35.7138,            0.,NA,NA,"",   922.153E+03,   1.02397E+06,   1.02397E+06
C:/temp/Job-8.odb,Step-1,Increment      1: Step Time =    1.000,"P-8-1",           494,       195.090,       74.8993,            0.,NA,NA,"",   958.533E+03,   999.629E+03,   999.629E+03
C:/temp/Job-8.odb,Step-1,Increment      1: Step Time =    1.000,"P-8-1",           495,       195.034,       84.8778,            0.,NA,NA,"",   947.384E+03,   998.197E+03,   998.197E+03
C:/temp/Job-8.odb,Step-1,Increment      1: Step Time =    1.000,"P-8-1",           496,       85.0266,       194.994,            0.,NA,NA,"",   939.453E+03,   940.176E+03,   940.176E+03
C:/temp/Job-8.odb,Step-1,Increment      1: Step Time =    1.000,"P-8-1",           497,       75.0249,       195.083,            0.,NA,NA,"",   957.779E+03,   958.007E+03,   958.007E+03
C:/temp/Job-8.odb,Step-1,Increment      1: Step Time =    1.000,"P-8-1",           498,       15.2846,       5.03567,            0.,NA,NA,"",   1.17632E+06,   1.18567E+06,   1.18567E+06
C:/temp/Job-8.odb,Step-1,Increment      1: Step Time =    1.000,"P-8-1",           499,       25.3039,       4.91828,            0.,NA,NA,"",   1.09476E+06,   1.09756E+06,   1.09756E+06
C:/temp/Job-8.odb,Step-1,Increment      1: Step Time =    1.000,"P-8-1",           500,       35.3264,       4.81426,            0.,NA,NA,"",   1.05219E+06,   1.05316E+06,   1.05316E+06
C:/temp/Job-8.odb,Step-1,Increment      1: Step Time =    1.000,"P-8-1",           501,       45.2043,       4.83180,            0.,NA,NA,"",   1.02533E+06,   1.02546E+06,   1.02546E+06
C:/temp/Job-8.odb,Step-1,Increment      1: Step Time =    1.000,"P-8-1",           502,       55.0837,       4.89108,            0.,NA,NA,"",   1.00269E+06,   1.00255E+06,   1.00255E+06
C:/temp/Job-8.odb,Step-1,Increment      1: Step Time =    1.000,"P-8-1",           503,       64.9832,       4.90079,            0.,NA,NA,"",   980.278E+03,   980.174E+03,   980.174E+03
C:/temp/Job-8.odb,Step-1,Increment      1: Step Time =    1.000,"P-8-1",           504,       74.9156,       4.94489,            0.,NA,NA,"",   958.314E+03,   958.546E+03,   958.546E+03
C:/temp/Job-8.odb,Step-1,Increment      1: Step Time =    1.000,"P-8-1",           505,       84.9288,       5.00706,            0.,NA,NA,"",   939.738E+03,   940.457E+03,   940.457E+03
C:/temp/Job-8.odb,Step-1,Increment      1: Step Time =    1.000,"P-8-1",           506,       94.9742,       5.03262,            0.,NA,NA,"",   928.650E+03,   929.699E+03,   929.699E+03
C:/temp/Job-8.odb,Step-1,Increment      1: Step Time =    1.000,"P-8-1",           507,       104.989,       5.02029,            0.,NA,NA,"",   927.770E+03,   928.779E+03,   928.779E+03
C:/temp/Job-8.odb,Step-1,Increment      1: Step Time =    1.000,"P-8-1",           508,       115.000,       4.97521,            0.,NA,NA,"",   936.706E+03,   937.345E+03,   937.345E+03
C:/temp/Job-8.odb,Step-1,Increment      1: Step Time =    1.000,"P-8-1",           509,       125.052,       4.93839,            0.,NA,NA,"",   952.326E+03,   952.427E+03,   952.427E+03
C:/temp/Job-8.odb,Step-1,Increment      1: Step Time =    1.000,"P-8-1",           510,       135.078,       4.85402,            0.,NA,NA,"",   969.475E+03,   969.149E+03,   969.149E+03
C:/temp/Job-8.odb,Step-1,Increment      1: Step Time =    1.000,"P-8-1",           511,       144.945,       4.64972,            0.,NA,NA,"",   983.662E+03,   983.178E+03,   983.178E+03
C:/temp/Job-8.odb,Step-1,Increment      1: Step Time =    1.000,"P-8-1",           512,       154.632,       4.59964,            0.,NA,NA,"",   993.378E+03,   992.911E+03,   992.911E+03
C:/temp/Job-8.odb,Step-1,Increment      1: Step Time =    1.000,"P-8-1",           513,       164.484,       4.98987,            0.,NA,NA,"",   998.320E+03,   997.959E+03,   997.959E+03
C:/temp/Job-8.odb,Step-1,Increment      1: Step Time =    1.000,"P-8-1",           514,       174.625,       5.00655,            0.,NA,NA,"",   999.655E+03,   999.527E+03,   999.527E+03
C:/temp/Job-8.odb,Step-1,Increment      1: Step Time =    1.000,"P-8-1",           515,       184.747,       5.14605,            0.,NA,NA,"",   999.728E+03,   999.753E+03,   999.753E+03
C:/temp/Job-8.odb,Step-1,Increment      1: Step Time =    1.000,"P-8-1",           516,       194.858,       5.12133,            0.,NA,NA,"",   999.955E+03,   999.906E+03,   999.906E+03
C:/temp/Job-8.odb,Step-1,Increment      1: Step Time =    1.000,"P-8-1",           517,       194.652,       15.3305,            0.,NA,NA,"",   1.00040E+06,   1.00040E+06,   1.00040E+06
C:/temp/Job-8.odb,Step-1,Increment      1: Step Time =    1.000,"P-8-1",           518,       195.163,       35.4665,            0.,NA,NA,"",   997.475E+03,   1.00121E+06,   1.00121E+06
C:/temp/Job-8.odb,Step-1,Increment      1: Step Time =    1.000,"P-8-1",           519,       195.192,       45.3129,            0.,NA,NA,"",   991.939E+03,   1.00143E+06,   1.00143E+06
C:/temp/Job-8.odb,Step-1,Increment      1: Step Time =    1.000,"P-8-1",           520,       195.156,       55.1468,            0.,NA,NA,"",   983.034E+03,   1.00135E+06,   1.00135E+06
C:/temp/Job-8.odb,Step-1,Increment      1: Step Time =    1.000,"P-8-1",           521,       195.135,       64.9928,            0.,NA,NA,"",   971.339E+03,   1.00078E+06,   1.00078E+06
C:/temp/Job-8.odb,Step-1,Increment      1: Step Time =    1.000,"P-8-1",           522,       194.992,       94.8682,            0.,NA,NA,"",   940.887E+03,   997.189E+03,   997.189E+03
C:/temp/Job-8.odb,Step-1,Increment      1: Step Time =    1.000,"P-8-1",           523,       95.0324,       194.938,            0.,NA,NA,"",   928.660E+03,   929.720E+03,   929.720E+03
C:/temp/Job-8.odb,Step-1,Increment      1: Step Time =    1.000,"P-8-1",           524,       194.876,       104.894,            0.,NA,NA,"",   940.809E+03,   996.951E+03,   996.951E+03
C:/temp/Job-8.odb,Step-1,Increment      1: Step Time =    1.000,"P-8-1",           525,       105.040,       194.940,            0.,NA,NA,"",   927.955E+03,   928.987E+03,   928.987E+03
C:/temp/Job-8.odb,Step-1,Increment      1: Step Time =    1.000,"P-8-1",           526,       194.734,       114.972,            0.,NA,NA,"",   947.534E+03,   998.083E+03,   998.083E+03
C:/temp/Job-8.odb,Step-1,Increment      1: Step Time =    1.000,"P-8-1",           527,       115.070,       194.990,            0.,NA,NA,"",   937.101E+03,   937.736E+03,   937.736E+03
C:/temp/Job-8.odb,Step-1,Increment      1: Step Time =    1.000,"P-8-1",           528,       194.990,       125.012,            0.,NA,NA,"",   958.323E+03,   999.538E+03,   999.538E+03
C:/temp/Job-8.odb,Step-1,Increment      1: Step Time =    1.000,"P-8-1",           529,       125.073,       195.069,            0.,NA,NA,"",   952.752E+03,   952.831E+03,   952.831E+03
C:/temp/Job-8.odb,Step-1,Increment      1: Step Time =    1.000,"P-8-1",           530,       195.296,       134.961,            0.,NA,NA,"",   970.957E+03,   1.00081E+06,   1.00081E+06
C:/temp/Job-8.odb,Step-1,Increment      1: Step Time =    1.000,"P-8-1",           531,       134.996,       195.119,            0.,NA,NA,"",   969.846E+03,   969.514E+03,   969.514E+03
C:/temp/Job-8.odb,Step-1,Increment      1: Step Time =    1.000,"P-8-1",           532,       195.516,       144.733,            0.,NA,NA,"",   982.219E+03,   1.00107E+06,   1.00107E+06
C:/temp/Job-8.odb,Step-1,Increment      1: Step Time =    1.000,"P-8-1",           533,       195.202,       154.571,            0.,NA,NA,"",   991.765E+03,   1.00145E+06,   1.00145E+06
C:/temp/Job-8.odb,Step-1,Increment      1: Step Time =    1.000,"P-8-1",           534,       144.872,       195.129,            0.,NA,NA,"",   984.220E+03,   983.703E+03,   983.703E+03
C:/temp/Job-8.odb,Step-1,Increment      1: Step Time =    1.000,"P-8-1",           535,       194.749,       164.554,            0.,NA,NA,"",   997.674E+03,   1.00147E+06,   1.00147E+06
C:/temp/Job-8.odb,Step-1,Increment      1: Step Time =    1.000,"P-8-1",           536,       154.736,       195.139,            0.,NA,NA,"",   993.765E+03,   993.264E+03,   993.264E+03
C:/temp/Job-8.odb,Step-1,Increment      1: Step Time =    1.000,"P-8-1",           537,       195.017,       174.801,            0.,NA,NA,"",   1.00000E+06,   1.00085E+06,   1.00085E+06
C:/temp/Job-8.odb,Step-1,Increment      1: Step Time =    1.000,"P-8-1",           538,       164.619,       195.091,            0.,NA,NA,"",   998.467E+03,   998.116E+03,   998.116E+03
C:/temp/Job-8.odb,Step-1,Increment      1: Step Time =    1.000,"P-8-1",           539,       194.948,       184.860,            0.,NA,NA,"",   1.00036E+06,   1.00033E+06,   1.00033E+06
C:/temp/Job-8.odb,Step-1,Increment      1: Step Time =    1.000,"P-8-1",           540,       174.636,       194.852,            0.,NA,NA,"",   999.788E+03,   999.658E+03,   999.658E+03
C:/temp/Job-8.odb,Step-1,Increment      1: Step Time =    1.000,"P-8-1",           541,       194.917,       194.901,            0.,NA,NA,"",   999.956E+03,   999.908E+03,   999.908E+03
C:/temp/Job-8.odb,Step-1,Increment      1: Step Time =    1.000,"P-8-1",           542,       184.759,       194.723,            0.,NA,NA,"",   999.780E+03,   999.808E+03,   999.808E+03
C:/temp/Job-8.odb,Step-1,Increment      1: Step Time =    1.000,"P-8-1",           543,       65.0438,       195.193,            0.,NA,NA,"",   979.387E+03,   979.306E+03,   979.306E+03
C:/temp/Job-8.odb,Step-1,Increment      1: Step Time =    1.000,"P-8-1",           544,       55.2212,       195.364,            0.,NA,NA,"",   1.00111E+06,   1.00097E+06,   1.00097E+06
C:/temp/Job-8.odb,Step-1,Increment      1: Step Time =    1.000,"P-8-1",           545,       45.3990,       195.141,            0.,NA,NA,"",   1.02486E+06,   1.02510E+06,   1.02510E+06
C:/temp/Job-8.odb,Step-1,Increment      1: Step Time =    1.000,"P-8-1",           546,       35.3749,       194.785,            0.,NA,NA,"",   1.05361E+06,   1.05465E+06,   1.05465E+06
C:/temp/Job-8.odb,Step-1,Increment      1: Step Time =    1.000,"P-8-1",           547,       25.2479,       194.789,            0.,NA,NA,"",   1.09584E+06,   1.09928E+06,   1.09928E+06
C:/temp/Job-8.odb,Step-1,Increment      1: Step Time =    1.000,"P-8-1",           548,       15.2416,       194.712,            0.,NA,NA,"",   1.17793E+06,   1.18794E+06,   1.18794E+06
C:/temp/Job-8.odb,Step-1,Increment      1: Step Time =    1.000,"P-8-1",           549,       5.10511,       194.882,            0.,NA,NA,"",   1.36886E+06,   1.42162E+06,   1.42162E+06
C:/temp/Job-8.odb,Step-1,Increment      1: Step Time =    1.000,"P-8-1",           550,       5.14515,       184.728,            0.,NA,NA,"",   1.08835E+06,   1.18043E+06,   1.18043E+06
C:/temp/Job-8.odb,Step-1,Increment      1: Step Time =    1.000,"P-8-1",           551,       4.99010,       174.566,            0.,NA,NA,"",   984.510E+03,   1.08356E+06,   1.08356E+06
C:/temp/Job-8.odb,Step-1,Increment      1: Step Time =    1.000,"P-8-1",           552,       4.73363,       164.666,            0.,NA,NA,"",   925.044E+03,   1.02623E+06,   1.02623E+06
C:/temp/Job-8.odb,Step-1,Increment      1: Step Time =    1.000,"P-8-1",           553,       4.74859,       154.800,            0.,NA,NA,"",   882.318E+03,   983.617E+03,   983.617E+03
C:/temp/Job-8.odb,Step-1,Increment      1: Step Time =    1.000,"P-8-1",           554,       4.85159,       144.985,            0.,NA,NA,"",   847.415E+03,   947.703E+03,   947.703E+03
C:/temp/Job-8.odb,Step-1,Increment      1: Step Time =    1.000,"P-8-1",           555,       4.91109,       135.089,            0.,NA,NA,"",   815.202E+03,   914.144E+03,   914.144E+03
C:/temp/Job-8.odb,Step-1,Increment      1: Step Time =    1.000,"P-8-1",           556,       5.00037,       125.118,            0.,NA,NA,"",   786.357E+03,   883.921E+03,   883.921E+03
C:/temp/Job-8.odb,Step-1,Increment      1: Step Time =    1.000,"P-8-1",           557,       5.07188,       115.140,            0.,NA,NA,"",   763.935E+03,   860.384E+03,   860.384E+03
C:/temp/Job-8.odb,Step-1,Increment      1: Step Time =    1.000,"P-8-1",           558,       5.08664,       105.162,            0.,NA,NA,"",   751.282E+03,   847.105E+03,   847.105E+03
C:/temp/Job-8.odb,Step-1,Increment      1: Step Time =    1.000,"P-8-1",           559,       5.08317,       95.1281,            0.,NA,NA,"",   750.899E+03,   846.695E+03,   846.695E+03
C:/temp/Job-8.odb,Step-1,Increment      1: Step Time =    1.000,"P-8-1",           560,       5.10745,       85.0356,            0.,NA,NA,"",   763.499E+03,   859.929E+03,   859.929E+03
C:/temp/Job-8.odb,Step-1,Increment      1: Step Time =    1.000,"P-8-1",           561,       4.87850,       75.0778,            0.,NA,NA,"",   785.531E+03,   883.161E+03,   883.161E+03
C:/temp/Job-8.odb,Step-1,Increment      1: Step Time =    1.000,"P-8-1",           562,       4.70140,       65.1042,            0.,NA,NA,"",   813.858E+03,   913.016E+03,   913.016E+03
C:/temp/Job-8.odb,Step-1,Increment      1: Step Time =    1.000,"P-8-1",           563,       4.56941,       55.1421,            0.,NA,NA,"",   845.583E+03,   946.344E+03,   946.344E+03
C:/temp/Job-8.odb,Step-1,Increment      1: Step Time =    1.000,"P-8-1",           564,       4.20335,       45.4768,            0.,NA,NA,"",   879.303E+03,   981.416E+03,   981.416E+03
C:/temp/Job-8.odb,Step-1,Increment      1: Step Time =    1.000,"P-8-1",           565,       189.777,       5.16837,            0.,NA,NA,"",   999.790E+03,   999.811E+03,   999.811E+03
C:/temp/Job-8.odb,Step-1,Increment      1: Step Time =    1.000,"P-8-1",           566,       179.699,       5.08296,            0.,NA,NA,"",   999.731E+03,   999.698E+03,   999.698E+03
C:/temp/Job-8.odb,Step-1,Increment      1: Step Time =    1.000,"P-8-1",           567,       169.539,       4.97610,            0.,NA,NA,"",   999.289E+03,   999.044E+03,   999.044E+03
C:/temp/Job-8.odb,Step-1,Increment      1: Step Time =    1.000,"P-8-1",           568,       159.467,       4.92610,            0.,NA,NA,"",   996.460E+03,   996.030E+03,   996.030E+03
C:/temp/Job-8.odb,Step-1,Increment      1: Step Time =    1.000,"P-8-1",           569,       149.774,       4.53822,            0.,NA,NA,"",   989.067E+03,   988.579E+03,   988.579E+03
C:/temp/Job-8.odb,Step-1,Increment      1: Step Time =    1.000,"P-8-1",           570,       140.044,       4.75846,            0.,NA,NA,"",   977.079E+03,   976.642E+03,   976.642E+03
C:/temp/Job-8.odb,Step-1,Increment      1: Step Time =    1.000,"P-8-1",           571,       130.078,       4.91097,            0.,NA,NA,"",   961.088E+03,   960.931E+03,   960.931E+03
C:/temp/Job-8.odb,Step-1,Increment      1: Step Time =    1.000,"P-8-1",           572,       120.018,       4.95653,            0.,NA,NA,"",   943.959E+03,   944.344E+03,   944.344E+03
C:/temp/Job-8.odb,Step-1,Increment      1: Step Time =    1.000,"P-8-1",           573,       109.991,       5.00170,            0.,NA,NA,"",   931.142E+03,   931.998E+03,   931.998E+03
C:/temp/Job-8.odb,Step-1,Increment      1: Step Time =    1.000,"P-8-1",           574,       99.9825,       5.03292,            0.,NA,NA,"",   926.888E+03,   927.969E+03,   927.969E+03
C:/temp/Job-8.odb,Step-1,Increment      1: Step Time =    1.000,"P-8-1",           575,       89.9524,       5.02796,            0.,NA,NA,"",   933.014E+03,   933.944E+03,   933.944E+03
C:/temp/Job-8.odb,Step-1,Increment      1: Step Time =    1.000,"P-8-1",           576,       79.9108,       4.98242,            0.,NA,NA,"",   948.347E+03,   948.828E+03,   948.828E+03
C:/temp/Job-8.odb,Step-1,Increment      1: Step Time =    1.000,"P-8-1",           577,       69.9415,       4.92257,            0.,NA,NA,"",   969.108E+03,   969.149E+03,   969.149E+03
C:/temp/Job-8.odb,Step-1,Increment      1: Step Time =    1.000,"P-8-1",           578,       60.0374,       4.89850,            0.,NA,NA,"",    991.53E+03,   991.377E+03,   991.377E+03
C:/temp/Job-8.odb,Step-1,Increment      1: Step Time =    1.000,"P-8-1",           579,       50.1287,       4.85830,            0.,NA,NA,"",   1.01390E+06,   1.01384E+06,   1.01384E+06
C:/temp/Job-8.odb,Step-1,Increment      1: Step Time =    1.000,"P-8-1",           580,       40.2693,       4.78732,            0.,NA,NA,"",   1.03778E+06,   1.03821E+06,   1.03821E+06
C:/temp/Job-8.odb,Step-1,Increment      1: Step Time =    1.000,"P-8-1",           581,       30.3181,       4.84171,            0.,NA,NA,"",   1.07079E+06,   1.07245E+06,   1.07245E+06
C:/temp/Job-8.odb,Step-1,Increment      1: Step Time =    1.000,"P-8-1",           582,       20.3042,       4.97236,            0.,NA,NA,"",   1.12931E+06,   1.13386E+06,   1.13386E+06
C:/temp/Job-8.odb,Step-1,Increment      1: Step Time =    1.000,"P-8-1",           583,       10.2530,       5.09457,            0.,NA,NA,"",   1.26488E+06,   1.27920E+06,   1.27920E+06
C:/temp/Job-8.odb,Step-1,Increment      1: Step Time =    1.000,"P-8-1",           584,       194.909,       189.856,            0.,NA,NA,"",   1.00020E+06,   1.00012E+06,   1.00012E+06
C:/temp/Job-8.odb,Step-1,Increment      1: Step Time =    1.000,"P-8-1",           585,       195.000,       179.853,            0.,NA,NA,"",   1.00033E+06,   1.00056E+06,   1.00056E+06
C:/temp/Job-8.odb,Step-1,Increment      1: Step Time =    1.000,"P-8-1",           586,       194.911,       169.695,            0.,NA,NA,"",   999.214E+03,   1.00119E+06,   1.00119E+06
C:/temp/Job-8.odb,Step-1,Increment      1: Step Time =    1.000,"P-8-1",           587,       194.683,       159.463,            0.,NA,NA,"",   995.294E+03,   1.00159E+06,   1.00159E+06
C:/temp/Job-8.odb,Step-1,Increment      1: Step Time =    1.000,"P-8-1",           588,       195.480,       149.591,            0.,NA,NA,"",   987.158E+03,   1.00114E+06,   1.00114E+06
C:/temp/Job-8.odb,Step-1,Increment      1: Step Time =    1.000,"P-8-1",           589,       195.424,       139.871,            0.,NA,NA,"",   976.845E+03,   1.00102E+06,   1.00102E+06
C:/temp/Job-8.odb,Step-1,Increment      1: Step Time =    1.000,"P-8-1",           590,       195.149,       130.004,            0.,NA,NA,"",   964.734E+03,   1.00037E+06,   1.00037E+06
C:/temp/Job-8.odb,Step-1,Increment      1: Step Time =    1.000,"P-8-1",           591,       194.822,       119.984,            0.,NA,NA,"",   952.468E+03,   998.757E+03,   998.757E+03
C:/temp/Job-8.odb,Step-1,Increment      1: Step Time =    1.000,"P-8-1",           592,       194.776,       109.949,            0.,NA,NA,"",   943.442E+03,   997.341E+03,   997.341E+03
C:/temp/Job-8.odb,Step-1,Increment      1: Step Time =    1.000,"P-8-1",           593,       194.950,       99.8713,            0.,NA,NA,"",   940.019E+03,   996.992E+03,   996.992E+03
C:/temp/Job-8.odb,Step-1,Increment      1: Step Time =    1.000,"P-8-1",           594,       195.018,       89.8761,            0.,NA,NA,"",   943.389E+03,   997.590E+03,   997.590E+03
C:/temp/Job-8.odb,Step-1,Increment      1: Step Time =    1.000,"P-8-1",           595,       195.063,       79.8809,            0.,NA,NA,"",   952.553E+03,   998.907E+03,   998.907E+03
C:/temp/Job-8.odb,Step-1,Increment      1: Step Time =    1.000,"P-8-1",           596,       195.118,       69.9349,            0.,NA,NA,"",   964.923E+03,   1.00027E+06,   1.00027E+06
C:/temp/Job-8.odb,Step-1,Increment      1: Step Time =    1.000,"P-8-1",           597,       195.149,       60.0652,            0.,NA,NA,"",   977.450E+03,   1.00113E+06,   1.00113E+06
C:/temp/Job-8.odb,Step-1,Increment      1: Step Time =    1.000,"P-8-1",           598,       195.186,       50.2274,            0.,NA,NA,"",   987.902E+03,   1.00145E+06,   1.00145E+06
C:/temp/Job-8.odb,Step-1,Increment      1: Step Time =    1.000,"P-8-1",           599,       195.214,       40.3989,            0.,NA,NA,"",   995.120E+03,   1.00135E+06,   1.00135E+06
C:/temp/Job-8.odb,Step-1,Increment      1: Step Time =    1.000,"P-8-1",           600,       195.060,       30.4959,            0.,NA,NA,"",   999.089E+03,   1.00107E+06,   1.00107E+06
C:/temp/Job-8.odb,Step-1,Increment      1: Step Time =    1.000,"P-8-1",           601,       194.668,       20.4068,            0.,NA,NA,"",   1.00035E+06,   1.00062E+06,   1.00062E+06
C:/temp/Job-8.odb,Step-1,Increment      1: Step Time =    1.000,"P-8-1",           602,       194.734,       10.2245,            0.,NA,NA,"",   1.00023E+06,   1.00015E+06,   1.00015E+06
C:/temp/Job-8.odb,Step-1,Increment      1: Step Time =    1.000,"P-8-1",           603,       10.1819,       194.778,            0.,NA,NA,"",   1.26594E+06,   1.28119E+06,   1.28119E+06
C:/temp/Job-8.odb,Step-1,Increment      1: Step Time =    1.000,"P-8-1",           604,       20.2565,       194.694,            0.,NA,NA,"",   1.13084E+06,   1.13615E+06,   1.13615E+06
C:/temp/Job-8.odb,Step-1,Increment      1: Step Time =    1.000,"P-8-1",           605,       30.2960,       194.831,            0.,NA,NA,"",   1.07193E+06,   1.07382E+06,   1.07382E+06
C:/temp/Job-8.odb,Step-1,Increment      1: Step Time =    1.000,"P-8-1",           606,       40.4510,       194.750,            0.,NA,NA,"",   1.03863E+06,   1.03919E+06,   1.03919E+06
C:/temp/Job-8.odb,Step-1,Increment      1: Step Time =    1.000,"P-8-1",           607,       50.3444,       195.362,            0.,NA,NA,"",   1.01223E+06,   1.01233E+06,   1.01233E+06
C:/temp/Job-8.odb,Step-1,Increment      1: Step Time =    1.000,"P-8-1",           608,       60.1028,       195.274,            0.,NA,NA,"",   990.319E+03,   990.153E+03,   990.153E+03
C:/temp/Job-8.odb,Step-1,Increment      1: Step Time =    1.000,"P-8-1",           609,       70.0250,       195.131,            0.,NA,NA,"",   968.466E+03,   968.493E+03,   968.493E+03
C:/temp/Job-8.odb,Step-1,Increment      1: Step Time =    1.000,"P-8-1",           610,       80.0245,       195.038,            0.,NA,NA,"",   947.924E+03,   948.393E+03,   948.393E+03
C:/temp/Job-8.odb,Step-1,Increment      1: Step Time =    1.000,"P-8-1",           611,       90.0288,       194.959,            0.,NA,NA,"",   932.906E+03,   933.833E+03,   933.833E+03
C:/temp/Job-8.odb,Step-1,Increment      1: Step Time =    1.000,"P-8-1",           612,       100.035,       194.933,            0.,NA,NA,"",   926.992E+03,   928.090E+03,   928.090E+03
C:/temp/Job-8.odb,Step-1,Increment      1: Step Time =    1.000,"P-8-1",           613,       110.053,       194.961,            0.,NA,NA,"",   931.433E+03,   932.306E+03,   932.306E+03
C:/temp/Job-8.odb,Step-1,Increment      1: Step Time =    1.000,"P-8-1",           614,       120.084,       195.027,            0.,NA,NA,"",   944.424E+03,   944.782E+03,   944.782E+03
C:/temp/Job-8.odb,Step-1,Increment      1: Step Time =    1.000,"P-8-1",           615,       130.046,       195.099,            0.,NA,NA,"",   961.426E+03,   961.275E+03,   961.275E+03
C:/temp/Job-8.odb,Step-1,Increment      1: Step Time =    1.000,"P-8-1",           616,       139.938,       195.126,            0.,NA,NA,"",   977.555E+03,   977.105E+03,   977.105E+03
C:/temp/Job-8.odb,Step-1,Increment      1: Step Time =    1.000,"P-8-1",           617,       149.807,       195.145,            0.,NA,NA,"",   989.643E+03,   989.106E+03,   989.106E+03
C:/temp/Job-8.odb,Step-1,Increment      1: Step Time =    1.000,"P-8-1",           618,       159.667,       195.142,            0.,NA,NA,"",   996.644E+03,   996.205E+03,   996.205E+03
C:/temp/Job-8.odb,Step-1,Increment      1: Step Time =    1.000,"P-8-1",           619,       169.596,       195.009,            0.,NA,NA,"",   999.436E+03,   999.191E+03,   999.191E+03
C:/temp/Job-8.odb,Step-1,Increment      1: Step Time =    1.000,"P-8-1",           620,       179.681,       194.724,            0.,NA,NA,"",   999.827E+03,   999.793E+03,   999.793E+03
C:/temp/Job-8.odb,Step-1,Increment      1: Step Time =    1.000,"P-8-1",           621,       189.846,       194.803,            0.,NA,NA,"",   999.808E+03,   999.834E+03,   999.834E+03
C:/temp/Job-8.odb,Step-1,Increment      1: Step Time =    1.000,"P-8-1",           622,       5.92040,       20.7064,            0.,NA,NA,"",   1.03285E+06,   1.12593E+06,   1.12593E+06
C:/temp/Job-8.odb,Step-1,Increment      1: Step Time =    1.000,"P-8-1",           623,       5.00733,       30.7908,            0.,NA,NA,"",   950.514E+03,   1.05057E+06,   1.05057E+06
C:/temp/Job-8.odb,Step-1,Increment      1: Step Time =    1.000,"P-8-1",           624,       4.26599,       40.5924,            0.,NA,NA,"",   899.533E+03,   1.00185E+06,   1.00185E+06
C:/temp/Job-8.odb,Step-1,Increment      1: Step Time =    1.000,"P-8-1",           625,       4.38862,       50.2758,            0.,NA,NA,"",   861.678E+03,   963.208E+03,   963.208E+03
C:/temp/Job-8.odb,Step-1,Increment      1: Step Time =    1.000,"P-8-1",           626,       4.65336,       60.1115,            0.,NA,NA,"",   829.638E+03,   929.568E+03,   929.568E+03
C:/temp/Job-8.odb,Step-1,Increment      1: Step Time =    1.000,"P-8-1",           627,       4.77165,       70.0959,            0.,NA,NA,"",   799.116E+03,   897.502E+03,   897.502E+03
C:/temp/Job-8.odb,Step-1,Increment      1: Step Time =    1.000,"P-8-1",           628,       5.01044,       80.0597,            0.,NA,NA,"",   773.511E+03,   870.475E+03,   870.475E+03
C:/temp/Job-8.odb,Step-1,Increment      1: Step Time =    1.000,"P-8-1",           629,       5.10900,       90.0605,            0.,NA,NA,"",   755.816E+03,   851.844E+03,   851.844E+03
C:/temp/Job-8.odb,Step-1,Increment      1: Step Time =    1.000,"P-8-1",           630,       5.08040,       100.160,            0.,NA,NA,"",   749.399E+03,   845.135E+03,   845.135E+03
C:/temp/Job-8.odb,Step-1,Increment      1: Step Time =    1.000,"P-8-1",           631,       5.08901,       110.157,            0.,NA,NA,"",   756.224E+03,   852.288E+03,   852.288E+03
C:/temp/Job-8.odb,Step-1,Increment      1: Step Time =    1.000,"P-8-1",           632,       5.04350,       120.122,            0.,NA,NA,"",   774.131E+03,   871.085E+03,   871.085E+03
C:/temp/Job-8.odb,Step-1,Increment      1: Step Time =    1.000,"P-8-1",           633,       4.95189,       130.107,            0.,NA,NA,"",   800.198E+03,   898.439E+03,   898.439E+03
C:/temp/Job-8.odb,Step-1,Increment      1: Step Time =    1.000,"P-8-1",           634,       4.87780,       140.047,            0.,NA,NA,"",   831.045E+03,   930.678E+03,   930.678E+03
C:/temp/Job-8.odb,Step-1,Increment      1: Step Time =    1.000,"P-8-1",           635,       4.79661,       149.905,            0.,NA,NA,"",   864.560E+03,   965.408E+03,   965.408E+03
C:/temp/Job-8.odb,Step-1,Increment      1: Step Time =    1.000,"P-8-1",           636,       4.69715,       159.705,            0.,NA,NA,"",   902.471E+03,   1.00389E+06,   1.00389E+06
C:/temp/Job-8.odb,Step-1,Increment      1: Step Time =    1.000,"P-8-1",           637,       4.85428,       169.581,            0.,NA,NA,"",   952.413E+03,   1.05280E+06,   1.05280E+06
C:/temp/Job-8.odb,Step-1,Increment      1: Step Time =    1.000,"P-8-1",           638,       5.08567,       179.635,            0.,NA,NA,"",   1.03007E+06,   1.12628E+06,   1.12628E+06
C:/temp/Job-8.odb,Step-1,Increment      1: Step Time =    1.000,"P-8-1",           639,       5.15434,       189.793,            0.,NA,NA,"",   1.19513E+06,   1.27604E+06,   1.27604E+06
C:/temp/Job-8.odb,Step-1,Increment      1: Step Time =    1.000,"P-8-1",           640,       99.3556,       78.9826,            0.,NA,NA,"",   1.84343E+06,   1.96896E+06,   1.96896E+06
C:/temp/Job-8.odb,Step-1,Increment      1: Step Time =    1.000,"P-8-1",           641,       78.4321,       96.7547,            0.,NA,NA,"",   417.058E+03,  -55.1075E+03,  -55.1075E+03
C:/temp/Job-8.odb,Step-1,Increment      1: Step Time =    1.000,"P-8-1",           642,       119.924,       105.138,            0.,NA,NA,"",   586.872E+03,   131.533E+03,   131.533E+03
C:/temp/Job-8.odb,Step-1,Increment      1: Step Time =    1.000,"P-8-1",           643,       120.376,       100.304,            0.,NA,NA,"",   480.930E+03,  -197.060E+03,  -197.060E+03
C:/temp/Job-8.odb,Step-1,Increment      1: Step Time =    1.000,"P-8-1",           644,       79.4181,       101.009,            0.,NA,NA,"",   412.592E+03,  -158.549E+03,  -158.549E+03
C:/temp/Job-8.odb,Step-1,Increment      1: Step Time =    1.000,"P-8-1",           645,       102.889,       121.779,            0.,NA,NA,"",   1.70544E+06,   1.83832E+06,   1.83832E+06
C:/temp/Job-8.odb,Step-1,Increment      1: Step Time =    1.000,"P-8-1",           646,       98.7895,       120.525,            0.,NA,NA,"",   1.87499E+06,   1.99673E+06,   1.99673E+06
C:/temp/Job-8.odb,Step-1,Increment      1: Step Time =    1.000,"P-8-1",           647,       103.565,       78.2859,            0.,NA,NA,"",   1.71178E+06,   1.83744E+06,   1.83744E+06
C:/temp/Job-8.odb,Step-1,Increment      1: Step Time =    1.000,"P-8-1",           648,       89.4118,       119.541,            0.,NA,NA,"",   1.52790E+06,   1.56427E+06,   1.56427E+06
C:/temp/Job-8.odb,Step-1,Increment      1: Step Time =    1.000,"P-8-1",           649,       82.1214,       110.621,            0.,NA,NA,"",   862.389E+03,   599.515E+03,   599.515E+03
C:/temp/Job-8.odb,Step-1,Increment      1: Step Time =    1.000,"P-8-1",           650,       90.5580,       79.6103,            0.,NA,NA,"",   1.55661E+06,   1.60977E+06,   1.60977E+06
C:/temp/Job-8.odb,Step-1,Increment      1: Step Time =    1.000,"P-8-1",           651,       120.556,       91.2661,            0.,NA,NA,"",   780.088E+03,   444.678E+03,   444.678E+03
C:/temp/Job-8.odb,Step-1,Increment      1: Step Time =    1.000,"P-8-1",           652,       140.180,       9.58382,            0.,NA,NA,"",   988.908E+03,   987.667E+03,   987.667E+03
C:/temp/Job-8.odb,Step-1,Increment      1: Step Time =    1.000,"P-8-1",           653,       130.190,       9.84465,            0.,NA,NA,"",   977.287E+03,   976.876E+03,   976.876E+03
C:/temp/Job-8.odb,Step-1,Increment      1: Step Time =    1.000,"P-8-1",           654,       120.044,       9.89762,            0.,NA,NA,"",   963.918E+03,   964.995E+03,   964.995E+03
C:/temp/Job-8.odb,Step-1,Increment      1: Step Time =    1.000,"P-8-1",           655,       110.000,       10.0225,            0.,NA,NA,"",   954.000E+03,   956.460E+03,   956.460E+03
C:/temp/Job-8.odb,Step-1,Increment      1: Step Time =    1.000,"P-8-1",           656,       99.9667,       10.0934,            0.,NA,NA,"",   951.385E+03,   954.479E+03,   954.479E+03
C:/temp/Job-8.odb,Step-1,Increment      1: Step Time =    1.000,"P-8-1",           657,       89.8971,       10.0733,            0.,NA,NA,"",   957.779E+03,   960.437E+03,   960.437E+03
C:/temp/Job-8.odb,Step-1,Increment      1: Step Time =    1.000,"P-8-1",           658,       79.7927,       10.0112,            0.,NA,NA,"",   972.261E+03,   973.658E+03,   973.658E+03
C:/temp/Job-8.odb,Step-1,Increment      1: Step Time =    1.000,"P-8-1",           659,       69.8522,       9.93756,            0.,NA,NA,"",   991.148E+03,   991.300E+03,   991.300E+03
C:/temp/Job-8.odb,Step-1,Increment      1: Step Time =    1.000,"P-8-1",           660,       60.0416,       9.88956,            0.,NA,NA,"",   1.01139E+06,   1.01101E+06,   1.01101E+06
C:/temp/Job-8.odb,Step-1,Increment      1: Step Time =    1.000,"P-8-1",           661,       190.743,       139.817,            0.,NA,NA,"",   982.456E+03,   1.00292E+06,   1.00292E+06
C:/temp/Job-8.odb,Step-1,Increment      1: Step Time =    1.000,"P-8-1",           662,       190.268,       130.102,            0.,NA,NA,"",   971.500E+03,   1.00083E+06,   1.00083E+06
C:/temp/Job-8.odb,Step-1,Increment      1: Step Time =    1.000,"P-8-1",           663,       189.553,       120.049,            0.,NA,NA,"",   958.739E+03,   996.300E+03,   996.300E+03
C:/temp/Job-8.odb,Step-1,Increment      1: Step Time =    1.000,"P-8-1",           664,       189.521,       109.745,            0.,NA,NA,"",   947.897E+03,   992.212E+03,   992.212E+03
C:/temp/Job-8.odb,Step-1,Increment      1: Step Time =    1.000,"P-8-1",           665,       189.946,       99.6282,            0.,NA,NA,"",   944.100E+03,   991.483E+03,   991.483E+03
C:/temp/Job-8.odb,Step-1,Increment      1: Step Time =    1.000,"P-8-1",           666,       190.056,       89.7074,            0.,NA,NA,"",   948.243E+03,   993.181E+03,   993.181E+03
C:/temp/Job-8.odb,Step-1,Increment      1: Step Time =    1.000,"P-8-1",           667,       190.133,       79.7283,            0.,NA,NA,"",   958.709E+03,   996.912E+03,   996.912E+03
C:/temp/Job-8.odb,Step-1,Increment      1: Step Time =    1.000,"P-8-1",           668,       190.226,       60.1183,            0.,NA,NA,"",   983.460E+03,   1.00325E+06,   1.00325E+06
C:/temp/Job-8.odb,Step-1,Increment      1: Step Time =    1.000,"P-8-1",           669,       60.1487,       190.408,            0.,NA,NA,"",   1.00959E+06,   1.00924E+06,   1.00924E+06
C:/temp/Job-8.odb,Step-1,Increment      1: Step Time =    1.000,"P-8-1",           670,       70.0619,       190.226,            0.,NA,NA,"",   989.850E+03,   990.031E+03,   990.031E+03
C:/temp/Job-8.odb,Step-1,Increment      1: Step Time =    1.000,"P-8-1",           671,       80.0595,       190.078,            0.,NA,NA,"",   971.274E+03,   972.667E+03,   972.667E+03
C:/temp/Job-8.odb,Step-1,Increment      1: Step Time =    1.000,"P-8-1",           672,       9.36450,       60.2115,            0.,NA,NA,"",   846.203E+03,   939.928E+03,   939.928E+03
C:/temp/Job-8.odb,Step-1,Increment      1: Step Time =    1.000,"P-8-1",           673,       9.54328,       70.1592,            0.,NA,NA,"",   811.791E+03,   905.518E+03,   905.518E+03
C:/temp/Job-8.odb,Step-1,Increment      1: Step Time =    1.000,"P-8-1",           674,       10.0961,       80.0585,            0.,NA,NA,"",   782.934E+03,   876.282E+03,   876.282E+03
C:/temp/Job-8.odb,Step-1,Increment      1: Step Time =    1.000,"P-8-1",           675,       10.1684,       90.2143,            0.,NA,NA,"",   761.242E+03,   854.666E+03,   854.666E+03
C:/temp/Job-8.odb,Step-1,Increment      1: Step Time =    1.000,"P-8-1",           676,       10.1484,       100.378,            0.,NA,NA,"",   753.804E+03,   847.328E+03,   847.328E+03
C:/temp/Job-8.odb,Step-1,Increment      1: Step Time =    1.000,"P-8-1",           677,       10.2518,       110.368,            0.,NA,NA,"",   762.490E+03,   855.902E+03,   855.902E+03
C:/temp/Job-8.odb,Step-1,Increment      1: Step Time =    1.000,"P-8-1",           678,       10.1409,       120.296,            0.,NA,NA,"",   783.969E+03,   877.300E+03,   877.300E+03
C:/temp/Job-8.odb,Step-1,Increment      1: Step Time =    1.000,"P-8-1",           679,       9.91531,       130.273,            0.,NA,NA,"",   814.458E+03,   907.724E+03,   907.724E+03
C:/temp/Job-8.odb,Step-1,Increment      1: Step Time =    1.000,"P-8-1",           680,       9.79521,       140.126,            0.,NA,NA,"",   849.199E+03,   942.295E+03,   942.295E+03
C:/temp/Job-8.odb,Step-1,Increment      1: Step Time =    1.000,"P-8-1",           681,       190.197,       69.8453,            0.,NA,NA,"",   971.677E+03,   1.00078E+06,   1.00078E+06
C:/temp/Job-8.odb,Step-1,Increment      1: Step Time =    1.000,"P-8-1",           682,       90.0803,       189.910,            0.,NA,NA,"",   957.477E+03,   960.158E+03,   960.158E+03
C:/temp/Job-8.odb,Step-1,Increment      1: Step Time =    1.000,"P-8-1",           683,       100.110,       189.854,            0.,NA,NA,"",   951.516E+03,   954.649E+03,   954.649E+03
C:/temp/Job-8.odb,Step-1,Increment      1: Step Time =    1.000,"P-8-1",           684,       110.138,       189.935,            0.,NA,NA,"",   954.378E+03,   956.855E+03,   956.855E+03
C:/temp/Job-8.odb,Step-1,Increment      1: Step Time =    1.000,"P-8-1",           685,       120.190,       190.067,            0.,NA,NA,"",   964.500E+03,   965.512E+03,   965.512E+03
C:/temp/Job-8.odb,Step-1,Increment      1: Step Time =    1.000,"P-8-1",           686,       130.098,       190.153,            0.,NA,NA,"",   977.535E+03,   977.104E+03,   977.104E+03
C:/temp/Job-8.odb,Step-1,Increment      1: Step Time =    1.000,"P-8-1",           687,       139.886,       190.191,            0.,NA,NA,"",   989.293E+03,   988.009E+03,   988.009E+03
C:/temp/Job-8.odb,Step-1,Increment      1: Step Time =    1.000,"P-8-1",           688,       108.607,       81.1348,            0.,NA,NA,"",   1.66102E+06,   1.73841E+06,   1.73841E+06
C:/temp/Job-8.odb,Step-1,Increment      1: Step Time =    1.000,"P-8-1",           689,       81.1329,       91.5807,            0.,NA,NA,"",   651.157E+03,   296.942E+03,   296.942E+03
C:/temp/Job-8.odb,Step-1,Increment      1: Step Time =    1.000,"P-8-1",           690,       119.775,       109.370,            0.,NA,NA,"",   815.436E+03,   621.280E+03,   621.280E+03
C:/temp/Job-8.odb,Step-1,Increment      1: Step Time =    1.000,"P-8-1",           691,       109.527,       120.621,            0.,NA,NA,"",   1.55746E+06,   1.61729E+06,   1.61729E+06
C:/temp/Job-8.odb,Step-1,Increment      1: Step Time =    1.000,"P-8-1",           692,       83.7509,       119.680,            0.,NA,NA,"",   1.36506E+06,   1.31889E+06,   1.31889E+06
C:/temp/Job-8.odb,Step-1,Increment      1: Step Time =    1.000,"P-8-1",           693,       77.6543,       115.698,            0.,NA,NA,"",   1.17479E+06,   1.04087E+06,   1.04087E+06
C:/temp/Job-8.odb,Step-1,Increment      1: Step Time =    1.000,"P-8-1",           694,       86.0541,       78.3056,            0.,NA,NA,"",   1.40389E+06,   1.39853E+06,   1.39853E+06
C:/temp/Job-8.odb,Step-1,Increment      1: Step Time =    1.000,"P-8-1",           695,       121.859,       86.8647,            0.,NA,NA,"",   1.08667E+06,   928.768E+03,   928.768E+03
C:/temp/Job-8.odb,Step-1,Increment      1: Step Time =    1.000,"P-8-1",           696,       164.006,       9.93754,            0.,NA,NA,"",   1.00228E+06,   1.00126E+06,   1.00126E+06
C:/temp/Job-8.odb,Step-1,Increment      1: Step Time =    1.000,"P-8-1",           697,       9.37530,       164.266,            0.,NA,NA,"",   948.982E+03,   1.03919E+06,   1.03919E+06
C:/temp/Job-8.odb,Step-1,Increment      1: Step Time =    1.000,"P-8-1",           698,       35.6501,       9.49242,            0.,NA,NA,"",   1.06985E+06,   1.07243E+06,   1.07243E+06
C:/temp/Job-8.odb,Step-1,Increment      1: Step Time =    1.000,"P-8-1",           699,       9.07918,       36.7780,            0.,NA,NA,"",   940.770E+03,   1.03258E+06,   1.03258E+06
C:/temp/Job-8.odb,Step-1,Increment      1: Step Time =    1.000,"P-8-1",           700,       189.482,       164.339,            0.,NA,NA,"",   1.00039E+06,   1.00406E+06,   1.00406E+06
C:/temp/Job-8.odb,Step-1,Increment      1: Step Time =    1.000,"P-8-1",           701,       164.173,       190.260,            0.,NA,NA,"",   1.00237E+06,   1.00137E+06,   1.00137E+06
C:/temp/Job-8.odb,Step-1,Increment      1: Step Time =    1.000,"P-8-1",           702,       190.438,       35.9878,            0.,NA,NA,"",   999.519E+03,   1.00346E+06,   1.00346E+06
C:/temp/Job-8.odb,Step-1,Increment      1: Step Time =    1.000,"P-8-1",           703,       35.5954,       189.645,            0.,NA,NA,"",   1.07222E+06,   1.07524E+06,   1.07524E+06
C:/temp/Job-8.odb,Step-1,Increment      1: Step Time =    1.000,"P-8-1",           704,       59.9665,       14.9933,            0.,NA,NA,"",   1.03085E+06,   1.03031E+06,   1.03031E+06
C:/temp/Job-8.odb,Step-1,Increment      1: Step Time =    1.000,"P-8-1",           705,       14.0732,       60.3871,            0.,NA,NA,"",   863.160E+03,   949.833E+03,   949.833E+03
C:/temp/Job-8.odb,Step-1,Increment      1: Step Time =    1.000,"P-8-1",           706,       185.246,       60.1562,            0.,NA,NA,"",   991.476E+03,   1.00646E+06,   1.00646E+06
C:/temp/Job-8.odb,Step-1,Increment      1: Step Time =    1.000,"P-8-1",           707,       60.1183,       185.323,            0.,NA,NA,"",   1.02924E+06,   1.02871E+06,   1.02871E+06
C:/temp/Job-8.odb,Step-1,Increment      1: Step Time =    1.000,"P-8-1",           708,       140.389,       14.3205,            0.,NA,NA,"",   1.00268E+06,   1.00011E+06,   1.00011E+06
C:/temp/Job-8.odb,Step-1,Increment      1: Step Time =    1.000,"P-8-1",           709,       14.7273,       140.223,            0.,NA,NA,"",   868.495E+03,   953.988E+03,   953.988E+03
C:/temp/Job-8.odb,Step-1,Increment      1: Step Time =    1.000,"P-8-1",           710,       185.915,       139.863,            0.,NA,NA,"",   990.209E+03,   1.00595E+06,   1.00595E+06
C:/temp/Job-8.odb,Step-1,Increment      1: Step Time =    1.000,"P-8-1",           711,       139.847,       185.220,            0.,NA,NA,"",   1.00298E+06,   1.00042E+06,   1.00042E+06
C:/temp/Job-8.odb,Step-1,Increment      1: Step Time =    1.000,"P-8-1",           712,       163.778,       14.6693,            0.,NA,NA,"",   1.00797E+06,   1.00595E+06,   1.00595E+06
C:/temp/Job-8.odb,Step-1,Increment      1: Step Time =    1.000,"P-8-1",           713,       13.6558,       163.747,            0.,NA,NA,"",   970.159E+03,   1.04941E+06,   1.04941E+06
C:/temp/Job-8.odb,Step-1,Increment      1: Step Time =    1.000,"P-8-1",           714,       35.9400,       13.9525,            0.,NA,NA,"",   1.07913E+06,   1.08450E+06,   1.08450E+06
C:/temp/Job-8.odb,Step-1,Increment      1: Step Time =    1.000,"P-8-1",           715,       13.5911,       38.2669,            0.,NA,NA,"",   956.934E+03,   1.03810E+06,   1.03810E+06
C:/temp/Job-8.odb,Step-1,Increment      1: Step Time =    1.000,"P-8-1",           716,       184.599,       164.855,            0.,NA,NA,"",   1.00514E+06,   1.00751E+06,   1.00751E+06
C:/temp/Job-8.odb,Step-1,Increment      1: Step Time =    1.000,"P-8-1",           717,       163.689,       185.532,            0.,NA,NA,"",   1.00788E+06,   1.00589E+06,   1.00589E+06
C:/temp/Job-8.odb,Step-1,Increment      1: Step Time =    1.000,"P-8-1",           718,       185.860,       36.4894,            0.,NA,NA,"",   1.00378E+06,   1.00681E+06,   1.00681E+06
C:/temp/Job-8.odb,Step-1,Increment      1: Step Time =    1.000,"P-8-1",           719,       35.3160,       184.751,            0.,NA,NA,"",   1.08180E+06,   1.08840E+06,   1.08840E+06
C:/temp/Job-8.odb,Step-1,Increment      1: Step Time =    1.000,"P-8-1",           720,       130.322,       14.8075,            0.,NA,NA,"",   993.989E+03,   993.164E+03,   993.164E+03
C:/temp/Job-8.odb,Step-1,Increment      1: Step Time =    1.000,"P-8-1",           721,       14.3020,       70.1977,            0.,NA,NA,"",    825.26E+03,   913.525E+03,   913.525E+03
C:/temp/Job-8.odb,Step-1,Increment      1: Step Time =    1.000,"P-8-1",           722,       69.7212,       15.0980,            0.,NA,NA,"",   1.01246E+06,   1.01289E+06,   1.01289E+06
C:/temp/Job-8.odb,Step-1,Increment      1: Step Time =    1.000,"P-8-1",           723,       14.8686,       130.511,            0.,NA,NA,"",   830.285E+03,   917.574E+03,   917.574E+03
C:/temp/Job-8.odb,Step-1,Increment      1: Step Time =    1.000,"P-8-1",           724,       185.392,       130.277,            0.,NA,NA,"",   978.479E+03,   1.00145E+06,   1.00145E+06
C:/temp/Job-8.odb,Step-1,Increment      1: Step Time =    1.000,"P-8-1",           725,       70.1743,       185.296,            0.,NA,NA,"",   1.00974E+06,   1.01026E+06,   1.01026E+06
C:/temp/Job-8.odb,Step-1,Increment      1: Step Time =    1.000,"P-8-1",           726,       185.256,       69.7418,            0.,NA,NA,"",   978.751E+03,   1.00149E+06,   1.00149E+06
C:/temp/Job-8.odb,Step-1,Increment      1: Step Time =    1.000,"P-8-1",           727,       130.142,       185.187,            0.,NA,NA,"",   993.995E+03,   993.164E+03,   993.164E+03
C:/temp/Job-8.odb,Step-1,Increment      1: Step Time =    1.000,"P-8-1",           728,       120.091,       14.8295,            0.,NA,NA,"",   981.960E+03,   984.068E+03,   984.068E+03
C:/temp/Job-8.odb,Step-1,Increment      1: Step Time =    1.000,"P-8-1",           729,       15.2182,       79.8745,            0.,NA,NA,"",   793.759E+03,   882.614E+03,   882.614E+03
C:/temp/Job-8.odb,Step-1,Increment      1: Step Time =    1.000,"P-8-1",           730,       79.6551,       15.1222,            0.,NA,NA,"",   993.780E+03,   996.616E+03,   996.616E+03
C:/temp/Job-8.odb,Step-1,Increment      1: Step Time =    1.000,"P-8-1",           731,       15.3343,       120.567,            0.,NA,NA,"",   795.181E+03,   883.805E+03,   883.805E+03
C:/temp/Job-8.odb,Step-1,Increment      1: Step Time =    1.000,"P-8-1",           732,       80.1293,       185.116,            0.,NA,NA,"",   991.856E+03,   994.686E+03,   994.686E+03
C:/temp/Job-8.odb,Step-1,Increment      1: Step Time =    1.000,"P-8-1",           733,       184.278,       120.393,            0.,NA,NA,"",   963.621E+03,   993.192E+03,   993.192E+03
C:/temp/Job-8.odb,Step-1,Increment      1: Step Time =    1.000,"P-8-1",           734,       185.236,       79.5448,            0.,NA,NA,"",   963.159E+03,   993.973E+03,   993.973E+03
C:/temp/Job-8.odb,Step-1,Increment      1: Step Time =    1.000,"P-8-1",           735,       120.311,       185.127,            0.,NA,NA,"",   982.770E+03,   984.723E+03,   984.723E+03
C:/temp/Job-8.odb,Step-1,Increment      1: Step Time =    1.000,"P-8-1",           736,       110.055,       15.0988,            0.,NA,NA,"",   973.105E+03,   978.067E+03,   978.067E+03
C:/temp/Job-8.odb,Step-1,Increment      1: Step Time =    1.000,"P-8-1",           737,       14.9326,       90.6639,            0.,NA,NA,"",   766.007E+03,   856.339E+03,   856.339E+03
C:/temp/Job-8.odb,Step-1,Increment      1: Step Time =    1.000,"P-8-1",           738,       89.8424,       15.1633,            0.,NA,NA,"",   978.282E+03,   983.647E+03,   983.647E+03
C:/temp/Job-8.odb,Step-1,Increment      1: Step Time =    1.000,"P-8-1",           739,       15.5735,       110.643,            0.,NA,NA,"",   769.541E+03,   859.255E+03,   859.255E+03
C:/temp/Job-8.odb,Step-1,Increment      1: Step Time =    1.000,"P-8-1",           740,       90.1709,       184.850,            0.,NA,NA,"",   977.661E+03,   983.071E+03,   983.071E+03
C:/temp/Job-8.odb,Step-1,Increment      1: Step Time =    1.000,"P-8-1",           741,       184.392,       109.128,            0.,NA,NA,"",   947.578E+03,   984.387E+03,   984.387E+03
C:/temp/Job-8.odb,Step-1,Increment      1: Step Time =    1.000,"P-8-1",           742,       185.111,       89.4843,            0.,NA,NA,"",   949.257E+03,   986.436E+03,   986.436E+03
C:/temp/Job-8.odb,Step-1,Increment      1: Step Time =    1.000,"P-8-1",           743,       110.267,       184.917,            0.,NA,NA,"",   973.371E+03,   978.287E+03,   978.287E+03
C:/temp/Job-8.odb,Step-1,Increment      1: Step Time =    1.000,"P-8-1",           744,       76.7767,       111.351,            0.,NA,NA,"",   979.573E+03,   831.104E+03,   831.104E+03
C:/temp/Job-8.odb,Step-1,Increment      1: Step Time =    1.000,"P-8-1",           745,       88.7010,       125.115,            0.,NA,NA,"",   1.38865E+06,   1.42756E+06,   1.42756E+06
C:/temp/Job-8.odb,Step-1,Increment      1: Step Time =    1.000,"P-8-1",           746,       126.281,       92.1789,            0.,NA,NA,"",   773.296E+03,   649.479E+03,   649.479E+03
C:/temp/Job-8.odb,Step-1,Increment      1: Step Time =    1.000,"P-8-1",           747,       90.8236,       73.9956,            0.,NA,NA,"",   1.37867E+06,   1.44651E+06,   1.44651E+06
C:/temp/Job-8.odb,Step-1,Increment      1: Step Time =    1.000,"P-8-1",           748,       78.1611,       120.178,            0.,NA,NA,"",   1.27437E+06,   1.17703E+06,   1.17703E+06
C:/temp/Job-8.odb,Step-1,Increment      1: Step Time =    1.000,"P-8-1",           749,       80.0267,       80.2637,            0.,NA,NA,"",   1.30071E+06,   1.20134E+06,   1.20134E+06
C:/temp/Job-8.odb,Step-1,Increment      1: Step Time =    1.000,"P-8-1",           750,       120.186,       80.4371,            0.,NA,NA,"",   1.37847E+06,   1.26397E+06,   1.26397E+06
C:/temp/Job-8.odb,Step-1,Increment      1: Step Time =    1.000,"P-8-1",           751,       99.9566,       15.2255,            0.,NA,NA,"",   971.254E+03,   977.485E+03,   977.485E+03
C:/temp/Job-8.odb,Step-1,Increment      1: Step Time =    1.000,"P-8-1",           752,       15.2362,       100.609,            0.,NA,NA,"",   758.230E+03,   848.735E+03,   848.735E+03
C:/temp/Job-8.odb,Step-1,Increment      1: Step Time =    1.000,"P-8-1",           753,       184.979,       99.2428,            0.,NA,NA,"",   943.304E+03,   982.964E+03,   982.964E+03
C:/temp/Job-8.odb,Step-1,Increment      1: Step Time =    1.000,"P-8-1",           754,       100.254,       184.738,            0.,NA,NA,"",   971.193E+03,   977.460E+03,   977.460E+03
C:/temp/Job-8.odb,Step-1,Increment      1: Step Time =    1.000,"P-8-1",           755,       14.1126,       65.3491,            0.,NA,NA,"",   843.431E+03,   931.054E+03,   931.054E+03
C:/temp/Job-8.odb,Step-1,Increment      1: Step Time =    1.000,"P-8-1",           756,       64.8266,       15.0769,            0.,NA,NA,"",   1.02173E+06,   1.02146E+06,   1.02146E+06
C:/temp/Job-8.odb,Step-1,Increment      1: Step Time =    1.000,"P-8-1",           757,       185.255,       64.9343,            0.,NA,NA,"",   985.623E+03,   1.00435E+06,   1.00435E+06
C:/temp/Job-8.odb,Step-1,Increment      1: Step Time =    1.000,"P-8-1",           758,       65.1708,       185.301,            0.,NA,NA,"",   1.01946E+06,   1.01930E+06,   1.01930E+06
C:/temp/Job-8.odb,Step-1,Increment      1: Step Time =    1.000,"P-8-1",           759,       135.454,       14.7674,            0.,NA,NA,"",   998.940E+03,   997.034E+03,   997.034E+03
C:/temp/Job-8.odb,Step-1,Increment      1: Step Time =    1.000,"P-8-1",           760,       14.7500,       135.390,            0.,NA,NA,"",   849.075E+03,   935.560E+03,   935.560E+03
C:/temp/Job-8.odb,Step-1,Increment      1: Step Time =    1.000,"P-8-1",           761,       185.676,       135.093,            0.,NA,NA,"",   984.930E+03,   1.00418E+06,   1.00418E+06
C:/temp/Job-8.odb,Step-1,Increment      1: Step Time =    1.000,"P-8-1",           762,       134.995,       185.213,            0.,NA,NA,"",   998.902E+03,   997.065E+03,   997.065E+03
C:/temp/Job-8.odb,Step-1,Increment      1: Step Time =    1.000,"P-8-1",           763,       15.0126,       167.998,            0.,NA,NA,"",   998.083E+03,   1.07092E+06,   1.07092E+06
C:/temp/Job-8.odb,Step-1,Increment      1: Step Time =    1.000,"P-8-1",           764,       168.198,       19.0644,            0.,NA,NA,"",   1.01177E+06,   1.00944E+06,   1.00944E+06
C:/temp/Job-8.odb,Step-1,Increment      1: Step Time =    1.000,"P-8-1",           765,       31.0602,       14.0520,            0.,NA,NA,"",   1.09420E+06,   1.10274E+06,   1.10274E+06
C:/temp/Job-8.odb,Step-1,Increment      1: Step Time =    1.000,"P-8-1",           766,       14.6064,       33.7508,            0.,NA,NA,"",   986.597E+03,   1.06211E+06,   1.06211E+06
C:/temp/Job-8.odb,Step-1,Increment      1: Step Time =    1.000,"P-8-1",           767,       180.958,       169.864,            0.,NA,NA,"",   1.00840E+06,   1.00883E+06,   1.00883E+06
C:/temp/Job-8.odb,Step-1,Increment      1: Step Time =    1.000,"P-8-1",           768,       168.428,       185.458,            0.,NA,NA,"",   1.00678E+06,   1.00534E+06,   1.00534E+06
C:/temp/Job-8.odb,Step-1,Increment      1: Step Time =    1.000,"P-8-1",           769,       185.754,       31.9102,            0.,NA,NA,"",   1.00397E+06,   1.00588E+06,   1.00588E+06
C:/temp/Job-8.odb,Step-1,Increment      1: Step Time =    1.000,"P-8-1",           770,       30.8997,       184.957,            0.,NA,NA,"",   1.09444E+06,   1.10399E+06,   1.10399E+06
C:/temp/Job-8.odb,Step-1,Increment      1: Step Time =    1.000,"P-8-1",           771,       15.0800,       125.568,            0.,NA,NA,"",   812.092E+03,   900.064E+03,   900.064E+03
C:/temp/Job-8.odb,Step-1,Increment      1: Step Time =    1.000,"P-8-1",           772,       125.173,       14.7747,            0.,NA,NA,"",   987.826E+03,   988.449E+03,   988.449E+03
C:/temp/Job-8.odb,Step-1,Increment      1: Step Time =    1.000,"P-8-1",           773,       14.6816,       75.0120,            0.,NA,NA,"",   808.793E+03,   897.449E+03,   897.449E+03
C:/temp/Job-8.odb,Step-1,Increment      1: Step Time =    1.000,"P-8-1",           774,       74.6452,       15.1381,            0.,NA,NA,"",   1.00302E+06,   1.00453E+06,   1.00453E+06
C:/temp/Job-8.odb,Step-1,Increment      1: Step Time =    1.000,"P-8-1",           775,       184.957,       125.410,            0.,NA,NA,"",   971.430E+03,   997.940E+03,   997.940E+03
C:/temp/Job-8.odb,Step-1,Increment      1: Step Time =    1.000,"P-8-1",           776,       125.239,       185.175,            0.,NA,NA,"",   988.506E+03,   988.935E+03,   988.935E+03
C:/temp/Job-8.odb,Step-1,Increment      1: Step Time =    1.000,"P-8-1",           777,       185.269,       74.6158,            0.,NA,NA,"",   971.158E+03,   997.997E+03,   997.997E+03
C:/temp/Job-8.odb,Step-1,Increment      1: Step Time =    1.000,"P-8-1",           778,       75.1787,       185.221,            0.,NA,NA,"",   1.00046E+06,   1.00204E+06,   1.00204E+06
C:/temp/Job-8.odb,Step-1,Increment      1: Step Time =    1.000,"P-8-1",           779,       115.079,       14.9759,            0.,NA,NA,"",   976.937E+03,   980.569E+03,   980.569E+03
C:/temp/Job-8.odb,Step-1,Increment      1: Step Time =    1.000,"P-8-1",           780,       16.0735,       85.2475,            0.,NA,NA,"",   779.546E+03,   868.298E+03,   868.298E+03
C:/temp/Job-8.odb,Step-1,Increment      1: Step Time =    1.000,"P-8-1",           781,       84.7411,       15.1510,            0.,NA,NA,"",   985.211E+03,   989.440E+03,   989.440E+03
C:/temp/Job-8.odb,Step-1,Increment      1: Step Time =    1.000,"P-8-1",           782,       15.5529,       115.634,            0.,NA,NA,"",   780.909E+03,   870.119E+03,   870.119E+03
C:/temp/Job-8.odb,Step-1,Increment      1: Step Time =    1.000,"P-8-1",           783,       185.190,       84.5116,            0.,NA,NA,"",   955.505E+03,   989.887E+03,   989.887E+03
C:/temp/Job-8.odb,Step-1,Increment      1: Step Time =    1.000,"P-8-1",           784,       115.310,       185.045,            0.,NA,NA,"",   977.409E+03,   980.960E+03,   980.960E+03
C:/temp/Job-8.odb,Step-1,Increment      1: Step Time =    1.000,"P-8-1",           785,       85.1527,       184.980,            0.,NA,NA,"",   984.051E+03,   988.261E+03,   988.261E+03
C:/temp/Job-8.odb,Step-1,Increment      1: Step Time =    1.000,"P-8-1",           786,       183.064,       114.697,            0.,NA,NA,"",   954.206E+03,   986.143E+03,   986.143E+03
C:/temp/Job-8.odb,Step-1,Increment      1: Step Time =    1.000,"P-8-1",           787,       94.9215,       15.2176,            0.,NA,NA,"",   973.624E+03,   979.664E+03,   979.664E+03
C:/temp/Job-8.odb,Step-1,Increment      1: Step Time =    1.000,"P-8-1",           788,       15.4631,       105.618,            0.,NA,NA,"",   761.653E+03,   851.817E+03,   851.817E+03
C:/temp/Job-8.odb,Step-1,Increment      1: Step Time =    1.000,"P-8-1",           789,       185.053,       94.3557,            0.,NA,NA,"",   945.082E+03,   984.055E+03,   984.055E+03
C:/temp/Job-8.odb,Step-1,Increment      1: Step Time =    1.000,"P-8-1",           790,       105.261,       184.803,            0.,NA,NA,"",   971.242E+03,   977.096E+03,   977.096E+03
C:/temp/Job-8.odb,Step-1,Increment      1: Step Time =    1.000,"P-8-1",           791,       77.9391,       83.3695,            0.,NA,NA,"",   1.22120E+06,   1.09639E+06,   1.09639E+06
C:/temp/Job-8.odb,Step-1,Increment      1: Step Time =    1.000,"P-8-1",           792,       117.035,       78.0788,            0.,NA,NA,"",   1.41858E+06,   1.34810E+06,   1.34810E+06
C:/temp/Job-8.odb,Step-1,Increment      1: Step Time =    1.000,"P-8-1",           793,       94.1049,       120.156,            0.,NA,NA,"",   1.76606E+06,   1.85649E+06,   1.85649E+06
C:/temp/Job-8.odb,Step-1,Increment      1: Step Time =    1.000,"P-8-1",           794,       105.006,       15.2054,            0.,NA,NA,"",   971.100E+03,   976.962E+03,   976.962E+03
C:/temp/Job-8.odb,Step-1,Increment      1: Step Time =    1.000,"P-8-1",           795,       14.9582,       95.6801,            0.,NA,NA,"",   759.456E+03,   850.090E+03,   850.090E+03
C:/temp/Job-8.odb,Step-1,Increment      1: Step Time =    1.000,"P-8-1",           796,       184.830,       104.092,            0.,NA,NA,"",   944.074E+03,   983.172E+03,   983.172E+03
C:/temp/Job-8.odb,Step-1,Increment      1: Step Time =    1.000,"P-8-1",           797,       95.2387,       184.763,            0.,NA,NA,"",   973.270E+03,   979.407E+03,   979.407E+03
C:/temp/Job-8.odb,Step-1,Increment      1: Step Time =    1.000,"P-8-1",           798,       78.2425,       124.843,            0.,NA,NA,"",   1.31260E+06,   1.24930E+06,   1.24930E+06
C:/temp/Job-8.odb,Step-1,Increment      1: Step Time =    1.000,"P-8-1",           799,       124.169,       82.5068,            0.,NA,NA,"",   1.26059E+06,   1.12327E+06,   1.12327E+06
C:/temp/Job-8.odb,Step-1,Increment      1: Step Time =    1.000,"P-8-1",           800,       72.8727,       120.761,            0.,NA,NA,"",   1.18469E+06,   1.09852E+06,   1.09852E+06
C:/temp/Job-8.odb,Step-1,Increment      1: Step Time =    1.000,"P-8-1",           801,       81.6656,       76.2048,            0.,NA,NA,"",   1.34227E+06,   1.28746E+06,   1.28746E+06
C:/temp/Job-8.odb,Step-1,Increment      1: Step Time =    1.000,"P-8-1",           802,       74.1214,       80.7271,            0.,NA,NA,"",   1.18711E+06,   1.09921E+06,   1.09921E+06
C:/temp/Job-8.odb,Step-1,Increment      1: Step Time =    1.000,"P-8-1",           803,       119.861,       74.2022,            0.,NA,NA,"",   1.34379E+06,   1.27849E+06,   1.27849E+06
C:/temp/Job-8.odb,Step-1,Increment      1: Step Time =    1.000,"P-8-1",           804,       126.902,       78.6068,            0.,NA,NA,"",    1.2694E+06,   1.15792E+06,   1.15792E+06
C:/temp/Job-8.odb,Step-1,Increment      1: Step Time =    1.000,"P-8-1",           805,       77.5787,       73.9616,            0.,NA,NA,"",   1.29352E+06,   1.23146E+06,   1.23146E+06
C:/temp/Job-8.odb,Step-1,Increment      1: Step Time =    1.000,"P-8-1",           806,       77.9678,       129.532,            0.,NA,NA,"",   1.28702E+06,   1.25009E+06,   1.25009E+06
C:/temp/Job-8.odb,Step-1,Increment      1: Step Time =    1.000,"P-8-1",           807,       67.8796,       121.406,            0.,NA,NA,"",   1.09584E+06,   1.03915E+06,   1.03915E+06
C:/temp/Job-8.odb,Step-1,Increment      1: Step Time =    1.000,"P-8-1",           808,       110.203,       20.2823,            0.,NA,NA,"",   989.789E+03,   998.005E+03,   998.005E+03
C:/temp/Job-8.odb,Step-1,Increment      1: Step Time =    1.000,"P-8-1",           809,       19.0845,       91.3179,            0.,NA,NA,"",   769.651E+03,   856.628E+03,   856.628E+03
C:/temp/Job-8.odb,Step-1,Increment      1: Step Time =    1.000,"P-8-1",           810,       179.623,       107.779,            0.,NA,NA,"",   942.720E+03,   973.841E+03,   973.841E+03
C:/temp/Job-8.odb,Step-1,Increment      1: Step Time =    1.000,"P-8-1",           811,       90.3051,       179.798,            0.,NA,NA,"",   994.518E+03,   1.00347E+06,   1.00347E+06
C:/temp/Job-8.odb,Step-1,Increment      1: Step Time =    1.000,"P-8-1",           812,       99.9500,       20.4954,            0.,NA,NA,"",   987.683E+03,   998.036E+03,   998.036E+03
C:/temp/Job-8.odb,Step-1,Increment      1: Step Time =    1.000,"P-8-1",           813,       20.4523,       100.687,            0.,NA,NA,"",   761.785E+03,   848.414E+03,   848.414E+03
C:/temp/Job-8.odb,Step-1,Increment      1: Step Time =    1.000,"P-8-1",           814,       179.985,       98.7284,            0.,NA,NA,"",   938.280E+03,   971.604E+03,   971.604E+03
C:/temp/Job-8.odb,Step-1,Increment      1: Step Time =    1.000,"P-8-1",           815,       100.485,       179.542,            0.,NA,NA,"",   987.256E+03,   997.646E+03,   997.646E+03
C:/temp/Job-8.odb,Step-1,Increment      1: Step Time =    1.000,"P-8-1",           816,       18.8158,       60.7691,            0.,NA,NA,"",   880.364E+03,   959.226E+03,   959.226E+03
C:/temp/Job-8.odb,Step-1,Increment      1: Step Time =    1.000,"P-8-1",           817,       59.7259,       20.2130,            0.,NA,NA,"",   1.04899E+06,   1.04843E+06,   1.04843E+06
C:/temp/Job-8.odb,Step-1,Increment      1: Step Time =    1.000,"P-8-1",           818,       60.1889,       180.188,            0.,NA,NA,"",   1.04659E+06,   1.04611E+06,   1.04611E+06
C:/temp/Job-8.odb,Step-1,Increment      1: Step Time =    1.000,"P-8-1",           819,       180.217,       60.1817,            0.,NA,NA,"",   1.00123E+06,   1.01068E+06,   1.01068E+06
C:/temp/Job-8.odb,Step-1,Increment      1: Step Time =    1.000,"P-8-1",           820,       140.536,       18.2274,            0.,NA,NA,"",   1.01371E+06,   1.00988E+06,   1.00988E+06
C:/temp/Job-8.odb,Step-1,Increment      1: Step Time =    1.000,"P-8-1",           821,       19.6442,       140.311,            0.,NA,NA,"",   888.814E+03,   965.717E+03,   965.717E+03
C:/temp/Job-8.odb,Step-1,Increment      1: Step Time =    1.000,"P-8-1",           822,       180.927,       139.960,            0.,NA,NA,"",   999.943E+03,   1.01013E+06,   1.01013E+06
C:/temp/Job-8.odb,Step-1,Increment      1: Step Time =    1.000,"P-8-1",           823,       139.808,       180.277,            0.,NA,NA,"",   1.01801E+06,   1.01378E+06,   1.01378E+06
C:/temp/Job-8.odb,Step-1,Increment      1: Step Time =    1.000,"P-8-1",           824,       163.387,       19.3283,            0.,NA,NA,"",   1.01466E+06,   1.01139E+06,   1.01139E+06
C:/temp/Job-8.odb,Step-1,Increment      1: Step Time =    1.000,"P-8-1",           825,       16.9158,       163.954,            0.,NA,NA,"",   985.278E+03,   1.05571E+06,   1.05571E+06
C:/temp/Job-8.odb,Step-1,Increment      1: Step Time =    1.000,"P-8-1",           826,       14.7796,       173.377,            0.,NA,NA,"",   1.03338E+06,   1.10090E+06,   1.10090E+06
C:/temp/Job-8.odb,Step-1,Increment      1: Step Time =    1.000,"P-8-1",           827,       26.0975,       14.4818,            0.,NA,NA,"",   1.11013E+06,   1.12463E+06,   1.12463E+06
C:/temp/Job-8.odb,Step-1,Increment      1: Step Time =    1.000,"P-8-1",           828,       15.9699,       29.2148,            0.,NA,NA,"",   1.02198E+06,   1.08875E+06,   1.08875E+06
C:/temp/Job-8.odb,Step-1,Increment      1: Step Time =    1.000,"P-8-1",           829,       36.0787,       17.9708,            0.,NA,NA,"",   1.08439E+06,   1.09250E+06,   1.09250E+06
C:/temp/Job-8.odb,Step-1,Increment      1: Step Time =    1.000,"P-8-1",           830,       19.0737,       35.7213,            0.,NA,NA,"",   998.946E+03,   1.06299E+06,   1.06299E+06
C:/temp/Job-8.odb,Step-1,Increment      1: Step Time =    1.000,"P-8-1",           831,       173.287,       185.092,            0.,NA,NA,"",   1.00551E+06,   1.00463E+06,   1.00463E+06
C:/temp/Job-8.odb,Step-1,Increment      1: Step Time =    1.000,"P-8-1",           832,       180.059,       165.597,            0.,NA,NA,"",   1.01077E+06,   1.01128E+06,   1.01128E+06
C:/temp/Job-8.odb,Step-1,Increment      1: Step Time =    1.000,"P-8-1",           833,       163.241,       180.935,            0.,NA,NA,"",   1.01471E+06,   1.01141E+06,   1.01141E+06
C:/temp/Job-8.odb,Step-1,Increment      1: Step Time =    1.000,"P-8-1",           834,       185.113,       27.1478,            0.,NA,NA,"",   1.00404E+06,   1.00507E+06,   1.00507E+06
C:/temp/Job-8.odb,Step-1,Increment      1: Step Time =    1.000,"P-8-1",           835,       26.2532,       184.587,            0.,NA,NA,"",   1.10697E+06,   1.12321E+06,   1.12321E+06
C:/temp/Job-8.odb,Step-1,Increment      1: Step Time =    1.000,"P-8-1",           836,       181.451,       36.8617,            0.,NA,NA,"",   1.00975E+06,   1.01105E+06,   1.01105E+06
C:/temp/Job-8.odb,Step-1,Increment      1: Step Time =    1.000,"P-8-1",           837,       35.3211,       180.025,            0.,NA,NA,"",   1.08459E+06,   1.09530E+06,   1.09530E+06
C:/temp/Job-8.odb,Step-1,Increment      1: Step Time =    1.000,"P-8-1",           838,       130.338,       19.6522,            0.,NA,NA,"",   1.01034E+06,   1.00899E+06,   1.00899E+06
C:/temp/Job-8.odb,Step-1,Increment      1: Step Time =    1.000,"P-8-1",           839,       19.7671,       130.862,            0.,NA,NA,"",   847.565E+03,   927.945E+03,   927.945E+03
C:/temp/Job-8.odb,Step-1,Increment      1: Step Time =    1.000,"P-8-1",           840,       70.4108,       180.363,            0.,NA,NA,"",   1.02782E+06,   1.02897E+06,   1.02897E+06
C:/temp/Job-8.odb,Step-1,Increment      1: Step Time =    1.000,"P-8-1",           841,       180.315,       69.6532,            0.,NA,NA,"",   986.179E+03,   1.00247E+06,   1.00247E+06
C:/temp/Job-8.odb,Step-1,Increment      1: Step Time =    1.000,"P-8-1",           842,       19.0821,       70.2166,            0.,NA,NA,"",   839.763E+03,   921.668E+03,   921.668E+03
C:/temp/Job-8.odb,Step-1,Increment      1: Step Time =    1.000,"P-8-1",           843,       69.5310,       20.4748,            0.,NA,NA,"",   1.03282E+06,   1.03366E+06,   1.03366E+06
C:/temp/Job-8.odb,Step-1,Increment      1: Step Time =    1.000,"P-8-1",           844,       180.554,       130.481,            0.,NA,NA,"",     985.7E+03,   1.00233E+06,   1.00233E+06
C:/temp/Job-8.odb,Step-1,Increment      1: Step Time =    1.000,"P-8-1",           845,       130.150,       180.236,            0.,NA,NA,"",   1.01060E+06,   1.00924E+06,   1.00924E+06
C:/temp/Job-8.odb,Step-1,Increment      1: Step Time =    1.000,"P-8-1",           846,       120.216,       19.7748,            0.,NA,NA,"",   998.848E+03,   1.00222E+06,   1.00222E+06
C:/temp/Job-8.odb,Step-1,Increment      1: Step Time =    1.000,"P-8-1",           847,       21.2783,       83.4368,            0.,NA,NA,"",   793.016E+03,   876.576E+03,   876.576E+03
C:/temp/Job-8.odb,Step-1,Increment      1: Step Time =    1.000,"P-8-1",           848,       80.2562,       180.135,            0.,NA,NA,"",   1.01010E+06,   1.01485E+06,   1.01485E+06
C:/temp/Job-8.odb,Step-1,Increment      1: Step Time =    1.000,"P-8-1",           849,       177.915,       117.205,            0.,NA,NA,"",   958.712E+03,    982.24E+03,    982.24E+03
C:/temp/Job-8.odb,Step-1,Increment      1: Step Time =    1.000,"P-8-1",           850,       87.6233,       130.173,            0.,NA,NA,"",   1.27238E+06,   1.31374E+06,   1.31374E+06
C:/temp/Job-8.odb,Step-1,Increment      1: Step Time =    1.000,"P-8-1",           851,       89.6862,       25.3743,            0.,NA,NA,"",   1.01044E+06,   1.02336E+06,   1.02336E+06
C:/temp/Job-8.odb,Step-1,Increment      1: Step Time =    1.000,"P-8-1",           852,       26.7893,       111.024,            0.,NA,NA,"",   781.988E+03,   861.363E+03,   861.363E+03
C:/temp/Job-8.odb,Step-1,Increment      1: Step Time =    1.000,"P-8-1",           853,       175.205,       88.7893,            0.,NA,NA,"",   943.261E+03,   967.742E+03,   967.742E+03
C:/temp/Job-8.odb,Step-1,Increment      1: Step Time =    1.000,"P-8-1",           854,       110.806,       174.993,            0.,NA,NA,"",   1.00433E+06,   1.01573E+06,   1.01573E+06
C:/temp/Job-8.odb,Step-1,Increment      1: Step Time =    1.000,"P-8-1",           855,       79.4704,       25.5170,            0.,NA,NA,"",   1.03092E+06,   1.03775E+06,   1.03775E+06
C:/temp/Job-8.odb,Step-1,Increment      1: Step Time =    1.000,"P-8-1",           856,       25.8005,       121.955,            0.,NA,NA,"",   825.447E+03,   900.939E+03,   900.939E+03
C:/temp/Job-8.odb,Step-1,Increment      1: Step Time =    1.000,"P-8-1",           857,       120.553,       24.7583,            0.,NA,NA,"",   1.01587E+06,   1.02032E+06,   1.02032E+06
C:/temp/Job-8.odb,Step-1,Increment      1: Step Time =    1.000,"P-8-1",           858,       25.3058,       78.8000,            0.,NA,NA,"",   819.751E+03,   896.532E+03,   896.532E+03
C:/temp/Job-8.odb,Step-1,Increment      1: Step Time =    1.000,"P-8-1",           859,       80.4242,       175.097,            0.,NA,NA,"",   1.02688E+06,   1.03382E+06,   1.03382E+06
C:/temp/Job-8.odb,Step-1,Increment      1: Step Time =    1.000,"P-8-1",           860,       174.275,       122.326,            0.,NA,NA,"",   973.238E+03,   988.139E+03,   988.139E+03
C:/temp/Job-8.odb,Step-1,Increment      1: Step Time =    1.000,"P-8-1",           861,       175.699,       79.1249,            0.,NA,NA,"",   968.978E+03,   986.886E+03,   986.886E+03
C:/temp/Job-8.odb,Step-1,Increment      1: Step Time =    1.000,"P-8-1",           862,       120.519,       175.430,            0.,NA,NA,"",   1.01546E+06,   1.01962E+06,   1.01962E+06
C:/temp/Job-8.odb,Step-1,Increment      1: Step Time =    1.000,"P-8-1",           863,       174.857,       98.2590,            0.,NA,NA,"",   928.497E+03,   956.510E+03,   956.510E+03
C:/temp/Job-8.odb,Step-1,Increment      1: Step Time =    1.000,"P-8-1",           864,       100.752,       174.194,            0.,NA,NA,"",   1.00069E+06,   1.01640E+06,   1.01640E+06
C:/temp/Job-8.odb,Step-1,Increment      1: Step Time =    1.000,"P-8-1",           865,       99.9186,       25.9864,            0.,NA,NA,"",   1.00161E+06,   1.01732E+06,   1.01732E+06
C:/temp/Job-8.odb,Step-1,Increment      1: Step Time =    1.000,"P-8-1",           866,       26.1761,       100.229,            0.,NA,NA,"",   763.332E+03,   844.968E+03,   844.968E+03
C:/temp/Job-8.odb,Step-1,Increment      1: Step Time =    1.000,"P-8-1",           867,       140.320,       23.9755,            0.,NA,NA,"",   1.03197E+06,   1.02576E+06,   1.02576E+06
C:/temp/Job-8.odb,Step-1,Increment      1: Step Time =    1.000,"P-8-1",           868,       24.5536,       140.323,            0.,NA,NA,"",   909.476E+03,   977.062E+03,   977.062E+03
C:/temp/Job-8.odb,Step-1,Increment      1: Step Time =    1.000,"P-8-1",           869,       24.2551,       57.0533,            0.,NA,NA,"",   921.234E+03,   987.687E+03,   987.687E+03
C:/temp/Job-8.odb,Step-1,Increment      1: Step Time =    1.000,"P-8-1",           870,       59.2557,       25.4959,            0.,NA,NA,"",   1.06558E+06,   1.06502E+06,   1.06502E+06
C:/temp/Job-8.odb,Step-1,Increment      1: Step Time =    1.000,"P-8-1",           871,       175.922,       139.758,            0.,NA,NA,"",   1.01036E+06,   1.01483E+06,   1.01483E+06
C:/temp/Job-8.odb,Step-1,Increment      1: Step Time =    1.000,"P-8-1",           872,       139.744,       175.410,            0.,NA,NA,"",   1.03400E+06,   1.02768E+06,   1.02768E+06
C:/temp/Job-8.odb,Step-1,Increment      1: Step Time =    1.000,"P-8-1",           873,       61.0399,       175.214,            0.,NA,NA,"",   1.06094E+06,   1.06050E+06,   1.06050E+06
C:/temp/Job-8.odb,Step-1,Increment      1: Step Time =    1.000,"P-8-1",           874,       175.083,       60.2088,            0.,NA,NA,"",   1.01272E+06,   1.01602E+06,   1.01602E+06
C:/temp/Job-8.odb,Step-1,Increment      1: Step Time =    1.000,"P-8-1",           875,       69.3044,       26.1062,            0.,NA,NA,"",   1.05233E+06,   1.05363E+06,   1.05363E+06
C:/temp/Job-8.odb,Step-1,Increment      1: Step Time =    1.000,"P-8-1",           876,       130.116,       175.310,            0.,NA,NA,"",   1.02779E+06,   1.02566E+06,   1.02566E+06
C:/temp/Job-8.odb,Step-1,Increment      1: Step Time =    1.000,"P-8-1",           877,       24.5724,       131.298,            0.,NA,NA,"",   866.418E+03,   938.951E+03,   938.951E+03
C:/temp/Job-8.odb,Step-1,Increment      1: Step Time =    1.000,"P-8-1",           878,       175.365,       69.6468,            0.,NA,NA,"",   994.292E+03,   1.00395E+06,   1.00395E+06
C:/temp/Job-8.odb,Step-1,Increment      1: Step Time =    1.000,"P-8-1",           879,       35.8471,       21.1142,            0.,NA,NA,"",   1.08324E+06,   1.09434E+06,   1.09434E+06
C:/temp/Job-8.odb,Step-1,Increment      1: Step Time =    1.000,"P-8-1",           880,       29.0931,       35.0516,            0.,NA,NA,"",   1.03873E+06,   1.07694E+06,   1.07694E+06
C:/temp/Job-8.odb,Step-1,Increment      1: Step Time =    1.000,"P-8-1",           881,       163.191,       23.9982,            0.,NA,NA,"",   1.02170E+06,   1.01707E+06,   1.01707E+06
C:/temp/Job-8.odb,Step-1,Increment      1: Step Time =    1.000,"P-8-1",           882,       20.6221,       161.002,            0.,NA,NA,"",   987.154E+03,   1.05033E+06,   1.05033E+06
C:/temp/Job-8.odb,Step-1,Increment      1: Step Time =    1.000,"P-8-1",           883,       177.201,       37.0072,            0.,NA,NA,"",   1.01590E+06,   1.01522E+06,   1.01522E+06
C:/temp/Job-8.odb,Step-1,Increment      1: Step Time =    1.000,"P-8-1",           884,       35.4277,       175.397,            0.,NA,NA,"",   1.07967E+06,   1.09527E+06,   1.09527E+06
C:/temp/Job-8.odb,Step-1,Increment      1: Step Time =    1.000,"P-8-1",           885,       175.941,       166.483,            0.,NA,NA,"",   1.01630E+06,   1.01488E+06,   1.01488E+06
C:/temp/Job-8.odb,Step-1,Increment      1: Step Time =    1.000,"P-8-1",           886,       163.017,       176.449,            0.,NA,NA,"",   1.02175E+06,   1.01707E+06,   1.01707E+06
C:/temp/Job-8.odb,Step-1,Increment      1: Step Time =    1.000,"P-8-1",           887,       131.201,       88.5973,            0.,NA,NA,"",   899.774E+03,   817.663E+03,   817.663E+03
C:/temp/Job-8.odb,Step-1,Increment      1: Step Time =    1.000,"P-8-1",           888,       87.4490,       68.3790,            0.,NA,NA,"",   1.25413E+06,   1.29573E+06,   1.29573E+06
C:/temp/Job-8.odb,Step-1,Increment      1: Step Time =    1.000,"P-8-1",           889,       82.8597,       129.677,            0.,NA,NA,"",   1.29833E+06,   1.29467E+06,   1.29467E+06
C:/temp/Job-8.odb,Step-1,Increment      1: Step Time =    1.000,"P-8-1",           890,       67.1667,       117.174,            0.,NA,NA,"",   995.479E+03,   947.010E+03,   947.010E+03
C:/temp/Job-8.odb,Step-1,Increment      1: Step Time =    1.000,"P-8-1",           891,       55.3001,       185.611,            0.,NA,NA,"",   1.03746E+06,   1.03702E+06,   1.03702E+06
C:/temp/Job-8.odb,Step-1,Increment      1: Step Time =    1.000,"P-8-1",           892,       185.303,       55.3703,            0.,NA,NA,"",   996.118E+03,   1.00776E+06,   1.00776E+06
C:/temp/Job-8.odb,Step-1,Increment      1: Step Time =    1.000,"P-8-1",           893,       145.273,       14.5198,            0.,NA,NA,"",   1.00510E+06,   1.00219E+06,   1.00219E+06
C:/temp/Job-8.odb,Step-1,Increment      1: Step Time =    1.000,"P-8-1",           894,       14.7353,       145.067,            0.,NA,NA,"",   888.540E+03,   972.845E+03,   972.845E+03
C:/temp/Job-8.odb,Step-1,Increment      1: Step Time =    1.000,"P-8-1",           895,       14.2115,       55.2390,            0.,NA,NA,"",   884.734E+03,   970.110E+03,   970.110E+03
C:/temp/Job-8.odb,Step-1,Increment      1: Step Time =    1.000,"P-8-1",           896,       55.0352,       14.8874,            0.,NA,NA,"",   1.03987E+06,   1.03953E+06,   1.03953E+06
C:/temp/Job-8.odb,Step-1,Increment      1: Step Time =    1.000,"P-8-1",           897,       186.230,       144.414,            0.,NA,NA,"",   994.041E+03,   1.00678E+06,   1.00678E+06
C:/temp/Job-8.odb,Step-1,Increment      1: Step Time =    1.000,"P-8-1",           898,       144.669,       185.259,            0.,NA,NA,"",   1.00593E+06,   1.00298E+06,   1.00298E+06
C:/temp/Job-8.odb,Step-1,Increment      1: Step Time =    1.000,"P-8-1",           899,       19.9579,       168.524,            0.,NA,NA,"",   1.02462E+06,   1.08262E+06,   1.08262E+06
C:/temp/Job-8.odb,Step-1,Increment      1: Step Time =    1.000,"P-8-1",           900,       172.896,       19.0532,            0.,NA,NA,"",   1.00903E+06,   1.00760E+06,   1.00760E+06
C:/temp/Job-8.odb,Step-1,Increment      1: Step Time =    1.000,"P-8-1",           901,       174.179,       9.89269,            0.,NA,NA,"",   1.00204E+06,   1.00165E+06,   1.00165E+06
C:/temp/Job-8.odb,Step-1,Increment      1: Step Time =    1.000,"P-8-1",           902,       13.8882,       159.267,            0.,NA,NA,"",   948.020E+03,   1.02918E+06,   1.02918E+06
C:/temp/Job-8.odb,Step-1,Increment      1: Step Time =    1.000,"P-8-1",           903,       159.070,       14.9320,            0.,NA,NA,"",   1.00847E+06,   1.00599E+06,   1.00599E+06
C:/temp/Job-8.odb,Step-1,Increment      1: Step Time =    1.000,"P-8-1",           904,       10.9629,       27.0392,            0.,NA,NA,"",   1.00872E+06,   1.08956E+06,   1.08956E+06
C:/temp/Job-8.odb,Step-1,Increment      1: Step Time =    1.000,"P-8-1",           905,       26.9212,       18.9961,            0.,NA,NA,"",   1.09825E+06,   1.11875E+06,   1.11875E+06
C:/temp/Job-8.odb,Step-1,Increment      1: Step Time =    1.000,"P-8-1",           906,       22.1797,       27.8426,            0.,NA,NA,"",   1.05283E+06,   1.09892E+06,   1.09892E+06
C:/temp/Job-8.odb,Step-1,Increment      1: Step Time =    1.000,"P-8-1",           907,       40.5821,       14.1686,            0.,NA,NA,"",   1.06776E+06,   1.07073E+06,   1.07073E+06
C:/temp/Job-8.odb,Step-1,Increment      1: Step Time =    1.000,"P-8-1",           908,       17.9419,       40.1031,            0.,NA,NA,"",   970.594E+03,   1.04133E+06,   1.04133E+06
C:/temp/Job-8.odb,Step-1,Increment      1: Step Time =    1.000,"P-8-1",           909,       190.165,       174.640,            0.,NA,NA,"",   1.00108E+06,   1.00231E+06,   1.00231E+06
C:/temp/Job-8.odb,Step-1,Increment      1: Step Time =    1.000,"P-8-1",           910,       181.142,       174.204,            0.,NA,NA,"",   1.00669E+06,   1.00690E+06,   1.00690E+06
C:/temp/Job-8.odb,Step-1,Increment      1: Step Time =    1.000,"P-8-1",           911,       175.709,       180.434,            0.,NA,NA,"",   1.00753E+06,   1.00667E+06,   1.00667E+06
C:/temp/Job-8.odb,Step-1,Increment      1: Step Time =    1.000,"P-8-1",           912,       158.968,       185.493,            0.,NA,NA,"",   1.00855E+06,   1.00606E+06,   1.00606E+06
C:/temp/Job-8.odb,Step-1,Increment      1: Step Time =    1.000,"P-8-1",           913,       183.124,       160.166,            0.,NA,NA,"",   1.00714E+06,   1.01000E+06,   1.01000E+06
C:/temp/Job-8.odb,Step-1,Increment      1: Step Time =    1.000,"P-8-1",           914,       25.5882,       189.585,            0.,NA,NA,"",   1.11152E+06,   1.12039E+06,   1.12039E+06
C:/temp/Job-8.odb,Step-1,Increment      1: Step Time =    1.000,"P-8-1",           915,       179.312,       25.5099,            0.,NA,NA,"",   1.00806E+06,   1.00780E+06,   1.00780E+06
C:/temp/Job-8.odb,Step-1,Increment      1: Step Time =    1.000,"P-8-1",           916,       27.5861,       180.165,            0.,NA,NA,"",   1.09217E+06,   1.11417E+06,   1.11417E+06
C:/temp/Job-8.odb,Step-1,Increment      1: Step Time =    1.000,"P-8-1",           917,       185.756,       41.1372,            0.,NA,NA,"",   1.00316E+06,   1.00767E+06,   1.00767E+06
C:/temp/Job-8.odb,Step-1,Increment      1: Step Time =    1.000,"P-8-1",           918,       39.2801,       179.619,            0.,NA,NA,"",   1.07884E+06,   1.08633E+06,   1.08633E+06
C:/temp/Job-8.odb,Step-1,Increment      1: Step Time =    1.000,"P-8-1",           919,       70.4684,       78.2808,            0.,NA,NA,"",   1.15660E+06,   1.08718E+06,   1.08718E+06
C:/temp/Job-8.odb,Step-1,Increment      1: Step Time =    1.000,"P-8-1",           920,       122.409,       70.3192,            0.,NA,NA,"",   1.30578E+06,   1.24852E+06,   1.24852E+06
C:/temp/Job-8.odb,Step-1,Increment      1: Step Time =    1.000,"P-8-1",           921,       120.427,       180.249,            0.,NA,NA,"",   999.756E+03,   1.00275E+06,   1.00275E+06
C:/temp/Job-8.odb,Step-1,Increment      1: Step Time =    1.000,"P-8-1",           922,       79.5244,       20.3331,            0.,NA,NA,"",   1.01318E+06,   1.01788E+06,   1.01788E+06
C:/temp/Job-8.odb,Step-1,Increment      1: Step Time =    1.000,"P-8-1",           923,       180.419,       79.3387,            0.,NA,NA,"",   966.566E+03,   990.606E+03,   990.606E+03
C:/temp/Job-8.odb,Step-1,Increment      1: Step Time =    1.000,"P-8-1",           924,       20.6378,       121.038,            0.,NA,NA,"",   808.788E+03,   891.381E+03,   891.381E+03
C:/temp/Job-8.odb,Step-1,Increment      1: Step Time =    1.000,"P-8-1",           925,       91.9838,       131.205,            0.,NA,NA,"",   1.22172E+06,   1.29982E+06,   1.29982E+06
C:/temp/Job-8.odb,Step-1,Increment      1: Step Time =    1.000,"P-8-1",           926,       9.31709,       55.1882,            0.,NA,NA,"",   864.773E+03,   958.454E+03,   958.454E+03
C:/temp/Job-8.odb,Step-1,Increment      1: Step Time =    1.000,"P-8-1",           927,       55.4096,       190.615,            0.,NA,NA,"",   1.01885E+06,   1.01852E+06,   1.01852E+06
C:/temp/Job-8.odb,Step-1,Increment      1: Step Time =    1.000,"P-8-1",           928,       145.008,       9.42195,            0.,NA,NA,"",   993.003E+03,   991.599E+03,   991.599E+03
C:/temp/Job-8.odb,Step-1,Increment      1: Step Time =    1.000,"P-8-1",           929,       190.951,       144.480,            0.,NA,NA,"",   986.831E+03,   1.00326E+06,   1.00326E+06
C:/temp/Job-8.odb,Step-1,Increment      1: Step Time =    1.000,"P-8-1",           930,       94.7841,       25.7300,            0.,NA,NA,"",   1.00452E+06,   1.01950E+06,   1.01950E+06
C:/temp/Job-8.odb,Step-1,Increment      1: Step Time =    1.000,"P-8-1",           931,       26.2375,       105.833,            0.,NA,NA,"",   769.212E+03,   850.378E+03,   850.378E+03
C:/temp/Job-8.odb,Step-1,Increment      1: Step Time =    1.000,"P-8-1",           932,       174.723,       93.4639,            0.,NA,NA,"",   932.746E+03,   959.522E+03,   959.522E+03
C:/temp/Job-8.odb,Step-1,Increment      1: Step Time =    1.000,"P-8-1",           933,       105.869,       174.295,            0.,NA,NA,"",   1.00124E+06,   1.01566E+06,   1.01566E+06
C:/temp/Job-8.odb,Step-1,Increment      1: Step Time =    1.000,"P-8-1",           934,       26.5672,       87.0146,            0.,NA,NA,"",   787.786E+03,   866.899E+03,   866.899E+03
C:/temp/Job-8.odb,Step-1,Increment      1: Step Time =    1.000,"P-8-1",           935,       115.577,       25.3817,            0.,NA,NA,"",   1.01064E+06,   1.01897E+06,   1.01897E+06
C:/temp/Job-8.odb,Step-1,Increment      1: Step Time =    1.000,"P-8-1",           936,       84.6079,       25.2970,            0.,NA,NA,"",   1.01951E+06,   1.02961E+06,   1.02961E+06
C:/temp/Job-8.odb,Step-1,Increment      1: Step Time =    1.000,"P-8-1",           937,       27.6793,       116.806,            0.,NA,NA,"",   805.233E+03,   880.690E+03,   880.690E+03
C:/temp/Job-8.odb,Step-1,Increment      1: Step Time =    1.000,"P-8-1",           938,       175.610,       83.9067,            0.,NA,NA,"",   956.432E+03,   977.884E+03,   977.884E+03
C:/temp/Job-8.odb,Step-1,Increment      1: Step Time =    1.000,"P-8-1",           939,       172.033,       114.619,            0.,NA,NA,"",   949.748E+03,   968.611E+03,   968.611E+03
C:/temp/Job-8.odb,Step-1,Increment      1: Step Time =    1.000,"P-8-1",           940,       85.3758,       175.007,            0.,NA,NA,"",   1.01723E+06,   1.02739E+06,   1.02739E+06
C:/temp/Job-8.odb,Step-1,Increment      1: Step Time =    1.000,"P-8-1",           941,       115.773,       175.434,            0.,NA,NA,"",   1.00942E+06,   1.01703E+06,   1.01703E+06
C:/temp/Job-8.odb,Step-1,Increment      1: Step Time =    1.000,"P-8-1",           942,       137.083,       27.2258,            0.,NA,NA,"",   1.04252E+06,   1.03564E+06,   1.03564E+06
C:/temp/Job-8.odb,Step-1,Increment      1: Step Time =    1.000,"P-8-1",           943,       24.4777,       135.799,            0.,NA,NA,"",   887.623E+03,   957.928E+03,   957.928E+03
C:/temp/Job-8.odb,Step-1,Increment      1: Step Time =    1.000,"P-8-1",           944,       27.9824,       62.2097,            0.,NA,NA,"",   911.384E+03,   973.618E+03,   973.618E+03
C:/temp/Job-8.odb,Step-1,Increment      1: Step Time =    1.000,"P-8-1",           945,       64.2586,       25.9726,            0.,NA,NA,"",   1.06008E+06,   1.05991E+06,   1.05991E+06
C:/temp/Job-8.odb,Step-1,Increment      1: Step Time =    1.000,"P-8-1",           946,       176.147,       135.075,            0.,NA,NA,"",   1.00225E+06,   1.00975E+06,   1.00975E+06
C:/temp/Job-8.odb,Step-1,Increment      1: Step Time =    1.000,"P-8-1",           947,       134.925,       175.357,            0.,NA,NA,"",   1.03189E+06,   1.02725E+06,   1.02725E+06
C:/temp/Job-8.odb,Step-1,Increment      1: Step Time =    1.000,"P-8-1",           948,       175.123,       64.9396,            0.,NA,NA,"",   1.00488E+06,   1.01096E+06,   1.01096E+06
C:/temp/Job-8.odb,Step-1,Increment      1: Step Time =    1.000,"P-8-1",           949,       61.9520,       170.589,            0.,NA,NA,"",   1.07357E+06,   1.07314E+06,   1.07314E+06
C:/temp/Job-8.odb,Step-1,Increment      1: Step Time =    1.000,"P-8-1",           950,       30.0202,       31.2191,            0.,NA,NA,"",   1.05590E+06,   1.08817E+06,   1.08817E+06
C:/temp/Job-8.odb,Step-1,Increment      1: Step Time =    1.000,"P-8-1",           951,       30.7682,       27.1418,            0.,NA,NA,"",   1.06891E+06,   1.09573E+06,   1.09573E+06
C:/temp/Job-8.odb,Step-1,Increment      1: Step Time =    1.000,"P-8-1",           952,       25.0962,       168.413,            0.,NA,NA,"",   1.04310E+06,   1.08646E+06,   1.08646E+06
C:/temp/Job-8.odb,Step-1,Increment      1: Step Time =    1.000,"P-8-1",           953,       168.079,       28.2525,            0.,NA,NA,"",   1.02254E+06,   1.01831E+06,   1.01831E+06
C:/temp/Job-8.odb,Step-1,Increment      1: Step Time =    1.000,"P-8-1",           954,       176.784,       33.2389,            0.,NA,NA,"",   1.01508E+06,   1.01395E+06,   1.01395E+06
C:/temp/Job-8.odb,Step-1,Increment      1: Step Time =    1.000,"P-8-1",           955,       31.5174,       175.839,            0.,NA,NA,"",   1.07912E+06,   1.10019E+06,   1.10019E+06
C:/temp/Job-8.odb,Step-1,Increment      1: Step Time =    1.000,"P-8-1",           956,       173.173,       170.789,            0.,NA,NA,"",   1.01705E+06,   1.01467E+06,   1.01467E+06
C:/temp/Job-8.odb,Step-1,Increment      1: Step Time =    1.000,"P-8-1",           957,       167.272,       176.667,            0.,NA,NA,"",   1.01742E+06,   1.01405E+06,   1.01405E+06
C:/temp/Job-8.odb,Step-1,Increment      1: Step Time =    1.000,"P-8-1",           958,       79.9030,       65.7571,            0.,NA,NA,"",   1.25053E+06,   1.23947E+06,   1.23947E+06
C:/temp/Job-8.odb,Step-1,Increment      1: Step Time =    1.000,"P-8-1",           959,       91.0952,       69.0534,            0.,NA,NA,"",   1.23276E+06,   1.30733E+06,   1.30733E+06
C:/temp/Job-8.odb,Step-1,Increment      1: Step Time =    1.000,"P-8-1",           960,       133.666,       77.4326,            0.,NA,NA,"",   1.16957E+06,   1.08209E+06,   1.08209E+06
C:/temp/Job-8.odb,Step-1,Increment      1: Step Time =    1.000,"P-8-1",           961,       131.567,       92.4599,            0.,NA,NA,"",   725.633E+03,   679.049E+03,   679.049E+03
C:/temp/Job-8.odb,Step-1,Increment      1: Step Time =    1.000,"P-8-1",           962,       71.4208,       112.048,            0.,NA,NA,"",   891.277E+03,   818.733E+03,   818.733E+03
C:/temp/Job-8.odb,Step-1,Increment      1: Step Time =    1.000,"P-8-1",           963,       63.2171,       122.108,            0.,NA,NA,"",   1.03392E+06,   1.00336E+06,   1.00336E+06
C:/temp/Job-8.odb,Step-1,Increment      1: Step Time =    1.000,"P-8-1",           964,       77.4814,       134.196,            0.,NA,NA,"",   1.24031E+06,   1.22177E+06,   1.22177E+06
C:/temp/Job-8.odb,Step-1,Increment      1: Step Time =    1.000,"P-8-1",           965,       19.2762,       173.081,            0.,NA,NA,"",   1.04985E+06,   1.10336E+06,   1.10336E+06
C:/temp/Job-8.odb,Step-1,Increment      1: Step Time =    1.000,"P-8-1",           966,       18.0083,       24.9153,            0.,NA,NA,"",   1.05693E+06,   1.11143E+06,   1.11143E+06
C:/temp/Job-8.odb,Step-1,Increment      1: Step Time =    1.000,"P-8-1",           967,       21.1054,       14.8922,            0.,NA,NA,"",   1.12780E+06,   1.15003E+06,   1.15003E+06
C:/temp/Job-8.odb,Step-1,Increment      1: Step Time =    1.000,"P-8-1",           968,       178.769,       183.727,            0.,NA,NA,"",   1.00429E+06,   1.00400E+06,   1.00400E+06
C:/temp/Job-8.odb,Step-1,Increment      1: Step Time =    1.000,"P-8-1",           969,       183.218,       21.6736,            0.,NA,NA,"",   1.00414E+06,   1.00441E+06,   1.00441E+06
C:/temp/Job-8.odb,Step-1,Increment      1: Step Time =    1.000,"P-8-1",           970,       21.0744,       183.137,            0.,NA,NA,"",   1.11518E+06,   1.14342E+06,   1.14342E+06
C:/temp/Job-8.odb,Step-1,Increment      1: Step Time =    1.000,"P-8-1",           971,       68.7877,       72.8271,            0.,NA,NA,"",   1.17362E+06,   1.12349E+06,   1.12349E+06
C:/temp/Job-8.odb,Step-1,Increment      1: Step Time =    1.000,"P-8-1",           972,       128.721,       68.6847,            0.,NA,NA,"",   1.25079E+06,   1.18460E+06,   1.18460E+06
C:/temp/Job-8.odb,Step-1,Increment      1: Step Time =    1.000,"P-8-1",           973,       86.5606,       134.958,            0.,NA,NA,"",   1.20495E+06,   1.24130E+06,   1.24130E+06
C:/temp/Job-8.odb,Step-1,Increment      1: Step Time =    1.000,"P-8-1",           974,       98.1407,       129.546,            0.,NA,NA,"",   1.21021E+06,   1.32612E+06,   1.32612E+06
C:/temp/Job-8.odb,Step-1,Increment      1: Step Time =    1.000,"P-8-1",           975,       24.9014,       126.699,            0.,NA,NA,"",   845.485E+03,   919.853E+03,   919.853E+03
C:/temp/Job-8.odb,Step-1,Increment      1: Step Time =    1.000,"P-8-1",           976,       175.624,       74.3835,            0.,NA,NA,"",   981.659E+03,   995.493E+03,   995.493E+03
C:/temp/Job-8.odb,Step-1,Increment      1: Step Time =    1.000,"P-8-1",           977,       74.3621,       25.9147,            0.,NA,NA,"",   1.04239E+06,   1.04612E+06,   1.04612E+06
C:/temp/Job-8.odb,Step-1,Increment      1: Step Time =    1.000,"P-8-1",           978,       125.279,       175.350,            0.,NA,NA,"",   1.02192E+06,   1.02285E+06,   1.02285E+06
C:/temp/Job-8.odb,Step-1,Increment      1: Step Time =    1.000,"P-8-1",           979,       44.5709,       184.779,            0.,NA,NA,"",   1.06041E+06,   1.06273E+06,   1.06273E+06
C:/temp/Job-8.odb,Step-1,Increment      1: Step Time =    1.000,"P-8-1",           980,       184.637,       154.081,            0.,NA,NA,"",   1.00321E+06,   1.00921E+06,   1.00921E+06
C:/temp/Job-8.odb,Step-1,Increment      1: Step Time =    1.000,"P-8-1",           981,       16.6949,       44.5976,            0.,NA,NA,"",   943.073E+03,   1.01958E+06,   1.01958E+06
C:/temp/Job-8.odb,Step-1,Increment      1: Step Time =    1.000,"P-8-1",           982,       155.687,       14.1471,            0.,NA,NA,"",   1.00730E+06,   1.00476E+06,   1.00476E+06
C:/temp/Job-8.odb,Step-1,Increment      1: Step Time =    1.000,"P-8-1",           983,       105.178,       25.7472,            0.,NA,NA,"",   1.00162E+06,   1.01635E+06,   1.01635E+06
C:/temp/Job-8.odb,Step-1,Increment      1: Step Time =    1.000,"P-8-1",           984,       23.9585,       95.2004,            0.,NA,NA,"",   765.851E+03,   849.189E+03,   849.189E+03
C:/temp/Job-8.odb,Step-1,Increment      1: Step Time =    1.000,"P-8-1",           985,       95.5389,       174.488,            0.,NA,NA,"",   1.00312E+06,   1.01831E+06,   1.01831E+06
C:/temp/Job-8.odb,Step-1,Increment      1: Step Time =    1.000,"P-8-1",           986,       175.015,       102.805,            0.,NA,NA,"",   930.064E+03,   957.979E+03,   957.979E+03
C:/temp/Job-8.odb,Step-1,Increment      1: Step Time =    1.000,"P-8-1",           987,       185.579,       45.8368,            0.,NA,NA,"",   1.00178E+06,   1.00820E+06,   1.00820E+06
C:/temp/Job-8.odb,Step-1,Increment      1: Step Time =    1.000,"P-8-1",           988,       154.243,       185.398,            0.,NA,NA,"",   1.00857E+06,   1.00571E+06,   1.00571E+06
C:/temp/Job-8.odb,Step-1,Increment      1: Step Time =    1.000,"P-8-1",           989,       45.2987,       14.4766,            0.,NA,NA,"",   1.05807E+06,   1.05946E+06,   1.05946E+06
C:/temp/Job-8.odb,Step-1,Increment      1: Step Time =    1.000,"P-8-1",           990,       14.4847,       154.679,            0.,NA,NA,"",   928.391E+03,   1.01037E+06,   1.01037E+06
C:/temp/Job-8.odb,Step-1,Increment      1: Step Time =    1.000,"P-8-1",           991,       171.846,       176.092,            0.,NA,NA,"",   1.01384E+06,   1.01168E+06,   1.01168E+06
C:/temp/Job-8.odb,Step-1,Increment      1: Step Time =    1.000,"P-8-1",           992,       174.045,       173.537,            0.,NA,NA,"",   1.01386E+06,   1.01208E+06,   1.01208E+06
C:/temp/Job-8.odb,Step-1,Increment      1: Step Time =    1.000,"P-8-1",           993,       174.971,       26.3494,            0.,NA,NA,"",   1.01254E+06,   1.01116E+06,   1.01116E+06
C:/temp/Job-8.odb,Step-1,Increment      1: Step Time =    1.000,"P-8-1",           994,       28.5535,       176.754,            0.,NA,NA,"",   1.07986E+06,   1.10534E+06,   1.10534E+06
C:/temp/Job-8.odb,Step-1,Increment      1: Step Time =    1.000,"P-8-1",           995,       23.3648,       173.250,            0.,NA,NA,"",   1.06597E+06,   1.10607E+06,   1.10607E+06
C:/temp/Job-8.odb,Step-1,Increment      1: Step Time =    1.000,"P-8-1",           996,       172.120,       27.0923,            0.,NA,NA,"",   1.01653E+06,   1.01403E+06,   1.01403E+06
C:/temp/Job-8.odb,Step-1,Increment      1: Step Time =    1.000,"P-8-1",           997,       28.6956,       23.1385,            0.,NA,NA,"",   1.08487E+06,   1.10895E+06,   1.10895E+06
C:/temp/Job-8.odb,Step-1,Increment      1: Step Time =    1.000,"P-8-1",           998,       26.0065,       30.1314,            0.,NA,NA,"",   1.05291E+06,   1.09216E+06,   1.09216E+06
C:/temp/Job-8.odb,Step-1,Increment      1: Step Time =    1.000,"P-8-1",           999,       89.7893,       20.3030,            0.,NA,NA,"",   995.607E+03,   1.00449E+06,   1.00449E+06
C:/temp/Job-8.odb,Step-1,Increment      1: Step Time =    1.000,"P-8-1",          1000,       21.1312,       110.950,            0.,NA,NA,"",   776.665E+03,   861.517E+03,   861.517E+03
C:/temp/Job-8.odb,Step-1,Increment      1: Step Time =    1.000,"P-8-1",          1001,       180.173,       89.1841,            0.,NA,NA,"",   947.101E+03,   977.637E+03,   977.637E+03
C:/temp/Job-8.odb,Step-1,Increment      1: Step Time =    1.000,"P-8-1",          1002,       110.463,       179.919,            0.,NA,NA,"",   989.599E+03,   997.637E+03,   997.637E+03
C:/temp/Job-8.odb,Step-1,Increment      1: Step Time =    1.000,"P-8-1",          1003,       185.435,       50.5814,            0.,NA,NA,"",   999.497E+03,   1.00829E+06,   1.00829E+06
C:/temp/Job-8.odb,Step-1,Increment      1: Step Time =    1.000,"P-8-1",          1004,       182.406,       149.487,            0.,NA,NA,"",   1.00504E+06,   1.01149E+06,   1.01149E+06
C:/temp/Job-8.odb,Step-1,Increment      1: Step Time =    1.000,"P-8-1",          1005,       149.468,       185.330,            0.,NA,NA,"",   1.00772E+06,   1.00469E+06,   1.00469E+06
C:/temp/Job-8.odb,Step-1,Increment      1: Step Time =    1.000,"P-8-1",          1006,       14.3760,       49.5246,            0.,NA,NA,"",   909.732E+03,   993.440E+03,   993.440E+03
C:/temp/Job-8.odb,Step-1,Increment      1: Step Time =    1.000,"P-8-1",          1007,       50.1023,       14.7035,            0.,NA,NA,"",   1.04898E+06,   1.04929E+06,   1.04929E+06
C:/temp/Job-8.odb,Step-1,Increment      1: Step Time =    1.000,"P-8-1",          1008,       150.001,       13.7876,            0.,NA,NA,"",   1.00543E+06,   1.00276E+06,   1.00276E+06
C:/temp/Job-8.odb,Step-1,Increment      1: Step Time =    1.000,"P-8-1",          1009,       14.7005,       149.914,            0.,NA,NA,"",   908.815E+03,   991.874E+03,   991.874E+03
C:/temp/Job-8.odb,Step-1,Increment      1: Step Time =    1.000,"P-8-1",          1010,       23.8052,       70.1865,            0.,NA,NA,"",   855.858E+03,   930.529E+03,   930.529E+03
C:/temp/Job-8.odb,Step-1,Increment      1: Step Time =    1.000,"P-8-1",          1011,       175.836,       130.668,            0.,NA,NA,"",   993.536E+03,   1.00378E+06,   1.00378E+06
C:/temp/Job-8.odb,Step-1,Increment      1: Step Time =    1.000,"P-8-1",          1012,       134.020,       24.9935,            0.,NA,NA,"",   1.03343E+06,   1.02899E+06,   1.02899E+06
C:/temp/Job-8.odb,Step-1,Increment      1: Step Time =    1.000,"P-8-1",          1013,       70.7160,       175.411,            0.,NA,NA,"",   1.04457E+06,   1.04650E+06,   1.04650E+06
C:/temp/Job-8.odb,Step-1,Increment      1: Step Time =    1.000,"P-8-1",          1014,       14.8959,       178.659,            0.,NA,NA,"",   1.07467E+06,   1.13295E+06,   1.13295E+06
C:/temp/Job-8.odb,Step-1,Increment      1: Step Time =    1.000,"P-8-1",          1015,       89.3923,       30.2920,            0.,NA,NA,"",   1.02357E+06,   1.04076E+06,   1.04076E+06
C:/temp/Job-8.odb,Step-1,Increment      1: Step Time =    1.000,"P-8-1",          1016,       170.562,       87.9888,            0.,NA,NA,"",   940.341E+03,   959.424E+03,   959.424E+03
C:/temp/Job-8.odb,Step-1,Increment      1: Step Time =    1.000,"P-8-1",          1017,       111.544,       170.576,            0.,NA,NA,"",   1.01727E+06,   1.03124E+06,   1.03124E+06
C:/temp/Job-8.odb,Step-1,Increment      1: Step Time =    1.000,"P-8-1",          1018,       30.1147,       78.7967,            0.,NA,NA,"",   831.127E+03,   901.088E+03,   901.088E+03
C:/temp/Job-8.odb,Step-1,Increment      1: Step Time =    1.000,"P-8-1",          1019,       79.6848,       30.5925,            0.,NA,NA,"",   1.04635E+06,   1.05564E+06,   1.05564E+06
C:/temp/Job-8.odb,Step-1,Increment      1: Step Time =    1.000,"P-8-1",          1020,       32.1455,       120.718,            0.,NA,NA,"",   834.989E+03,   901.317E+03,   901.317E+03
C:/temp/Job-8.odb,Step-1,Increment      1: Step Time =    1.000,"P-8-1",          1021,       169.454,       122.992,            0.,NA,NA,"",   978.894E+03,   986.925E+03,   986.925E+03
C:/temp/Job-8.odb,Step-1,Increment      1: Step Time =    1.000,"P-8-1",          1022,       80.7043,       169.895,            0.,NA,NA,"",   1.04213E+06,   1.05180E+06,   1.05180E+06
C:/temp/Job-8.odb,Step-1,Increment      1: Step Time =    1.000,"P-8-1",          1023,       171.175,       78.9742,            0.,NA,NA,"",   970.410E+03,   982.720E+03,   982.720E+03
C:/temp/Job-8.odb,Step-1,Increment      1: Step Time =    1.000,"P-8-1",          1024,       120.382,       170.669,            0.,NA,NA,"",   1.03107E+06,   1.03681E+06,   1.03681E+06
C:/temp/Job-8.odb,Step-1,Increment      1: Step Time =    1.000,"P-8-1",          1025,       139.098,       29.3136,            0.,NA,NA,"",   1.05022E+06,   1.04129E+06,   1.04129E+06
C:/temp/Job-8.odb,Step-1,Increment      1: Step Time =    1.000,"P-8-1",          1026,       58.3663,       30.7627,            0.,NA,NA,"",   1.07932E+06,   1.07886E+06,   1.07886E+06
C:/temp/Job-8.odb,Step-1,Increment      1: Step Time =    1.000,"P-8-1",          1027,       29.2823,       58.6010,            0.,NA,NA,"",   936.441E+03,   993.328E+03,   993.328E+03
C:/temp/Job-8.odb,Step-1,Increment      1: Step Time =    1.000,"P-8-1",          1028,       169.706,       141.937,            0.,NA,NA,"",   1.02969E+06,   1.02523E+06,   1.02523E+06
C:/temp/Job-8.odb,Step-1,Increment      1: Step Time =    1.000,"P-8-1",          1029,       139.611,       170.806,            0.,NA,NA,"",   1.05038E+06,   1.04159E+06,   1.04159E+06
C:/temp/Job-8.odb,Step-1,Increment      1: Step Time =    1.000,"P-8-1",          1030,       58.0364,       170.016,            0.,NA,NA,"",   1.07784E+06,   1.07760E+06,   1.07760E+06
C:/temp/Job-8.odb,Step-1,Increment      1: Step Time =    1.000,"P-8-1",          1031,       169.814,       60.2108,            0.,NA,NA,"",   1.02702E+06,   1.02329E+06,   1.02329E+06
C:/temp/Job-8.odb,Step-1,Increment      1: Step Time =    1.000,"P-8-1",          1032,       16.5252,       18.8637,            0.,NA,NA,"",   1.10157E+06,   1.14806E+06,   1.14806E+06
C:/temp/Job-8.odb,Step-1,Increment      1: Step Time =    1.000,"P-8-1",          1033,       178.762,       15.0505,            0.,NA,NA,"",   1.00369E+06,   1.00341E+06,   1.00341E+06
C:/temp/Job-8.odb,Step-1,Increment      1: Step Time =    1.000,"P-8-1",          1034,       15.4268,       183.948,            0.,NA,NA,"",   1.13107E+06,   1.17346E+06,   1.17346E+06
C:/temp/Job-8.odb,Step-1,Increment      1: Step Time =    1.000,"P-8-1",          1035,       185.187,       179.353,            0.,NA,NA,"",   1.00277E+06,   1.00325E+06,   1.00325E+06
C:/temp/Job-8.odb,Step-1,Increment      1: Step Time =    1.000,"P-8-1",          1036,       34.6279,       28.2713,            0.,NA,NA,"",   1.06879E+06,   1.08991E+06,   1.08991E+06
C:/temp/Job-8.odb,Step-1,Increment      1: Step Time =    1.000,"P-8-1",          1037,       33.3918,       35.8393,            0.,NA,NA,"",   1.04766E+06,   1.07787E+06,   1.07787E+06
C:/temp/Job-8.odb,Step-1,Increment      1: Step Time =    1.000,"P-8-1",          1038,       163.323,       28.9271,            0.,NA,NA,"",   1.02939E+06,   1.02321E+06,   1.02321E+06
C:/temp/Job-8.odb,Step-1,Increment      1: Step Time =    1.000,"P-8-1",          1039,       27.5979,       164.369,            0.,NA,NA,"",   1.03298E+06,   1.07476E+06,   1.07476E+06
C:/temp/Job-8.odb,Step-1,Increment      1: Step Time =    1.000,"P-8-1",          1040,       35.5573,       170.988,            0.,NA,NA,"",   1.07073E+06,   1.09014E+06,   1.09014E+06
C:/temp/Job-8.odb,Step-1,Increment      1: Step Time =    1.000,"P-8-1",          1041,       173.685,       36.1666,            0.,NA,NA,"",   1.02116E+06,   1.01861E+06,   1.01861E+06
C:/temp/Job-8.odb,Step-1,Increment      1: Step Time =    1.000,"P-8-1",          1042,       170.688,       164.323,            0.,NA,NA,"",   1.02664E+06,   1.02223E+06,   1.02223E+06
C:/temp/Job-8.odb,Step-1,Increment      1: Step Time =    1.000,"P-8-1",          1043,       166.767,       173.006,            0.,NA,NA,"",   1.02240E+06,   1.01799E+06,   1.01799E+06
C:/temp/Job-8.odb,Step-1,Increment      1: Step Time =    1.000,"P-8-1",          1044,       136.389,       91.4329,            0.,NA,NA,"",   774.793E+03,   751.026E+03,   751.026E+03
C:/temp/Job-8.odb,Step-1,Increment      1: Step Time =    1.000,"P-8-1",          1045,       129.720,       74.9094,            0.,NA,NA,"",   1.24098E+06,   1.15116E+06,   1.15116E+06
C:/temp/Job-8.odb,Step-1,Increment      1: Step Time =    1.000,"P-8-1",          1046,       91.4002,       64.5258,            0.,NA,NA,"",   1.16339E+06,   1.23243E+06,   1.23243E+06
C:/temp/Job-8.odb,Step-1,Increment      1: Step Time =    1.000,"P-8-1",          1047,       75.0091,       68.0745,            0.,NA,NA,"",   1.24492E+06,   1.20642E+06,   1.20642E+06
C:/temp/Job-8.odb,Step-1,Increment      1: Step Time =    1.000,"P-8-1",          1048,       66.0749,       112.856,            0.,NA,NA,"",   856.760E+03,   832.157E+03,   832.157E+03
C:/temp/Job-8.odb,Step-1,Increment      1: Step Time =    1.000,"P-8-1",          1049,       68.2393,       125.571,            0.,NA,NA,"",   1.15610E+06,   1.10218E+06,   1.10218E+06
C:/temp/Job-8.odb,Step-1,Increment      1: Step Time =    1.000,"P-8-1",          1050,       154.048,       8.98869,            0.,NA,NA,"",   998.846E+03,   997.555E+03,   997.555E+03
C:/temp/Job-8.odb,Step-1,Increment      1: Step Time =    1.000,"P-8-1",          1051,       190.640,       153.703,            0.,NA,NA,"",   994.559E+03,   1.00389E+06,   1.00389E+06
C:/temp/Job-8.odb,Step-1,Increment      1: Step Time =    1.000,"P-8-1",          1052,       46.1546,       190.449,            0.,NA,NA,"",   1.04134E+06,   1.04170E+06,   1.04170E+06
C:/temp/Job-8.odb,Step-1,Increment      1: Step Time =    1.000,"P-8-1",          1053,       8.29915,       45.8670,            0.,NA,NA,"",   898.038E+03,   992.618E+03,   992.618E+03
C:/temp/Job-8.odb,Step-1,Increment      1: Step Time =    1.000,"P-8-1",          1054,       64.9076,       78.4662,            0.,NA,NA,"",   1.05799E+06,   1.01847E+06,   1.01847E+06
C:/temp/Job-8.odb,Step-1,Increment      1: Step Time =    1.000,"P-8-1",          1055,       121.413,       64.1138,            0.,NA,NA,"",   1.24430E+06,   1.22026E+06,   1.22026E+06
C:/temp/Job-8.odb,Step-1,Increment      1: Step Time =    1.000,"P-8-1",          1056,       70.3676,       69.9124,            0.,NA,NA,"",   1.19856E+06,   1.15404E+06,   1.15404E+06
C:/temp/Job-8.odb,Step-1,Increment      1: Step Time =    1.000,"P-8-1",          1057,       132.476,       71.2370,            0.,NA,NA,"",   1.21943E+06,   1.14439E+06,   1.14439E+06
C:/temp/Job-8.odb,Step-1,Increment      1: Step Time =    1.000,"P-8-1",          1058,       100.779,       126.145,            0.,NA,NA,"",   1.32053E+06,   1.45867E+06,   1.45867E+06
C:/temp/Job-8.odb,Step-1,Increment      1: Step Time =    1.000,"P-8-1",          1059,       29.3648,       127.524,            0.,NA,NA,"",   864.556E+03,   930.764E+03,   930.764E+03
C:/temp/Job-8.odb,Step-1,Increment      1: Step Time =    1.000,"P-8-1",          1060,       170.465,       69.9055,            0.,NA,NA,"",   1.00301E+06,   1.00573E+06,   1.00573E+06
C:/temp/Job-8.odb,Step-1,Increment      1: Step Time =    1.000,"P-8-1",          1061,       69.1122,       32.1951,            0.,NA,NA,"",   1.07281E+06,   1.07417E+06,   1.07417E+06
C:/temp/Job-8.odb,Step-1,Increment      1: Step Time =    1.000,"P-8-1",          1062,       130.044,       170.455,            0.,NA,NA,"",   1.04600E+06,   1.04257E+06,   1.04257E+06
C:/temp/Job-8.odb,Step-1,Increment      1: Step Time =    1.000,"P-8-1",          1063,       99.8793,       32.1273,            0.,NA,NA,"",   1.01470E+06,   1.03791E+06,   1.03791E+06
C:/temp/Job-8.odb,Step-1,Increment      1: Step Time =    1.000,"P-8-1",          1064,       31.2262,       102.000,            0.,NA,NA,"",   762.320E+03,   839.387E+03,   839.387E+03
C:/temp/Job-8.odb,Step-1,Increment      1: Step Time =    1.000,"P-8-1",          1065,       110.469,       25.5555,            0.,NA,NA,"",   1.00512E+06,   1.01715E+06,   1.01715E+06
C:/temp/Job-8.odb,Step-1,Increment      1: Step Time =    1.000,"P-8-1",          1066,       22.9708,       91.0694,            0.,NA,NA,"",   772.834E+03,   856.432E+03,   856.432E+03
C:/temp/Job-8.odb,Step-1,Increment      1: Step Time =    1.000,"P-8-1",          1067,       100.825,       168.703,            0.,NA,NA,"",   1.01238E+06,   1.03449E+06,   1.03449E+06
C:/temp/Job-8.odb,Step-1,Increment      1: Step Time =    1.000,"P-8-1",          1068,       169.814,       98.1041,            0.,NA,NA,"",   915.375E+03,   939.352E+03,   939.352E+03
C:/temp/Job-8.odb,Step-1,Increment      1: Step Time =    1.000,"P-8-1",          1069,       90.4255,       174.804,            0.,NA,NA,"",   1.00886E+06,   1.02196E+06,   1.02196E+06
C:/temp/Job-8.odb,Step-1,Increment      1: Step Time =    1.000,"P-8-1",          1070,       175.052,       106.899,            0.,NA,NA,"",   934.144E+03,   960.894E+03,   960.894E+03
C:/temp/Job-8.odb,Step-1,Increment      1: Step Time =    1.000,"P-8-1",          1071,       27.1410,       27.4553,            0.,NA,NA,"",   1.06278E+06,   1.09693E+06,   1.09693E+06
C:/temp/Job-8.odb,Step-1,Increment      1: Step Time =    1.000,"P-8-1",          1072,       173.586,       30.5725,            0.,NA,NA,"",   1.01747E+06,   1.01521E+06,   1.01521E+06
C:/temp/Job-8.odb,Step-1,Increment      1: Step Time =    1.000,"P-8-1",          1073,       190.396,       45.6084,            0.,NA,NA,"",   995.510E+03,   1.00413E+06,   1.00413E+06
C:/temp/Job-8.odb,Step-1,Increment      1: Step Time =    1.000,"P-8-1",          1074,       154.473,       190.283,            0.,NA,NA,"",   1.00001E+06,   998.570E+03,   998.570E+03
C:/temp/Job-8.odb,Step-1,Increment      1: Step Time =    1.000,"P-8-1",          1075,       45.3219,       9.64430,            0.,NA,NA,"",   1.04319E+06,   1.04369E+06,   1.04369E+06
C:/temp/Job-8.odb,Step-1,Increment      1: Step Time =    1.000,"P-8-1",          1076,       9.53772,       154.655,            0.,NA,NA,"",   904.549E+03,   996.944E+03,   996.944E+03
C:/temp/Job-8.odb,Step-1,Increment      1: Step Time =    1.000,"P-8-1",          1077,       96.0488,       133.335,            0.,NA,NA,"",   1.16257E+06,   1.25727E+06,   1.25727E+06
C:/temp/Job-8.odb,Step-1,Increment      1: Step Time =    1.000,"P-8-1",          1078,       154.079,       180.488,            0.,NA,NA,"",   1.01870E+06,   1.01403E+06,   1.01403E+06
C:/temp/Job-8.odb,Step-1,Increment      1: Step Time =    1.000,"P-8-1",          1079,       177.914,       150.779,            0.,NA,NA,"",   1.01462E+06,   1.01682E+06,   1.01682E+06
C:/temp/Job-8.odb,Step-1,Increment      1: Step Time =    1.000,"P-8-1",          1080,       49.7863,       183.116,            0.,NA,NA,"",   1.05647E+06,   1.05719E+06,   1.05719E+06
C:/temp/Job-8.odb,Step-1,Increment      1: Step Time =    1.000,"P-8-1",          1081,       180.765,       45.9164,            0.,NA,NA,"",   1.01015E+06,   1.01341E+06,   1.01341E+06
C:/temp/Job-8.odb,Step-1,Increment      1: Step Time =    1.000,"P-8-1",          1082,       152.323,       18.7938,            0.,NA,NA,"",   1.01654E+06,   1.01220E+06,   1.01220E+06
C:/temp/Job-8.odb,Step-1,Increment      1: Step Time =    1.000,"P-8-1",          1083,       19.8264,       149.983,            0.,NA,NA,"",   932.862E+03,   1.00514E+06,   1.00514E+06
C:/temp/Job-8.odb,Step-1,Increment      1: Step Time =    1.000,"P-8-1",          1084,       44.9251,       19.3317,            0.,NA,NA,"",   1.06942E+06,   1.07250E+06,   1.07250E+06
C:/temp/Job-8.odb,Step-1,Increment      1: Step Time =    1.000,"P-8-1",          1085,       21.3177,       46.4836,            0.,NA,NA,"",   956.175E+03,   1.02303E+06,   1.02303E+06
C:/temp/Job-8.odb,Step-1,Increment      1: Step Time =    1.000,"P-8-1",          1086,       187.251,       152.269,            0.,NA,NA,"",   998.107E+03,   1.00655E+06,   1.00655E+06
C:/temp/Job-8.odb,Step-1,Increment      1: Step Time =    1.000,"P-8-1",          1087,       47.5594,       186.289,            0.,NA,NA,"",   1.05293E+06,   1.05362E+06,   1.05362E+06
C:/temp/Job-8.odb,Step-1,Increment      1: Step Time =    1.000,"P-8-1",          1088,       153.348,       12.3914,            0.,NA,NA,"",   1.00448E+06,   1.00228E+06,   1.00228E+06
C:/temp/Job-8.odb,Step-1,Increment      1: Step Time =    1.000,"P-8-1",          1089,       11.6807,       45.8475,            0.,NA,NA,"",   912.737E+03,   1.00106E+06,   1.00106E+06
C:/temp/Job-8.odb,Step-1,Increment      1: Step Time =    1.000,"P-8-1",          1090,       26.5441,       174.825,            0.,NA,NA,"",   1.07532E+06,   1.10638E+06,   1.10638E+06
C:/temp/Job-8.odb,Step-1,Increment      1: Step Time =    1.000,"P-8-1",          1091,       101.578,       132.061,            0.,NA,NA,"",   1.16210E+06,   1.27200E+06,   1.27200E+06
C:/temp/Job-8.odb,Step-1,Increment      1: Step Time =    1.000,"P-8-1",          1092,       99.8066,       136.322,            0.,NA,NA,"",   1.11681E+06,   1.21100E+06,   1.21100E+06
C:/temp/Job-8.odb,Step-1,Increment      1: Step Time =    1.000,"P-8-1",          1093,       94.7050,       69.3533,            0.,NA,NA,"",   1.20938E+06,   1.30955E+06,   1.30955E+06
C:/temp/Job-8.odb,Step-1,Increment      1: Step Time =    1.000,"P-8-1",          1094,       61.0189,       114.048,            0.,NA,NA,"",   853.495E+03,   854.051E+03,   854.051E+03
C:/temp/Job-8.odb,Step-1,Increment      1: Step Time =    1.000,"P-8-1",          1095,       140.550,       89.5509,            0.,NA,NA,"",   840.842E+03,   823.184E+03,   823.184E+03
C:/temp/Job-8.odb,Step-1,Increment      1: Step Time =    1.000,"P-8-1",          1096,       88.4410,       59.5825,            0.,NA,NA,"",   1.13854E+06,   1.18624E+06,   1.18624E+06
C:/temp/Job-8.odb,Step-1,Increment      1: Step Time =    1.000,"P-8-1",          1097,       73.1264,       125.154,            0.,NA,NA,"",   1.23499E+06,    1.1648E+06,    1.1648E+06
C:/temp/Job-8.odb,Step-1,Increment      1: Step Time =    1.000,"P-8-1",          1098,       129.833,       28.6008,            0.,NA,NA,"",   1.04197E+06,   1.03894E+06,   1.03894E+06
C:/temp/Job-8.odb,Step-1,Increment      1: Step Time =    1.000,"P-8-1",          1099,       75.5821,       175.232,            0.,NA,NA,"",   1.03596E+06,   1.04015E+06,   1.04015E+06
C:/temp/Job-8.odb,Step-1,Increment      1: Step Time =    1.000,"P-8-1",          1100,       24.6693,       74.5586,            0.,NA,NA,"",   837.443E+03,   913.143E+03,   913.143E+03
C:/temp/Job-8.odb,Step-1,Increment      1: Step Time =    1.000,"P-8-1",          1101,       175.175,       126.430,            0.,NA,NA,"",   983.885E+03,   996.608E+03,   996.608E+03
C:/temp/Job-8.odb,Step-1,Increment      1: Step Time =    1.000,"P-8-1",          1102,       19.2031,       177.898,            0.,NA,NA,"",   1.08522E+06,   1.12944E+06,   1.12944E+06
C:/temp/Job-8.odb,Step-1,Increment      1: Step Time =    1.000,"P-8-1",          1103,       177.751,       19.6943,            0.,NA,NA,"",   1.00653E+06,   1.00595E+06,   1.00595E+06
C:/temp/Job-8.odb,Step-1,Increment      1: Step Time =    1.000,"P-8-1",          1104,       180.581,       178.646,            0.,NA,NA,"",   1.00535E+06,   1.00532E+06,   1.00532E+06
C:/temp/Job-8.odb,Step-1,Increment      1: Step Time =    1.000,"P-8-1",          1105,       24.7745,       144.995,            0.,NA,NA,"",   933.061E+03,   997.277E+03,   997.277E+03
C:/temp/Job-8.odb,Step-1,Increment      1: Step Time =    1.000,"P-8-1",          1106,       142.603,       27.6224,            0.,NA,NA,"",   1.04353E+06,   1.03502E+06,   1.03502E+06
C:/temp/Job-8.odb,Step-1,Increment      1: Step Time =    1.000,"P-8-1",          1107,       54.2623,       24.9781,            0.,NA,NA,"",   1.06935E+06,   1.06966E+06,   1.06966E+06
C:/temp/Job-8.odb,Step-1,Increment      1: Step Time =    1.000,"P-8-1",          1108,       25.3883,       52.6473,            0.,NA,NA,"",   947.311E+03,   1.00846E+06,   1.00846E+06
C:/temp/Job-8.odb,Step-1,Increment      1: Step Time =    1.000,"P-8-1",          1109,       144.496,       175.356,            0.,NA,NA,"",   1.03435E+06,   1.02711E+06,   1.02711E+06
C:/temp/Job-8.odb,Step-1,Increment      1: Step Time =    1.000,"P-8-1",          1110,       175.257,       55.3997,            0.,NA,NA,"",   1.01817E+06,   1.01936E+06,   1.01936E+06
C:/temp/Job-8.odb,Step-1,Increment      1: Step Time =    1.000,"P-8-1",          1111,       11.1037,       15.4193,            0.,NA,NA,"",   1.12777E+06,   1.18812E+06,   1.18812E+06
C:/temp/Job-8.odb,Step-1,Increment      1: Step Time =    1.000,"P-8-1",          1112,       184.418,       10.3205,            0.,NA,NA,"",   1.00079E+06,   1.00086E+06,   1.00086E+06
C:/temp/Job-8.odb,Step-1,Increment      1: Step Time =    1.000,"P-8-1",          1113,       15.4470,       189.338,            0.,NA,NA,"",   1.17658E+06,   1.20005E+06,   1.20005E+06
C:/temp/Job-8.odb,Step-1,Increment      1: Step Time =    1.000,"P-8-1",          1114,       189.866,       184.656,            0.,NA,NA,"",   1.00071E+06,   1.00099E+06,   1.00099E+06
C:/temp/Job-8.odb,Step-1,Increment      1: Step Time =    1.000,"P-8-1",          1115,       38.8915,       23.6048,            0.,NA,NA,"",   1.07914E+06,   1.08949E+06,   1.08949E+06
C:/temp/Job-8.odb,Step-1,Increment      1: Step Time =    1.000,"P-8-1",          1116,       23.8138,       159.060,            0.,NA,NA,"",   992.997E+03,   1.04997E+06,   1.04997E+06
C:/temp/Job-8.odb,Step-1,Increment      1: Step Time =    1.000,"P-8-1",          1117,       176.554,       41.1541,            0.,NA,NA,"",   1.01826E+06,   1.01755E+06,   1.01755E+06
C:/temp/Job-8.odb,Step-1,Increment      1: Step Time =    1.000,"P-8-1",          1118,       158.635,       175.711,            0.,NA,NA,"",   1.02647E+06,   1.02048E+06,   1.02048E+06
C:/temp/Job-8.odb,Step-1,Increment      1: Step Time =    1.000,"P-8-1",          1119,       67.6068,       68.4936,            0.,NA,NA,"",   1.17053E+06,   1.13339E+06,   1.13339E+06
C:/temp/Job-8.odb,Step-1,Increment      1: Step Time =    1.000,"P-8-1",          1120,       131.593,       64.8627,            0.,NA,NA,"",   1.21774E+06,   1.16188E+06,   1.16188E+06
C:/temp/Job-8.odb,Step-1,Increment      1: Step Time =    1.000,"P-8-1",          1121,       68.4543,       81.4376,            0.,NA,NA,"",   1.06203E+06,   1.00004E+06,   1.00004E+06
C:/temp/Job-8.odb,Step-1,Increment      1: Step Time =    1.000,"P-8-1",          1122,       118.804,       68.2444,            0.,NA,NA,"",   1.29346E+06,   1.26961E+06,   1.26961E+06
C:/temp/Job-8.odb,Step-1,Increment      1: Step Time =    1.000,"P-8-1",          1123,       154.006,       175.421,            0.,NA,NA,"",   1.03040E+06,   1.02347E+06,   1.02347E+06
C:/temp/Job-8.odb,Step-1,Increment      1: Step Time =    1.000,"P-8-1",          1124,       173.537,       152.730,            0.,NA,NA,"",   1.02537E+06,   1.02303E+06,   1.02303E+06
C:/temp/Job-8.odb,Step-1,Increment      1: Step Time =    1.000,"P-8-1",          1125,       175.829,       45.7616,            0.,NA,NA,"",   1.02052E+06,   1.01981E+06,   1.01981E+06
C:/temp/Job-8.odb,Step-1,Increment      1: Step Time =    1.000,"P-8-1",          1126,       44.0590,       174.793,            0.,NA,NA,"",   1.07615E+06,   1.08209E+06,   1.08209E+06
C:/temp/Job-8.odb,Step-1,Increment      1: Step Time =    1.000,"P-8-1",          1127,       24.8711,       154.465,            0.,NA,NA,"",   976.663E+03,   1.03436E+06,   1.03436E+06
C:/temp/Job-8.odb,Step-1,Increment      1: Step Time =    1.000,"P-8-1",          1128,       152.645,       24.6234,            0.,NA,NA,"",   1.03129E+06,   1.02421E+06,   1.02421E+06
C:/temp/Job-8.odb,Step-1,Increment      1: Step Time =    1.000,"P-8-1",          1129,       44.2476,       24.2286,            0.,NA,NA,"",   1.07538E+06,   1.08116E+06,   1.08116E+06
C:/temp/Job-8.odb,Step-1,Increment      1: Step Time =    1.000,"P-8-1",          1130,       27.4388,       43.5224,            0.,NA,NA,"",   998.465E+03,   1.04810E+06,   1.04810E+06
C:/temp/Job-8.odb,Step-1,Increment      1: Step Time =    1.000,"P-8-1",          1131,       170.827,       148.345,            0.,NA,NA,"",   1.03221E+06,   1.02743E+06,   1.02743E+06
C:/temp/Job-8.odb,Step-1,Increment      1: Step Time =    1.000,"P-8-1",          1132,       149.223,       175.337,            0.,NA,NA,"",   1.03309E+06,   1.02569E+06,   1.02569E+06
C:/temp/Job-8.odb,Step-1,Increment      1: Step Time =    1.000,"P-8-1",          1133,       147.195,       25.7619,            0.,NA,NA,"",   1.03709E+06,   1.02915E+06,   1.02915E+06
C:/temp/Job-8.odb,Step-1,Increment      1: Step Time =    1.000,"P-8-1",          1134,       25.0339,       149.798,            0.,NA,NA,"",   956.769E+03,   1.01726E+06,   1.01726E+06
C:/temp/Job-8.odb,Step-1,Increment      1: Step Time =    1.000,"P-8-1",          1135,       49.2276,       176.723,            0.,NA,NA,"",   1.07001E+06,   1.07204E+06,   1.07204E+06
C:/temp/Job-8.odb,Step-1,Increment      1: Step Time =    1.000,"P-8-1",          1136,       175.521,       50.5367,            0.,NA,NA,"",   1.02076E+06,   1.02064E+06,   1.02064E+06
C:/temp/Job-8.odb,Step-1,Increment      1: Step Time =    1.000,"P-8-1",          1137,       26.6747,       48.1448,            0.,NA,NA,"",   973.712E+03,   1.02905E+06,   1.02905E+06
C:/temp/Job-8.odb,Step-1,Increment      1: Step Time =    1.000,"P-8-1",          1138,       49.2756,       24.5535,            0.,NA,NA,"",   1.07263E+06,   1.07498E+06,   1.07498E+06
C:/temp/Job-8.odb,Step-1,Increment      1: Step Time =    1.000,"P-8-1",          1139,       110.680,       30.6972,            0.,NA,NA,"",   1.01865E+06,   1.03482E+06,   1.03482E+06
C:/temp/Job-8.odb,Step-1,Increment      1: Step Time =    1.000,"P-8-1",          1140,       26.5012,       90.6293,            0.,NA,NA,"",   775.516E+03,   855.715E+03,   855.715E+03
C:/temp/Job-8.odb,Step-1,Increment      1: Step Time =    1.000,"P-8-1",          1141,       171.078,       110.781,            0.,NA,NA,"",   935.125E+03,   956.301E+03,   956.301E+03
C:/temp/Job-8.odb,Step-1,Increment      1: Step Time =    1.000,"P-8-1",          1142,       90.4582,       169.939,            0.,NA,NA,"",   1.02120E+06,   1.03881E+06,   1.03881E+06
C:/temp/Job-8.odb,Step-1,Increment      1: Step Time =    1.000,"P-8-1",          1143,       165.994,       98.5225,            0.,NA,NA,"",   904.280E+03,   926.000E+03,   926.000E+03
C:/temp/Job-8.odb,Step-1,Increment      1: Step Time =    1.000,"P-8-1",          1144,       97.3479,       36.9993,            0.,NA,NA,"",   1.02611E+06,   1.05519E+06,   1.05519E+06
C:/temp/Job-8.odb,Step-1,Increment      1: Step Time =    1.000,"P-8-1",          1145,       32.7518,       99.1840,            0.,NA,NA,"",   760.704E+03,   836.630E+03,   836.630E+03
C:/temp/Job-8.odb,Step-1,Increment      1: Step Time =    1.000,"P-8-1",          1146,       164.350,       88.4571,            0.,NA,NA,"",   925.989E+03,   940.078E+03,   940.078E+03
C:/temp/Job-8.odb,Step-1,Increment      1: Step Time =    1.000,"P-8-1",          1147,       111.259,       165.064,            0.,NA,NA,"",   1.03131E+06,   1.05050E+06,   1.05050E+06
C:/temp/Job-8.odb,Step-1,Increment      1: Step Time =    1.000,"P-8-1",          1148,       88.5605,       34.8286,            0.,NA,NA,"",   1.03628E+06,   1.05703E+06,   1.05703E+06
C:/temp/Job-8.odb,Step-1,Increment      1: Step Time =    1.000,"P-8-1",          1149,       32.4528,       110.433,            0.,NA,NA,"",   783.663E+03,   856.746E+03,   856.746E+03
C:/temp/Job-8.odb,Step-1,Increment      1: Step Time =    1.000,"P-8-1",          1150,       164.688,       123.602,            0.,NA,NA,"",   987.451E+03,   987.837E+03,   987.837E+03
C:/temp/Job-8.odb,Step-1,Increment      1: Step Time =    1.000,"P-8-1",          1151,       81.3312,       164.041,            0.,NA,NA,"",   1.05791E+06,   1.07142E+06,   1.07142E+06
C:/temp/Job-8.odb,Step-1,Increment      1: Step Time =    1.000,"P-8-1",          1152,       166.712,       78.9489,            0.,NA,NA,"",   972.035E+03,   978.503E+03,   978.503E+03
C:/temp/Job-8.odb,Step-1,Increment      1: Step Time =    1.000,"P-8-1",          1153,       119.425,       165.631,            0.,NA,NA,"",   1.04625E+06,   1.05468E+06,   1.05468E+06
C:/temp/Job-8.odb,Step-1,Increment      1: Step Time =    1.000,"P-8-1",          1154,       80.5280,       35.1011,            0.,NA,NA,"",   1.05742E+06,   1.06981E+06,   1.06981E+06
C:/temp/Job-8.odb,Step-1,Increment      1: Step Time =    1.000,"P-8-1",          1155,       35.1426,       124.789,            0.,NA,NA,"",   870.265E+03,   927.660E+03,   927.660E+03
C:/temp/Job-8.odb,Step-1,Increment      1: Step Time =    1.000,"P-8-1",          1156,       35.0712,       75.9438,            0.,NA,NA,"",   864.868E+03,   923.344E+03,   923.344E+03
C:/temp/Job-8.odb,Step-1,Increment      1: Step Time =    1.000,"P-8-1",          1157,       122.807,       34.1538,            0.,NA,NA,"",   1.05347E+06,   1.05728E+06,   1.05728E+06
C:/temp/Job-8.odb,Step-1,Increment      1: Step Time =    1.000,"P-8-1",          1158,       129.940,       165.906,            0.,NA,NA,"",   1.06273E+06,   1.05783E+06,   1.05783E+06
C:/temp/Job-8.odb,Step-1,Increment      1: Step Time =    1.000,"P-8-1",          1159,       165.902,       70.8419,            0.,NA,NA,"",   1.00912E+06,   1.00584E+06,   1.00584E+06
C:/temp/Job-8.odb,Step-1,Increment      1: Step Time =    1.000,"P-8-1",          1160,       34.4440,       131.650,            0.,NA,NA,"",   908.578E+03,   961.636E+03,   961.636E+03
C:/temp/Job-8.odb,Step-1,Increment      1: Step Time =    1.000,"P-8-1",          1161,       37.3139,       166.352,            0.,NA,NA,"",   1.06284E+06,   1.08347E+06,   1.08347E+06
C:/temp/Job-8.odb,Step-1,Increment      1: Step Time =    1.000,"P-8-1",          1162,       168.218,       38.8038,            0.,NA,NA,"",   1.03414E+06,   1.02777E+06,   1.02777E+06
C:/temp/Job-8.odb,Step-1,Increment      1: Step Time =    1.000,"P-8-1",          1163,       167.158,       165.914,            0.,NA,NA,"",   1.03217E+06,   1.02584E+06,   1.02584E+06
C:/temp/Job-8.odb,Step-1,Increment      1: Step Time =    1.000,"P-8-1",          1164,       165.569,       170.247,            0.,NA,NA,"",   1.02838E+06,   1.02258E+06,   1.02258E+06
C:/temp/Job-8.odb,Step-1,Increment      1: Step Time =    1.000,"P-8-1",          1165,       37.6712,       36.1674,            0.,NA,NA,"",   1.05728E+06,   1.07981E+06,   1.07981E+06
C:/temp/Job-8.odb,Step-1,Increment      1: Step Time =    1.000,"P-8-1",          1166,       37.9629,       32.2932,            0.,NA,NA,"",   1.06572E+06,   1.08475E+06,   1.08475E+06
C:/temp/Job-8.odb,Step-1,Increment      1: Step Time =    1.000,"P-8-1",          1167,       163.641,       33.9362,            0.,NA,NA,"",   1.03718E+06,   1.02931E+06,   1.02931E+06
C:/temp/Job-8.odb,Step-1,Increment      1: Step Time =    1.000,"P-8-1",          1168,       31.8480,       165.629,            0.,NA,NA,"",   1.04765E+06,   1.08006E+06,   1.08006E+06
C:/temp/Job-8.odb,Step-1,Increment      1: Step Time =    1.000,"P-8-1",          1169,       58.5045,       77.8927,            0.,NA,NA,"",   986.519E+03,   977.623E+03,   977.623E+03
C:/temp/Job-8.odb,Step-1,Increment      1: Step Time =    1.000,"P-8-1",          1170,       123.598,       58.6833,            0.,NA,NA,"",   1.19353E+06,   1.17548E+06,   1.17548E+06
C:/temp/Job-8.odb,Step-1,Increment      1: Step Time =    1.000,"P-8-1",          1171,       148.192,       30.8193,            0.,NA,NA,"",   1.05131E+06,   1.04041E+06,   1.04041E+06
C:/temp/Job-8.odb,Step-1,Increment      1: Step Time =    1.000,"P-8-1",          1172,       166.958,       150.496,            0.,NA,NA,"",   1.04382E+06,   1.03462E+06,   1.03462E+06
C:/temp/Job-8.odb,Step-1,Increment      1: Step Time =    1.000,"P-8-1",          1173,       32.5958,       44.3176,            0.,NA,NA,"",   1.01643E+06,   1.05515E+06,   1.05515E+06
C:/temp/Job-8.odb,Step-1,Increment      1: Step Time =    1.000,"P-8-1",          1174,       46.6362,       171.349,            0.,NA,NA,"",   1.07793E+06,   1.08344E+06,   1.08344E+06
C:/temp/Job-8.odb,Step-1,Increment      1: Step Time =    1.000,"P-8-1",          1175,       162.325,       162.508,            0.,NA,NA,"",   1.04476E+06,   1.03492E+06,   1.03492E+06
C:/temp/Job-8.odb,Step-1,Increment      1: Step Time =    1.000,"P-8-1",          1176,       36.9122,       161.231,            0.,NA,NA,"",   1.04846E+06,   1.07423E+06,   1.07423E+06
C:/temp/Job-8.odb,Step-1,Increment      1: Step Time =    1.000,"P-8-1",          1177,       163.549,       38.8545,            0.,NA,NA,"",   1.04366E+06,   1.03427E+06,   1.03427E+06
C:/temp/Job-8.odb,Step-1,Increment      1: Step Time =    1.000,"P-8-1",          1178,       42.2650,       36.0011,            0.,NA,NA,"",   1.06818E+06,   1.08267E+06,   1.08267E+06
C:/temp/Job-8.odb,Step-1,Increment      1: Step Time =    1.000,"P-8-1",          1179,       67.2856,       65.3803,            0.,NA,NA,"",   1.17259E+06,   1.14103E+06,   1.14103E+06
C:/temp/Job-8.odb,Step-1,Increment      1: Step Time =    1.000,"P-8-1",          1180,       135.157,       67.6093,            0.,NA,NA,"",   1.19619E+06,   1.13386E+06,   1.13386E+06
C:/temp/Job-8.odb,Step-1,Increment      1: Step Time =    1.000,"P-8-1",          1181,       60.6526,       69.9640,            0.,NA,NA,"",   1.08477E+06,   1.06475E+06,   1.06475E+06
C:/temp/Job-8.odb,Step-1,Increment      1: Step Time =    1.000,"P-8-1",          1182,       131.602,       58.1368,            0.,NA,NA,"",   1.18344E+06,   1.14666E+06,   1.14666E+06
C:/temp/Job-8.odb,Step-1,Increment      1: Step Time =    1.000,"P-8-1",          1183,       20.2989,       79.2486,            0.,NA,NA,"",   806.341E+03,   889.658E+03,   889.658E+03
C:/temp/Job-8.odb,Step-1,Increment      1: Step Time =    1.000,"P-8-1",          1184,       179.216,       121.393,            0.,NA,NA,"",   968.258E+03,   990.307E+03,   990.307E+03
C:/temp/Job-8.odb,Step-1,Increment      1: Step Time =    1.000,"P-8-1",          1185,       95.3165,       140.289,            0.,NA,NA,"",   1.10109E+06,   1.17328E+06,   1.17328E+06
C:/temp/Job-8.odb,Step-1,Increment      1: Step Time =    1.000,"P-8-1",          1186,       70.2759,       88.4132,            0.,NA,NA,"",   869.788E+03,   804.831E+03,   804.831E+03
C:/temp/Job-8.odb,Step-1,Increment      1: Step Time =    1.000,"P-8-1",          1187,       111.767,       70.2587,            0.,NA,NA,"",   1.29909E+06,   1.33838E+06,   1.33838E+06
C:/temp/Job-8.odb,Step-1,Increment      1: Step Time =    1.000,"P-8-1",          1188,       56.7323,       116.307,            0.,NA,NA,"",   871.496E+03,   884.631E+03,   884.631E+03
C:/temp/Job-8.odb,Step-1,Increment      1: Step Time =    1.000,"P-8-1",          1189,       141.568,       83.2157,            0.,NA,NA,"",   970.943E+03,   930.049E+03,   930.049E+03
C:/temp/Job-8.odb,Step-1,Increment      1: Step Time =    1.000,"P-8-1",          1190,       85.2199,       58.8315,            0.,NA,NA,"",   1.15497E+06,   1.18694E+06,   1.18694E+06
C:/temp/Job-8.odb,Step-1,Increment      1: Step Time =    1.000,"P-8-1",          1191,       132.861,       28.2730,            0.,NA,NA,"",   1.04393E+06,   1.03894E+06,   1.03894E+06
C:/temp/Job-8.odb,Step-1,Increment      1: Step Time =    1.000,"P-8-1",          1192,       66.3064,       170.643,            0.,NA,NA,"",   1.06814E+06,   1.06851E+06,   1.06851E+06
C:/temp/Job-8.odb,Step-1,Increment      1: Step Time =    1.000,"P-8-1",          1193,       171.341,       130.875,            0.,NA,NA,"",   1.00229E+06,   1.00618E+06,   1.00618E+06
C:/temp/Job-8.odb,Step-1,Increment      1: Step Time =    1.000,"P-8-1",          1194,       176.190,       157.110,            0.,NA,NA,"",   1.01931E+06,   1.01857E+06,   1.01857E+06
C:/temp/Job-8.odb,Step-1,Increment      1: Step Time =    1.000,"P-8-1",          1195,       158.055,       24.3190,            0.,NA,NA,"",   1.02631E+06,   1.02037E+06,   1.02037E+06
C:/temp/Job-8.odb,Step-1,Increment      1: Step Time =    1.000,"P-8-1",          1196,       28.2295,       39.0594,            0.,NA,NA,"",   1.02058E+06,   1.06450E+06,   1.06450E+06
C:/temp/Job-8.odb,Step-1,Increment      1: Step Time =    1.000,"P-8-1",          1197,       163.786,       119.317,            0.,NA,NA,"",   966.017E+03,   970.117E+03,   970.117E+03
C:/temp/Job-8.odb,Step-1,Increment      1: Step Time =    1.000,"P-8-1",          1198,       86.0265,       165.827,            0.,NA,NA,"",   1.04083E+06,   1.05823E+06,   1.05823E+06
C:/temp/Job-8.odb,Step-1,Increment      1: Step Time =    1.000,"P-8-1",          1199,       34.7709,       79.5047,            0.,NA,NA,"",   839.929E+03,   902.403E+03,   902.403E+03
C:/temp/Job-8.odb,Step-1,Increment      1: Step Time =    1.000,"P-8-1",          1200,       114.134,       37.0281,            0.,NA,NA,"",   1.04266E+06,   1.06041E+06,   1.06041E+06
C:/temp/Job-8.odb,Step-1,Increment      1: Step Time =    1.000,"P-8-1",          1201,       56.8055,       73.2446,            0.,NA,NA,"",   1.02147E+06,   1.01558E+06,   1.01558E+06
C:/temp/Job-8.odb,Step-1,Increment      1: Step Time =    1.000,"P-8-1",          1202,       128.264,       54.7035,            0.,NA,NA,"",   1.16770E+06,   1.14418E+06,   1.14418E+06
C:/temp/Job-8.odb,Step-1,Increment      1: Step Time =    1.000,"P-8-1",          1203,       184.623,       184.349,            0.,NA,NA,"",   1.00191E+06,   1.00212E+06,   1.00212E+06
C:/temp/Job-8.odb,Step-1,Increment      1: Step Time =    1.000,"P-8-1",          1204,       183.957,       15.6691,            0.,NA,NA,"",   1.00216E+06,   1.00229E+06,   1.00229E+06
C:/temp/Job-8.odb,Step-1,Increment      1: Step Time =    1.000,"P-8-1",          1205,       16.0643,       14.8112,            0.,NA,NA,"",   1.14169E+06,   1.17780E+06,   1.17780E+06
C:/temp/Job-8.odb,Step-1,Increment      1: Step Time =    1.000,"P-8-1",          1206,       163.629,       95.0394,            0.,NA,NA,"",   898.613E+03,   917.840E+03,   917.840E+03
C:/temp/Job-8.odb,Step-1,Increment      1: Step Time =    1.000,"P-8-1",          1207,       105.510,       162.628,            0.,NA,NA,"",   1.02665E+06,   1.05545E+06,   1.05545E+06
C:/temp/Job-8.odb,Step-1,Increment      1: Step Time =    1.000,"P-8-1",          1208,       93.0727,       36.7446,            0.,NA,NA,"",   1.03137E+06,   1.05801E+06,   1.05801E+06
C:/temp/Job-8.odb,Step-1,Increment      1: Step Time =    1.000,"P-8-1",          1209,       36.2990,       105.170,            0.,NA,NA,"",   763.866E+03,   834.929E+03,   834.929E+03
C:/temp/Job-8.odb,Step-1,Increment      1: Step Time =    1.000,"P-8-1",          1210,       162.807,       83.7742,            0.,NA,NA,"",   945.929E+03,   952.818E+03,   952.818E+03
C:/temp/Job-8.odb,Step-1,Increment      1: Step Time =    1.000,"P-8-1",          1211,       115.302,       164.070,            0.,NA,NA,"",   1.04280E+06,   1.05749E+06,   1.05749E+06
C:/temp/Job-8.odb,Step-1,Increment      1: Step Time =    1.000,"P-8-1",          1212,       82.0573,       38.3634,            0.,NA,NA,"",   1.06372E+06,   1.07951E+06,   1.07951E+06
C:/temp/Job-8.odb,Step-1,Increment      1: Step Time =    1.000,"P-8-1",          1213,       38.2896,       115.040,            0.,NA,NA,"",   811.368E+03,   872.771E+03,   872.771E+03
C:/temp/Job-8.odb,Step-1,Increment      1: Step Time =    1.000,"P-8-1",          1214,       39.2326,       126.568,            0.,NA,NA,"",   897.314E+03,   944.450E+03,   944.450E+03
C:/temp/Job-8.odb,Step-1,Increment      1: Step Time =    1.000,"P-8-1",          1215,       162.250,       73.9671,            0.,NA,NA,"",   1.00375E+06,   997.468E+03,   997.468E+03
C:/temp/Job-8.odb,Step-1,Increment      1: Step Time =    1.000,"P-8-1",          1216,       125.034,       165.263,            0.,NA,NA,"",   1.05957E+06,   1.05993E+06,   1.05993E+06
C:/temp/Job-8.odb,Step-1,Increment      1: Step Time =    1.000,"P-8-1",          1217,       75.5358,       37.5976,            0.,NA,NA,"",   1.07904E+06,   1.08601E+06,   1.08601E+06
C:/temp/Job-8.odb,Step-1,Increment      1: Step Time =    1.000,"P-8-1",          1218,       164.332,       102.342,            0.,NA,NA,"",   897.357E+03,   917.952E+03,   917.952E+03
C:/temp/Job-8.odb,Step-1,Increment      1: Step Time =    1.000,"P-8-1",          1219,       102.803,       36.5970,            0.,NA,NA,"",   1.02263E+06,   1.05178E+06,   1.05178E+06
C:/temp/Job-8.odb,Step-1,Increment      1: Step Time =    1.000,"P-8-1",          1220,       38.1654,       94.7498,            0.,NA,NA,"",   758.178E+03,   827.753E+03,   827.753E+03
C:/temp/Job-8.odb,Step-1,Increment      1: Step Time =    1.000,"P-8-1",          1221,       34.2681,       136.104,            0.,NA,NA,"",   933.408E+03,   983.409E+03,   983.409E+03
C:/temp/Job-8.odb,Step-1,Increment      1: Step Time =    1.000,"P-8-1",          1222,       163.522,       65.7530,            0.,NA,NA,"",   1.03417E+06,   1.02349E+06,   1.02349E+06
C:/temp/Job-8.odb,Step-1,Increment      1: Step Time =    1.000,"P-8-1",          1223,       135.253,       165.037,            0.,NA,NA,"",   1.06951E+06,   1.05975E+06,   1.05975E+06
C:/temp/Job-8.odb,Step-1,Increment      1: Step Time =    1.000,"P-8-1",          1224,       62.2065,       38.2106,            0.,NA,NA,"",   1.09546E+06,   1.09371E+06,   1.09371E+06
C:/temp/Job-8.odb,Step-1,Increment      1: Step Time =    1.000,"P-8-1",          1225,       55.5969,       83.0593,            0.,NA,NA,"",   880.844E+03,   894.203E+03,   894.203E+03
C:/temp/Job-8.odb,Step-1,Increment      1: Step Time =    1.000,"P-8-1",          1226,       116.358,       55.4660,            0.,NA,NA,"",   1.14271E+06,   1.16076E+06,   1.16076E+06
C:/temp/Job-8.odb,Step-1,Increment      1: Step Time =    1.000,"P-8-1",          1227,       35.7346,       73.0629,            0.,NA,NA,"",   886.235E+03,   940.968E+03,   940.968E+03
C:/temp/Job-8.odb,Step-1,Increment      1: Step Time =    1.000,"P-8-1",          1228,       123.396,       39.5811,            0.,NA,NA,"",   1.07624E+06,   1.07846E+06,   1.07846E+06
C:/temp/Job-8.odb,Step-1,Increment      1: Step Time =    1.000,"P-8-1",          1229,       165.786,       127.772,            0.,NA,NA,"",   1.00396E+06,   1.00209E+06,   1.00209E+06
C:/temp/Job-8.odb,Step-1,Increment      1: Step Time =    1.000,"P-8-1",          1230,       75.4393,       159.884,            0.,NA,NA,"",   1.08856E+06,   1.09568E+06,   1.09568E+06
C:/temp/Job-8.odb,Step-1,Increment      1: Step Time =    1.000,"P-8-1",          1231,       132.314,       97.2237,            0.,NA,NA,"",   568.789E+03,   563.857E+03,   563.857E+03
C:/temp/Job-8.odb,Step-1,Increment      1: Step Time =    1.000,"P-8-1",          1232,       98.3444,       69.2597,            0.,NA,NA,"",   1.18694E+06,   1.30123E+06,   1.30123E+06
C:/temp/Job-8.odb,Step-1,Increment      1: Step Time =    1.000,"P-8-1",          1233,       69.5427,       103.304,            0.,NA,NA,"",   501.575E+03,   513.872E+03,   513.872E+03
C:/temp/Job-8.odb,Step-1,Increment      1: Step Time =    1.000,"P-8-1",          1234,       189.288,       15.6232,            0.,NA,NA,"",   1.00093E+06,   1.00120E+06,   1.00120E+06
C:/temp/Job-8.odb,Step-1,Increment      1: Step Time =    1.000,"P-8-1",          1235,       184.583,       189.477,            0.,NA,NA,"",   1.00087E+06,   1.00095E+06,   1.00095E+06
C:/temp/Job-8.odb,Step-1,Increment      1: Step Time =    1.000,"P-8-1",          1236,       15.6347,       9.99960,            0.,NA,NA,"",   1.17816E+06,   1.19888E+06,   1.19888E+06
C:/temp/Job-8.odb,Step-1,Increment      1: Step Time =    1.000,"P-8-1",          1237,       10.2569,       184.388,            0.,NA,NA,"",   1.12005E+06,   1.18535E+06,   1.18535E+06
C:/temp/Job-8.odb,Step-1,Increment      1: Step Time =    1.000,"P-8-1",          1238,       157.642,       164.477,            0.,NA,NA,"",   1.05014E+06,   1.03880E+06,   1.03880E+06
C:/temp/Job-8.odb,Step-1,Increment      1: Step Time =    1.000,"P-8-1",          1239,       32.6859,       160.817,            0.,NA,NA,"",   1.03477E+06,   1.06909E+06,   1.06909E+06
C:/temp/Job-8.odb,Step-1,Increment      1: Step Time =    1.000,"P-8-1",          1240,       167.558,       42.4364,            0.,NA,NA,"",   1.03811E+06,   1.03079E+06,   1.03079E+06
C:/temp/Job-8.odb,Step-1,Increment      1: Step Time =    1.000,"P-8-1",          1241,       41.1158,       32.5886,            0.,NA,NA,"",   1.07112E+06,   1.08568E+06,   1.08568E+06
C:/temp/Job-8.odb,Step-1,Increment      1: Step Time =    1.000,"P-8-1",          1242,       96.8172,       147.031,            0.,NA,NA,"",   1.06078E+06,   1.12171E+06,   1.12171E+06
C:/temp/Job-8.odb,Step-1,Increment      1: Step Time =    1.000,"P-8-1",          1243,       85.7657,       139.510,            0.,NA,NA,"",   1.16323E+06,   1.19580E+06,   1.19580E+06
C:/temp/Job-8.odb,Step-1,Increment      1: Step Time =    1.000,"P-8-1",          1244,       76.0436,       88.6545,            0.,NA,NA,"",   983.659E+03,   858.530E+03,   858.530E+03
C:/temp/Job-8.odb,Step-1,Increment      1: Step Time =    1.000,"P-8-1",          1245,       111.623,       76.0493,            0.,NA,NA,"",   1.38207E+06,   1.40741E+06,   1.40741E+06
C:/temp/Job-8.odb,Step-1,Increment      1: Step Time =    1.000,"P-8-1",          1246,       58.5727,       119.392,            0.,NA,NA,"",   937.508E+03,   934.179E+03,   934.179E+03
C:/temp/Job-8.odb,Step-1,Increment      1: Step Time =    1.000,"P-8-1",          1247,       54.2339,       113.298,            0.,NA,NA,"",   812.117E+03,   842.913E+03,   842.913E+03
C:/temp/Job-8.odb,Step-1,Increment      1: Step Time =    1.000,"P-8-1",          1248,       140.910,       76.5280,            0.,NA,NA,"",   1.09226E+06,   1.03427E+06,   1.03427E+06
C:/temp/Job-8.odb,Step-1,Increment      1: Step Time =    1.000,"P-8-1",          1249,       146.612,       89.9898,            0.,NA,NA,"",   853.504E+03,   851.750E+03,   851.750E+03
C:/temp/Job-8.odb,Step-1,Increment      1: Step Time =    1.000,"P-8-1",          1250,       88.9595,       55.5854,            0.,NA,NA,"",   1.10630E+06,   1.15266E+06,   1.15266E+06
C:/temp/Job-8.odb,Step-1,Increment      1: Step Time =    1.000,"P-8-1",          1251,       77.0946,       59.8458,            0.,NA,NA,"",   1.19543E+06,   1.18896E+06,   1.18896E+06
C:/temp/Job-8.odb,Step-1,Increment      1: Step Time =    1.000,"P-8-1",          1252,       90.3255,       165.095,            0.,NA,NA,"",   1.03212E+06,   1.05465E+06,   1.05465E+06
C:/temp/Job-8.odb,Step-1,Increment      1: Step Time =    1.000,"P-8-1",          1253,       163.595,       115.324,            0.,NA,NA,"",   943.674E+03,   952.699E+03,   952.699E+03
C:/temp/Job-8.odb,Step-1,Increment      1: Step Time =    1.000,"P-8-1",          1254,       160.255,       124.335,            0.,NA,NA,"",   998.806E+03,   991.270E+03,   991.270E+03
C:/temp/Job-8.odb,Step-1,Increment      1: Step Time =    1.000,"P-8-1",          1255,       80.5139,       158.250,            0.,NA,NA,"",   1.08185E+06,   1.09642E+06,   1.09642E+06
C:/temp/Job-8.odb,Step-1,Increment      1: Step Time =    1.000,"P-8-1",          1256,       39.3460,       80.3415,            0.,NA,NA,"",   847.176E+03,   901.497E+03,   901.497E+03
C:/temp/Job-8.odb,Step-1,Increment      1: Step Time =    1.000,"P-8-1",          1257,       120.413,       43.2871,            0.,NA,NA,"",   1.08334E+06,   1.09136E+06,   1.09136E+06
C:/temp/Job-8.odb,Step-1,Increment      1: Step Time =    1.000,"P-8-1",          1258,       34.6484,       83.1280,            0.,NA,NA,"",   816.443E+03,   882.428E+03,   882.428E+03
C:/temp/Job-8.odb,Step-1,Increment      1: Step Time =    1.000,"P-8-1",          1259,       53.3914,       78.4477,            0.,NA,NA,"",   931.891E+03,   944.741E+03,   944.741E+03
C:/temp/Job-8.odb,Step-1,Increment      1: Step Time =    1.000,"P-8-1",          1260,       121.233,       53.5666,            0.,NA,NA,"",   1.14819E+06,   1.14724E+06,   1.14724E+06
C:/temp/Job-8.odb,Step-1,Increment      1: Step Time =    1.000,"P-8-1",          1261,       110.122,       160.981,            0.,NA,NA,"",   1.03929E+06,   1.06429E+06,   1.06429E+06
C:/temp/Job-8.odb,Step-1,Increment      1: Step Time =    1.000,"P-8-1",          1262,       159.349,       90.5841,            0.,NA,NA,"",   898.863E+03,   911.025E+03,   911.025E+03
C:/temp/Job-8.odb,Step-1,Increment      1: Step Time =    1.000,"P-8-1",          1263,       86.0479,       38.7244,            0.,NA,NA,"",   1.05313E+06,   1.07458E+06,   1.07458E+06
C:/temp/Job-8.odb,Step-1,Increment      1: Step Time =    1.000,"P-8-1",          1264,       38.6575,       109.606,            0.,NA,NA,"",   778.642E+03,   844.333E+03,   844.333E+03
C:/temp/Job-8.odb,Step-1,Increment      1: Step Time =    1.000,"P-8-1",          1265,       119.763,       160.560,            0.,NA,NA,"",   1.06677E+06,   1.07472E+06,   1.07472E+06
C:/temp/Job-8.odb,Step-1,Increment      1: Step Time =    1.000,"P-8-1",          1266,       162.354,       79.0911,            0.,NA,NA,"",   974.673E+03,   974.582E+03,   974.582E+03
C:/temp/Job-8.odb,Step-1,Increment      1: Step Time =    1.000,"P-8-1",          1267,       79.9456,       41.2243,            0.,NA,NA,"",   1.07980E+06,   1.09377E+06,   1.09377E+06
C:/temp/Job-8.odb,Step-1,Increment      1: Step Time =    1.000,"P-8-1",          1268,       38.4496,       121.499,            0.,NA,NA,"",   858.192E+03,   912.830E+03,   912.830E+03
C:/temp/Job-8.odb,Step-1,Increment      1: Step Time =    1.000,"P-8-1",          1269,       100.075,       162.964,            0.,NA,NA,"",   1.02412E+06,   1.05432E+06,   1.05432E+06
C:/temp/Job-8.odb,Step-1,Increment      1: Step Time =    1.000,"P-8-1",          1270,       160.729,       98.1608,            0.,NA,NA,"",   878.514E+03,   897.399E+03,   897.399E+03
C:/temp/Job-8.odb,Step-1,Increment      1: Step Time =    1.000,"P-8-1",          1271,       95.5919,       39.9102,            0.,NA,NA,"",   1.03405E+06,   1.06697E+06,   1.06697E+06
C:/temp/Job-8.odb,Step-1,Increment      1: Step Time =    1.000,"P-8-1",          1272,       37.8743,       99.8096,            0.,NA,NA,"",   754.636E+03,   825.282E+03,   825.282E+03
C:/temp/Job-8.odb,Step-1,Increment      1: Step Time =    1.000,"P-8-1",          1273,       29.4041,       140.221,            0.,NA,NA,"",   931.021E+03,   988.725E+03,   988.725E+03
C:/temp/Job-8.odb,Step-1,Increment      1: Step Time =    1.000,"P-8-1",          1274,       41.9296,       129.286,            0.,NA,NA,"",   929.560E+03,   967.758E+03,   967.758E+03
C:/temp/Job-8.odb,Step-1,Increment      1: Step Time =    1.000,"P-8-1",          1275,       164.458,       59.9307,            0.,NA,NA,"",   1.04461E+06,   1.03324E+06,   1.03324E+06
C:/temp/Job-8.odb,Step-1,Increment      1: Step Time =    1.000,"P-8-1",          1276,       159.595,       69.7517,            0.,NA,NA,"",   1.03313E+06,   1.01781E+06,   1.01781E+06
C:/temp/Job-8.odb,Step-1,Increment      1: Step Time =    1.000,"P-8-1",          1277,       132.145,       155.860,            0.,NA,NA,"",   1.11039E+06,   1.09600E+06,   1.09600E+06
C:/temp/Job-8.odb,Step-1,Increment      1: Step Time =    1.000,"P-8-1",          1278,       139.461,       167.021,            0.,NA,NA,"",   1.06310E+06,   1.05213E+06,   1.05213E+06
C:/temp/Job-8.odb,Step-1,Increment      1: Step Time =    1.000,"P-8-1",          1279,       56.8660,       35.6176,            0.,NA,NA,"",   1.08862E+06,   1.08840E+06,   1.08840E+06
C:/temp/Job-8.odb,Step-1,Increment      1: Step Time =    1.000,"P-8-1",          1280,       69.1854,       39.0929,            0.,NA,NA,"",   1.09484E+06,   1.09540E+06,   1.09540E+06
C:/temp/Job-8.odb,Step-1,Increment      1: Step Time =    1.000,"P-8-1",          1281,       58.7544,       84.9244,            0.,NA,NA,"",   863.165E+03,   869.613E+03,   869.613E+03
C:/temp/Job-8.odb,Step-1,Increment      1: Step Time =    1.000,"P-8-1",          1282,       114.463,       58.6089,            0.,NA,NA,"",   1.15966E+06,   1.18596E+06,   1.18596E+06
C:/temp/Job-8.odb,Step-1,Increment      1: Step Time =    1.000,"P-8-1",          1283,       33.3383,       70.9463,            0.,NA,NA,"",   888.650E+03,   946.170E+03,   946.170E+03
C:/temp/Job-8.odb,Step-1,Increment      1: Step Time =    1.000,"P-8-1",          1284,       128.122,       38.1394,            0.,NA,NA,"",   1.07983E+06,   1.07482E+06,   1.07482E+06
C:/temp/Job-8.odb,Step-1,Increment      1: Step Time =    1.000,"P-8-1",          1285,       167.028,       131.507,            0.,NA,NA,"",   1.01417E+06,   1.01127E+06,   1.01127E+06
C:/temp/Job-8.odb,Step-1,Increment      1: Step Time =    1.000,"P-8-1",          1286,       125.470,       100.982,            0.,NA,NA,"",   398.721E+03,   336.265E+03,   336.265E+03
C:/temp/Job-8.odb,Step-1,Increment      1: Step Time =    1.000,"P-8-1",          1287,       102.822,       73.1369,            0.,NA,NA,"",   1.29457E+06,   1.42557E+06,   1.42557E+06
C:/temp/Job-8.odb,Step-1,Increment      1: Step Time =    1.000,"P-8-1",          1288,       73.2715,       97.9175,            0.,NA,NA,"",   375.845E+03,   362.213E+03,   362.213E+03
C:/temp/Job-8.odb,Step-1,Increment      1: Step Time =    1.000,"P-8-1",          1289,       153.564,       34.9518,            0.,NA,NA,"",   1.05554E+06,   1.04305E+06,   1.04305E+06
C:/temp/Job-8.odb,Step-1,Increment      1: Step Time =    1.000,"P-8-1",          1290,       163.330,       154.235,            0.,NA,NA,"",   1.05209E+06,   1.04022E+06,   1.04022E+06
C:/temp/Job-8.odb,Step-1,Increment      1: Step Time =    1.000,"P-8-1",          1291,       37.3060,       43.9000,            0.,NA,NA,"",   1.03456E+06,   1.06339E+06,   1.06339E+06
C:/temp/Job-8.odb,Step-1,Increment      1: Step Time =    1.000,"P-8-1",          1292,       44.7696,       167.980,            0.,NA,NA,"",   1.07678E+06,   1.08561E+06,   1.08561E+06
C:/temp/Job-8.odb,Step-1,Increment      1: Step Time =    1.000,"P-8-1",          1293,       141.416,       66.4525,            0.,NA,NA,"",   1.14946E+06,   1.09768E+06,   1.09768E+06
C:/temp/Job-8.odb,Step-1,Increment      1: Step Time =    1.000,"P-8-1",          1294,       67.6924,       61.2328,            0.,NA,NA,"",   1.16907E+06,   1.14576E+06,   1.14576E+06
C:/temp/Job-8.odb,Step-1,Increment      1: Step Time =    1.000,"P-8-1",          1295,       37.3453,       39.9120,            0.,NA,NA,"",   1.04627E+06,   1.07233E+06,   1.07233E+06
C:/temp/Job-8.odb,Step-1,Increment      1: Step Time =    1.000,"P-8-1",          1296,       42.7903,       164.003,            0.,NA,NA,"",   1.07022E+06,   1.08388E+06,   1.08388E+06
C:/temp/Job-8.odb,Step-1,Increment      1: Step Time =    1.000,"P-8-1",          1297,       158.537,       34.4317,            0.,NA,NA,"",   1.04653E+06,   1.03613E+06,   1.03613E+06
C:/temp/Job-8.odb,Step-1,Increment      1: Step Time =    1.000,"P-8-1",          1298,       162.914,       157.029,            0.,NA,NA,"",   1.05057E+06,   1.03915E+06,   1.03915E+06
C:/temp/Job-8.odb,Step-1,Increment      1: Step Time =    1.000,"P-8-1",          1299,       66.2330,       84.3787,            0.,NA,NA,"",   951.505E+03,   910.310E+03,   910.310E+03
C:/temp/Job-8.odb,Step-1,Increment      1: Step Time =    1.000,"P-8-1",          1300,       115.371,       66.1763,            0.,NA,NA,"",   1.25023E+06,   1.26149E+06,   1.26149E+06
C:/temp/Job-8.odb,Step-1,Increment      1: Step Time =    1.000,"P-8-1",          1301,       65.2561,       90.5219,            0.,NA,NA,"",   738.840E+03,   735.260E+03,   735.260E+03
C:/temp/Job-8.odb,Step-1,Increment      1: Step Time =    1.000,"P-8-1",          1302,       109.295,       65.1837,            0.,NA,NA,"",   1.17905E+06,   1.24369E+06,   1.24369E+06
C:/temp/Job-8.odb,Step-1,Increment      1: Step Time =    1.000,"P-8-1",          1303,       165.769,       46.9315,            0.,NA,NA,"",   1.04636E+06,   1.03655E+06,   1.03655E+06
C:/temp/Job-8.odb,Step-1,Increment      1: Step Time =    1.000,"P-8-1",          1304,       44.8625,       33.0723,            0.,NA,NA,"",   1.07605E+06,   1.08522E+06,   1.08522E+06
C:/temp/Job-8.odb,Step-1,Increment      1: Step Time =    1.000,"P-8-1",          1305,       153.345,       165.521,            0.,NA,NA,"",   1.05416E+06,   1.04190E+06,   1.04190E+06
C:/temp/Job-8.odb,Step-1,Increment      1: Step Time =    1.000,"P-8-1",          1306,       36.7055,       157.792,            0.,NA,NA,"",   1.03952E+06,   1.06772E+06,   1.06772E+06
C:/temp/Job-8.odb,Step-1,Increment      1: Step Time =    1.000,"P-8-1",          1307,       89.1370,       144.656,            0.,NA,NA,"",   1.10696E+06,   1.15124E+06,   1.15124E+06
C:/temp/Job-8.odb,Step-1,Increment      1: Step Time =    1.000,"P-8-1",          1308,       102.232,       140.549,            0.,NA,NA,"",   1.08194E+06,   1.16199E+06,   1.16199E+06
C:/temp/Job-8.odb,Step-1,Increment      1: Step Time =    1.000,"P-8-1",          1309,       58.6427,       109.247,            0.,NA,NA,"",   743.248E+03,   771.924E+03,   771.924E+03
C:/temp/Job-8.odb,Step-1,Increment      1: Step Time =    1.000,"P-8-1",          1310,       143.401,       93.7553,            0.,NA,NA,"",   780.950E+03,   785.387E+03,   785.387E+03
C:/temp/Job-8.odb,Step-1,Increment      1: Step Time =    1.000,"P-8-1",          1311,       92.2283,       56.9194,            0.,NA,NA,"",   1.09702E+06,   1.15567E+06,   1.15567E+06
C:/temp/Job-8.odb,Step-1,Increment      1: Step Time =    1.000,"P-8-1",          1312,       107.711,       76.8290,            0.,NA,NA,"",   1.48453E+06,   1.57475E+06,   1.57475E+06
C:/temp/Job-8.odb,Step-1,Increment      1: Step Time =    1.000,"P-8-1",          1313,       76.8441,       92.6142,            0.,NA,NA,"",   681.584E+03,   413.578E+03,   413.578E+03
C:/temp/Job-8.odb,Step-1,Increment      1: Step Time =    1.000,"P-8-1",          1314,       124.048,       108.747,            0.,NA,NA,"",   852.519E+03,   675.434E+03,   675.434E+03
C:/temp/Job-8.odb,Step-1,Increment      1: Step Time =    1.000,"P-8-1",          1315,       87.4778,       162.828,            0.,NA,NA,"",   1.04580E+06,   1.06793E+06,   1.06793E+06
C:/temp/Job-8.odb,Step-1,Increment      1: Step Time =    1.000,"P-8-1",          1316,       159.371,       114.419,            0.,NA,NA,"",   933.310E+03,   938.123E+03,   938.123E+03
C:/temp/Job-8.odb,Step-1,Increment      1: Step Time =    1.000,"P-8-1",          1317,       37.9704,       87.7203,            0.,NA,NA,"",   793.567E+03,   858.297E+03,   858.297E+03
C:/temp/Job-8.odb,Step-1,Increment      1: Step Time =    1.000,"P-8-1",          1318,       110.531,       39.0592,            0.,NA,NA,"",   1.03967E+06,   1.06489E+06,   1.06489E+06
C:/temp/Job-8.odb,Step-1,Increment      1: Step Time =    1.000,"P-8-1",          1319,       81.7136,       87.4566,            0.,NA,NA,"",   1.01583E+06,   883.808E+03,   883.808E+03
C:/temp/Job-8.odb,Step-1,Increment      1: Step Time =    1.000,"P-8-1",          1320,       112.735,       81.8120,            0.,NA,NA,"",   1.46047E+06,   1.45064E+06,   1.45064E+06
C:/temp/Job-8.odb,Step-1,Increment      1: Step Time =    1.000,"P-8-1",          1321,       34.2065,       140.106,            0.,NA,NA,"",   954.665E+03,   1.00166E+06,   1.00166E+06
C:/temp/Job-8.odb,Step-1,Increment      1: Step Time =    1.000,"P-8-1",          1322,       159.460,       58.9336,            0.,NA,NA,"",   1.06441E+06,   1.04559E+06,   1.04559E+06
C:/temp/Job-8.odb,Step-1,Increment      1: Step Time =    1.000,"P-8-1",          1323,       139.031,       161.291,            0.,NA,NA,"",   1.08478E+06,   1.06957E+06,   1.06957E+06
C:/temp/Job-8.odb,Step-1,Increment      1: Step Time =    1.000,"P-8-1",          1324,       58.2123,       40.8418,            0.,NA,NA,"",   1.09822E+06,   1.09651E+06,   1.09651E+06
C:/temp/Job-8.odb,Step-1,Increment      1: Step Time =    1.000,"P-8-1",          1325,       130.436,       102.213,            0.,NA,NA,"",   520.381E+03,   511.870E+03,   511.870E+03
C:/temp/Job-8.odb,Step-1,Increment      1: Step Time =    1.000,"P-8-1",          1326,       102.037,       68.5675,            0.,NA,NA,"",   1.16952E+06,   1.28197E+06,   1.28197E+06
C:/temp/Job-8.odb,Step-1,Increment      1: Step Time =    1.000,"P-8-1",          1327,       94.9220,       164.892,            0.,NA,NA,"",   1.02455E+06,   1.05064E+06,   1.05064E+06
C:/temp/Job-8.odb,Step-1,Increment      1: Step Time =    1.000,"P-8-1",          1328,       165.678,       107.321,            0.,NA,NA,"",   912.097E+03,   931.229E+03,   931.229E+03
C:/temp/Job-8.odb,Step-1,Increment      1: Step Time =    1.000,"P-8-1",          1329,       36.0055,       91.2525,            0.,NA,NA,"",   773.358E+03,   843.363E+03,   843.363E+03
C:/temp/Job-8.odb,Step-1,Increment      1: Step Time =    1.000,"P-8-1",          1330,       110.248,       35.3452,            0.,NA,NA,"",   1.02933E+06,   1.05025E+06,   1.05025E+06
C:/temp/Job-8.odb,Step-1,Increment      1: Step Time =    1.000,"P-8-1",          1331,       80.6067,       105.884,            0.,NA,NA,"",   553.625E+03,   40.6851E+03,   40.6851E+03
C:/temp/Job-8.odb,Step-1,Increment      1: Step Time =    1.000,"P-8-1",          1332,       120.486,       95.4789,            0.,NA,NA,"",   534.948E+03,  -50.0273E+03,  -50.0273E+03
C:/temp/Job-8.odb,Step-1,Increment      1: Step Time =    1.000,"P-8-1",          1333,       94.7251,       79.4821,            0.,NA,NA,"",   1.76092E+06,   1.85903E+06,   1.85903E+06
C:/temp/Job-8.odb,Step-1,Increment      1: Step Time =    1.000,"P-8-1",          1334,       82.2165,       57.7294,            0.,NA,NA,"",   1.16202E+06,   1.18026E+06,   1.18026E+06
C:/temp/Job-8.odb,Step-1,Increment      1: Step Time =    1.000,"P-8-1",          1335,       146.235,       79.6864,            0.,NA,NA,"",   1.00891E+06,   975.139E+03,   975.139E+03
C:/temp/Job-8.odb,Step-1,Increment      1: Step Time =    1.000,"P-8-1",          1336,       53.3928,       119.059,            0.,NA,NA,"",    894.89E+03,   914.768E+03,   914.768E+03
C:/temp/Job-8.odb,Step-1,Increment      1: Step Time =    1.000,"P-8-1",          1337,       52.6017,       68.3080,            0.,NA,NA,"",   1.02466E+06,   1.02950E+06,   1.02950E+06
C:/temp/Job-8.odb,Step-1,Increment      1: Step Time =    1.000,"P-8-1",          1338,       132.179,       51.1888,            0.,NA,NA,"",   1.14570E+06,   1.12117E+06,   1.12117E+06
C:/temp/Job-8.odb,Step-1,Increment      1: Step Time =    1.000,"P-8-1",          1339,       50.8349,       86.0491,            0.,NA,NA,"",   814.401E+03,   852.412E+03,   852.412E+03
C:/temp/Job-8.odb,Step-1,Increment      1: Step Time =    1.000,"P-8-1",          1340,       112.205,       51.9227,            0.,NA,NA,"",   1.09270E+06,   1.12811E+06,   1.12811E+06
C:/temp/Job-8.odb,Step-1,Increment      1: Step Time =    1.000,"P-8-1",          1341,       129.178,       41.8992,            0.,NA,NA,"",   1.09694E+06,   1.08823E+06,   1.08823E+06
C:/temp/Job-8.odb,Step-1,Increment      1: Step Time =    1.000,"P-8-1",          1342,       70.3615,       159.921,            0.,NA,NA,"",   1.09606E+06,   1.09755E+06,   1.09755E+06
C:/temp/Job-8.odb,Step-1,Increment      1: Step Time =    1.000,"P-8-1",          1343,       63.2935,       60.5296,            0.,NA,NA,"",   1.13757E+06,   1.11965E+06,   1.11965E+06
C:/temp/Job-8.odb,Step-1,Increment      1: Step Time =    1.000,"P-8-1",          1344,       143.480,       62.6100,            0.,NA,NA,"",   1.14157E+06,   1.09731E+06,   1.09731E+06
C:/temp/Job-8.odb,Step-1,Increment      1: Step Time =    1.000,"P-8-1",          1345,       72.9827,       58.1400,            0.,NA,NA,"",   1.17989E+06,   1.16653E+06,   1.16653E+06
C:/temp/Job-8.odb,Step-1,Increment      1: Step Time =    1.000,"P-8-1",          1346,       143.264,       72.5194,            0.,NA,NA,"",   1.10667E+06,   1.05575E+06,   1.05575E+06
C:/temp/Job-8.odb,Step-1,Increment      1: Step Time =    1.000,"P-8-1",          1347,       121.690,       113.751,            0.,NA,NA,"",   1.11230E+06,   952.276E+03,   952.276E+03
C:/temp/Job-8.odb,Step-1,Increment      1: Step Time =    1.000,"P-8-1",          1348,       65.6158,       161.282,            0.,NA,NA,"",   1.09651E+06,   1.09563E+06,   1.09563E+06
C:/temp/Job-8.odb,Step-1,Increment      1: Step Time =    1.000,"P-8-1",          1349,       162.772,       133.583,            0.,NA,NA,"",   1.03285E+06,   1.02201E+06,   1.02201E+06
C:/temp/Job-8.odb,Step-1,Increment      1: Step Time =    1.000,"P-8-1",          1350,       36.4607,       67.3869,            0.,NA,NA,"",   924.216E+03,   972.025E+03,   972.025E+03
C:/temp/Job-8.odb,Step-1,Increment      1: Step Time =    1.000,"P-8-1",          1351,       132.706,       37.5145,            0.,NA,NA,"",   1.07995E+06,   1.07004E+06,   1.07004E+06
C:/temp/Job-8.odb,Step-1,Increment      1: Step Time =    1.000,"P-8-1",          1352,       54.2785,       92.4285,            0.,NA,NA,"",   720.170E+03,   765.603E+03,   765.603E+03
C:/temp/Job-8.odb,Step-1,Increment      1: Step Time =    1.000,"P-8-1",          1353,       106.635,       53.7374,            0.,NA,NA,"",   1.07324E+06,   1.12778E+06,   1.12778E+06
C:/temp/Job-8.odb,Step-1,Increment      1: Step Time =    1.000,"P-8-1",          1354,       133.352,       43.3329,            0.,NA,NA,"",   1.10597E+06,   1.09051E+06,   1.09051E+06
C:/temp/Job-8.odb,Step-1,Increment      1: Step Time =    1.000,"P-8-1",          1355,       42.2347,       66.4783,            0.,NA,NA,"",   965.234E+03,   996.886E+03,   996.886E+03
C:/temp/Job-8.odb,Step-1,Increment      1: Step Time =    1.000,"P-8-1",          1356,       68.1459,       156.008,            0.,NA,NA,"",   1.11109E+06,   1.10931E+06,   1.10931E+06
C:/temp/Job-8.odb,Step-1,Increment      1: Step Time =    1.000,"P-8-1",          1357,       156.652,       129.527,            0.,NA,NA,"",   1.03814E+06,   1.01864E+06,   1.01864E+06
C:/temp/Job-8.odb,Step-1,Increment      1: Step Time =    1.000,"P-8-1",          1358,       59.4040,       103.075,            0.,NA,NA,"",   639.367E+03,   683.465E+03,   683.465E+03
C:/temp/Job-8.odb,Step-1,Increment      1: Step Time =    1.000,"P-8-1",          1359,       95.0875,       60.8505,            0.,NA,NA,"",   1.10081E+06,   1.17665E+06,   1.17665E+06
C:/temp/Job-8.odb,Step-1,Increment      1: Step Time =    1.000,"P-8-1",          1360,       48.9137,       89.2123,            0.,NA,NA,"",   772.880E+03,   821.996E+03,   821.996E+03
C:/temp/Job-8.odb,Step-1,Increment      1: Step Time =    1.000,"P-8-1",          1361,       109.797,       49.4641,            0.,NA,NA,"",   1.06933E+06,   1.10849E+06,   1.10849E+06
C:/temp/Job-8.odb,Step-1,Increment      1: Step Time =    1.000,"P-8-1",          1362,       127.407,       111.899,            0.,NA,NA,"",   946.633E+03,   820.220E+03,   820.220E+03
C:/temp/Job-8.odb,Step-1,Increment      1: Step Time =    1.000,"P-8-1",          1363,       37.9876,       147.969,            0.,NA,NA,"",   1.00848E+06,   1.04147E+06,   1.04147E+06
C:/temp/Job-8.odb,Step-1,Increment      1: Step Time =    1.000,"P-8-1",          1364,       159.975,       53.5145,            0.,NA,NA,"",   1.06643E+06,   1.04901E+06,   1.04901E+06
C:/temp/Job-8.odb,Step-1,Increment      1: Step Time =    1.000,"P-8-1",          1365,       54.9418,       39.7152,            0.,NA,NA,"",   1.09240E+06,   1.09289E+06,   1.09289E+06
C:/temp/Job-8.odb,Step-1,Increment      1: Step Time =    1.000,"P-8-1",          1366,       143.309,       164.988,            0.,NA,NA,"",   1.06781E+06,   1.05444E+06,   1.05444E+06
C:/temp/Job-8.odb,Step-1,Increment      1: Step Time =    1.000,"P-8-1",          1367,       39.2326,       140.354,            0.,NA,NA,"",   981.447E+03,   1.01658E+06,   1.01658E+06
C:/temp/Job-8.odb,Step-1,Increment      1: Step Time =    1.000,"P-8-1",          1368,       154.975,       58.0775,            0.,NA,NA,"",   1.08439E+06,   1.05925E+06,   1.05925E+06
C:/temp/Job-8.odb,Step-1,Increment      1: Step Time =    1.000,"P-8-1",          1369,       62.2911,       44.4821,            0.,NA,NA,"",   1.10995E+06,   1.10599E+06,   1.10599E+06
C:/temp/Job-8.odb,Step-1,Increment      1: Step Time =    1.000,"P-8-1",          1370,       141.829,       158.101,            0.,NA,NA,"",   1.09428E+06,   1.07488E+06,   1.07488E+06
C:/temp/Job-8.odb,Step-1,Increment      1: Step Time =    1.000,"P-8-1",          1371,       29.5924,       154.997,            0.,NA,NA,"",   1.00085E+06,   1.04695E+06,   1.04695E+06
C:/temp/Job-8.odb,Step-1,Increment      1: Step Time =    1.000,"P-8-1",          1372,       153.896,       170.288,            0.,NA,NA,"",   1.04295E+06,   1.03335E+06,   1.03335E+06
C:/temp/Job-8.odb,Step-1,Increment      1: Step Time =    1.000,"P-8-1",          1373,       48.7149,       29.2727,            0.,NA,NA,"",   1.07806E+06,   1.08209E+06,   1.08209E+06
C:/temp/Job-8.odb,Step-1,Increment      1: Step Time =    1.000,"P-8-1",          1374,       170.669,       50.4173,            0.,NA,NA,"",   1.03384E+06,   1.02856E+06,   1.02856E+06
C:/temp/Job-8.odb,Step-1,Increment      1: Step Time =    1.000,"P-8-1",          1375,       42.2281,       89.3941,            0.,NA,NA,"",   779.370E+03,   839.801E+03,   839.801E+03
C:/temp/Job-8.odb,Step-1,Increment      1: Step Time =    1.000,"P-8-1",          1376,       111.582,       43.3063,            0.,NA,NA,"",   1.05501E+06,   1.08188E+06,   1.08188E+06
C:/temp/Job-8.odb,Step-1,Increment      1: Step Time =    1.000,"P-8-1",          1377,       89.1007,       159.189,            0.,NA,NA,"",   1.05127E+06,   1.07928E+06,   1.07928E+06
C:/temp/Job-8.odb,Step-1,Increment      1: Step Time =    1.000,"P-8-1",          1378,       154.805,       113.142,            0.,NA,NA,"",   914.792E+03,   916.490E+03,   916.490E+03
C:/temp/Job-8.odb,Step-1,Increment      1: Step Time =    1.000,"P-8-1",          1379,       59.0604,       122.581,            0.,NA,NA,"",   990.458E+03,   979.285E+03,   979.285E+03
C:/temp/Job-8.odb,Step-1,Increment      1: Step Time =    1.000,"P-8-1",          1380,       78.5184,       55.6596,            0.,NA,NA,"",   1.16038E+06,   1.16648E+06,   1.16648E+06
C:/temp/Job-8.odb,Step-1,Increment      1: Step Time =    1.000,"P-8-1",          1381,       147.872,       74.4569,            0.,NA,NA,"",   1.05846E+06,   1.02174E+06,   1.02174E+06
C:/temp/Job-8.odb,Step-1,Increment      1: Step Time =    1.000,"P-8-1",          1382,       84.9301,       144.006,            0.,NA,NA,"",   1.13405E+06,   1.16299E+06,   1.16299E+06
C:/temp/Job-8.odb,Step-1,Increment      1: Step Time =    1.000,"P-8-1",          1383,       105.998,       138.893,            0.,NA,NA,"",   1.11002E+06,   1.18762E+06,   1.18762E+06
C:/temp/Job-8.odb,Step-1,Increment      1: Step Time =    1.000,"P-8-1",          1384,       47.5678,       119.441,            0.,NA,NA,"",   870.751E+03,   907.653E+03,   907.653E+03
C:/temp/Job-8.odb,Step-1,Increment      1: Step Time =    1.000,"P-8-1",          1385,       80.4009,       51.6698,            0.,NA,NA,"",   1.12670E+06,   1.14201E+06,   1.14201E+06
C:/temp/Job-8.odb,Step-1,Increment      1: Step Time =    1.000,"P-8-1",          1386,       152.489,       79.7503,            0.,NA,NA,"",   987.426E+03,   970.138E+03,   970.138E+03
C:/temp/Job-8.odb,Step-1,Increment      1: Step Time =    1.000,"P-8-1",          1387,       90.3510,       154.821,            0.,NA,NA,"",    1.0593E+06,   1.09444E+06,   1.09444E+06
C:/temp/Job-8.odb,Step-1,Increment      1: Step Time =    1.000,"P-8-1",          1388,       135.586,       100.286,            0.,NA,NA,"",   605.615E+03,   616.499E+03,   616.499E+03
C:/temp/Job-8.odb,Step-1,Increment      1: Step Time =    1.000,"P-8-1",          1389,       101.006,       65.0586,            0.,NA,NA,"",   1.12002E+06,   1.21965E+06,   1.21965E+06
C:/temp/Job-8.odb,Step-1,Increment      1: Step Time =    1.000,"P-8-1",          1390,       63.6147,       100.405,            0.,NA,NA,"",   555.009E+03,   597.215E+03,   597.215E+03
C:/temp/Job-8.odb,Step-1,Increment      1: Step Time =    1.000,"P-8-1",          1391,       129.292,       106.860,            0.,NA,NA,"",   671.170E+03,   615.590E+03,   615.590E+03
C:/temp/Job-8.odb,Step-1,Increment      1: Step Time =    1.000,"P-8-1",          1392,       48.0246,       67.9849,            0.,NA,NA,"",   991.818E+03,   1.00989E+06,   1.00989E+06
C:/temp/Job-8.odb,Step-1,Increment      1: Step Time =    1.000,"P-8-1",          1393,       57.6777,       64.2672,            0.,NA,NA,"",   1.08734E+06,   1.07749E+06,   1.07749E+06
C:/temp/Job-8.odb,Step-1,Increment      1: Step Time =    1.000,"P-8-1",          1394,       135.287,       54.6644,            0.,NA,NA,"",   1.15643E+06,   1.12319E+06,   1.12319E+06
C:/temp/Job-8.odb,Step-1,Increment      1: Step Time =    1.000,"P-8-1",          1395,       58.7442,       59.5009,            0.,NA,NA,"",   1.10739E+06,   1.09743E+06,   1.09743E+06
C:/temp/Job-8.odb,Step-1,Increment      1: Step Time =    1.000,"P-8-1",          1396,       68.6331,       56.7078,            0.,NA,NA,"",   1.15990E+06,   1.14489E+06,   1.14489E+06
C:/temp/Job-8.odb,Step-1,Increment      1: Step Time =    1.000,"P-8-1",          1397,       147.353,       64.1893,            0.,NA,NA,"",   1.11521E+06,   1.07601E+06,   1.07601E+06
C:/temp/Job-8.odb,Step-1,Increment      1: Step Time =    1.000,"P-8-1",          1398,       139.380,       57.5193,            0.,NA,NA,"",   1.15414E+06,   1.11428E+06,   1.11428E+06
C:/temp/Job-8.odb,Step-1,Increment      1: Step Time =    1.000,"P-8-1",          1399,       59.2013,       87.8945,            0.,NA,NA,"",   799.697E+03,   814.748E+03,   814.748E+03
C:/temp/Job-8.odb,Step-1,Increment      1: Step Time =    1.000,"P-8-1",          1400,       111.393,       59.0563,            0.,NA,NA,"",   1.13654E+06,   1.18055E+06,   1.18055E+06
C:/temp/Job-8.odb,Step-1,Increment      1: Step Time =    1.000,"P-8-1",          1401,       160.747,       109.385,            0.,NA,NA,"",   905.090E+03,   918.328E+03,   918.328E+03
C:/temp/Job-8.odb,Step-1,Increment      1: Step Time =    1.000,"P-8-1",          1402,       93.0894,       160.794,            0.,NA,NA,"",   1.03635E+06,   1.06698E+06,   1.06698E+06
C:/temp/Job-8.odb,Step-1,Increment      1: Step Time =    1.000,"P-8-1",          1403,       40.2904,       92.4378,            0.,NA,NA,"",   762.540E+03,   828.495E+03,   828.495E+03
C:/temp/Job-8.odb,Step-1,Increment      1: Step Time =    1.000,"P-8-1",          1404,       107.193,       39.6762,            0.,NA,NA,"",   1.03334E+06,   1.06377E+06,   1.06377E+06
C:/temp/Job-8.odb,Step-1,Increment      1: Step Time =    1.000,"P-8-1",          1405,       48.0888,       72.5497,            0.,NA,NA,"",   956.187E+03,   978.335E+03,   978.335E+03
C:/temp/Job-8.odb,Step-1,Increment      1: Step Time =    1.000,"P-8-1",          1406,       129.364,       47.5388,            0.,NA,NA,"",   1.12702E+06,   1.11196E+06,   1.11196E+06
C:/temp/Job-8.odb,Step-1,Increment      1: Step Time =    1.000,"P-8-1",          1407,       156.164,       125.179,            0.,NA,NA,"",   1.01320E+06,   997.105E+03,   997.105E+03
C:/temp/Job-8.odb,Step-1,Increment      1: Step Time =    1.000,"P-8-1",          1408,       71.4893,       151.559,            0.,NA,NA,"",   1.12792E+06,   1.12680E+06,   1.12680E+06
C:/temp/Job-8.odb,Step-1,Increment      1: Step Time =    1.000,"P-8-1",          1409,       54.1510,       103.296,            0.,NA,NA,"",   693.528E+03,   745.168E+03,   745.168E+03
C:/temp/Job-8.odb,Step-1,Increment      1: Step Time =    1.000,"P-8-1",          1410,       98.2020,       56.5111,            0.,NA,NA,"",   1.07125E+06,   1.14143E+06,   1.14143E+06
C:/temp/Job-8.odb,Step-1,Increment      1: Step Time =    1.000,"P-8-1",          1411,       144.095,       99.0131,            0.,NA,NA,"",   742.378E+03,   757.136E+03,   757.136E+03
C:/temp/Job-8.odb,Step-1,Increment      1: Step Time =    1.000,"P-8-1",          1412,       44.2754,       85.6981,            0.,NA,NA,"",   812.638E+03,   864.197E+03,   864.197E+03
C:/temp/Job-8.odb,Step-1,Increment      1: Step Time =    1.000,"P-8-1",          1413,       117.032,       45.5335,            0.,NA,NA,"",   1.08250E+06,   1.09880E+06,   1.09880E+06
C:/temp/Job-8.odb,Step-1,Increment      1: Step Time =    1.000,"P-8-1",          1414,       44.6845,       136.627,            0.,NA,NA,"",   994.306E+03,   1.01853E+06,   1.01853E+06
C:/temp/Job-8.odb,Step-1,Increment      1: Step Time =    1.000,"P-8-1",          1415,       153.416,       61.8419,            0.,NA,NA,"",   1.08748E+06,   1.05899E+06,   1.05899E+06
C:/temp/Job-8.odb,Step-1,Increment      1: Step Time =    1.000,"P-8-1",          1416,       65.5491,       50.6074,            0.,NA,NA,"",   1.13171E+06,   1.12346E+06,   1.12346E+06
C:/temp/Job-8.odb,Step-1,Increment      1: Step Time =    1.000,"P-8-1",          1417,       138.176,       153.533,            0.,NA,NA,"",   1.11824E+06,   1.09490E+06,   1.09490E+06
C:/temp/Job-8.odb,Step-1,Increment      1: Step Time =    1.000,"P-8-1",          1418,       86.3652,       153.909,            0.,NA,NA,"",   1.07747E+06,   1.10540E+06,   1.10540E+06
C:/temp/Job-8.odb,Step-1,Increment      1: Step Time =    1.000,"P-8-1",          1419,       153.490,       116.984,            0.,NA,NA,"",   950.947E+03,   942.824E+03,   942.824E+03
C:/temp/Job-8.odb,Step-1,Increment      1: Step Time =    1.000,"P-8-1",          1420,       109.845,       137.077,            0.,NA,NA,"",   1.15733E+06,   1.21583E+06,   1.21583E+06
C:/temp/Job-8.odb,Step-1,Increment      1: Step Time =    1.000,"P-8-1",          1421,       44.7354,       116.813,            0.,NA,NA,"",   834.452E+03,   882.354E+03,   882.354E+03
C:/temp/Job-8.odb,Step-1,Increment      1: Step Time =    1.000,"P-8-1",          1422,       86.5859,       49.7595,            0.,NA,NA,"",   1.08999E+06,   1.12263E+06,   1.12263E+06
C:/temp/Job-8.odb,Step-1,Increment      1: Step Time =    1.000,"P-8-1",          1423,       153.078,       84.4841,            0.,NA,NA,"",   936.935E+03,   930.486E+03,   930.486E+03
C:/temp/Job-8.odb,Step-1,Increment      1: Step Time =    1.000,"P-8-1",          1424,       95.4036,       151.294,            0.,NA,NA,"",   1.05200E+06,   1.10138E+06,   1.10138E+06
C:/temp/Job-8.odb,Step-1,Increment      1: Step Time =    1.000,"P-8-1",          1425,       137.859,       36.0401,            0.,NA,NA,"",   1.07383E+06,   1.06146E+06,   1.06146E+06
C:/temp/Job-8.odb,Step-1,Increment      1: Step Time =    1.000,"P-8-1",          1426,       39.9042,       61.1616,            0.,NA,NA,"",   980.904E+03,   1.01434E+06,   1.01434E+06
C:/temp/Job-8.odb,Step-1,Increment      1: Step Time =    1.000,"P-8-1",          1427,       162.588,       137.235,            0.,NA,NA,"",   1.04418E+06,   1.03095E+06,   1.03095E+06
C:/temp/Job-8.odb,Step-1,Increment      1: Step Time =    1.000,"P-8-1",          1428,       57.4018,       163.084,            0.,NA,NA,"",   1.09041E+06,   1.09005E+06,   1.09005E+06
C:/temp/Job-8.odb,Step-1,Increment      1: Step Time =    1.000,"P-8-1",          1429,       57.0417,       97.6487,            0.,NA,NA,"",   650.701E+03,   700.757E+03,   700.757E+03
C:/temp/Job-8.odb,Step-1,Increment      1: Step Time =    1.000,"P-8-1",          1430,       102.072,       55.5558,            0.,NA,NA,"",   1.06626E+06,   1.13338E+06,   1.13338E+06
C:/temp/Job-8.odb,Step-1,Increment      1: Step Time =    1.000,"P-8-1",          1431,       50.6920,       39.0244,            0.,NA,NA,"",   1.08366E+06,   1.08813E+06,   1.08813E+06
C:/temp/Job-8.odb,Step-1,Increment      1: Step Time =    1.000,"P-8-1",          1432,       162.528,       49.0888,            0.,NA,NA,"",   1.05635E+06,   1.04304E+06,   1.04304E+06
C:/temp/Job-8.odb,Step-1,Increment      1: Step Time =    1.000,"P-8-1",          1433,       40.9747,       151.567,            0.,NA,NA,"",   1.03858E+06,   1.06214E+06,   1.06214E+06
C:/temp/Job-8.odb,Step-1,Increment      1: Step Time =    1.000,"P-8-1",          1434,       151.795,       161.719,            0.,NA,NA,"",   1.06738E+06,   1.05199E+06,   1.05199E+06
C:/temp/Job-8.odb,Step-1,Increment      1: Step Time =    1.000,"P-8-1",          1435,       59.9513,       54.6265,            0.,NA,NA,"",   1.11762E+06,   1.10894E+06,   1.10894E+06
C:/temp/Job-8.odb,Step-1,Increment      1: Step Time =    1.000,"P-8-1",          1436,       144.718,       58.5601,            0.,NA,NA,"",   1.13135E+06,   1.09368E+06,   1.09368E+06
C:/temp/Job-8.odb,Step-1,Increment      1: Step Time =    1.000,"P-8-1",          1437,       80.7349,       143.499,            0.,NA,NA,"",   1.15563E+06,   1.16876E+06,   1.16876E+06
C:/temp/Job-8.odb,Step-1,Increment      1: Step Time =    1.000,"P-8-1",          1438,       151.519,       65.7717,            0.,NA,NA,"",   1.08755E+06,   1.05539E+06,   1.05539E+06
C:/temp/Job-8.odb,Step-1,Increment      1: Step Time =    1.000,"P-8-1",          1439,       69.9139,       51.9863,            0.,NA,NA,"",   1.14420E+06,   1.13668E+06,   1.13668E+06
C:/temp/Job-8.odb,Step-1,Increment      1: Step Time =    1.000,"P-8-1",          1440,       139.422,       99.5993,            0.,NA,NA,"",   671.809E+03,   685.229E+03,   685.229E+03
C:/temp/Job-8.odb,Step-1,Increment      1: Step Time =    1.000,"P-8-1",          1441,       36.5570,       152.361,            0.,NA,NA,"",   1.02144E+06,   1.05363E+06,   1.05363E+06
C:/temp/Job-8.odb,Step-1,Increment      1: Step Time =    1.000,"P-8-1",          1442,       148.687,       164.950,            0.,NA,NA,"",   1.06292E+06,   1.04922E+06,   1.04922E+06
C:/temp/Job-8.odb,Step-1,Increment      1: Step Time =    1.000,"P-8-1",          1443,       48.0036,       33.8218,            0.,NA,NA,"",   1.07870E+06,   1.08514E+06,   1.08514E+06
C:/temp/Job-8.odb,Step-1,Increment      1: Step Time =    1.000,"P-8-1",          1444,       166.178,       50.4541,            0.,NA,NA,"",   1.04669E+06,   1.03663E+06,   1.03663E+06
C:/temp/Job-8.odb,Step-1,Increment      1: Step Time =    1.000,"P-8-1",          1445,       133.530,       112.624,            0.,NA,NA,"",   915.027E+03,   848.108E+03,   848.108E+03
C:/temp/Job-8.odb,Step-1,Increment      1: Step Time =    1.000,"P-8-1",          1446,       123.725,       118.077,            0.,NA,NA,"",   1.29695E+06,   1.15573E+06,   1.15573E+06
C:/temp/Job-8.odb,Step-1,Increment      1: Step Time =    1.000,"P-8-1",          1447,       58.1497,       126.886,            0.,NA,NA,"",   1.03425E+06,   1.02208E+06,   1.02208E+06
C:/temp/Job-8.odb,Step-1,Increment      1: Step Time =    1.000,"P-8-1",          1448,       100.306,       39.4155,            0.,NA,NA,"",   1.02774E+06,   1.06092E+06,   1.06092E+06
C:/temp/Job-8.odb,Step-1,Increment      1: Step Time =    1.000,"P-8-1",          1449,       43.5238,       100.473,            0.,NA,NA,"",   741.109E+03,   805.730E+03,   805.730E+03
C:/temp/Job-8.odb,Step-1,Increment      1: Step Time =    1.000,"P-8-1",          1450,       98.0937,       156.449,            0.,NA,NA,"",   1.03474E+06,   1.07569E+06,   1.07569E+06
C:/temp/Job-8.odb,Step-1,Increment      1: Step Time =    1.000,"P-8-1",          1451,       157.682,       100.101,            0.,NA,NA,"",   859.284E+03,   877.708E+03,   877.708E+03
C:/temp/Job-8.odb,Step-1,Increment      1: Step Time =    1.000,"P-8-1",          1452,       139.893,       104.234,            0.,NA,NA,"",   715.106E+03,   721.501E+03,   721.501E+03
C:/temp/Job-8.odb,Step-1,Increment      1: Step Time =    1.000,"P-8-1",          1453,       99.8624,       50.8355,            0.,NA,NA,"",   1.05151E+06,   1.10656E+06,   1.10656E+06
C:/temp/Job-8.odb,Step-1,Increment      1: Step Time =    1.000,"P-8-1",          1454,       148.408,       98.5506,            0.,NA,NA,"",   792.911E+03,   808.685E+03,   808.685E+03
C:/temp/Job-8.odb,Step-1,Increment      1: Step Time =    1.000,"P-8-1",          1455,       50.7745,       103.303,            0.,NA,NA,"",   715.833E+03,   771.995E+03,   771.995E+03
C:/temp/Job-8.odb,Step-1,Increment      1: Step Time =    1.000,"P-8-1",          1456,       54.1584,       58.2871,            0.,NA,NA,"",   1.07965E+06,   1.07897E+06,   1.07897E+06
C:/temp/Job-8.odb,Step-1,Increment      1: Step Time =    1.000,"P-8-1",          1457,       141.911,       51.9618,            0.,NA,NA,"",   1.12714E+06,   1.09676E+06,   1.09676E+06
C:/temp/Job-8.odb,Step-1,Increment      1: Step Time =    1.000,"P-8-1",          1458,       66.3013,       165.865,            0.,NA,NA,"",   1.08239E+06,   1.08256E+06,   1.08256E+06
C:/temp/Job-8.odb,Step-1,Increment      1: Step Time =    1.000,"P-8-1",          1459,       168.480,       134.331,            0.,NA,NA,"",   1.01878E+06,   1.01599E+06,   1.01599E+06
C:/temp/Job-8.odb,Step-1,Increment      1: Step Time =    1.000,"P-8-1",          1460,       131.148,       32.8283,            0.,NA,NA,"",   1.05952E+06,   1.05384E+06,   1.05384E+06
C:/temp/Job-8.odb,Step-1,Increment      1: Step Time =    1.000,"P-8-1",          1461,       31.0753,       69.0221,            0.,NA,NA,"",   890.067E+03,   950.605E+03,   950.605E+03
C:/temp/Job-8.odb,Step-1,Increment      1: Step Time =    1.000,"P-8-1",          1462,       43.6260,       76.6124,            0.,NA,NA,"",   892.769E+03,   933.211E+03,   933.211E+03
C:/temp/Job-8.odb,Step-1,Increment      1: Step Time =    1.000,"P-8-1",          1463,       122.925,       46.8980,            0.,NA,NA,"",   1.11085E+06,   1.11096E+06,   1.11096E+06
C:/temp/Job-8.odb,Step-1,Increment      1: Step Time =    1.000,"P-8-1",          1464,       155.666,       121.781,            0.,NA,NA,"",   990.926E+03,   978.303E+03,   978.303E+03
C:/temp/Job-8.odb,Step-1,Increment      1: Step Time =    1.000,"P-8-1",          1465,       78.2313,       155.461,            0.,NA,NA,"",   1.09932E+06,   1.11027E+06,   1.11027E+06
C:/temp/Job-8.odb,Step-1,Increment      1: Step Time =    1.000,"P-8-1",          1466,       67.3865,       151.783,            0.,NA,NA,"",   1.12612E+06,   1.12119E+06,   1.12119E+06
C:/temp/Job-8.odb,Step-1,Increment      1: Step Time =    1.000,"P-8-1",          1467,       151.791,       129.299,            0.,NA,NA,"",   1.05988E+06,   1.03000E+06,   1.03000E+06
C:/temp/Job-8.odb,Step-1,Increment      1: Step Time =    1.000,"P-8-1",          1468,       47.8805,       81.0779,            0.,NA,NA,"",   863.734E+03,   899.952E+03,   899.952E+03
C:/temp/Job-8.odb,Step-1,Increment      1: Step Time =    1.000,"P-8-1",          1469,       119.166,       49.3283,            0.,NA,NA,"",   1.11158E+06,   1.12184E+06,   1.12184E+06
C:/temp/Job-8.odb,Step-1,Increment      1: Step Time =    1.000,"P-8-1",          1470,       44.8400,       127.370,            0.,NA,NA,"",   930.844E+03,   963.709E+03,   963.709E+03
C:/temp/Job-8.odb,Step-1,Increment      1: Step Time =    1.000,"P-8-1",          1471,       44.6393,       140.799,            0.,NA,NA,"",   1.01521E+06,   1.03680E+06,   1.03680E+06
C:/temp/Job-8.odb,Step-1,Increment      1: Step Time =    1.000,"P-8-1",          1472,       150.813,       56.3663,            0.,NA,NA,"",   1.10217E+06,   1.07267E+06,   1.07267E+06
C:/temp/Job-8.odb,Step-1,Increment      1: Step Time =    1.000,"P-8-1",          1473,       61.2219,       49.7269,            0.,NA,NA,"",   1.11797E+06,   1.11147E+06,   1.11147E+06
C:/temp/Job-8.odb,Step-1,Increment      1: Step Time =    1.000,"P-8-1",          1474,       132.999,       152.367,            0.,NA,NA,"",   1.12939E+06,   1.10920E+06,   1.10920E+06
C:/temp/Job-8.odb,Step-1,Increment      1: Step Time =    1.000,"P-8-1",          1475,       143.114,       151.859,            0.,NA,NA,"",   1.11329E+06,   1.08705E+06,   1.08705E+06
C:/temp/Job-8.odb,Step-1,Increment      1: Step Time =    1.000,"P-8-1",          1476,       150.440,       110.622,            0.,NA,NA,"",   877.928E+03,   879.200E+03,   879.200E+03
C:/temp/Job-8.odb,Step-1,Increment      1: Step Time =    1.000,"P-8-1",          1477,       111.632,       142.226,            0.,NA,NA,"",   1.12876E+06,   1.16897E+06,   1.16897E+06
C:/temp/Job-8.odb,Step-1,Increment      1: Step Time =    1.000,"P-8-1",          1478,       107.509,       132.322,            0.,NA,NA,"",   1.20042E+06,   1.28588E+06,   1.28588E+06
C:/temp/Job-8.odb,Step-1,Increment      1: Step Time =    1.000,"P-8-1",          1479,       44.5611,       121.953,            0.,NA,NA,"",   883.695E+03,   924.289E+03,   924.289E+03
C:/temp/Job-8.odb,Step-1,Increment      1: Step Time =    1.000,"P-8-1",          1480,       47.6390,       114.007,            0.,NA,NA,"",   812.835E+03,   858.219E+03,   858.219E+03
C:/temp/Job-8.odb,Step-1,Increment      1: Step Time =    1.000,"P-8-1",          1481,       82.3269,       47.5097,            0.,NA,NA,"",   1.09801E+06,   1.11860E+06,   1.11860E+06
C:/temp/Job-8.odb,Step-1,Increment      1: Step Time =    1.000,"P-8-1",          1482,       157.706,       79.6285,            0.,NA,NA,"",   978.285E+03,   971.025E+03,   971.025E+03
C:/temp/Job-8.odb,Step-1,Increment      1: Step Time =    1.000,"P-8-1",          1483,       149.828,       91.9186,            0.,NA,NA,"",   841.275E+03,   848.506E+03,   848.506E+03
C:/temp/Job-8.odb,Step-1,Increment      1: Step Time =    1.000,"P-8-1",          1484,       143.852,       40.7899,            0.,NA,NA,"",   1.08663E+06,   1.06825E+06,   1.06825E+06
C:/temp/Job-8.odb,Step-1,Increment      1: Step Time =    1.000,"P-8-1",          1485,       39.2207,       56.9154,            0.,NA,NA,"",   995.321E+03,   1.02831E+06,   1.02831E+06
C:/temp/Job-8.odb,Step-1,Increment      1: Step Time =    1.000,"P-8-1",          1486,       160.083,       138.860,            0.,NA,NA,"",   1.05582E+06,   1.03879E+06,   1.03879E+06
C:/temp/Job-8.odb,Step-1,Increment      1: Step Time =    1.000,"P-8-1",          1487,       56.1971,       159.259,            0.,NA,NA,"",   1.09526E+06,   1.09478E+06,   1.09478E+06
C:/temp/Job-8.odb,Step-1,Increment      1: Step Time =    1.000,"P-8-1",          1488,       49.6660,       43.4061,            0.,NA,NA,"",   1.08033E+06,   1.08651E+06,   1.08651E+06
C:/temp/Job-8.odb,Step-1,Increment      1: Step Time =    1.000,"P-8-1",          1489,       159.099,       45.2286,            0.,NA,NA,"",   1.06213E+06,   1.04728E+06,   1.04728E+06
C:/temp/Job-8.odb,Step-1,Increment      1: Step Time =    1.000,"P-8-1",          1490,       43.2861,       154.078,            0.,NA,NA,"",   1.05410E+06,   1.07208E+06,   1.07208E+06
C:/temp/Job-8.odb,Step-1,Increment      1: Step Time =    1.000,"P-8-1",          1491,       153.578,       155.564,            0.,NA,NA,"",   1.07876E+06,   1.05939E+06,   1.05939E+06
C:/temp/Job-8.odb,Step-1,Increment      1: Step Time =    1.000,"P-8-1",          1492,       125.228,       121.977,            0.,NA,NA,"",   1.31014E+06,   1.19882E+06,   1.19882E+06
C:/temp/Job-8.odb,Step-1,Increment      1: Step Time =    1.000,"P-8-1",          1493,       134.226,       108.047,            0.,NA,NA,"",   747.808E+03,   717.835E+03,   717.835E+03
C:/temp/Job-8.odb,Step-1,Increment      1: Step Time =    1.000,"P-8-1",          1494,       129.048,       121.680,            0.,NA,NA,"",   1.24226E+06,   1.13339E+06,   1.13339E+06
C:/temp/Job-8.odb,Step-1,Increment      1: Step Time =    1.000,"P-8-1",          1495,       119.676,       120.009,            0.,NA,NA,"",   1.42033E+06,   1.30072E+06,   1.30072E+06
C:/temp/Job-8.odb,Step-1,Increment      1: Step Time =    1.000,"P-8-1",          1496,       79.1933,       152.027,            0.,NA,NA,"",   1.11186E+06,   1.12409E+06,   1.12409E+06
C:/temp/Job-8.odb,Step-1,Increment      1: Step Time =    1.000,"P-8-1",          1497,       150.182,       105.864,            0.,NA,NA,"",   825.903E+03,   837.568E+03,   837.568E+03
C:/temp/Job-8.odb,Step-1,Increment      1: Step Time =    1.000,"P-8-1",          1498,       103.021,       42.3291,            0.,NA,NA,"",   1.03366E+06,   1.07081E+06,   1.07081E+06
C:/temp/Job-8.odb,Step-1,Increment      1: Step Time =    1.000,"P-8-1",          1499,       46.7725,       97.9085,            0.,NA,NA,"",   726.836E+03,   788.152E+03,   788.152E+03
C:/temp/Job-8.odb,Step-1,Increment      1: Step Time =    1.000,"P-8-1",          1500,       152.530,       97.8200,            0.,NA,NA,"",   829.116E+03,   845.655E+03,   845.655E+03
C:/temp/Job-8.odb,Step-1,Increment      1: Step Time =    1.000,"P-8-1",          1501,       102.941,       153.190,            0.,NA,NA,"",   1.04165E+06,   1.08845E+06,   1.08845E+06
C:/temp/Job-8.odb,Step-1,Increment      1: Step Time =    1.000,"P-8-1",          1502,       49.1685,       105.695,            0.,NA,NA,"",   733.725E+03,   789.960E+03,   789.960E+03
C:/temp/Job-8.odb,Step-1,Increment      1: Step Time =    1.000,"P-8-1",          1503,       97.5762,       46.9806,            0.,NA,NA,"",   1.04353E+06,   1.08947E+06,   1.08947E+06
C:/temp/Job-8.odb,Step-1,Increment      1: Step Time =    1.000,"P-8-1",          1504,       54.5956,       131.087,            0.,NA,NA,"",   1.03392E+06,   1.03260E+06,   1.03260E+06
C:/temp/Job-8.odb,Step-1,Increment      1: Step Time =    1.000,"P-8-1",          1505,       79.9978,       147.846,            0.,NA,NA,"",   1.13062E+06,   1.14395E+06,   1.14395E+06
C:/temp/Job-8.odb,Step-1,Increment      1: Step Time =    1.000,"P-8-1",          1506,       153.625,       71.1715,            0.,NA,NA,"",   1.05059E+06,   1.02480E+06,   1.02480E+06
C:/temp/Job-8.odb,Step-1,Increment      1: Step Time =    1.000,"P-8-1",          1507,       71.5026,       47.1368,            0.,NA,NA,"",   1.12337E+06,   1.12242E+06,   1.12242E+06
C:/temp/Job-8.odb,Step-1,Increment      1: Step Time =    1.000,"P-8-1",          1508,       63.8180,       129.951,            0.,NA,NA,"",   1.12326E+06,   1.09162E+06,   1.09162E+06
C:/temp/Job-8.odb,Step-1,Increment      1: Step Time =    1.000,"P-8-1",          1509,       35.2824,       56.7095,            0.,NA,NA,"",   976.851E+03,   1.01860E+06,   1.01860E+06
C:/temp/Job-8.odb,Step-1,Increment      1: Step Time =    1.000,"P-8-1",          1510,       139.533,       32.2646,            0.,NA,NA,"",   1.05892E+06,   1.04840E+06,   1.04840E+06
C:/temp/Job-8.odb,Step-1,Increment      1: Step Time =    1.000,"P-8-1",          1511,       55.1270,       168.059,            0.,NA,NA,"",   1.08169E+06,   1.08231E+06,   1.08231E+06
C:/temp/Job-8.odb,Step-1,Increment      1: Step Time =    1.000,"P-8-1",          1512,       165.612,       139.321,            0.,NA,NA,"",   1.03867E+06,   1.02914E+06,   1.02914E+06
C:/temp/Job-8.odb,Step-1,Increment      1: Step Time =    1.000,"P-8-1",          1513,       117.246,       145.689,            0.,NA,NA,"",   1.13727E+06,   1.15070E+06,   1.15070E+06
C:/temp/Job-8.odb,Step-1,Increment      1: Step Time =    1.000,"P-8-1",          1514,       113.806,       135.422,            0.,NA,NA,"",   1.21186E+06,   1.23790E+06,   1.23790E+06
C:/temp/Job-8.odb,Step-1,Increment      1: Step Time =    1.000,"P-8-1",          1515,       48.2158,       77.1579,            0.,NA,NA,"",   911.672E+03,   939.834E+03,   939.834E+03
C:/temp/Job-8.odb,Step-1,Increment      1: Step Time =    1.000,"P-8-1",          1516,       62.8963,       152.453,            0.,NA,NA,"",   1.11721E+06,   1.11207E+06,   1.11207E+06
C:/temp/Job-8.odb,Step-1,Increment      1: Step Time =    1.000,"P-8-1",          1517,       75.4006,       151.626,            0.,NA,NA,"",   1.12285E+06,   1.12775E+06,   1.12775E+06
C:/temp/Job-8.odb,Step-1,Increment      1: Step Time =    1.000,"P-8-1",          1518,       152.163,       120.784,            0.,NA,NA,"",   990.957E+03,   972.868E+03,   972.868E+03
C:/temp/Job-8.odb,Step-1,Increment      1: Step Time =    1.000,"P-8-1",          1519,       157.224,       134.604,            0.,NA,NA,"",   1.05857E+06,   1.03712E+06,   1.03712E+06
C:/temp/Job-8.odb,Step-1,Increment      1: Step Time =    1.000,"P-8-1",          1520,       43.7596,       80.8571,            0.,NA,NA,"",   855.423E+03,   901.294E+03,   901.294E+03
C:/temp/Job-8.odb,Step-1,Increment      1: Step Time =    1.000,"P-8-1",          1521,       47.7593,       131.000,            0.,NA,NA,"",   977.826E+03,   998.654E+03,   998.654E+03
C:/temp/Job-8.odb,Step-1,Increment      1: Step Time =    1.000,"P-8-1",          1522,       155.346,       109.403,            0.,NA,NA,"",   885.138E+03,    893.87E+03,    893.87E+03
C:/temp/Job-8.odb,Step-1,Increment      1: Step Time =    1.000,"P-8-1",          1523,       107.731,       143.726,            0.,NA,NA,"",   1.08782E+06,   1.14543E+06,   1.14543E+06
C:/temp/Job-8.odb,Step-1,Increment      1: Step Time =    1.000,"P-8-1",          1524,       43.8311,       111.652,            0.,NA,NA,"",   789.221E+03,   845.278E+03,   845.278E+03
C:/temp/Job-8.odb,Step-1,Increment      1: Step Time =    1.000,"P-8-1",          1525,       50.5500,       122.111,            0.,NA,NA,"",   914.155E+03,   938.128E+03,   938.128E+03
C:/temp/Job-8.odb,Step-1,Increment      1: Step Time =    1.000,"P-8-1",          1526,       88.4934,       45.5989,            0.,NA,NA,"",   1.06563E+06,   1.09815E+06,   1.09815E+06
C:/temp/Job-8.odb,Step-1,Increment      1: Step Time =    1.000,"P-8-1",          1527,       153.033,       89.4356,            0.,NA,NA,"",   880.248E+03,   884.881E+03,   884.881E+03
C:/temp/Job-8.odb,Step-1,Increment      1: Step Time =    1.000,"P-8-1",          1528,       140.179,       46.5999,            0.,NA,NA,"",   1.11352E+06,   1.08966E+06,   1.08966E+06
C:/temp/Job-8.odb,Step-1,Increment      1: Step Time =    1.000,"P-8-1",          1529,       143.568,       36.1570,            0.,NA,NA,"",   1.07185E+06,   1.05734E+06,   1.05734E+06
C:/temp/Job-8.odb,Step-1,Increment      1: Step Time =    1.000,"P-8-1",          1530,       48.5820,       60.7123,            0.,NA,NA,"",   1.03671E+06,   1.04891E+06,   1.04891E+06
C:/temp/Job-8.odb,Step-1,Increment      1: Step Time =    1.000,"P-8-1",          1531,       37.1514,       53.6022,            0.,NA,NA,"",   999.909E+03,   1.03509E+06,   1.03509E+06
C:/temp/Job-8.odb,Step-1,Increment      1: Step Time =    1.000,"P-8-1",          1532,       155.280,       138.128,            0.,NA,NA,"",   1.07706E+06,   1.05144E+06,   1.05144E+06
C:/temp/Job-8.odb,Step-1,Increment      1: Step Time =    1.000,"P-8-1",          1533,       163.462,       141.796,            0.,NA,NA,"",   1.04925E+06,   1.03649E+06,   1.03649E+06
C:/temp/Job-8.odb,Step-1,Increment      1: Step Time =    1.000,"P-8-1",          1534,       53.3619,       164.413,            0.,NA,NA,"",   1.08554E+06,   1.08731E+06,   1.08731E+06
C:/temp/Job-8.odb,Step-1,Increment      1: Step Time =    1.000,"P-8-1",          1535,       58.4413,       153.670,            0.,NA,NA,"",   1.10607E+06,   1.10295E+06,   1.10295E+06
C:/temp/Job-8.odb,Step-1,Increment      1: Step Time =    1.000,"P-8-1",          1536,       52.6756,       48.2983,            0.,NA,NA,"",   1.08704E+06,   1.08972E+06,   1.08972E+06
C:/temp/Job-8.odb,Step-1,Increment      1: Step Time =    1.000,"P-8-1",          1537,       153.300,       47.9637,            0.,NA,NA,"",   1.08295E+06,   1.06211E+06,   1.06211E+06
C:/temp/Job-8.odb,Step-1,Increment      1: Step Time =    1.000,"P-8-1",          1538,       46.7676,       150.832,            0.,NA,NA,"",   1.06173E+06,   1.07420E+06,   1.07420E+06
C:/temp/Job-8.odb,Step-1,Increment      1: Step Time =    1.000,"P-8-1",          1539,       151.695,       151.869,            0.,NA,NA,"",   1.08940E+06,   1.06677E+06,   1.06677E+06
C:/temp/Job-8.odb,Step-1,Increment      1: Step Time =    1.000,"P-8-1",          1540,       112.985,       117.998,            0.,NA,NA,"",   1.47324E+06,   1.44844E+06,   1.44844E+06
C:/temp/Job-8.odb,Step-1,Increment      1: Step Time =    1.000,"P-8-1",          1541,       107.050,       44.9521,            0.,NA,NA,"",   1.04592E+06,   1.08371E+06,   1.08371E+06
C:/temp/Job-8.odb,Step-1,Increment      1: Step Time =    1.000,"P-8-1",          1542,       46.4282,       92.1393,            0.,NA,NA,"",   750.845E+03,   808.413E+03,   808.413E+03
C:/temp/Job-8.odb,Step-1,Increment      1: Step Time =    1.000,"P-8-1",          1543,       106.288,       154.224,            0.,NA,NA,"",   1.04636E+06,   1.08631E+06,   1.08631E+06
C:/temp/Job-8.odb,Step-1,Increment      1: Step Time =    1.000,"P-8-1",          1544,       153.684,       101.365,            0.,NA,NA,"",   833.010E+03,   850.309E+03,   850.309E+03
C:/temp/Job-8.odb,Step-1,Increment      1: Step Time =    1.000,"P-8-1",          1545,       49.1457,       100.822,            0.,NA,NA,"",   717.090E+03,   775.736E+03,   775.736E+03
C:/temp/Job-8.odb,Step-1,Increment      1: Step Time =    1.000,"P-8-1",          1546,       100.698,       44.9902,            0.,NA,NA,"",   1.03822E+06,   1.08082E+06,   1.08082E+06
C:/temp/Job-8.odb,Step-1,Increment      1: Step Time =    1.000,"P-8-1",          1547,       51.0650,       128.093,            0.,NA,NA,"",   978.483E+03,   992.021E+03,   992.021E+03
C:/temp/Job-8.odb,Step-1,Increment      1: Step Time =    1.000,"P-8-1",          1548,       58.6441,       133.298,            0.,NA,NA,"",   1.08749E+06,   1.07266E+06,   1.07266E+06
C:/temp/Job-8.odb,Step-1,Increment      1: Step Time =    1.000,"P-8-1",          1549,       155.719,       67.4014,            0.,NA,NA,"",   1.06052E+06,   1.03658E+06,   1.03658E+06
C:/temp/Job-8.odb,Step-1,Increment      1: Step Time =    1.000,"P-8-1",          1550,       67.0478,       45.2946,            0.,NA,NA,"",   1.11706E+06,   1.11337E+06,   1.11337E+06
C:/temp/Job-8.odb,Step-1,Increment      1: Step Time =    1.000,"P-8-1",          1551,       68.3118,       129.809,            0.,NA,NA,"",   1.18162E+06,   1.13658E+06,   1.13658E+06
C:/temp/Job-8.odb,Step-1,Increment      1: Step Time =    1.000,"P-8-1",          1552,       76.3928,       143.180,            0.,NA,NA,"",   1.16761E+06,   1.16675E+06,   1.16675E+06
C:/temp/Job-8.odb,Step-1,Increment      1: Step Time =    1.000,"P-8-1",          1553,       49.6194,       56.7588,            0.,NA,NA,"",   1.05532E+06,   1.06436E+06,   1.06436E+06
C:/temp/Job-8.odb,Step-1,Increment      1: Step Time =    1.000,"P-8-1",          1554,       145.311,       48.9812,            0.,NA,NA,"",   1.10895E+06,   1.08281E+06,   1.08281E+06
C:/temp/Job-8.odb,Step-1,Increment      1: Step Time =    1.000,"P-8-1",          1555,       147.812,       119.777,            0.,NA,NA,"",   993.692E+03,   966.839E+03,   966.839E+03
C:/temp/Job-8.odb,Step-1,Increment      1: Step Time =    1.000,"P-8-1",          1556,       112.718,       124.398,            0.,NA,NA,"",   1.37592E+06,   1.38591E+06,   1.38591E+06
C:/temp/Job-8.odb,Step-1,Increment      1: Step Time =    1.000,"P-8-1",          1557,       123.591,       139.255,            0.,NA,NA,"",   1.21087E+06,   1.18697E+06,   1.18697E+06
C:/temp/Job-8.odb,Step-1,Increment      1: Step Time =    1.000,"P-8-1",          1558,       111.555,       129.263,            0.,NA,NA,"",   1.29432E+06,   1.33580E+06,   1.33580E+06
C:/temp/Job-8.odb,Step-1,Increment      1: Step Time =    1.000,"P-8-1",          1559,       44.1664,       55.2211,            0.,NA,NA,"",   1.02913E+06,   1.04972E+06,   1.04972E+06
C:/temp/Job-8.odb,Step-1,Increment      1: Step Time =    1.000,"P-8-1",          1560,       144.545,       45.2781,            0.,NA,NA,"",   1.10024E+06,   1.07753E+06,   1.07753E+06
C:/temp/Job-8.odb,Step-1,Increment      1: Step Time =    1.000,"P-8-1",          1561,       157.307,       141.873,            0.,NA,NA,"",   1.07244E+06,   1.05063E+06,   1.05063E+06
C:/temp/Job-8.odb,Step-1,Increment      1: Step Time =    1.000,"P-8-1",          1562,       55.2917,       155.744,            0.,NA,NA,"",   1.09721E+06,   1.09661E+06,   1.09661E+06
C:/temp/Job-8.odb,Step-1,Increment      1: Step Time =    1.000,"P-8-1",          1563,       48.8529,       47.5352,            0.,NA,NA,"",   1.07390E+06,   1.08207E+06,   1.08207E+06
C:/temp/Job-8.odb,Step-1,Increment      1: Step Time =    1.000,"P-8-1",          1564,       56.9030,       49.0779,            0.,NA,NA,"",   1.10246E+06,   1.09983E+06,   1.09983E+06
C:/temp/Job-8.odb,Step-1,Increment      1: Step Time =    1.000,"P-8-1",          1565,       153.118,       52.7580,            0.,NA,NA,"",   1.09106E+06,   1.06629E+06,   1.06629E+06
C:/temp/Job-8.odb,Step-1,Increment      1: Step Time =    1.000,"P-8-1",          1566,       153.743,       44.3777,            0.,NA,NA,"",   1.07582E+06,   1.05744E+06,   1.05744E+06
C:/temp/Job-8.odb,Step-1,Increment      1: Step Time =    1.000,"P-8-1",          1567,       43.7924,       144.888,            0.,NA,NA,"",   1.02781E+06,   1.04925E+06,   1.04925E+06
C:/temp/Job-8.odb,Step-1,Increment      1: Step Time =    1.000,"P-8-1",          1568,       45.7553,       157.585,            0.,NA,NA,"",   1.06901E+06,   1.08121E+06,   1.08121E+06
C:/temp/Job-8.odb,Step-1,Increment      1: Step Time =    1.000,"P-8-1",          1569,       158.086,       153.179,            0.,NA,NA,"",   1.06818E+06,   1.05113E+06,   1.05113E+06
C:/temp/Job-8.odb,Step-1,Increment      1: Step Time =    1.000,"P-8-1",          1570,       144.362,       155.816,            0.,NA,NA,"",   1.09933E+06,   1.07735E+06,   1.07735E+06
C:/temp/Job-8.odb,Step-1,Increment      1: Step Time =    1.000,"P-8-1",          1571,       108.884,       149.627,            0.,NA,NA,"",   1.06980E+06,   1.11194E+06,   1.11194E+06
C:/temp/Job-8.odb,Step-1,Increment      1: Step Time =    1.000,"P-8-1",          1572,       47.3509,       50.9669,            0.,NA,NA,"",   1.05880E+06,   1.07116E+06,   1.07116E+06
C:/temp/Job-8.odb,Step-1,Increment      1: Step Time =    1.000,"P-8-1",          1573,       149.091,       44.7766,            0.,NA,NA,"",   1.08759E+06,   1.06675E+06,   1.06675E+06
C:/temp/Job-8.odb,Step-1,Increment      1: Step Time =    1.000,"P-8-1",          1574,       82.6482,       153.071,            0.,NA,NA,"",   1.09562E+06,   1.11580E+06,   1.11580E+06
C:/temp/Job-8.odb,Step-1,Increment      1: Step Time =    1.000,"P-8-1",          1575,       76.9206,       138.752,            0.,NA,NA,"",   1.20007E+06,   1.19265E+06,   1.19265E+06
C:/temp/Job-8.odb,Step-1,Increment      1: Step Time =    1.000,"P-8-1",          1576,       71.8723,       143.066,            0.,NA,NA,"",   1.16878E+06,   1.15775E+06,   1.15775E+06
C:/temp/Job-8.odb,Step-1,Increment      1: Step Time =    1.000,"P-8-1",          1577,       68.0007,       134.201,            0.,NA,NA,"",   1.18405E+06,   1.15032E+06,   1.15032E+06
C:/temp/Job-8.odb,Step-1,Increment      1: Step Time =    1.000,"P-8-1",          1578,       151.310,       95.3240,            0.,NA,NA,"",   831.783E+03,   846.111E+03,   846.111E+03
C:/temp/Job-8.odb,Step-1,Increment      1: Step Time =    1.000,"P-8-1",          1579,       46.5538,       108.610,            0.,NA,NA,"",   760.474E+03,   816.788E+03,   816.788E+03
C:/temp/Job-8.odb,Step-1,Increment      1: Step Time =    1.000,"P-8-1",          1580,       93.2472,       48.0090,            0.,NA,NA,"",   1.05670E+06,   1.10072E+06,   1.10072E+06
C:/temp/Job-8.odb,Step-1,Increment      1: Step Time =    1.000,"P-8-1",          1581,       132.572,       148.250,            0.,NA,NA,"",   1.15089E+06,   1.12452E+06,   1.12452E+06
C:/temp/Job-8.odb,Step-1,Increment      1: Step Time =    1.000,"P-8-1",          1582,       122.107,       123.382,            0.,NA,NA,"",   1.34167E+06,   1.24888E+06,   1.24888E+06
C:/temp/Job-8.odb,Step-1,Increment      1: Step Time =    1.000,"P-8-1",          1583,       41.5452,       46.3212,            0.,NA,NA,"",   1.04490E+06,   1.06655E+06,   1.06655E+06
C:/temp/Job-8.odb,Step-1,Increment      1: Step Time =    1.000,"P-8-1",          1584,       148.599,       35.5461,            0.,NA,NA,"",   1.06447E+06,   1.05041E+06,   1.05041E+06
C:/temp/Job-8.odb,Step-1,Increment      1: Step Time =    1.000,"P-8-1",          1585,       49.2513,       166.264,            0.,NA,NA,"",   1.08062E+06,   1.08542E+06,   1.08542E+06
C:/temp/Job-8.odb,Step-1,Increment      1: Step Time =    1.000,"P-8-1",          1586,       164.127,       147.185,            0.,NA,NA,"",   1.05135E+06,   1.03909E+06,   1.03909E+06
C:/temp/Job-8.odb,Step-1,Increment      1: Step Time =    1.000,"P-8-1",          1587,       144.795,       109.511,            0.,NA,NA,"",   841.027E+03,   836.475E+03,   836.475E+03
C:/temp/Job-8.odb,Step-1,Increment      1: Step Time =    1.000,"P-8-1",          1588,       55.3534,       148.832,            0.,NA,NA,"",   1.09693E+06,   1.09551E+06,   1.09551E+06
C:/temp/Job-8.odb,Step-1,Increment      1: Step Time =    1.000,"P-8-1",          1589,       152.603,       142.803,            0.,NA,NA,"",   1.09529E+06,   1.06688E+06,   1.06688E+06
C:/temp/Job-8.odb,Step-1,Increment      1: Step Time =    1.000,"P-8-1",          1590,       72.7353,       134.160,            0.,NA,NA,"",   1.22169E+06,   1.18929E+06,   1.18929E+06
C:/temp/Job-8.odb,Step-1,Increment      1: Step Time =    1.000,"P-8-1",          1591,       67.4971,       138.641,            0.,NA,NA,"",   1.17211E+06,   1.14871E+06,   1.14871E+06
C:/temp/Job-8.odb,Step-1,Increment      1: Step Time =    1.000,"P-8-1",          1592,       50.9843,       154.439,            0.,NA,NA,"",   1.08314E+06,   1.08803E+06,   1.08803E+06
C:/temp/Job-8.odb,Step-1,Increment      1: Step Time =    1.000,"P-8-1",          1593,       153.726,       148.198,            0.,NA,NA,"",   1.08786E+06,   1.06422E+06,   1.06422E+06
C:/temp/Job-8.odb,Step-1,Increment      1: Step Time =    1.000,"P-8-1",          1594,       128.793,       152.013,            0.,NA,NA,"",   1.12847E+06,   1.11474E+06,   1.11474E+06
C:/temp/Job-8.odb,Step-1,Increment      1: Step Time =    1.000,"P-8-1",          1595,       131.644,       144.310,            0.,NA,NA,"",   1.17507E+06,   1.14162E+06,   1.14162E+06
C:/temp/Job-8.odb,Step-1,Increment      1: Step Time =    1.000,"P-8-1",          1596,       147.264,       124.273,            0.,NA,NA,"",   1.04651E+06,   1.01010E+06,   1.01010E+06
C:/temp/Job-8.odb,Step-1,Increment      1: Step Time =    1.000,"P-8-1",          1597,       47.5001,       161.865,            0.,NA,NA,"",   1.07760E+06,   1.08558E+06,   1.08558E+06
C:/temp/Job-8.odb,Step-1,Increment      1: Step Time =    1.000,"P-8-1",          1598,       163.742,       151.606,            0.,NA,NA,"",   1.05269E+06,   1.04044E+06,   1.04044E+06
C:/temp/Job-8.odb,Step-1,Increment      1: Step Time =    1.000,"P-8-1",          1599,       153.787,       39.7915,            0.,NA,NA,"",   1.06617E+06,   1.05078E+06,   1.05078E+06
C:/temp/Job-8.odb,Step-1,Increment      1: Step Time =    1.000,"P-8-1",          1600,       41.6009,       43.2487,            0.,NA,NA,"",   1.05176E+06,   1.07176E+06,   1.07176E+06
C:/temp/Job-8.odb,Step-1,Increment      1: Step Time =    1.000,"P-8-1",          1601,       118.327,       134.484,            0.,NA,NA,"",   1.25337E+06,   1.24242E+06,   1.24242E+06
C:/temp/Job-8.odb,Step-1,Increment      1: Step Time =    1.000,"P-8-1",          1602,       123.894,       143.894,            0.,NA,NA,"",   1.17219E+06,   1.15869E+06,   1.15869E+06
C:/temp/Job-8.odb,Step-1,Increment      1: Step Time =    1.000,"P-8-1",          1603,       117.434,       155.520,            0.,NA,NA,"",   1.08165E+06,   1.09578E+06,   1.09578E+06
C:/temp/Job-8.odb,Step-1,Increment      1: Step Time =    1.000,"P-8-1",          1604,       67.0170,       147.474,            0.,NA,NA,"",   1.14097E+06,   1.13160E+06,   1.13160E+06
C:/temp/Job-8.odb,Step-1,Increment      1: Step Time =    1.000,"P-8-1",          1605,       139.482,       108.791,            0.,NA,NA,"",   801.739E+03,   788.210E+03,   788.210E+03
C:/temp/Job-8.odb,Step-1,Increment      1: Step Time =    1.000,"P-8-1",          1606,       155.683,       159.964,            0.,NA,NA,"",   1.06459E+06,   1.04941E+06,   1.04941E+06
C:/temp/Job-8.odb,Step-1,Increment      1: Step Time =    1.000,"P-8-1",          1607,       39.4752,       156.089,            0.,NA,NA,"",   1.04502E+06,   1.06904E+06,   1.06904E+06
C:/temp/Job-8.odb,Step-1,Increment      1: Step Time =    1.000,"P-8-1",          1608,       45.9292,       38.5094,            0.,NA,NA,"",   1.07313E+06,   1.08343E+06,   1.08343E+06
C:/temp/Job-8.odb,Step-1,Increment      1: Step Time =    1.000,"P-8-1",          1609,       163.989,       43.3737,            0.,NA,NA,"",   1.04654E+06,   1.03655E+06,   1.03655E+06
C:/temp/Job-8.odb,Step-1,Increment      1: Step Time =    1.000,"P-8-1",          1610,       121.005,       128.734,            0.,NA,NA,"",   1.31416E+06,   1.25739E+06,   1.25739E+06
C:/temp/Job-8.odb,Step-1,Increment      1: Step Time =    1.000,"P-8-1",          1611,       135.950,       48.1163,            0.,NA,NA,"",   1.12792E+06,   1.10362E+06,   1.10362E+06
C:/temp/Job-8.odb,Step-1,Increment      1: Step Time =    1.000,"P-8-1",          1612,       44.8529,       63.5755,            0.,NA,NA,"",   999.449E+03,   1.02172E+06,   1.02172E+06
C:/temp/Job-8.odb,Step-1,Increment      1: Step Time =    1.000,"P-8-1",          1613,       133.120,       127.099,            0.,NA,NA,"",   1.21213E+06,   1.13167E+06,   1.13167E+06
C:/temp/Job-8.odb,Step-1,Increment      1: Step Time =    1.000,"P-8-1",          1614,       61.8760,       143.125,            0.,NA,NA,"",   1.13140E+06,   1.11815E+06,   1.11815E+06
C:/temp/Job-8.odb,Step-1,Increment      1: Step Time =    1.000,"P-8-1",          1615,       135.301,       143.235,            0.,NA,NA,"",   1.16796E+06,   1.12936E+06,   1.12936E+06
C:/temp/Job-8.odb,Step-1,Increment      1: Step Time =    1.000,"P-8-1",          1616,       147.058,       128.781,            0.,NA,NA,"",   1.08534E+06,   1.04412E+06,   1.04412E+06
C:/temp/Job-8.odb,Step-1,Increment      1: Step Time =    1.000,"P-8-1",          1617,       143.178,       118.845,            0.,NA,NA,"",   1.00189E+06,   962.535E+03,   962.535E+03
C:/temp/Job-8.odb,Step-1,Increment      1: Step Time =    1.000,"P-8-1",          1618,       119.375,       150.235,            0.,NA,NA,"",   1.11649E+06,   1.12496E+06,   1.12496E+06
C:/temp/Job-8.odb,Step-1,Increment      1: Step Time =    1.000,"P-8-1",          1619,       133.395,       122.135,            0.,NA,NA,"",   1.17000E+06,   1.07838E+06,   1.07838E+06
C:/temp/Job-8.odb,Step-1,Increment      1: Step Time =    1.000,"P-8-1",          1620,       143.959,       114.206,            0.,NA,NA,"",   919.874E+03,   897.240E+03,   897.240E+03
C:/temp/Job-8.odb,Step-1,Increment      1: Step Time =    1.000,"P-8-1",          1621,       127.249,       129.991,            0.,NA,NA,"",   1.26379E+06,   1.19356E+06,   1.19356E+06
C:/temp/Job-8.odb,Step-1,Increment      1: Step Time =    1.000,"P-8-1",          1622,       56.1408,       142.755,            0.,NA,NA,"",   1.09611E+06,   1.09102E+06,   1.09102E+06
C:/temp/Job-8.odb,Step-1,Increment      1: Step Time =    1.000,"P-8-1",          1623,       144.086,       142.573,            0.,NA,NA,"",   1.13462E+06,   1.09666E+06,   1.09666E+06
C:/temp/Job-8.odb,Step-1,Increment      1: Step Time =    1.000,"P-8-1",          1624,       124.999,       153.095,            0.,NA,NA,"",   1.11602E+06,   1.11100E+06,   1.11100E+06
C:/temp/Job-8.odb,Step-1,Increment      1: Step Time =    1.000,"P-8-1",          1625,       121.361,       155.556,            0.,NA,NA,"",   1.09323E+06,   1.09847E+06,   1.09847E+06
C:/temp/Job-8.odb,Step-1,Increment      1: Step Time =    1.000,"P-8-1",          1626,       130.829,       141.209,            0.,NA,NA,"",   1.19379E+06,   1.15447E+06,   1.15447E+06
C:/temp/Job-8.odb,Step-1,Increment      1: Step Time =    1.000,"P-8-1",          1627,       57.0598,       137.668,            0.,NA,NA,"",   1.09171E+06,   1.08246E+06,   1.08246E+06
C:/temp/Job-8.odb,Step-1,Increment      1: Step Time =    1.000,"P-8-1",          1628,       142.050,       146.250,            0.,NA,NA,"",   1.13382E+06,   1.09999E+06,   1.09999E+06
C:/temp/Job-8.odb,Step-1,Increment      1: Step Time =    1.000,"P-8-1",          1629,       132.829,       139.417,            0.,NA,NA,"",   1.19268E+06,   1.14728E+06,   1.14728E+06
C:/temp/Job-8.odb,Step-1,Increment      1: Step Time =    1.000,"P-8-1",          1630,       123.290,       148.268,            0.,NA,NA,"",   1.13993E+06,   1.13487E+06,   1.13487E+06
C:/temp/Job-8.odb,Step-1,Increment      1: Step Time =    1.000,"P-8-1",          1631,       123.836,       133.756,            0.,NA,NA,"",   1.26093E+06,   1.21639E+06,   1.21639E+06
C:/temp/Job-8.odb,Step-1,Increment      1: Step Time =    1.000,"P-8-1",          1632,       132.371,       132.571,            0.,NA,NA,"",   1.21971E+06,   1.15640E+06,   1.15640E+06
C:/temp/Job-8.odb,Step-1,Increment      1: Step Time =    1.000,"P-8-1",          1633,       142.432,       128.200,            0.,NA,NA,"",   1.11744E+06,   1.06364E+06,   1.06364E+06
C:/temp/Job-8.odb,Step-1,Increment      1: Step Time =    1.000,"P-8-1",          1634,       50.3873,       141.510,            0.,NA,NA,"",   1.05536E+06,   1.06273E+06,   1.06273E+06
C:/temp/Job-8.odb,Step-1,Increment      1: Step Time =    1.000,"P-8-1",          1635,       142.099,       138.153,            0.,NA,NA,"",   1.14835E+06,   1.10308E+06,   1.10308E+06
C:/temp/Job-8.odb,Step-1,Increment      1: Step Time =    1.000,"P-8-1",          1636,       137.762,       132.156,            0.,NA,NA,"",   1.17865E+06,   1.11830E+06,   1.11830E+06
C:/temp/Job-8.odb,Step-1,Increment      1: Step Time =    1.000,"P-8-1",          1637,       142.429,       132.886,            0.,NA,NA,"",   1.14090E+06,   1.08920E+06,   1.08920E+06
C:/temp/Job-8.odb,Step-1,Increment      1: Step Time =    1.000,"P-8-1",          1638,       138.634,       141.336,            0.,NA,NA,"",   1.16051E+06,   1.11863E+06,   1.11863E+06
C:/temp/Job-8.odb,Step-1,Increment      1: Step Time =    1.000,"P-8-1",          1639,       147.036,       133.343,            0.,NA,NA,"",   1.10874E+06,   1.06713E+06,   1.06713E+06
C:/temp/Job-8.odb,Step-1,Increment      1: Step Time =    1.000,"P-8-1",          1640,       103.984,       144.608,            0.,NA,NA,"",   1.06543E+06,   1.13116E+06,   1.13116E+06
C:/temp/Job-8.odb,Step-1,Increment      1: Step Time =    1.000,"P-8-1",          1641,       152.715,       75.3570,            0.,NA,NA,"",   1.02574E+06,   1.00187E+06,   1.00187E+06
C:/temp/Job-8.odb,Step-1,Increment      1: Step Time =    1.000,"P-8-1",          1642,       75.9991,       49.3199,            0.,NA,NA,"",   1.12743E+06,   1.13246E+06,   1.13246E+06
C:/temp/Job-8.odb,Step-1,Increment      1: Step Time =    1.000,"P-8-1",          1643,       25.6458,       9.73545,            0.,NA,NA,"",   1.11235E+06,   1.11963E+06,   1.11963E+06
C:/temp/Job-8.odb,Step-1,Increment      1: Step Time =    1.000,"P-8-1",          1644,       9.94234,       173.985,            0.,NA,NA,"",   1.01215E+06,   1.09517E+06,   1.09517E+06
C:/temp/Job-8.odb,Step-1,Increment      1: Step Time =    1.000,"P-8-1",          1645,       189.812,       26.0945,            0.,NA,NA,"",   1.00123E+06,   1.00254E+06,   1.00254E+06
C:/temp/Job-8.odb,Step-1,Increment      1: Step Time =    1.000,"P-8-1",          1646,       174.112,       189.819,            0.,NA,NA,"",   1.00229E+06,   1.00187E+06,   1.00187E+06
C:/temp/Job-8.odb,Step-1,Increment      1: Step Time =    1.000,"P-8-1",          1647,       190.268,       55.2749,            0.,NA,NA,"",   988.317E+03,   1.00389E+06,   1.00389E+06
C:/temp/Job-8.odb,Step-1,Increment      1: Step Time =    1.000,"P-8-1",          1648,       55.1003,       9.85210,            0.,NA,NA,"",   1.02174E+06,   1.02144E+06,   1.02144E+06
C:/temp/Job-8.odb,Step-1,Increment      1: Step Time =    1.000,"P-8-1",          1649,       144.759,       190.220,            0.,NA,NA,"",   993.916E+03,   992.436E+03,   992.436E+03
C:/temp/Job-8.odb,Step-1,Increment      1: Step Time =    1.000,"P-8-1",          1650,       9.75397,       145.017,            0.,NA,NA,"",   867.408E+03,   960.313E+03,   960.313E+03
C:/temp/Job-8.odb,Step-1,Increment      1: Step Time =    1.000,"P-8-1",          1651,       5.18062,       5.10516,            0.,NA,NA,"",   1.36932E+06,   1.42104E+06,   1.42104E+06
C:/temp/Job-8.odb,Step-1,Increment      1: Step Time =    1.000,"P-8-1",          1652,       106.942,       124.965,            0.,NA,NA,"",   1.43054E+06,   1.53573E+06,   1.53573E+06
C:/temp/Job-8.odb,Step-1,Increment      1: Step Time =    1.000,"P-8-1",          1653,       191.052,       149.050,            0.,NA,NA,"",   990.557E+03,   1.00336E+06,   1.00336E+06
C:/temp/Job-8.odb,Step-1,Increment      1: Step Time =    1.000,"P-8-1",          1654,       50.7633,       190.814,            0.,NA,NA,"",   1.02832E+06,   1.02837E+06,   1.02837E+06
C:/temp/Job-8.odb,Step-1,Increment      1: Step Time =    1.000,"P-8-1",          1655,       126.787,       88.1450,            0.,NA,NA,"",   979.923E+03,   841.500E+03,   841.500E+03
C:/temp/Job-8.odb,Step-1,Increment      1: Step Time =    1.000,"P-8-1",          1656,       86.8805,       73.1623,            0.,NA,NA,"",   1.36322E+06,   1.38624E+06,   1.38624E+06
C:/temp/Job-8.odb,Step-1,Increment      1: Step Time =    1.000,"P-8-1",          1657,       75.4745,       85.4574,            0.,NA,NA,"",   1.11541E+06,   995.623E+03,   995.623E+03
C:/temp/Job-8.odb,Step-1,Increment      1: Step Time =    1.000,"P-8-1",          1658,       114.898,       75.4920,            0.,NA,NA,"",   1.39410E+06,   1.36785E+06,   1.36785E+06
C:/temp/Job-8.odb,Step-1,Increment      1: Step Time =    1.000,"P-8-1",          1659,       97.9414,       124.251,            0.,NA,NA,"",   1.38567E+06,   1.53215E+06,   1.53215E+06
C:/temp/Job-8.odb,Step-1,Increment      1: Step Time =    1.000,"P-8-1",          1660,       94.7015,       74.1998,            0.,NA,NA,"",   1.34745E+06,   1.46052E+06,   1.46052E+06
C:/temp/Job-8.odb,Step-1,Increment      1: Step Time =    1.000,"P-8-1",          1661,       75.6887,       106.800,            0.,NA,NA,"",   655.590E+03,   546.640E+03,   546.640E+03
C:/temp/Job-8.odb,Step-1,Increment      1: Step Time =    1.000,"P-8-1",          1662,       123.237,       76.3959,            0.,NA,NA,"",   1.31678E+06,   1.22393E+06,   1.22393E+06
C:/temp/Job-8.odb,Step-1,Increment      1: Step Time =    1.000,"P-8-1",          1663,       130.792,       80.8790,            0.,NA,NA,"",   1.16987E+06,   1.06193E+06,   1.06193E+06
C:/temp/Job-8.odb,Step-1,Increment      1: Step Time =    1.000,"P-8-1",          1664,       75.9688,       77.5528,            0.,NA,NA,"",   1.25299E+06,   1.17514E+06,   1.17514E+06
C:/temp/Job-8.odb,Step-1,Increment      1: Step Time =    1.000,"P-8-1",          1665,       78.8586,       69.9240,            0.,NA,NA,"",   1.28806E+06,   1.25183E+06,   1.25183E+06
C:/temp/Job-8.odb,Step-1,Increment      1: Step Time =    1.000,"P-8-1",          1666,       116.822,       129.256,            0.,NA,NA,"",   1.32503E+06,   1.30218E+06,   1.30218E+06
C:/temp/Job-8.odb,Step-1,Increment      1: Step Time =    1.000,"P-8-1",          1667,       39.3683,       184.059,            0.,NA,NA,"",   1.07316E+06,   1.07741E+06,   1.07741E+06
C:/temp/Job-8.odb,Step-1,Increment      1: Step Time =    1.000,"P-8-1",          1668,       133.422,       117.328,            0.,NA,NA,"",   1.06759E+06,   978.484E+03,   978.484E+03
C:/temp/Job-8.odb,Step-1,Increment      1: Step Time =    1.000,"P-8-1",          1669,       185.508,       174.474,            0.,NA,NA,"",   1.00343E+06,   1.00439E+06,   1.00439E+06
C:/temp/Job-8.odb,Step-1,Increment      1: Step Time =    1.000,"P-8-1",          1670,       185.319,       169.652,            0.,NA,NA,"",   1.00409E+06,   1.00571E+06,   1.00571E+06
C:/temp/Job-8.odb,Step-1,Increment      1: Step Time =    1.000,"P-8-1",          1671,       173.605,       14.6087,            0.,NA,NA,"",   1.00526E+06,   1.00441E+06,   1.00441E+06
C:/temp/Job-8.odb,Step-1,Increment      1: Step Time =    1.000,"P-8-1",          1672,       168.636,       14.5209,            0.,NA,NA,"",   1.00668E+06,   1.00525E+06,   1.00525E+06
C:/temp/Job-8.odb,Step-1,Increment      1: Step Time =    1.000,"P-8-1",          1673,       131.253,       85.6494,            0.,NA,NA,"",   1.01372E+06,   914.412E+03,   914.412E+03
C:/temp/Job-8.odb,Step-1,Increment      1: Step Time =    1.000,"P-8-1",          1674,       83.7200,       67.2680,            0.,NA,NA,"",   1.26171E+06,   1.27265E+06,   1.27265E+06
C:/temp/Job-8.odb,Step-1,Increment      1: Step Time =    1.000,"P-8-1",          1675,       119.876,       125.027,            0.,NA,NA,"",   1.33754E+06,   1.27080E+06,   1.27080E+06
C:/temp/Job-8.odb,Step-1,Increment      1: Step Time =    1.000,"P-8-1",          1676,       105.613,       66.9034,            0.,NA,NA,"",   1.16601E+06,   1.25956E+06,   1.25956E+06
C:/temp/Job-8.odb,Step-1,Increment      1: Step Time =    1.000,"P-8-1",          1677,       68.3595,       99.1052,            0.,NA,NA,"",   462.754E+03,   492.298E+03,   492.298E+03
C:/temp/Job-8.odb,Step-1,Increment      1: Step Time =    1.000,"P-8-1",          1678,       66.8370,       94.7693,            0.,NA,NA,"",   581.576E+03,   597.398E+03,   597.398E+03
C:/temp/Job-8.odb,Step-1,Increment      1: Step Time =    1.000,"P-8-1",          1679,       42.3995,       182.928,            0.,NA,NA,"",   1.06766E+06,   1.07111E+06,   1.07111E+06
C:/temp/Job-8.odb,Step-1,Increment      1: Step Time =    1.000,"P-8-1",          1680,       70.4557,       107.670,            0.,NA,NA,"",   681.753E+03,   648.915E+03,   648.915E+03
C:/temp/Job-8.odb,Step-1,Increment      1: Step Time =    1.000,"P-8-1",          1681,       124.056,       126.919,            0.,NA,NA,"",   1.29899E+06,   1.22081E+06,   1.22081E+06
C:/temp/Job-8.odb,Step-1,Increment      1: Step Time =    1.000,"P-8-1",          1682,       43.1694,       179.514,            0.,NA,NA,"",   1.07283E+06,   1.07722E+06,   1.07722E+06
C:/temp/Job-8.odb,Step-1,Increment      1: Step Time =    1.000,"P-8-1",          1683,       12.7165,       42.5303,            0.,NA,NA,"",   931.129E+03,   1.01657E+06,   1.01657E+06
C:/temp/Job-8.odb,Step-1,Increment      1: Step Time =    1.000,"P-8-1",          1684,       178.465,       161.386,            0.,NA,NA,"",   1.01433E+06,   1.01450E+06,   1.01450E+06
C:/temp/Job-8.odb,Step-1,Increment      1: Step Time =    1.000,"P-8-1",          1685,       138.363,       118.009,            0.,NA,NA,"",   1.02074E+06,   962.580E+03,   962.580E+03
C:/temp/Job-8.odb,Step-1,Increment      1: Step Time =    1.000,"P-8-1",          1686,       138.007,       122.794,            0.,NA,NA,"",   1.11138E+06,   1.04208E+06,   1.04208E+06
C:/temp/Job-8.odb,Step-1,Increment      1: Step Time =    1.000,"P-8-1",          1687,       137.809,       80.2112,            0.,NA,NA,"",   1.06947E+06,   1.00190E+06,   1.00190E+06
C:/temp/Job-8.odb,Step-1,Increment      1: Step Time =    1.000,"P-8-1",          1688,       73.8160,       71.8192,            0.,NA,NA,"",   1.23741E+06,   1.18495E+06,   1.18495E+06
C:/temp/Job-8.odb,Step-1,Increment      1: Step Time =    1.000,"P-8-1",          1689,       76.0242,       64.0361,            0.,NA,NA,"",   1.22732E+06,   1.20516E+06,   1.20516E+06
C:/temp/Job-8.odb,Step-1,Increment      1: Step Time =    1.000,"P-8-1",          1690,       87.9546,       63.8775,            0.,NA,NA,"",   1.18440E+06,   1.23213E+06,   1.23213E+06
C:/temp/Job-8.odb,Step-1,Increment      1: Step Time =    1.000,"P-8-1",          1691,       82.1157,       134.445,            0.,NA,NA,"",   1.23452E+06,   1.24133E+06,   1.24133E+06
C:/temp/Job-8.odb,Step-1,Increment      1: Step Time =    1.000,"P-8-1",          1692,       107.469,       59.9466,            0.,NA,NA,"",   1.11212E+06,   1.17744E+06,   1.17744E+06
C:/temp/Job-8.odb,Step-1,Increment      1: Step Time =    1.000,"P-8-1",          1693,       98.1852,       64.9422,            0.,NA,NA,"",   1.12514E+06,   1.22163E+06,   1.22163E+06
C:/temp/Job-8.odb,Step-1,Increment      1: Step Time =    1.000,"P-8-1",          1694,       60.0899,       91.7999,            0.,NA,NA,"",     703.9E+03,   732.713E+03,   732.713E+03
C:/temp/Job-8.odb,Step-1,Increment      1: Step Time =    1.000,"P-8-1",          1695,       135.123,       87.8416,            0.,NA,NA,"",   890.017E+03,   834.157E+03,   834.157E+03
C:/temp/Job-8.odb,Step-1,Increment      1: Step Time =    1.000,"P-8-1",          1696,       112.869,       63.0827,            0.,NA,NA,"",   1.18945E+06,   1.22556E+06,   1.22556E+06
C:/temp/Job-8.odb,Step-1,Increment      1: Step Time =    1.000,"P-8-1",          1697,       63.1628,       86.6023,            0.,NA,NA,"",   853.665E+03,   842.342E+03,   842.342E+03
C:/temp/Job-8.odb,Step-1,Increment      1: Step Time =    1.000,"P-8-1",          1698,       119.469,       139.605,            0.,NA,NA,"",   1.19799E+06,   1.19407E+06,   1.19407E+06
C:/temp/Job-8.odb,Step-1,Increment      1: Step Time =    1.000,"P-8-1",          1699,       22.3237,       176.843,            0.,NA,NA,"",   1.08558E+06,   1.12197E+06,   1.12197E+06
C:/temp/Job-8.odb,Step-1,Increment      1: Step Time =    1.000,"P-8-1",          1700,       93.9639,       136.401,            0.,NA,NA,"",   1.13811E+06,   1.21687E+06,   1.21687E+06
C:/temp/Job-8.odb,Step-1,Increment      1: Step Time =    1.000,"P-8-1",          1701,       80.9441,       61.6310,            0.,NA,NA,"",   1.20222E+06,   1.20880E+06,   1.20880E+06
C:/temp/Job-8.odb,Step-1,Increment      1: Step Time =    1.000,"P-8-1",          1702,       64.4803,       104.107,            0.,NA,NA,"",   593.324E+03,   623.562E+03,   623.562E+03
C:/temp/Job-8.odb,Step-1,Increment      1: Step Time =    1.000,"P-8-1",          1703,       181.164,       144.677,            0.,NA,NA,"",   1.00396E+06,   1.01176E+06,   1.01176E+06
C:/temp/Job-8.odb,Step-1,Increment      1: Step Time =    1.000,"P-8-1",          1704,       127.756,       140.162,            0.,NA,NA,"",   1.20614E+06,   1.17074E+06,   1.17074E+06
C:/temp/Job-8.odb,Step-1,Increment      1: Step Time =    1.000,"P-8-1",          1705,       20.4444,       31.5696,            0.,NA,NA,"",   1.02756E+06,   1.08324E+06,   1.08324E+06
C:/temp/Job-8.odb,Step-1,Increment      1: Step Time =    1.000,"P-8-1",          1706,       181.062,       28.8725,            0.,NA,NA,"",   1.00804E+06,   1.00825E+06,   1.00825E+06
C:/temp/Job-8.odb,Step-1,Increment      1: Step Time =    1.000,"P-8-1",          1707,       172.175,       23.2127,            0.,NA,NA,"",   1.01312E+06,   1.01105E+06,   1.01105E+06
C:/temp/Job-8.odb,Step-1,Increment      1: Step Time =    1.000,"P-8-1",          1708,       180.315,       55.4089,            0.,NA,NA,"",   1.00607E+06,   1.01287E+06,   1.01287E+06
C:/temp/Job-8.odb,Step-1,Increment      1: Step Time =    1.000,"P-8-1",          1709,       177.178,       173.888,            0.,NA,NA,"",   1.01062E+06,   1.00975E+06,   1.00975E+06
C:/temp/Job-8.odb,Step-1,Increment      1: Step Time =    1.000,"P-8-1",          1710,       174.344,       162.760,            0.,NA,NA,"",   1.02084E+06,   1.01857E+06,   1.01857E+06
C:/temp/Job-8.odb,Step-1,Increment      1: Step Time =    1.000,"P-8-1",          1711,       171.960,       158.925,            0.,NA,NA,"",   1.02762E+06,   1.02364E+06,   1.02364E+06
C:/temp/Job-8.odb,Step-1,Increment      1: Step Time =    1.000,"P-8-1",          1712,       144.594,       180.319,            0.,NA,NA,"",   1.01958E+06,    1.0147E+06,    1.0147E+06
C:/temp/Job-8.odb,Step-1,Increment      1: Step Time =    1.000,"P-8-1",          1713,       46.8430,       180.897,            0.,NA,NA,"",   1.06411E+06,   1.06627E+06,   1.06627E+06
C:/temp/Job-8.odb,Step-1,Increment      1: Step Time =    1.000,"P-8-1",          1714,       91.7672,       60.4437,            0.,NA,NA,"",   1.11920E+06,   1.18276E+06,   1.18276E+06
C:/temp/Job-8.odb,Step-1,Increment      1: Step Time =    1.000,"P-8-1",          1715,       98.6927,       60.9273,            0.,NA,NA,"",   1.09092E+06,   1.17301E+06,   1.17301E+06
C:/temp/Job-8.odb,Step-1,Increment      1: Step Time =    1.000,"P-8-1",          1716,       120.692,       144.376,            0.,NA,NA,"",   1.16049E+06,   1.15876E+06,   1.15876E+06
C:/temp/Job-8.odb,Step-1,Increment      1: Step Time =    1.000,"P-8-1",          1717,       127.748,       144.260,            0.,NA,NA,"",   1.17705E+06,   1.15286E+06,   1.15286E+06
C:/temp/Job-8.odb,Step-1,Increment      1: Step Time =    1.000,"P-8-1",          1718,       113.350,       147.384,            0.,NA,NA,"",   1.10466E+06,   1.13370E+06,   1.13370E+06
C:/temp/Job-8.odb,Step-1,Increment      1: Step Time =    1.000,"P-8-1",          1719,       104.140,       149.005,            0.,NA,NA,"",   1.05335E+06,   1.10827E+06,   1.10827E+06
C:/temp/Job-8.odb,Step-1,Increment      1: Step Time =    1.000,"P-8-1",          1720,       142.705,       123.523,            0.,NA,NA,"",   1.07130E+06,   1.02114E+06,   1.02114E+06
C:/temp/Job-8.odb,Step-1,Increment      1: Step Time =    1.000,"P-8-1",          1721,       100.313,       148.435,            0.,NA,NA,"",   1.04968E+06,   1.11026E+06,   1.11026E+06
C:/temp/Job-8.odb,Step-1,Increment      1: Step Time =    1.000,"P-8-1",          1722,       98.8443,       143.148,            0.,NA,NA,"",   1.06940E+06,   1.14179E+06,   1.14179E+06
C:/temp/Job-8.odb,Step-1,Increment      1: Step Time =    1.000,"P-8-1",          1723,       138.220,       86.1954,            0.,NA,NA,"",   924.984E+03,   877.807E+03,   877.807E+03
C:/temp/Job-8.odb,Step-1,Increment      1: Step Time =    1.000,"P-8-1",          1724,       115.836,       60.9608,            0.,NA,NA,"",   1.18654E+06,   1.20263E+06,   1.20263E+06
C:/temp/Job-8.odb,Step-1,Increment      1: Step Time =    1.000,"P-8-1",          1725,       60.8389,       83.4093,            0.,NA,NA,"",   911.991E+03,   905.111E+03,   905.111E+03
C:/temp/Job-8.odb,Step-1,Increment      1: Step Time =    1.000,"P-8-1",          1726,       54.9168,       87.5481,            0.,NA,NA,"",   798.452E+03,   828.097E+03,   828.097E+03
C:/temp/Job-8.odb,Step-1,Increment      1: Step Time =    1.000,"P-8-1",          1727,       111.508,       55.0180,            0.,NA,NA,"",   1.10621E+06,   1.14648E+06,   1.14648E+06
C:/temp/Job-8.odb,Step-1,Increment      1: Step Time =    1.000,"P-8-1",          1728,       71.2616,       66.4326,            0.,NA,NA,"",   1.20654E+06,   1.17106E+06,   1.17106E+06
C:/temp/Job-8.odb,Step-1,Increment      1: Step Time =    1.000,"P-8-1",          1729,       90.1237,       140.086,            0.,NA,NA,"",   1.13169E+06,   1.18422E+06,   1.18422E+06
C:/temp/Job-8.odb,Step-1,Increment      1: Step Time =    1.000,"P-8-1",          1730,       62.4605,       138.453,            0.,NA,NA,"",   1.13757E+06,   1.11797E+06,   1.11797E+06
C:/temp/Job-8.odb,Step-1,Increment      1: Step Time =    1.000,"P-8-1",          1731,       125.094,       66.1917,            0.,NA,NA,"",   1.25868E+06,   1.21090E+06,   1.21090E+06
C:/temp/Job-8.odb,Step-1,Increment      1: Step Time =    1.000,"P-8-1",          1732,       175.878,       113.608,            0.,NA,NA,"",   949.196E+03,   973.283E+03,   973.283E+03
C:/temp/Job-8.odb,Step-1,Increment      1: Step Time =    1.000,"P-8-1",          1733,       128.977,       126.017,            0.,NA,NA,"",   1.25738E+06,   1.16860E+06,   1.16860E+06
C:/temp/Job-8.odb,Step-1,Increment      1: Step Time =    1.000,"P-8-1",          1734,       94.9899,       57.2260,            0.,NA,NA,"",   1.08522E+06,   1.15181E+06,   1.15181E+06
C:/temp/Job-8.odb,Step-1,Increment      1: Step Time =    1.000,"P-8-1",          1735,       66.9559,       75.5794,            0.,NA,NA,"",   1.12656E+06,   1.07744E+06,   1.07744E+06
C:/temp/Job-8.odb,Step-1,Increment      1: Step Time =    1.000,"P-8-1",          1736,       24.8359,       24.7353,            0.,NA,NA,"",   1.07334E+06,   1.10842E+06,   1.10842E+06
C:/temp/Job-8.odb,Step-1,Increment      1: Step Time =    1.000,"P-8-1",          1737,       144.158,       86.8102,            0.,NA,NA,"",   897.685E+03,   879.622E+03,   879.622E+03
C:/temp/Job-8.odb,Step-1,Increment      1: Step Time =    1.000,"P-8-1",          1738,       54.7370,       19.9564,            0.,NA,NA,"",   1.05615E+06,   1.05599E+06,   1.05599E+06
C:/temp/Job-8.odb,Step-1,Increment      1: Step Time =    1.000,"P-8-1",          1739,       52.7786,       99.1553,            0.,NA,NA,"",   689.020E+03,   744.059E+03,   744.059E+03
C:/temp/Job-8.odb,Step-1,Increment      1: Step Time =    1.000,"P-8-1",          1740,       50.5560,       110.836,            0.,NA,NA,"",   775.453E+03,   820.746E+03,   820.746E+03
C:/temp/Job-8.odb,Step-1,Increment      1: Step Time =    1.000,"P-8-1",          1741,       149.519,       102.342,            0.,NA,NA,"",   798.472E+03,   814.865E+03,   814.865E+03
C:/temp/Job-8.odb,Step-1,Increment      1: Step Time =    1.000,"P-8-1",          1742,       172.124,       167.588,            0.,NA,NA,"",   1.02159E+06,   1.01831E+06,   1.01831E+06
C:/temp/Job-8.odb,Step-1,Increment      1: Step Time =    1.000,"P-8-1",          1743,       172.146,       180.783,            0.,NA,NA,"",   1.00940E+06,   1.00792E+06,   1.00792E+06
C:/temp/Job-8.odb,Step-1,Increment      1: Step Time =    1.000,"P-8-1",          1744,       168.558,       161.204,            0.,NA,NA,"",   1.03377E+06,   1.02740E+06,   1.02740E+06
C:/temp/Job-8.odb,Step-1,Increment      1: Step Time =    1.000,"P-8-1",          1745,       165.671,       158.910,            0.,NA,NA,"",   1.04239E+06,   1.03344E+06,   1.03344E+06
C:/temp/Job-8.odb,Step-1,Increment      1: Step Time =    1.000,"P-8-1",          1746,       176.477,       28.1402,            0.,NA,NA,"",   1.01208E+06,   1.01107E+06,   1.01107E+06
C:/temp/Job-8.odb,Step-1,Increment      1: Step Time =    1.000,"P-8-1",          1747,       153.173,       29.9334,            0.,NA,NA,"",   1.04423E+06,   1.03445E+06,   1.03445E+06
C:/temp/Job-8.odb,Step-1,Increment      1: Step Time =    1.000,"P-8-1",          1748,       112.082,       154.308,            0.,NA,NA,"",   1.06614E+06,   1.09405E+06,   1.09405E+06
C:/temp/Job-8.odb,Step-1,Increment      1: Step Time =    1.000,"P-8-1",          1749,       23.5881,       37.5935,            0.,NA,NA,"",   1.00912E+06,   1.06282E+06,   1.06282E+06
C:/temp/Job-8.odb,Step-1,Increment      1: Step Time =    1.000,"P-8-1",          1750,       99.1881,       152.324,            0.,NA,NA,"",   1.04230E+06,   1.09285E+06,   1.09285E+06
C:/temp/Job-8.odb,Step-1,Increment      1: Step Time =    1.000,"P-8-1",          1751,       93.2152,       145.575,            0.,NA,NA,"",   1.08188E+06,   1.13740E+06,   1.13740E+06
C:/temp/Job-8.odb,Step-1,Increment      1: Step Time =    1.000,"P-8-1",          1752,       67.0775,       143.082,            0.,NA,NA,"",   1.15641E+06,   1.14106E+06,   1.14106E+06
C:/temp/Job-8.odb,Step-1,Increment      1: Step Time =    1.000,"P-8-1",          1753,       118.589,       59.2602,            0.,NA,NA,"",   1.18718E+06,   1.18830E+06,   1.18830E+06
C:/temp/Job-8.odb,Step-1,Increment      1: Step Time =    1.000,"P-8-1",          1754,       139.056,       70.1622,            0.,NA,NA,"",   1.15768E+06,   1.09673E+06,   1.09673E+06
C:/temp/Job-8.odb,Step-1,Increment      1: Step Time =    1.000,"P-8-1",          1755,       58.1885,       81.3491,            0.,NA,NA,"",   931.968E+03,   930.659E+03,   930.659E+03
C:/temp/Job-8.odb,Step-1,Increment      1: Step Time =    1.000,"P-8-1",          1756,       61.6156,       75.4948,            0.,NA,NA,"",   1.05364E+06,   1.02891E+06,   1.02891E+06
C:/temp/Job-8.odb,Step-1,Increment      1: Step Time =    1.000,"P-8-1",          1757,       65.6532,       70.0600,            0.,NA,NA,"",   1.14683E+06,   1.10993E+06,   1.10993E+06
C:/temp/Job-8.odb,Step-1,Increment      1: Step Time =    1.000,"P-8-1",          1758,       51.8451,       82.2541,            0.,NA,NA,"",   867.576E+03,   894.340E+03,   894.340E+03
C:/temp/Job-8.odb,Step-1,Increment      1: Step Time =    1.000,"P-8-1",          1759,       56.1509,       174.214,            0.,NA,NA,"",   1.06920E+06,   1.06919E+06,   1.06919E+06
C:/temp/Job-8.odb,Step-1,Increment      1: Step Time =    1.000,"P-8-1",          1760,       108.641,       156.882,            0.,NA,NA,"",   1.04651E+06,   1.07878E+06,   1.07878E+06
C:/temp/Job-8.odb,Step-1,Increment      1: Step Time =    1.000,"P-8-1",          1761,       171.184,       138.467,            0.,NA,NA,"",   1.02029E+06,   1.01927E+06,   1.01927E+06
C:/temp/Job-8.odb,Step-1,Increment      1: Step Time =    1.000,"P-8-1",          1762,       178.044,       29.9738,            0.,NA,NA,"",   1.01152E+06,   1.01090E+06,   1.01090E+06
C:/temp/Job-8.odb,Step-1,Increment      1: Step Time =    1.000,"P-8-1",          1763,       171.847,       134.697,            0.,NA,NA,"",   1.01121E+06,   1.01302E+06,   1.01302E+06
C:/temp/Job-8.odb,Step-1,Increment      1: Step Time =    1.000,"P-8-1",          1764,       19.2426,       55.9365,            0.,NA,NA,"",   903.815E+03,   979.935E+03,   979.935E+03
C:/temp/Job-8.odb,Step-1,Increment      1: Step Time =    1.000,"P-8-1",          1765,       149.167,       87.8938,            0.,NA,NA,"",   887.905E+03,   883.968E+03,   883.968E+03
C:/temp/Job-8.odb,Step-1,Increment      1: Step Time =    1.000,"P-8-1",          1766,       60.1339,       130.042,            0.,NA,NA,"",   1.08399E+06,   1.06354E+06,   1.06354E+06
C:/temp/Job-8.odb,Step-1,Increment      1: Step Time =    1.000,"P-8-1",          1767,       65.8762,       175.464,            0.,NA,NA,"",   1.05303E+06,   1.05327E+06,   1.05327E+06
C:/temp/Job-8.odb,Step-1,Increment      1: Step Time =    1.000,"P-8-1",          1768,       113.449,       47.2714,            0.,NA,NA,"",   1.07581E+06,   1.10205E+06,   1.10205E+06
C:/temp/Job-8.odb,Step-1,Increment      1: Step Time =    1.000,"P-8-1",          1769,       173.205,       118.389,            0.,NA,NA,"",   962.152E+03,   978.976E+03,   978.976E+03
C:/temp/Job-8.odb,Step-1,Increment      1: Step Time =    1.000,"P-8-1",          1770,       18.8064,       65.5401,            0.,NA,NA,"",   859.216E+03,   939.870E+03,   939.870E+03
C:/temp/Job-8.odb,Step-1,Increment      1: Step Time =    1.000,"P-8-1",          1771,       24.1720,       164.046,            0.,NA,NA,"",   1.02055E+06,   1.07101E+06,   1.07101E+06
C:/temp/Job-8.odb,Step-1,Increment      1: Step Time =    1.000,"P-8-1",          1772,       19.8767,       155.298,            0.,NA,NA,"",   958.460E+03,   1.02716E+06,   1.02716E+06
C:/temp/Job-8.odb,Step-1,Increment      1: Step Time =    1.000,"P-8-1",          1773,       168.661,       168.911,            0.,NA,NA,"",   1.02618E+06,   1.02129E+06,   1.02129E+06
C:/temp/Job-8.odb,Step-1,Increment      1: Step Time =    1.000,"P-8-1",          1774,       166.093,       163.293,            0.,NA,NA,"",   1.03683E+06,   1.02930E+06,   1.02930E+06
C:/temp/Job-8.odb,Step-1,Increment      1: Step Time =    1.000,"P-8-1",          1775,       160.959,       149.519,            0.,NA,NA,"",   1.06182E+06,   1.04625E+06,   1.04625E+06
C:/temp/Job-8.odb,Step-1,Increment      1: Step Time =    1.000,"P-8-1",          1776,       87.8008,       149.309,            0.,NA,NA,"",   1.09045E+06,   1.12596E+06,   1.12596E+06
C:/temp/Job-8.odb,Step-1,Increment      1: Step Time =    1.000,"P-8-1",          1777,       71.5797,       147.332,            0.,NA,NA,"",   1.14647E+06,   1.14134E+06,   1.14134E+06
C:/temp/Job-8.odb,Step-1,Increment      1: Step Time =    1.000,"P-8-1",          1778,       137.823,       64.1363,            0.,NA,NA,"",   1.17495E+06,   1.12224E+06,   1.12224E+06
C:/temp/Job-8.odb,Step-1,Increment      1: Step Time =    1.000,"P-8-1",          1779,       145.396,       68.3256,            0.,NA,NA,"",   1.11504E+06,   1.07014E+06,   1.07014E+06
C:/temp/Job-8.odb,Step-1,Increment      1: Step Time =    1.000,"P-8-1",          1780,       59.5578,       72.8706,            0.,NA,NA,"",   1.05311E+06,   1.03601E+06,   1.03601E+06
C:/temp/Job-8.odb,Step-1,Increment      1: Step Time =    1.000,"P-8-1",          1781,       174.992,       110.470,            0.,NA,NA,"",   940.267E+03,   965.387E+03,   965.387E+03
C:/temp/Job-8.odb,Step-1,Increment      1: Step Time =    1.000,"P-8-1",          1782,       151.839,       133.739,            0.,NA,NA,"",   1.08136E+06,   1.04972E+06,   1.04972E+06
C:/temp/Job-8.odb,Step-1,Increment      1: Step Time =    1.000,"P-8-1",          1783,       161.082,       144.178,            0.,NA,NA,"",   1.05899E+06,   1.04297E+06,   1.04297E+06
C:/temp/Job-8.odb,Step-1,Increment      1: Step Time =    1.000,"P-8-1",          1784,       154.720,       105.322,            0.,NA,NA,"",   855.246E+03,   869.382E+03,   869.382E+03
C:/temp/Job-8.odb,Step-1,Increment      1: Step Time =    1.000,"P-8-1",          1785,       94.1476,       155.766,            0.,NA,NA,"",   1.04413E+06,   1.08410E+06,   1.08410E+06
C:/temp/Job-8.odb,Step-1,Increment      1: Step Time =    1.000,"P-8-1",          1786,       147.206,       138.028,            0.,NA,NA,"",   1.11798E+06,   1.07929E+06,   1.07929E+06
C:/temp/Job-8.odb,Step-1,Increment      1: Step Time =    1.000,"P-8-1",          1787,       22.4374,       87.1786,            0.,NA,NA,"",   782.239E+03,   865.823E+03,   865.823E+03
C:/temp/Job-8.odb,Step-1,Increment      1: Step Time =    1.000,"P-8-1",          1788,       138.229,       135.899,            0.,NA,NA,"",   1.17700E+06,   1.12360E+06,   1.12360E+06
C:/temp/Job-8.odb,Step-1,Increment      1: Step Time =    1.000,"P-8-1",          1789,       152.850,       93.1260,            0.,NA,NA,"",   849.387E+03,   861.564E+03,   861.564E+03
C:/temp/Job-8.odb,Step-1,Increment      1: Step Time =    1.000,"P-8-1",          1790,       32.5696,       21.9918,            0.,NA,NA,"",   1.08553E+06,   1.10176E+06,   1.10176E+06
C:/temp/Job-8.odb,Step-1,Increment      1: Step Time =    1.000,"P-8-1",          1791,       56.0075,       121.465,            0.,NA,NA,"",   946.916E+03,   951.152E+03,   951.152E+03
C:/temp/Job-8.odb,Step-1,Increment      1: Step Time =    1.000,"P-8-1",          1792,       96.3495,       52.4151,            0.,NA,NA,"",   1.06013E+06,   1.11771E+06,   1.11771E+06
C:/temp/Job-8.odb,Step-1,Increment      1: Step Time =    1.000,"P-8-1",          1793,       70.9590,       170.374,            0.,NA,NA,"",   1.06145E+06,   1.06395E+06,   1.06395E+06
C:/temp/Job-8.odb,Step-1,Increment      1: Step Time =    1.000,"P-8-1",          1794,       23.5526,       61.3500,            0.,NA,NA,"",   897.140E+03,   967.614E+03,   967.614E+03
C:/temp/Job-8.odb,Step-1,Increment      1: Step Time =    1.000,"P-8-1",          1795,       75.8301,       170.045,            0.,NA,NA,"",   1.05234E+06,   1.05823E+06,   1.05823E+06
C:/temp/Job-8.odb,Step-1,Increment      1: Step Time =    1.000,"P-8-1",          1796,       90.5351,       51.7965,            0.,NA,NA,"",   1.07963E+06,   1.12534E+06,   1.12534E+06
C:/temp/Job-8.odb,Step-1,Increment      1: Step Time =    1.000,"P-8-1",          1797,       34.2169,       25.1959,            0.,NA,NA,"",   1.07776E+06,   1.09621E+06,   1.09621E+06
C:/temp/Job-8.odb,Step-1,Increment      1: Step Time =    1.000,"P-8-1",          1798,       105.246,       157.993,            0.,NA,NA,"",   1.03509E+06,   1.07073E+06,   1.07073E+06
C:/temp/Job-8.odb,Step-1,Increment      1: Step Time =    1.000,"P-8-1",          1799,       115.141,       41.7958,            0.,NA,NA,"",   1.06171E+06,   1.07978E+06,   1.07978E+06
C:/temp/Job-8.odb,Step-1,Increment      1: Step Time =    1.000,"P-8-1",          1800,       156.875,       72.1685,            0.,NA,NA,"",   1.03068E+06,   1.01221E+06,   1.01221E+06
C:/temp/Job-8.odb,Step-1,Increment      1: Step Time =    1.000,"P-8-1",          1801,       56.8458,       68.7574,            0.,NA,NA,"",   1.05698E+06,   1.04931E+06,   1.04931E+06
C:/temp/Job-8.odb,Step-1,Increment      1: Step Time =    1.000,"P-8-1",          1802,       46.0374,       103.221,            0.,NA,NA,"",   737.592E+03,   798.645E+03,   798.645E+03
C:/temp/Job-8.odb,Step-1,Increment      1: Step Time =    1.000,"P-8-1",          1803,       163.462,       167.197,            0.,NA,NA,"",   1.03592E+06,   1.02829E+06,   1.02829E+06
C:/temp/Job-8.odb,Step-1,Increment      1: Step Time =    1.000,"P-8-1",          1804,       40.8967,       97.5398,            0.,NA,NA,"",   748.439E+03,   815.907E+03,   815.907E+03
C:/temp/Job-8.odb,Step-1,Increment      1: Step Time =    1.000,"P-8-1",          1805,       148.965,       170.229,            0.,NA,NA,"",   1.04772E+06,   1.03742E+06,   1.03742E+06
C:/temp/Job-8.odb,Step-1,Increment      1: Step Time =    1.000,"P-8-1",          1806,       43.0905,       71.8565,            0.,NA,NA,"",   928.312E+03,   964.321E+03,   964.321E+03
C:/temp/Job-8.odb,Step-1,Increment      1: Step Time =    1.000,"P-8-1",          1807,       127.350,       156.435,            0.,NA,NA,"",   1.10301E+06,   1.09589E+06,   1.09589E+06
C:/temp/Job-8.odb,Step-1,Increment      1: Step Time =    1.000,"P-8-1",          1808,       123.309,       161.420,            0.,NA,NA,"",   1.07123E+06,   1.07330E+06,   1.07330E+06
C:/temp/Job-8.odb,Step-1,Increment      1: Step Time =    1.000,"P-8-1",          1809,       58.3009,       166.681,            0.,NA,NA,"",   1.08434E+06,   1.08394E+06,   1.08394E+06
C:/temp/Job-8.odb,Step-1,Increment      1: Step Time =    1.000,"P-8-1",          1810,       140.264,       61.4263,            0.,NA,NA,"",   1.15901E+06,   1.11259E+06,   1.11259E+06
C:/temp/Job-8.odb,Step-1,Increment      1: Step Time =    1.000,"P-8-1",          1811,       170.377,       106.775,            0.,NA,NA,"",   923.204E+03,   946.283E+03,   946.283E+03
C:/temp/Job-8.odb,Step-1,Increment      1: Step Time =    1.000,"P-8-1",          1812,       30.7152,       54.4561,            0.,NA,NA,"",   963.690E+03,   1.01431E+06,   1.01431E+06
C:/temp/Job-8.odb,Step-1,Increment      1: Step Time =    1.000,"P-8-1",          1813,       129.858,       24.1948,            0.,NA,NA,"",   1.02599E+06,   1.02408E+06,   1.02408E+06
C:/temp/Job-8.odb,Step-1,Increment      1: Step Time =    1.000,"P-8-1",          1814,       125.337,       24.2934,            0.,NA,NA,"",   1.02070E+06,   1.02160E+06,   1.02160E+06
C:/temp/Job-8.odb,Step-1,Increment      1: Step Time =    1.000,"P-8-1",          1815,       77.9299,       45.0629,            0.,NA,NA,"",   1.10229E+06,   1.11280E+06,   1.11280E+06
C:/temp/Job-8.odb,Step-1,Increment      1: Step Time =    1.000,"P-8-1",          1816,       97.1028,       160.084,            0.,NA,NA,"",   1.03071E+06,   1.06497E+06,   1.06497E+06
C:/temp/Job-8.odb,Step-1,Increment      1: Step Time =    1.000,"P-8-1",          1817,       163.535,       172.561,            0.,NA,NA,"",   1.02685E+06,   1.02117E+06,   1.02117E+06
C:/temp/Job-8.odb,Step-1,Increment      1: Step Time =    1.000,"P-8-1",          1818,       112.807,       167.621,            0.,NA,NA,"",   1.02673E+06,   1.04183E+06,   1.04183E+06
C:/temp/Job-8.odb,Step-1,Increment      1: Step Time =    1.000,"P-8-1",          1819,       118.685,       37.9614,            0.,NA,NA,"",   1.05760E+06,   1.06795E+06,   1.06795E+06
C:/temp/Job-8.odb,Step-1,Increment      1: Step Time =    1.000,"P-8-1",          1820,       167.221,       86.5880,            0.,NA,NA,"",   939.497E+03,   954.590E+03,   954.590E+03
C:/temp/Job-8.odb,Step-1,Increment      1: Step Time =    1.000,"P-8-1",          1821,       166.943,       83.1503,            0.,NA,NA,"",   952.636E+03,   964.054E+03,   964.054E+03
C:/temp/Job-8.odb,Step-1,Increment      1: Step Time =    1.000,"P-8-1",          1822,       129.348,       154.744,            0.,NA,NA,"",   1.11480E+06,   1.10303E+06,   1.10303E+06
C:/temp/Job-8.odb,Step-1,Increment      1: Step Time =    1.000,"P-8-1",          1823,       115.856,       167.310,            0.,NA,NA,"",   1.03257E+06,   1.04475E+06,   1.04475E+06
C:/temp/Job-8.odb,Step-1,Increment      1: Step Time =    1.000,"P-8-1",          1824,       75.8920,       164.744,            0.,NA,NA,"",   1.07033E+06,   1.07735E+06,   1.07735E+06
C:/temp/Job-8.odb,Step-1,Increment      1: Step Time =    1.000,"P-8-1",          1825,       27.6190,       65.9766,            0.,NA,NA,"",   890.390E+03,   956.369E+03,   956.369E+03
C:/temp/Job-8.odb,Step-1,Increment      1: Step Time =    1.000,"P-8-1",          1826,       28.0810,       69.8625,            0.,NA,NA,"",   873.405E+03,   940.573E+03,   940.573E+03
C:/temp/Job-8.odb,Step-1,Increment      1: Step Time =    1.000,"P-8-1",          1827,       33.8174,       156.389,            0.,NA,NA,"",   1.02450E+06,   1.05966E+06,   1.05966E+06
C:/temp/Job-8.odb,Step-1,Increment      1: Step Time =    1.000,"P-8-1",          1828,       43.6336,       132.693,            0.,NA,NA,"",   965.040E+03,   994.942E+03,   994.942E+03
C:/temp/Job-8.odb,Step-1,Increment      1: Step Time =    1.000,"P-8-1",          1829,       40.1609,       102.985,            0.,NA,NA,"",   753.857E+03,   821.438E+03,   821.438E+03
C:/temp/Job-8.odb,Step-1,Increment      1: Step Time =    1.000,"P-8-1",          1830,       170.537,       45.2270,            0.,NA,NA,"",   1.03348E+06,   1.02802E+06,   1.02802E+06
C:/temp/Job-8.odb,Step-1,Increment      1: Step Time =    1.000,"P-8-1",          1831,       48.3428,       64.0931,            0.,NA,NA,"",   1.01728E+06,   1.03221E+06,   1.03221E+06
C:/temp/Job-8.odb,Step-1,Increment      1: Step Time =    1.000,"P-8-1",          1832,       166.675,       74.7015,            0.,NA,NA,"",   990.772E+03,   992.559E+03,   992.559E+03
C:/temp/Job-8.odb,Step-1,Increment      1: Step Time =    1.000,"P-8-1",          1833,       64.2229,       156.988,            0.,NA,NA,"",   1.10824E+06,   1.10550E+06,   1.10550E+06
C:/temp/Job-8.odb,Step-1,Increment      1: Step Time =    1.000,"P-8-1",          1834,       167.894,       115.196,            0.,NA,NA,"",   948.920E+03,   962.576E+03,   962.576E+03
C:/temp/Job-8.odb,Step-1,Increment      1: Step Time =    1.000,"P-8-1",          1835,       167.105,       111.264,            0.,NA,NA,"",   930.488E+03,   947.090E+03,   947.090E+03
C:/temp/Job-8.odb,Step-1,Increment      1: Step Time =    1.000,"P-8-1",          1836,       147.952,       142.772,            0.,NA,NA,"",   1.11723E+06,   1.08309E+06,   1.08309E+06
C:/temp/Job-8.odb,Step-1,Increment      1: Step Time =    1.000,"P-8-1",          1837,       147.843,       151.906,            0.,NA,NA,"",   1.10072E+06,   1.07575E+06,   1.07575E+06
C:/temp/Job-8.odb,Step-1,Increment      1: Step Time =    1.000,"P-8-1",          1838,       145.602,       161.145,            0.,NA,NA,"",   1.07836E+06,   1.06173E+06,   1.06173E+06
C:/temp/Job-8.odb,Step-1,Increment      1: Step Time =    1.000,"P-8-1",          1839,       61.3989,       162.163,            0.,NA,NA,"",   1.09422E+06,   1.09279E+06,   1.09279E+06
C:/temp/Job-8.odb,Step-1,Increment      1: Step Time =    1.000,"P-8-1",          1840,       71.4611,       155.682,            0.,NA,NA,"",   1.11017E+06,   1.11132E+06,   1.11132E+06
C:/temp/Job-8.odb,Step-1,Increment      1: Step Time =    1.000,"P-8-1",          1841,       26.0013,       83.0421,            0.,NA,NA,"",   802.818E+03,   880.768E+03,   880.768E+03
C:/temp/Job-8.odb,Step-1,Increment      1: Step Time =    1.000,"P-8-1",          1842,       35.3989,       96.8812,            0.,NA,NA,"",   759.080E+03,   832.039E+03,   832.039E+03
C:/temp/Job-8.odb,Step-1,Increment      1: Step Time =    1.000,"P-8-1",          1843,       165.220,       54.8626,            0.,NA,NA,"",   1.04740E+06,   1.03651E+06,   1.03651E+06
C:/temp/Job-8.odb,Step-1,Increment      1: Step Time =    1.000,"P-8-1",          1844,       132.717,       160.851,            0.,NA,NA,"",   1.08587E+06,   1.07560E+06,   1.07560E+06
C:/temp/Job-8.odb,Step-1,Increment      1: Step Time =    1.000,"P-8-1",          1845,       130.253,       158.633,            0.,NA,NA,"",   1.09489E+06,   1.08541E+06,   1.08541E+06
C:/temp/Job-8.odb,Step-1,Increment      1: Step Time =    1.000,"P-8-1",          1846,       39.3592,       76.4063,            0.,NA,NA,"",   877.836E+03,   927.500E+03,   927.500E+03
C:/temp/Job-8.odb,Step-1,Increment      1: Step Time =    1.000,"P-8-1",          1847,       96.5201,       44.0407,            0.,NA,NA,"",   1.03938E+06,   1.08003E+06,   1.08003E+06
C:/temp/Job-8.odb,Step-1,Increment      1: Step Time =    1.000,"P-8-1",          1848,       128.608,       161.874,            0.,NA,NA,"",   1.07812E+06,   1.07255E+06,   1.07255E+06
C:/temp/Job-8.odb,Step-1,Increment      1: Step Time =    1.000,"P-8-1",          1849,       41.4725,       118.986,            0.,NA,NA,"",   847.362E+03,   898.845E+03,   898.845E+03
C:/temp/Job-8.odb,Step-1,Increment      1: Step Time =    1.000,"P-8-1",          1850,       47.7315,       124.934,            0.,NA,NA,"",   925.912E+03,   954.066E+03,   954.066E+03
C:/temp/Job-8.odb,Step-1,Increment      1: Step Time =    1.000,"P-8-1",          1851,       38.8349,       144.116,            0.,NA,NA,"",   997.219E+03,   1.03046E+06,   1.03046E+06
C:/temp/Job-8.odb,Step-1,Increment      1: Step Time =    1.000,"P-8-1",          1852,       84.6607,       161.635,            0.,NA,NA,"",   1.05673E+06,   1.07668E+06,   1.07668E+06
C:/temp/Job-8.odb,Step-1,Increment      1: Step Time =    1.000,"P-8-1",          1853,       125.866,       29.0061,            0.,NA,NA,"",   1.03822E+06,   1.03850E+06,   1.03850E+06
C:/temp/Job-8.odb,Step-1,Increment      1: Step Time =    1.000,"P-8-1",          1854,       121.395,       29.6576,            0.,NA,NA,"",   1.03346E+06,   1.03824E+06,   1.03824E+06
C:/temp/Job-8.odb,Step-1,Increment      1: Step Time =    1.000,"P-8-1",          1855,       137.788,       30.9878,            0.,NA,NA,"",   1.05638E+06,   1.04697E+06,   1.04697E+06
C:/temp/Job-8.odb,Step-1,Increment      1: Step Time =    1.000,"P-8-1",          1856,       57.9475,       44.5757,            0.,NA,NA,"",   1.10178E+06,   1.09961E+06,   1.09961E+06
C:/temp/Job-8.odb,Step-1,Increment      1: Step Time =    1.000,"P-8-1",          1857,       31.5869,       63.4250,            0.,NA,NA,"",   920.246E+03,   976.395E+03,   976.395E+03
C:/temp/Job-8.odb,Step-1,Increment      1: Step Time =    1.000,"P-8-1",          1858,       38.1561,       47.8541,            0.,NA,NA,"",   1.02758E+06,   1.05654E+06,   1.05654E+06
C:/temp/Job-8.odb,Step-1,Increment      1: Step Time =    1.000,"P-8-1",          1859,       106.386,       35.4459,            0.,NA,NA,"",   1.02351E+06,   1.04803E+06,   1.04803E+06
C:/temp/Job-8.odb,Step-1,Increment      1: Step Time =    1.000,"P-8-1",          1860,       93.7974,       43.2762,            0.,NA,NA,"",   1.04254E+06,   1.07964E+06,   1.07964E+06
C:/temp/Job-8.odb,Step-1,Increment      1: Step Time =    1.000,"P-8-1",          1861,       90.2516,       41.2472,            0.,NA,NA,"",   1.04772E+06,   1.07767E+06,   1.07767E+06
C:/temp/Job-8.odb,Step-1,Increment      1: Step Time =    1.000,"P-8-1",          1862,       39.2294,       133.047,            0.,NA,NA,"",   941.811E+03,   982.594E+03,   982.594E+03
C:/temp/Job-8.odb,Step-1,Increment      1: Step Time =    1.000,"P-8-1",          1863,       39.4510,       130.430,            0.,NA,NA,"",   925.220E+03,   968.340E+03,   968.340E+03
C:/temp/Job-8.odb,Step-1,Increment      1: Step Time =    1.000,"P-8-1",          1864,       163.876,       112.065,            0.,NA,NA,"",   927.404E+03,   940.436E+03,   940.436E+03
C:/temp/Job-8.odb,Step-1,Increment      1: Step Time =    1.000,"P-8-1",          1865,       43.6336,       29.3225,            0.,NA,NA,"",   1.07619E+06,   1.08539E+06,   1.08539E+06
C:/temp/Job-8.odb,Step-1,Increment      1: Step Time =    1.000,"P-8-1",          1866,       119.327,       34.6001,            0.,NA,NA,"",   1.04793E+06,   1.05668E+06,   1.05668E+06
C:/temp/Job-8.odb,Step-1,Increment      1: Step Time =    1.000,"P-8-1",          1867,       31.6708,       66.3926,            0.,NA,NA,"",   906.362E+03,   964.327E+03,   964.327E+03
C:/temp/Job-8.odb,Step-1,Increment      1: Step Time =    1.000,"P-8-1",          1868,       84.8102,       34.3599,            0.,NA,NA,"",   1.04389E+06,   1.06043E+06,   1.06043E+06
C:/temp/Job-8.odb,Step-1,Increment      1: Step Time =    1.000,"P-8-1",          1869,       146.638,       54.3143,            0.,NA,NA,"",   1.11745E+06,   1.08587E+06,   1.08587E+06
C:/temp/Job-8.odb,Step-1,Increment      1: Step Time =    1.000,"P-8-1",          1870,       34.7767,       101.638,            0.,NA,NA,"",   759.840E+03,   833.461E+03,   833.461E+03
C:/temp/Job-8.odb,Step-1,Increment      1: Step Time =    1.000,"P-8-1",          1871,       35.3875,       118.221,            0.,NA,NA,"",   827.013E+03,   890.564E+03,   890.564E+03
C:/temp/Job-8.odb,Step-1,Increment      1: Step Time =    1.000,"P-8-1",          1872,       52.2062,       34.5738,            0.,NA,NA,"",   1.08362E+06,   1.08624E+06,   1.08624E+06
C:/temp/Job-8.odb,Step-1,Increment      1: Step Time =    1.000,"P-8-1",          1873,       44.7725,       47.9435,            0.,NA,NA,"",   1.05426E+06,   1.07049E+06,   1.07049E+06
C:/temp/Job-8.odb,Step-1,Increment      1: Step Time =    1.000,"P-8-1",          1874,       34.1882,       143.907,            0.,NA,NA,"",   974.300E+03,   1.01796E+06,   1.01796E+06
C:/temp/Job-8.odb,Step-1,Increment      1: Step Time =    1.000,"P-8-1",          1875,       51.2862,       52.5070,            0.,NA,NA,"",   1.07436E+06,   1.07967E+06,   1.07967E+06
C:/temp/Job-8.odb,Step-1,Increment      1: Step Time =    1.000,"P-8-1",          1876,       44.2303,       60.1501,            0.,NA,NA,"",   1.01160E+06,   1.03331E+06,   1.03331E+06
C:/temp/Job-8.odb,Step-1,Increment      1: Step Time =    1.000,"P-8-1",          1877,       29.7390,       96.7717,            0.,NA,NA,"",   763.717E+03,   842.100E+03,   842.100E+03
C:/temp/Job-8.odb,Step-1,Increment      1: Step Time =    1.000,"P-8-1",          1878,       37.0708,       128.589,            0.,NA,NA,"",   902.696E+03,   952.346E+03,   952.346E+03
C:/temp/Job-8.odb,Step-1,Increment      1: Step Time =    1.000,"P-8-1",          1879,       34.4286,       147.122,            0.,NA,NA,"",   989.528E+03,   1.03024E+06,   1.03024E+06
C:/temp/Job-8.odb,Step-1,Increment      1: Step Time =    1.000,"P-8-1",          1880,       27.3969,       93.7405,            0.,NA,NA,"",   767.923E+03,   848.003E+03,   848.003E+03
C:/temp/Job-8.odb,Step-1,Increment      1: Step Time =    1.000,"P-8-1",          1881,       29.7593,       91.4356,            0.,NA,NA,"",   774.146E+03,   851.227E+03,   851.227E+03
C:/temp/Job-8.odb,Step-1,Increment      1: Step Time =    1.000,"P-8-1",          1882,       155.935,       54.8567,            0.,NA,NA,"",   1.08180E+06,   1.05885E+06,   1.05885E+06
C:/temp/Job-8.odb,Step-1,Increment      1: Step Time =    1.000,"P-8-1",          1883,       30.3198,       123.714,            0.,NA,NA,"",   845.704E+03,   913.116E+03,   913.116E+03
C:/temp/Job-8.odb,Step-1,Increment      1: Step Time =    1.000,"P-8-1",          1884,       29.3338,       131.713,            0.,NA,NA,"",   886.941E+03,   950.626E+03,   950.626E+03
C:/temp/Job-8.odb,Step-1,Increment      1: Step Time =    1.000,"P-8-1",          1885,       34.5789,       86.1004,            0.,NA,NA,"",   799.688E+03,   867.909E+03,   867.909E+03
C:/temp/Job-8.odb,Step-1,Increment      1: Step Time =    1.000,"P-8-1",          1886,       31.4426,       87.7588,            0.,NA,NA,"",   789.668E+03,   863.037E+03,   863.037E+03
C:/temp/Job-8.odb,Step-1,Increment      1: Step Time =    1.000,"P-8-1",          1887,       29.7071,       144.654,            0.,NA,NA,"",   954.468E+03,   1.00821E+06,   1.00821E+06
C:/temp/Job-8.odb,Step-1,Increment      1: Step Time =    1.000,"P-8-1",          1888,       45.6360,       43.1931,            0.,NA,NA,"",   1.06713E+06,   1.07949E+06,   1.07949E+06
