ODB Name,Step,Frame,Part Instance Name,    Node Label,X,Y,Z,Section Name,Material Name,Section Point,       S-Mises,S-Max. In-Plane Principal (Abs),S-Max. Principal (Abs)
C:/temp/Job-3.odb,Step-1,Increment      1: Step Time =    1.000,"P-3-1",             1,   92.9585E-03,   110.328E-03,            0.,NA,NA,"",   1.41140E+06,   1.44412E+06,   1.44412E+06
C:/temp/Job-3.odb,Step-1,Increment      1: Step Time =    1.000,"P-3-1",             2,   88.3641E-03,   104.567E-03,            0.,NA,NA,"",   447.075E+03,  -26.8221E+03,  -26.8221E+03
C:/temp/Job-3.odb,Step-1,Increment      1: Step Time =    1.000,"P-3-1",             3,   87.5349E-03,   100.934E-03,            0.,NA,NA,"",   427.730E+03,  -388.256E+03,  -388.256E+03
C:/temp/Job-3.odb,Step-1,Increment      1: Step Time =    1.000,"P-3-1",             4,   89.1747E-03,     93.75E-03,            0.,NA,NA,"",   752.792E+03,   448.294E+03,   448.294E+03
C:/temp/Job-3.odb,Step-1,Increment      1: Step Time =    1.000,"P-3-1",             5,   94.5765E-03,   88.7379E-03,            0.,NA,NA,"",   1.82901E+06,   1.89942E+06,   1.89942E+06
C:/temp/Job-3.odb,Step-1,Increment      1: Step Time =    1.000,"P-3-1",             6,   101.863E-03,   87.6396E-03,            0.,NA,NA,"",   2.21927E+06,   2.30857E+06,   2.30857E+06
C:/temp/Job-3.odb,Step-1,Increment      1: Step Time =    1.000,"P-3-1",             7,   105.424E-03,   88.7379E-03,            0.,NA,NA,"",   1.86151E+06,   1.91254E+06,   1.91254E+06
C:/temp/Job-3.odb,Step-1,Increment      1: Step Time =    1.000,"P-3-1",             8,   110.825E-03,     93.75E-03,            0.,NA,NA,"",   601.792E+03,   199.558E+03,   199.558E+03
C:/temp/Job-3.odb,Step-1,Increment      1: Step Time =    1.000,"P-3-1",             9,   112.465E-03,   100.934E-03,            0.,NA,NA,"",   494.088E+03,  -444.144E+03,  -444.144E+03
C:/temp/Job-3.odb,Step-1,Increment      1: Step Time =    1.000,"P-3-1",            10,   109.773E-03,   107.794E-03,            0.,NA,NA,"",   839.993E+03,   792.254E+03,   792.254E+03
C:/temp/Job-3.odb,Step-1,Increment      1: Step Time =    1.000,"P-3-1",            11,   107.042E-03,   110.328E-03,            0.,NA,NA,"",   1.44078E+06,   1.47436E+06,   1.47436E+06
C:/temp/Job-3.odb,Step-1,Increment      1: Step Time =    1.000,"P-3-1",            12,   100.000E-03,   112.500E-03,            0.,NA,NA,"",   2.21622E+06,   2.33217E+06,   2.33217E+06
C:/temp/Job-3.odb,Step-1,Increment      1: Step Time =    1.000,"P-3-1",            13,   192.727E-03,            0.,            0.,NA,NA,"",   999.826E+03,   999.816E+03,   999.816E+03
C:/temp/Job-3.odb,Step-1,Increment      1: Step Time =    1.000,"P-3-1",            14,   185.455E-03,            0.,            0.,NA,NA,"",   999.386E+03,   999.378E+03,   999.378E+03
C:/temp/Job-3.odb,Step-1,Increment      1: Step Time =    1.000,"P-3-1",            15,   178.182E-03,            0.,            0.,NA,NA,"",   998.736E+03,   998.719E+03,   998.719E+03
C:/temp/Job-3.odb,Step-1,Increment      1: Step Time =    1.000,"P-3-1",            16,   170.909E-03,            0.,            0.,NA,NA,"",   997.567E+03,   997.532E+03,   997.532E+03
C:/temp/Job-3.odb,Step-1,Increment      1: Step Time =    1.000,"P-3-1",            17,   160.000E-03,            0.,            0.,NA,NA,"",   993.747E+03,   993.697E+03,   993.697E+03
C:/temp/Job-3.odb,Step-1,Increment      1: Step Time =    1.000,"P-3-1",            18,   152.727E-03,            0.,            0.,NA,NA,"",   989.061E+03,   988.958E+03,   988.958E+03
C:/temp/Job-3.odb,Step-1,Increment      1: Step Time =    1.000,"P-3-1",            19,   145.455E-03,            0.,            0.,NA,NA,"",   981.999E+03,   981.923E+03,   981.923E+03
C:/temp/Job-3.odb,Step-1,Increment      1: Step Time =    1.000,"P-3-1",            20,   138.182E-03,            0.,            0.,NA,NA,"",   972.887E+03,   972.797E+03,   972.797E+03
C:/temp/Job-3.odb,Step-1,Increment      1: Step Time =    1.000,"P-3-1",            21,   130.909E-03,            0.,            0.,NA,NA,"",   961.935E+03,   961.936E+03,   961.936E+03
C:/temp/Job-3.odb,Step-1,Increment      1: Step Time =    1.000,"P-3-1",            22,   123.636E-03,            0.,            0.,NA,NA,"",   950.223E+03,   950.291E+03,   950.291E+03
C:/temp/Job-3.odb,Step-1,Increment      1: Step Time =    1.000,"P-3-1",            23,   116.364E-03,            0.,            0.,NA,NA,"",   939.102E+03,   939.172E+03,   939.172E+03
C:/temp/Job-3.odb,Step-1,Increment      1: Step Time =    1.000,"P-3-1",            24,   109.091E-03,            0.,            0.,NA,NA,"",   930.834E+03,   930.927E+03,   930.927E+03
C:/temp/Job-3.odb,Step-1,Increment      1: Step Time =    1.000,"P-3-1",            25,   101.818E-03,            0.,            0.,NA,NA,"",   926.199E+03,   926.313E+03,   926.313E+03
C:/temp/Job-3.odb,Step-1,Increment      1: Step Time =    1.000,"P-3-1",            26,   90.9091E-03,            0.,            0.,NA,NA,"",   925.928E+03,   926.026E+03,   926.026E+03
C:/temp/Job-3.odb,Step-1,Increment      1: Step Time =    1.000,"P-3-1",            27,   83.6364E-03,            0.,            0.,NA,NA,"",   929.876E+03,   929.946E+03,   929.946E+03
C:/temp/Job-3.odb,Step-1,Increment      1: Step Time =    1.000,"P-3-1",            28,   76.3636E-03,            0.,            0.,NA,NA,"",   937.109E+03,   937.168E+03,   937.168E+03
C:/temp/Job-3.odb,Step-1,Increment      1: Step Time =    1.000,"P-3-1",            29,   69.0909E-03,            0.,            0.,NA,NA,"",   946.638E+03,   946.687E+03,   946.687E+03
C:/temp/Job-3.odb,Step-1,Increment      1: Step Time =    1.000,"P-3-1",            30,   61.8182E-03,            0.,            0.,NA,NA,"",   956.914E+03,   956.926E+03,   956.926E+03
C:/temp/Job-3.odb,Step-1,Increment      1: Step Time =    1.000,"P-3-1",            31,   54.5455E-03,            0.,            0.,NA,NA,"",   967.125E+03,   967.240E+03,   967.240E+03
C:/temp/Job-3.odb,Step-1,Increment      1: Step Time =    1.000,"P-3-1",            32,   47.2727E-03,            0.,            0.,NA,NA,"",   978.312E+03,   978.421E+03,   978.421E+03
C:/temp/Job-3.odb,Step-1,Increment      1: Step Time =    1.000,"P-3-1",            33,   40.0000E-03,            0.,            0.,NA,NA,"",   991.907E+03,   992.152E+03,   992.152E+03
C:/temp/Job-3.odb,Step-1,Increment      1: Step Time =    1.000,"P-3-1",            34,   29.0909E-03,            0.,            0.,NA,NA,"",   1.02150E+06,   1.02135E+06,   1.02135E+06
C:/temp/Job-3.odb,Step-1,Increment      1: Step Time =    1.000,"P-3-1",            35,   21.8182E-03,            0.,            0.,NA,NA,"",   1.05827E+06,   1.05869E+06,   1.05869E+06
C:/temp/Job-3.odb,Step-1,Increment      1: Step Time =    1.000,"P-3-1",            36,   14.5455E-03,            0.,            0.,NA,NA,"",   1.13207E+06,   1.13348E+06,   1.13348E+06
C:/temp/Job-3.odb,Step-1,Increment      1: Step Time =    1.000,"P-3-1",            37,   7.27273E-03,            0.,            0.,NA,NA,"",   1.30271E+06,   1.30556E+06,   1.30556E+06
C:/temp/Job-3.odb,Step-1,Increment      1: Step Time =    1.000,"P-3-1",            38,   200.000E-03,            0.,            0.,NA,NA,"",   999.990E+03,   999.981E+03,   999.981E+03
C:/temp/Job-3.odb,Step-1,Increment      1: Step Time =    1.000,"P-3-1",            39,            0.,            0.,            0.,NA,NA,"",   1.68640E+06,   1.76581E+06,   1.76581E+06
C:/temp/Job-3.odb,Step-1,Increment      1: Step Time =    1.000,"P-3-1",            40,   200.000E-03,   192.727E-03,            0.,NA,NA,"",   1.00008E+06,   999.984E+03,   999.984E+03
C:/temp/Job-3.odb,Step-1,Increment      1: Step Time =    1.000,"P-3-1",            41,   200.000E-03,   185.455E-03,            0.,NA,NA,"",   1.00031E+06,   1.00002E+06,   1.00002E+06
C:/temp/Job-3.odb,Step-1,Increment      1: Step Time =    1.000,"P-3-1",            42,   200.000E-03,   178.182E-03,            0.,NA,NA,"",   1.00040E+06,   1.00007E+06,   1.00007E+06
C:/temp/Job-3.odb,Step-1,Increment      1: Step Time =    1.000,"P-3-1",            43,   200.000E-03,   170.909E-03,            0.,NA,NA,"",   1.00010E+06,   1.00009E+06,   1.00009E+06
C:/temp/Job-3.odb,Step-1,Increment      1: Step Time =    1.000,"P-3-1",            44,   200.000E-03,   160.000E-03,            0.,NA,NA,"",   998.045E+03,   1.00017E+06,   1.00017E+06
C:/temp/Job-3.odb,Step-1,Increment      1: Step Time =    1.000,"P-3-1",            45,   200.000E-03,   152.727E-03,            0.,NA,NA,"",   995.114E+03,   1.00030E+06,   1.00030E+06
C:/temp/Job-3.odb,Step-1,Increment      1: Step Time =    1.000,"P-3-1",            46,   200.000E-03,   145.455E-03,            0.,NA,NA,"",   990.715E+03,   1.00017E+06,   1.00017E+06
C:/temp/Job-3.odb,Step-1,Increment      1: Step Time =    1.000,"P-3-1",            47,   200.000E-03,   138.182E-03,            0.,NA,NA,"",   985.263E+03,   1.00001E+06,   1.00001E+06
C:/temp/Job-3.odb,Step-1,Increment      1: Step Time =    1.000,"P-3-1",            48,   200.000E-03,   130.909E-03,            0.,NA,NA,"",   979.025E+03,   999.952E+03,   999.952E+03
C:/temp/Job-3.odb,Step-1,Increment      1: Step Time =    1.000,"P-3-1",            49,   200.000E-03,   123.636E-03,            0.,NA,NA,"",   973.075E+03,   999.949E+03,   999.949E+03
C:/temp/Job-3.odb,Step-1,Increment      1: Step Time =    1.000,"P-3-1",            50,   200.000E-03,   116.364E-03,            0.,NA,NA,"",   967.997E+03,   999.889E+03,   999.889E+03
C:/temp/Job-3.odb,Step-1,Increment      1: Step Time =    1.000,"P-3-1",            51,   200.000E-03,   109.091E-03,            0.,NA,NA,"",   964.431E+03,   999.742E+03,   999.742E+03
C:/temp/Job-3.odb,Step-1,Increment      1: Step Time =    1.000,"P-3-1",            52,   200.000E-03,   101.818E-03,            0.,NA,NA,"",   962.498E+03,   999.588E+03,   999.588E+03
C:/temp/Job-3.odb,Step-1,Increment      1: Step Time =    1.000,"P-3-1",            53,   200.000E-03,   90.9091E-03,            0.,NA,NA,"",   963.988E+03,   999.735E+03,   999.735E+03
C:/temp/Job-3.odb,Step-1,Increment      1: Step Time =    1.000,"P-3-1",            54,   200.000E-03,   83.6364E-03,            0.,NA,NA,"",   967.876E+03,   999.788E+03,   999.788E+03
C:/temp/Job-3.odb,Step-1,Increment      1: Step Time =    1.000,"P-3-1",            55,   200.000E-03,   76.3636E-03,            0.,NA,NA,"",   973.375E+03,   999.912E+03,   999.912E+03
C:/temp/Job-3.odb,Step-1,Increment      1: Step Time =    1.000,"P-3-1",            56,   200.000E-03,   69.0909E-03,            0.,NA,NA,"",   979.533E+03,   999.993E+03,   999.993E+03
C:/temp/Job-3.odb,Step-1,Increment      1: Step Time =    1.000,"P-3-1",            57,   200.000E-03,   61.8182E-03,            0.,NA,NA,"",   985.751E+03,   1.00020E+06,   1.00020E+06
C:/temp/Job-3.odb,Step-1,Increment      1: Step Time =    1.000,"P-3-1",            58,   200.000E-03,   54.5455E-03,            0.,NA,NA,"",   991.011E+03,   1.00017E+06,   1.00017E+06
C:/temp/Job-3.odb,Step-1,Increment      1: Step Time =    1.000,"P-3-1",            59,   200.000E-03,   47.2727E-03,            0.,NA,NA,"",   995.307E+03,   1.00016E+06,   1.00016E+06
C:/temp/Job-3.odb,Step-1,Increment      1: Step Time =    1.000,"P-3-1",            60,   200.000E-03,   40.0000E-03,            0.,NA,NA,"",   998.095E+03,   1.00015E+06,   1.00015E+06
C:/temp/Job-3.odb,Step-1,Increment      1: Step Time =    1.000,"P-3-1",            61,   200.000E-03,   29.0909E-03,            0.,NA,NA,"",   1.00015E+06,   1.00009E+06,   1.00009E+06
C:/temp/Job-3.odb,Step-1,Increment      1: Step Time =    1.000,"P-3-1",            62,   200.000E-03,   21.8182E-03,            0.,NA,NA,"",   1.00046E+06,   1.00007E+06,   1.00007E+06
C:/temp/Job-3.odb,Step-1,Increment      1: Step Time =    1.000,"P-3-1",            63,   200.000E-03,   14.5455E-03,            0.,NA,NA,"",   1.00032E+06,   1.00001E+06,   1.00001E+06
C:/temp/Job-3.odb,Step-1,Increment      1: Step Time =    1.000,"P-3-1",            64,   200.000E-03,   7.27273E-03,            0.,NA,NA,"",   1.00008E+06,   999.979E+03,   999.979E+03
C:/temp/Job-3.odb,Step-1,Increment      1: Step Time =    1.000,"P-3-1",            65,   200.000E-03,   200.000E-03,            0.,NA,NA,"",   999.990E+03,   999.981E+03,   999.981E+03
C:/temp/Job-3.odb,Step-1,Increment      1: Step Time =    1.000,"P-3-1",            66,   7.27273E-03,   200.000E-03,            0.,NA,NA,"",   1.30009E+06,   1.30317E+06,   1.30317E+06
C:/temp/Job-3.odb,Step-1,Increment      1: Step Time =    1.000,"P-3-1",            67,   14.5455E-03,   200.000E-03,            0.,NA,NA,"",   1.12999E+06,   1.13121E+06,   1.13121E+06
C:/temp/Job-3.odb,Step-1,Increment      1: Step Time =    1.000,"P-3-1",            68,   21.8182E-03,   200.000E-03,            0.,NA,NA,"",   1.05926E+06,   1.05955E+06,   1.05955E+06
C:/temp/Job-3.odb,Step-1,Increment      1: Step Time =    1.000,"P-3-1",            69,   29.0909E-03,   200.000E-03,            0.,NA,NA,"",   1.02337E+06,   1.02351E+06,   1.02351E+06
C:/temp/Job-3.odb,Step-1,Increment      1: Step Time =    1.000,"P-3-1",            70,   40.0000E-03,   200.000E-03,            0.,NA,NA,"",   989.585E+03,   989.754E+03,   989.754E+03
C:/temp/Job-3.odb,Step-1,Increment      1: Step Time =    1.000,"P-3-1",            71,   47.2727E-03,   200.000E-03,            0.,NA,NA,"",   978.833E+03,   978.723E+03,   978.723E+03
C:/temp/Job-3.odb,Step-1,Increment      1: Step Time =    1.000,"P-3-1",            72,   54.5455E-03,   200.000E-03,            0.,NA,NA,"",   966.564E+03,   966.772E+03,   966.772E+03
C:/temp/Job-3.odb,Step-1,Increment      1: Step Time =    1.000,"P-3-1",            73,   61.8182E-03,   200.000E-03,            0.,NA,NA,"",   956.515E+03,   956.520E+03,   956.520E+03
C:/temp/Job-3.odb,Step-1,Increment      1: Step Time =    1.000,"P-3-1",            74,   69.0909E-03,   200.000E-03,            0.,NA,NA,"",   946.808E+03,   946.853E+03,   946.853E+03
C:/temp/Job-3.odb,Step-1,Increment      1: Step Time =    1.000,"P-3-1",            75,   76.3636E-03,   200.000E-03,            0.,NA,NA,"",   937.215E+03,   937.307E+03,   937.307E+03
C:/temp/Job-3.odb,Step-1,Increment      1: Step Time =    1.000,"P-3-1",            76,   83.6364E-03,   200.000E-03,            0.,NA,NA,"",   929.268E+03,   929.358E+03,   929.358E+03
C:/temp/Job-3.odb,Step-1,Increment      1: Step Time =    1.000,"P-3-1",            77,   90.9091E-03,   200.000E-03,            0.,NA,NA,"",   925.023E+03,   925.131E+03,   925.131E+03
C:/temp/Job-3.odb,Step-1,Increment      1: Step Time =    1.000,"P-3-1",            78,   98.1818E-03,   200.000E-03,            0.,NA,NA,"",   925.039E+03,   925.161E+03,   925.161E+03
C:/temp/Job-3.odb,Step-1,Increment      1: Step Time =    1.000,"P-3-1",            79,   109.091E-03,   200.000E-03,            0.,NA,NA,"",   931.483E+03,   931.551E+03,   931.551E+03
C:/temp/Job-3.odb,Step-1,Increment      1: Step Time =    1.000,"P-3-1",            80,   116.364E-03,   200.000E-03,            0.,NA,NA,"",   939.680E+03,   939.705E+03,   939.705E+03
C:/temp/Job-3.odb,Step-1,Increment      1: Step Time =    1.000,"P-3-1",            81,   123.636E-03,   200.000E-03,            0.,NA,NA,"",   950.215E+03,   950.245E+03,   950.245E+03
C:/temp/Job-3.odb,Step-1,Increment      1: Step Time =    1.000,"P-3-1",            82,   130.909E-03,   200.000E-03,            0.,NA,NA,"",   961.887E+03,   961.894E+03,   961.894E+03
C:/temp/Job-3.odb,Step-1,Increment      1: Step Time =    1.000,"P-3-1",            83,   138.182E-03,   200.000E-03,            0.,NA,NA,"",   972.828E+03,   972.792E+03,   972.792E+03
C:/temp/Job-3.odb,Step-1,Increment      1: Step Time =    1.000,"P-3-1",            84,   145.455E-03,   200.000E-03,            0.,NA,NA,"",   982.141E+03,   982.087E+03,   982.087E+03
C:/temp/Job-3.odb,Step-1,Increment      1: Step Time =    1.000,"P-3-1",            85,   152.727E-03,   200.000E-03,            0.,NA,NA,"",   989.160E+03,   989.078E+03,   989.078E+03
C:/temp/Job-3.odb,Step-1,Increment      1: Step Time =    1.000,"P-3-1",            86,   160.000E-03,   200.000E-03,            0.,NA,NA,"",   993.997E+03,   993.908E+03,   993.908E+03
C:/temp/Job-3.odb,Step-1,Increment      1: Step Time =    1.000,"P-3-1",            87,   170.909E-03,   200.000E-03,            0.,NA,NA,"",   997.742E+03,   997.711E+03,   997.711E+03
C:/temp/Job-3.odb,Step-1,Increment      1: Step Time =    1.000,"P-3-1",            88,   178.182E-03,   200.000E-03,            0.,NA,NA,"",   998.787E+03,   998.772E+03,   998.772E+03
C:/temp/Job-3.odb,Step-1,Increment      1: Step Time =    1.000,"P-3-1",            89,   185.455E-03,   200.000E-03,            0.,NA,NA,"",   999.402E+03,   999.400E+03,   999.400E+03
C:/temp/Job-3.odb,Step-1,Increment      1: Step Time =    1.000,"P-3-1",            90,   192.727E-03,   200.000E-03,            0.,NA,NA,"",   999.818E+03,   999.810E+03,   999.810E+03
C:/temp/Job-3.odb,Step-1,Increment      1: Step Time =    1.000,"P-3-1",            91,            0.,   200.000E-03,            0.,NA,NA,"",   1.68656E+06,   1.76443E+06,   1.76443E+06
C:/temp/Job-3.odb,Step-1,Increment      1: Step Time =    1.000,"P-3-1",            92,            0.,   7.27273E-03,            0.,NA,NA,"",   1.21134E+06,   1.31600E+06,   1.31600E+06
C:/temp/Job-3.odb,Step-1,Increment      1: Step Time =    1.000,"P-3-1",            93,            0.,   14.5455E-03,            0.,NA,NA,"",   1.04953E+06,   1.15556E+06,   1.15556E+06
C:/temp/Job-3.odb,Step-1,Increment      1: Step Time =    1.000,"P-3-1",            94,            0.,   21.8182E-03,            0.,NA,NA,"",   974.542E+03,   1.08062E+06,   1.08062E+06
C:/temp/Job-3.odb,Step-1,Increment      1: Step Time =    1.000,"P-3-1",            95,            0.,   29.0909E-03,            0.,NA,NA,"",   931.056E+03,   1.03606E+06,   1.03606E+06
C:/temp/Job-3.odb,Step-1,Increment      1: Step Time =    1.000,"P-3-1",            96,            0.,   40.0000E-03,            0.,NA,NA,"",   882.922E+03,   988.668E+03,   988.668E+03
C:/temp/Job-3.odb,Step-1,Increment      1: Step Time =    1.000,"P-3-1",            97,            0.,   47.2727E-03,            0.,NA,NA,"",   860.184E+03,   965.600E+03,   965.600E+03
C:/temp/Job-3.odb,Step-1,Increment      1: Step Time =    1.000,"P-3-1",            98,            0.,   54.5455E-03,            0.,NA,NA,"",   841.883E+03,   946.484E+03,   946.484E+03
C:/temp/Job-3.odb,Step-1,Increment      1: Step Time =    1.000,"P-3-1",            99,            0.,   61.8182E-03,            0.,NA,NA,"",   825.226E+03,   928.892E+03,   928.892E+03
C:/temp/Job-3.odb,Step-1,Increment      1: Step Time =    1.000,"P-3-1",           100,            0.,   69.0909E-03,            0.,NA,NA,"",   810.595E+03,   913.464E+03,   913.464E+03
C:/temp/Job-3.odb,Step-1,Increment      1: Step Time =    1.000,"P-3-1",           101,            0.,   76.3636E-03,            0.,NA,NA,"",   797.903E+03,   899.953E+03,   899.953E+03
C:/temp/Job-3.odb,Step-1,Increment      1: Step Time =    1.000,"P-3-1",           102,            0.,   83.6364E-03,            0.,NA,NA,"",   787.531E+03,   888.866E+03,   888.866E+03
C:/temp/Job-3.odb,Step-1,Increment      1: Step Time =    1.000,"P-3-1",           103,            0.,   90.9091E-03,            0.,NA,NA,"",   780.897E+03,   881.634E+03,   881.634E+03
C:/temp/Job-3.odb,Step-1,Increment      1: Step Time =    1.000,"P-3-1",           104,            0.,   98.1818E-03,            0.,NA,NA,"",   778.606E+03,   878.758E+03,   878.758E+03
C:/temp/Job-3.odb,Step-1,Increment      1: Step Time =    1.000,"P-3-1",           105,            0.,   109.091E-03,            0.,NA,NA,"",   781.206E+03,   881.932E+03,   881.932E+03
C:/temp/Job-3.odb,Step-1,Increment      1: Step Time =    1.000,"P-3-1",           106,            0.,   116.364E-03,            0.,NA,NA,"",   787.703E+03,   889.082E+03,   889.082E+03
C:/temp/Job-3.odb,Step-1,Increment      1: Step Time =    1.000,"P-3-1",           107,            0.,   123.636E-03,            0.,NA,NA,"",   797.768E+03,   899.879E+03,   899.879E+03
C:/temp/Job-3.odb,Step-1,Increment      1: Step Time =    1.000,"P-3-1",           108,            0.,   130.909E-03,            0.,NA,NA,"",   810.727E+03,   913.652E+03,   913.652E+03
C:/temp/Job-3.odb,Step-1,Increment      1: Step Time =    1.000,"P-3-1",           109,            0.,   138.182E-03,            0.,NA,NA,"",   825.722E+03,   929.404E+03,   929.404E+03
C:/temp/Job-3.odb,Step-1,Increment      1: Step Time =    1.000,"P-3-1",           110,            0.,   145.455E-03,            0.,NA,NA,"",   842.451E+03,   946.941E+03,   946.941E+03
C:/temp/Job-3.odb,Step-1,Increment      1: Step Time =    1.000,"P-3-1",           111,            0.,   152.727E-03,            0.,NA,NA,"",   861.331E+03,   966.548E+03,   966.548E+03
C:/temp/Job-3.odb,Step-1,Increment      1: Step Time =    1.000,"P-3-1",           112,            0.,   160.000E-03,            0.,NA,NA,"",   883.334E+03,   989.073E+03,   989.073E+03
C:/temp/Job-3.odb,Step-1,Increment      1: Step Time =    1.000,"P-3-1",           113,            0.,   170.909E-03,            0.,NA,NA,"",   927.101E+03,   1.03340E+06,   1.03340E+06
C:/temp/Job-3.odb,Step-1,Increment      1: Step Time =    1.000,"P-3-1",           114,            0.,   178.182E-03,            0.,NA,NA,"",   971.823E+03,   1.07760E+06,   1.07760E+06
C:/temp/Job-3.odb,Step-1,Increment      1: Step Time =    1.000,"P-3-1",           115,            0.,   185.455E-03,            0.,NA,NA,"",   1.04908E+06,   1.15388E+06,   1.15388E+06
C:/temp/Job-3.odb,Step-1,Increment      1: Step Time =    1.000,"P-3-1",           116,            0.,   192.727E-03,            0.,NA,NA,"",   1.21019E+06,   1.31302E+06,   1.31302E+06
C:/temp/Job-3.odb,Step-1,Increment      1: Step Time =    1.000,"P-3-1",           117,   192.923E-03,   117.065E-03,            0.,NA,NA,"",   973.038E+03,   998.706E+03,   998.706E+03
C:/temp/Job-3.odb,Step-1,Increment      1: Step Time =    1.000,"P-3-1",           118,   183.295E-03,   117.749E-03,            0.,NA,NA,"",   977.494E+03,   993.897E+03,   993.897E+03
C:/temp/Job-3.odb,Step-1,Increment      1: Step Time =    1.000,"P-3-1",           119,   175.916E-03,   114.655E-03,            0.,NA,NA,"",   972.511E+03,   984.980E+03,   984.980E+03
C:/temp/Job-3.odb,Step-1,Increment      1: Step Time =    1.000,"P-3-1",           120,   161.298E-03,   113.267E-03,            0.,NA,NA,"",   957.321E+03,   962.260E+03,   962.260E+03
C:/temp/Job-3.odb,Step-1,Increment      1: Step Time =    1.000,"P-3-1",           121,   153.464E-03,   114.729E-03,            0.,NA,NA,"",   954.848E+03,   953.164E+03,   953.164E+03
C:/temp/Job-3.odb,Step-1,Increment      1: Step Time =    1.000,"P-3-1",           122,   145.556E-03,   114.276E-03,            0.,NA,NA,"",   947.147E+03,   937.674E+03,   937.674E+03
C:/temp/Job-3.odb,Step-1,Increment      1: Step Time =    1.000,"P-3-1",           123,   138.647E-03,   114.028E-03,            0.,NA,NA,"",   954.069E+03,   931.426E+03,   931.426E+03
C:/temp/Job-3.odb,Step-1,Increment      1: Step Time =    1.000,"P-3-1",           124,   132.031E-03,   115.382E-03,            0.,NA,NA,"",   1.01694E+06,   967.128E+03,   967.128E+03
C:/temp/Job-3.odb,Step-1,Increment      1: Step Time =    1.000,"P-3-1",           125,   121.510E-03,   112.711E-03,            0.,NA,NA,"",   1.11181E+06,   990.461E+03,   990.461E+03
C:/temp/Job-3.odb,Step-1,Increment      1: Step Time =    1.000,"P-3-1",           126,   114.301E-03,   112.601E-03,            0.,NA,NA,"",   1.30568E+06,   1.15912E+06,   1.15912E+06
C:/temp/Job-3.odb,Step-1,Increment      1: Step Time =    1.000,"P-3-1",           127,   107.210E-03,   114.903E-03,            0.,NA,NA,"",   1.63332E+06,   1.68831E+06,   1.68831E+06
C:/temp/Job-3.odb,Step-1,Increment      1: Step Time =    1.000,"P-3-1",           128,   99.5382E-03,   116.929E-03,            0.,NA,NA,"",   1.73454E+06,   1.86836E+06,   1.86836E+06
C:/temp/Job-3.odb,Step-1,Increment      1: Step Time =    1.000,"P-3-1",           129,   91.8643E-03,   115.266E-03,            0.,NA,NA,"",   1.53317E+06,   1.57218E+06,   1.57218E+06
C:/temp/Job-3.odb,Step-1,Increment      1: Step Time =    1.000,"P-3-1",           130,   84.7127E-03,   114.997E-03,            0.,NA,NA,"",   1.29566E+06,   1.19395E+06,   1.19395E+06
C:/temp/Job-3.odb,Step-1,Increment      1: Step Time =    1.000,"P-3-1",           131,   76.8100E-03,   116.448E-03,            0.,NA,NA,"",    1.1343E+06,   1.06260E+06,   1.06260E+06
C:/temp/Job-3.odb,Step-1,Increment      1: Step Time =    1.000,"P-3-1",           132,   70.2640E-03,   115.433E-03,            0.,NA,NA,"",   988.734E+03,   961.139E+03,   961.139E+03
C:/temp/Job-3.odb,Step-1,Increment      1: Step Time =    1.000,"P-3-1",           133,   61.8965E-03,   115.370E-03,            0.,NA,NA,"",   915.700E+03,   927.711E+03,   927.711E+03
C:/temp/Job-3.odb,Step-1,Increment      1: Step Time =    1.000,"P-3-1",           134,   53.6477E-03,   115.499E-03,            0.,NA,NA,"",   886.890E+03,   921.697E+03,   921.697E+03
C:/temp/Job-3.odb,Step-1,Increment      1: Step Time =    1.000,"P-3-1",           135,   45.0512E-03,   115.961E-03,            0.,NA,NA,"",   871.682E+03,   922.997E+03,   922.997E+03
C:/temp/Job-3.odb,Step-1,Increment      1: Step Time =    1.000,"P-3-1",           136,   37.1245E-03,   112.763E-03,            0.,NA,NA,"",   845.010E+03,   910.871E+03,   910.871E+03
C:/temp/Job-3.odb,Step-1,Increment      1: Step Time =    1.000,"P-3-1",           137,   29.5654E-03,   113.658E-03,            0.,NA,NA,"",   836.554E+03,   911.922E+03,   911.922E+03
C:/temp/Job-3.odb,Step-1,Increment      1: Step Time =    1.000,"P-3-1",           138,   21.5060E-03,   115.479E-03,            0.,NA,NA,"",   826.283E+03,   910.488E+03,   910.488E+03
C:/temp/Job-3.odb,Step-1,Increment      1: Step Time =    1.000,"P-3-1",           139,   15.2117E-03,   114.664E-03,            0.,NA,NA,"",   812.043E+03,   902.894E+03,   902.894E+03
C:/temp/Job-3.odb,Step-1,Increment      1: Step Time =    1.000,"P-3-1",           140,   6.72145E-03,   116.682E-03,            0.,NA,NA,"",   797.813E+03,   895.822E+03,   895.822E+03
C:/temp/Job-3.odb,Step-1,Increment      1: Step Time =    1.000,"P-3-1",           141,   10.4337E-03,   108.658E-03,            0.,NA,NA,"",   795.289E+03,   890.592E+03,   890.592E+03
C:/temp/Job-3.odb,Step-1,Increment      1: Step Time =    1.000,"P-3-1",           142,   14.5310E-03,   108.384E-03,            0.,NA,NA,"",   801.928E+03,   893.952E+03,   893.952E+03
C:/temp/Job-3.odb,Step-1,Increment      1: Step Time =    1.000,"P-3-1",           143,   23.2081E-03,   109.419E-03,            0.,NA,NA,"",   817.672E+03,   901.256E+03,   901.256E+03
C:/temp/Job-3.odb,Step-1,Increment      1: Step Time =    1.000,"P-3-1",           144,   31.4883E-03,   108.312E-03,            0.,NA,NA,"",   826.257E+03,   901.128E+03,   901.128E+03
C:/temp/Job-3.odb,Step-1,Increment      1: Step Time =    1.000,"P-3-1",           145,   39.5055E-03,   107.769E-03,            0.,NA,NA,"",   830.506E+03,   895.973E+03,   895.973E+03
C:/temp/Job-3.odb,Step-1,Increment      1: Step Time =    1.000,"P-3-1",           146,   45.6239E-03,   107.131E-03,            0.,NA,NA,"",   826.193E+03,   884.575E+03,   884.575E+03
C:/temp/Job-3.odb,Step-1,Increment      1: Step Time =    1.000,"P-3-1",           147,   51.4130E-03,   106.365E-03,            0.,NA,NA,"",   810.279E+03,   862.620E+03,   862.620E+03
C:/temp/Job-3.odb,Step-1,Increment      1: Step Time =    1.000,"P-3-1",           148,   61.2829E-03,   107.603E-03,            0.,NA,NA,"",   788.571E+03,   824.880E+03,   824.880E+03
C:/temp/Job-3.odb,Step-1,Increment      1: Step Time =    1.000,"P-3-1",           149,   67.9578E-03,   109.452E-03,            0.,NA,NA,"",   822.708E+03,   829.187E+03,   829.187E+03
C:/temp/Job-3.odb,Step-1,Increment      1: Step Time =    1.000,"P-3-1",           150,   76.0837E-03,   108.511E-03,            0.,NA,NA,"",   832.785E+03,   782.067E+03,   782.067E+03
C:/temp/Job-3.odb,Step-1,Increment      1: Step Time =    1.000,"P-3-1",           151,   84.9953E-03,   106.468E-03,            0.,NA,NA,"",   693.924E+03,   369.201E+03,   369.201E+03
C:/temp/Job-3.odb,Step-1,Increment      1: Step Time =    1.000,"P-3-1",           152,   115.107E-03,   107.449E-03,            0.,NA,NA,"",   834.429E+03,   507.204E+03,   507.204E+03
C:/temp/Job-3.odb,Step-1,Increment      1: Step Time =    1.000,"P-3-1",           153,   123.850E-03,   106.722E-03,            0.,NA,NA,"",   776.301E+03,   710.285E+03,   710.285E+03
C:/temp/Job-3.odb,Step-1,Increment      1: Step Time =    1.000,"P-3-1",           154,   130.611E-03,   108.920E-03,            0.,NA,NA,"",   850.985E+03,   821.112E+03,   821.112E+03
C:/temp/Job-3.odb,Step-1,Increment      1: Step Time =    1.000,"P-3-1",           155,   137.271E-03,   107.820E-03,            0.,NA,NA,"",   838.593E+03,   836.006E+03,   836.006E+03
C:/temp/Job-3.odb,Step-1,Increment      1: Step Time =    1.000,"P-3-1",           156,   145.254E-03,   106.980E-03,            0.,NA,NA,"",   875.111E+03,   880.596E+03,   880.596E+03
C:/temp/Job-3.odb,Step-1,Increment      1: Step Time =    1.000,"P-3-1",           157,   152.496E-03,   106.684E-03,            0.,NA,NA,"",   907.759E+03,   915.406E+03,   915.406E+03
C:/temp/Job-3.odb,Step-1,Increment      1: Step Time =    1.000,"P-3-1",           158,   160.143E-03,   106.348E-03,            0.,NA,NA,"",   933.637E+03,   942.922E+03,   942.922E+03
C:/temp/Job-3.odb,Step-1,Increment      1: Step Time =    1.000,"P-3-1",           159,   169.605E-03,   107.487E-03,            0.,NA,NA,"",   955.765E+03,   967.746E+03,   967.746E+03
C:/temp/Job-3.odb,Step-1,Increment      1: Step Time =    1.000,"P-3-1",           160,   177.079E-03,   106.459E-03,            0.,NA,NA,"",   964.281E+03,   980.332E+03,   980.332E+03
C:/temp/Job-3.odb,Step-1,Increment      1: Step Time =    1.000,"P-3-1",           161,   185.189E-03,   106.370E-03,            0.,NA,NA,"",   969.102E+03,   990.967E+03,   990.967E+03
C:/temp/Job-3.odb,Step-1,Increment      1: Step Time =    1.000,"P-3-1",           162,   116.877E-03,   98.9833E-03,            0.,NA,NA,"",   413.228E+03,  -79.9849E+03,  -79.9849E+03
C:/temp/Job-3.odb,Step-1,Increment      1: Step Time =    1.000,"P-3-1",           163,   124.987E-03,   99.7542E-03,            0.,NA,NA,"",   487.713E+03,   492.534E+03,   492.534E+03
C:/temp/Job-3.odb,Step-1,Increment      1: Step Time =    1.000,"P-3-1",           164,   132.001E-03,   98.7423E-03,            0.,NA,NA,"",   678.694E+03,   692.625E+03,   692.625E+03
C:/temp/Job-3.odb,Step-1,Increment      1: Step Time =    1.000,"P-3-1",           165,   139.079E-03,   99.1049E-03,            0.,NA,NA,"",   789.111E+03,   802.074E+03,   802.074E+03
C:/temp/Job-3.odb,Step-1,Increment      1: Step Time =    1.000,"P-3-1",           166,   145.877E-03,   100.198E-03,            0.,NA,NA,"",   852.416E+03,   864.085E+03,   864.085E+03
C:/temp/Job-3.odb,Step-1,Increment      1: Step Time =    1.000,"P-3-1",           167,   163.313E-03,   99.7572E-03,            0.,NA,NA,"",   935.865E+03,   947.468E+03,   947.468E+03
C:/temp/Job-3.odb,Step-1,Increment      1: Step Time =    1.000,"P-3-1",           168,   168.282E-03,   100.637E-03,            0.,NA,NA,"",   947.541E+03,   960.490E+03,   960.490E+03
C:/temp/Job-3.odb,Step-1,Increment      1: Step Time =    1.000,"P-3-1",           169,   176.029E-03,   99.3128E-03,            0.,NA,NA,"",   960.379E+03,   976.549E+03,   976.549E+03
C:/temp/Job-3.odb,Step-1,Increment      1: Step Time =    1.000,"P-3-1",           170,   184.388E-03,   98.9247E-03,            0.,NA,NA,"",   967.657E+03,   989.567E+03,   989.567E+03
C:/temp/Job-3.odb,Step-1,Increment      1: Step Time =    1.000,"P-3-1",           171,   190.177E-03,   100.858E-03,            0.,NA,NA,"",   968.321E+03,   995.540E+03,   995.540E+03
C:/temp/Job-3.odb,Step-1,Increment      1: Step Time =    1.000,"P-3-1",           172,   114.512E-03,   92.5525E-03,            0.,NA,NA,"",   805.286E+03,   500.980E+03,   500.980E+03
C:/temp/Job-3.odb,Step-1,Increment      1: Step Time =    1.000,"P-3-1",           173,   123.222E-03,   93.4951E-03,            0.,NA,NA,"",   762.339E+03,   694.713E+03,   694.713E+03
C:/temp/Job-3.odb,Step-1,Increment      1: Step Time =    1.000,"P-3-1",           174,   131.774E-03,   91.2250E-03,            0.,NA,NA,"",   850.255E+03,   827.497E+03,   827.497E+03
C:/temp/Job-3.odb,Step-1,Increment      1: Step Time =    1.000,"P-3-1",           175,   139.332E-03,   93.6746E-03,            0.,NA,NA,"",   834.992E+03,   838.345E+03,   838.345E+03
C:/temp/Job-3.odb,Step-1,Increment      1: Step Time =    1.000,"P-3-1",           176,   146.978E-03,   93.1856E-03,            0.,NA,NA,"",   885.154E+03,   890.830E+03,   890.830E+03
C:/temp/Job-3.odb,Step-1,Increment      1: Step Time =    1.000,"P-3-1",           177,   154.995E-03,   91.8344E-03,            0.,NA,NA,"",   923.832E+03,   930.448E+03,   930.448E+03
C:/temp/Job-3.odb,Step-1,Increment      1: Step Time =    1.000,"P-3-1",           178,   160.476E-03,   92.0400E-03,            0.,NA,NA,"",   938.459E+03,   946.893E+03,   946.893E+03
C:/temp/Job-3.odb,Step-1,Increment      1: Step Time =    1.000,"P-3-1",           179,   168.804E-03,   91.2037E-03,            0.,NA,NA,"",   955.821E+03,   966.974E+03,   966.974E+03
C:/temp/Job-3.odb,Step-1,Increment      1: Step Time =    1.000,"P-3-1",           180,   176.245E-03,   94.0314E-03,            0.,NA,NA,"",   963.475E+03,   979.090E+03,   979.090E+03
C:/temp/Job-3.odb,Step-1,Increment      1: Step Time =    1.000,"P-3-1",           181,   183.013E-03,   91.7585E-03,            0.,NA,NA,"",   969.881E+03,   989.418E+03,   989.418E+03
C:/temp/Job-3.odb,Step-1,Increment      1: Step Time =    1.000,"P-3-1",           182,   189.742E-03,   92.6808E-03,            0.,NA,NA,"",   969.924E+03,   995.664E+03,   995.664E+03
C:/temp/Job-3.odb,Step-1,Increment      1: Step Time =    1.000,"P-3-1",           183,   100.523E-03,   82.9440E-03,            0.,NA,NA,"",   1.70640E+06,   1.84783E+06,   1.84783E+06
C:/temp/Job-3.odb,Step-1,Increment      1: Step Time =    1.000,"P-3-1",           184,   116.947E-03,   82.0465E-03,            0.,NA,NA,"",   1.32590E+06,   1.23248E+06,   1.23248E+06
C:/temp/Job-3.odb,Step-1,Increment      1: Step Time =    1.000,"P-3-1",           185,   6.45329E-03,   83.0166E-03,            0.,NA,NA,"",   797.429E+03,   895.608E+03,   895.608E+03
C:/temp/Job-3.odb,Step-1,Increment      1: Step Time =    1.000,"P-3-1",           186,   16.1355E-03,   83.8729E-03,            0.,NA,NA,"",   816.421E+03,   906.351E+03,   906.351E+03
C:/temp/Job-3.odb,Step-1,Increment      1: Step Time =    1.000,"P-3-1",           187,   24.3449E-03,   83.5089E-03,            0.,NA,NA,"",   834.762E+03,   915.306E+03,   915.306E+03
C:/temp/Job-3.odb,Step-1,Increment      1: Step Time =    1.000,"P-3-1",           188,   30.6093E-03,   85.4347E-03,            0.,NA,NA,"",   841.088E+03,   914.471E+03,   914.471E+03
C:/temp/Job-3.odb,Step-1,Increment      1: Step Time =    1.000,"P-3-1",           189,   37.2816E-03,   86.6584E-03,            0.,NA,NA,"",   845.647E+03,   910.919E+03,   910.919E+03
C:/temp/Job-3.odb,Step-1,Increment      1: Step Time =    1.000,"P-3-1",           190,   47.3324E-03,   83.7894E-03,            0.,NA,NA,"",   878.857E+03,   925.544E+03,   925.544E+03
C:/temp/Job-3.odb,Step-1,Increment      1: Step Time =    1.000,"P-3-1",           191,   53.5014E-03,   84.6039E-03,            0.,NA,NA,"",   886.779E+03,   921.718E+03,   921.718E+03
C:/temp/Job-3.odb,Step-1,Increment      1: Step Time =    1.000,"P-3-1",           192,   62.5373E-03,   85.1365E-03,            0.,NA,NA,"",   910.371E+03,   921.720E+03,   921.720E+03
C:/temp/Job-3.odb,Step-1,Increment      1: Step Time =    1.000,"P-3-1",           193,   70.0301E-03,   82.9685E-03,            0.,NA,NA,"",   1.02020E+06,   990.811E+03,   990.811E+03
C:/temp/Job-3.odb,Step-1,Increment      1: Step Time =    1.000,"P-3-1",           194,   77.1477E-03,   86.9804E-03,            0.,NA,NA,"",   1.04261E+06,   962.863E+03,   962.863E+03
C:/temp/Job-3.odb,Step-1,Increment      1: Step Time =    1.000,"P-3-1",           195,   86.2069E-03,   82.1393E-03,            0.,NA,NA,"",   1.37783E+06,   1.32586E+06,   1.32586E+06
C:/temp/Job-3.odb,Step-1,Increment      1: Step Time =    1.000,"P-3-1",           196,   93.1010E-03,   85.8830E-03,            0.,NA,NA,"",   1.65905E+06,   1.71847E+06,   1.71847E+06
C:/temp/Job-3.odb,Step-1,Increment      1: Step Time =    1.000,"P-3-1",           197,   106.584E-03,   85.2076E-03,            0.,NA,NA,"",   1.67952E+06,   1.73446E+06,   1.73446E+06
C:/temp/Job-3.odb,Step-1,Increment      1: Step Time =    1.000,"P-3-1",           198,   124.867E-03,   86.0137E-03,            0.,NA,NA,"",   1.07366E+06,   985.408E+03,   985.408E+03
C:/temp/Job-3.odb,Step-1,Increment      1: Step Time =    1.000,"P-3-1",           199,   132.670E-03,   84.7067E-03,            0.,NA,NA,"",   1.00313E+06,   958.593E+03,   958.593E+03
C:/temp/Job-3.odb,Step-1,Increment      1: Step Time =    1.000,"P-3-1",           200,   140.149E-03,   84.3215E-03,            0.,NA,NA,"",   975.067E+03,   952.735E+03,   952.735E+03
C:/temp/Job-3.odb,Step-1,Increment      1: Step Time =    1.000,"P-3-1",           201,   145.510E-03,   84.1463E-03,            0.,NA,NA,"",   966.904E+03,   953.812E+03,   953.812E+03
C:/temp/Job-3.odb,Step-1,Increment      1: Step Time =    1.000,"P-3-1",           202,   153.490E-03,   83.7837E-03,            0.,NA,NA,"",   965.890E+03,   962.051E+03,   962.051E+03
C:/temp/Job-3.odb,Step-1,Increment      1: Step Time =    1.000,"P-3-1",           203,   162.491E-03,   83.9807E-03,            0.,NA,NA,"",   968.847E+03,   972.118E+03,   972.118E+03
C:/temp/Job-3.odb,Step-1,Increment      1: Step Time =    1.000,"P-3-1",           204,   170.671E-03,   84.8289E-03,            0.,NA,NA,"",   971.358E+03,   980.208E+03,   980.208E+03
C:/temp/Job-3.odb,Step-1,Increment      1: Step Time =    1.000,"P-3-1",           205,   177.594E-03,   86.9035E-03,            0.,NA,NA,"",   971.423E+03,   985.559E+03,   985.559E+03
C:/temp/Job-3.odb,Step-1,Increment      1: Step Time =    1.000,"P-3-1",           206,   186.755E-03,   86.4601E-03,            0.,NA,NA,"",   973.373E+03,   994.344E+03,   994.344E+03
C:/temp/Job-3.odb,Step-1,Increment      1: Step Time =    1.000,"P-3-1",           207,   193.116E-03,   83.2544E-03,            0.,NA,NA,"",   972.690E+03,   998.544E+03,   998.544E+03
C:/temp/Job-3.odb,Step-1,Increment      1: Step Time =    1.000,"P-3-1",           208,   84.4206E-03,   92.4399E-03,            0.,NA,NA,"",   808.281E+03,   504.809E+03,   504.809E+03
C:/temp/Job-3.odb,Step-1,Increment      1: Step Time =    1.000,"P-3-1",           209,   76.8143E-03,   93.1913E-03,            0.,NA,NA,"",   729.554E+03,   688.447E+03,   688.447E+03
C:/temp/Job-3.odb,Step-1,Increment      1: Step Time =    1.000,"P-3-1",           210,   69.2521E-03,   92.3402E-03,            0.,NA,NA,"",   771.416E+03,   781.618E+03,   781.618E+03
C:/temp/Job-3.odb,Step-1,Increment      1: Step Time =    1.000,"P-3-1",           211,   61.5241E-03,   92.2414E-03,            0.,NA,NA,"",   791.076E+03,   825.522E+03,   825.522E+03
C:/temp/Job-3.odb,Step-1,Increment      1: Step Time =    1.000,"P-3-1",           212,   54.7481E-03,   94.3184E-03,            0.,NA,NA,"",   794.161E+03,   843.006E+03,   843.006E+03
C:/temp/Job-3.odb,Step-1,Increment      1: Step Time =    1.000,"P-3-1",           213,   45.8896E-03,   91.1310E-03,            0.,NA,NA,"",   829.052E+03,   885.753E+03,   885.753E+03
C:/temp/Job-3.odb,Step-1,Increment      1: Step Time =    1.000,"P-3-1",           214,   39.1823E-03,   93.2636E-03,            0.,NA,NA,"",   825.459E+03,   892.151E+03,   892.151E+03
C:/temp/Job-3.odb,Step-1,Increment      1: Step Time =    1.000,"P-3-1",           215,   31.7909E-03,   92.0687E-03,            0.,NA,NA,"",   825.841E+03,   900.170E+03,   900.170E+03
C:/temp/Job-3.odb,Step-1,Increment      1: Step Time =    1.000,"P-3-1",           216,   24.3719E-03,   91.4193E-03,            0.,NA,NA,"",   818.101E+03,   900.759E+03,   900.759E+03
C:/temp/Job-3.odb,Step-1,Increment      1: Step Time =    1.000,"P-3-1",           217,   19.0675E-03,   91.2455E-03,            0.,NA,NA,"",   810.322E+03,   898.083E+03,   898.083E+03
C:/temp/Job-3.odb,Step-1,Increment      1: Step Time =    1.000,"P-3-1",           218,   7.51133E-03,   92.9245E-03,            0.,NA,NA,"",   788.648E+03,   886.015E+03,   886.015E+03
C:/temp/Job-3.odb,Step-1,Increment      1: Step Time =    1.000,"P-3-1",           219,   82.6606E-03,   98.5281E-03,            0.,NA,NA,"",   398.457E+03,  -13.0888E+03,  -13.0888E+03
C:/temp/Job-3.odb,Step-1,Increment      1: Step Time =    1.000,"P-3-1",           220,   77.3995E-03,   98.9070E-03,            0.,NA,NA,"",   401.371E+03,   411.683E+03,   411.683E+03
C:/temp/Job-3.odb,Step-1,Increment      1: Step Time =    1.000,"P-3-1",           221,   69.6268E-03,   99.9555E-03,            0.,NA,NA,"",   592.189E+03,   632.384E+03,   632.384E+03
C:/temp/Job-3.odb,Step-1,Increment      1: Step Time =    1.000,"P-3-1",           222,   60.9820E-03,   100.278E-03,            0.,NA,NA,"",   724.925E+03,   773.001E+03,   773.001E+03
C:/temp/Job-3.odb,Step-1,Increment      1: Step Time =    1.000,"P-3-1",           223,   52.4709E-03,   99.1441E-03,            0.,NA,NA,"",   785.621E+03,   840.283E+03,   840.283E+03
C:/temp/Job-3.odb,Step-1,Increment      1: Step Time =    1.000,"P-3-1",           224,   44.5968E-03,   99.6885E-03,            0.,NA,NA,"",   811.564E+03,   873.718E+03,   873.718E+03
C:/temp/Job-3.odb,Step-1,Increment      1: Step Time =    1.000,"P-3-1",           225,   39.8783E-03,   100.629E-03,            0.,NA,NA,"",   817.767E+03,   884.785E+03,   884.785E+03
C:/temp/Job-3.odb,Step-1,Increment      1: Step Time =    1.000,"P-3-1",           226,   32.0990E-03,   101.714E-03,            0.,NA,NA,"",   818.399E+03,   893.701E+03,   893.701E+03
C:/temp/Job-3.odb,Step-1,Increment      1: Step Time =    1.000,"P-3-1",           227,   24.7068E-03,   101.138E-03,            0.,NA,NA,"",   812.119E+03,   895.159E+03,   895.159E+03
C:/temp/Job-3.odb,Step-1,Increment      1: Step Time =    1.000,"P-3-1",           228,   15.0764E-03,   99.6322E-03,            0.,NA,NA,"",   798.420E+03,   890.255E+03,   890.255E+03
C:/temp/Job-3.odb,Step-1,Increment      1: Step Time =    1.000,"P-3-1",           229,   9.74454E-03,   99.0908E-03,            0.,NA,NA,"",   789.993E+03,   885.793E+03,   885.793E+03
C:/temp/Job-3.odb,Step-1,Increment      1: Step Time =    1.000,"P-3-1",           230,   192.898E-03,   7.17841E-03,            0.,NA,NA,"",   999.934E+03,   999.875E+03,   999.875E+03
C:/temp/Job-3.odb,Step-1,Increment      1: Step Time =    1.000,"P-3-1",           231,   185.775E-03,   7.29091E-03,            0.,NA,NA,"",   999.735E+03,   999.696E+03,   999.696E+03
C:/temp/Job-3.odb,Step-1,Increment      1: Step Time =    1.000,"P-3-1",           232,   170.472E-03,   7.43672E-03,            0.,NA,NA,"",   999.011E+03,   998.703E+03,   998.703E+03
C:/temp/Job-3.odb,Step-1,Increment      1: Step Time =    1.000,"P-3-1",           233,   159.718E-03,   7.45866E-03,            0.,NA,NA,"",   996.447E+03,   995.929E+03,   995.929E+03
C:/temp/Job-3.odb,Step-1,Increment      1: Step Time =    1.000,"P-3-1",           234,   152.829E-03,   7.15082E-03,            0.,NA,NA,"",   992.912E+03,   992.342E+03,   992.342E+03
C:/temp/Job-3.odb,Step-1,Increment      1: Step Time =    1.000,"P-3-1",           235,   145.398E-03,   8.44563E-03,            0.,NA,NA,"",   989.791E+03,   989.005E+03,   989.005E+03
C:/temp/Job-3.odb,Step-1,Increment      1: Step Time =    1.000,"P-3-1",           236,   137.800E-03,   7.80597E-03,            0.,NA,NA,"",   982.097E+03,   981.545E+03,   981.545E+03
C:/temp/Job-3.odb,Step-1,Increment      1: Step Time =    1.000,"P-3-1",           237,   129.812E-03,   8.80525E-03,            0.,NA,NA,"",   975.749E+03,   975.540E+03,   975.540E+03
C:/temp/Job-3.odb,Step-1,Increment      1: Step Time =    1.000,"P-3-1",           238,   122.304E-03,   6.81619E-03,            0.,NA,NA,"",   962.265E+03,   962.486E+03,   962.486E+03
C:/temp/Job-3.odb,Step-1,Increment      1: Step Time =    1.000,"P-3-1",           239,   115.382E-03,   6.61463E-03,            0.,NA,NA,"",   954.182E+03,   954.710E+03,   954.710E+03
C:/temp/Job-3.odb,Step-1,Increment      1: Step Time =    1.000,"P-3-1",           240,   108.429E-03,   6.88794E-03,            0.,NA,NA,"",   949.086E+03,   949.903E+03,   949.903E+03
C:/temp/Job-3.odb,Step-1,Increment      1: Step Time =    1.000,"P-3-1",           241,   101.421E-03,   7.35449E-03,            0.,NA,NA,"",   947.363E+03,   948.417E+03,   948.417E+03
C:/temp/Job-3.odb,Step-1,Increment      1: Step Time =    1.000,"P-3-1",           242,   93.5462E-03,   8.48479E-03,            0.,NA,NA,"",   951.695E+03,   953.023E+03,   953.023E+03
C:/temp/Job-3.odb,Step-1,Increment      1: Step Time =    1.000,"P-3-1",           243,   82.9426E-03,   6.17225E-03,            0.,NA,NA,"",   948.982E+03,   949.526E+03,   949.526E+03
C:/temp/Job-3.odb,Step-1,Increment      1: Step Time =    1.000,"P-3-1",           244,   76.1735E-03,   5.96920E-03,            0.,NA,NA,"",   954.887E+03,   955.223E+03,   955.223E+03
C:/temp/Job-3.odb,Step-1,Increment      1: Step Time =    1.000,"P-3-1",           245,   69.2329E-03,   6.64544E-03,            0.,NA,NA,"",   965.730E+03,   965.924E+03,   965.924E+03
C:/temp/Job-3.odb,Step-1,Increment      1: Step Time =    1.000,"P-3-1",           246,   61.8922E-03,   7.59124E-03,            0.,NA,NA,"",   978.770E+03,   978.923E+03,   978.923E+03
C:/temp/Job-3.odb,Step-1,Increment      1: Step Time =    1.000,"P-3-1",           247,   54.2815E-03,   7.47859E-03,            0.,NA,NA,"",   990.229E+03,   990.445E+03,   990.445E+03
C:/temp/Job-3.odb,Step-1,Increment      1: Step Time =    1.000,"P-3-1",           248,   46.9218E-03,   7.61612E-03,            0.,NA,NA,"",   1.00275E+06,   1.00348E+06,   1.00348E+06
C:/temp/Job-3.odb,Step-1,Increment      1: Step Time =    1.000,"P-3-1",           249,   39.8810E-03,   7.64261E-03,            0.,NA,NA,"",   1.01909E+06,   1.02045E+06,   1.02045E+06
C:/temp/Job-3.odb,Step-1,Increment      1: Step Time =    1.000,"P-3-1",           250,   31.5600E-03,   8.61661E-03,            0.,NA,NA,"",   1.04986E+06,   1.05369E+06,   1.05369E+06
C:/temp/Job-3.odb,Step-1,Increment      1: Step Time =    1.000,"P-3-1",           251,   24.4914E-03,   6.23453E-03,            0.,NA,NA,"",   1.07429E+06,   1.07796E+06,   1.07796E+06
C:/temp/Job-3.odb,Step-1,Increment      1: Step Time =    1.000,"P-3-1",           252,   14.8512E-03,   7.05153E-03,            0.,NA,NA,"",   1.15822E+06,   1.17201E+06,   1.17201E+06
C:/temp/Job-3.odb,Step-1,Increment      1: Step Time =    1.000,"P-3-1",           253,   7.31887E-03,   7.29458E-03,            0.,NA,NA,"",   1.26007E+06,   1.30247E+06,   1.30247E+06
C:/temp/Job-3.odb,Step-1,Increment      1: Step Time =    1.000,"P-3-1",           254,   192.964E-03,   14.2698E-03,            0.,NA,NA,"",   1.00023E+06,   1.00011E+06,   1.00011E+06
C:/temp/Job-3.odb,Step-1,Increment      1: Step Time =    1.000,"P-3-1",           255,   186.146E-03,   16.9761E-03,            0.,NA,NA,"",   1.00091E+06,   1.00078E+06,   1.00078E+06
C:/temp/Job-3.odb,Step-1,Increment      1: Step Time =    1.000,"P-3-1",           256,   174.955E-03,   16.3250E-03,            0.,NA,NA,"",   1.00264E+06,   1.00187E+06,   1.00187E+06
C:/temp/Job-3.odb,Step-1,Increment      1: Step Time =    1.000,"P-3-1",           257,   170.035E-03,   15.9370E-03,            0.,NA,NA,"",   1.00332E+06,   1.00218E+06,   1.00218E+06
C:/temp/Job-3.odb,Step-1,Increment      1: Step Time =    1.000,"P-3-1",           258,   161.771E-03,   15.9781E-03,            0.,NA,NA,"",   1.00413E+06,   1.00233E+06,   1.00233E+06
C:/temp/Job-3.odb,Step-1,Increment      1: Step Time =    1.000,"P-3-1",           259,   152.893E-03,   14.1184E-03,            0.,NA,NA,"",   1.00090E+06,   999.102E+03,   999.102E+03
C:/temp/Job-3.odb,Step-1,Increment      1: Step Time =    1.000,"P-3-1",           260,   146.042E-03,   16.7578E-03,            0.,NA,NA,"",   1.00319E+06,   1.00069E+06,   1.00069E+06
C:/temp/Job-3.odb,Step-1,Increment      1: Step Time =    1.000,"P-3-1",           261,   138.033E-03,   14.9974E-03,            0.,NA,NA,"",   995.942E+03,   994.323E+03,   994.323E+03
C:/temp/Job-3.odb,Step-1,Increment      1: Step Time =    1.000,"P-3-1",           262,   133.017E-03,   20.2156E-03,            0.,NA,NA,"",   1.00447E+06,   1.00274E+06,   1.00274E+06
C:/temp/Job-3.odb,Step-1,Increment      1: Step Time =    1.000,"P-3-1",           263,   125.889E-03,   16.3898E-03,            0.,NA,NA,"",   989.384E+03,   989.537E+03,   989.537E+03
C:/temp/Job-3.odb,Step-1,Increment      1: Step Time =    1.000,"P-3-1",           264,   114.367E-03,   16.4057E-03,            0.,NA,NA,"",   980.249E+03,   982.826E+03,   982.826E+03
C:/temp/Job-3.odb,Step-1,Increment      1: Step Time =    1.000,"P-3-1",           265,   108.038E-03,   13.9182E-03,            0.,NA,NA,"",   969.729E+03,   972.595E+03,   972.595E+03
C:/temp/Job-3.odb,Step-1,Increment      1: Step Time =    1.000,"P-3-1",           266,   101.580E-03,   14.6856E-03,            0.,NA,NA,"",   969.892E+03,   973.463E+03,   973.463E+03
C:/temp/Job-3.odb,Step-1,Increment      1: Step Time =    1.000,"P-3-1",           267,   92.7316E-03,   13.2976E-03,            0.,NA,NA,"",   967.218E+03,   969.955E+03,   969.955E+03
C:/temp/Job-3.odb,Step-1,Increment      1: Step Time =    1.000,"P-3-1",           268,   85.5722E-03,   17.1171E-03,            0.,NA,NA,"",   983.080E+03,   986.866E+03,   986.866E+03
C:/temp/Job-3.odb,Step-1,Increment      1: Step Time =    1.000,"P-3-1",           269,   76.9246E-03,   14.3245E-03,            0.,NA,NA,"",   983.091E+03,   984.704E+03,   984.704E+03
C:/temp/Job-3.odb,Step-1,Increment      1: Step Time =    1.000,"P-3-1",           270,   69.2747E-03,   17.3112E-03,            0.,NA,NA,"",   1.00222E+06,   1.00350E+06,   1.00350E+06
C:/temp/Job-3.odb,Step-1,Increment      1: Step Time =    1.000,"P-3-1",           271,   61.7924E-03,   17.9905E-03,            0.,NA,NA,"",   1.01392E+06,   1.01496E+06,   1.01496E+06
C:/temp/Job-3.odb,Step-1,Increment      1: Step Time =    1.000,"P-3-1",           272,   55.0919E-03,   17.4195E-03,            0.,NA,NA,"",   1.02176E+06,   1.02329E+06,   1.02329E+06
C:/temp/Job-3.odb,Step-1,Increment      1: Step Time =    1.000,"P-3-1",           273,   48.0725E-03,   16.2991E-03,            0.,NA,NA,"",   1.02880E+06,   1.03185E+06,   1.03185E+06
C:/temp/Job-3.odb,Step-1,Increment      1: Step Time =    1.000,"P-3-1",           274,   36.3087E-03,   17.3549E-03,            0.,NA,NA,"",   1.05179E+06,   1.06153E+06,   1.06153E+06
C:/temp/Job-3.odb,Step-1,Increment      1: Step Time =    1.000,"P-3-1",           275,   30.4497E-03,   14.2948E-03,            0.,NA,NA,"",   1.06408E+06,   1.07477E+06,   1.07477E+06
C:/temp/Job-3.odb,Step-1,Increment      1: Step Time =    1.000,"P-3-1",           276,   17.7781E-03,   16.2791E-03,            0.,NA,NA,"",   1.09676E+06,   1.13149E+06,   1.13149E+06
C:/temp/Job-3.odb,Step-1,Increment      1: Step Time =    1.000,"P-3-1",           277,   7.09754E-03,   14.4058E-03,            0.,NA,NA,"",   1.09570E+06,   1.17238E+06,   1.17238E+06
C:/temp/Job-3.odb,Step-1,Increment      1: Step Time =    1.000,"P-3-1",           278,   192.275E-03,   24.0626E-03,            0.,NA,NA,"",   1.00055E+06,   1.00062E+06,   1.00062E+06
C:/temp/Job-3.odb,Step-1,Increment      1: Step Time =    1.000,"P-3-1",           279,   184.857E-03,   19.9590E-03,            0.,NA,NA,"",   1.00160E+06,   1.00141E+06,   1.00141E+06
C:/temp/Job-3.odb,Step-1,Increment      1: Step Time =    1.000,"P-3-1",           280,   177.264E-03,   22.9070E-03,            0.,NA,NA,"",   1.00491E+06,   1.00390E+06,   1.00390E+06
C:/temp/Job-3.odb,Step-1,Increment      1: Step Time =    1.000,"P-3-1",           281,   172.780E-03,   23.9236E-03,            0.,NA,NA,"",   1.00723E+06,   1.00555E+06,   1.00555E+06
C:/temp/Job-3.odb,Step-1,Increment      1: Step Time =    1.000,"P-3-1",           282,   162.620E-03,   23.9702E-03,            0.,NA,NA,"",   1.01239E+06,   1.00898E+06,   1.00898E+06
C:/temp/Job-3.odb,Step-1,Increment      1: Step Time =    1.000,"P-3-1",           283,   151.095E-03,   21.1387E-03,            0.,NA,NA,"",   1.01159E+06,   1.00785E+06,   1.00785E+06
C:/temp/Job-3.odb,Step-1,Increment      1: Step Time =    1.000,"P-3-1",           284,   144.719E-03,   23.6254E-03,            0.,NA,NA,"",   1.01625E+06,   1.01180E+06,   1.01180E+06
C:/temp/Job-3.odb,Step-1,Increment      1: Step Time =    1.000,"P-3-1",           285,   140.109E-03,   22.7049E-03,            0.,NA,NA,"",   1.01333E+06,   1.00967E+06,   1.00967E+06
C:/temp/Job-3.odb,Step-1,Increment      1: Step Time =    1.000,"P-3-1",           286,   133.661E-03,   23.6570E-03,            0.,NA,NA,"",   1.01283E+06,   1.01033E+06,   1.01033E+06
C:/temp/Job-3.odb,Step-1,Increment      1: Step Time =    1.000,"P-3-1",           287,   123.435E-03,   22.1614E-03,            0.,NA,NA,"",   1.00151E+06,   1.00248E+06,   1.00248E+06
C:/temp/Job-3.odb,Step-1,Increment      1: Step Time =    1.000,"P-3-1",           288,   116.912E-03,   22.2288E-03,            0.,NA,NA,"",   995.446E+03,   998.972E+03,   998.972E+03
C:/temp/Job-3.odb,Step-1,Increment      1: Step Time =    1.000,"P-3-1",           289,   108.209E-03,   20.8295E-03,            0.,NA,NA,"",   986.423E+03,   992.153E+03,   992.153E+03
C:/temp/Job-3.odb,Step-1,Increment      1: Step Time =    1.000,"P-3-1",           290,   101.216E-03,   23.0302E-03,            0.,NA,NA,"",   988.708E+03,   996.976E+03,   996.976E+03
C:/temp/Job-3.odb,Step-1,Increment      1: Step Time =    1.000,"P-3-1",           291,   93.5577E-03,   22.5447E-03,            0.,NA,NA,"",   989.658E+03,   997.083E+03,   997.083E+03
C:/temp/Job-3.odb,Step-1,Increment      1: Step Time =    1.000,"P-3-1",           292,   86.2595E-03,   24.4705E-03,            0.,NA,NA,"",   1.00054E+06,   1.00782E+06,   1.00782E+06
C:/temp/Job-3.odb,Step-1,Increment      1: Step Time =    1.000,"P-3-1",           293,   76.3670E-03,   21.2464E-03,            0.,NA,NA,"",   1.00503E+06,   1.00824E+06,   1.00824E+06
C:/temp/Job-3.odb,Step-1,Increment      1: Step Time =    1.000,"P-3-1",           294,   70.3745E-03,   24.2207E-03,            0.,NA,NA,"",   1.02047E+06,   1.02319E+06,   1.02319E+06
C:/temp/Job-3.odb,Step-1,Increment      1: Step Time =    1.000,"P-3-1",           295,   60.4736E-03,   23.6509E-03,            0.,NA,NA,"",   1.03044E+06,   1.03267E+06,   1.03267E+06
C:/temp/Job-3.odb,Step-1,Increment      1: Step Time =    1.000,"P-3-1",           296,   53.5519E-03,   23.7547E-03,            0.,NA,NA,"",   1.03732E+06,   1.04134E+06,   1.04134E+06
C:/temp/Job-3.odb,Step-1,Increment      1: Step Time =    1.000,"P-3-1",           297,   47.3928E-03,   22.2440E-03,            0.,NA,NA,"",   1.04050E+06,   1.04652E+06,   1.04652E+06
C:/temp/Job-3.odb,Step-1,Increment      1: Step Time =    1.000,"P-3-1",           298,   39.8939E-03,   22.3199E-03,            0.,NA,NA,"",   1.04806E+06,   1.05959E+06,   1.05959E+06
C:/temp/Job-3.odb,Step-1,Increment      1: Step Time =    1.000,"P-3-1",           299,   29.1941E-03,   23.1808E-03,            0.,NA,NA,"",   1.05394E+06,   1.07933E+06,   1.07933E+06
C:/temp/Job-3.odb,Step-1,Increment      1: Step Time =    1.000,"P-3-1",           300,   23.5356E-03,   20.4550E-03,            0.,NA,NA,"",   1.06697E+06,   1.09794E+06,   1.09794E+06
C:/temp/Job-3.odb,Step-1,Increment      1: Step Time =    1.000,"P-3-1",           301,   16.2448E-03,   22.3252E-03,            0.,NA,NA,"",   1.05022E+06,   1.10576E+06,   1.10576E+06
C:/temp/Job-3.odb,Step-1,Increment      1: Step Time =    1.000,"P-3-1",           302,   7.18831E-03,   24.5876E-03,            0.,NA,NA,"",   988.231E+03,   1.07788E+06,   1.07788E+06
C:/temp/Job-3.odb,Step-1,Increment      1: Step Time =    1.000,"P-3-1",           303,   189.965E-03,   32.5840E-03,            0.,NA,NA,"",   1.00083E+06,   1.00173E+06,   1.00173E+06
C:/temp/Job-3.odb,Step-1,Increment      1: Step Time =    1.000,"P-3-1",           304,   184.616E-03,   30.8557E-03,            0.,NA,NA,"",   1.00342E+06,   1.00349E+06,   1.00349E+06
C:/temp/Job-3.odb,Step-1,Increment      1: Step Time =    1.000,"P-3-1",           305,   175.398E-03,   31.9501E-03,            0.,NA,NA,"",   1.01000E+06,   1.00817E+06,   1.00817E+06
C:/temp/Job-3.odb,Step-1,Increment      1: Step Time =    1.000,"P-3-1",           306,   167.879E-03,   29.6791E-03,            0.,NA,NA,"",   1.01469E+06,   1.01114E+06,   1.01114E+06
C:/temp/Job-3.odb,Step-1,Increment      1: Step Time =    1.000,"P-3-1",           307,   161.741E-03,   30.6636E-03,            0.,NA,NA,"",   1.02080E+06,   1.01551E+06,   1.01551E+06
C:/temp/Job-3.odb,Step-1,Increment      1: Step Time =    1.000,"P-3-1",           308,   153.272E-03,   29.5474E-03,            0.,NA,NA,"",   1.02516E+06,   1.01873E+06,   1.01873E+06
C:/temp/Job-3.odb,Step-1,Increment      1: Step Time =    1.000,"P-3-1",           309,   149.647E-03,   29.7376E-03,            0.,NA,NA,"",   1.02707E+06,   1.02034E+06,   1.02034E+06
C:/temp/Job-3.odb,Step-1,Increment      1: Step Time =    1.000,"P-3-1",           310,   138.227E-03,   29.7741E-03,            0.,NA,NA,"",   1.03015E+06,   1.02443E+06,   1.02443E+06
C:/temp/Job-3.odb,Step-1,Increment      1: Step Time =    1.000,"P-3-1",           311,   132.604E-03,   31.4593E-03,            0.,NA,NA,"",   1.03181E+06,   1.02753E+06,   1.02753E+06
C:/temp/Job-3.odb,Step-1,Increment      1: Step Time =    1.000,"P-3-1",           312,   123.453E-03,   30.5941E-03,            0.,NA,NA,"",   1.02147E+06,   1.02310E+06,   1.02310E+06
C:/temp/Job-3.odb,Step-1,Increment      1: Step Time =    1.000,"P-3-1",           313,   117.805E-03,   28.5101E-03,            0.,NA,NA,"",   1.01028E+06,   1.01513E+06,   1.01513E+06
C:/temp/Job-3.odb,Step-1,Increment      1: Step Time =    1.000,"P-3-1",           314,   107.952E-03,   28.5626E-03,            0.,NA,NA,"",   1.00124E+06,   1.01126E+06,   1.01126E+06
C:/temp/Job-3.odb,Step-1,Increment      1: Step Time =    1.000,"P-3-1",           315,   99.6834E-03,   29.0041E-03,            0.,NA,NA,"",   999.109E+03,   1.01164E+06,   1.01164E+06
C:/temp/Job-3.odb,Step-1,Increment      1: Step Time =    1.000,"P-3-1",           316,   92.0027E-03,   29.5514E-03,            0.,NA,NA,"",   1.00463E+06,   1.01688E+06,   1.01688E+06
C:/temp/Job-3.odb,Step-1,Increment      1: Step Time =    1.000,"P-3-1",           317,   84.7197E-03,   30.7458E-03,            0.,NA,NA,"",   1.01662E+06,   1.02653E+06,   1.02653E+06
C:/temp/Job-3.odb,Step-1,Increment      1: Step Time =    1.000,"P-3-1",           318,   75.3656E-03,   30.4434E-03,            0.,NA,NA,"",   1.02995E+06,   1.03566E+06,   1.03566E+06
C:/temp/Job-3.odb,Step-1,Increment      1: Step Time =    1.000,"P-3-1",           319,   71.3989E-03,   32.1045E-03,            0.,NA,NA,"",   1.03840E+06,   1.04307E+06,   1.04307E+06
C:/temp/Job-3.odb,Step-1,Increment      1: Step Time =    1.000,"P-3-1",           320,   63.2121E-03,   31.6772E-03,            0.,NA,NA,"",   1.04460E+06,   1.04818E+06,   1.04818E+06
C:/temp/Job-3.odb,Step-1,Increment      1: Step Time =    1.000,"P-3-1",           321,   52.7469E-03,   29.6740E-03,            0.,NA,NA,"",   1.04568E+06,   1.05200E+06,   1.05200E+06
C:/temp/Job-3.odb,Step-1,Increment      1: Step Time =    1.000,"P-3-1",           322,   46.5201E-03,   30.4517E-03,            0.,NA,NA,"",   1.04581E+06,   1.05714E+06,   1.05714E+06
C:/temp/Job-3.odb,Step-1,Increment      1: Step Time =    1.000,"P-3-1",           323,   36.5713E-03,   30.9747E-03,            0.,NA,NA,"",   1.03940E+06,   1.06306E+06,   1.06306E+06
C:/temp/Job-3.odb,Step-1,Increment      1: Step Time =    1.000,"P-3-1",           324,   28.2830E-03,   28.7144E-03,            0.,NA,NA,"",   1.03740E+06,   1.07264E+06,   1.07264E+06
C:/temp/Job-3.odb,Step-1,Increment      1: Step Time =    1.000,"P-3-1",           325,   21.2785E-03,   29.1508E-03,            0.,NA,NA,"",   1.02259E+06,   1.07458E+06,   1.07458E+06
C:/temp/Job-3.odb,Step-1,Increment      1: Step Time =    1.000,"P-3-1",           326,   16.2145E-03,   32.2246E-03,            0.,NA,NA,"",   985.824E+03,   1.05577E+06,   1.05577E+06
C:/temp/Job-3.odb,Step-1,Increment      1: Step Time =    1.000,"P-3-1",           327,   9.02715E-03,   30.6992E-03,            0.,NA,NA,"",   960.067E+03,   1.04810E+06,   1.04810E+06
C:/temp/Job-3.odb,Step-1,Increment      1: Step Time =    1.000,"P-3-1",           328,   191.568E-03,   39.6703E-03,            0.,NA,NA,"",   999.559E+03,   1.00170E+06,   1.00170E+06
C:/temp/Job-3.odb,Step-1,Increment      1: Step Time =    1.000,"P-3-1",           329,   185.657E-03,   38.5966E-03,            0.,NA,NA,"",   1.00310E+06,   1.00415E+06,   1.00415E+06
C:/temp/Job-3.odb,Step-1,Increment      1: Step Time =    1.000,"P-3-1",           330,   176.785E-03,   39.8252E-03,            0.,NA,NA,"",   1.01139E+06,   1.00988E+06,   1.00988E+06
C:/temp/Job-3.odb,Step-1,Increment      1: Step Time =    1.000,"P-3-1",           331,   168.962E-03,   40.0245E-03,            0.,NA,NA,"",   1.02125E+06,   1.01644E+06,   1.01644E+06
C:/temp/Job-3.odb,Step-1,Increment      1: Step Time =    1.000,"P-3-1",           332,   163.696E-03,   37.3227E-03,            0.,NA,NA,"",   1.02550E+06,   1.01922E+06,   1.01922E+06
C:/temp/Job-3.odb,Step-1,Increment      1: Step Time =    1.000,"P-3-1",           333,   154.469E-03,   37.2801E-03,            0.,NA,NA,"",   1.03626E+06,   1.02717E+06,   1.02717E+06
C:/temp/Job-3.odb,Step-1,Increment      1: Step Time =    1.000,"P-3-1",           334,   148.453E-03,   38.9377E-03,            0.,NA,NA,"",   1.04535E+06,   1.03453E+06,   1.03453E+06
C:/temp/Job-3.odb,Step-1,Increment      1: Step Time =    1.000,"P-3-1",           335,   138.277E-03,   39.9577E-03,            0.,NA,NA,"",   1.05561E+06,   1.04504E+06,   1.04504E+06
C:/temp/Job-3.odb,Step-1,Increment      1: Step Time =    1.000,"P-3-1",           336,   129.611E-03,   37.5958E-03,            0.,NA,NA,"",   1.04675E+06,   1.04239E+06,   1.04239E+06
C:/temp/Job-3.odb,Step-1,Increment      1: Step Time =    1.000,"P-3-1",           337,   120.327E-03,   39.8451E-03,            0.,NA,NA,"",   1.04083E+06,   1.04562E+06,   1.04562E+06
C:/temp/Job-3.odb,Step-1,Increment      1: Step Time =    1.000,"P-3-1",           338,   114.188E-03,   38.1098E-03,            0.,NA,NA,"",   1.02634E+06,   1.03784E+06,   1.03784E+06
C:/temp/Job-3.odb,Step-1,Increment      1: Step Time =    1.000,"P-3-1",           339,   107.946E-03,   38.1081E-03,            0.,NA,NA,"",   1.01628E+06,   1.03363E+06,   1.03363E+06
C:/temp/Job-3.odb,Step-1,Increment      1: Step Time =    1.000,"P-3-1",           340,   100.131E-03,   39.0778E-03,            0.,NA,NA,"",   1.01262E+06,   1.03474E+06,   1.03474E+06
C:/temp/Job-3.odb,Step-1,Increment      1: Step Time =    1.000,"P-3-1",           341,   90.2914E-03,   39.6055E-03,            0.,NA,NA,"",   1.02246E+06,   1.04205E+06,   1.04205E+06
C:/temp/Job-3.odb,Step-1,Increment      1: Step Time =    1.000,"P-3-1",           342,   83.0066E-03,   39.5217E-03,            0.,NA,NA,"",   1.03666E+06,   1.05072E+06,   1.05072E+06
C:/temp/Job-3.odb,Step-1,Increment      1: Step Time =    1.000,"P-3-1",           343,   76.3259E-03,   38.2079E-03,            0.,NA,NA,"",   1.04630E+06,   1.05434E+06,   1.05434E+06
C:/temp/Job-3.odb,Step-1,Increment      1: Step Time =    1.000,"P-3-1",           344,   69.5620E-03,   37.9669E-03,            0.,NA,NA,"",   1.05338E+06,   1.05814E+06,   1.05814E+06
C:/temp/Job-3.odb,Step-1,Increment      1: Step Time =    1.000,"P-3-1",           345,   61.2003E-03,   39.3476E-03,            0.,NA,NA,"",   1.05826E+06,   1.06320E+06,   1.06320E+06
C:/temp/Job-3.odb,Step-1,Increment      1: Step Time =    1.000,"P-3-1",           346,   53.8155E-03,   37.2985E-03,            0.,NA,NA,"",   1.05132E+06,   1.05997E+06,   1.05997E+06
C:/temp/Job-3.odb,Step-1,Increment      1: Step Time =    1.000,"P-3-1",           347,   44.9060E-03,   39.0978E-03,            0.,NA,NA,"",   1.03920E+06,   1.05781E+06,   1.05781E+06
C:/temp/Job-3.odb,Step-1,Increment      1: Step Time =    1.000,"P-3-1",           348,   37.2458E-03,   39.5513E-03,            0.,NA,NA,"",   1.02219E+06,   1.05300E+06,   1.05300E+06
C:/temp/Job-3.odb,Step-1,Increment      1: Step Time =    1.000,"P-3-1",           349,   29.4009E-03,   40.1723E-03,            0.,NA,NA,"",   998.873E+03,   1.04537E+06,   1.04537E+06
C:/temp/Job-3.odb,Step-1,Increment      1: Step Time =    1.000,"P-3-1",           350,   24.3324E-03,   39.6491E-03,            0.,NA,NA,"",   983.307E+03,   1.04041E+06,   1.04041E+06
C:/temp/Job-3.odb,Step-1,Increment      1: Step Time =    1.000,"P-3-1",           351,   14.7765E-03,   39.1318E-03,            0.,NA,NA,"",   946.434E+03,   1.02544E+06,   1.02544E+06
C:/temp/Job-3.odb,Step-1,Increment      1: Step Time =    1.000,"P-3-1",           352,   7.52776E-03,   37.9776E-03,            0.,NA,NA,"",   918.209E+03,   1.01286E+06,   1.01286E+06
C:/temp/Job-3.odb,Step-1,Increment      1: Step Time =    1.000,"P-3-1",           353,   193.132E-03,   47.1227E-03,            0.,NA,NA,"",   996.601E+03,   1.00132E+06,   1.00132E+06
C:/temp/Job-3.odb,Step-1,Increment      1: Step Time =    1.000,"P-3-1",           354,   183.707E-03,   48.3181E-03,            0.,NA,NA,"",   1.00345E+06,   1.00591E+06,   1.00591E+06
C:/temp/Job-3.odb,Step-1,Increment      1: Step Time =    1.000,"P-3-1",           355,   178.547E-03,   47.1193E-03,            0.,NA,NA,"",   1.00958E+06,    1.0095E+06,    1.0095E+06
C:/temp/Job-3.odb,Step-1,Increment      1: Step Time =    1.000,"P-3-1",           356,   168.471E-03,   46.3110E-03,            0.,NA,NA,"",   1.02417E+06,   1.01868E+06,   1.01868E+06
C:/temp/Job-3.odb,Step-1,Increment      1: Step Time =    1.000,"P-3-1",           357,   161.800E-03,   47.6367E-03,            0.,NA,NA,"",   1.03564E+06,   1.02638E+06,   1.02638E+06
C:/temp/Job-3.odb,Step-1,Increment      1: Step Time =    1.000,"P-3-1",           358,   153.676E-03,   49.2066E-03,            0.,NA,NA,"",   1.05270E+06,   1.03848E+06,   1.03848E+06
C:/temp/Job-3.odb,Step-1,Increment      1: Step Time =    1.000,"P-3-1",           359,   146.166E-03,   46.5617E-03,            0.,NA,NA,"",   1.06358E+06,   1.04801E+06,   1.04801E+06
C:/temp/Job-3.odb,Step-1,Increment      1: Step Time =    1.000,"P-3-1",           360,   126.766E-03,   47.9590E-03,            0.,NA,NA,"",   1.07923E+06,   1.07205E+06,   1.07205E+06
C:/temp/Job-3.odb,Step-1,Increment      1: Step Time =    1.000,"P-3-1",           361,   120.641E-03,   47.2447E-03,            0.,NA,NA,"",   1.06519E+06,   1.06867E+06,   1.06867E+06
C:/temp/Job-3.odb,Step-1,Increment      1: Step Time =    1.000,"P-3-1",           362,   115.142E-03,   44.8902E-03,            0.,NA,NA,"",   1.04351E+06,   1.05681E+06,   1.05681E+06
C:/temp/Job-3.odb,Step-1,Increment      1: Step Time =    1.000,"P-3-1",           363,   107.300E-03,   43.6293E-03,            0.,NA,NA,"",   1.02380E+06,   1.04666E+06,   1.04666E+06
C:/temp/Job-3.odb,Step-1,Increment      1: Step Time =    1.000,"P-3-1",           364,   98.9165E-03,   45.0571E-03,            0.,NA,NA,"",   1.01883E+06,   1.04867E+06,   1.04867E+06
C:/temp/Job-3.odb,Step-1,Increment      1: Step Time =    1.000,"P-3-1",           365,   92.7832E-03,   45.8723E-03,            0.,NA,NA,"",   1.02735E+06,   1.05553E+06,   1.05553E+06
C:/temp/Job-3.odb,Step-1,Increment      1: Step Time =    1.000,"P-3-1",           366,   86.7143E-03,   45.5426E-03,            0.,NA,NA,"",   1.04136E+06,   1.06297E+06,   1.06297E+06
C:/temp/Job-3.odb,Step-1,Increment      1: Step Time =    1.000,"P-3-1",           367,   77.4889E-03,   44.0834E-03,            0.,NA,NA,"",   1.05973E+06,   1.06947E+06,   1.06947E+06
C:/temp/Job-3.odb,Step-1,Increment      1: Step Time =    1.000,"P-3-1",           368,   68.6744E-03,   45.9449E-03,            0.,NA,NA,"",   1.07227E+06,   1.07609E+06,   1.07609E+06
C:/temp/Job-3.odb,Step-1,Increment      1: Step Time =    1.000,"P-3-1",           369,   62.6854E-03,   46.9644E-03,            0.,NA,NA,"",   1.06984E+06,   1.07396E+06,   1.07396E+06
C:/temp/Job-3.odb,Step-1,Increment      1: Step Time =    1.000,"P-3-1",           370,   56.0808E-03,   45.3555E-03,            0.,NA,NA,"",   1.05732E+06,   1.06594E+06,   1.06594E+06
C:/temp/Job-3.odb,Step-1,Increment      1: Step Time =    1.000,"P-3-1",           371,   47.0814E-03,   47.3084E-03,            0.,NA,NA,"",   1.03462E+06,   1.05439E+06,   1.05439E+06
C:/temp/Job-3.odb,Step-1,Increment      1: Step Time =    1.000,"P-3-1",           372,   39.0347E-03,   48.3966E-03,            0.,NA,NA,"",   1.00540E+06,   1.03994E+06,   1.03994E+06
C:/temp/Job-3.odb,Step-1,Increment      1: Step Time =    1.000,"P-3-1",           373,   29.0323E-03,   45.2465E-03,            0.,NA,NA,"",   980.098E+03,   1.03187E+06,   1.03187E+06
C:/temp/Job-3.odb,Step-1,Increment      1: Step Time =    1.000,"P-3-1",           374,   24.0817E-03,   44.3434E-03,            0.,NA,NA,"",   964.690E+03,   1.02628E+06,   1.02628E+06
C:/temp/Job-3.odb,Step-1,Increment      1: Step Time =    1.000,"P-3-1",           375,   16.5506E-03,   45.7637E-03,            0.,NA,NA,"",   929.230E+03,   1.00762E+06,   1.00762E+06
C:/temp/Job-3.odb,Step-1,Increment      1: Step Time =    1.000,"P-3-1",           376,   9.04391E-03,   44.1280E-03,            0.,NA,NA,"",   902.336E+03,   995.439E+03,   995.439E+03
C:/temp/Job-3.odb,Step-1,Increment      1: Step Time =    1.000,"P-3-1",           377,   193.042E-03,   54.0541E-03,            0.,NA,NA,"",   993.520E+03,   1.00134E+06,   1.00134E+06
C:/temp/Job-3.odb,Step-1,Increment      1: Step Time =    1.000,"P-3-1",           378,   182.966E-03,   54.2634E-03,            0.,NA,NA,"",   1.00223E+06,   1.00602E+06,   1.00602E+06
C:/temp/Job-3.odb,Step-1,Increment      1: Step Time =    1.000,"P-3-1",           379,   175.900E-03,   54.0012E-03,            0.,NA,NA,"",   1.01170E+06,   1.01125E+06,   1.01125E+06
C:/temp/Job-3.odb,Step-1,Increment      1: Step Time =    1.000,"P-3-1",           380,   170.362E-03,   54.0941E-03,            0.,NA,NA,"",   1.02048E+06,   1.01639E+06,   1.01639E+06
C:/temp/Job-3.odb,Step-1,Increment      1: Step Time =    1.000,"P-3-1",           381,   161.957E-03,   54.5624E-03,            0.,NA,NA,"",   1.03678E+06,   1.02660E+06,   1.02660E+06
C:/temp/Job-3.odb,Step-1,Increment      1: Step Time =    1.000,"P-3-1",           382,   153.411E-03,   52.9334E-03,            0.,NA,NA,"",   1.05555E+06,   1.03989E+06,   1.03989E+06
C:/temp/Job-3.odb,Step-1,Increment      1: Step Time =    1.000,"P-3-1",           383,   146.451E-03,   53.6782E-03,            0.,NA,NA,"",   1.07430E+06,   1.05408E+06,   1.05408E+06
C:/temp/Job-3.odb,Step-1,Increment      1: Step Time =    1.000,"P-3-1",           384,   140.234E-03,   51.3629E-03,            0.,NA,NA,"",   1.08315E+06,   1.06383E+06,   1.06383E+06
C:/temp/Job-3.odb,Step-1,Increment      1: Step Time =    1.000,"P-3-1",           385,   130.661E-03,   52.7660E-03,            0.,NA,NA,"",   1.09954E+06,   1.08318E+06,   1.08318E+06
C:/temp/Job-3.odb,Step-1,Increment      1: Step Time =    1.000,"P-3-1",           386,   122.816E-03,   54.1158E-03,            0.,NA,NA,"",   1.09902E+06,   1.09375E+06,   1.09375E+06
C:/temp/Job-3.odb,Step-1,Increment      1: Step Time =    1.000,"P-3-1",           387,   116.492E-03,   55.4535E-03,            0.,NA,NA,"",   1.08662E+06,   1.09795E+06,   1.09795E+06
C:/temp/Job-3.odb,Step-1,Increment      1: Step Time =    1.000,"P-3-1",           388,   107.870E-03,   53.5647E-03,            0.,NA,NA,"",   1.04412E+06,   1.07770E+06,   1.07770E+06
C:/temp/Job-3.odb,Step-1,Increment      1: Step Time =    1.000,"P-3-1",           389,   98.4481E-03,   51.1425E-03,            0.,NA,NA,"",   1.02548E+06,   1.06463E+06,   1.06463E+06
C:/temp/Job-3.odb,Step-1,Increment      1: Step Time =    1.000,"P-3-1",           390,   91.8214E-03,   52.2330E-03,            0.,NA,NA,"",   1.04091E+06,   1.07599E+06,   1.07599E+06
C:/temp/Job-3.odb,Step-1,Increment      1: Step Time =    1.000,"P-3-1",           391,   82.2984E-03,   56.6861E-03,            0.,NA,NA,"",   1.09565E+06,   1.11094E+06,   1.11094E+06
C:/temp/Job-3.odb,Step-1,Increment      1: Step Time =    1.000,"P-3-1",           392,   77.3560E-03,   57.0151E-03,            0.,NA,NA,"",   1.10720E+06,   1.11142E+06,   1.11142E+06
C:/temp/Job-3.odb,Step-1,Increment      1: Step Time =    1.000,"P-3-1",           393,   68.9335E-03,   54.7662E-03,            0.,NA,NA,"",   1.09355E+06,   1.09319E+06,   1.09319E+06
C:/temp/Job-3.odb,Step-1,Increment      1: Step Time =    1.000,"P-3-1",           394,   62.4783E-03,   55.8518E-03,            0.,NA,NA,"",   1.07812E+06,   1.07986E+06,   1.07986E+06
C:/temp/Job-3.odb,Step-1,Increment      1: Step Time =    1.000,"P-3-1",           395,   54.8824E-03,   52.1706E-03,            0.,NA,NA,"",   1.05333E+06,   1.06395E+06,   1.06395E+06
C:/temp/Job-3.odb,Step-1,Increment      1: Step Time =    1.000,"P-3-1",           396,   48.2626E-03,   52.4379E-03,            0.,NA,NA,"",   1.03040E+06,   1.05055E+06,   1.05055E+06
C:/temp/Job-3.odb,Step-1,Increment      1: Step Time =    1.000,"P-3-1",           397,   37.9958E-03,   53.6102E-03,            0.,NA,NA,"",   986.589E+03,   1.02680E+06,   1.02680E+06
C:/temp/Job-3.odb,Step-1,Increment      1: Step Time =    1.000,"P-3-1",           398,   27.1004E-03,   54.8796E-03,            0.,NA,NA,"",   938.872E+03,   1.00153E+06,   1.00153E+06
C:/temp/Job-3.odb,Step-1,Increment      1: Step Time =    1.000,"P-3-1",           399,   22.3191E-03,   53.4330E-03,            0.,NA,NA,"",   925.008E+03,   996.162E+03,   996.162E+03
C:/temp/Job-3.odb,Step-1,Increment      1: Step Time =    1.000,"P-3-1",           400,   14.4989E-03,   54.5249E-03,            0.,NA,NA,"",   889.498E+03,   975.522E+03,   975.522E+03
C:/temp/Job-3.odb,Step-1,Increment      1: Step Time =    1.000,"P-3-1",           401,   8.46140E-03,   54.3239E-03,            0.,NA,NA,"",   867.222E+03,   962.813E+03,   962.813E+03
C:/temp/Job-3.odb,Step-1,Increment      1: Step Time =    1.000,"P-3-1",           402,   192.219E-03,   61.2607E-03,            0.,NA,NA,"",   989.682E+03,   1.00126E+06,   1.00126E+06
C:/temp/Job-3.odb,Step-1,Increment      1: Step Time =    1.000,"P-3-1",           403,   181.723E-03,   59.6649E-03,            0.,NA,NA,"",   1.00069E+06,   1.00568E+06,   1.00568E+06
C:/temp/Job-3.odb,Step-1,Increment      1: Step Time =    1.000,"P-3-1",           404,   174.449E-03,   60.7181E-03,            0.,NA,NA,"",   1.00983E+06,   1.01000E+06,   1.01000E+06
C:/temp/Job-3.odb,Step-1,Increment      1: Step Time =    1.000,"P-3-1",           405,   169.867E-03,   60.3768E-03,            0.,NA,NA,"",   1.01725E+06,   1.01389E+06,   1.01389E+06
C:/temp/Job-3.odb,Step-1,Increment      1: Step Time =    1.000,"P-3-1",           406,   161.332E-03,   58.7179E-03,            0.,NA,NA,"",   1.03541E+06,   1.02487E+06,   1.02487E+06
C:/temp/Job-3.odb,Step-1,Increment      1: Step Time =    1.000,"P-3-1",           407,   155.266E-03,   60.8066E-03,            0.,NA,NA,"",   1.04987E+06,   1.03381E+06,   1.03381E+06
C:/temp/Job-3.odb,Step-1,Increment      1: Step Time =    1.000,"P-3-1",           408,   147.811E-03,   59.7845E-03,            0.,NA,NA,"",   1.07289E+06,   1.05053E+06,   1.05053E+06
C:/temp/Job-3.odb,Step-1,Increment      1: Step Time =    1.000,"P-3-1",           409,   139.102E-03,   59.3059E-03,            0.,NA,NA,"",   1.10189E+06,   1.07470E+06,   1.07470E+06
C:/temp/Job-3.odb,Step-1,Increment      1: Step Time =    1.000,"P-3-1",           410,   132.969E-03,   60.0834E-03,            0.,NA,NA,"",   1.12148E+06,   1.09350E+06,   1.09350E+06
C:/temp/Job-3.odb,Step-1,Increment      1: Step Time =    1.000,"P-3-1",           411,   123.277E-03,   60.4348E-03,            0.,NA,NA,"",   1.13323E+06,   1.11904E+06,   1.11904E+06
C:/temp/Job-3.odb,Step-1,Increment      1: Step Time =    1.000,"P-3-1",           412,   115.541E-03,   62.3472E-03,            0.,NA,NA,"",   1.12397E+06,   1.13459E+06,   1.13459E+06
C:/temp/Job-3.odb,Step-1,Increment      1: Step Time =    1.000,"P-3-1",           413,   107.542E-03,   60.7671E-03,            0.,NA,NA,"",   1.06546E+06,   1.10983E+06,   1.10983E+06
C:/temp/Job-3.odb,Step-1,Increment      1: Step Time =    1.000,"P-3-1",           414,   100.543E-03,   60.7629E-03,            0.,NA,NA,"",   1.04076E+06,   1.10121E+06,   1.10121E+06
C:/temp/Job-3.odb,Step-1,Increment      1: Step Time =    1.000,"P-3-1",           415,   94.2799E-03,   59.7184E-03,            0.,NA,NA,"",   1.04969E+06,   1.10193E+06,   1.10193E+06
C:/temp/Job-3.odb,Step-1,Increment      1: Step Time =    1.000,"P-3-1",           416,   83.9443E-03,   60.9841E-03,            0.,NA,NA,"",   1.11420E+06,   1.13164E+06,   1.13164E+06
C:/temp/Job-3.odb,Step-1,Increment      1: Step Time =    1.000,"P-3-1",           417,   75.5372E-03,   61.5769E-03,            0.,NA,NA,"",   1.12717E+06,   1.12344E+06,   1.12344E+06
C:/temp/Job-3.odb,Step-1,Increment      1: Step Time =    1.000,"P-3-1",           418,   69.3008E-03,   62.0053E-03,            0.,NA,NA,"",   1.11216E+06,   1.10494E+06,   1.10494E+06
C:/temp/Job-3.odb,Step-1,Increment      1: Step Time =    1.000,"P-3-1",           419,   62.5357E-03,   62.9879E-03,            0.,NA,NA,"",   1.07977E+06,   1.07762E+06,   1.07762E+06
C:/temp/Job-3.odb,Step-1,Increment      1: Step Time =    1.000,"P-3-1",           420,   52.9075E-03,   58.3706E-03,            0.,NA,NA,"",   1.03777E+06,   1.05223E+06,   1.05223E+06
C:/temp/Job-3.odb,Step-1,Increment      1: Step Time =    1.000,"P-3-1",           421,   45.2150E-03,   59.8588E-03,            0.,NA,NA,"",   997.518E+03,   1.02734E+06,   1.02734E+06
C:/temp/Job-3.odb,Step-1,Increment      1: Step Time =    1.000,"P-3-1",           422,   38.0302E-03,   62.1294E-03,            0.,NA,NA,"",   956.514E+03,   1.00273E+06,   1.00273E+06
C:/temp/Job-3.odb,Step-1,Increment      1: Step Time =    1.000,"P-3-1",           423,   30.1909E-03,   61.2281E-03,            0.,NA,NA,"",   928.549E+03,   989.272E+03,   989.272E+03
C:/temp/Job-3.odb,Step-1,Increment      1: Step Time =    1.000,"P-3-1",           424,   21.7597E-03,   61.0851E-03,            0.,NA,NA,"",   896.450E+03,   972.246E+03,   972.246E+03
C:/temp/Job-3.odb,Step-1,Increment      1: Step Time =    1.000,"P-3-1",           425,   17.5312E-03,   62.4936E-03,            0.,NA,NA,"",   877.265E+03,   960.352E+03,   960.352E+03
C:/temp/Job-3.odb,Step-1,Increment      1: Step Time =    1.000,"P-3-1",           426,   7.31667E-03,   61.6463E-03,            0.,NA,NA,"",   843.040E+03,   940.712E+03,   940.712E+03
C:/temp/Job-3.odb,Step-1,Increment      1: Step Time =    1.000,"P-3-1",           427,   192.468E-03,   68.8146E-03,            0.,NA,NA,"",   984.107E+03,   1.00048E+06,   1.00048E+06
C:/temp/Job-3.odb,Step-1,Increment      1: Step Time =    1.000,"P-3-1",           428,   184.652E-03,   69.1430E-03,            0.,NA,NA,"",   990.034E+03,   1.00114E+06,   1.00114E+06
C:/temp/Job-3.odb,Step-1,Increment      1: Step Time =    1.000,"P-3-1",           429,   176.667E-03,   67.4179E-03,            0.,NA,NA,"",   1.00011E+06,   1.00423E+06,   1.00423E+06
C:/temp/Job-3.odb,Step-1,Increment      1: Step Time =    1.000,"P-3-1",           430,   168.871E-03,   69.2617E-03,            0.,NA,NA,"",   1.00695E+06,   1.00566E+06,   1.00566E+06
C:/temp/Job-3.odb,Step-1,Increment      1: Step Time =    1.000,"P-3-1",           431,   160.273E-03,   69.8091E-03,            0.,NA,NA,"",   1.01987E+06,   1.01085E+06,   1.01085E+06
C:/temp/Job-3.odb,Step-1,Increment      1: Step Time =    1.000,"P-3-1",           432,   151.438E-03,   70.1220E-03,            0.,NA,NA,"",   1.04293E+06,   1.02359E+06,   1.02359E+06
C:/temp/Job-3.odb,Step-1,Increment      1: Step Time =    1.000,"P-3-1",           433,   145.700E-03,   69.4841E-03,            0.,NA,NA,"",   1.06811E+06,   1.04056E+06,   1.04056E+06
C:/temp/Job-3.odb,Step-1,Increment      1: Step Time =    1.000,"P-3-1",           434,   139.044E-03,   69.6442E-03,            0.,NA,NA,"",   1.10149E+06,   1.06449E+06,   1.06449E+06
C:/temp/Job-3.odb,Step-1,Increment      1: Step Time =    1.000,"P-3-1",           435,   125.134E-03,   70.1334E-03,            0.,NA,NA,"",   1.19493E+06,   1.14862E+06,   1.14862E+06
C:/temp/Job-3.odb,Step-1,Increment      1: Step Time =    1.000,"P-3-1",           436,   114.687E-03,   67.3132E-03,            0.,NA,NA,"",   1.16207E+06,   1.17062E+06,   1.17062E+06
C:/temp/Job-3.odb,Step-1,Increment      1: Step Time =    1.000,"P-3-1",           437,   106.592E-03,   68.3758E-03,            0.,NA,NA,"",   1.10850E+06,   1.17066E+06,   1.17066E+06
C:/temp/Job-3.odb,Step-1,Increment      1: Step Time =    1.000,"P-3-1",           438,   100.354E-03,   67.4171E-03,            0.,NA,NA,"",   1.06150E+06,   1.14358E+06,   1.14358E+06
C:/temp/Job-3.odb,Step-1,Increment      1: Step Time =    1.000,"P-3-1",           439,   92.7982E-03,   68.2171E-03,            0.,NA,NA,"",   1.11062E+06,   1.17338E+06,   1.17338E+06
C:/temp/Job-3.odb,Step-1,Increment      1: Step Time =    1.000,"P-3-1",           440,   86.1032E-03,   69.7866E-03,            0.,NA,NA,"",   1.18187E+06,   1.19825E+06,   1.19825E+06
C:/temp/Job-3.odb,Step-1,Increment      1: Step Time =    1.000,"P-3-1",           441,   76.9580E-03,   68.8542E-03,            0.,NA,NA,"",   1.16906E+06,   1.15144E+06,   1.15144E+06
C:/temp/Job-3.odb,Step-1,Increment      1: Step Time =    1.000,"P-3-1",           442,   70.0541E-03,   68.8815E-03,            0.,NA,NA,"",   1.12627E+06,   1.10845E+06,   1.10845E+06
C:/temp/Job-3.odb,Step-1,Increment      1: Step Time =    1.000,"P-3-1",           443,   61.0338E-03,   68.1130E-03,            0.,NA,NA,"",   1.06126E+06,   1.05980E+06,   1.05980E+06
C:/temp/Job-3.odb,Step-1,Increment      1: Step Time =    1.000,"P-3-1",           444,   52.6049E-03,   66.1716E-03,            0.,NA,NA,"",   1.01365E+06,   1.03119E+06,   1.03119E+06
C:/temp/Job-3.odb,Step-1,Increment      1: Step Time =    1.000,"P-3-1",           445,   44.7796E-03,   68.5301E-03,            0.,NA,NA,"",   959.857E+03,   997.003E+03,   997.003E+03
C:/temp/Job-3.odb,Step-1,Increment      1: Step Time =    1.000,"P-3-1",           446,   37.5733E-03,   69.8307E-03,            0.,NA,NA,"",   923.715E+03,   975.924E+03,   975.924E+03
C:/temp/Job-3.odb,Step-1,Increment      1: Step Time =    1.000,"P-3-1",           447,   28.0337E-03,   68.4931E-03,            0.,NA,NA,"",   893.347E+03,   962.272E+03,   962.272E+03
C:/temp/Job-3.odb,Step-1,Increment      1: Step Time =    1.000,"P-3-1",           448,   23.3216E-03,   68.1028E-03,            0.,NA,NA,"",   879.321E+03,   955.578E+03,   955.578E+03
C:/temp/Job-3.odb,Step-1,Increment      1: Step Time =    1.000,"P-3-1",           449,   16.4433E-03,   70.9503E-03,            0.,NA,NA,"",   847.603E+03,   934.772E+03,   934.772E+03
C:/temp/Job-3.odb,Step-1,Increment      1: Step Time =    1.000,"P-3-1",           450,   7.89947E-03,   68.8123E-03,            0.,NA,NA,"",   827.655E+03,   924.767E+03,   924.767E+03
C:/temp/Job-3.odb,Step-1,Increment      1: Step Time =    1.000,"P-3-1",           451,   192.487E-03,   76.1240E-03,            0.,NA,NA,"",   978.178E+03,   999.348E+03,   999.348E+03
C:/temp/Job-3.odb,Step-1,Increment      1: Step Time =    1.000,"P-3-1",           452,   185.179E-03,   78.0372E-03,            0.,NA,NA,"",   981.222E+03,   997.095E+03,   997.095E+03
C:/temp/Job-3.odb,Step-1,Increment      1: Step Time =    1.000,"P-3-1",           453,   176.881E-03,   79.0806E-03,            0.,NA,NA,"",   982.736E+03,   992.767E+03,   992.767E+03
C:/temp/Job-3.odb,Step-1,Increment      1: Step Time =    1.000,"P-3-1",           454,   168.409E-03,   76.9222E-03,            0.,NA,NA,"",   989.542E+03,   992.178E+03,   992.178E+03
C:/temp/Job-3.odb,Step-1,Increment      1: Step Time =    1.000,"P-3-1",           455,   161.455E-03,   76.5444E-03,            0.,NA,NA,"",   995.560E+03,   992.253E+03,   992.253E+03
C:/temp/Job-3.odb,Step-1,Increment      1: Step Time =    1.000,"P-3-1",           456,   151.868E-03,   77.3923E-03,            0.,NA,NA,"",   1.00577E+06,   992.380E+03,   992.380E+03
C:/temp/Job-3.odb,Step-1,Increment      1: Step Time =    1.000,"P-3-1",           457,   146.948E-03,   77.0011E-03,            0.,NA,NA,"",   1.02176E+06,   1.00082E+06,   1.00082E+06
C:/temp/Job-3.odb,Step-1,Increment      1: Step Time =    1.000,"P-3-1",           458,   139.062E-03,   78.5345E-03,            0.,NA,NA,"",   1.04791E+06,   1.01187E+06,   1.01187E+06
C:/temp/Job-3.odb,Step-1,Increment      1: Step Time =    1.000,"P-3-1",           459,   132.060E-03,   76.2722E-03,            0.,NA,NA,"",   1.12980E+06,   1.07423E+06,   1.07423E+06
C:/temp/Job-3.odb,Step-1,Increment      1: Step Time =    1.000,"P-3-1",           460,   123.027E-03,   75.6657E-03,            0.,NA,NA,"",   1.23166E+06,   1.16637E+06,   1.16637E+06
C:/temp/Job-3.odb,Step-1,Increment      1: Step Time =    1.000,"P-3-1",           461,   115.068E-03,   75.0358E-03,            0.,NA,NA,"",   1.26845E+06,   1.24906E+06,   1.24906E+06
C:/temp/Job-3.odb,Step-1,Increment      1: Step Time =    1.000,"P-3-1",           462,   108.279E-03,   78.0379E-03,            0.,NA,NA,"",   1.28977E+06,   1.34636E+06,   1.34636E+06
C:/temp/Job-3.odb,Step-1,Increment      1: Step Time =    1.000,"P-3-1",           463,   100.074E-03,   77.5700E-03,            0.,NA,NA,"",   1.23572E+06,   1.36742E+06,   1.36742E+06
C:/temp/Job-3.odb,Step-1,Increment      1: Step Time =    1.000,"P-3-1",           464,   92.5274E-03,   76.7659E-03,            0.,NA,NA,"",   1.25395E+06,   1.32105E+06,   1.32105E+06
C:/temp/Job-3.odb,Step-1,Increment      1: Step Time =    1.000,"P-3-1",           465,   83.2870E-03,   77.8525E-03,            0.,NA,NA,"",   1.28212E+06,   1.24520E+06,   1.24520E+06
C:/temp/Job-3.odb,Step-1,Increment      1: Step Time =    1.000,"P-3-1",           466,   77.6760E-03,   78.4199E-03,            0.,NA,NA,"",   1.21251E+06,   1.15570E+06,   1.15570E+06
C:/temp/Job-3.odb,Step-1,Increment      1: Step Time =    1.000,"P-3-1",           467,   72.2263E-03,   75.2107E-03,            0.,NA,NA,"",   1.14533E+06,   1.10941E+06,   1.10941E+06
C:/temp/Job-3.odb,Step-1,Increment      1: Step Time =    1.000,"P-3-1",           468,   60.8943E-03,   77.5514E-03,            0.,NA,NA,"",   997.406E+03,   1.00063E+06,   1.00063E+06
C:/temp/Job-3.odb,Step-1,Increment      1: Step Time =    1.000,"P-3-1",           469,   52.6614E-03,   78.3474E-03,            0.,NA,NA,"",   936.160E+03,   964.490E+03,   964.490E+03
C:/temp/Job-3.odb,Step-1,Increment      1: Step Time =    1.000,"P-3-1",           470,   44.6665E-03,   77.4037E-03,            0.,NA,NA,"",   911.425E+03,   956.617E+03,   956.617E+03
C:/temp/Job-3.odb,Step-1,Increment      1: Step Time =    1.000,"P-3-1",           471,   35.9939E-03,   78.7795E-03,            0.,NA,NA,"",   878.151E+03,   939.944E+03,   939.944E+03
C:/temp/Job-3.odb,Step-1,Increment      1: Step Time =    1.000,"P-3-1",           472,   31.1489E-03,   76.9435E-03,            0.,NA,NA,"",   871.682E+03,   940.144E+03,   940.144E+03
C:/temp/Job-3.odb,Step-1,Increment      1: Step Time =    1.000,"P-3-1",           473,   22.2172E-03,   76.5440E-03,            0.,NA,NA,"",   848.372E+03,   929.508E+03,   929.508E+03
C:/temp/Job-3.odb,Step-1,Increment      1: Step Time =    1.000,"P-3-1",           474,   13.9816E-03,   77.6540E-03,            0.,NA,NA,"",   823.865E+03,   915.244E+03,   915.244E+03
C:/temp/Job-3.odb,Step-1,Increment      1: Step Time =    1.000,"P-3-1",           475,   7.00651E-03,   76.1192E-03,            0.,NA,NA,"",   810.405E+03,   908.238E+03,   908.238E+03
C:/temp/Job-3.odb,Step-1,Increment      1: Step Time =    1.000,"P-3-1",           476,   193.361E-03,   123.773E-03,            0.,NA,NA,"",   977.254E+03,   999.477E+03,   999.477E+03
C:/temp/Job-3.odb,Step-1,Increment      1: Step Time =    1.000,"P-3-1",           477,   186.605E-03,   124.057E-03,            0.,NA,NA,"",   982.097E+03,   998.374E+03,   998.374E+03
C:/temp/Job-3.odb,Step-1,Increment      1: Step Time =    1.000,"P-3-1",           478,   179.221E-03,   124.750E-03,            0.,NA,NA,"",   987.333E+03,   997.288E+03,   997.288E+03
C:/temp/Job-3.odb,Step-1,Increment      1: Step Time =    1.000,"P-3-1",           479,   169.230E-03,   122.961E-03,            0.,NA,NA,"",   988.832E+03,   992.232E+03,   992.232E+03
C:/temp/Job-3.odb,Step-1,Increment      1: Step Time =    1.000,"P-3-1",           480,   162.503E-03,   124.300E-03,            0.,NA,NA,"",   997.667E+03,   994.616E+03,   994.616E+03
C:/temp/Job-3.odb,Step-1,Increment      1: Step Time =    1.000,"P-3-1",           481,   154.649E-03,   125.861E-03,            0.,NA,NA,"",   1.01655E+06,   1.00367E+06,   1.00367E+06
C:/temp/Job-3.odb,Step-1,Increment      1: Step Time =    1.000,"P-3-1",           482,   146.059E-03,   121.416E-03,            0.,NA,NA,"",   1.01429E+06,   993.088E+03,   993.088E+03
C:/temp/Job-3.odb,Step-1,Increment      1: Step Time =    1.000,"P-3-1",           483,   139.453E-03,   123.159E-03,            0.,NA,NA,"",   1.06200E+06,   1.02508E+06,   1.02508E+06
C:/temp/Job-3.odb,Step-1,Increment      1: Step Time =    1.000,"P-3-1",           484,   131.756E-03,   122.754E-03,            0.,NA,NA,"",   1.12343E+06,   1.06682E+06,   1.06682E+06
C:/temp/Job-3.odb,Step-1,Increment      1: Step Time =    1.000,"P-3-1",           485,   122.826E-03,   122.537E-03,            0.,NA,NA,"",   1.23035E+06,   1.15747E+06,   1.15747E+06
C:/temp/Job-3.odb,Step-1,Increment      1: Step Time =    1.000,"P-3-1",           486,   116.337E-03,   122.349E-03,            0.,NA,NA,"",   1.30195E+06,   1.25072E+06,   1.25072E+06
C:/temp/Job-3.odb,Step-1,Increment      1: Step Time =    1.000,"P-3-1",           487,   108.356E-03,   124.766E-03,            0.,NA,NA,"",   1.22624E+06,   1.28300E+06,   1.28300E+06
C:/temp/Job-3.odb,Step-1,Increment      1: Step Time =    1.000,"P-3-1",           488,   100.341E-03,   122.974E-03,            0.,NA,NA,"",   1.20720E+06,   1.33412E+06,   1.33412E+06
C:/temp/Job-3.odb,Step-1,Increment      1: Step Time =    1.000,"P-3-1",           489,   92.5254E-03,   123.577E-03,            0.,NA,NA,"",   1.23412E+06,   1.30505E+06,   1.30505E+06
C:/temp/Job-3.odb,Step-1,Increment      1: Step Time =    1.000,"P-3-1",           490,   85.9862E-03,   122.200E-03,            0.,NA,NA,"",   1.30687E+06,   1.29120E+06,   1.29120E+06
C:/temp/Job-3.odb,Step-1,Increment      1: Step Time =    1.000,"P-3-1",           491,   78.0099E-03,   124.388E-03,            0.,NA,NA,"",   1.21676E+06,   1.17416E+06,   1.17416E+06
C:/temp/Job-3.odb,Step-1,Increment      1: Step Time =    1.000,"P-3-1",           492,   70.4765E-03,   123.061E-03,            0.,NA,NA,"",   1.10994E+06,   1.07728E+06,   1.07728E+06
C:/temp/Job-3.odb,Step-1,Increment      1: Step Time =    1.000,"P-3-1",           493,   60.4379E-03,   123.428E-03,            0.,NA,NA,"",   1.00580E+06,   1.00900E+06,   1.00900E+06
C:/temp/Job-3.odb,Step-1,Increment      1: Step Time =    1.000,"P-3-1",           494,   53.2019E-03,   123.946E-03,            0.,NA,NA,"",   960.963E+03,   984.646E+03,   984.646E+03
C:/temp/Job-3.odb,Step-1,Increment      1: Step Time =    1.000,"P-3-1",           495,   45.1350E-03,   125.454E-03,            0.,NA,NA,"",   932.095E+03,   973.043E+03,   973.043E+03
C:/temp/Job-3.odb,Step-1,Increment      1: Step Time =    1.000,"P-3-1",           496,   38.5337E-03,   119.911E-03,            0.,NA,NA,"",   879.119E+03,   937.576E+03,   937.576E+03
C:/temp/Job-3.odb,Step-1,Increment      1: Step Time =    1.000,"P-3-1",           497,   31.2641E-03,   120.920E-03,            0.,NA,NA,"",   864.800E+03,   934.063E+03,   934.063E+03
C:/temp/Job-3.odb,Step-1,Increment      1: Step Time =    1.000,"P-3-1",           498,   23.0203E-03,   122.992E-03,            0.,NA,NA,"",   848.892E+03,   929.210E+03,   929.210E+03
C:/temp/Job-3.odb,Step-1,Increment      1: Step Time =    1.000,"P-3-1",           499,   15.9163E-03,   123.308E-03,            0.,NA,NA,"",   831.428E+03,   920.424E+03,   920.424E+03
C:/temp/Job-3.odb,Step-1,Increment      1: Step Time =    1.000,"P-3-1",           500,   6.69673E-03,   123.716E-03,            0.,NA,NA,"",   809.679E+03,   907.807E+03,   907.807E+03
C:/temp/Job-3.odb,Step-1,Increment      1: Step Time =    1.000,"P-3-1",           501,   193.340E-03,   130.579E-03,            0.,NA,NA,"",   982.415E+03,    1.0001E+06,    1.0001E+06
C:/temp/Job-3.odb,Step-1,Increment      1: Step Time =    1.000,"P-3-1",           502,   184.090E-03,   132.466E-03,            0.,NA,NA,"",   991.882E+03,   1.00180E+06,   1.00180E+06
C:/temp/Job-3.odb,Step-1,Increment      1: Step Time =    1.000,"P-3-1",           503,   177.090E-03,   130.349E-03,            0.,NA,NA,"",   995.866E+03,   1.00166E+06,   1.00166E+06
C:/temp/Job-3.odb,Step-1,Increment      1: Step Time =    1.000,"P-3-1",           504,   168.715E-03,   132.065E-03,            0.,NA,NA,"",   1.00847E+06,   1.00672E+06,   1.00672E+06
C:/temp/Job-3.odb,Step-1,Increment      1: Step Time =    1.000,"P-3-1",           505,   161.598E-03,   133.082E-03,            0.,NA,NA,"",   1.02288E+06,   1.01417E+06,   1.01417E+06
C:/temp/Job-3.odb,Step-1,Increment      1: Step Time =    1.000,"P-3-1",           506,   153.608E-03,   129.069E-03,            0.,NA,NA,"",   1.03227E+06,   1.01631E+06,   1.01631E+06
C:/temp/Job-3.odb,Step-1,Increment      1: Step Time =    1.000,"P-3-1",           507,   145.127E-03,   129.437E-03,            0.,NA,NA,"",   1.06637E+06,   1.03812E+06,   1.03812E+06
C:/temp/Job-3.odb,Step-1,Increment      1: Step Time =    1.000,"P-3-1",           508,   137.931E-03,   130.035E-03,            0.,NA,NA,"",   1.10796E+06,   1.06885E+06,   1.06885E+06
C:/temp/Job-3.odb,Step-1,Increment      1: Step Time =    1.000,"P-3-1",           509,   129.248E-03,   128.282E-03,            0.,NA,NA,"",   1.17101E+06,   1.11840E+06,   1.11840E+06
C:/temp/Job-3.odb,Step-1,Increment      1: Step Time =    1.000,"P-3-1",           510,   123.798E-03,   130.941E-03,            0.,NA,NA,"",   1.19026E+06,   1.15127E+06,   1.15127E+06
C:/temp/Job-3.odb,Step-1,Increment      1: Step Time =    1.000,"P-3-1",           511,   116.664E-03,   132.429E-03,            0.,NA,NA,"",   1.18118E+06,   1.17472E+06,   1.17472E+06
C:/temp/Job-3.odb,Step-1,Increment      1: Step Time =    1.000,"P-3-1",           512,   109.284E-03,   134.828E-03,            0.,NA,NA,"",   1.10367E+06,   1.14753E+06,   1.14753E+06
C:/temp/Job-3.odb,Step-1,Increment      1: Step Time =    1.000,"P-3-1",           513,   99.3922E-03,   131.039E-03,            0.,NA,NA,"",   1.07309E+06,   1.16113E+06,   1.16113E+06
C:/temp/Job-3.odb,Step-1,Increment      1: Step Time =    1.000,"P-3-1",           514,   91.8733E-03,   130.955E-03,            0.,NA,NA,"",   1.12689E+06,   1.18372E+06,   1.18372E+06
C:/temp/Job-3.odb,Step-1,Increment      1: Step Time =    1.000,"P-3-1",           515,   83.9165E-03,   130.499E-03,            0.,NA,NA,"",   1.18268E+06,   1.18880E+06,   1.18880E+06
C:/temp/Job-3.odb,Step-1,Increment      1: Step Time =    1.000,"P-3-1",           516,   75.9474E-03,   130.778E-03,            0.,NA,NA,"",   1.16842E+06,   1.14920E+06,   1.14920E+06
C:/temp/Job-3.odb,Step-1,Increment      1: Step Time =    1.000,"P-3-1",           517,   69.9732E-03,   130.476E-03,            0.,NA,NA,"",   1.12985E+06,   1.11023E+06,   1.11023E+06
C:/temp/Job-3.odb,Step-1,Increment      1: Step Time =    1.000,"P-3-1",           518,   63.3785E-03,   130.824E-03,            0.,NA,NA,"",   1.07466E+06,   1.06809E+06,   1.06809E+06
C:/temp/Job-3.odb,Step-1,Increment      1: Step Time =    1.000,"P-3-1",           519,   53.8132E-03,   131.086E-03,            0.,NA,NA,"",   1.00794E+06,   1.02430E+06,   1.02430E+06
C:/temp/Job-3.odb,Step-1,Increment      1: Step Time =    1.000,"P-3-1",           520,   43.8752E-03,   129.071E-03,            0.,NA,NA,"",   944.519E+03,   985.334E+03,   985.334E+03
C:/temp/Job-3.odb,Step-1,Increment      1: Step Time =    1.000,"P-3-1",           521,   37.5452E-03,   132.139E-03,            0.,NA,NA,"",   932.482E+03,   983.537E+03,   983.537E+03
C:/temp/Job-3.odb,Step-1,Increment      1: Step Time =    1.000,"P-3-1",           522,   29.1474E-03,   132.090E-03,            0.,NA,NA,"",   900.169E+03,   966.651E+03,   966.651E+03
C:/temp/Job-3.odb,Step-1,Increment      1: Step Time =    1.000,"P-3-1",           523,   23.2385E-03,   130.663E-03,            0.,NA,NA,"",    875.45E+03,   952.282E+03,   952.282E+03
C:/temp/Job-3.odb,Step-1,Increment      1: Step Time =    1.000,"P-3-1",           524,   15.1051E-03,   129.783E-03,            0.,NA,NA,"",   845.684E+03,   934.480E+03,   934.480E+03
C:/temp/Job-3.odb,Step-1,Increment      1: Step Time =    1.000,"P-3-1",           525,   7.18924E-03,   130.809E-03,            0.,NA,NA,"",   825.307E+03,   923.072E+03,   923.072E+03
C:/temp/Job-3.odb,Step-1,Increment      1: Step Time =    1.000,"P-3-1",           526,   192.687E-03,   137.547E-03,            0.,NA,NA,"",   988.049E+03,   1.00084E+06,   1.00084E+06
C:/temp/Job-3.odb,Step-1,Increment      1: Step Time =    1.000,"P-3-1",           527,   185.260E-03,   138.648E-03,            0.,NA,NA,"",   995.726E+03,   1.00352E+06,   1.00352E+06
C:/temp/Job-3.odb,Step-1,Increment      1: Step Time =    1.000,"P-3-1",           528,   174.348E-03,   137.066E-03,            0.,NA,NA,"",   1.00769E+06,   1.00847E+06,   1.00847E+06
C:/temp/Job-3.odb,Step-1,Increment      1: Step Time =    1.000,"P-3-1",           529,   170.194E-03,   137.612E-03,            0.,NA,NA,"",   1.01491E+06,   1.01223E+06,   1.01223E+06
C:/temp/Job-3.odb,Step-1,Increment      1: Step Time =    1.000,"P-3-1",           530,   160.604E-03,   137.482E-03,            0.,NA,NA,"",   1.03355E+06,   1.02250E+06,   1.02250E+06
C:/temp/Job-3.odb,Step-1,Increment      1: Step Time =    1.000,"P-3-1",           531,   152.569E-03,   137.343E-03,            0.,NA,NA,"",   1.05579E+06,   1.03673E+06,   1.03673E+06
C:/temp/Job-3.odb,Step-1,Increment      1: Step Time =    1.000,"P-3-1",           532,   145.000E-03,   137.066E-03,            0.,NA,NA,"",   1.08170E+06,   1.05528E+06,   1.05528E+06
C:/temp/Job-3.odb,Step-1,Increment      1: Step Time =    1.000,"P-3-1",           533,   138.310E-03,   136.289E-03,            0.,NA,NA,"",   1.11027E+06,   1.07760E+06,   1.07760E+06
C:/temp/Job-3.odb,Step-1,Increment      1: Step Time =    1.000,"P-3-1",           534,   128.684E-03,   139.956E-03,            0.,NA,NA,"",   1.13082E+06,   1.10595E+06,   1.10595E+06
C:/temp/Job-3.odb,Step-1,Increment      1: Step Time =    1.000,"P-3-1",           535,   124.363E-03,   140.114E-03,            0.,NA,NA,"",   1.13348E+06,   1.11597E+06,   1.11597E+06
C:/temp/Job-3.odb,Step-1,Increment      1: Step Time =    1.000,"P-3-1",           536,   116.729E-03,   140.040E-03,            0.,NA,NA,"",   1.11610E+06,   1.12265E+06,   1.12265E+06
C:/temp/Job-3.odb,Step-1,Increment      1: Step Time =    1.000,"P-3-1",           537,   109.560E-03,   143.246E-03,            0.,NA,NA,"",   1.06058E+06,   1.09395E+06,   1.09395E+06
C:/temp/Job-3.odb,Step-1,Increment      1: Step Time =    1.000,"P-3-1",           538,   99.6197E-03,   138.128E-03,            0.,NA,NA,"",   1.04122E+06,   1.10553E+06,   1.10553E+06
C:/temp/Job-3.odb,Step-1,Increment      1: Step Time =    1.000,"P-3-1",           539,   91.5037E-03,   138.625E-03,            0.,NA,NA,"",   1.07189E+06,   1.11797E+06,   1.11797E+06
C:/temp/Job-3.odb,Step-1,Increment      1: Step Time =    1.000,"P-3-1",           540,   84.3511E-03,   139.163E-03,            0.,NA,NA,"",   1.10768E+06,   1.12786E+06,   1.12786E+06
C:/temp/Job-3.odb,Step-1,Increment      1: Step Time =    1.000,"P-3-1",           541,   75.5632E-03,   138.939E-03,            0.,NA,NA,"",   1.12350E+06,   1.12149E+06,   1.12149E+06
C:/temp/Job-3.odb,Step-1,Increment      1: Step Time =    1.000,"P-3-1",           542,   70.3930E-03,   138.386E-03,            0.,NA,NA,"",   1.11500E+06,   1.10850E+06,   1.10850E+06
C:/temp/Job-3.odb,Step-1,Increment      1: Step Time =    1.000,"P-3-1",           543,   59.5966E-03,   138.689E-03,            0.,NA,NA,"",   1.06635E+06,   1.06945E+06,   1.06945E+06
C:/temp/Job-3.odb,Step-1,Increment      1: Step Time =    1.000,"P-3-1",           544,   52.4411E-03,   137.912E-03,            0.,NA,NA,"",   1.02618E+06,   1.04271E+06,   1.04271E+06
C:/temp/Job-3.odb,Step-1,Increment      1: Step Time =    1.000,"P-3-1",           545,   44.6859E-03,   138.057E-03,            0.,NA,NA,"",   987.938E+03,   1.02032E+06,   1.02032E+06
C:/temp/Job-3.odb,Step-1,Increment      1: Step Time =    1.000,"P-3-1",           546,   37.1041E-03,   138.214E-03,            0.,NA,NA,"",   954.336E+03,   1.00198E+06,   1.00198E+06
C:/temp/Job-3.odb,Step-1,Increment      1: Step Time =    1.000,"P-3-1",           547,   31.3021E-03,   136.964E-03,            0.,NA,NA,"",   926.904E+03,   986.306E+03,   986.306E+03
C:/temp/Job-3.odb,Step-1,Increment      1: Step Time =    1.000,"P-3-1",           548,   22.5099E-03,   138.857E-03,            0.,NA,NA,"",   898.689E+03,   973.620E+03,   973.620E+03
C:/temp/Job-3.odb,Step-1,Increment      1: Step Time =    1.000,"P-3-1",           549,   17.2865E-03,   138.181E-03,            0.,NA,NA,"",   877.678E+03,   961.354E+03,   961.354E+03
C:/temp/Job-3.odb,Step-1,Increment      1: Step Time =    1.000,"P-3-1",           550,   7.80333E-03,   138.271E-03,            0.,NA,NA,"",   844.980E+03,   941.920E+03,   941.920E+03
C:/temp/Job-3.odb,Step-1,Increment      1: Step Time =    1.000,"P-3-1",           551,   190.590E-03,   145.489E-03,            0.,NA,NA,"",   994.820E+03,   1.00222E+06,   1.00222E+06
C:/temp/Job-3.odb,Step-1,Increment      1: Step Time =    1.000,"P-3-1",           552,   184.022E-03,   145.007E-03,            0.,NA,NA,"",   1.00061E+06,   1.00526E+06,   1.00526E+06
C:/temp/Job-3.odb,Step-1,Increment      1: Step Time =    1.000,"P-3-1",           553,   174.833E-03,   147.870E-03,            0.,NA,NA,"",   1.01415E+06,   1.01261E+06,   1.01261E+06
C:/temp/Job-3.odb,Step-1,Increment      1: Step Time =    1.000,"P-3-1",           554,   168.960E-03,   145.837E-03,            0.,NA,NA,"",   1.02304E+06,   1.01792E+06,   1.01792E+06
C:/temp/Job-3.odb,Step-1,Increment      1: Step Time =    1.000,"P-3-1",           555,   160.821E-03,   145.085E-03,            0.,NA,NA,"",   1.03931E+06,   1.02814E+06,   1.02814E+06
C:/temp/Job-3.odb,Step-1,Increment      1: Step Time =    1.000,"P-3-1",           556,   153.524E-03,   144.925E-03,            0.,NA,NA,"",   1.05675E+06,   1.04009E+06,   1.04009E+06
C:/temp/Job-3.odb,Step-1,Increment      1: Step Time =    1.000,"P-3-1",           557,   143.818E-03,   143.963E-03,            0.,NA,NA,"",   1.08395E+06,   1.06100E+06,   1.06100E+06
C:/temp/Job-3.odb,Step-1,Increment      1: Step Time =    1.000,"P-3-1",           558,   138.764E-03,   144.540E-03,            0.,NA,NA,"",   1.09585E+06,   1.07232E+06,   1.07232E+06
C:/temp/Job-3.odb,Step-1,Increment      1: Step Time =    1.000,"P-3-1",           559,   129.969E-03,   144.957E-03,            0.,NA,NA,"",   1.10886E+06,    1.0899E+06,    1.0899E+06
C:/temp/Job-3.odb,Step-1,Increment      1: Step Time =    1.000,"P-3-1",           560,   123.566E-03,   148.045E-03,            0.,NA,NA,"",   1.09304E+06,   1.08724E+06,   1.08724E+06
C:/temp/Job-3.odb,Step-1,Increment      1: Step Time =    1.000,"P-3-1",           561,   115.808E-03,   147.047E-03,            0.,NA,NA,"",   1.07267E+06,   1.08631E+06,   1.08631E+06
C:/temp/Job-3.odb,Step-1,Increment      1: Step Time =    1.000,"P-3-1",           562,   109.053E-03,   147.453E-03,            0.,NA,NA,"",   1.04589E+06,   1.07572E+06,   1.07572E+06
C:/temp/Job-3.odb,Step-1,Increment      1: Step Time =    1.000,"P-3-1",           563,   100.360E-03,   144.622E-03,            0.,NA,NA,"",   1.02820E+06,   1.07662E+06,   1.07662E+06
C:/temp/Job-3.odb,Step-1,Increment      1: Step Time =    1.000,"P-3-1",           564,   91.1700E-03,   145.989E-03,            0.,NA,NA,"",   1.04753E+06,   1.08344E+06,   1.08344E+06
C:/temp/Job-3.odb,Step-1,Increment      1: Step Time =    1.000,"P-3-1",           565,   84.5325E-03,   146.588E-03,            0.,NA,NA,"",   1.07144E+06,   1.09276E+06,   1.09276E+06
C:/temp/Job-3.odb,Step-1,Increment      1: Step Time =    1.000,"P-3-1",           566,   77.4314E-03,   147.149E-03,            0.,NA,NA,"",   1.08781E+06,   1.09573E+06,   1.09573E+06
C:/temp/Job-3.odb,Step-1,Increment      1: Step Time =    1.000,"P-3-1",           567,   67.5965E-03,   146.805E-03,            0.,NA,NA,"",   1.08688E+06,   1.08808E+06,   1.08808E+06
C:/temp/Job-3.odb,Step-1,Increment      1: Step Time =    1.000,"P-3-1",           568,   62.3520E-03,   146.624E-03,            0.,NA,NA,"",   1.07657E+06,   1.07946E+06,   1.07946E+06
C:/temp/Job-3.odb,Step-1,Increment      1: Step Time =    1.000,"P-3-1",           569,   53.7141E-03,   145.698E-03,            0.,NA,NA,"",   1.04791E+06,   1.06029E+06,   1.06029E+06
C:/temp/Job-3.odb,Step-1,Increment      1: Step Time =    1.000,"P-3-1",           570,   45.6936E-03,   147.649E-03,            0.,NA,NA,"",   1.02126E+06,   1.04584E+06,   1.04584E+06
C:/temp/Job-3.odb,Step-1,Increment      1: Step Time =    1.000,"P-3-1",           571,   38.4091E-03,   145.300E-03,            0.,NA,NA,"",   985.215E+03,   1.02526E+06,   1.02526E+06
C:/temp/Job-3.odb,Step-1,Increment      1: Step Time =    1.000,"P-3-1",           572,   30.7282E-03,   144.926E-03,            0.,NA,NA,"",   953.069E+03,   1.00864E+06,   1.00864E+06
C:/temp/Job-3.odb,Step-1,Increment      1: Step Time =    1.000,"P-3-1",           573,   25.1483E-03,   145.490E-03,            0.,NA,NA,"",   933.269E+03,   999.273E+03,   999.273E+03
C:/temp/Job-3.odb,Step-1,Increment      1: Step Time =    1.000,"P-3-1",           574,   18.1085E-03,   146.258E-03,            0.,NA,NA,"",   907.523E+03,   986.725E+03,   986.725E+03
C:/temp/Job-3.odb,Step-1,Increment      1: Step Time =    1.000,"P-3-1",           575,   7.55657E-03,   145.902E-03,            0.,NA,NA,"",   864.974E+03,   961.704E+03,   961.704E+03
C:/temp/Job-3.odb,Step-1,Increment      1: Step Time =    1.000,"P-3-1",           576,   192.764E-03,   153.367E-03,            0.,NA,NA,"",   996.862E+03,   1.00147E+06,   1.00147E+06
C:/temp/Job-3.odb,Step-1,Increment      1: Step Time =    1.000,"P-3-1",           577,   183.195E-03,   153.634E-03,            0.,NA,NA,"",   1.00440E+06,   1.00619E+06,   1.00619E+06
C:/temp/Job-3.odb,Step-1,Increment      1: Step Time =    1.000,"P-3-1",           578,   173.777E-03,   154.316E-03,            0.,NA,NA,"",   1.01649E+06,   1.01369E+06,   1.01369E+06
C:/temp/Job-3.odb,Step-1,Increment      1: Step Time =    1.000,"P-3-1",           579,   167.522E-03,   152.927E-03,            0.,NA,NA,"",   1.02585E+06,   1.01981E+06,   1.01981E+06
C:/temp/Job-3.odb,Step-1,Increment      1: Step Time =    1.000,"P-3-1",           580,   159.058E-03,   151.953E-03,            0.,NA,NA,"",   1.04139E+06,   1.03031E+06,   1.03031E+06
C:/temp/Job-3.odb,Step-1,Increment      1: Step Time =    1.000,"P-3-1",           581,   152.938E-03,   152.662E-03,            0.,NA,NA,"",   1.05219E+06,   1.03831E+06,   1.03831E+06
C:/temp/Job-3.odb,Step-1,Increment      1: Step Time =    1.000,"P-3-1",           582,   145.774E-03,   154.591E-03,            0.,NA,NA,"",   1.06199E+06,   1.04689E+06,   1.04689E+06
C:/temp/Job-3.odb,Step-1,Increment      1: Step Time =    1.000,"P-3-1",           583,   137.223E-03,   153.688E-03,            0.,NA,NA,"",   1.07464E+06,   1.05968E+06,   1.05968E+06
C:/temp/Job-3.odb,Step-1,Increment      1: Step Time =    1.000,"P-3-1",           584,   129.425E-03,   153.645E-03,            0.,NA,NA,"",   1.07524E+06,   1.06618E+06,   1.06618E+06
C:/temp/Job-3.odb,Step-1,Increment      1: Step Time =    1.000,"P-3-1",           585,   123.891E-03,   154.586E-03,            0.,NA,NA,"",   1.06612E+06,   1.06456E+06,   1.06456E+06
C:/temp/Job-3.odb,Step-1,Increment      1: Step Time =    1.000,"P-3-1",           586,   108.603E-03,   155.026E-03,            0.,NA,NA,"",   1.02828E+06,   1.05128E+06,   1.05128E+06
C:/temp/Job-3.odb,Step-1,Increment      1: Step Time =    1.000,"P-3-1",           587,   98.0092E-03,   154.083E-03,            0.,NA,NA,"",   1.02038E+06,   1.05103E+06,   1.05103E+06
C:/temp/Job-3.odb,Step-1,Increment      1: Step Time =    1.000,"P-3-1",           588,   92.2447E-03,   153.418E-03,            0.,NA,NA,"",   1.02977E+06,   1.05844E+06,   1.05844E+06
C:/temp/Job-3.odb,Step-1,Increment      1: Step Time =    1.000,"P-3-1",           589,   85.0256E-03,   154.022E-03,            0.,NA,NA,"",   1.04725E+06,   1.06653E+06,   1.06653E+06
C:/temp/Job-3.odb,Step-1,Increment      1: Step Time =    1.000,"P-3-1",           590,   77.5402E-03,   154.534E-03,            0.,NA,NA,"",   1.06320E+06,   1.07307E+06,   1.07307E+06
C:/temp/Job-3.odb,Step-1,Increment      1: Step Time =    1.000,"P-3-1",           591,   62.0049E-03,   155.675E-03,            0.,NA,NA,"",   1.06514E+06,   1.06988E+06,   1.06988E+06
C:/temp/Job-3.odb,Step-1,Increment      1: Step Time =    1.000,"P-3-1",           592,   52.7777E-03,   153.358E-03,            0.,NA,NA,"",   1.05027E+06,   1.06243E+06,   1.06243E+06
C:/temp/Job-3.odb,Step-1,Increment      1: Step Time =    1.000,"P-3-1",           593,   46.7961E-03,   153.691E-03,            0.,NA,NA,"",   1.03438E+06,   1.05470E+06,   1.05470E+06
C:/temp/Job-3.odb,Step-1,Increment      1: Step Time =    1.000,"P-3-1",           594,   39.3128E-03,   154.916E-03,            0.,NA,NA,"",   1.01536E+06,   1.04678E+06,   1.04678E+06
C:/temp/Job-3.odb,Step-1,Increment      1: Step Time =    1.000,"P-3-1",           595,   30.9973E-03,   155.523E-03,            0.,NA,NA,"",   990.181E+03,   1.03710E+06,   1.03710E+06
C:/temp/Job-3.odb,Step-1,Increment      1: Step Time =    1.000,"P-3-1",           596,   21.0450E-03,   154.230E-03,            0.,NA,NA,"",   947.668E+03,   1.01666E+06,   1.01666E+06
C:/temp/Job-3.odb,Step-1,Increment      1: Step Time =    1.000,"P-3-1",           597,   15.9661E-03,   152.692E-03,            0.,NA,NA,"",   921.331E+03,   1.00146E+06,   1.00146E+06
C:/temp/Job-3.odb,Step-1,Increment      1: Step Time =    1.000,"P-3-1",           598,   7.45482E-03,   153.253E-03,            0.,NA,NA,"",   886.153E+03,   982.473E+03,   982.473E+03
C:/temp/Job-3.odb,Step-1,Increment      1: Step Time =    1.000,"P-3-1",           599,   192.998E-03,   160.018E-03,            0.,NA,NA,"",   998.743E+03,   1.00122E+06,   1.00122E+06
C:/temp/Job-3.odb,Step-1,Increment      1: Step Time =    1.000,"P-3-1",           600,   185.176E-03,   160.497E-03,            0.,NA,NA,"",   1.00324E+06,   1.00448E+06,   1.00448E+06
C:/temp/Job-3.odb,Step-1,Increment      1: Step Time =    1.000,"P-3-1",           601,   177.253E-03,   162.137E-03,            0.,NA,NA,"",   1.01032E+06,   1.00898E+06,   1.00898E+06
C:/temp/Job-3.odb,Step-1,Increment      1: Step Time =    1.000,"P-3-1",           602,   169.150E-03,   161.848E-03,            0.,NA,NA,"",   1.01962E+06,   1.01523E+06,   1.01523E+06
C:/temp/Job-3.odb,Step-1,Increment      1: Step Time =    1.000,"P-3-1",           603,   163.734E-03,   162.295E-03,            0.,NA,NA,"",   1.02588E+06,   1.01950E+06,   1.01950E+06
C:/temp/Job-3.odb,Step-1,Increment      1: Step Time =    1.000,"P-3-1",           604,   153.830E-03,   160.625E-03,            0.,NA,NA,"",   1.04054E+06,   1.03029E+06,   1.03029E+06
C:/temp/Job-3.odb,Step-1,Increment      1: Step Time =    1.000,"P-3-1",           605,   148.623E-03,   160.767E-03,            0.,NA,NA,"",   1.04674E+06,   1.03543E+06,   1.03543E+06
C:/temp/Job-3.odb,Step-1,Increment      1: Step Time =    1.000,"P-3-1",           606,   138.029E-03,   164.029E-03,            0.,NA,NA,"",   1.04498E+06,   1.03669E+06,   1.03669E+06
C:/temp/Job-3.odb,Step-1,Increment      1: Step Time =    1.000,"P-3-1",           607,   130.143E-03,   162.145E-03,            0.,NA,NA,"",   1.04786E+06,   1.04279E+06,   1.04279E+06
C:/temp/Job-3.odb,Step-1,Increment      1: Step Time =    1.000,"P-3-1",           608,   123.575E-03,   161.458E-03,            0.,NA,NA,"",   1.04306E+06,   1.04381E+06,   1.04381E+06
C:/temp/Job-3.odb,Step-1,Increment      1: Step Time =    1.000,"P-3-1",           609,   116.551E-03,   159.594E-03,            0.,NA,NA,"",   1.03607E+06,   1.04541E+06,   1.04541E+06
C:/temp/Job-3.odb,Step-1,Increment      1: Step Time =    1.000,"P-3-1",           610,   106.131E-03,   161.121E-03,            0.,NA,NA,"",   1.01520E+06,   1.03443E+06,   1.03443E+06
C:/temp/Job-3.odb,Step-1,Increment      1: Step Time =    1.000,"P-3-1",           611,   99.8962E-03,   160.628E-03,            0.,NA,NA,"",   1.01294E+06,   1.03561E+06,   1.03561E+06
C:/temp/Job-3.odb,Step-1,Increment      1: Step Time =    1.000,"P-3-1",           612,   91.4819E-03,   161.399E-03,            0.,NA,NA,"",   1.01921E+06,   1.03837E+06,   1.03837E+06
C:/temp/Job-3.odb,Step-1,Increment      1: Step Time =    1.000,"P-3-1",           613,   86.0712E-03,   162.074E-03,            0.,NA,NA,"",   1.02711E+06,   1.04251E+06,   1.04251E+06
C:/temp/Job-3.odb,Step-1,Increment      1: Step Time =    1.000,"P-3-1",           614,   68.2883E-03,   163.189E-03,            0.,NA,NA,"",   1.05191E+06,   1.05631E+06,   1.05631E+06
C:/temp/Job-3.odb,Step-1,Increment      1: Step Time =    1.000,"P-3-1",           615,   62.9496E-03,   159.782E-03,            0.,NA,NA,"",   1.05989E+06,   1.06450E+06,   1.06450E+06
C:/temp/Job-3.odb,Step-1,Increment      1: Step Time =    1.000,"P-3-1",           616,   54.0376E-03,   160.345E-03,            0.,NA,NA,"",   1.05250E+06,   1.06159E+06,   1.06159E+06
C:/temp/Job-3.odb,Step-1,Increment      1: Step Time =    1.000,"P-3-1",           617,   46.3572E-03,   161.148E-03,            0.,NA,NA,"",   1.04212E+06,   1.05883E+06,   1.05883E+06
C:/temp/Job-3.odb,Step-1,Increment      1: Step Time =    1.000,"P-3-1",           618,   37.9802E-03,   162.640E-03,            0.,NA,NA,"",   1.02890E+06,   1.05670E+06,   1.05670E+06
C:/temp/Job-3.odb,Step-1,Increment      1: Step Time =    1.000,"P-3-1",           619,   29.6659E-03,   164.068E-03,            0.,NA,NA,"",   1.01500E+06,   1.05636E+06,   1.05636E+06
C:/temp/Job-3.odb,Step-1,Increment      1: Step Time =    1.000,"P-3-1",           620,   22.6526E-03,   161.427E-03,            0.,NA,NA,"",   980.771E+03,   1.04058E+06,   1.04058E+06
C:/temp/Job-3.odb,Step-1,Increment      1: Step Time =    1.000,"P-3-1",           621,   15.1060E-03,   161.765E-03,            0.,NA,NA,"",   953.053E+03,   1.03003E+06,   1.03003E+06
C:/temp/Job-3.odb,Step-1,Increment      1: Step Time =    1.000,"P-3-1",           622,   7.19427E-03,   160.177E-03,            0.,NA,NA,"",   909.470E+03,   1.00522E+06,   1.00522E+06
C:/temp/Job-3.odb,Step-1,Increment      1: Step Time =    1.000,"P-3-1",           623,   194.159E-03,   166.810E-03,            0.,NA,NA,"",   999.684E+03,   1.00066E+06,   1.00066E+06
C:/temp/Job-3.odb,Step-1,Increment      1: Step Time =    1.000,"P-3-1",           624,   184.682E-03,   168.786E-03,            0.,NA,NA,"",   1.00340E+06,   1.00352E+06,   1.00352E+06
C:/temp/Job-3.odb,Step-1,Increment      1: Step Time =    1.000,"P-3-1",           625,   177.207E-03,   171.740E-03,            0.,NA,NA,"",   1.00725E+06,   1.00597E+06,   1.00597E+06
C:/temp/Job-3.odb,Step-1,Increment      1: Step Time =    1.000,"P-3-1",           626,   169.187E-03,   170.032E-03,            0.,NA,NA,"",   1.01403E+06,   1.01075E+06,   1.01075E+06
C:/temp/Job-3.odb,Step-1,Increment      1: Step Time =    1.000,"P-3-1",           627,   161.417E-03,   170.711E-03,            0.,NA,NA,"",   1.01938E+06,   1.01440E+06,   1.01440E+06
C:/temp/Job-3.odb,Step-1,Increment      1: Step Time =    1.000,"P-3-1",           628,   156.254E-03,   167.518E-03,            0.,NA,NA,"",   1.02728E+06,   1.02032E+06,   1.02032E+06
C:/temp/Job-3.odb,Step-1,Increment      1: Step Time =    1.000,"P-3-1",           629,   148.711E-03,   169.750E-03,            0.,NA,NA,"",   1.02924E+06,   1.02212E+06,   1.02212E+06
C:/temp/Job-3.odb,Step-1,Increment      1: Step Time =    1.000,"P-3-1",           630,   138.610E-03,   170.772E-03,            0.,NA,NA,"",   1.02770E+06,   1.02221E+06,   1.02221E+06
C:/temp/Job-3.odb,Step-1,Increment      1: Step Time =    1.000,"P-3-1",           631,   122.860E-03,   167.120E-03,            0.,NA,NA,"",   1.02773E+06,   1.02946E+06,   1.02946E+06
C:/temp/Job-3.odb,Step-1,Increment      1: Step Time =    1.000,"P-3-1",           632,   115.383E-03,   166.450E-03,            0.,NA,NA,"",   1.01860E+06,   1.02695E+06,   1.02695E+06
C:/temp/Job-3.odb,Step-1,Increment      1: Step Time =    1.000,"P-3-1",           633,   107.338E-03,   168.065E-03,            0.,NA,NA,"",   1.00658E+06,   1.01962E+06,   1.01962E+06
C:/temp/Job-3.odb,Step-1,Increment      1: Step Time =    1.000,"P-3-1",           634,   99.4009E-03,   168.806E-03,            0.,NA,NA,"",   1.00270E+06,   1.01710E+06,   1.01710E+06
C:/temp/Job-3.odb,Step-1,Increment      1: Step Time =    1.000,"P-3-1",           635,   92.9917E-03,   169.760E-03,            0.,NA,NA,"",   1.00463E+06,   1.01798E+06,   1.01798E+06
C:/temp/Job-3.odb,Step-1,Increment      1: Step Time =    1.000,"P-3-1",           636,   84.3814E-03,   170.413E-03,            0.,NA,NA,"",   1.01385E+06,   1.02323E+06,   1.02323E+06
C:/temp/Job-3.odb,Step-1,Increment      1: Step Time =    1.000,"P-3-1",           637,   77.9352E-03,   169.119E-03,            0.,NA,NA,"",   1.02674E+06,   1.03367E+06,   1.03367E+06
C:/temp/Job-3.odb,Step-1,Increment      1: Step Time =    1.000,"P-3-1",           638,   71.3928E-03,   169.112E-03,            0.,NA,NA,"",   1.03553E+06,   1.03991E+06,   1.03991E+06
C:/temp/Job-3.odb,Step-1,Increment      1: Step Time =    1.000,"P-3-1",           639,   63.0825E-03,   168.690E-03,            0.,NA,NA,"",   1.04416E+06,   1.04775E+06,   1.04775E+06
C:/temp/Job-3.odb,Step-1,Increment      1: Step Time =    1.000,"P-3-1",           640,   53.9625E-03,   168.844E-03,            0.,NA,NA,"",   1.04701E+06,   1.05330E+06,   1.05330E+06
C:/temp/Job-3.odb,Step-1,Increment      1: Step Time =    1.000,"P-3-1",           641,   46.7902E-03,   168.856E-03,            0.,NA,NA,"",   1.04591E+06,   1.05764E+06,   1.05764E+06
C:/temp/Job-3.odb,Step-1,Increment      1: Step Time =    1.000,"P-3-1",           642,   37.4144E-03,   169.985E-03,            0.,NA,NA,"",   1.04199E+06,   1.06347E+06,   1.06347E+06
C:/temp/Job-3.odb,Step-1,Increment      1: Step Time =    1.000,"P-3-1",           643,   29.6969E-03,   170.532E-03,            0.,NA,NA,"",   1.03670E+06,   1.06974E+06,   1.06974E+06
C:/temp/Job-3.odb,Step-1,Increment      1: Step Time =    1.000,"P-3-1",           644,   23.0465E-03,   170.065E-03,            0.,NA,NA,"",   1.02058E+06,   1.06961E+06,   1.06961E+06
C:/temp/Job-3.odb,Step-1,Increment      1: Step Time =    1.000,"P-3-1",           645,   15.1575E-03,   169.662E-03,            0.,NA,NA,"",   990.814E+03,   1.06133E+06,   1.06133E+06
C:/temp/Job-3.odb,Step-1,Increment      1: Step Time =    1.000,"P-3-1",           646,   6.95730E-03,   170.608E-03,            0.,NA,NA,"",   956.826E+03,   1.04992E+06,   1.04992E+06
C:/temp/Job-3.odb,Step-1,Increment      1: Step Time =    1.000,"P-3-1",           647,   190.605E-03,   175.055E-03,            0.,NA,NA,"",   1.00086E+06,   1.00103E+06,   1.00103E+06
C:/temp/Job-3.odb,Step-1,Increment      1: Step Time =    1.000,"P-3-1",           648,   185.198E-03,   176.266E-03,            0.,NA,NA,"",   1.00218E+06,   1.00204E+06,   1.00204E+06
C:/temp/Job-3.odb,Step-1,Increment      1: Step Time =    1.000,"P-3-1",           649,   176.738E-03,   176.962E-03,            0.,NA,NA,"",   1.00529E+06,   1.00420E+06,   1.00420E+06
C:/temp/Job-3.odb,Step-1,Increment      1: Step Time =    1.000,"P-3-1",           650,   168.906E-03,   177.730E-03,            0.,NA,NA,"",   1.00815E+06,   1.00601E+06,   1.00601E+06
C:/temp/Job-3.odb,Step-1,Increment      1: Step Time =    1.000,"P-3-1",           651,   161.696E-03,   179.319E-03,            0.,NA,NA,"",   1.00937E+06,   1.00651E+06,   1.00651E+06
C:/temp/Job-3.odb,Step-1,Increment      1: Step Time =    1.000,"P-3-1",           652,   154.165E-03,   175.368E-03,            0.,NA,NA,"",   1.01672E+06,   1.01206E+06,   1.01206E+06
C:/temp/Job-3.odb,Step-1,Increment      1: Step Time =    1.000,"P-3-1",           653,   146.812E-03,   177.317E-03,            0.,NA,NA,"",   1.01424E+06,   1.01004E+06,   1.01004E+06
C:/temp/Job-3.odb,Step-1,Increment      1: Step Time =    1.000,"P-3-1",           654,   139.061E-03,   177.296E-03,            0.,NA,NA,"",   1.01320E+06,   1.00967E+06,   1.00967E+06
C:/temp/Job-3.odb,Step-1,Increment      1: Step Time =    1.000,"P-3-1",           655,   129.698E-03,   175.644E-03,            0.,NA,NA,"",   1.01188E+06,   1.01045E+06,   1.01045E+06
C:/temp/Job-3.odb,Step-1,Increment      1: Step Time =    1.000,"P-3-1",           656,   124.022E-03,   179.308E-03,            0.,NA,NA,"",   998.706E+03,   999.484E+03,   999.484E+03
C:/temp/Job-3.odb,Step-1,Increment      1: Step Time =    1.000,"P-3-1",           657,   114.619E-03,   180.160E-03,            0.,NA,NA,"",   988.420E+03,   992.100E+03,   992.100E+03
C:/temp/Job-3.odb,Step-1,Increment      1: Step Time =    1.000,"P-3-1",           658,   109.540E-03,   176.337E-03,            0.,NA,NA,"",   992.595E+03,   999.343E+03,   999.343E+03
C:/temp/Job-3.odb,Step-1,Increment      1: Step Time =    1.000,"P-3-1",           659,   101.168E-03,   176.276E-03,            0.,NA,NA,"",   990.045E+03,   998.685E+03,   998.685E+03
C:/temp/Job-3.odb,Step-1,Increment      1: Step Time =    1.000,"P-3-1",           660,   93.3443E-03,   176.463E-03,            0.,NA,NA,"",   992.300E+03,   1.00056E+06,   1.00056E+06
C:/temp/Job-3.odb,Step-1,Increment      1: Step Time =    1.000,"P-3-1",           661,   84.9713E-03,   177.347E-03,            0.,NA,NA,"",   997.585E+03,   1.00371E+06,   1.00371E+06
C:/temp/Job-3.odb,Step-1,Increment      1: Step Time =    1.000,"P-3-1",           662,   76.1715E-03,   178.417E-03,            0.,NA,NA,"",   1.00582E+06,   1.00914E+06,   1.00914E+06
C:/temp/Job-3.odb,Step-1,Increment      1: Step Time =    1.000,"P-3-1",           663,   69.3011E-03,   177.220E-03,            0.,NA,NA,"",   1.01780E+06,   1.02014E+06,   1.02014E+06
C:/temp/Job-3.odb,Step-1,Increment      1: Step Time =    1.000,"P-3-1",           664,   61.7291E-03,   176.860E-03,            0.,NA,NA,"",   1.02739E+06,   1.02951E+06,   1.02951E+06
C:/temp/Job-3.odb,Step-1,Increment      1: Step Time =    1.000,"P-3-1",           665,   53.9216E-03,   176.843E-03,            0.,NA,NA,"",   1.03540E+06,   1.03896E+06,   1.03896E+06
C:/temp/Job-3.odb,Step-1,Increment      1: Step Time =    1.000,"P-3-1",           666,   46.1248E-03,   177.083E-03,            0.,NA,NA,"",   1.04264E+06,   1.04970E+06,   1.04970E+06
C:/temp/Job-3.odb,Step-1,Increment      1: Step Time =    1.000,"P-3-1",           667,   39.2288E-03,   178.886E-03,            0.,NA,NA,"",   1.04858E+06,   1.05920E+06,   1.05920E+06
C:/temp/Job-3.odb,Step-1,Increment      1: Step Time =    1.000,"P-3-1",           668,   29.9073E-03,   176.884E-03,            0.,NA,NA,"",   1.05479E+06,   1.07908E+06,   1.07908E+06
C:/temp/Job-3.odb,Step-1,Increment      1: Step Time =    1.000,"P-3-1",           669,   19.7662E-03,   176.535E-03,            0.,NA,NA,"",   1.04755E+06,   1.09515E+06,   1.09515E+06
C:/temp/Job-3.odb,Step-1,Increment      1: Step Time =    1.000,"P-3-1",           670,   6.87115E-03,   177.297E-03,            0.,NA,NA,"",   1.00060E+06,   1.09042E+06,   1.09042E+06
C:/temp/Job-3.odb,Step-1,Increment      1: Step Time =    1.000,"P-3-1",           671,   192.760E-03,   186.065E-03,            0.,NA,NA,"",   1.00020E+06,   1.00010E+06,   1.00010E+06
C:/temp/Job-3.odb,Step-1,Increment      1: Step Time =    1.000,"P-3-1",           672,   183.047E-03,   185.522E-03,            0.,NA,NA,"",   1.00088E+06,   1.00069E+06,   1.00069E+06
C:/temp/Job-3.odb,Step-1,Increment      1: Step Time =    1.000,"P-3-1",           673,   177.402E-03,   183.253E-03,            0.,NA,NA,"",   1.00229E+06,   1.00171E+06,   1.00171E+06
C:/temp/Job-3.odb,Step-1,Increment      1: Step Time =    1.000,"P-3-1",           674,   170.126E-03,   185.828E-03,            0.,NA,NA,"",   1.00220E+06,   1.00129E+06,   1.00129E+06
C:/temp/Job-3.odb,Step-1,Increment      1: Step Time =    1.000,"P-3-1",           675,   160.047E-03,   183.063E-03,            0.,NA,NA,"",   1.00552E+06,   1.00336E+06,   1.00336E+06
C:/temp/Job-3.odb,Step-1,Increment      1: Step Time =    1.000,"P-3-1",           676,   152.757E-03,   185.309E-03,            0.,NA,NA,"",   1.00197E+06,   999.971E+03,   999.971E+03
C:/temp/Job-3.odb,Step-1,Increment      1: Step Time =    1.000,"P-3-1",           677,   145.891E-03,   182.090E-03,            0.,NA,NA,"",   1.00573E+06,   1.00289E+06,   1.00289E+06
C:/temp/Job-3.odb,Step-1,Increment      1: Step Time =    1.000,"P-3-1",           678,   136.704E-03,   183.480E-03,            0.,NA,NA,"",   998.213E+03,   996.451E+03,   996.451E+03
C:/temp/Job-3.odb,Step-1,Increment      1: Step Time =    1.000,"P-3-1",           679,   130.646E-03,   182.937E-03,            0.,NA,NA,"",   995.444E+03,   994.535E+03,   994.535E+03
C:/temp/Job-3.odb,Step-1,Increment      1: Step Time =    1.000,"P-3-1",           680,   123.117E-03,   185.446E-03,            0.,NA,NA,"",   982.446E+03,   983.026E+03,   983.026E+03
C:/temp/Job-3.odb,Step-1,Increment      1: Step Time =    1.000,"P-3-1",           681,   114.123E-03,   184.728E-03,            0.,NA,NA,"",   976.999E+03,   979.433E+03,   979.433E+03
C:/temp/Job-3.odb,Step-1,Increment      1: Step Time =    1.000,"P-3-1",           682,   107.272E-03,   185.408E-03,            0.,NA,NA,"",   971.120E+03,   974.126E+03,   974.126E+03
C:/temp/Job-3.odb,Step-1,Increment      1: Step Time =    1.000,"P-3-1",           683,   97.3012E-03,   185.288E-03,            0.,NA,NA,"",   970.145E+03,   973.913E+03,   973.913E+03
C:/temp/Job-3.odb,Step-1,Increment      1: Step Time =    1.000,"P-3-1",           684,   90.5881E-03,   183.598E-03,            0.,NA,NA,"",   977.286E+03,   981.367E+03,   981.367E+03
C:/temp/Job-3.odb,Step-1,Increment      1: Step Time =    1.000,"P-3-1",           685,   82.2469E-03,   184.004E-03,            0.,NA,NA,"",   982.885E+03,   985.712E+03,   985.712E+03
C:/temp/Job-3.odb,Step-1,Increment      1: Step Time =    1.000,"P-3-1",           686,   74.4525E-03,   184.659E-03,            0.,NA,NA,"",   988.853E+03,   990.368E+03,   990.368E+03
C:/temp/Job-3.odb,Step-1,Increment      1: Step Time =    1.000,"P-3-1",           687,   68.6288E-03,   184.322E-03,            0.,NA,NA,"",   998.262E+03,   999.237E+03,   999.237E+03
C:/temp/Job-3.odb,Step-1,Increment      1: Step Time =    1.000,"P-3-1",           688,   61.8224E-03,   184.117E-03,            0.,NA,NA,"",   1.00765E+06,   1.00830E+06,   1.00830E+06
C:/temp/Job-3.odb,Step-1,Increment      1: Step Time =    1.000,"P-3-1",           689,   53.4793E-03,   184.713E-03,            0.,NA,NA,"",   1.01769E+06,   1.01914E+06,   1.01914E+06
C:/temp/Job-3.odb,Step-1,Increment      1: Step Time =    1.000,"P-3-1",           690,   45.6796E-03,   185.780E-03,            0.,NA,NA,"",   1.02739E+06,   1.03022E+06,   1.03022E+06
C:/temp/Job-3.odb,Step-1,Increment      1: Step Time =    1.000,"P-3-1",           691,   38.9232E-03,   187.978E-03,            0.,NA,NA,"",   1.03673E+06,   1.04064E+06,   1.04064E+06
C:/temp/Job-3.odb,Step-1,Increment      1: Step Time =    1.000,"P-3-1",           692,   27.9081E-03,   184.522E-03,            0.,NA,NA,"",   1.07356E+06,   1.08804E+06,   1.08804E+06
C:/temp/Job-3.odb,Step-1,Increment      1: Step Time =    1.000,"P-3-1",           693,   21.8115E-03,   184.280E-03,            0.,NA,NA,"",   1.09060E+06,   1.11534E+06,   1.11534E+06
C:/temp/Job-3.odb,Step-1,Increment      1: Step Time =    1.000,"P-3-1",           694,   14.1231E-03,   182.140E-03,            0.,NA,NA,"",   1.07788E+06,   1.13090E+06,   1.13090E+06
C:/temp/Job-3.odb,Step-1,Increment      1: Step Time =    1.000,"P-3-1",           695,   8.64578E-03,   184.397E-03,            0.,NA,NA,"",   1.08641E+06,   1.15768E+06,   1.15768E+06
C:/temp/Job-3.odb,Step-1,Increment      1: Step Time =    1.000,"P-3-1",           696,   192.776E-03,   192.881E-03,            0.,NA,NA,"",   999.942E+03,   999.887E+03,   999.887E+03
C:/temp/Job-3.odb,Step-1,Increment      1: Step Time =    1.000,"P-3-1",           697,   185.025E-03,   192.691E-03,            0.,NA,NA,"",   999.741E+03,   999.702E+03,   999.702E+03
C:/temp/Job-3.odb,Step-1,Increment      1: Step Time =    1.000,"P-3-1",           698,   175.425E-03,   191.903E-03,            0.,NA,NA,"",   999.638E+03,   999.430E+03,   999.430E+03
C:/temp/Job-3.odb,Step-1,Increment      1: Step Time =    1.000,"P-3-1",           699,   167.562E-03,   193.032E-03,            0.,NA,NA,"",   998.349E+03,   998.039E+03,   998.039E+03
C:/temp/Job-3.odb,Step-1,Increment      1: Step Time =    1.000,"P-3-1",           700,   160.533E-03,   192.883E-03,            0.,NA,NA,"",   996.677E+03,   996.197E+03,   996.197E+03
C:/temp/Job-3.odb,Step-1,Increment      1: Step Time =    1.000,"P-3-1",           701,   152.781E-03,   191.149E-03,            0.,NA,NA,"",   994.990E+03,   994.124E+03,   994.124E+03
C:/temp/Job-3.odb,Step-1,Increment      1: Step Time =    1.000,"P-3-1",           702,   144.948E-03,   192.578E-03,            0.,NA,NA,"",   988.107E+03,   987.500E+03,   987.500E+03
C:/temp/Job-3.odb,Step-1,Increment      1: Step Time =    1.000,"P-3-1",           703,   137.628E-03,   192.687E-03,            0.,NA,NA,"",   981.098E+03,   980.645E+03,   980.645E+03
C:/temp/Job-3.odb,Step-1,Increment      1: Step Time =    1.000,"P-3-1",           704,   130.591E-03,   193.516E-03,            0.,NA,NA,"",   971.629E+03,   971.481E+03,   971.481E+03
C:/temp/Job-3.odb,Step-1,Increment      1: Step Time =    1.000,"P-3-1",           705,   123.720E-03,   194.018E-03,            0.,NA,NA,"",   961.919E+03,   962.057E+03,   962.057E+03
C:/temp/Job-3.odb,Step-1,Increment      1: Step Time =    1.000,"P-3-1",           706,   117.012E-03,   193.790E-03,            0.,NA,NA,"",   954.667E+03,    955.02E+03,    955.02E+03
C:/temp/Job-3.odb,Step-1,Increment      1: Step Time =    1.000,"P-3-1",           707,   106.242E-03,   191.157E-03,            0.,NA,NA,"",   954.345E+03,   955.639E+03,   955.639E+03
C:/temp/Job-3.odb,Step-1,Increment      1: Step Time =    1.000,"P-3-1",           708,   98.3313E-03,   192.639E-03,            0.,NA,NA,"",   946.856E+03,   947.930E+03,   947.930E+03
C:/temp/Job-3.odb,Step-1,Increment      1: Step Time =    1.000,"P-3-1",           709,   91.2975E-03,   193.392E-03,            0.,NA,NA,"",   945.272E+03,   946.153E+03,   946.153E+03
C:/temp/Job-3.odb,Step-1,Increment      1: Step Time =    1.000,"P-3-1",           710,   84.4446E-03,   193.651E-03,            0.,NA,NA,"",   948.176E+03,   948.812E+03,   948.812E+03
C:/temp/Job-3.odb,Step-1,Increment      1: Step Time =    1.000,"P-3-1",           711,   77.7383E-03,   193.302E-03,            0.,NA,NA,"",   955.321E+03,   955.769E+03,   955.769E+03
C:/temp/Job-3.odb,Step-1,Increment      1: Step Time =    1.000,"P-3-1",           712,   70.5656E-03,   191.282E-03,            0.,NA,NA,"",   971.402E+03,   971.770E+03,   971.770E+03
C:/temp/Job-3.odb,Step-1,Increment      1: Step Time =    1.000,"P-3-1",           713,   62.3390E-03,   191.404E-03,            0.,NA,NA,"",   982.292E+03,   982.381E+03,   982.381E+03
C:/temp/Job-3.odb,Step-1,Increment      1: Step Time =    1.000,"P-3-1",           714,   54.7388E-03,   192.253E-03,            0.,NA,NA,"",   990.046E+03,   990.205E+03,   990.205E+03
C:/temp/Job-3.odb,Step-1,Increment      1: Step Time =    1.000,"P-3-1",           715,   45.0166E-03,   191.312E-03,            0.,NA,NA,"",   1.01173E+06,   1.01259E+06,   1.01259E+06
C:/temp/Job-3.odb,Step-1,Increment      1: Step Time =    1.000,"P-3-1",           716,   39.3305E-03,   194.094E-03,            0.,NA,NA,"",   1.01241E+06,   1.01315E+06,   1.01315E+06
C:/temp/Job-3.odb,Step-1,Increment      1: Step Time =    1.000,"P-3-1",           717,   33.1140E-03,   192.286E-03,            0.,NA,NA,"",   1.03983E+06,   1.04246E+06,   1.04246E+06
C:/temp/Job-3.odb,Step-1,Increment      1: Step Time =    1.000,"P-3-1",           718,   22.0068E-03,   189.474E-03,            0.,NA,NA,"",   1.10059E+06,   1.11310E+06,   1.11310E+06
C:/temp/Job-3.odb,Step-1,Increment      1: Step Time =    1.000,"P-3-1",           719,   14.9800E-03,   192.942E-03,            0.,NA,NA,"",   1.15681E+06,   1.17066E+06,   1.17066E+06
C:/temp/Job-3.odb,Step-1,Increment      1: Step Time =    1.000,"P-3-1",           720,   7.70484E-03,   192.591E-03,            0.,NA,NA,"",   1.25588E+06,   1.29559E+06,   1.29559E+06
C:/temp/Job-3.odb,Step-1,Increment      1: Step Time =    1.000,"P-3-1",           721,   96.3156E-03,   111.945E-03,            0.,NA,NA,"",   2.00477E+06,   2.09015E+06,   2.09015E+06
C:/temp/Job-3.odb,Step-1,Increment      1: Step Time =    1.000,"P-3-1",           722,   90.2271E-03,   107.794E-03,            0.,NA,NA,"",   751.921E+03,   705.386E+03,   705.386E+03
C:/temp/Job-3.odb,Step-1,Increment      1: Step Time =    1.000,"P-3-1",           723,   87.8134E-03,   97.2185E-03,            0.,NA,NA,"",   477.561E+03,  -381.051E+03,  -381.051E+03
C:/temp/Job-3.odb,Step-1,Increment      1: Step Time =    1.000,"P-3-1",           724,   91.4978E-03,   90.8369E-03,            0.,NA,NA,"",   1.24364E+06,   1.24391E+06,   1.24391E+06
C:/temp/Job-3.odb,Step-1,Increment      1: Step Time =    1.000,"P-3-1",           725,   98.1370E-03,   87.6396E-03,            0.,NA,NA,"",   2.07878E+06,   2.20070E+06,   2.20070E+06
C:/temp/Job-3.odb,Step-1,Increment      1: Step Time =    1.000,"P-3-1",           726,   108.502E-03,   90.8369E-03,            0.,NA,NA,"",   1.19866E+06,   1.18274E+06,   1.18274E+06
C:/temp/Job-3.odb,Step-1,Increment      1: Step Time =    1.000,"P-3-1",           727,   112.187E-03,   97.2185E-03,            0.,NA,NA,"",   482.764E+03,  -433.613E+03,  -433.613E+03
C:/temp/Job-3.odb,Step-1,Increment      1: Step Time =    1.000,"P-3-1",           728,   111.636E-03,   104.567E-03,            0.,NA,NA,"",   541.474E+03,   4.44014E+03,   4.44014E+03
C:/temp/Job-3.odb,Step-1,Increment      1: Step Time =    1.000,"P-3-1",           729,   103.684E-03,   111.945E-03,            0.,NA,NA,"",   1.96488E+06,   2.06050E+06,   2.06050E+06
C:/temp/Job-3.odb,Step-1,Increment      1: Step Time =    1.000,"P-3-1",           730,   196.364E-03,            0.,            0.,NA,NA,"",   999.950E+03,   999.940E+03,   999.940E+03
C:/temp/Job-3.odb,Step-1,Increment      1: Step Time =    1.000,"P-3-1",           731,   189.091E-03,            0.,            0.,NA,NA,"",   999.629E+03,   999.623E+03,   999.623E+03
C:/temp/Job-3.odb,Step-1,Increment      1: Step Time =    1.000,"P-3-1",           732,   181.818E-03,            0.,            0.,NA,NA,"",   999.094E+03,   999.082E+03,   999.082E+03
C:/temp/Job-3.odb,Step-1,Increment      1: Step Time =    1.000,"P-3-1",           733,   174.545E-03,            0.,            0.,NA,NA,"",   998.253E+03,   998.226E+03,   998.226E+03
C:/temp/Job-3.odb,Step-1,Increment      1: Step Time =    1.000,"P-3-1",           734,   167.273E-03,            0.,            0.,NA,NA,"",   996.631E+03,   996.586E+03,   996.586E+03
C:/temp/Job-3.odb,Step-1,Increment      1: Step Time =    1.000,"P-3-1",           735,   163.636E-03,            0.,            0.,NA,NA,"",   995.372E+03,   995.327E+03,   995.327E+03
C:/temp/Job-3.odb,Step-1,Increment      1: Step Time =    1.000,"P-3-1",           736,   156.364E-03,            0.,            0.,NA,NA,"",   991.684E+03,   991.618E+03,   991.618E+03
C:/temp/Job-3.odb,Step-1,Increment      1: Step Time =    1.000,"P-3-1",           737,   149.091E-03,            0.,            0.,NA,NA,"",   985.765E+03,   985.672E+03,   985.672E+03
C:/temp/Job-3.odb,Step-1,Increment      1: Step Time =    1.000,"P-3-1",           738,   141.818E-03,            0.,            0.,NA,NA,"",   977.809E+03,   977.691E+03,   977.691E+03
C:/temp/Job-3.odb,Step-1,Increment      1: Step Time =    1.000,"P-3-1",           739,   134.545E-03,            0.,            0.,NA,NA,"",   967.457E+03,   967.427E+03,   967.427E+03
C:/temp/Job-3.odb,Step-1,Increment      1: Step Time =    1.000,"P-3-1",           740,   127.273E-03,            0.,            0.,NA,NA,"",   956.223E+03,   956.251E+03,   956.251E+03
C:/temp/Job-3.odb,Step-1,Increment      1: Step Time =    1.000,"P-3-1",           741,   120.000E-03,            0.,            0.,NA,NA,"",   944.386E+03,   944.460E+03,   944.460E+03
C:/temp/Job-3.odb,Step-1,Increment      1: Step Time =    1.000,"P-3-1",           742,   112.727E-03,            0.,            0.,NA,NA,"",   934.546E+03,   934.626E+03,   934.626E+03
C:/temp/Job-3.odb,Step-1,Increment      1: Step Time =    1.000,"P-3-1",           743,   105.455E-03,            0.,            0.,NA,NA,"",   928.050E+03,   928.149E+03,   928.149E+03
C:/temp/Job-3.odb,Step-1,Increment      1: Step Time =    1.000,"P-3-1",           744,   98.1818E-03,            0.,            0.,NA,NA,"",   925.277E+03,   925.393E+03,   925.393E+03
C:/temp/Job-3.odb,Step-1,Increment      1: Step Time =    1.000,"P-3-1",           745,   94.5455E-03,            0.,            0.,NA,NA,"",   925.194E+03,   925.308E+03,   925.308E+03
C:/temp/Job-3.odb,Step-1,Increment      1: Step Time =    1.000,"P-3-1",           746,   87.2727E-03,            0.,            0.,NA,NA,"",   927.523E+03,   927.576E+03,   927.576E+03
C:/temp/Job-3.odb,Step-1,Increment      1: Step Time =    1.000,"P-3-1",           747,   80.0000E-03,            0.,            0.,NA,NA,"",   933.094E+03,   933.155E+03,   933.155E+03
C:/temp/Job-3.odb,Step-1,Increment      1: Step Time =    1.000,"P-3-1",           748,   72.7273E-03,            0.,            0.,NA,NA,"",   941.722E+03,   941.768E+03,   941.768E+03
C:/temp/Job-3.odb,Step-1,Increment      1: Step Time =    1.000,"P-3-1",           749,   65.4545E-03,            0.,            0.,NA,NA,"",   951.722E+03,   951.769E+03,   951.769E+03
C:/temp/Job-3.odb,Step-1,Increment      1: Step Time =    1.000,"P-3-1",           750,   58.1818E-03,            0.,            0.,NA,NA,"",   962.080E+03,   962.044E+03,   962.044E+03
C:/temp/Job-3.odb,Step-1,Increment      1: Step Time =    1.000,"P-3-1",           751,   50.9091E-03,            0.,            0.,NA,NA,"",    972.79E+03,   972.721E+03,   972.721E+03
C:/temp/Job-3.odb,Step-1,Increment      1: Step Time =    1.000,"P-3-1",           752,   43.6364E-03,            0.,            0.,NA,NA,"",   984.584E+03,   984.726E+03,   984.726E+03
C:/temp/Job-3.odb,Step-1,Increment      1: Step Time =    1.000,"P-3-1",           753,   36.3636E-03,            0.,            0.,NA,NA,"",   1.00054E+06,   1.00049E+06,   1.00049E+06
C:/temp/Job-3.odb,Step-1,Increment      1: Step Time =    1.000,"P-3-1",           754,   32.7273E-03,            0.,            0.,NA,NA,"",   1.00908E+06,   1.00971E+06,   1.00971E+06
C:/temp/Job-3.odb,Step-1,Increment      1: Step Time =    1.000,"P-3-1",           755,   25.4545E-03,            0.,            0.,NA,NA,"",   1.03636E+06,   1.03702E+06,   1.03702E+06
C:/temp/Job-3.odb,Step-1,Increment      1: Step Time =    1.000,"P-3-1",           756,   18.1818E-03,            0.,            0.,NA,NA,"",   1.08822E+06,   1.08987E+06,   1.08987E+06
C:/temp/Job-3.odb,Step-1,Increment      1: Step Time =    1.000,"P-3-1",           757,   10.9091E-03,            0.,            0.,NA,NA,"",   1.19483E+06,   1.20039E+06,   1.20039E+06
C:/temp/Job-3.odb,Step-1,Increment      1: Step Time =    1.000,"P-3-1",           758,   3.63636E-03,            0.,            0.,NA,NA,"",   1.53216E+06,   1.56741E+06,   1.56741E+06
C:/temp/Job-3.odb,Step-1,Increment      1: Step Time =    1.000,"P-3-1",           759,   200.000E-03,   196.364E-03,            0.,NA,NA,"",   1.00001E+06,   999.977E+03,   999.977E+03
C:/temp/Job-3.odb,Step-1,Increment      1: Step Time =    1.000,"P-3-1",           760,   200.000E-03,   189.091E-03,            0.,NA,NA,"",   1.00018E+06,   999.993E+03,   999.993E+03
C:/temp/Job-3.odb,Step-1,Increment      1: Step Time =    1.000,"P-3-1",           761,   200.000E-03,   181.818E-03,            0.,NA,NA,"",   1.00039E+06,   1.00005E+06,   1.00005E+06
C:/temp/Job-3.odb,Step-1,Increment      1: Step Time =    1.000,"P-3-1",           762,   200.000E-03,   174.545E-03,            0.,NA,NA,"",   1.00032E+06,   1.00008E+06,   1.00008E+06
C:/temp/Job-3.odb,Step-1,Increment      1: Step Time =    1.000,"P-3-1",           763,   200.000E-03,   167.273E-03,            0.,NA,NA,"",   999.630E+03,   1.00009E+06,   1.00009E+06
C:/temp/Job-3.odb,Step-1,Increment      1: Step Time =    1.000,"P-3-1",           764,   200.000E-03,   163.636E-03,            0.,NA,NA,"",   998.942E+03,   1.00011E+06,   1.00011E+06
C:/temp/Job-3.odb,Step-1,Increment      1: Step Time =    1.000,"P-3-1",           765,   200.000E-03,   156.364E-03,            0.,NA,NA,"",   996.784E+03,   1.00023E+06,   1.00023E+06
C:/temp/Job-3.odb,Step-1,Increment      1: Step Time =    1.000,"P-3-1",           766,   200.000E-03,   149.091E-03,            0.,NA,NA,"",   993.008E+03,   1.00024E+06,   1.00024E+06
C:/temp/Job-3.odb,Step-1,Increment      1: Step Time =    1.000,"P-3-1",           767,   200.000E-03,   141.818E-03,            0.,NA,NA,"",   988.228E+03,   1.00015E+06,   1.00015E+06
C:/temp/Job-3.odb,Step-1,Increment      1: Step Time =    1.000,"P-3-1",           768,   200.000E-03,   134.545E-03,            0.,NA,NA,"",   982.146E+03,   999.956E+03,   999.956E+03
C:/temp/Job-3.odb,Step-1,Increment      1: Step Time =    1.000,"P-3-1",           769,   200.000E-03,   127.273E-03,            0.,NA,NA,"",   975.980E+03,   999.953E+03,   999.953E+03
C:/temp/Job-3.odb,Step-1,Increment      1: Step Time =    1.000,"P-3-1",           770,   200.000E-03,   120.000E-03,            0.,NA,NA,"",   970.357E+03,   999.905E+03,   999.905E+03
C:/temp/Job-3.odb,Step-1,Increment      1: Step Time =    1.000,"P-3-1",           771,   200.000E-03,   112.727E-03,            0.,NA,NA,"",   966.040E+03,   999.869E+03,   999.869E+03
C:/temp/Job-3.odb,Step-1,Increment      1: Step Time =    1.000,"P-3-1",           772,   200.000E-03,   105.455E-03,            0.,NA,NA,"",   963.108E+03,   999.533E+03,   999.533E+03
C:/temp/Job-3.odb,Step-1,Increment      1: Step Time =    1.000,"P-3-1",           773,   200.000E-03,   98.1818E-03,            0.,NA,NA,"",   962.454E+03,   999.668E+03,   999.668E+03
C:/temp/Job-3.odb,Step-1,Increment      1: Step Time =    1.000,"P-3-1",           774,   200.000E-03,   94.5455E-03,            0.,NA,NA,"",   962.856E+03,   999.663E+03,   999.663E+03
C:/temp/Job-3.odb,Step-1,Increment      1: Step Time =    1.000,"P-3-1",           775,   200.000E-03,   87.2727E-03,            0.,NA,NA,"",   965.704E+03,   999.777E+03,   999.777E+03
C:/temp/Job-3.odb,Step-1,Increment      1: Step Time =    1.000,"P-3-1",           776,   200.000E-03,   80.0000E-03,            0.,NA,NA,"",   970.456E+03,    999.82E+03,    999.82E+03
C:/temp/Job-3.odb,Step-1,Increment      1: Step Time =    1.000,"P-3-1",           777,   200.000E-03,   72.7273E-03,            0.,NA,NA,"",   976.433E+03,   999.972E+03,   999.972E+03
C:/temp/Job-3.odb,Step-1,Increment      1: Step Time =    1.000,"P-3-1",           778,   200.000E-03,   65.4545E-03,            0.,NA,NA,"",   982.719E+03,   1.00011E+06,   1.00011E+06
C:/temp/Job-3.odb,Step-1,Increment      1: Step Time =    1.000,"P-3-1",           779,   200.000E-03,   58.1818E-03,            0.,NA,NA,"",   988.473E+03,   1.00018E+06,   1.00018E+06
C:/temp/Job-3.odb,Step-1,Increment      1: Step Time =    1.000,"P-3-1",           780,   200.000E-03,   50.9091E-03,            0.,NA,NA,"",   993.326E+03,   1.00017E+06,   1.00017E+06
C:/temp/Job-3.odb,Step-1,Increment      1: Step Time =    1.000,"P-3-1",           781,   200.000E-03,   43.6364E-03,            0.,NA,NA,"",   996.907E+03,   1.00017E+06,   1.00017E+06
C:/temp/Job-3.odb,Step-1,Increment      1: Step Time =    1.000,"P-3-1",           782,   200.000E-03,   36.3636E-03,            0.,NA,NA,"",   999.035E+03,   1.00014E+06,   1.00014E+06
C:/temp/Job-3.odb,Step-1,Increment      1: Step Time =    1.000,"P-3-1",           783,   200.000E-03,   32.7273E-03,            0.,NA,NA,"",   999.755E+03,   1.00014E+06,   1.00014E+06
C:/temp/Job-3.odb,Step-1,Increment      1: Step Time =    1.000,"P-3-1",           784,   200.000E-03,   25.4545E-03,            0.,NA,NA,"",   1.00036E+06,   1.00007E+06,   1.00007E+06
C:/temp/Job-3.odb,Step-1,Increment      1: Step Time =    1.000,"P-3-1",           785,   200.000E-03,   18.1818E-03,            0.,NA,NA,"",   1.00043E+06,   1.00004E+06,   1.00004E+06
C:/temp/Job-3.odb,Step-1,Increment      1: Step Time =    1.000,"P-3-1",           786,   200.000E-03,   10.9091E-03,            0.,NA,NA,"",   1.00019E+06,   999.996E+03,   999.996E+03
C:/temp/Job-3.odb,Step-1,Increment      1: Step Time =    1.000,"P-3-1",           787,   200.000E-03,   3.63636E-03,            0.,NA,NA,"",   1.00001E+06,   999.978E+03,   999.978E+03
C:/temp/Job-3.odb,Step-1,Increment      1: Step Time =    1.000,"P-3-1",           788,   3.63636E-03,   200.000E-03,            0.,NA,NA,"",   1.53088E+06,   1.56534E+06,   1.56534E+06
C:/temp/Job-3.odb,Step-1,Increment      1: Step Time =    1.000,"P-3-1",           789,   10.9091E-03,   200.000E-03,            0.,NA,NA,"",   1.19247E+06,   1.19801E+06,   1.19801E+06
C:/temp/Job-3.odb,Step-1,Increment      1: Step Time =    1.000,"P-3-1",           790,   18.1818E-03,   200.000E-03,            0.,NA,NA,"",   1.08726E+06,   1.08901E+06,   1.08901E+06
C:/temp/Job-3.odb,Step-1,Increment      1: Step Time =    1.000,"P-3-1",           791,   25.4545E-03,   200.000E-03,            0.,NA,NA,"",   1.03784E+06,   1.03869E+06,   1.03869E+06
C:/temp/Job-3.odb,Step-1,Increment      1: Step Time =    1.000,"P-3-1",           792,   32.7273E-03,   200.000E-03,            0.,NA,NA,"",   1.00908E+06,   1.00980E+06,   1.00980E+06
C:/temp/Job-3.odb,Step-1,Increment      1: Step Time =    1.000,"P-3-1",           793,   36.3636E-03,   200.000E-03,            0.,NA,NA,"",   997.373E+03,   997.639E+03,   997.639E+03
C:/temp/Job-3.odb,Step-1,Increment      1: Step Time =    1.000,"P-3-1",           794,   43.6364E-03,   200.000E-03,            0.,NA,NA,"",   984.190E+03,   983.905E+03,   983.905E+03
C:/temp/Job-3.odb,Step-1,Increment      1: Step Time =    1.000,"P-3-1",           795,   50.9091E-03,   200.000E-03,            0.,NA,NA,"",   972.867E+03,   972.930E+03,   972.930E+03
C:/temp/Job-3.odb,Step-1,Increment      1: Step Time =    1.000,"P-3-1",           796,   58.1818E-03,   200.000E-03,            0.,NA,NA,"",   961.560E+03,   961.462E+03,   961.462E+03
C:/temp/Job-3.odb,Step-1,Increment      1: Step Time =    1.000,"P-3-1",           797,   65.4545E-03,   200.000E-03,            0.,NA,NA,"",   951.616E+03,   951.628E+03,   951.628E+03
C:/temp/Job-3.odb,Step-1,Increment      1: Step Time =    1.000,"P-3-1",           798,   72.7273E-03,   200.000E-03,            0.,NA,NA,"",   942.006E+03,   942.073E+03,   942.073E+03
C:/temp/Job-3.odb,Step-1,Increment      1: Step Time =    1.000,"P-3-1",           799,   80.0000E-03,   200.000E-03,            0.,NA,NA,"",   932.857E+03,   932.947E+03,   932.947E+03
C:/temp/Job-3.odb,Step-1,Increment      1: Step Time =    1.000,"P-3-1",           800,   87.2727E-03,   200.000E-03,            0.,NA,NA,"",   926.625E+03,   926.721E+03,   926.721E+03
C:/temp/Job-3.odb,Step-1,Increment      1: Step Time =    1.000,"P-3-1",           801,   94.5455E-03,   200.000E-03,            0.,NA,NA,"",   924.503E+03,   924.626E+03,   924.626E+03
C:/temp/Job-3.odb,Step-1,Increment      1: Step Time =    1.000,"P-3-1",           802,   101.818E-03,   200.000E-03,            0.,NA,NA,"",   926.451E+03,   926.565E+03,   926.565E+03
C:/temp/Job-3.odb,Step-1,Increment      1: Step Time =    1.000,"P-3-1",           803,   105.455E-03,   200.000E-03,            0.,NA,NA,"",   928.560E+03,   928.673E+03,   928.673E+03
C:/temp/Job-3.odb,Step-1,Increment      1: Step Time =    1.000,"P-3-1",           804,   112.727E-03,   200.000E-03,            0.,NA,NA,"",   935.255E+03,   935.275E+03,   935.275E+03
C:/temp/Job-3.odb,Step-1,Increment      1: Step Time =    1.000,"P-3-1",           805,   120.000E-03,   200.000E-03,            0.,NA,NA,"",   944.683E+03,   944.720E+03,   944.720E+03
C:/temp/Job-3.odb,Step-1,Increment      1: Step Time =    1.000,"P-3-1",           806,   127.273E-03,   200.000E-03,            0.,NA,NA,"",   956.051E+03,   956.066E+03,   956.066E+03
C:/temp/Job-3.odb,Step-1,Increment      1: Step Time =    1.000,"P-3-1",           807,   134.545E-03,   200.000E-03,            0.,NA,NA,"",   967.528E+03,   967.520E+03,   967.520E+03
C:/temp/Job-3.odb,Step-1,Increment      1: Step Time =    1.000,"P-3-1",           808,   141.818E-03,   200.000E-03,            0.,NA,NA,"",   977.695E+03,   977.657E+03,   977.657E+03
C:/temp/Job-3.odb,Step-1,Increment      1: Step Time =    1.000,"P-3-1",           809,   149.091E-03,   200.000E-03,            0.,NA,NA,"",   986.026E+03,   985.931E+03,   985.931E+03
C:/temp/Job-3.odb,Step-1,Increment      1: Step Time =    1.000,"P-3-1",           810,   156.364E-03,   200.000E-03,            0.,NA,NA,"",   991.786E+03,   991.702E+03,   991.702E+03
C:/temp/Job-3.odb,Step-1,Increment      1: Step Time =    1.000,"P-3-1",           811,   163.636E-03,   200.000E-03,            0.,NA,NA,"",   995.661E+03,   995.609E+03,   995.609E+03
C:/temp/Job-3.odb,Step-1,Increment      1: Step Time =    1.000,"P-3-1",           812,   167.273E-03,   200.000E-03,            0.,NA,NA,"",   996.884E+03,   996.844E+03,   996.844E+03
C:/temp/Job-3.odb,Step-1,Increment      1: Step Time =    1.000,"P-3-1",           813,   174.545E-03,   200.000E-03,            0.,NA,NA,"",   998.331E+03,   998.314E+03,   998.314E+03
C:/temp/Job-3.odb,Step-1,Increment      1: Step Time =    1.000,"P-3-1",           814,   181.818E-03,   200.000E-03,            0.,NA,NA,"",   999.141E+03,   999.132E+03,   999.132E+03
C:/temp/Job-3.odb,Step-1,Increment      1: Step Time =    1.000,"P-3-1",           815,   189.091E-03,   200.000E-03,            0.,NA,NA,"",   999.624E+03,   999.621E+03,   999.621E+03
C:/temp/Job-3.odb,Step-1,Increment      1: Step Time =    1.000,"P-3-1",           816,   196.364E-03,   200.000E-03,            0.,NA,NA,"",   999.949E+03,   999.937E+03,   999.937E+03
C:/temp/Job-3.odb,Step-1,Increment      1: Step Time =    1.000,"P-3-1",           817,            0.,   3.63636E-03,            0.,NA,NA,"",   1.47913E+06,   1.57036E+06,   1.57036E+06
C:/temp/Job-3.odb,Step-1,Increment      1: Step Time =    1.000,"P-3-1",           818,            0.,   10.9091E-03,            0.,NA,NA,"",   1.11294E+06,   1.21862E+06,   1.21862E+06
C:/temp/Job-3.odb,Step-1,Increment      1: Step Time =    1.000,"P-3-1",           819,            0.,   18.1818E-03,            0.,NA,NA,"",   1.00633E+06,   1.11253E+06,   1.11253E+06
C:/temp/Job-3.odb,Step-1,Increment      1: Step Time =    1.000,"P-3-1",           820,            0.,   25.4545E-03,            0.,NA,NA,"",   950.355E+03,   1.05628E+06,   1.05628E+06
C:/temp/Job-3.odb,Step-1,Increment      1: Step Time =    1.000,"P-3-1",           821,            0.,   32.7273E-03,            0.,NA,NA,"",   913.877E+03,   1.01842E+06,   1.01842E+06
C:/temp/Job-3.odb,Step-1,Increment      1: Step Time =    1.000,"P-3-1",           822,            0.,   36.3636E-03,            0.,NA,NA,"",   897.828E+03,   1.00276E+06,   1.00276E+06
C:/temp/Job-3.odb,Step-1,Increment      1: Step Time =    1.000,"P-3-1",           823,            0.,   43.6364E-03,            0.,NA,NA,"",   870.687E+03,   976.465E+03,   976.465E+03
C:/temp/Job-3.odb,Step-1,Increment      1: Step Time =    1.000,"P-3-1",           824,            0.,   50.9091E-03,            0.,NA,NA,"",   850.507E+03,   955.487E+03,   955.487E+03
C:/temp/Job-3.odb,Step-1,Increment      1: Step Time =    1.000,"P-3-1",           825,            0.,   58.1818E-03,            0.,NA,NA,"",   833.585E+03,   937.668E+03,   937.668E+03
C:/temp/Job-3.odb,Step-1,Increment      1: Step Time =    1.000,"P-3-1",           826,            0.,   65.4545E-03,            0.,NA,NA,"",   817.530E+03,   920.828E+03,   920.828E+03
C:/temp/Job-3.odb,Step-1,Increment      1: Step Time =    1.000,"P-3-1",           827,            0.,   72.7273E-03,            0.,NA,NA,"",   804.066E+03,   906.516E+03,   906.516E+03
C:/temp/Job-3.odb,Step-1,Increment      1: Step Time =    1.000,"P-3-1",           828,            0.,   80.0000E-03,            0.,NA,NA,"",   792.317E+03,   893.989E+03,   893.989E+03
C:/temp/Job-3.odb,Step-1,Increment      1: Step Time =    1.000,"P-3-1",           829,            0.,   87.2727E-03,            0.,NA,NA,"",   783.699E+03,   884.727E+03,   884.727E+03
C:/temp/Job-3.odb,Step-1,Increment      1: Step Time =    1.000,"P-3-1",           830,            0.,   94.5455E-03,            0.,NA,NA,"",   779.174E+03,   879.642E+03,   879.642E+03
C:/temp/Job-3.odb,Step-1,Increment      1: Step Time =    1.000,"P-3-1",           831,            0.,   101.818E-03,            0.,NA,NA,"",   778.840E+03,   878.843E+03,   878.843E+03
C:/temp/Job-3.odb,Step-1,Increment      1: Step Time =    1.000,"P-3-1",           832,            0.,   105.455E-03,            0.,NA,NA,"",   779.584E+03,   879.875E+03,   879.875E+03
C:/temp/Job-3.odb,Step-1,Increment      1: Step Time =    1.000,"P-3-1",           833,            0.,   112.727E-03,            0.,NA,NA,"",   783.964E+03,   885.021E+03,   885.021E+03
C:/temp/Job-3.odb,Step-1,Increment      1: Step Time =    1.000,"P-3-1",           834,            0.,   120.000E-03,            0.,NA,NA,"",   792.290E+03,   894.028E+03,   894.028E+03
C:/temp/Job-3.odb,Step-1,Increment      1: Step Time =    1.000,"P-3-1",           835,            0.,   127.273E-03,            0.,NA,NA,"",   803.973E+03,   906.481E+03,   906.481E+03
C:/temp/Job-3.odb,Step-1,Increment      1: Step Time =    1.000,"P-3-1",           836,            0.,   134.545E-03,            0.,NA,NA,"",   818.009E+03,   921.323E+03,   921.323E+03
C:/temp/Job-3.odb,Step-1,Increment      1: Step Time =    1.000,"P-3-1",           837,            0.,   141.818E-03,            0.,NA,NA,"",   833.809E+03,   937.890E+03,   937.890E+03
C:/temp/Job-3.odb,Step-1,Increment      1: Step Time =    1.000,"P-3-1",           838,            0.,   149.091E-03,            0.,NA,NA,"",   851.671E+03,   956.507E+03,   956.507E+03
C:/temp/Job-3.odb,Step-1,Increment      1: Step Time =    1.000,"P-3-1",           839,            0.,   156.364E-03,            0.,NA,NA,"",   871.744E+03,   977.269E+03,   977.269E+03
C:/temp/Job-3.odb,Step-1,Increment      1: Step Time =    1.000,"P-3-1",           840,            0.,   163.636E-03,            0.,NA,NA,"",   896.134E+03,   1.00208E+06,   1.00208E+06
C:/temp/Job-3.odb,Step-1,Increment      1: Step Time =    1.000,"P-3-1",           841,            0.,   167.273E-03,            0.,NA,NA,"",   910.476E+03,   1.01660E+06,   1.01660E+06
C:/temp/Job-3.odb,Step-1,Increment      1: Step Time =    1.000,"P-3-1",           842,            0.,   174.545E-03,            0.,NA,NA,"",   947.142E+03,   1.05344E+06,   1.05344E+06
C:/temp/Job-3.odb,Step-1,Increment      1: Step Time =    1.000,"P-3-1",           843,            0.,   181.818E-03,            0.,NA,NA,"",   1.00539E+06,   1.11076E+06,   1.11076E+06
C:/temp/Job-3.odb,Step-1,Increment      1: Step Time =    1.000,"P-3-1",           844,            0.,   189.091E-03,            0.,NA,NA,"",   1.11149E+06,   1.21556E+06,   1.21556E+06
C:/temp/Job-3.odb,Step-1,Increment      1: Step Time =    1.000,"P-3-1",           845,            0.,   196.364E-03,            0.,NA,NA,"",   1.47838E+06,   1.56816E+06,   1.56816E+06
C:/temp/Job-3.odb,Step-1,Increment      1: Step Time =    1.000,"P-3-1",           846,   83.0878E-03,   103.802E-03,            0.,NA,NA,"",   512.058E+03,   95.7029E+03,   95.7029E+03
C:/temp/Job-3.odb,Step-1,Increment      1: Step Time =    1.000,"P-3-1",           847,   103.300E-03,   84.1752E-03,            0.,NA,NA,"",    1.8202E+06,   1.92862E+06,   1.92862E+06
C:/temp/Job-3.odb,Step-1,Increment      1: Step Time =    1.000,"P-3-1",           848,   95.8022E-03,   83.9380E-03,            0.,NA,NA,"",   1.68240E+06,   1.80341E+06,   1.80341E+06
C:/temp/Job-3.odb,Step-1,Increment      1: Step Time =    1.000,"P-3-1",           849,   10.9670E-03,   3.60147E-03,            0.,NA,NA,"",   1.20685E+06,   1.21650E+06,   1.21650E+06
C:/temp/Job-3.odb,Step-1,Increment      1: Step Time =    1.000,"P-3-1",           850,   3.90834E-03,   192.582E-03,            0.,NA,NA,"",   1.24293E+06,   1.32197E+06,   1.32197E+06
C:/temp/Job-3.odb,Step-1,Increment      1: Step Time =    1.000,"P-3-1",           851,   18.0867E-03,   3.17283E-03,            0.,NA,NA,"",   1.10281E+06,   1.10611E+06,   1.10611E+06
C:/temp/Job-3.odb,Step-1,Increment      1: Step Time =    1.000,"P-3-1",           852,   196.403E-03,   18.0090E-03,            0.,NA,NA,"",   1.00037E+06,   1.00009E+06,   1.00009E+06
C:/temp/Job-3.odb,Step-1,Increment      1: Step Time =    1.000,"P-3-1",           853,   196.389E-03,   196.394E-03,            0.,NA,NA,"",   999.968E+03,   999.937E+03,   999.937E+03
C:/temp/Job-3.odb,Step-1,Increment      1: Step Time =    1.000,"P-3-1",           854,   189.051E-03,   196.407E-03,            0.,NA,NA,"",   999.677E+03,   999.668E+03,   999.668E+03
C:/temp/Job-3.odb,Step-1,Increment      1: Step Time =    1.000,"P-3-1",           855,   196.663E-03,   86.9594E-03,            0.,NA,NA,"",   967.512E+03,   999.372E+03,   999.372E+03
C:/temp/Job-3.odb,Step-1,Increment      1: Step Time =    1.000,"P-3-1",           856,   25.1062E-03,   3.20143E-03,            0.,NA,NA,"",   1.05063E+06,   1.05175E+06,   1.05175E+06
C:/temp/Job-3.odb,Step-1,Increment      1: Step Time =    1.000,"P-3-1",           857,   32.2589E-03,   4.06459E-03,            0.,NA,NA,"",   1.02387E+06,   1.02488E+06,   1.02488E+06
C:/temp/Job-3.odb,Step-1,Increment      1: Step Time =    1.000,"P-3-1",           858,   43.5013E-03,   3.71436E-03,            0.,NA,NA,"",   993.438E+03,   993.884E+03,   993.884E+03
C:/temp/Job-3.odb,Step-1,Increment      1: Step Time =    1.000,"P-3-1",           859,   50.7151E-03,   3.75945E-03,            0.,NA,NA,"",   980.891E+03,   980.965E+03,   980.965E+03
C:/temp/Job-3.odb,Step-1,Increment      1: Step Time =    1.000,"P-3-1",           860,   58.1255E-03,   3.76065E-03,            0.,NA,NA,"",   969.560E+03,   969.601E+03,   969.601E+03
C:/temp/Job-3.odb,Step-1,Increment      1: Step Time =    1.000,"P-3-1",           861,   65.4295E-03,   3.55260E-03,            0.,NA,NA,"",   958.729E+03,   958.803E+03,   958.803E+03
C:/temp/Job-3.odb,Step-1,Increment      1: Step Time =    1.000,"P-3-1",           862,   72.6569E-03,   3.12694E-03,            0.,NA,NA,"",   947.927E+03,   948.021E+03,   948.021E+03
C:/temp/Job-3.odb,Step-1,Increment      1: Step Time =    1.000,"P-3-1",           863,   79.7971E-03,   2.99481E-03,            0.,NA,NA,"",   939.296E+03,   939.469E+03,   939.469E+03
C:/temp/Job-3.odb,Step-1,Increment      1: Step Time =    1.000,"P-3-1",           864,   86.9031E-03,   3.34277E-03,            0.,NA,NA,"",   934.709E+03,   934.929E+03,   934.929E+03
C:/temp/Job-3.odb,Step-1,Increment      1: Step Time =    1.000,"P-3-1",           865,   94.1018E-03,   4.00440E-03,            0.,NA,NA,"",   933.922E+03,   934.302E+03,   934.302E+03
C:/temp/Job-3.odb,Step-1,Increment      1: Step Time =    1.000,"P-3-1",           866,   105.142E-03,   3.54086E-03,            0.,NA,NA,"",   934.876E+03,   935.190E+03,   935.190E+03
C:/temp/Job-3.odb,Step-1,Increment      1: Step Time =    1.000,"P-3-1",           867,   112.301E-03,   3.34429E-03,            0.,NA,NA,"",   940.276E+03,   940.508E+03,   940.508E+03
C:/temp/Job-3.odb,Step-1,Increment      1: Step Time =    1.000,"P-3-1",           868,   119.443E-03,   3.33077E-03,            0.,NA,NA,"",   948.929E+03,   949.078E+03,   949.078E+03
C:/temp/Job-3.odb,Step-1,Increment      1: Step Time =    1.000,"P-3-1",           869,   126.736E-03,   3.80395E-03,            0.,NA,NA,"",   960.342E+03,   960.376E+03,   960.376E+03
C:/temp/Job-3.odb,Step-1,Increment      1: Step Time =    1.000,"P-3-1",           870,   134.192E-03,   4.08778E-03,            0.,NA,NA,"",   971.192E+03,   971.051E+03,   971.051E+03
C:/temp/Job-3.odb,Step-1,Increment      1: Step Time =    1.000,"P-3-1",           871,   149.075E-03,   3.79792E-03,            0.,NA,NA,"",   987.464E+03,   987.209E+03,   987.209E+03
C:/temp/Job-3.odb,Step-1,Increment      1: Step Time =    1.000,"P-3-1",           872,   156.344E-03,   3.60756E-03,            0.,NA,NA,"",   992.543E+03,   992.355E+03,   992.355E+03
C:/temp/Job-3.odb,Step-1,Increment      1: Step Time =    1.000,"P-3-1",           873,   163.481E-03,   3.77449E-03,            0.,NA,NA,"",   995.964E+03,   995.813E+03,   995.813E+03
C:/temp/Job-3.odb,Step-1,Increment      1: Step Time =    1.000,"P-3-1",           874,   174.376E-03,   3.81638E-03,            0.,NA,NA,"",   998.581E+03,   998.498E+03,   998.498E+03
C:/temp/Job-3.odb,Step-1,Increment      1: Step Time =    1.000,"P-3-1",           875,   181.837E-03,   3.89398E-03,            0.,NA,NA,"",   999.279E+03,   999.248E+03,   999.248E+03
C:/temp/Job-3.odb,Step-1,Increment      1: Step Time =    1.000,"P-3-1",           876,   189.194E-03,   3.62904E-03,            0.,NA,NA,"",   999.680E+03,   999.665E+03,   999.665E+03
C:/temp/Job-3.odb,Step-1,Increment      1: Step Time =    1.000,"P-3-1",           877,   196.410E-03,   3.60591E-03,            0.,NA,NA,"",   999.967E+03,   999.936E+03,   999.936E+03
C:/temp/Job-3.odb,Step-1,Increment      1: Step Time =    1.000,"P-3-1",           878,   196.478E-03,   10.8194E-03,            0.,NA,NA,"",   1.00015E+06,   999.987E+03,   999.987E+03
C:/temp/Job-3.odb,Step-1,Increment      1: Step Time =    1.000,"P-3-1",           879,   181.796E-03,   196.785E-03,            0.,NA,NA,"",   999.261E+03,   999.241E+03,   999.241E+03
C:/temp/Job-3.odb,Step-1,Increment      1: Step Time =    1.000,"P-3-1",           880,   174.803E-03,   196.277E-03,            0.,NA,NA,"",   998.658E+03,   998.593E+03,   998.593E+03
C:/temp/Job-3.odb,Step-1,Increment      1: Step Time =    1.000,"P-3-1",           881,   167.480E-03,   196.464E-03,            0.,NA,NA,"",   997.284E+03,   997.172E+03,   997.172E+03
C:/temp/Job-3.odb,Step-1,Increment      1: Step Time =    1.000,"P-3-1",           882,   156.465E-03,   196.092E-03,            0.,NA,NA,"",   993.003E+03,   992.759E+03,   992.759E+03
C:/temp/Job-3.odb,Step-1,Increment      1: Step Time =    1.000,"P-3-1",           883,   149.014E-03,   196.022E-03,            0.,NA,NA,"",   987.718E+03,   987.451E+03,   987.451E+03
C:/temp/Job-3.odb,Step-1,Increment      1: Step Time =    1.000,"P-3-1",           884,   141.584E-03,   196.337E-03,            0.,NA,NA,"",   979.811E+03,   979.650E+03,   979.650E+03
C:/temp/Job-3.odb,Step-1,Increment      1: Step Time =    1.000,"P-3-1",           885,   134.414E-03,   196.592E-03,            0.,NA,NA,"",   970.468E+03,   970.375E+03,   970.375E+03
C:/temp/Job-3.odb,Step-1,Increment      1: Step Time =    1.000,"P-3-1",           886,   127.261E-03,   196.923E-03,            0.,NA,NA,"",   959.596E+03,   959.608E+03,   959.608E+03
C:/temp/Job-3.odb,Step-1,Increment      1: Step Time =    1.000,"P-3-1",           887,   120.155E-03,   196.993E-03,            0.,NA,NA,"",   949.152E+03,   949.251E+03,   949.251E+03
C:/temp/Job-3.odb,Step-1,Increment      1: Step Time =    1.000,"P-3-1",           888,   113.064E-03,   196.611E-03,            0.,NA,NA,"",   941.403E+03,   941.553E+03,   941.553E+03
C:/temp/Job-3.odb,Step-1,Increment      1: Step Time =    1.000,"P-3-1",           889,   105.799E-03,   195.881E-03,            0.,NA,NA,"",   937.075E+03,   937.441E+03,   937.441E+03
C:/temp/Job-3.odb,Step-1,Increment      1: Step Time =    1.000,"P-3-1",           890,   94.7704E-03,   196.534E-03,            0.,NA,NA,"",   931.788E+03,   932.132E+03,   932.132E+03
C:/temp/Job-3.odb,Step-1,Increment      1: Step Time =    1.000,"P-3-1",           891,   87.6018E-03,   196.804E-03,            0.,NA,NA,"",   933.354E+03,   933.621E+03,   933.621E+03
C:/temp/Job-3.odb,Step-1,Increment      1: Step Time =    1.000,"P-3-1",           892,   80.5118E-03,   196.774E-03,            0.,NA,NA,"",   939.083E+03,   939.292E+03,   939.292E+03
C:/temp/Job-3.odb,Step-1,Increment      1: Step Time =    1.000,"P-3-1",           893,   73.3489E-03,   196.222E-03,            0.,NA,NA,"",   949.021E+03,   949.173E+03,   949.173E+03
C:/temp/Job-3.odb,Step-1,Increment      1: Step Time =    1.000,"P-3-1",           894,   65.9308E-03,   195.766E-03,            0.,NA,NA,"",   960.120E+03,   960.174E+03,   960.174E+03
C:/temp/Job-3.odb,Step-1,Increment      1: Step Time =    1.000,"P-3-1",           895,   195.980E-03,   112.935E-03,            0.,NA,NA,"",   968.033E+03,   999.331E+03,   999.331E+03
C:/temp/Job-3.odb,Step-1,Increment      1: Step Time =    1.000,"P-3-1",           896,   196.601E-03,   120.150E-03,            0.,NA,NA,"",   971.991E+03,   999.694E+03,   999.694E+03
C:/temp/Job-3.odb,Step-1,Increment      1: Step Time =    1.000,"P-3-1",           897,   3.30345E-03,   116.529E-03,            0.,NA,NA,"",   790.904E+03,   891.258E+03,   891.258E+03
C:/temp/Job-3.odb,Step-1,Increment      1: Step Time =    1.000,"P-3-1",           898,   3.35447E-03,   123.702E-03,            0.,NA,NA,"",   801.716E+03,   902.553E+03,   902.553E+03
C:/temp/Job-3.odb,Step-1,Increment      1: Step Time =    1.000,"P-3-1",           899,   3.52194E-03,   109.550E-03,            0.,NA,NA,"",   784.199E+03,   883.995E+03,   883.995E+03
C:/temp/Job-3.odb,Step-1,Increment      1: Step Time =    1.000,"P-3-1",           900,   195.993E-03,   105.302E-03,            0.,NA,NA,"",   965.025E+03,   999.096E+03,   999.096E+03
C:/temp/Job-3.odb,Step-1,Increment      1: Step Time =    1.000,"P-3-1",           901,   196.540E-03,   94.0167E-03,            0.,NA,NA,"",   964.763E+03,   999.155E+03,   999.155E+03
C:/temp/Job-3.odb,Step-1,Increment      1: Step Time =    1.000,"P-3-1",           902,   3.47692E-03,   90.4021E-03,            0.,NA,NA,"",   783.907E+03,   883.725E+03,   883.725E+03
C:/temp/Job-3.odb,Step-1,Increment      1: Step Time =    1.000,"P-3-1",           903,   3.24102E-03,   83.3146E-03,            0.,NA,NA,"",   790.788E+03,   891.123E+03,   891.123E+03
C:/temp/Job-3.odb,Step-1,Increment      1: Step Time =    1.000,"P-3-1",           904,   4.41886E-03,   97.5644E-03,            0.,NA,NA,"",   781.777E+03,   880.873E+03,   880.873E+03
C:/temp/Job-3.odb,Step-1,Increment      1: Step Time =    1.000,"P-3-1",           905,   195.665E-03,   25.3738E-03,            0.,NA,NA,"",   1.00033E+06,   1.00028E+06,   1.00028E+06
C:/temp/Job-3.odb,Step-1,Increment      1: Step Time =    1.000,"P-3-1",           906,   196.480E-03,   32.7014E-03,            0.,NA,NA,"",   999.764E+03,   1.00035E+06,   1.00035E+06
C:/temp/Job-3.odb,Step-1,Increment      1: Step Time =    1.000,"P-3-1",           907,   196.279E-03,   43.4664E-03,            0.,NA,NA,"",   997.150E+03,   1.00052E+06,   1.00052E+06
C:/temp/Job-3.odb,Step-1,Increment      1: Step Time =    1.000,"P-3-1",           908,   196.565E-03,   50.7444E-03,            0.,NA,NA,"",   993.782E+03,   1.00047E+06,   1.00047E+06
C:/temp/Job-3.odb,Step-1,Increment      1: Step Time =    1.000,"P-3-1",           909,   196.335E-03,   57.9818E-03,            0.,NA,NA,"",   989.341E+03,   1.00045E+06,   1.00045E+06
C:/temp/Job-3.odb,Step-1,Increment      1: Step Time =    1.000,"P-3-1",           910,   196.186E-03,   65.2357E-03,            0.,NA,NA,"",   984.131E+03,   1.00036E+06,   1.00036E+06
C:/temp/Job-3.odb,Step-1,Increment      1: Step Time =    1.000,"P-3-1",           911,   3.81932E-03,   68.9361E-03,            0.,NA,NA,"",   815.922E+03,   917.070E+03,   917.070E+03
C:/temp/Job-3.odb,Step-1,Increment      1: Step Time =    1.000,"P-3-1",           912,   196.287E-03,   72.6032E-03,            0.,NA,NA,"",   977.926E+03,   999.917E+03,   999.917E+03
C:/temp/Job-3.odb,Step-1,Increment      1: Step Time =    1.000,"P-3-1",           913,   3.50044E-03,   76.1393E-03,            0.,NA,NA,"",   802.141E+03,   902.834E+03,   902.834E+03
C:/temp/Job-3.odb,Step-1,Increment      1: Step Time =    1.000,"P-3-1",           914,   196.453E-03,   79.7981E-03,            0.,NA,NA,"",   972.267E+03,   999.623E+03,   999.623E+03
C:/temp/Job-3.odb,Step-1,Increment      1: Step Time =    1.000,"P-3-1",           915,   196.709E-03,   127.222E-03,            0.,NA,NA,"",   977.245E+03,   999.904E+03,   999.904E+03
C:/temp/Job-3.odb,Step-1,Increment      1: Step Time =    1.000,"P-3-1",           916,   3.58447E-03,   130.934E-03,            0.,NA,NA,"",   815.665E+03,   916.923E+03,   916.923E+03
C:/temp/Job-3.odb,Step-1,Increment      1: Step Time =    1.000,"P-3-1",           917,   196.513E-03,   134.367E-03,            0.,NA,NA,"",   983.101E+03,   1.00008E+06,   1.00008E+06
C:/temp/Job-3.odb,Step-1,Increment      1: Step Time =    1.000,"P-3-1",           918,   3.84310E-03,   138.255E-03,            0.,NA,NA,"",   831.903E+03,   933.502E+03,   933.502E+03
C:/temp/Job-3.odb,Step-1,Increment      1: Step Time =    1.000,"P-3-1",           919,   3.79554E-03,   145.662E-03,            0.,NA,NA,"",   849.961E+03,   951.947E+03,   951.947E+03
C:/temp/Job-3.odb,Step-1,Increment      1: Step Time =    1.000,"P-3-1",           920,   195.884E-03,   149.209E-03,            0.,NA,NA,"",   993.817E+03,   1.00069E+06,   1.00069E+06
C:/temp/Job-3.odb,Step-1,Increment      1: Step Time =    1.000,"P-3-1",           921,   3.64896E-03,   152.939E-03,            0.,NA,NA,"",   869.249E+03,   971.694E+03,   971.694E+03
C:/temp/Job-3.odb,Step-1,Increment      1: Step Time =    1.000,"P-3-1",           922,   196.515E-03,   156.500E-03,            0.,NA,NA,"",   997.002E+03,   1.00053E+06,   1.00053E+06
C:/temp/Job-3.odb,Step-1,Increment      1: Step Time =    1.000,"P-3-1",           923,   3.51240E-03,   160.086E-03,            0.,NA,NA,"",   891.981E+03,   994.564E+03,   994.564E+03
C:/temp/Job-3.odb,Step-1,Increment      1: Step Time =    1.000,"P-3-1",           924,   196.544E-03,   163.580E-03,            0.,NA,NA,"",   999.005E+03,   1.00038E+06,   1.00038E+06
C:/temp/Job-3.odb,Step-1,Increment      1: Step Time =    1.000,"P-3-1",           925,   3.41415E-03,   170.751E-03,            0.,NA,NA,"",   936.959E+03,   1.03911E+06,   1.03911E+06
C:/temp/Job-3.odb,Step-1,Increment      1: Step Time =    1.000,"P-3-1",           926,   195.814E-03,   173.826E-03,            0.,NA,NA,"",   1.00026E+06,   1.00027E+06,   1.00027E+06
C:/temp/Job-3.odb,Step-1,Increment      1: Step Time =    1.000,"P-3-1",           927,   3.48408E-03,   177.782E-03,            0.,NA,NA,"",   981.995E+03,   1.08258E+06,   1.08258E+06
C:/temp/Job-3.odb,Step-1,Increment      1: Step Time =    1.000,"P-3-1",           928,   195.818E-03,   181.985E-03,            0.,NA,NA,"",   1.00035E+06,   1.00012E+06,   1.00012E+06
C:/temp/Job-3.odb,Step-1,Increment      1: Step Time =    1.000,"P-3-1",           929,   4.09506E-03,   185.064E-03,            0.,NA,NA,"",   1.06501E+06,   1.15888E+06,   1.15888E+06
C:/temp/Job-3.odb,Step-1,Increment      1: Step Time =    1.000,"P-3-1",           930,   196.390E-03,   189.248E-03,            0.,NA,NA,"",   1.00015E+06,   999.991E+03,   999.991E+03
C:/temp/Job-3.odb,Step-1,Increment      1: Step Time =    1.000,"P-3-1",           931,   192.811E-03,   3.59640E-03,            0.,NA,NA,"",   999.847E+03,   999.824E+03,   999.824E+03
C:/temp/Job-3.odb,Step-1,Increment      1: Step Time =    1.000,"P-3-1",           932,   185.552E-03,   3.71685E-03,            0.,NA,NA,"",   999.493E+03,   999.476E+03,   999.476E+03
C:/temp/Job-3.odb,Step-1,Increment      1: Step Time =    1.000,"P-3-1",           933,   170.665E-03,   3.76627E-03,            0.,NA,NA,"",   997.935E+03,   997.828E+03,   997.828E+03
C:/temp/Job-3.odb,Step-1,Increment      1: Step Time =    1.000,"P-3-1",           934,   167.053E-03,   3.81430E-03,            0.,NA,NA,"",   997.075E+03,   996.947E+03,   996.947E+03
C:/temp/Job-3.odb,Step-1,Increment      1: Step Time =    1.000,"P-3-1",           935,   152.740E-03,   3.63484E-03,            0.,NA,NA,"",   990.218E+03,   989.990E+03,   989.990E+03
C:/temp/Job-3.odb,Step-1,Increment      1: Step Time =    1.000,"P-3-1",           936,   145.370E-03,   4.04935E-03,            0.,NA,NA,"",   984.213E+03,   983.956E+03,   983.956E+03
C:/temp/Job-3.odb,Step-1,Increment      1: Step Time =    1.000,"P-3-1",           937,   137.958E-03,   3.99921E-03,            0.,NA,NA,"",   975.927E+03,   975.705E+03,   975.705E+03
C:/temp/Job-3.odb,Step-1,Increment      1: Step Time =    1.000,"P-3-1",           938,   130.425E-03,   4.17104E-03,            0.,NA,NA,"",   966.128E+03,   966.064E+03,   966.064E+03
C:/temp/Job-3.odb,Step-1,Increment      1: Step Time =    1.000,"P-3-1",           939,   123.051E-03,   3.49007E-03,            0.,NA,NA,"",   954.325E+03,   954.429E+03,   954.429E+03
C:/temp/Job-3.odb,Step-1,Increment      1: Step Time =    1.000,"P-3-1",           940,   115.864E-03,   3.30191E-03,            0.,NA,NA,"",   944.229E+03,   944.422E+03,   944.422E+03
C:/temp/Job-3.odb,Step-1,Increment      1: Step Time =    1.000,"P-3-1",           941,   108.724E-03,   3.42345E-03,            0.,NA,NA,"",   937.116E+03,   937.399E+03,   937.399E+03
C:/temp/Job-3.odb,Step-1,Increment      1: Step Time =    1.000,"P-3-1",           942,   101.527E-03,   3.69459E-03,            0.,NA,NA,"",   933.670E+03,   934.031E+03,   934.031E+03
C:/temp/Job-3.odb,Step-1,Increment      1: Step Time =    1.000,"P-3-1",           943,   97.8312E-03,   3.89005E-03,            0.,NA,NA,"",   933.560E+03,   933.958E+03,   933.958E+03
C:/temp/Job-3.odb,Step-1,Increment      1: Step Time =    1.000,"P-3-1",           944,   90.4913E-03,   3.69062E-03,            0.,NA,NA,"",   934.107E+03,   934.413E+03,   934.413E+03
C:/temp/Job-3.odb,Step-1,Increment      1: Step Time =    1.000,"P-3-1",           945,   83.3536E-03,   3.10433E-03,            0.,NA,NA,"",   936.424E+03,   936.615E+03,   936.615E+03
C:/temp/Job-3.odb,Step-1,Increment      1: Step Time =    1.000,"P-3-1",           946,   76.2359E-03,   3.00279E-03,            0.,NA,NA,"",   943.196E+03,   943.327E+03,   943.327E+03
C:/temp/Job-3.odb,Step-1,Increment      1: Step Time =    1.000,"P-3-1",           947,   69.0598E-03,   3.33045E-03,            0.,NA,NA,"",   953.220E+03,   953.298E+03,   953.298E+03
C:/temp/Job-3.odb,Step-1,Increment      1: Step Time =    1.000,"P-3-1",           948,   61.8020E-03,   3.72161E-03,            0.,NA,NA,"",   964.158E+03,   964.170E+03,   964.170E+03
C:/temp/Job-3.odb,Step-1,Increment      1: Step Time =    1.000,"P-3-1",           949,   54.4115E-03,   3.77153E-03,            0.,NA,NA,"",   975.168E+03,   975.264E+03,   975.264E+03
C:/temp/Job-3.odb,Step-1,Increment      1: Step Time =    1.000,"P-3-1",           950,   47.1170E-03,   3.75189E-03,            0.,NA,NA,"",   986.786E+03,   986.962E+03,   986.962E+03
C:/temp/Job-3.odb,Step-1,Increment      1: Step Time =    1.000,"P-3-1",           951,   39.8482E-03,   3.84076E-03,            0.,NA,NA,"",   1.00177E+06,   1.00222E+06,   1.00222E+06
C:/temp/Job-3.odb,Step-1,Increment      1: Step Time =    1.000,"P-3-1",           952,   36.0907E-03,   4.00552E-03,            0.,NA,NA,"",   1.01234E+06,   1.01296E+06,   1.01296E+06
C:/temp/Job-3.odb,Step-1,Increment      1: Step Time =    1.000,"P-3-1",           953,   28.6507E-03,   3.63643E-03,            0.,NA,NA,"",   1.03573E+06,   1.03677E+06,   1.03677E+06
C:/temp/Job-3.odb,Step-1,Increment      1: Step Time =    1.000,"P-3-1",           954,   21.5844E-03,   3.01837E-03,            0.,NA,NA,"",   1.07215E+06,   1.07400E+06,   1.07400E+06
C:/temp/Job-3.odb,Step-1,Increment      1: Step Time =    1.000,"P-3-1",           955,   14.5701E-03,   3.43374E-03,            0.,NA,NA,"",   1.14796E+06,   1.15293E+06,   1.15293E+06
C:/temp/Job-3.odb,Step-1,Increment      1: Step Time =    1.000,"P-3-1",           956,   7.29942E-03,   3.64556E-03,            0.,NA,NA,"",   1.31152E+06,   1.32638E+06,   1.32638E+06
C:/temp/Job-3.odb,Step-1,Increment      1: Step Time =    1.000,"P-3-1",           957,   196.408E-03,   192.816E-03,            0.,NA,NA,"",   1.00004E+06,   999.955E+03,   999.955E+03
C:/temp/Job-3.odb,Step-1,Increment      1: Step Time =    1.000,"P-3-1",           958,   196.252E-03,   185.674E-03,            0.,NA,NA,"",   1.00026E+06,   1.00004E+06,   1.00004E+06
C:/temp/Job-3.odb,Step-1,Increment      1: Step Time =    1.000,"P-3-1",           959,   196.504E-03,   170.363E-03,            0.,NA,NA,"",   1.00001E+06,   1.00025E+06,   1.00025E+06
C:/temp/Job-3.odb,Step-1,Increment      1: Step Time =    1.000,"P-3-1",           960,   196.843E-03,   166.944E-03,            0.,NA,NA,"",   999.607E+03,   1.00029E+06,   1.00029E+06
C:/temp/Job-3.odb,Step-1,Increment      1: Step Time =    1.000,"P-3-1",           961,   196.280E-03,   152.887E-03,            0.,NA,NA,"",   995.580E+03,   1.00064E+06,   1.00064E+06
C:/temp/Job-3.odb,Step-1,Increment      1: Step Time =    1.000,"P-3-1",           962,   195.612E-03,   145.479E-03,            0.,NA,NA,"",   991.710E+03,   1.00066E+06,   1.00066E+06
C:/temp/Job-3.odb,Step-1,Increment      1: Step Time =    1.000,"P-3-1",           963,   196.259E-03,   138.002E-03,            0.,NA,NA,"",   986.117E+03,   1.00025E+06,   1.00025E+06
C:/temp/Job-3.odb,Step-1,Increment      1: Step Time =    1.000,"P-3-1",           964,   196.658E-03,   130.780E-03,            0.,NA,NA,"",   980.145E+03,   999.995E+03,   999.995E+03
C:/temp/Job-3.odb,Step-1,Increment      1: Step Time =    1.000,"P-3-1",           965,   196.697E-03,   123.686E-03,            0.,NA,NA,"",   974.526E+03,   999.831E+03,   999.831E+03
C:/temp/Job-3.odb,Step-1,Increment      1: Step Time =    1.000,"P-3-1",           966,   196.388E-03,   116.593E-03,            0.,NA,NA,"",   969.765E+03,   999.538E+03,   999.538E+03
C:/temp/Job-3.odb,Step-1,Increment      1: Step Time =    1.000,"P-3-1",           967,   195.222E-03,   108.936E-03,            0.,NA,NA,"",   966.922E+03,   998.946E+03,   998.946E+03
C:/temp/Job-3.odb,Step-1,Increment      1: Step Time =    1.000,"P-3-1",           968,   195.267E-03,   101.388E-03,            0.,NA,NA,"",   965.222E+03,   998.589E+03,   998.589E+03
C:/temp/Job-3.odb,Step-1,Increment      1: Step Time =    1.000,"P-3-1",           969,   196.175E-03,   97.5490E-03,            0.,NA,NA,"",   964.460E+03,   999.015E+03,   999.015E+03
C:/temp/Job-3.odb,Step-1,Increment      1: Step Time =    1.000,"P-3-1",           970,   196.663E-03,   90.5026E-03,            0.,NA,NA,"",   965.866E+03,   999.276E+03,   999.276E+03
C:/temp/Job-3.odb,Step-1,Increment      1: Step Time =    1.000,"P-3-1",           971,   196.576E-03,   83.3900E-03,            0.,NA,NA,"",   969.673E+03,   999.461E+03,   999.461E+03
C:/temp/Job-3.odb,Step-1,Increment      1: Step Time =    1.000,"P-3-1",           972,   196.331E-03,   76.2080E-03,            0.,NA,NA,"",   975.029E+03,   999.784E+03,   999.784E+03
C:/temp/Job-3.odb,Step-1,Increment      1: Step Time =    1.000,"P-3-1",           973,   196.224E-03,   68.9251E-03,            0.,NA,NA,"",   981.056E+03,   1.00013E+06,   1.00013E+06
C:/temp/Job-3.odb,Step-1,Increment      1: Step Time =    1.000,"P-3-1",           974,   196.195E-03,   61.5831E-03,            0.,NA,NA,"",   986.849E+03,   1.00044E+06,   1.00044E+06
C:/temp/Job-3.odb,Step-1,Increment      1: Step Time =    1.000,"P-3-1",           975,   196.490E-03,   54.3615E-03,            0.,NA,NA,"",   991.697E+03,   1.00048E+06,   1.00048E+06
C:/temp/Job-3.odb,Step-1,Increment      1: Step Time =    1.000,"P-3-1",           976,   196.490E-03,   47.1125E-03,            0.,NA,NA,"",   995.596E+03,   1.00048E+06,   1.00048E+06
C:/temp/Job-3.odb,Step-1,Increment      1: Step Time =    1.000,"P-3-1",           977,   196.104E-03,   39.8644E-03,            0.,NA,NA,"",   998.317E+03,   1.00051E+06,   1.00051E+06
C:/temp/Job-3.odb,Step-1,Increment      1: Step Time =    1.000,"P-3-1",           978,   196.341E-03,   36.2843E-03,            0.,NA,NA,"",   999.167E+03,   1.00044E+06,   1.00044E+06
C:/temp/Job-3.odb,Step-1,Increment      1: Step Time =    1.000,"P-3-1",           979,   196.306E-03,   29.1668E-03,            0.,NA,NA,"",   1.00013E+06,   1.00029E+06,   1.00029E+06
C:/temp/Job-3.odb,Step-1,Increment      1: Step Time =    1.000,"P-3-1",           980,   196.209E-03,   21.5813E-03,            0.,NA,NA,"",   1.00041E+06,   1.00017E+06,   1.00017E+06
C:/temp/Job-3.odb,Step-1,Increment      1: Step Time =    1.000,"P-3-1",           981,   196.472E-03,   14.4171E-03,            0.,NA,NA,"",   1.00027E+06,   1.00004E+06,   1.00004E+06
C:/temp/Job-3.odb,Step-1,Increment      1: Step Time =    1.000,"P-3-1",           982,   196.454E-03,   7.21119E-03,            0.,NA,NA,"",   1.00003E+06,   999.948E+03,   999.948E+03
C:/temp/Job-3.odb,Step-1,Increment      1: Step Time =    1.000,"P-3-1",           983,   69.7087E-03,   195.808E-03,            0.,NA,NA,"",   954.811E+03,   954.910E+03,   954.910E+03
C:/temp/Job-3.odb,Step-1,Increment      1: Step Time =    1.000,"P-3-1",           984,   76.9561E-03,   196.586E-03,            0.,NA,NA,"",   943.480E+03,   943.661E+03,   943.661E+03
C:/temp/Job-3.odb,Step-1,Increment      1: Step Time =    1.000,"P-3-1",           985,   84.0442E-03,   196.835E-03,            0.,NA,NA,"",   935.726E+03,   935.961E+03,   935.961E+03
C:/temp/Job-3.odb,Step-1,Increment      1: Step Time =    1.000,"P-3-1",           986,   91.1656E-03,   196.699E-03,            0.,NA,NA,"",   932.003E+03,    932.32E+03,    932.32E+03
C:/temp/Job-3.odb,Step-1,Increment      1: Step Time =    1.000,"P-3-1",           987,   98.3885E-03,   196.305E-03,            0.,NA,NA,"",   932.744E+03,   933.113E+03,   933.113E+03
C:/temp/Job-3.odb,Step-1,Increment      1: Step Time =    1.000,"P-3-1",           988,   102.081E-03,   196.035E-03,            0.,NA,NA,"",   934.781E+03,   935.177E+03,   935.177E+03
C:/temp/Job-3.odb,Step-1,Increment      1: Step Time =    1.000,"P-3-1",           989,   109.439E-03,   196.219E-03,            0.,NA,NA,"",   939.032E+03,   939.296E+03,   939.296E+03
C:/temp/Job-3.odb,Step-1,Increment      1: Step Time =    1.000,"P-3-1",           990,   116.618E-03,   196.874E-03,            0.,NA,NA,"",   944.799E+03,   944.914E+03,   944.914E+03
C:/temp/Job-3.odb,Step-1,Increment      1: Step Time =    1.000,"P-3-1",           991,   123.698E-03,   197.009E-03,            0.,NA,NA,"",   954.176E+03,   954.233E+03,   954.233E+03
C:/temp/Job-3.odb,Step-1,Increment      1: Step Time =    1.000,"P-3-1",           992,   130.829E-03,   196.772E-03,            0.,NA,NA,"",   965.147E+03,   965.106E+03,   965.106E+03
C:/temp/Job-3.odb,Step-1,Increment      1: Step Time =    1.000,"P-3-1",           993,   137.967E-03,   196.424E-03,            0.,NA,NA,"",   975.340E+03,   975.202E+03,   975.202E+03
C:/temp/Job-3.odb,Step-1,Increment      1: Step Time =    1.000,"P-3-1",           994,   145.267E-03,   196.212E-03,            0.,NA,NA,"",   983.975E+03,   983.771E+03,   983.771E+03
C:/temp/Job-3.odb,Step-1,Increment      1: Step Time =    1.000,"P-3-1",           995,   152.739E-03,   195.829E-03,            0.,NA,NA,"",   990.716E+03,   990.443E+03,   990.443E+03
C:/temp/Job-3.odb,Step-1,Increment      1: Step Time =    1.000,"P-3-1",           996,   160.176E-03,   196.356E-03,            0.,NA,NA,"",   994.795E+03,   994.597E+03,   994.597E+03
C:/temp/Job-3.odb,Step-1,Increment      1: Step Time =    1.000,"P-3-1",           997,   163.841E-03,   196.487E-03,            0.,NA,NA,"",   996.183E+03,   996.042E+03,   996.042E+03
C:/temp/Job-3.odb,Step-1,Increment      1: Step Time =    1.000,"P-3-1",           998,   171.152E-03,   196.320E-03,            0.,NA,NA,"",   998.109E+03,   998.017E+03,   998.017E+03
C:/temp/Job-3.odb,Step-1,Increment      1: Step Time =    1.000,"P-3-1",           999,   178.286E-03,   196.678E-03,            0.,NA,NA,"",   999.001E+03,   998.963E+03,   998.963E+03
C:/temp/Job-3.odb,Step-1,Increment      1: Step Time =    1.000,"P-3-1",          1000,   185.387E-03,   196.485E-03,            0.,NA,NA,"",   999.482E+03,   999.473E+03,   999.473E+03
C:/temp/Job-3.odb,Step-1,Increment      1: Step Time =    1.000,"P-3-1",          1001,   192.743E-03,   196.410E-03,            0.,NA,NA,"",   999.850E+03,   999.828E+03,   999.828E+03
C:/temp/Job-3.odb,Step-1,Increment      1: Step Time =    1.000,"P-3-1",          1002,   3.69938E-03,   72.5295E-03,            0.,NA,NA,"",   808.961E+03,   909.850E+03,   909.850E+03
C:/temp/Job-3.odb,Step-1,Increment      1: Step Time =    1.000,"P-3-1",          1003,   3.31861E-03,   79.7262E-03,            0.,NA,NA,"",   795.943E+03,   896.476E+03,   896.476E+03
C:/temp/Job-3.odb,Step-1,Increment      1: Step Time =    1.000,"P-3-1",          1004,   3.29631E-03,   86.8681E-03,            0.,NA,NA,"",   786.785E+03,   886.874E+03,   886.874E+03
C:/temp/Job-3.odb,Step-1,Increment      1: Step Time =    1.000,"P-3-1",          1005,   3.84964E-03,   93.9359E-03,            0.,NA,NA,"",   782.198E+03,   881.704E+03,   881.704E+03
C:/temp/Job-3.odb,Step-1,Increment      1: Step Time =    1.000,"P-3-1",          1006,   5.46160E-03,   101.677E-03,            0.,NA,NA,"",   783.353E+03,   881.800E+03,   881.800E+03
C:/temp/Job-3.odb,Step-1,Increment      1: Step Time =    1.000,"P-3-1",          1007,   4.15549E-03,   105.871E-03,            0.,NA,NA,"",   782.685E+03,   881.992E+03,   881.992E+03
C:/temp/Job-3.odb,Step-1,Increment      1: Step Time =    1.000,"P-3-1",          1008,   3.34456E-03,   113.056E-03,            0.,NA,NA,"",   787.029E+03,   887.140E+03,   887.140E+03
C:/temp/Job-3.odb,Step-1,Increment      1: Step Time =    1.000,"P-3-1",          1009,   3.31249E-03,   120.088E-03,            0.,NA,NA,"",   795.842E+03,   896.427E+03,   896.427E+03
C:/temp/Job-3.odb,Step-1,Increment      1: Step Time =    1.000,"P-3-1",          1010,   3.45027E-03,   127.319E-03,            0.,NA,NA,"",   808.327E+03,   909.401E+03,   909.401E+03
C:/temp/Job-3.odb,Step-1,Increment      1: Step Time =    1.000,"P-3-1",          1011,   3.74025E-03,   134.578E-03,            0.,NA,NA,"",   823.620E+03,   925.045E+03,   925.045E+03
C:/temp/Job-3.odb,Step-1,Increment      1: Step Time =    1.000,"P-3-1",          1012,   3.84708E-03,   141.944E-03,            0.,NA,NA,"",   840.662E+03,   942.433E+03,   942.433E+03
C:/temp/Job-3.odb,Step-1,Increment      1: Step Time =    1.000,"P-3-1",          1013,   3.74429E-03,   149.342E-03,            0.,NA,NA,"",   859.523E+03,   961.764E+03,   961.764E+03
C:/temp/Job-3.odb,Step-1,Increment      1: Step Time =    1.000,"P-3-1",          1014,   3.54050E-03,   156.513E-03,            0.,NA,NA,"",   880.148E+03,   982.688E+03,   982.688E+03
C:/temp/Job-3.odb,Step-1,Increment      1: Step Time =    1.000,"P-3-1",          1015,   3.48103E-03,   163.632E-03,            0.,NA,NA,"",   904.892E+03,   1.00744E+06,   1.00744E+06
C:/temp/Job-3.odb,Step-1,Increment      1: Step Time =    1.000,"P-3-1",          1016,   3.43666E-03,   167.212E-03,            0.,NA,NA,"",   919.580E+03,   1.02199E+06,   1.02199E+06
C:/temp/Job-3.odb,Step-1,Increment      1: Step Time =    1.000,"P-3-1",          1017,   3.41929E-03,   174.249E-03,            0.,NA,NA,"",   956.671E+03,   1.05845E+06,   1.05845E+06
C:/temp/Job-3.odb,Step-1,Increment      1: Step Time =    1.000,"P-3-1",          1018,   3.71029E-03,   181.432E-03,            0.,NA,NA,"",   1.01576E+06,   1.11378E+06,   1.11378E+06
C:/temp/Job-3.odb,Step-1,Increment      1: Step Time =    1.000,"P-3-1",          1019,   4.06850E-03,   188.814E-03,            0.,NA,NA,"",   1.12735E+06,   1.21693E+06,   1.21693E+06
C:/temp/Job-3.odb,Step-1,Increment      1: Step Time =    1.000,"P-3-1",          1020,   3.76245E-03,   196.296E-03,            0.,NA,NA,"",   1.42897E+06,   1.48128E+06,   1.48128E+06
C:/temp/Job-3.odb,Step-1,Increment      1: Step Time =    1.000,"P-3-1",          1021,   14.7412E-03,   196.442E-03,            0.,NA,NA,"",   1.14519E+06,   1.15025E+06,   1.15025E+06
C:/temp/Job-3.odb,Step-1,Increment      1: Step Time =    1.000,"P-3-1",          1022,   25.7401E-03,   195.979E-03,            0.,NA,NA,"",   1.05165E+06,   1.05332E+06,   1.05332E+06
C:/temp/Job-3.odb,Step-1,Increment      1: Step Time =    1.000,"P-3-1",          1023,   22.0267E-03,   196.299E-03,            0.,NA,NA,"",   1.07311E+06,   1.07533E+06,   1.07533E+06
C:/temp/Job-3.odb,Step-1,Increment      1: Step Time =    1.000,"P-3-1",          1024,   3.50503E-03,   14.4397E-03,            0.,NA,NA,"",   1.06812E+06,   1.16461E+06,   1.16461E+06
C:/temp/Job-3.odb,Step-1,Increment      1: Step Time =    1.000,"P-3-1",          1025,   3.48677E-03,   21.5699E-03,            0.,NA,NA,"",   988.296E+03,   1.08855E+06,   1.08855E+06
C:/temp/Job-3.odb,Step-1,Increment      1: Step Time =    1.000,"P-3-1",          1026,   4.17928E-03,   28.7658E-03,            0.,NA,NA,"",   944.135E+03,   1.04432E+06,   1.04432E+06
C:/temp/Job-3.odb,Step-1,Increment      1: Step Time =    1.000,"P-3-1",          1027,   18.3803E-03,   196.431E-03,            0.,NA,NA,"",   1.10203E+06,   1.10542E+06,   1.10542E+06
C:/temp/Job-3.odb,Step-1,Increment      1: Step Time =    1.000,"P-3-1",          1028,   29.9252E-03,   195.346E-03,            0.,NA,NA,"",   1.03592E+06,   1.03753E+06,   1.03753E+06
C:/temp/Job-3.odb,Step-1,Increment      1: Step Time =    1.000,"P-3-1",          1029,   3.45755E-03,   18.0087E-03,            0.,NA,NA,"",   1.02036E+06,   1.11952E+06,   1.11952E+06
C:/temp/Job-3.odb,Step-1,Increment      1: Step Time =    1.000,"P-3-1",          1030,   3.70021E-03,   25.1405E-03,            0.,NA,NA,"",   962.529E+03,   1.06332E+06,   1.06332E+06
C:/temp/Job-3.odb,Step-1,Increment      1: Step Time =    1.000,"P-3-1",          1031,   5.18915E-03,   32.8313E-03,            0.,NA,NA,"",   928.794E+03,   1.02705E+06,   1.02705E+06
C:/temp/Job-3.odb,Step-1,Increment      1: Step Time =    1.000,"P-3-1",          1032,   7.45688E-03,   196.310E-03,            0.,NA,NA,"",   1.30735E+06,   1.32149E+06,   1.32149E+06
C:/temp/Job-3.odb,Step-1,Increment      1: Step Time =    1.000,"P-3-1",          1033,   3.62070E-03,   7.27007E-03,            0.,NA,NA,"",   1.24510E+06,   1.32684E+06,   1.32684E+06
C:/temp/Job-3.odb,Step-1,Increment      1: Step Time =    1.000,"P-3-1",          1034,   11.1029E-03,   196.377E-03,            0.,NA,NA,"",   1.20353E+06,   1.21317E+06,   1.21317E+06
C:/temp/Job-3.odb,Step-1,Increment      1: Step Time =    1.000,"P-3-1",          1035,   3.57722E-03,   10.8666E-03,            0.,NA,NA,"",   1.12919E+06,   1.22200E+06,   1.22200E+06
C:/temp/Job-3.odb,Step-1,Increment      1: Step Time =    1.000,"P-3-1",          1036,   58.4566E-03,   196.065E-03,            0.,NA,NA,"",   969.496E+03,   969.436E+03,   969.436E+03
C:/temp/Job-3.odb,Step-1,Increment      1: Step Time =    1.000,"P-3-1",          1037,   51.2362E-03,   196.197E-03,            0.,NA,NA,"",   979.904E+03,   979.953E+03,   979.953E+03
C:/temp/Job-3.odb,Step-1,Increment      1: Step Time =    1.000,"P-3-1",          1038,   43.3789E-03,   196.294E-03,            0.,NA,NA,"",   993.457E+03,   993.503E+03,   993.503E+03
C:/temp/Job-3.odb,Step-1,Increment      1: Step Time =    1.000,"P-3-1",          1039,   36.6799E-03,   197.259E-03,            0.,NA,NA,"",   1.00415E+06,   1.00469E+06,   1.00469E+06
C:/temp/Job-3.odb,Step-1,Increment      1: Step Time =    1.000,"P-3-1",          1040,   3.44064E-03,   40.3113E-03,            0.,NA,NA,"",   889.611E+03,   992.526E+03,   992.526E+03
C:/temp/Job-3.odb,Step-1,Increment      1: Step Time =    1.000,"P-3-1",          1041,   3.32989E-03,   47.3590E-03,            0.,NA,NA,"",   867.075E+03,   970.071E+03,   970.071E+03
C:/temp/Job-3.odb,Step-1,Increment      1: Step Time =    1.000,"P-3-1",          1042,   3.89492E-03,   54.4504E-03,            0.,NA,NA,"",   849.620E+03,   951.572E+03,   951.572E+03
C:/temp/Job-3.odb,Step-1,Increment      1: Step Time =    1.000,"P-3-1",          1043,   3.71256E-03,   61.7408E-03,            0.,NA,NA,"",   831.206E+03,   932.869E+03,   932.869E+03
C:/temp/Job-3.odb,Step-1,Increment      1: Step Time =    1.000,"P-3-1",          1044,   33.4675E-03,   196.688E-03,            0.,NA,NA,"",   1.01500E+06,   1.01613E+06,   1.01613E+06
C:/temp/Job-3.odb,Step-1,Increment      1: Step Time =    1.000,"P-3-1",          1045,   39.9362E-03,   196.990E-03,            0.,NA,NA,"",   997.172E+03,   997.397E+03,   997.397E+03
C:/temp/Job-3.odb,Step-1,Increment      1: Step Time =    1.000,"P-3-1",          1046,   47.3049E-03,   195.118E-03,            0.,NA,NA,"",   991.160E+03,   991.230E+03,   991.230E+03
C:/temp/Job-3.odb,Step-1,Increment      1: Step Time =    1.000,"P-3-1",          1047,   54.8022E-03,   196.187E-03,            0.,NA,NA,"",   973.792E+03,   973.903E+03,   973.903E+03
C:/temp/Job-3.odb,Step-1,Increment      1: Step Time =    1.000,"P-3-1",          1048,   62.1906E-03,   195.813E-03,            0.,NA,NA,"",   964.937E+03,   964.918E+03,   964.918E+03
C:/temp/Job-3.odb,Step-1,Increment      1: Step Time =    1.000,"P-3-1",          1049,   4.02683E-03,   36.7666E-03,            0.,NA,NA,"",   905.304E+03,   1.00682E+06,   1.00682E+06
C:/temp/Job-3.odb,Step-1,Increment      1: Step Time =    1.000,"P-3-1",          1050,   3.23384E-03,   43.8370E-03,            0.,NA,NA,"",   877.312E+03,    980.58E+03,    980.58E+03
C:/temp/Job-3.odb,Step-1,Increment      1: Step Time =    1.000,"P-3-1",          1051,   3.62626E-03,   50.9062E-03,            0.,NA,NA,"",   858.205E+03,   960.620E+03,   960.620E+03
C:/temp/Job-3.odb,Step-1,Increment      1: Step Time =    1.000,"P-3-1",          1052,   3.75963E-03,   58.0608E-03,            0.,NA,NA,"",   840.383E+03,   942.163E+03,   942.163E+03
C:/temp/Job-3.odb,Step-1,Increment      1: Step Time =    1.000,"P-3-1",          1053,   3.78300E-03,   65.3585E-03,            0.,NA,NA,"",   823.181E+03,   924.612E+03,   924.612E+03
C:/temp/Job-3.odb,Step-1,Increment      1: Step Time =    1.000,"P-3-1",          1054,   141.694E-03,   4.01457E-03,            0.,NA,NA,"",   980.351E+03,   980.087E+03,   980.087E+03
C:/temp/Job-3.odb,Step-1,Increment      1: Step Time =    1.000,"P-3-1",          1055,   195.896E-03,   141.723E-03,            0.,NA,NA,"",   989.129E+03,   1.00050E+06,   1.00050E+06
C:/temp/Job-3.odb,Step-1,Increment      1: Step Time =    1.000,"P-3-1",          1056,   178.097E-03,   4.03889E-03,            0.,NA,NA,"",   999.006E+03,   998.950E+03,   998.950E+03
C:/temp/Job-3.odb,Step-1,Increment      1: Step Time =    1.000,"P-3-1",          1057,   159.915E-03,   3.68799E-03,            0.,NA,NA,"",   994.480E+03,   994.311E+03,   994.311E+03
C:/temp/Job-3.odb,Step-1,Increment      1: Step Time =    1.000,"P-3-1",          1058,   194.714E-03,   177.765E-03,            0.,NA,NA,"",   1.00041E+06,   1.00031E+06,   1.00031E+06
C:/temp/Job-3.odb,Step-1,Increment      1: Step Time =    1.000,"P-3-1",          1059,   196.517E-03,   160.071E-03,            0.,NA,NA,"",   998.156E+03,   1.00045E+06,   1.00045E+06
C:/temp/Job-3.odb,Step-1,Increment      1: Step Time =    1.000,"P-3-1",          1060,   87.4905E-03,   88.5981E-03,            0.,NA,NA,"",   1.15858E+06,   1.06651E+06,   1.06651E+06
C:/temp/Job-3.odb,Step-1,Increment      1: Step Time =    1.000,"P-3-1",          1061,   88.3335E-03,   111.882E-03,            0.,NA,NA,"",   1.23710E+06,   1.18126E+06,   1.18126E+06
C:/temp/Job-3.odb,Step-1,Increment      1: Step Time =    1.000,"P-3-1",          1062,   109.697E-03,   85.9256E-03,            0.,NA,NA,"",   1.44685E+06,   1.44144E+06,   1.44144E+06
C:/temp/Job-3.odb,Step-1,Increment      1: Step Time =    1.000,"P-3-1",          1063,   116.679E-03,   104.180E-03,            0.,NA,NA,"",   555.745E+03,   64.5440E+03,   64.5440E+03
C:/temp/Job-3.odb,Step-1,Increment      1: Step Time =    1.000,"P-3-1",          1064,   90.1494E-03,   87.5609E-03,            0.,NA,NA,"",   1.37798E+06,   1.35400E+06,   1.35400E+06
C:/temp/Job-3.odb,Step-1,Increment      1: Step Time =    1.000,"P-3-1",          1065,   113.538E-03,   89.4264E-03,            0.,NA,NA,"",   1.10888E+06,   996.562E+03,   996.562E+03
C:/temp/Job-3.odb,Step-1,Increment      1: Step Time =    1.000,"P-3-1",          1066,   83.7565E-03,   95.6144E-03,            0.,NA,NA,"",   575.217E+03,   87.0503E+03,   87.0503E+03
C:/temp/Job-3.odb,Step-1,Increment      1: Step Time =    1.000,"P-3-1",          1067,   115.715E-03,   95.9187E-03,            0.,NA,NA,"",   558.918E+03,   27.7079E+03,   27.7079E+03
C:/temp/Job-3.odb,Step-1,Increment      1: Step Time =    1.000,"P-3-1",          1068,   110.523E-03,   81.9464E-03,            0.,NA,NA,"",   1.42415E+06,   1.42065E+06,   1.42065E+06
C:/temp/Job-3.odb,Step-1,Increment      1: Step Time =    1.000,"P-3-1",          1069,   88.2252E-03,   81.4644E-03,            0.,NA,NA,"",   1.37115E+06,   1.35630E+06,   1.35630E+06
C:/temp/Job-3.odb,Step-1,Increment      1: Step Time =    1.000,"P-3-1",          1070,   80.2576E-03,   101.220E-03,            0.,NA,NA,"",   359.901E+03,   196.934E+03,   196.934E+03
C:/temp/Job-3.odb,Step-1,Increment      1: Step Time =    1.000,"P-3-1",          1071,   118.987E-03,   101.846E-03,            0.,NA,NA,"",   385.580E+03,   152.785E+03,   152.785E+03
C:/temp/Job-3.odb,Step-1,Increment      1: Step Time =    1.000,"P-3-1",          1072,   6.94051E-03,   173.932E-03,            0.,NA,NA,"",   976.611E+03,   1.06834E+06,   1.06834E+06
C:/temp/Job-3.odb,Step-1,Increment      1: Step Time =    1.000,"P-3-1",          1073,   7.57260E-03,   107.101E-03,            0.,NA,NA,"",   788.834E+03,   886.162E+03,   886.162E+03
C:/temp/Job-3.odb,Step-1,Increment      1: Step Time =    1.000,"P-3-1",          1074,   192.390E-03,   26.6711E-03,            0.,NA,NA,"",   1.00051E+06,   1.00075E+06,   1.00075E+06
C:/temp/Job-3.odb,Step-1,Increment      1: Step Time =    1.000,"P-3-1",          1075,   192.689E-03,   96.3705E-03,            0.,NA,NA,"",   967.566E+03,   997.221E+03,   997.221E+03
C:/temp/Job-3.odb,Step-1,Increment      1: Step Time =    1.000,"P-3-1",          1076,   104.940E-03,   7.08473E-03,            0.,NA,NA,"",   947.749E+03,   948.683E+03,   948.683E+03
C:/temp/Job-3.odb,Step-1,Increment      1: Step Time =    1.000,"P-3-1",          1077,   94.7865E-03,   193.071E-03,            0.,NA,NA,"",   945.442E+03,   946.439E+03,   946.439E+03
C:/temp/Job-3.odb,Step-1,Increment      1: Step Time =    1.000,"P-3-1",          1078,   192.992E-03,   106.088E-03,            0.,NA,NA,"",   967.915E+03,   997.625E+03,   997.625E+03
C:/temp/Job-3.odb,Step-1,Increment      1: Step Time =    1.000,"P-3-1",          1079,   25.4536E-03,   192.319E-03,            0.,NA,NA,"",   1.07394E+06,   1.07899E+06,   1.07899E+06
C:/temp/Job-3.odb,Step-1,Increment      1: Step Time =    1.000,"P-3-1",          1080,   191.999E-03,   172.179E-03,            0.,NA,NA,"",   1.00051E+06,   1.00090E+06,   1.00090E+06
C:/temp/Job-3.odb,Step-1,Increment      1: Step Time =    1.000,"P-3-1",          1081,   141.501E-03,   7.90764E-03,            0.,NA,NA,"",   985.703E+03,   985.052E+03,   985.052E+03
C:/temp/Job-3.odb,Step-1,Increment      1: Step Time =    1.000,"P-3-1",          1082,   191.923E-03,   141.223E-03,            0.,NA,NA,"",   991.117E+03,   1.00138E+06,   1.00138E+06
C:/temp/Job-3.odb,Step-1,Increment      1: Step Time =    1.000,"P-3-1",          1083,   102.414E-03,   79.4618E-03,            0.,NA,NA,"",   1.29379E+06,   1.42737E+06,   1.42737E+06
C:/temp/Job-3.odb,Step-1,Increment      1: Step Time =    1.000,"P-3-1",          1084,   98.0745E-03,   80.8781E-03,            0.,NA,NA,"",   1.45129E+06,   1.59364E+06,   1.59364E+06
C:/temp/Job-3.odb,Step-1,Increment      1: Step Time =    1.000,"P-3-1",          1085,   83.9459E-03,   84.9619E-03,            0.,NA,NA,"",   1.31158E+06,   1.20958E+06,   1.20958E+06
C:/temp/Job-3.odb,Step-1,Increment      1: Step Time =    1.000,"P-3-1",          1086,   117.576E-03,   88.3793E-03,            0.,NA,NA,"",   1.17096E+06,   1.01325E+06,   1.01325E+06
C:/temp/Job-3.odb,Step-1,Increment      1: Step Time =    1.000,"P-3-1",          1087,   79.2690E-03,   96.7222E-03,            0.,NA,NA,"",   487.866E+03,   457.496E+03,   457.496E+03
C:/temp/Job-3.odb,Step-1,Increment      1: Step Time =    1.000,"P-3-1",          1088,   120.473E-03,   97.6098E-03,            0.,NA,NA,"",   440.572E+03,   391.753E+03,   391.753E+03
C:/temp/Job-3.odb,Step-1,Increment      1: Step Time =    1.000,"P-3-1",          1089,   93.8731E-03,   81.2907E-03,            0.,NA,NA,"",   1.36778E+06,   1.46216E+06,   1.46216E+06
C:/temp/Job-3.odb,Step-1,Increment      1: Step Time =    1.000,"P-3-1",          1090,   104.788E-03,   80.8900E-03,            0.,NA,NA,"",   1.35474E+06,   1.46597E+06,   1.46597E+06
C:/temp/Job-3.odb,Step-1,Increment      1: Step Time =    1.000,"P-3-1",          1091,   79.4971E-03,   106.286E-03,            0.,NA,NA,"",   716.737E+03,   637.755E+03,   637.755E+03
C:/temp/Job-3.odb,Step-1,Increment      1: Step Time =    1.000,"P-3-1",          1092,   119.832E-03,   106.040E-03,            0.,NA,NA,"",   728.460E+03,   615.072E+03,   615.072E+03
C:/temp/Job-3.odb,Step-1,Increment      1: Step Time =    1.000,"P-3-1",          1093,   86.9349E-03,   109.271E-03,            0.,NA,NA,"",   961.550E+03,   847.607E+03,   847.607E+03
C:/temp/Job-3.odb,Step-1,Increment      1: Step Time =    1.000,"P-3-1",          1094,   83.8086E-03,   111.071E-03,            0.,NA,NA,"",   1.17144E+06,   1.01786E+06,   1.01786E+06
C:/temp/Job-3.odb,Step-1,Increment      1: Step Time =    1.000,"P-3-1",          1095,   189.386E-03,   95.3810E-03,            0.,NA,NA,"",   969.110E+03,   994.934E+03,   994.934E+03
C:/temp/Job-3.odb,Step-1,Increment      1: Step Time =    1.000,"P-3-1",          1096,   94.5792E-03,   189.619E-03,            0.,NA,NA,"",   957.570E+03,   959.585E+03,   959.585E+03
C:/temp/Job-3.odb,Step-1,Increment      1: Step Time =    1.000,"P-3-1",          1097,   95.0891E-03,   12.1936E-03,            0.,NA,NA,"",   963.498E+03,   966.149E+03,   966.149E+03
C:/temp/Job-3.odb,Step-1,Increment      1: Step Time =    1.000,"P-3-1",          1098,   12.0875E-03,   94.4765E-03,            0.,NA,NA,"",   795.422E+03,   889.507E+03,   889.507E+03
C:/temp/Job-3.odb,Step-1,Increment      1: Step Time =    1.000,"P-3-1",          1099,   104.437E-03,   187.133E-03,            0.,NA,NA,"",   965.694E+03,   968.414E+03,   968.414E+03
C:/temp/Job-3.odb,Step-1,Increment      1: Step Time =    1.000,"P-3-1",          1100,   188.986E-03,   104.246E-03,            0.,NA,NA,"",   968.364E+03,   993.783E+03,   993.783E+03
C:/temp/Job-3.odb,Step-1,Increment      1: Step Time =    1.000,"P-3-1",          1101,   12.1091E-03,   106.333E-03,            0.,NA,NA,"",   796.273E+03,   890.279E+03,   890.279E+03
C:/temp/Job-3.odb,Step-1,Increment      1: Step Time =    1.000,"P-3-1",          1102,   104.822E-03,   10.6701E-03,            0.,NA,NA,"",   959.216E+03,   961.133E+03,   961.133E+03
C:/temp/Job-3.odb,Step-1,Increment      1: Step Time =    1.000,"P-3-1",          1103,   189.030E-03,   27.0185E-03,            0.,NA,NA,"",   1.00137E+06,   1.00159E+06,   1.00159E+06
C:/temp/Job-3.odb,Step-1,Increment      1: Step Time =    1.000,"P-3-1",          1104,   25.1487E-03,   188.840E-03,            0.,NA,NA,"",   1.08341E+06,   1.09394E+06,   1.09394E+06
C:/temp/Job-3.odb,Step-1,Increment      1: Step Time =    1.000,"P-3-1",          1105,   25.8946E-03,   10.3086E-03,            0.,NA,NA,"",   1.08089E+06,   1.08906E+06,   1.08906E+06
C:/temp/Job-3.odb,Step-1,Increment      1: Step Time =    1.000,"P-3-1",          1106,   11.2125E-03,   26.8247E-03,            0.,NA,NA,"",   994.896E+03,   1.07360E+06,   1.07360E+06
C:/temp/Job-3.odb,Step-1,Increment      1: Step Time =    1.000,"P-3-1",          1107,   173.833E-03,   188.346E-03,            0.,NA,NA,"",   1.00090E+06,   1.00040E+06,   1.00040E+06
C:/temp/Job-3.odb,Step-1,Increment      1: Step Time =    1.000,"P-3-1",          1108,   187.331E-03,   173.285E-03,            0.,NA,NA,"",   1.00191E+06,   1.00203E+06,   1.00203E+06
C:/temp/Job-3.odb,Step-1,Increment      1: Step Time =    1.000,"P-3-1",          1109,   173.483E-03,   9.94316E-03,            0.,NA,NA,"",   1.00005E+06,   999.692E+03,   999.692E+03
C:/temp/Job-3.odb,Step-1,Increment      1: Step Time =    1.000,"P-3-1",          1110,   122.071E-03,   103.687E-03,            0.,NA,NA,"",   531.638E+03,   480.646E+03,   480.646E+03
C:/temp/Job-3.odb,Step-1,Increment      1: Step Time =    1.000,"P-3-1",          1111,   86.6951E-03,   84.9964E-03,            0.,NA,NA,"",   1.40283E+06,   1.32088E+06,   1.32088E+06
C:/temp/Job-3.odb,Step-1,Increment      1: Step Time =    1.000,"P-3-1",          1112,   107.611E-03,   81.5972E-03,            0.,NA,NA,"",   1.41688E+06,   1.47473E+06,   1.47473E+06
C:/temp/Job-3.odb,Step-1,Increment      1: Step Time =    1.000,"P-3-1",          1113,   111.911E-03,   6.72289E-03,            0.,NA,NA,"",   951.260E+03,   951.940E+03,   951.940E+03
C:/temp/Job-3.odb,Step-1,Increment      1: Step Time =    1.000,"P-3-1",          1114,   89.7230E-03,   7.31800E-03,            0.,NA,NA,"",   948.829E+03,   949.720E+03,   949.720E+03
C:/temp/Job-3.odb,Step-1,Increment      1: Step Time =    1.000,"P-3-1",          1115,   21.3868E-03,   5.81254E-03,            0.,NA,NA,"",   1.09170E+06,   1.09670E+06,   1.09670E+06
C:/temp/Job-3.odb,Step-1,Increment      1: Step Time =    1.000,"P-3-1",          1116,   193.312E-03,   90.0814E-03,            0.,NA,NA,"",   968.968E+03,   997.997E+03,   997.997E+03
C:/temp/Job-3.odb,Step-1,Increment      1: Step Time =    1.000,"P-3-1",          1117,   192.609E-03,   21.0528E-03,            0.,NA,NA,"",   1.00051E+06,   1.00046E+06,   1.00046E+06
C:/temp/Job-3.odb,Step-1,Increment      1: Step Time =    1.000,"P-3-1",          1118,   110.186E-03,   192.545E-03,            0.,NA,NA,"",   952.305E+03,   953.091E+03,   953.091E+03
C:/temp/Job-3.odb,Step-1,Increment      1: Step Time =    1.000,"P-3-1",          1119,   6.72498E-03,   110.242E-03,            0.,NA,NA,"",   790.160E+03,   888.013E+03,   888.013E+03
C:/temp/Job-3.odb,Step-1,Increment      1: Step Time =    1.000,"P-3-1",          1120,   191.156E-03,   110.522E-03,            0.,NA,NA,"",   970.394E+03,   996.880E+03,   996.880E+03
C:/temp/Job-3.odb,Step-1,Increment      1: Step Time =    1.000,"P-3-1",          1121,   6.94437E-03,   89.6741E-03,            0.,NA,NA,"",   790.295E+03,   888.073E+03,   888.073E+03
C:/temp/Job-3.odb,Step-1,Increment      1: Step Time =    1.000,"P-3-1",          1122,   22.0454E-03,   192.793E-03,            0.,NA,NA,"",   1.09286E+06,   1.09954E+06,   1.09954E+06
C:/temp/Job-3.odb,Step-1,Increment      1: Step Time =    1.000,"P-3-1",          1123,   6.91384E-03,   21.2866E-03,            0.,NA,NA,"",   1.01282E+06,   1.10077E+06,   1.10077E+06
C:/temp/Job-3.odb,Step-1,Increment      1: Step Time =    1.000,"P-3-1",          1124,   191.092E-03,   179.887E-03,            0.,NA,NA,"",   1.00064E+06,   1.00062E+06,   1.00062E+06
C:/temp/Job-3.odb,Step-1,Increment      1: Step Time =    1.000,"P-3-1",          1125,   178.793E-03,   193.613E-03,            0.,NA,NA,"",   999.419E+03,   999.335E+03,   999.335E+03
C:/temp/Job-3.odb,Step-1,Increment      1: Step Time =    1.000,"P-3-1",          1126,   177.941E-03,   8.45474E-03,            0.,NA,NA,"",   999.775E+03,   999.600E+03,   999.600E+03
C:/temp/Job-3.odb,Step-1,Increment      1: Step Time =    1.000,"P-3-1",          1127,   118.426E-03,   91.4658E-03,            0.,NA,NA,"",   976.902E+03,   813.937E+03,   813.937E+03
C:/temp/Job-3.odb,Step-1,Increment      1: Step Time =    1.000,"P-3-1",          1128,   80.1397E-03,   94.1544E-03,            0.,NA,NA,"",   698.771E+03,   609.293E+03,   609.293E+03
C:/temp/Job-3.odb,Step-1,Increment      1: Step Time =    1.000,"P-3-1",          1129,   119.442E-03,   94.6151E-03,            0.,NA,NA,"",   687.506E+03,   572.047E+03,   572.047E+03
C:/temp/Job-3.odb,Step-1,Increment      1: Step Time =    1.000,"P-3-1",          1130,   80.5833E-03,   91.2431E-03,            0.,NA,NA,"",   916.284E+03,   792.136E+03,   792.136E+03
C:/temp/Job-3.odb,Step-1,Increment      1: Step Time =    1.000,"P-3-1",          1131,   91.6017E-03,   83.1179E-03,            0.,NA,NA,"",   1.43792E+06,   1.47815E+06,   1.47815E+06
C:/temp/Job-3.odb,Step-1,Increment      1: Step Time =    1.000,"P-3-1",          1132,   188.434E-03,   139.955E-03,            0.,NA,NA,"",   993.315E+03,   1.00244E+06,   1.00244E+06
C:/temp/Job-3.odb,Step-1,Increment      1: Step Time =    1.000,"P-3-1",          1133,   140.961E-03,   11.5332E-03,            0.,NA,NA,"",   991.524E+03,   990.329E+03,   990.329E+03
C:/temp/Job-3.odb,Step-1,Increment      1: Step Time =    1.000,"P-3-1",          1134,   81.5693E-03,   108.883E-03,            0.,NA,NA,"",   970.348E+03,   830.655E+03,   830.655E+03
C:/temp/Job-3.odb,Step-1,Increment      1: Step Time =    1.000,"P-3-1",          1135,   118.800E-03,   108.675E-03,            0.,NA,NA,"",   955.940E+03,   802.004E+03,   802.004E+03
C:/temp/Job-3.odb,Step-1,Increment      1: Step Time =    1.000,"P-3-1",          1136,   85.4895E-03,   112.657E-03,            0.,NA,NA,"",   1.26003E+06,   1.13045E+06,   1.13045E+06
C:/temp/Job-3.odb,Step-1,Increment      1: Step Time =    1.000,"P-3-1",          1137,   88.1580E-03,   115.174E-03,            0.,NA,NA,"",   1.37364E+06,   1.33814E+06,   1.33814E+06
C:/temp/Job-3.odb,Step-1,Increment      1: Step Time =    1.000,"P-3-1",          1138,   189.337E-03,   183.562E-03,            0.,NA,NA,"",   1.00048E+06,   1.00044E+06,   1.00044E+06
C:/temp/Job-3.odb,Step-1,Increment      1: Step Time =    1.000,"P-3-1",          1139,   182.710E-03,   190.879E-03,            0.,NA,NA,"",   999.940E+03,   999.851E+03,   999.851E+03
C:/temp/Job-3.odb,Step-1,Increment      1: Step Time =    1.000,"P-3-1",          1140,   18.7174E-03,   189.675E-03,            0.,NA,NA,"",   1.12086E+06,   1.13764E+06,   1.13764E+06
C:/temp/Job-3.odb,Step-1,Increment      1: Step Time =    1.000,"P-3-1",          1141,   189.329E-03,   17.4499E-03,            0.,NA,NA,"",   1.00062E+06,   1.00053E+06,   1.00053E+06
C:/temp/Job-3.odb,Step-1,Increment      1: Step Time =    1.000,"P-3-1",          1142,   179.781E-03,   11.9946E-03,            0.,NA,NA,"",   1.00054E+06,   1.00031E+06,   1.00031E+06
C:/temp/Job-3.odb,Step-1,Increment      1: Step Time =    1.000,"P-3-1",          1143,   11.4445E-03,   181.051E-03,            0.,NA,NA,"",   1.06267E+06,   1.12865E+06,   1.12865E+06
C:/temp/Job-3.odb,Step-1,Increment      1: Step Time =    1.000,"P-3-1",          1144,   10.2296E-03,   21.0970E-03,            0.,NA,NA,"",   1.03465E+06,   1.10920E+06,   1.10920E+06
C:/temp/Job-3.odb,Step-1,Increment      1: Step Time =    1.000,"P-3-1",          1145,   19.1010E-03,   9.17971E-03,            0.,NA,NA,"",   1.12058E+06,   1.13279E+06,   1.13279E+06
C:/temp/Job-3.odb,Step-1,Increment      1: Step Time =    1.000,"P-3-1",          1146,   189.020E-03,   114.653E-03,            0.,NA,NA,"",   973.866E+03,   996.432E+03,   996.432E+03
C:/temp/Job-3.odb,Step-1,Increment      1: Step Time =    1.000,"P-3-1",          1147,   111.635E-03,   189.324E-03,            0.,NA,NA,"",    963.24E+03,   964.710E+03,   964.710E+03
C:/temp/Job-3.odb,Step-1,Increment      1: Step Time =    1.000,"P-3-1",          1148,   87.9705E-03,   190.356E-03,            0.,NA,NA,"",   957.994E+03,   959.468E+03,   959.468E+03
C:/temp/Job-3.odb,Step-1,Increment      1: Step Time =    1.000,"P-3-1",          1149,   189.953E-03,   89.7037E-03,            0.,NA,NA,"",   970.858E+03,   996.027E+03,   996.027E+03
C:/temp/Job-3.odb,Step-1,Increment      1: Step Time =    1.000,"P-3-1",          1150,   111.586E-03,   10.1145E-03,            0.,NA,NA,"",   961.369E+03,   962.752E+03,   962.752E+03
C:/temp/Job-3.odb,Step-1,Increment      1: Step Time =    1.000,"P-3-1",          1151,   9.25081E-03,   110.669E-03,            0.,NA,NA,"",   794.882E+03,   891.111E+03,   891.111E+03
C:/temp/Job-3.odb,Step-1,Increment      1: Step Time =    1.000,"P-3-1",          1152,   10.3789E-03,   88.7498E-03,            0.,NA,NA,"",   797.509E+03,   892.812E+03,   892.812E+03
C:/temp/Job-3.odb,Step-1,Increment      1: Step Time =    1.000,"P-3-1",          1153,   88.3156E-03,   10.7089E-03,            0.,NA,NA,"",   961.566E+03,   963.346E+03,   963.346E+03
C:/temp/Job-3.odb,Step-1,Increment      1: Step Time =    1.000,"P-3-1",          1154,   81.5274E-03,   113.889E-03,            0.,NA,NA,"",   1.19254E+06,   1.08091E+06,   1.08091E+06
C:/temp/Job-3.odb,Step-1,Increment      1: Step Time =    1.000,"P-3-1",          1155,   186.302E-03,   92.2156E-03,            0.,NA,NA,"",   970.236E+03,   992.642E+03,   992.642E+03
C:/temp/Job-3.odb,Step-1,Increment      1: Step Time =    1.000,"P-3-1",          1156,   91.2310E-03,   190.071E-03,            0.,NA,NA,"",   957.249E+03,   958.970E+03,   958.970E+03
C:/temp/Job-3.odb,Step-1,Increment      1: Step Time =    1.000,"P-3-1",          1157,   90.9119E-03,   11.8884E-03,            0.,NA,NA,"",   964.132E+03,   966.436E+03,   966.436E+03
C:/temp/Job-3.odb,Step-1,Increment      1: Step Time =    1.000,"P-3-1",          1158,   11.1288E-03,   91.6643E-03,            0.,NA,NA,"",   795.813E+03,   890.616E+03,   890.616E+03
C:/temp/Job-3.odb,Step-1,Increment      1: Step Time =    1.000,"P-3-1",          1159,   109.086E-03,   187.775E-03,            0.,NA,NA,"",   966.090E+03,   968.223E+03,   968.223E+03
C:/temp/Job-3.odb,Step-1,Increment      1: Step Time =    1.000,"P-3-1",          1160,   189.248E-03,   107.382E-03,            0.,NA,NA,"",   969.653E+03,   994.894E+03,   994.894E+03
C:/temp/Job-3.odb,Step-1,Increment      1: Step Time =    1.000,"P-3-1",          1161,   12.6536E-03,   110.603E-03,            0.,NA,NA,"",   801.535E+03,   894.843E+03,   894.843E+03
C:/temp/Job-3.odb,Step-1,Increment      1: Step Time =    1.000,"P-3-1",          1162,   108.190E-03,   10.3715E-03,            0.,NA,NA,"",   959.905E+03,   961.584E+03,   961.584E+03
C:/temp/Job-3.odb,Step-1,Increment      1: Step Time =    1.000,"P-3-1",          1163,   188.829E-03,   20.6548E-03,            0.,NA,NA,"",   1.00096E+06,   1.00091E+06,   1.00091E+06
C:/temp/Job-3.odb,Step-1,Increment      1: Step Time =    1.000,"P-3-1",          1164,   21.9549E-03,   186.508E-03,            0.,NA,NA,"",   1.09593E+06,   1.11572E+06,   1.11572E+06
C:/temp/Job-3.odb,Step-1,Increment      1: Step Time =    1.000,"P-3-1",          1165,   23.2804E-03,   8.98699E-03,            0.,NA,NA,"",   1.09377E+06,   1.10171E+06,   1.10171E+06
C:/temp/Job-3.odb,Step-1,Increment      1: Step Time =    1.000,"P-3-1",          1166,   10.4977E-03,   24.0270E-03,            0.,NA,NA,"",   1.01026E+06,   1.08808E+06,   1.08808E+06
C:/temp/Job-3.odb,Step-1,Increment      1: Step Time =    1.000,"P-3-1",          1167,   179.003E-03,   188.788E-03,            0.,NA,NA,"",   1.00046E+06,   1.00022E+06,   1.00022E+06
C:/temp/Job-3.odb,Step-1,Increment      1: Step Time =    1.000,"P-3-1",          1168,   188.617E-03,   177.511E-03,            0.,NA,NA,"",   1.00117E+06,   1.00117E+06,   1.00117E+06
C:/temp/Job-3.odb,Step-1,Increment      1: Step Time =    1.000,"P-3-1",          1169,   10.1170E-03,   177.069E-03,            0.,NA,NA,"",   1.02029E+06,   1.09749E+06,   1.09749E+06
C:/temp/Job-3.odb,Step-1,Increment      1: Step Time =    1.000,"P-3-1",          1170,   175.376E-03,   11.6175E-03,            0.,NA,NA,"",   1.00061E+06,   1.00021E+06,   1.00021E+06
C:/temp/Job-3.odb,Step-1,Increment      1: Step Time =    1.000,"P-3-1",          1171,   85.2639E-03,   80.0390E-03,            0.,NA,NA,"",   1.33695E+06,   1.29665E+06,   1.29665E+06
C:/temp/Job-3.odb,Step-1,Increment      1: Step Time =    1.000,"P-3-1",          1172,   114.362E-03,   78.4604E-03,            0.,NA,NA,"",   1.32496E+06,   1.29225E+06,   1.29225E+06
C:/temp/Job-3.odb,Step-1,Increment      1: Step Time =    1.000,"P-3-1",          1173,   121.371E-03,   87.2115E-03,            0.,NA,NA,"",   1.11369E+06,   996.140E+03,   996.140E+03
C:/temp/Job-3.odb,Step-1,Increment      1: Step Time =    1.000,"P-3-1",          1174,   76.8910E-03,   95.4091E-03,            0.,NA,NA,"",   615.569E+03,   591.776E+03,   591.776E+03
C:/temp/Job-3.odb,Step-1,Increment      1: Step Time =    1.000,"P-3-1",          1175,   189.324E-03,   136.803E-03,            0.,NA,NA,"",   990.436E+03,   1.00167E+06,   1.00167E+06
C:/temp/Job-3.odb,Step-1,Increment      1: Step Time =    1.000,"P-3-1",          1176,   137.775E-03,   11.4640E-03,            0.,NA,NA,"",   988.664E+03,   987.654E+03,   987.654E+03
C:/temp/Job-3.odb,Step-1,Increment      1: Step Time =    1.000,"P-3-1",          1177,   80.6906E-03,   87.7986E-03,            0.,NA,NA,"",   1.09785E+06,   976.828E+03,   976.828E+03
C:/temp/Job-3.odb,Step-1,Increment      1: Step Time =    1.000,"P-3-1",          1178,   125.753E-03,   102.894E-03,            0.,NA,NA,"",   559.285E+03,   555.648E+03,   555.648E+03
C:/temp/Job-3.odb,Step-1,Increment      1: Step Time =    1.000,"P-3-1",          1179,   104.538E-03,   76.5075E-03,            0.,NA,NA,"",   1.22477E+06,   1.32394E+06,   1.32394E+06
C:/temp/Job-3.odb,Step-1,Increment      1: Step Time =    1.000,"P-3-1",          1180,   74.9316E-03,   96.5303E-03,            0.,NA,NA,"",   567.814E+03,   576.608E+03,   576.608E+03
C:/temp/Job-3.odb,Step-1,Increment      1: Step Time =    1.000,"P-3-1",          1181,   87.1685E-03,   118.658E-03,            0.,NA,NA,"",   1.38265E+06,   1.35295E+06,   1.35295E+06
C:/temp/Job-3.odb,Step-1,Increment      1: Step Time =    1.000,"P-3-1",          1182,   186.671E-03,   89.3858E-03,            0.,NA,NA,"",   971.694E+03,   993.654E+03,   993.654E+03
C:/temp/Job-3.odb,Step-1,Increment      1: Step Time =    1.000,"P-3-1",          1183,   84.9550E-03,   187.239E-03,            0.,NA,NA,"",   970.519E+03,   972.634E+03,   972.634E+03
C:/temp/Job-3.odb,Step-1,Increment      1: Step Time =    1.000,"P-3-1",          1184,   111.189E-03,   185.152E-03,            0.,NA,NA,"",   974.291E+03,   977.026E+03,   977.026E+03
C:/temp/Job-3.odb,Step-1,Increment      1: Step Time =    1.000,"P-3-1",          1185,   184.067E-03,   114.059E-03,            0.,NA,NA,"",   974.087E+03,   992.675E+03,   992.675E+03
C:/temp/Job-3.odb,Step-1,Increment      1: Step Time =    1.000,"P-3-1",          1186,   89.4998E-03,   15.0574E-03,            0.,NA,NA,"",   974.194E+03,   977.566E+03,   977.566E+03
C:/temp/Job-3.odb,Step-1,Increment      1: Step Time =    1.000,"P-3-1",          1187,   13.7910E-03,   87.6333E-03,            0.,NA,NA,"",   805.357E+03,   897.808E+03,   897.808E+03
C:/temp/Job-3.odb,Step-1,Increment      1: Step Time =    1.000,"P-3-1",          1188,   14.8826E-03,   111.921E-03,            0.,NA,NA,"",   806.433E+03,   898.091E+03,   898.091E+03
C:/temp/Job-3.odb,Step-1,Increment      1: Step Time =    1.000,"P-3-1",          1189,   111.349E-03,   13.4937E-03,            0.,NA,NA,"",   970.679E+03,   972.971E+03,   972.971E+03
C:/temp/Job-3.odb,Step-1,Increment      1: Step Time =    1.000,"P-3-1",          1190,   186.011E-03,   94.9225E-03,            0.,NA,NA,"",   969.123E+03,   991.904E+03,   991.904E+03
C:/temp/Job-3.odb,Step-1,Increment      1: Step Time =    1.000,"P-3-1",          1191,   94.1281E-03,   186.178E-03,            0.,NA,NA,"",   968.403E+03,   971.658E+03,   971.658E+03
C:/temp/Job-3.odb,Step-1,Increment      1: Step Time =    1.000,"P-3-1",          1192,   95.4831E-03,   15.4975E-03,            0.,NA,NA,"",   972.712E+03,   976.808E+03,   976.808E+03
C:/temp/Job-3.odb,Step-1,Increment      1: Step Time =    1.000,"P-3-1",          1193,   15.6549E-03,   92.8551E-03,            0.,NA,NA,"",   802.544E+03,   893.673E+03,   893.673E+03
C:/temp/Job-3.odb,Step-1,Increment      1: Step Time =    1.000,"P-3-1",          1194,   103.393E-03,   183.453E-03,            0.,NA,NA,"",   974.902E+03,   979.338E+03,   979.338E+03
C:/temp/Job-3.odb,Step-1,Increment      1: Step Time =    1.000,"P-3-1",          1195,   186.467E-03,   104.317E-03,            0.,NA,NA,"",   968.444E+03,   991.815E+03,   991.815E+03
C:/temp/Job-3.odb,Step-1,Increment      1: Step Time =    1.000,"P-3-1",          1196,   14.3409E-03,   104.122E-03,            0.,NA,NA,"",    798.36E+03,   890.739E+03,   890.739E+03
C:/temp/Job-3.odb,Step-1,Increment      1: Step Time =    1.000,"P-3-1",          1197,   104.753E-03,   14.3259E-03,            0.,NA,NA,"",   969.475E+03,   972.752E+03,   972.752E+03
C:/temp/Job-3.odb,Step-1,Increment      1: Step Time =    1.000,"P-3-1",          1198,   184.471E-03,   24.3040E-03,            0.,NA,NA,"",   1.00254E+06,   1.00235E+06,   1.00235E+06
C:/temp/Job-3.odb,Step-1,Increment      1: Step Time =    1.000,"P-3-1",          1199,   24.8113E-03,   185.606E-03,            0.,NA,NA,"",   1.08338E+06,   1.10036E+06,   1.10036E+06
C:/temp/Job-3.odb,Step-1,Increment      1: Step Time =    1.000,"P-3-1",          1200,   26.1451E-03,   14.5164E-03,            0.,NA,NA,"",   1.07940E+06,   1.09502E+06,   1.09502E+06
C:/temp/Job-3.odb,Step-1,Increment      1: Step Time =    1.000,"P-3-1",          1201,   14.2508E-03,   26.1145E-03,            0.,NA,NA,"",   1.01586E+06,   1.08368E+06,   1.08368E+06
C:/temp/Job-3.odb,Step-1,Increment      1: Step Time =    1.000,"P-3-1",          1202,   172.547E-03,   185.905E-03,            0.,NA,NA,"",   1.00208E+06,   1.00131E+06,   1.00131E+06
C:/temp/Job-3.odb,Step-1,Increment      1: Step Time =    1.000,"P-3-1",          1203,   184.822E-03,   171.825E-03,            0.,NA,NA,"",   1.00298E+06,   1.00296E+06,   1.00296E+06
C:/temp/Job-3.odb,Step-1,Increment      1: Step Time =    1.000,"P-3-1",          1204,   172.713E-03,   13.7744E-03,            0.,NA,NA,"",   1.00171E+06,   1.00100E+06,   1.00100E+06
C:/temp/Job-3.odb,Step-1,Increment      1: Step Time =    1.000,"P-3-1",          1205,   10.7255E-03,   173.743E-03,            0.,NA,NA,"",   998.056E+03,   1.07748E+06,   1.07748E+06
C:/temp/Job-3.odb,Step-1,Increment      1: Step Time =    1.000,"P-3-1",          1206,   19.0489E-03,   186.557E-03,            0.,NA,NA,"",   1.10985E+06,   1.13383E+06,   1.13383E+06
C:/temp/Job-3.odb,Step-1,Increment      1: Step Time =    1.000,"P-3-1",          1207,   179.867E-03,   185.546E-03,            0.,NA,NA,"",   1.00121E+06,   1.00090E+06,   1.00090E+06
C:/temp/Job-3.odb,Step-1,Increment      1: Step Time =    1.000,"P-3-1",          1208,   19.1703E-03,   13.5149E-03,            0.,NA,NA,"",   1.10583E+06,   1.13021E+06,   1.13021E+06
C:/temp/Job-3.odb,Step-1,Increment      1: Step Time =    1.000,"P-3-1",          1209,   13.3314E-03,   21.1727E-03,            0.,NA,NA,"",   1.05055E+06,   1.11381E+06,   1.11381E+06
C:/temp/Job-3.odb,Step-1,Increment      1: Step Time =    1.000,"P-3-1",          1210,   13.0788E-03,   177.780E-03,            0.,NA,NA,"",   1.03831E+06,   1.10363E+06,   1.10363E+06
C:/temp/Job-3.odb,Step-1,Increment      1: Step Time =    1.000,"P-3-1",          1211,   183.471E-03,   14.0755E-03,            0.,NA,NA,"",   1.00076E+06,   1.00058E+06,   1.00058E+06
C:/temp/Job-3.odb,Step-1,Increment      1: Step Time =    1.000,"P-3-1",          1212,   111.182E-03,   78.1645E-03,            0.,NA,NA,"",   1.31262E+06,   1.32580E+06,   1.32580E+06
C:/temp/Job-3.odb,Step-1,Increment      1: Step Time =    1.000,"P-3-1",          1213,   184.488E-03,   140.968E-03,            0.,NA,NA,"",   997.739E+03,   1.00426E+06,   1.00426E+06
C:/temp/Job-3.odb,Step-1,Increment      1: Step Time =    1.000,"P-3-1",          1214,   189.869E-03,   133.590E-03,            0.,NA,NA,"",   987.540E+03,   1.00093E+06,   1.00093E+06
C:/temp/Job-3.odb,Step-1,Increment      1: Step Time =    1.000,"P-3-1",          1215,   134.532E-03,   11.9629E-03,            0.,NA,NA,"",   987.041E+03,   986.224E+03,   986.224E+03
C:/temp/Job-3.odb,Step-1,Increment      1: Step Time =    1.000,"P-3-1",          1216,   140.417E-03,   14.4430E-03,            0.,NA,NA,"",   996.143E+03,   994.474E+03,   994.474E+03
C:/temp/Job-3.odb,Step-1,Increment      1: Step Time =    1.000,"P-3-1",          1217,   112.063E-03,   110.037E-03,            0.,NA,NA,"",   1.05888E+06,   957.149E+03,   957.149E+03
C:/temp/Job-3.odb,Step-1,Increment      1: Step Time =    1.000,"P-3-1",          1218,   128.502E-03,   99.1073E-03,            0.,NA,NA,"",   598.514E+03,   611.260E+03,   611.260E+03
C:/temp/Job-3.odb,Step-1,Increment      1: Step Time =    1.000,"P-3-1",          1219,   77.0007E-03,   90.3517E-03,            0.,NA,NA,"",   881.861E+03,   819.281E+03,   819.281E+03
C:/temp/Job-3.odb,Step-1,Increment      1: Step Time =    1.000,"P-3-1",          1220,   84.1333E-03,   81.9795E-03,            0.,NA,NA,"",   1.34662E+06,   1.27663E+06,   1.27663E+06
C:/temp/Job-3.odb,Step-1,Increment      1: Step Time =    1.000,"P-3-1",          1221,   117.782E-03,   78.8108E-03,            0.,NA,NA,"",   1.31045E+06,   1.24246E+06,   1.24246E+06
C:/temp/Job-3.odb,Step-1,Increment      1: Step Time =    1.000,"P-3-1",          1222,   80.7535E-03,   84.1608E-03,            0.,NA,NA,"",   1.23200E+06,   1.13275E+06,   1.13275E+06
C:/temp/Job-3.odb,Step-1,Increment      1: Step Time =    1.000,"P-3-1",          1223,   102.391E-03,   74.4740E-03,            0.,NA,NA,"",   1.15159E+06,   1.25759E+06,   1.25759E+06
C:/temp/Job-3.odb,Step-1,Increment      1: Step Time =    1.000,"P-3-1",          1224,   120.592E-03,   84.2392E-03,            0.,NA,NA,"",   1.22908E+06,   1.11278E+06,   1.11278E+06
C:/temp/Job-3.odb,Step-1,Increment      1: Step Time =    1.000,"P-3-1",          1225,   113.369E-03,   85.8212E-03,            0.,NA,NA,"",   1.32578E+06,   1.24635E+06,   1.24635E+06
C:/temp/Job-3.odb,Step-1,Increment      1: Step Time =    1.000,"P-3-1",          1226,   90.6195E-03,   119.196E-03,            0.,NA,NA,"",   1.40024E+06,   1.43181E+06,   1.43181E+06
C:/temp/Job-3.odb,Step-1,Increment      1: Step Time =    1.000,"P-3-1",          1227,   121.694E-03,   109.690E-03,            0.,NA,NA,"",   955.709E+03,   843.362E+03,   843.362E+03
C:/temp/Job-3.odb,Step-1,Increment      1: Step Time =    1.000,"P-3-1",          1228,   77.9675E-03,   112.102E-03,            0.,NA,NA,"",   1.03052E+06,   946.541E+03,   946.541E+03
C:/temp/Job-3.odb,Step-1,Increment      1: Step Time =    1.000,"P-3-1",          1229,   81.4018E-03,   80.6080E-03,            0.,NA,NA,"",   1.28331E+06,   1.21310E+06,   1.21310E+06
C:/temp/Job-3.odb,Step-1,Increment      1: Step Time =    1.000,"P-3-1",          1230,   121.248E-03,   79.6074E-03,            0.,NA,NA,"",   1.26327E+06,   1.17590E+06,   1.17590E+06
C:/temp/Job-3.odb,Step-1,Increment      1: Step Time =    1.000,"P-3-1",          1231,   181.168E-03,   141.599E-03,            0.,NA,NA,"",   1.00169E+06,   1.00606E+06,   1.00606E+06
C:/temp/Job-3.odb,Step-1,Increment      1: Step Time =    1.000,"P-3-1",          1232,   142.490E-03,   16.6191E-03,            0.,NA,NA,"",   1.00155E+06,   999.246E+03,   999.246E+03
C:/temp/Job-3.odb,Step-1,Increment      1: Step Time =    1.000,"P-3-1",          1233,   72.7441E-03,   110.020E-03,            0.,NA,NA,"",   870.130E+03,   842.982E+03,   842.982E+03
C:/temp/Job-3.odb,Step-1,Increment      1: Step Time =    1.000,"P-3-1",          1234,   182.553E-03,   173.376E-03,            0.,NA,NA,"",   1.00384E+06,   1.00347E+06,   1.00347E+06
C:/temp/Job-3.odb,Step-1,Increment      1: Step Time =    1.000,"P-3-1",          1235,   173.843E-03,   183.709E-03,            0.,NA,NA,"",   1.00285E+06,   1.00200E+06,   1.00200E+06
C:/temp/Job-3.odb,Step-1,Increment      1: Step Time =    1.000,"P-3-1",          1236,   23.9105E-03,   182.665E-03,            0.,NA,NA,"",   1.08052E+06,   1.10493E+06,   1.10493E+06
C:/temp/Job-3.odb,Step-1,Increment      1: Step Time =    1.000,"P-3-1",          1237,   181.085E-03,   22.7958E-03,            0.,NA,NA,"",   1.00349E+06,   1.00293E+06,   1.00293E+06
C:/temp/Job-3.odb,Step-1,Increment      1: Step Time =    1.000,"P-3-1",          1238,   172.535E-03,   18.6669E-03,            0.,NA,NA,"",   1.00439E+06,   1.00319E+06,   1.00319E+06
C:/temp/Job-3.odb,Step-1,Increment      1: Step Time =    1.000,"P-3-1",          1239,   15.0950E-03,   174.035E-03,            0.,NA,NA,"",   1.02111E+06,   1.08556E+06,   1.08556E+06
C:/temp/Job-3.odb,Step-1,Increment      1: Step Time =    1.000,"P-3-1",          1240,   17.8308E-03,   28.1122E-03,            0.,NA,NA,"",   1.01618E+06,   1.07615E+06,   1.07615E+06
C:/temp/Job-3.odb,Step-1,Increment      1: Step Time =    1.000,"P-3-1",          1241,   28.1087E-03,   16.4971E-03,            0.,NA,NA,"",   1.07001E+06,   1.08650E+06,   1.08650E+06
C:/temp/Job-3.odb,Step-1,Increment      1: Step Time =    1.000,"P-3-1",          1242,   182.823E-03,   103.400E-03,            0.,NA,NA,"",   967.309E+03,   987.646E+03,   987.646E+03
C:/temp/Job-3.odb,Step-1,Increment      1: Step Time =    1.000,"P-3-1",          1243,   103.057E-03,   179.918E-03,            0.,NA,NA,"",   982.937E+03,   989.150E+03,   989.150E+03
C:/temp/Job-3.odb,Step-1,Increment      1: Step Time =    1.000,"P-3-1",          1244,   93.4359E-03,   182.931E-03,            0.,NA,NA,"",   977.596E+03,   982.219E+03,   982.219E+03
C:/temp/Job-3.odb,Step-1,Increment      1: Step Time =    1.000,"P-3-1",          1245,   182.212E-03,   95.3013E-03,            0.,NA,NA,"",   967.570E+03,   987.200E+03,   987.200E+03
C:/temp/Job-3.odb,Step-1,Increment      1: Step Time =    1.000,"P-3-1",          1246,   104.734E-03,   18.0702E-03,            0.,NA,NA,"",   978.809E+03,   983.873E+03,   983.873E+03
C:/temp/Job-3.odb,Step-1,Increment      1: Step Time =    1.000,"P-3-1",          1247,   19.1212E-03,   104.523E-03,            0.,NA,NA,"",   806.198E+03,   894.408E+03,   894.408E+03
C:/temp/Job-3.odb,Step-1,Increment      1: Step Time =    1.000,"P-3-1",          1248,   16.9241E-03,   95.3303E-03,            0.,NA,NA,"",   802.618E+03,   892.792E+03,   892.792E+03
C:/temp/Job-3.odb,Step-1,Increment      1: Step Time =    1.000,"P-3-1",          1249,   95.7225E-03,   18.4615E-03,            0.,NA,NA,"",   980.480E+03,   986.032E+03,   986.032E+03
C:/temp/Job-3.odb,Step-1,Increment      1: Step Time =    1.000,"P-3-1",          1250,   72.5308E-03,   98.1698E-03,            0.,NA,NA,"",   554.560E+03,   584.576E+03,   584.576E+03
C:/temp/Job-3.odb,Step-1,Increment      1: Step Time =    1.000,"P-3-1",          1251,   83.6922E-03,   118.114E-03,            0.,NA,NA,"",   1.31797E+06,   1.24425E+06,   1.24425E+06
C:/temp/Job-3.odb,Step-1,Increment      1: Step Time =    1.000,"P-3-1",          1252,   189.952E-03,   86.5256E-03,            0.,NA,NA,"",   972.439E+03,   996.468E+03,   996.468E+03
C:/temp/Job-3.odb,Step-1,Increment      1: Step Time =    1.000,"P-3-1",          1253,   84.7426E-03,   190.465E-03,            0.,NA,NA,"",   959.760E+03,   961.021E+03,   961.021E+03
C:/temp/Job-3.odb,Step-1,Increment      1: Step Time =    1.000,"P-3-1",          1254,   114.562E-03,   190.256E-03,            0.,NA,NA,"",   962.597E+03,   963.568E+03,   963.568E+03
C:/temp/Job-3.odb,Step-1,Increment      1: Step Time =    1.000,"P-3-1",          1255,   189.613E-03,   117.631E-03,            0.,NA,NA,"",   975.579E+03,   997.629E+03,   997.629E+03
C:/temp/Job-3.odb,Step-1,Increment      1: Step Time =    1.000,"P-3-1",          1256,   85.3939E-03,   9.82082E-03,            0.,NA,NA,"",   960.357E+03,   961.673E+03,   961.673E+03
C:/temp/Job-3.odb,Step-1,Increment      1: Step Time =    1.000,"P-3-1",          1257,   9.88386E-03,   85.7339E-03,            0.,NA,NA,"",   800.363E+03,   896.022E+03,   896.022E+03
C:/temp/Job-3.odb,Step-1,Increment      1: Step Time =    1.000,"P-3-1",          1258,   10.7133E-03,   113.390E-03,            0.,NA,NA,"",   800.972E+03,   895.913E+03,   895.913E+03
C:/temp/Job-3.odb,Step-1,Increment      1: Step Time =    1.000,"P-3-1",          1259,   114.945E-03,   9.90387E-03,            0.,NA,NA,"",   963.529E+03,   964.578E+03,   964.578E+03
C:/temp/Job-3.odb,Step-1,Increment      1: Step Time =    1.000,"P-3-1",          1260,   188.833E-03,   97.7341E-03,            0.,NA,NA,"",   968.230E+03,   993.712E+03,   993.712E+03
C:/temp/Job-3.odb,Step-1,Increment      1: Step Time =    1.000,"P-3-1",          1261,   97.9302E-03,   188.975E-03,            0.,NA,NA,"",   959.081E+03,   961.304E+03,   961.304E+03
C:/temp/Job-3.odb,Step-1,Increment      1: Step Time =    1.000,"P-3-1",          1262,   98.1992E-03,   11.4299E-03,            0.,NA,NA,"",   960.602E+03,   963.023E+03,   963.023E+03
C:/temp/Job-3.odb,Step-1,Increment      1: Step Time =    1.000,"P-3-1",          1263,   13.4401E-03,   97.1076E-03,            0.,NA,NA,"",   796.303E+03,   889.412E+03,   889.412E+03
C:/temp/Job-3.odb,Step-1,Increment      1: Step Time =    1.000,"P-3-1",          1264,   101.258E-03,   188.176E-03,            0.,NA,NA,"",   961.774E+03,   964.206E+03,   964.206E+03
C:/temp/Job-3.odb,Step-1,Increment      1: Step Time =    1.000,"P-3-1",          1265,   188.069E-03,   101.741E-03,            0.,NA,NA,"",   968.562E+03,   993.652E+03,   993.652E+03
C:/temp/Job-3.odb,Step-1,Increment      1: Step Time =    1.000,"P-3-1",          1266,   11.9484E-03,   101.708E-03,            0.,NA,NA,"",   793.549E+03,   887.851E+03,   887.851E+03
C:/temp/Job-3.odb,Step-1,Increment      1: Step Time =    1.000,"P-3-1",          1267,   101.499E-03,   10.9796E-03,            0.,NA,NA,"",   959.360E+03,   961.476E+03,   961.476E+03
C:/temp/Job-3.odb,Step-1,Increment      1: Step Time =    1.000,"P-3-1",          1268,   189.249E-03,   29.9344E-03,            0.,NA,NA,"",   1.00127E+06,   1.00177E+06,   1.00177E+06
C:/temp/Job-3.odb,Step-1,Increment      1: Step Time =    1.000,"P-3-1",          1269,   31.5967E-03,   190.086E-03,            0.,NA,NA,"",   1.05272E+06,   1.05750E+06,   1.05750E+06
C:/temp/Job-3.odb,Step-1,Increment      1: Step Time =    1.000,"P-3-1",          1270,   28.4649E-03,   11.9651E-03,            0.,NA,NA,"",   1.07077E+06,   1.08009E+06,   1.08009E+06
C:/temp/Job-3.odb,Step-1,Increment      1: Step Time =    1.000,"P-3-1",          1271,   12.1952E-03,   29.4296E-03,            0.,NA,NA,"",   983.167E+03,   1.06137E+06,   1.06137E+06
C:/temp/Job-3.odb,Step-1,Increment      1: Step Time =    1.000,"P-3-1",          1272,   170.649E-03,   189.286E-03,            0.,NA,NA,"",   1.00035E+06,   999.813E+03,   999.813E+03
C:/temp/Job-3.odb,Step-1,Increment      1: Step Time =    1.000,"P-3-1",          1273,   188.588E-03,   170.358E-03,            0.,NA,NA,"",   1.00149E+06,   1.00195E+06,   1.00195E+06
C:/temp/Job-3.odb,Step-1,Increment      1: Step Time =    1.000,"P-3-1",          1274,   10.7419E-03,   170.449E-03,            0.,NA,NA,"",   976.244E+03,   1.05856E+06,   1.05856E+06
C:/temp/Job-3.odb,Step-1,Increment      1: Step Time =    1.000,"P-3-1",          1275,   193.128E-03,   134.034E-03,            0.,NA,NA,"",   985.194E+03,   1.00043E+06,   1.00043E+06
C:/temp/Job-3.odb,Step-1,Increment      1: Step Time =    1.000,"P-3-1",          1276,   134.057E-03,   8.13722E-03,            0.,NA,NA,"",   978.798E+03,   978.385E+03,   978.385E+03
C:/temp/Job-3.odb,Step-1,Increment      1: Step Time =    1.000,"P-3-1",          1277,   189.542E-03,   14.0848E-03,            0.,NA,NA,"",   1.00029E+06,   1.00021E+06,   1.00021E+06
C:/temp/Job-3.odb,Step-1,Increment      1: Step Time =    1.000,"P-3-1",          1278,   15.3568E-03,   189.501E-03,            0.,NA,NA,"",   1.14445E+06,   1.16783E+06,   1.16783E+06
C:/temp/Job-3.odb,Step-1,Increment      1: Step Time =    1.000,"P-3-1",          1279,   182.782E-03,   188.549E-03,            0.,NA,NA,"",   1.00035E+06,   1.00020E+06,   1.00020E+06
C:/temp/Job-3.odb,Step-1,Increment      1: Step Time =    1.000,"P-3-1",          1280,   189.420E-03,   186.315E-03,            0.,NA,NA,"",   1.00028E+06,   1.00022E+06,   1.00022E+06
C:/temp/Job-3.odb,Step-1,Increment      1: Step Time =    1.000,"P-3-1",          1281,   15.6895E-03,   11.1696E-03,            0.,NA,NA,"",   1.13621E+06,   1.16177E+06,   1.16177E+06
C:/temp/Job-3.odb,Step-1,Increment      1: Step Time =    1.000,"P-3-1",          1282,   13.7968E-03,   18.3425E-03,            0.,NA,NA,"",   1.07367E+06,   1.12936E+06,   1.12936E+06
C:/temp/Job-3.odb,Step-1,Increment      1: Step Time =    1.000,"P-3-1",          1283,   182.854E-03,   11.0060E-03,            0.,NA,NA,"",   1.00018E+06,   1.00006E+06,   1.00006E+06
C:/temp/Job-3.odb,Step-1,Increment      1: Step Time =    1.000,"P-3-1",          1284,   186.832E-03,   142.913E-03,            0.,NA,NA,"",   996.554E+03,   1.00353E+06,   1.00353E+06
C:/temp/Job-3.odb,Step-1,Increment      1: Step Time =    1.000,"P-3-1",          1285,   143.838E-03,   12.4968E-03,            0.,NA,NA,"",   994.920E+03,   993.447E+03,   993.447E+03
C:/temp/Job-3.odb,Step-1,Increment      1: Step Time =    1.000,"P-3-1",          1286,   186.817E-03,   133.072E-03,            0.,NA,NA,"",   989.938E+03,   1.00145E+06,   1.00145E+06
C:/temp/Job-3.odb,Step-1,Increment      1: Step Time =    1.000,"P-3-1",          1287,   135.161E-03,   15.7002E-03,            0.,NA,NA,"",   995.727E+03,   994.312E+03,   994.312E+03
C:/temp/Job-3.odb,Step-1,Increment      1: Step Time =    1.000,"P-3-1",          1288,   129.143E-03,   102.362E-03,            0.,NA,NA,"",   625.279E+03,   635.745E+03,   635.745E+03
C:/temp/Job-3.odb,Step-1,Increment      1: Step Time =    1.000,"P-3-1",          1289,   99.7727E-03,   71.5710E-03,            0.,NA,NA,"",   1.09811E+06,   1.19659E+06,   1.19659E+06
C:/temp/Job-3.odb,Step-1,Increment      1: Step Time =    1.000,"P-3-1",          1290,   93.9967E-03,   119.979E-03,            0.,NA,NA,"",   1.35309E+06,   1.44498E+06,   1.44498E+06
C:/temp/Job-3.odb,Step-1,Increment      1: Step Time =    1.000,"P-3-1",          1291,   124.524E-03,   109.727E-03,            0.,NA,NA,"",   927.892E+03,   847.606E+03,   847.606E+03
C:/temp/Job-3.odb,Step-1,Increment      1: Step Time =    1.000,"P-3-1",          1292,   73.5073E-03,   89.8536E-03,            0.,NA,NA,"",   871.473E+03,   838.805E+03,   838.805E+03
C:/temp/Job-3.odb,Step-1,Increment      1: Step Time =    1.000,"P-3-1",          1293,   111.689E-03,   74.4256E-03,            0.,NA,NA,"",   1.23869E+06,   1.25674E+06,   1.25674E+06
C:/temp/Job-3.odb,Step-1,Increment      1: Step Time =    1.000,"P-3-1",          1294,   189.289E-03,   189.469E-03,            0.,NA,NA,"",   1.00006E+06,   1.00001E+06,   1.00001E+06
C:/temp/Job-3.odb,Step-1,Increment      1: Step Time =    1.000,"P-3-1",          1295,   185.910E-03,   189.153E-03,            0.,NA,NA,"",   1.00016E+06,   1.00009E+06,   1.00009E+06
C:/temp/Job-3.odb,Step-1,Increment      1: Step Time =    1.000,"P-3-1",          1296,   186.111E-03,   10.6844E-03,            0.,NA,NA,"",   1.00006E+06,   999.991E+03,   999.991E+03
C:/temp/Job-3.odb,Step-1,Increment      1: Step Time =    1.000,"P-3-1",          1297,   11.8128E-03,   189.110E-03,            0.,NA,NA,"",   1.16508E+06,   1.20175E+06,   1.20175E+06
C:/temp/Job-3.odb,Step-1,Increment      1: Step Time =    1.000,"P-3-1",          1298,   10.8082E-03,   14.5391E-03,            0.,NA,NA,"",   1.10808E+06,   1.16564E+06,   1.16564E+06
C:/temp/Job-3.odb,Step-1,Increment      1: Step Time =    1.000,"P-3-1",          1299,   189.856E-03,   120.721E-03,            0.,NA,NA,"",   977.491E+03,   998.313E+03,   998.313E+03
C:/temp/Job-3.odb,Step-1,Increment      1: Step Time =    1.000,"P-3-1",          1300,   117.521E-03,   190.795E-03,            0.,NA,NA,"",   963.660E+03,   964.355E+03,   964.355E+03
C:/temp/Job-3.odb,Step-1,Increment      1: Step Time =    1.000,"P-3-1",          1301,   118.237E-03,   9.82724E-03,            0.,NA,NA,"",   966.336E+03,   967.082E+03,   967.082E+03
C:/temp/Job-3.odb,Step-1,Increment      1: Step Time =    1.000,"P-3-1",          1302,   10.2688E-03,   116.906E-03,            0.,NA,NA,"",   805.733E+03,   900.908E+03,   900.908E+03
C:/temp/Job-3.odb,Step-1,Increment      1: Step Time =    1.000,"P-3-1",          1303,   81.6113E-03,   190.422E-03,            0.,NA,NA,"",   962.461E+03,   963.541E+03,   963.541E+03
C:/temp/Job-3.odb,Step-1,Increment      1: Step Time =    1.000,"P-3-1",          1304,   189.138E-03,   79.9360E-03,            0.,NA,NA,"",   977.415E+03,   997.808E+03,   997.808E+03
C:/temp/Job-3.odb,Step-1,Increment      1: Step Time =    1.000,"P-3-1",          1305,   9.57938E-03,   82.6966E-03,            0.,NA,NA,"",   804.151E+03,   899.993E+03,   899.993E+03
C:/temp/Job-3.odb,Step-1,Increment      1: Step Time =    1.000,"P-3-1",          1306,   82.4057E-03,   9.16038E-03,            0.,NA,NA,"",   960.505E+03,   961.561E+03,   961.561E+03
C:/temp/Job-3.odb,Step-1,Increment      1: Step Time =    1.000,"P-3-1",          1307,   133.075E-03,   105.244E-03,            0.,NA,NA,"",   753.805E+03,   755.798E+03,   755.798E+03
C:/temp/Job-3.odb,Step-1,Increment      1: Step Time =    1.000,"P-3-1",          1308,   112.315E-03,   114.979E-03,            0.,NA,NA,"",   1.40109E+06,   1.32451E+06,   1.32451E+06
C:/temp/Job-3.odb,Step-1,Increment      1: Step Time =    1.000,"P-3-1",          1309,   77.2553E-03,   83.1543E-03,            0.,NA,NA,"",   1.15707E+06,   1.07931E+06,   1.07931E+06
C:/temp/Job-3.odb,Step-1,Increment      1: Step Time =    1.000,"P-3-1",          1310,   191.750E-03,   98.9884E-03,            0.,NA,NA,"",   967.643E+03,   996.412E+03,   996.412E+03
C:/temp/Job-3.odb,Step-1,Increment      1: Step Time =    1.000,"P-3-1",          1311,   97.7460E-03,   7.75551E-03,            0.,NA,NA,"",   948.354E+03,   949.526E+03,   949.526E+03
C:/temp/Job-3.odb,Step-1,Increment      1: Step Time =    1.000,"P-3-1",          1312,   102.006E-03,   192.031E-03,            0.,NA,NA,"",   949.585E+03,   950.752E+03,   950.752E+03
C:/temp/Job-3.odb,Step-1,Increment      1: Step Time =    1.000,"P-3-1",          1313,   9.21990E-03,   104.207E-03,            0.,NA,NA,"",   790.088E+03,   886.252E+03,   886.252E+03
C:/temp/Job-3.odb,Step-1,Increment      1: Step Time =    1.000,"P-3-1",          1314,   192.866E-03,   29.5601E-03,            0.,NA,NA,"",   1.00036E+06,   1.00083E+06,   1.00083E+06
C:/temp/Job-3.odb,Step-1,Increment      1: Step Time =    1.000,"P-3-1",          1315,   27.7301E-03,   7.15915E-03,            0.,NA,NA,"",   1.06135E+06,   1.06484E+06,   1.06484E+06
C:/temp/Job-3.odb,Step-1,Increment      1: Step Time =    1.000,"P-3-1",          1316,   171.200E-03,   192.655E-03,            0.,NA,NA,"",   999.035E+03,   998.771E+03,   998.771E+03
C:/temp/Job-3.odb,Step-1,Increment      1: Step Time =    1.000,"P-3-1",          1317,   192.318E-03,   182.831E-03,            0.,NA,NA,"",   1.00036E+06,   1.00027E+06,   1.00027E+06
C:/temp/Job-3.odb,Step-1,Increment      1: Step Time =    1.000,"P-3-1",          1318,   18.5351E-03,   192.979E-03,            0.,NA,NA,"",   1.12158E+06,   1.13033E+06,   1.13033E+06
C:/temp/Job-3.odb,Step-1,Increment      1: Step Time =    1.000,"P-3-1",          1319,   182.100E-03,   7.62665E-03,            0.,NA,NA,"",   999.695E+03,   999.620E+03,   999.620E+03
C:/temp/Job-3.odb,Step-1,Increment      1: Step Time =    1.000,"P-3-1",          1320,   6.94022E-03,   17.8893E-03,            0.,NA,NA,"",   1.04827E+06,   1.13195E+06,   1.13195E+06
C:/temp/Job-3.odb,Step-1,Increment      1: Step Time =    1.000,"P-3-1",          1321,   192.294E-03,   113.719E-03,            0.,NA,NA,"",   971.396E+03,   997.954E+03,   997.954E+03
C:/temp/Job-3.odb,Step-1,Increment      1: Step Time =    1.000,"P-3-1",          1322,   87.8359E-03,   193.582E-03,            0.,NA,NA,"",   946.226E+03,   946.971E+03,   946.971E+03
C:/temp/Job-3.odb,Step-1,Increment      1: Step Time =    1.000,"P-3-1",          1323,   6.60163E-03,   86.3666E-03,            0.,NA,NA,"",   793.219E+03,   891.275E+03,   891.275E+03
C:/temp/Job-3.odb,Step-1,Increment      1: Step Time =    1.000,"P-3-1",          1324,   182.010E-03,   137.725E-03,            0.,NA,NA,"",   998.100E+03,   1.00444E+06,   1.00444E+06
C:/temp/Job-3.odb,Step-1,Increment      1: Step Time =    1.000,"P-3-1",          1325,   139.065E-03,   18.4632E-03,            0.,NA,NA,"",   1.00381E+06,   1.00137E+06,   1.00137E+06
C:/temp/Job-3.odb,Step-1,Increment      1: Step Time =    1.000,"P-3-1",          1326,   70.9132E-03,   107.414E-03,            0.,NA,NA,"",   759.350E+03,   760.985E+03,   760.985E+03
C:/temp/Job-3.odb,Step-1,Increment      1: Step Time =    1.000,"P-3-1",          1327,   73.8400E-03,   112.831E-03,            0.,NA,NA,"",   976.459E+03,   930.348E+03,   930.348E+03
C:/temp/Job-3.odb,Step-1,Increment      1: Step Time =    1.000,"P-3-1",          1328,   181.708E-03,   178.185E-03,            0.,NA,NA,"",   1.00291E+06,   1.00248E+06,   1.00248E+06
C:/temp/Job-3.odb,Step-1,Increment      1: Step Time =    1.000,"P-3-1",          1329,   175.778E-03,   181.426E-03,            0.,NA,NA,"",   1.00345E+06,   1.00260E+06,   1.00260E+06
C:/temp/Job-3.odb,Step-1,Increment      1: Step Time =    1.000,"P-3-1",          1330,   177.221E-03,   18.7897E-03,            0.,NA,NA,"",   1.00327E+06,   1.00250E+06,   1.00250E+06
C:/temp/Job-3.odb,Step-1,Increment      1: Step Time =    1.000,"P-3-1",          1331,   19.8110E-03,   22.5873E-03,            0.,NA,NA,"",   1.05524E+06,   1.09997E+06,   1.09997E+06
C:/temp/Job-3.odb,Step-1,Increment      1: Step Time =    1.000,"P-3-1",          1332,   24.2647E-03,   16.6071E-03,            0.,NA,NA,"",   1.07851E+06,   1.10119E+06,   1.10119E+06
C:/temp/Job-3.odb,Step-1,Increment      1: Step Time =    1.000,"P-3-1",          1333,   180.010E-03,   104.922E-03,            0.,NA,NA,"",   965.786E+03,   983.996E+03,   983.996E+03
C:/temp/Job-3.odb,Step-1,Increment      1: Step Time =    1.000,"P-3-1",          1334,   106.163E-03,   182.582E-03,            0.,NA,NA,"",   977.758E+03,   982.037E+03,   982.037E+03
C:/temp/Job-3.odb,Step-1,Increment      1: Step Time =    1.000,"P-3-1",          1335,   92.5624E-03,   180.056E-03,            0.,NA,NA,"",   985.116E+03,   991.178E+03,   991.178E+03
C:/temp/Job-3.odb,Step-1,Increment      1: Step Time =    1.000,"P-3-1",          1336,   179.441E-03,   93.2700E-03,            0.,NA,NA,"",   966.829E+03,   984.158E+03,   984.158E+03
C:/temp/Job-3.odb,Step-1,Increment      1: Step Time =    1.000,"P-3-1",          1337,   108.016E-03,   17.4131E-03,            0.,NA,NA,"",   978.620E+03,   982.887E+03,   982.887E+03
C:/temp/Job-3.odb,Step-1,Increment      1: Step Time =    1.000,"P-3-1",          1338,   18.8191E-03,   108.705E-03,            0.,NA,NA,"",   809.814E+03,   897.954E+03,   897.954E+03
C:/temp/Job-3.odb,Step-1,Increment      1: Step Time =    1.000,"P-3-1",          1339,   21.9877E-03,   89.7945E-03,            0.,NA,NA,"",   816.617E+03,   901.635E+03,   901.635E+03
C:/temp/Job-3.odb,Step-1,Increment      1: Step Time =    1.000,"P-3-1",          1340,   92.3240E-03,   16.2287E-03,            0.,NA,NA,"",   975.774E+03,   979.656E+03,   979.656E+03
C:/temp/Job-3.odb,Step-1,Increment      1: Step Time =    1.000,"P-3-1",          1341,   74.0339E-03,   105.585E-03,            0.,NA,NA,"",   668.850E+03,   663.619E+03,   663.619E+03
C:/temp/Job-3.odb,Step-1,Increment      1: Step Time =    1.000,"P-3-1",          1342,   126.708E-03,   106.088E-03,            0.,NA,NA,"",   733.038E+03,   700.944E+03,   700.944E+03
C:/temp/Job-3.odb,Step-1,Increment      1: Step Time =    1.000,"P-3-1",          1343,   94.4837E-03,   73.4241E-03,            0.,NA,NA,"",   1.15975E+06,   1.24413E+06,   1.24413E+06
C:/temp/Job-3.odb,Step-1,Increment      1: Step Time =    1.000,"P-3-1",          1344,   102.810E-03,   70.3919E-03,            0.,NA,NA,"",   1.09309E+06,   1.18090E+06,   1.18090E+06
C:/temp/Job-3.odb,Step-1,Increment      1: Step Time =    1.000,"P-3-1",          1345,   95.3749E-03,   116.003E-03,            0.,NA,NA,"",   1.72078E+06,   1.81566E+06,   1.81566E+06
C:/temp/Job-3.odb,Step-1,Increment      1: Step Time =    1.000,"P-3-1",          1346,   73.0894E-03,   93.2992E-03,            0.,NA,NA,"",   726.429E+03,   721.390E+03,   721.390E+03
C:/temp/Job-3.odb,Step-1,Increment      1: Step Time =    1.000,"P-3-1",          1347,   107.907E-03,   73.9515E-03,            0.,NA,NA,"",   1.19675E+06,   1.25646E+06,   1.25646E+06
C:/temp/Job-3.odb,Step-1,Increment      1: Step Time =    1.000,"P-3-1",          1348,   131.748E-03,   95.3195E-03,            0.,NA,NA,"",   734.279E+03,   735.137E+03,   735.137E+03
C:/temp/Job-3.odb,Step-1,Increment      1: Step Time =    1.000,"P-3-1",          1349,   103.425E-03,   67.6051E-03,            0.,NA,NA,"",   1.07480E+06,   1.15226E+06,   1.15226E+06
C:/temp/Job-3.odb,Step-1,Increment      1: Step Time =    1.000,"P-3-1",          1350,   69.8415E-03,   111.592E-03,            0.,NA,NA,"",   894.920E+03,   880.976E+03,   880.976E+03
C:/temp/Job-3.odb,Step-1,Increment      1: Step Time =    1.000,"P-3-1",          1351,   73.6546E-03,   82.8294E-03,            0.,NA,NA,"",   1.08387E+06,   1.03200E+06,   1.03200E+06
C:/temp/Job-3.odb,Step-1,Increment      1: Step Time =    1.000,"P-3-1",          1352,   73.3627E-03,   116.053E-03,            0.,NA,NA,"",   1.05586E+06,   1.00527E+06,   1.00527E+06
C:/temp/Job-3.odb,Step-1,Increment      1: Step Time =    1.000,"P-3-1",          1353,   192.834E-03,   189.434E-03,            0.,NA,NA,"",   1.00007E+06,   999.985E+03,   999.985E+03
C:/temp/Job-3.odb,Step-1,Increment      1: Step Time =    1.000,"P-3-1",          1354,   186.238E-03,   186.067E-03,            0.,NA,NA,"",   1.00054E+06,   1.00044E+06,   1.00044E+06
C:/temp/Job-3.odb,Step-1,Increment      1: Step Time =    1.000,"P-3-1",          1355,   189.353E-03,   7.17710E-03,            0.,NA,NA,"",   999.823E+03,   999.786E+03,   999.786E+03
C:/temp/Job-3.odb,Step-1,Increment      1: Step Time =    1.000,"P-3-1",          1356,   12.6207E-03,   185.525E-03,            0.,NA,NA,"",   1.11272E+06,   1.16113E+06,   1.16113E+06
C:/temp/Job-3.odb,Step-1,Increment      1: Step Time =    1.000,"P-3-1",          1357,   11.3745E-03,   192.754E-03,            0.,NA,NA,"",   1.20509E+06,   1.22625E+06,   1.22625E+06
C:/temp/Job-3.odb,Step-1,Increment      1: Step Time =    1.000,"P-3-1",          1358,   186.323E-03,   13.9330E-03,            0.,NA,NA,"",   1.00047E+06,   1.00037E+06,   1.00037E+06
C:/temp/Job-3.odb,Step-1,Increment      1: Step Time =    1.000,"P-3-1",          1359,   7.27463E-03,   10.8804E-03,            0.,NA,NA,"",   1.16015E+06,   1.22547E+06,   1.22547E+06
C:/temp/Job-3.odb,Step-1,Increment      1: Step Time =    1.000,"P-3-1",          1360,   14.4966E-03,   15.0578E-03,            0.,NA,NA,"",   1.10908E+06,   1.15191E+06,   1.15191E+06
C:/temp/Job-3.odb,Step-1,Increment      1: Step Time =    1.000,"P-3-1",          1361,   193.225E-03,   120.419E-03,            0.,NA,NA,"",   975.021E+03,   999.164E+03,   999.164E+03
C:/temp/Job-3.odb,Step-1,Increment      1: Step Time =    1.000,"P-3-1",          1362,   115.530E-03,   187.375E-03,            0.,NA,NA,"",   971.585E+03,   973.089E+03,   973.089E+03
C:/temp/Job-3.odb,Step-1,Increment      1: Step Time =    1.000,"P-3-1",          1363,   118.824E-03,   6.61878E-03,            0.,NA,NA,"",   957.817E+03,   958.196E+03,   958.196E+03
C:/temp/Job-3.odb,Step-1,Increment      1: Step Time =    1.000,"P-3-1",          1364,   13.7095E-03,   117.666E-03,            0.,NA,NA,"",   814.375E+03,   906.476E+03,   906.476E+03
C:/temp/Job-3.odb,Step-1,Increment      1: Step Time =    1.000,"P-3-1",          1365,   81.0673E-03,   193.582E-03,            0.,NA,NA,"",   951.141E+03,   951.689E+03,   951.689E+03
C:/temp/Job-3.odb,Step-1,Increment      1: Step Time =    1.000,"P-3-1",          1366,   186.181E-03,   83.5985E-03,            0.,NA,NA,"",   975.730E+03,   995.063E+03,   995.063E+03
C:/temp/Job-3.odb,Step-1,Increment      1: Step Time =    1.000,"P-3-1",          1367,   6.58345E-03,   79.5715E-03,            0.,NA,NA,"",   803.179E+03,   901.296E+03,   901.296E+03
C:/temp/Job-3.odb,Step-1,Increment      1: Step Time =    1.000,"P-3-1",          1368,   84.2703E-03,   12.9534E-03,            0.,NA,NA,"",   971.678E+03,   973.773E+03,   973.773E+03
C:/temp/Job-3.odb,Step-1,Increment      1: Step Time =    1.000,"P-3-1",          1369,   135.530E-03,   98.7936E-03,            0.,NA,NA,"",   740.057E+03,   753.758E+03,   753.758E+03
C:/temp/Job-3.odb,Step-1,Increment      1: Step Time =    1.000,"P-3-1",          1370,   115.485E-03,   117.302E-03,            0.,NA,NA,"",   1.35356E+06,   1.26202E+06,   1.26202E+06
C:/temp/Job-3.odb,Step-1,Increment      1: Step Time =    1.000,"P-3-1",          1371,   97.3299E-03,   121.154E-03,            0.,NA,NA,"",   1.27347E+06,   1.40014E+06,   1.40014E+06
C:/temp/Job-3.odb,Step-1,Increment      1: Step Time =    1.000,"P-3-1",          1372,   183.086E-03,   134.861E-03,            0.,NA,NA,"",   994.807E+03,   1.00303E+06,   1.00303E+06
C:/temp/Job-3.odb,Step-1,Increment      1: Step Time =    1.000,"P-3-1",          1373,   177.351E-03,   139.165E-03,            0.,NA,NA,"",   1.00510E+06,   1.00757E+06,   1.00757E+06
C:/temp/Job-3.odb,Step-1,Increment      1: Step Time =    1.000,"P-3-1",          1374,   143.243E-03,   20.6619E-03,            0.,NA,NA,"",   1.00992E+06,   1.00649E+06,   1.00649E+06
C:/temp/Job-3.odb,Step-1,Increment      1: Step Time =    1.000,"P-3-1",          1375,   135.997E-03,   19.3637E-03,            0.,NA,NA,"",   1.00434E+06,   1.00215E+06,   1.00215E+06
C:/temp/Job-3.odb,Step-1,Increment      1: Step Time =    1.000,"P-3-1",          1376,   183.489E-03,   181.710E-03,            0.,NA,NA,"",   1.00159E+06,   1.00134E+06,   1.00134E+06
C:/temp/Job-3.odb,Step-1,Increment      1: Step Time =    1.000,"P-3-1",          1377,   179.603E-03,   175.099E-03,            0.,NA,NA,"",   1.00475E+06,   1.00399E+06,   1.00399E+06
C:/temp/Job-3.odb,Step-1,Increment      1: Step Time =    1.000,"P-3-1",          1378,   179.838E-03,   182.554E-03,            0.,NA,NA,"",   1.00210E+06,   1.00165E+06,   1.00165E+06
C:/temp/Job-3.odb,Step-1,Increment      1: Step Time =    1.000,"P-3-1",          1379,   173.716E-03,   179.021E-03,            0.,NA,NA,"",   1.00533E+06,   1.00404E+06,   1.00404E+06
C:/temp/Job-3.odb,Step-1,Increment      1: Step Time =    1.000,"P-3-1",          1380,   21.6716E-03,   180.733E-03,            0.,NA,NA,"",   1.07458E+06,   1.10772E+06,   1.10772E+06
C:/temp/Job-3.odb,Step-1,Increment      1: Step Time =    1.000,"P-3-1",          1381,   24.0426E-03,   177.081E-03,            0.,NA,NA,"",   1.05491E+06,   1.09069E+06,   1.09069E+06
C:/temp/Job-3.odb,Step-1,Increment      1: Step Time =    1.000,"P-3-1",          1382,   181.311E-03,   20.1598E-03,            0.,NA,NA,"",   1.00263E+06,   1.00217E+06,   1.00217E+06
C:/temp/Job-3.odb,Step-1,Increment      1: Step Time =    1.000,"P-3-1",          1383,   179.526E-03,   24.8230E-03,            0.,NA,NA,"",   1.00468E+06,   1.00389E+06,   1.00389E+06
C:/temp/Job-3.odb,Step-1,Increment      1: Step Time =    1.000,"P-3-1",          1384,   174.900E-03,   20.9899E-03,            0.,NA,NA,"",   1.00488E+06,   1.00372E+06,   1.00372E+06
C:/temp/Job-3.odb,Step-1,Increment      1: Step Time =    1.000,"P-3-1",          1385,   180.063E-03,   16.9074E-03,            0.,NA,NA,"",   1.00184E+06,   1.00143E+06,   1.00143E+06
C:/temp/Job-3.odb,Step-1,Increment      1: Step Time =    1.000,"P-3-1",          1386,   15.6099E-03,   178.982E-03,            0.,NA,NA,"",   1.05342E+06,   1.10815E+06,   1.10815E+06
C:/temp/Job-3.odb,Step-1,Increment      1: Step Time =    1.000,"P-3-1",          1387,   19.5262E-03,   173.372E-03,            0.,NA,NA,"",   1.02854E+06,   1.08160E+06,   1.08160E+06
C:/temp/Job-3.odb,Step-1,Increment      1: Step Time =    1.000,"P-3-1",          1388,   19.8223E-03,   25.0841E-03,            0.,NA,NA,"",   1.03743E+06,   1.08754E+06,   1.08754E+06
C:/temp/Job-3.odb,Step-1,Increment      1: Step Time =    1.000,"P-3-1",          1389,   27.7617E-03,   20.6012E-03,            0.,NA,NA,"",   1.06230E+06,   1.08617E+06,   1.08617E+06
C:/temp/Job-3.odb,Step-1,Increment      1: Step Time =    1.000,"P-3-1",          1390,   16.9413E-03,   19.2200E-03,            0.,NA,NA,"",   1.07450E+06,   1.12005E+06,   1.12005E+06
C:/temp/Job-3.odb,Step-1,Increment      1: Step Time =    1.000,"P-3-1",          1391,   21.9621E-03,   15.0885E-03,            0.,NA,NA,"",   1.09017E+06,   1.11352E+06,   1.11352E+06
C:/temp/Job-3.odb,Step-1,Increment      1: Step Time =    1.000,"P-3-1",          1392,   179.692E-03,   111.750E-03,            0.,NA,NA,"",   970.727E+03,   986.848E+03,   986.848E+03
C:/temp/Job-3.odb,Step-1,Increment      1: Step Time =    1.000,"P-3-1",          1393,   113.148E-03,   183.107E-03,            0.,NA,NA,"",   979.883E+03,   982.931E+03,   982.931E+03
C:/temp/Job-3.odb,Step-1,Increment      1: Step Time =    1.000,"P-3-1",          1394,   178.106E-03,   102.084E-03,            0.,NA,NA,"",   963.068E+03,   980.356E+03,   980.356E+03
C:/temp/Job-3.odb,Step-1,Increment      1: Step Time =    1.000,"P-3-1",          1395,   103.436E-03,   176.713E-03,            0.,NA,NA,"",   989.664E+03,   997.615E+03,   997.615E+03
C:/temp/Job-3.odb,Step-1,Increment      1: Step Time =    1.000,"P-3-1",          1396,   97.1800E-03,   177.032E-03,            0.,NA,NA,"",   989.334E+03,   997.666E+03,   997.666E+03
C:/temp/Job-3.odb,Step-1,Increment      1: Step Time =    1.000,"P-3-1",          1397,   84.9915E-03,   183.986E-03,            0.,NA,NA,"",   980.426E+03,   983.605E+03,   983.605E+03
C:/temp/Job-3.odb,Step-1,Increment      1: Step Time =    1.000,"P-3-1",          1398,   183.588E-03,   88.9008E-03,            0.,NA,NA,"",   971.866E+03,   991.127E+03,   991.127E+03
C:/temp/Job-3.odb,Step-1,Increment      1: Step Time =    1.000,"P-3-1",          1399,   178.898E-03,   97.3364E-03,            0.,NA,NA,"",   964.160E+03,   981.871E+03,   981.871E+03
C:/temp/Job-3.odb,Step-1,Increment      1: Step Time =    1.000,"P-3-1",          1400,   111.253E-03,   16.8253E-03,            0.,NA,NA,"",   979.127E+03,   982.490E+03,   982.490E+03
C:/temp/Job-3.odb,Step-1,Increment      1: Step Time =    1.000,"P-3-1",          1401,   104.989E-03,   21.8074E-03,            0.,NA,NA,"",   986.995E+03,   993.991E+03,   993.991E+03
C:/temp/Job-3.odb,Step-1,Increment      1: Step Time =    1.000,"P-3-1",          1402,   16.7367E-03,   110.487E-03,            0.,NA,NA,"",   808.036E+03,   898.192E+03,   898.192E+03
C:/temp/Job-3.odb,Step-1,Increment      1: Step Time =    1.000,"P-3-1",          1403,   23.7510E-03,   105.271E-03,            0.,NA,NA,"",   813.337E+03,   897.029E+03,   897.029E+03
C:/temp/Job-3.odb,Step-1,Increment      1: Step Time =    1.000,"P-3-1",          1404,   18.1244E-03,   88.7282E-03,            0.,NA,NA,"",   811.906E+03,   900.484E+03,   900.484E+03
C:/temp/Job-3.odb,Step-1,Increment      1: Step Time =    1.000,"P-3-1",          1405,   21.7762E-03,   96.0748E-03,            0.,NA,NA,"",   809.366E+03,   895.056E+03,   895.056E+03
C:/temp/Job-3.odb,Step-1,Increment      1: Step Time =    1.000,"P-3-1",          1406,   88.2720E-03,   18.0970E-03,            0.,NA,NA,"",   983.331E+03,   987.946E+03,   987.946E+03
C:/temp/Job-3.odb,Step-1,Increment      1: Step Time =    1.000,"P-3-1",          1407,   98.0262E-03,   21.7187E-03,            0.,NA,NA,"",   986.428E+03,   993.692E+03,   993.692E+03
C:/temp/Job-3.odb,Step-1,Increment      1: Step Time =    1.000,"P-3-1",          1408,   127.483E-03,   109.370E-03,            0.,NA,NA,"",   884.126E+03,   831.453E+03,   831.453E+03
C:/temp/Job-3.odb,Step-1,Increment      1: Step Time =    1.000,"P-3-1",          1409,   191.910E-03,   103.254E-03,            0.,NA,NA,"",   967.793E+03,   996.429E+03,   996.429E+03
C:/temp/Job-3.odb,Step-1,Increment      1: Step Time =    1.000,"P-3-1",          1410,   8.42674E-03,   96.1084E-03,            0.,NA,NA,"",   788.465E+03,   885.214E+03,   885.214E+03
C:/temp/Job-3.odb,Step-1,Increment      1: Step Time =    1.000,"P-3-1",          1411,   77.2035E-03,   103.570E-03,            0.,NA,NA,"",   513.159E+03,   500.834E+03,   500.834E+03
C:/temp/Job-3.odb,Step-1,Increment      1: Step Time =    1.000,"P-3-1",          1412,   96.1206E-03,   69.9189E-03,            0.,NA,NA,"",   1.09658E+06,   1.18131E+06,   1.18131E+06
C:/temp/Job-3.odb,Step-1,Increment      1: Step Time =    1.000,"P-3-1",          1413,   95.5985E-03,   78.6182E-03,            0.,NA,NA,"",   1.28266E+06,   1.39679E+06,   1.39679E+06
C:/temp/Job-3.odb,Step-1,Increment      1: Step Time =    1.000,"P-3-1",          1414,   70.4113E-03,   89.2533E-03,            0.,NA,NA,"",   862.606E+03,   852.123E+03,   852.123E+03
C:/temp/Job-3.odb,Step-1,Increment      1: Step Time =    1.000,"P-3-1",          1415,   135.520E-03,   95.7227E-03,            0.,NA,NA,"",   774.720E+03,   781.030E+03,   781.030E+03
C:/temp/Job-3.odb,Step-1,Increment      1: Step Time =    1.000,"P-3-1",          1416,   127.907E-03,   95.7746E-03,            0.,NA,NA,"",   673.791E+03,   665.695E+03,   665.695E+03
C:/temp/Job-3.odb,Step-1,Increment      1: Step Time =    1.000,"P-3-1",          1417,   71.8083E-03,   102.798E-03,            0.,NA,NA,"",   581.651E+03,   610.648E+03,   610.648E+03
C:/temp/Job-3.odb,Step-1,Increment      1: Step Time =    1.000,"P-3-1",          1418,   185.645E-03,   80.5981E-03,            0.,NA,NA,"",   978.649E+03,   996.070E+03,   996.070E+03
C:/temp/Job-3.odb,Step-1,Increment      1: Step Time =    1.000,"P-3-1",          1419,   118.141E-03,   187.791E-03,            0.,NA,NA,"",   972.360E+03,   973.485E+03,   973.485E+03
C:/temp/Job-3.odb,Step-1,Increment      1: Step Time =    1.000,"P-3-1",          1420,   81.6783E-03,   12.0446E-03,            0.,NA,NA,"",   971.022E+03,   972.668E+03,   972.668E+03
C:/temp/Job-3.odb,Step-1,Increment      1: Step Time =    1.000,"P-3-1",          1421,   13.0336E-03,   120.605E-03,            0.,NA,NA,"",   818.476E+03,   910.998E+03,   910.998E+03
C:/temp/Job-3.odb,Step-1,Increment      1: Step Time =    1.000,"P-3-1",          1422,   66.6843E-03,   90.0264E-03,            0.,NA,NA,"",   835.775E+03,   845.524E+03,   845.524E+03
C:/temp/Job-3.odb,Step-1,Increment      1: Step Time =    1.000,"P-3-1",          1423,   109.744E-03,   69.4611E-03,            0.,NA,NA,"",   1.15188E+06,   1.19317E+06,   1.19317E+06
C:/temp/Job-3.odb,Step-1,Increment      1: Step Time =    1.000,"P-3-1",          1424,   131.306E-03,   112.165E-03,            0.,NA,NA,"",   947.337E+03,   903.746E+03,   903.746E+03
C:/temp/Job-3.odb,Step-1,Increment      1: Step Time =    1.000,"P-3-1",          1425,   80.4916E-03,   14.8334E-03,            0.,NA,NA,"",   981.018E+03,   983.179E+03,   983.179E+03
C:/temp/Job-3.odb,Step-1,Increment      1: Step Time =    1.000,"P-3-1",          1426,   182.141E-03,   80.8031E-03,            0.,NA,NA,"",   979.112E+03,   993.915E+03,   993.915E+03
C:/temp/Job-3.odb,Step-1,Increment      1: Step Time =    1.000,"P-3-1",          1427,   15.6820E-03,   120.972E-03,            0.,NA,NA,"",   825.098E+03,   914.864E+03,   914.864E+03
C:/temp/Job-3.odb,Step-1,Increment      1: Step Time =    1.000,"P-3-1",          1428,   119.100E-03,   184.301E-03,            0.,NA,NA,"",   982.077E+03,   983.576E+03,   983.576E+03
C:/temp/Job-3.odb,Step-1,Increment      1: Step Time =    1.000,"P-3-1",          1429,   128.030E-03,   112.653E-03,            0.,NA,NA,"",   991.384E+03,   926.627E+03,   926.627E+03
C:/temp/Job-3.odb,Step-1,Increment      1: Step Time =    1.000,"P-3-1",          1430,   101.037E-03,   64.1359E-03,            0.,NA,NA,"",   1.04991E+06,   1.11997E+06,   1.11997E+06
C:/temp/Job-3.odb,Step-1,Increment      1: Step Time =    1.000,"P-3-1",          1431,   73.7138E-03,   86.4339E-03,            0.,NA,NA,"",   994.802E+03,   946.552E+03,   946.552E+03
C:/temp/Job-3.odb,Step-1,Increment      1: Step Time =    1.000,"P-3-1",          1432,   75.5776E-03,   120.136E-03,            0.,NA,NA,"",   1.16724E+06,   1.11044E+06,   1.11044E+06
C:/temp/Job-3.odb,Step-1,Increment      1: Step Time =    1.000,"P-3-1",          1433,   139.181E-03,   96.2509E-03,            0.,NA,NA,"",   807.792E+03,   817.027E+03,   817.027E+03
C:/temp/Job-3.odb,Step-1,Increment      1: Step Time =    1.000,"P-3-1",          1434,   136.188E-03,   104.880E-03,            0.,NA,NA,"",   780.641E+03,   787.921E+03,   787.921E+03
C:/temp/Job-3.odb,Step-1,Increment      1: Step Time =    1.000,"P-3-1",          1435,   113.245E-03,   119.827E-03,            0.,NA,NA,"",   1.35561E+06,   1.31648E+06,   1.31648E+06
C:/temp/Job-3.odb,Step-1,Increment      1: Step Time =    1.000,"P-3-1",          1436,   117.285E-03,   114.653E-03,            0.,NA,NA,"",   1.30241E+06,   1.17162E+06,   1.17162E+06
C:/temp/Job-3.odb,Step-1,Increment      1: Step Time =    1.000,"P-3-1",          1437,   180.214E-03,   133.114E-03,            0.,NA,NA,"",   995.867E+03,   1.00290E+06,   1.00290E+06
C:/temp/Job-3.odb,Step-1,Increment      1: Step Time =    1.000,"P-3-1",          1438,   178.173E-03,   144.594E-03,            0.,NA,NA,"",   1.00777E+06,   1.00910E+06,   1.00910E+06
C:/temp/Job-3.odb,Step-1,Increment      1: Step Time =    1.000,"P-3-1",          1439,   145.983E-03,   19.8592E-03,            0.,NA,NA,"",   1.00876E+06,   1.00542E+06,   1.00542E+06
C:/temp/Job-3.odb,Step-1,Increment      1: Step Time =    1.000,"P-3-1",          1440,   136.618E-03,   22.9958E-03,            0.,NA,NA,"",   1.01266E+06,   1.00957E+06,   1.00957E+06
C:/temp/Job-3.odb,Step-1,Increment      1: Step Time =    1.000,"P-3-1",          1441,   178.575E-03,   179.712E-03,            0.,NA,NA,"",   1.00345E+06,   1.00275E+06,   1.00275E+06
C:/temp/Job-3.odb,Step-1,Increment      1: Step Time =    1.000,"P-3-1",          1442,   180.938E-03,   170.517E-03,            0.,NA,NA,"",   1.00536E+06,   1.00479E+06,   1.00479E+06
C:/temp/Job-3.odb,Step-1,Increment      1: Step Time =    1.000,"P-3-1",          1443,   170.509E-03,   181.680E-03,            0.,NA,NA,"",   1.00470E+06,   1.00333E+06,   1.00333E+06
C:/temp/Job-3.odb,Step-1,Increment      1: Step Time =    1.000,"P-3-1",          1444,   27.4111E-03,   180.387E-03,            0.,NA,NA,"",   1.06591E+06,   1.08832E+06,   1.08832E+06
C:/temp/Job-3.odb,Step-1,Increment      1: Step Time =    1.000,"P-3-1",          1445,   178.786E-03,   28.8394E-03,            0.,NA,NA,"",   1.00637E+06,   1.00538E+06,   1.00538E+06
C:/temp/Job-3.odb,Step-1,Increment      1: Step Time =    1.000,"P-3-1",          1446,   18.6199E-03,   179.766E-03,            0.,NA,NA,"",   1.06612E+06,   1.10959E+06,   1.10959E+06
C:/temp/Job-3.odb,Step-1,Increment      1: Step Time =    1.000,"P-3-1",          1447,   179.051E-03,   21.1443E-03,            0.,NA,NA,"",   1.00367E+06,   1.00294E+06,   1.00294E+06
C:/temp/Job-3.odb,Step-1,Increment      1: Step Time =    1.000,"P-3-1",          1448,   170.260E-03,   21.3014E-03,            0.,NA,NA,"",   1.00664E+06,   1.00488E+06,   1.00488E+06
C:/temp/Job-3.odb,Step-1,Increment      1: Step Time =    1.000,"P-3-1",          1449,   19.4808E-03,   170.072E-03,            0.,NA,NA,"",   1.01044E+06,   1.06811E+06,   1.06811E+06
C:/temp/Job-3.odb,Step-1,Increment      1: Step Time =    1.000,"P-3-1",          1450,   20.6530E-03,   17.4425E-03,            0.,NA,NA,"",   1.08326E+06,   1.11402E+06,   1.11402E+06
C:/temp/Job-3.odb,Step-1,Increment      1: Step Time =    1.000,"P-3-1",          1451,   29.9315E-03,   18.7975E-03,            0.,NA,NA,"",   1.06266E+06,   1.08044E+06,   1.08044E+06
C:/temp/Job-3.odb,Step-1,Increment      1: Step Time =    1.000,"P-3-1",          1452,   19.2059E-03,   30.6398E-03,            0.,NA,NA,"",   1.00665E+06,   1.06613E+06,   1.06613E+06
C:/temp/Job-3.odb,Step-1,Increment      1: Step Time =    1.000,"P-3-1",          1453,   181.031E-03,   100.387E-03,            0.,NA,NA,"",   965.647E+03,   984.855E+03,   984.855E+03
C:/temp/Job-3.odb,Step-1,Increment      1: Step Time =    1.000,"P-3-1",          1454,   99.5999E-03,   179.907E-03,            0.,NA,NA,"",   982.829E+03,   989.460E+03,   989.460E+03
C:/temp/Job-3.odb,Step-1,Increment      1: Step Time =    1.000,"P-3-1",          1455,   111.851E-03,   180.460E-03,            0.,NA,NA,"",   985.125E+03,   989.325E+03,   989.325E+03
C:/temp/Job-3.odb,Step-1,Increment      1: Step Time =    1.000,"P-3-1",          1456,   179.962E-03,   90.7718E-03,            0.,NA,NA,"",   968.705E+03,   985.759E+03,   985.759E+03
C:/temp/Job-3.odb,Step-1,Increment      1: Step Time =    1.000,"P-3-1",          1457,   101.546E-03,   18.5066E-03,            0.,NA,NA,"",   979.120E+03,   984.660E+03,   984.660E+03
C:/temp/Job-3.odb,Step-1,Increment      1: Step Time =    1.000,"P-3-1",          1458,   20.0277E-03,   100.273E-03,            0.,NA,NA,"",   805.953E+03,   893.463E+03,   893.463E+03
C:/temp/Job-3.odb,Step-1,Increment      1: Step Time =    1.000,"P-3-1",          1459,   20.7017E-03,   110.986E-03,            0.,NA,NA,"",   816.768E+03,   902.504E+03,   902.504E+03
C:/temp/Job-3.odb,Step-1,Increment      1: Step Time =    1.000,"P-3-1",          1460,   90.2739E-03,   22.0992E-03,            0.,NA,NA,"",   991.126E+03,   997.974E+03,   997.974E+03
C:/temp/Job-3.odb,Step-1,Increment      1: Step Time =    1.000,"P-3-1",          1461,   91.4959E-03,   71.5937E-03,            0.,NA,NA,"",   1.16573E+06,   1.22122E+06,   1.22122E+06
C:/temp/Job-3.odb,Step-1,Increment      1: Step Time =    1.000,"P-3-1",          1462,   112.843E-03,   70.7142E-03,            0.,NA,NA,"",   1.19306E+06,   1.20835E+06,   1.20835E+06
C:/temp/Job-3.odb,Step-1,Increment      1: Step Time =    1.000,"P-3-1",          1463,   65.1530E-03,   112.058E-03,            0.,NA,NA,"",   872.410E+03,   881.716E+03,   881.716E+03
C:/temp/Job-3.odb,Step-1,Increment      1: Step Time =    1.000,"P-3-1",          1464,   9.63939E-03,   79.5883E-03,            0.,NA,NA,"",   809.950E+03,   905.495E+03,   905.495E+03
C:/temp/Job-3.odb,Step-1,Increment      1: Step Time =    1.000,"P-3-1",          1465,   78.5851E-03,   190.184E-03,            0.,NA,NA,"",   966.242E+03,   967.146E+03,   967.146E+03
C:/temp/Job-3.odb,Step-1,Increment      1: Step Time =    1.000,"P-3-1",          1466,   121.437E-03,   9.99637E-03,            0.,NA,NA,"",   969.980E+03,   970.430E+03,   970.430E+03
C:/temp/Job-3.odb,Step-1,Increment      1: Step Time =    1.000,"P-3-1",          1467,   11.1995E-03,   10.9678E-03,            0.,NA,NA,"",   1.16465E+06,   1.20557E+06,   1.20557E+06
C:/temp/Job-3.odb,Step-1,Increment      1: Step Time =    1.000,"P-3-1",          1468,   189.508E-03,   10.6488E-03,            0.,NA,NA,"",   1.00004E+06,   999.974E+03,   999.974E+03
C:/temp/Job-3.odb,Step-1,Increment      1: Step Time =    1.000,"P-3-1",          1469,   177.063E-03,   112.248E-03,            0.,NA,NA,"",   970.090E+03,   984.346E+03,   984.346E+03
C:/temp/Job-3.odb,Step-1,Increment      1: Step Time =    1.000,"P-3-1",          1470,   87.5859E-03,   180.713E-03,            0.,NA,NA,"",   987.010E+03,   991.945E+03,   991.945E+03
C:/temp/Job-3.odb,Step-1,Increment      1: Step Time =    1.000,"P-3-1",          1471,   111.335E-03,   20.0671E-03,            0.,NA,NA,"",   986.708E+03,   991.201E+03,   991.201E+03
C:/temp/Job-3.odb,Step-1,Increment      1: Step Time =    1.000,"P-3-1",          1472,   22.1172E-03,   86.8892E-03,            0.,NA,NA,"",   822.272E+03,   906.494E+03,   906.494E+03
C:/temp/Job-3.odb,Step-1,Increment      1: Step Time =    1.000,"P-3-1",          1473,   8.07597E-03,   188.716E-03,            0.,NA,NA,"",   1.15750E+06,   1.21836E+06,   1.21836E+06
C:/temp/Job-3.odb,Step-1,Increment      1: Step Time =    1.000,"P-3-1",          1474,   11.1156E-03,   7.28137E-03,            0.,NA,NA,"",   1.20812E+06,   1.23047E+06,   1.23047E+06
C:/temp/Job-3.odb,Step-1,Increment      1: Step Time =    1.000,"P-3-1",          1475,   189.052E-03,   192.880E-03,            0.,NA,NA,"",   999.833E+03,   999.803E+03,   999.803E+03
C:/temp/Job-3.odb,Step-1,Increment      1: Step Time =    1.000,"P-3-1",          1476,   192.973E-03,   10.7181E-03,            0.,NA,NA,"",   1.00007E+06,   999.973E+03,   999.973E+03
C:/temp/Job-3.odb,Step-1,Increment      1: Step Time =    1.000,"P-3-1",          1477,   32.2203E-03,   16.8281E-03,            0.,NA,NA,"",   1.05959E+06,   1.07179E+06,   1.07179E+06
C:/temp/Job-3.odb,Step-1,Increment      1: Step Time =    1.000,"P-3-1",          1478,   19.1201E-03,   34.8917E-03,            0.,NA,NA,"",   984.361E+03,   1.04915E+06,   1.04915E+06
C:/temp/Job-3.odb,Step-1,Increment      1: Step Time =    1.000,"P-3-1",          1479,   17.0562E-03,   165.886E-03,            0.,NA,NA,"",   981.120E+03,   1.04993E+06,   1.04993E+06
C:/temp/Job-3.odb,Step-1,Increment      1: Step Time =    1.000,"P-3-1",          1480,   167.819E-03,   18.7518E-03,            0.,NA,NA,"",   1.00559E+06,   1.00388E+06,   1.00388E+06
C:/temp/Job-3.odb,Step-1,Increment      1: Step Time =    1.000,"P-3-1",          1481,   179.608E-03,   32.0962E-03,            0.,NA,NA,"",   1.00693E+06,   1.00607E+06,   1.00607E+06
C:/temp/Job-3.odb,Step-1,Increment      1: Step Time =    1.000,"P-3-1",          1482,   31.5858E-03,   181.096E-03,            0.,NA,NA,"",   1.06049E+06,   1.07620E+06,   1.07620E+06
C:/temp/Job-3.odb,Step-1,Increment      1: Step Time =    1.000,"P-3-1",          1483,   166.442E-03,   182.512E-03,            0.,NA,NA,"",   1.00506E+06,   1.00336E+06,   1.00336E+06
C:/temp/Job-3.odb,Step-1,Increment      1: Step Time =    1.000,"P-3-1",          1484,   179.167E-03,   164.401E-03,            0.,NA,NA,"",   1.00818E+06,   1.00732E+06,   1.00732E+06
C:/temp/Job-3.odb,Step-1,Increment      1: Step Time =    1.000,"P-3-1",          1485,   120.651E-03,   13.0794E-03,            0.,NA,NA,"",   977.370E+03,   978.219E+03,   978.219E+03
C:/temp/Job-3.odb,Step-1,Increment      1: Step Time =    1.000,"P-3-1",          1486,   186.467E-03,   120.977E-03,            0.,NA,NA,"",   979.461E+03,   997.133E+03,   997.133E+03
C:/temp/Job-3.odb,Step-1,Increment      1: Step Time =    1.000,"P-3-1",          1487,   12.6479E-03,   82.0746E-03,            0.,NA,NA,"",   812.068E+03,   905.192E+03,   905.192E+03
C:/temp/Job-3.odb,Step-1,Increment      1: Step Time =    1.000,"P-3-1",          1488,   79.2754E-03,   187.119E-03,            0.,NA,NA,"",   976.333E+03,   977.935E+03,   977.935E+03
C:/temp/Job-3.odb,Step-1,Increment      1: Step Time =    1.000,"P-3-1",          1489,   123.278E-03,   13.4276E-03,            0.,NA,NA,"",   980.694E+03,   981.192E+03,   981.192E+03
C:/temp/Job-3.odb,Step-1,Increment      1: Step Time =    1.000,"P-3-1",          1490,   190.015E-03,   123.899E-03,            0.,NA,NA,"",   979.735E+03,   998.964E+03,   998.964E+03
C:/temp/Job-3.odb,Step-1,Increment      1: Step Time =    1.000,"P-3-1",          1491,   10.4472E-03,   76.4721E-03,            0.,NA,NA,"",   817.876E+03,   912.654E+03,   912.654E+03
C:/temp/Job-3.odb,Step-1,Increment      1: Step Time =    1.000,"P-3-1",          1492,   76.8141E-03,   186.888E-03,            0.,NA,NA,"",   979.752E+03,   981.203E+03,   981.203E+03
C:/temp/Job-3.odb,Step-1,Increment      1: Step Time =    1.000,"P-3-1",          1493,   89.9903E-03,   74.3208E-03,            0.,NA,NA,"",   1.22278E+06,   1.26277E+06,   1.26277E+06
C:/temp/Job-3.odb,Step-1,Increment      1: Step Time =    1.000,"P-3-1",          1494,   87.2487E-03,   21.2767E-03,            0.,NA,NA,"",   992.147E+03,   998.079E+03,   998.079E+03
C:/temp/Job-3.odb,Step-1,Increment      1: Step Time =    1.000,"P-3-1",          1495,   19.9786E-03,   84.6743E-03,            0.,NA,NA,"",   822.894E+03,   909.027E+03,   909.027E+03
C:/temp/Job-3.odb,Step-1,Increment      1: Step Time =    1.000,"P-3-1",          1496,   18.5326E-03,   112.888E-03,            0.,NA,NA,"",   815.620E+03,   903.524E+03,   903.524E+03
C:/temp/Job-3.odb,Step-1,Increment      1: Step Time =    1.000,"P-3-1",          1497,   114.265E-03,   19.5494E-03,            0.,NA,NA,"",   987.497E+03,   991.003E+03,   991.003E+03
C:/temp/Job-3.odb,Step-1,Increment      1: Step Time =    1.000,"P-3-1",          1498,   184.231E-03,   86.6624E-03,            0.,NA,NA,"",   973.453E+03,   992.471E+03,   992.471E+03
C:/temp/Job-3.odb,Step-1,Increment      1: Step Time =    1.000,"P-3-1",          1499,   84.9545E-03,   180.712E-03,            0.,NA,NA,"",   989.282E+03,   993.775E+03,   993.775E+03
C:/temp/Job-3.odb,Step-1,Increment      1: Step Time =    1.000,"P-3-1",          1500,   115.558E-03,   182.146E-03,            0.,NA,NA,"",   984.585E+03,   987.516E+03,   987.516E+03
C:/temp/Job-3.odb,Step-1,Increment      1: Step Time =    1.000,"P-3-1",          1501,   179.956E-03,   114.583E-03,            0.,NA,NA,"",   973.915E+03,   989.194E+03,   989.194E+03
C:/temp/Job-3.odb,Step-1,Increment      1: Step Time =    1.000,"P-3-1",          1502,   66.0245E-03,   94.1557E-03,            0.,NA,NA,"",   737.085E+03,   766.530E+03,   766.530E+03
C:/temp/Job-3.odb,Step-1,Increment      1: Step Time =    1.000,"P-3-1",          1503,   107.492E-03,   64.5419E-03,            0.,NA,NA,"",   1.08592E+06,   1.13713E+06,   1.13713E+06
C:/temp/Job-3.odb,Step-1,Increment      1: Step Time =    1.000,"P-3-1",          1504,   134.640E-03,   111.542E-03,            0.,NA,NA,"",   914.852E+03,   889.145E+03,   889.145E+03
C:/temp/Job-3.odb,Step-1,Increment      1: Step Time =    1.000,"P-3-1",          1505,   89.4856E-03,   25.3517E-03,            0.,NA,NA,"",   998.989E+03,   1.00766E+06,   1.00766E+06
C:/temp/Job-3.odb,Step-1,Increment      1: Step Time =    1.000,"P-3-1",          1506,   25.8304E-03,   87.8434E-03,            0.,NA,NA,"",   827.202E+03,   907.244E+03,   907.244E+03
C:/temp/Job-3.odb,Step-1,Increment      1: Step Time =    1.000,"P-3-1",          1507,   24.9017E-03,   112.053E-03,            0.,NA,NA,"",   824.732E+03,   906.212E+03,   906.212E+03
C:/temp/Job-3.odb,Step-1,Increment      1: Step Time =    1.000,"P-3-1",          1508,   111.596E-03,   23.1122E-03,            0.,NA,NA,"",   993.274E+03,   998.903E+03,   998.903E+03
C:/temp/Job-3.odb,Step-1,Increment      1: Step Time =    1.000,"P-3-1",          1509,   176.734E-03,   90.1738E-03,            0.,NA,NA,"",   967.036E+03,   981.829E+03,   981.829E+03
C:/temp/Job-3.odb,Step-1,Increment      1: Step Time =    1.000,"P-3-1",          1510,   87.5885E-03,   177.491E-03,            0.,NA,NA,"",   994.468E+03,   1.00113E+06,   1.00113E+06
C:/temp/Job-3.odb,Step-1,Increment      1: Step Time =    1.000,"P-3-1",          1511,   112.852E-03,   176.854E-03,            0.,NA,NA,"",   994.110E+03,   999.524E+03,   999.524E+03
C:/temp/Job-3.odb,Step-1,Increment      1: Step Time =    1.000,"P-3-1",          1512,   84.3088E-03,   20.2680E-03,            0.,NA,NA,"",   992.773E+03,   997.642E+03,   997.642E+03
C:/temp/Job-3.odb,Step-1,Increment      1: Step Time =    1.000,"P-3-1",          1513,   182.355E-03,   84.4789E-03,            0.,NA,NA,"",   975.138E+03,   991.870E+03,   991.870E+03
C:/temp/Job-3.odb,Step-1,Increment      1: Step Time =    1.000,"P-3-1",          1514,   18.3012E-03,   117.166E-03,            0.,NA,NA,"",    823.55E+03,   911.004E+03,   911.004E+03
C:/temp/Job-3.odb,Step-1,Increment      1: Step Time =    1.000,"P-3-1",          1515,   118.091E-03,   181.067E-03,            0.,NA,NA,"",   989.434E+03,   991.885E+03,   991.885E+03
C:/temp/Job-3.odb,Step-1,Increment      1: Step Time =    1.000,"P-3-1",          1516,   104.114E-03,   60.6981E-03,            0.,NA,NA,"",   1.04802E+06,   1.10256E+06,   1.10256E+06
C:/temp/Job-3.odb,Step-1,Increment      1: Step Time =    1.000,"P-3-1",          1517,   97.4260E-03,   66.4351E-03,            0.,NA,NA,"",   1.06237E+06,   1.13901E+06,   1.13901E+06
C:/temp/Job-3.odb,Step-1,Increment      1: Step Time =    1.000,"P-3-1",          1518,   142.825E-03,   96.5518E-03,            0.,NA,NA,"",   837.678E+03,   847.586E+03,   847.586E+03
C:/temp/Job-3.odb,Step-1,Increment      1: Step Time =    1.000,"P-3-1",          1519,   72.1413E-03,   119.386E-03,            0.,NA,NA,"",   1.09814E+06,   1.05435E+06,   1.05435E+06
C:/temp/Job-3.odb,Step-1,Increment      1: Step Time =    1.000,"P-3-1",          1520,   80.2049E-03,   117.286E-03,            0.,NA,NA,"",   1.22627E+06,   1.14163E+06,   1.14163E+06
C:/temp/Job-3.odb,Step-1,Increment      1: Step Time =    1.000,"P-3-1",          1521,   135.958E-03,   92.7912E-03,            0.,NA,NA,"",   827.758E+03,   824.423E+03,   824.423E+03
C:/temp/Job-3.odb,Step-1,Increment      1: Step Time =    1.000,"P-3-1",          1522,   107.905E-03,   119.869E-03,            0.,NA,NA,"",   1.34932E+06,   1.41236E+06,   1.41236E+06
C:/temp/Job-3.odb,Step-1,Increment      1: Step Time =    1.000,"P-3-1",          1523,   128.509E-03,   116.031E-03,            0.,NA,NA,"",   1.07409E+06,   1.00280E+06,   1.00280E+06
C:/temp/Job-3.odb,Step-1,Increment      1: Step Time =    1.000,"P-3-1",          1524,   149.473E-03,   17.1667E-03,            0.,NA,NA,"",   1.00485E+06,   1.00222E+06,   1.00222E+06
C:/temp/Job-3.odb,Step-1,Increment      1: Step Time =    1.000,"P-3-1",          1525,   181.126E-03,   147.272E-03,            0.,NA,NA,"",   1.00511E+06,   1.00744E+06,   1.00744E+06
C:/temp/Job-3.odb,Step-1,Increment      1: Step Time =    1.000,"P-3-1",          1526,   67.5353E-03,   113.996E-03,            0.,NA,NA,"",   929.384E+03,    921.34E+03,    921.34E+03
C:/temp/Job-3.odb,Step-1,Increment      1: Step Time =    1.000,"P-3-1",          1527,   136.509E-03,   26.4244E-03,            0.,NA,NA,"",   1.02060E+06,   1.01656E+06,   1.01656E+06
C:/temp/Job-3.odb,Step-1,Increment      1: Step Time =    1.000,"P-3-1",          1528,   175.686E-03,   134.077E-03,            0.,NA,NA,"",   1.00232E+06,   1.00534E+06,   1.00534E+06
C:/temp/Job-3.odb,Step-1,Increment      1: Step Time =    1.000,"P-3-1",          1529,   76.3983E-03,   11.5765E-03,            0.,NA,NA,"",   974.900E+03,   975.916E+03,   975.916E+03
C:/temp/Job-3.odb,Step-1,Increment      1: Step Time =    1.000,"P-3-1",          1530,   188.013E-03,   76.0948E-03,            0.,NA,NA,"",   981.257E+03,   998.572E+03,   998.572E+03
C:/temp/Job-3.odb,Step-1,Increment      1: Step Time =    1.000,"P-3-1",          1531,   13.0585E-03,   123.570E-03,            0.,NA,NA,"",   824.586E+03,   916.836E+03,   916.836E+03
C:/temp/Job-3.odb,Step-1,Increment      1: Step Time =    1.000,"P-3-1",          1532,   123.500E-03,   188.261E-03,            0.,NA,NA,"",   976.240E+03,   976.559E+03,   976.559E+03
C:/temp/Job-3.odb,Step-1,Increment      1: Step Time =    1.000,"P-3-1",          1533,   138.685E-03,   104.399E-03,            0.,NA,NA,"",   800.743E+03,   809.937E+03,   809.937E+03
C:/temp/Job-3.odb,Step-1,Increment      1: Step Time =    1.000,"P-3-1",          1534,   118.974E-03,   119.656E-03,            0.,NA,NA,"",   1.29147E+06,   1.20585E+06,   1.20585E+06
C:/temp/Job-3.odb,Step-1,Increment      1: Step Time =    1.000,"P-3-1",          1535,   70.5803E-03,   95.3700E-03,            0.,NA,NA,"",   670.504E+03,   691.569E+03,   691.569E+03
C:/temp/Job-3.odb,Step-1,Increment      1: Step Time =    1.000,"P-3-1",          1536,   122.397E-03,   182.451E-03,            0.,NA,NA,"",   989.716E+03,   990.724E+03,   990.724E+03
C:/temp/Job-3.odb,Step-1,Increment      1: Step Time =    1.000,"P-3-1",          1537,   18.4813E-03,   122.746E-03,            0.,NA,NA,"",   836.807E+03,   922.603E+03,   922.603E+03
C:/temp/Job-3.odb,Step-1,Increment      1: Step Time =    1.000,"P-3-1",          1538,   179.193E-03,   81.2726E-03,            0.,NA,NA,"",   979.115E+03,   992.119E+03,   992.119E+03
C:/temp/Job-3.odb,Step-1,Increment      1: Step Time =    1.000,"P-3-1",          1539,   78.1748E-03,   17.4851E-03,            0.,NA,NA,"",   991.692E+03,   994.215E+03,   994.215E+03
C:/temp/Job-3.odb,Step-1,Increment      1: Step Time =    1.000,"P-3-1",          1540,   80.9902E-03,   75.1980E-03,            0.,NA,NA,"",   1.23948E+06,   1.20708E+06,   1.20708E+06
C:/temp/Job-3.odb,Step-1,Increment      1: Step Time =    1.000,"P-3-1",          1541,   127.205E-03,   92.4471E-03,            0.,NA,NA,"",   806.989E+03,   766.714E+03,   766.714E+03
C:/temp/Job-3.odb,Step-1,Increment      1: Step Time =    1.000,"P-3-1",          1542,   135.359E-03,   114.574E-03,            0.,NA,NA,"",   975.702E+03,   941.369E+03,   941.369E+03
C:/temp/Job-3.odb,Step-1,Increment      1: Step Time =    1.000,"P-3-1",          1543,   63.1174E-03,   109.648E-03,            0.,NA,NA,"",   821.308E+03,   846.579E+03,   846.579E+03
C:/temp/Job-3.odb,Step-1,Increment      1: Step Time =    1.000,"P-3-1",          1544,   104.953E-03,   71.8892E-03,            0.,NA,NA,"",   1.12631E+06,   1.20732E+06,   1.20732E+06
C:/temp/Job-3.odb,Step-1,Increment      1: Step Time =    1.000,"P-3-1",          1545,   124.451E-03,   82.0432E-03,            0.,NA,NA,"",   1.17327E+06,   1.08408E+06,   1.08408E+06
C:/temp/Job-3.odb,Step-1,Increment      1: Step Time =    1.000,"P-3-1",          1546,   33.1958E-03,   12.2694E-03,            0.,NA,NA,"",   1.05399E+06,   1.06027E+06,   1.06027E+06
C:/temp/Job-3.odb,Step-1,Increment      1: Step Time =    1.000,"P-3-1",          1547,   11.2919E-03,   33.2094E-03,            0.,NA,NA,"",   958.321E+03,   1.04204E+06,   1.04204E+06
C:/temp/Job-3.odb,Step-1,Increment      1: Step Time =    1.000,"P-3-1",          1548,   13.2190E-03,   167.141E-03,            0.,NA,NA,"",   968.050E+03,   1.04658E+06,   1.04658E+06
C:/temp/Job-3.odb,Step-1,Increment      1: Step Time =    1.000,"P-3-1",          1549,   167.051E-03,   12.5821E-03,            0.,NA,NA,"",   1.00141E+06,   1.00046E+06,   1.00046E+06
C:/temp/Job-3.odb,Step-1,Increment      1: Step Time =    1.000,"P-3-1",          1550,   186.689E-03,   35.1699E-03,            0.,NA,NA,"",   1.00234E+06,   1.00313E+06,   1.00313E+06
C:/temp/Job-3.odb,Step-1,Increment      1: Step Time =    1.000,"P-3-1",          1551,   35.3092E-03,   189.976E-03,            0.,NA,NA,"",   1.04089E+06,   1.04526E+06,   1.04526E+06
C:/temp/Job-3.odb,Step-1,Increment      1: Step Time =    1.000,"P-3-1",          1552,   167.270E-03,   186.253E-03,            0.,NA,NA,"",   1.00209E+06,   1.00105E+06,   1.00105E+06
C:/temp/Job-3.odb,Step-1,Increment      1: Step Time =    1.000,"P-3-1",          1553,   186.746E-03,   165.491E-03,            0.,NA,NA,"",   1.00237E+06,   1.00315E+06,   1.00315E+06
C:/temp/Job-3.odb,Step-1,Increment      1: Step Time =    1.000,"P-3-1",          1554,   190.113E-03,   130.345E-03,            0.,NA,NA,"",   984.757E+03,   1.00024E+06,   1.00024E+06
C:/temp/Job-3.odb,Step-1,Increment      1: Step Time =    1.000,"P-3-1",          1555,   132.126E-03,   16.6501E-03,            0.,NA,NA,"",   995.730E+03,   994.648E+03,   994.648E+03
C:/temp/Job-3.odb,Step-1,Increment      1: Step Time =    1.000,"P-3-1",          1556,   102.625E-03,   119.976E-03,            0.,NA,NA,"",   1.35532E+06,   1.48797E+06,   1.48797E+06
C:/temp/Job-3.odb,Step-1,Increment      1: Step Time =    1.000,"P-3-1",          1557,   192.789E-03,   35.9200E-03,            0.,NA,NA,"",   999.712E+03,   1.00112E+06,   1.00112E+06
C:/temp/Job-3.odb,Step-1,Increment      1: Step Time =    1.000,"P-3-1",          1558,   164.073E-03,   193.101E-03,            0.,NA,NA,"",   997.558E+03,   997.180E+03,   997.180E+03
C:/temp/Job-3.odb,Step-1,Increment      1: Step Time =    1.000,"P-3-1",          1559,   36.0793E-03,   7.90459E-03,            0.,NA,NA,"",   1.03105E+06,   1.03322E+06,   1.03322E+06
C:/temp/Job-3.odb,Step-1,Increment      1: Step Time =    1.000,"P-3-1",          1560,   6.94728E-03,   167.199E-03,            0.,NA,NA,"",   938.728E+03,   1.03293E+06,   1.03293E+06
C:/temp/Job-3.odb,Step-1,Increment      1: Step Time =    1.000,"P-3-1",          1561,   174.835E-03,   174.330E-03,            0.,NA,NA,"",   1.00730E+06,   1.00578E+06,   1.00578E+06
C:/temp/Job-3.odb,Step-1,Increment      1: Step Time =    1.000,"P-3-1",          1562,   26.7746E-03,   172.047E-03,            0.,NA,NA,"",   1.03689E+06,   1.07452E+06,   1.07452E+06
C:/temp/Job-3.odb,Step-1,Increment      1: Step Time =    1.000,"P-3-1",          1563,   175.882E-03,   24.7916E-03,            0.,NA,NA,"",   1.00621E+06,   1.00492E+06,   1.00492E+06
C:/temp/Job-3.odb,Step-1,Increment      1: Step Time =    1.000,"P-3-1",          1564,   22.4399E-03,   25.3875E-03,            0.,NA,NA,"",   1.04272E+06,   1.08550E+06,   1.08550E+06
C:/temp/Job-3.odb,Step-1,Increment      1: Step Time =    1.000,"P-3-1",          1565,   105.130E-03,   117.523E-03,            0.,NA,NA,"",   1.55233E+06,   1.66129E+06,   1.66129E+06
C:/temp/Job-3.odb,Step-1,Increment      1: Step Time =    1.000,"P-3-1",          1566,   128.804E-03,   82.8564E-03,            0.,NA,NA,"",   1.08584E+06,   1.01818E+06,   1.01818E+06
C:/temp/Job-3.odb,Step-1,Increment      1: Step Time =    1.000,"P-3-1",          1567,   121.187E-03,   116.480E-03,            0.,NA,NA,"",   1.22450E+06,   1.11593E+06,   1.11593E+06
C:/temp/Job-3.odb,Step-1,Increment      1: Step Time =    1.000,"P-3-1",          1568,   126.998E-03,   11.9135E-03,            0.,NA,NA,"",   980.324E+03,   980.299E+03,   980.299E+03
C:/temp/Job-3.odb,Step-1,Increment      1: Step Time =    1.000,"P-3-1",          1569,   119.268E-03,   125.082E-03,            0.,NA,NA,"",   1.25524E+06,   1.20515E+06,   1.20515E+06
C:/temp/Job-3.odb,Step-1,Increment      1: Step Time =    1.000,"P-3-1",          1570,   34.5301E-03,   15.0586E-03,            0.,NA,NA,"",   1.05331E+06,   1.06187E+06,   1.06187E+06
C:/temp/Job-3.odb,Step-1,Increment      1: Step Time =    1.000,"P-3-1",          1571,   21.5238E-03,   32.8790E-03,            0.,NA,NA,"",   1.00304E+06,   1.05956E+06,   1.05956E+06
C:/temp/Job-3.odb,Step-1,Increment      1: Step Time =    1.000,"P-3-1",          1572,   14.0928E-03,   164.630E-03,            0.,NA,NA,"",   961.951E+03,   1.03976E+06,   1.03976E+06
C:/temp/Job-3.odb,Step-1,Increment      1: Step Time =    1.000,"P-3-1",          1573,   167.896E-03,   23.9564E-03,            0.,NA,NA,"",   1.00988E+06,   1.00731E+06,   1.00731E+06
C:/temp/Job-3.odb,Step-1,Increment      1: Step Time =    1.000,"P-3-1",          1574,   184.056E-03,   35.2979E-03,            0.,NA,NA,"",   1.00409E+06,   1.00442E+06,   1.00442E+06
C:/temp/Job-3.odb,Step-1,Increment      1: Step Time =    1.000,"P-3-1",          1575,   32.7896E-03,   178.174E-03,            0.,NA,NA,"",   1.05585E+06,   1.07427E+06,   1.07427E+06
C:/temp/Job-3.odb,Step-1,Increment      1: Step Time =    1.000,"P-3-1",          1576,   162.369E-03,   183.855E-03,            0.,NA,NA,"",   1.00437E+06,   1.00257E+06,   1.00257E+06
C:/temp/Job-3.odb,Step-1,Increment      1: Step Time =    1.000,"P-3-1",          1577,   179.876E-03,   168.053E-03,            0.,NA,NA,"",   1.00656E+06,   1.00582E+06,   1.00582E+06
C:/temp/Job-3.odb,Step-1,Increment      1: Step Time =    1.000,"P-3-1",          1578,   124.441E-03,   10.5979E-03,            0.,NA,NA,"",   974.524E+03,   974.729E+03,   974.729E+03
C:/temp/Job-3.odb,Step-1,Increment      1: Step Time =    1.000,"P-3-1",          1579,   190.127E-03,   127.108E-03,            0.,NA,NA,"",   982.181E+03,   999.622E+03,   999.622E+03
C:/temp/Job-3.odb,Step-1,Increment      1: Step Time =    1.000,"P-3-1",          1580,   11.4263E-03,   72.9374E-03,            0.,NA,NA,"",   827.970E+03,   921.526E+03,   921.526E+03
C:/temp/Job-3.odb,Step-1,Increment      1: Step Time =    1.000,"P-3-1",          1581,   75.7399E-03,   189.621E-03,            0.,NA,NA,"",   971.408E+03,   972.237E+03,   972.237E+03
C:/temp/Job-3.odb,Step-1,Increment      1: Step Time =    1.000,"P-3-1",          1582,   87.2263E-03,   78.8863E-03,            0.,NA,NA,"",   1.31515E+06,   1.30461E+06,   1.30461E+06
C:/temp/Job-3.odb,Step-1,Increment      1: Step Time =    1.000,"P-3-1",          1583,   67.6630E-03,   97.0442E-03,            0.,NA,NA,"",   661.389E+03,   698.393E+03,   698.393E+03
C:/temp/Job-3.odb,Step-1,Increment      1: Step Time =    1.000,"P-3-1",          1584,   63.4626E-03,   89.1961E-03,            0.,NA,NA,"",   848.589E+03,   867.250E+03,   867.250E+03
C:/temp/Job-3.odb,Step-1,Increment      1: Step Time =    1.000,"P-3-1",          1585,   133.872E-03,   108.424E-03,            0.,NA,NA,"",   837.107E+03,   824.051E+03,   824.051E+03
C:/temp/Job-3.odb,Step-1,Increment      1: Step Time =    1.000,"P-3-1",          1586,   92.6565E-03,   26.1383E-03,            0.,NA,NA,"",   997.850E+03,   1.00781E+06,   1.00781E+06
C:/temp/Job-3.odb,Step-1,Increment      1: Step Time =    1.000,"P-3-1",          1587,   28.4499E-03,   91.3953E-03,            0.,NA,NA,"",   823.432E+03,   901.501E+03,   901.501E+03
C:/temp/Job-3.odb,Step-1,Increment      1: Step Time =    1.000,"P-3-1",          1588,   25.8814E-03,   107.868E-03,            0.,NA,NA,"",   818.857E+03,   900.035E+03,   900.035E+03
C:/temp/Job-3.odb,Step-1,Increment      1: Step Time =    1.000,"P-3-1",          1589,   108.731E-03,   23.8559E-03,            0.,NA,NA,"",   993.115E+03,   1.00014E+06,   1.00014E+06
C:/temp/Job-3.odb,Step-1,Increment      1: Step Time =    1.000,"P-3-1",          1590,   93.0882E-03,   172.817E-03,            0.,NA,NA,"",   999.288E+03,   1.00989E+06,   1.00989E+06
C:/temp/Job-3.odb,Step-1,Increment      1: Step Time =    1.000,"P-3-1",          1591,   172.312E-03,   92.2191E-03,            0.,NA,NA,"",   960.085E+03,   973.215E+03,   973.215E+03
C:/temp/Job-3.odb,Step-1,Increment      1: Step Time =    1.000,"P-3-1",          1592,   106.211E-03,   172.403E-03,            0.,NA,NA,"",   998.232E+03,   1.00849E+06,   1.00849E+06
C:/temp/Job-3.odb,Step-1,Increment      1: Step Time =    1.000,"P-3-1",          1593,   174.185E-03,   108.077E-03,            0.,NA,NA,"",   962.814E+03,   976.754E+03,   976.754E+03
C:/temp/Job-3.odb,Step-1,Increment      1: Step Time =    1.000,"P-3-1",          1594,   142.536E-03,   99.6321E-03,            0.,NA,NA,"",   825.753E+03,   837.937E+03,   837.937E+03
C:/temp/Job-3.odb,Step-1,Increment      1: Step Time =    1.000,"P-3-1",          1595,   133.015E-03,   118.468E-03,            0.,NA,NA,"",   1.06237E+06,   1.01101E+06,   1.01101E+06
C:/temp/Job-3.odb,Step-1,Increment      1: Step Time =    1.000,"P-3-1",          1596,   149.785E-03,   13.9585E-03,            0.,NA,NA,"",   1.00014E+06,   998.289E+03,   998.289E+03
C:/temp/Job-3.odb,Step-1,Increment      1: Step Time =    1.000,"P-3-1",          1597,   183.585E-03,   149.874E-03,            0.,NA,NA,"",   1.00315E+06,   1.00601E+06,   1.00601E+06
C:/temp/Job-3.odb,Step-1,Increment      1: Step Time =    1.000,"P-3-1",          1598,   138.861E-03,   26.7451E-03,            0.,NA,NA,"",   1.02211E+06,   1.01742E+06,   1.01742E+06
C:/temp/Job-3.odb,Step-1,Increment      1: Step Time =    1.000,"P-3-1",          1599,   171.597E-03,   135.443E-03,            0.,NA,NA,"",   1.00994E+06,   1.00906E+06,   1.00906E+06
C:/temp/Job-3.odb,Step-1,Increment      1: Step Time =    1.000,"P-3-1",          1600,   71.9357E-03,   15.9224E-03,            0.,NA,NA,"",   994.889E+03,   996.133E+03,   996.133E+03
C:/temp/Job-3.odb,Step-1,Increment      1: Step Time =    1.000,"P-3-1",          1601,   184.274E-03,   74.1374E-03,            0.,NA,NA,"",   985.732E+03,   998.999E+03,   998.999E+03
C:/temp/Job-3.odb,Step-1,Increment      1: Step Time =    1.000,"P-3-1",          1602,   16.4896E-03,   125.639E-03,            0.,NA,NA,"",   839.812E+03,   927.525E+03,   927.525E+03
C:/temp/Job-3.odb,Step-1,Increment      1: Step Time =    1.000,"P-3-1",          1603,   128.094E-03,   184.189E-03,            0.,NA,NA,"",   990.624E+03,   990.265E+03,   990.265E+03
C:/temp/Job-3.odb,Step-1,Increment      1: Step Time =    1.000,"P-3-1",          1604,   126.472E-03,   181.527E-03,            0.,NA,NA,"",   995.363E+03,   995.326E+03,   995.326E+03
C:/temp/Job-3.odb,Step-1,Increment      1: Step Time =    1.000,"P-3-1",          1605,   19.5386E-03,   124.913E-03,            0.,NA,NA,"",   845.823E+03,   929.768E+03,   929.768E+03
C:/temp/Job-3.odb,Step-1,Increment      1: Step Time =    1.000,"P-3-1",          1606,   181.521E-03,   77.0595E-03,            0.,NA,NA,"",   983.849E+03,   996.540E+03,   996.540E+03
C:/temp/Job-3.odb,Step-1,Increment      1: Step Time =    1.000,"P-3-1",          1607,   73.7428E-03,   18.6409E-03,            0.,NA,NA,"",   1.00048E+06,   1.00245E+06,   1.00245E+06
C:/temp/Job-3.odb,Step-1,Increment      1: Step Time =    1.000,"P-3-1",          1608,   126.017E-03,   89.2544E-03,            0.,NA,NA,"",   947.891E+03,   877.824E+03,   877.824E+03
C:/temp/Job-3.odb,Step-1,Increment      1: Step Time =    1.000,"P-3-1",          1609,   136.310E-03,   117.481E-03,            0.,NA,NA,"",   1.01632E+06,   978.502E+03,   978.502E+03
C:/temp/Job-3.odb,Step-1,Increment      1: Step Time =    1.000,"P-3-1",          1610,   65.6753E-03,   107.004E-03,            0.,NA,NA,"",   762.132E+03,   788.515E+03,   788.515E+03
C:/temp/Job-3.odb,Step-1,Increment      1: Step Time =    1.000,"P-3-1",          1611,   60.1674E-03,   111.804E-03,            0.,NA,NA,"",   856.857E+03,   883.707E+03,   883.707E+03
C:/temp/Job-3.odb,Step-1,Increment      1: Step Time =    1.000,"P-3-1",          1612,   78.8857E-03,   71.9844E-03,            0.,NA,NA,"",   1.19989E+06,   1.17484E+06,   1.17484E+06
C:/temp/Job-3.odb,Step-1,Increment      1: Step Time =    1.000,"P-3-1",          1613,   129.589E-03,   87.7426E-03,            0.,NA,NA,"",   965.675E+03,   913.074E+03,   913.074E+03
C:/temp/Job-3.odb,Step-1,Increment      1: Step Time =    1.000,"P-3-1",          1614,   9.03295E-03,   35.3605E-03,            0.,NA,NA,"",   937.043E+03,   1.02723E+06,   1.02723E+06
C:/temp/Job-3.odb,Step-1,Increment      1: Step Time =    1.000,"P-3-1",          1615,   166.886E-03,   7.84738E-03,            0.,NA,NA,"",   998.572E+03,   998.159E+03,   998.159E+03
C:/temp/Job-3.odb,Step-1,Increment      1: Step Time =    1.000,"P-3-1",          1616,   35.2805E-03,   193.762E-03,            0.,NA,NA,"",   1.02511E+06,   1.02696E+06,   1.02696E+06
C:/temp/Job-3.odb,Step-1,Increment      1: Step Time =    1.000,"P-3-1",          1617,   192.396E-03,   163.946E-03,            0.,NA,NA,"",   999.708E+03,   1.00123E+06,   1.00123E+06
C:/temp/Job-3.odb,Step-1,Increment      1: Step Time =    1.000,"P-3-1",          1618,   171.939E-03,   176.109E-03,            0.,NA,NA,"",   1.00778E+06,   1.00593E+06,   1.00593E+06
C:/temp/Job-3.odb,Step-1,Increment      1: Step Time =    1.000,"P-3-1",          1619,   23.3259E-03,   173.162E-03,            0.,NA,NA,"",   1.03439E+06,   1.07845E+06,   1.07845E+06
C:/temp/Job-3.odb,Step-1,Increment      1: Step Time =    1.000,"P-3-1",          1620,   177.642E-03,   26.3245E-03,            0.,NA,NA,"",   1.00605E+06,   1.00494E+06,   1.00494E+06
C:/temp/Job-3.odb,Step-1,Increment      1: Step Time =    1.000,"P-3-1",          1621,   25.9569E-03,   21.8613E-03,            0.,NA,NA,"",   1.06092E+06,   1.08986E+06,   1.08986E+06
C:/temp/Job-3.odb,Step-1,Increment      1: Step Time =    1.000,"P-3-1",          1622,   117.170E-03,   69.0678E-03,            0.,NA,NA,"",   1.19468E+06,   1.18339E+06,   1.18339E+06
C:/temp/Job-3.odb,Step-1,Increment      1: Step Time =    1.000,"P-3-1",          1623,   137.479E-03,   90.2290E-03,            0.,NA,NA,"",   877.492E+03,   867.513E+03,   867.513E+03
C:/temp/Job-3.odb,Step-1,Increment      1: Step Time =    1.000,"P-3-1",          1624,   22.1903E-03,   27.5100E-03,            0.,NA,NA,"",   1.03267E+06,   1.08003E+06,   1.08003E+06
C:/temp/Job-3.odb,Step-1,Increment      1: Step Time =    1.000,"P-3-1",          1625,   173.625E-03,   26.3904E-03,            0.,NA,NA,"",   1.00833E+06,   1.00653E+06,   1.00653E+06
C:/temp/Job-3.odb,Step-1,Increment      1: Step Time =    1.000,"P-3-1",          1626,   30.4916E-03,   172.765E-03,            0.,NA,NA,"",   1.04316E+06,   1.07184E+06,   1.07184E+06
C:/temp/Job-3.odb,Step-1,Increment      1: Step Time =    1.000,"P-3-1",          1627,   173.634E-03,   171.803E-03,            0.,NA,NA,"",   1.00947E+06,   1.00749E+06,   1.00749E+06
C:/temp/Job-3.odb,Step-1,Increment      1: Step Time =    1.000,"P-3-1",          1628,   104.376E-03,   56.9149E-03,            0.,NA,NA,"",   1.03980E+06,   1.08568E+06,   1.08568E+06
C:/temp/Job-3.odb,Step-1,Increment      1: Step Time =    1.000,"P-3-1",          1629,   111.631E-03,   64.8494E-03,            0.,NA,NA,"",   1.11869E+06,   1.14763E+06,   1.14763E+06
C:/temp/Job-3.odb,Step-1,Increment      1: Step Time =    1.000,"P-3-1",          1630,   96.8667E-03,   62.5526E-03,            0.,NA,NA,"",   1.04634E+06,   1.11110E+06,   1.11110E+06
C:/temp/Job-3.odb,Step-1,Increment      1: Step Time =    1.000,"P-3-1",          1631,   84.2833E-03,   72.5291E-03,            0.,NA,NA,"",   1.21884E+06,   1.21764E+06,   1.21764E+06
C:/temp/Job-3.odb,Step-1,Increment      1: Step Time =    1.000,"P-3-1",          1632,   15.6003E-03,   80.7682E-03,            0.,NA,NA,"",   821.374E+03,   911.381E+03,   911.381E+03
C:/temp/Job-3.odb,Step-1,Increment      1: Step Time =    1.000,"P-3-1",          1633,   120.085E-03,   16.1311E-03,            0.,NA,NA,"",   984.039E+03,   985.441E+03,   985.441E+03
C:/temp/Job-3.odb,Step-1,Increment      1: Step Time =    1.000,"P-3-1",          1634,   76.9537E-03,   184.159E-03,            0.,NA,NA,"",   987.864E+03,   989.935E+03,   989.935E+03
C:/temp/Job-3.odb,Step-1,Increment      1: Step Time =    1.000,"P-3-1",          1635,   183.078E-03,   121.066E-03,            0.,NA,NA,"",   981.057E+03,   995.778E+03,   995.778E+03
C:/temp/Job-3.odb,Step-1,Increment      1: Step Time =    1.000,"P-3-1",          1636,   188.853E-03,   72.3168E-03,            0.,NA,NA,"",   984.144E+03,   999.894E+03,   999.894E+03
C:/temp/Job-3.odb,Step-1,Increment      1: Step Time =    1.000,"P-3-1",          1637,   126.841E-03,   190.821E-03,            0.,NA,NA,"",   973.449E+03,   973.434E+03,   973.434E+03
C:/temp/Job-3.odb,Step-1,Increment      1: Step Time =    1.000,"P-3-1",          1638,   73.0334E-03,   9.21171E-03,            0.,NA,NA,"",   970.465E+03,   970.958E+03,   970.958E+03
C:/temp/Job-3.odb,Step-1,Increment      1: Step Time =    1.000,"P-3-1",          1639,   10.3271E-03,   127.072E-03,            0.,NA,NA,"",   825.593E+03,   920.243E+03,   920.243E+03
C:/temp/Job-3.odb,Step-1,Increment      1: Step Time =    1.000,"P-3-1",          1640,   118.694E-03,   75.4960E-03,            0.,NA,NA,"",   1.26953E+06,   1.22054E+06,   1.22054E+06
C:/temp/Job-3.odb,Step-1,Increment      1: Step Time =    1.000,"P-3-1",          1641,   103.249E-03,   125.045E-03,            0.,NA,NA,"",   1.16735E+06,   1.27454E+06,   1.27454E+06
C:/temp/Job-3.odb,Step-1,Increment      1: Step Time =    1.000,"P-3-1",          1642,   179.879E-03,   117.704E-03,            0.,NA,NA,"",   977.677E+03,   991.576E+03,   991.576E+03
C:/temp/Job-3.odb,Step-1,Increment      1: Step Time =    1.000,"P-3-1",          1643,   82.2291E-03,   180.774E-03,            0.,NA,NA,"",   991.846E+03,   995.888E+03,   995.888E+03
C:/temp/Job-3.odb,Step-1,Increment      1: Step Time =    1.000,"P-3-1",          1644,   117.022E-03,   19.2136E-03,            0.,NA,NA,"",   988.726E+03,   991.453E+03,   991.453E+03
C:/temp/Job-3.odb,Step-1,Increment      1: Step Time =    1.000,"P-3-1",          1645,   18.1553E-03,   81.0991E-03,            0.,NA,NA,"",   825.660E+03,   913.288E+03,   913.288E+03
C:/temp/Job-3.odb,Step-1,Increment      1: Step Time =    1.000,"P-3-1",          1646,   141.074E-03,   106.605E-03,            0.,NA,NA,"",   844.921E+03,   849.377E+03,   849.377E+03
C:/temp/Job-3.odb,Step-1,Increment      1: Step Time =    1.000,"P-3-1",          1647,   120.081E-03,   177.304E-03,            0.,NA,NA,"",   999.351E+03,   1.00187E+06,   1.00187E+06
C:/temp/Job-3.odb,Step-1,Increment      1: Step Time =    1.000,"P-3-1",          1648,   178.564E-03,   83.8294E-03,            0.,NA,NA,"",   975.863E+03,   989.360E+03,   989.360E+03
C:/temp/Job-3.odb,Step-1,Increment      1: Step Time =    1.000,"P-3-1",          1649,   19.9460E-03,   119.585E-03,            0.,NA,NA,"",   832.986E+03,   918.042E+03,   918.042E+03
C:/temp/Job-3.odb,Step-1,Increment      1: Step Time =    1.000,"P-3-1",          1650,   80.0520E-03,   22.1391E-03,            0.,NA,NA,"",   1.00293E+06,   1.00753E+06,   1.00753E+06
C:/temp/Job-3.odb,Step-1,Increment      1: Step Time =    1.000,"P-3-1",          1651,   179.243E-03,   160.995E-03,            0.,NA,NA,"",   1.00869E+06,   1.00803E+06,   1.00803E+06
C:/temp/Job-3.odb,Step-1,Increment      1: Step Time =    1.000,"P-3-1",          1652,   35.1106E-03,   181.566E-03,            0.,NA,NA,"",   1.05527E+06,   1.06652E+06,   1.06652E+06
C:/temp/Job-3.odb,Step-1,Increment      1: Step Time =    1.000,"P-3-1",          1653,   165.660E-03,   21.5367E-03,            0.,NA,NA,"",   1.00855E+06,   1.00609E+06,   1.00609E+06
C:/temp/Job-3.odb,Step-1,Increment      1: Step Time =    1.000,"P-3-1",          1654,   21.7846E-03,   37.2332E-03,            0.,NA,NA,"",   983.922E+03,   1.04452E+06,   1.04452E+06
C:/temp/Job-3.odb,Step-1,Increment      1: Step Time =    1.000,"P-3-1",          1655,   176.567E-03,   167.323E-03,            0.,NA,NA,"",   1.00934E+06,   1.00780E+06,   1.00780E+06
C:/temp/Job-3.odb,Step-1,Increment      1: Step Time =    1.000,"P-3-1",          1656,   31.9307E-03,   174.522E-03,            0.,NA,NA,"",   1.04803E+06,   1.07260E+06,   1.07260E+06
C:/temp/Job-3.odb,Step-1,Increment      1: Step Time =    1.000,"P-3-1",          1657,   165.647E-03,   26.3879E-03,            0.,NA,NA,"",   1.01338E+06,   1.00994E+06,   1.00994E+06
C:/temp/Job-3.odb,Step-1,Increment      1: Step Time =    1.000,"P-3-1",          1658,   24.1639E-03,   34.9843E-03,            0.,NA,NA,"",   1.00153E+06,   1.05426E+06,   1.05426E+06
C:/temp/Job-3.odb,Step-1,Increment      1: Step Time =    1.000,"P-3-1",          1659,   179.683E-03,   121.046E-03,            0.,NA,NA,"",   982.165E+03,   994.267E+03,   994.267E+03
C:/temp/Job-3.odb,Step-1,Increment      1: Step Time =    1.000,"P-3-1",          1660,   79.4491E-03,   180.964E-03,            0.,NA,NA,"",   994.485E+03,   997.893E+03,   997.893E+03
C:/temp/Job-3.odb,Step-1,Increment      1: Step Time =    1.000,"P-3-1",          1661,   122.180E-03,   19.1226E-03,            0.,NA,NA,"",   992.723E+03,   993.965E+03,   993.965E+03
C:/temp/Job-3.odb,Step-1,Increment      1: Step Time =    1.000,"P-3-1",          1662,   19.8033E-03,   79.3760E-03,            0.,NA,NA,"",   834.146E+03,   919.312E+03,   919.312E+03
C:/temp/Job-3.odb,Step-1,Increment      1: Step Time =    1.000,"P-3-1",          1663,   79.0818E-03,   120.855E-03,            0.,NA,NA,"",   1.23553E+06,   1.17421E+06,   1.17421E+06
C:/temp/Job-3.odb,Step-1,Increment      1: Step Time =    1.000,"P-3-1",          1664,   105.537E-03,   122.394E-03,            0.,NA,NA,"",   1.25845E+06,   1.35584E+06,   1.35584E+06
C:/temp/Job-3.odb,Step-1,Increment      1: Step Time =    1.000,"P-3-1",          1665,   127.806E-03,   85.5008E-03,            0.,NA,NA,"",   1.04712E+06,   976.984E+03,   976.984E+03
C:/temp/Job-3.odb,Step-1,Increment      1: Step Time =    1.000,"P-3-1",          1666,   126.617E-03,   78.0281E-03,            0.,NA,NA,"",   1.17986E+06,   1.10759E+06,   1.10759E+06
C:/temp/Job-3.odb,Step-1,Increment      1: Step Time =    1.000,"P-3-1",          1667,   187.043E-03,   130.155E-03,            0.,NA,NA,"",   987.101E+03,   1.00040E+06,   1.00040E+06
C:/temp/Job-3.odb,Step-1,Increment      1: Step Time =    1.000,"P-3-1",          1668,   128.434E-03,   14.4672E-03,            0.,NA,NA,"",   987.304E+03,   986.992E+03,   986.992E+03
C:/temp/Job-3.odb,Step-1,Increment      1: Step Time =    1.000,"P-3-1",          1669,   116.404E-03,   127.470E-03,            0.,NA,NA,"",   1.23826E+06,   1.21608E+06,   1.21608E+06
C:/temp/Job-3.odb,Step-1,Increment      1: Step Time =    1.000,"P-3-1",          1670,   73.3639E-03,   188.386E-03,            0.,NA,NA,"",   978.345E+03,   979.212E+03,   979.212E+03
C:/temp/Job-3.odb,Step-1,Increment      1: Step Time =    1.000,"P-3-1",          1671,   67.4613E-03,   86.4034E-03,            0.,NA,NA,"",   911.617E+03,   906.625E+03,   906.625E+03
C:/temp/Job-3.odb,Step-1,Increment      1: Step Time =    1.000,"P-3-1",          1672,   96.4047E-03,   24.1608E-03,            0.,NA,NA,"",   991.767E+03,   1.00062E+06,   1.00062E+06
C:/temp/Job-3.odb,Step-1,Increment      1: Step Time =    1.000,"P-3-1",          1673,   88.6474E-03,   28.5272E-03,            0.,NA,NA,"",   1.00645E+06,   1.01682E+06,   1.01682E+06
C:/temp/Job-3.odb,Step-1,Increment      1: Step Time =    1.000,"P-3-1",          1674,   26.6430E-03,   97.1644E-03,            0.,NA,NA,"",   814.363E+03,   895.378E+03,   895.378E+03
C:/temp/Job-3.odb,Step-1,Increment      1: Step Time =    1.000,"P-3-1",          1675,   29.3684E-03,   88.4843E-03,            0.,NA,NA,"",   830.762E+03,   906.854E+03,   906.854E+03
C:/temp/Job-3.odb,Step-1,Increment      1: Step Time =    1.000,"P-3-1",          1676,   105.992E-03,   25.2268E-03,            0.,NA,NA,"",   994.183E+03,   1.00291E+06,   1.00291E+06
C:/temp/Job-3.odb,Step-1,Increment      1: Step Time =    1.000,"P-3-1",          1677,   27.9841E-03,   110.569E-03,            0.,NA,NA,"",   826.401E+03,   904.801E+03,   904.801E+03
C:/temp/Job-3.odb,Step-1,Increment      1: Step Time =    1.000,"P-3-1",          1678,   114.576E-03,   28.7873E-03,            0.,NA,NA,"",   1.00744E+06,   1.01425E+06,   1.01425E+06
C:/temp/Job-3.odb,Step-1,Increment      1: Step Time =    1.000,"P-3-1",          1679,   88.5680E-03,   173.826E-03,            0.,NA,NA,"",   1.00142E+06,   1.01060E+06,   1.01060E+06
C:/temp/Job-3.odb,Step-1,Increment      1: Step Time =    1.000,"P-3-1",          1680,   95.1641E-03,   174.655E-03,            0.,NA,NA,"",   994.588E+03,   1.00418E+06,   1.00418E+06
C:/temp/Job-3.odb,Step-1,Increment      1: Step Time =    1.000,"P-3-1",          1681,   173.681E-03,   96.7393E-03,            0.,NA,NA,"",   958.011E+03,   972.795E+03,   972.795E+03
C:/temp/Job-3.odb,Step-1,Increment      1: Step Time =    1.000,"P-3-1",          1682,   173.264E-03,   89.1482E-03,            0.,NA,NA,"",   965.210E+03,   977.718E+03,   977.718E+03
C:/temp/Job-3.odb,Step-1,Increment      1: Step Time =    1.000,"P-3-1",          1683,   175.224E-03,   103.851E-03,            0.,NA,NA,"",   960.476E+03,   975.963E+03,   975.963E+03
C:/temp/Job-3.odb,Step-1,Increment      1: Step Time =    1.000,"P-3-1",          1684,   102.989E-03,   174.238E-03,            0.,NA,NA,"",   993.978E+03,   1.00358E+06,   1.00358E+06
C:/temp/Job-3.odb,Step-1,Increment      1: Step Time =    1.000,"P-3-1",          1685,   111.056E-03,   169.356E-03,            0.,NA,NA,"",   1.00760E+06,   1.01748E+06,   1.01748E+06
C:/temp/Job-3.odb,Step-1,Increment      1: Step Time =    1.000,"P-3-1",          1686,   192.510E-03,   72.5113E-03,            0.,NA,NA,"",   981.083E+03,   999.873E+03,   999.873E+03
C:/temp/Job-3.odb,Step-1,Increment      1: Step Time =    1.000,"P-3-1",          1687,   72.7465E-03,   6.21605E-03,            0.,NA,NA,"",   959.790E+03,   960.025E+03,   960.025E+03
C:/temp/Job-3.odb,Step-1,Increment      1: Step Time =    1.000,"P-3-1",          1688,   6.90045E-03,   127.267E-03,            0.,NA,NA,"",   817.053E+03,   915.081E+03,   915.081E+03
C:/temp/Job-3.odb,Step-1,Increment      1: Step Time =    1.000,"P-3-1",          1689,   127.126E-03,   193.848E-03,            0.,NA,NA,"",   966.644E+03,   966.637E+03,   966.637E+03
C:/temp/Job-3.odb,Step-1,Increment      1: Step Time =    1.000,"P-3-1",          1690,   146.527E-03,   96.8814E-03,            0.,NA,NA,"",   862.768E+03,   872.819E+03,   872.819E+03
C:/temp/Job-3.odb,Step-1,Increment      1: Step Time =    1.000,"P-3-1",          1691,   124.455E-03,   118.897E-03,            0.,NA,NA,"",   1.19600E+06,   1.10724E+06,   1.10724E+06
C:/temp/Job-3.odb,Step-1,Increment      1: Step Time =    1.000,"P-3-1",          1692,   122.298E-03,   90.3682E-03,            0.,NA,NA,"",   945.721E+03,   844.759E+03,   844.759E+03
C:/temp/Job-3.odb,Step-1,Increment      1: Step Time =    1.000,"P-3-1",          1693,   181.192E-03,   152.122E-03,            0.,NA,NA,"",   1.00621E+06,   1.00751E+06,   1.00751E+06
C:/temp/Job-3.odb,Step-1,Increment      1: Step Time =    1.000,"P-3-1",          1694,   186.598E-03,   147.921E-03,            0.,NA,NA,"",   999.493E+03,   1.00423E+06,   1.00423E+06
C:/temp/Job-3.odb,Step-1,Increment      1: Step Time =    1.000,"P-3-1",          1695,   68.9404E-03,   118.291E-03,            0.,NA,NA,"",   1.02914E+06,   1.00310E+06,   1.00310E+06
C:/temp/Job-3.odb,Step-1,Increment      1: Step Time =    1.000,"P-3-1",          1696,   142.721E-03,   25.5539E-03,            0.,NA,NA,"",   1.02017E+06,   1.01526E+06,   1.01526E+06
C:/temp/Job-3.odb,Step-1,Increment      1: Step Time =    1.000,"P-3-1",          1697,   136.183E-03,   29.5004E-03,            0.,NA,NA,"",   1.02809E+06,   1.02323E+06,   1.02323E+06
C:/temp/Job-3.odb,Step-1,Increment      1: Step Time =    1.000,"P-3-1",          1698,   172.604E-03,   139.539E-03,            0.,NA,NA,"",   1.01264E+06,   1.01140E+06,   1.01140E+06
C:/temp/Job-3.odb,Step-1,Increment      1: Step Time =    1.000,"P-3-1",          1699,   169.319E-03,   134.558E-03,            0.,NA,NA,"",   1.01167E+06,   1.00946E+06,   1.00946E+06
C:/temp/Job-3.odb,Step-1,Increment      1: Step Time =    1.000,"P-3-1",          1700,   18.3095E-03,   162.684E-03,            0.,NA,NA,"",   971.646E+03,   1.04015E+06,   1.04015E+06
C:/temp/Job-3.odb,Step-1,Increment      1: Step Time =    1.000,"P-3-1",          1701,   163.311E-03,   181.586E-03,            0.,NA,NA,"",   1.00659E+06,   1.00441E+06,   1.00441E+06
C:/temp/Job-3.odb,Step-1,Increment      1: Step Time =    1.000,"P-3-1",          1702,   75.7197E-03,   74.0465E-03,            0.,NA,NA,"",   1.18542E+06,   1.14872E+06,   1.14872E+06
C:/temp/Job-3.odb,Step-1,Increment      1: Step Time =    1.000,"P-3-1",          1703,   12.0984E-03,   37.1879E-03,            0.,NA,NA,"",   943.051E+03,   1.02687E+06,   1.02687E+06
C:/temp/Job-3.odb,Step-1,Increment      1: Step Time =    1.000,"P-3-1",          1704,   162.777E-03,   11.9150E-03,            0.,NA,NA,"",   1.00056E+06,   999.503E+03,   999.503E+03
C:/temp/Job-3.odb,Step-1,Increment      1: Step Time =    1.000,"P-3-1",          1705,   37.9629E-03,   191.226E-03,            0.,NA,NA,"",   1.02923E+06,   1.03150E+06,   1.03150E+06
C:/temp/Job-3.odb,Step-1,Increment      1: Step Time =    1.000,"P-3-1",          1706,   188.384E-03,   162.189E-03,            0.,NA,NA,"",   1.00118E+06,   1.00276E+06,   1.00276E+06
C:/temp/Job-3.odb,Step-1,Increment      1: Step Time =    1.000,"P-3-1",          1707,   94.2237E-03,   64.0737E-03,            0.,NA,NA,"",   1.06811E+06,   1.13017E+06,   1.13017E+06
C:/temp/Job-3.odb,Step-1,Increment      1: Step Time =    1.000,"P-3-1",          1708,   117.404E-03,   64.7408E-03,            0.,NA,NA,"",   1.14940E+06,   1.14884E+06,   1.14884E+06
C:/temp/Job-3.odb,Step-1,Increment      1: Step Time =    1.000,"P-3-1",          1709,   139.934E-03,   88.3725E-03,            0.,NA,NA,"",   916.317E+03,   903.704E+03,   903.704E+03
C:/temp/Job-3.odb,Step-1,Increment      1: Step Time =    1.000,"P-3-1",          1710,   26.3078E-03,   24.5879E-03,            0.,NA,NA,"",   1.05010E+06,   1.08307E+06,   1.08307E+06
C:/temp/Job-3.odb,Step-1,Increment      1: Step Time =    1.000,"P-3-1",          1711,   172.567E-03,   28.2628E-03,            0.,NA,NA,"",   1.01012E+06,   1.00792E+06,   1.00792E+06
C:/temp/Job-3.odb,Step-1,Increment      1: Step Time =    1.000,"P-3-1",          1712,   26.0581E-03,   169.528E-03,            0.,NA,NA,"",   1.02539E+06,   1.06827E+06,   1.06827E+06
C:/temp/Job-3.odb,Step-1,Increment      1: Step Time =    1.000,"P-3-1",          1713,   170.512E-03,   173.082E-03,            0.,NA,NA,"",   1.01081E+06,   1.00828E+06,   1.00828E+06
C:/temp/Job-3.odb,Step-1,Increment      1: Step Time =    1.000,"P-3-1",          1714,   88.5990E-03,   76.0665E-03,            0.,NA,NA,"",   1.26175E+06,   1.28309E+06,   1.28309E+06
C:/temp/Job-3.odb,Step-1,Increment      1: Step Time =    1.000,"P-3-1",          1715,   81.9313E-03,   69.4471E-03,            0.,NA,NA,"",   1.18734E+06,   1.18161E+06,   1.18161E+06
C:/temp/Job-3.odb,Step-1,Increment      1: Step Time =    1.000,"P-3-1",          1716,   97.3172E-03,   59.7403E-03,            0.,NA,NA,"",   1.03926E+06,   1.09699E+06,   1.09699E+06
C:/temp/Job-3.odb,Step-1,Increment      1: Step Time =    1.000,"P-3-1",          1717,   185.907E-03,   71.8990E-03,            0.,NA,NA,"",   986.419E+03,   999.953E+03,   999.953E+03
C:/temp/Job-3.odb,Step-1,Increment      1: Step Time =    1.000,"P-3-1",          1718,   126.328E-03,   187.885E-03,            0.,NA,NA,"",   979.864E+03,   979.930E+03,   979.930E+03
C:/temp/Job-3.odb,Step-1,Increment      1: Step Time =    1.000,"P-3-1",          1719,   73.6046E-03,   12.0968E-03,            0.,NA,NA,"",   979.798E+03,   980.715E+03,   980.715E+03
C:/temp/Job-3.odb,Step-1,Increment      1: Step Time =    1.000,"P-3-1",          1720,   13.6339E-03,   126.539E-03,            0.,NA,NA,"",   833.126E+03,   924.363E+03,   924.363E+03
C:/temp/Job-3.odb,Step-1,Increment      1: Step Time =    1.000,"P-3-1",          1721,   122.091E-03,   71.9074E-03,            0.,NA,NA,"",   1.21903E+06,   1.17391E+06,   1.17391E+06
C:/temp/Job-3.odb,Step-1,Increment      1: Step Time =    1.000,"P-3-1",          1722,   101.209E-03,   127.950E-03,            0.,NA,NA,"",   1.10488E+06,   1.20674E+06,   1.20674E+06
C:/temp/Job-3.odb,Step-1,Increment      1: Step Time =    1.000,"P-3-1",          1723,   145.440E-03,   103.472E-03,            0.,NA,NA,"",   855.931E+03,   866.090E+03,   866.090E+03
C:/temp/Job-3.odb,Step-1,Increment      1: Step Time =    1.000,"P-3-1",          1724,   188.378E-03,   37.1400E-03,            0.,NA,NA,"",   1.00132E+06,   1.00263E+06,   1.00263E+06
C:/temp/Job-3.odb,Step-1,Increment      1: Step Time =    1.000,"P-3-1",          1725,   164.513E-03,   186.785E-03,            0.,NA,NA,"",   1.00180E+06,   1.00063E+06,   1.00063E+06
C:/temp/Job-3.odb,Step-1,Increment      1: Step Time =    1.000,"P-3-1",          1726,   36.5488E-03,   13.8342E-03,            0.,NA,NA,"",   1.04767E+06,   1.05368E+06,   1.05368E+06
C:/temp/Job-3.odb,Step-1,Increment      1: Step Time =    1.000,"P-3-1",          1727,   10.6985E-03,   163.823E-03,            0.,NA,NA,"",   940.958E+03,   1.02791E+06,   1.02791E+06
C:/temp/Job-3.odb,Step-1,Increment      1: Step Time =    1.000,"P-3-1",          1728,   81.6567E-03,   27.0102E-03,            0.,NA,NA,"",   1.01246E+06,   1.01935E+06,   1.01935E+06
C:/temp/Job-3.odb,Step-1,Increment      1: Step Time =    1.000,"P-3-1",          1729,   175.384E-03,   82.7066E-03,            0.,NA,NA,"",   976.698E+03,   987.371E+03,   987.371E+03
C:/temp/Job-3.odb,Step-1,Increment      1: Step Time =    1.000,"P-3-1",          1730,   22.8273E-03,   118.948E-03,            0.,NA,NA,"",   837.900E+03,   919.667E+03,   919.667E+03
C:/temp/Job-3.odb,Step-1,Increment      1: Step Time =    1.000,"P-3-1",          1731,   120.522E-03,   174.643E-03,            0.,NA,NA,"",   1.00612E+06,   1.00877E+06,   1.00877E+06
C:/temp/Job-3.odb,Step-1,Increment      1: Step Time =    1.000,"P-3-1",          1732,   110.951E-03,   60.5285E-03,            0.,NA,NA,"",   1.08484E+06,   1.11563E+06,   1.11563E+06
C:/temp/Job-3.odb,Step-1,Increment      1: Step Time =    1.000,"P-3-1",          1733,   102.818E-03,   115.531E-03,            0.,NA,NA,"",   1.89603E+06,   2.02183E+06,   2.02183E+06
C:/temp/Job-3.odb,Step-1,Increment      1: Step Time =    1.000,"P-3-1",          1734,   101.136E-03,   56.4876E-03,            0.,NA,NA,"",   1.03270E+06,   1.08205E+06,   1.08205E+06
C:/temp/Job-3.odb,Step-1,Increment      1: Step Time =    1.000,"P-3-1",          1735,   134.690E-03,   121.353E-03,            0.,NA,NA,"",   1.08387E+06,   1.03513E+06,   1.03513E+06
C:/temp/Job-3.odb,Step-1,Increment      1: Step Time =    1.000,"P-3-1",          1736,   61.0186E-03,   88.7801E-03,            0.,NA,NA,"",   848.331E+03,   873.505E+03,   873.505E+03
C:/temp/Job-3.odb,Step-1,Increment      1: Step Time =    1.000,"P-3-1",          1737,   62.8489E-03,   95.5178E-03,            0.,NA,NA,"",   735.194E+03,   776.372E+03,   776.372E+03
C:/temp/Job-3.odb,Step-1,Increment      1: Step Time =    1.000,"P-3-1",          1738,   65.6110E-03,   117.009E-03,            0.,NA,NA,"",   968.765E+03,   961.726E+03,   961.726E+03
C:/temp/Job-3.odb,Step-1,Increment      1: Step Time =    1.000,"P-3-1",          1739,   40.6406E-03,   17.4614E-03,            0.,NA,NA,"",   1.04428E+06,   1.05115E+06,   1.05115E+06
C:/temp/Job-3.odb,Step-1,Increment      1: Step Time =    1.000,"P-3-1",          1740,   16.2700E-03,   159.436E-03,            0.,NA,NA,"",   947.989E+03,   1.02410E+06,   1.02410E+06
C:/temp/Job-3.odb,Step-1,Increment      1: Step Time =    1.000,"P-3-1",          1741,   182.250E-03,   40.1442E-03,            0.,NA,NA,"",   1.00566E+06,   1.00614E+06,   1.00614E+06
C:/temp/Job-3.odb,Step-1,Increment      1: Step Time =    1.000,"P-3-1",          1742,   161.007E-03,   180.891E-03,            0.,NA,NA,"",   1.00783E+06,   1.00526E+06,   1.00526E+06
C:/temp/Job-3.odb,Step-1,Increment      1: Step Time =    1.000,"P-3-1",          1743,   88.5863E-03,   70.3522E-03,            0.,NA,NA,"",   1.17381E+06,   1.20580E+06,   1.20580E+06
C:/temp/Job-3.odb,Step-1,Increment      1: Step Time =    1.000,"P-3-1",          1744,   153.348E-03,   18.0695E-03,            0.,NA,NA,"",   1.00672E+06,   1.00394E+06,   1.00394E+06
C:/temp/Job-3.odb,Step-1,Increment      1: Step Time =    1.000,"P-3-1",          1745,   182.832E-03,   156.275E-03,            0.,NA,NA,"",   1.00503E+06,   1.00625E+06,   1.00625E+06
C:/temp/Job-3.odb,Step-1,Increment      1: Step Time =    1.000,"P-3-1",          1746,   130.340E-03,   79.5493E-03,            0.,NA,NA,"",   1.11498E+06,   1.05229E+06,   1.05229E+06
C:/temp/Job-3.odb,Step-1,Increment      1: Step Time =    1.000,"P-3-1",          1747,   128.829E-03,   17.9269E-03,            0.,NA,NA,"",   995.799E+03,   995.249E+03,   995.249E+03
C:/temp/Job-3.odb,Step-1,Increment      1: Step Time =    1.000,"P-3-1",          1748,   186.872E-03,   127.134E-03,            0.,NA,NA,"",   984.569E+03,   999.431E+03,   999.431E+03
C:/temp/Job-3.odb,Step-1,Increment      1: Step Time =    1.000,"P-3-1",          1749,   133.715E-03,   125.396E-03,            0.,NA,NA,"",   1.11920E+06,   1.07001E+06,   1.07001E+06
C:/temp/Job-3.odb,Step-1,Increment      1: Step Time =    1.000,"P-3-1",          1750,   128.892E-03,   74.8882E-03,            0.,NA,NA,"",   1.16941E+06,   1.10994E+06,   1.10994E+06
C:/temp/Job-3.odb,Step-1,Increment      1: Step Time =    1.000,"P-3-1",          1751,   67.6146E-03,   121.237E-03,            0.,NA,NA,"",   1.05651E+06,   1.03386E+06,   1.03386E+06
C:/temp/Job-3.odb,Step-1,Increment      1: Step Time =    1.000,"P-3-1",          1752,   60.9394E-03,   119.699E-03,            0.,NA,NA,"",   969.349E+03,   975.842E+03,   975.842E+03
C:/temp/Job-3.odb,Step-1,Increment      1: Step Time =    1.000,"P-3-1",          1753,   152.894E-03,   10.5578E-03,            0.,NA,NA,"",   996.422E+03,   995.327E+03,   995.327E+03
C:/temp/Job-3.odb,Step-1,Increment      1: Step Time =    1.000,"P-3-1",          1754,   185.395E-03,   152.749E-03,            0.,NA,NA,"",   1.00211E+06,   1.00494E+06,   1.00494E+06
C:/temp/Job-3.odb,Step-1,Increment      1: Step Time =    1.000,"P-3-1",          1755,   66.4377E-03,   83.5869E-03,            0.,NA,NA,"",   964.991E+03,   955.977E+03,   955.977E+03
C:/temp/Job-3.odb,Step-1,Increment      1: Step Time =    1.000,"P-3-1",          1756,   183.112E-03,   124.329E-03,            0.,NA,NA,"",   984.509E+03,   997.803E+03,   997.803E+03
C:/temp/Job-3.odb,Step-1,Increment      1: Step Time =    1.000,"P-3-1",          1757,   73.8382E-03,   182.071E-03,            0.,NA,NA,"",   998.146E+03,   1.00002E+06,   1.00002E+06
C:/temp/Job-3.odb,Step-1,Increment      1: Step Time =    1.000,"P-3-1",          1758,   124.536E-03,   19.5635E-03,            0.,NA,NA,"",   995.917E+03,   996.416E+03,   996.416E+03
C:/temp/Job-3.odb,Step-1,Increment      1: Step Time =    1.000,"P-3-1",          1759,   17.1991E-03,   78.0745E-03,            0.,NA,NA,"",   831.384E+03,   919.207E+03,   919.207E+03
C:/temp/Job-3.odb,Step-1,Increment      1: Step Time =    1.000,"P-3-1",          1760,   118.988E-03,   130.136E-03,            0.,NA,NA,"",   1.20842E+06,   1.18215E+06,   1.18215E+06
C:/temp/Job-3.odb,Step-1,Increment      1: Step Time =    1.000,"P-3-1",          1761,   113.685E-03,   124.848E-03,            0.,NA,NA,"",   1.27028E+06,   1.25970E+06,   1.25970E+06
C:/temp/Job-3.odb,Step-1,Increment      1: Step Time =    1.000,"P-3-1",          1762,   64.4479E-03,   98.7543E-03,            0.,NA,NA,"",   687.328E+03,   731.992E+03,   731.992E+03
C:/temp/Job-3.odb,Step-1,Increment      1: Step Time =    1.000,"P-3-1",          1763,   74.4127E-03,   123.684E-03,            0.,NA,NA,"",   1.17048E+06,   1.12756E+06,   1.12756E+06
C:/temp/Job-3.odb,Step-1,Increment      1: Step Time =    1.000,"P-3-1",          1764,   27.3538E-03,   84.7113E-03,            0.,NA,NA,"",   837.555E+03,   914.812E+03,   914.812E+03
C:/temp/Job-3.odb,Step-1,Increment      1: Step Time =    1.000,"P-3-1",          1765,   30.5035E-03,   95.4712E-03,            0.,NA,NA,"",   819.557E+03,   896.210E+03,   896.210E+03
C:/temp/Job-3.odb,Step-1,Increment      1: Step Time =    1.000,"P-3-1",          1766,   104.541E-03,   30.3569E-03,            0.,NA,NA,"",   1.00212E+06,   1.01480E+06,   1.01480E+06
C:/temp/Job-3.odb,Step-1,Increment      1: Step Time =    1.000,"P-3-1",          1767,   117.082E-03,   25.2791E-03,            0.,NA,NA,"",   1.00246E+06,   1.00673E+06,   1.00673E+06
C:/temp/Job-3.odb,Step-1,Increment      1: Step Time =    1.000,"P-3-1",          1768,   84.9898E-03,   173.945E-03,            0.,NA,NA,"",   1.00574E+06,   1.01354E+06,   1.01354E+06
C:/temp/Job-3.odb,Step-1,Increment      1: Step Time =    1.000,"P-3-1",          1769,   97.1070E-03,   172.150E-03,            0.,NA,NA,"",   998.204E+03,   1.00973E+06,   1.00973E+06
C:/temp/Job-3.odb,Step-1,Increment      1: Step Time =    1.000,"P-3-1",          1770,   170.393E-03,   103.178E-03,            0.,NA,NA,"",   952.759E+03,   966.142E+03,   966.142E+03
C:/temp/Job-3.odb,Step-1,Increment      1: Step Time =    1.000,"P-3-1",          1771,   172.524E-03,   116.089E-03,            0.,NA,NA,"",   973.617E+03,   983.139E+03,   983.139E+03
C:/temp/Job-3.odb,Step-1,Increment      1: Step Time =    1.000,"P-3-1",          1772,   142.813E-03,   93.6503E-03,            0.,NA,NA,"",   856.619E+03,   862.069E+03,   862.069E+03
C:/temp/Job-3.odb,Step-1,Increment      1: Step Time =    1.000,"P-3-1",          1773,   148.714E-03,   20.0843E-03,            0.,NA,NA,"",   1.00935E+06,   1.00594E+06,   1.00594E+06
C:/temp/Job-3.odb,Step-1,Increment      1: Step Time =    1.000,"P-3-1",          1774,   176.980E-03,   152.979E-03,            0.,NA,NA,"",   1.01197E+06,   1.01094E+06,   1.01094E+06
C:/temp/Job-3.odb,Step-1,Increment      1: Step Time =    1.000,"P-3-1",          1775,   33.9880E-03,   19.2878E-03,            0.,NA,NA,"",   1.05581E+06,   1.06943E+06,   1.06943E+06
C:/temp/Job-3.odb,Step-1,Increment      1: Step Time =    1.000,"P-3-1",          1776,   179.579E-03,   36.3964E-03,            0.,NA,NA,"",   1.00782E+06,   1.00712E+06,   1.00712E+06
C:/temp/Job-3.odb,Step-1,Increment      1: Step Time =    1.000,"P-3-1",          1777,   21.2175E-03,   163.747E-03,            0.,NA,NA,"",   984.944E+03,   1.04596E+06,   1.04596E+06
C:/temp/Job-3.odb,Step-1,Increment      1: Step Time =    1.000,"P-3-1",          1778,   163.392E-03,   179.135E-03,            0.,NA,NA,"",   1.00901E+06,   1.00634E+06,   1.00634E+06
C:/temp/Job-3.odb,Step-1,Increment      1: Step Time =    1.000,"P-3-1",          1779,   73.2772E-03,   78.9788E-03,            0.,NA,NA,"",   1.13232E+06,   1.08632E+06,   1.08632E+06
C:/temp/Job-3.odb,Step-1,Increment      1: Step Time =    1.000,"P-3-1",          1780,   14.1191E-03,   34.9557E-03,            0.,NA,NA,"",   961.896E+03,   1.03972E+06,   1.03972E+06
C:/temp/Job-3.odb,Step-1,Increment      1: Step Time =    1.000,"P-3-1",          1781,   165.116E-03,   16.6482E-03,            0.,NA,NA,"",   1.00464E+06,   1.00295E+06,   1.00295E+06
C:/temp/Job-3.odb,Step-1,Increment      1: Step Time =    1.000,"P-3-1",          1782,   33.7759E-03,   186.951E-03,            0.,NA,NA,"",   1.05315E+06,   1.05977E+06,   1.05977E+06
C:/temp/Job-3.odb,Step-1,Increment      1: Step Time =    1.000,"P-3-1",          1783,   183.711E-03,   163.599E-03,            0.,NA,NA,"",   1.00458E+06,   1.00495E+06,   1.00495E+06
C:/temp/Job-3.odb,Step-1,Increment      1: Step Time =    1.000,"P-3-1",          1784,   141.847E-03,   90.7454E-03,            0.,NA,NA,"",   882.531E+03,   880.415E+03,   880.415E+03
C:/temp/Job-3.odb,Step-1,Increment      1: Step Time =    1.000,"P-3-1",          1785,   137.745E-03,   86.2488E-03,            0.,NA,NA,"",   956.965E+03,   932.825E+03,   932.825E+03
C:/temp/Job-3.odb,Step-1,Increment      1: Step Time =    1.000,"P-3-1",          1786,   98.3818E-03,   126.281E-03,            0.,NA,NA,"",   1.13220E+06,   1.23936E+06,   1.23936E+06
C:/temp/Job-3.odb,Step-1,Increment      1: Step Time =    1.000,"P-3-1",          1787,   106.087E-03,   127.260E-03,            0.,NA,NA,"",   1.15299E+06,   1.23185E+06,   1.23185E+06
C:/temp/Job-3.odb,Step-1,Increment      1: Step Time =    1.000,"P-3-1",          1788,   141.667E-03,   110.555E-03,            0.,NA,NA,"",   898.386E+03,   892.802E+03,   892.802E+03
C:/temp/Job-3.odb,Step-1,Increment      1: Step Time =    1.000,"P-3-1",          1789,   138.114E-03,   110.951E-03,            0.,NA,NA,"",   899.019E+03,   885.826E+03,   885.826E+03
C:/temp/Job-3.odb,Step-1,Increment      1: Step Time =    1.000,"P-3-1",          1790,   189.777E-03,   34.9679E-03,            0.,NA,NA,"",   1.00059E+06,   1.00184E+06,   1.00184E+06
C:/temp/Job-3.odb,Step-1,Increment      1: Step Time =    1.000,"P-3-1",          1791,   164.325E-03,   189.846E-03,            0.,NA,NA,"",   999.511E+03,   998.782E+03,   998.782E+03
C:/temp/Job-3.odb,Step-1,Increment      1: Step Time =    1.000,"P-3-1",          1792,   36.5236E-03,   11.3700E-03,            0.,NA,NA,"",   1.04281E+06,   1.04679E+06,   1.04679E+06
C:/temp/Job-3.odb,Step-1,Increment      1: Step Time =    1.000,"P-3-1",          1793,   10.3851E-03,   167.243E-03,            0.,NA,NA,"",   956.377E+03,   1.04169E+06,   1.04169E+06
C:/temp/Job-3.odb,Step-1,Increment      1: Step Time =    1.000,"P-3-1",          1794,   85.3650E-03,   27.6377E-03,            0.,NA,NA,"",   1.00859E+06,   1.01718E+06,   1.01718E+06
C:/temp/Job-3.odb,Step-1,Increment      1: Step Time =    1.000,"P-3-1",          1795,   174.240E-03,   85.9347E-03,            0.,NA,NA,"",   971.014E+03,   982.632E+03,   982.632E+03
C:/temp/Job-3.odb,Step-1,Increment      1: Step Time =    1.000,"P-3-1",          1796,   117.249E-03,   173.993E-03,            0.,NA,NA,"",   1.00446E+06,   1.00886E+06,   1.00886E+06
C:/temp/Job-3.odb,Step-1,Increment      1: Step Time =    1.000,"P-3-1",          1797,   59.5201E-03,   96.6980E-03,            0.,NA,NA,"",   748.632E+03,   795.666E+03,   795.666E+03
C:/temp/Job-3.odb,Step-1,Increment      1: Step Time =    1.000,"P-3-1",          1798,   107.584E-03,   57.0689E-03,            0.,NA,NA,"",   1.05269E+06,   1.09143E+06,   1.09143E+06
C:/temp/Job-3.odb,Step-1,Increment      1: Step Time =    1.000,"P-3-1",          1799,   104.956E-03,   53.2267E-03,            0.,NA,NA,"",   1.03464E+06,   1.07309E+06,   1.07309E+06
C:/temp/Job-3.odb,Step-1,Increment      1: Step Time =    1.000,"P-3-1",          1800,   137.938E-03,   120.141E-03,            0.,NA,NA,"",   1.04288E+06,   1.00488E+06,   1.00488E+06
C:/temp/Job-3.odb,Step-1,Increment      1: Step Time =    1.000,"P-3-1",          1801,   58.1122E-03,   92.9830E-03,            0.,NA,NA,"",   791.295E+03,   833.663E+03,   833.663E+03
C:/temp/Job-3.odb,Step-1,Increment      1: Step Time =    1.000,"P-3-1",          1802,   10.4809E-03,   39.3645E-03,            0.,NA,NA,"",   926.842E+03,   1.01529E+06,   1.01529E+06
C:/temp/Job-3.odb,Step-1,Increment      1: Step Time =    1.000,"P-3-1",          1803,   159.222E-03,   11.4034E-03,            0.,NA,NA,"",   999.516E+03,   998.406E+03,   998.406E+03
C:/temp/Job-3.odb,Step-1,Increment      1: Step Time =    1.000,"P-3-1",          1804,   42.5750E-03,   188.187E-03,            0.,NA,NA,"",   1.02790E+06,   1.03062E+06,   1.03062E+06
C:/temp/Job-3.odb,Step-1,Increment      1: Step Time =    1.000,"P-3-1",          1805,   189.566E-03,   158.957E-03,            0.,NA,NA,"",   999.930E+03,   1.00239E+06,   1.00239E+06
C:/temp/Job-3.odb,Step-1,Increment      1: Step Time =    1.000,"P-3-1",          1806,   90.3901E-03,   63.3179E-03,            0.,NA,NA,"",   1.09253E+06,   1.13642E+06,   1.13642E+06
C:/temp/Job-3.odb,Step-1,Increment      1: Step Time =    1.000,"P-3-1",          1807,   179.277E-03,   158.697E-03,            0.,NA,NA,"",   1.00902E+06,   1.00851E+06,   1.00851E+06
C:/temp/Job-3.odb,Step-1,Increment      1: Step Time =    1.000,"P-3-1",          1808,   158.425E-03,   20.5062E-03,            0.,NA,NA,"",   1.00977E+06,   1.00666E+06,   1.00666E+06
C:/temp/Job-3.odb,Step-1,Increment      1: Step Time =    1.000,"P-3-1",          1809,   38.7458E-03,   182.343E-03,            0.,NA,NA,"",   1.04564E+06,   1.05360E+06,   1.05360E+06
C:/temp/Job-3.odb,Step-1,Increment      1: Step Time =    1.000,"P-3-1",          1810,   19.4232E-03,   39.3506E-03,            0.,NA,NA,"",   966.027E+03,   1.03398E+06,   1.03398E+06
C:/temp/Job-3.odb,Step-1,Increment      1: Step Time =    1.000,"P-3-1",          1811,   119.393E-03,   66.8878E-03,            0.,NA,NA,"",   1.17603E+06,   1.16131E+06,   1.16131E+06
C:/temp/Job-3.odb,Step-1,Increment      1: Step Time =    1.000,"P-3-1",          1812,   141.932E-03,   114.184E-03,            0.,NA,NA,"",   947.732E+03,   932.685E+03,   932.685E+03
C:/temp/Job-3.odb,Step-1,Increment      1: Step Time =    1.000,"P-3-1",          1813,   145.439E-03,   110.617E-03,            0.,NA,NA,"",   907.799E+03,   906.260E+03,   906.260E+03
C:/temp/Job-3.odb,Step-1,Increment      1: Step Time =    1.000,"P-3-1",          1814,   104.055E-03,   129.809E-03,            0.,NA,NA,"",   1.09898E+06,   1.18381E+06,   1.18381E+06
C:/temp/Job-3.odb,Step-1,Increment      1: Step Time =    1.000,"P-3-1",          1815,   108.846E-03,   129.708E-03,            0.,NA,NA,"",   1.15132E+06,   1.20161E+06,   1.20161E+06
C:/temp/Job-3.odb,Step-1,Increment      1: Step Time =    1.000,"P-3-1",          1816,   73.6354E-03,   127.118E-03,            0.,NA,NA,"",   1.16291E+06,   1.13181E+06,   1.13181E+06
C:/temp/Job-3.odb,Step-1,Increment      1: Step Time =    1.000,"P-3-1",          1817,   15.0256E-03,   74.1094E-03,            0.,NA,NA,"",   835.272E+03,   924.926E+03,   924.926E+03
C:/temp/Job-3.odb,Step-1,Increment      1: Step Time =    1.000,"P-3-1",          1818,   71.1488E-03,   183.152E-03,            0.,NA,NA,"",   998.569E+03,   999.862E+03,   999.862E+03
C:/temp/Job-3.odb,Step-1,Increment      1: Step Time =    1.000,"P-3-1",          1819,   136.247E-03,   84.2901E-03,            0.,NA,NA,"",   991.874E+03,   958.721E+03,   958.721E+03
C:/temp/Job-3.odb,Step-1,Increment      1: Step Time =    1.000,"P-3-1",          1820,   120.364E-03,   62.5773E-03,            0.,NA,NA,"",   1.14269E+06,   1.13363E+06,   1.13363E+06
C:/temp/Job-3.odb,Step-1,Increment      1: Step Time =    1.000,"P-3-1",          1821,   126.881E-03,   65.3357E-03,            0.,NA,NA,"",   1.16142E+06,   1.12796E+06,   1.12796E+06
C:/temp/Job-3.odb,Step-1,Increment      1: Step Time =    1.000,"P-3-1",          1822,   27.9045E-03,   99.7534E-03,            0.,NA,NA,"",   815.073E+03,   894.864E+03,   894.864E+03
C:/temp/Job-3.odb,Step-1,Increment      1: Step Time =    1.000,"P-3-1",          1823,   102.912E-03,   26.8920E-03,            0.,NA,NA,"",   996.007E+03,   1.00673E+06,   1.00673E+06
C:/temp/Job-3.odb,Step-1,Increment      1: Step Time =    1.000,"P-3-1",          1824,   101.323E-03,   172.081E-03,            0.,NA,NA,"",   997.460E+03,   1.00901E+06,   1.00901E+06
C:/temp/Job-3.odb,Step-1,Increment      1: Step Time =    1.000,"P-3-1",          1825,   173.192E-03,   101.289E-03,            0.,NA,NA,"",   956.447E+03,   971.213E+03,   971.213E+03
C:/temp/Job-3.odb,Step-1,Increment      1: Step Time =    1.000,"P-3-1",          1826,   43.1809E-03,   15.0595E-03,            0.,NA,NA,"",   1.03520E+06,   1.03921E+06,   1.03921E+06
C:/temp/Job-3.odb,Step-1,Increment      1: Step Time =    1.000,"P-3-1",          1827,   14.4531E-03,   157.237E-03,            0.,NA,NA,"",   932.796E+03,    1.0138E+06,    1.0138E+06
C:/temp/Job-3.odb,Step-1,Increment      1: Step Time =    1.000,"P-3-1",          1828,   184.394E-03,   43.1874E-03,            0.,NA,NA,"",   1.00357E+06,   1.00520E+06,   1.00520E+06
C:/temp/Job-3.odb,Step-1,Increment      1: Step Time =    1.000,"P-3-1",          1829,   159.033E-03,   185.745E-03,            0.,NA,NA,"",   1.00256E+06,   1.00090E+06,   1.00090E+06
C:/temp/Job-3.odb,Step-1,Increment      1: Step Time =    1.000,"P-3-1",          1830,   34.6067E-03,   95.4284E-03,            0.,NA,NA,"",   821.698E+03,   893.769E+03,   893.769E+03
C:/temp/Job-3.odb,Step-1,Increment      1: Step Time =    1.000,"P-3-1",          1831,   106.059E-03,   33.3880E-03,            0.,NA,NA,"",   1.00787E+06,   1.02203E+06,   1.02203E+06
C:/temp/Job-3.odb,Step-1,Increment      1: Step Time =    1.000,"P-3-1",          1832,   95.8758E-03,   167.685E-03,            0.,NA,NA,"",   1.00569E+06,   1.02091E+06,   1.02091E+06
C:/temp/Job-3.odb,Step-1,Increment      1: Step Time =    1.000,"P-3-1",          1833,   167.631E-03,   105.036E-03,            0.,NA,NA,"",   949.278E+03,   961.267E+03,   961.267E+03
C:/temp/Job-3.odb,Step-1,Increment      1: Step Time =    1.000,"P-3-1",          1834,   26.3330E-03,   80.6390E-03,            0.,NA,NA,"",   846.780E+03,   923.929E+03,   923.929E+03
C:/temp/Job-3.odb,Step-1,Increment      1: Step Time =    1.000,"P-3-1",          1835,   119.461E-03,   24.4705E-03,            0.,NA,NA,"",   1.00303E+06,   1.00603E+06,   1.00603E+06
C:/temp/Job-3.odb,Step-1,Increment      1: Step Time =    1.000,"P-3-1",          1836,   81.8644E-03,   174.326E-03,            0.,NA,NA,"",   1.00887E+06,   1.01541E+06,   1.01541E+06
C:/temp/Job-3.odb,Step-1,Increment      1: Step Time =    1.000,"P-3-1",          1837,   173.213E-03,   118.388E-03,            0.,NA,NA,"",   978.502E+03,   987.319E+03,   987.319E+03
C:/temp/Job-3.odb,Step-1,Increment      1: Step Time =    1.000,"P-3-1",          1838,   157.763E-03,   15.9654E-03,            0.,NA,NA,"",   1.00399E+06,   1.00195E+06,   1.00195E+06
C:/temp/Job-3.odb,Step-1,Increment      1: Step Time =    1.000,"P-3-1",          1839,   186.496E-03,   156.638E-03,            0.,NA,NA,"",   1.00169E+06,   1.00404E+06,   1.00404E+06
C:/temp/Job-3.odb,Step-1,Increment      1: Step Time =    1.000,"P-3-1",          1840,   130.248E-03,   21.4204E-03,            0.,NA,NA,"",   1.00527E+06,   1.00408E+06,   1.00408E+06
C:/temp/Job-3.odb,Step-1,Increment      1: Step Time =    1.000,"P-3-1",          1841,   131.655E-03,   126.973E-03,            0.,NA,NA,"",   1.14678E+06,   1.09383E+06,   1.09383E+06
C:/temp/Job-3.odb,Step-1,Increment      1: Step Time =    1.000,"P-3-1",          1842,   79.1559E-03,   177.886E-03,            0.,NA,NA,"",   1.00336E+06,   1.00769E+06,   1.00769E+06
C:/temp/Job-3.odb,Step-1,Increment      1: Step Time =    1.000,"P-3-1",          1843,   176.458E-03,   120.808E-03,            0.,NA,NA,"",   982.779E+03,   992.539E+03,   992.539E+03
C:/temp/Job-3.odb,Step-1,Increment      1: Step Time =    1.000,"P-3-1",          1844,   21.6478E-03,   81.8353E-03,            0.,NA,NA,"",   832.720E+03,   916.229E+03,   916.229E+03
C:/temp/Job-3.odb,Step-1,Increment      1: Step Time =    1.000,"P-3-1",          1845,   121.588E-03,   21.7477E-03,            0.,NA,NA,"",   998.934E+03,   1.00066E+06,   1.00066E+06
C:/temp/Job-3.odb,Step-1,Increment      1: Step Time =    1.000,"P-3-1",          1846,   57.5004E-03,   116.042E-03,            0.,NA,NA,"",   903.191E+03,   927.690E+03,   927.690E+03
C:/temp/Job-3.odb,Step-1,Increment      1: Step Time =    1.000,"P-3-1",          1847,   149.866E-03,   10.6048E-03,            0.,NA,NA,"",   995.189E+03,   994.056E+03,   994.056E+03
C:/temp/Job-3.odb,Step-1,Increment      1: Step Time =    1.000,"P-3-1",          1848,   188.292E-03,   151.219E-03,            0.,NA,NA,"",   998.983E+03,   1.00333E+06,   1.00333E+06
C:/temp/Job-3.odb,Step-1,Increment      1: Step Time =    1.000,"P-3-1",          1849,   69.3232E-03,   79.5127E-03,            0.,NA,NA,"",   1.06367E+06,   1.03517E+06,   1.03517E+06
C:/temp/Job-3.odb,Step-1,Increment      1: Step Time =    1.000,"P-3-1",          1850,   113.935E-03,   129.906E-03,            0.,NA,NA,"",   1.19697E+06,   1.20241E+06,   1.20241E+06
C:/temp/Job-3.odb,Step-1,Increment      1: Step Time =    1.000,"P-3-1",          1851,   121.623E-03,   128.085E-03,            0.,NA,NA,"",   1.21848E+06,   1.17343E+06,   1.17343E+06
C:/temp/Job-3.odb,Step-1,Increment      1: Step Time =    1.000,"P-3-1",          1852,   142.656E-03,   86.5431E-03,            0.,NA,NA,"",   942.798E+03,   929.848E+03,   929.848E+03
C:/temp/Job-3.odb,Step-1,Increment      1: Step Time =    1.000,"P-3-1",          1853,   95.5577E-03,   124.780E-03,            0.,NA,NA,"",   1.17928E+06,   1.27586E+06,   1.27586E+06
C:/temp/Job-3.odb,Step-1,Increment      1: Step Time =    1.000,"P-3-1",          1854,   110.657E-03,   56.9277E-03,            0.,NA,NA,"",   1.06647E+06,   1.09631E+06,   1.09631E+06
C:/temp/Job-3.odb,Step-1,Increment      1: Step Time =    1.000,"P-3-1",          1855,   56.7888E-03,   88.4963E-03,            0.,NA,NA,"",   849.333E+03,   884.183E+03,   884.183E+03
C:/temp/Job-3.odb,Step-1,Increment      1: Step Time =    1.000,"P-3-1",          1856,   147.980E-03,   22.7497E-03,            0.,NA,NA,"",   1.01455E+06,   1.01026E+06,   1.01026E+06
C:/temp/Job-3.odb,Step-1,Increment      1: Step Time =    1.000,"P-3-1",          1857,   174.164E-03,   151.796E-03,            0.,NA,NA,"",   1.01581E+06,   1.01342E+06,   1.01342E+06
C:/temp/Job-3.odb,Step-1,Increment      1: Step Time =    1.000,"P-3-1",          1858,   9.44389E-03,   41.6108E-03,            0.,NA,NA,"",   912.807E+03,   1.00455E+06,   1.00455E+06
C:/temp/Job-3.odb,Step-1,Increment      1: Step Time =    1.000,"P-3-1",          1859,   156.076E-03,   10.7005E-03,            0.,NA,NA,"",   998.023E+03,   996.925E+03,   996.925E+03
C:/temp/Job-3.odb,Step-1,Increment      1: Step Time =    1.000,"P-3-1",          1860,   40.9990E-03,   190.895E-03,            0.,NA,NA,"",   1.02360E+06,   1.02549E+06,   1.02549E+06
C:/temp/Job-3.odb,Step-1,Increment      1: Step Time =    1.000,"P-3-1",          1861,   190.753E-03,   156.721E-03,            0.,NA,NA,"",   998.877E+03,   1.00209E+06,   1.00209E+06
C:/temp/Job-3.odb,Step-1,Increment      1: Step Time =    1.000,"P-3-1",          1862,   175.695E-03,   156.106E-03,            0.,NA,NA,"",   1.01383E+06,   1.01186E+06,   1.01186E+06
C:/temp/Job-3.odb,Step-1,Increment      1: Step Time =    1.000,"P-3-1",          1863,   159.038E-03,   24.4506E-03,            0.,NA,NA,"",   1.01476E+06,   1.01068E+06,   1.01068E+06
C:/temp/Job-3.odb,Step-1,Increment      1: Step Time =    1.000,"P-3-1",          1864,   42.7214E-03,   178.402E-03,            0.,NA,NA,"",   1.04461E+06,   1.05334E+06,   1.05334E+06
C:/temp/Job-3.odb,Step-1,Increment      1: Step Time =    1.000,"P-3-1",          1865,   21.7938E-03,   41.7745E-03,            0.,NA,NA,"",   965.723E+03,   1.03023E+06,   1.03023E+06
C:/temp/Job-3.odb,Step-1,Increment      1: Step Time =    1.000,"P-3-1",          1866,   164.609E-03,   175.658E-03,            0.,NA,NA,"",   1.01194E+06,   1.00875E+06,   1.00875E+06
C:/temp/Job-3.odb,Step-1,Increment      1: Step Time =    1.000,"P-3-1",          1867,   23.3081E-03,   167.063E-03,            0.,NA,NA,"",   1.00902E+06,   1.06106E+06,   1.06106E+06
C:/temp/Job-3.odb,Step-1,Increment      1: Step Time =    1.000,"P-3-1",          1868,   174.824E-03,   35.0771E-03,            0.,NA,NA,"",   1.01195E+06,   1.00976E+06,   1.00976E+06
C:/temp/Job-3.odb,Step-1,Increment      1: Step Time =    1.000,"P-3-1",          1869,   33.3370E-03,   23.6188E-03,            0.,NA,NA,"",   1.05206E+06,   1.07144E+06,   1.07144E+06
C:/temp/Job-3.odb,Step-1,Increment      1: Step Time =    1.000,"P-3-1",          1870,   134.059E-03,   80.8067E-03,            0.,NA,NA,"",   1.05823E+06,   1.01020E+06,   1.01020E+06
C:/temp/Job-3.odb,Step-1,Increment      1: Step Time =    1.000,"P-3-1",          1871,   181.122E-03,   162.102E-03,            0.,NA,NA,"",   1.00691E+06,   1.00674E+06,   1.00674E+06
C:/temp/Job-3.odb,Step-1,Increment      1: Step Time =    1.000,"P-3-1",          1872,   36.9704E-03,   184.869E-03,            0.,NA,NA,"",   1.04538E+06,   1.05256E+06,   1.05256E+06
C:/temp/Job-3.odb,Step-1,Increment      1: Step Time =    1.000,"P-3-1",          1873,   164.042E-03,   19.4449E-03,            0.,NA,NA,"",   1.00719E+06,   1.00492E+06,   1.00492E+06
C:/temp/Job-3.odb,Step-1,Increment      1: Step Time =    1.000,"P-3-1",          1874,   16.8722E-03,   37.0463E-03,            0.,NA,NA,"",   964.935E+03,   1.03733E+06,   1.03733E+06
C:/temp/Job-3.odb,Step-1,Increment      1: Step Time =    1.000,"P-3-1",          1875,   66.3205E-03,   101.894E-03,            0.,NA,NA,"",   662.538E+03,   704.725E+03,   704.725E+03
C:/temp/Job-3.odb,Step-1,Increment      1: Step Time =    1.000,"P-3-1",          1876,   170.265E-03,   141.526E-03,            0.,NA,NA,"",   1.01798E+06,   1.01455E+06,   1.01455E+06
C:/temp/Job-3.odb,Step-1,Increment      1: Step Time =    1.000,"P-3-1",          1877,   140.943E-03,   27.9172E-03,            0.,NA,NA,"",   1.02492E+06,   1.01945E+06,   1.01945E+06
C:/temp/Job-3.odb,Step-1,Increment      1: Step Time =    1.000,"P-3-1",          1878,   148.656E-03,   103.705E-03,            0.,NA,NA,"",   878.195E+03,   887.553E+03,   887.553E+03
C:/temp/Job-3.odb,Step-1,Increment      1: Step Time =    1.000,"P-3-1",          1879,   171.038E-03,   94.7418E-03,            0.,NA,NA,"",   955.986E+03,   969.241E+03,   969.241E+03
C:/temp/Job-3.odb,Step-1,Increment      1: Step Time =    1.000,"P-3-1",          1880,   28.3313E-03,   106.107E-03,            0.,NA,NA,"",   819.538E+03,   898.452E+03,   898.452E+03
C:/temp/Job-3.odb,Step-1,Increment      1: Step Time =    1.000,"P-3-1",          1881,   95.6594E-03,   26.7749E-03,            0.,NA,NA,"",   996.979E+03,   1.00775E+06,   1.00775E+06
C:/temp/Job-3.odb,Step-1,Increment      1: Step Time =    1.000,"P-3-1",          1882,   26.7415E-03,   118.267E-03,            0.,NA,NA,"",   844.199E+03,   921.374E+03,   921.374E+03
C:/temp/Job-3.odb,Step-1,Increment      1: Step Time =    1.000,"P-3-1",          1883,   82.2058E-03,   30.0818E-03,            0.,NA,NA,"",   1.01879E+06,   1.02729E+06,   1.02729E+06
C:/temp/Job-3.odb,Step-1,Increment      1: Step Time =    1.000,"P-3-1",          1884,   118.369E-03,   170.448E-03,            0.,NA,NA,"",   1.01350E+06,   1.01831E+06,   1.01831E+06
C:/temp/Job-3.odb,Step-1,Increment      1: Step Time =    1.000,"P-3-1",          1885,   172.004E-03,   81.8033E-03,            0.,NA,NA,"",   978.237E+03,   986.191E+03,   986.191E+03
C:/temp/Job-3.odb,Step-1,Increment      1: Step Time =    1.000,"P-3-1",          1886,   11.4765E-03,   160.006E-03,            0.,NA,NA,"",   927.971E+03,   1.01492E+06,   1.01492E+06
C:/temp/Job-3.odb,Step-1,Increment      1: Step Time =    1.000,"P-3-1",          1887,   40.3614E-03,   11.9294E-03,            0.,NA,NA,"",   1.03303E+06,   1.03600E+06,   1.03600E+06
C:/temp/Job-3.odb,Step-1,Increment      1: Step Time =    1.000,"P-3-1",          1888,   161.691E-03,   186.545E-03,            0.,NA,NA,"",   1.00181E+06,   1.00046E+06,   1.00046E+06
C:/temp/Job-3.odb,Step-1,Increment      1: Step Time =    1.000,"P-3-1",          1889,   187.725E-03,   41.5160E-03,            0.,NA,NA,"",   1.00134E+06,   1.00340E+06,   1.00340E+06
C:/temp/Job-3.odb,Step-1,Increment      1: Step Time =    1.000,"P-3-1",          1890,   71.2020E-03,   20.1067E-03,            0.,NA,NA,"",   1.00801E+06,   1.01006E+06,   1.01006E+06
C:/temp/Job-3.odb,Step-1,Increment      1: Step Time =    1.000,"P-3-1",          1891,   181.758E-03,   71.8533E-03,            0.,NA,NA,"",   989.732E+03,   999.899E+03,   999.899E+03
C:/temp/Job-3.odb,Step-1,Increment      1: Step Time =    1.000,"P-3-1",          1892,   128.886E-03,   179.990E-03,            0.,NA,NA,"",   1.00090E+06,   1.00014E+06,   1.00014E+06
C:/temp/Job-3.odb,Step-1,Increment      1: Step Time =    1.000,"P-3-1",          1893,   161.791E-03,   27.6605E-03,            0.,NA,NA,"",   1.01715E+06,   1.01269E+06,   1.01269E+06
C:/temp/Job-3.odb,Step-1,Increment      1: Step Time =    1.000,"P-3-1",          1894,   174.435E-03,   163.825E-03,            0.,NA,NA,"",   1.01278E+06,   1.01047E+06,   1.01047E+06
C:/temp/Job-3.odb,Step-1,Increment      1: Step Time =    1.000,"P-3-1",          1895,   26.8457E-03,   37.3648E-03,            0.,NA,NA,"",   1.00064E+06,   1.04997E+06,   1.04997E+06
C:/temp/Job-3.odb,Step-1,Increment      1: Step Time =    1.000,"P-3-1",          1896,   33.6091E-03,   172.754E-03,            0.,NA,NA,"",   1.04382E+06,   1.06803E+06,   1.06803E+06
C:/temp/Job-3.odb,Step-1,Increment      1: Step Time =    1.000,"P-3-1",          1897,   39.1875E-03,   185.213E-03,            0.,NA,NA,"",   1.03995E+06,   1.04525E+06,   1.04525E+06
C:/temp/Job-3.odb,Step-1,Increment      1: Step Time =    1.000,"P-3-1",          1898,   14.3224E-03,   43.3412E-03,            0.,NA,NA,"",   928.384E+03,   1.01044E+06,   1.01044E+06
C:/temp/Job-3.odb,Step-1,Increment      1: Step Time =    1.000,"P-3-1",          1899,   130.766E-03,   72.1010E-03,            0.,NA,NA,"",   1.15598E+06,   1.10557E+06,   1.10557E+06
C:/temp/Job-3.odb,Step-1,Increment      1: Step Time =    1.000,"P-3-1",          1900,   58.6097E-03,   84.9179E-03,            0.,NA,NA,"",   901.580E+03,   923.773E+03,   923.773E+03
C:/temp/Job-3.odb,Step-1,Increment      1: Step Time =    1.000,"P-3-1",          1901,   81.5136E-03,   125.231E-03,            0.,NA,NA,"",   1.24132E+06,   1.21258E+06,   1.21258E+06
C:/temp/Job-3.odb,Step-1,Increment      1: Step Time =    1.000,"P-3-1",          1902,   125.299E-03,   13.9145E-03,            0.,NA,NA,"",   983.380E+03,   983.610E+03,   983.610E+03
C:/temp/Job-3.odb,Step-1,Increment      1: Step Time =    1.000,"P-3-1",          1903,   167.735E-03,   136.211E-03,            0.,NA,NA,"",   1.01647E+06,   1.01244E+06,   1.01244E+06
C:/temp/Job-3.odb,Step-1,Increment      1: Step Time =    1.000,"P-3-1",          1904,   135.582E-03,   32.5250E-03,            0.,NA,NA,"",   1.03556E+06,   1.02974E+06,   1.02974E+06
C:/temp/Job-3.odb,Step-1,Increment      1: Step Time =    1.000,"P-3-1",          1905,   56.0877E-03,   97.8723E-03,            0.,NA,NA,"",   767.133E+03,   818.200E+03,   818.200E+03
C:/temp/Job-3.odb,Step-1,Increment      1: Step Time =    1.000,"P-3-1",          1906,   57.5991E-03,   113.287E-03,            0.,NA,NA,"",   871.574E+03,   900.875E+03,   900.875E+03
C:/temp/Job-3.odb,Step-1,Increment      1: Step Time =    1.000,"P-3-1",          1907,   78.7675E-03,   174.845E-03,            0.,NA,NA,"",   1.01182E+06,   1.01710E+06,   1.01710E+06
C:/temp/Job-3.odb,Step-1,Increment      1: Step Time =    1.000,"P-3-1",          1908,   24.1741E-03,   78.9583E-03,            0.,NA,NA,"",   846.497E+03,   925.813E+03,   925.813E+03
C:/temp/Job-3.odb,Step-1,Increment      1: Step Time =    1.000,"P-3-1",          1909,   173.271E-03,   120.713E-03,            0.,NA,NA,"",   982.784E+03,   990.475E+03,   990.475E+03
C:/temp/Job-3.odb,Step-1,Increment      1: Step Time =    1.000,"P-3-1",          1910,   122.762E-03,   24.9849E-03,            0.,NA,NA,"",   1.00682E+06,   1.00840E+06,   1.00840E+06
C:/temp/Job-3.odb,Step-1,Increment      1: Step Time =    1.000,"P-3-1",          1911,   71.1631E-03,   71.8311E-03,            0.,NA,NA,"",   1.13898E+06,   1.11317E+06,   1.11317E+06
C:/temp/Job-3.odb,Step-1,Increment      1: Step Time =    1.000,"P-3-1",          1912,   72.5725E-03,   67.5085E-03,            0.,NA,NA,"",   1.14099E+06,   1.12419E+06,   1.12419E+06
C:/temp/Job-3.odb,Step-1,Increment      1: Step Time =    1.000,"P-3-1",          1913,   172.518E-03,   79.0997E-03,            0.,NA,NA,"",   983.719E+03,   990.604E+03,   990.604E+03
C:/temp/Job-3.odb,Step-1,Increment      1: Step Time =    1.000,"P-3-1",          1914,   122.687E-03,   171.197E-03,            0.,NA,NA,"",   1.01664E+06,   1.01840E+06,   1.01840E+06
C:/temp/Job-3.odb,Step-1,Increment      1: Step Time =    1.000,"P-3-1",          1915,   76.5110E-03,   25.5559E-03,            0.,NA,NA,"",   1.01607E+06,   1.02063E+06,   1.02063E+06
C:/temp/Job-3.odb,Step-1,Increment      1: Step Time =    1.000,"P-3-1",          1916,   27.3024E-03,   121.799E-03,            0.,NA,NA,"",   857.405E+03,   932.027E+03,   932.027E+03
C:/temp/Job-3.odb,Step-1,Increment      1: Step Time =    1.000,"P-3-1",          1917,   169.074E-03,   80.1815E-03,            0.,NA,NA,"",   981.512E+03,   986.651E+03,   986.651E+03
C:/temp/Job-3.odb,Step-1,Increment      1: Step Time =    1.000,"P-3-1",          1918,   119.053E-03,   166.799E-03,            0.,NA,NA,"",   1.02294E+06,   1.02796E+06,   1.02796E+06
C:/temp/Job-3.odb,Step-1,Increment      1: Step Time =    1.000,"P-3-1",          1919,   80.0008E-03,   32.4900E-03,            0.,NA,NA,"",   1.02711E+06,   1.03567E+06,   1.03567E+06
C:/temp/Job-3.odb,Step-1,Increment      1: Step Time =    1.000,"P-3-1",          1920,   31.4474E-03,   117.187E-03,            0.,NA,NA,"",   851.422E+03,   922.462E+03,   922.462E+03
C:/temp/Job-3.odb,Step-1,Increment      1: Step Time =    1.000,"P-3-1",          1921,   98.3404E-03,   25.8484E-03,            0.,NA,NA,"",   994.511E+03,   1.00485E+06,   1.00485E+06
C:/temp/Job-3.odb,Step-1,Increment      1: Step Time =    1.000,"P-3-1",          1922,   26.3125E-03,   103.658E-03,            0.,NA,NA,"",   815.093E+03,   896.447E+03,   896.447E+03
C:/temp/Job-3.odb,Step-1,Increment      1: Step Time =    1.000,"P-3-1",          1923,   171.065E-03,   98.8169E-03,            0.,NA,NA,"",   952.562E+03,   966.490E+03,   966.490E+03
C:/temp/Job-3.odb,Step-1,Increment      1: Step Time =    1.000,"P-3-1",          1924,   103.628E-03,   170.762E-03,            0.,NA,NA,"",   1.00006E+06,   1.01246E+06,   1.01246E+06
C:/temp/Job-3.odb,Step-1,Increment      1: Step Time =    1.000,"P-3-1",          1925,   124.536E-03,   126.460E-03,            0.,NA,NA,"",   1.20855E+06,   1.15140E+06,   1.15140E+06
C:/temp/Job-3.odb,Step-1,Increment      1: Step Time =    1.000,"P-3-1",          1926,   191.872E-03,   149.784E-03,            0.,NA,NA,"",   995.941E+03,   1.00180E+06,   1.00180E+06
C:/temp/Job-3.odb,Step-1,Increment      1: Step Time =    1.000,"P-3-1",          1927,   149.343E-03,   7.39572E-03,            0.,NA,NA,"",   990.934E+03,   990.322E+03,   990.322E+03
C:/temp/Job-3.odb,Step-1,Increment      1: Step Time =    1.000,"P-3-1",          1928,   144.779E-03,   28.3573E-03,            0.,NA,NA,"",   1.02629E+06,   1.02011E+06,   1.02011E+06
C:/temp/Job-3.odb,Step-1,Increment      1: Step Time =    1.000,"P-3-1",          1929,   172.374E-03,   144.323E-03,            0.,NA,NA,"",   1.01646E+06,   1.01394E+06,   1.01394E+06
C:/temp/Job-3.odb,Step-1,Increment      1: Step Time =    1.000,"P-3-1",          1930,   114.571E-03,   135.117E-03,            0.,NA,NA,"",   1.14452E+06,   1.15555E+06,   1.15555E+06
C:/temp/Job-3.odb,Step-1,Increment      1: Step Time =    1.000,"P-3-1",          1931,   68.4975E-03,   21.8078E-03,            0.,NA,NA,"",   1.01644E+06,   1.01845E+06,   1.01845E+06
C:/temp/Job-3.odb,Step-1,Increment      1: Step Time =    1.000,"P-3-1",          1932,   181.354E-03,   67.5362E-03,            0.,NA,NA,"",   994.872E+03,   1.00262E+06,   1.00262E+06
C:/temp/Job-3.odb,Step-1,Increment      1: Step Time =    1.000,"P-3-1",          1933,   19.2825E-03,   130.865E-03,            0.,NA,NA,"",   862.892E+03,   945.419E+03,   945.419E+03
C:/temp/Job-3.odb,Step-1,Increment      1: Step Time =    1.000,"P-3-1",          1934,   131.582E-03,   178.443E-03,            0.,NA,NA,"",   1.00652E+06,   1.00488E+06,   1.00488E+06
C:/temp/Job-3.odb,Step-1,Increment      1: Step Time =    1.000,"P-3-1",          1935,   95.9414E-03,   30.7562E-03,            0.,NA,NA,"",   1.00345E+06,   1.01726E+06,   1.01726E+06
C:/temp/Job-3.odb,Step-1,Increment      1: Step Time =    1.000,"P-3-1",          1936,   32.3752E-03,   104.749E-03,            0.,NA,NA,"",   821.140E+03,   895.947E+03,   895.947E+03
C:/temp/Job-3.odb,Step-1,Increment      1: Step Time =    1.000,"P-3-1",          1937,   168.224E-03,   94.0066E-03,            0.,NA,NA,"",   951.415E+03,   963.380E+03,   963.380E+03
C:/temp/Job-3.odb,Step-1,Increment      1: Step Time =    1.000,"P-3-1",          1938,   103.419E-03,   167.997E-03,            0.,NA,NA,"",   1.00395E+06,   1.01845E+06,   1.01845E+06
C:/temp/Job-3.odb,Step-1,Increment      1: Step Time =    1.000,"P-3-1",          1939,   149.035E-03,   107.095E-03,            0.,NA,NA,"",   894.897E+03,   901.271E+03,   901.271E+03
C:/temp/Job-3.odb,Step-1,Increment      1: Step Time =    1.000,"P-3-1",          1940,   73.0078E-03,   22.5517E-03,            0.,NA,NA,"",   1.01314E+06,   1.01600E+06,   1.01600E+06
C:/temp/Job-3.odb,Step-1,Increment      1: Step Time =    1.000,"P-3-1",          1941,   176.798E-03,   71.6059E-03,            0.,NA,NA,"",   994.115E+03,   1.00030E+06,   1.00030E+06
C:/temp/Job-3.odb,Step-1,Increment      1: Step Time =    1.000,"P-3-1",          1942,   20.0745E-03,   127.684E-03,            0.,NA,NA,"",   854.170E+03,   937.112E+03,   937.112E+03
C:/temp/Job-3.odb,Step-1,Increment      1: Step Time =    1.000,"P-3-1",          1943,   126.940E-03,   177.307E-03,            0.,NA,NA,"",   1.00599E+06,   1.00562E+06,   1.00562E+06
C:/temp/Job-3.odb,Step-1,Increment      1: Step Time =    1.000,"P-3-1",          1944,   140.250E-03,   30.4443E-03,            0.,NA,NA,"",   1.03139E+06,   1.02493E+06,   1.02493E+06
C:/temp/Job-3.odb,Step-1,Increment      1: Step Time =    1.000,"P-3-1",          1945,   167.281E-03,   142.692E-03,            0.,NA,NA,"",   1.02435E+06,   1.01840E+06,   1.01840E+06
C:/temp/Job-3.odb,Step-1,Increment      1: Step Time =    1.000,"P-3-1",          1946,   77.0010E-03,   127.752E-03,            0.,NA,NA,"",   1.19096E+06,   1.16217E+06,   1.16217E+06
C:/temp/Job-3.odb,Step-1,Increment      1: Step Time =    1.000,"P-3-1",          1947,   74.9497E-03,   186.601E-03,            0.,NA,NA,"",   982.313E+03,   983.632E+03,   983.632E+03
C:/temp/Job-3.odb,Step-1,Increment      1: Step Time =    1.000,"P-3-1",          1948,   128.711E-03,   71.0606E-03,            0.,NA,NA,"",   1.17305E+06,   1.12277E+06,   1.12277E+06
C:/temp/Job-3.odb,Step-1,Increment      1: Step Time =    1.000,"P-3-1",          1949,   45.2671E-03,   18.4399E-03,            0.,NA,NA,"",   1.03764E+06,   1.04260E+06,   1.04260E+06
C:/temp/Job-3.odb,Step-1,Increment      1: Step Time =    1.000,"P-3-1",          1950,   17.7470E-03,   155.778E-03,            0.,NA,NA,"",   939.796E+03,   1.01488E+06,   1.01488E+06
C:/temp/Job-3.odb,Step-1,Increment      1: Step Time =    1.000,"P-3-1",          1951,   181.499E-03,   45.1776E-03,            0.,NA,NA,"",   1.00628E+06,    1.0072E+06,    1.0072E+06
C:/temp/Job-3.odb,Step-1,Increment      1: Step Time =    1.000,"P-3-1",          1952,   157.802E-03,   181.787E-03,            0.,NA,NA,"",   1.00725E+06,   1.00462E+06,   1.00462E+06
C:/temp/Job-3.odb,Step-1,Increment      1: Step Time =    1.000,"P-3-1",          1953,   35.3191E-03,   92.5803E-03,            0.,NA,NA,"",   826.471E+03,   897.238E+03,   897.238E+03
C:/temp/Job-3.odb,Step-1,Increment      1: Step Time =    1.000,"P-3-1",          1954,   108.837E-03,   31.9649E-03,            0.,NA,NA,"",   1.00741E+06,   1.01941E+06,   1.01941E+06
C:/temp/Job-3.odb,Step-1,Increment      1: Step Time =    1.000,"P-3-1",          1955,   90.0204E-03,   168.498E-03,            0.,NA,NA,"",   1.00954E+06,   1.02296E+06,   1.02296E+06
C:/temp/Job-3.odb,Step-1,Increment      1: Step Time =    1.000,"P-3-1",          1956,   164.891E-03,   106.929E-03,            0.,NA,NA,"",   946.273E+03,   956.710E+03,   956.710E+03
C:/temp/Job-3.odb,Step-1,Increment      1: Step Time =    1.000,"P-3-1",          1957,   51.3971E-03,   95.8269E-03,            0.,NA,NA,"",   799.408E+03,   853.741E+03,   853.741E+03
C:/temp/Job-3.odb,Step-1,Increment      1: Step Time =    1.000,"P-3-1",          1958,   155.524E-03,   13.6665E-03,            0.,NA,NA,"",   1.00095E+06,   999.308E+03,   999.308E+03
C:/temp/Job-3.odb,Step-1,Increment      1: Step Time =    1.000,"P-3-1",          1959,   189.545E-03,   154.456E-03,            0.,NA,NA,"",   998.900E+03,   1.00260E+06,   1.00260E+06
C:/temp/Job-3.odb,Step-1,Increment      1: Step Time =    1.000,"P-3-1",          1960,   182.033E-03,   131.056E-03,            0.,NA,NA,"",   992.230E+03,   1.00140E+06,   1.00140E+06
C:/temp/Job-3.odb,Step-1,Increment      1: Step Time =    1.000,"P-3-1",          1961,   134.146E-03,   129.828E-03,            0.,NA,NA,"",   1.13244E+06,   1.08769E+06,   1.08769E+06
C:/temp/Job-3.odb,Step-1,Increment      1: Step Time =    1.000,"P-3-1",          1962,   56.9412E-03,   119.725E-03,            0.,NA,NA,"",   942.879E+03,   961.977E+03,   961.977E+03
C:/temp/Job-3.odb,Step-1,Increment      1: Step Time =    1.000,"P-3-1",          1963,   65.5484E-03,   80.2186E-03,            0.,NA,NA,"",   1.00774E+06,   997.154E+03,   997.154E+03
C:/temp/Job-3.odb,Step-1,Increment      1: Step Time =    1.000,"P-3-1",          1964,   96.4853E-03,   129.685E-03,            0.,NA,NA,"",   1.09986E+06,   1.18534E+06,   1.18534E+06
C:/temp/Job-3.odb,Step-1,Increment      1: Step Time =    1.000,"P-3-1",          1965,   12.2316E-03,   45.5494E-03,            0.,NA,NA,"",   911.355E+03,   998.622E+03,   998.622E+03
C:/temp/Job-3.odb,Step-1,Increment      1: Step Time =    1.000,"P-3-1",          1966,   159.121E-03,   27.8057E-03,            0.,NA,NA,"",   1.01905E+06,   1.01405E+06,   1.01405E+06
C:/temp/Job-3.odb,Step-1,Increment      1: Step Time =    1.000,"P-3-1",          1967,   39.1466E-03,   175.724E-03,            0.,NA,NA,"",   1.04873E+06,   1.06247E+06,   1.06247E+06
C:/temp/Job-3.odb,Step-1,Increment      1: Step Time =    1.000,"P-3-1",          1968,   26.7236E-03,   42.3195E-03,            0.,NA,NA,"",   982.036E+03,   1.03625E+06,   1.03625E+06
C:/temp/Job-3.odb,Step-1,Increment      1: Step Time =    1.000,"P-3-1",          1969,   162.959E-03,   173.238E-03,            0.,NA,NA,"",   1.01558E+06,   1.01152E+06,   1.01152E+06
C:/temp/Job-3.odb,Step-1,Increment      1: Step Time =    1.000,"P-3-1",          1970,   27.4644E-03,   161.729E-03,            0.,NA,NA,"",   1.00041E+06,   1.04900E+06,   1.04900E+06
C:/temp/Job-3.odb,Step-1,Increment      1: Step Time =    1.000,"P-3-1",          1971,   173.470E-03,   38.1291E-03,            0.,NA,NA,"",   1.01464E+06,   1.01186E+06,   1.01186E+06
C:/temp/Job-3.odb,Step-1,Increment      1: Step Time =    1.000,"P-3-1",          1972,   38.6685E-03,   26.7444E-03,            0.,NA,NA,"",   1.04625E+06,   1.06330E+06,   1.06330E+06
C:/temp/Job-3.odb,Step-1,Increment      1: Step Time =    1.000,"P-3-1",          1973,   135.578E-03,   77.4319E-03,            0.,NA,NA,"",   1.08561E+06,   1.03932E+06,   1.03932E+06
C:/temp/Job-3.odb,Step-1,Increment      1: Step Time =    1.000,"P-3-1",          1974,   68.6582E-03,   104.750E-03,            0.,NA,NA,"",   683.896E+03,   712.022E+03,   712.022E+03
C:/temp/Job-3.odb,Step-1,Increment      1: Step Time =    1.000,"P-3-1",          1975,   172.656E-03,   168.595E-03,            0.,NA,NA,"",   1.01208E+06,   1.00954E+06,   1.00954E+06
C:/temp/Job-3.odb,Step-1,Increment      1: Step Time =    1.000,"P-3-1",          1976,   26.4532E-03,   32.3339E-03,            0.,NA,NA,"",   1.01977E+06,   1.06382E+06,   1.06382E+06
C:/temp/Job-3.odb,Step-1,Increment      1: Step Time =    1.000,"P-3-1",          1977,   32.4154E-03,   171.652E-03,            0.,NA,NA,"",   1.04136E+06,   1.06867E+06,   1.06867E+06
C:/temp/Job-3.odb,Step-1,Increment      1: Step Time =    1.000,"P-3-1",          1978,   43.3346E-03,   182.419E-03,            0.,NA,NA,"",   1.03937E+06,   1.04494E+06,   1.04494E+06
C:/temp/Job-3.odb,Step-1,Increment      1: Step Time =    1.000,"P-3-1",          1979,   19.2017E-03,   43.8004E-03,            0.,NA,NA,"",   947.526E+03,   1.01919E+06,   1.01919E+06
C:/temp/Job-3.odb,Step-1,Increment      1: Step Time =    1.000,"P-3-1",          1980,   126.441E-03,   72.8964E-03,            0.,NA,NA,"",   1.19114E+06,   1.13543E+06,   1.13543E+06
C:/temp/Job-3.odb,Step-1,Increment      1: Step Time =    1.000,"P-3-1",          1981,   133.709E-03,   73.0732E-03,            0.,NA,NA,"",   1.12912E+06,   1.08119E+06,   1.08119E+06
C:/temp/Job-3.odb,Step-1,Increment      1: Step Time =    1.000,"P-3-1",          1982,   104.489E-03,   134.056E-03,            0.,NA,NA,"",   1.06796E+06,   1.13714E+06,   1.13714E+06
C:/temp/Job-3.odb,Step-1,Increment      1: Step Time =    1.000,"P-3-1",          1983,   165.853E-03,   139.012E-03,            0.,NA,NA,"",   1.02360E+06,   1.01719E+06,   1.01719E+06
C:/temp/Job-3.odb,Step-1,Increment      1: Step Time =    1.000,"P-3-1",          1984,   137.721E-03,   32.2924E-03,            0.,NA,NA,"",   1.03594E+06,   1.02945E+06,   1.02945E+06
C:/temp/Job-3.odb,Step-1,Increment      1: Step Time =    1.000,"P-3-1",          1985,   57.2780E-03,   101.332E-03,            0.,NA,NA,"",   758.392E+03,   808.765E+03,   808.765E+03
C:/temp/Job-3.odb,Step-1,Increment      1: Step Time =    1.000,"P-3-1",          1986,   148.990E-03,   100.985E-03,            0.,NA,NA,"",   873.755E+03,   884.471E+03,   884.471E+03
C:/temp/Job-3.odb,Step-1,Increment      1: Step Time =    1.000,"P-3-1",          1987,   62.4430E-03,   104.240E-03,            0.,NA,NA,"",   737.648E+03,   779.245E+03,   779.245E+03
C:/temp/Job-3.odb,Step-1,Increment      1: Step Time =    1.000,"P-3-1",          1988,   61.9971E-03,   81.1515E-03,            0.,NA,NA,"",   964.642E+03,   969.279E+03,   969.279E+03
C:/temp/Job-3.odb,Step-1,Increment      1: Step Time =    1.000,"P-3-1",          1989,   67.7381E-03,   72.5004E-03,            0.,NA,NA,"",   1.10573E+06,   1.08541E+06,   1.08541E+06
C:/temp/Job-3.odb,Step-1,Increment      1: Step Time =    1.000,"P-3-1",          1990,   81.3801E-03,   171.181E-03,            0.,NA,NA,"",   1.01658E+06,   1.02434E+06,   1.02434E+06
C:/temp/Job-3.odb,Step-1,Increment      1: Step Time =    1.000,"P-3-1",          1991,   28.7975E-03,   81.9567E-03,            0.,NA,NA,"",   848.717E+03,   923.078E+03,   923.078E+03
C:/temp/Job-3.odb,Step-1,Increment      1: Step Time =    1.000,"P-3-1",          1992,   170.198E-03,   119.662E-03,            0.,NA,NA,"",   980.511E+03,   986.761E+03,   986.761E+03
C:/temp/Job-3.odb,Step-1,Increment      1: Step Time =    1.000,"P-3-1",          1993,   120.316E-03,   26.4911E-03,            0.,NA,NA,"",   1.00856E+06,   1.01159E+06,   1.01159E+06
C:/temp/Job-3.odb,Step-1,Increment      1: Step Time =    1.000,"P-3-1",          1994,   75.0977E-03,   65.9305E-03,            0.,NA,NA,"",   1.14674E+06,   1.13457E+06,   1.13457E+06
C:/temp/Job-3.odb,Step-1,Increment      1: Step Time =    1.000,"P-3-1",          1995,   80.3372E-03,   128.874E-03,            0.,NA,NA,"",   1.20054E+06,   1.18374E+06,   1.18374E+06
C:/temp/Job-3.odb,Step-1,Increment      1: Step Time =    1.000,"P-3-1",          1996,   166.775E-03,   83.4522E-03,            0.,NA,NA,"",   973.004E+03,   978.547E+03,   978.547E+03
C:/temp/Job-3.odb,Step-1,Increment      1: Step Time =    1.000,"P-3-1",          1997,   115.852E-03,   162.814E-03,            0.,NA,NA,"",   1.02706E+06,   1.03624E+06,   1.03624E+06
C:/temp/Job-3.odb,Step-1,Increment      1: Step Time =    1.000,"P-3-1",          1998,   82.7850E-03,   36.9059E-03,            0.,NA,NA,"",   1.03130E+06,   1.04370E+06,   1.04370E+06
C:/temp/Job-3.odb,Step-1,Increment      1: Step Time =    1.000,"P-3-1",          1999,   34.5209E-03,   114.473E-03,            0.,NA,NA,"",   847.908E+03,   916.149E+03,   916.149E+03
C:/temp/Job-3.odb,Step-1,Increment      1: Step Time =    1.000,"P-3-1",          2000,   127.335E-03,   122.890E-03,            0.,NA,NA,"",   1.17677E+06,   1.11140E+06,   1.11140E+06
C:/temp/Job-3.odb,Step-1,Increment      1: Step Time =    1.000,"P-3-1",          2001,   66.5118E-03,   19.0171E-03,            0.,NA,NA,"",   1.01067E+06,   1.01206E+06,   1.01206E+06
C:/temp/Job-3.odb,Step-1,Increment      1: Step Time =    1.000,"P-3-1",          2002,   181.178E-03,   63.6712E-03,            0.,NA,NA,"",   998.294E+03,   1.00447E+06,   1.00447E+06
C:/temp/Job-3.odb,Step-1,Increment      1: Step Time =    1.000,"P-3-1",          2003,   18.2565E-03,   134.974E-03,            0.,NA,NA,"",   871.135E+03,   953.992E+03,   953.992E+03
C:/temp/Job-3.odb,Step-1,Increment      1: Step Time =    1.000,"P-3-1",          2004,   133.341E-03,   181.536E-03,            0.,NA,NA,"",   1.00046E+06,   998.890E+03,   998.890E+03
C:/temp/Job-3.odb,Step-1,Increment      1: Step Time =    1.000,"P-3-1",          2005,   90.8225E-03,   32.6317E-03,            0.,NA,NA,"",   1.01131E+06,   1.02559E+06,   1.02559E+06
C:/temp/Job-3.odb,Step-1,Increment      1: Step Time =    1.000,"P-3-1",          2006,   35.8775E-03,   107.795E-03,            0.,NA,NA,"",   828.963E+03,   898.634E+03,   898.634E+03
C:/temp/Job-3.odb,Step-1,Increment      1: Step Time =    1.000,"P-3-1",          2007,   165.324E-03,   90.5861E-03,            0.,NA,NA,"",   951.818E+03,   961.145E+03,   961.145E+03
C:/temp/Job-3.odb,Step-1,Increment      1: Step Time =    1.000,"P-3-1",          2008,   109.634E-03,   165.778E-03,            0.,NA,NA,"",   1.01216E+06,   1.02561E+06,   1.02561E+06
C:/temp/Job-3.odb,Step-1,Increment      1: Step Time =    1.000,"P-3-1",          2009,   149.439E-03,   110.739E-03,            0.,NA,NA,"",   920.476E+03,   921.709E+03,   921.709E+03
C:/temp/Job-3.odb,Step-1,Increment      1: Step Time =    1.000,"P-3-1",          2010,   141.671E-03,   82.2630E-03,            0.,NA,NA,"",   994.139E+03,   971.048E+03,   971.048E+03
C:/temp/Job-3.odb,Step-1,Increment      1: Step Time =    1.000,"P-3-1",          2011,   129.979E-03,   62.7712E-03,            0.,NA,NA,"",   1.13979E+06,   1.10870E+06,   1.10870E+06
C:/temp/Job-3.odb,Step-1,Increment      1: Step Time =    1.000,"P-3-1",          2012,   37.4512E-03,   95.5037E-03,            0.,NA,NA,"",   822.024E+03,   891.328E+03,   891.328E+03
C:/temp/Job-3.odb,Step-1,Increment      1: Step Time =    1.000,"P-3-1",          2013,   32.8013E-03,   89.0712E-03,            0.,NA,NA,"",   833.256E+03,   905.417E+03,   905.417E+03
C:/temp/Job-3.odb,Step-1,Increment      1: Step Time =    1.000,"P-3-1",          2014,   111.412E-03,   31.6666E-03,            0.,NA,NA,"",   1.00937E+06,   1.01963E+06,   1.01963E+06
C:/temp/Job-3.odb,Step-1,Increment      1: Step Time =    1.000,"P-3-1",          2015,   105.531E-03,   37.5310E-03,            0.,NA,NA,"",   1.01325E+06,   1.03155E+06,   1.03155E+06
C:/temp/Job-3.odb,Step-1,Increment      1: Step Time =    1.000,"P-3-1",          2016,   95.9629E-03,   163.939E-03,            0.,NA,NA,"",   1.01044E+06,   1.02907E+06,   1.02907E+06
C:/temp/Job-3.odb,Step-1,Increment      1: Step Time =    1.000,"P-3-1",          2017,   87.2542E-03,   169.665E-03,            0.,NA,NA,"",   1.01144E+06,   1.02268E+06,   1.02268E+06
C:/temp/Job-3.odb,Step-1,Increment      1: Step Time =    1.000,"P-3-1",          2018,   168.853E-03,   111.685E-03,            0.,NA,NA,"",   961.824E+03,   971.696E+03,   971.696E+03
C:/temp/Job-3.odb,Step-1,Increment      1: Step Time =    1.000,"P-3-1",          2019,   162.855E-03,   104.398E-03,            0.,NA,NA,"",   937.898E+03,   948.624E+03,   948.624E+03
C:/temp/Job-3.odb,Step-1,Increment      1: Step Time =    1.000,"P-3-1",          2020,   50.1176E-03,   92.7087E-03,            0.,NA,NA,"",   817.301E+03,   870.772E+03,   870.772E+03
C:/temp/Job-3.odb,Step-1,Increment      1: Step Time =    1.000,"P-3-1",          2021,   135.171E-03,   127.500E-03,            0.,NA,NA,"",   1.11798E+06,   1.07228E+06,   1.07228E+06
C:/temp/Job-3.odb,Step-1,Increment      1: Step Time =    1.000,"P-3-1",          2022,   56.8715E-03,   123.478E-03,            0.,NA,NA,"",   979.355E+03,   993.660E+03,   993.660E+03
C:/temp/Job-3.odb,Step-1,Increment      1: Step Time =    1.000,"P-3-1",          2023,   159.964E-03,   175.467E-03,            0.,NA,NA,"",   1.01426E+06,   1.01033E+06,   1.01033E+06
C:/temp/Job-3.odb,Step-1,Increment      1: Step Time =    1.000,"P-3-1",          2024,   166.033E-03,   171.608E-03,            0.,NA,NA,"",   1.01523E+06,   1.01144E+06,   1.01144E+06
C:/temp/Job-3.odb,Step-1,Increment      1: Step Time =    1.000,"P-3-1",          2025,   27.1517E-03,   165.926E-03,            0.,NA,NA,"",   1.01459E+06,   1.05903E+06,   1.05903E+06
C:/temp/Job-3.odb,Step-1,Increment      1: Step Time =    1.000,"P-3-1",          2026,   23.0219E-03,   156.855E-03,            0.,NA,NA,"",   964.600E+03,   1.02773E+06,   1.02773E+06
C:/temp/Job-3.odb,Step-1,Increment      1: Step Time =    1.000,"P-3-1",          2027,   176.512E-03,   44.6981E-03,            0.,NA,NA,"",   1.01224E+06,   1.01091E+06,   1.01091E+06
C:/temp/Job-3.odb,Step-1,Increment      1: Step Time =    1.000,"P-3-1",          2028,   170.898E-03,   34.1541E-03,            0.,NA,NA,"",   1.01526E+06,   1.01192E+06,   1.01192E+06
C:/temp/Job-3.odb,Step-1,Increment      1: Step Time =    1.000,"P-3-1",          2029,   44.2123E-03,   23.7350E-03,            0.,NA,NA,"",   1.04493E+06,   1.05393E+06,   1.05393E+06
C:/temp/Job-3.odb,Step-1,Increment      1: Step Time =    1.000,"P-3-1",          2030,   33.4616E-03,   27.7920E-03,            0.,NA,NA,"",   1.04427E+06,   1.06926E+06,   1.06926E+06
C:/temp/Job-3.odb,Step-1,Increment      1: Step Time =    1.000,"P-3-1",          2031,   141.477E-03,   118.204E-03,            0.,NA,NA,"",   999.672E+03,    974.22E+03,    974.22E+03
C:/temp/Job-3.odb,Step-1,Increment      1: Step Time =    1.000,"P-3-1",          2032,   145.585E-03,   117.898E-03,            0.,NA,NA,"",   984.199E+03,   967.712E+03,   967.712E+03
C:/temp/Job-3.odb,Step-1,Increment      1: Step Time =    1.000,"P-3-1",          2033,   108.474E-03,   140.008E-03,            0.,NA,NA,"",   1.06658E+06,   1.10829E+06,   1.10829E+06
C:/temp/Job-3.odb,Step-1,Increment      1: Step Time =    1.000,"P-3-1",          2034,   56.3644E-03,   83.7728E-03,            0.,NA,NA,"",   901.313E+03,   927.950E+03,   927.950E+03
C:/temp/Job-3.odb,Step-1,Increment      1: Step Time =    1.000,"P-3-1",          2035,   163.423E-03,   135.928E-03,            0.,NA,NA,"",   1.02458E+06,   1.01660E+06,   1.01660E+06
C:/temp/Job-3.odb,Step-1,Increment      1: Step Time =    1.000,"P-3-1",          2036,   135.895E-03,   36.5238E-03,            0.,NA,NA,"",   1.04622E+06,   1.03853E+06,   1.03853E+06
C:/temp/Job-3.odb,Step-1,Increment      1: Step Time =    1.000,"P-3-1",          2037,   151.648E-03,   102.862E-03,            0.,NA,NA,"",   892.872E+03,   902.573E+03,   902.573E+03
C:/temp/Job-3.odb,Step-1,Increment      1: Step Time =    1.000,"P-3-1",          2038,   150.160E-03,   97.8829E-03,            0.,NA,NA,"",   882.086E+03,   892.571E+03,   892.571E+03
C:/temp/Job-3.odb,Step-1,Increment      1: Step Time =    1.000,"P-3-1",          2039,   67.8573E-03,   69.9709E-03,            0.,NA,NA,"",   1.11025E+06,   1.09353E+06,   1.09353E+06
C:/temp/Job-3.odb,Step-1,Increment      1: Step Time =    1.000,"P-3-1",          2040,   125.058E-03,   174.426E-03,            0.,NA,NA,"",   1.01095E+06,   1.01130E+06,   1.01130E+06
C:/temp/Job-3.odb,Step-1,Increment      1: Step Time =    1.000,"P-3-1",          2041,   171.962E-03,   76.1300E-03,            0.,NA,NA,"",   989.727E+03,   994.730E+03,   994.730E+03
C:/temp/Job-3.odb,Step-1,Increment      1: Step Time =    1.000,"P-3-1",          2042,   73.8783E-03,   24.7451E-03,            0.,NA,NA,"",   1.01702E+06,   1.02048E+06,   1.02048E+06
C:/temp/Job-3.odb,Step-1,Increment      1: Step Time =    1.000,"P-3-1",          2043,   117.925E-03,   137.191E-03,            0.,NA,NA,"",   1.14229E+06,   1.14026E+06,   1.14026E+06
C:/temp/Job-3.odb,Step-1,Increment      1: Step Time =    1.000,"P-3-1",          2044,   147.288E-03,   26.0900E-03,            0.,NA,NA,"",   1.02105E+06,   1.01563E+06,   1.01563E+06
C:/temp/Job-3.odb,Step-1,Increment      1: Step Time =    1.000,"P-3-1",          2045,   170.242E-03,   148.936E-03,            0.,NA,NA,"",   1.02173E+06,   1.01721E+06,   1.01721E+06
C:/temp/Job-3.odb,Step-1,Increment      1: Step Time =    1.000,"P-3-1",          2046,   193.320E-03,   156.659E-03,            0.,NA,NA,"",   997.802E+03,   1.00129E+06,   1.00129E+06
C:/temp/Job-3.odb,Step-1,Increment      1: Step Time =    1.000,"P-3-1",          2047,   156.289E-03,   7.20363E-03,            0.,NA,NA,"",   994.833E+03,    994.29E+03,    994.29E+03
C:/temp/Job-3.odb,Step-1,Increment      1: Step Time =    1.000,"P-3-1",          2048,   42.2616E-03,   193.125E-03,            0.,NA,NA,"",   1.01092E+06,   1.01183E+06,   1.01183E+06
C:/temp/Job-3.odb,Step-1,Increment      1: Step Time =    1.000,"P-3-1",          2049,   6.30533E-03,   44.0325E-03,            0.,NA,NA,"",   890.238E+03,   988.381E+03,   988.381E+03
C:/temp/Job-3.odb,Step-1,Increment      1: Step Time =    1.000,"P-3-1",          2050,   53.6916E-03,   102.339E-03,            0.,NA,NA,"",   783.955E+03,   837.018E+03,   837.018E+03
C:/temp/Job-3.odb,Step-1,Increment      1: Step Time =    1.000,"P-3-1",          2051,   137.998E-03,   81.8503E-03,            0.,NA,NA,"",   1.01328E+06,   980.422E+03,   980.422E+03
C:/temp/Job-3.odb,Step-1,Increment      1: Step Time =    1.000,"P-3-1",          2052,   142.601E-03,   79.5422E-03,            0.,NA,NA,"",   1.01816E+06,   992.306E+03,   992.306E+03
C:/temp/Job-3.odb,Step-1,Increment      1: Step Time =    1.000,"P-3-1",          2053,   57.9266E-03,   108.768E-03,            0.,NA,NA,"",   810.925E+03,   850.184E+03,   850.184E+03
C:/temp/Job-3.odb,Step-1,Increment      1: Step Time =    1.000,"P-3-1",          2054,   153.237E-03,   26.4178E-03,            0.,NA,NA,"",   1.01964E+06,   1.01436E+06,   1.01436E+06
C:/temp/Job-3.odb,Step-1,Increment      1: Step Time =    1.000,"P-3-1",          2055,   171.222E-03,   155.132E-03,            0.,NA,NA,"",   1.01956E+06,   1.01564E+06,   1.01564E+06
C:/temp/Job-3.odb,Step-1,Increment      1: Step Time =    1.000,"P-3-1",          2056,   127.673E-03,   125.589E-03,            0.,NA,NA,"",   1.18315E+06,   1.12336E+06,   1.12336E+06
C:/temp/Job-3.odb,Step-1,Increment      1: Step Time =    1.000,"P-3-1",          2057,   137.263E-03,   73.9101E-03,            0.,NA,NA,"",   1.09805E+06,   1.05564E+06,   1.05564E+06
C:/temp/Job-3.odb,Step-1,Increment      1: Step Time =    1.000,"P-3-1",          2058,   155.070E-03,   187.456E-03,            0.,NA,NA,"",   1.00000E+06,   998.516E+03,   998.516E+03
C:/temp/Job-3.odb,Step-1,Increment      1: Step Time =    1.000,"P-3-1",          2059,   11.9193E-03,   153.965E-03,            0.,NA,NA,"",   908.503E+03,   996.450E+03,   996.450E+03
C:/temp/Job-3.odb,Step-1,Increment      1: Step Time =    1.000,"P-3-1",          2060,   186.215E-03,   45.8324E-03,            0.,NA,NA,"",   1.00154E+06,   1.00431E+06,   1.00431E+06
C:/temp/Job-3.odb,Step-1,Increment      1: Step Time =    1.000,"P-3-1",          2061,   46.4160E-03,   12.2163E-03,            0.,NA,NA,"",   1.02051E+06,   1.02246E+06,   1.02246E+06
C:/temp/Job-3.odb,Step-1,Increment      1: Step Time =    1.000,"P-3-1",          2062,   189.212E-03,   44.4393E-03,            0.,NA,NA,"",   999.717E+03,   1.00282E+06,   1.00282E+06
C:/temp/Job-3.odb,Step-1,Increment      1: Step Time =    1.000,"P-3-1",          2063,   157.937E-03,   188.815E-03,            0.,NA,NA,"",   999.116E+03,   997.992E+03,   997.992E+03
C:/temp/Job-3.odb,Step-1,Increment      1: Step Time =    1.000,"P-3-1",          2064,   43.3863E-03,   10.4908E-03,            0.,NA,NA,"",   1.02160E+06,   1.02324E+06,   1.02324E+06
C:/temp/Job-3.odb,Step-1,Increment      1: Step Time =    1.000,"P-3-1",          2065,   10.1290E-03,   156.889E-03,            0.,NA,NA,"",   910.439E+03,   1.00125E+06,   1.00125E+06
C:/temp/Job-3.odb,Step-1,Increment      1: Step Time =    1.000,"P-3-1",          2066,   155.961E-03,   25.3872E-03,            0.,NA,NA,"",   1.01729E+06,   1.01256E+06,   1.01256E+06
C:/temp/Job-3.odb,Step-1,Increment      1: Step Time =    1.000,"P-3-1",          2067,   172.418E-03,   157.741E-03,            0.,NA,NA,"",   1.01775E+06,   1.01427E+06,   1.01427E+06
C:/temp/Job-3.odb,Step-1,Increment      1: Step Time =    1.000,"P-3-1",          2068,   42.0650E-03,   174.949E-03,            0.,NA,NA,"",   1.04653E+06,   1.05833E+06,   1.05833E+06
C:/temp/Job-3.odb,Step-1,Increment      1: Step Time =    1.000,"P-3-1",          2069,   22.3394E-03,   150.268E-03,            0.,NA,NA,"",   939.083E+03,   1.00774E+06,   1.00774E+06
C:/temp/Job-3.odb,Step-1,Increment      1: Step Time =    1.000,"P-3-1",          2070,   151.442E-03,   180.371E-03,            0.,NA,NA,"",   1.00900E+06,   1.00572E+06,   1.00572E+06
C:/temp/Job-3.odb,Step-1,Increment      1: Step Time =    1.000,"P-3-1",          2071,   51.1915E-03,   21.3012E-03,            0.,NA,NA,"",   1.03598E+06,   1.03997E+06,   1.03997E+06
C:/temp/Job-3.odb,Step-1,Increment      1: Step Time =    1.000,"P-3-1",          2072,   180.339E-03,   49.5885E-03,            0.,NA,NA,"",   1.00707E+06,   1.00824E+06,   1.00824E+06
C:/temp/Job-3.odb,Step-1,Increment      1: Step Time =    1.000,"P-3-1",          2073,   132.442E-03,   35.4623E-03,            0.,NA,NA,"",   1.04262E+06,   1.03708E+06,   1.03708E+06
C:/temp/Job-3.odb,Step-1,Increment      1: Step Time =    1.000,"P-3-1",          2074,   165.915E-03,   134.058E-03,            0.,NA,NA,"",   1.01649E+06,   1.01147E+06,   1.01147E+06
C:/temp/Job-3.odb,Step-1,Increment      1: Step Time =    1.000,"P-3-1",          2075,   164.481E-03,   30.5802E-03,            0.,NA,NA,"",   1.01828E+06,   1.01370E+06,   1.01370E+06
C:/temp/Job-3.odb,Step-1,Increment      1: Step Time =    1.000,"P-3-1",          2076,   29.4791E-03,   34.7494E-03,            0.,NA,NA,"",   1.01759E+06,   1.05830E+06,   1.05830E+06
C:/temp/Job-3.odb,Step-1,Increment      1: Step Time =    1.000,"P-3-1",          2077,   167.694E-03,   167.148E-03,            0.,NA,NA,"",   1.01758E+06,   1.01342E+06,   1.01342E+06
C:/temp/Job-3.odb,Step-1,Increment      1: Step Time =    1.000,"P-3-1",          2078,   32.8924E-03,   169.343E-03,            0.,NA,NA,"",   1.03644E+06,   1.06531E+06,   1.06531E+06
C:/temp/Job-3.odb,Step-1,Increment      1: Step Time =    1.000,"P-3-1",          2079,   180.423E-03,   128.369E-03,            0.,NA,NA,"",   990.604E+03,   999.919E+03,   999.919E+03
C:/temp/Job-3.odb,Step-1,Increment      1: Step Time =    1.000,"P-3-1",          2080,   127.719E-03,   23.0085E-03,            0.,NA,NA,"",   1.00679E+06,   1.00625E+06,   1.00625E+06
C:/temp/Job-3.odb,Step-1,Increment      1: Step Time =    1.000,"P-3-1",          2081,   93.9001E-03,   128.093E-03,            0.,NA,NA,"",   1.14145E+06,   1.21670E+06,   1.21670E+06
C:/temp/Job-3.odb,Step-1,Increment      1: Step Time =    1.000,"P-3-1",          2082,   84.8687E-03,   125.963E-03,            0.,NA,NA,"",   1.24109E+06,   1.23773E+06,   1.23773E+06
C:/temp/Job-3.odb,Step-1,Increment      1: Step Time =    1.000,"P-3-1",          2083,   13.8057E-03,   47.7266E-03,            0.,NA,NA,"",   910.411E+03,   995.303E+03,   995.303E+03
C:/temp/Job-3.odb,Step-1,Increment      1: Step Time =    1.000,"P-3-1",          2084,   47.7244E-03,   188.907E-03,            0.,NA,NA,"",   1.01417E+06,   1.01530E+06,   1.01530E+06
C:/temp/Job-3.odb,Step-1,Increment      1: Step Time =    1.000,"P-3-1",          2085,   125.391E-03,   24.3557E-03,            0.,NA,NA,"",   1.00766E+06,   1.00803E+06,   1.00803E+06
C:/temp/Job-3.odb,Step-1,Increment      1: Step Time =    1.000,"P-3-1",          2086,   26.2718E-03,   76.0941E-03,            0.,NA,NA,"",   861.139E+03,   936.294E+03,   936.294E+03
C:/temp/Job-3.odb,Step-1,Increment      1: Step Time =    1.000,"P-3-1",          2087,   75.1545E-03,   172.381E-03,            0.,NA,NA,"",   1.02301E+06,   1.02777E+06,   1.02777E+06
C:/temp/Job-3.odb,Step-1,Increment      1: Step Time =    1.000,"P-3-1",          2088,   134.310E-03,   176.740E-03,            0.,NA,NA,"",   1.01252E+06,   1.00981E+06,   1.00981E+06
C:/temp/Job-3.odb,Step-1,Increment      1: Step Time =    1.000,"P-3-1",          2089,   22.9139E-03,   133.031E-03,            0.,NA,NA,"",   880.670E+03,   957.518E+03,   957.518E+03
C:/temp/Job-3.odb,Step-1,Increment      1: Step Time =    1.000,"P-3-1",          2090,   178.896E-03,   65.4412E-03,            0.,NA,NA,"",   999.545E+03,   1.00461E+06,   1.00461E+06
C:/temp/Job-3.odb,Step-1,Increment      1: Step Time =    1.000,"P-3-1",          2091,   65.9368E-03,   23.8569E-03,            0.,NA,NA,"",   1.02492E+06,   1.02715E+06,   1.02715E+06
C:/temp/Job-3.odb,Step-1,Increment      1: Step Time =    1.000,"P-3-1",          2092,   132.222E-03,   133.687E-03,            0.,NA,NA,"",   1.14230E+06,   1.10304E+06,   1.10304E+06
C:/temp/Job-3.odb,Step-1,Increment      1: Step Time =    1.000,"P-3-1",          2093,   47.9497E-03,   96.9630E-03,            0.,NA,NA,"",   805.875E+03,   864.330E+03,   864.330E+03
C:/temp/Job-3.odb,Step-1,Increment      1: Step Time =    1.000,"P-3-1",          2094,   70.9207E-03,   64.7087E-03,            0.,NA,NA,"",   1.12532E+06,   1.11402E+06,   1.11402E+06
C:/temp/Job-3.odb,Step-1,Increment      1: Step Time =    1.000,"P-3-1",          2095,   121.676E-03,   58.2199E-03,            0.,NA,NA,"",   1.11806E+06,   1.11144E+06,   1.11144E+06
C:/temp/Job-3.odb,Step-1,Increment      1: Step Time =    1.000,"P-3-1",          2096,   101.600E-03,   135.491E-03,            0.,NA,NA,"",   1.04967E+06,   1.12101E+06,   1.12101E+06
C:/temp/Job-3.odb,Step-1,Increment      1: Step Time =    1.000,"P-3-1",          2097,   114.356E-03,   59.4212E-03,            0.,NA,NA,"",   1.09832E+06,   1.11588E+06,   1.11588E+06
C:/temp/Job-3.odb,Step-1,Increment      1: Step Time =    1.000,"P-3-1",          2098,   72.8892E-03,   133.585E-03,            0.,NA,NA,"",   1.14229E+06,   1.12803E+06,   1.12803E+06
C:/temp/Job-3.odb,Step-1,Increment      1: Step Time =    1.000,"P-3-1",          2099,   57.5118E-03,   79.2312E-03,            0.,NA,NA,"",   954.111E+03,   970.570E+03,   970.570E+03
C:/temp/Job-3.odb,Step-1,Increment      1: Step Time =    1.000,"P-3-1",          2100,   50.3200E-03,   81.4179E-03,            0.,NA,NA,"",   902.427E+03,   940.731E+03,   940.731E+03
C:/temp/Job-3.odb,Step-1,Increment      1: Step Time =    1.000,"P-3-1",          2101,   91.2322E-03,   126.764E-03,            0.,NA,NA,"",   1.18534E+06,   1.24073E+06,   1.24073E+06
C:/temp/Job-3.odb,Step-1,Increment      1: Step Time =    1.000,"P-3-1",          2102,   156.201E-03,   28.5655E-03,            0.,NA,NA,"",   1.02199E+06,   1.01626E+06,   1.01626E+06
C:/temp/Job-3.odb,Step-1,Increment      1: Step Time =    1.000,"P-3-1",          2103,   43.9672E-03,   170.424E-03,            0.,NA,NA,"",   1.04538E+06,   1.05889E+06,   1.05889E+06
C:/temp/Job-3.odb,Step-1,Increment      1: Step Time =    1.000,"P-3-1",          2104,   80.6511E-03,   168.178E-03,            0.,NA,NA,"",   1.02436E+06,   1.03310E+06,   1.03310E+06
C:/temp/Job-3.odb,Step-1,Increment      1: Step Time =    1.000,"P-3-1",          2105,   29.7170E-03,   79.9293E-03,            0.,NA,NA,"",   856.597E+03,   928.900E+03,   928.900E+03
C:/temp/Job-3.odb,Step-1,Increment      1: Step Time =    1.000,"P-3-1",          2106,   166.225E-03,   118.366E-03,            0.,NA,NA,"",   977.374E+03,   981.325E+03,   981.325E+03
C:/temp/Job-3.odb,Step-1,Increment      1: Step Time =    1.000,"P-3-1",          2107,   121.201E-03,   33.0599E-03,            0.,NA,NA,"",   1.02437E+06,   1.02770E+06,   1.02770E+06
C:/temp/Job-3.odb,Step-1,Increment      1: Step Time =    1.000,"P-3-1",          2108,   45.0858E-03,   173.709E-03,            0.,NA,NA,"",   1.04538E+06,   1.05548E+06,   1.05548E+06
C:/temp/Job-3.odb,Step-1,Increment      1: Step Time =    1.000,"P-3-1",          2109,   26.2274E-03,   47.1374E-03,            0.,NA,NA,"",   962.855E+03,   1.02200E+06,   1.02200E+06
C:/temp/Job-3.odb,Step-1,Increment      1: Step Time =    1.000,"P-3-1",          2110,   60.2298E-03,   127.169E-03,            0.,NA,NA,"",   1.03205E+06,   1.03371E+06,   1.03371E+06
C:/temp/Job-3.odb,Step-1,Increment      1: Step Time =    1.000,"P-3-1",          2111,   134.626E-03,   70.0017E-03,            0.,NA,NA,"",   1.13028E+06,   1.08741E+06,   1.08741E+06
C:/temp/Job-3.odb,Step-1,Increment      1: Step Time =    1.000,"P-3-1",          2112,   63.5296E-03,   71.9207E-03,            0.,NA,NA,"",   1.06630E+06,   1.05781E+06,   1.05781E+06
C:/temp/Job-3.odb,Step-1,Increment      1: Step Time =    1.000,"P-3-1",          2113,   140.670E-03,   126.494E-03,            0.,NA,NA,"",   1.07680E+06,   1.04141E+06,   1.04141E+06
C:/temp/Job-3.odb,Step-1,Increment      1: Step Time =    1.000,"P-3-1",          2114,   73.0467E-03,   130.407E-03,            0.,NA,NA,"",   1.15253E+06,   1.13073E+06,   1.13073E+06
C:/temp/Job-3.odb,Step-1,Increment      1: Step Time =    1.000,"P-3-1",          2115,   73.3130E-03,   63.1614E-03,            0.,NA,NA,"",   1.12910E+06,   1.12086E+06,   1.12086E+06
C:/temp/Job-3.odb,Step-1,Increment      1: Step Time =    1.000,"P-3-1",          2116,   79.7033E-03,   66.6859E-03,            0.,NA,NA,"",   1.16219E+06,   1.15639E+06,   1.15639E+06
C:/temp/Job-3.odb,Step-1,Increment      1: Step Time =    1.000,"P-3-1",          2117,   126.496E-03,   20.7169E-03,            0.,NA,NA,"",   1.00046E+06,   1.00040E+06,   1.00040E+06
C:/temp/Job-3.odb,Step-1,Increment      1: Step Time =    1.000,"P-3-1",          2118,   183.625E-03,   127.424E-03,            0.,NA,NA,"",   987.211E+03,   999.406E+03,   999.406E+03
C:/temp/Job-3.odb,Step-1,Increment      1: Step Time =    1.000,"P-3-1",          2119,   165.634E-03,   80.5063E-03,            0.,NA,NA,"",   981.030E+03,   983.754E+03,   983.754E+03
C:/temp/Job-3.odb,Step-1,Increment      1: Step Time =    1.000,"P-3-1",          2120,   166.212E-03,   87.2259E-03,            0.,NA,NA,"",   961.678E+03,   969.350E+03,   969.350E+03
C:/temp/Job-3.odb,Step-1,Increment      1: Step Time =    1.000,"P-3-1",          2121,   112.135E-03,   166.065E-03,            0.,NA,NA,"",   1.01480E+06,   1.02616E+06,   1.02616E+06
C:/temp/Job-3.odb,Step-1,Increment      1: Step Time =    1.000,"P-3-1",          2122,   119.651E-03,   162.923E-03,            0.,NA,NA,"",   1.03369E+06,   1.03864E+06,   1.03864E+06
C:/temp/Job-3.odb,Step-1,Increment      1: Step Time =    1.000,"P-3-1",          2123,   79.2603E-03,   36.7323E-03,            0.,NA,NA,"",   1.03771E+06,   1.04753E+06,   1.04753E+06
C:/temp/Job-3.odb,Step-1,Increment      1: Step Time =    1.000,"P-3-1",          2124,   87.7032E-03,   31.5919E-03,            0.,NA,NA,"",   1.01377E+06,   1.02572E+06,   1.02572E+06
C:/temp/Job-3.odb,Step-1,Increment      1: Step Time =    1.000,"P-3-1",          2125,   35.5502E-03,   118.674E-03,            0.,NA,NA,"",   865.538E+03,   929.838E+03,   929.838E+03
C:/temp/Job-3.odb,Step-1,Increment      1: Step Time =    1.000,"P-3-1",          2126,   32.8673E-03,   111.821E-03,            0.,NA,NA,"",   837.008E+03,   908.658E+03,   908.658E+03
C:/temp/Job-3.odb,Step-1,Increment      1: Step Time =    1.000,"P-3-1",          2127,   67.5529E-03,   14.1947E-03,            0.,NA,NA,"",   994.744E+03,   995.448E+03,   995.448E+03
C:/temp/Job-3.odb,Step-1,Increment      1: Step Time =    1.000,"P-3-1",          2128,   63.6910E-03,   21.1234E-03,            0.,NA,NA,"",   1.02029E+06,   1.02185E+06,   1.02185E+06
C:/temp/Job-3.odb,Step-1,Increment      1: Step Time =    1.000,"P-3-1",          2129,   179.157E-03,   61.2535E-03,            0.,NA,NA,"",   1.00276E+06,   1.00658E+06,   1.00658E+06
C:/temp/Job-3.odb,Step-1,Increment      1: Step Time =    1.000,"P-3-1",          2130,   184.991E-03,   65.5613E-03,            0.,NA,NA,"",   993.078E+03,   1.00253E+06,   1.00253E+06
C:/temp/Job-3.odb,Step-1,Increment      1: Step Time =    1.000,"P-3-1",          2131,   14.7923E-03,   133.184E-03,            0.,NA,NA,"",   855.495E+03,   943.702E+03,   943.702E+03
C:/temp/Job-3.odb,Step-1,Increment      1: Step Time =    1.000,"P-3-1",          2132,   19.2689E-03,   137.005E-03,            0.,NA,NA,"",   881.266E+03,   962.042E+03,   962.042E+03
C:/temp/Job-3.odb,Step-1,Increment      1: Step Time =    1.000,"P-3-1",          2133,   132.111E-03,   186.126E-03,            0.,NA,NA,"",   989.527E+03,   988.702E+03,   988.702E+03
C:/temp/Job-3.odb,Step-1,Increment      1: Step Time =    1.000,"P-3-1",          2134,   136.666E-03,   180.132E-03,            0.,NA,NA,"",   1.00549E+06,   1.00306E+06,   1.00306E+06
C:/temp/Job-3.odb,Step-1,Increment      1: Step Time =    1.000,"P-3-1",          2135,   93.7490E-03,   34.0673E-03,            0.,NA,NA,"",   1.01027E+06,   1.02688E+06,   1.02688E+06
C:/temp/Job-3.odb,Step-1,Increment      1: Step Time =    1.000,"P-3-1",          2136,   36.0134E-03,   104.540E-03,            0.,NA,NA,"",   822.052E+03,   892.825E+03,   892.825E+03
C:/temp/Job-3.odb,Step-1,Increment      1: Step Time =    1.000,"P-3-1",          2137,   164.113E-03,   94.3404E-03,            0.,NA,NA,"",   942.120E+03,   952.877E+03,   952.877E+03
C:/temp/Job-3.odb,Step-1,Increment      1: Step Time =    1.000,"P-3-1",          2138,   106.258E-03,   164.302E-03,            0.,NA,NA,"",   1.01077E+06,   1.02717E+06,   1.02717E+06
C:/temp/Job-3.odb,Step-1,Increment      1: Step Time =    1.000,"P-3-1",          2139,   127.959E-03,   60.3386E-03,            0.,NA,NA,"",   1.13322E+06,   1.10931E+06,   1.10931E+06
C:/temp/Job-3.odb,Step-1,Increment      1: Step Time =    1.000,"P-3-1",          2140,   46.9805E-03,   93.9387E-03,            0.,NA,NA,"",   815.687E+03,   873.539E+03,   873.539E+03
C:/temp/Job-3.odb,Step-1,Increment      1: Step Time =    1.000,"P-3-1",          2141,   52.9718E-03,   90.7219E-03,            0.,NA,NA,"",   827.127E+03,   873.712E+03,   873.712E+03
C:/temp/Job-3.odb,Step-1,Increment      1: Step Time =    1.000,"P-3-1",          2142,   159.068E-03,   179.467E-03,            0.,NA,NA,"",   1.00975E+06,   1.00669E+06,   1.00669E+06
C:/temp/Job-3.odb,Step-1,Increment      1: Step Time =    1.000,"P-3-1",          2143,   179.305E-03,   42.3695E-03,            0.,NA,NA,"",   1.00876E+06,   1.00843E+06,   1.00843E+06
C:/temp/Job-3.odb,Step-1,Increment      1: Step Time =    1.000,"P-3-1",          2144,   42.5731E-03,   20.4440E-03,            0.,NA,NA,"",   1.04430E+06,   1.05210E+06,   1.05210E+06
C:/temp/Job-3.odb,Step-1,Increment      1: Step Time =    1.000,"P-3-1",          2145,   142.743E-03,   122.101E-03,            0.,NA,NA,"",   1.03380E+06,   1.00543E+06,   1.00543E+06
C:/temp/Job-3.odb,Step-1,Increment      1: Step Time =    1.000,"P-3-1",          2146,   149.341E-03,   117.858E-03,            0.,NA,NA,"",   977.871E+03,   967.248E+03,   967.248E+03
C:/temp/Job-3.odb,Step-1,Increment      1: Step Time =    1.000,"P-3-1",          2147,   65.8926E-03,   68.5030E-03,            0.,NA,NA,"",   1.09836E+06,   1.08635E+06,   1.08635E+06
C:/temp/Job-3.odb,Step-1,Increment      1: Step Time =    1.000,"P-3-1",          2148,   112.383E-03,   138.510E-03,            0.,NA,NA,"",   1.10191E+06,   1.12735E+06,   1.12735E+06
C:/temp/Job-3.odb,Step-1,Increment      1: Step Time =    1.000,"P-3-1",          2149,   166.538E-03,   150.024E-03,            0.,NA,NA,"",   1.02810E+06,   1.02126E+06,   1.02126E+06
C:/temp/Job-3.odb,Step-1,Increment      1: Step Time =    1.000,"P-3-1",          2150,   50.4626E-03,   103.698E-03,            0.,NA,NA,"",   801.699E+03,   857.143E+03,   857.143E+03
C:/temp/Job-3.odb,Step-1,Increment      1: Step Time =    1.000,"P-3-1",          2151,   143.632E-03,   76.6307E-03,            0.,NA,NA,"",   1.03852E+06,   1.01102E+06,   1.01102E+06
C:/temp/Job-3.odb,Step-1,Increment      1: Step Time =    1.000,"P-3-1",          2152,   55.2350E-03,   111.960E-03,            0.,NA,NA,"",   852.601E+03,   889.772E+03,   889.772E+03
C:/temp/Job-3.odb,Step-1,Increment      1: Step Time =    1.000,"P-3-1",          2153,   58.0193E-03,   104.773E-03,            0.,NA,NA,"",   771.142E+03,   817.601E+03,   817.601E+03
C:/temp/Job-3.odb,Step-1,Increment      1: Step Time =    1.000,"P-3-1",          2154,   128.248E-03,   132.154E-03,            0.,NA,NA,"",   1.16566E+06,   1.12442E+06,   1.12442E+06
C:/temp/Job-3.odb,Step-1,Increment      1: Step Time =    1.000,"P-3-1",          2155,   18.4601E-03,   148.892E-03,            0.,NA,NA,"",   917.715E+03,   994.940E+03,   994.940E+03
C:/temp/Job-3.odb,Step-1,Increment      1: Step Time =    1.000,"P-3-1",          2156,   149.106E-03,   184.304E-03,            0.,NA,NA,"",   1.00261E+06,   1.00033E+06,   1.00033E+06
C:/temp/Job-3.odb,Step-1,Increment      1: Step Time =    1.000,"P-3-1",          2157,   52.3499E-03,   18.1475E-03,            0.,NA,NA,"",   1.02754E+06,   1.02989E+06,   1.02989E+06
C:/temp/Job-3.odb,Step-1,Increment      1: Step Time =    1.000,"P-3-1",          2158,   183.675E-03,   51.6945E-03,            0.,NA,NA,"",   1.00263E+06,   1.00592E+06,   1.00592E+06
C:/temp/Job-3.odb,Step-1,Increment      1: Step Time =    1.000,"P-3-1",          2159,   125.794E-03,   32.8535E-03,            0.,NA,NA,"",   1.02982E+06,   1.02971E+06,   1.02971E+06
C:/temp/Job-3.odb,Step-1,Increment      1: Step Time =    1.000,"P-3-1",          2160,   165.908E-03,   130.152E-03,            0.,NA,NA,"",   1.00857E+06,   1.00520E+06,   1.00520E+06
C:/temp/Job-3.odb,Step-1,Increment      1: Step Time =    1.000,"P-3-1",          2161,   167.442E-03,   33.6208E-03,            0.,NA,NA,"",   1.01831E+06,   1.01397E+06,   1.01397E+06
C:/temp/Job-3.odb,Step-1,Increment      1: Step Time =    1.000,"P-3-1",          2162,   32.4553E-03,   31.7019E-03,            0.,NA,NA,"",   1.03325E+06,   1.06435E+06,   1.06435E+06
C:/temp/Job-3.odb,Step-1,Increment      1: Step Time =    1.000,"P-3-1",          2163,   164.554E-03,   168.999E-03,            0.,NA,NA,"",   1.01881E+06,   1.01413E+06,   1.01413E+06
C:/temp/Job-3.odb,Step-1,Increment      1: Step Time =    1.000,"P-3-1",          2164,   31.4551E-03,   166.589E-03,            0.,NA,NA,"",   1.02686E+06,   1.06170E+06,   1.06170E+06
C:/temp/Job-3.odb,Step-1,Increment      1: Step Time =    1.000,"P-3-1",          2165,   7.30458E-03,   50.5350E-03,            0.,NA,NA,"",   873.856E+03,   970.991E+03,   970.991E+03
C:/temp/Job-3.odb,Step-1,Increment      1: Step Time =    1.000,"P-3-1",          2166,   49.8381E-03,   191.628E-03,            0.,NA,NA,"",   1.00041E+06,   1.00091E+06,   1.00091E+06
C:/temp/Job-3.odb,Step-1,Increment      1: Step Time =    1.000,"P-3-1",          2167,   22.6496E-03,   73.4030E-03,            0.,NA,NA,"",   859.369E+03,   938.753E+03,   938.753E+03
C:/temp/Job-3.odb,Step-1,Increment      1: Step Time =    1.000,"P-3-1",          2168,   72.4759E-03,   176.170E-03,            0.,NA,NA,"",   1.01675E+06,   1.01978E+06,   1.01978E+06
C:/temp/Job-3.odb,Step-1,Increment      1: Step Time =    1.000,"P-3-1",          2169,   132.399E-03,   173.915E-03,            0.,NA,NA,"",   1.01827E+06,   1.01557E+06,   1.01557E+06
C:/temp/Job-3.odb,Step-1,Increment      1: Step Time =    1.000,"P-3-1",          2170,   25.0055E-03,   134.809E-03,            0.,NA,NA,"",   893.842E+03,   966.414E+03,   966.414E+03
C:/temp/Job-3.odb,Step-1,Increment      1: Step Time =    1.000,"P-3-1",          2171,   174.283E-03,   65.1122E-03,            0.,NA,NA,"",   1.00561E+06,   1.00710E+06,   1.00710E+06
C:/temp/Job-3.odb,Step-1,Increment      1: Step Time =    1.000,"P-3-1",          2172,   68.1279E-03,   26.2611E-03,            0.,NA,NA,"",   1.02814E+06,   1.03103E+06,   1.03103E+06
C:/temp/Job-3.odb,Step-1,Increment      1: Step Time =    1.000,"P-3-1",          2173,   129.757E-03,   134.532E-03,            0.,NA,NA,"",   1.15039E+06,   1.11358E+06,   1.11358E+06
C:/temp/Job-3.odb,Step-1,Increment      1: Step Time =    1.000,"P-3-1",          2174,   48.2944E-03,   100.651E-03,            0.,NA,NA,"",   802.323E+03,   860.791E+03,   860.791E+03
C:/temp/Job-3.odb,Step-1,Increment      1: Step Time =    1.000,"P-3-1",          2175,   68.4343E-03,   66.3774E-03,            0.,NA,NA,"",   1.11536E+06,   1.10296E+06,   1.10296E+06
C:/temp/Job-3.odb,Step-1,Increment      1: Step Time =    1.000,"P-3-1",          2176,   98.0727E-03,   134.269E-03,            0.,NA,NA,"",   1.05924E+06,   1.13314E+06,   1.13314E+06
C:/temp/Job-3.odb,Step-1,Increment      1: Step Time =    1.000,"P-3-1",          2177,   103.788E-03,   138.448E-03,            0.,NA,NA,"",   1.04574E+06,   1.10599E+06,   1.10599E+06
C:/temp/Job-3.odb,Step-1,Increment      1: Step Time =    1.000,"P-3-1",          2178,   165.924E-03,   164.499E-03,            0.,NA,NA,"",   1.02163E+06,   1.01642E+06,   1.01642E+06
C:/temp/Job-3.odb,Step-1,Increment      1: Step Time =    1.000,"P-3-1",          2179,   164.309E-03,   33.7402E-03,            0.,NA,NA,"",   1.02141E+06,   1.01611E+06,   1.01611E+06
C:/temp/Job-3.odb,Step-1,Increment      1: Step Time =    1.000,"P-3-1",          2180,   35.8798E-03,   167.388E-03,            0.,NA,NA,"",   1.03550E+06,   1.06184E+06,   1.06184E+06
C:/temp/Job-3.odb,Step-1,Increment      1: Step Time =    1.000,"P-3-1",          2181,   175.670E-03,   75.7619E-03,            0.,NA,NA,"",   989.267E+03,   996.644E+03,   996.644E+03
C:/temp/Job-3.odb,Step-1,Increment      1: Step Time =    1.000,"P-3-1",          2182,   72.1865E-03,   26.3023E-03,            0.,NA,NA,"",   1.02283E+06,   1.02643E+06,   1.02643E+06
C:/temp/Job-3.odb,Step-1,Increment      1: Step Time =    1.000,"P-3-1",          2183,   127.976E-03,   172.890E-03,            0.,NA,NA,"",   1.01746E+06,   1.01638E+06,   1.01638E+06
C:/temp/Job-3.odb,Step-1,Increment      1: Step Time =    1.000,"P-3-1",          2184,   24.3659E-03,   127.141E-03,            0.,NA,NA,"",   867.140E+03,   943.625E+03,   943.625E+03
C:/temp/Job-3.odb,Step-1,Increment      1: Step Time =    1.000,"P-3-1",          2185,   87.7889E-03,   129.684E-03,            0.,NA,NA,"",   1.17305E+06,   1.20386E+06,   1.20386E+06
C:/temp/Job-3.odb,Step-1,Increment      1: Step Time =    1.000,"P-3-1",          2186,   129.766E-03,   124.460E-03,            0.,NA,NA,"",   1.15461E+06,   1.09548E+06,   1.09548E+06
C:/temp/Job-3.odb,Step-1,Increment      1: Step Time =    1.000,"P-3-1",          2187,   142.569E-03,   72.1357E-03,            0.,NA,NA,"",   1.07110E+06,   1.03939E+06,   1.03939E+06
C:/temp/Job-3.odb,Step-1,Increment      1: Step Time =    1.000,"P-3-1",          2188,   48.2388E-03,   106.133E-03,            0.,NA,NA,"",   817.065E+03,   873.226E+03,   873.226E+03
C:/temp/Job-3.odb,Step-1,Increment      1: Step Time =    1.000,"P-3-1",          2189,   156.723E-03,   31.3657E-03,            0.,NA,NA,"",   1.02569E+06,   1.01914E+06,   1.01914E+06
C:/temp/Job-3.odb,Step-1,Increment      1: Step Time =    1.000,"P-3-1",          2190,   167.761E-03,   156.514E-03,            0.,NA,NA,"",   1.02388E+06,   1.01840E+06,   1.01840E+06
C:/temp/Job-3.odb,Step-1,Increment      1: Step Time =    1.000,"P-3-1",          2191,   72.6221E-03,   29.7331E-03,            0.,NA,NA,"",   1.03166E+06,   1.03620E+06,   1.03620E+06
C:/temp/Job-3.odb,Step-1,Increment      1: Step Time =    1.000,"P-3-1",          2192,   171.359E-03,   72.3787E-03,            0.,NA,NA,"",   997.630E+03,   1.00014E+06,   1.00014E+06
C:/temp/Job-3.odb,Step-1,Increment      1: Step Time =    1.000,"P-3-1",          2193,   28.3230E-03,   125.009E-03,            0.,NA,NA,"",   871.495E+03,   943.109E+03,   943.109E+03
C:/temp/Job-3.odb,Step-1,Increment      1: Step Time =    1.000,"P-3-1",          2194,   129.956E-03,   169.315E-03,            0.,NA,NA,"",   1.02856E+06,   1.02578E+06,   1.02578E+06
C:/temp/Job-3.odb,Step-1,Increment      1: Step Time =    1.000,"P-3-1",          2195,   76.5068E-03,   134.654E-03,            0.,NA,NA,"",   1.14840E+06,   1.13992E+06,   1.13992E+06
C:/temp/Job-3.odb,Step-1,Increment      1: Step Time =    1.000,"P-3-1",          2196,   126.014E-03,   58.0329E-03,            0.,NA,NA,"",   1.12268E+06,   1.10616E+06,   1.10616E+06
C:/temp/Job-3.odb,Step-1,Increment      1: Step Time =    1.000,"P-3-1",          2197,   90.3212E-03,   129.187E-03,            0.,NA,NA,"",   1.16124E+06,   1.20905E+06,   1.20905E+06
C:/temp/Job-3.odb,Step-1,Increment      1: Step Time =    1.000,"P-3-1",          2198,   18.4573E-03,   75.2497E-03,            0.,NA,NA,"",    841.65E+03,   927.375E+03,   927.375E+03
C:/temp/Job-3.odb,Step-1,Increment      1: Step Time =    1.000,"P-3-1",          2199,   73.1580E-03,   179.211E-03,            0.,NA,NA,"",   1.00765E+06,   1.01007E+06,   1.01007E+06
C:/temp/Job-3.odb,Step-1,Increment      1: Step Time =    1.000,"P-3-1",          2200,   83.5032E-03,   167.023E-03,            0.,NA,NA,"",   1.02223E+06,   1.03303E+06,   1.03303E+06
C:/temp/Job-3.odb,Step-1,Increment      1: Step Time =    1.000,"P-3-1",          2201,   33.9567E-03,   85.9851E-03,            0.,NA,NA,"",   844.112E+03,   913.435E+03,   913.435E+03
C:/temp/Job-3.odb,Step-1,Increment      1: Step Time =    1.000,"P-3-1",          2202,   166.180E-03,   113.642E-03,            0.,NA,NA,"",   963.849E+03,   971.142E+03,   971.142E+03
C:/temp/Job-3.odb,Step-1,Increment      1: Step Time =    1.000,"P-3-1",          2203,   117.372E-03,   32.1098E-03,            0.,NA,NA,"",   1.01793E+06,   1.02405E+06,   1.02405E+06
C:/temp/Job-3.odb,Step-1,Increment      1: Step Time =    1.000,"P-3-1",          2204,   49.3668E-03,   175.456E-03,            0.,NA,NA,"",   1.04159E+06,   1.04759E+06,   1.04759E+06
C:/temp/Job-3.odb,Step-1,Increment      1: Step Time =    1.000,"P-3-1",          2205,   23.3673E-03,   48.9643E-03,            0.,NA,NA,"",   945.171E+03,   1.01150E+06,   1.01150E+06
C:/temp/Job-3.odb,Step-1,Increment      1: Step Time =    1.000,"P-3-1",          2206,   63.5205E-03,   127.168E-03,            0.,NA,NA,"",   1.05959E+06,   1.05193E+06,   1.05193E+06
C:/temp/Job-3.odb,Step-1,Increment      1: Step Time =    1.000,"P-3-1",          2207,   77.5117E-03,   64.0969E-03,            0.,NA,NA,"",   1.14251E+06,   1.13748E+06,   1.13748E+06
C:/temp/Job-3.odb,Step-1,Increment      1: Step Time =    1.000,"P-3-1",          2208,   51.8670E-03,   193.346E-03,            0.,NA,NA,"",   990.501E+03,   990.649E+03,   990.649E+03
C:/temp/Job-3.odb,Step-1,Increment      1: Step Time =    1.000,"P-3-1",          2209,   64.5379E-03,   15.8229E-03,            0.,NA,NA,"",   1.00368E+06,   1.00457E+06,   1.00457E+06
C:/temp/Job-3.odb,Step-1,Increment      1: Step Time =    1.000,"P-3-1",          2210,   183.908E-03,   62.3950E-03,            0.,NA,NA,"",   996.451E+03,   1.00388E+06,   1.00388E+06
C:/temp/Job-3.odb,Step-1,Increment      1: Step Time =    1.000,"P-3-1",          2211,   15.5673E-03,   136.122E-03,            0.,NA,NA,"",   865.836E+03,   952.500E+03,   952.500E+03
C:/temp/Job-3.odb,Step-1,Increment      1: Step Time =    1.000,"P-3-1",          2212,   134.711E-03,   184.831E-03,            0.,NA,NA,"",   994.344E+03,   993.022E+03,   993.022E+03
C:/temp/Job-3.odb,Step-1,Increment      1: Step Time =    1.000,"P-3-1",          2213,   98.4483E-03,   34.5389E-03,            0.,NA,NA,"",   1.00760E+06,   1.02513E+06,   1.02513E+06
C:/temp/Job-3.odb,Step-1,Increment      1: Step Time =    1.000,"P-3-1",          2214,   35.7062E-03,   101.358E-03,            0.,NA,NA,"",   818.860E+03,   890.453E+03,   890.453E+03
C:/temp/Job-3.odb,Step-1,Increment      1: Step Time =    1.000,"P-3-1",          2215,   166.120E-03,   97.8493E-03,            0.,NA,NA,"",   943.486E+03,   955.697E+03,   955.697E+03
C:/temp/Job-3.odb,Step-1,Increment      1: Step Time =    1.000,"P-3-1",          2216,   103.117E-03,   164.484E-03,            0.,NA,NA,"",   1.00861E+06,   1.02617E+06,   1.02617E+06
C:/temp/Job-3.odb,Step-1,Increment      1: Step Time =    1.000,"P-3-1",          2217,   48.5671E-03,   90.4283E-03,            0.,NA,NA,"",   830.701E+03,   883.838E+03,   883.838E+03
C:/temp/Job-3.odb,Step-1,Increment      1: Step Time =    1.000,"P-3-1",          2218,   149.457E-03,   114.363E-03,            0.,NA,NA,"",   949.410E+03,   944.547E+03,   944.547E+03
C:/temp/Job-3.odb,Step-1,Increment      1: Step Time =    1.000,"P-3-1",          2219,   150.708E-03,   34.1342E-03,            0.,NA,NA,"",   1.03458E+06,   1.02614E+06,   1.02614E+06
C:/temp/Job-3.odb,Step-1,Increment      1: Step Time =    1.000,"P-3-1",          2220,   165.414E-03,   147.064E-03,            0.,NA,NA,"",   1.03001E+06,   1.02235E+06,   1.02235E+06
C:/temp/Job-3.odb,Step-1,Increment      1: Step Time =    1.000,"P-3-1",          2221,   54.5122E-03,   105.342E-03,            0.,NA,NA,"",   795.582E+03,   845.050E+03,   845.050E+03
C:/temp/Job-3.odb,Step-1,Increment      1: Step Time =    1.000,"P-3-1",          2222,   21.5594E-03,   148.266E-03,            0.,NA,NA,"",   928.309E+03,   999.819E+03,   999.819E+03
C:/temp/Job-3.odb,Step-1,Increment      1: Step Time =    1.000,"P-3-1",          2223,   15.0339E-03,   149.479E-03,            0.,NA,NA,"",   906.135E+03,   989.614E+03,   989.614E+03
C:/temp/Job-3.odb,Step-1,Increment      1: Step Time =    1.000,"P-3-1",          2224,   148.373E-03,   181.002E-03,            0.,NA,NA,"",   1.00796E+06,   1.00479E+06,   1.00479E+06
C:/temp/Job-3.odb,Step-1,Increment      1: Step Time =    1.000,"P-3-1",          2225,   150.516E-03,   187.442E-03,            0.,NA,NA,"",   998.372E+03,   996.827E+03,   996.827E+03
C:/temp/Job-3.odb,Step-1,Increment      1: Step Time =    1.000,"P-3-1",          2226,   51.2680E-03,   15.0032E-03,            0.,NA,NA,"",   1.02040E+06,   1.02203E+06,   1.02203E+06
C:/temp/Job-3.odb,Step-1,Increment      1: Step Time =    1.000,"P-3-1",          2227,   53.3433E-03,   20.9146E-03,            0.,NA,NA,"",   1.03306E+06,   1.03616E+06,   1.03616E+06
C:/temp/Job-3.odb,Step-1,Increment      1: Step Time =    1.000,"P-3-1",          2228,   181.428E-03,   51.5590E-03,            0.,NA,NA,"",   1.00533E+06,   1.00741E+06,   1.00741E+06
C:/temp/Job-3.odb,Step-1,Increment      1: Step Time =    1.000,"P-3-1",          2229,   190.112E-03,   47.3649E-03,            0.,NA,NA,"",   998.253E+03,   1.00249E+06,   1.00249E+06
C:/temp/Job-3.odb,Step-1,Increment      1: Step Time =    1.000,"P-3-1",          2230,   129.524E-03,   35.2866E-03,            0.,NA,NA,"",   1.04027E+06,   1.03675E+06,   1.03675E+06
C:/temp/Job-3.odb,Step-1,Increment      1: Step Time =    1.000,"P-3-1",          2231,   126.211E-03,   29.6221E-03,            0.,NA,NA,"",   1.02207E+06,   1.02186E+06,   1.02186E+06
C:/temp/Job-3.odb,Step-1,Increment      1: Step Time =    1.000,"P-3-1",          2232,   173.072E-03,   126.405E-03,            0.,NA,NA,"",   993.422E+03,   997.974E+03,   997.974E+03
C:/temp/Job-3.odb,Step-1,Increment      1: Step Time =    1.000,"P-3-1",          2233,   164.148E-03,   131.733E-03,            0.,NA,NA,"",   1.01509E+06,   1.00929E+06,   1.00929E+06
C:/temp/Job-3.odb,Step-1,Increment      1: Step Time =    1.000,"P-3-1",          2234,   12.2784E-03,   52.0488E-03,            0.,NA,NA,"",   889.249E+03,   978.300E+03,   978.300E+03
C:/temp/Job-3.odb,Step-1,Increment      1: Step Time =    1.000,"P-3-1",          2235,   52.4031E-03,   189.378E-03,            0.,NA,NA,"",   1.00474E+06,   1.00540E+06,   1.00540E+06
C:/temp/Job-3.odb,Step-1,Increment      1: Step Time =    1.000,"P-3-1",          2236,   25.0224E-03,   70.2339E-03,            0.,NA,NA,"",   877.156E+03,    951.86E+03,    951.86E+03
C:/temp/Job-3.odb,Step-1,Increment      1: Step Time =    1.000,"P-3-1",          2237,   71.8440E-03,   172.914E-03,            0.,NA,NA,"",   1.02580E+06,   1.02943E+06,   1.02943E+06
C:/temp/Job-3.odb,Step-1,Increment      1: Step Time =    1.000,"P-3-1",          2238,   130.632E-03,   171.665E-03,            0.,NA,NA,"",   1.02315E+06,   1.02064E+06,   1.02064E+06
C:/temp/Job-3.odb,Step-1,Increment      1: Step Time =    1.000,"P-3-1",          2239,   27.3818E-03,   129.544E-03,            0.,NA,NA,"",   885.062E+03,   955.693E+03,   955.693E+03
C:/temp/Job-3.odb,Step-1,Increment      1: Step Time =    1.000,"P-3-1",          2240,   171.693E-03,   67.1879E-03,            0.,NA,NA,"",   1.00628E+06,   1.00654E+06,   1.00654E+06
C:/temp/Job-3.odb,Step-1,Increment      1: Step Time =    1.000,"P-3-1",          2241,   70.3362E-03,   28.2354E-03,            0.,NA,NA,"",   1.03042E+06,   1.03408E+06,   1.03408E+06
C:/temp/Job-3.odb,Step-1,Increment      1: Step Time =    1.000,"P-3-1",          2242,   130.876E-03,   136.377E-03,            0.,NA,NA,"",   1.14066E+06,   1.10668E+06,   1.10668E+06
C:/temp/Job-3.odb,Step-1,Increment      1: Step Time =    1.000,"P-3-1",          2243,   97.3718E-03,   137.219E-03,            0.,NA,NA,"",   1.04895E+06,   1.11360E+06,   1.11360E+06
C:/temp/Job-3.odb,Step-1,Increment      1: Step Time =    1.000,"P-3-1",          2244,   165.923E-03,   159.834E-03,            0.,NA,NA,"",   1.02514E+06,   1.01910E+06,   1.01910E+06
C:/temp/Job-3.odb,Step-1,Increment      1: Step Time =    1.000,"P-3-1",          2245,   161.553E-03,   33.4713E-03,            0.,NA,NA,"",   1.02417E+06,   1.01809E+06,   1.01809E+06
C:/temp/Job-3.odb,Step-1,Increment      1: Step Time =    1.000,"P-3-1",          2246,   38.6968E-03,   166.088E-03,            0.,NA,NA,"",   1.03685E+06,   1.06019E+06,   1.06019E+06
C:/temp/Job-3.odb,Step-1,Increment      1: Step Time =    1.000,"P-3-1",          2247,   34.5165E-03,   41.3825E-03,            0.,NA,NA,"",   1.01041E+06,   1.04772E+06,   1.04772E+06
C:/temp/Job-3.odb,Step-1,Increment      1: Step Time =    1.000,"P-3-1",          2248,   88.2056E-03,   126.253E-03,            0.,NA,NA,"",   1.22024E+06,   1.24721E+06,   1.24721E+06
C:/temp/Job-3.odb,Step-1,Increment      1: Step Time =    1.000,"P-3-1",          2249,   88.9077E-03,   132.713E-03,            0.,NA,NA,"",   1.13180E+06,   1.16978E+06,   1.16978E+06
C:/temp/Job-3.odb,Step-1,Increment      1: Step Time =    1.000,"P-3-1",          2250,   64.0196E-03,   65.9449E-03,            0.,NA,NA,"",   1.08761E+06,   1.08094E+06,   1.08094E+06
C:/temp/Job-3.odb,Step-1,Increment      1: Step Time =    1.000,"P-3-1",          2251,   55.5856E-03,   75.6337E-03,            0.,NA,NA,"",   975.149E+03,   992.229E+03,   992.229E+03
C:/temp/Job-3.odb,Step-1,Increment      1: Step Time =    1.000,"P-3-1",          2252,   66.9101E-03,   127.114E-03,            0.,NA,NA,"",   1.09176E+06,   1.07407E+06,   1.07407E+06
C:/temp/Job-3.odb,Step-1,Increment      1: Step Time =    1.000,"P-3-1",          2253,   154.134E-03,   33.3981E-03,            0.,NA,NA,"",   1.03053E+06,   1.02286E+06,   1.02286E+06
C:/temp/Job-3.odb,Step-1,Increment      1: Step Time =    1.000,"P-3-1",          2254,   162.844E-03,   151.616E-03,            0.,NA,NA,"",   1.03422E+06,   1.02536E+06,   1.02536E+06
C:/temp/Job-3.odb,Step-1,Increment      1: Step Time =    1.000,"P-3-1",          2255,   121.252E-03,   138.858E-03,            0.,NA,NA,"",   1.13892E+06,   1.12725E+06,   1.12725E+06
C:/temp/Job-3.odb,Step-1,Increment      1: Step Time =    1.000,"P-3-1",          2256,   143.984E-03,   125.799E-03,            0.,NA,NA,"",   1.05379E+06,   1.02496E+06,   1.02496E+06
C:/temp/Job-3.odb,Step-1,Increment      1: Step Time =    1.000,"P-3-1",          2257,   94.5467E-03,   137.432E-03,            0.,NA,NA,"",   1.05895E+06,   1.11662E+06,   1.11662E+06
C:/temp/Job-3.odb,Step-1,Increment      1: Step Time =    1.000,"P-3-1",          2258,   95.2302E-03,   140.475E-03,            0.,NA,NA,"",   1.04599E+06,   1.09797E+06,   1.09797E+06
C:/temp/Job-3.odb,Step-1,Increment      1: Step Time =    1.000,"P-3-1",          2259,   164.799E-03,   126.661E-03,            0.,NA,NA,"",   1.00170E+06,   999.216E+03,   999.216E+03
C:/temp/Job-3.odb,Step-1,Increment      1: Step Time =    1.000,"P-3-1",          2260,   123.696E-03,   37.9863E-03,            0.,NA,NA,"",   1.04096E+06,   1.04206E+06,   1.04206E+06
C:/temp/Job-3.odb,Step-1,Increment      1: Step Time =    1.000,"P-3-1",          2261,   163.103E-03,   128.991E-03,            0.,NA,NA,"",   1.01007E+06,   1.00463E+06,   1.00463E+06
C:/temp/Job-3.odb,Step-1,Increment      1: Step Time =    1.000,"P-3-1",          2262,   127.683E-03,   38.9078E-03,            0.,NA,NA,"",   1.04891E+06,    1.0456E+06,    1.0456E+06
C:/temp/Job-3.odb,Step-1,Increment      1: Step Time =    1.000,"P-3-1",          2263,   164.452E-03,   155.808E-03,            0.,NA,NA,"",   1.02974E+06,   1.02235E+06,   1.02235E+06
C:/temp/Job-3.odb,Step-1,Increment      1: Step Time =    1.000,"P-3-1",          2264,   89.3291E-03,   122.791E-03,            0.,NA,NA,"",   1.28318E+06,   1.31321E+06,   1.31321E+06
C:/temp/Job-3.odb,Step-1,Increment      1: Step Time =    1.000,"P-3-1",          2265,   133.442E-03,   189.523E-03,            0.,NA,NA,"",   983.085E+03,   982.497E+03,   982.497E+03
C:/temp/Job-3.odb,Step-1,Increment      1: Step Time =    1.000,"P-3-1",          2266,   11.2747E-03,   134.016E-03,            0.,NA,NA,"",   845.586E+03,   938.401E+03,   938.401E+03
C:/temp/Job-3.odb,Step-1,Increment      1: Step Time =    1.000,"P-3-1",          2267,   188.430E-03,   65.0795E-03,            0.,NA,NA,"",   990.155E+03,   1.00172E+06,   1.00172E+06
C:/temp/Job-3.odb,Step-1,Increment      1: Step Time =    1.000,"P-3-1",          2268,   66.1884E-03,   10.7919E-03,            0.,NA,NA,"",   984.644E+03,   984.995E+03,   984.995E+03
C:/temp/Job-3.odb,Step-1,Increment      1: Step Time =    1.000,"P-3-1",          2269,   82.1622E-03,   64.1054E-03,            0.,NA,NA,"",   1.14090E+06,   1.14830E+06,   1.14830E+06
C:/temp/Job-3.odb,Step-1,Increment      1: Step Time =    1.000,"P-3-1",          2270,   137.132E-03,   188.360E-03,            0.,NA,NA,"",   988.854E+03,   987.856E+03,   987.856E+03
C:/temp/Job-3.odb,Step-1,Increment      1: Step Time =    1.000,"P-3-1",          2271,   12.2140E-03,   138.226E-03,            0.,NA,NA,"",    860.53E+03,   951.441E+03,   951.441E+03
C:/temp/Job-3.odb,Step-1,Increment      1: Step Time =    1.000,"P-3-1",          2272,   187.603E-03,   60.7795E-03,            0.,NA,NA,"",   994.049E+03,   1.00285E+06,   1.00285E+06
C:/temp/Job-3.odb,Step-1,Increment      1: Step Time =    1.000,"P-3-1",          2273,   62.1220E-03,   12.0529E-03,            0.,NA,NA,"",   994.878E+03,   995.298E+03,   995.298E+03
C:/temp/Job-3.odb,Step-1,Increment      1: Step Time =    1.000,"P-3-1",          2274,   79.6255E-03,   61.9678E-03,            0.,NA,NA,"",   1.13053E+06,   1.13345E+06,   1.13345E+06
C:/temp/Job-3.odb,Step-1,Increment      1: Step Time =    1.000,"P-3-1",          2275,   49.5864E-03,   87.4026E-03,            0.,NA,NA,"",   852.844E+03,   900.601E+03,   900.601E+03
C:/temp/Job-3.odb,Step-1,Increment      1: Step Time =    1.000,"P-3-1",          2276,   122.372E-03,   136.710E-03,            0.,NA,NA,"",   1.15482E+06,   1.13553E+06,   1.13553E+06
C:/temp/Job-3.odb,Step-1,Increment      1: Step Time =    1.000,"P-3-1",          2277,   45.0331E-03,   88.1848E-03,            0.,NA,NA,"",   845.044E+03,   900.645E+03,   900.645E+03
C:/temp/Job-3.odb,Step-1,Increment      1: Step Time =    1.000,"P-3-1",          2278,   66.7746E-03,   63.8569E-03,            0.,NA,NA,"",   1.10436E+06,   1.09619E+06,   1.09619E+06
C:/temp/Job-3.odb,Step-1,Increment      1: Step Time =    1.000,"P-3-1",          2279,   120.316E-03,   141.423E-03,            0.,NA,NA,"",   1.12026E+06,   1.11550E+06,   1.11550E+06
C:/temp/Job-3.odb,Step-1,Increment      1: Step Time =    1.000,"P-3-1",          2280,   141.399E-03,   129.805E-03,            0.,NA,NA,"",   1.08663E+06,   1.05274E+06,   1.05274E+06
C:/temp/Job-3.odb,Step-1,Increment      1: Step Time =    1.000,"P-3-1",          2281,   59.5508E-03,   64.6089E-03,            0.,NA,NA,"",   1.05967E+06,   1.06221E+06,   1.06221E+06
C:/temp/Job-3.odb,Step-1,Increment      1: Step Time =    1.000,"P-3-1",          2282,   167.336E-03,   73.8344E-03,            0.,NA,NA,"",   998.604E+03,   998.380E+03,   998.380E+03
C:/temp/Job-3.odb,Step-1,Increment      1: Step Time =    1.000,"P-3-1",          2283,   74.0682E-03,   32.9461E-03,            0.,NA,NA,"",   1.03731E+06,   1.04300E+06,   1.04300E+06
C:/temp/Job-3.odb,Step-1,Increment      1: Step Time =    1.000,"P-3-1",          2284,   126.753E-03,   166.538E-03,            0.,NA,NA,"",   1.03292E+06,   1.03154E+06,   1.03154E+06
C:/temp/Job-3.odb,Step-1,Increment      1: Step Time =    1.000,"P-3-1",          2285,   31.7739E-03,   123.776E-03,            0.,NA,NA,"",   877.378E+03,   944.297E+03,   944.297E+03
C:/temp/Job-3.odb,Step-1,Increment      1: Step Time =    1.000,"P-3-1",          2286,   103.264E-03,   35.5944E-03,            0.,NA,NA,"",   1.00933E+06,   1.02694E+06,   1.02694E+06
C:/temp/Job-3.odb,Step-1,Increment      1: Step Time =    1.000,"P-3-1",          2287,   34.9911E-03,   98.3272E-03,            0.,NA,NA,"",   819.176E+03,   891.399E+03,   891.399E+03
C:/temp/Job-3.odb,Step-1,Increment      1: Step Time =    1.000,"P-3-1",          2288,   165.540E-03,   102.463E-03,            0.,NA,NA,"",   942.583E+03,   954.496E+03,   954.496E+03
C:/temp/Job-3.odb,Step-1,Increment      1: Step Time =    1.000,"P-3-1",          2289,   99.5459E-03,   164.381E-03,            0.,NA,NA,"",   1.00835E+06,   1.02702E+06,   1.02702E+06
C:/temp/Job-3.odb,Step-1,Increment      1: Step Time =    1.000,"P-3-1",          2290,   45.7099E-03,   103.634E-03,            0.,NA,NA,"",   812.981E+03,   873.181E+03,   873.181E+03
C:/temp/Job-3.odb,Step-1,Increment      1: Step Time =    1.000,"P-3-1",          2291,   159.294E-03,   30.6907E-03,            0.,NA,NA,"",   1.02287E+06,   1.01701E+06,   1.01701E+06
C:/temp/Job-3.odb,Step-1,Increment      1: Step Time =    1.000,"P-3-1",          2292,   169.761E-03,   158.672E-03,            0.,NA,NA,"",   1.02037E+06,   1.01594E+06,   1.01594E+06
C:/temp/Job-3.odb,Step-1,Increment      1: Step Time =    1.000,"P-3-1",          2293,   147.101E-03,   124.918E-03,            0.,NA,NA,"",   1.03423E+06,   1.01143E+06,   1.01143E+06
C:/temp/Job-3.odb,Step-1,Increment      1: Step Time =    1.000,"P-3-1",          2294,   48.1183E-03,   109.765E-03,            0.,NA,NA,"",   834.027E+03,   887.292E+03,   887.292E+03
C:/temp/Job-3.odb,Step-1,Increment      1: Step Time =    1.000,"P-3-1",          2295,   73.8230E-03,   136.543E-03,            0.,NA,NA,"",   1.13212E+06,   1.12428E+06,   1.12428E+06
C:/temp/Job-3.odb,Step-1,Increment      1: Step Time =    1.000,"P-3-1",          2296,   78.5820E-03,   132.048E-03,            0.,NA,NA,"",   1.16953E+06,   1.15879E+06,   1.15879E+06
C:/temp/Job-3.odb,Step-1,Increment      1: Step Time =    1.000,"P-3-1",          2297,   47.7499E-03,   78.9113E-03,            0.,NA,NA,"",   910.694E+03,   951.779E+03,   951.779E+03
C:/temp/Job-3.odb,Step-1,Increment      1: Step Time =    1.000,"P-3-1",          2298,   124.195E-03,   56.0693E-03,            0.,NA,NA,"",   1.11055E+06,   1.10017E+06,   1.10017E+06
C:/temp/Job-3.odb,Step-1,Increment      1: Step Time =    1.000,"P-3-1",          2299,   19.5620E-03,   72.5077E-03,            0.,NA,NA,"",   852.365E+03,   935.820E+03,   935.820E+03
C:/temp/Job-3.odb,Step-1,Increment      1: Step Time =    1.000,"P-3-1",          2300,   70.2215E-03,   180.261E-03,            0.,NA,NA,"",   1.00851E+06,   1.01031E+06,   1.01031E+06
C:/temp/Job-3.odb,Step-1,Increment      1: Step Time =    1.000,"P-3-1",          2301,   79.4251E-03,   165.364E-03,            0.,NA,NA,"",   1.03266E+06,   1.04163E+06,   1.04163E+06
C:/temp/Job-3.odb,Step-1,Increment      1: Step Time =    1.000,"P-3-1",          2302,   35.1316E-03,   82.7225E-03,            0.,NA,NA,"",   858.561E+03,   924.473E+03,   924.473E+03
C:/temp/Job-3.odb,Step-1,Increment      1: Step Time =    1.000,"P-3-1",          2303,   163.344E-03,   119.187E-03,            0.,NA,NA,"",   979.233E+03,   980.689E+03,   980.689E+03
C:/temp/Job-3.odb,Step-1,Increment      1: Step Time =    1.000,"P-3-1",          2304,   116.988E-03,   37.1583E-03,            0.,NA,NA,"",   1.02900E+06,   1.03692E+06,   1.03692E+06
C:/temp/Job-3.odb,Step-1,Increment      1: Step Time =    1.000,"P-3-1",          2305,   52.5374E-03,   173.705E-03,            0.,NA,NA,"",   1.04161E+06,   1.04684E+06,   1.04684E+06
C:/temp/Job-3.odb,Step-1,Increment      1: Step Time =    1.000,"P-3-1",          2306,   47.2473E-03,   180.474E-03,            0.,NA,NA,"",   1.03679E+06,   1.04124E+06,   1.04124E+06
C:/temp/Job-3.odb,Step-1,Increment      1: Step Time =    1.000,"P-3-1",          2307,   25.2836E-03,   51.8283E-03,            0.,NA,NA,"",   942.526E+03,   1.00683E+06,   1.00683E+06
C:/temp/Job-3.odb,Step-1,Increment      1: Step Time =    1.000,"P-3-1",          2308,   21.3190E-03,   46.3111E-03,            0.,NA,NA,"",   946.768E+03,   1.01553E+06,   1.01553E+06
C:/temp/Job-3.odb,Step-1,Increment      1: Step Time =    1.000,"P-3-1",          2309,   63.7791E-03,   123.665E-03,            0.,NA,NA,"",   1.03873E+06,   1.03048E+06,   1.03048E+06
C:/temp/Job-3.odb,Step-1,Increment      1: Step Time =    1.000,"P-3-1",          2310,   131.526E-03,   27.8696E-03,            0.,NA,NA,"",   1.02181E+06,   1.01909E+06,   1.01909E+06
C:/temp/Job-3.odb,Step-1,Increment      1: Step Time =    1.000,"P-3-1",          2311,   173.086E-03,   129.756E-03,            0.,NA,NA,"",   999.284E+03,   1.00207E+06,   1.00207E+06
C:/temp/Job-3.odb,Step-1,Increment      1: Step Time =    1.000,"P-3-1",          2312,   15.5346E-03,   50.1078E-03,            0.,NA,NA,"",   909.551E+03,   991.917E+03,   991.917E+03
C:/temp/Job-3.odb,Step-1,Increment      1: Step Time =    1.000,"P-3-1",          2313,   50.5563E-03,   186.659E-03,            0.,NA,NA,"",   1.01643E+06,   1.01785E+06,   1.01785E+06
C:/temp/Job-3.odb,Step-1,Increment      1: Step Time =    1.000,"P-3-1",          2314,   138.184E-03,   133.067E-03,            0.,NA,NA,"",   1.11109E+06,   1.07484E+06,   1.07484E+06
C:/temp/Job-3.odb,Step-1,Increment      1: Step Time =    1.000,"P-3-1",          2315,   85.7252E-03,   134.232E-03,            0.,NA,NA,"",   1.13737E+06,   1.15933E+06,   1.15933E+06
C:/temp/Job-3.odb,Step-1,Increment      1: Step Time =    1.000,"P-3-1",          2316,   52.7207E-03,   71.4434E-03,            0.,NA,NA,"",   986.730E+03,   1.00755E+06,   1.00755E+06
C:/temp/Job-3.odb,Step-1,Increment      1: Step Time =    1.000,"P-3-1",          2317,   66.7488E-03,   130.664E-03,            0.,NA,NA,"",   1.10309E+06,   1.08891E+06,   1.08891E+06
C:/temp/Job-3.odb,Step-1,Increment      1: Step Time =    1.000,"P-3-1",          2318,   39.9399E-03,   168.857E-03,            0.,NA,NA,"",   1.04206E+06,   1.06141E+06,   1.06141E+06
C:/temp/Job-3.odb,Step-1,Increment      1: Step Time =    1.000,"P-3-1",          2319,   31.7661E-03,   43.3140E-03,            0.,NA,NA,"",   996.236E+03,   1.04062E+06,   1.04062E+06
C:/temp/Job-3.odb,Step-1,Increment      1: Step Time =    1.000,"P-3-1",          2320,   28.4355E-03,   134.804E-03,            0.,NA,NA,"",   907.630E+03,   973.772E+03,   973.772E+03
C:/temp/Job-3.odb,Step-1,Increment      1: Step Time =    1.000,"P-3-1",          2321,   135.050E-03,   171.471E-03,            0.,NA,NA,"",   1.02565E+06,   1.02129E+06,   1.02129E+06
C:/temp/Job-3.odb,Step-1,Increment      1: Step Time =    1.000,"P-3-1",          2322,   65.9604E-03,   28.7210E-03,            0.,NA,NA,"",   1.03628E+06,   1.03935E+06,   1.03935E+06
C:/temp/Job-3.odb,Step-1,Increment      1: Step Time =    1.000,"P-3-1",          2323,   169.444E-03,   64.6555E-03,            0.,NA,NA,"",   1.01322E+06,   1.01069E+06,   1.01069E+06
C:/temp/Job-3.odb,Step-1,Increment      1: Step Time =    1.000,"P-3-1",          2324,   151.550E-03,   38.0491E-03,            0.,NA,NA,"",   1.04059E+06,   1.03060E+06,   1.03060E+06
C:/temp/Job-3.odb,Step-1,Increment      1: Step Time =    1.000,"P-3-1",          2325,   161.960E-03,   148.251E-03,            0.,NA,NA,"",   1.03688E+06,   1.02692E+06,   1.02692E+06
C:/temp/Job-3.odb,Step-1,Increment      1: Step Time =    1.000,"P-3-1",          2326,   56.8878E-03,   131.016E-03,            0.,NA,NA,"",   1.02766E+06,   1.03667E+06,   1.03667E+06
C:/temp/Job-3.odb,Step-1,Increment      1: Step Time =    1.000,"P-3-1",          2327,   36.8096E-03,   44.8550E-03,            0.,NA,NA,"",   1.00770E+06,   1.04365E+06,   1.04365E+06
C:/temp/Job-3.odb,Step-1,Increment      1: Step Time =    1.000,"P-3-1",          2328,   41.9028E-03,   163.343E-03,            0.,NA,NA,"",   1.03701E+06,   1.05834E+06,   1.05834E+06
C:/temp/Job-3.odb,Step-1,Increment      1: Step Time =    1.000,"P-3-1",          2329,   141.642E-03,   133.051E-03,            0.,NA,NA,"",   1.09297E+06,   1.06068E+06,   1.06068E+06
C:/temp/Job-3.odb,Step-1,Increment      1: Step Time =    1.000,"P-3-1",          2330,   80.4758E-03,   160.754E-03,            0.,NA,NA,"",   1.04143E+06,   1.05298E+06,   1.05298E+06
C:/temp/Job-3.odb,Step-1,Increment      1: Step Time =    1.000,"P-3-1",          2331,   161.188E-03,   117.640E-03,            0.,NA,NA,"",   973.626E+03,   974.767E+03,   974.767E+03
C:/temp/Job-3.odb,Step-1,Increment      1: Step Time =    1.000,"P-3-1",          2332,   38.7215E-03,   83.4735E-03,            0.,NA,NA,"",   861.804E+03,   922.866E+03,   922.866E+03
C:/temp/Job-3.odb,Step-1,Increment      1: Step Time =    1.000,"P-3-1",          2333,   118.942E-03,   42.8122E-03,            0.,NA,NA,"",   1.04697E+06,   1.05380E+06,   1.05380E+06
C:/temp/Job-3.odb,Step-1,Increment      1: Step Time =    1.000,"P-3-1",          2334,   18.5024E-03,   48.2066E-03,            0.,NA,NA,"",   928.546E+03,   1.00419E+06,   1.00419E+06
C:/temp/Job-3.odb,Step-1,Increment      1: Step Time =    1.000,"P-3-1",          2335,   48.8067E-03,   183.648E-03,            0.,NA,NA,"",   1.02756E+06,   1.03019E+06,   1.03019E+06
C:/temp/Job-3.odb,Step-1,Increment      1: Step Time =    1.000,"P-3-1",          2336,   172.019E-03,   62.7281E-03,            0.,NA,NA,"",   1.01153E+06,   1.01045E+06,   1.01045E+06
C:/temp/Job-3.odb,Step-1,Increment      1: Step Time =    1.000,"P-3-1",          2337,   62.0299E-03,   28.4397E-03,            0.,NA,NA,"",   1.03931E+06,   1.04231E+06,   1.04231E+06
C:/temp/Job-3.odb,Step-1,Increment      1: Step Time =    1.000,"P-3-1",          2338,   138.719E-03,   173.368E-03,            0.,NA,NA,"",   1.02204E+06,   1.01735E+06,   1.01735E+06
C:/temp/Job-3.odb,Step-1,Increment      1: Step Time =    1.000,"P-3-1",          2339,   28.6223E-03,   137.371E-03,            0.,NA,NA,"",   918.124E+03,   982.352E+03,   982.352E+03
C:/temp/Job-3.odb,Step-1,Increment      1: Step Time =    1.000,"P-3-1",          2340,   98.9009E-03,   141.924E-03,            0.,NA,NA,"",   1.03465E+06,   1.08808E+06,   1.08808E+06
C:/temp/Job-3.odb,Step-1,Increment      1: Step Time =    1.000,"P-3-1",          2341,   66.9504E-03,   33.5896E-03,            0.,NA,NA,"",   1.04607E+06,   1.05000E+06,   1.05000E+06
C:/temp/Job-3.odb,Step-1,Increment      1: Step Time =    1.000,"P-3-1",          2342,   166.651E-03,   66.4812E-03,            0.,NA,NA,"",   1.01518E+06,   1.01088E+06,   1.01088E+06
C:/temp/Job-3.odb,Step-1,Increment      1: Step Time =    1.000,"P-3-1",          2343,   31.4831E-03,   134.230E-03,            0.,NA,NA,"",   917.564E+03,   978.404E+03,   978.404E+03
C:/temp/Job-3.odb,Step-1,Increment      1: Step Time =    1.000,"P-3-1",          2344,   135.254E-03,   167.674E-03,            0.,NA,NA,"",   1.03459E+06,   1.02898E+06,   1.02898E+06
C:/temp/Job-3.odb,Step-1,Increment      1: Step Time =    1.000,"P-3-1",          2345,   157.377E-03,   131.629E-03,            0.,NA,NA,"",   1.02898E+06,   1.01634E+06,   1.01634E+06
C:/temp/Job-3.odb,Step-1,Increment      1: Step Time =    1.000,"P-3-1",          2346,   127.062E-03,   43.2623E-03,            0.,NA,NA,"",   1.06283E+06,   1.05840E+06,   1.05840E+06
C:/temp/Job-3.odb,Step-1,Increment      1: Step Time =    1.000,"P-3-1",          2347,   163.250E-03,   158.361E-03,            0.,NA,NA,"",   1.03031E+06,   1.02272E+06,   1.02272E+06
C:/temp/Job-3.odb,Step-1,Increment      1: Step Time =    1.000,"P-3-1",          2348,   158.537E-03,   35.0979E-03,            0.,NA,NA,"",   1.02940E+06,   1.02197E+06,   1.02197E+06
C:/temp/Job-3.odb,Step-1,Increment      1: Step Time =    1.000,"P-3-1",          2349,   138.807E-03,   184.908E-03,            0.,NA,NA,"",   997.053E+03,   995.346E+03,   995.346E+03
C:/temp/Job-3.odb,Step-1,Increment      1: Step Time =    1.000,"P-3-1",          2350,   15.7916E-03,   140.308E-03,            0.,NA,NA,"",   878.825E+03,   964.130E+03,   964.130E+03
C:/temp/Job-3.odb,Step-1,Increment      1: Step Time =    1.000,"P-3-1",          2351,   184.261E-03,   58.0742E-03,            0.,NA,NA,"",   999.055E+03,   1.00479E+06,   1.00479E+06
C:/temp/Job-3.odb,Step-1,Increment      1: Step Time =    1.000,"P-3-1",          2352,   59.8776E-03,   15.2843E-03,            0.,NA,NA,"",   1.00873E+06,   1.00963E+06,   1.00963E+06
C:/temp/Job-3.odb,Step-1,Increment      1: Step Time =    1.000,"P-3-1",          2353,   75.8553E-03,   57.8765E-03,            0.,NA,NA,"",   1.11095E+06,   1.11234E+06,   1.11234E+06
C:/temp/Job-3.odb,Step-1,Increment      1: Step Time =    1.000,"P-3-1",          2354,   42.7988E-03,   92.2040E-03,            0.,NA,NA,"",   827.530E+03,   888.994E+03,   888.994E+03
C:/temp/Job-3.odb,Step-1,Increment      1: Step Time =    1.000,"P-3-1",          2355,   116.291E-03,   143.553E-03,            0.,NA,NA,"",   1.09228E+06,   1.10351E+06,   1.10351E+06
C:/temp/Job-3.odb,Step-1,Increment      1: Step Time =    1.000,"P-3-1",          2356,   56.2091E-03,   65.7428E-03,            0.,NA,NA,"",   1.03600E+06,   1.04555E+06,   1.04555E+06
C:/temp/Job-3.odb,Step-1,Increment      1: Step Time =    1.000,"P-3-1",          2357,   165.568E-03,   70.9771E-03,            0.,NA,NA,"",   1.00786E+06,   1.00457E+06,   1.00457E+06
C:/temp/Job-3.odb,Step-1,Increment      1: Step Time =    1.000,"P-3-1",          2358,   70.3163E-03,   34.8616E-03,            0.,NA,NA,"",   1.04579E+06,   1.05055E+06,   1.05055E+06
C:/temp/Job-3.odb,Step-1,Increment      1: Step Time =    1.000,"P-3-1",          2359,   130.838E-03,   165.937E-03,            0.,NA,NA,"",   1.03704E+06,   1.03288E+06,   1.03288E+06
C:/temp/Job-3.odb,Step-1,Increment      1: Step Time =    1.000,"P-3-1",          2360,   33.7084E-03,   131.975E-03,            0.,NA,NA,"",   917.442E+03,   975.789E+03,   975.789E+03
C:/temp/Job-3.odb,Step-1,Increment      1: Step Time =    1.000,"P-3-1",          2361,   149.279E-03,   123.727E-03,            0.,NA,NA,"",   1.02000E+06,   1.00164E+06,   1.00164E+06
C:/temp/Job-3.odb,Step-1,Increment      1: Step Time =    1.000,"P-3-1",          2362,   120.311E-03,   56.0226E-03,            0.,NA,NA,"",   1.10223E+06,   1.10186E+06,   1.10186E+06
C:/temp/Job-3.odb,Step-1,Increment      1: Step Time =    1.000,"P-3-1",          2363,   51.9981E-03,   110.146E-03,            0.,NA,NA,"",   832.891E+03,   879.671E+03,   879.671E+03
C:/temp/Job-3.odb,Step-1,Increment      1: Step Time =    1.000,"P-3-1",          2364,   192.291E-03,   65.0416E-03,            0.,NA,NA,"",   987.065E+03,   1.00096E+06,   1.00096E+06
C:/temp/Job-3.odb,Step-1,Increment      1: Step Time =    1.000,"P-3-1",          2365,   65.6165E-03,   7.17692E-03,            0.,NA,NA,"",   972.397E+03,   972.568E+03,   972.568E+03
C:/temp/Job-3.odb,Step-1,Increment      1: Step Time =    1.000,"P-3-1",          2366,   7.52916E-03,   134.449E-03,            0.,NA,NA,"",   834.854E+03,   932.181E+03,   932.181E+03
C:/temp/Job-3.odb,Step-1,Increment      1: Step Time =    1.000,"P-3-1",          2367,   134.092E-03,   193.072E-03,            0.,NA,NA,"",   976.651E+03,   976.342E+03,   976.342E+03
C:/temp/Job-3.odb,Step-1,Increment      1: Step Time =    1.000,"P-3-1",          2368,   77.6074E-03,   166.921E-03,            0.,NA,NA,"",   1.03232E+06,   1.03976E+06,   1.03976E+06
C:/temp/Job-3.odb,Step-1,Increment      1: Step Time =    1.000,"P-3-1",          2369,   32.1581E-03,   79.5334E-03,            0.,NA,NA,"",   863.982E+03,   932.624E+03,   932.624E+03
C:/temp/Job-3.odb,Step-1,Increment      1: Step Time =    1.000,"P-3-1",          2370,   165.815E-03,   121.447E-03,            0.,NA,NA,"",   986.961E+03,   988.584E+03,   988.584E+03
C:/temp/Job-3.odb,Step-1,Increment      1: Step Time =    1.000,"P-3-1",          2371,   119.710E-03,   36.6791E-03,            0.,NA,NA,"",   1.03131E+06,   1.03631E+06,   1.03631E+06
C:/temp/Job-3.odb,Step-1,Increment      1: Step Time =    1.000,"P-3-1",          2372,   50.6516E-03,   178.638E-03,            0.,NA,NA,"",   1.03539E+06,   1.03946E+06,   1.03946E+06
C:/temp/Job-3.odb,Step-1,Increment      1: Step Time =    1.000,"P-3-1",          2373,   48.0968E-03,   172.194E-03,            0.,NA,NA,"",   1.04517E+06,   1.05378E+06,   1.05378E+06
C:/temp/Job-3.odb,Step-1,Increment      1: Step Time =    1.000,"P-3-1",          2374,   20.4247E-03,   50.7475E-03,            0.,NA,NA,"",   927.251E+03,   1.00047E+06,   1.00047E+06
C:/temp/Job-3.odb,Step-1,Increment      1: Step Time =    1.000,"P-3-1",          2375,   28.2375E-03,   50.1446E-03,            0.,NA,NA,"",   960.212E+03,   1.01734E+06,   1.01734E+06
C:/temp/Job-3.odb,Step-1,Increment      1: Step Time =    1.000,"P-3-1",          2376,   133.968E-03,   26.7988E-03,            0.,NA,NA,"",   1.02073E+06,   1.01730E+06,   1.01730E+06
C:/temp/Job-3.odb,Step-1,Increment      1: Step Time =    1.000,"P-3-1",          2377,   172.421E-03,   132.784E-03,            0.,NA,NA,"",   1.00465E+06,   1.00566E+06,   1.00566E+06
C:/temp/Job-3.odb,Step-1,Increment      1: Step Time =    1.000,"P-3-1",          2378,   87.2360E-03,   137.288E-03,            0.,NA,NA,"",   1.10497E+06,   1.13533E+06,   1.13533E+06
C:/temp/Job-3.odb,Step-1,Increment      1: Step Time =    1.000,"P-3-1",          2379,   57.3345E-03,   69.8210E-03,            0.,NA,NA,"",   1.02787E+06,   1.03548E+06,   1.03548E+06
C:/temp/Job-3.odb,Step-1,Increment      1: Step Time =    1.000,"P-3-1",          2380,   49.8506E-03,   75.6045E-03,            0.,NA,NA,"",   942.521E+03,   974.834E+03,   974.834E+03
C:/temp/Job-3.odb,Step-1,Increment      1: Step Time =    1.000,"P-3-1",          2381,   66.6884E-03,   134.342E-03,            0.,NA,NA,"",   1.10414E+06,   1.09454E+06,   1.09454E+06
C:/temp/Job-3.odb,Step-1,Increment      1: Step Time =    1.000,"P-3-1",          2382,   45.2658E-03,   165.077E-03,            0.,NA,NA,"",   1.04359E+06,   1.05906E+06,   1.05906E+06
C:/temp/Job-3.odb,Step-1,Increment      1: Step Time =    1.000,"P-3-1",          2383,   33.9978E-03,   46.6383E-03,            0.,NA,NA,"",   993.258E+03,   1.03601E+06,   1.03601E+06
C:/temp/Job-3.odb,Step-1,Increment      1: Step Time =    1.000,"P-3-1",          2384,   176.215E-03,   126.374E-03,            0.,NA,NA,"",   991.146E+03,   998.183E+03,   998.183E+03
C:/temp/Job-3.odb,Step-1,Increment      1: Step Time =    1.000,"P-3-1",          2385,   128.432E-03,   25.8246E-03,            0.,NA,NA,"",   1.01413E+06,   1.01306E+06,   1.01306E+06
C:/temp/Job-3.odb,Step-1,Increment      1: Step Time =    1.000,"P-3-1",          2386,   86.9284E-03,   62.3915E-03,            0.,NA,NA,"",   1.10832E+06,   1.13693E+06,   1.13693E+06
C:/temp/Job-3.odb,Step-1,Increment      1: Step Time =    1.000,"P-3-1",          2387,   67.3643E-03,   181.605E-03,            0.,NA,NA,"",   1.00822E+06,   1.00960E+06,   1.00960E+06
C:/temp/Job-3.odb,Step-1,Increment      1: Step Time =    1.000,"P-3-1",          2388,   18.7180E-03,   68.2386E-03,            0.,NA,NA,"",   862.537E+03,   945.960E+03,   945.960E+03
C:/temp/Job-3.odb,Step-1,Increment      1: Step Time =    1.000,"P-3-1",          2389,   158.656E-03,   149.091E-03,            0.,NA,NA,"",   1.04354E+06,   1.03154E+06,   1.03154E+06
C:/temp/Job-3.odb,Step-1,Increment      1: Step Time =    1.000,"P-3-1",          2390,   149.224E-03,   42.5866E-03,            0.,NA,NA,"",   1.05171E+06,   1.03900E+06,   1.03900E+06
C:/temp/Job-3.odb,Step-1,Increment      1: Step Time =    1.000,"P-3-1",          2391,   42.9588E-03,   102.019E-03,            0.,NA,NA,"",   814.659E+03,   878.134E+03,   878.134E+03
C:/temp/Job-3.odb,Step-1,Increment      1: Step Time =    1.000,"P-3-1",          2392,   125.815E-03,   53.1522E-03,            0.,NA,NA,"",   1.09919E+06,   1.08901E+06,   1.08901E+06
C:/temp/Job-3.odb,Step-1,Increment      1: Step Time =    1.000,"P-3-1",          2393,   158.633E-03,   158.544E-03,            0.,NA,NA,"",   1.03643E+06,   1.02708E+06,   1.02708E+06
C:/temp/Job-3.odb,Step-1,Increment      1: Step Time =    1.000,"P-3-1",          2394,   161.046E-03,   40.7545E-03,            0.,NA,NA,"",   1.03237E+06,   1.02417E+06,   1.02417E+06
C:/temp/Job-3.odb,Step-1,Increment      1: Step Time =    1.000,"P-3-1",          2395,   49.7175E-03,   167.401E-03,            0.,NA,NA,"",   1.04721E+06,   1.05731E+06,   1.05731E+06
C:/temp/Job-3.odb,Step-1,Increment      1: Step Time =    1.000,"P-3-1",          2396,   31.1396E-03,   48.4075E-03,            0.,NA,NA,"",   977.255E+03,   1.02715E+06,   1.02715E+06
C:/temp/Job-3.odb,Step-1,Increment      1: Step Time =    1.000,"P-3-1",          2397,   50.2701E-03,   114.196E-03,            0.,NA,NA,"",   869.245E+03,   912.983E+03,   912.983E+03
C:/temp/Job-3.odb,Step-1,Increment      1: Step Time =    1.000,"P-3-1",          2398,   55.2695E-03,   179.995E-03,            0.,NA,NA,"",   1.02712E+06,   1.02943E+06,   1.02943E+06
C:/temp/Job-3.odb,Step-1,Increment      1: Step Time =    1.000,"P-3-1",          2399,   19.4022E-03,   55.0019E-03,            0.,NA,NA,"",   908.044E+03,   985.413E+03,   985.413E+03
C:/temp/Job-3.odb,Step-1,Increment      1: Step Time =    1.000,"P-3-1",          2400,   59.8625E-03,   134.752E-03,            0.,NA,NA,"",   1.06047E+06,   1.06244E+06,   1.06244E+06
C:/temp/Job-3.odb,Step-1,Increment      1: Step Time =    1.000,"P-3-1",          2401,   83.8890E-03,   158.885E-03,            0.,NA,NA,"",   1.03888E+06,   1.05444E+06,   1.05444E+06
C:/temp/Job-3.odb,Step-1,Increment      1: Step Time =    1.000,"P-3-1",          2402,   157.822E-03,   115.455E-03,            0.,NA,NA,"",   961.910E+03,   962.839E+03,   962.839E+03
C:/temp/Job-3.odb,Step-1,Increment      1: Step Time =    1.000,"P-3-1",          2403,   42.9919E-03,   84.8695E-03,            0.,NA,NA,"",   862.230E+03,   917.779E+03,   917.779E+03
C:/temp/Job-3.odb,Step-1,Increment      1: Step Time =    1.000,"P-3-1",          2404,   116.082E-03,   42.0621E-03,            0.,NA,NA,"",   1.03871E+06,   1.04947E+06,   1.04947E+06
C:/temp/Job-3.odb,Step-1,Increment      1: Step Time =    1.000,"P-3-1",          2405,   93.7142E-03,   144.527E-03,            0.,NA,NA,"",   1.04192E+06,   1.08421E+06,   1.08421E+06
C:/temp/Job-3.odb,Step-1,Increment      1: Step Time =    1.000,"P-3-1",          2406,   102.702E-03,   142.688E-03,            0.,NA,NA,"",   1.03270E+06,   1.08418E+06,   1.08418E+06
C:/temp/Job-3.odb,Step-1,Increment      1: Step Time =    1.000,"P-3-1",          2407,   158.792E-03,   134.500E-03,            0.,NA,NA,"",   1.03242E+06,   1.02028E+06,   1.02028E+06
C:/temp/Job-3.odb,Step-1,Increment      1: Step Time =    1.000,"P-3-1",          2408,   158.252E-03,   127.039E-03,            0.,NA,NA,"",   1.01357E+06,   1.00425E+06,   1.00425E+06
C:/temp/Job-3.odb,Step-1,Increment      1: Step Time =    1.000,"P-3-1",          2409,   129.406E-03,   41.0587E-03,            0.,NA,NA,"",   1.05741E+06,   1.05169E+06,   1.05169E+06
C:/temp/Job-3.odb,Step-1,Increment      1: Step Time =    1.000,"P-3-1",          2410,   128.294E-03,   55.4147E-03,            0.,NA,NA,"",   1.11069E+06,   1.09404E+06,   1.09404E+06
C:/temp/Job-3.odb,Step-1,Increment      1: Step Time =    1.000,"P-3-1",          2411,   139.803E-03,   181.898E-03,            0.,NA,NA,"",   1.00356E+06,   1.00113E+06,   1.00113E+06
C:/temp/Job-3.odb,Step-1,Increment      1: Step Time =    1.000,"P-3-1",          2412,   144.137E-03,   185.825E-03,            0.,NA,NA,"",   998.188E+03,   996.335E+03,   996.335E+03
C:/temp/Job-3.odb,Step-1,Increment      1: Step Time =    1.000,"P-3-1",          2413,   19.0318E-03,   141.266E-03,            0.,NA,NA,"",   894.392E+03,   973.903E+03,   973.903E+03
C:/temp/Job-3.odb,Step-1,Increment      1: Step Time =    1.000,"P-3-1",          2414,   14.9405E-03,   143.102E-03,            0.,NA,NA,"",   884.446E+03,   970.208E+03,   970.208E+03
C:/temp/Job-3.odb,Step-1,Increment      1: Step Time =    1.000,"P-3-1",          2415,   185.740E-03,   55.5204E-03,            0.,NA,NA,"",   998.596E+03,   1.00429E+06,   1.00429E+06
C:/temp/Job-3.odb,Step-1,Increment      1: Step Time =    1.000,"P-3-1",          2416,   57.3886E-03,   14.2249E-03,            0.,NA,NA,"",   1.00846E+06,   1.00933E+06,   1.00933E+06
C:/temp/Job-3.odb,Step-1,Increment      1: Step Time =    1.000,"P-3-1",          2417,   79.0110E-03,   58.0597E-03,            0.,NA,NA,"",   1.11027E+06,   1.11640E+06,   1.11640E+06
C:/temp/Job-3.odb,Step-1,Increment      1: Step Time =    1.000,"P-3-1",          2418,   71.6815E-03,   60.4206E-03,            0.,NA,NA,"",   1.11533E+06,   1.11021E+06,   1.11021E+06
C:/temp/Job-3.odb,Step-1,Increment      1: Step Time =    1.000,"P-3-1",          2419,   43.8876E-03,   94.8316E-03,            0.,NA,NA,"",   817.643E+03,   879.287E+03,   879.287E+03
C:/temp/Job-3.odb,Step-1,Increment      1: Step Time =    1.000,"P-3-1",          2420,   39.2614E-03,   90.2530E-03,            0.,NA,NA,"",   834.170E+03,   899.382E+03,   899.382E+03
C:/temp/Job-3.odb,Step-1,Increment      1: Step Time =    1.000,"P-3-1",          2421,   119.840E-03,   144.648E-03,            0.,NA,NA,"",   1.10092E+06,   1.10129E+06,   1.10129E+06
C:/temp/Job-3.odb,Step-1,Increment      1: Step Time =    1.000,"P-3-1",          2422,   112.797E-03,   142.789E-03,            0.,NA,NA,"",   1.07890E+06,   1.10209E+06,   1.10209E+06
C:/temp/Job-3.odb,Step-1,Increment      1: Step Time =    1.000,"P-3-1",          2423,   55.6473E-03,   62.0034E-03,            0.,NA,NA,"",   1.04328E+06,   1.05352E+06,   1.05352E+06
C:/temp/Job-3.odb,Step-1,Increment      1: Step Time =    1.000,"P-3-1",          2424,   164.044E-03,   75.0961E-03,            0.,NA,NA,"",   998.115E+03,   995.927E+03,   995.927E+03
C:/temp/Job-3.odb,Step-1,Increment      1: Step Time =    1.000,"P-3-1",          2425,   73.4525E-03,   35.5686E-03,            0.,NA,NA,"",   1.04364E+06,   1.04951E+06,   1.04951E+06
C:/temp/Job-3.odb,Step-1,Increment      1: Step Time =    1.000,"P-3-1",          2426,   126.632E-03,   163.216E-03,            0.,NA,NA,"",   1.04193E+06,   1.04001E+06,   1.04001E+06
C:/temp/Job-3.odb,Step-1,Increment      1: Step Time =    1.000,"P-3-1",          2427,   35.7363E-03,   125.131E-03,            0.,NA,NA,"",   895.038E+03,   954.657E+03,   954.657E+03
C:/temp/Job-3.odb,Step-1,Increment      1: Step Time =    1.000,"P-3-1",          2428,   151.519E-03,   124.960E-03,            0.,NA,NA,"",   1.01935E+06,   1.00321E+06,   1.00321E+06
C:/temp/Job-3.odb,Step-1,Increment      1: Step Time =    1.000,"P-3-1",          2429,   117.491E-03,   57.8679E-03,            0.,NA,NA,"",   1.10375E+06,   1.11033E+06,   1.11033E+06
C:/temp/Job-3.odb,Step-1,Increment      1: Step Time =    1.000,"P-3-1",          2430,   90.3886E-03,   135.541E-03,            0.,NA,NA,"",   1.09768E+06,   1.14172E+06,   1.14172E+06
C:/temp/Job-3.odb,Step-1,Increment      1: Step Time =    1.000,"P-3-1",          2431,   69.9349E-03,   134.163E-03,            0.,NA,NA,"",   1.12481E+06,   1.11173E+06,   1.11173E+06
C:/temp/Job-3.odb,Step-1,Increment      1: Step Time =    1.000,"P-3-1",          2432,   53.7007E-03,   127.609E-03,            0.,NA,NA,"",   989.493E+03,   1.00815E+06,   1.00815E+06
C:/temp/Job-3.odb,Step-1,Increment      1: Step Time =    1.000,"P-3-1",          2433,   87.9980E-03,   58.6966E-03,            0.,NA,NA,"",   1.07925E+06,   1.11189E+06,   1.11189E+06
C:/temp/Job-3.odb,Step-1,Increment      1: Step Time =    1.000,"P-3-1",          2434,   64.4893E-03,   183.631E-03,            0.,NA,NA,"",   1.00539E+06,   1.00622E+06,   1.00622E+06
C:/temp/Job-3.odb,Step-1,Increment      1: Step Time =    1.000,"P-3-1",          2435,   16.4114E-03,   66.0898E-03,            0.,NA,NA,"",   861.746E+03,   947.714E+03,   947.714E+03
C:/temp/Job-3.odb,Step-1,Increment      1: Step Time =    1.000,"P-3-1",          2436,   157.710E-03,   146.217E-03,            0.,NA,NA,"",   1.04632E+06,   1.03306E+06,   1.03306E+06
C:/temp/Job-3.odb,Step-1,Increment      1: Step Time =    1.000,"P-3-1",          2437,   146.196E-03,   43.2347E-03,            0.,NA,NA,"",   1.05698E+06,   1.04353E+06,   1.04353E+06
C:/temp/Job-3.odb,Step-1,Increment      1: Step Time =    1.000,"P-3-1",          2438,   26.3404E-03,   140.797E-03,            0.,NA,NA,"",   921.815E+03,   988.309E+03,   988.309E+03
C:/temp/Job-3.odb,Step-1,Increment      1: Step Time =    1.000,"P-3-1",          2439,   140.828E-03,   174.546E-03,            0.,NA,NA,"",   1.01983E+06,   1.01520E+06,   1.01520E+06
C:/temp/Job-3.odb,Step-1,Increment      1: Step Time =    1.000,"P-3-1",          2440,   59.4241E-03,   27.7687E-03,            0.,NA,NA,"",   1.03986E+06,   1.04324E+06,   1.04324E+06
C:/temp/Job-3.odb,Step-1,Increment      1: Step Time =    1.000,"P-3-1",          2441,   172.145E-03,   58.4797E-03,            0.,NA,NA,"",   1.01530E+06,   1.01314E+06,   1.01314E+06
C:/temp/Job-3.odb,Step-1,Increment      1: Step Time =    1.000,"P-3-1",          2442,   48.3922E-03,   164.839E-03,            0.,NA,NA,"",   1.04658E+06,   1.05887E+06,   1.05887E+06
C:/temp/Job-3.odb,Step-1,Increment      1: Step Time =    1.000,"P-3-1",          2443,   36.0750E-03,   50.0785E-03,            0.,NA,NA,"",   989.995E+03,   1.03142E+06,   1.03142E+06
C:/temp/Job-3.odb,Step-1,Increment      1: Step Time =    1.000,"P-3-1",          2444,   121.265E-03,   51.2848E-03,            0.,NA,NA,"",   1.08397E+06,   1.08454E+06,   1.08454E+06
C:/temp/Job-3.odb,Step-1,Increment      1: Step Time =    1.000,"P-3-1",          2445,   156.923E-03,   162.435E-03,            0.,NA,NA,"",   1.03387E+06,   1.02528E+06,   1.02528E+06
C:/temp/Job-3.odb,Step-1,Increment      1: Step Time =    1.000,"P-3-1",          2446,   164.161E-03,   42.7877E-03,            0.,NA,NA,"",   1.02943E+06,   1.02213E+06,   1.02213E+06
C:/temp/Job-3.odb,Step-1,Increment      1: Step Time =    1.000,"P-3-1",          2447,   57.1748E-03,   175.060E-03,            0.,NA,NA,"",   1.03608E+06,   1.03927E+06,   1.03927E+06
C:/temp/Job-3.odb,Step-1,Increment      1: Step Time =    1.000,"P-3-1",          2448,   21.0022E-03,   57.6636E-03,            0.,NA,NA,"",   904.608E+03,   980.421E+03,   980.421E+03
C:/temp/Job-3.odb,Step-1,Increment      1: Step Time =    1.000,"P-3-1",          2449,   56.5656E-03,   134.717E-03,            0.,NA,NA,"",   1.03983E+06,   1.04864E+06,   1.04864E+06
C:/temp/Job-3.odb,Step-1,Increment      1: Step Time =    1.000,"P-3-1",          2450,   63.2432E-03,   134.563E-03,            0.,NA,NA,"",   1.08208E+06,   1.07769E+06,   1.07769E+06
C:/temp/Job-3.odb,Step-1,Increment      1: Step Time =    1.000,"P-3-1",          2451,   82.0843E-03,   155.891E-03,            0.,NA,NA,"",   1.05000E+06,   1.06489E+06,   1.06489E+06
C:/temp/Job-3.odb,Step-1,Increment      1: Step Time =    1.000,"P-3-1",          2452,   89.0571E-03,   159.164E-03,            0.,NA,NA,"",   1.02675E+06,   1.04690E+06,   1.04690E+06
C:/temp/Job-3.odb,Step-1,Increment      1: Step Time =    1.000,"P-3-1",          2453,   159.424E-03,   110.708E-03,            0.,NA,NA,"",   944.314E+03,   950.378E+03,   950.378E+03
C:/temp/Job-3.odb,Step-1,Increment      1: Step Time =    1.000,"P-3-1",          2454,   156.552E-03,   119.117E-03,            0.,NA,NA,"",   979.950E+03,   975.806E+03,   975.806E+03
C:/temp/Job-3.odb,Step-1,Increment      1: Step Time =    1.000,"P-3-1",          2455,   117.859E-03,   45.6715E-03,            0.,NA,NA,"",   1.05244E+06,   1.06121E+06,   1.06121E+06
C:/temp/Job-3.odb,Step-1,Increment      1: Step Time =    1.000,"P-3-1",          2456,   110.825E-03,   37.9513E-03,            0.,NA,NA,"",   1.02042E+06,   1.03533E+06,   1.03533E+06
C:/temp/Job-3.odb,Step-1,Increment      1: Step Time =    1.000,"P-3-1",          2457,   112.727E-03,   146.033E-03,            0.,NA,NA,"",   1.06407E+06,   1.08632E+06,   1.08632E+06
C:/temp/Job-3.odb,Step-1,Increment      1: Step Time =    1.000,"P-3-1",          2458,   123.405E-03,   142.407E-03,            0.,NA,NA,"",   1.11925E+06,   1.10783E+06,   1.10783E+06
C:/temp/Job-3.odb,Step-1,Increment      1: Step Time =    1.000,"P-3-1",          2459,   58.5910E-03,   61.3594E-03,            0.,NA,NA,"",   1.05968E+06,   1.06466E+06,   1.06466E+06
C:/temp/Job-3.odb,Step-1,Increment      1: Step Time =    1.000,"P-3-1",          2460,   165.243E-03,   77.7832E-03,            0.,NA,NA,"",   989.284E+03,   989.750E+03,   989.750E+03
C:/temp/Job-3.odb,Step-1,Increment      1: Step Time =    1.000,"P-3-1",          2461,   76.5804E-03,   33.0595E-03,            0.,NA,NA,"",   1.03401E+06,   1.04090E+06,   1.04090E+06
C:/temp/Job-3.odb,Step-1,Increment      1: Step Time =    1.000,"P-3-1",          2462,   123.202E-03,   163.781E-03,            0.,NA,NA,"",   1.03666E+06,   1.03800E+06,   1.03800E+06
C:/temp/Job-3.odb,Step-1,Increment      1: Step Time =    1.000,"P-3-1",          2463,   34.6366E-03,   121.022E-03,            0.,NA,NA,"",   873.307E+03,   937.519E+03,   937.519E+03
C:/temp/Job-3.odb,Step-1,Increment      1: Step Time =    1.000,"P-3-1",          2464,   50.8853E-03,   131.234E-03,            0.,NA,NA,"",   991.627E+03,   1.01462E+06,   1.01462E+06
C:/temp/Job-3.odb,Step-1,Increment      1: Step Time =    1.000,"P-3-1",          2465,   85.0540E-03,   57.7316E-03,            0.,NA,NA,"",   1.08981E+06,   1.11278E+06,   1.11278E+06
C:/temp/Job-3.odb,Step-1,Increment      1: Step Time =    1.000,"P-3-1",          2466,   63.0280E-03,   180.193E-03,            0.,NA,NA,"",   1.01764E+06,   1.01910E+06,   1.01910E+06
C:/temp/Job-3.odb,Step-1,Increment      1: Step Time =    1.000,"P-3-1",          2467,   66.5543E-03,   185.235E-03,            0.,NA,NA,"",   997.829E+03,   998.576E+03,   998.576E+03
C:/temp/Job-3.odb,Step-1,Increment      1: Step Time =    1.000,"P-3-1",          2468,   19.2989E-03,   64.0087E-03,            0.,NA,NA,"",   878.577E+03,   959.535E+03,   959.535E+03
C:/temp/Job-3.odb,Step-1,Increment      1: Step Time =    1.000,"P-3-1",          2469,   12.6894E-03,   68.7055E-03,            0.,NA,NA,"",   842.593E+03,   934.020E+03,   934.020E+03
C:/temp/Job-3.odb,Step-1,Increment      1: Step Time =    1.000,"P-3-1",          2470,   159.302E-03,   141.982E-03,            0.,NA,NA,"",   1.04156E+06,   1.02898E+06,   1.02898E+06
C:/temp/Job-3.odb,Step-1,Increment      1: Step Time =    1.000,"P-3-1",          2471,   154.916E-03,   147.335E-03,            0.,NA,NA,"",   1.05282E+06,   1.03783E+06,   1.03783E+06
C:/temp/Job-3.odb,Step-1,Increment      1: Step Time =    1.000,"P-3-1",          2472,   149.657E-03,   46.0809E-03,            0.,NA,NA,"",   1.05708E+06,   1.04252E+06,   1.04252E+06
C:/temp/Job-3.odb,Step-1,Increment      1: Step Time =    1.000,"P-3-1",          2473,   142.564E-03,   41.1920E-03,            0.,NA,NA,"",   1.05607E+06,   1.04380E+06,   1.04380E+06
C:/temp/Job-3.odb,Step-1,Increment      1: Step Time =    1.000,"P-3-1",          2474,   132.907E-03,   55.0138E-03,            0.,NA,NA,"",   1.10585E+06,   1.08478E+06,   1.08478E+06
C:/temp/Job-3.odb,Step-1,Increment      1: Step Time =    1.000,"P-3-1",          2475,   50.0045E-03,   157.560E-03,            0.,NA,NA,"",   1.04570E+06,   1.06006E+06,   1.06006E+06
C:/temp/Job-3.odb,Step-1,Increment      1: Step Time =    1.000,"P-3-1",          2476,   40.9985E-03,   52.0488E-03,            0.,NA,NA,"",   1.00253E+06,   1.03599E+06,   1.03599E+06
C:/temp/Job-3.odb,Step-1,Increment      1: Step Time =    1.000,"P-3-1",          2477,   89.3472E-03,   67.0628E-03,            0.,NA,NA,"",   1.12939E+06,   1.17003E+06,   1.17003E+06
C:/temp/Job-3.odb,Step-1,Increment      1: Step Time =    1.000,"P-3-1",          2478,   91.6442E-03,   55.6541E-03,            0.,NA,NA,"",   1.04968E+06,   1.08890E+06,   1.08890E+06
C:/temp/Job-3.odb,Step-1,Increment      1: Step Time =    1.000,"P-3-1",          2479,   152.433E-03,   121.637E-03,            0.,NA,NA,"",   998.383E+03,   986.961E+03,   986.961E+03
C:/temp/Job-3.odb,Step-1,Increment      1: Step Time =    1.000,"P-3-1",          2480,   63.1567E-03,   138.197E-03,            0.,NA,NA,"",   1.08455E+06,   1.08234E+06,   1.08234E+06
C:/temp/Job-3.odb,Step-1,Increment      1: Step Time =    1.000,"P-3-1",          2481,   61.3296E-03,   60.0836E-03,            0.,NA,NA,"",   1.07459E+06,   1.07568E+06,   1.07568E+06
C:/temp/Job-3.odb,Step-1,Increment      1: Step Time =    1.000,"P-3-1",          2482,   153.060E-03,   150.333E-03,            0.,NA,NA,"",   1.05481E+06,   1.03989E+06,   1.03989E+06
C:/temp/Job-3.odb,Step-1,Increment      1: Step Time =    1.000,"P-3-1",          2483,   149.844E-03,   49.6203E-03,            0.,NA,NA,"",   1.06143E+06,   1.04511E+06,   1.04511E+06
C:/temp/Job-3.odb,Step-1,Increment      1: Step Time =    1.000,"P-3-1",          2484,   125.835E-03,   143.187E-03,            0.,NA,NA,"",   1.11690E+06,   1.10155E+06,   1.10155E+06
C:/temp/Job-3.odb,Step-1,Increment      1: Step Time =    1.000,"P-3-1",          2485,   59.7645E-03,   182.130E-03,            0.,NA,NA,"",   1.01583E+06,   1.01706E+06,   1.01706E+06
C:/temp/Job-3.odb,Step-1,Increment      1: Step Time =    1.000,"P-3-1",          2486,   18.0509E-03,   60.4047E-03,            0.,NA,NA,"",   884.947E+03,   966.648E+03,   966.648E+03
C:/temp/Job-3.odb,Step-1,Increment      1: Step Time =    1.000,"P-3-1",          2487,   110.444E-03,   145.598E-03,            0.,NA,NA,"",   1.05622E+06,   1.08475E+06,   1.08475E+06
C:/temp/Job-3.odb,Step-1,Increment      1: Step Time =    1.000,"P-3-1",          2488,   111.708E-03,   148.972E-03,            0.,NA,NA,"",   1.05144E+06,   1.07380E+06,   1.07380E+06
C:/temp/Job-3.odb,Step-1,Increment      1: Step Time =    1.000,"P-3-1",          2489,   88.6091E-03,   55.2217E-03,            0.,NA,NA,"",   1.06128E+06,   1.09348E+06,   1.09348E+06
C:/temp/Job-3.odb,Step-1,Increment      1: Step Time =    1.000,"P-3-1",          2490,   124.266E-03,   50.0148E-03,            0.,NA,NA,"",   1.08343E+06,   1.07904E+06,   1.07904E+06
C:/temp/Job-3.odb,Step-1,Increment      1: Step Time =    1.000,"P-3-1",          2491,   119.041E-03,   53.9488E-03,            0.,NA,NA,"",   1.08886E+06,   1.09341E+06,   1.09341E+06
C:/temp/Job-3.odb,Step-1,Increment      1: Step Time =    1.000,"P-3-1",          2492,   161.269E-03,   164.271E-03,            0.,NA,NA,"",   1.02713E+06,   1.02031E+06,   1.02031E+06
C:/temp/Job-3.odb,Step-1,Increment      1: Step Time =    1.000,"P-3-1",          2493,   166.011E-03,   39.2707E-03,            0.,NA,NA,"",   1.02439E+06,   1.01854E+06,   1.01854E+06
C:/temp/Job-3.odb,Step-1,Increment      1: Step Time =    1.000,"P-3-1",          2494,   55.7000E-03,   171.824E-03,            0.,NA,NA,"",   1.04259E+06,   1.04712E+06,   1.04712E+06
C:/temp/Job-3.odb,Step-1,Increment      1: Step Time =    1.000,"P-3-1",          2495,   23.9973E-03,   56.3926E-03,            0.,NA,NA,"",   921.044E+03,   990.629E+03,   990.629E+03
C:/temp/Job-3.odb,Step-1,Increment      1: Step Time =    1.000,"P-3-1",          2496,   78.7326E-03,   157.629E-03,            0.,NA,NA,"",   1.05249E+06,   1.06339E+06,   1.06339E+06
C:/temp/Job-3.odb,Step-1,Increment      1: Step Time =    1.000,"P-3-1",          2497,   86.8655E-03,   156.761E-03,            0.,NA,NA,"",   1.03643E+06,   1.05649E+06,   1.05649E+06
C:/temp/Job-3.odb,Step-1,Increment      1: Step Time =    1.000,"P-3-1",          2498,   153.857E-03,   110.658E-03,            0.,NA,NA,"",   931.951E+03,   935.726E+03,   935.726E+03
C:/temp/Job-3.odb,Step-1,Increment      1: Step Time =    1.000,"P-3-1",          2499,   159.806E-03,   120.389E-03,            0.,NA,NA,"",   983.883E+03,   981.571E+03,   981.571E+03
C:/temp/Job-3.odb,Step-1,Increment      1: Step Time =    1.000,"P-3-1",          2500,   39.8440E-03,   79.9974E-03,            0.,NA,NA,"",   882.302E+03,   938.341E+03,   938.341E+03
C:/temp/Job-3.odb,Step-1,Increment      1: Step Time =    1.000,"P-3-1",          2501,   113.284E-03,   41.3669E-03,            0.,NA,NA,"",   1.03092E+06,   1.04524E+06,   1.04524E+06
C:/temp/Job-3.odb,Step-1,Increment      1: Step Time =    1.000,"P-3-1",          2502,   122.055E-03,   43.2335E-03,            0.,NA,NA,"",   1.05443E+06,   1.05660E+06,   1.05660E+06
C:/temp/Job-3.odb,Step-1,Increment      1: Step Time =    1.000,"P-3-1",          2503,   50.5297E-03,   133.858E-03,            0.,NA,NA,"",   1.00128E+06,   1.02365E+06,   1.02365E+06
C:/temp/Job-3.odb,Step-1,Increment      1: Step Time =    1.000,"P-3-1",          2504,   47.3801E-03,   126.630E-03,            0.,NA,NA,"",   946.787E+03,   982.267E+03,   982.267E+03
C:/temp/Job-3.odb,Step-1,Increment      1: Step Time =    1.000,"P-3-1",          2505,   81.2691E-03,   59.4678E-03,            0.,NA,NA,"",   1.11355E+06,   1.12376E+06,   1.12376E+06
C:/temp/Job-3.odb,Step-1,Increment      1: Step Time =    1.000,"P-3-1",          2506,   66.1273E-03,   178.600E-03,            0.,NA,NA,"",   1.01796E+06,   1.01980E+06,   1.01980E+06
C:/temp/Job-3.odb,Step-1,Increment      1: Step Time =    1.000,"P-3-1",          2507,   63.6899E-03,   187.488E-03,            0.,NA,NA,"",   993.937E+03,   994.240E+03,   994.240E+03
C:/temp/Job-3.odb,Step-1,Increment      1: Step Time =    1.000,"P-3-1",          2508,   14.9142E-03,   63.2975E-03,            0.,NA,NA,"",   865.223E+03,   952.558E+03,   952.558E+03
C:/temp/Job-3.odb,Step-1,Increment      1: Step Time =    1.000,"P-3-1",          2509,   21.2923E-03,   65.9865E-03,            0.,NA,NA,"",   879.293E+03,   957.907E+03,   957.907E+03
C:/temp/Job-3.odb,Step-1,Increment      1: Step Time =    1.000,"P-3-1",          2510,   155.678E-03,   149.800E-03,            0.,NA,NA,"",   1.04970E+06,   1.03602E+06,   1.03602E+06
C:/temp/Job-3.odb,Step-1,Increment      1: Step Time =    1.000,"P-3-1",          2511,   156.241E-03,   143.365E-03,            0.,NA,NA,"",   1.04978E+06,   1.03483E+06,   1.03483E+06
C:/temp/Job-3.odb,Step-1,Increment      1: Step Time =    1.000,"P-3-1",          2512,   164.046E-03,   143.866E-03,            0.,NA,NA,"",   1.03168E+06,   1.02305E+06,   1.02305E+06
C:/temp/Job-3.odb,Step-1,Increment      1: Step Time =    1.000,"P-3-1",          2513,   153.426E-03,   45.3672E-03,            0.,NA,NA,"",   1.04941E+06,   1.03657E+06,   1.03657E+06
C:/temp/Job-3.odb,Step-1,Increment      1: Step Time =    1.000,"P-3-1",          2514,   143.820E-03,   43.5735E-03,            0.,NA,NA,"",   1.06039E+06,   1.04657E+06,   1.04657E+06
C:/temp/Job-3.odb,Step-1,Increment      1: Step Time =    1.000,"P-3-1",          2515,   144.326E-03,   36.5161E-03,            0.,NA,NA,"",   1.04359E+06,   1.03390E+06,   1.03390E+06
C:/temp/Job-3.odb,Step-1,Increment      1: Step Time =    1.000,"P-3-1",          2516,   134.899E-03,   52.3219E-03,            0.,NA,NA,"",   1.09441E+06,   1.07520E+06,   1.07520E+06
C:/temp/Job-3.odb,Step-1,Increment      1: Step Time =    1.000,"P-3-1",          2517,   46.8153E-03,   157.495E-03,            0.,NA,NA,"",   1.03933E+06,   1.05758E+06,   1.05758E+06
C:/temp/Job-3.odb,Step-1,Increment      1: Step Time =    1.000,"P-3-1",          2518,   41.9415E-03,   46.5903E-03,            0.,NA,NA,"",   1.01942E+06,   1.04751E+06,   1.04751E+06
C:/temp/Job-3.odb,Step-1,Increment      1: Step Time =    1.000,"P-3-1",          2519,   149.273E-03,   121.094E-03,            0.,NA,NA,"",   1.00258E+06,   987.229E+03,   987.229E+03
C:/temp/Job-3.odb,Step-1,Increment      1: Step Time =    1.000,"P-3-1",          2520,   38.3192E-03,   75.4958E-03,            0.,NA,NA,"",   901.111E+03,   956.178E+03,   956.178E+03
C:/temp/Job-3.odb,Step-1,Increment      1: Step Time =    1.000,"P-3-1",          2521,   74.7137E-03,   159.207E-03,            0.,NA,NA,"",   1.05475E+06,   1.06211E+06,   1.06211E+06
C:/temp/Job-3.odb,Step-1,Increment      1: Step Time =    1.000,"P-3-1",          2522,   55.5015E-03,   58.7744E-03,            0.,NA,NA,"",   1.04889E+06,   1.05904E+06,   1.05904E+06
C:/temp/Job-3.odb,Step-1,Increment      1: Step Time =    1.000,"P-3-1",          2523,   63.8743E-03,   58.4123E-03,            0.,NA,NA,"",   1.08535E+06,   1.08442E+06,   1.08442E+06
C:/temp/Job-3.odb,Step-1,Increment      1: Step Time =    1.000,"P-3-1",          2524,   152.519E-03,   148.474E-03,            0.,NA,NA,"",   1.05799E+06,   1.04188E+06,   1.04188E+06
C:/temp/Job-3.odb,Step-1,Increment      1: Step Time =    1.000,"P-3-1",          2525,   146.301E-03,   50.1521E-03,            0.,NA,NA,"",   1.06965E+06,   1.05173E+06,   1.05173E+06
C:/temp/Job-3.odb,Step-1,Increment      1: Step Time =    1.000,"P-3-1",          2526,   125.500E-03,   137.714E-03,            0.,NA,NA,"",   1.14664E+06,   1.12241E+06,   1.12241E+06
C:/temp/Job-3.odb,Step-1,Increment      1: Step Time =    1.000,"P-3-1",          2527,   58.1449E-03,   185.843E-03,            0.,NA,NA,"",   1.00792E+06,   1.00872E+06,   1.00872E+06
C:/temp/Job-3.odb,Step-1,Increment      1: Step Time =    1.000,"P-3-1",          2528,   14.3664E-03,   59.7105E-03,            0.,NA,NA,"",   873.558E+03,   961.022E+03,   961.022E+03
C:/temp/Job-3.odb,Step-1,Increment      1: Step Time =    1.000,"P-3-1",          2529,   110.435E-03,   40.9924E-03,            0.,NA,NA,"",   1.02494E+06,   1.04227E+06,   1.04227E+06
C:/temp/Job-3.odb,Step-1,Increment      1: Step Time =    1.000,"P-3-1",          2530,   111.717E-03,   47.3350E-03,            0.,NA,NA,"",   1.04084E+06,   1.06116E+06,   1.06116E+06
C:/temp/Job-3.odb,Step-1,Increment      1: Step Time =    1.000,"P-3-1",          2531,   87.7113E-03,   152.148E-03,            0.,NA,NA,"",   1.04403E+06,   1.06817E+06,   1.06817E+06
C:/temp/Job-3.odb,Step-1,Increment      1: Step Time =    1.000,"P-3-1",          2532,   114.552E-03,   150.320E-03,            0.,NA,NA,"",   1.05664E+06,   1.07219E+06,   1.07219E+06
C:/temp/Job-3.odb,Step-1,Increment      1: Step Time =    1.000,"P-3-1",          2533,   155.876E-03,   155.032E-03,            0.,NA,NA,"",   1.04436E+06,   1.03269E+06,   1.03269E+06
C:/temp/Job-3.odb,Step-1,Increment      1: Step Time =    1.000,"P-3-1",          2534,   157.790E-03,   44.1802E-03,            0.,NA,NA,"",   1.04050E+06,   1.02999E+06,   1.02999E+06
C:/temp/Job-3.odb,Step-1,Increment      1: Step Time =    1.000,"P-3-1",          2535,   163.008E-03,   166.539E-03,            0.,NA,NA,"",   1.02280E+06,   1.01710E+06,   1.01710E+06
C:/temp/Job-3.odb,Step-1,Increment      1: Step Time =    1.000,"P-3-1",          2536,   158.665E-03,   165.638E-03,            0.,NA,NA,"",   1.02811E+06,   1.02099E+06,   1.02099E+06
C:/temp/Job-3.odb,Step-1,Increment      1: Step Time =    1.000,"P-3-1",          2537,   168.035E-03,   43.0238E-03,            0.,NA,NA,"",   1.02353E+06,   1.01815E+06,   1.01815E+06
C:/temp/Job-3.odb,Step-1,Increment      1: Step Time =    1.000,"P-3-1",          2538,   53.3864E-03,   134.424E-03,            0.,NA,NA,"",   1.01978E+06,   1.03559E+06,   1.03559E+06
C:/temp/Job-3.odb,Step-1,Increment      1: Step Time =    1.000,"P-3-1",          2539,   66.4298E-03,   188.004E-03,            0.,NA,NA,"",   988.884E+03,   989.322E+03,   989.322E+03
C:/temp/Job-3.odb,Step-1,Increment      1: Step Time =    1.000,"P-3-1",          2540,   11.5131E-03,   64.5991E-03,            0.,NA,NA,"",   850.054E+03,   942.500E+03,   942.500E+03
C:/temp/Job-3.odb,Step-1,Increment      1: Step Time =    1.000,"P-3-1",          2541,   132.906E-03,   50.1399E-03,            0.,NA,NA,"",   1.08865E+06,   1.07300E+06,   1.07300E+06
C:/temp/Job-3.odb,Step-1,Increment      1: Step Time =    1.000,"P-3-1",          2542,   137.176E-03,   54.0954E-03,            0.,NA,NA,"",   1.09542E+06,   1.07362E+06,   1.07362E+06
C:/temp/Job-3.odb,Step-1,Increment      1: Step Time =    1.000,"P-3-1",          2543,   42.9799E-03,   160.377E-03,            0.,NA,NA,"",   1.03499E+06,   1.05679E+06,   1.05679E+06
C:/temp/Job-3.odb,Step-1,Increment      1: Step Time =    1.000,"P-3-1",          2544,   49.9129E-03,   154.192E-03,            0.,NA,NA,"",   1.04339E+06,   1.05900E+06,   1.05900E+06
C:/temp/Job-3.odb,Step-1,Increment      1: Step Time =    1.000,"P-3-1",          2545,   39.5657E-03,   43.0558E-03,            0.,NA,NA,"",   1.02017E+06,   1.04985E+06,   1.04985E+06
C:/temp/Job-3.odb,Step-1,Increment      1: Step Time =    1.000,"P-3-1",          2546,   44.6119E-03,   50.5113E-03,            0.,NA,NA,"",   1.01988E+06,   1.04564E+06,   1.04564E+06
C:/temp/Job-3.odb,Step-1,Increment      1: Step Time =    1.000,"P-3-1",          2547,   146.374E-03,   31.5955E-03,            0.,NA,NA,"",   1.03240E+06,   1.02483E+06,   1.02483E+06
C:/temp/Job-3.odb,Step-1,Increment      1: Step Time =    1.000,"P-3-1",          2548,   106.510E-03,   145.176E-03,            0.,NA,NA,"",   1.04099E+06,   1.08027E+06,   1.08027E+06
C:/temp/Job-3.odb,Step-1,Increment      1: Step Time =    1.000,"P-3-1",          2549,   86.0248E-03,   51.5051E-03,            0.,NA,NA,"",   1.05932E+06,   1.08360E+06,   1.08360E+06
C:/temp/Job-3.odb,Step-1,Increment      1: Step Time =    1.000,"P-3-1",          2550,   123.166E-03,   47.5501E-03,            0.,NA,NA,"",   1.07168E+06,   1.07056E+06,   1.07056E+06
C:/temp/Job-3.odb,Step-1,Increment      1: Step Time =    1.000,"P-3-1",          2551,   55.8854E-03,   55.9789E-03,            0.,NA,NA,"",   1.05405E+06,   1.06350E+06,   1.06350E+06
C:/temp/Job-3.odb,Step-1,Increment      1: Step Time =    1.000,"P-3-1",          2552,   53.6446E-03,   55.1262E-03,            0.,NA,NA,"",   1.04632E+06,   1.05895E+06,   1.05895E+06
C:/temp/Job-3.odb,Step-1,Increment      1: Step Time =    1.000,"P-3-1",          2553,   66.2890E-03,   191.661E-03,            0.,NA,NA,"",   975.543E+03,   975.718E+03,   975.718E+03
C:/temp/Job-3.odb,Step-1,Increment      1: Step Time =    1.000,"P-3-1",          2554,   7.65076E-03,   65.1788E-03,            0.,NA,NA,"",   835.622E+03,   932.903E+03,   932.903E+03
C:/temp/Job-3.odb,Step-1,Increment      1: Step Time =    1.000,"P-3-1",          2555,   36.4243E-03,   73.7970E-03,            0.,NA,NA,"",   901.163E+03,   958.786E+03,   958.786E+03
C:/temp/Job-3.odb,Step-1,Increment      1: Step Time =    1.000,"P-3-1",          2556,   70.9001E-03,   161.969E-03,            0.,NA,NA,"",   1.05177E+06,   1.05687E+06,   1.05687E+06
C:/temp/Job-3.odb,Step-1,Increment      1: Step Time =    1.000,"P-3-1",          2557,   65.2657E-03,   61.1488E-03,            0.,NA,NA,"",   1.09389E+06,   1.08966E+06,   1.08966E+06
C:/temp/Job-3.odb,Step-1,Increment      1: Step Time =    1.000,"P-3-1",          2558,   148.602E-03,   148.616E-03,            0.,NA,NA,"",   1.06630E+06,   1.04843E+06,   1.04843E+06
C:/temp/Job-3.odb,Step-1,Increment      1: Step Time =    1.000,"P-3-1",          2559,   151.093E-03,   142.449E-03,            0.,NA,NA,"",   1.06365E+06,   1.04440E+06,   1.04440E+06
C:/temp/Job-3.odb,Step-1,Increment      1: Step Time =    1.000,"P-3-1",          2560,   142.462E-03,   46.4682E-03,            0.,NA,NA,"",   1.06828E+06,   1.05261E+06,   1.05261E+06
C:/temp/Job-3.odb,Step-1,Increment      1: Step Time =    1.000,"P-3-1",          2561,   149.870E-03,   53.0659E-03,            0.,NA,NA,"",   1.06454E+06,   1.04655E+06,   1.04655E+06
C:/temp/Job-3.odb,Step-1,Increment      1: Step Time =    1.000,"P-3-1",          2562,   123.821E-03,   135.027E-03,            0.,NA,NA,"",   1.16449E+06,   1.13767E+06,   1.13767E+06
C:/temp/Job-3.odb,Step-1,Increment      1: Step Time =    1.000,"P-3-1",          2563,   10.7968E-03,   61.2243E-03,            0.,NA,NA,"",   856.485E+03,   949.667E+03,   949.667E+03
C:/temp/Job-3.odb,Step-1,Increment      1: Step Time =    1.000,"P-3-1",          2564,   116.113E-03,   50.5746E-03,            0.,NA,NA,"",   1.06476E+06,   1.07775E+06,   1.07775E+06
C:/temp/Job-3.odb,Step-1,Increment      1: Step Time =    1.000,"P-3-1",          2565,   86.0658E-03,   149.384E-03,            0.,NA,NA,"",   1.05658E+06,   1.07994E+06,   1.07994E+06
C:/temp/Job-3.odb,Step-1,Increment      1: Step Time =    1.000,"P-3-1",          2566,   119.735E-03,   148.716E-03,            0.,NA,NA,"",   1.07950E+06,   1.08324E+06,   1.08324E+06
C:/temp/Job-3.odb,Step-1,Increment      1: Step Time =    1.000,"P-3-1",          2567,   112.973E-03,   153.495E-03,            0.,NA,NA,"",   1.04305E+06,   1.06008E+06,   1.06008E+06
C:/temp/Job-3.odb,Step-1,Increment      1: Step Time =    1.000,"P-3-1",          2568,   103.215E-03,   145.206E-03,            0.,NA,NA,"",   1.03014E+06,   1.07533E+06,   1.07533E+06
C:/temp/Job-3.odb,Step-1,Increment      1: Step Time =    1.000,"P-3-1",          2569,   152.876E-03,   155.099E-03,            0.,NA,NA,"",   1.04917E+06,   1.03637E+06,   1.03637E+06
C:/temp/Job-3.odb,Step-1,Increment      1: Step Time =    1.000,"P-3-1",          2570,   157.936E-03,   49.1406E-03,            0.,NA,NA,"",   1.04416E+06,   1.03220E+06,   1.03220E+06
C:/temp/Job-3.odb,Step-1,Increment      1: Step Time =    1.000,"P-3-1",          2571,   128.597E-03,   50.4629E-03,            0.,NA,NA,"",   1.08986E+06,   1.07822E+06,   1.07822E+06
C:/temp/Job-3.odb,Step-1,Increment      1: Step Time =    1.000,"P-3-1",          2572,   83.0362E-03,   50.8774E-03,            0.,NA,NA,"",   1.06792E+06,   1.08600E+06,   1.08600E+06
C:/temp/Job-3.odb,Step-1,Increment      1: Step Time =    1.000,"P-3-1",          2573,   44.7204E-03,   44.3255E-03,            0.,NA,NA,"",   1.03160E+06,   1.05378E+06,   1.05378E+06
C:/temp/Job-3.odb,Step-1,Increment      1: Step Time =    1.000,"P-3-1",          2574,   43.7846E-03,   157.372E-03,            0.,NA,NA,"",   1.03246E+06,   1.05485E+06,   1.05485E+06
C:/temp/Job-3.odb,Step-1,Increment      1: Step Time =    1.000,"P-3-1",          2575,   105.219E-03,   148.908E-03,            0.,NA,NA,"",   1.02988E+06,   1.06556E+06,   1.06556E+06
C:/temp/Job-3.odb,Step-1,Increment      1: Step Time =    1.000,"P-3-1",          2576,   39.8883E-03,   159.319E-03,            0.,NA,NA,"",   1.02601E+06,   1.05348E+06,   1.05348E+06
C:/temp/Job-3.odb,Step-1,Increment      1: Step Time =    1.000,"P-3-1",          2577,   42.3094E-03,   41.1431E-03,            0.,NA,NA,"",   1.03083E+06,   1.05465E+06,   1.05465E+06
C:/temp/Job-3.odb,Step-1,Increment      1: Step Time =    1.000,"P-3-1",          2578,   50.0690E-03,   57.4587E-03,            0.,NA,NA,"",   1.02699E+06,   1.04626E+06,   1.04626E+06
C:/temp/Job-3.odb,Step-1,Increment      1: Step Time =    1.000,"P-3-1",          2579,   41.6675E-03,   151.729E-03,            0.,NA,NA,"",   1.01577E+06,   1.04506E+06,   1.04506E+06
C:/temp/Job-3.odb,Step-1,Increment      1: Step Time =    1.000,"P-3-1",          2580,   47.9514E-03,   41.8374E-03,            0.,NA,NA,"",   1.04264E+06,   1.05879E+06,   1.05879E+06
C:/temp/Job-3.odb,Step-1,Increment      1: Step Time =    1.000,"P-3-1",          2581,   38.7660E-03,   72.6708E-03,            0.,NA,NA,"",   915.423E+03,   967.517E+03,   967.517E+03
C:/temp/Job-3.odb,Step-1,Increment      1: Step Time =    1.000,"P-3-1",          2582,   34.0529E-03,   75.6457E-03,            0.,NA,NA,"",   886.468E+03,   949.408E+03,   949.408E+03
C:/temp/Job-3.odb,Step-1,Increment      1: Step Time =    1.000,"P-3-1",          2583,   70.5284E-03,   159.013E-03,            0.,NA,NA,"",   1.05961E+06,   1.06470E+06,   1.06470E+06
C:/temp/Job-3.odb,Step-1,Increment      1: Step Time =    1.000,"P-3-1",          2584,   76.9799E-03,   162.941E-03,            0.,NA,NA,"",   1.04248E+06,   1.05074E+06,   1.05074E+06
C:/temp/Job-3.odb,Step-1,Increment      1: Step Time =    1.000,"P-3-1",          2585,   66.3610E-03,   56.5790E-03,            0.,NA,NA,"",   1.09147E+06,   1.09016E+06,   1.09016E+06
C:/temp/Job-3.odb,Step-1,Increment      1: Step Time =    1.000,"P-3-1",          2586,   147.355E-03,   143.072E-03,            0.,NA,NA,"",   1.07437E+06,   1.05274E+06,   1.05274E+06
C:/temp/Job-3.odb,Step-1,Increment      1: Step Time =    1.000,"P-3-1",          2587,   150.844E-03,   150.058E-03,            0.,NA,NA,"",   1.05986E+06,   1.04371E+06,   1.04371E+06
C:/temp/Job-3.odb,Step-1,Increment      1: Step Time =    1.000,"P-3-1",          2588,   143.058E-03,   50.6910E-03,            0.,NA,NA,"",   1.07700E+06,   1.05809E+06,   1.05809E+06
C:/temp/Job-3.odb,Step-1,Increment      1: Step Time =    1.000,"P-3-1",          2589,   113.414E-03,   53.3998E-03,            0.,NA,NA,"",   1.06509E+06,   1.08518E+06,   1.08518E+06
C:/temp/Job-3.odb,Step-1,Increment      1: Step Time =    1.000,"P-3-1",          2590,   118.523E-03,   50.7643E-03,            0.,NA,NA,"",   1.07386E+06,   1.08119E+06,   1.08119E+06
C:/temp/Job-3.odb,Step-1,Increment      1: Step Time =    1.000,"P-3-1",          2591,   83.3721E-03,   151.192E-03,            0.,NA,NA,"",   1.05940E+06,   1.07744E+06,   1.07744E+06
C:/temp/Job-3.odb,Step-1,Increment      1: Step Time =    1.000,"P-3-1",          2592,   88.6328E-03,   147.645E-03,            0.,NA,NA,"",   1.05261E+06,   1.08198E+06,   1.08198E+06
C:/temp/Job-3.odb,Step-1,Increment      1: Step Time =    1.000,"P-3-1",          2593,   150.000E-03,   152.596E-03,            0.,NA,NA,"",   1.05823E+06,   1.04303E+06,   1.04303E+06
C:/temp/Job-3.odb,Step-1,Increment      1: Step Time =    1.000,"P-3-1",          2594,   89.0193E-03,   49.0935E-03,            0.,NA,NA,"",   1.04275E+06,   1.07035E+06,   1.07035E+06
C:/temp/Job-3.odb,Step-1,Increment      1: Step Time =    1.000,"P-3-1",          2595,   79.7600E-03,   55.7795E-03,            0.,NA,NA,"",   1.09801E+06,   1.10783E+06,   1.10783E+06
C:/temp/Job-3.odb,Step-1,Increment      1: Step Time =    1.000,"P-3-1",          2596,   57.1259E-03,   53.5762E-03,            0.,NA,NA,"",   1.05971E+06,   1.06775E+06,   1.06775E+06
C:/temp/Job-3.odb,Step-1,Increment      1: Step Time =    1.000,"P-3-1",          2597,   40.4023E-03,   68.7157E-03,            0.,NA,NA,"",   941.358E+03,   987.089E+03,   987.089E+03
C:/temp/Job-3.odb,Step-1,Increment      1: Step Time =    1.000,"P-3-1",          2598,   69.9165E-03,   155.080E-03,            0.,NA,NA,"",   1.06948E+06,   1.07398E+06,   1.07398E+06
C:/temp/Job-3.odb,Step-1,Increment      1: Step Time =    1.000,"P-3-1",          2599,   89.3564E-03,   46.3253E-03,            0.,NA,NA,"",   1.03551E+06,   1.06106E+06,   1.06106E+06
C:/temp/Job-3.odb,Step-1,Increment      1: Step Time =    1.000,"P-3-1",          2600,   99.6464E-03,   151.480E-03,            0.,NA,NA,"",   1.02198E+06,   1.05687E+06,   1.05687E+06
C:/temp/Job-3.odb,Step-1,Increment      1: Step Time =    1.000,"P-3-1",          2601,   51.0813E-03,   53.9999E-03,            0.,NA,NA,"",   1.03841E+06,   1.05461E+06,   1.05461E+06
C:/temp/Job-3.odb,Step-1,Increment      1: Step Time =    1.000,"P-3-1",          2602,   49.1931E-03,   61.2378E-03,            0.,NA,NA,"",   1.01319E+06,   1.03540E+06,   1.03540E+06
C:/temp/Job-3.odb,Step-1,Increment      1: Step Time =    1.000,"P-3-1",          2603,   45.5195E-03,   150.753E-03,            0.,NA,NA,"",   1.02619E+06,   1.04969E+06,   1.04969E+06
C:/temp/Job-3.odb,Step-1,Increment      1: Step Time =    1.000,"P-3-1",          2604,   52.2364E-03,   45.7456E-03,            0.,NA,NA,"",   1.04870E+06,   1.06153E+06,   1.06153E+06
C:/temp/Job-3.odb,Step-1,Increment      1: Step Time =    1.000,"P-3-1",          2605,   42.4566E-03,   72.1103E-03,            0.,NA,NA,"",   933.135E+03,   977.714E+03,   977.714E+03
C:/temp/Job-3.odb,Step-1,Increment      1: Step Time =    1.000,"P-3-1",          2606,   34.8574E-03,   71.2595E-03,            0.,NA,NA,"",   906.358E+03,   965.064E+03,   965.064E+03
C:/temp/Job-3.odb,Step-1,Increment      1: Step Time =    1.000,"P-3-1",          2607,   73.3352E-03,   165.879E-03,            0.,NA,NA,"",   1.04117E+06,   1.04683E+06,   1.04683E+06
C:/temp/Job-3.odb,Step-1,Increment      1: Step Time =    1.000,"P-3-1",          2608,   151.293E-03,   158.658E-03,            0.,NA,NA,"",   1.04676E+06,   1.03497E+06,   1.03497E+06
C:/temp/Job-3.odb,Step-1,Increment      1: Step Time =    1.000,"P-3-1",          2609,   160.214E-03,   51.9120E-03,            0.,NA,NA,"",   1.04065E+06,   1.02946E+06,   1.02946E+06
C:/temp/Job-3.odb,Step-1,Increment      1: Step Time =    1.000,"P-3-1",          2610,   79.3362E-03,   47.2753E-03,            0.,NA,NA,"",   1.06492E+06,   1.07703E+06,   1.07703E+06
C:/temp/Job-3.odb,Step-1,Increment      1: Step Time =    1.000,"P-3-1",          2611,   91.6053E-03,   49.2808E-03,            0.,NA,NA,"",   1.03541E+06,   1.06660E+06,   1.06660E+06
C:/temp/Job-3.odb,Step-1,Increment      1: Step Time =    1.000,"P-3-1",          2612,   56.4546E-03,   49.0272E-03,            0.,NA,NA,"",   1.05846E+06,   1.06723E+06,   1.06723E+06
C:/temp/Job-3.odb,Step-1,Increment      1: Step Time =    1.000,"P-3-1",          2613,   143.160E-03,   54.4330E-03,            0.,NA,NA,"",   1.08378E+06,   1.06180E+06,   1.06180E+06
C:/temp/Job-3.odb,Step-1,Increment      1: Step Time =    1.000,"P-3-1",          2614,   142.756E-03,   139.909E-03,            0.,NA,NA,"",   1.09118E+06,   1.06452E+06,   1.06452E+06
C:/temp/Job-3.odb,Step-1,Increment      1: Step Time =    1.000,"P-3-1",          2615,   39.1372E-03,   65.4786E-03,            0.,NA,NA,"",   948.884E+03,   995.047E+03,   995.047E+03
C:/temp/Job-3.odb,Step-1,Increment      1: Step Time =    1.000,"P-3-1",          2616,   64.6535E-03,   161.877E-03,            0.,NA,NA,"",   1.05662E+06,   1.06086E+06,   1.06086E+06
C:/temp/Job-3.odb,Step-1,Increment      1: Step Time =    1.000,"P-3-1",          2617,   83.7433E-03,   42.3638E-03,            0.,NA,NA,"",   1.04164E+06,   1.05765E+06,   1.05765E+06
C:/temp/Job-3.odb,Step-1,Increment      1: Step Time =    1.000,"P-3-1",          2618,   151.519E-03,   163.180E-03,            0.,NA,NA,"",   1.03890E+06,   1.02927E+06,   1.02927E+06
C:/temp/Job-3.odb,Step-1,Increment      1: Step Time =    1.000,"P-3-1",          2619,   163.230E-03,   50.2168E-03,            0.,NA,NA,"",   1.03385E+06,   1.02502E+06,   1.02502E+06
C:/temp/Job-3.odb,Step-1,Increment      1: Step Time =    1.000,"P-3-1",          2620,   102.106E-03,   150.583E-03,            0.,NA,NA,"",   1.02307E+06,   1.05886E+06,   1.05886E+06
C:/temp/Job-3.odb,Step-1,Increment      1: Step Time =    1.000,"P-3-1",          2621,   98.1135E-03,   148.002E-03,            0.,NA,NA,"",   1.02650E+06,   1.06778E+06,   1.06778E+06
C:/temp/Job-3.odb,Step-1,Increment      1: Step Time =    1.000,"P-3-1",          2622,   47.1775E-03,   56.0018E-03,            0.,NA,NA,"",   1.01779E+06,   1.04179E+06,   1.04179E+06
C:/temp/Job-3.odb,Step-1,Increment      1: Step Time =    1.000,"P-3-1",          2623,   52.5587E-03,   61.9676E-03,            0.,NA,NA,"",   1.02803E+06,   1.04394E+06,   1.04394E+06
C:/temp/Job-3.odb,Step-1,Increment      1: Step Time =    1.000,"P-3-1",          2624,   50.6920E-03,   151.732E-03,            0.,NA,NA,"",   1.04328E+06,   1.05873E+06,   1.05873E+06
C:/temp/Job-3.odb,Step-1,Increment      1: Step Time =    1.000,"P-3-1",          2625,   41.6039E-03,   147.498E-03,            0.,NA,NA,"",   1.00412E+06,   1.03664E+06,   1.03664E+06
C:/temp/Job-3.odb,Step-1,Increment      1: Step Time =    1.000,"P-3-1",          2626,   49.8568E-03,   49.2216E-03,            0.,NA,NA,"",   1.03985E+06,   1.05662E+06,   1.05662E+06
C:/temp/Job-3.odb,Step-1,Increment      1: Step Time =    1.000,"P-3-1",          2627,   52.2257E-03,   41.1313E-03,            0.,NA,NA,"",   1.05029E+06,   1.06157E+06,   1.06157E+06
C:/temp/Job-3.odb,Step-1,Increment      1: Step Time =    1.000,"P-3-1",          2628,   32.5581E-03,   73.0751E-03,            0.,NA,NA,"",   891.375E+03,   955.479E+03,   955.479E+03
C:/temp/Job-3.odb,Step-1,Increment      1: Step Time =    1.000,"P-3-1",          2629,   75.6637E-03,   166.336E-03,            0.,NA,NA,"",   1.03628E+06,   1.04293E+06,   1.04293E+06
C:/temp/Job-3.odb,Step-1,Increment      1: Step Time =    1.000,"P-3-1",          2630,   149.468E-03,   155.757E-03,            0.,NA,NA,"",   1.05403E+06,   1.04040E+06,   1.04040E+06
C:/temp/Job-3.odb,Step-1,Increment      1: Step Time =    1.000,"P-3-1",          2631,   157.022E-03,   53.4029E-03,            0.,NA,NA,"",   1.04752E+06,   1.03401E+06,   1.03401E+06
C:/temp/Job-3.odb,Step-1,Increment      1: Step Time =    1.000,"P-3-1",          2632,   77.3311E-03,   52.9553E-03,            0.,NA,NA,"",   1.08949E+06,   1.09698E+06,   1.09698E+06
C:/temp/Job-3.odb,Step-1,Increment      1: Step Time =    1.000,"P-3-1",          2633,   52.3664E-03,   50.9548E-03,            0.,NA,NA,"",   1.04650E+06,   1.06007E+06,   1.06007E+06
C:/temp/Job-3.odb,Step-1,Increment      1: Step Time =    1.000,"P-3-1",          2634,   58.9523E-03,   48.0072E-03,            0.,NA,NA,"",   1.06442E+06,   1.07073E+06,   1.07073E+06
C:/temp/Job-3.odb,Step-1,Increment      1: Step Time =    1.000,"P-3-1",          2635,   146.831E-03,   56.9031E-03,            0.,NA,NA,"",   1.07539E+06,   1.05360E+06,   1.05360E+06
C:/temp/Job-3.odb,Step-1,Increment      1: Step Time =    1.000,"P-3-1",          2636,   140.814E-03,   142.162E-03,            0.,NA,NA,"",   1.09561E+06,   1.06997E+06,   1.06997E+06
C:/temp/Job-3.odb,Step-1,Increment      1: Step Time =    1.000,"P-3-1",          2637,   94.0899E-03,   48.6268E-03,            0.,NA,NA,"",   1.02839E+06,   1.06136E+06,   1.06136E+06
C:/temp/Job-3.odb,Step-1,Increment      1: Step Time =    1.000,"P-3-1",          2638,   72.0848E-03,   151.552E-03,            0.,NA,NA,"",   1.07785E+06,   1.08263E+06,   1.08263E+06
C:/temp/Job-3.odb,Step-1,Increment      1: Step Time =    1.000,"P-3-1",          2639,   46.3492E-03,   73.7193E-03,            0.,NA,NA,"",   940.338E+03,   978.237E+03,   978.237E+03
C:/temp/Job-3.odb,Step-1,Increment      1: Step Time =    1.000,"P-3-1",          2640,   75.0055E-03,   55.4726E-03,            0.,NA,NA,"",   1.10162E+06,   1.10401E+06,   1.10401E+06
C:/temp/Job-3.odb,Step-1,Increment      1: Step Time =    1.000,"P-3-1",          2641,   35.9923E-03,   66.7040E-03,            0.,NA,NA,"",   930.992E+03,   984.023E+03,   984.023E+03
C:/temp/Job-3.odb,Step-1,Increment      1: Step Time =    1.000,"P-3-1",          2642,   42.2122E-03,   64.5705E-03,            0.,NA,NA,"",   965.236E+03,   1.00464E+06,   1.00464E+06
C:/temp/Job-3.odb,Step-1,Increment      1: Step Time =    1.000,"P-3-1",          2643,   65.5262E-03,   156.874E-03,            0.,NA,NA,"",   1.06552E+06,   1.06967E+06,   1.06967E+06
C:/temp/Job-3.odb,Step-1,Increment      1: Step Time =    1.000,"P-3-1",          2644,   65.6248E-03,   164.560E-03,            0.,NA,NA,"",   1.05104E+06,   1.05505E+06,   1.05505E+06
C:/temp/Job-3.odb,Step-1,Increment      1: Step Time =    1.000,"P-3-1",          2645,   80.5124E-03,   42.9090E-03,            0.,NA,NA,"",   1.05050E+06,   1.06348E+06,   1.06348E+06
C:/temp/Job-3.odb,Step-1,Increment      1: Step Time =    1.000,"P-3-1",          2646,   154.121E-03,   165.215E-03,            0.,NA,NA,"",   1.03272E+06,   1.02449E+06,   1.02449E+06
C:/temp/Job-3.odb,Step-1,Increment      1: Step Time =    1.000,"P-3-1",          2647,   165.031E-03,   46.2540E-03,            0.,NA,NA,"",   1.02943E+06,   1.02215E+06,   1.02215E+06
C:/temp/Job-3.odb,Step-1,Increment      1: Step Time =    1.000,"P-3-1",          2648,   107.641E-03,   150.367E-03,            0.,NA,NA,"",   1.03428E+06,   1.06410E+06,   1.06410E+06
C:/temp/Job-3.odb,Step-1,Increment      1: Step Time =    1.000,"P-3-1",          2649,   96.3826E-03,   150.405E-03,            0.,NA,NA,"",   1.02655E+06,   1.06287E+06,   1.06287E+06
C:/temp/Job-3.odb,Step-1,Increment      1: Step Time =    1.000,"P-3-1",          2650,   49.0806E-03,   147.995E-03,            0.,NA,NA,"",   1.03432E+06,   1.05308E+06,   1.05308E+06
C:/temp/Job-3.odb,Step-1,Increment      1: Step Time =    1.000,"P-3-1",          2651,   38.0342E-03,   151.074E-03,            0.,NA,NA,"",   1.00067E+06,   1.03747E+06,   1.03747E+06
C:/temp/Job-3.odb,Step-1,Increment      1: Step Time =    1.000,"P-3-1",          2652,   53.7308E-03,   48.5983E-03,            0.,NA,NA,"",   1.05136E+06,   1.06310E+06,   1.06310E+06
C:/temp/Job-3.odb,Step-1,Increment      1: Step Time =    1.000,"P-3-1",          2653,   49.4631E-03,   38.9409E-03,            0.,NA,NA,"",   1.04720E+06,   1.06014E+06,   1.06014E+06
C:/temp/Job-3.odb,Step-1,Increment      1: Step Time =    1.000,"P-3-1",          2654,   149.875E-03,   56.1463E-03,            0.,NA,NA,"",   1.06638E+06,   1.04696E+06,   1.04696E+06
C:/temp/Job-3.odb,Step-1,Increment      1: Step Time =    1.000,"P-3-1",          2655,   143.468E-03,   58.0854E-03,            0.,NA,NA,"",   1.08682E+06,   1.06234E+06,   1.06234E+06
C:/temp/Job-3.odb,Step-1,Increment      1: Step Time =    1.000,"P-3-1",          2656,   138.345E-03,   139.891E-03,            0.,NA,NA,"",   1.10561E+06,   1.07703E+06,   1.07703E+06
C:/temp/Job-3.odb,Step-1,Increment      1: Step Time =    1.000,"P-3-1",          2657,   141.259E-03,   146.222E-03,            0.,NA,NA,"",   1.08634E+06,   1.06468E+06,   1.06468E+06
C:/temp/Job-3.odb,Step-1,Increment      1: Step Time =    1.000,"P-3-1",          2658,   67.4498E-03,   151.848E-03,            0.,NA,NA,"",   1.07601E+06,   1.07923E+06,   1.07923E+06
C:/temp/Job-3.odb,Step-1,Increment      1: Step Time =    1.000,"P-3-1",          2659,   48.1629E-03,   69.8328E-03,            0.,NA,NA,"",   969.875E+03,   1.00065E+06,   1.00065E+06
C:/temp/Job-3.odb,Step-1,Increment      1: Step Time =    1.000,"P-3-1",          2660,   103.824E-03,   156.960E-03,            0.,NA,NA,"",   1.01827E+06,   1.04381E+06,   1.04381E+06
C:/temp/Job-3.odb,Step-1,Increment      1: Step Time =    1.000,"P-3-1",          2661,   48.8570E-03,   65.4538E-03,            0.,NA,NA,"",   995.054E+03,   1.02058E+06,   1.02058E+06
C:/temp/Job-3.odb,Step-1,Increment      1: Step Time =    1.000,"P-3-1",          2662,   52.1705E-03,   148.886E-03,            0.,NA,NA,"",   1.04524E+06,   1.05946E+06,   1.05946E+06
C:/temp/Job-3.odb,Step-1,Increment      1: Step Time =    1.000,"P-3-1",          2663,   50.1479E-03,   144.799E-03,            0.,NA,NA,"",   1.03230E+06,   1.05066E+06,   1.05066E+06
C:/temp/Job-3.odb,Step-1,Increment      1: Step Time =    1.000,"P-3-1",          2664,   36.7219E-03,   153.628E-03,            0.,NA,NA,"",   1.00346E+06,   1.04066E+06,   1.04066E+06
C:/temp/Job-3.odb,Step-1,Increment      1: Step Time =    1.000,"P-3-1",          2665,   48.4897E-03,   35.5205E-03,            0.,NA,NA,"",   1.04696E+06,   1.05909E+06,   1.05909E+06
C:/temp/Job-3.odb,Step-1,Increment      1: Step Time =    1.000,"P-3-1",          2666,   72.6704E-03,   56.3119E-03,            0.,NA,NA,"",   1.10337E+06,   1.10312E+06,   1.10312E+06
C:/temp/Job-3.odb,Step-1,Increment      1: Step Time =    1.000,"P-3-1",          2667,   152.159E-03,   167.693E-03,            0.,NA,NA,"",   1.03067E+06,   1.02301E+06,   1.02301E+06
C:/temp/Job-3.odb,Step-1,Increment      1: Step Time =    1.000,"P-3-1",          2668,   166.171E-03,   48.6116E-03,            0.,NA,NA,"",   1.02838E+06,   1.02147E+06,   1.02147E+06
C:/temp/Job-3.odb,Step-1,Increment      1: Step Time =    1.000,"P-3-1",          2669,   65.1575E-03,   153.656E-03,            0.,NA,NA,"",   1.07117E+06,   1.07487E+06,   1.07487E+06
C:/temp/Job-3.odb,Step-1,Increment      1: Step Time =    1.000,"P-3-1",          2670,   69.8918E-03,   149.265E-03,            0.,NA,NA,"",   1.08357E+06,   1.08628E+06,   1.08628E+06
C:/temp/Job-3.odb,Step-1,Increment      1: Step Time =    1.000,"P-3-1",          2671,   110.251E-03,   151.946E-03,            0.,NA,NA,"",   1.03914E+06,   1.06222E+06,   1.06222E+06
C:/temp/Job-3.odb,Step-1,Increment      1: Step Time =    1.000,"P-3-1",          2672,   99.1330E-03,   156.236E-03,            0.,NA,NA,"",    1.0174E+06,   1.04548E+06,   1.04548E+06
C:/temp/Job-3.odb,Step-1,Increment      1: Step Time =    1.000,"P-3-1",          2673,   95.4934E-03,   154.158E-03,            0.,NA,NA,"",   1.02269E+06,   1.05275E+06,   1.05275E+06
C:/temp/Job-3.odb,Step-1,Increment      1: Step Time =    1.000,"P-3-1",          2674,   139.600E-03,   147.894E-03,            0.,NA,NA,"",   1.08696E+06,   1.06635E+06,   1.06635E+06
C:/temp/Job-3.odb,Step-1,Increment      1: Step Time =    1.000,"P-3-1",          2675,   152.032E-03,   59.5462E-03,            0.,NA,NA,"",   1.06014E+06,   1.04123E+06,   1.04123E+06
C:/temp/Job-3.odb,Step-1,Increment      1: Step Time =    1.000,"P-3-1",          2676,   144.485E-03,   150.511E-03,            0.,NA,NA,"",   1.07152E+06,   1.05351E+06,   1.05351E+06
C:/temp/Job-3.odb,Step-1,Increment      1: Step Time =    1.000,"P-3-1",          2677,   152.914E-03,   56.3283E-03,            0.,NA,NA,"",   1.05775E+06,   1.04060E+06,   1.04060E+06
C:/temp/Job-3.odb,Step-1,Increment      1: Step Time =    1.000,"P-3-1",          2678,   136.955E-03,   150.378E-03,            0.,NA,NA,"",   1.08438E+06,   1.06657E+06,   1.06657E+06
C:/temp/Job-3.odb,Step-1,Increment      1: Step Time =    1.000,"P-3-1",          2679,   149.941E-03,   62.1866E-03,            0.,NA,NA,"",   1.06513E+06,   1.04377E+06,   1.04377E+06
C:/temp/Job-3.odb,Step-1,Increment      1: Step Time =    1.000,"P-3-1",          2680,   46.6079E-03,   144.354E-03,            0.,NA,NA,"",   1.01630E+06,   1.04128E+06,   1.04128E+06
C:/temp/Job-3.odb,Step-1,Increment      1: Step Time =    1.000,"P-3-1",          2681,   33.2870E-03,   154.631E-03,            0.,NA,NA,"",   994.227E+03,   1.03771E+06,   1.03771E+06
C:/temp/Job-3.odb,Step-1,Increment      1: Step Time =    1.000,"P-3-1",          2682,   45.1968E-03,   34.5403E-03,            0.,NA,NA,"",   1.04369E+06,   1.05899E+06,   1.05899E+06
C:/temp/Job-3.odb,Step-1,Increment      1: Step Time =    1.000,"P-3-1",          2683,   103.282E-03,   160.864E-03,            0.,NA,NA,"",   1.01325E+06,   1.03434E+06,   1.03434E+06
C:/temp/Job-3.odb,Step-1,Increment      1: Step Time =    1.000,"P-3-1",          2684,   54.8075E-03,   150.219E-03,            0.,NA,NA,"",   1.05421E+06,   1.06478E+06,   1.06478E+06
C:/temp/Job-3.odb,Step-1,Increment      1: Step Time =    1.000,"P-3-1",          2685,   133.988E-03,   146.261E-03,            0.,NA,NA,"",   1.09951E+06,   1.07912E+06,   1.07912E+06
C:/temp/Job-3.odb,Step-1,Increment      1: Step Time =    1.000,"P-3-1",          2686,   146.793E-03,   64.4023E-03,            0.,NA,NA,"",   1.07378E+06,   1.04871E+06,   1.04871E+06
C:/temp/Job-3.odb,Step-1,Increment      1: Step Time =    1.000,"P-3-1",          2687,   43.2132E-03,   144.073E-03,            0.,NA,NA,"",   1.00065E+06,   1.03226E+06,   1.03226E+06
C:/temp/Job-3.odb,Step-1,Increment      1: Step Time =    1.000,"P-3-1",          2688,   47.2678E-03,   140.518E-03,            0.,NA,NA,"",   1.00766E+06,   1.03368E+06,   1.03368E+06
C:/temp/Job-3.odb,Step-1,Increment      1: Step Time =    1.000,"P-3-1",          2689,   37.3656E-03,   157.687E-03,            0.,NA,NA,"",   1.01591E+06,   1.04906E+06,   1.04906E+06
C:/temp/Job-3.odb,Step-1,Increment      1: Step Time =    1.000,"P-3-1",          2690,   33.6865E-03,   152.615E-03,            0.,NA,NA,"",   989.998E+03,   1.03404E+06,   1.03404E+06
C:/temp/Job-3.odb,Step-1,Increment      1: Step Time =    1.000,"P-3-1",          2691,   47.8080E-03,   33.2736E-03,            0.,NA,NA,"",   1.04633E+06,   1.05822E+06,   1.05822E+06
C:/temp/Job-3.odb,Step-1,Increment      1: Step Time =    1.000,"P-3-1",          2692,   42.7016E-03,   36.1112E-03,            0.,NA,NA,"",   1.03915E+06,   1.05871E+06,   1.05871E+06
C:/temp/Job-3.odb,Step-1,Increment      1: Step Time =    1.000,"P-3-1",          2693,   107.001E-03,   158.073E-03,            0.,NA,NA,"",   1.02069E+06,   1.04229E+06,   1.04229E+06
C:/temp/Job-3.odb,Step-1,Increment      1: Step Time =    1.000,"P-3-1",          2694,   50.6756E-03,   28.5321E-03,            0.,NA,NA,"",   1.04560E+06,   1.05267E+06,   1.05267E+06
C:/temp/Job-3.odb,Step-1,Increment      1: Step Time =    1.000,"P-3-1",          2695,   29.8188E-03,   152.328E-03,            0.,NA,NA,"",   974.928E+03,   1.02696E+06,   1.02696E+06
C:/temp/Job-3.odb,Step-1,Increment      1: Step Time =    1.000,"P-3-1",          2696,   41.0167E-03,   32.9540E-03,            0.,NA,NA,"",   1.04082E+06,   1.06005E+06,   1.06005E+06
C:/temp/Job-3.odb,Step-1,Increment      1: Step Time =    1.000,"P-3-1",          2697,   32.9015E-03,   157.924E-03,            0.,NA,NA,"",   1.00360E+06,   1.04496E+06,   1.04496E+06
C:/temp/Job-3.odb,Step-1,Increment      1: Step Time =    1.000,"P-3-1",          2698,   111.342E-03,   156.656E-03,            0.,NA,NA,"",   1.03150E+06,   1.04915E+06,   1.04915E+06
C:/temp/Job-3.odb,Step-1,Increment      1: Step Time =    1.000,"P-3-1",          2699,   133.207E-03,   149.928E-03,            0.,NA,NA,"",   1.08880E+06,   1.07272E+06,   1.07272E+06
C:/temp/Job-3.odb,Step-1,Increment      1: Step Time =    1.000,"P-3-1",          2700,   135.428E-03,   139.386E-03,            0.,NA,NA,"",   1.11686E+06,   1.08707E+06,   1.08707E+06
C:/temp/Job-3.odb,Step-1,Increment      1: Step Time =    1.000,"P-3-1",          2701,   144.766E-03,   61.4125E-03,            0.,NA,NA,"",   1.08349E+06,   1.05783E+06,   1.05783E+06
C:/temp/Job-3.odb,Step-1,Increment      1: Step Time =    1.000,"P-3-1",          2702,   149.232E-03,   67.1795E-03,            0.,NA,NA,"",   1.06010E+06,   1.03720E+06,   1.03720E+06
C:/temp/Job-3.odb,Step-1,Increment      1: Step Time =    1.000,"P-3-1",          2703,   34.7974E-03,   150.129E-03,            0.,NA,NA,"",   986.402E+03,   1.03017E+06,   1.03017E+06
C:/temp/Job-3.odb,Step-1,Increment      1: Step Time =    1.000,"P-3-1",          2704,   51.0808E-03,   32.5635E-03,            0.,NA,NA,"",   1.04784E+06,   1.05657E+06,   1.05657E+06
C:/temp/Job-3.odb,Step-1,Increment      1: Step Time =    1.000,"P-3-1",          2705,   47.9268E-03,   26.3347E-03,            0.,NA,NA,"",   1.04440E+06,   1.05223E+06,   1.05223E+06
C:/temp/Job-3.odb,Step-1,Increment      1: Step Time =    1.000,"P-3-1",          2706,   26.2657E-03,   154.733E-03,            0.,NA,NA,"",   969.311E+03,   1.02714E+06,   1.02714E+06
C:/temp/Job-3.odb,Step-1,Increment      1: Step Time =    1.000,"P-3-1",          2707,   38.0158E-03,   34.4006E-03,            0.,NA,NA,"",   1.03506E+06,   1.05989E+06,   1.05989E+06
C:/temp/Job-3.odb,Step-1,Increment      1: Step Time =    1.000,"P-3-1",          2708,   32.4504E-03,   162.192E-03,            0.,NA,NA,"",   1.01581E+06,   1.05371E+06,   1.05371E+06
C:/temp/Job-3.odb,Step-1,Increment      1: Step Time =    1.000,"P-3-1",          2709,   133.167E-03,   153.706E-03,            0.,NA,NA,"",   1.07625E+06,   1.06375E+06,   1.06375E+06
C:/temp/Job-3.odb,Step-1,Increment      1: Step Time =    1.000,"P-3-1",          2710,   131.798E-03,   141.752E-03,            0.,NA,NA,"",   1.11848E+06,   1.09337E+06,   1.09337E+06
C:/temp/Job-3.odb,Step-1,Increment      1: Step Time =    1.000,"P-3-1",          2711,   143.194E-03,   66.6656E-03,            0.,NA,NA,"",   1.08616E+06,   1.05610E+06,   1.05610E+06
C:/temp/Job-3.odb,Step-1,Increment      1: Step Time =    1.000,"P-3-1",          2712,   153.078E-03,   64.6520E-03,            0.,NA,NA,"",   1.05134E+06,   1.03304E+06,   1.03304E+06
C:/temp/Job-3.odb,Step-1,Increment      1: Step Time =    1.000,"P-3-1",          2713,   54.7861E-03,   33.8446E-03,            0.,NA,NA,"",   1.04993E+06,   1.05667E+06,   1.05667E+06
C:/temp/Job-3.odb,Step-1,Increment      1: Step Time =    1.000,"P-3-1",          2714,   32.7493E-03,   142.113E-03,            0.,NA,NA,"",   950.220E+03,   1.00397E+06,   1.00397E+06
C:/temp/Job-3.odb,Step-1,Increment      1: Step Time =    1.000,"P-3-1",          2715,   34.4086E-03,   164.722E-03,            0.,NA,NA,"",   1.02693E+06,   1.05864E+06,   1.05864E+06
C:/temp/Job-3.odb,Step-1,Increment      1: Step Time =    1.000,"P-3-1",          2716,   34.9277E-03,   35.9338E-03,            0.,NA,NA,"",   1.02606E+06,   1.05751E+06,   1.05751E+06
C:/temp/Job-3.odb,Step-1,Increment      1: Step Time =    1.000,"P-3-1",          2717,   132.603E-03,   139.030E-03,            0.,NA,NA,"",   1.12615E+06,   1.09625E+06,   1.09625E+06
C:/temp/Job-3.odb,Step-1,Increment      1: Step Time =    1.000,"P-3-1",          2718,   127.268E-03,   141.899E-03,            0.,NA,NA,"",   1.12374E+06,   1.10387E+06,   1.10387E+06
C:/temp/Job-3.odb,Step-1,Increment      1: Step Time =    1.000,"P-3-1",          2719,   156.919E-03,   63.8713E-03,            0.,NA,NA,"",   1.04117E+06,   1.02682E+06,   1.02682E+06
C:/temp/Job-3.odb,Step-1,Increment      1: Step Time =    1.000,"P-3-1",          2720,   42.5852E-03,   28.4366E-03,            0.,NA,NA,"",   1.04530E+06,   1.05915E+06,   1.05915E+06
C:/temp/Job-3.odb,Step-1,Increment      1: Step Time =    1.000,"P-3-1",          2721,   28.1827E-03,   157.251E-03,            0.,NA,NA,"",   985.952E+03,   1.03733E+06,   1.03733E+06
C:/temp/Job-3.odb,Step-1,Increment      1: Step Time =    1.000,"P-3-1",          2722,   55.7345E-03,   30.6031E-03,            0.,NA,NA,"",   1.04626E+06,   1.05158E+06,   1.05158E+06
C:/temp/Job-3.odb,Step-1,Increment      1: Step Time =    1.000,"P-3-1",          2723,   29.8758E-03,   141.688E-03,            0.,NA,NA,"",   938.587E+03,   997.798E+03,   997.798E+03
C:/temp/Job-3.odb,Step-1,Increment      1: Step Time =    1.000,"P-3-1",          2724,   126.317E-03,   145.234E-03,            0.,NA,NA,"",   1.10777E+06,   1.09440E+06,   1.09440E+06
C:/temp/Job-3.odb,Step-1,Increment      1: Step Time =    1.000,"P-3-1",          2725,   137.616E-03,   160.651E-03,            0.,NA,NA,"",   1.05418E+06,   1.04413E+06,   1.04413E+06
C:/temp/Job-3.odb,Step-1,Increment      1: Step Time =    1.000,"P-3-1",          2726,   158.913E-03,   59.8949E-03,            0.,NA,NA,"",   1.04119E+06,   1.02833E+06,   1.02833E+06
C:/temp/Job-3.odb,Step-1,Increment      1: Step Time =    1.000,"P-3-1",          2727,   56.3642E-03,   27.2100E-03,            0.,NA,NA,"",   1.04069E+06,   1.04473E+06,   1.04473E+06
C:/temp/Job-3.odb,Step-1,Increment      1: Step Time =    1.000,"P-3-1",          2728,   58.3891E-03,   34.8250E-03,            0.,NA,NA,"",   1.05136E+06,   1.05667E+06,   1.05667E+06
C:/temp/Job-3.odb,Step-1,Increment      1: Step Time =    1.000,"P-3-1",          2729,   28.0383E-03,   143.286E-03,            0.,NA,NA,"",   936.738E+03,   998.494E+03,   998.494E+03
C:/temp/Job-3.odb,Step-1,Increment      1: Step Time =    1.000,"P-3-1",          2730,   35.5385E-03,   140.045E-03,            0.,NA,NA,"",   954.046E+03,   1.00364E+06,   1.00364E+06
C:/temp/Job-3.odb,Step-1,Increment      1: Step Time =    1.000,"P-3-1",          2731,   28.6701E-03,   147.504E-03,            0.,NA,NA,"",   954.467E+03,   1.01211E+06,   1.01211E+06
C:/temp/Job-3.odb,Step-1,Increment      1: Step Time =    1.000,"P-3-1",          2732,   53.3846E-03,   26.6630E-03,            0.,NA,NA,"",   1.04172E+06,   1.04663E+06,   1.04663E+06
C:/temp/Job-3.odb,Step-1,Increment      1: Step Time =    1.000,"P-3-1",          2733,   128.928E-03,   149.384E-03,            0.,NA,NA,"",   1.09158E+06,   1.07913E+06,   1.07913E+06
C:/temp/Job-3.odb,Step-1,Increment      1: Step Time =    1.000,"P-3-1",          2734,   141.309E-03,   157.040E-03,            0.,NA,NA,"",   1.06184E+06,   1.04839E+06,   1.04839E+06
C:/temp/Job-3.odb,Step-1,Increment      1: Step Time =    1.000,"P-3-1",          2735,   160.102E-03,   62.5828E-03,            0.,NA,NA,"",   1.03533E+06,   1.02377E+06,   1.02377E+06
C:/temp/Job-3.odb,Step-1,Increment      1: Step Time =    1.000,"P-3-1",          2736,   155.847E-03,   56.8633E-03,            0.,NA,NA,"",   1.05025E+06,   1.03522E+06,   1.03522E+06
C:/temp/Job-3.odb,Step-1,Increment      1: Step Time =    1.000,"P-3-1",          2737,   22.8793E-03,   142.046E-03,            0.,NA,NA,"",   911.861E+03,   984.364E+03,   984.364E+03
C:/temp/Job-3.odb,Step-1,Increment      1: Step Time =    1.000,"P-3-1",          2738,   161.690E-03,   65.3664E-03,            0.,NA,NA,"",   1.02666E+06,   1.01744E+06,   1.01744E+06
C:/temp/Job-3.odb,Step-1,Increment      1: Step Time =    1.000,"P-3-1",          2739,   134.545E-03,   164.577E-03,            0.,NA,NA,"",   1.04279E+06,   1.03619E+06,   1.03619E+06
C:/temp/Job-3.odb,Step-1,Increment      1: Step Time =    1.000,"P-3-1",          2740,   159.105E-03,   56.5995E-03,            0.,NA,NA,"",   1.04241E+06,   1.02989E+06,   1.02989E+06
C:/temp/Job-3.odb,Step-1,Increment      1: Step Time =    1.000,"P-3-1",          2741,   141.256E-03,   160.460E-03,            0.,NA,NA,"",   1.05345E+06,   1.04223E+06,   1.04223E+06
C:/temp/Job-3.odb,Step-1,Increment      1: Step Time =    1.000,"P-3-1",          2742,   20.9542E-03,   144.031E-03,            0.,NA,NA,"",   911.785E+03,   986.653E+03,   986.653E+03
C:/temp/Job-3.odb,Step-1,Increment      1: Step Time =    1.000,"P-3-1",          2743,   56.6585E-03,   23.7847E-03,            0.,NA,NA,"",   1.03465E+06,   1.03769E+06,   1.03769E+06
C:/temp/Job-3.odb,Step-1,Increment      1: Step Time =    1.000,"P-3-1",          2744,   125.134E-03,   150.851E-03,            0.,NA,NA,"",   1.08160E+06,   1.07608E+06,   1.07608E+06
C:/temp/Job-3.odb,Step-1,Increment      1: Step Time =    1.000,"P-3-1",          2745,   133.839E-03,   161.218E-03,            0.,NA,NA,"",   1.05230E+06,   1.04440E+06,   1.04440E+06
C:/temp/Job-3.odb,Step-1,Increment      1: Step Time =    1.000,"P-3-1",          2746,   158.395E-03,   66.8493E-03,            0.,NA,NA,"",   1.03163E+06,   1.01945E+06,   1.01945E+06
C:/temp/Job-3.odb,Step-1,Increment      1: Step Time =    1.000,"P-3-1",          2747,   26.8173E-03,   150.138E-03,            0.,NA,NA,"",   955.098E+03,   1.01517E+06,   1.01517E+06
C:/temp/Job-3.odb,Step-1,Increment      1: Step Time =    1.000,"P-3-1",          2748,   50.5827E-03,   26.1812E-03,            0.,NA,NA,"",   1.04304E+06,   1.04916E+06,   1.04916E+06
C:/temp/Job-3.odb,Step-1,Increment      1: Step Time =    1.000,"P-3-1",          2749,   165.485E-03,   59.5612E-03,            0.,NA,NA,"",   1.02586E+06,   1.01891E+06,   1.01891E+06
C:/temp/Job-3.odb,Step-1,Increment      1: Step Time =    1.000,"P-3-1",          2750,   138.435E-03,   167.441E-03,            0.,NA,NA,"",   1.03586E+06,   1.02911E+06,   1.02911E+06
C:/temp/Job-3.odb,Step-1,Increment      1: Step Time =    1.000,"P-3-1",          2751,   147.671E-03,   157.997E-03,            0.,NA,NA,"",   1.05316E+06,   1.04022E+06,   1.04022E+06
C:/temp/Job-3.odb,Step-1,Increment      1: Step Time =    1.000,"P-3-1",          2752,   126.161E-03,   153.720E-03,            0.,NA,NA,"",   1.07191E+06,   1.06680E+06,   1.06680E+06
C:/temp/Job-3.odb,Step-1,Increment      1: Step Time =    1.000,"P-3-1",          2753,   129.055E-03,   158.007E-03,            0.,NA,NA,"",   1.05980E+06,   1.05389E+06,   1.05389E+06
C:/temp/Job-3.odb,Step-1,Increment      1: Step Time =    1.000,"P-3-1",          2754,   156.929E-03,   71.4995E-03,            0.,NA,NA,"",   1.02212E+06,   1.01024E+06,   1.01024E+06
C:/temp/Job-3.odb,Step-1,Increment      1: Step Time =    1.000,"P-3-1",          2755,   57.7391E-03,   16.7739E-03,            0.,NA,NA,"",   1.01647E+06,   1.01768E+06,   1.01768E+06
C:/temp/Job-3.odb,Step-1,Increment      1: Step Time =    1.000,"P-3-1",          2756,   18.2730E-03,   143.633E-03,            0.,NA,NA,"",   900.035E+03,   979.699E+03,   979.699E+03
C:/temp/Job-3.odb,Step-1,Increment      1: Step Time =    1.000,"P-3-1",          2757,   163.801E-03,   57.0365E-03,            0.,NA,NA,"",   1.03167E+06,   1.02290E+06,   1.02290E+06
C:/temp/Job-3.odb,Step-1,Increment      1: Step Time =    1.000,"P-3-1",          2758,   141.437E-03,   163.805E-03,            0.,NA,NA,"",   1.04503E+06,   1.03568E+06,   1.03568E+06
C:/temp/Job-3.odb,Step-1,Increment      1: Step Time =    1.000,"P-3-1",          2759,   125.885E-03,   160.307E-03,            0.,NA,NA,"",   1.04943E+06,   1.04754E+06,   1.04754E+06
C:/temp/Job-3.odb,Step-1,Increment      1: Step Time =    1.000,"P-3-1",          2760,   159.022E-03,   74.7586E-03,            0.,NA,NA,"",   1.00504E+06,   997.807E+03,   997.807E+03
C:/temp/Job-3.odb,Step-1,Increment      1: Step Time =    1.000,"P-3-1",          2761,   124.020E-03,   158.229E-03,            0.,NA,NA,"",   1.05412E+06,   1.05340E+06,   1.05340E+06
C:/temp/Job-3.odb,Step-1,Increment      1: Step Time =    1.000,"P-3-1",          2762,   155.112E-03,   76.1145E-03,            0.,NA,NA,"",   1.00640E+06,   995.835E+03,   995.835E+03
C:/temp/Job-3.odb,Step-1,Increment      1: Step Time =    1.000,"P-3-1",          2763,   122.152E-03,   152.083E-03,            0.,NA,NA,"",   1.07133E+06,   1.07167E+06,   1.07167E+06
C:/temp/Job-3.odb,Step-1,Increment      1: Step Time =    1.000,"P-3-1",          2764,   119.922E-03,   154.141E-03,            0.,NA,NA,"",   1.05955E+06,   1.06438E+06,   1.06438E+06
C:/temp/Job-3.odb,Step-1,Increment      1: Step Time =    1.000,"P-3-1",          2765,   120.238E-03,   158.373E-03,            0.,NA,NA,"",   1.04647E+06,   1.05103E+06,   1.05103E+06
C:/temp/Job-3.odb,Step-1,Increment      1: Step Time =    1.000,"P-3-1",          2766,   117.443E-03,   151.983E-03,            0.,NA,NA,"",   1.05974E+06,   1.06919E+06,   1.06919E+06
C:/temp/Job-3.odb,Step-1,Increment      1: Step Time =    1.000,"P-3-1",          2767,   121.927E-03,   160.196E-03,            0.,NA,NA,"",   1.04446E+06,   1.04665E+06,   1.04665E+06
C:/temp/Job-3.odb,Step-1,Increment      1: Step Time =    1.000,"P-3-1",          2768,   118.731E-03,   160.271E-03,            0.,NA,NA,"",   1.03839E+06,   1.04491E+06,   1.04491E+06
C:/temp/Job-3.odb,Step-1,Increment      1: Step Time =    1.000,"P-3-1",          2769,   136.851E-03,   49.9097E-03,            0.,NA,NA,"",   1.08426E+06,   1.06664E+06,   1.06664E+06
C:/temp/Job-3.odb,Step-1,Increment      1: Step Time =    1.000,"P-3-1",          2770,   79.8853E-03,   40.0906E-03,            0.,NA,NA,"",   1.04480E+06,   1.05638E+06,   1.05638E+06
C:/temp/Job-3.odb,Step-1,Increment      1: Step Time =    1.000,"P-3-1",          2771,   24.1886E-03,   148.452E-03,            0.,NA,NA,"",   940.012E+03,   1.00616E+06,   1.00616E+06
C:/temp/Job-3.odb,Step-1,Increment      1: Step Time =    1.000,"P-3-1",          2772,   11.8549E-03,   56.7799E-03,            0.,NA,NA,"",   872.366E+03,   963.297E+03,   963.297E+03
C:/temp/Job-3.odb,Step-1,Increment      1: Step Time =    1.000,"P-3-1",          2773,   56.0486E-03,   189.601E-03,            0.,NA,NA,"",   998.019E+03,   998.320E+03,   998.320E+03
C:/temp/Job-3.odb,Step-1,Increment      1: Step Time =    1.000,"P-3-1",          2774,   104.964E-03,   43.3971E-03,            0.,NA,NA,"",   1.02124E+06,   1.04534E+06,   1.04534E+06
C:/temp/Job-3.odb,Step-1,Increment      1: Step Time =    1.000,"P-3-1",          2775,   91.5140E-03,   156.757E-03,            0.,NA,NA,"",   1.02618E+06,   1.05057E+06,   1.05057E+06
C:/temp/Job-3.odb,Step-1,Increment      1: Step Time =    1.000,"P-3-1",          2776,   81.7967E-03,   148.359E-03,            0.,NA,NA,"",   1.07351E+06,   1.08917E+06,   1.08917E+06
C:/temp/Job-3.odb,Step-1,Increment      1: Step Time =    1.000,"P-3-1",          2777,   42.2068E-03,   140.080E-03,            0.,NA,NA,"",   985.479E+03,   1.02099E+06,   1.02099E+06
C:/temp/Job-3.odb,Step-1,Increment      1: Step Time =    1.000,"P-3-1",          2778,   123.132E-03,   145.093E-03,            0.,NA,NA,"",   1.10563E+06,   1.09821E+06,   1.09821E+06
C:/temp/Job-3.odb,Step-1,Increment      1: Step Time =    1.000,"P-3-1",          2779,   78.2428E-03,   136.563E-03,            0.,NA,NA,"",   1.13859E+06,   1.13693E+06,   1.13693E+06
C:/temp/Job-3.odb,Step-1,Increment      1: Step Time =    1.000,"P-3-1",          2780,   164.118E-03,   111.284E-03,            0.,NA,NA,"",   954.704E+03,   962.485E+03,   962.485E+03
C:/temp/Job-3.odb,Step-1,Increment      1: Step Time =    1.000,"P-3-1",          2781,   89.4118E-03,   165.542E-03,            0.,NA,NA,"",   1.01603E+06,   1.03126E+06,   1.03126E+06
C:/temp/Job-3.odb,Step-1,Increment      1: Step Time =    1.000,"P-3-1",          2782,   113.935E-03,   34.8311E-03,            0.,NA,NA,"",   1.01894E+06,   1.02893E+06,   1.02893E+06
C:/temp/Job-3.odb,Step-1,Increment      1: Step Time =    1.000,"P-3-1",          2783,   36.1316E-03,   89.6926E-03,            0.,NA,NA,"",   834.086E+03,   902.611E+03,   902.611E+03
C:/temp/Job-3.odb,Step-1,Increment      1: Step Time =    1.000,"P-3-1",          2784,   141.824E-03,   167.279E-03,            0.,NA,NA,"",   1.03639E+06,   1.02873E+06,   1.02873E+06
C:/temp/Job-3.odb,Step-1,Increment      1: Step Time =    1.000,"P-3-1",          2785,   167.965E-03,   57.9870E-03,            0.,NA,NA,"",   1.02235E+06,   1.01715E+06,   1.01715E+06
C:/temp/Job-3.odb,Step-1,Increment      1: Step Time =    1.000,"P-3-1",          2786,   62.7715E-03,   165.499E-03,            0.,NA,NA,"",   1.05053E+06,   1.05459E+06,   1.05459E+06
C:/temp/Job-3.odb,Step-1,Increment      1: Step Time =    1.000,"P-3-1",          2787,   34.7352E-03,   63.3824E-03,            0.,NA,NA,"",   938.229E+03,   991.759E+03,   991.759E+03
C:/temp/Job-3.odb,Step-1,Increment      1: Step Time =    1.000,"P-3-1",          2788,   112.295E-03,   162.015E-03,            0.,NA,NA,"",   1.02242E+06,   1.03578E+06,   1.03578E+06
C:/temp/Job-3.odb,Step-1,Increment      1: Step Time =    1.000,"P-3-1",          2789,   162.922E-03,   86.9322E-03,            0.,NA,NA,"",   959.011E+03,   964.883E+03,   964.883E+03
C:/temp/Job-3.odb,Step-1,Increment      1: Step Time =    1.000,"P-3-1",          2790,   86.6344E-03,   34.6492E-03,            0.,NA,NA,"",   1.02119E+06,   1.03473E+06,   1.03473E+06
C:/temp/Job-3.odb,Step-1,Increment      1: Step Time =    1.000,"P-3-1",          2791,   40.9946E-03,   96.0302E-03,            0.,NA,NA,"",   819.129E+03,   884.543E+03,   884.543E+03
C:/temp/Job-3.odb,Step-1,Increment      1: Step Time =    1.000,"P-3-1",          2792,   64.8789E-03,   149.334E-03,            0.,NA,NA,"",   1.07828E+06,   1.08097E+06,   1.08097E+06
C:/temp/Job-3.odb,Step-1,Increment      1: Step Time =    1.000,"P-3-1",          2793,   47.9173E-03,   132.317E-03,            0.,NA,NA,"",   980.309E+03,   1.00950E+06,   1.00950E+06
C:/temp/Job-3.odb,Step-1,Increment      1: Step Time =    1.000,"P-3-1",          2794,   25.4121E-03,   59.4669E-03,            0.,NA,NA,"",   916.203E+03,   984.624E+03,   984.624E+03
C:/temp/Job-3.odb,Step-1,Increment      1: Step Time =    1.000,"P-3-1",          2795,   60.4941E-03,   173.335E-03,            0.,NA,NA,"",   1.03655E+06,   1.03953E+06,   1.03953E+06
C:/temp/Job-3.odb,Step-1,Increment      1: Step Time =    1.000,"P-3-1",          2796,   163.556E-03,   68.1664E-03,            0.,NA,NA,"",   1.01745E+06,   1.01101E+06,   1.01101E+06
C:/temp/Job-3.odb,Step-1,Increment      1: Step Time =    1.000,"P-3-1",          2797,   34.1899E-03,   135.332E-03,            0.,NA,NA,"",   932.586E+03,   987.569E+03,   987.569E+03
C:/temp/Job-3.odb,Step-1,Increment      1: Step Time =    1.000,"P-3-1",          2798,   65.8924E-03,   36.9509E-03,            0.,NA,NA,"",   1.05374E+06,   1.05789E+06,   1.05789E+06
C:/temp/Job-3.odb,Step-1,Increment      1: Step Time =    1.000,"P-3-1",          2799,   153.334E-03,   99.6091E-03,            0.,NA,NA,"",   897.546E+03,   908.351E+03,   908.351E+03
C:/temp/Job-3.odb,Step-1,Increment      1: Step Time =    1.000,"P-3-1",          2800,   179.310E-03,   56.5207E-03,            0.,NA,NA,"",   1.00562E+06,   1.00799E+06,   1.00799E+06
C:/temp/Job-3.odb,Step-1,Increment      1: Step Time =    1.000,"P-3-1",          2801,   144.920E-03,   179.572E-03,            0.,NA,NA,"",   1.00989E+06,   1.00642E+06,   1.00642E+06
C:/temp/Job-3.odb,Step-1,Increment      1: Step Time =    1.000,"P-3-1",          2802,   146.734E-03,   185.200E-03,            0.,NA,NA,"",   1.00041E+06,   998.365E+03,   998.365E+03
C:/temp/Job-3.odb,Step-1,Increment      1: Step Time =    1.000,"P-3-1",          2803,   14.7333E-03,   146.239E-03,            0.,NA,NA,"",   893.716E+03,   978.968E+03,   978.968E+03
C:/temp/Job-3.odb,Step-1,Increment      1: Step Time =    1.000,"P-3-1",          2804,   186.536E-03,   52.5980E-03,            0.,NA,NA,"",   999.156E+03,   1.00411E+06,   1.00411E+06
C:/temp/Job-3.odb,Step-1,Increment      1: Step Time =    1.000,"P-3-1",          2805,   54.4504E-03,   14.3580E-03,            0.,NA,NA,"",   1.01312E+06,   1.01402E+06,   1.01402E+06
C:/temp/Job-3.odb,Step-1,Increment      1: Step Time =    1.000,"P-3-1",          2806,   73.0156E-03,   141.341E-03,            0.,NA,NA,"",   1.11066E+06,   1.10899E+06,   1.10899E+06
C:/temp/Job-3.odb,Step-1,Increment      1: Step Time =    1.000,"P-3-1",          2807,   154.052E-03,   132.534E-03,            0.,NA,NA,"",   1.04123E+06,   1.02442E+06,   1.02442E+06
C:/temp/Job-3.odb,Step-1,Increment      1: Step Time =    1.000,"P-3-1",          2808,   131.368E-03,   43.0557E-03,            0.,NA,NA,"",   1.06524E+06,   1.05666E+06,   1.05666E+06
C:/temp/Job-3.odb,Step-1,Increment      1: Step Time =    1.000,"P-3-1",          2809,   68.4186E-03,   173.996E-03,            0.,NA,NA,"",   1.02724E+06,   1.03010E+06,   1.03010E+06
C:/temp/Job-3.odb,Step-1,Increment      1: Step Time =    1.000,"P-3-1",          2810,   94.8168E-03,   44.2121E-03,            0.,NA,NA,"",   1.02196E+06,   1.04924E+06,   1.04924E+06
C:/temp/Job-3.odb,Step-1,Increment      1: Step Time =    1.000,"P-3-1",          2811,   156.427E-03,   129.282E-03,            0.,NA,NA,"",   1.02527E+06,   1.01259E+06,   1.01259E+06
C:/temp/Job-3.odb,Step-1,Increment      1: Step Time =    1.000,"P-3-1",          2812,   11.8219E-03,   42.4943E-03,            0.,NA,NA,"",   919.921E+03,   1.00712E+06,   1.00712E+06
C:/temp/Job-3.odb,Step-1,Increment      1: Step Time =    1.000,"P-3-1",          2813,   41.6557E-03,   185.284E-03,            0.,NA,NA,"",   1.03741E+06,   1.04164E+06,   1.04164E+06
C:/temp/Job-3.odb,Step-1,Increment      1: Step Time =    1.000,"P-3-1",          2814,   150.348E-03,   176.475E-03,            0.,NA,NA,"",   1.01573E+06,   1.01121E+06,   1.01121E+06
C:/temp/Job-3.odb,Step-1,Increment      1: Step Time =    1.000,"P-3-1",          2815,   56.9513E-03,   147.134E-03,            0.,NA,NA,"",   1.06012E+06,   1.06818E+06,   1.06818E+06
C:/temp/Job-3.odb,Step-1,Increment      1: Step Time =    1.000,"P-3-1",          2816,   170.135E-03,   56.8323E-03,            0.,NA,NA,"",   1.01953E+06,   1.01566E+06,   1.01566E+06
C:/temp/Job-3.odb,Step-1,Increment      1: Step Time =    1.000,"P-3-1",          2817,   142.251E-03,   171.176E-03,            0.,NA,NA,"",   1.02725E+06,   1.02120E+06,   1.02120E+06
C:/temp/Job-3.odb,Step-1,Increment      1: Step Time =    1.000,"P-3-1",          2818,   161.150E-03,   45.0188E-03,            0.,NA,NA,"",   1.03584E+06,   1.02661E+06,   1.02661E+06
C:/temp/Job-3.odb,Step-1,Increment      1: Step Time =    1.000,"P-3-1",          2819,   155.426E-03,   157.899E-03,            0.,NA,NA,"",   1.04223E+06,   1.03135E+06,   1.03135E+06
C:/temp/Job-3.odb,Step-1,Increment      1: Step Time =    1.000,"P-3-1",          2820,   60.9089E-03,   49.5120E-03,            0.,NA,NA,"",   1.06910E+06,   1.07399E+06,   1.07399E+06
C:/temp/Job-3.odb,Step-1,Increment      1: Step Time =    1.000,"P-3-1",          2821,   55.9784E-03,   138.483E-03,            0.,NA,NA,"",   1.04677E+06,   1.05622E+06,   1.05622E+06
C:/temp/Job-3.odb,Step-1,Increment      1: Step Time =    1.000,"P-3-1",          2822,   42.4544E-03,   108.272E-03,            0.,NA,NA,"",   832.534E+03,   894.141E+03,   894.141E+03
C:/temp/Job-3.odb,Step-1,Increment      1: Step Time =    1.000,"P-3-1",          2823,   145.262E-03,   74.3362E-03,            0.,NA,NA,"",   1.04666E+06,   1.02030E+06,   1.02030E+06
C:/temp/Job-3.odb,Step-1,Increment      1: Step Time =    1.000,"P-3-1",          2824,   59.1184E-03,   154.515E-03,            0.,NA,NA,"",   1.06289E+06,   1.06894E+06,   1.06894E+06
C:/temp/Job-3.odb,Step-1,Increment      1: Step Time =    1.000,"P-3-1",          2825,   60.7536E-03,   158.325E-03,            0.,NA,NA,"",   1.06090E+06,   1.06617E+06,   1.06617E+06
C:/temp/Job-3.odb,Step-1,Increment      1: Step Time =    1.000,"P-3-1",          2826,   143.367E-03,   176.165E-03,            0.,NA,NA,"",   1.01704E+06,   1.01258E+06,   1.01258E+06
C:/temp/Job-3.odb,Step-1,Increment      1: Step Time =    1.000,"P-3-1",          2827,   42.3946E-03,   98.3354E-03,            0.,NA,NA,"",   815.789E+03,   879.987E+03,   879.987E+03
C:/temp/Job-3.odb,Step-1,Increment      1: Step Time =    1.000,"P-3-1",          2828,   59.2796E-03,   73.7088E-03,            0.,NA,NA,"",   1.01672E+06,   1.02167E+06,   1.02167E+06
C:/temp/Job-3.odb,Step-1,Increment      1: Step Time =    1.000,"P-3-1",          2829,   94.8604E-03,   51.9536E-03,            0.,NA,NA,"",   1.03202E+06,   1.07061E+06,   1.07061E+06
C:/temp/Job-3.odb,Step-1,Increment      1: Step Time =    1.000,"P-3-1",          2830,   75.0751E-03,   48.9470E-03,            0.,NA,NA,"",   1.07842E+06,   1.08494E+06,   1.08494E+06
C:/temp/Job-3.odb,Step-1,Increment      1: Step Time =    1.000,"P-3-1",          2831,   25.4910E-03,   167.538E-03,            0.,NA,NA,"",   1.01656E+06,   1.06297E+06,   1.06297E+06
C:/temp/Job-3.odb,Step-1,Increment      1: Step Time =    1.000,"P-3-1",          2832,   31.0139E-03,   25.9257E-03,            0.,NA,NA,"",   1.04762E+06,   1.07351E+06,   1.07351E+06
C:/temp/Job-3.odb,Step-1,Increment      1: Step Time =    1.000,"P-3-1",          2833,   167.490E-03,   174.451E-03,            0.,NA,NA,"",   1.01169E+06,   1.00874E+06,   1.00874E+06
C:/temp/Job-3.odb,Step-1,Increment      1: Step Time =    1.000,"P-3-1",          2834,   171.583E-03,   31.0398E-03,            0.,NA,NA,"",   1.01262E+06,   1.00987E+06,   1.00987E+06
C:/temp/Job-3.odb,Step-1,Increment      1: Step Time =    1.000,"P-3-1",          2835,   150.992E-03,   169.771E-03,            0.,NA,NA,"",   1.02840E+06,   1.02130E+06,   1.02130E+06
C:/temp/Job-3.odb,Step-1,Increment      1: Step Time =    1.000,"P-3-1",          2836,   170.780E-03,   49.0491E-03,            0.,NA,NA,"",   1.02070E+06,   1.01654E+06,   1.01654E+06
C:/temp/Job-3.odb,Step-1,Increment      1: Step Time =    1.000,"P-3-1",          2837,   74.6378E-03,   149.090E-03,            0.,NA,NA,"",   1.08411E+06,   1.08984E+06,   1.08984E+06
C:/temp/Job-3.odb,Step-1,Increment      1: Step Time =    1.000,"P-3-1",          2838,   57.4056E-03,   38.3457E-03,            0.,NA,NA,"",   1.05481E+06,   1.06136E+06,   1.06136E+06
C:/temp/Job-3.odb,Step-1,Increment      1: Step Time =    1.000,"P-3-1",          2839,   37.7063E-03,   141.342E-03,            0.,NA,NA,"",   968.679E+03,   1.01289E+06,   1.01289E+06
C:/temp/Job-3.odb,Step-1,Increment      1: Step Time =    1.000,"P-3-1",          2840,   49.8358E-03,   125.268E-03,            0.,NA,NA,"",   951.119E+03,   982.039E+03,   982.039E+03
C:/temp/Job-3.odb,Step-1,Increment      1: Step Time =    1.000,"P-3-1",          2841,   153.456E-03,   73.1153E-03,            0.,NA,NA,"",   1.02440E+06,   1.00938E+06,   1.00938E+06
C:/temp/Job-3.odb,Step-1,Increment      1: Step Time =    1.000,"P-3-1",          2842,   125.791E-03,   156.274E-03,            0.,NA,NA,"",   1.06302E+06,   1.05957E+06,   1.05957E+06
C:/temp/Job-3.odb,Step-1,Increment      1: Step Time =    1.000,"P-3-1",          2843,   139.961E-03,   54.8307E-03,            0.,NA,NA,"",   1.09128E+06,   1.06855E+06,   1.06855E+06
C:/temp/Job-3.odb,Step-1,Increment      1: Step Time =    1.000,"P-3-1",          2844,   133.879E-03,   67.4003E-03,            0.,NA,NA,"",   1.13522E+06,   1.09529E+06,   1.09529E+06
C:/temp/Job-3.odb,Step-1,Increment      1: Step Time =    1.000,"P-3-1",          2845,   95.5136E-03,   158.953E-03,            0.,NA,NA,"",   1.01751E+06,   1.04135E+06,   1.04135E+06
C:/temp/Job-3.odb,Step-1,Increment      1: Step Time =    1.000,"P-3-1",          2846,   50.7891E-03,   36.1217E-03,            0.,NA,NA,"",   1.04851E+06,   1.05921E+06,   1.05921E+06
C:/temp/Job-3.odb,Step-1,Increment      1: Step Time =    1.000,"P-3-1",          2847,   36.3636E-03,   147.584E-03,            0.,NA,NA,"",   985.186E+03,   1.02736E+06,   1.02736E+06
C:/temp/Job-3.odb,Step-1,Increment      1: Step Time =    1.000,"P-3-1",          2848,   92.5670E-03,   141.664E-03,            0.,NA,NA,"",   1.05372E+06,   1.09852E+06,   1.09852E+06
C:/temp/Job-3.odb,Step-1,Increment      1: Step Time =    1.000,"P-3-1",          2849,   157.515E-03,   138.963E-03,            0.,NA,NA,"",   1.04337E+06,   1.02922E+06,   1.02922E+06
C:/temp/Job-3.odb,Step-1,Increment      1: Step Time =    1.000,"P-3-1",          2850,   140.156E-03,   43.1783E-03,            0.,NA,NA,"",   1.06283E+06,   1.04970E+06,   1.04970E+06
C:/temp/Job-3.odb,Step-1,Increment      1: Step Time =    1.000,"P-3-1",          2851,   133.297E-03,   157.526E-03,            0.,NA,NA,"",   1.06357E+06,   1.05379E+06,   1.05379E+06
C:/temp/Job-3.odb,Step-1,Increment      1: Step Time =    1.000,"P-3-1",          2852,   154.947E-03,   68.2836E-03,            0.,NA,NA,"",   1.03771E+06,   1.02204E+06,   1.02204E+06
C:/temp/Job-3.odb,Step-1,Increment      1: Step Time =    1.000,"P-3-1",          2853,   130.586E-03,   57.7080E-03,            0.,NA,NA,"",   1.11854E+06,   1.09571E+06,   1.09571E+06
C:/temp/Job-3.odb,Step-1,Increment      1: Step Time =    1.000,"P-3-1",          2854,   188.965E-03,   56.9028E-03,            0.,NA,NA,"",   995.066E+03,   1.00274E+06,   1.00274E+06
C:/temp/Job-3.odb,Step-1,Increment      1: Step Time =    1.000,"P-3-1",          2855,   141.072E-03,   189.068E-03,            0.,NA,NA,"",   990.625E+03,   989.557E+03,   989.557E+03
C:/temp/Job-3.odb,Step-1,Increment      1: Step Time =    1.000,"P-3-1",          2856,   57.9634E-03,   11.1209E-03,            0.,NA,NA,"",   997.710E+03,   998.053E+03,   998.053E+03
C:/temp/Job-3.odb,Step-1,Increment      1: Step Time =    1.000,"P-3-1",          2857,   11.4281E-03,   142.374E-03,            0.,NA,NA,"",   869.334E+03,   960.835E+03,   960.835E+03
C:/temp/Job-3.odb,Step-1,Increment      1: Step Time =    1.000,"P-3-1",          2858,   87.1975E-03,   144.824E-03,            0.,NA,NA,"",   1.06778E+06,   1.09595E+06,   1.09595E+06
C:/temp/Job-3.odb,Step-1,Increment      1: Step Time =    1.000,"P-3-1",          2859,   63.5593E-03,   141.587E-03,            0.,NA,NA,"",   1.08613E+06,   1.08540E+06,   1.08540E+06
C:/temp/Job-3.odb,Step-1,Increment      1: Step Time =    1.000,"P-3-1",          2860,   82.0149E-03,   187.246E-03,            0.,NA,NA,"",   973.124E+03,   974.949E+03,   974.949E+03
C:/temp/Job-3.odb,Step-1,Increment      1: Step Time =    1.000,"P-3-1",          2861,   13.1476E-03,   84.8593E-03,            0.,NA,NA,"",   808.369E+03,   901.192E+03,   901.192E+03
C:/temp/Job-3.odb,Step-1,Increment      1: Step Time =    1.000,"P-3-1",          2862,   114.591E-03,   13.1680E-03,            0.,NA,NA,"",   972.224E+03,   973.970E+03,   973.970E+03
C:/temp/Job-3.odb,Step-1,Increment      1: Step Time =    1.000,"P-3-1",          2863,   52.0275E-03,   181.731E-03,            0.,NA,NA,"",   1.02746E+06,   1.03003E+06,   1.03003E+06
C:/temp/Job-3.odb,Step-1,Increment      1: Step Time =    1.000,"P-3-1",          2864,   17.4537E-03,   52.5500E-03,            0.,NA,NA,"",   908.931E+03,   988.714E+03,   988.714E+03
C:/temp/Job-3.odb,Step-1,Increment      1: Step Time =    1.000,"P-3-1",          2865,   49.2403E-03,   136.970E-03,            0.,NA,NA,"",   1.00611E+06,   1.02964E+06,   1.02964E+06
C:/temp/Job-3.odb,Step-1,Increment      1: Step Time =    1.000,"P-3-1",          2866,   109.499E-03,   112.608E-03,            0.,NA,NA,"",   1.42870E+06,   1.41600E+06,   1.41600E+06
C:/temp/Job-3.odb,Step-1,Increment      1: Step Time =    1.000,"P-3-1",          2867,   126.424E-03,   129.485E-03,            0.,NA,NA,"",   1.18480E+06,   1.13788E+06,   1.13788E+06
C:/temp/Job-3.odb,Step-1,Increment      1: Step Time =    1.000,"P-3-1",          2868,   156.879E-03,   192.262E-03,            0.,NA,NA,"",   995.750E+03,   995.125E+03,   995.125E+03
C:/temp/Job-3.odb,Step-1,Increment      1: Step Time =    1.000,"P-3-1",          2869,   192.558E-03,   43.6024E-03,            0.,NA,NA,"",   998.086E+03,   1.00147E+06,   1.00147E+06
C:/temp/Job-3.odb,Step-1,Increment      1: Step Time =    1.000,"P-3-1",          2870,   7.08185E-03,   156.693E-03,            0.,NA,NA,"",   897.096E+03,   993.265E+03,   993.265E+03
C:/temp/Job-3.odb,Step-1,Increment      1: Step Time =    1.000,"P-3-1",          2871,   43.4445E-03,   7.36730E-03,            0.,NA,NA,"",   1.00968E+06,   1.01080E+06,   1.01080E+06
C:/temp/Job-3.odb,Step-1,Increment      1: Step Time =    1.000,"P-3-1",          2872,   162.471E-03,   140.587E-03,            0.,NA,NA,"",   1.03293E+06,   1.02317E+06,   1.02317E+06
C:/temp/Job-3.odb,Step-1,Increment      1: Step Time =    1.000,"P-3-1",          2873,   139.692E-03,   34.2600E-03,            0.,NA,NA,"",   1.04002E+06,   1.03218E+06,   1.03218E+06
C:/temp/Job-3.odb,Step-1,Increment      1: Step Time =    1.000,"P-3-1",          2874,   94.7526E-03,   55.7805E-03,            0.,NA,NA,"",   1.03864E+06,   1.08353E+06,   1.08353E+06
C:/temp/Job-3.odb,Step-1,Increment      1: Step Time =    1.000,"P-3-1",          2875,   140.949E-03,   138.661E-03,            0.,NA,NA,"",   1.09715E+06,   1.06861E+06,   1.06861E+06
C:/temp/Job-3.odb,Step-1,Increment      1: Step Time =    1.000,"P-3-1",          2876,   158.224E-03,   103.839E-03,            0.,NA,NA,"",   923.360E+03,   933.316E+03,   933.316E+03
C:/temp/Job-3.odb,Step-1,Increment      1: Step Time =    1.000,"P-3-1",          2877,   104.251E-03,   40.5693E-03,            0.,NA,NA,"",   1.01670E+06,   1.03856E+06,   1.03856E+06
C:/temp/Job-3.odb,Step-1,Increment      1: Step Time =    1.000,"P-3-1",          2878,   109.764E-03,   159.486E-03,            0.,NA,NA,"",   1.02263E+06,   1.04022E+06,   1.04022E+06
C:/temp/Job-3.odb,Step-1,Increment      1: Step Time =    1.000,"P-3-1",          2879,   51.2372E-03,   141.381E-03,            0.,NA,NA,"",   1.02954E+06,   1.04718E+06,   1.04718E+06
C:/temp/Job-3.odb,Step-1,Increment      1: Step Time =    1.000,"P-3-1",          2880,   108.457E-03,   50.2265E-03,            0.,NA,NA,"",   1.03836E+06,   1.06692E+06,   1.06692E+06
C:/temp/Job-3.odb,Step-1,Increment      1: Step Time =    1.000,"P-3-1",          2881,   90.1812E-03,   150.443E-03,            0.,NA,NA,"",   1.04079E+06,   1.07002E+06,   1.07002E+06
C:/temp/Job-3.odb,Step-1,Increment      1: Step Time =    1.000,"P-3-1",          2882,   135.564E-03,   57.1652E-03,            0.,NA,NA,"",   1.10717E+06,   1.08247E+06,   1.08247E+06
C:/temp/Job-3.odb,Step-1,Increment      1: Step Time =    1.000,"P-3-1",          2883,   7.12907E-03,   180.742E-03,            0.,NA,NA,"",   1.03384E+06,   1.11863E+06,   1.11863E+06
C:/temp/Job-3.odb,Step-1,Increment      1: Step Time =    1.000,"P-3-1",          2884,   181.623E-03,   193.921E-03,            0.,NA,NA,"",   999.462E+03,   999.418E+03,   999.418E+03
C:/temp/Job-3.odb,Step-1,Increment      1: Step Time =    1.000,"P-3-1",          2885,   18.2448E-03,   6.28820E-03,            0.,NA,NA,"",   1.12175E+06,   1.12937E+06,   1.12937E+06
C:/temp/Job-3.odb,Step-1,Increment      1: Step Time =    1.000,"P-3-1",          2886,   192.848E-03,   17.7354E-03,            0.,NA,NA,"",   1.00039E+06,   1.00027E+06,   1.00027E+06
C:/temp/Job-3.odb,Step-1,Increment      1: Step Time =    1.000,"P-3-1",          2887,   193.293E-03,   86.6995E-03,            0.,NA,NA,"",   970.510E+03,   998.208E+03,   998.208E+03
C:/temp/Job-3.odb,Step-1,Increment      1: Step Time =    1.000,"P-3-1",          2888,   113.672E-03,   193.347E-03,            0.,NA,NA,"",   952.682E+03,   953.185E+03,   953.185E+03
C:/temp/Job-3.odb,Step-1,Increment      1: Step Time =    1.000,"P-3-1",          2889,   86.2954E-03,   6.61924E-03,            0.,NA,NA,"",   948.158E+03,   948.823E+03,   948.823E+03
C:/temp/Job-3.odb,Step-1,Increment      1: Step Time =    1.000,"P-3-1",          2890,   6.76332E-03,   113.428E-03,            0.,NA,NA,"",   793.447E+03,   891.412E+03,   891.412E+03
C:/temp/Job-3.odb,Step-1,Increment      1: Step Time =    1.000,"P-3-1",          2891,   97.9342E-03,   55.8713E-03,            0.,NA,NA,"",   1.03214E+06,   1.08079E+06,   1.08079E+06
C:/temp/Job-3.odb,Step-1,Increment      1: Step Time =    1.000,"P-3-1",          2892,   88.5814E-03,   140.234E-03,            0.,NA,NA,"",   1.08121E+06,   1.11578E+06,   1.11578E+06
C:/temp/Job-3.odb,Step-1,Increment      1: Step Time =    1.000,"P-3-1",          2893,   53.0824E-03,   156.920E-03,            0.,NA,NA,"",   1.05159E+06,   1.06261E+06,   1.06261E+06
C:/temp/Job-3.odb,Step-1,Increment      1: Step Time =    1.000,"P-3-1",          2894,   44.7334E-03,   54.3233E-03,            0.,NA,NA,"",   1.01186E+06,   1.03932E+06,   1.03932E+06
C:/temp/Job-3.odb,Step-1,Increment      1: Step Time =    1.000,"P-3-1",          2895,   165.015E-03,   52.8312E-03,            0.,NA,NA,"",   1.03072E+06,   1.02282E+06,   1.02282E+06
C:/temp/Job-3.odb,Step-1,Increment      1: Step Time =    1.000,"P-3-1",          2896,   149.031E-03,   166.126E-03,            0.,NA,NA,"",   1.03603E+06,   1.02737E+06,   1.02737E+06
C:/temp/Job-3.odb,Step-1,Increment      1: Step Time =    1.000,"P-3-1",          2897,   11.4068E-03,   149.843E-03,            0.,NA,NA,"",   891.729E+03,   981.833E+03,   981.833E+03
C:/temp/Job-3.odb,Step-1,Increment      1: Step Time =    1.000,"P-3-1",          2898,   50.5553E-03,   11.4477E-03,            0.,NA,NA,"",   1.01032E+06,   1.01123E+06,   1.01123E+06
C:/temp/Job-3.odb,Step-1,Increment      1: Step Time =    1.000,"P-3-1",          2899,   48.4022E-03,   117.631E-03,            0.,NA,NA,"",   891.277E+03,   934.331E+03,   934.331E+03
C:/temp/Job-3.odb,Step-1,Increment      1: Step Time =    1.000,"P-3-1",          2900,   73.0649E-03,   38.3872E-03,            0.,NA,NA,"",   1.05107E+06,   1.05720E+06,   1.05720E+06
C:/temp/Job-3.odb,Step-1,Increment      1: Step Time =    1.000,"P-3-1",          2901,   38.8063E-03,   127.919E-03,            0.,NA,NA,"",   917.864E+03,   969.953E+03,   969.953E+03
C:/temp/Job-3.odb,Step-1,Increment      1: Step Time =    1.000,"P-3-1",          2902,   148.653E-03,   192.129E-03,            0.,NA,NA,"",   991.339E+03,   990.631E+03,   990.631E+03
C:/temp/Job-3.odb,Step-1,Increment      1: Step Time =    1.000,"P-3-1",          2903,   193.256E-03,   50.5916E-03,            0.,NA,NA,"",   995.079E+03,   1.00129E+06,   1.00129E+06
C:/temp/Job-3.odb,Step-1,Increment      1: Step Time =    1.000,"P-3-1",          2904,   7.56349E-03,   149.645E-03,            0.,NA,NA,"",   875.729E+03,   972.226E+03,   972.226E+03
C:/temp/Job-3.odb,Step-1,Increment      1: Step Time =    1.000,"P-3-1",          2905,   50.5460E-03,   7.60022E-03,            0.,NA,NA,"",   996.629E+03,   997.049E+03,   997.049E+03
C:/temp/Job-3.odb,Step-1,Increment      1: Step Time =    1.000,"P-3-1",          2906,   56.9390E-03,   127.283E-03,            0.,NA,NA,"",   1.00808E+06,   1.01879E+06,   1.01879E+06
C:/temp/Job-3.odb,Step-1,Increment      1: Step Time =    1.000,"P-3-1",          2907,   144.827E-03,   89.4317E-03,            0.,NA,NA,"",   909.724E+03,   907.061E+03,   907.061E+03
C:/temp/Job-3.odb,Step-1,Increment      1: Step Time =    1.000,"P-3-1",          2908,   70.2650E-03,   57.6510E-03,            0.,NA,NA,"",   1.10366E+06,   1.10115E+06,   1.10115E+06
C:/temp/Job-3.odb,Step-1,Increment      1: Step Time =    1.000,"P-3-1",          2909,   141.415E-03,   136.174E-03,            0.,NA,NA,"",   1.09607E+06,   1.06584E+06,   1.06584E+06
C:/temp/Job-3.odb,Step-1,Increment      1: Step Time =    1.000,"P-3-1",          2910,   192.795E-03,   79.7111E-03,            0.,NA,NA,"",   975.356E+03,   998.934E+03,   998.934E+03
C:/temp/Job-3.odb,Step-1,Increment      1: Step Time =    1.000,"P-3-1",          2911,   120.340E-03,   194.014E-03,            0.,NA,NA,"",   957.812E+03,   958.066E+03,   958.066E+03
C:/temp/Job-3.odb,Step-1,Increment      1: Step Time =    1.000,"P-3-1",          2912,   79.5752E-03,   5.94439E-03,            0.,NA,NA,"",   951.218E+03,   951.666E+03,   951.666E+03
C:/temp/Job-3.odb,Step-1,Increment      1: Step Time =    1.000,"P-3-1",          2913,   6.65408E-03,   120.170E-03,            0.,NA,NA,"",   803.252E+03,   901.345E+03,   901.345E+03
C:/temp/Job-3.odb,Step-1,Increment      1: Step Time =    1.000,"P-3-1",          2914,   42.5457E-03,   55.8128E-03,            0.,NA,NA,"",   999.397E+03,   1.03165E+06,   1.03165E+06
C:/temp/Job-3.odb,Step-1,Increment      1: Step Time =    1.000,"P-3-1",          2915,   52.1118E-03,   119.838E-03,            0.,NA,NA,"",   920.986E+03,   952.967E+03,   952.967E+03
C:/temp/Job-3.odb,Step-1,Increment      1: Step Time =    1.000,"P-3-1",          2916,   161.639E-03,   80.7625E-03,            0.,NA,NA,"",   981.281E+03,   981.057E+03,   981.057E+03
C:/temp/Job-3.odb,Step-1,Increment      1: Step Time =    1.000,"P-3-1",          2917,   40.1570E-03,   117.411E-03,            0.,NA,NA,"",   869.935E+03,   928.056E+03,   928.056E+03
C:/temp/Job-3.odb,Step-1,Increment      1: Step Time =    1.000,"P-3-1",          2918,   160.878E-03,   96.9791E-03,            0.,NA,NA,"",   929.398E+03,   940.257E+03,   940.257E+03
C:/temp/Job-3.odb,Step-1,Increment      1: Step Time =    1.000,"P-3-1",          2919,   95.5625E-03,   39.0809E-03,            0.,NA,NA,"",   1.01494E+06,   1.03640E+06,   1.03640E+06
C:/temp/Job-3.odb,Step-1,Increment      1: Step Time =    1.000,"P-3-1",          2920,   40.3820E-03,   104.278E-03,            0.,NA,NA,"",   821.059E+03,   886.875E+03,   886.875E+03
C:/temp/Job-3.odb,Step-1,Increment      1: Step Time =    1.000,"P-3-1",          2921,   69.7294E-03,   9.87755E-03,            0.,NA,NA,"",   976.716E+03,   977.144E+03,   977.144E+03
C:/temp/Job-3.odb,Step-1,Increment      1: Step Time =    1.000,"P-3-1",          2922,   188.699E-03,   68.7926E-03,            0.,NA,NA,"",   987.019E+03,   1.00085E+06,   1.00085E+06
C:/temp/Job-3.odb,Step-1,Increment      1: Step Time =    1.000,"P-3-1",          2923,   10.8885E-03,   130.450E-03,            0.,NA,NA,"",   834.732E+03,   928.580E+03,   928.580E+03
C:/temp/Job-3.odb,Step-1,Increment      1: Step Time =    1.000,"P-3-1",          2924,   130.080E-03,   190.291E-03,            0.,NA,NA,"",   978.019E+03,   977.766E+03,   977.766E+03
C:/temp/Job-3.odb,Step-1,Increment      1: Step Time =    1.000,"P-3-1",          2925,   148.146E-03,   72.1710E-03,            0.,NA,NA,"",   1.04623E+06,   1.02313E+06,   1.02313E+06
C:/temp/Job-3.odb,Step-1,Increment      1: Step Time =    1.000,"P-3-1",          2926,   149.436E-03,   128.546E-03,            0.,NA,NA,"",   1.04372E+06,   1.02228E+06,   1.02228E+06
C:/temp/Job-3.odb,Step-1,Increment      1: Step Time =    1.000,"P-3-1",          2927,   56.4345E-03,   41.8502E-03,            0.,NA,NA,"",   1.05658E+06,   1.06433E+06,   1.06433E+06
C:/temp/Job-3.odb,Step-1,Increment      1: Step Time =    1.000,"P-3-1",          2928,   161.296E-03,   157.234E-03,            0.,NA,NA,"",   1.03413E+06,   1.02541E+06,   1.02541E+06
C:/temp/Job-3.odb,Step-1,Increment      1: Step Time =    1.000,"P-3-1",          2929,   158.659E-03,   38.7231E-03,            0.,NA,NA,"",   1.03331E+06,   1.02486E+06,   1.02486E+06
C:/temp/Job-3.odb,Step-1,Increment      1: Step Time =    1.000,"P-3-1",          2930,   131.978E-03,   65.1209E-03,            0.,NA,NA,"",   1.13878E+06,   1.10232E+06,   1.10232E+06
C:/temp/Job-3.odb,Step-1,Increment      1: Step Time =    1.000,"P-3-1",          2931,   58.4758E-03,   192.435E-03,            0.,NA,NA,"",   983.252E+03,   983.306E+03,   983.306E+03
C:/temp/Job-3.odb,Step-1,Increment      1: Step Time =    1.000,"P-3-1",          2932,   7.34490E-03,   58.1509E-03,            0.,NA,NA,"",   852.460E+03,   949.847E+03,   949.847E+03
C:/temp/Job-3.odb,Step-1,Increment      1: Step Time =    1.000,"P-3-1",          2933,   42.4757E-03,   67.3668E-03,            0.,NA,NA,"",   954.945E+03,   995.766E+03,   995.766E+03
C:/temp/Job-3.odb,Step-1,Increment      1: Step Time =    1.000,"P-3-1",          2934,   90.5823E-03,   43.8487E-03,            0.,NA,NA,"",   1.02869E+06,   1.05287E+06,   1.05287E+06
C:/temp/Job-3.odb,Step-1,Increment      1: Step Time =    1.000,"P-3-1",          2935,   46.1224E-03,   81.2523E-03,            0.,NA,NA,"",   891.836E+03,   938.393E+03,   938.393E+03
C:/temp/Job-3.odb,Step-1,Increment      1: Step Time =    1.000,"P-3-1",          2936,   74.3088E-03,   192.677E-03,            0.,NA,NA,"",   961.480E+03,   961.869E+03,   961.869E+03
C:/temp/Job-3.odb,Step-1,Increment      1: Step Time =    1.000,"P-3-1",          2937,   7.53145E-03,   72.5138E-03,            0.,NA,NA,"",   818.936E+03,   916.328E+03,   916.328E+03
C:/temp/Job-3.odb,Step-1,Increment      1: Step Time =    1.000,"P-3-1",          2938,   193.416E-03,   127.160E-03,            0.,NA,NA,"",   979.747E+03,   999.788E+03,   999.788E+03
C:/temp/Job-3.odb,Step-1,Increment      1: Step Time =    1.000,"P-3-1",          2939,   125.856E-03,   7.44164E-03,            0.,NA,NA,"",   967.945E+03,   968.008E+03,   968.008E+03
C:/temp/Job-3.odb,Step-1,Increment      1: Step Time =    1.000,"P-3-1",          2940,   74.0902E-03,   155.539E-03,            0.,NA,NA,"",   1.06575E+06,   1.07266E+06,   1.07266E+06
C:/temp/Job-3.odb,Step-1,Increment      1: Step Time =    1.000,"P-3-1",          2941,   46.8453E-03,   113.027E-03,            0.,NA,NA,"",   854.259E+03,   905.928E+03,   905.928E+03
C:/temp/Job-3.odb,Step-1,Increment      1: Step Time =    1.000,"P-3-1",          2942,   70.3931E-03,   144.116E-03,            0.,NA,NA,"",   1.09790E+06,   1.09757E+06,   1.09757E+06
C:/temp/Job-3.odb,Step-1,Increment      1: Step Time =    1.000,"P-3-1",          2943,   42.1537E-03,   126.803E-03,            0.,NA,NA,"",   925.673E+03,   972.042E+03,   972.042E+03
C:/temp/Job-3.odb,Step-1,Increment      1: Step Time =    1.000,"P-3-1",          2944,   118.029E-03,   156.684E-03,            0.,NA,NA,"",   1.04698E+06,   1.05503E+06,   1.05503E+06
C:/temp/Job-3.odb,Step-1,Increment      1: Step Time =    1.000,"P-3-1",          2945,   103.215E-03,   49.0862E-03,            0.,NA,NA,"",   1.02526E+06,   1.05911E+06,   1.05911E+06
C:/temp/Job-3.odb,Step-1,Increment      1: Step Time =    1.000,"P-3-1",          2946,   34.1968E-03,   138.323E-03,            0.,NA,NA,"",   942.255E+03,   995.862E+03,   995.862E+03
C:/temp/Job-3.odb,Step-1,Increment      1: Step Time =    1.000,"P-3-1",          2947,   62.1582E-03,   35.7302E-03,            0.,NA,NA,"",   1.05278E+06,   1.05713E+06,   1.05713E+06
C:/temp/Job-3.odb,Step-1,Increment      1: Step Time =    1.000,"P-3-1",          2948,   149.734E-03,   139.155E-03,            0.,NA,NA,"",   1.06747E+06,   1.04573E+06,   1.04573E+06
C:/temp/Job-3.odb,Step-1,Increment      1: Step Time =    1.000,"P-3-1",          2949,   139.372E-03,   48.1111E-03,            0.,NA,NA,"",   1.07651E+06,   1.05987E+06,   1.05987E+06
C:/temp/Job-3.odb,Step-1,Increment      1: Step Time =    1.000,"P-3-1",          2950,   70.4694E-03,   86.1712E-03,            0.,NA,NA,"",   953.573E+03,   928.693E+03,   928.693E+03
C:/temp/Job-3.odb,Step-1,Increment      1: Step Time =    1.000,"P-3-1",          2951,   70.2672E-03,   126.922E-03,            0.,NA,NA,"",   1.12767E+06,   1.10123E+06,   1.10123E+06
C:/temp/Job-3.odb,Step-1,Increment      1: Step Time =    1.000,"P-3-1",          2952,   76.7482E-03,   41.0118E-03,            0.,NA,NA,"",   1.05292E+06,   1.06163E+06,   1.06163E+06
C:/temp/Job-3.odb,Step-1,Increment      1: Step Time =    1.000,"P-3-1",          2953,   165.956E-03,   178.707E-03,            0.,NA,NA,"",   1.00849E+06,   1.00609E+06,   1.00609E+06
C:/temp/Job-3.odb,Step-1,Increment      1: Step Time =    1.000,"P-3-1",          2954,   20.2264E-03,   166.703E-03,            0.,NA,NA,"",   996.266E+03,   1.05644E+06,   1.05644E+06
C:/temp/Job-3.odb,Step-1,Increment      1: Step Time =    1.000,"P-3-1",          2955,   31.6233E-03,   21.2547E-03,            0.,NA,NA,"",   1.05669E+06,   1.07551E+06,   1.07551E+06
C:/temp/Job-3.odb,Step-1,Increment      1: Step Time =    1.000,"P-3-1",          2956,   146.066E-03,   80.4775E-03,            0.,NA,NA,"",   999.008E+03,   981.062E+03,   981.062E+03
C:/temp/Job-3.odb,Step-1,Increment      1: Step Time =    1.000,"P-3-1",          2957,   66.4997E-03,   167.583E-03,            0.,NA,NA,"",   1.04390E+06,   1.04766E+06,   1.04766E+06
C:/temp/Job-3.odb,Step-1,Increment      1: Step Time =    1.000,"P-3-1",          2958,   31.4039E-03,   64.5910E-03,            0.,NA,NA,"",   920.553E+03,   981.243E+03,   981.243E+03
C:/temp/Job-3.odb,Step-1,Increment      1: Step Time =    1.000,"P-3-1",          2959,   33.1164E-03,   51.7148E-03,            0.,NA,NA,"",   973.769E+03,   1.02219E+06,   1.02219E+06
C:/temp/Job-3.odb,Step-1,Increment      1: Step Time =    1.000,"P-3-1",          2960,   52.5930E-03,   165.479E-03,            0.,NA,NA,"",   1.04913E+06,   1.05766E+06,   1.05766E+06
C:/temp/Job-3.odb,Step-1,Increment      1: Step Time =    1.000,"P-3-1",          2961,   154.462E-03,   103.307E-03,            0.,NA,NA,"",   907.480E+03,   917.144E+03,   917.144E+03
C:/temp/Job-3.odb,Step-1,Increment      1: Step Time =    1.000,"P-3-1",          2962,   59.4645E-03,   45.6407E-03,            0.,NA,NA,"",   1.06366E+06,   1.06959E+06,   1.06959E+06
C:/temp/Job-3.odb,Step-1,Increment      1: Step Time =    1.000,"P-3-1",          2963,   133.327E-03,   45.2517E-03,            0.,NA,NA,"",   1.07245E+06,   1.06076E+06,   1.06076E+06
C:/temp/Job-3.odb,Step-1,Increment      1: Step Time =    1.000,"P-3-1",          2964,   141.122E-03,   63.3054E-03,            0.,NA,NA,"",   1.09754E+06,   1.06751E+06,   1.06751E+06
C:/temp/Job-3.odb,Step-1,Increment      1: Step Time =    1.000,"P-3-1",          2965,   156.288E-03,   79.2185E-03,            0.,NA,NA,"",   988.904E+03,   982.873E+03,   982.873E+03
C:/temp/Job-3.odb,Step-1,Increment      1: Step Time =    1.000,"P-3-1",          2966,   157.227E-03,   108.275E-03,            0.,NA,NA,"",    929.97E+03,   937.427E+03,   937.427E+03
C:/temp/Job-3.odb,Step-1,Increment      1: Step Time =    1.000,"P-3-1",          2967,   124.871E-03,   115.999E-03,            0.,NA,NA,"",   1.13554E+06,   1.04445E+06,   1.04445E+06
C:/temp/Job-3.odb,Step-1,Increment      1: Step Time =    1.000,"P-3-1",          2968,   94.2456E-03,   133.564E-03,            0.,NA,NA,"",   1.08483E+06,   1.14957E+06,   1.14957E+06
C:/temp/Job-3.odb,Step-1,Increment      1: Step Time =    1.000,"P-3-1",          2969,   58.9018E-03,   81.7932E-03,            0.,NA,NA,"",   934.421E+03,   950.714E+03,   950.714E+03
C:/temp/Job-3.odb,Step-1,Increment      1: Step Time =    1.000,"P-3-1",          2970,   28.6884E-03,   58.0265E-03,            0.,NA,NA,"",   934.263E+03,   995.706E+03,   995.706E+03
C:/temp/Job-3.odb,Step-1,Increment      1: Step Time =    1.000,"P-3-1",          2971,   59.1166E-03,   169.338E-03,            0.,NA,NA,"",   1.04498E+06,   1.04922E+06,   1.04922E+06
C:/temp/Job-3.odb,Step-1,Increment      1: Step Time =    1.000,"P-3-1",          2972,   7.86034E-03,   27.7848E-03,            0.,NA,NA,"",   969.978E+03,   1.05967E+06,   1.05967E+06
C:/temp/Job-3.odb,Step-1,Increment      1: Step Time =    1.000,"P-3-1",          2973,   174.052E-03,   7.33679E-03,            0.,NA,NA,"",   999.337E+03,   999.116E+03,   999.116E+03
C:/temp/Job-3.odb,Step-1,Increment      1: Step Time =    1.000,"P-3-1",          2974,   28.6986E-03,   191.489E-03,            0.,NA,NA,"",   1.06075E+06,   1.06575E+06,   1.06575E+06
C:/temp/Job-3.odb,Step-1,Increment      1: Step Time =    1.000,"P-3-1",          2975,   193.104E-03,   169.202E-03,            0.,NA,NA,"",   1.00006E+06,   1.00076E+06,   1.00076E+06
C:/temp/Job-3.odb,Step-1,Increment      1: Step Time =    1.000,"P-3-1",          2976,   115.593E-03,   155.093E-03,            0.,NA,NA,"",   1.04562E+06,   1.05774E+06,   1.05774E+06
C:/temp/Job-3.odb,Step-1,Increment      1: Step Time =    1.000,"P-3-1",          2977,   62.2435E-03,   152.329E-03,            0.,NA,NA,"",   1.06984E+06,   1.07411E+06,   1.07411E+06
C:/temp/Job-3.odb,Step-1,Increment      1: Step Time =    1.000,"P-3-1",          2978,   157.599E-03,   172.248E-03,            0.,NA,NA,"",   1.02013E+06,   1.01483E+06,   1.01483E+06
C:/temp/Job-3.odb,Step-1,Increment      1: Step Time =    1.000,"P-3-1",          2979,   173.645E-03,   46.9792E-03,            0.,NA,NA,"",   1.01626E+06,   1.01364E+06,   1.01364E+06
C:/temp/Job-3.odb,Step-1,Increment      1: Step Time =    1.000,"P-3-1",          2980,   127.658E-03,   135.975E-03,            0.,NA,NA,"",   1.15140E+06,   1.11973E+06,   1.11973E+06
C:/temp/Job-3.odb,Step-1,Increment      1: Step Time =    1.000,"P-3-1",          2981,   74.9771E-03,   169.389E-03,            0.,NA,NA,"",   1.03019E+06,   1.03570E+06,   1.03570E+06
C:/temp/Job-3.odb,Step-1,Increment      1: Step Time =    1.000,"P-3-1",          2982,   28.7163E-03,   71.7277E-03,            0.,NA,NA,"",   884.086E+03,   953.237E+03,   953.237E+03
C:/temp/Job-3.odb,Step-1,Increment      1: Step Time =    1.000,"P-3-1",          2983,   45.3422E-03,   64.5873E-03,            0.,NA,NA,"",   979.975E+03,   1.01267E+06,   1.01267E+06
C:/temp/Job-3.odb,Step-1,Increment      1: Step Time =    1.000,"P-3-1",          2984,   39.7209E-03,   57.2442E-03,            0.,NA,NA,"",   982.169E+03,   1.02124E+06,   1.02124E+06
C:/temp/Job-3.odb,Step-1,Increment      1: Step Time =    1.000,"P-3-1",          2985,   70.6687E-03,   49.9451E-03,            0.,NA,NA,"",   1.08302E+06,   1.08594E+06,   1.08594E+06
C:/temp/Job-3.odb,Step-1,Increment      1: Step Time =    1.000,"P-3-1",          2986,   113.953E-03,   158.357E-03,            0.,NA,NA,"",   1.03375E+06,   1.04688E+06,   1.04688E+06
C:/temp/Job-3.odb,Step-1,Increment      1: Step Time =    1.000,"P-3-1",          2987,   73.6017E-03,   45.1822E-03,            0.,NA,NA,"",   1.06787E+06,   1.07421E+06,   1.07421E+06
C:/temp/Job-3.odb,Step-1,Increment      1: Step Time =    1.000,"P-3-1",          2988,   151.596E-03,   94.3136E-03,            0.,NA,NA,"",   900.832E+03,   908.873E+03,   908.873E+03
C:/temp/Job-3.odb,Step-1,Increment      1: Step Time =    1.000,"P-3-1",          2989,   101.101E-03,   43.1285E-03,            0.,NA,NA,"",   1.01722E+06,   1.04447E+06,   1.04447E+06
C:/temp/Job-3.odb,Step-1,Increment      1: Step Time =    1.000,"P-3-1",          2990,   155.296E-03,   96.9233E-03,            0.,NA,NA,"",   909.889E+03,   919.957E+03,   919.957E+03
C:/temp/Job-3.odb,Step-1,Increment      1: Step Time =    1.000,"P-3-1",          2991,   63.0424E-03,   51.5198E-03,            0.,NA,NA,"",   1.07564E+06,   1.07867E+06,   1.07867E+06
C:/temp/Job-3.odb,Step-1,Increment      1: Step Time =    1.000,"P-3-1",          2992,   135.748E-03,   42.5360E-03,            0.,NA,NA,"",   1.06348E+06,   1.05235E+06,   1.05235E+06
C:/temp/Job-3.odb,Step-1,Increment      1: Step Time =    1.000,"P-3-1",          2993,   155.655E-03,   135.852E-03,            0.,NA,NA,"",   1.04399E+06,   1.02818E+06,   1.02818E+06
C:/temp/Job-3.odb,Step-1,Increment      1: Step Time =    1.000,"P-3-1",          2994,   175.706E-03,   49.3370E-03,            0.,NA,NA,"",   1.01320E+06,   1.01191E+06,   1.01191E+06
C:/temp/Job-3.odb,Step-1,Increment      1: Step Time =    1.000,"P-3-1",          2995,   152.308E-03,   172.052E-03,            0.,NA,NA,"",   1.02358E+06,   1.01748E+06,   1.01748E+06
C:/temp/Job-3.odb,Step-1,Increment      1: Step Time =    1.000,"P-3-1",          2996,   149.929E-03,   133.549E-03,            0.,NA,NA,"",   1.05843E+06,   1.03647E+06,   1.03647E+06
C:/temp/Job-3.odb,Step-1,Increment      1: Step Time =    1.000,"P-3-1",          2997,   65.3364E-03,   144.327E-03,            0.,NA,NA,"",   1.08696E+06,   1.08729E+06,   1.08729E+06
C:/temp/Job-3.odb,Step-1,Increment      1: Step Time =    1.000,"P-3-1",          2998,   44.4442E-03,   132.294E-03,            0.,NA,NA,"",   963.339E+03,   1.00026E+06,   1.00026E+06
C:/temp/Job-3.odb,Step-1,Increment      1: Step Time =    1.000,"P-3-1",          2999,   162.281E-03,   89.5024E-03,            0.,NA,NA,"",   949.785E+03,   957.243E+03,   957.243E+03
C:/temp/Job-3.odb,Step-1,Increment      1: Step Time =    1.000,"P-3-1",          3000,   109.095E-03,   163.408E-03,            0.,NA,NA,"",   1.01489E+06,   1.03020E+06,   1.03020E+06
C:/temp/Job-3.odb,Step-1,Increment      1: Step Time =    1.000,"P-3-1",          3001,   89.5694E-03,   35.4829E-03,            0.,NA,NA,"",   1.01809E+06,   1.03411E+06,   1.03411E+06
C:/temp/Job-3.odb,Step-1,Increment      1: Step Time =    1.000,"P-3-1",          3002,   36.1999E-03,   110.705E-03,            0.,NA,NA,"",    836.84E+03,   904.958E+03,   904.958E+03
C:/temp/Job-3.odb,Step-1,Increment      1: Step Time =    1.000,"P-3-1",          3003,   63.9611E-03,   172.027E-03,            0.,NA,NA,"",   1.03648E+06,   1.03947E+06,   1.03947E+06
C:/temp/Job-3.odb,Step-1,Increment      1: Step Time =    1.000,"P-3-1",          3004,   26.8978E-03,   62.4217E-03,            0.,NA,NA,"",   911.288E+03,   978.679E+03,   978.679E+03
C:/temp/Job-3.odb,Step-1,Increment      1: Step Time =    1.000,"P-3-1",          3005,   40.2712E-03,   142.754E-03,            0.,NA,NA,"",   984.682E+03,   1.02280E+06,   1.02280E+06
C:/temp/Job-3.odb,Step-1,Increment      1: Step Time =    1.000,"P-3-1",          3006,   160.263E-03,   87.7314E-03,            0.,NA,NA,"",   952.465E+03,   957.577E+03,   957.577E+03
C:/temp/Job-3.odb,Step-1,Increment      1: Step Time =    1.000,"P-3-1",          3007,   39.3617E-03,   111.080E-03,            0.,NA,NA,"",   840.326E+03,   904.391E+03,   904.391E+03
C:/temp/Job-3.odb,Step-1,Increment      1: Step Time =    1.000,"P-3-1",          3008,   79.0540E-03,   150.047E-03,            0.,NA,NA,"",   1.07419E+06,   1.08552E+06,   1.08552E+06
C:/temp/Job-3.odb,Step-1,Increment      1: Step Time =    1.000,"P-3-1",          3009,   42.5874E-03,   136.055E-03,            0.,NA,NA,"",   970.540E+03,   1.00835E+06,   1.00835E+06
C:/temp/Job-3.odb,Step-1,Increment      1: Step Time =    1.000,"P-3-1",          3010,   48.2376E-03,   122.717E-03,            0.,NA,NA,"",   926.953E+03,   964.233E+03,   964.233E+03
C:/temp/Job-3.odb,Step-1,Increment      1: Step Time =    1.000,"P-3-1",          3011,   80.2626E-03,   145.561E-03,            0.,NA,NA,"",   1.08899E+06,   1.10115E+06,   1.10115E+06
C:/temp/Job-3.odb,Step-1,Increment      1: Step Time =    1.000,"P-3-1",          3012,   104.405E-03,   46.0827E-03,            0.,NA,NA,"",   1.02316E+06,   1.05131E+06,   1.05131E+06
C:/temp/Job-3.odb,Step-1,Increment      1: Step Time =    1.000,"P-3-1",          3013,   41.3641E-03,   60.9523E-03,            0.,NA,NA,"",   975.329E+03,   1.01396E+06,   1.01396E+06
C:/temp/Job-3.odb,Step-1,Increment      1: Step Time =    1.000,"P-3-1",          3014,   145.428E-03,   133.152E-03,            0.,NA,NA,"",   1.07508E+06,   1.04758E+06,   1.04758E+06
C:/temp/Job-3.odb,Step-1,Increment      1: Step Time =    1.000,"P-3-1",          3015,   21.4436E-03,   146.029E-03,            0.,NA,NA,"",   919.451E+03,   992.672E+03,   992.672E+03
C:/temp/Job-3.odb,Step-1,Increment      1: Step Time =    1.000,"P-3-1",          3016,   56.0881E-03,   20.4730E-03,            0.,NA,NA,"",   1.02859E+06,   1.03087E+06,   1.03087E+06
C:/temp/Job-3.odb,Step-1,Increment      1: Step Time =    1.000,"P-3-1",          3017,   147.693E-03,   188.550E-03,            0.,NA,NA,"",   995.561E+03,   994.242E+03,   994.242E+03
C:/temp/Job-3.odb,Step-1,Increment      1: Step Time =    1.000,"P-3-1",          3018,   190.126E-03,   50.3791E-03,            0.,NA,NA,"",   997.014E+03,   1.00241E+06,   1.00241E+06
C:/temp/Job-3.odb,Step-1,Increment      1: Step Time =    1.000,"P-3-1",          3019,   56.8796E-03,   158.603E-03,            0.,NA,NA,"",   1.05702E+06,   1.06419E+06,   1.06419E+06
C:/temp/Job-3.odb,Step-1,Increment      1: Step Time =    1.000,"P-3-1",          3020,   145.223E-03,   166.843E-03,            0.,NA,NA,"",   1.03635E+06,   1.02811E+06,   1.02811E+06
C:/temp/Job-3.odb,Step-1,Increment      1: Step Time =    1.000,"P-3-1",          3021,   166.678E-03,   55.4320E-03,            0.,NA,NA,"",   1.02687E+06,   1.02018E+06,   1.02018E+06
C:/temp/Job-3.odb,Step-1,Increment      1: Step Time =    1.000,"P-3-1",          3022,   149.776E-03,   90.8834E-03,            0.,NA,NA,"",   912.342E+03,    915.69E+03,    915.69E+03
C:/temp/Job-3.odb,Step-1,Increment      1: Step Time =    1.000,"P-3-1",          3023,   192.613E-03,   57.6270E-03,            0.,NA,NA,"",   991.780E+03,   1.00137E+06,   1.00137E+06
C:/temp/Job-3.odb,Step-1,Increment      1: Step Time =    1.000,"P-3-1",          3024,   58.1229E-03,   7.52993E-03,            0.,NA,NA,"",   984.435E+03,   984.566E+03,   984.566E+03
C:/temp/Job-3.odb,Step-1,Increment      1: Step Time =    1.000,"P-3-1",          3025,   7.69647E-03,   142.078E-03,            0.,NA,NA,"",   854.826E+03,   951.644E+03,   951.644E+03
C:/temp/Job-3.odb,Step-1,Increment      1: Step Time =    1.000,"P-3-1",          3026,   141.246E-03,   192.654E-03,            0.,NA,NA,"",   984.782E+03,   984.252E+03,   984.252E+03
C:/temp/Job-3.odb,Step-1,Increment      1: Step Time =    1.000,"P-3-1",          3027,   96.3577E-03,   181.751E-03,            0.,NA,NA,"",   979.349E+03,   984.771E+03,   984.771E+03
C:/temp/Job-3.odb,Step-1,Increment      1: Step Time =    1.000,"P-3-1",          3028,   18.4207E-03,   97.7947E-03,            0.,NA,NA,"",   803.779E+03,   892.760E+03,   892.760E+03
C:/temp/Job-3.odb,Step-1,Increment      1: Step Time =    1.000,"P-3-1",          3029,   10.0278E-03,   58.7037E-03,            0.,NA,NA,"",   860.773E+03,   954.649E+03,   954.649E+03
C:/temp/Job-3.odb,Step-1,Increment      1: Step Time =    1.000,"P-3-1",          3030,   58.3106E-03,   189.381E-03,            0.,NA,NA,"",   995.639E+03,   995.949E+03,   995.949E+03
C:/temp/Job-3.odb,Step-1,Increment      1: Step Time =    1.000,"P-3-1",          3031,   65.1019E-03,   40.5317E-03,            0.,NA,NA,"",   1.06107E+06,   1.06527E+06,   1.06527E+06
C:/temp/Job-3.odb,Step-1,Increment      1: Step Time =    1.000,"P-3-1",          3032,   38.2143E-03,   134.841E-03,            0.,NA,NA,"",   946.086E+03,   993.860E+03,   993.860E+03
C:/temp/Job-3.odb,Step-1,Increment      1: Step Time =    1.000,"P-3-1",          3033,   80.8744E-03,   133.874E-03,            0.,NA,NA,"",   1.15606E+06,   1.15674E+06,   1.15674E+06
C:/temp/Job-3.odb,Step-1,Increment      1: Step Time =    1.000,"P-3-1",          3034,   92.5059E-03,   148.632E-03,            0.,NA,NA,"",   1.03723E+06,   1.07191E+06,   1.07191E+06
C:/temp/Job-3.odb,Step-1,Increment      1: Step Time =    1.000,"P-3-1",          3035,   80.0167E-03,   138.709E-03,            0.,NA,NA,"",   1.12405E+06,   1.12970E+06,   1.12970E+06
C:/temp/Job-3.odb,Step-1,Increment      1: Step Time =    1.000,"P-3-1",          3036,   25.6665E-03,   66.3857E-03,            0.,NA,NA,"",   892.407E+03,   964.250E+03,   964.250E+03
C:/temp/Job-3.odb,Step-1,Increment      1: Step Time =    1.000,"P-3-1",          3037,   65.0150E-03,   175.363E-03,            0.,NA,NA,"",   1.02761E+06,   1.03000E+06,   1.03000E+06
C:/temp/Job-3.odb,Step-1,Increment      1: Step Time =    1.000,"P-3-1",          3038,   92.7316E-03,   41.6740E-03,            0.,NA,NA,"",   1.02201E+06,   1.04508E+06,   1.04508E+06
C:/temp/Job-3.odb,Step-1,Increment      1: Step Time =    1.000,"P-3-1",          3039,   55.1408E-03,   142.197E-03,            0.,NA,NA,"",   1.04912E+06,   1.05980E+06,   1.05980E+06
C:/temp/Job-3.odb,Step-1,Increment      1: Step Time =    1.000,"P-3-1",          3040,   59.6898E-03,   149.426E-03,            0.,NA,NA,"",   1.06753E+06,   1.07300E+06,   1.07300E+06
C:/temp/Job-3.odb,Step-1,Increment      1: Step Time =    1.000,"P-3-1",          3041,   45.1272E-03,   109.256E-03,            0.,NA,NA,"",   834.098E+03,   891.849E+03,   891.849E+03
C:/temp/Job-3.odb,Step-1,Increment      1: Step Time =    1.000,"P-3-1",          3042,   170.649E-03,   42.9436E-03,            0.,NA,NA,"",   1.01993E+06,   1.01575E+06,   1.01575E+06
C:/temp/Job-3.odb,Step-1,Increment      1: Step Time =    1.000,"P-3-1",          3043,   158.046E-03,   169.249E-03,            0.,NA,NA,"",   1.02372E+06,   1.01762E+06,   1.01762E+06
C:/temp/Job-3.odb,Step-1,Increment      1: Step Time =    1.000,"P-3-1",          3044,   157.582E-03,   82.2529E-03,            0.,NA,NA,"",   974.139E+03,   972.197E+03,   972.197E+03
C:/temp/Job-3.odb,Step-1,Increment      1: Step Time =    1.000,"P-3-1",          3045,   173.940E-03,   56.2409E-03,            0.,NA,NA,"",   1.01357E+06,   1.01233E+06,   1.01233E+06
C:/temp/Job-3.odb,Step-1,Increment      1: Step Time =    1.000,"P-3-1",          3046,   146.583E-03,   173.447E-03,            0.,NA,NA,"",   1.02209E+06,   1.01654E+06,   1.01654E+06
C:/temp/Job-3.odb,Step-1,Increment      1: Step Time =    1.000,"P-3-1",          3047,   96.5228E-03,   47.2853E-03,            0.,NA,NA,"",   1.02281E+06,   1.05523E+06,   1.05523E+06
C:/temp/Job-3.odb,Step-1,Increment      1: Step Time =    1.000,"P-3-1",          3048,   85.7914E-03,   141.980E-03,            0.,NA,NA,"",   1.08594E+06,   1.11122E+06,   1.11122E+06
C:/temp/Job-3.odb,Step-1,Increment      1: Step Time =    1.000,"P-3-1",          3049,   137.407E-03,   65.6427E-03,            0.,NA,NA,"",   1.11481E+06,   1.07987E+06,   1.07987E+06
C:/temp/Job-3.odb,Step-1,Increment      1: Step Time =    1.000,"P-3-1",          3050,   150.150E-03,   74.8040E-03,            0.,NA,NA,"",   1.02540E+06,   1.00721E+06,   1.00721E+06
C:/temp/Job-3.odb,Step-1,Increment      1: Step Time =    1.000,"P-3-1",          3051,   41.4696E-03,   124.777E-03,            0.,NA,NA,"",   913.534E+03,   962.810E+03,   962.810E+03
C:/temp/Job-3.odb,Step-1,Increment      1: Step Time =    1.000,"P-3-1",          3052,   68.1401E-03,   141.905E-03,            0.,NA,NA,"",   1.09932E+06,   1.09670E+06,   1.09670E+06
C:/temp/Job-3.odb,Step-1,Increment      1: Step Time =    1.000,"P-3-1",          3053,   40.3694E-03,   130.660E-03,            0.,NA,NA,"",   936.992E+03,   983.910E+03,   983.910E+03
C:/temp/Job-3.odb,Step-1,Increment      1: Step Time =    1.000,"P-3-1",          3054,   148.236E-03,   136.597E-03,            0.,NA,NA,"",   1.06989E+06,   1.04630E+06,   1.04630E+06
C:/temp/Job-3.odb,Step-1,Increment      1: Step Time =    1.000,"P-3-1",          3055,   59.4970E-03,   143.256E-03,            0.,NA,NA,"",   1.06874E+06,   1.07321E+06,   1.07321E+06
C:/temp/Job-3.odb,Step-1,Increment      1: Step Time =    1.000,"P-3-1",          3056,   77.4813E-03,   140.934E-03,            0.,NA,NA,"",   1.11450E+06,   1.11809E+06,   1.11809E+06
C:/temp/Job-3.odb,Step-1,Increment      1: Step Time =    1.000,"P-3-1",          3057,   149.460E-03,   80.8078E-03,            0.,NA,NA,"",   988.576E+03,   976.056E+03,   976.056E+03
C:/temp/Job-3.odb,Step-1,Increment      1: Step Time =    1.000,"P-3-1",          3058,   41.4886E-03,   114.245E-03,            0.,NA,NA,"",   855.589E+03,   914.651E+03,   914.651E+03
C:/temp/Job-3.odb,Step-1,Increment      1: Step Time =    1.000,"P-3-1",          3059,   69.0903E-03,   41.5567E-03,            0.,NA,NA,"",   1.06187E+06,   1.06646E+06,   1.06646E+06
C:/temp/Job-3.odb,Step-1,Increment      1: Step Time =    1.000,"P-3-1",          3060,   157.908E-03,   94.4623E-03,            0.,NA,NA,"",   924.276E+03,   933.566E+03,   933.566E+03
C:/temp/Job-3.odb,Step-1,Increment      1: Step Time =    1.000,"P-3-1",          3061,   155.551E-03,   105.618E-03,            0.,NA,NA,"",   916.920E+03,   925.737E+03,   925.737E+03
C:/temp/Job-3.odb,Step-1,Increment      1: Step Time =    1.000,"P-3-1",          3062,   67.5504E-03,   170.690E-03,            0.,NA,NA,"",   1.03601E+06,   1.03937E+06,   1.03937E+06
C:/temp/Job-3.odb,Step-1,Increment      1: Step Time =    1.000,"P-3-1",          3063,   28.0568E-03,   65.3191E-03,            0.,NA,NA,"",   905.092E+03,   972.056E+03,   972.056E+03
C:/temp/Job-3.odb,Step-1,Increment      1: Step Time =    1.000,"P-3-1",          3064,   34.9311E-03,   55.1261E-03,            0.,NA,NA,"",   969.390E+03,   1.01667E+06,   1.01667E+06
C:/temp/Job-3.odb,Step-1,Increment      1: Step Time =    1.000,"P-3-1",          3065,   56.2315E-03,   163.887E-03,            0.,NA,NA,"",   1.05171E+06,   1.05835E+06,   1.05835E+06
C:/temp/Job-3.odb,Step-1,Increment      1: Step Time =    1.000,"P-3-1",          3066,   97.2589E-03,   42.1467E-03,            0.,NA,NA,"",   1.01691E+06,   1.04263E+06,   1.04263E+06
C:/temp/Job-3.odb,Step-1,Increment      1: Step Time =    1.000,"P-3-1",          3067,   158.245E-03,   99.2842E-03,            0.,NA,NA,"",   919.070E+03,   929.942E+03,   929.942E+03
C:/temp/Job-3.odb,Step-1,Increment      1: Step Time =    1.000,"P-3-1",          3068,   100.820E-03,   47.6817E-03,            0.,NA,NA,"",   1.02157E+06,   1.05460E+06,   1.05460E+06
C:/temp/Job-3.odb,Step-1,Increment      1: Step Time =    1.000,"P-3-1",          3069,   173.098E-03,   51.6080E-03,            0.,NA,NA,"",   1.01668E+06,   1.01412E+06,   1.01412E+06
C:/temp/Job-3.odb,Step-1,Increment      1: Step Time =    1.000,"P-3-1",          3070,   149.456E-03,   173.029E-03,            0.,NA,NA,"",   1.02247E+06,   1.01669E+06,   1.01669E+06
C:/temp/Job-3.odb,Step-1,Increment      1: Step Time =    1.000,"P-3-1",          3071,   102.494E-03,   45.1699E-03,            0.,NA,NA,"",   1.02026E+06,   1.04910E+06,   1.04910E+06
C:/temp/Job-3.odb,Step-1,Increment      1: Step Time =    1.000,"P-3-1",          3072,   120.531E-03,   191.101E-03,            0.,NA,NA,"",   965.991E+03,   966.473E+03,   966.473E+03
C:/temp/Job-3.odb,Step-1,Increment      1: Step Time =    1.000,"P-3-1",          3073,   9.94386E-03,   120.312E-03,            0.,NA,NA,"",   810.946E+03,   906.302E+03,   906.302E+03
C:/temp/Job-3.odb,Step-1,Increment      1: Step Time =    1.000,"P-3-1",          3074,   79.3402E-03,   8.79133E-03,            0.,NA,NA,"",   962.160E+03,   962.999E+03,   962.999E+03
C:/temp/Job-3.odb,Step-1,Increment      1: Step Time =    1.000,"P-3-1",          3075,   124.724E-03,   112.839E-03,            0.,NA,NA,"",   1.04813E+06,   958.553E+03,   958.553E+03
C:/temp/Job-3.odb,Step-1,Increment      1: Step Time =    1.000,"P-3-1",          3076,   89.8660E-03,   143.149E-03,            0.,NA,NA,"",   1.06145E+06,   1.09776E+06,   1.09776E+06
C:/temp/Job-3.odb,Step-1,Increment      1: Step Time =    1.000,"P-3-1",          3077,   59.7401E-03,   165.258E-03,            0.,NA,NA,"",   1.05109E+06,   1.05588E+06,   1.05588E+06
C:/temp/Job-3.odb,Step-1,Increment      1: Step Time =    1.000,"P-3-1",          3078,   33.3816E-03,   59.9574E-03,            0.,NA,NA,"",   945.610E+03,   999.453E+03,   999.453E+03
C:/temp/Job-3.odb,Step-1,Increment      1: Step Time =    1.000,"P-3-1",          3079,   142.077E-03,   179.393E-03,            0.,NA,NA,"",   1.00948E+06,   1.00620E+06,   1.00620E+06
C:/temp/Job-3.odb,Step-1,Increment      1: Step Time =    1.000,"P-3-1",          3080,   176.786E-03,   58.6498E-03,            0.,NA,NA,"",   1.00788E+06,   1.00919E+06,   1.00919E+06
C:/temp/Job-3.odb,Step-1,Increment      1: Step Time =    1.000,"P-3-1",          3081,   98.5997E-03,   18.4175E-03,            0.,NA,NA,"",   979.304E+03,   984.925E+03,   984.925E+03
C:/temp/Job-3.odb,Step-1,Increment      1: Step Time =    1.000,"P-3-1",          3082,   158.920E-03,   85.1139E-03,            0.,NA,NA,"",   961.664E+03,   963.478E+03,   963.478E+03
C:/temp/Job-3.odb,Step-1,Increment      1: Step Time =    1.000,"P-3-1",          3083,   55.9975E-03,   155.991E-03,            0.,NA,NA,"",   1.05692E+06,   1.06532E+06,   1.06532E+06
C:/temp/Job-3.odb,Step-1,Increment      1: Step Time =    1.000,"P-3-1",          3084,   147.627E-03,   87.7180E-03,            0.,NA,NA,"",   932.546E+03,   929.255E+03,   929.255E+03
C:/temp/Job-3.odb,Step-1,Increment      1: Step Time =    1.000,"P-3-1",          3085,   43.1157E-03,   118.808E-03,            0.,NA,NA,"",   884.229E+03,   936.058E+03,   936.058E+03
C:/temp/Job-3.odb,Step-1,Increment      1: Step Time =    1.000,"P-3-1",          3086,   152.780E-03,   88.9678E-03,            0.,NA,NA,"",   932.689E+03,   934.949E+03,   934.949E+03
C:/temp/Job-3.odb,Step-1,Increment      1: Step Time =    1.000,"P-3-1",          3087,   67.4834E-03,   51.8499E-03,            0.,NA,NA,"",   1.08440E+06,   1.08577E+06,   1.08577E+06
C:/temp/Job-3.odb,Step-1,Increment      1: Step Time =    1.000,"P-3-1",          3088,   56.3798E-03,   167.455E-03,            0.,NA,NA,"",   1.04844E+06,   1.05398E+06,   1.05398E+06
C:/temp/Job-3.odb,Step-1,Increment      1: Step Time =    1.000,"P-3-1",          3089,   31.8230E-03,   56.5923E-03,            0.,NA,NA,"",   951.732E+03,   1.00620E+06,   1.00620E+06
C:/temp/Job-3.odb,Step-1,Increment      1: Step Time =    1.000,"P-3-1",          3090,   152.862E-03,   80.3560E-03,            0.,NA,NA,"",   985.964E+03,   977.427E+03,   977.427E+03
C:/temp/Job-3.odb,Step-1,Increment      1: Step Time =    1.000,"P-3-1",          3091,   60.2978E-03,   42.6500E-03,            0.,NA,NA,"",   1.06161E+06,   1.06708E+06,   1.06708E+06
C:/temp/Job-3.odb,Step-1,Increment      1: Step Time =    1.000,"P-3-1",          3092,   58.6984E-03,   160.831E-03,            0.,NA,NA,"",   1.05643E+06,   1.06235E+06,   1.06235E+06
C:/temp/Job-3.odb,Step-1,Increment      1: Step Time =    1.000,"P-3-1",          3093,   157.782E-03,   89.6360E-03,            0.,NA,NA,"",   940.998E+03,   946.474E+03,   946.474E+03
C:/temp/Job-3.odb,Step-1,Increment      1: Step Time =    1.000,"P-3-1",          3094,   45.9090E-03,   120.586E-03,            0.,NA,NA,"",   904.351E+03,   948.778E+03,   948.778E+03
C:/temp/Job-3.odb,Step-1,Increment      1: Step Time =    1.000,"P-3-1",          3095,   135.393E-03,   62.5337E-03,            0.,NA,NA,"",   1.12078E+06,   1.08886E+06,   1.08886E+06
C:/temp/Job-3.odb,Step-1,Increment      1: Step Time =    1.000,"P-3-1",          3096,   81.6009E-03,   141.101E-03,            0.,NA,NA,"",   1.10668E+06,   1.11929E+06,   1.11929E+06
C:/temp/Job-3.odb,Step-1,Increment      1: Step Time =    1.000,"P-3-1",          3097,   78.9211E-03,   142.914E-03,            0.,NA,NA,"",   1.10333E+06,   1.11149E+06,   1.11149E+06
C:/temp/Job-3.odb,Step-1,Increment      1: Step Time =    1.000,"P-3-1",          3098,   43.8400E-03,   111.793E-03,            0.,NA,NA,"",   844.653E+03,   902.367E+03,   902.367E+03
C:/temp/Job-3.odb,Step-1,Increment      1: Step Time =    1.000,"P-3-1",          3099,   149.429E-03,   78.4769E-03,            0.,NA,NA,"",   1.00495E+06,   989.437E+03,   989.437E+03
C:/temp/Job-3.odb,Step-1,Increment      1: Step Time =    1.000,"P-3-1",          3100,   65.5293E-03,   49.0714E-03,            0.,NA,NA,"",   1.07654E+06,   1.07932E+06,   1.07932E+06
C:/temp/Job-3.odb,Step-1,Increment      1: Step Time =    1.000,"P-3-1",          3101,   155.671E-03,   86.8826E-03,            0.,NA,NA,"",   949.925E+03,   951.420E+03,   951.420E+03
C:/temp/Job-3.odb,Step-1,Increment      1: Step Time =    1.000,"P-3-1",          3102,   64.8415E-03,   53.9358E-03,            0.,NA,NA,"",   1.08302E+06,   1.08403E+06,   1.08403E+06
C:/temp/Job-3.odb,Step-1,Increment      1: Step Time =    1.000,"P-3-1",          3103,   64.2035E-03,   43.9696E-03,            0.,NA,NA,"",   1.06682E+06,   1.07090E+06,   1.07090E+06
C:/temp/Job-3.odb,Step-1,Increment      1: Step Time =    1.000,"P-3-1",          3104,   150.745E-03,   86.1539E-03,            0.,NA,NA,"",   949.623E+03,   946.341E+03,   946.341E+03
C:/temp/Job-3.odb,Step-1,Increment      1: Step Time =    1.000,"P-3-1",          3105,   149.674E-03,   83.5489E-03,            0.,NA,NA,"",   968.160E+03,   959.930E+03,   959.930E+03
C:/temp/Job-3.odb,Step-1,Increment      1: Step Time =    1.000,"P-3-1",          3106,   3.63555E-03,   3.64251E-03,            0.,NA,NA,"",   1.43186E+06,   1.48560E+06,   1.48560E+06
C:/temp/Job-3.odb,Step-1,Increment      1: Step Time =    1.000,"P-3-1",          3107,   84.2546E-03,   88.5519E-03,            0.,NA,NA,"",   1.11898E+06,   988.111E+03,   988.111E+03
C:/temp/Job-3.odb,Step-1,Increment      1: Step Time =    1.000,"P-3-1",          3108,   163.257E-03,   7.76316E-03,            0.,NA,NA,"",   997.728E+03,   997.243E+03,   997.243E+03
C:/temp/Job-3.odb,Step-1,Increment      1: Step Time =    1.000,"P-3-1",          3109,   193.136E-03,   93.3339E-03,            0.,NA,NA,"",   968.102E+03,   997.828E+03,   997.828E+03
C:/temp/Job-3.odb,Step-1,Increment      1: Step Time =    1.000,"P-3-1",          3110,   193.094E-03,   32.6430E-03,            0.,NA,NA,"",   1.00007E+06,   1.00091E+06,   1.00091E+06
C:/temp/Job-3.odb,Step-1,Increment      1: Step Time =    1.000,"P-3-1",          3111,   121.642E-03,   100.539E-03,            0.,NA,NA,"",   374.788E+03,   351.461E+03,   351.461E+03
C:/temp/Job-3.odb,Step-1,Increment      1: Step Time =    1.000,"P-3-1",          3112,   113.732E-03,   82.0652E-03,            0.,NA,NA,"",   1.38108E+06,   1.32617E+06,   1.32617E+06
C:/temp/Job-3.odb,Step-1,Increment      1: Step Time =    1.000,"P-3-1",          3113,   89.1365E-03,   84.3361E-03,            0.,NA,NA,"",   1.46029E+06,   1.42767E+06,   1.42767E+06
C:/temp/Job-3.odb,Step-1,Increment      1: Step Time =    1.000,"P-3-1",          3114,   117.058E-03,   85.2741E-03,            0.,NA,NA,"",   1.27900E+06,   1.15324E+06,   1.15324E+06
C:/temp/Job-3.odb,Step-1,Increment      1: Step Time =    1.000,"P-3-1",          3115,   110.194E-03,   117.387E-03,            0.,NA,NA,"",   1.40837E+06,   1.41004E+06,   1.41004E+06
C:/temp/Job-3.odb,Step-1,Increment      1: Step Time =    1.000,"P-3-1",          3116,   74.8018E-03,   100.908E-03,            0.,NA,NA,"",   464.407E+03,   489.911E+03,   489.911E+03
C:/temp/Job-3.odb,Step-1,Increment      1: Step Time =    1.000,"P-3-1",          3117,   97.4538E-03,   75.3264E-03,            0.,NA,NA,"",   1.17746E+06,   1.29122E+06,   1.29122E+06
C:/temp/Job-3.odb,Step-1,Increment      1: Step Time =    1.000,"P-3-1",          3118,   188.404E-03,   181.417E-03,            0.,NA,NA,"",   1.00087E+06,   1.00080E+06,   1.00080E+06
C:/temp/Job-3.odb,Step-1,Increment      1: Step Time =    1.000,"P-3-1",          3119,   186.426E-03,   179.336E-03,            0.,NA,NA,"",   1.00144E+06,   1.00132E+06,   1.00132E+06
C:/temp/Job-3.odb,Step-1,Increment      1: Step Time =    1.000,"P-3-1",          3120,   188.628E-03,   23.9194E-03,            0.,NA,NA,"",   1.00122E+06,   1.00126E+06,   1.00126E+06
C:/temp/Job-3.odb,Step-1,Increment      1: Step Time =    1.000,"P-3-1",          3121,   115.914E-03,   110.718E-03,            0.,NA,NA,"",   1.19053E+06,   1.00613E+06,   1.00613E+06
C:/temp/Job-3.odb,Step-1,Increment      1: Step Time =    1.000,"P-3-1",          3122,   37.0201E-03,   195.038E-03,            0.,NA,NA,"",   1.01402E+06,   1.01507E+06,   1.01507E+06
C:/temp/Job-3.odb,Step-1,Increment      1: Step Time =    1.000,"P-3-1",          3123,   6.63114E-03,   40.9021E-03,            0.,NA,NA,"",   902.388E+03,   999.572E+03,   999.572E+03
C:/temp/Job-3.odb,Step-1,Increment      1: Step Time =    1.000,"P-3-1",          3124,   6.57658E-03,   47.2181E-03,            0.,NA,NA,"",   881.006E+03,   979.035E+03,   979.035E+03
C:/temp/Job-3.odb,Step-1,Increment      1: Step Time =    1.000,"P-3-1",          3125,   7.08747E-03,   163.651E-03,            0.,NA,NA,"",   922.694E+03,   1.01779E+06,   1.01779E+06
C:/temp/Job-3.odb,Step-1,Increment      1: Step Time =    1.000,"P-3-1",          3126,   190.074E-03,   167.295E-03,            0.,NA,NA,"",   1.00081E+06,   1.00172E+06,   1.00172E+06
C:/temp/Job-3.odb,Step-1,Increment      1: Step Time =    1.000,"P-3-1",          3127,   90.3629E-03,   80.5378E-03,            0.,NA,NA,"",   1.35388E+06,   1.38252E+06,   1.38252E+06
C:/temp/Job-3.odb,Step-1,Increment      1: Step Time =    1.000,"P-3-1",          3128,   105.912E-03,   78.3453E-03,            0.,NA,NA,"",   1.27761E+06,   1.36526E+06,   1.36526E+06
C:/temp/Job-3.odb,Step-1,Increment      1: Step Time =    1.000,"P-3-1",          3129,   187.695E-03,   112.025E-03,            0.,NA,NA,"",   972.292E+03,   994.640E+03,   994.640E+03
C:/temp/Job-3.odb,Step-1,Increment      1: Step Time =    1.000,"P-3-1",          3130,   186.249E-03,   109.360E-03,            0.,NA,NA,"",   970.996E+03,   992.931E+03,   992.931E+03
C:/temp/Job-3.odb,Step-1,Increment      1: Step Time =    1.000,"P-3-1",          3131,   177.426E-03,   14.1198E-03,            0.,NA,NA,"",   1.00133E+06,   1.00089E+06,   1.00089E+06
C:/temp/Job-3.odb,Step-1,Increment      1: Step Time =    1.000,"P-3-1",          3132,   189.659E-03,   83.3064E-03,            0.,NA,NA,"",   974.699E+03,   997.129E+03,   997.129E+03
C:/temp/Job-3.odb,Step-1,Increment      1: Step Time =    1.000,"P-3-1",          3133,   189.718E-03,   53.5012E-03,            0.,NA,NA,"",    996.02E+03,   1.00255E+06,   1.00255E+06
C:/temp/Job-3.odb,Step-1,Increment      1: Step Time =    1.000,"P-3-1",          3134,   119.637E-03,   82.0649E-03,            0.,NA,NA,"",   1.28079E+06,   1.17496E+06,   1.17496E+06
C:/temp/Job-3.odb,Step-1,Increment      1: Step Time =    1.000,"P-3-1",          3135,   92.2464E-03,   79.6307E-03,            0.,NA,NA,"",   1.33229E+06,   1.39423E+06,   1.39423E+06
C:/temp/Job-3.odb,Step-1,Increment      1: Step Time =    1.000,"P-3-1",          3136,   110.823E-03,   122.317E-03,            0.,NA,NA,"",   1.30468E+06,   1.31999E+06,   1.31999E+06
C:/temp/Job-3.odb,Step-1,Increment      1: Step Time =    1.000,"P-3-1",          3137,   82.6010E-03,   121.578E-03,            0.,NA,NA,"",   1.28947E+06,   1.24080E+06,   1.24080E+06
C:/temp/Job-3.odb,Step-1,Increment      1: Step Time =    1.000,"P-3-1",          3138,   124.153E-03,   96.5978E-03,            0.,NA,NA,"",   584.537E+03,   560.323E+03,   560.323E+03
C:/temp/Job-3.odb,Step-1,Increment      1: Step Time =    1.000,"P-3-1",          3139,   118.384E-03,   111.689E-03,            0.,NA,NA,"",   1.16776E+06,   1.01120E+06,   1.01120E+06
C:/temp/Job-3.odb,Step-1,Increment      1: Step Time =    1.000,"P-3-1",          3140,   187.932E-03,   99.7144E-03,            0.,NA,NA,"",   968.395E+03,   993.409E+03,   993.409E+03
C:/temp/Job-3.odb,Step-1,Increment      1: Step Time =    1.000,"P-3-1",          3141,   28.1782E-03,   188.007E-03,            0.,NA,NA,"",   1.07104E+06,   1.08018E+06,   1.08018E+06
C:/temp/Job-3.odb,Step-1,Increment      1: Step Time =    1.000,"P-3-1",          3142,   31.0754E-03,   187.268E-03,            0.,NA,NA,"",   1.06151E+06,   1.06947E+06,   1.06947E+06
C:/temp/Job-3.odb,Step-1,Increment      1: Step Time =    1.000,"P-3-1",          3143,   181.146E-03,   14.3189E-03,            0.,NA,NA,"",   1.00100E+06,   1.00074E+06,   1.00074E+06
C:/temp/Job-3.odb,Step-1,Increment      1: Step Time =    1.000,"P-3-1",          3144,   16.0166E-03,   186.153E-03,            0.,NA,NA,"",   1.11983E+06,   1.15241E+06,   1.15241E+06
C:/temp/Job-3.odb,Step-1,Increment      1: Step Time =    1.000,"P-3-1",          3145,   21.3027E-03,   7.93869E-03,            0.,NA,NA,"",   1.10323E+06,   1.11023E+06,   1.11023E+06
C:/temp/Job-3.odb,Step-1,Increment      1: Step Time =    1.000,"P-3-1",          3146,   147.348E-03,   10.8441E-03,            0.,NA,NA,"",   994.363E+03,   993.179E+03,   993.179E+03
C:/temp/Job-3.odb,Step-1,Increment      1: Step Time =    1.000,"P-3-1",          3147,   89.5839E-03,   78.0591E-03,            0.,NA,NA,"",   1.29589E+06,   1.31991E+06,   1.31991E+06
C:/temp/Job-3.odb,Step-1,Increment      1: Step Time =    1.000,"P-3-1",          3148,   121.862E-03,   107.493E-03,            0.,NA,NA,"",   830.706E+03,   731.821E+03,   731.821E+03
C:/temp/Job-3.odb,Step-1,Increment      1: Step Time =    1.000,"P-3-1",          3149,   33.6215E-03,   189.009E-03,            0.,NA,NA,"",   1.04924E+06,   1.05429E+06,   1.05429E+06
C:/temp/Job-3.odb,Step-1,Increment      1: Step Time =    1.000,"P-3-1",          3150,   186.742E-03,   183.321E-03,            0.,NA,NA,"",   1.00083E+06,   1.00072E+06,   1.00072E+06
C:/temp/Job-3.odb,Step-1,Increment      1: Step Time =    1.000,"P-3-1",          3151,   186.468E-03,   115.626E-03,            0.,NA,NA,"",   975.290E+03,   995.252E+03,   995.252E+03
C:/temp/Job-3.odb,Step-1,Increment      1: Step Time =    1.000,"P-3-1",          3152,   182.956E-03,   110.778E-03,            0.,NA,NA,"",   971.016E+03,   989.973E+03,   989.973E+03
C:/temp/Job-3.odb,Step-1,Increment      1: Step Time =    1.000,"P-3-1",          3153,   185.315E-03,   102.116E-03,            0.,NA,NA,"",   968.292E+03,   990.908E+03,   990.908E+03
C:/temp/Job-3.odb,Step-1,Increment      1: Step Time =    1.000,"P-3-1",          3154,   11.2401E-03,   146.101E-03,            0.,NA,NA,"",   879.333E+03,   970.538E+03,   970.538E+03
C:/temp/Job-3.odb,Step-1,Increment      1: Step Time =    1.000,"P-3-1",          3155,   9.96856E-03,   123.693E-03,            0.,NA,NA,"",   817.420E+03,   912.639E+03,   912.639E+03
C:/temp/Job-3.odb,Step-1,Increment      1: Step Time =    1.000,"P-3-1",          3156,   186.068E-03,   27.3475E-03,            0.,NA,NA,"",   1.00234E+06,   1.00240E+06,   1.00240E+06
C:/temp/Job-3.odb,Step-1,Increment      1: Step Time =    1.000,"P-3-1",          3157,   9.56901E-03,   46.6756E-03,            0.,NA,NA,"",   895.420E+03,   988.180E+03,   988.180E+03
C:/temp/Job-3.odb,Step-1,Increment      1: Step Time =    1.000,"P-3-1",          3158,   10.7074E-03,   49.3664E-03,            0.,NA,NA,"",   891.227E+03,   982.529E+03,   982.529E+03
C:/temp/Job-3.odb,Step-1,Increment      1: Step Time =    1.000,"P-3-1",          3159,   13.0875E-03,   31.5935E-03,            0.,NA,NA,"",   975.743E+03,   1.05348E+06,   1.05348E+06
C:/temp/Job-3.odb,Step-1,Increment      1: Step Time =    1.000,"P-3-1",          3160,   10.4149E-03,   17.9388E-03,            0.,NA,NA,"",   1.06748E+06,   1.13575E+06,   1.13575E+06
C:/temp/Job-3.odb,Step-1,Increment      1: Step Time =    1.000,"P-3-1",          3161,   54.2732E-03,   11.0539E-03,            0.,NA,NA,"",   1.00264E+06,   1.00317E+06,   1.00317E+06
C:/temp/Job-3.odb,Step-1,Increment      1: Step Time =    1.000,"P-3-1",          3162,   131.329E-03,   12.9912E-03,            0.,NA,NA,"",   986.552E+03,   985.952E+03,   985.952E+03
C:/temp/Job-3.odb,Step-1,Increment      1: Step Time =    1.000,"P-3-1",          3163,   76.2182E-03,   8.82972E-03,            0.,NA,NA,"",   965.529E+03,   966.167E+03,   966.167E+03
C:/temp/Job-3.odb,Step-1,Increment      1: Step Time =    1.000,"P-3-1",          3164,   187.038E-03,   49.7943E-03,            0.,NA,NA,"",   999.697E+03,   1.00388E+06,   1.00388E+06
C:/temp/Job-3.odb,Step-1,Increment      1: Step Time =    1.000,"P-3-1",          3165,   187.759E-03,   47.6983E-03,            0.,NA,NA,"",   999.871E+03,   1.00359E+06,   1.00359E+06
C:/temp/Job-3.odb,Step-1,Increment      1: Step Time =    1.000,"P-3-1",          3166,   111.205E-03,   127.317E-03,            0.,NA,NA,"",   1.21306E+06,   1.23828E+06,   1.23828E+06
C:/temp/Job-3.odb,Step-1,Increment      1: Step Time =    1.000,"P-3-1",          3167,   181.717E-03,   107.817E-03,            0.,NA,NA,"",   968.411E+03,   987.254E+03,   987.254E+03
C:/temp/Job-3.odb,Step-1,Increment      1: Step Time =    1.000,"P-3-1",          3168,   106.684E-03,   132.032E-03,            0.,NA,NA,"",   1.10170E+06,   1.16570E+06,   1.16570E+06
C:/temp/Job-3.odb,Step-1,Increment      1: Step Time =    1.000,"P-3-1",          3169,   146.620E-03,   13.5058E-03,            0.,NA,NA,"",   998.013E+03,   996.280E+03,   996.280E+03
C:/temp/Job-3.odb,Step-1,Increment      1: Step Time =    1.000,"P-3-1",          3170,   31.1133E-03,   184.199E-03,            0.,NA,NA,"",   1.06377E+06,   1.07562E+06,   1.07562E+06
C:/temp/Job-3.odb,Step-1,Increment      1: Step Time =    1.000,"P-3-1",          3171,   170.879E-03,   10.9249E-03,            0.,NA,NA,"",   1.00043E+06,   999.887E+03,   999.887E+03
C:/temp/Job-3.odb,Step-1,Increment      1: Step Time =    1.000,"P-3-1",          3172,   187.628E-03,   33.4473E-03,            0.,NA,NA,"",   1.00169E+06,   1.00253E+06,   1.00253E+06
C:/temp/Job-3.odb,Step-1,Increment      1: Step Time =    1.000,"P-3-1",          3173,   34.2484E-03,   184.312E-03,            0.,NA,NA,"",   1.05445E+06,   1.06352E+06,   1.06352E+06
C:/temp/Job-3.odb,Step-1,Increment      1: Step Time =    1.000,"P-3-1",          3174,   186.299E-03,   97.0845E-03,            0.,NA,NA,"",   968.325E+03,   991.571E+03,   991.571E+03
C:/temp/Job-3.odb,Step-1,Increment      1: Step Time =    1.000,"P-3-1",          3175,   186.140E-03,   135.903E-03,            0.,NA,NA,"",   992.915E+03,   1.00253E+06,   1.00253E+06
C:/temp/Job-3.odb,Step-1,Increment      1: Step Time =    1.000,"P-3-1",          3176,   181.828E-03,   166.141E-03,            0.,NA,NA,"",   1.00574E+06,   1.00544E+06,   1.00544E+06
C:/temp/Job-3.odb,Step-1,Increment      1: Step Time =    1.000,"P-3-1",          3177,   86.0276E-03,   75.8322E-03,            0.,NA,NA,"",   1.26468E+06,   1.26280E+06,   1.26280E+06
C:/temp/Job-3.odb,Step-1,Increment      1: Step Time =    1.000,"P-3-1",          3178,   17.0819E-03,   102.103E-03,            0.,NA,NA,"",   801.782E+03,   891.974E+03,   891.974E+03
C:/temp/Job-3.odb,Step-1,Increment      1: Step Time =    1.000,"P-3-1",          3179,   36.3194E-03,   187.439E-03,            0.,NA,NA,"",   1.04428E+06,   1.04985E+06,   1.04985E+06
C:/temp/Job-3.odb,Step-1,Increment      1: Step Time =    1.000,"P-3-1",          3180,   183.549E-03,   16.8799E-03,            0.,NA,NA,"",   1.00127E+06,   1.00104E+06,   1.00104E+06
C:/temp/Job-3.odb,Step-1,Increment      1: Step Time =    1.000,"P-3-1",          3181,   15.1935E-03,   28.9119E-03,            0.,NA,NA,"",   1.00114E+06,   1.06979E+06,   1.06979E+06
C:/temp/Job-3.odb,Step-1,Increment      1: Step Time =    1.000,"P-3-1",          3182,   181.840E-03,   27.2670E-03,            0.,NA,NA,"",   1.00434E+06,   1.00384E+06,   1.00384E+06
C:/temp/Job-3.odb,Step-1,Increment      1: Step Time =    1.000,"P-3-1",          3183,   102.364E-03,   132.403E-03,            0.,NA,NA,"",   1.06583E+06,   1.14720E+06,   1.14720E+06
C:/temp/Job-3.odb,Step-1,Increment      1: Step Time =    1.000,"P-3-1",          3184,   175.206E-03,   141.932E-03,            0.,NA,NA,"",   1.01040E+06,   1.01047E+06,   1.01047E+06
C:/temp/Job-3.odb,Step-1,Increment      1: Step Time =    1.000,"P-3-1",          3185,   178.781E-03,   136.018E-03,            0.,NA,NA,"",   1.00030E+06,   1.00504E+06,   1.00504E+06
C:/temp/Job-3.odb,Step-1,Increment      1: Step Time =    1.000,"P-3-1",          3186,   86.9150E-03,   13.9712E-03,            0.,NA,NA,"",   972.804E+03,   975.589E+03,   975.589E+03
C:/temp/Job-3.odb,Step-1,Increment      1: Step Time =    1.000,"P-3-1",          3187,   79.0886E-03,   11.4437E-03,            0.,NA,NA,"",   971.910E+03,   973.222E+03,   973.222E+03
C:/temp/Job-3.odb,Step-1,Increment      1: Step Time =    1.000,"P-3-1",          3188,   70.6432E-03,   12.9803E-03,            0.,NA,NA,"",   986.561E+03,   987.329E+03,   987.329E+03
C:/temp/Job-3.odb,Step-1,Increment      1: Step Time =    1.000,"P-3-1",          3189,   182.489E-03,   65.6424E-03,            0.,NA,NA,"",   995.254E+03,   1.00315E+06,   1.00315E+06
C:/temp/Job-3.odb,Step-1,Increment      1: Step Time =    1.000,"P-3-1",          3190,   179.198E-03,   69.6354E-03,            0.,NA,NA,"",   994.626E+03,   1.00171E+06,   1.00171E+06
C:/temp/Job-3.odb,Step-1,Increment      1: Step Time =    1.000,"P-3-1",          3191,   9.62898E-03,   179.710E-03,            0.,NA,NA,"",   1.04283E+06,   1.11841E+06,   1.11841E+06
C:/temp/Job-3.odb,Step-1,Increment      1: Step Time =    1.000,"P-3-1",          3192,   17.1570E-03,   182.877E-03,            0.,NA,NA,"",   1.08993E+06,   1.12948E+06,   1.12948E+06
C:/temp/Job-3.odb,Step-1,Increment      1: Step Time =    1.000,"P-3-1",          3193,   19.8780E-03,   183.571E-03,            0.,NA,NA,"",   1.09384E+06,   1.12319E+06,   1.12319E+06
C:/temp/Job-3.odb,Step-1,Increment      1: Step Time =    1.000,"P-3-1",          3194,   117.706E-03,   13.0107E-03,            0.,NA,NA,"",   974.447E+03,   975.710E+03,   975.710E+03
C:/temp/Job-3.odb,Step-1,Increment      1: Step Time =    1.000,"P-3-1",          3195,   98.5330E-03,   14.9924E-03,            0.,NA,NA,"",   970.785E+03,   974.754E+03,   974.754E+03
C:/temp/Job-3.odb,Step-1,Increment      1: Step Time =    1.000,"P-3-1",          3196,   11.0879E-03,   44.0485E-03,            0.,NA,NA,"",   911.930E+03,   1.00108E+06,   1.00108E+06
C:/temp/Job-3.odb,Step-1,Increment      1: Step Time =    1.000,"P-3-1",          3197,   60.5109E-03,   189.163E-03,            0.,NA,NA,"",   993.630E+03,   993.929E+03,   993.929E+03
C:/temp/Job-3.odb,Step-1,Increment      1: Step Time =    1.000,"P-3-1",          3198,   69.3685E-03,   187.449E-03,            0.,NA,NA,"",   986.707E+03,   987.346E+03,   987.346E+03
C:/temp/Job-3.odb,Step-1,Increment      1: Step Time =    1.000,"P-3-1",          3199,   123.656E-03,   191.103E-03,            0.,NA,NA,"",   969.389E+03,   969.612E+03,   969.612E+03
C:/temp/Job-3.odb,Step-1,Increment      1: Step Time =    1.000,"P-3-1",          3200,   144.513E-03,   189.073E-03,            0.,NA,NA,"",   992.944E+03,   991.767E+03,   991.767E+03
C:/temp/Job-3.odb,Step-1,Increment      1: Step Time =    1.000,"P-3-1",          3201,   161.087E-03,   189.568E-03,            0.,NA,NA,"",   999.119E+03,   998.232E+03,   998.232E+03
C:/temp/Job-3.odb,Step-1,Increment      1: Step Time =    1.000,"P-3-1",          3202,   167.485E-03,   189.688E-03,            0.,NA,NA,"",   999.915E+03,   999.303E+03,   999.303E+03
C:/temp/Job-3.odb,Step-1,Increment      1: Step Time =    1.000,"P-3-1",          3203,   178.609E-03,   109.061E-03,            0.,NA,NA,"",   967.649E+03,   983.989E+03,   983.989E+03
C:/temp/Job-3.odb,Step-1,Increment      1: Step Time =    1.000,"P-3-1",          3204,   186.400E-03,   118.028E-03,            0.,NA,NA,"",   976.996E+03,   995.993E+03,   995.993E+03
C:/temp/Job-3.odb,Step-1,Increment      1: Step Time =    1.000,"P-3-1",          3205,   178.589E-03,   150.044E-03,            0.,NA,NA,"",   1.00916E+06,   1.00951E+06,   1.00951E+06
C:/temp/Job-3.odb,Step-1,Increment      1: Step Time =    1.000,"P-3-1",          3206,   111.639E-03,   132.458E-03,            0.,NA,NA,"",   1.14834E+06,   1.17614E+06,   1.17614E+06
C:/temp/Job-3.odb,Step-1,Increment      1: Step Time =    1.000,"P-3-1",          3207,   106.572E-03,   136.823E-03,            0.,NA,NA,"",   1.06879E+06,   1.12369E+06,   1.12369E+06
C:/temp/Job-3.odb,Step-1,Increment      1: Step Time =    1.000,"P-3-1",          3208,   180.531E-03,   191.715E-03,            0.,NA,NA,"",   999.757E+03,   999.656E+03,   999.656E+03
C:/temp/Job-3.odb,Step-1,Increment      1: Step Time =    1.000,"P-3-1",          3209,   176.677E-03,   185.992E-03,            0.,NA,NA,"",   1.00149E+06,   1.00102E+06,   1.00102E+06
C:/temp/Job-3.odb,Step-1,Increment      1: Step Time =    1.000,"P-3-1",          3210,   132.459E-03,   102.008E-03,            0.,NA,NA,"",   689.415E+03,   702.964E+03,   702.964E+03
C:/temp/Job-3.odb,Step-1,Increment      1: Step Time =    1.000,"P-3-1",          3211,   68.3912E-03,   75.9180E-03,            0.,NA,NA,"",   1.09152E+06,   1.06671E+06,   1.06671E+06
C:/temp/Job-3.odb,Step-1,Increment      1: Step Time =    1.000,"P-3-1",          3212,   16.6715E-03,   106.417E-03,            0.,NA,NA,"",   803.580E+03,   893.935E+03,   893.935E+03
C:/temp/Job-3.odb,Step-1,Increment      1: Step Time =    1.000,"P-3-1",          3213,   182.196E-03,   159.324E-03,            0.,NA,NA,"",   1.00588E+06,   1.00641E+06,   1.00641E+06
C:/temp/Job-3.odb,Step-1,Increment      1: Step Time =    1.000,"P-3-1",          3214,   54.8978E-03,   187.375E-03,            0.,NA,NA,"",   1.00705E+06,   1.00777E+06,   1.00777E+06
C:/temp/Job-3.odb,Step-1,Increment      1: Step Time =    1.000,"P-3-1",          3215,   98.8010E-03,   63.5699E-03,            0.,NA,NA,"",   1.04731E+06,   1.11583E+06,   1.11583E+06
C:/temp/Job-3.odb,Step-1,Increment      1: Step Time =    1.000,"P-3-1",          3216,   91.1217E-03,   59.3790E-03,            0.,NA,NA,"",   1.06502E+06,   1.10798E+06,   1.10798E+06
C:/temp/Job-3.odb,Step-1,Increment      1: Step Time =    1.000,"P-3-1",          3217,   104.024E-03,   64.2311E-03,            0.,NA,NA,"",   1.06131E+06,   1.12601E+06,   1.12601E+06
C:/temp/Job-3.odb,Step-1,Increment      1: Step Time =    1.000,"P-3-1",          3218,   115.866E-03,   71.8673E-03,            0.,NA,NA,"",   1.22257E+06,   1.21024E+06,   1.21024E+06
C:/temp/Job-3.odb,Step-1,Increment      1: Step Time =    1.000,"P-3-1",          3219,   118.948E-03,   72.4792E-03,            0.,NA,NA,"",   1.23005E+06,   1.19625E+06,   1.19625E+06
C:/temp/Job-3.odb,Step-1,Increment      1: Step Time =    1.000,"P-3-1",          3220,   16.6785E-03,   56.7891E-03,            0.,NA,NA,"",   890.866E+03,   973.716E+03,   973.716E+03
C:/temp/Job-3.odb,Step-1,Increment      1: Step Time =    1.000,"P-3-1",          3221,   129.872E-03,   105.638E-03,            0.,NA,NA,"",   729.443E+03,   720.769E+03,   720.769E+03
C:/temp/Job-3.odb,Step-1,Increment      1: Step Time =    1.000,"P-3-1",          3222,   61.1159E-03,   186.652E-03,            0.,NA,NA,"",   1.00085E+06,   1.00129E+06,   1.00129E+06
C:/temp/Job-3.odb,Step-1,Increment      1: Step Time =    1.000,"P-3-1",          3223,   72.0100E-03,   185.973E-03,            0.,NA,NA,"",   987.785E+03,   988.756E+03,   988.756E+03
C:/temp/Job-3.odb,Step-1,Increment      1: Step Time =    1.000,"P-3-1",          3224,   175.613E-03,   29.1090E-03,            0.,NA,NA,"",   1.00858E+06,   1.00694E+06,   1.00694E+06
C:/temp/Job-3.odb,Step-1,Increment      1: Step Time =    1.000,"P-3-1",          3225,   175.631E-03,   26.7170E-03,            0.,NA,NA,"",   1.00738E+06,   1.00590E+06,   1.00590E+06
C:/temp/Job-3.odb,Step-1,Increment      1: Step Time =    1.000,"P-3-1",          3226,   38.5340E-03,   15.1455E-03,            0.,NA,NA,"",   1.04515E+06,   1.05129E+06,   1.05129E+06
C:/temp/Job-3.odb,Step-1,Increment      1: Step Time =    1.000,"P-3-1",          3227,   14.6637E-03,   90.2615E-03,            0.,NA,NA,"",   803.509E+03,   895.394E+03,   895.394E+03
C:/temp/Job-3.odb,Step-1,Increment      1: Step Time =    1.000,"P-3-1",          3228,   87.4249E-03,   73.1454E-03,            0.,NA,NA,"",   1.21862E+06,   1.23803E+06,   1.23803E+06
C:/temp/Job-3.odb,Step-1,Increment      1: Step Time =    1.000,"P-3-1",          3229,   71.2425E-03,   113.261E-03,            0.,NA,NA,"",   949.760E+03,   922.695E+03,   922.695E+03
C:/temp/Job-3.odb,Step-1,Increment      1: Step Time =    1.000,"P-3-1",          3230,   21.8543E-03,   102.768E-03,            0.,NA,NA,"",   809.207E+03,   894.963E+03,   894.963E+03
C:/temp/Job-3.odb,Step-1,Increment      1: Step Time =    1.000,"P-3-1",          3231,   12.8695E-03,   40.9465E-03,            0.,NA,NA,"",   930.937E+03,   1.01491E+06,   1.01491E+06
C:/temp/Job-3.odb,Step-1,Increment      1: Step Time =    1.000,"P-3-1",          3232,   13.4908E-03,   23.5373E-03,            0.,NA,NA,"",   1.03287E+06,   1.09969E+06,   1.09969E+06
C:/temp/Job-3.odb,Step-1,Increment      1: Step Time =    1.000,"P-3-1",          3233,   12.0480E-03,   79.8383E-03,            0.,NA,NA,"",   814.941E+03,   908.377E+03,   908.377E+03
C:/temp/Job-3.odb,Step-1,Increment      1: Step Time =    1.000,"P-3-1",          3234,   182.221E-03,   56.2022E-03,            0.,NA,NA,"",   1.00213E+06,   1.00614E+06,   1.00614E+06
C:/temp/Job-3.odb,Step-1,Increment      1: Step Time =    1.000,"P-3-1",          3235,   179.049E-03,   74.1387E-03,            0.,NA,NA,"",   989.115E+03,   998.267E+03,   998.267E+03
C:/temp/Job-3.odb,Step-1,Increment      1: Step Time =    1.000,"P-3-1",          3236,   122.794E-03,   16.2780E-03,            0.,NA,NA,"",   986.606E+03,   987.451E+03,   987.451E+03
C:/temp/Job-3.odb,Step-1,Increment      1: Step Time =    1.000,"P-3-1",          3237,   117.293E-03,   16.1561E-03,            0.,NA,NA,"",   981.891E+03,   983.832E+03,   983.832E+03
C:/temp/Job-3.odb,Step-1,Increment      1: Step Time =    1.000,"P-3-1",          3238,   176.696E-03,   63.1203E-03,            0.,NA,NA,"",   1.00451E+06,   1.00712E+06,   1.00712E+06
C:/temp/Job-3.odb,Step-1,Increment      1: Step Time =    1.000,"P-3-1",          3239,   21.2887E-03,   11.2085E-03,            0.,NA,NA,"",   1.10549E+06,   1.12043E+06,   1.12043E+06
C:/temp/Job-3.odb,Step-1,Increment      1: Step Time =    1.000,"P-3-1",          3240,   93.1547E-03,   19.0768E-03,            0.,NA,NA,"",   982.621E+03,   987.995E+03,   987.995E+03
C:/temp/Job-3.odb,Step-1,Increment      1: Step Time =    1.000,"P-3-1",          3241,   184.271E-03,   130.164E-03,            0.,NA,NA,"",   989.420E+03,   1.00063E+06,   1.00063E+06
C:/temp/Job-3.odb,Step-1,Increment      1: Step Time =    1.000,"P-3-1",          3242,   21.2296E-03,   106.961E-03,            0.,NA,NA,"",   811.582E+03,   897.515E+03,   897.515E+03
C:/temp/Job-3.odb,Step-1,Increment      1: Step Time =    1.000,"P-3-1",          3243,   174.388E-03,   42.5426E-03,            0.,NA,NA,"",   1.01474E+06,   1.01232E+06,   1.01232E+06
C:/temp/Job-3.odb,Step-1,Increment      1: Step Time =    1.000,"P-3-1",          3244,   171.899E-03,   40.8663E-03,            0.,NA,NA,"",   1.01766E+06,   1.01411E+06,   1.01411E+06
C:/temp/Job-3.odb,Step-1,Increment      1: Step Time =    1.000,"P-3-1",          3245,   68.1540E-03,   88.6138E-03,            0.,NA,NA,"",   866.132E+03,   865.922E+03,   865.922E+03
C:/temp/Job-3.odb,Step-1,Increment      1: Step Time =    1.000,"P-3-1",          3246,   64.5370E-03,   76.4445E-03,            0.,NA,NA,"",   1.04094E+06,   1.03066E+06,   1.03066E+06
C:/temp/Job-3.odb,Step-1,Increment      1: Step Time =    1.000,"P-3-1",          3247,   119.037E-03,   70.2479E-03,            0.,NA,NA,"",   1.20812E+06,   1.18336E+06,   1.18336E+06
C:/temp/Job-3.odb,Step-1,Increment      1: Step Time =    1.000,"P-3-1",          3248,   121.088E-03,   69.1197E-03,            0.,NA,NA,"",   1.20087E+06,   1.17158E+06,   1.17158E+06
C:/temp/Job-3.odb,Step-1,Increment      1: Step Time =    1.000,"P-3-1",          3249,   123.795E-03,   67.4226E-03,            0.,NA,NA,"",   1.18227E+06,   1.14921E+06,   1.14921E+06
C:/temp/Job-3.odb,Step-1,Increment      1: Step Time =    1.000,"P-3-1",          3250,   56.5089E-03,   183.085E-03,            0.,NA,NA,"",   1.01791E+06,   1.01935E+06,   1.01935E+06
C:/temp/Job-3.odb,Step-1,Increment      1: Step Time =    1.000,"P-3-1",          3251,   175.770E-03,   110.385E-03,            0.,NA,NA,"",   967.132E+03,   981.263E+03,   981.263E+03
C:/temp/Job-3.odb,Step-1,Increment      1: Step Time =    1.000,"P-3-1",          3252,   170.069E-03,   37.1802E-03,            0.,NA,NA,"",   1.01813E+06,   1.01411E+06,   1.01411E+06
C:/temp/Job-3.odb,Step-1,Increment      1: Step Time =    1.000,"P-3-1",          3253,   113.092E-03,   186.651E-03,            0.,NA,NA,"",   971.984E+03,   974.034E+03,   974.034E+03
C:/temp/Job-3.odb,Step-1,Increment      1: Step Time =    1.000,"P-3-1",          3254,   120.724E-03,   188.308E-03,            0.,NA,NA,"",   973.819E+03,   974.522E+03,   974.522E+03
C:/temp/Job-3.odb,Step-1,Increment      1: Step Time =    1.000,"P-3-1",          3255,   129.225E-03,   187.151E-03,            0.,NA,NA,"",   984.525E+03,   984.177E+03,   984.177E+03
C:/temp/Job-3.odb,Step-1,Increment      1: Step Time =    1.000,"P-3-1",          3256,   87.9253E-03,   187.113E-03,            0.,NA,NA,"",   968.725E+03,   971.157E+03,   971.157E+03
C:/temp/Job-3.odb,Step-1,Increment      1: Step Time =    1.000,"P-3-1",          3257,   90.9753E-03,   186.777E-03,            0.,NA,NA,"",   967.966E+03,   970.767E+03,   970.767E+03
C:/temp/Job-3.odb,Step-1,Increment      1: Step Time =    1.000,"P-3-1",          3258,   100.412E-03,   184.233E-03,            0.,NA,NA,"",   972.484E+03,   976.719E+03,   976.719E+03
C:/temp/Job-3.odb,Step-1,Increment      1: Step Time =    1.000,"P-3-1",          3259,   23.8190E-03,   12.8171E-03,            0.,NA,NA,"",   1.09035E+06,   1.10593E+06,   1.10593E+06
C:/temp/Job-3.odb,Step-1,Increment      1: Step Time =    1.000,"P-3-1",          3260,   20.4963E-03,   93.5940E-03,            0.,NA,NA,"",   809.440E+03,   896.214E+03,   896.214E+03
C:/temp/Job-3.odb,Step-1,Increment      1: Step Time =    1.000,"P-3-1",          3261,   23.2644E-03,   98.6370E-03,            0.,NA,NA,"",   810.197E+03,   894.654E+03,   894.654E+03
C:/temp/Job-3.odb,Step-1,Increment      1: Step Time =    1.000,"P-3-1",          3262,   156.546E-03,   184.430E-03,            0.,NA,NA,"",   1.00393E+06,   1.00185E+06,   1.00185E+06
C:/temp/Job-3.odb,Step-1,Increment      1: Step Time =    1.000,"P-3-1",          3263,   17.4397E-03,   133.064E-03,            0.,NA,NA,"",   862.780E+03,   947.456E+03,   947.456E+03
C:/temp/Job-3.odb,Step-1,Increment      1: Step Time =    1.000,"P-3-1",          3264,   18.5268E-03,   58.3695E-03,            0.,NA,NA,"",   892.580E+03,   972.920E+03,   972.920E+03
C:/temp/Job-3.odb,Step-1,Increment      1: Step Time =    1.000,"P-3-1",          3265,   179.295E-03,   155.261E-03,            0.,NA,NA,"",   1.00905E+06,   1.00891E+06,   1.00891E+06
C:/temp/Job-3.odb,Step-1,Increment      1: Step Time =    1.000,"P-3-1",          3266,   74.4802E-03,   14.8395E-03,            0.,NA,NA,"",   988.275E+03,   989.755E+03,   989.755E+03
C:/temp/Job-3.odb,Step-1,Increment      1: Step Time =    1.000,"P-3-1",          3267,   78.8311E-03,   13.5853E-03,            0.,NA,NA,"",   979.191E+03,   980.864E+03,   980.864E+03
C:/temp/Job-3.odb,Step-1,Increment      1: Step Time =    1.000,"P-3-1",          3268,   82.8909E-03,   16.0397E-03,            0.,NA,NA,"",   982.427E+03,   985.340E+03,   985.340E+03
C:/temp/Job-3.odb,Step-1,Increment      1: Step Time =    1.000,"P-3-1",          3269,   19.4042E-03,   151.545E-03,            0.,NA,NA,"",   931.304E+03,   1.00510E+06,   1.00510E+06
C:/temp/Job-3.odb,Step-1,Increment      1: Step Time =    1.000,"P-3-1",          3270,   49.7113E-03,   19.4841E-03,            0.,NA,NA,"",   1.03384E+06,   1.03754E+06,   1.03754E+06
C:/temp/Job-3.odb,Step-1,Increment      1: Step Time =    1.000,"P-3-1",          3271,   135.724E-03,   101.838E-03,            0.,NA,NA,"",   742.290E+03,   756.106E+03,   756.106E+03
C:/temp/Job-3.odb,Step-1,Increment      1: Step Time =    1.000,"P-3-1",          3272,   128.773E-03,   68.1251E-03,            0.,NA,NA,"",   1.16497E+06,   1.12189E+06,   1.12189E+06
C:/temp/Job-3.odb,Step-1,Increment      1: Step Time =    1.000,"P-3-1",          3273,   134.866E-03,   88.1286E-03,            0.,NA,NA,"",   923.403E+03,   897.878E+03,   897.878E+03
C:/temp/Job-3.odb,Step-1,Increment      1: Step Time =    1.000,"P-3-1",          3274,   141.376E-03,   185.853E-03,            0.,NA,NA,"",   996.876E+03,   995.157E+03,   995.157E+03
C:/temp/Job-3.odb,Step-1,Increment      1: Step Time =    1.000,"P-3-1",          3275,   170.729E-03,   152.110E-03,            0.,NA,NA,"",   1.02080E+06,   1.01658E+06,   1.01658E+06
C:/temp/Job-3.odb,Step-1,Increment      1: Step Time =    1.000,"P-3-1",          3276,   174.102E-03,   69.5476E-03,            0.,NA,NA,"",   999.831E+03,   1.00303E+06,   1.00303E+06
C:/temp/Job-3.odb,Step-1,Increment      1: Step Time =    1.000,"P-3-1",          3277,   16.9829E-03,   25.3897E-03,            0.,NA,NA,"",   1.02899E+06,   1.08721E+06,   1.08721E+06
C:/temp/Job-3.odb,Step-1,Increment      1: Step Time =    1.000,"P-3-1",          3278,   16.9986E-03,   41.4050E-03,            0.,NA,NA,"",   947.595E+03,   1.02259E+06,   1.02259E+06
C:/temp/Job-3.odb,Step-1,Increment      1: Step Time =    1.000,"P-3-1",          3279,   17.1604E-03,   127.623E-03,            0.,NA,NA,"",   846.455E+03,   933.042E+03,   933.042E+03
C:/temp/Job-3.odb,Step-1,Increment      1: Step Time =    1.000,"P-3-1",          3280,   35.9242E-03,   178.750E-03,            0.,NA,NA,"",   1.05329E+06,   1.06695E+06,   1.06695E+06
C:/temp/Job-3.odb,Step-1,Increment      1: Step Time =    1.000,"P-3-1",          3281,   27.8119E-03,   174.724E-03,            0.,NA,NA,"",   1.04854E+06,   1.07948E+06,   1.07948E+06
C:/temp/Job-3.odb,Step-1,Increment      1: Step Time =    1.000,"P-3-1",          3282,   85.2118E-03,   66.5412E-03,            0.,NA,NA,"",   1.15126E+06,   1.16863E+06,   1.16863E+06
C:/temp/Job-3.odb,Step-1,Increment      1: Step Time =    1.000,"P-3-1",          3283,   105.414E-03,   141.561E-03,            0.,NA,NA,"",   1.04426E+06,   1.09345E+06,   1.09345E+06
C:/temp/Job-3.odb,Step-1,Increment      1: Step Time =    1.000,"P-3-1",          3284,   128.966E-03,   119.791E-03,            0.,NA,NA,"",   1.13189E+06,   1.06402E+06,   1.06402E+06
C:/temp/Job-3.odb,Step-1,Increment      1: Step Time =    1.000,"P-3-1",          3285,   67.0330E-03,   123.912E-03,            0.,NA,NA,"",   1.07468E+06,   1.05473E+06,   1.05473E+06
C:/temp/Job-3.odb,Step-1,Increment      1: Step Time =    1.000,"P-3-1",          3286,   74.1328E-03,   70.5872E-03,            0.,NA,NA,"",   1.16040E+06,   1.13601E+06,   1.13601E+06
C:/temp/Job-3.odb,Step-1,Increment      1: Step Time =    1.000,"P-3-1",          3287,   180.309E-03,   53.4973E-03,            0.,NA,NA,"",   1.00593E+06,   1.00793E+06,   1.00793E+06
C:/temp/Job-3.odb,Step-1,Increment      1: Step Time =    1.000,"P-3-1",          3288,   16.7891E-03,   176.484E-03,            0.,NA,NA,"",   1.04132E+06,   1.09681E+06,   1.09681E+06
C:/temp/Job-3.odb,Step-1,Increment      1: Step Time =    1.000,"P-3-1",          3289,   176.431E-03,   117.844E-03,            0.,NA,NA,"",   977.916E+03,   989.163E+03,   989.163E+03
C:/temp/Job-3.odb,Step-1,Increment      1: Step Time =    1.000,"P-3-1",          3290,   21.0655E-03,   70.0134E-03,            0.,NA,NA,"",   864.919E+03,   945.315E+03,   945.315E+03
C:/temp/Job-3.odb,Step-1,Increment      1: Step Time =    1.000,"P-3-1",          3291,   64.4338E-03,   91.4581E-03,            0.,NA,NA,"",   805.076E+03,   827.881E+03,   827.881E+03
C:/temp/Job-3.odb,Step-1,Increment      1: Step Time =    1.000,"P-3-1",          3292,   174.749E-03,   73.3115E-03,            0.,NA,NA,"",   993.363E+03,   998.906E+03,   998.906E+03
C:/temp/Job-3.odb,Step-1,Increment      1: Step Time =    1.000,"P-3-1",          3293,   154.198E-03,   182.622E-03,            0.,NA,NA,"",   1.00584E+06,   1.00326E+06,   1.00326E+06
C:/temp/Job-3.odb,Step-1,Increment      1: Step Time =    1.000,"P-3-1",          3294,   109.646E-03,   183.310E-03,            0.,NA,NA,"",   977.522E+03,   981.019E+03,   981.019E+03
C:/temp/Job-3.odb,Step-1,Increment      1: Step Time =    1.000,"P-3-1",          3295,   19.6293E-03,   159.188E-03,            0.,NA,NA,"",   961.334E+03,   1.03002E+06,   1.03002E+06
C:/temp/Job-3.odb,Step-1,Increment      1: Step Time =    1.000,"P-3-1",          3296,   180.783E-03,   87.8144E-03,            0.,NA,NA,"",   971.705E+03,   988.421E+03,   988.421E+03
C:/temp/Job-3.odb,Step-1,Increment      1: Step Time =    1.000,"P-3-1",          3297,   151.012E-03,   183.457E-03,            0.,NA,NA,"",   1.00415E+06,   1.00168E+06,   1.00168E+06
C:/temp/Job-3.odb,Step-1,Increment      1: Step Time =    1.000,"P-3-1",          3298,   38.1537E-03,   19.6660E-03,            0.,NA,NA,"",   1.04989E+06,   1.06040E+06,   1.06040E+06
C:/temp/Job-3.odb,Step-1,Increment      1: Step Time =    1.000,"P-3-1",          3299,   119.642E-03,   19.0479E-03,            0.,NA,NA,"",   990.416E+03,   992.422E+03,   992.422E+03
C:/temp/Job-3.odb,Step-1,Increment      1: Step Time =    1.000,"P-3-1",          3300,   16.3754E-03,   118.960E-03,            0.,NA,NA,"",   822.677E+03,   912.019E+03,   912.019E+03
C:/temp/Job-3.odb,Step-1,Increment      1: Step Time =    1.000,"P-3-1",          3301,   35.7232E-03,   21.6295E-03,            0.,NA,NA,"",   1.05225E+06,   1.06697E+06,   1.06697E+06
C:/temp/Job-3.odb,Step-1,Increment      1: Step Time =    1.000,"P-3-1",          3302,   101.296E-03,   140.273E-03,            0.,NA,NA,"",   1.03550E+06,   1.09405E+06,   1.09405E+06
C:/temp/Job-3.odb,Step-1,Increment      1: Step Time =    1.000,"P-3-1",          3303,   85.6729E-03,   54.5487E-03,            0.,NA,NA,"",   1.07182E+06,   1.09642E+06,   1.09642E+06
C:/temp/Job-3.odb,Step-1,Increment      1: Step Time =    1.000,"P-3-1",          3304,   90.8641E-03,   18.9555E-03,            0.,NA,NA,"",   983.577E+03,   988.688E+03,   988.688E+03
C:/temp/Job-3.odb,Step-1,Increment      1: Step Time =    1.000,"P-3-1",          3305,   17.0500E-03,   86.3301E-03,            0.,NA,NA,"",   813.850E+03,   903.136E+03,   903.136E+03
C:/temp/Job-3.odb,Step-1,Increment      1: Step Time =    1.000,"P-3-1",          3306,   176.129E-03,   123.663E-03,            0.,NA,NA,"",   987.105E+03,   995.399E+03,   995.399E+03
C:/temp/Job-3.odb,Step-1,Increment      1: Step Time =    1.000,"P-3-1",          3307,   172.364E-03,   105.641E-03,            0.,NA,NA,"",   957.958E+03,   971.667E+03,   971.667E+03
C:/temp/Job-3.odb,Step-1,Increment      1: Step Time =    1.000,"P-3-1",          3308,   82.7481E-03,   136.391E-03,            0.,NA,NA,"",   1.13340E+06,   1.14508E+06,   1.14508E+06
C:/temp/Job-3.odb,Step-1,Increment      1: Step Time =    1.000,"P-3-1",          3309,   79.5165E-03,   184.051E-03,            0.,NA,NA,"",   985.527E+03,   988.012E+03,   988.012E+03
C:/temp/Job-3.odb,Step-1,Increment      1: Step Time =    1.000,"P-3-1",          3310,   87.7515E-03,   183.890E-03,            0.,NA,NA,"",   978.422E+03,   982.022E+03,   982.022E+03
C:/temp/Job-3.odb,Step-1,Increment      1: Step Time =    1.000,"P-3-1",          3311,   64.9763E-03,   87.6234E-03,            0.,NA,NA,"",   875.234E+03,   884.908E+03,   884.908E+03
C:/temp/Job-3.odb,Step-1,Increment      1: Step Time =    1.000,"P-3-1",          3312,   20.6355E-03,   133.806E-03,            0.,NA,NA,"",   876.467E+03,   955.819E+03,   955.819E+03
C:/temp/Job-3.odb,Step-1,Increment      1: Step Time =    1.000,"P-3-1",          3313,   21.8700E-03,   136.201E-03,            0.,NA,NA,"",   887.528E+03,   964.578E+03,   964.578E+03
C:/temp/Job-3.odb,Step-1,Increment      1: Step Time =    1.000,"P-3-1",          3314,   161.580E-03,   19.9228E-03,            0.,NA,NA,"",   1.00816E+06,   1.00555E+06,   1.00555E+06
C:/temp/Job-3.odb,Step-1,Increment      1: Step Time =    1.000,"P-3-1",          3315,   23.9141E-03,   63.8924E-03,            0.,NA,NA,"",   894.831E+03,   968.277E+03,   968.277E+03
C:/temp/Job-3.odb,Step-1,Increment      1: Step Time =    1.000,"P-3-1",          3316,   176.319E-03,   159.354E-03,            0.,NA,NA,"",   1.01226E+06,   1.01054E+06,   1.01054E+06
C:/temp/Job-3.odb,Step-1,Increment      1: Step Time =    1.000,"P-3-1",          3317,   155.198E-03,   21.8138E-03,            0.,NA,NA,"",   1.01208E+06,   1.00837E+06,   1.00837E+06
C:/temp/Job-3.odb,Step-1,Increment      1: Step Time =    1.000,"P-3-1",          3318,   106.086E-03,   179.532E-03,            0.,NA,NA,"",   984.449E+03,   990.193E+03,   990.193E+03
C:/temp/Job-3.odb,Step-1,Increment      1: Step Time =    1.000,"P-3-1",          3319,   95.8409E-03,   20.8965E-03,            0.,NA,NA,"",   985.510E+03,   992.117E+03,   992.117E+03
C:/temp/Job-3.odb,Step-1,Increment      1: Step Time =    1.000,"P-3-1",          3320,   20.1384E-03,   19.9981E-03,            0.,NA,NA,"",   1.07143E+06,   1.10930E+06,   1.10930E+06
C:/temp/Job-3.odb,Step-1,Increment      1: Step Time =    1.000,"P-3-1",          3321,   20.1338E-03,   27.3765E-03,            0.,NA,NA,"",   1.02740E+06,   1.07996E+06,   1.07996E+06
C:/temp/Job-3.odb,Step-1,Increment      1: Step Time =    1.000,"P-3-1",          3322,   23.5792E-03,   30.7223E-03,            0.,NA,NA,"",   1.02011E+06,   1.06863E+06,   1.06863E+06
C:/temp/Job-3.odb,Step-1,Increment      1: Step Time =    1.000,"P-3-1",          3323,   169.070E-03,   96.4450E-03,            0.,NA,NA,"",   950.512E+03,   963.381E+03,   963.381E+03
C:/temp/Job-3.odb,Step-1,Increment      1: Step Time =    1.000,"P-3-1",          3324,   177.907E-03,   51.6771E-03,            0.,NA,NA,"",   1.00967E+06,   1.00996E+06,   1.00996E+06
C:/temp/Job-3.odb,Step-1,Increment      1: Step Time =    1.000,"P-3-1",          3325,   131.001E-03,   24.6935E-03,            0.,NA,NA,"",   1.01339E+06,   1.01155E+06,   1.01155E+06
C:/temp/Job-3.odb,Step-1,Increment      1: Step Time =    1.000,"P-3-1",          3326,   122.122E-03,   64.9041E-03,            0.,NA,NA,"",   1.16259E+06,   1.14272E+06,   1.14272E+06
C:/temp/Job-3.odb,Step-1,Increment      1: Step Time =    1.000,"P-3-1",          3327,   125.064E-03,   62.7645E-03,            0.,NA,NA,"",   1.14896E+06,   1.12559E+06,   1.12559E+06
C:/temp/Job-3.odb,Step-1,Increment      1: Step Time =    1.000,"P-3-1",          3328,   124.997E-03,   22.4666E-03,            0.,NA,NA,"",   1.00336E+06,   1.00381E+06,   1.00381E+06
C:/temp/Job-3.odb,Step-1,Increment      1: Step Time =    1.000,"P-3-1",          3329,   125.872E-03,   26.8597E-03,            0.,NA,NA,"",   1.01459E+06,   1.01467E+06,   1.01467E+06
C:/temp/Job-3.odb,Step-1,Increment      1: Step Time =    1.000,"P-3-1",          3330,   25.2492E-03,   94.5735E-03,            0.,NA,NA,"",   815.029E+03,   897.129E+03,   897.129E+03
C:/temp/Job-3.odb,Step-1,Increment      1: Step Time =    1.000,"P-3-1",          3331,   29.0047E-03,   102.316E-03,            0.,NA,NA,"",   816.935E+03,   895.434E+03,   895.434E+03
C:/temp/Job-3.odb,Step-1,Increment      1: Step Time =    1.000,"P-3-1",          3332,   24.1708E-03,   152.416E-03,            0.,NA,NA,"",   953.164E+03,   1.01691E+06,   1.01691E+06
C:/temp/Job-3.odb,Step-1,Increment      1: Step Time =    1.000,"P-3-1",          3333,   125.603E-03,   185.136E-03,            0.,NA,NA,"",   986.070E+03,   986.310E+03,   986.310E+03
C:/temp/Job-3.odb,Step-1,Increment      1: Step Time =    1.000,"P-3-1",          3334,   121.015E-03,   185.990E-03,            0.,NA,NA,"",   979.716E+03,   980.527E+03,   980.527E+03
C:/temp/Job-3.odb,Step-1,Increment      1: Step Time =    1.000,"P-3-1",          3335,   116.123E-03,   184.619E-03,            0.,NA,NA,"",   978.870E+03,   981.001E+03,   981.001E+03
C:/temp/Job-3.odb,Step-1,Increment      1: Step Time =    1.000,"P-3-1",          3336,   171.042E-03,   165.336E-03,            0.,NA,NA,"",   1.01540E+06,   1.01208E+06,   1.01208E+06
C:/temp/Job-3.odb,Step-1,Increment      1: Step Time =    1.000,"P-3-1",          3337,   171.497E-03,   109.829E-03,            0.,NA,NA,"",   961.703E+03,   973.660E+03,   973.660E+03
C:/temp/Job-3.odb,Step-1,Increment      1: Step Time =    1.000,"P-3-1",          3338,   168.859E-03,   139.368E-03,            0.,NA,NA,"",   1.01860E+06,   1.01456E+06,   1.01456E+06
C:/temp/Job-3.odb,Step-1,Increment      1: Step Time =    1.000,"P-3-1",          3339,   172.939E-03,   123.391E-03,            0.,NA,NA,"",   987.672E+03,   993.900E+03,   993.900E+03
C:/temp/Job-3.odb,Step-1,Increment      1: Step Time =    1.000,"P-3-1",          3340,   22.8687E-03,   71.2574E-03,            0.,NA,NA,"",   867.013E+03,   945.219E+03,   945.219E+03
C:/temp/Job-3.odb,Step-1,Increment      1: Step Time =    1.000,"P-3-1",          3341,   50.6384E-03,   23.3747E-03,            0.,NA,NA,"",   1.03891E+06,   1.04391E+06,   1.04391E+06
C:/temp/Job-3.odb,Step-1,Increment      1: Step Time =    1.000,"P-3-1",          3342,   143.503E-03,   182.728E-03,            0.,NA,NA,"",   1.00341E+06,   1.00089E+06,   1.00089E+06
C:/temp/Job-3.odb,Step-1,Increment      1: Step Time =    1.000,"P-3-1",          3343,   33.9637E-03,   175.714E-03,            0.,NA,NA,"",   1.05092E+06,   1.07108E+06,   1.07108E+06
C:/temp/Job-3.odb,Step-1,Increment      1: Step Time =    1.000,"P-3-1",          3344,   36.3955E-03,   176.030E-03,            0.,NA,NA,"",   1.05065E+06,   1.06701E+06,   1.06701E+06
C:/temp/Job-3.odb,Step-1,Increment      1: Step Time =    1.000,"P-3-1",          3345,   51.0964E-03,   170.550E-03,            0.,NA,NA,"",   1.04558E+06,   1.05301E+06,   1.05301E+06
C:/temp/Job-3.odb,Step-1,Increment      1: Step Time =    1.000,"P-3-1",          3346,   97.7095E-03,   139.589E-03,            0.,NA,NA,"",   1.04098E+06,   1.09939E+06,   1.09939E+06
C:/temp/Job-3.odb,Step-1,Increment      1: Step Time =    1.000,"P-3-1",          3347,   138.993E-03,   102.028E-03,            0.,NA,NA,"",   788.641E+03,   801.188E+03,   801.188E+03
C:/temp/Job-3.odb,Step-1,Increment      1: Step Time =    1.000,"P-3-1",          3348,   139.551E-03,   91.6498E-03,            0.,NA,NA,"",   859.897E+03,   858.235E+03,   858.235E+03
C:/temp/Job-3.odb,Step-1,Increment      1: Step Time =    1.000,"P-3-1",          3349,   88.8821E-03,   52.0174E-03,            0.,NA,NA,"",   1.05031E+06,   1.08037E+06,   1.08037E+06
C:/temp/Job-3.odb,Step-1,Increment      1: Step Time =    1.000,"P-3-1",          3350,   101.898E-03,   52.4837E-03,            0.,NA,NA,"",   1.02760E+06,   1.06828E+06,   1.06828E+06
C:/temp/Job-3.odb,Step-1,Increment      1: Step Time =    1.000,"P-3-1",          3351,   155.693E-03,   180.192E-03,            0.,NA,NA,"",   1.00965E+06,   1.00643E+06,   1.00643E+06
C:/temp/Job-3.odb,Step-1,Increment      1: Step Time =    1.000,"P-3-1",          3352,   170.177E-03,   26.4750E-03,            0.,NA,NA,"",   1.01052E+06,   1.00801E+06,   1.00801E+06
C:/temp/Job-3.odb,Step-1,Increment      1: Step Time =    1.000,"P-3-1",          3353,   25.9733E-03,   18.4875E-03,            0.,NA,NA,"",   1.07032E+06,   1.09313E+06,   1.09313E+06
C:/temp/Job-3.odb,Step-1,Increment      1: Step Time =    1.000,"P-3-1",          3354,   75.1311E-03,   133.073E-03,            0.,NA,NA,"",   1.15289E+06,   1.13915E+06,   1.13915E+06
C:/temp/Job-3.odb,Step-1,Increment      1: Step Time =    1.000,"P-3-1",          3355,   64.4107E-03,   120.351E-03,            0.,NA,NA,"",   1.00764E+06,   999.583E+03,   999.583E+03
C:/temp/Job-3.odb,Step-1,Increment      1: Step Time =    1.000,"P-3-1",          3356,   119.537E-03,   134.748E-03,            0.,NA,NA,"",   1.16669E+06,   1.15254E+06,   1.15254E+06
C:/temp/Job-3.odb,Step-1,Increment      1: Step Time =    1.000,"P-3-1",          3357,   121.487E-03,   132.689E-03,            0.,NA,NA,"",   1.18443E+06,   1.15678E+06,   1.15678E+06
C:/temp/Job-3.odb,Step-1,Increment      1: Step Time =    1.000,"P-3-1",          3358,   58.4861E-03,   178.470E-03,            0.,NA,NA,"",   1.02699E+06,   1.02909E+06,   1.02909E+06
C:/temp/Job-3.odb,Step-1,Increment      1: Step Time =    1.000,"P-3-1",          3359,   140.546E-03,   75.2366E-03,            0.,NA,NA,"",   1.06624E+06,   1.03128E+06,   1.03128E+06
C:/temp/Job-3.odb,Step-1,Increment      1: Step Time =    1.000,"P-3-1",          3360,   63.6848E-03,   26.1848E-03,            0.,NA,NA,"",   1.03325E+06,   1.03584E+06,   1.03584E+06
C:/temp/Job-3.odb,Step-1,Increment      1: Step Time =    1.000,"P-3-1",          3361,   59.0327E-03,   19.7137E-03,            0.,NA,NA,"",   1.02292E+06,   1.02441E+06,   1.02441E+06
C:/temp/Job-3.odb,Step-1,Increment      1: Step Time =    1.000,"P-3-1",          3362,   108.280E-03,   181.891E-03,            0.,NA,NA,"",   980.234E+03,   984.417E+03,   984.417E+03
C:/temp/Job-3.odb,Step-1,Increment      1: Step Time =    1.000,"P-3-1",          3363,   131.866E-03,   69.4580E-03,            0.,NA,NA,"",   1.14887E+06,   1.10416E+06,   1.10416E+06
C:/temp/Job-3.odb,Step-1,Increment      1: Step Time =    1.000,"P-3-1",          3364,   19.5820E-03,   138.983E-03,            0.,NA,NA,"",   888.987E+03,   968.636E+03,   968.636E+03
C:/temp/Job-3.odb,Step-1,Increment      1: Step Time =    1.000,"P-3-1",          3365,   25.2887E-03,   159.307E-03,            0.,NA,NA,"",   982.783E+03,   1.03896E+06,   1.03896E+06
C:/temp/Job-3.odb,Step-1,Increment      1: Step Time =    1.000,"P-3-1",          3366,   173.434E-03,   112.153E-03,            0.,NA,NA,"",   967.201E+03,   979.204E+03,   979.204E+03
C:/temp/Job-3.odb,Step-1,Increment      1: Step Time =    1.000,"P-3-1",          3367,   170.833E-03,   113.885E-03,            0.,NA,NA,"",   968.023E+03,   977.820E+03,   977.820E+03
C:/temp/Job-3.odb,Step-1,Increment      1: Step Time =    1.000,"P-3-1",          3368,   119.358E-03,   21.8247E-03,            0.,NA,NA,"",   996.796E+03,   999.391E+03,   999.391E+03
C:/temp/Job-3.odb,Step-1,Increment      1: Step Time =    1.000,"P-3-1",          3369,   114.316E-03,   22.6337E-03,            0.,NA,NA,"",   994.244E+03,   998.794E+03,   998.794E+03
C:/temp/Job-3.odb,Step-1,Increment      1: Step Time =    1.000,"P-3-1",          3370,   37.3650E-03,   24.0531E-03,            0.,NA,NA,"",   1.04923E+06,   1.06503E+06,   1.06503E+06
C:/temp/Job-3.odb,Step-1,Increment      1: Step Time =    1.000,"P-3-1",          3371,   41.3764E-03,   25.2883E-03,            0.,NA,NA,"",   1.04668E+06,   1.05933E+06,   1.05933E+06
C:/temp/Job-3.odb,Step-1,Increment      1: Step Time =    1.000,"P-3-1",          3372,   29.8579E-03,   104.410E-03,            0.,NA,NA,"",   819.387E+03,   896.788E+03,   896.788E+03
C:/temp/Job-3.odb,Step-1,Increment      1: Step Time =    1.000,"P-3-1",          3373,   75.4011E-03,   17.0643E-03,            0.,NA,NA,"",   994.532E+03,   996.474E+03,   996.474E+03
C:/temp/Job-3.odb,Step-1,Increment      1: Step Time =    1.000,"P-3-1",          3374,   35.0556E-03,   25.6505E-03,            0.,NA,NA,"",   1.04867E+06,   1.06886E+06,   1.06886E+06
C:/temp/Job-3.odb,Step-1,Increment      1: Step Time =    1.000,"P-3-1",          3375,   81.3116E-03,   19.0543E-03,            0.,NA,NA,"",   992.938E+03,   996.722E+03,   996.722E+03
C:/temp/Job-3.odb,Step-1,Increment      1: Step Time =    1.000,"P-3-1",          3376,   164.385E-03,   184.423E-03,            0.,NA,NA,"",   1.00366E+06,   1.00212E+06,   1.00212E+06
C:/temp/Job-3.odb,Step-1,Increment      1: Step Time =    1.000,"P-3-1",          3377,   113.670E-03,   56.3846E-03,            0.,NA,NA,"",   1.07821E+06,   1.09849E+06,   1.09849E+06
C:/temp/Job-3.odb,Step-1,Increment      1: Step Time =    1.000,"P-3-1",          3378,   141.633E-03,   183.423E-03,            0.,NA,NA,"",   1.00169E+06,   999.422E+03,   999.422E+03
C:/temp/Job-3.odb,Step-1,Increment      1: Step Time =    1.000,"P-3-1",          3379,   108.958E-03,   179.504E-03,            0.,NA,NA,"",   985.466E+03,   990.670E+03,   990.670E+03
C:/temp/Job-3.odb,Step-1,Increment      1: Step Time =    1.000,"P-3-1",          3380,   166.963E-03,   36.6911E-03,            0.,NA,NA,"",   1.02120E+06,   1.01619E+06,   1.01619E+06
C:/temp/Job-3.odb,Step-1,Increment      1: Step Time =    1.000,"P-3-1",          3381,   76.6288E-03,   181.367E-03,            0.,NA,NA,"",   996.713E+03,   999.372E+03,   999.372E+03
C:/temp/Job-3.odb,Step-1,Increment      1: Step Time =    1.000,"P-3-1",          3382,   17.7283E-03,   120.614E-03,            0.,NA,NA,"",   829.366E+03,   916.874E+03,   916.874E+03
C:/temp/Job-3.odb,Step-1,Increment      1: Step Time =    1.000,"P-3-1",          3383,   82.8028E-03,   53.8133E-03,            0.,NA,NA,"",   1.08043E+06,   1.09801E+06,   1.09801E+06
C:/temp/Job-3.odb,Step-1,Increment      1: Step Time =    1.000,"P-3-1",          3384,   54.9101E-03,   107.979E-03,            0.,NA,NA,"",   809.705E+03,   855.590E+03,   855.590E+03
C:/temp/Job-3.odb,Step-1,Increment      1: Step Time =    1.000,"P-3-1",          3385,   110.711E-03,   53.5874E-03,            0.,NA,NA,"",   1.05478E+06,   1.08188E+06,   1.08188E+06
C:/temp/Job-3.odb,Step-1,Increment      1: Step Time =    1.000,"P-3-1",          3386,   153.745E-03,   178.766E-03,            0.,NA,NA,"",   1.01177E+06,   1.00808E+06,   1.00808E+06
C:/temp/Job-3.odb,Step-1,Increment      1: Step Time =    1.000,"P-3-1",          3387,   22.8424E-03,   18.1586E-03,            0.,NA,NA,"",   1.07673E+06,   1.10498E+06,   1.10498E+06
C:/temp/Job-3.odb,Step-1,Increment      1: Step Time =    1.000,"P-3-1",          3388,   121.280E-03,   23.7979E-03,            0.,NA,NA,"",   1.00314E+06,   1.00523E+06,   1.00523E+06
C:/temp/Job-3.odb,Step-1,Increment      1: Step Time =    1.000,"P-3-1",          3389,   28.6661E-03,   168.198E-03,            0.,NA,NA,"",   1.02721E+06,   1.06537E+06,   1.06537E+06
C:/temp/Job-3.odb,Step-1,Increment      1: Step Time =    1.000,"P-3-1",          3390,   96.2896E-03,   143.218E-03,            0.,NA,NA,"",   1.03741E+06,   1.08550E+06,   1.08550E+06
C:/temp/Job-3.odb,Step-1,Increment      1: Step Time =    1.000,"P-3-1",          3391,   25.7347E-03,   72.9063E-03,            0.,NA,NA,"",   870.758E+03,   945.204E+03,   945.204E+03
C:/temp/Job-3.odb,Step-1,Increment      1: Step Time =    1.000,"P-3-1",          3392,   171.825E-03,   44.7689E-03,            0.,NA,NA,"",   1.01859E+06,   1.01498E+06,   1.01498E+06
C:/temp/Job-3.odb,Step-1,Increment      1: Step Time =    1.000,"P-3-1",          3393,   26.0525E-03,   131.757E-03,            0.,NA,NA,"",   887.875E+03,   959.703E+03,   959.703E+03
C:/temp/Job-3.odb,Step-1,Increment      1: Step Time =    1.000,"P-3-1",          3394,   77.4913E-03,   59.9800E-03,            0.,NA,NA,"",   1.12055E+06,   1.12192E+06,   1.12192E+06
C:/temp/Job-3.odb,Step-1,Increment      1: Step Time =    1.000,"P-3-1",          3395,   167.383E-03,   62.1166E-03,            0.,NA,NA,"",   1.01986E+06,   1.01492E+06,   1.01492E+06
C:/temp/Job-3.odb,Step-1,Increment      1: Step Time =    1.000,"P-3-1",          3396,   30.0954E-03,   53.3200E-03,            0.,NA,NA,"",   956.528E+03,   1.01210E+06,   1.01210E+06
C:/temp/Job-3.odb,Step-1,Increment      1: Step Time =    1.000,"P-3-1",          3397,   22.9556E-03,   23.1924E-03,            0.,NA,NA,"",   1.05486E+06,   1.09219E+06,   1.09219E+06
C:/temp/Job-3.odb,Step-1,Increment      1: Step Time =    1.000,"P-3-1",          3398,   24.7196E-03,   28.3357E-03,            0.,NA,NA,"",   1.03423E+06,   1.07678E+06,   1.07678E+06
C:/temp/Job-3.odb,Step-1,Increment      1: Step Time =    1.000,"P-3-1",          3399,   45.3506E-03,   27.1862E-03,            0.,NA,NA,"",   1.04529E+06,   1.05561E+06,   1.05561E+06
C:/temp/Job-3.odb,Step-1,Increment      1: Step Time =    1.000,"P-3-1",          3400,   157.199E-03,   177.572E-03,            0.,NA,NA,"",   1.01285E+06,   1.00908E+06,   1.00908E+06
C:/temp/Job-3.odb,Step-1,Increment      1: Step Time =    1.000,"P-3-1",          3401,   169.770E-03,   129.168E-03,            0.,NA,NA,"",   1.00165E+06,   1.00217E+06,   1.00217E+06
C:/temp/Job-3.odb,Step-1,Increment      1: Step Time =    1.000,"P-3-1",          3402,   170.069E-03,   126.243E-03,            0.,NA,NA,"",   995.644E+03,   997.802E+03,   997.802E+03
C:/temp/Job-3.odb,Step-1,Increment      1: Step Time =    1.000,"P-3-1",          3403,   34.6335E-03,   173.950E-03,            0.,NA,NA,"",   1.04688E+06,   1.06829E+06,   1.06829E+06
C:/temp/Job-3.odb,Step-1,Increment      1: Step Time =    1.000,"P-3-1",          3404,   36.2842E-03,   173.527E-03,            0.,NA,NA,"",   1.04708E+06,   1.06660E+06,   1.06660E+06
C:/temp/Job-3.odb,Step-1,Increment      1: Step Time =    1.000,"P-3-1",          3405,   38.5584E-03,   172.773E-03,            0.,NA,NA,"",   1.04623E+06,   1.06354E+06,   1.06354E+06
C:/temp/Job-3.odb,Step-1,Increment      1: Step Time =    1.000,"P-3-1",          3406,   28.1285E-03,   93.6964E-03,            0.,NA,NA,"",   819.376E+03,   898.531E+03,   898.531E+03
C:/temp/Job-3.odb,Step-1,Increment      1: Step Time =    1.000,"P-3-1",          3407,   31.3878E-03,   98.7642E-03,            0.,NA,NA,"",   817.643E+03,   893.703E+03,   893.703E+03
C:/temp/Job-3.odb,Step-1,Increment      1: Step Time =    1.000,"P-3-1",          3408,   75.6249E-03,   175.441E-03,            0.,NA,NA,"",   1.01464E+06,   1.01867E+06,   1.01867E+06
C:/temp/Job-3.odb,Step-1,Increment      1: Step Time =    1.000,"P-3-1",          3409,   105.812E-03,   49.8203E-03,            0.,NA,NA,"",   1.03070E+06,   1.06285E+06,   1.06285E+06
C:/temp/Job-3.odb,Step-1,Increment      1: Step Time =    1.000,"P-3-1",          3410,   86.2741E-03,   48.5986E-03,            0.,NA,NA,"",   1.04992E+06,   1.07310E+06,   1.07310E+06
C:/temp/Job-3.odb,Step-1,Increment      1: Step Time =    1.000,"P-3-1",          3411,   66.6127E-03,   137.797E-03,            0.,NA,NA,"",   1.10161E+06,   1.09574E+06,   1.09574E+06
C:/temp/Job-3.odb,Step-1,Increment      1: Step Time =    1.000,"P-3-1",          3412,   125.851E-03,   133.550E-03,            0.,NA,NA,"",   1.16851E+06,   1.13399E+06,   1.13399E+06
C:/temp/Job-3.odb,Step-1,Increment      1: Step Time =    1.000,"P-3-1",          3413,   136.358E-03,   124.191E-03,            0.,NA,NA,"",   1.09255E+06,   1.04802E+06,   1.04802E+06
C:/temp/Job-3.odb,Step-1,Increment      1: Step Time =    1.000,"P-3-1",          3414,   102.687E-03,   148.175E-03,            0.,NA,NA,"",   1.02662E+06,   1.06629E+06,   1.06629E+06
C:/temp/Job-3.odb,Step-1,Increment      1: Step Time =    1.000,"P-3-1",          3415,   142.122E-03,   102.885E-03,            0.,NA,NA,"",   827.042E+03,   838.063E+03,   838.063E+03
C:/temp/Job-3.odb,Step-1,Increment      1: Step Time =    1.000,"P-3-1",          3416,   164.956E-03,   153.492E-03,            0.,NA,NA,"",   1.02957E+06,   1.02225E+06,   1.02225E+06
C:/temp/Job-3.odb,Step-1,Increment      1: Step Time =    1.000,"P-3-1",          3417,   169.695E-03,   88.0677E-03,            0.,NA,NA,"",   963.347E+03,   973.338E+03,   973.338E+03
C:/temp/Job-3.odb,Step-1,Increment      1: Step Time =    1.000,"P-3-1",          3418,   170.268E-03,   117.226E-03,            0.,NA,NA,"",   975.006E+03,   982.485E+03,   982.485E+03
C:/temp/Job-3.odb,Step-1,Increment      1: Step Time =    1.000,"P-3-1",          3419,   106.385E-03,   176.266E-03,            0.,NA,NA,"",   991.027E+03,   998.548E+03,   998.548E+03
C:/temp/Job-3.odb,Step-1,Increment      1: Step Time =    1.000,"P-3-1",          3420,   94.9354E-03,   178.868E-03,            0.,NA,NA,"",   986.537E+03,   993.475E+03,   993.475E+03
C:/temp/Job-3.odb,Step-1,Increment      1: Step Time =    1.000,"P-3-1",          3421,   99.1810E-03,   174.406E-03,            0.,NA,NA,"",   993.460E+03,   1.00346E+06,   1.00346E+06
C:/temp/Job-3.odb,Step-1,Increment      1: Step Time =    1.000,"P-3-1",          3422,   90.0922E-03,   180.618E-03,            0.,NA,NA,"",   985.377E+03,   990.867E+03,   990.867E+03
C:/temp/Job-3.odb,Step-1,Increment      1: Step Time =    1.000,"P-3-1",          3423,   128.919E-03,   28.9103E-03,            0.,NA,NA,"",   1.02246E+06,   1.02075E+06,   1.02075E+06
C:/temp/Job-3.odb,Step-1,Increment      1: Step Time =    1.000,"P-3-1",          3424,   146.262E-03,   22.1576E-03,            0.,NA,NA,"",   1.01341E+06,   1.00933E+06,   1.00933E+06
C:/temp/Job-3.odb,Step-1,Increment      1: Step Time =    1.000,"P-3-1",          3425,   60.0786E-03,   130.945E-03,            0.,NA,NA,"",   1.04952E+06,   1.05093E+06,   1.05093E+06
C:/temp/Job-3.odb,Step-1,Increment      1: Step Time =    1.000,"P-3-1",          3426,   83.1317E-03,   23.4562E-03,            0.,NA,NA,"",   1.00175E+06,   1.00771E+06,   1.00771E+06
C:/temp/Job-3.odb,Step-1,Increment      1: Step Time =    1.000,"P-3-1",          3427,   152.528E-03,   23.4550E-03,            0.,NA,NA,"",   1.01497E+06,   1.01061E+06,   1.01061E+06
C:/temp/Job-3.odb,Step-1,Increment      1: Step Time =    1.000,"P-3-1",          3428,   173.162E-03,   160.709E-03,            0.,NA,NA,"",   1.01550E+06,   1.01256E+06,   1.01256E+06
C:/temp/Job-3.odb,Step-1,Increment      1: Step Time =    1.000,"P-3-1",          3429,   41.1412E-03,   171.767E-03,            0.,NA,NA,"",   1.04555E+06,   1.06098E+06,   1.06098E+06
C:/temp/Job-3.odb,Step-1,Increment      1: Step Time =    1.000,"P-3-1",          3430,   163.961E-03,   28.1493E-03,            0.,NA,NA,"",   1.01611E+06,   1.01198E+06,   1.01198E+06
C:/temp/Job-3.odb,Step-1,Increment      1: Step Time =    1.000,"P-3-1",          3431,   22.3454E-03,   112.867E-03,            0.,NA,NA,"",   822.432E+03,   906.210E+03,   906.210E+03
C:/temp/Job-3.odb,Step-1,Increment      1: Step Time =    1.000,"P-3-1",          3432,   118.789E-03,   60.2661E-03,            0.,NA,NA,"",   1.12201E+06,   1.12172E+06,   1.12172E+06
C:/temp/Job-3.odb,Step-1,Increment      1: Step Time =    1.000,"P-3-1",          3433,   25.5976E-03,   137.990E-03,            0.,NA,NA,"",   908.387E+03,   978.106E+03,   978.106E+03
C:/temp/Job-3.odb,Step-1,Increment      1: Step Time =    1.000,"P-3-1",          3434,   166.869E-03,   109.341E-03,            0.,NA,NA,"",   954.369E+03,   964.478E+03,   964.478E+03
C:/temp/Job-3.odb,Step-1,Increment      1: Step Time =    1.000,"P-3-1",          3435,   100.199E-03,   148.086E-03,            0.,NA,NA,"",   1.02534E+06,   1.06687E+06,   1.06687E+06
C:/temp/Job-3.odb,Step-1,Increment      1: Step Time =    1.000,"P-3-1",          3436,   24.4807E-03,   164.011E-03,            0.,NA,NA,"",   997.989E+03,   1.05099E+06,   1.05099E+06
C:/temp/Job-3.odb,Step-1,Increment      1: Step Time =    1.000,"P-3-1",          3437,   32.1028E-03,   37.9688E-03,            0.,NA,NA,"",   1.01405E+06,   1.05271E+06,   1.05271E+06
C:/temp/Job-3.odb,Step-1,Increment      1: Step Time =    1.000,"P-3-1",          3438,   136.717E-03,   174.762E-03,            0.,NA,NA,"",   1.01821E+06,   1.01435E+06,   1.01435E+06
C:/temp/Job-3.odb,Step-1,Increment      1: Step Time =    1.000,"P-3-1",          3439,   83.2341E-03,   48.0934E-03,            0.,NA,NA,"",   1.05757E+06,   1.07552E+06,   1.07552E+06
C:/temp/Job-3.odb,Step-1,Increment      1: Step Time =    1.000,"P-3-1",          3440,   164.668E-03,   63.7977E-03,            0.,NA,NA,"",   1.02304E+06,   1.01614E+06,   1.01614E+06
C:/temp/Job-3.odb,Step-1,Increment      1: Step Time =    1.000,"P-3-1",          3441,   24.5892E-03,   26.0984E-03,            0.,NA,NA,"",   1.04253E+06,   1.08143E+06,   1.08143E+06
C:/temp/Job-3.odb,Step-1,Increment      1: Step Time =    1.000,"P-3-1",          3442,   124.877E-03,   182.986E-03,            0.,NA,NA,"",   990.777E+03,   991.188E+03,   991.188E+03
C:/temp/Job-3.odb,Step-1,Increment      1: Step Time =    1.000,"P-3-1",          3443,   36.0390E-03,   27.8576E-03,            0.,NA,NA,"",   1.04444E+06,   1.06629E+06,   1.06629E+06
C:/temp/Job-3.odb,Step-1,Increment      1: Step Time =    1.000,"P-3-1",          3444,   39.7335E-03,   29.7737E-03,            0.,NA,NA,"",   1.04320E+06,   1.06153E+06,   1.06153E+06
C:/temp/Job-3.odb,Step-1,Increment      1: Step Time =    1.000,"P-3-1",          3445,   149.641E-03,   22.9927E-03,            0.,NA,NA,"",   1.01515E+06,   1.01076E+06,   1.01076E+06
C:/temp/Job-3.odb,Step-1,Increment      1: Step Time =    1.000,"P-3-1",          3446,   150.152E-03,   24.9221E-03,            0.,NA,NA,"",   1.01833E+06,   1.01333E+06,   1.01333E+06
C:/temp/Job-3.odb,Step-1,Increment      1: Step Time =    1.000,"P-3-1",          3447,   114.474E-03,   25.7563E-03,            0.,NA,NA,"",   1.00115E+06,   1.00681E+06,   1.00681E+06
C:/temp/Job-3.odb,Step-1,Increment      1: Step Time =    1.000,"P-3-1",          3448,   111.791E-03,   26.0646E-03,            0.,NA,NA,"",   999.297E+03,   1.00632E+06,   1.00632E+06
C:/temp/Job-3.odb,Step-1,Increment      1: Step Time =    1.000,"P-3-1",          3449,   109.532E-03,   26.0998E-03,            0.,NA,NA,"",   997.765E+03,   1.00569E+06,   1.00569E+06
C:/temp/Job-3.odb,Step-1,Increment      1: Step Time =    1.000,"P-3-1",          3450,   138.769E-03,   116.499E-03,            0.,NA,NA,"",   989.933E+03,   961.184E+03,   961.184E+03
C:/temp/Job-3.odb,Step-1,Increment      1: Step Time =    1.000,"P-3-1",          3451,   18.8427E-03,   82.8558E-03,            0.,NA,NA,"",   824.044E+03,   911.222E+03,   911.222E+03
C:/temp/Job-3.odb,Step-1,Increment      1: Step Time =    1.000,"P-3-1",          3452,   161.339E-03,   160.408E-03,            0.,NA,NA,"",   1.03066E+06,   1.02294E+06,   1.02294E+06
C:/temp/Job-3.odb,Step-1,Increment      1: Step Time =    1.000,"P-3-1",          3453,   111.100E-03,   50.3974E-03,            0.,NA,NA,"",   1.04697E+06,   1.07072E+06,   1.07072E+06
C:/temp/Job-3.odb,Step-1,Increment      1: Step Time =    1.000,"P-3-1",          3454,   113.673E-03,   50.4824E-03,            0.,NA,NA,"",   1.05591E+06,   1.07424E+06,   1.07424E+06
C:/temp/Job-3.odb,Step-1,Increment      1: Step Time =    1.000,"P-3-1",          3455,   115.926E-03,   53.0488E-03,            0.,NA,NA,"",   1.07309E+06,   1.08633E+06,   1.08633E+06
C:/temp/Job-3.odb,Step-1,Increment      1: Step Time =    1.000,"P-3-1",          3456,   80.0404E-03,   53.2638E-03,            0.,NA,NA,"",   1.08636E+06,   1.09831E+06,   1.09831E+06
C:/temp/Job-3.odb,Step-1,Increment      1: Step Time =    1.000,"P-3-1",          3457,   79.9463E-03,   50.4302E-03,            0.,NA,NA,"",   1.07590E+06,   1.08835E+06,   1.08835E+06
C:/temp/Job-3.odb,Step-1,Increment      1: Step Time =    1.000,"P-3-1",          3458,   83.0509E-03,   143.782E-03,            0.,NA,NA,"",   1.08855E+06,   1.10645E+06,   1.10645E+06
C:/temp/Job-3.odb,Step-1,Increment      1: Step Time =    1.000,"P-3-1",          3459,   123.415E-03,   27.6057E-03,            0.,NA,NA,"",   1.01411E+06,   1.01566E+06,   1.01566E+06
C:/temp/Job-3.odb,Step-1,Increment      1: Step Time =    1.000,"P-3-1",          3460,   82.0890E-03,   177.543E-03,            0.,NA,NA,"",   1.00059E+06,   1.00591E+06,   1.00591E+06
C:/temp/Job-3.odb,Step-1,Increment      1: Step Time =    1.000,"P-3-1",          3461,   168.124E-03,   51.1085E-03,            0.,NA,NA,"",   1.02539E+06,   1.01952E+06,   1.01952E+06
C:/temp/Job-3.odb,Step-1,Increment      1: Step Time =    1.000,"P-3-1",          3462,   32.3640E-03,   68.3214E-03,            0.,NA,NA,"",   909.091E+03,   970.352E+03,   970.352E+03
C:/temp/Job-3.odb,Step-1,Increment      1: Step Time =    1.000,"P-3-1",          3463,   20.4725E-03,   121.734E-03,            0.,NA,NA,"",   839.278E+03,   923.032E+03,   923.032E+03
C:/temp/Job-3.odb,Step-1,Increment      1: Step Time =    1.000,"P-3-1",          3464,   35.1446E-03,   171.307E-03,            0.,NA,NA,"",   1.04209E+06,   1.06542E+06,   1.06542E+06
C:/temp/Job-3.odb,Step-1,Increment      1: Step Time =    1.000,"P-3-1",          3465,   162.318E-03,   176.953E-03,            0.,NA,NA,"",   1.01166E+06,   1.00840E+06,   1.00840E+06
C:/temp/Job-3.odb,Step-1,Increment      1: Step Time =    1.000,"P-3-1",          3466,   160.664E-03,   177.908E-03,            0.,NA,NA,"",   1.01105E+06,   1.00782E+06,   1.00782E+06
C:/temp/Job-3.odb,Step-1,Increment      1: Step Time =    1.000,"P-3-1",          3467,   161.721E-03,   154.925E-03,            0.,NA,NA,"",   1.03477E+06,   1.02581E+06,   1.02581E+06
C:/temp/Job-3.odb,Step-1,Increment      1: Step Time =    1.000,"P-3-1",          3468,   59.1208E-03,   31.3390E-03,            0.,NA,NA,"",   1.04642E+06,   1.05077E+06,   1.05077E+06
C:/temp/Job-3.odb,Step-1,Increment      1: Step Time =    1.000,"P-3-1",          3469,   31.6679E-03,   149.037E-03,            0.,NA,NA,"",   971.231E+03,   1.02183E+06,   1.02183E+06
C:/temp/Job-3.odb,Step-1,Increment      1: Step Time =    1.000,"P-3-1",          3470,   25.8144E-03,   114.981E-03,            0.,NA,NA,"",   833.369E+03,   912.803E+03,   912.803E+03
C:/temp/Job-3.odb,Step-1,Increment      1: Step Time =    1.000,"P-3-1",          3471,   160.693E-03,   101.814E-03,            0.,NA,NA,"",   928.847E+03,   939.733E+03,   939.733E+03
C:/temp/Job-3.odb,Step-1,Increment      1: Step Time =    1.000,"P-3-1",          3472,   30.2561E-03,   159.772E-03,            0.,NA,NA,"",   1.00192E+06,   1.04655E+06,   1.04655E+06
C:/temp/Job-3.odb,Step-1,Increment      1: Step Time =    1.000,"P-3-1",          3473,   67.8092E-03,   59.3220E-03,            0.,NA,NA,"",   1.10122E+06,   1.09718E+06,   1.09718E+06
C:/temp/Job-3.odb,Step-1,Increment      1: Step Time =    1.000,"P-3-1",          3474,   73.8994E-03,   59.0549E-03,            0.,NA,NA,"",   1.11446E+06,   1.11237E+06,   1.11237E+06
C:/temp/Job-3.odb,Step-1,Increment      1: Step Time =    1.000,"P-3-1",          3475,   36.5530E-03,   58.6116E-03,            0.,NA,NA,"",   963.576E+03,   1.01012E+06,   1.01012E+06
C:/temp/Job-3.odb,Step-1,Increment      1: Step Time =    1.000,"P-3-1",          3476,   97.3334E-03,   145.774E-03,            0.,NA,NA,"",   1.03060E+06,   1.07503E+06,   1.07503E+06
C:/temp/Job-3.odb,Step-1,Increment      1: Step Time =    1.000,"P-3-1",          3477,   94.9006E-03,   147.271E-03,            0.,NA,NA,"",   1.03388E+06,   1.07367E+06,   1.07367E+06
C:/temp/Job-3.odb,Step-1,Increment      1: Step Time =    1.000,"P-3-1",          3478,   167.068E-03,   128.177E-03,            0.,NA,NA,"",   1.00272E+06,   1.00141E+06,   1.00141E+06
C:/temp/Job-3.odb,Step-1,Increment      1: Step Time =    1.000,"P-3-1",          3479,   167.944E-03,   126.429E-03,            0.,NA,NA,"",   997.668E+03,   998.021E+03,   998.021E+03
C:/temp/Job-3.odb,Step-1,Increment      1: Step Time =    1.000,"P-3-1",          3480,   158.801E-03,   154.999E-03,            0.,NA,NA,"",   1.03952E+06,   1.02918E+06,   1.02918E+06
C:/temp/Job-3.odb,Step-1,Increment      1: Step Time =    1.000,"P-3-1",          3481,   154.403E-03,   140.504E-03,            0.,NA,NA,"",   1.05316E+06,   1.03628E+06,   1.03628E+06
C:/temp/Job-3.odb,Step-1,Increment      1: Step Time =    1.000,"P-3-1",          3482,   120.938E-03,   179.995E-03,            0.,NA,NA,"",   994.201E+03,   996.062E+03,   996.062E+03
C:/temp/Job-3.odb,Step-1,Increment      1: Step Time =    1.000,"P-3-1",          3483,   154.540E-03,   169.938E-03,            0.,NA,NA,"",   1.02538E+06,   1.01885E+06,   1.01885E+06
C:/temp/Job-3.odb,Step-1,Increment      1: Step Time =    1.000,"P-3-1",          3484,   106.684E-03,   46.6432E-03,            0.,NA,NA,"",   1.02766E+06,   1.05452E+06,   1.05452E+06
C:/temp/Job-3.odb,Step-1,Increment      1: Step Time =    1.000,"P-3-1",          3485,   109.168E-03,   47.0276E-03,            0.,NA,NA,"",   1.03348E+06,   1.05761E+06,   1.05761E+06
C:/temp/Job-3.odb,Step-1,Increment      1: Step Time =    1.000,"P-3-1",          3486,   168.298E-03,   115.783E-03,            0.,NA,NA,"",   970.880E+03,   978.103E+03,   978.103E+03
C:/temp/Job-3.odb,Step-1,Increment      1: Step Time =    1.000,"P-3-1",          3487,   48.9697E-03,   29.5000E-03,            0.,NA,NA,"",   1.04620E+06,   1.05489E+06,   1.05489E+06
C:/temp/Job-3.odb,Step-1,Increment      1: Step Time =    1.000,"P-3-1",          3488,   43.8235E-03,   31.5993E-03,            0.,NA,NA,"",   1.04411E+06,   1.05902E+06,   1.05902E+06
C:/temp/Job-3.odb,Step-1,Increment      1: Step Time =    1.000,"P-3-1",          3489,   103.783E-03,   151.907E-03,            0.,NA,NA,"",   1.02330E+06,   1.05598E+06,   1.05598E+06
C:/temp/Job-3.odb,Step-1,Increment      1: Step Time =    1.000,"P-3-1",          3490,   142.372E-03,   30.0346E-03,            0.,NA,NA,"",   1.03001E+06,   1.02344E+06,   1.02344E+06
C:/temp/Job-3.odb,Step-1,Increment      1: Step Time =    1.000,"P-3-1",          3491,   134.380E-03,   29.2553E-03,            0.,NA,NA,"",   1.02654E+06,   1.02231E+06,   1.02231E+06
C:/temp/Job-3.odb,Step-1,Increment      1: Step Time =    1.000,"P-3-1",          3492,   129.288E-03,   32.1408E-03,            0.,NA,NA,"",   1.03156E+06,   1.02900E+06,   1.02900E+06
C:/temp/Job-3.odb,Step-1,Increment      1: Step Time =    1.000,"P-3-1",          3493,   68.5700E-03,   30.6841E-03,            0.,NA,NA,"",   1.03828E+06,   1.04198E+06,   1.04198E+06
C:/temp/Job-3.odb,Step-1,Increment      1: Step Time =    1.000,"P-3-1",          3494,   30.0078E-03,   127.691E-03,            0.,NA,NA,"",   886.570E+03,   954.287E+03,   954.287E+03
C:/temp/Job-3.odb,Step-1,Increment      1: Step Time =    1.000,"P-3-1",          3495,   110.102E-03,   172.827E-03,            0.,NA,NA,"",   1.00027E+06,   1.00868E+06,   1.00868E+06
C:/temp/Job-3.odb,Step-1,Increment      1: Step Time =    1.000,"P-3-1",          3496,   101.405E-03,   32.4538E-03,            0.,NA,NA,"",   1.00429E+06,   1.01968E+06,   1.01968E+06
C:/temp/Job-3.odb,Step-1,Increment      1: Step Time =    1.000,"P-3-1",          3497,   162.916E-03,   61.1794E-03,            0.,NA,NA,"",   1.03002E+06,   1.02103E+06,   1.02103E+06
C:/temp/Job-3.odb,Step-1,Increment      1: Step Time =    1.000,"P-3-1",          3498,   113.734E-03,   173.396E-03,            0.,NA,NA,"",   1.00231E+06,   1.00872E+06,   1.00872E+06
C:/temp/Job-3.odb,Step-1,Increment      1: Step Time =    1.000,"P-3-1",          3499,   162.259E-03,   72.5952E-03,            0.,NA,NA,"",   1.00789E+06,   1.00249E+06,   1.00249E+06
C:/temp/Job-3.odb,Step-1,Increment      1: Step Time =    1.000,"P-3-1",          3500,   83.7609E-03,   45.3172E-03,            0.,NA,NA,"",   1.04856E+06,   1.06593E+06,   1.06593E+06
C:/temp/Job-3.odb,Step-1,Increment      1: Step Time =    1.000,"P-3-1",          3501,   130.992E-03,   130.983E-03,            0.,NA,NA,"",   1.15450E+06,   1.10946E+06,   1.10946E+06
C:/temp/Job-3.odb,Step-1,Increment      1: Step Time =    1.000,"P-3-1",          3502,   66.2046E-03,   140.440E-03,            0.,NA,NA,"",   1.09746E+06,   1.09397E+06,   1.09397E+06
C:/temp/Job-3.odb,Step-1,Increment      1: Step Time =    1.000,"P-3-1",          3503,   44.7758E-03,   97.3574E-03,            0.,NA,NA,"",   811.918E+03,   873.528E+03,   873.528E+03
C:/temp/Job-3.odb,Step-1,Increment      1: Step Time =    1.000,"P-3-1",          3504,   78.3394E-03,   171.887E-03,            0.,NA,NA,"",   1.01963E+06,   1.02583E+06,   1.02583E+06
C:/temp/Job-3.odb,Step-1,Increment      1: Step Time =    1.000,"P-3-1",          3505,   29.7189E-03,   74.4660E-03,            0.,NA,NA,"",   877.143E+03,   946.257E+03,   946.257E+03
C:/temp/Job-3.odb,Step-1,Increment      1: Step Time =    1.000,"P-3-1",          3506,   31.7903E-03,   130.055E-03,            0.,NA,NA,"",   902.383E+03,   965.469E+03,   965.469E+03
C:/temp/Job-3.odb,Step-1,Increment      1: Step Time =    1.000,"P-3-1",          3507,   29.2030E-03,   139.773E-03,            0.,NA,NA,"",   930.061E+03,   991.457E+03,   991.457E+03
C:/temp/Job-3.odb,Step-1,Increment      1: Step Time =    1.000,"P-3-1",          3508,   40.0097E-03,   37.8191E-03,            0.,NA,NA,"",   1.03189E+06,   1.05673E+06,   1.05673E+06
C:/temp/Job-3.odb,Step-1,Increment      1: Step Time =    1.000,"P-3-1",          3509,   162.138E-03,   108.822E-03,            0.,NA,NA,"",   944.159E+03,   952.725E+03,   952.725E+03
C:/temp/Job-3.odb,Step-1,Increment      1: Step Time =    1.000,"P-3-1",          3510,   79.3576E-03,   24.8659E-03,            0.,NA,NA,"",   1.01045E+06,   1.01565E+06,   1.01565E+06
C:/temp/Job-3.odb,Step-1,Increment      1: Step Time =    1.000,"P-3-1",          3511,   137.581E-03,   127.110E-03,            0.,NA,NA,"",   1.10042E+06,   1.05890E+06,   1.05890E+06
C:/temp/Job-3.odb,Step-1,Increment      1: Step Time =    1.000,"P-3-1",          3512,   106.005E-03,   153.549E-03,            0.,NA,NA,"",   1.02510E+06,   1.05329E+06,   1.05329E+06
C:/temp/Job-3.odb,Step-1,Increment      1: Step Time =    1.000,"P-3-1",          3513,   28.3526E-03,   78.3371E-03,            0.,NA,NA,"",   858.635E+03,   931.972E+03,   931.972E+03
C:/temp/Job-3.odb,Step-1,Increment      1: Step Time =    1.000,"P-3-1",          3514,   50.3084E-03,   161.847E-03,            0.,NA,NA,"",   1.04780E+06,   1.05977E+06,   1.05977E+06
C:/temp/Job-3.odb,Step-1,Increment      1: Step Time =    1.000,"P-3-1",          3515,   60.9250E-03,   162.257E-03,            0.,NA,NA,"",   1.05562E+06,   1.06051E+06,   1.06051E+06
C:/temp/Job-3.odb,Step-1,Increment      1: Step Time =    1.000,"P-3-1",          3516,   151.066E-03,   26.9060E-03,            0.,NA,NA,"",   1.02119E+06,   1.01561E+06,   1.01561E+06
C:/temp/Job-3.odb,Step-1,Increment      1: Step Time =    1.000,"P-3-1",          3517,   165.128E-03,   123.491E-03,            0.,NA,NA,"",   993.166E+03,   993.051E+03,   993.051E+03
C:/temp/Job-3.odb,Step-1,Increment      1: Step Time =    1.000,"P-3-1",          3518,   144.181E-03,   173.651E-03,            0.,NA,NA,"",   1.02200E+06,   1.01664E+06,   1.01664E+06
C:/temp/Job-3.odb,Step-1,Increment      1: Step Time =    1.000,"P-3-1",          3519,   116.483E-03,   177.737E-03,            0.,NA,NA,"",   995.024E+03,   998.719E+03,   998.719E+03
C:/temp/Job-3.odb,Step-1,Increment      1: Step Time =    1.000,"P-3-1",          3520,   159.278E-03,   33.0658E-03,            0.,NA,NA,"",   1.02641E+06,   1.01971E+06,   1.01971E+06
C:/temp/Job-3.odb,Step-1,Increment      1: Step Time =    1.000,"P-3-1",          3521,   81.1743E-03,   45.1015E-03,            0.,NA,NA,"",   1.05431E+06,   1.06848E+06,   1.06848E+06
C:/temp/Job-3.odb,Step-1,Increment      1: Step Time =    1.000,"P-3-1",          3522,   157.536E-03,   32.9292E-03,            0.,NA,NA,"",   1.02788E+06,   1.02079E+06,   1.02079E+06
C:/temp/Job-3.odb,Step-1,Increment      1: Step Time =    1.000,"P-3-1",          3523,   42.6040E-03,   167.494E-03,            0.,NA,NA,"",   1.04248E+06,   1.05978E+06,   1.05978E+06
C:/temp/Job-3.odb,Step-1,Increment      1: Step Time =    1.000,"P-3-1",          3524,   160.675E-03,   36.2313E-03,            0.,NA,NA,"",   1.02816E+06,   1.02106E+06,   1.02106E+06
C:/temp/Job-3.odb,Step-1,Increment      1: Step Time =    1.000,"P-3-1",          3525,   77.5079E-03,   50.8267E-03,            0.,NA,NA,"",   1.08141E+06,   1.09021E+06,   1.09021E+06
C:/temp/Job-3.odb,Step-1,Increment      1: Step Time =    1.000,"P-3-1",          3526,   134.983E-03,   133.155E-03,            0.,NA,NA,"",   1.12804E+06,   1.08920E+06,   1.08920E+06
C:/temp/Job-3.odb,Step-1,Increment      1: Step Time =    1.000,"P-3-1",          3527,   91.2686E-03,   47.1020E-03,            0.,NA,NA,"",   1.03201E+06,   1.06046E+06,   1.06046E+06
C:/temp/Job-3.odb,Step-1,Increment      1: Step Time =    1.000,"P-3-1",          3528,   117.894E-03,   52.6379E-03,            0.,NA,NA,"",   1.07915E+06,   1.08719E+06,   1.08719E+06
C:/temp/Job-3.odb,Step-1,Increment      1: Step Time =    1.000,"P-3-1",          3529,   114.288E-03,   47.6301E-03,            0.,NA,NA,"",   1.04918E+06,   1.06502E+06,   1.06502E+06
C:/temp/Job-3.odb,Step-1,Increment      1: Step Time =    1.000,"P-3-1",          3530,   116.721E-03,   48.0580E-03,            0.,NA,NA,"",   1.05804E+06,   1.06924E+06,   1.06924E+06
C:/temp/Job-3.odb,Step-1,Increment      1: Step Time =    1.000,"P-3-1",          3531,   93.7646E-03,   150.759E-03,            0.,NA,NA,"",   1.03043E+06,   1.06415E+06,   1.06415E+06
C:/temp/Job-3.odb,Step-1,Increment      1: Step Time =    1.000,"P-3-1",          3532,   54.9866E-03,   80.8483E-03,            0.,NA,NA,"",   925.563E+03,   951.271E+03,   951.271E+03
C:/temp/Job-3.odb,Step-1,Increment      1: Step Time =    1.000,"P-3-1",          3533,   121.399E-03,   27.9185E-03,            0.,NA,NA,"",   1.01301E+06,   1.01578E+06,   1.01578E+06
C:/temp/Job-3.odb,Step-1,Increment      1: Step Time =    1.000,"P-3-1",          3534,   91.6495E-03,   177.626E-03,            0.,NA,NA,"",   991.154E+03,   998.262E+03,   998.262E+03
C:/temp/Job-3.odb,Step-1,Increment      1: Step Time =    1.000,"P-3-1",          3535,   89.7746E-03,   177.930E-03,            0.,NA,NA,"",   991.967E+03,   998.668E+03,   998.668E+03
C:/temp/Job-3.odb,Step-1,Increment      1: Step Time =    1.000,"P-3-1",          3536,   31.7424E-03,   82.4429E-03,            0.,NA,NA,"",   853.086E+03,   923.607E+03,   923.607E+03
C:/temp/Job-3.odb,Step-1,Increment      1: Step Time =    1.000,"P-3-1",          3537,   159.915E-03,   162.358E-03,            0.,NA,NA,"",   1.03059E+06,   1.02287E+06,   1.02287E+06
C:/temp/Job-3.odb,Step-1,Increment      1: Step Time =    1.000,"P-3-1",          3538,   75.7240E-03,   143.864E-03,            0.,NA,NA,"",   1.10196E+06,   1.10596E+06,   1.10596E+06
C:/temp/Job-3.odb,Step-1,Increment      1: Step Time =    1.000,"P-3-1",          3539,   72.6389E-03,   146.550E-03,            0.,NA,NA,"",   1.09251E+06,   1.09529E+06,   1.09529E+06
C:/temp/Job-3.odb,Step-1,Increment      1: Step Time =    1.000,"P-3-1",          3540,   32.8476E-03,   126.226E-03,            0.,NA,NA,"",   890.005E+03,   953.951E+03,   953.951E+03
C:/temp/Job-3.odb,Step-1,Increment      1: Step Time =    1.000,"P-3-1",          3541,   34.2707E-03,   128.435E-03,            0.,NA,NA,"",   903.979E+03,   963.801E+03,   963.801E+03
C:/temp/Job-3.odb,Step-1,Increment      1: Step Time =    1.000,"P-3-1",          3542,   56.8424E-03,   81.6418E-03,            0.,NA,NA,"",   921.379E+03,   944.399E+03,   944.399E+03
C:/temp/Job-3.odb,Step-1,Increment      1: Step Time =    1.000,"P-3-1",          3543,   78.3478E-03,   28.9003E-03,            0.,NA,NA,"",   1.02170E+06,   1.02811E+06,   1.02811E+06
C:/temp/Job-3.odb,Step-1,Increment      1: Step Time =    1.000,"P-3-1",          3544,   163.642E-03,   115.627E-03,            0.,NA,NA,"",   967.536E+03,   971.868E+03,   971.868E+03
C:/temp/Job-3.odb,Step-1,Increment      1: Step Time =    1.000,"P-3-1",          3545,   111.506E-03,   28.8261E-03,            0.,NA,NA,"",   1.00464E+06,   1.01320E+06,   1.01320E+06
C:/temp/Job-3.odb,Step-1,Increment      1: Step Time =    1.000,"P-3-1",          3546,   33.5682E-03,   146.300E-03,            0.,NA,NA,"",   969.302E+03,   1.01816E+06,   1.01816E+06
C:/temp/Job-3.odb,Step-1,Increment      1: Step Time =    1.000,"P-3-1",          3547,   35.1720E-03,   160.150E-03,            0.,NA,NA,"",   1.01630E+06,   1.05140E+06,   1.05140E+06
C:/temp/Job-3.odb,Step-1,Increment      1: Step Time =    1.000,"P-3-1",          3548,   160.318E-03,   168.139E-03,            0.,NA,NA,"",   1.02343E+06,   1.01747E+06,   1.01747E+06
C:/temp/Job-3.odb,Step-1,Increment      1: Step Time =    1.000,"P-3-1",          3549,   77.3529E-03,   55.2583E-03,            0.,NA,NA,"",   1.09963E+06,   1.10526E+06,   1.10526E+06
C:/temp/Job-3.odb,Step-1,Increment      1: Step Time =    1.000,"P-3-1",          3550,   89.4161E-03,   154.758E-03,            0.,NA,NA,"",   1.03416E+06,   1.05847E+06,   1.05847E+06
C:/temp/Job-3.odb,Step-1,Increment      1: Step Time =    1.000,"P-3-1",          3551,   62.7132E-03,   163.199E-03,            0.,NA,NA,"",   1.05459E+06,   1.05892E+06,   1.05892E+06
C:/temp/Job-3.odb,Step-1,Increment      1: Step Time =    1.000,"P-3-1",          3552,   41.0859E-03,   165.598E-03,            0.,NA,NA,"",   1.03876E+06,   1.05949E+06,   1.05949E+06
C:/temp/Job-3.odb,Step-1,Increment      1: Step Time =    1.000,"P-3-1",          3553,   156.074E-03,   101.446E-03,            0.,NA,NA,"",   911.389E+03,   921.864E+03,   921.864E+03
C:/temp/Job-3.odb,Step-1,Increment      1: Step Time =    1.000,"P-3-1",          3554,   43.5623E-03,   105.802E-03,            0.,NA,NA,"",   823.250E+03,   884.644E+03,   884.644E+03
C:/temp/Job-3.odb,Step-1,Increment      1: Step Time =    1.000,"P-3-1",          3555,   87.4175E-03,   41.9273E-03,            0.,NA,NA,"",   1.03218E+06,   1.05168E+06,   1.05168E+06
C:/temp/Job-3.odb,Step-1,Increment      1: Step Time =    1.000,"P-3-1",          3556,   126.641E-03,   36.2239E-03,            0.,NA,NA,"",   1.04011E+06,   1.03861E+06,   1.03861E+06
C:/temp/Job-3.odb,Step-1,Increment      1: Step Time =    1.000,"P-3-1",          3557,   31.2051E-03,   71.0753E-03,            0.,NA,NA,"",   893.978E+03,   959.082E+03,   959.082E+03
C:/temp/Job-3.odb,Step-1,Increment      1: Step Time =    1.000,"P-3-1",          3558,   166.742E-03,   124.897E-03,            0.,NA,NA,"",   995.330E+03,   995.477E+03,   995.477E+03
C:/temp/Job-3.odb,Step-1,Increment      1: Step Time =    1.000,"P-3-1",          3559,   38.3634E-03,   97.6350E-03,            0.,NA,NA,"",   819.829E+03,   888.512E+03,   888.512E+03
C:/temp/Job-3.odb,Step-1,Increment      1: Step Time =    1.000,"P-3-1",          3560,   57.9687E-03,   58.5823E-03,            0.,NA,NA,"",   1.06001E+06,   1.06642E+06,   1.06642E+06
C:/temp/Job-3.odb,Step-1,Increment      1: Step Time =    1.000,"P-3-1",          3561,   60.2510E-03,   57.4814E-03,            0.,NA,NA,"",   1.07023E+06,   1.07373E+06,   1.07373E+06
C:/temp/Job-3.odb,Step-1,Increment      1: Step Time =    1.000,"P-3-1",          3562,   126.256E-03,   147.431E-03,            0.,NA,NA,"",   1.09950E+06,   1.08818E+06,   1.08818E+06
C:/temp/Job-3.odb,Step-1,Increment      1: Step Time =    1.000,"P-3-1",          3563,   109.861E-03,   43.9610E-03,            0.,NA,NA,"",   1.02913E+06,   1.04948E+06,   1.04948E+06
C:/temp/Job-3.odb,Step-1,Increment      1: Step Time =    1.000,"P-3-1",          3564,   112.487E-03,   44.3582E-03,            0.,NA,NA,"",   1.03574E+06,   1.05289E+06,   1.05289E+06
C:/temp/Job-3.odb,Step-1,Increment      1: Step Time =    1.000,"P-3-1",          3565,   143.249E-03,   33.1700E-03,            0.,NA,NA,"",   1.03669E+06,   1.02869E+06,   1.02869E+06
C:/temp/Job-3.odb,Step-1,Increment      1: Step Time =    1.000,"P-3-1",          3566,   162.748E-03,   78.3520E-03,            0.,NA,NA,"",   989.523E+03,   988.445E+03,   988.445E+03
C:/temp/Job-3.odb,Step-1,Increment      1: Step Time =    1.000,"P-3-1",          3567,   74.1533E-03,   27.9261E-03,            0.,NA,NA,"",   1.02509E+06,   1.02970E+06,   1.02970E+06
C:/temp/Job-3.odb,Step-1,Increment      1: Step Time =    1.000,"P-3-1",          3568,   36.0512E-03,   130.207E-03,            0.,NA,NA,"",   918.796E+03,   973.993E+03,   973.993E+03
C:/temp/Job-3.odb,Step-1,Increment      1: Step Time =    1.000,"P-3-1",          3569,   58.9915E-03,   157.202E-03,            0.,NA,NA,"",   1.06068E+06,   1.06668E+06,   1.06668E+06
C:/temp/Job-3.odb,Step-1,Increment      1: Step Time =    1.000,"P-3-1",          3570,   101.666E-03,   154.181E-03,            0.,NA,NA,"",   1.01928E+06,   1.04987E+06,   1.04987E+06
C:/temp/Job-3.odb,Step-1,Increment      1: Step Time =    1.000,"P-3-1",          3571,   31.8650E-03,   139.324E-03,            0.,NA,NA,"",   937.314E+03,   994.378E+03,   994.378E+03
C:/temp/Job-3.odb,Step-1,Increment      1: Step Time =    1.000,"P-3-1",          3572,   91.4933E-03,   174.720E-03,            0.,NA,NA,"",   997.056E+03,   1.00621E+06,   1.00621E+06
C:/temp/Job-3.odb,Step-1,Increment      1: Step Time =    1.000,"P-3-1",          3573,   94.8424E-03,   170.628E-03,            0.,NA,NA,"",   1.00221E+06,   1.01490E+06,   1.01490E+06
C:/temp/Job-3.odb,Step-1,Increment      1: Step Time =    1.000,"P-3-1",          3574,   114.641E-03,   169.922E-03,            0.,NA,NA,"",   1.01028E+06,   1.01763E+06,   1.01763E+06
C:/temp/Job-3.odb,Step-1,Increment      1: Step Time =    1.000,"P-3-1",          3575,   132.186E-03,   170.035E-03,            0.,NA,NA,"",   1.02845E+06,   1.02473E+06,   1.02473E+06
C:/temp/Job-3.odb,Step-1,Increment      1: Step Time =    1.000,"P-3-1",          3576,   122.040E-03,   156.309E-03,            0.,NA,NA,"",   1.05728E+06,   1.05878E+06,   1.05878E+06
C:/temp/Job-3.odb,Step-1,Increment      1: Step Time =    1.000,"P-3-1",          3577,   160.109E-03,   130.275E-03,            0.,NA,NA,"",   1.01923E+06,   1.01017E+06,   1.01017E+06
C:/temp/Job-3.odb,Step-1,Increment      1: Step Time =    1.000,"P-3-1",          3578,   152.999E-03,   118.263E-03,            0.,NA,NA,"",   977.297E+03,   970.526E+03,   970.526E+03
C:/temp/Job-3.odb,Step-1,Increment      1: Step Time =    1.000,"P-3-1",          3579,   129.912E-03,   137.951E-03,            0.,NA,NA,"",   1.13732E+06,   1.10725E+06,   1.10725E+06
C:/temp/Job-3.odb,Step-1,Increment      1: Step Time =    1.000,"P-3-1",          3580,   132.862E-03,   136.369E-03,            0.,NA,NA,"",   1.13368E+06,   1.09924E+06,   1.09924E+06
C:/temp/Job-3.odb,Step-1,Increment      1: Step Time =    1.000,"P-3-1",          3581,   155.929E-03,   152.358E-03,            0.,NA,NA,"",   1.04683E+06,   1.03425E+06,   1.03425E+06
C:/temp/Job-3.odb,Step-1,Increment      1: Step Time =    1.000,"P-3-1",          3582,   122.579E-03,   176.400E-03,            0.,NA,NA,"",   1.00438E+06,   1.00589E+06,   1.00589E+06
C:/temp/Job-3.odb,Step-1,Increment      1: Step Time =    1.000,"P-3-1",          3583,   122.587E-03,   35.1815E-03,            0.,NA,NA,"",   1.03178E+06,   1.03416E+06,   1.03416E+06
C:/temp/Job-3.odb,Step-1,Increment      1: Step Time =    1.000,"P-3-1",          3584,   41.3548E-03,   76.3253E-03,            0.,NA,NA,"",   906.600E+03,   956.912E+03,   956.912E+03
C:/temp/Job-3.odb,Step-1,Increment      1: Step Time =    1.000,"P-3-1",          3585,   159.496E-03,   77.9708E-03,            0.,NA,NA,"",   992.258E+03,   987.962E+03,   987.962E+03
C:/temp/Job-3.odb,Step-1,Increment      1: Step Time =    1.000,"P-3-1",          3586,   156.986E-03,   36.5130E-03,            0.,NA,NA,"",   1.03241E+06,   1.02424E+06,   1.02424E+06
C:/temp/Job-3.odb,Step-1,Increment      1: Step Time =    1.000,"P-3-1",          3587,   147.538E-03,   35.2360E-03,            0.,NA,NA,"",   1.03874E+06,   1.02964E+06,   1.02964E+06
C:/temp/Job-3.odb,Step-1,Increment      1: Step Time =    1.000,"P-3-1",          3588,   132.824E-03,   167.918E-03,            0.,NA,NA,"",   1.03318E+06,   1.02855E+06,   1.02855E+06
C:/temp/Job-3.odb,Step-1,Increment      1: Step Time =    1.000,"P-3-1",          3589,   120.592E-03,   29.6840E-03,            0.,NA,NA,"",   1.01610E+06,   1.01955E+06,   1.01955E+06
C:/temp/Job-3.odb,Step-1,Increment      1: Step Time =    1.000,"P-3-1",          3590,   135.444E-03,   136.289E-03,            0.,NA,NA,"",   1.12316E+06,   1.08910E+06,   1.08910E+06
C:/temp/Job-3.odb,Step-1,Increment      1: Step Time =    1.000,"P-3-1",          3591,   35.5594E-03,   143.790E-03,            0.,NA,NA,"",   968.607E+03,   1.01535E+06,   1.01535E+06
C:/temp/Job-3.odb,Step-1,Increment      1: Step Time =    1.000,"P-3-1",          3592,   35.1036E-03,   156.024E-03,            0.,NA,NA,"",   1.00430E+06,   1.04314E+06,   1.04314E+06
C:/temp/Job-3.odb,Step-1,Increment      1: Step Time =    1.000,"P-3-1",          3593,   118.599E-03,   48.7101E-03,            0.,NA,NA,"",   1.06626E+06,   1.07355E+06,   1.07355E+06
C:/temp/Job-3.odb,Step-1,Increment      1: Step Time =    1.000,"P-3-1",          3594,   71.7108E-03,   53.3219E-03,            0.,NA,NA,"",   1.09306E+06,   1.09459E+06,   1.09459E+06
C:/temp/Job-3.odb,Step-1,Increment      1: Step Time =    1.000,"P-3-1",          3595,   74.6405E-03,   52.6884E-03,            0.,NA,NA,"",   1.09147E+06,   1.09550E+06,   1.09550E+06
C:/temp/Job-3.odb,Step-1,Increment      1: Step Time =    1.000,"P-3-1",          3596,   41.9751E-03,   89.6860E-03,            0.,NA,NA,"",   837.756E+03,   898.956E+03,   898.956E+03
C:/temp/Job-3.odb,Step-1,Increment      1: Step Time =    1.000,"P-3-1",          3597,   141.153E-03,   37.9726E-03,            0.,NA,NA,"",   1.04918E+06,   1.03904E+06,   1.03904E+06
C:/temp/Job-3.odb,Step-1,Increment      1: Step Time =    1.000,"P-3-1",          3598,   46.9566E-03,   37.1031E-03,            0.,NA,NA,"",   1.04487E+06,   1.05935E+06,   1.05935E+06
C:/temp/Job-3.odb,Step-1,Increment      1: Step Time =    1.000,"P-3-1",          3599,   103.129E-03,   43.0107E-03,            0.,NA,NA,"",   1.01901E+06,   1.04436E+06,   1.04436E+06
C:/temp/Job-3.odb,Step-1,Increment      1: Step Time =    1.000,"P-3-1",          3600,   156.726E-03,   34.4121E-03,            0.,NA,NA,"",   1.03021E+06,   1.02258E+06,   1.02258E+06
C:/temp/Job-3.odb,Step-1,Increment      1: Step Time =    1.000,"P-3-1",          3601,   90.3516E-03,   176.058E-03,            0.,NA,NA,"",   995.405E+03,   1.00331E+06,   1.00331E+06
C:/temp/Job-3.odb,Step-1,Increment      1: Step Time =    1.000,"P-3-1",          3602,   145.729E-03,   170.171E-03,            0.,NA,NA,"",   1.02927E+06,   1.02242E+06,   1.02242E+06
C:/temp/Job-3.odb,Step-1,Increment      1: Step Time =    1.000,"P-3-1",          3603,   80.5472E-03,   152.945E-03,            0.,NA,NA,"",   1.06146E+06,   1.07499E+06,   1.07499E+06
C:/temp/Job-3.odb,Step-1,Increment      1: Step Time =    1.000,"P-3-1",          3604,   76.3800E-03,   151.648E-03,            0.,NA,NA,"",   1.07386E+06,   1.08206E+06,   1.08206E+06
C:/temp/Job-3.odb,Step-1,Increment      1: Step Time =    1.000,"P-3-1",          3605,   50.5231E-03,   128.289E-03,            0.,NA,NA,"",   974.906E+03,   1.00064E+06,   1.00064E+06
C:/temp/Job-3.odb,Step-1,Increment      1: Step Time =    1.000,"P-3-1",          3606,   100.823E-03,   157.923E-03,            0.,NA,NA,"",   1.01564E+06,   1.04126E+06,   1.04126E+06
C:/temp/Job-3.odb,Step-1,Increment      1: Step Time =    1.000,"P-3-1",          3607,   69.4408E-03,   166.140E-03,            0.,NA,NA,"",   1.04458E+06,   1.04893E+06,   1.04893E+06
C:/temp/Job-3.odb,Step-1,Increment      1: Step Time =    1.000,"P-3-1",          3608,   130.974E-03,   47.8749E-03,            0.,NA,NA,"",   1.08115E+06,   1.06929E+06,   1.06929E+06
C:/temp/Job-3.odb,Step-1,Increment      1: Step Time =    1.000,"P-3-1",          3609,   41.4434E-03,   156.537E-03,            0.,NA,NA,"",   1.02465E+06,   1.05137E+06,   1.05137E+06
C:/temp/Job-3.odb,Step-1,Increment      1: Step Time =    1.000,"P-3-1",          3610,   41.9096E-03,   110.358E-03,            0.,NA,NA,"",   839.283E+03,   900.557E+03,   900.557E+03
C:/temp/Job-3.odb,Step-1,Increment      1: Step Time =    1.000,"P-3-1",          3611,   83.5519E-03,   33.7826E-03,            0.,NA,NA,"",   1.02461E+06,   1.03581E+06,   1.03581E+06
C:/temp/Job-3.odb,Step-1,Increment      1: Step Time =    1.000,"P-3-1",          3612,   43.3374E-03,   80.9126E-03,            0.,NA,NA,"",   886.966E+03,   937.765E+03,   937.765E+03
C:/temp/Job-3.odb,Step-1,Increment      1: Step Time =    1.000,"P-3-1",          3613,   114.339E-03,   31.8486E-03,            0.,NA,NA,"",   1.01310E+06,   1.02135E+06,   1.02135E+06
C:/temp/Job-3.odb,Step-1,Increment      1: Step Time =    1.000,"P-3-1",          3614,   107.541E-03,   35.7515E-03,            0.,NA,NA,"",   1.01262E+06,   1.02809E+06,   1.02809E+06
C:/temp/Job-3.odb,Step-1,Increment      1: Step Time =    1.000,"P-3-1",          3615,   162.841E-03,   121.320E-03,            0.,NA,NA,"",   986.302E+03,   985.858E+03,   985.858E+03
C:/temp/Job-3.odb,Step-1,Increment      1: Step Time =    1.000,"P-3-1",          3616,   149.942E-03,   58.4878E-03,            0.,NA,NA,"",   1.06659E+06,   1.04628E+06,   1.04628E+06
C:/temp/Job-3.odb,Step-1,Increment      1: Step Time =    1.000,"P-3-1",          3617,   38.5846E-03,   148.829E-03,            0.,NA,NA,"",   997.195E+03,   1.03430E+06,   1.03430E+06
C:/temp/Job-3.odb,Step-1,Increment      1: Step Time =    1.000,"P-3-1",          3618,   138.153E-03,   51.7135E-03,            0.,NA,NA,"",   1.08759E+06,   1.06794E+06,   1.06794E+06
C:/temp/Job-3.odb,Step-1,Increment      1: Step Time =    1.000,"P-3-1",          3619,   118.879E-03,   34.3357E-03,            0.,NA,NA,"",   1.02503E+06,   1.03037E+06,   1.03037E+06
C:/temp/Job-3.odb,Step-1,Increment      1: Step Time =    1.000,"P-3-1",          3620,   43.3908E-03,   123.050E-03,            0.,NA,NA,"",   911.307E+03,   958.292E+03,   958.292E+03
C:/temp/Job-3.odb,Step-1,Increment      1: Step Time =    1.000,"P-3-1",          3621,   41.0325E-03,   121.419E-03,            0.,NA,NA,"",   893.498E+03,   946.481E+03,   946.481E+03
C:/temp/Job-3.odb,Step-1,Increment      1: Step Time =    1.000,"P-3-1",          3622,   47.4288E-03,   129.103E-03,            0.,NA,NA,"",   960.750E+03,   993.723E+03,   993.723E+03
C:/temp/Job-3.odb,Step-1,Increment      1: Step Time =    1.000,"P-3-1",          3623,   57.5761E-03,   56.5728E-03,            0.,NA,NA,"",   1.05999E+06,   1.06715E+06,   1.06715E+06
C:/temp/Job-3.odb,Step-1,Increment      1: Step Time =    1.000,"P-3-1",          3624,   58.9915E-03,   55.2668E-03,            0.,NA,NA,"",   1.06554E+06,   1.07119E+06,   1.07119E+06
C:/temp/Job-3.odb,Step-1,Increment      1: Step Time =    1.000,"P-3-1",          3625,   60.8679E-03,   53.5402E-03,            0.,NA,NA,"",   1.07154E+06,   1.07561E+06,   1.07561E+06
C:/temp/Job-3.odb,Step-1,Increment      1: Step Time =    1.000,"P-3-1",          3626,   73.0703E-03,   41.6166E-03,            0.,NA,NA,"",   1.05920E+06,   1.06539E+06,   1.06539E+06
C:/temp/Job-3.odb,Step-1,Increment      1: Step Time =    1.000,"P-3-1",          3627,   55.3114E-03,   153.830E-03,            0.,NA,NA,"",   1.05613E+06,   1.06540E+06,   1.06540E+06
C:/temp/Job-3.odb,Step-1,Increment      1: Step Time =    1.000,"P-3-1",          3628,   57.2325E-03,   151.937E-03,            0.,NA,NA,"",   1.06027E+06,   1.06807E+06,   1.06807E+06
C:/temp/Job-3.odb,Step-1,Increment      1: Step Time =    1.000,"P-3-1",          3629,   126.848E-03,   169.885E-03,            0.,NA,NA,"",   1.02455E+06,   1.02355E+06,   1.02355E+06
C:/temp/Job-3.odb,Step-1,Increment      1: Step Time =    1.000,"P-3-1",          3630,   33.2601E-03,   136.871E-03,            0.,NA,NA,"",   933.807E+03,   989.861E+03,   989.861E+03
C:/temp/Job-3.odb,Step-1,Increment      1: Step Time =    1.000,"P-3-1",          3631,   107.539E-03,   40.8006E-03,            0.,NA,NA,"",   1.02010E+06,   1.03990E+06,   1.03990E+06
C:/temp/Job-3.odb,Step-1,Increment      1: Step Time =    1.000,"P-3-1",          3632,   155.843E-03,   40.6397E-03,            0.,NA,NA,"",   1.03929E+06,   1.02932E+06,   1.02932E+06
C:/temp/Job-3.odb,Step-1,Increment      1: Step Time =    1.000,"P-3-1",          3633,   34.7762E-03,   123.080E-03,            0.,NA,NA,"",   883.391E+03,   945.866E+03,   945.866E+03
C:/temp/Job-3.odb,Step-1,Increment      1: Step Time =    1.000,"P-3-1",          3634,   36.2664E-03,   127.055E-03,            0.,NA,NA,"",   904.953E+03,   962.294E+03,   962.294E+03
C:/temp/Job-3.odb,Step-1,Increment      1: Step Time =    1.000,"P-3-1",          3635,   37.2184E-03,   116.358E-03,            0.,NA,NA,"",   858.517E+03,   922.290E+03,   922.290E+03
C:/temp/Job-3.odb,Step-1,Increment      1: Step Time =    1.000,"P-3-1",          3636,   125.090E-03,   40.8049E-03,            0.,NA,NA,"",   1.05174E+06,   1.05063E+06,   1.05063E+06
C:/temp/Job-3.odb,Step-1,Increment      1: Step Time =    1.000,"P-3-1",          3637,   131.392E-03,   38.5838E-03,            0.,NA,NA,"",   1.05087E+06,   1.04477E+06,   1.04477E+06
C:/temp/Job-3.odb,Step-1,Increment      1: Step Time =    1.000,"P-3-1",          3638,   155.630E-03,   122.519E-03,            0.,NA,NA,"",   998.079E+03,   989.411E+03,   989.411E+03
C:/temp/Job-3.odb,Step-1,Increment      1: Step Time =    1.000,"P-3-1",          3639,   157.122E-03,   112.320E-03,            0.,NA,NA,"",   946.624E+03,   950.139E+03,   950.139E+03
C:/temp/Job-3.odb,Step-1,Increment      1: Step Time =    1.000,"P-3-1",          3640,   67.2613E-03,   160.167E-03,            0.,NA,NA,"",   1.05916E+06,   1.06348E+06,   1.06348E+06
C:/temp/Job-3.odb,Step-1,Increment      1: Step Time =    1.000,"P-3-1",          3641,   92.2897E-03,   37.0529E-03,            0.,NA,NA,"",   1.01604E+06,   1.03466E+06,   1.03466E+06
C:/temp/Job-3.odb,Step-1,Increment      1: Step Time =    1.000,"P-3-1",          3642,   85.7661E-03,   38.1594E-03,            0.,NA,NA,"",   1.02827E+06,   1.04360E+06,   1.04360E+06
C:/temp/Job-3.odb,Step-1,Increment      1: Step Time =    1.000,"P-3-1",          3643,   91.1346E-03,   171.179E-03,            0.,NA,NA,"",   1.00383E+06,   1.01565E+06,   1.01565E+06
C:/temp/Job-3.odb,Step-1,Increment      1: Step Time =    1.000,"P-3-1",          3644,   92.5193E-03,   164.543E-03,            0.,NA,NA,"",   1.01304E+06,   1.03034E+06,   1.03034E+06
C:/temp/Job-3.odb,Step-1,Increment      1: Step Time =    1.000,"P-3-1",          3645,   35.6735E-03,   133.565E-03,            0.,NA,NA,"",   931.484E+03,   984.965E+03,   984.965E+03
C:/temp/Job-3.odb,Step-1,Increment      1: Step Time =    1.000,"P-3-1",          3646,   144.701E-03,   163.646E-03,            0.,NA,NA,"",   1.04384E+06,   1.03397E+06,   1.03397E+06
C:/temp/Job-3.odb,Step-1,Increment      1: Step Time =    1.000,"P-3-1",          3647,   135.170E-03,   47.6128E-03,            0.,NA,NA,"",   1.07915E+06,   1.06435E+06,   1.06435E+06
C:/temp/Job-3.odb,Step-1,Increment      1: Step Time =    1.000,"P-3-1",          3648,   146.715E-03,   140.288E-03,            0.,NA,NA,"",   1.07809E+06,   1.05434E+06,   1.05434E+06
C:/temp/Job-3.odb,Step-1,Increment      1: Step Time =    1.000,"P-3-1",          3649,   96.0166E-03,   35.8110E-03,            0.,NA,NA,"",   1.01063E+06,   1.02920E+06,   1.02920E+06
C:/temp/Job-3.odb,Step-1,Increment      1: Step Time =    1.000,"P-3-1",          3650,   119.794E-03,   31.5865E-03,            0.,NA,NA,"",   1.01911E+06,   1.02323E+06,   1.02323E+06
C:/temp/Job-3.odb,Step-1,Increment      1: Step Time =    1.000,"P-3-1",          3651,   40.3446E-03,   87.7773E-03,            0.,NA,NA,"",   844.306E+03,   906.503E+03,   906.503E+03
C:/temp/Job-3.odb,Step-1,Increment      1: Step Time =    1.000,"P-3-1",          3652,   38.4910E-03,   114.462E-03,            0.,NA,NA,"",   852.564E+03,   915.902E+03,   915.902E+03
C:/temp/Job-3.odb,Step-1,Increment      1: Step Time =    1.000,"P-3-1",          3653,   71.7840E-03,   164.415E-03,            0.,NA,NA,"",   1.04609E+06,   1.05109E+06,   1.05109E+06
C:/temp/Job-3.odb,Step-1,Increment      1: Step Time =    1.000,"P-3-1",          3654,   129.039E-03,   45.6002E-03,            0.,NA,NA,"",   1.07276E+06,   1.06458E+06,   1.06458E+06
C:/temp/Job-3.odb,Step-1,Increment      1: Step Time =    1.000,"P-3-1",          3655,   110.593E-03,   34.5834E-03,            0.,NA,NA,"",   1.01387E+06,   1.02656E+06,   1.02656E+06
C:/temp/Job-3.odb,Step-1,Increment      1: Step Time =    1.000,"P-3-1",          3656,   133.618E-03,   40.1610E-03,            0.,NA,NA,"",   1.05676E+06,   1.04829E+06,   1.04829E+06
C:/temp/Job-3.odb,Step-1,Increment      1: Step Time =    1.000,"P-3-1",          3657,   92.8519E-03,   167.564E-03,            0.,NA,NA,"",   1.00777E+06,   1.02280E+06,   1.02280E+06
C:/temp/Job-3.odb,Step-1,Increment      1: Step Time =    1.000,"P-3-1",          3658,   158.952E-03,   123.493E-03,            0.,NA,NA,"",   998.008E+03,   992.050E+03,   992.050E+03
C:/temp/Job-3.odb,Step-1,Increment      1: Step Time =    1.000,"P-3-1",          3659,   153.177E-03,   157.168E-03,            0.,NA,NA,"",   1.04645E+06,   1.03451E+06,   1.03451E+06
C:/temp/Job-3.odb,Step-1,Increment      1: Step Time =    1.000,"P-3-1",          3660,   145.442E-03,   39.8918E-03,            0.,NA,NA,"",   1.05026E+06,   1.03875E+06,   1.03875E+06
C:/temp/Job-3.odb,Step-1,Increment      1: Step Time =    1.000,"P-3-1",          3661,   76.3451E-03,   35.7918E-03,            0.,NA,NA,"",   1.03984E+06,   1.04734E+06,   1.04734E+06
C:/temp/Job-3.odb,Step-1,Increment      1: Step Time =    1.000,"P-3-1",          3662,   147.440E-03,   163.501E-03,            0.,NA,NA,"",   1.04242E+06,   1.03243E+06,   1.03243E+06
C:/temp/Job-3.odb,Step-1,Increment      1: Step Time =    1.000,"P-3-1",          3663,   135.564E-03,   142.568E-03,            0.,NA,NA,"",   1.10777E+06,   1.08230E+06,   1.08230E+06
C:/temp/Job-3.odb,Step-1,Increment      1: Step Time =    1.000,"P-3-1",          3664,   74.1199E-03,   152.919E-03,            0.,NA,NA,"",   1.07286E+06,   1.07933E+06,   1.07933E+06
C:/temp/Job-3.odb,Step-1,Increment      1: Step Time =    1.000,"P-3-1",          3665,   43.4815E-03,   154.651E-03,            0.,NA,NA,"",   1.02733E+06,   1.05176E+06,   1.05176E+06
C:/temp/Job-3.odb,Step-1,Increment      1: Step Time =    1.000,"P-3-1",          3666,   48.2025E-03,   150.919E-03,            0.,NA,NA,"",   1.03519E+06,   1.05437E+06,   1.05437E+06
C:/temp/Job-3.odb,Step-1,Increment      1: Step Time =    1.000,"P-3-1",          3667,   151.258E-03,   146.706E-03,            0.,NA,NA,"",   1.06221E+06,   1.04459E+06,   1.04459E+06
C:/temp/Job-3.odb,Step-1,Increment      1: Step Time =    1.000,"P-3-1",          3668,   150.070E-03,   145.040E-03,            0.,NA,NA,"",   1.06582E+06,   1.04688E+06,   1.04688E+06
C:/temp/Job-3.odb,Step-1,Increment      1: Step Time =    1.000,"P-3-1",          3669,   147.763E-03,   145.690E-03,            0.,NA,NA,"",   1.07074E+06,   1.05093E+06,   1.05093E+06
C:/temp/Job-3.odb,Step-1,Increment      1: Step Time =    1.000,"P-3-1",          3670,   86.4661E-03,   166.105E-03,            0.,NA,NA,"",   1.01944E+06,   1.03245E+06,   1.03245E+06
C:/temp/Job-3.odb,Step-1,Increment      1: Step Time =    1.000,"P-3-1",          3671,   82.3082E-03,   163.716E-03,            0.,NA,NA,"",   1.03118E+06,   1.04275E+06,   1.04275E+06
C:/temp/Job-3.odb,Step-1,Increment      1: Step Time =    1.000,"P-3-1",          3672,   88.5738E-03,   37.7740E-03,            0.,NA,NA,"",   1.02294E+06,   1.04008E+06,   1.04008E+06
C:/temp/Job-3.odb,Step-1,Increment      1: Step Time =    1.000,"P-3-1",          3673,   108.326E-03,   161.362E-03,            0.,NA,NA,"",   1.01735E+06,   1.03467E+06,   1.03467E+06
C:/temp/Job-3.odb,Step-1,Increment      1: Step Time =    1.000,"P-3-1",          3674,   161.287E-03,   126.722E-03,            0.,NA,NA,"",   1.00693E+06,   1.00096E+06,   1.00096E+06
C:/temp/Job-3.odb,Step-1,Increment      1: Step Time =    1.000,"P-3-1",          3675,   38.8259E-03,   124.201E-03,            0.,NA,NA,"",   900.955E+03,   955.501E+03,   955.501E+03
C:/temp/Job-3.odb,Step-1,Increment      1: Step Time =    1.000,"P-3-1",          3676,   116.962E-03,   39.4161E-03,            0.,NA,NA,"",   1.03408E+06,   1.04292E+06,   1.04292E+06
C:/temp/Job-3.odb,Step-1,Increment      1: Step Time =    1.000,"P-3-1",          3677,   116.682E-03,   34.7740E-03,            0.,NA,NA,"",   1.02304E+06,   1.03056E+06,   1.03056E+06
C:/temp/Job-3.odb,Step-1,Increment      1: Step Time =    1.000,"P-3-1",          3678,   88.9660E-03,   163.067E-03,            0.,NA,NA,"",   1.02038E+06,   1.03704E+06,   1.03704E+06
C:/temp/Job-3.odb,Step-1,Increment      1: Step Time =    1.000,"P-3-1",          3679,   58.8605E-03,   51.4532E-03,            0.,NA,NA,"",   1.06510E+06,   1.07147E+06,   1.07147E+06
C:/temp/Job-3.odb,Step-1,Increment      1: Step Time =    1.000,"P-3-1",          3680,   49.1253E-03,   44.9630E-03,            0.,NA,NA,"",   1.04242E+06,   1.05853E+06,   1.05853E+06
C:/temp/Job-3.odb,Step-1,Increment      1: Step Time =    1.000,"P-3-1",          3681,   36.9149E-03,   122.013E-03,            0.,NA,NA,"",   884.492E+03,   944.062E+03,   944.062E+03
C:/temp/Job-3.odb,Step-1,Increment      1: Step Time =    1.000,"P-3-1",          3682,   137.675E-03,   45.2710E-03,            0.,NA,NA,"",   1.07038E+06,   1.05640E+06,   1.05640E+06
C:/temp/Job-3.odb,Step-1,Increment      1: Step Time =    1.000,"P-3-1",          3683,   124.772E-03,   45.4667E-03,            0.,NA,NA,"",   1.06767E+06,   1.06508E+06,   1.06508E+06
C:/temp/Job-3.odb,Step-1,Increment      1: Step Time =    1.000,"P-3-1",          3684,   152.555E-03,   41.7738E-03,            0.,NA,NA,"",   1.04551E+06,   1.03406E+06,   1.03406E+06
C:/temp/Job-3.odb,Step-1,Increment      1: Step Time =    1.000,"P-3-1",          3685,   73.9176E-03,   163.523E-03,            0.,NA,NA,"",   1.04608E+06,   1.05230E+06,   1.05230E+06
C:/temp/Job-3.odb,Step-1,Increment      1: Step Time =    1.000,"P-3-1",          3686,   137.269E-03,   147.267E-03,            0.,NA,NA,"",   1.09206E+06,   1.07130E+06,   1.07130E+06
C:/temp/Job-3.odb,Step-1,Increment      1: Step Time =    1.000,"P-3-1",          3687,   39.6600E-03,   138.158E-03,            0.,NA,NA,"",   965.607E+03,   1.00796E+06,   1.00796E+06
C:/temp/Job-3.odb,Step-1,Increment      1: Step Time =    1.000,"P-3-1",          3688,   36.0278E-03,   136.678E-03,            0.,NA,NA,"",   945.244E+03,   995.799E+03,   995.799E+03
C:/temp/Job-3.odb,Step-1,Increment      1: Step Time =    1.000,"P-3-1",          3689,   46.6808E-03,   135.575E-03,            0.,NA,NA,"",   987.135E+03,   1.01724E+06,   1.01724E+06
C:/temp/Job-3.odb,Step-1,Increment      1: Step Time =    1.000,"P-3-1",          3690,   144.755E-03,   160.570E-03,            0.,NA,NA,"",   1.05105E+06,   1.03943E+06,   1.03943E+06
C:/temp/Job-3.odb,Step-1,Increment      1: Step Time =    1.000,"P-3-1",          3691,   144.377E-03,   141.324E-03,            0.,NA,NA,"",   1.08543E+06,   1.06061E+06,   1.06061E+06
C:/temp/Job-3.odb,Step-1,Increment      1: Step Time =    1.000,"P-3-1",          3692,   41.3574E-03,   133.433E-03,            0.,NA,NA,"",   953.880E+03,   996.389E+03,   996.389E+03
C:/temp/Job-3.odb,Step-1,Increment      1: Step Time =    1.000,"P-3-1",          3693,   145.130E-03,   146.597E-03,            0.,NA,NA,"",   1.07576E+06,   1.05551E+06,   1.05551E+06
C:/temp/Job-3.odb,Step-1,Increment      1: Step Time =    1.000,"P-3-1",          3694,   44.6287E-03,   134.606E-03,            0.,NA,NA,"",   973.691E+03,   1.00853E+06,   1.00853E+06
C:/temp/Job-3.odb,Step-1,Increment      1: Step Time =    1.000,"P-3-1",          3695,   44.1004E-03,   141.584E-03,            0.,NA,NA,"",   997.924E+03,   1.02904E+06,   1.02904E+06
C:/temp/Job-3.odb,Step-1,Increment      1: Step Time =    1.000,"P-3-1",          3696,   73.1785E-03,   161.610E-03,            0.,NA,NA,"",   1.05038E+06,   1.05645E+06,   1.05645E+06
C:/temp/Job-3.odb,Step-1,Increment      1: Step Time =    1.000,"P-3-1",          3697,   146.071E-03,   148.516E-03,            0.,NA,NA,"",   1.07117E+06,   1.05243E+06,   1.05243E+06
C:/temp/Job-3.odb,Step-1,Increment      1: Step Time =    1.000,"P-3-1",          3698,   144.880E-03,   157.513E-03,            0.,NA,NA,"",   1.05727E+06,   1.04385E+06,   1.04385E+06
C:/temp/Job-3.odb,Step-1,Increment      1: Step Time =    1.000,"P-3-1",          3699,   147.134E-03,   151.747E-03,            0.,NA,NA,"",   1.06473E+06,   1.04820E+06,   1.04820E+06
C:/temp/Job-3.odb,Step-1,Increment      1: Step Time =    1.000,"P-3-1",          3700,   142.790E-03,   148.380E-03,            0.,NA,NA,"",   1.07865E+06,   1.05888E+06,   1.05888E+06
C:/temp/Job-3.odb,Step-1,Increment      1: Step Time =    1.000,"P-3-1",          3701,   140.259E-03,   150.046E-03,            0.,NA,NA,"",   1.08089E+06,   1.06203E+06,   1.06203E+06
C:/temp/Job-3.odb,Step-1,Increment      1: Step Time =    1.000,"P-3-1",          3702,   141.762E-03,   153.267E-03,            0.,NA,NA,"",   1.07063E+06,   1.05436E+06,   1.05436E+06
C:/temp/Job-3.odb,Step-1,Increment      1: Step Time =    1.000,"P-3-1",          3703,   137.354E-03,   157.169E-03,            0.,NA,NA,"",   1.06425E+06,   1.05194E+06,   1.05194E+06
