ODB Name,Step,Frame,Part Instance Name,    Node Label,X,Y,Z,Section Name,Material Name,Section Point,       S-Mises,S-Max. In-Plane Principal (Abs),S-Max. Principal (Abs)
C:/temp/Job-1.odb,Step-1,Increment      1: Step Time =    1.000,"P-1-1",             1,   95.3984E-03,   111.622E-03,            0.,NA,NA,"",   2.11068E+06,   2.17761E+06,   2.17761E+06
C:/temp/Job-1.odb,Step-1,Increment      1: Step Time =    1.000,"P-1-1",             2,   91.4432E-03,   109.112E-03,            0.,NA,NA,"",   1.11247E+06,   1.12491E+06,   1.12491E+06
C:/temp/Job-1.odb,Step-1,Increment      1: Step Time =    1.000,"P-1-1",             3,   88.6897E-03,   105.322E-03,            0.,NA,NA,"",   287.408E+03,  -53.2326E+03,  -53.2326E+03
C:/temp/Job-1.odb,Step-1,Increment      1: Step Time =    1.000,"P-1-1",             4,   87.5247E-03,   100.785E-03,            0.,NA,NA,"",   690.655E+03,  -700.526E+03,  -700.526E+03
C:/temp/Job-1.odb,Step-1,Increment      1: Step Time =    1.000,"P-1-1",             5,   88.1118E-03,   96.1373E-03,            0.,NA,NA,"",   429.197E+03,  -389.984E+03,  -389.984E+03
C:/temp/Job-1.odb,Step-1,Increment      1: Step Time =    1.000,"P-1-1",             6,   90.3686E-03,   92.0322E-03,            0.,NA,NA,"",   764.854E+03,   753.418E+03,   753.418E+03
C:/temp/Job-1.odb,Step-1,Increment      1: Step Time =    1.000,"P-1-1",             7,   93.9781E-03,   89.0462E-03,            0.,NA,NA,"",   1.87505E+06,   1.92061E+06,   1.92061E+06
C:/temp/Job-1.odb,Step-1,Increment      1: Step Time =    1.000,"P-1-1",             8,   98.4333E-03,   87.5986E-03,            0.,NA,NA,"",   2.55986E+06,   2.64621E+06,   2.64621E+06
C:/temp/Job-1.odb,Step-1,Increment      1: Step Time =    1.000,"P-1-1",             9,   101.567E-03,   87.5986E-03,            0.,NA,NA,"",   2.66269E+06,   2.71716E+06,   2.71716E+06
C:/temp/Job-1.odb,Step-1,Increment      1: Step Time =    1.000,"P-1-1",            10,   106.022E-03,   89.0462E-03,            0.,NA,NA,"",   1.85675E+06,   1.91434E+06,   1.91434E+06
C:/temp/Job-1.odb,Step-1,Increment      1: Step Time =    1.000,"P-1-1",            11,   109.631E-03,   92.0322E-03,            0.,NA,NA,"",   777.072E+03,   757.453E+03,   757.453E+03
C:/temp/Job-1.odb,Step-1,Increment      1: Step Time =    1.000,"P-1-1",            12,   111.888E-03,   96.1373E-03,            0.,NA,NA,"",   483.702E+03,  -460.669E+03,  -460.669E+03
C:/temp/Job-1.odb,Step-1,Increment      1: Step Time =    1.000,"P-1-1",            13,   112.475E-03,   100.785E-03,            0.,NA,NA,"",   690.186E+03,  -701.098E+03,  -701.098E+03
C:/temp/Job-1.odb,Step-1,Increment      1: Step Time =    1.000,"P-1-1",            14,   111.310E-03,   105.322E-03,            0.,NA,NA,"",   330.371E+03,  -88.6810E+03,  -88.6810E+03
C:/temp/Job-1.odb,Step-1,Increment      1: Step Time =    1.000,"P-1-1",            15,   108.557E-03,   109.112E-03,            0.,NA,NA,"",   1.11299E+06,   1.13322E+06,   1.13322E+06
C:/temp/Job-1.odb,Step-1,Increment      1: Step Time =    1.000,"P-1-1",            16,   104.602E-03,   111.622E-03,            0.,NA,NA,"",   2.18308E+06,   2.24615E+06,   2.24615E+06
C:/temp/Job-1.odb,Step-1,Increment      1: Step Time =    1.000,"P-1-1",            17,   100.000E-03,   112.500E-03,            0.,NA,NA,"",   2.65902E+06,   2.71959E+06,   2.71959E+06
C:/temp/Job-1.odb,Step-1,Increment      1: Step Time =    1.000,"P-1-1",            18,   196.899E-03,            0.,            0.,NA,NA,"",   999.975E+03,   999.972E+03,   999.972E+03
C:/temp/Job-1.odb,Step-1,Increment      1: Step Time =    1.000,"P-1-1",            19,   193.798E-03,            0.,            0.,NA,NA,"",   999.866E+03,   999.864E+03,   999.864E+03
C:/temp/Job-1.odb,Step-1,Increment      1: Step Time =    1.000,"P-1-1",            20,   190.698E-03,            0.,            0.,NA,NA,"",   999.688E+03,   999.687E+03,   999.687E+03
C:/temp/Job-1.odb,Step-1,Increment      1: Step Time =    1.000,"P-1-1",            21,   187.597E-03,            0.,            0.,NA,NA,"",   999.471E+03,   999.471E+03,   999.471E+03
C:/temp/Job-1.odb,Step-1,Increment      1: Step Time =    1.000,"P-1-1",            22,   184.496E-03,            0.,            0.,NA,NA,"",   999.232E+03,   999.231E+03,   999.231E+03
C:/temp/Job-1.odb,Step-1,Increment      1: Step Time =    1.000,"P-1-1",            23,   181.395E-03,            0.,            0.,NA,NA,"",   998.966E+03,   998.965E+03,   998.965E+03
C:/temp/Job-1.odb,Step-1,Increment      1: Step Time =    1.000,"P-1-1",            24,   176.744E-03,            0.,            0.,NA,NA,"",   998.464E+03,   998.460E+03,   998.460E+03
C:/temp/Job-1.odb,Step-1,Increment      1: Step Time =    1.000,"P-1-1",            25,   173.643E-03,            0.,            0.,NA,NA,"",   998.006E+03,   998.001E+03,   998.001E+03
C:/temp/Job-1.odb,Step-1,Increment      1: Step Time =    1.000,"P-1-1",            26,   170.543E-03,            0.,            0.,NA,NA,"",   997.396E+03,   997.388E+03,   997.388E+03
C:/temp/Job-1.odb,Step-1,Increment      1: Step Time =    1.000,"P-1-1",            27,   167.442E-03,            0.,            0.,NA,NA,"",   996.577E+03,   996.569E+03,   996.569E+03
C:/temp/Job-1.odb,Step-1,Increment      1: Step Time =    1.000,"P-1-1",            28,   164.341E-03,            0.,            0.,NA,NA,"",   995.520E+03,   995.512E+03,   995.512E+03
C:/temp/Job-1.odb,Step-1,Increment      1: Step Time =    1.000,"P-1-1",            29,   161.240E-03,            0.,            0.,NA,NA,"",   994.155E+03,   994.148E+03,   994.148E+03
C:/temp/Job-1.odb,Step-1,Increment      1: Step Time =    1.000,"P-1-1",            30,   158.140E-03,            0.,            0.,NA,NA,"",   992.414E+03,   992.407E+03,   992.407E+03
C:/temp/Job-1.odb,Step-1,Increment      1: Step Time =    1.000,"P-1-1",            31,   155.039E-03,            0.,            0.,NA,NA,"",   990.301E+03,   990.290E+03,   990.290E+03
C:/temp/Job-1.odb,Step-1,Increment      1: Step Time =    1.000,"P-1-1",            32,   151.938E-03,            0.,            0.,NA,NA,"",   987.785E+03,   987.771E+03,   987.771E+03
C:/temp/Job-1.odb,Step-1,Increment      1: Step Time =    1.000,"P-1-1",            33,   148.837E-03,            0.,            0.,NA,NA,"",   984.837E+03,   984.821E+03,   984.821E+03
C:/temp/Job-1.odb,Step-1,Increment      1: Step Time =    1.000,"P-1-1",            34,   145.736E-03,            0.,            0.,NA,NA,"",   981.449E+03,   981.432E+03,   981.432E+03
C:/temp/Job-1.odb,Step-1,Increment      1: Step Time =    1.000,"P-1-1",            35,   142.636E-03,            0.,            0.,NA,NA,"",   977.632E+03,   977.615E+03,   977.615E+03
C:/temp/Job-1.odb,Step-1,Increment      1: Step Time =    1.000,"P-1-1",            36,   137.984E-03,            0.,            0.,NA,NA,"",   971.160E+03,   971.150E+03,   971.150E+03
C:/temp/Job-1.odb,Step-1,Increment      1: Step Time =    1.000,"P-1-1",            37,   134.884E-03,            0.,            0.,NA,NA,"",   966.422E+03,   966.415E+03,   966.415E+03
C:/temp/Job-1.odb,Step-1,Increment      1: Step Time =    1.000,"P-1-1",            38,   131.783E-03,            0.,            0.,NA,NA,"",   961.411E+03,   961.408E+03,   961.408E+03
C:/temp/Job-1.odb,Step-1,Increment      1: Step Time =    1.000,"P-1-1",            39,   128.682E-03,            0.,            0.,NA,NA,"",   956.242E+03,   956.242E+03,   956.242E+03
C:/temp/Job-1.odb,Step-1,Increment      1: Step Time =    1.000,"P-1-1",            40,   125.581E-03,            0.,            0.,NA,NA,"",   951.040E+03,   951.040E+03,   951.040E+03
C:/temp/Job-1.odb,Step-1,Increment      1: Step Time =    1.000,"P-1-1",            41,   122.481E-03,            0.,            0.,NA,NA,"",   945.906E+03,   945.909E+03,   945.909E+03
C:/temp/Job-1.odb,Step-1,Increment      1: Step Time =    1.000,"P-1-1",            42,   119.380E-03,            0.,            0.,NA,NA,"",   940.945E+03,   940.953E+03,   940.953E+03
C:/temp/Job-1.odb,Step-1,Increment      1: Step Time =    1.000,"P-1-1",            43,   116.279E-03,            0.,            0.,NA,NA,"",   936.271E+03,   936.283E+03,   936.283E+03
C:/temp/Job-1.odb,Step-1,Increment      1: Step Time =    1.000,"P-1-1",            44,   113.178E-03,            0.,            0.,NA,NA,"",   932.002E+03,   932.018E+03,   932.018E+03
C:/temp/Job-1.odb,Step-1,Increment      1: Step Time =    1.000,"P-1-1",            45,   110.078E-03,            0.,            0.,NA,NA,"",   928.264E+03,   928.285E+03,   928.285E+03
C:/temp/Job-1.odb,Step-1,Increment      1: Step Time =    1.000,"P-1-1",            46,   106.977E-03,            0.,            0.,NA,NA,"",   925.189E+03,   925.213E+03,   925.213E+03
C:/temp/Job-1.odb,Step-1,Increment      1: Step Time =    1.000,"P-1-1",            47,   103.876E-03,            0.,            0.,NA,NA,"",   922.843E+03,   922.863E+03,   922.863E+03
C:/temp/Job-1.odb,Step-1,Increment      1: Step Time =    1.000,"P-1-1",            48,   99.2248E-03,            0.,            0.,NA,NA,"",   920.747E+03,   920.773E+03,   920.773E+03
C:/temp/Job-1.odb,Step-1,Increment      1: Step Time =    1.000,"P-1-1",            49,   96.1240E-03,            0.,            0.,NA,NA,"",   920.366E+03,   920.389E+03,   920.389E+03
C:/temp/Job-1.odb,Step-1,Increment      1: Step Time =    1.000,"P-1-1",            50,   93.0233E-03,            0.,            0.,NA,NA,"",   920.699E+03,   920.728E+03,   920.728E+03
C:/temp/Job-1.odb,Step-1,Increment      1: Step Time =    1.000,"P-1-1",            51,   89.9225E-03,            0.,            0.,NA,NA,"",   921.819E+03,   921.839E+03,   921.839E+03
C:/temp/Job-1.odb,Step-1,Increment      1: Step Time =    1.000,"P-1-1",            52,   86.8217E-03,            0.,            0.,NA,NA,"",   923.629E+03,   923.645E+03,   923.645E+03
C:/temp/Job-1.odb,Step-1,Increment      1: Step Time =    1.000,"P-1-1",            53,   83.7209E-03,            0.,            0.,NA,NA,"",   926.025E+03,   926.038E+03,   926.038E+03
C:/temp/Job-1.odb,Step-1,Increment      1: Step Time =    1.000,"P-1-1",            54,   80.6202E-03,            0.,            0.,NA,NA,"",   928.914E+03,   928.924E+03,   928.924E+03
C:/temp/Job-1.odb,Step-1,Increment      1: Step Time =    1.000,"P-1-1",            55,   77.5194E-03,            0.,            0.,NA,NA,"",   932.233E+03,   932.242E+03,   932.242E+03
C:/temp/Job-1.odb,Step-1,Increment      1: Step Time =    1.000,"P-1-1",            56,   74.4186E-03,            0.,            0.,NA,NA,"",   935.948E+03,   935.961E+03,   935.961E+03
C:/temp/Job-1.odb,Step-1,Increment      1: Step Time =    1.000,"P-1-1",            57,   71.3178E-03,            0.,            0.,NA,NA,"",   940.026E+03,   940.032E+03,   940.032E+03
C:/temp/Job-1.odb,Step-1,Increment      1: Step Time =    1.000,"P-1-1",            58,   68.2171E-03,            0.,            0.,NA,NA,"",   944.261E+03,   944.267E+03,   944.267E+03
C:/temp/Job-1.odb,Step-1,Increment      1: Step Time =    1.000,"P-1-1",            59,   65.1163E-03,            0.,            0.,NA,NA,"",   948.521E+03,   948.524E+03,   948.524E+03
C:/temp/Job-1.odb,Step-1,Increment      1: Step Time =    1.000,"P-1-1",            60,   62.0155E-03,            0.,            0.,NA,NA,"",   952.760E+03,   952.754E+03,   952.754E+03
C:/temp/Job-1.odb,Step-1,Increment      1: Step Time =    1.000,"P-1-1",            61,   57.3643E-03,            0.,            0.,NA,NA,"",   959.133E+03,   959.131E+03,   959.131E+03
C:/temp/Job-1.odb,Step-1,Increment      1: Step Time =    1.000,"P-1-1",            62,   54.2636E-03,            0.,            0.,NA,NA,"",   963.400E+03,   963.403E+03,   963.403E+03
C:/temp/Job-1.odb,Step-1,Increment      1: Step Time =    1.000,"P-1-1",            63,   51.1628E-03,            0.,            0.,NA,NA,"",   967.729E+03,   967.735E+03,   967.735E+03
C:/temp/Job-1.odb,Step-1,Increment      1: Step Time =    1.000,"P-1-1",            64,   48.0620E-03,            0.,            0.,NA,NA,"",   972.218E+03,   972.228E+03,   972.228E+03
C:/temp/Job-1.odb,Step-1,Increment      1: Step Time =    1.000,"P-1-1",            65,   44.9612E-03,            0.,            0.,NA,NA,"",   977.007E+03,   977.027E+03,   977.027E+03
C:/temp/Job-1.odb,Step-1,Increment      1: Step Time =    1.000,"P-1-1",            66,   41.8605E-03,            0.,            0.,NA,NA,"",   982.277E+03,   982.305E+03,   982.305E+03
C:/temp/Job-1.odb,Step-1,Increment      1: Step Time =    1.000,"P-1-1",            67,   38.7597E-03,            0.,            0.,NA,NA,"",   988.184E+03,   988.217E+03,   988.217E+03
C:/temp/Job-1.odb,Step-1,Increment      1: Step Time =    1.000,"P-1-1",            68,   35.6589E-03,            0.,            0.,NA,NA,"",   994.963E+03,   995.005E+03,   995.005E+03
C:/temp/Job-1.odb,Step-1,Increment      1: Step Time =    1.000,"P-1-1",            69,   32.5581E-03,            0.,            0.,NA,NA,"",   1.00303E+06,   1.00309E+06,   1.00309E+06
C:/temp/Job-1.odb,Step-1,Increment      1: Step Time =    1.000,"P-1-1",            70,   29.4574E-03,            0.,            0.,NA,NA,"",   1.01291E+06,   1.01299E+06,   1.01299E+06
C:/temp/Job-1.odb,Step-1,Increment      1: Step Time =    1.000,"P-1-1",            71,   26.3566E-03,            0.,            0.,NA,NA,"",   1.02524E+06,   1.02536E+06,   1.02536E+06
C:/temp/Job-1.odb,Step-1,Increment      1: Step Time =    1.000,"P-1-1",            72,   23.2558E-03,            0.,            0.,NA,NA,"",   1.04091E+06,   1.04108E+06,   1.04108E+06
C:/temp/Job-1.odb,Step-1,Increment      1: Step Time =    1.000,"P-1-1",            73,   18.6047E-03,            0.,            0.,NA,NA,"",   1.07384E+06,   1.07392E+06,   1.07392E+06
C:/temp/Job-1.odb,Step-1,Increment      1: Step Time =    1.000,"P-1-1",            74,   15.5039E-03,            0.,            0.,NA,NA,"",   1.10543E+06,   1.10550E+06,   1.10550E+06
C:/temp/Job-1.odb,Step-1,Increment      1: Step Time =    1.000,"P-1-1",            75,   12.4031E-03,            0.,            0.,NA,NA,"",   1.15028E+06,   1.15054E+06,   1.15054E+06
C:/temp/Job-1.odb,Step-1,Increment      1: Step Time =    1.000,"P-1-1",            76,   9.30233E-03,            0.,            0.,NA,NA,"",   1.21911E+06,   1.21995E+06,   1.21995E+06
C:/temp/Job-1.odb,Step-1,Increment      1: Step Time =    1.000,"P-1-1",            77,   6.20155E-03,            0.,            0.,NA,NA,"",   1.33544E+06,   1.33696E+06,   1.33696E+06
C:/temp/Job-1.odb,Step-1,Increment      1: Step Time =    1.000,"P-1-1",            78,   3.10078E-03,            0.,            0.,NA,NA,"",   1.57348E+06,   1.57688E+06,   1.57688E+06
C:/temp/Job-1.odb,Step-1,Increment      1: Step Time =    1.000,"P-1-1",            79,   200.000E-03,            0.,            0.,NA,NA,"",   999.999E+03,   999.998E+03,   999.998E+03
C:/temp/Job-1.odb,Step-1,Increment      1: Step Time =    1.000,"P-1-1",            80,            0.,            0.,            0.,NA,NA,"",   2.06891E+06,   2.16350E+06,   2.16350E+06
C:/temp/Job-1.odb,Step-1,Increment      1: Step Time =    1.000,"P-1-1",            81,   200.000E-03,   196.899E-03,            0.,NA,NA,"",   1.00001E+06,   999.993E+03,   999.993E+03
C:/temp/Job-1.odb,Step-1,Increment      1: Step Time =    1.000,"P-1-1",            82,   200.000E-03,   193.798E-03,            0.,NA,NA,"",   1.00007E+06,   999.995E+03,   999.995E+03
C:/temp/Job-1.odb,Step-1,Increment      1: Step Time =    1.000,"P-1-1",            83,   200.000E-03,   190.698E-03,            0.,NA,NA,"",   1.00017E+06,   999.998E+03,   999.998E+03
C:/temp/Job-1.odb,Step-1,Increment      1: Step Time =    1.000,"P-1-1",            84,   200.000E-03,   187.597E-03,            0.,NA,NA,"",   1.00029E+06,   1.00000E+06,   1.00000E+06
C:/temp/Job-1.odb,Step-1,Increment      1: Step Time =    1.000,"P-1-1",            85,   200.000E-03,   184.496E-03,            0.,NA,NA,"",   1.00042E+06,   1.00000E+06,   1.00000E+06
C:/temp/Job-1.odb,Step-1,Increment      1: Step Time =    1.000,"P-1-1",            86,   200.000E-03,   181.395E-03,            0.,NA,NA,"",   1.00051E+06,   1.00001E+06,   1.00001E+06
C:/temp/Job-1.odb,Step-1,Increment      1: Step Time =    1.000,"P-1-1",            87,   200.000E-03,   176.744E-03,            0.,NA,NA,"",   1.00053E+06,   1.00001E+06,   1.00001E+06
C:/temp/Job-1.odb,Step-1,Increment      1: Step Time =    1.000,"P-1-1",            88,   200.000E-03,   173.643E-03,            0.,NA,NA,"",   1.00044E+06,   1.00002E+06,   1.00002E+06
C:/temp/Job-1.odb,Step-1,Increment      1: Step Time =    1.000,"P-1-1",            89,   200.000E-03,   170.543E-03,            0.,NA,NA,"",   1.00020E+06,   1.00002E+06,   1.00002E+06
C:/temp/Job-1.odb,Step-1,Increment      1: Step Time =    1.000,"P-1-1",            90,   200.000E-03,   167.442E-03,            0.,NA,NA,"",   999.804E+03,   1.00003E+06,   1.00003E+06
C:/temp/Job-1.odb,Step-1,Increment      1: Step Time =    1.000,"P-1-1",            91,   200.000E-03,   164.341E-03,            0.,NA,NA,"",   999.223E+03,   1.00003E+06,   1.00003E+06
C:/temp/Job-1.odb,Step-1,Increment      1: Step Time =    1.000,"P-1-1",            92,   200.000E-03,   161.240E-03,            0.,NA,NA,"",   998.443E+03,   1.00007E+06,   1.00007E+06
C:/temp/Job-1.odb,Step-1,Increment      1: Step Time =    1.000,"P-1-1",            93,   200.000E-03,   158.140E-03,            0.,NA,NA,"",   997.296E+03,  1000.000E+03,  1000.000E+03
C:/temp/Job-1.odb,Step-1,Increment      1: Step Time =    1.000,"P-1-1",            94,   200.000E-03,   155.039E-03,            0.,NA,NA,"",   995.999E+03,   1.00001E+06,   1.00001E+06
C:/temp/Job-1.odb,Step-1,Increment      1: Step Time =    1.000,"P-1-1",            95,   200.000E-03,   151.938E-03,            0.,NA,NA,"",   994.512E+03,   1.00003E+06,   1.00003E+06
C:/temp/Job-1.odb,Step-1,Increment      1: Step Time =    1.000,"P-1-1",            96,   200.000E-03,   148.837E-03,            0.,NA,NA,"",   992.738E+03,   1.00004E+06,   1.00004E+06
C:/temp/Job-1.odb,Step-1,Increment      1: Step Time =    1.000,"P-1-1",            97,   200.000E-03,   145.736E-03,            0.,NA,NA,"",   990.691E+03,   1.00003E+06,   1.00003E+06
C:/temp/Job-1.odb,Step-1,Increment      1: Step Time =    1.000,"P-1-1",            98,   200.000E-03,   142.636E-03,            0.,NA,NA,"",   988.420E+03,   1.00003E+06,   1.00003E+06
C:/temp/Job-1.odb,Step-1,Increment      1: Step Time =    1.000,"P-1-1",            99,   200.000E-03,   137.984E-03,            0.,NA,NA,"",   984.662E+03,   1.00003E+06,   1.00003E+06
C:/temp/Job-1.odb,Step-1,Increment      1: Step Time =    1.000,"P-1-1",           100,   200.000E-03,   134.884E-03,            0.,NA,NA,"",   981.998E+03,   1.00001E+06,   1.00001E+06
C:/temp/Job-1.odb,Step-1,Increment      1: Step Time =    1.000,"P-1-1",           101,   200.000E-03,   131.783E-03,            0.,NA,NA,"",   979.351E+03,   1.00006E+06,   1.00006E+06
C:/temp/Job-1.odb,Step-1,Increment      1: Step Time =    1.000,"P-1-1",           102,   200.000E-03,   128.682E-03,            0.,NA,NA,"",   976.493E+03,   1.00003E+06,   1.00003E+06
C:/temp/Job-1.odb,Step-1,Increment      1: Step Time =    1.000,"P-1-1",           103,   200.000E-03,   125.581E-03,            0.,NA,NA,"",   973.522E+03,   999.961E+03,   999.961E+03
C:/temp/Job-1.odb,Step-1,Increment      1: Step Time =    1.000,"P-1-1",           104,   200.000E-03,   122.481E-03,            0.,NA,NA,"",   970.933E+03,   999.992E+03,   999.992E+03
C:/temp/Job-1.odb,Step-1,Increment      1: Step Time =    1.000,"P-1-1",           105,   200.000E-03,   119.380E-03,            0.,NA,NA,"",   968.362E+03,   999.920E+03,   999.920E+03
C:/temp/Job-1.odb,Step-1,Increment      1: Step Time =    1.000,"P-1-1",           106,   200.000E-03,   116.279E-03,            0.,NA,NA,"",   966.047E+03,   999.950E+03,   999.950E+03
C:/temp/Job-1.odb,Step-1,Increment      1: Step Time =    1.000,"P-1-1",           107,   200.000E-03,   113.178E-03,            0.,NA,NA,"",   964.147E+03,   999.967E+03,   999.967E+03
C:/temp/Job-1.odb,Step-1,Increment      1: Step Time =    1.000,"P-1-1",           108,   200.000E-03,   110.078E-03,            0.,NA,NA,"",   962.584E+03,   999.951E+03,   999.951E+03
C:/temp/Job-1.odb,Step-1,Increment      1: Step Time =    1.000,"P-1-1",           109,   200.000E-03,   106.977E-03,            0.,NA,NA,"",   961.422E+03,   999.936E+03,   999.936E+03
C:/temp/Job-1.odb,Step-1,Increment      1: Step Time =    1.000,"P-1-1",           110,   200.000E-03,   103.876E-03,            0.,NA,NA,"",   960.741E+03,   999.938E+03,   999.938E+03
C:/temp/Job-1.odb,Step-1,Increment      1: Step Time =    1.000,"P-1-1",           111,   200.000E-03,   99.2248E-03,            0.,NA,NA,"",   960.481E+03,   999.880E+03,   999.880E+03
C:/temp/Job-1.odb,Step-1,Increment      1: Step Time =    1.000,"P-1-1",           112,   200.000E-03,   96.1240E-03,            0.,NA,NA,"",   960.943E+03,   999.950E+03,   999.950E+03
C:/temp/Job-1.odb,Step-1,Increment      1: Step Time =    1.000,"P-1-1",           113,   200.000E-03,   93.0233E-03,            0.,NA,NA,"",   961.636E+03,   999.934E+03,   999.934E+03
C:/temp/Job-1.odb,Step-1,Increment      1: Step Time =    1.000,"P-1-1",           114,   200.000E-03,   89.9225E-03,            0.,NA,NA,"",   962.800E+03,   999.996E+03,   999.996E+03
C:/temp/Job-1.odb,Step-1,Increment      1: Step Time =    1.000,"P-1-1",           115,   200.000E-03,   86.8217E-03,            0.,NA,NA,"",   964.270E+03,   999.940E+03,   999.940E+03
C:/temp/Job-1.odb,Step-1,Increment      1: Step Time =    1.000,"P-1-1",           116,   200.000E-03,   83.7209E-03,            0.,NA,NA,"",   966.230E+03,   999.955E+03,   999.955E+03
C:/temp/Job-1.odb,Step-1,Increment      1: Step Time =    1.000,"P-1-1",           117,   200.000E-03,   80.6202E-03,            0.,NA,NA,"",   968.478E+03,   999.952E+03,   999.952E+03
C:/temp/Job-1.odb,Step-1,Increment      1: Step Time =    1.000,"P-1-1",           118,   200.000E-03,   77.5194E-03,            0.,NA,NA,"",   970.955E+03,   999.966E+03,   999.966E+03
C:/temp/Job-1.odb,Step-1,Increment      1: Step Time =    1.000,"P-1-1",           119,   200.000E-03,   74.4186E-03,            0.,NA,NA,"",   973.676E+03,   999.870E+03,   999.870E+03
C:/temp/Job-1.odb,Step-1,Increment      1: Step Time =    1.000,"P-1-1",           120,   200.000E-03,   71.3178E-03,            0.,NA,NA,"",   976.775E+03,   1.00019E+06,   1.00019E+06
C:/temp/Job-1.odb,Step-1,Increment      1: Step Time =    1.000,"P-1-1",           121,   200.000E-03,   68.2171E-03,            0.,NA,NA,"",   979.363E+03,   1.00003E+06,   1.00003E+06
C:/temp/Job-1.odb,Step-1,Increment      1: Step Time =    1.000,"P-1-1",           122,   200.000E-03,   65.1163E-03,            0.,NA,NA,"",   982.053E+03,   1.00001E+06,   1.00001E+06
C:/temp/Job-1.odb,Step-1,Increment      1: Step Time =    1.000,"P-1-1",           123,   200.000E-03,   62.0155E-03,            0.,NA,NA,"",   984.706E+03,   1.00000E+06,   1.00000E+06
C:/temp/Job-1.odb,Step-1,Increment      1: Step Time =    1.000,"P-1-1",           124,   200.000E-03,   57.3643E-03,            0.,NA,NA,"",   988.471E+03,   1.00001E+06,   1.00001E+06
C:/temp/Job-1.odb,Step-1,Increment      1: Step Time =    1.000,"P-1-1",           125,   200.000E-03,   54.2636E-03,            0.,NA,NA,"",   990.735E+03,   1.00001E+06,   1.00001E+06
C:/temp/Job-1.odb,Step-1,Increment      1: Step Time =    1.000,"P-1-1",           126,   200.000E-03,   51.1628E-03,            0.,NA,NA,"",   992.783E+03,   1.00005E+06,   1.00005E+06
C:/temp/Job-1.odb,Step-1,Increment      1: Step Time =    1.000,"P-1-1",           127,   200.000E-03,   48.0620E-03,            0.,NA,NA,"",   994.548E+03,   1.00004E+06,   1.00004E+06
C:/temp/Job-1.odb,Step-1,Increment      1: Step Time =    1.000,"P-1-1",           128,   200.000E-03,   44.9612E-03,            0.,NA,NA,"",   996.074E+03,   999.990E+03,   999.990E+03
C:/temp/Job-1.odb,Step-1,Increment      1: Step Time =    1.000,"P-1-1",           129,   200.000E-03,   41.8605E-03,            0.,NA,NA,"",   997.466E+03,   1.00009E+06,   1.00009E+06
C:/temp/Job-1.odb,Step-1,Increment      1: Step Time =    1.000,"P-1-1",           130,   200.000E-03,   38.7597E-03,            0.,NA,NA,"",   998.471E+03,   1.00003E+06,   1.00003E+06
C:/temp/Job-1.odb,Step-1,Increment      1: Step Time =    1.000,"P-1-1",           131,   200.000E-03,   35.6589E-03,            0.,NA,NA,"",   999.238E+03,   1.00003E+06,   1.00003E+06
C:/temp/Job-1.odb,Step-1,Increment      1: Step Time =    1.000,"P-1-1",           132,   200.000E-03,   32.5581E-03,            0.,NA,NA,"",   999.844E+03,   1.00003E+06,   1.00003E+06
C:/temp/Job-1.odb,Step-1,Increment      1: Step Time =    1.000,"P-1-1",           133,   200.000E-03,   29.4574E-03,            0.,NA,NA,"",   1.00023E+06,   1.00002E+06,   1.00002E+06
C:/temp/Job-1.odb,Step-1,Increment      1: Step Time =    1.000,"P-1-1",           134,   200.000E-03,   26.3566E-03,            0.,NA,NA,"",   1.00045E+06,   1.00002E+06,   1.00002E+06
C:/temp/Job-1.odb,Step-1,Increment      1: Step Time =    1.000,"P-1-1",           135,   200.000E-03,   23.2558E-03,            0.,NA,NA,"",   1.00054E+06,   1.00001E+06,   1.00001E+06
C:/temp/Job-1.odb,Step-1,Increment      1: Step Time =    1.000,"P-1-1",           136,   200.000E-03,   18.6047E-03,            0.,NA,NA,"",   1.00051E+06,   1.00000E+06,   1.00000E+06
C:/temp/Job-1.odb,Step-1,Increment      1: Step Time =    1.000,"P-1-1",           137,   200.000E-03,   15.5039E-03,            0.,NA,NA,"",   1.00042E+06,   1.00000E+06,   1.00000E+06
C:/temp/Job-1.odb,Step-1,Increment      1: Step Time =    1.000,"P-1-1",           138,   200.000E-03,   12.4031E-03,            0.,NA,NA,"",   1.00030E+06,   1.00000E+06,   1.00000E+06
C:/temp/Job-1.odb,Step-1,Increment      1: Step Time =    1.000,"P-1-1",           139,   200.000E-03,   9.30233E-03,            0.,NA,NA,"",   1.00017E+06,   999.999E+03,   999.999E+03
C:/temp/Job-1.odb,Step-1,Increment      1: Step Time =    1.000,"P-1-1",           140,   200.000E-03,   6.20155E-03,            0.,NA,NA,"",   1.00007E+06,   999.995E+03,   999.995E+03
C:/temp/Job-1.odb,Step-1,Increment      1: Step Time =    1.000,"P-1-1",           141,   200.000E-03,   3.10078E-03,            0.,NA,NA,"",   1.00001E+06,   999.993E+03,   999.993E+03
C:/temp/Job-1.odb,Step-1,Increment      1: Step Time =    1.000,"P-1-1",           142,   200.000E-03,   200.000E-03,            0.,NA,NA,"",   999.999E+03,   999.999E+03,   999.999E+03
C:/temp/Job-1.odb,Step-1,Increment      1: Step Time =    1.000,"P-1-1",           143,   3.10078E-03,   200.000E-03,            0.,NA,NA,"",   1.57385E+06,   1.57712E+06,   1.57712E+06
C:/temp/Job-1.odb,Step-1,Increment      1: Step Time =    1.000,"P-1-1",           144,   6.20155E-03,   200.000E-03,            0.,NA,NA,"",   1.33598E+06,   1.33737E+06,   1.33737E+06
C:/temp/Job-1.odb,Step-1,Increment      1: Step Time =    1.000,"P-1-1",           145,   9.30233E-03,   200.000E-03,            0.,NA,NA,"",   1.22084E+06,   1.22158E+06,   1.22158E+06
C:/temp/Job-1.odb,Step-1,Increment      1: Step Time =    1.000,"P-1-1",           146,   12.4031E-03,   200.000E-03,            0.,NA,NA,"",   1.15184E+06,   1.15225E+06,   1.15225E+06
C:/temp/Job-1.odb,Step-1,Increment      1: Step Time =    1.000,"P-1-1",           147,   15.5039E-03,   200.000E-03,            0.,NA,NA,"",   1.10620E+06,   1.10641E+06,   1.10641E+06
C:/temp/Job-1.odb,Step-1,Increment      1: Step Time =    1.000,"P-1-1",           148,   18.6047E-03,   200.000E-03,            0.,NA,NA,"",   1.07409E+06,   1.07421E+06,   1.07421E+06
C:/temp/Job-1.odb,Step-1,Increment      1: Step Time =    1.000,"P-1-1",           149,   23.2558E-03,   200.000E-03,            0.,NA,NA,"",   1.04104E+06,   1.04123E+06,   1.04123E+06
C:/temp/Job-1.odb,Step-1,Increment      1: Step Time =    1.000,"P-1-1",           150,   26.3566E-03,   200.000E-03,            0.,NA,NA,"",   1.02508E+06,   1.02523E+06,   1.02523E+06
C:/temp/Job-1.odb,Step-1,Increment      1: Step Time =    1.000,"P-1-1",           151,   29.4574E-03,   200.000E-03,            0.,NA,NA,"",   1.01267E+06,   1.01276E+06,   1.01276E+06
C:/temp/Job-1.odb,Step-1,Increment      1: Step Time =    1.000,"P-1-1",           152,   32.5581E-03,   200.000E-03,            0.,NA,NA,"",   1.00285E+06,   1.00292E+06,   1.00292E+06
C:/temp/Job-1.odb,Step-1,Increment      1: Step Time =    1.000,"P-1-1",           153,   35.6589E-03,   200.000E-03,            0.,NA,NA,"",   995.101E+03,   995.133E+03,   995.133E+03
C:/temp/Job-1.odb,Step-1,Increment      1: Step Time =    1.000,"P-1-1",           154,   38.7597E-03,   200.000E-03,            0.,NA,NA,"",   988.609E+03,   988.631E+03,   988.631E+03
C:/temp/Job-1.odb,Step-1,Increment      1: Step Time =    1.000,"P-1-1",           155,   41.8605E-03,   200.000E-03,            0.,NA,NA,"",   982.830E+03,   982.832E+03,   982.832E+03
C:/temp/Job-1.odb,Step-1,Increment      1: Step Time =    1.000,"P-1-1",           156,   44.9612E-03,   200.000E-03,            0.,NA,NA,"",   976.444E+03,   976.534E+03,   976.534E+03
C:/temp/Job-1.odb,Step-1,Increment      1: Step Time =    1.000,"P-1-1",           157,   48.0620E-03,   200.000E-03,            0.,NA,NA,"",   971.494E+03,   971.503E+03,   971.503E+03
C:/temp/Job-1.odb,Step-1,Increment      1: Step Time =    1.000,"P-1-1",           158,   51.1628E-03,   200.000E-03,            0.,NA,NA,"",   967.141E+03,   967.137E+03,   967.137E+03
C:/temp/Job-1.odb,Step-1,Increment      1: Step Time =    1.000,"P-1-1",           159,   54.2636E-03,   200.000E-03,            0.,NA,NA,"",   962.885E+03,   962.884E+03,   962.884E+03
C:/temp/Job-1.odb,Step-1,Increment      1: Step Time =    1.000,"P-1-1",           160,   57.3643E-03,   200.000E-03,            0.,NA,NA,"",   958.740E+03,   958.741E+03,   958.741E+03
C:/temp/Job-1.odb,Step-1,Increment      1: Step Time =    1.000,"P-1-1",           161,   62.0155E-03,   200.000E-03,            0.,NA,NA,"",   952.498E+03,   952.498E+03,   952.498E+03
C:/temp/Job-1.odb,Step-1,Increment      1: Step Time =    1.000,"P-1-1",           162,   65.1163E-03,   200.000E-03,            0.,NA,NA,"",   948.402E+03,   948.407E+03,   948.407E+03
C:/temp/Job-1.odb,Step-1,Increment      1: Step Time =    1.000,"P-1-1",           163,   68.2171E-03,   200.000E-03,            0.,NA,NA,"",   944.504E+03,   944.500E+03,   944.500E+03
C:/temp/Job-1.odb,Step-1,Increment      1: Step Time =    1.000,"P-1-1",           164,   71.3178E-03,   200.000E-03,            0.,NA,NA,"",   940.614E+03,   940.577E+03,   940.577E+03
C:/temp/Job-1.odb,Step-1,Increment      1: Step Time =    1.000,"P-1-1",           165,   74.4186E-03,   200.000E-03,            0.,NA,NA,"",   936.139E+03,   936.176E+03,   936.176E+03
C:/temp/Job-1.odb,Step-1,Increment      1: Step Time =    1.000,"P-1-1",           166,   77.5194E-03,   200.000E-03,            0.,NA,NA,"",   932.396E+03,   932.400E+03,   932.400E+03
C:/temp/Job-1.odb,Step-1,Increment      1: Step Time =    1.000,"P-1-1",           167,   80.6202E-03,   200.000E-03,            0.,NA,NA,"",   928.907E+03,   928.933E+03,   928.933E+03
C:/temp/Job-1.odb,Step-1,Increment      1: Step Time =    1.000,"P-1-1",           168,   83.7209E-03,   200.000E-03,            0.,NA,NA,"",   925.664E+03,   925.685E+03,   925.685E+03
C:/temp/Job-1.odb,Step-1,Increment      1: Step Time =    1.000,"P-1-1",           169,   86.8217E-03,   200.000E-03,            0.,NA,NA,"",   923.288E+03,   923.299E+03,   923.299E+03
C:/temp/Job-1.odb,Step-1,Increment      1: Step Time =    1.000,"P-1-1",           170,   89.9225E-03,   200.000E-03,            0.,NA,NA,"",   921.545E+03,   921.574E+03,   921.574E+03
C:/temp/Job-1.odb,Step-1,Increment      1: Step Time =    1.000,"P-1-1",           171,   93.0233E-03,   200.000E-03,            0.,NA,NA,"",   920.584E+03,   920.615E+03,   920.615E+03
C:/temp/Job-1.odb,Step-1,Increment      1: Step Time =    1.000,"P-1-1",           172,   96.1240E-03,   200.000E-03,            0.,NA,NA,"",   920.531E+03,   920.561E+03,   920.561E+03
C:/temp/Job-1.odb,Step-1,Increment      1: Step Time =    1.000,"P-1-1",           173,   100.775E-03,   200.000E-03,            0.,NA,NA,"",   921.811E+03,   921.865E+03,   921.865E+03
C:/temp/Job-1.odb,Step-1,Increment      1: Step Time =    1.000,"P-1-1",           174,   103.876E-03,   200.000E-03,            0.,NA,NA,"",   923.609E+03,   923.609E+03,   923.609E+03
C:/temp/Job-1.odb,Step-1,Increment      1: Step Time =    1.000,"P-1-1",           175,   106.977E-03,   200.000E-03,            0.,NA,NA,"",   925.710E+03,   925.740E+03,   925.740E+03
C:/temp/Job-1.odb,Step-1,Increment      1: Step Time =    1.000,"P-1-1",           176,   110.078E-03,   200.000E-03,            0.,NA,NA,"",   928.539E+03,   928.537E+03,   928.537E+03
C:/temp/Job-1.odb,Step-1,Increment      1: Step Time =    1.000,"P-1-1",           177,   113.178E-03,   200.000E-03,            0.,NA,NA,"",   932.038E+03,   932.062E+03,   932.062E+03
C:/temp/Job-1.odb,Step-1,Increment      1: Step Time =    1.000,"P-1-1",           178,   116.279E-03,   200.000E-03,            0.,NA,NA,"",   936.276E+03,   936.292E+03,   936.292E+03
C:/temp/Job-1.odb,Step-1,Increment      1: Step Time =    1.000,"P-1-1",           179,   119.380E-03,   200.000E-03,            0.,NA,NA,"",   940.962E+03,   940.980E+03,   940.980E+03
C:/temp/Job-1.odb,Step-1,Increment      1: Step Time =    1.000,"P-1-1",           180,   122.481E-03,   200.000E-03,            0.,NA,NA,"",   945.933E+03,   945.944E+03,   945.944E+03
C:/temp/Job-1.odb,Step-1,Increment      1: Step Time =    1.000,"P-1-1",           181,   125.581E-03,   200.000E-03,            0.,NA,NA,"",   951.436E+03,   951.484E+03,   951.484E+03
C:/temp/Job-1.odb,Step-1,Increment      1: Step Time =    1.000,"P-1-1",           182,   128.682E-03,   200.000E-03,            0.,NA,NA,"",   956.822E+03,   956.737E+03,   956.737E+03
C:/temp/Job-1.odb,Step-1,Increment      1: Step Time =    1.000,"P-1-1",           183,   131.783E-03,   200.000E-03,            0.,NA,NA,"",   961.681E+03,   961.666E+03,   961.666E+03
C:/temp/Job-1.odb,Step-1,Increment      1: Step Time =    1.000,"P-1-1",           184,   134.884E-03,   200.000E-03,            0.,NA,NA,"",   966.505E+03,   966.500E+03,   966.500E+03
C:/temp/Job-1.odb,Step-1,Increment      1: Step Time =    1.000,"P-1-1",           185,   137.984E-03,   200.000E-03,            0.,NA,NA,"",   971.178E+03,   971.176E+03,   971.176E+03
C:/temp/Job-1.odb,Step-1,Increment      1: Step Time =    1.000,"P-1-1",           186,   142.636E-03,   200.000E-03,            0.,NA,NA,"",   977.688E+03,   977.684E+03,   977.684E+03
C:/temp/Job-1.odb,Step-1,Increment      1: Step Time =    1.000,"P-1-1",           187,   145.736E-03,   200.000E-03,            0.,NA,NA,"",   981.519E+03,   981.513E+03,   981.513E+03
C:/temp/Job-1.odb,Step-1,Increment      1: Step Time =    1.000,"P-1-1",           188,   148.837E-03,   200.000E-03,            0.,NA,NA,"",   984.890E+03,   984.870E+03,   984.870E+03
C:/temp/Job-1.odb,Step-1,Increment      1: Step Time =    1.000,"P-1-1",           189,   151.938E-03,   200.000E-03,            0.,NA,NA,"",   987.828E+03,   987.814E+03,   987.814E+03
C:/temp/Job-1.odb,Step-1,Increment      1: Step Time =    1.000,"P-1-1",           190,   155.039E-03,   200.000E-03,            0.,NA,NA,"",   990.423E+03,   990.428E+03,   990.428E+03
C:/temp/Job-1.odb,Step-1,Increment      1: Step Time =    1.000,"P-1-1",           191,   158.140E-03,   200.000E-03,            0.,NA,NA,"",   992.588E+03,   992.550E+03,   992.550E+03
C:/temp/Job-1.odb,Step-1,Increment      1: Step Time =    1.000,"P-1-1",           192,   161.240E-03,   200.000E-03,            0.,NA,NA,"",   994.272E+03,   994.265E+03,   994.265E+03
C:/temp/Job-1.odb,Step-1,Increment      1: Step Time =    1.000,"P-1-1",           193,   164.341E-03,   200.000E-03,            0.,NA,NA,"",   995.577E+03,   995.563E+03,   995.563E+03
C:/temp/Job-1.odb,Step-1,Increment      1: Step Time =    1.000,"P-1-1",           194,   167.442E-03,   200.000E-03,            0.,NA,NA,"",   996.652E+03,   996.642E+03,   996.642E+03
C:/temp/Job-1.odb,Step-1,Increment      1: Step Time =    1.000,"P-1-1",           195,   170.543E-03,   200.000E-03,            0.,NA,NA,"",   997.441E+03,   997.436E+03,   997.436E+03
C:/temp/Job-1.odb,Step-1,Increment      1: Step Time =    1.000,"P-1-1",           196,   173.643E-03,   200.000E-03,            0.,NA,NA,"",    998.03E+03,   998.027E+03,   998.027E+03
C:/temp/Job-1.odb,Step-1,Increment      1: Step Time =    1.000,"P-1-1",           197,   176.744E-03,   200.000E-03,            0.,NA,NA,"",   998.475E+03,   998.473E+03,   998.473E+03
C:/temp/Job-1.odb,Step-1,Increment      1: Step Time =    1.000,"P-1-1",           198,   181.395E-03,   200.000E-03,            0.,NA,NA,"",   998.970E+03,   998.968E+03,   998.968E+03
C:/temp/Job-1.odb,Step-1,Increment      1: Step Time =    1.000,"P-1-1",           199,   184.496E-03,   200.000E-03,            0.,NA,NA,"",   999.234E+03,   999.233E+03,   999.233E+03
C:/temp/Job-1.odb,Step-1,Increment      1: Step Time =    1.000,"P-1-1",           200,   187.597E-03,   200.000E-03,            0.,NA,NA,"",   999.471E+03,   999.471E+03,   999.471E+03
C:/temp/Job-1.odb,Step-1,Increment      1: Step Time =    1.000,"P-1-1",           201,   190.698E-03,   200.000E-03,            0.,NA,NA,"",   999.689E+03,   999.689E+03,   999.689E+03
C:/temp/Job-1.odb,Step-1,Increment      1: Step Time =    1.000,"P-1-1",           202,   193.798E-03,   200.000E-03,            0.,NA,NA,"",   999.869E+03,   999.867E+03,   999.867E+03
C:/temp/Job-1.odb,Step-1,Increment      1: Step Time =    1.000,"P-1-1",           203,   196.899E-03,   200.000E-03,            0.,NA,NA,"",   999.976E+03,   999.973E+03,   999.973E+03
C:/temp/Job-1.odb,Step-1,Increment      1: Step Time =    1.000,"P-1-1",           204,            0.,   200.000E-03,            0.,NA,NA,"",   2.06985E+06,   2.16463E+06,   2.16463E+06
C:/temp/Job-1.odb,Step-1,Increment      1: Step Time =    1.000,"P-1-1",           205,            0.,   3.10078E-03,            0.,NA,NA,"",   1.45501E+06,   1.57423E+06,   1.57423E+06
C:/temp/Job-1.odb,Step-1,Increment      1: Step Time =    1.000,"P-1-1",           206,            0.,   6.20155E-03,            0.,NA,NA,"",   1.23783E+06,   1.35361E+06,   1.35361E+06
C:/temp/Job-1.odb,Step-1,Increment      1: Step Time =    1.000,"P-1-1",           207,            0.,   9.30233E-03,            0.,NA,NA,"",   1.13341E+06,   1.24653E+06,   1.24653E+06
C:/temp/Job-1.odb,Step-1,Increment      1: Step Time =    1.000,"P-1-1",           208,            0.,   12.4031E-03,            0.,NA,NA,"",   1.06922E+06,   1.18073E+06,   1.18073E+06
C:/temp/Job-1.odb,Step-1,Increment      1: Step Time =    1.000,"P-1-1",           209,            0.,   15.5039E-03,            0.,NA,NA,"",   1.02527E+06,   1.13571E+06,   1.13571E+06
C:/temp/Job-1.odb,Step-1,Increment      1: Step Time =    1.000,"P-1-1",           210,            0.,   18.6047E-03,            0.,NA,NA,"",   992.553E+03,   1.10220E+06,   1.10220E+06
C:/temp/Job-1.odb,Step-1,Increment      1: Step Time =    1.000,"P-1-1",           211,            0.,   23.2558E-03,            0.,NA,NA,"",   955.859E+03,   1.06471E+06,   1.06471E+06
C:/temp/Job-1.odb,Step-1,Increment      1: Step Time =    1.000,"P-1-1",           212,            0.,   26.3566E-03,            0.,NA,NA,"",   936.794E+03,   1.04526E+06,   1.04526E+06
C:/temp/Job-1.odb,Step-1,Increment      1: Step Time =    1.000,"P-1-1",           213,            0.,   29.4574E-03,            0.,NA,NA,"",   920.655E+03,   1.02880E+06,   1.02880E+06
C:/temp/Job-1.odb,Step-1,Increment      1: Step Time =    1.000,"P-1-1",           214,            0.,   32.5581E-03,            0.,NA,NA,"",   906.526E+03,   1.01437E+06,   1.01437E+06
C:/temp/Job-1.odb,Step-1,Increment      1: Step Time =    1.000,"P-1-1",           215,            0.,   35.6589E-03,            0.,NA,NA,"",   894.134E+03,   1.00174E+06,   1.00174E+06
C:/temp/Job-1.odb,Step-1,Increment      1: Step Time =    1.000,"P-1-1",           216,            0.,   38.7597E-03,            0.,NA,NA,"",   882.693E+03,   990.143E+03,   990.143E+03
C:/temp/Job-1.odb,Step-1,Increment      1: Step Time =    1.000,"P-1-1",           217,            0.,   41.8605E-03,            0.,NA,NA,"",   872.232E+03,   979.502E+03,   979.502E+03
C:/temp/Job-1.odb,Step-1,Increment      1: Step Time =    1.000,"P-1-1",           218,            0.,   44.9612E-03,            0.,NA,NA,"",   862.890E+03,   969.878E+03,   969.878E+03
C:/temp/Job-1.odb,Step-1,Increment      1: Step Time =    1.000,"P-1-1",           219,            0.,   48.0620E-03,            0.,NA,NA,"",   854.385E+03,   961.021E+03,   961.021E+03
C:/temp/Job-1.odb,Step-1,Increment      1: Step Time =    1.000,"P-1-1",           220,            0.,   51.1628E-03,            0.,NA,NA,"",   846.428E+03,   952.673E+03,   952.673E+03
C:/temp/Job-1.odb,Step-1,Increment      1: Step Time =    1.000,"P-1-1",           221,            0.,   54.2636E-03,            0.,NA,NA,"",   838.875E+03,   944.703E+03,   944.703E+03
C:/temp/Job-1.odb,Step-1,Increment      1: Step Time =    1.000,"P-1-1",           222,            0.,   57.3643E-03,            0.,NA,NA,"",   831.686E+03,   937.087E+03,   937.087E+03
C:/temp/Job-1.odb,Step-1,Increment      1: Step Time =    1.000,"P-1-1",           223,            0.,   62.0155E-03,            0.,NA,NA,"",   821.498E+03,   926.250E+03,   926.250E+03
C:/temp/Job-1.odb,Step-1,Increment      1: Step Time =    1.000,"P-1-1",           224,            0.,   65.1163E-03,            0.,NA,NA,"",   815.096E+03,   919.419E+03,   919.419E+03
C:/temp/Job-1.odb,Step-1,Increment      1: Step Time =    1.000,"P-1-1",           225,            0.,   68.2171E-03,            0.,NA,NA,"",   809.061E+03,   912.948E+03,   912.948E+03
C:/temp/Job-1.odb,Step-1,Increment      1: Step Time =    1.000,"P-1-1",           226,            0.,   71.3178E-03,            0.,NA,NA,"",   803.424E+03,   906.866E+03,   906.866E+03
C:/temp/Job-1.odb,Step-1,Increment      1: Step Time =    1.000,"P-1-1",           227,            0.,   74.4186E-03,            0.,NA,NA,"",   798.212E+03,   901.207E+03,   901.207E+03
C:/temp/Job-1.odb,Step-1,Increment      1: Step Time =    1.000,"P-1-1",           228,            0.,   77.5194E-03,            0.,NA,NA,"",   793.441E+03,   896.002E+03,   896.002E+03
C:/temp/Job-1.odb,Step-1,Increment      1: Step Time =    1.000,"P-1-1",           229,            0.,   80.6202E-03,            0.,NA,NA,"",   789.158E+03,   891.312E+03,   891.312E+03
C:/temp/Job-1.odb,Step-1,Increment      1: Step Time =    1.000,"P-1-1",           230,            0.,   83.7209E-03,            0.,NA,NA,"",   785.415E+03,   887.204E+03,   887.204E+03
C:/temp/Job-1.odb,Step-1,Increment      1: Step Time =    1.000,"P-1-1",           231,            0.,   86.8217E-03,            0.,NA,NA,"",   782.239E+03,   883.714E+03,   883.714E+03
C:/temp/Job-1.odb,Step-1,Increment      1: Step Time =    1.000,"P-1-1",           232,            0.,   89.9225E-03,            0.,NA,NA,"",   779.657E+03,   880.878E+03,   880.878E+03
C:/temp/Job-1.odb,Step-1,Increment      1: Step Time =    1.000,"P-1-1",           233,            0.,   93.0233E-03,            0.,NA,NA,"",   777.723E+03,   878.754E+03,   878.754E+03
C:/temp/Job-1.odb,Step-1,Increment      1: Step Time =    1.000,"P-1-1",           234,            0.,   96.1240E-03,            0.,NA,NA,"",   776.484E+03,   877.383E+03,   877.383E+03
C:/temp/Job-1.odb,Step-1,Increment      1: Step Time =    1.000,"P-1-1",           235,            0.,   100.775E-03,            0.,NA,NA,"",   775.963E+03,   876.791E+03,   876.791E+03
C:/temp/Job-1.odb,Step-1,Increment      1: Step Time =    1.000,"P-1-1",           236,            0.,   103.876E-03,            0.,NA,NA,"",   776.522E+03,   877.397E+03,   877.397E+03
C:/temp/Job-1.odb,Step-1,Increment      1: Step Time =    1.000,"P-1-1",           237,            0.,   106.977E-03,            0.,NA,NA,"",   777.769E+03,   878.771E+03,   878.771E+03
C:/temp/Job-1.odb,Step-1,Increment      1: Step Time =    1.000,"P-1-1",           238,            0.,   110.078E-03,            0.,NA,NA,"",   779.717E+03,   880.923E+03,   880.923E+03
C:/temp/Job-1.odb,Step-1,Increment      1: Step Time =    1.000,"P-1-1",           239,            0.,   113.178E-03,            0.,NA,NA,"",   782.308E+03,   883.778E+03,   883.778E+03
C:/temp/Job-1.odb,Step-1,Increment      1: Step Time =    1.000,"P-1-1",           240,            0.,   116.279E-03,            0.,NA,NA,"",   785.495E+03,   887.284E+03,   887.284E+03
C:/temp/Job-1.odb,Step-1,Increment      1: Step Time =    1.000,"P-1-1",           241,            0.,   119.380E-03,            0.,NA,NA,"",   789.238E+03,   891.396E+03,   891.396E+03
C:/temp/Job-1.odb,Step-1,Increment      1: Step Time =    1.000,"P-1-1",           242,            0.,   122.481E-03,            0.,NA,NA,"",   793.486E+03,   896.056E+03,   896.056E+03
C:/temp/Job-1.odb,Step-1,Increment      1: Step Time =    1.000,"P-1-1",           243,            0.,   125.581E-03,            0.,NA,NA,"",   798.246E+03,   901.248E+03,   901.248E+03
C:/temp/Job-1.odb,Step-1,Increment      1: Step Time =    1.000,"P-1-1",           244,            0.,   128.682E-03,            0.,NA,NA,"",   803.526E+03,   906.961E+03,   906.961E+03
C:/temp/Job-1.odb,Step-1,Increment      1: Step Time =    1.000,"P-1-1",           245,            0.,   131.783E-03,            0.,NA,NA,"",   809.258E+03,   913.126E+03,   913.126E+03
C:/temp/Job-1.odb,Step-1,Increment      1: Step Time =    1.000,"P-1-1",           246,            0.,   134.884E-03,            0.,NA,NA,"",   815.276E+03,   919.587E+03,   919.587E+03
C:/temp/Job-1.odb,Step-1,Increment      1: Step Time =    1.000,"P-1-1",           247,            0.,   137.984E-03,            0.,NA,NA,"",   821.616E+03,   926.378E+03,   926.378E+03
C:/temp/Job-1.odb,Step-1,Increment      1: Step Time =    1.000,"P-1-1",           248,            0.,   142.636E-03,            0.,NA,NA,"",   831.817E+03,   937.254E+03,   937.254E+03
C:/temp/Job-1.odb,Step-1,Increment      1: Step Time =    1.000,"P-1-1",           249,            0.,   145.736E-03,            0.,NA,NA,"",   838.992E+03,   944.837E+03,   944.837E+03
C:/temp/Job-1.odb,Step-1,Increment      1: Step Time =    1.000,"P-1-1",           250,            0.,   148.837E-03,            0.,NA,NA,"",   846.574E+03,   952.799E+03,   952.799E+03
C:/temp/Job-1.odb,Step-1,Increment      1: Step Time =    1.000,"P-1-1",           251,            0.,   151.938E-03,            0.,NA,NA,"",   854.644E+03,   961.224E+03,   961.224E+03
C:/temp/Job-1.odb,Step-1,Increment      1: Step Time =    1.000,"P-1-1",           252,            0.,   155.039E-03,            0.,NA,NA,"",   863.327E+03,   970.223E+03,   970.223E+03
C:/temp/Job-1.odb,Step-1,Increment      1: Step Time =    1.000,"P-1-1",           253,            0.,   158.140E-03,            0.,NA,NA,"",   872.735E+03,   979.904E+03,   979.904E+03
C:/temp/Job-1.odb,Step-1,Increment      1: Step Time =    1.000,"P-1-1",           254,            0.,   161.240E-03,            0.,NA,NA,"",   882.983E+03,   990.392E+03,   990.392E+03
C:/temp/Job-1.odb,Step-1,Increment      1: Step Time =    1.000,"P-1-1",           255,            0.,   164.341E-03,            0.,NA,NA,"",   894.205E+03,   1.00184E+06,   1.00184E+06
C:/temp/Job-1.odb,Step-1,Increment      1: Step Time =    1.000,"P-1-1",           256,            0.,   167.442E-03,            0.,NA,NA,"",   906.672E+03,   1.01454E+06,   1.01454E+06
C:/temp/Job-1.odb,Step-1,Increment      1: Step Time =    1.000,"P-1-1",           257,            0.,   170.543E-03,            0.,NA,NA,"",   920.779E+03,   1.02892E+06,   1.02892E+06
C:/temp/Job-1.odb,Step-1,Increment      1: Step Time =    1.000,"P-1-1",           258,            0.,   173.643E-03,            0.,NA,NA,"",   936.963E+03,   1.04546E+06,   1.04546E+06
C:/temp/Job-1.odb,Step-1,Increment      1: Step Time =    1.000,"P-1-1",           259,            0.,   176.744E-03,            0.,NA,NA,"",   955.803E+03,   1.06475E+06,   1.06475E+06
C:/temp/Job-1.odb,Step-1,Increment      1: Step Time =    1.000,"P-1-1",           260,            0.,   181.395E-03,            0.,NA,NA,"",   991.895E+03,   1.10175E+06,   1.10175E+06
C:/temp/Job-1.odb,Step-1,Increment      1: Step Time =    1.000,"P-1-1",           261,            0.,   184.496E-03,            0.,NA,NA,"",   1.02486E+06,   1.13543E+06,   1.13543E+06
C:/temp/Job-1.odb,Step-1,Increment      1: Step Time =    1.000,"P-1-1",           262,            0.,   187.597E-03,            0.,NA,NA,"",   1.06959E+06,   1.18108E+06,   1.18108E+06
C:/temp/Job-1.odb,Step-1,Increment      1: Step Time =    1.000,"P-1-1",           263,            0.,   190.698E-03,            0.,NA,NA,"",   1.13394E+06,   1.24691E+06,   1.24691E+06
C:/temp/Job-1.odb,Step-1,Increment      1: Step Time =    1.000,"P-1-1",           264,            0.,   193.798E-03,            0.,NA,NA,"",   1.23758E+06,   1.35314E+06,   1.35314E+06
C:/temp/Job-1.odb,Step-1,Increment      1: Step Time =    1.000,"P-1-1",           265,            0.,   196.899E-03,            0.,NA,NA,"",   1.45564E+06,   1.57487E+06,   1.57487E+06
C:/temp/Job-1.odb,Step-1,Increment      1: Step Time =    1.000,"P-1-1",           266,   98.1209E-03,   85.4769E-03,            0.,NA,NA,"",   2.14751E+06,   2.26919E+06,   2.26919E+06
C:/temp/Job-1.odb,Step-1,Increment      1: Step Time =    1.000,"P-1-1",           267,   197.113E-03,   114.582E-03,            0.,NA,NA,"",   967.629E+03,   999.686E+03,   999.686E+03
C:/temp/Job-1.odb,Step-1,Increment      1: Step Time =    1.000,"P-1-1",           268,   193.996E-03,   114.570E-03,            0.,NA,NA,"",   970.579E+03,   998.800E+03,   998.800E+03
C:/temp/Job-1.odb,Step-1,Increment      1: Step Time =    1.000,"P-1-1",           269,   190.966E-03,   114.311E-03,            0.,NA,NA,"",   972.409E+03,   997.399E+03,   997.399E+03
C:/temp/Job-1.odb,Step-1,Increment      1: Step Time =    1.000,"P-1-1",           270,   187.908E-03,   114.722E-03,            0.,NA,NA,"",   973.737E+03,   995.644E+03,   995.644E+03
C:/temp/Job-1.odb,Step-1,Increment      1: Step Time =    1.000,"P-1-1",           271,   184.501E-03,   114.345E-03,            0.,NA,NA,"",   973.947E+03,   993.037E+03,   993.037E+03
C:/temp/Job-1.odb,Step-1,Increment      1: Step Time =    1.000,"P-1-1",           272,   180.618E-03,   114.523E-03,            0.,NA,NA,"",   973.706E+03,   989.689E+03,   989.689E+03
C:/temp/Job-1.odb,Step-1,Increment      1: Step Time =    1.000,"P-1-1",           273,   177.241E-03,   115.519E-03,            0.,NA,NA,"",   974.141E+03,   987.313E+03,   987.313E+03
C:/temp/Job-1.odb,Step-1,Increment      1: Step Time =    1.000,"P-1-1",           274,   173.436E-03,   114.643E-03,            0.,NA,NA,"",   971.128E+03,   982.193E+03,   982.193E+03
C:/temp/Job-1.odb,Step-1,Increment      1: Step Time =    1.000,"P-1-1",           275,   170.673E-03,   113.817E-03,            0.,NA,NA,"",   967.710E+03,   977.540E+03,   977.540E+03
C:/temp/Job-1.odb,Step-1,Increment      1: Step Time =    1.000,"P-1-1",           276,   166.419E-03,   114.338E-03,            0.,NA,NA,"",   965.234E+03,   972.322E+03,   972.322E+03
C:/temp/Job-1.odb,Step-1,Increment      1: Step Time =    1.000,"P-1-1",           277,   163.386E-03,   114.733E-03,            0.,NA,NA,"",   963.979E+03,   968.997E+03,   968.997E+03
C:/temp/Job-1.odb,Step-1,Increment      1: Step Time =    1.000,"P-1-1",           278,   158.955E-03,   114.559E-03,            0.,NA,NA,"",   958.871E+03,   961.312E+03,   961.312E+03
C:/temp/Job-1.odb,Step-1,Increment      1: Step Time =    1.000,"P-1-1",           279,   156.154E-03,   114.936E-03,            0.,NA,NA,"",   958.853E+03,   958.873E+03,   958.873E+03
C:/temp/Job-1.odb,Step-1,Increment      1: Step Time =    1.000,"P-1-1",           280,   153.073E-03,   115.138E-03,            0.,NA,NA,"",   958.180E+03,   955.343E+03,   955.343E+03
C:/temp/Job-1.odb,Step-1,Increment      1: Step Time =    1.000,"P-1-1",           281,   150.043E-03,   114.549E-03,            0.,NA,NA,"",   952.273E+03,   947.489E+03,   947.489E+03
C:/temp/Job-1.odb,Step-1,Increment      1: Step Time =    1.000,"P-1-1",           282,   147.432E-03,   115.167E-03,            0.,NA,NA,"",   956.729E+03,   948.018E+03,   948.018E+03
C:/temp/Job-1.odb,Step-1,Increment      1: Step Time =    1.000,"P-1-1",           283,   144.650E-03,   115.270E-03,            0.,NA,NA,"",   958.990E+03,   946.079E+03,   946.079E+03
C:/temp/Job-1.odb,Step-1,Increment      1: Step Time =    1.000,"P-1-1",           284,   141.365E-03,   114.792E-03,            0.,NA,NA,"",   956.958E+03,   939.155E+03,   939.155E+03
C:/temp/Job-1.odb,Step-1,Increment      1: Step Time =    1.000,"P-1-1",           285,   137.969E-03,   114.968E-03,            0.,NA,NA,"",   969.993E+03,   942.957E+03,   942.957E+03
C:/temp/Job-1.odb,Step-1,Increment      1: Step Time =    1.000,"P-1-1",           286,   134.854E-03,   114.696E-03,            0.,NA,NA,"",   982.302E+03,   945.581E+03,   945.581E+03
C:/temp/Job-1.odb,Step-1,Increment      1: Step Time =    1.000,"P-1-1",           287,   131.595E-03,   114.540E-03,            0.,NA,NA,"",   1.00491E+06,   954.186E+03,   954.186E+03
C:/temp/Job-1.odb,Step-1,Increment      1: Step Time =    1.000,"P-1-1",           288,   127.201E-03,   114.469E-03,            0.,NA,NA,"",   1.05991E+06,   982.864E+03,   982.864E+03
C:/temp/Job-1.odb,Step-1,Increment      1: Step Time =    1.000,"P-1-1",           289,   125.283E-03,   114.342E-03,            0.,NA,NA,"",   1.08886E+06,   998.961E+03,   998.961E+03
C:/temp/Job-1.odb,Step-1,Increment      1: Step Time =    1.000,"P-1-1",           290,   121.468E-03,   114.394E-03,            0.,NA,NA,"",   1.17736E+06,   1.05884E+06,   1.05884E+06
C:/temp/Job-1.odb,Step-1,Increment      1: Step Time =    1.000,"P-1-1",           291,   119.043E-03,   115.181E-03,            0.,NA,NA,"",   1.25760E+06,   1.13261E+06,   1.13261E+06
C:/temp/Job-1.odb,Step-1,Increment      1: Step Time =    1.000,"P-1-1",           292,   115.661E-03,   114.873E-03,            0.,NA,NA,"",   1.33654E+06,   1.21575E+06,   1.21575E+06
C:/temp/Job-1.odb,Step-1,Increment      1: Step Time =    1.000,"P-1-1",           293,   111.041E-03,   114.878E-03,            0.,NA,NA,"",   1.42809E+06,   1.39037E+06,   1.39037E+06
C:/temp/Job-1.odb,Step-1,Increment      1: Step Time =    1.000,"P-1-1",           294,   107.740E-03,   115.313E-03,            0.,NA,NA,"",   1.52920E+06,   1.58210E+06,   1.58210E+06
C:/temp/Job-1.odb,Step-1,Increment      1: Step Time =    1.000,"P-1-1",           295,   104.709E-03,   115.833E-03,            0.,NA,NA,"",   1.63959E+06,   1.75967E+06,   1.75967E+06
C:/temp/Job-1.odb,Step-1,Increment      1: Step Time =    1.000,"P-1-1",           296,   101.186E-03,   115.750E-03,            0.,NA,NA,"",   1.83116E+06,   1.97945E+06,   1.97945E+06
C:/temp/Job-1.odb,Step-1,Increment      1: Step Time =    1.000,"P-1-1",           297,   98.1254E-03,   115.656E-03,            0.,NA,NA,"",   1.83597E+06,   1.97868E+06,   1.97868E+06
C:/temp/Job-1.odb,Step-1,Increment      1: Step Time =    1.000,"P-1-1",           298,   94.6172E-03,   116.030E-03,            0.,NA,NA,"",   1.59221E+06,   1.70012E+06,   1.70012E+06
C:/temp/Job-1.odb,Step-1,Increment      1: Step Time =    1.000,"P-1-1",           299,   91.1402E-03,   114.220E-03,            0.,NA,NA,"",   1.46805E+06,   1.49190E+06,   1.49190E+06
C:/temp/Job-1.odb,Step-1,Increment      1: Step Time =    1.000,"P-1-1",           300,   88.9094E-03,   114.171E-03,            0.,NA,NA,"",   1.39796E+06,   1.35795E+06,   1.35795E+06
C:/temp/Job-1.odb,Step-1,Increment      1: Step Time =    1.000,"P-1-1",           301,   85.9278E-03,   114.983E-03,            0.,NA,NA,"",   1.35295E+06,   1.26652E+06,   1.26652E+06
C:/temp/Job-1.odb,Step-1,Increment      1: Step Time =    1.000,"P-1-1",           302,   80.7974E-03,   115.260E-03,            0.,NA,NA,"",   1.22017E+06,   1.11999E+06,   1.11999E+06
C:/temp/Job-1.odb,Step-1,Increment      1: Step Time =    1.000,"P-1-1",           303,   77.2493E-03,   115.743E-03,            0.,NA,NA,"",   1.13994E+06,   1.06127E+06,   1.06127E+06
C:/temp/Job-1.odb,Step-1,Increment      1: Step Time =    1.000,"P-1-1",           304,   74.8957E-03,   114.204E-03,            0.,NA,NA,"",   1.04509E+06,   983.014E+03,   983.014E+03
C:/temp/Job-1.odb,Step-1,Increment      1: Step Time =    1.000,"P-1-1",           305,   72.2063E-03,   115.372E-03,            0.,NA,NA,"",   1.02659E+06,   983.895E+03,   983.895E+03
C:/temp/Job-1.odb,Step-1,Increment      1: Step Time =    1.000,"P-1-1",           306,   69.1486E-03,   114.477E-03,            0.,NA,NA,"",   958.484E+03,   938.519E+03,   938.519E+03
C:/temp/Job-1.odb,Step-1,Increment      1: Step Time =    1.000,"P-1-1",           307,   63.0562E-03,   114.101E-03,            0.,NA,NA,"",   899.389E+03,   910.295E+03,   910.295E+03
C:/temp/Job-1.odb,Step-1,Increment      1: Step Time =    1.000,"P-1-1",           308,   59.8705E-03,   114.175E-03,            0.,NA,NA,"",   887.582E+03,   909.015E+03,   909.015E+03
C:/temp/Job-1.odb,Step-1,Increment      1: Step Time =    1.000,"P-1-1",           309,   56.0325E-03,   114.118E-03,            0.,NA,NA,"",   874.997E+03,   907.188E+03,   907.188E+03
C:/temp/Job-1.odb,Step-1,Increment      1: Step Time =    1.000,"P-1-1",           310,   52.6020E-03,   114.057E-03,            0.,NA,NA,"",   868.454E+03,   908.304E+03,   908.304E+03
C:/temp/Job-1.odb,Step-1,Increment      1: Step Time =    1.000,"P-1-1",           311,   49.2457E-03,   114.120E-03,            0.,NA,NA,"",   864.211E+03,   910.374E+03,   910.374E+03
C:/temp/Job-1.odb,Step-1,Increment      1: Step Time =    1.000,"P-1-1",           312,   46.5474E-03,   112.944E-03,            0.,NA,NA,"",   853.302E+03,   905.453E+03,   905.453E+03
C:/temp/Job-1.odb,Step-1,Increment      1: Step Time =    1.000,"P-1-1",           313,   42.3790E-03,   114.706E-03,            0.,NA,NA,"",   859.188E+03,   916.105E+03,   916.105E+03
C:/temp/Job-1.odb,Step-1,Increment      1: Step Time =    1.000,"P-1-1",           314,   38.8540E-03,   115.120E-03,            0.,NA,NA,"",   856.003E+03,   917.920E+03,   917.920E+03
C:/temp/Job-1.odb,Step-1,Increment      1: Step Time =    1.000,"P-1-1",           315,   36.1396E-03,   114.136E-03,            0.,NA,NA,"",   847.916E+03,   914.457E+03,   914.457E+03
C:/temp/Job-1.odb,Step-1,Increment      1: Step Time =    1.000,"P-1-1",           316,   32.5053E-03,   114.104E-03,            0.,NA,NA,"",   842.148E+03,   913.545E+03,   913.545E+03
C:/temp/Job-1.odb,Step-1,Increment      1: Step Time =    1.000,"P-1-1",           317,   29.7233E-03,   114.652E-03,            0.,NA,NA,"",   839.244E+03,   914.112E+03,   914.112E+03
C:/temp/Job-1.odb,Step-1,Increment      1: Step Time =    1.000,"P-1-1",           318,   26.7261E-03,   114.959E-03,            0.,NA,NA,"",   834.818E+03,   913.159E+03,   913.159E+03
C:/temp/Job-1.odb,Step-1,Increment      1: Step Time =    1.000,"P-1-1",           319,   24.1585E-03,   114.147E-03,            0.,NA,NA,"",   827.669E+03,   909.314E+03,   909.314E+03
C:/temp/Job-1.odb,Step-1,Increment      1: Step Time =    1.000,"P-1-1",           320,   20.1900E-03,   114.656E-03,            0.,NA,NA,"",   821.443E+03,   907.326E+03,   907.326E+03
C:/temp/Job-1.odb,Step-1,Increment      1: Step Time =    1.000,"P-1-1",           321,   16.5173E-03,   114.535E-03,            0.,NA,NA,"",   813.774E+03,   903.514E+03,   903.514E+03
C:/temp/Job-1.odb,Step-1,Increment      1: Step Time =    1.000,"P-1-1",           322,   13.6072E-03,   114.996E-03,            0.,NA,NA,"",   808.627E+03,   901.102E+03,   901.102E+03
C:/temp/Job-1.odb,Step-1,Increment      1: Step Time =    1.000,"P-1-1",           323,   10.0787E-03,   115.030E-03,            0.,NA,NA,"",   801.768E+03,   897.172E+03,   897.172E+03
C:/temp/Job-1.odb,Step-1,Increment      1: Step Time =    1.000,"P-1-1",           324,   6.41346E-03,   114.944E-03,            0.,NA,NA,"",   794.311E+03,   892.519E+03,   892.519E+03
C:/temp/Job-1.odb,Step-1,Increment      1: Step Time =    1.000,"P-1-1",           325,   3.16662E-03,   114.838E-03,            0.,NA,NA,"",   788.139E+03,   888.430E+03,   888.430E+03
C:/temp/Job-1.odb,Step-1,Increment      1: Step Time =    1.000,"P-1-1",           326,   3.16091E-03,   111.740E-03,            0.,NA,NA,"",   784.908E+03,   885.003E+03,   885.003E+03
C:/temp/Job-1.odb,Step-1,Increment      1: Step Time =    1.000,"P-1-1",           327,   6.30660E-03,   111.830E-03,            0.,NA,NA,"",   790.469E+03,   888.660E+03,   888.660E+03
C:/temp/Job-1.odb,Step-1,Increment      1: Step Time =    1.000,"P-1-1",           328,   9.41418E-03,   111.714E-03,            0.,NA,NA,"",   795.931E+03,   891.965E+03,   891.965E+03
C:/temp/Job-1.odb,Step-1,Increment      1: Step Time =    1.000,"P-1-1",           329,   12.4811E-03,   111.173E-03,            0.,NA,NA,"",   801.021E+03,   894.646E+03,   894.646E+03
C:/temp/Job-1.odb,Step-1,Increment      1: Step Time =    1.000,"P-1-1",           330,   15.4081E-03,   110.665E-03,            0.,NA,NA,"",   805.692E+03,   896.839E+03,   896.839E+03
C:/temp/Job-1.odb,Step-1,Increment      1: Step Time =    1.000,"P-1-1",           331,   18.9895E-03,   110.398E-03,            0.,NA,NA,"",   811.619E+03,   899.511E+03,   899.511E+03
C:/temp/Job-1.odb,Step-1,Increment      1: Step Time =    1.000,"P-1-1",           332,   22.8041E-03,   111.801E-03,            0.,NA,NA,"",   820.837E+03,   904.460E+03,   904.460E+03
C:/temp/Job-1.odb,Step-1,Increment      1: Step Time =    1.000,"P-1-1",           333,   25.7262E-03,   112.151E-03,            0.,NA,NA,"",   826.077E+03,   906.497E+03,   906.497E+03
C:/temp/Job-1.odb,Step-1,Increment      1: Step Time =    1.000,"P-1-1",           334,   28.9536E-03,   110.467E-03,            0.,NA,NA,"",   827.271E+03,   904.413E+03,   904.413E+03
C:/temp/Job-1.odb,Step-1,Increment      1: Step Time =    1.000,"P-1-1",           335,   32.5650E-03,   111.613E-03,            0.,NA,NA,"",   834.763E+03,   907.171E+03,   907.171E+03
C:/temp/Job-1.odb,Step-1,Increment      1: Step Time =    1.000,"P-1-1",           336,   35.8876E-03,   110.663E-03,            0.,NA,NA,"",   835.437E+03,   904.095E+03,   904.095E+03
C:/temp/Job-1.odb,Step-1,Increment      1: Step Time =    1.000,"P-1-1",           337,   39.1105E-03,   111.141E-03,            0.,NA,NA,"",   839.554E+03,   903.807E+03,   903.807E+03
C:/temp/Job-1.odb,Step-1,Increment      1: Step Time =    1.000,"P-1-1",           338,   42.3747E-03,   111.247E-03,            0.,NA,NA,"",   841.693E+03,   901.573E+03,   901.573E+03
C:/temp/Job-1.odb,Step-1,Increment      1: Step Time =    1.000,"P-1-1",           339,   45.8668E-03,   110.888E-03,            0.,NA,NA,"",   840.614E+03,   895.915E+03,   895.915E+03
C:/temp/Job-1.odb,Step-1,Increment      1: Step Time =    1.000,"P-1-1",           340,   49.3890E-03,   110.758E-03,            0.,NA,NA,"",   839.298E+03,   889.591E+03,   889.591E+03
C:/temp/Job-1.odb,Step-1,Increment      1: Step Time =    1.000,"P-1-1",           341,   52.0885E-03,   112.034E-03,            0.,NA,NA,"",   849.345E+03,   893.444E+03,   893.444E+03
C:/temp/Job-1.odb,Step-1,Increment      1: Step Time =    1.000,"P-1-1",           342,   55.5669E-03,   111.964E-03,            0.,NA,NA,"",   850.003E+03,   887.557E+03,   887.557E+03
C:/temp/Job-1.odb,Step-1,Increment      1: Step Time =    1.000,"P-1-1",           343,   59.1105E-03,   111.709E-03,            0.,NA,NA,"",   849.540E+03,   879.523E+03,   879.523E+03
C:/temp/Job-1.odb,Step-1,Increment      1: Step Time =    1.000,"P-1-1",           344,   62.5601E-03,   111.004E-03,            0.,NA,NA,"",   841.758E+03,   864.054E+03,   864.054E+03
C:/temp/Job-1.odb,Step-1,Increment      1: Step Time =    1.000,"P-1-1",           345,   65.3931E-03,   111.836E-03,            0.,NA,NA,"",   866.472E+03,   875.389E+03,   875.389E+03
C:/temp/Job-1.odb,Step-1,Increment      1: Step Time =    1.000,"P-1-1",           346,   68.6754E-03,   111.279E-03,            0.,NA,NA,"",   869.368E+03,   864.824E+03,   864.824E+03
C:/temp/Job-1.odb,Step-1,Increment      1: Step Time =    1.000,"P-1-1",           347,   71.6485E-03,   111.668E-03,            0.,NA,NA,"",   907.449E+03,   881.067E+03,   881.067E+03
C:/temp/Job-1.odb,Step-1,Increment      1: Step Time =    1.000,"P-1-1",           348,   74.5927E-03,   112.350E-03,            0.,NA,NA,"",   978.398E+03,   923.408E+03,   923.408E+03
C:/temp/Job-1.odb,Step-1,Increment      1: Step Time =    1.000,"P-1-1",           349,   78.3870E-03,   111.851E-03,            0.,NA,NA,"",   1.04384E+06,   950.526E+03,   950.526E+03
C:/temp/Job-1.odb,Step-1,Increment      1: Step Time =    1.000,"P-1-1",           350,   81.4635E-03,   111.458E-03,            0.,NA,NA,"",   1.10686E+06,   978.403E+03,   978.403E+03
C:/temp/Job-1.odb,Step-1,Increment      1: Step Time =    1.000,"P-1-1",           351,   84.9790E-03,   111.683E-03,            0.,NA,NA,"",   1.21093E+06,   1.07296E+06,   1.07296E+06
C:/temp/Job-1.odb,Step-1,Increment      1: Step Time =    1.000,"P-1-1",           352,   91.7754E-03,   111.026E-03,            0.,NA,NA,"",   1.45900E+06,   1.48070E+06,   1.48070E+06
C:/temp/Job-1.odb,Step-1,Increment      1: Step Time =    1.000,"P-1-1",           353,   108.515E-03,   111.853E-03,            0.,NA,NA,"",   1.47036E+06,   1.49226E+06,   1.49226E+06
C:/temp/Job-1.odb,Step-1,Increment      1: Step Time =    1.000,"P-1-1",           354,   112.373E-03,   112.226E-03,            0.,NA,NA,"",   1.30893E+06,   1.20851E+06,   1.20851E+06
C:/temp/Job-1.odb,Step-1,Increment      1: Step Time =    1.000,"P-1-1",           355,   115.571E-03,   110.771E-03,            0.,NA,NA,"",   1.17848E+06,   1.00699E+06,   1.00699E+06
C:/temp/Job-1.odb,Step-1,Increment      1: Step Time =    1.000,"P-1-1",           356,   118.819E-03,   111.249E-03,            0.,NA,NA,"",   1.12438E+06,   973.619E+03,   973.619E+03
C:/temp/Job-1.odb,Step-1,Increment      1: Step Time =    1.000,"P-1-1",           357,   121.693E-03,   112.575E-03,            0.,NA,NA,"",   1.11034E+06,   989.908E+03,   989.908E+03
C:/temp/Job-1.odb,Step-1,Increment      1: Step Time =    1.000,"P-1-1",           358,   124.327E-03,   111.459E-03,            0.,NA,NA,"",   1.00997E+06,   916.966E+03,   916.966E+03
C:/temp/Job-1.odb,Step-1,Increment      1: Step Time =    1.000,"P-1-1",           359,   127.106E-03,   110.944E-03,            0.,NA,NA,"",   944.481E+03,   880.554E+03,   880.554E+03
C:/temp/Job-1.odb,Step-1,Increment      1: Step Time =    1.000,"P-1-1",           360,   131.748E-03,   112.343E-03,            0.,NA,NA,"",   945.616E+03,   904.503E+03,   904.503E+03
C:/temp/Job-1.odb,Step-1,Increment      1: Step Time =    1.000,"P-1-1",           361,   134.903E-03,   111.320E-03,            0.,NA,NA,"",   905.042E+03,   881.947E+03,   881.947E+03
C:/temp/Job-1.odb,Step-1,Increment      1: Step Time =    1.000,"P-1-1",           362,   138.036E-03,   111.835E-03,            0.,NA,NA,"",   914.752E+03,   898.258E+03,   898.258E+03
C:/temp/Job-1.odb,Step-1,Increment      1: Step Time =    1.000,"P-1-1",           363,   141.141E-03,   111.623E-03,            0.,NA,NA,"",   913.994E+03,   904.119E+03,   904.119E+03
C:/temp/Job-1.odb,Step-1,Increment      1: Step Time =    1.000,"P-1-1",           364,   143.853E-03,   111.732E-03,            0.,NA,NA,"",   918.528E+03,   912.448E+03,   912.448E+03
C:/temp/Job-1.odb,Step-1,Increment      1: Step Time =    1.000,"P-1-1",           365,   147.327E-03,   111.165E-03,            0.,NA,NA,"",   919.119E+03,   917.894E+03,   917.894E+03
C:/temp/Job-1.odb,Step-1,Increment      1: Step Time =    1.000,"P-1-1",           366,   150.515E-03,   111.518E-03,            0.,NA,NA,"",   929.508E+03,   930.026E+03,   930.026E+03
C:/temp/Job-1.odb,Step-1,Increment      1: Step Time =    1.000,"P-1-1",           367,   153.761E-03,   112.252E-03,            0.,NA,NA,"",   940.756E+03,   942.417E+03,   942.417E+03
C:/temp/Job-1.odb,Step-1,Increment      1: Step Time =    1.000,"P-1-1",           368,   157.877E-03,   110.397E-03,            0.,NA,NA,"",   939.550E+03,   945.336E+03,   945.336E+03
C:/temp/Job-1.odb,Step-1,Increment      1: Step Time =    1.000,"P-1-1",           369,   161.367E-03,   111.347E-03,            0.,NA,NA,"",   949.881E+03,   956.442E+03,   956.442E+03
C:/temp/Job-1.odb,Step-1,Increment      1: Step Time =    1.000,"P-1-1",           370,   164.820E-03,   111.846E-03,            0.,NA,NA,"",   956.703E+03,   964.617E+03,   964.617E+03
C:/temp/Job-1.odb,Step-1,Increment      1: Step Time =    1.000,"P-1-1",           371,   166.548E-03,   111.154E-03,            0.,NA,NA,"",   957.441E+03,   966.486E+03,   966.486E+03
C:/temp/Job-1.odb,Step-1,Increment      1: Step Time =    1.000,"P-1-1",           372,   169.523E-03,   111.071E-03,            0.,NA,NA,"",   961.249E+03,   971.862E+03,   971.862E+03
C:/temp/Job-1.odb,Step-1,Increment      1: Step Time =    1.000,"P-1-1",           373,   174.360E-03,   111.518E-03,            0.,NA,NA,"",   966.678E+03,   979.742E+03,   979.742E+03
C:/temp/Job-1.odb,Step-1,Increment      1: Step Time =    1.000,"P-1-1",           374,   177.924E-03,   112.008E-03,            0.,NA,NA,"",   969.867E+03,   984.929E+03,   984.929E+03
C:/temp/Job-1.odb,Step-1,Increment      1: Step Time =    1.000,"P-1-1",           375,   184.949E-03,   111.431E-03,            0.,NA,NA,"",   971.687E+03,   992.171E+03,   992.171E+03
C:/temp/Job-1.odb,Step-1,Increment      1: Step Time =    1.000,"P-1-1",           376,   187.839E-03,   111.441E-03,            0.,NA,NA,"",   971.651E+03,   994.655E+03,   994.655E+03
C:/temp/Job-1.odb,Step-1,Increment      1: Step Time =    1.000,"P-1-1",           377,   190.922E-03,   111.443E-03,            0.,NA,NA,"",   970.789E+03,   996.885E+03,   996.885E+03
C:/temp/Job-1.odb,Step-1,Increment      1: Step Time =    1.000,"P-1-1",           378,   194.012E-03,   111.533E-03,            0.,NA,NA,"",   968.948E+03,   998.555E+03,   998.555E+03
C:/temp/Job-1.odb,Step-1,Increment      1: Step Time =    1.000,"P-1-1",           379,   197.064E-03,   111.589E-03,            0.,NA,NA,"",   966.101E+03,   999.596E+03,   999.596E+03
C:/temp/Job-1.odb,Step-1,Increment      1: Step Time =    1.000,"P-1-1",           380,   111.714E-03,   107.570E-03,            0.,NA,NA,"",   596.920E+03,   498.879E+03,   498.879E+03
C:/temp/Job-1.odb,Step-1,Increment      1: Step Time =    1.000,"P-1-1",           381,   115.180E-03,   108.139E-03,            0.,NA,NA,"",   947.091E+03,   746.094E+03,   746.094E+03
C:/temp/Job-1.odb,Step-1,Increment      1: Step Time =    1.000,"P-1-1",           382,   118.633E-03,   109.110E-03,            0.,NA,NA,"",   1.00305E+06,   843.288E+03,   843.288E+03
C:/temp/Job-1.odb,Step-1,Increment      1: Step Time =    1.000,"P-1-1",           383,   122.016E-03,   108.524E-03,            0.,NA,NA,"",   890.073E+03,   785.797E+03,   785.797E+03
C:/temp/Job-1.odb,Step-1,Increment      1: Step Time =    1.000,"P-1-1",           384,   125.186E-03,   108.343E-03,            0.,NA,NA,"",   844.884E+03,   781.119E+03,   781.119E+03
C:/temp/Job-1.odb,Step-1,Increment      1: Step Time =    1.000,"P-1-1",           385,   128.079E-03,   108.355E-03,            0.,NA,NA,"",   829.514E+03,   790.580E+03,   790.580E+03
C:/temp/Job-1.odb,Step-1,Increment      1: Step Time =    1.000,"P-1-1",           386,   131.534E-03,   108.555E-03,            0.,NA,NA,"",   834.369E+03,   813.274E+03,   813.274E+03
C:/temp/Job-1.odb,Step-1,Increment      1: Step Time =    1.000,"P-1-1",           387,   134.794E-03,   108.303E-03,            0.,NA,NA,"",   837.023E+03,   827.587E+03,   827.587E+03
C:/temp/Job-1.odb,Step-1,Increment      1: Step Time =    1.000,"P-1-1",           388,   137.983E-03,   108.313E-03,            0.,NA,NA,"",   850.436E+03,   846.959E+03,   846.959E+03
C:/temp/Job-1.odb,Step-1,Increment      1: Step Time =    1.000,"P-1-1",           389,   140.843E-03,   107.728E-03,            0.,NA,NA,"",   857.626E+03,   859.137E+03,   859.137E+03
C:/temp/Job-1.odb,Step-1,Increment      1: Step Time =    1.000,"P-1-1",           390,   143.965E-03,   108.130E-03,            0.,NA,NA,"",   878.309E+03,   880.896E+03,   880.896E+03
C:/temp/Job-1.odb,Step-1,Increment      1: Step Time =    1.000,"P-1-1",           391,   147.304E-03,   108.125E-03,            0.,NA,NA,"",   893.632E+03,   897.903E+03,   897.903E+03
C:/temp/Job-1.odb,Step-1,Increment      1: Step Time =    1.000,"P-1-1",           392,   150.671E-03,   108.319E-03,            0.,NA,NA,"",   908.581E+03,   913.848E+03,   913.848E+03
C:/temp/Job-1.odb,Step-1,Increment      1: Step Time =    1.000,"P-1-1",           393,   153.219E-03,   107.504E-03,            0.,NA,NA,"",   913.627E+03,   920.659E+03,   920.659E+03
C:/temp/Job-1.odb,Step-1,Increment      1: Step Time =    1.000,"P-1-1",           394,   157.941E-03,   107.099E-03,            0.,NA,NA,"",   927.733E+03,   936.325E+03,   936.325E+03
C:/temp/Job-1.odb,Step-1,Increment      1: Step Time =    1.000,"P-1-1",           395,   160.760E-03,   108.107E-03,            0.,NA,NA,"",   938.860E+03,   947.530E+03,   947.530E+03
C:/temp/Job-1.odb,Step-1,Increment      1: Step Time =    1.000,"P-1-1",           396,   163.396E-03,   108.070E-03,            0.,NA,NA,"",   944.119E+03,   953.703E+03,   953.703E+03
C:/temp/Job-1.odb,Step-1,Increment      1: Step Time =    1.000,"P-1-1",           397,   167.857E-03,   108.738E-03,            0.,NA,NA,"",   954.330E+03,   965.233E+03,   965.233E+03
C:/temp/Job-1.odb,Step-1,Increment      1: Step Time =    1.000,"P-1-1",           398,   170.928E-03,   108.081E-03,            0.,NA,NA,"",   958.071E+03,   970.675E+03,   970.675E+03
C:/temp/Job-1.odb,Step-1,Increment      1: Step Time =    1.000,"P-1-1",           399,   173.618E-03,   108.409E-03,            0.,NA,NA,"",   961.697E+03,   975.485E+03,   975.485E+03
C:/temp/Job-1.odb,Step-1,Increment      1: Step Time =    1.000,"P-1-1",           400,   177.086E-03,   108.308E-03,            0.,NA,NA,"",   965.324E+03,   981.127E+03,   981.127E+03
C:/temp/Job-1.odb,Step-1,Increment      1: Step Time =    1.000,"P-1-1",           401,   179.979E-03,   108.550E-03,            0.,NA,NA,"",   967.744E+03,   985.257E+03,   985.257E+03
C:/temp/Job-1.odb,Step-1,Increment      1: Step Time =    1.000,"P-1-1",           402,   184.656E-03,   108.440E-03,            0.,NA,NA,"",   969.795E+03,   990.920E+03,   990.920E+03
C:/temp/Job-1.odb,Step-1,Increment      1: Step Time =    1.000,"P-1-1",           403,   187.781E-03,   108.266E-03,            0.,NA,NA,"",   970.014E+03,   993.901E+03,   993.901E+03
C:/temp/Job-1.odb,Step-1,Increment      1: Step Time =    1.000,"P-1-1",           404,   190.956E-03,   108.427E-03,            0.,NA,NA,"",   969.427E+03,   996.500E+03,   996.500E+03
C:/temp/Job-1.odb,Step-1,Increment      1: Step Time =    1.000,"P-1-1",           405,   194.047E-03,   108.592E-03,            0.,NA,NA,"",   967.689E+03,   998.394E+03,   998.394E+03
C:/temp/Job-1.odb,Step-1,Increment      1: Step Time =    1.000,"P-1-1",           406,   197.058E-03,   108.583E-03,            0.,NA,NA,"",   964.851E+03,   999.551E+03,   999.551E+03
C:/temp/Job-1.odb,Step-1,Increment      1: Step Time =    1.000,"P-1-1",           407,   114.770E-03,   105.539E-03,            0.,NA,NA,"",   640.333E+03,   248.756E+03,   248.756E+03
C:/temp/Job-1.odb,Step-1,Increment      1: Step Time =    1.000,"P-1-1",           408,   119.626E-03,   105.848E-03,            0.,NA,NA,"",   714.393E+03,   589.830E+03,   589.830E+03
C:/temp/Job-1.odb,Step-1,Increment      1: Step Time =    1.000,"P-1-1",           409,   123.080E-03,   105.677E-03,            0.,NA,NA,"",   686.011E+03,   626.348E+03,   626.348E+03
C:/temp/Job-1.odb,Step-1,Increment      1: Step Time =    1.000,"P-1-1",           410,   126.266E-03,   104.955E-03,            0.,NA,NA,"",   666.210E+03,   647.124E+03,   647.124E+03
C:/temp/Job-1.odb,Step-1,Increment      1: Step Time =    1.000,"P-1-1",           411,   129.685E-03,   105.157E-03,            0.,NA,NA,"",   711.500E+03,   706.880E+03,   706.880E+03
C:/temp/Job-1.odb,Step-1,Increment      1: Step Time =    1.000,"P-1-1",           412,   132.817E-03,   105.340E-03,            0.,NA,NA,"",   754.234E+03,   755.450E+03,   755.450E+03
C:/temp/Job-1.odb,Step-1,Increment      1: Step Time =    1.000,"P-1-1",           413,   136.135E-03,   105.146E-03,            0.,NA,NA,"",   785.964E+03,   791.607E+03,   791.607E+03
C:/temp/Job-1.odb,Step-1,Increment      1: Step Time =    1.000,"P-1-1",           414,   139.075E-03,   105.436E-03,            0.,NA,NA,"",   817.809E+03,   824.174E+03,   824.174E+03
C:/temp/Job-1.odb,Step-1,Increment      1: Step Time =    1.000,"P-1-1",           415,   140.875E-03,   104.746E-03,            0.,NA,NA,"",   825.633E+03,   834.061E+03,   834.061E+03
C:/temp/Job-1.odb,Step-1,Increment      1: Step Time =    1.000,"P-1-1",           416,   143.854E-03,   105.195E-03,            0.,NA,NA,"",   851.613E+03,   859.796E+03,   859.796E+03
C:/temp/Job-1.odb,Step-1,Increment      1: Step Time =    1.000,"P-1-1",           417,   147.093E-03,   105.201E-03,            0.,NA,NA,"",   873.569E+03,   882.047E+03,   882.047E+03
C:/temp/Job-1.odb,Step-1,Increment      1: Step Time =    1.000,"P-1-1",           418,   154.346E-03,   104.755E-03,            0.,NA,NA,"",   907.994E+03,   917.415E+03,   917.415E+03
C:/temp/Job-1.odb,Step-1,Increment      1: Step Time =    1.000,"P-1-1",           419,   157.662E-03,   105.044E-03,            0.,NA,NA,"",   921.443E+03,   931.183E+03,   931.183E+03
C:/temp/Job-1.odb,Step-1,Increment      1: Step Time =    1.000,"P-1-1",           420,   161.243E-03,   105.518E-03,            0.,NA,NA,"",   933.534E+03,   943.769E+03,   943.769E+03
C:/temp/Job-1.odb,Step-1,Increment      1: Step Time =    1.000,"P-1-1",           421,   163.613E-03,   104.252E-03,            0.,NA,NA,"",   938.050E+03,   949.319E+03,   949.319E+03
C:/temp/Job-1.odb,Step-1,Increment      1: Step Time =    1.000,"P-1-1",           422,   166.857E-03,   104.529E-03,            0.,NA,NA,"",   945.929E+03,   958.064E+03,   958.064E+03
C:/temp/Job-1.odb,Step-1,Increment      1: Step Time =    1.000,"P-1-1",           423,   170.288E-03,   105.101E-03,            0.,NA,NA,"",   953.354E+03,   966.581E+03,   966.581E+03
C:/temp/Job-1.odb,Step-1,Increment      1: Step Time =    1.000,"P-1-1",           424,   173.150E-03,   103.976E-03,            0.,NA,NA,"",   957.291E+03,   971.996E+03,   971.996E+03
C:/temp/Job-1.odb,Step-1,Increment      1: Step Time =    1.000,"P-1-1",           425,   176.022E-03,   105.346E-03,            0.,NA,NA,"",   961.740E+03,   977.660E+03,   977.660E+03
C:/temp/Job-1.odb,Step-1,Increment      1: Step Time =    1.000,"P-1-1",           426,   179.908E-03,   105.617E-03,            0.,NA,NA,"",   965.714E+03,   983.883E+03,   983.883E+03
C:/temp/Job-1.odb,Step-1,Increment      1: Step Time =    1.000,"P-1-1",           427,   183.835E-03,   104.885E-03,            0.,NA,NA,"",   967.831E+03,   988.993E+03,   988.993E+03
C:/temp/Job-1.odb,Step-1,Increment      1: Step Time =    1.000,"P-1-1",           428,   187.823E-03,   105.064E-03,            0.,NA,NA,"",   968.856E+03,   993.455E+03,   993.455E+03
C:/temp/Job-1.odb,Step-1,Increment      1: Step Time =    1.000,"P-1-1",           429,   191.343E-03,   105.373E-03,            0.,NA,NA,"",   968.275E+03,   996.501E+03,   996.501E+03
C:/temp/Job-1.odb,Step-1,Increment      1: Step Time =    1.000,"P-1-1",           430,   194.088E-03,   105.836E-03,            0.,NA,NA,"",   966.860E+03,   998.291E+03,   998.291E+03
C:/temp/Job-1.odb,Step-1,Increment      1: Step Time =    1.000,"P-1-1",           431,   196.991E-03,   105.605E-03,            0.,NA,NA,"",   964.016E+03,   999.484E+03,   999.484E+03
C:/temp/Job-1.odb,Step-1,Increment      1: Step Time =    1.000,"P-1-1",           432,   115.951E-03,   98.4516E-03,            0.,NA,NA,"",   351.756E+03,  -298.654E+03,  -298.654E+03
C:/temp/Job-1.odb,Step-1,Increment      1: Step Time =    1.000,"P-1-1",           433,   119.040E-03,   98.2951E-03,            0.,NA,NA,"",   334.525E+03,   269.666E+03,   269.666E+03
C:/temp/Job-1.odb,Step-1,Increment      1: Step Time =    1.000,"P-1-1",           434,   121.943E-03,   99.4257E-03,            0.,NA,NA,"",   377.089E+03,   372.266E+03,   372.266E+03
C:/temp/Job-1.odb,Step-1,Increment      1: Step Time =    1.000,"P-1-1",           435,   124.242E-03,   98.0036E-03,            0.,NA,NA,"",   499.095E+03,   498.000E+03,   498.000E+03
C:/temp/Job-1.odb,Step-1,Increment      1: Step Time =    1.000,"P-1-1",           436,   128.346E-03,   98.1127E-03,            0.,NA,NA,"",   602.919E+03,   614.520E+03,   614.520E+03
C:/temp/Job-1.odb,Step-1,Increment      1: Step Time =    1.000,"P-1-1",           437,   131.130E-03,   98.7169E-03,            0.,NA,NA,"",   658.242E+03,   672.859E+03,   672.859E+03
C:/temp/Job-1.odb,Step-1,Increment      1: Step Time =    1.000,"P-1-1",           438,   134.241E-03,   99.7204E-03,            0.,NA,NA,"",   710.735E+03,   726.510E+03,   726.510E+03
C:/temp/Job-1.odb,Step-1,Increment      1: Step Time =    1.000,"P-1-1",           439,   137.723E-03,   99.7734E-03,            0.,NA,NA,"",   763.963E+03,   778.655E+03,   778.655E+03
C:/temp/Job-1.odb,Step-1,Increment      1: Step Time =    1.000,"P-1-1",           440,   140.606E-03,   99.8847E-03,            0.,NA,NA,"",   798.449E+03,   812.189E+03,   812.189E+03
C:/temp/Job-1.odb,Step-1,Increment      1: Step Time =    1.000,"P-1-1",           441,   144.219E-03,   99.1317E-03,            0.,NA,NA,"",   834.709E+03,   847.144E+03,   847.144E+03
C:/temp/Job-1.odb,Step-1,Increment      1: Step Time =    1.000,"P-1-1",           442,   147.762E-03,   99.2914E-03,            0.,NA,NA,"",   862.718E+03,   874.401E+03,   874.401E+03
C:/temp/Job-1.odb,Step-1,Increment      1: Step Time =    1.000,"P-1-1",           443,   150.707E-03,   98.3893E-03,            0.,NA,NA,"",   882.216E+03,   893.314E+03,   893.314E+03
C:/temp/Job-1.odb,Step-1,Increment      1: Step Time =    1.000,"P-1-1",           444,   154.387E-03,   98.9340E-03,            0.,NA,NA,"",   900.912E+03,   911.948E+03,   911.948E+03
C:/temp/Job-1.odb,Step-1,Increment      1: Step Time =    1.000,"P-1-1",           445,   157.240E-03,   97.6851E-03,            0.,NA,NA,"",   914.356E+03,   925.206E+03,   925.206E+03
C:/temp/Job-1.odb,Step-1,Increment      1: Step Time =    1.000,"P-1-1",           446,   160.916E-03,   97.8726E-03,            0.,NA,NA,"",   927.948E+03,   939.205E+03,   939.205E+03
C:/temp/Job-1.odb,Step-1,Increment      1: Step Time =    1.000,"P-1-1",           447,   164.434E-03,   97.4835E-03,            0.,NA,NA,"",   938.587E+03,   950.453E+03,   950.453E+03
C:/temp/Job-1.odb,Step-1,Increment      1: Step Time =    1.000,"P-1-1",           448,   167.754E-03,   98.3848E-03,            0.,NA,NA,"",   946.064E+03,   958.985E+03,   958.985E+03
C:/temp/Job-1.odb,Step-1,Increment      1: Step Time =    1.000,"P-1-1",           449,   170.690E-03,   98.5121E-03,            0.,NA,NA,"",   951.903E+03,   965.845E+03,   965.845E+03
C:/temp/Job-1.odb,Step-1,Increment      1: Step Time =    1.000,"P-1-1",           450,   173.032E-03,   98.9269E-03,            0.,NA,NA,"",   955.882E+03,   970.813E+03,   970.813E+03
C:/temp/Job-1.odb,Step-1,Increment      1: Step Time =    1.000,"P-1-1",           451,   177.424E-03,   99.4969E-03,            0.,NA,NA,"",   961.853E+03,   979.035E+03,   979.035E+03
C:/temp/Job-1.odb,Step-1,Increment      1: Step Time =    1.000,"P-1-1",           452,   181.623E-03,   98.8643E-03,            0.,NA,NA,"",   965.864E+03,   985.692E+03,   985.692E+03
C:/temp/Job-1.odb,Step-1,Increment      1: Step Time =    1.000,"P-1-1",           453,   184.335E-03,   99.1884E-03,            0.,NA,NA,"",   967.385E+03,   989.348E+03,   989.348E+03
C:/temp/Job-1.odb,Step-1,Increment      1: Step Time =    1.000,"P-1-1",           454,   186.771E-03,   98.8011E-03,            0.,NA,NA,"",   968.103E+03,   992.101E+03,   992.101E+03
C:/temp/Job-1.odb,Step-1,Increment      1: Step Time =    1.000,"P-1-1",           455,   189.549E-03,   97.8092E-03,            0.,NA,NA,"",   968.284E+03,   994.990E+03,   994.990E+03
C:/temp/Job-1.odb,Step-1,Increment      1: Step Time =    1.000,"P-1-1",           456,   193.044E-03,   99.0992E-03,            0.,NA,NA,"",   966.885E+03,   997.604E+03,   997.604E+03
C:/temp/Job-1.odb,Step-1,Increment      1: Step Time =    1.000,"P-1-1",           457,   195.807E-03,   99.2904E-03,            0.,NA,NA,"",   964.613E+03,   998.989E+03,   998.989E+03
C:/temp/Job-1.odb,Step-1,Increment      1: Step Time =    1.000,"P-1-1",           458,   196.671E-03,   102.617E-03,            0.,NA,NA,"",   963.883E+03,   999.405E+03,   999.405E+03
C:/temp/Job-1.odb,Step-1,Increment      1: Step Time =    1.000,"P-1-1",           459,   193.271E-03,   102.167E-03,            0.,NA,NA,"",   966.826E+03,   997.715E+03,   997.715E+03
C:/temp/Job-1.odb,Step-1,Increment      1: Step Time =    1.000,"P-1-1",           460,   190.050E-03,   102.243E-03,            0.,NA,NA,"",   968.133E+03,   995.348E+03,   995.348E+03
C:/temp/Job-1.odb,Step-1,Increment      1: Step Time =    1.000,"P-1-1",           461,   186.239E-03,   101.791E-03,            0.,NA,NA,"",   967.933E+03,   991.394E+03,   991.394E+03
C:/temp/Job-1.odb,Step-1,Increment      1: Step Time =    1.000,"P-1-1",           462,   183.044E-03,   102.164E-03,            0.,NA,NA,"",   966.773E+03,   987.624E+03,   987.624E+03
C:/temp/Job-1.odb,Step-1,Increment      1: Step Time =    1.000,"P-1-1",           463,   179.848E-03,   101.158E-03,            0.,NA,NA,"",   964.228E+03,   982.842E+03,   982.842E+03
C:/temp/Job-1.odb,Step-1,Increment      1: Step Time =    1.000,"P-1-1",           464,   176.660E-03,   102.777E-03,            0.,NA,NA,"",   961.355E+03,   977.996E+03,   977.996E+03
C:/temp/Job-1.odb,Step-1,Increment      1: Step Time =    1.000,"P-1-1",           465,   174.037E-03,   101.999E-03,            0.,NA,NA,"",   957.639E+03,   973.023E+03,   973.023E+03
C:/temp/Job-1.odb,Step-1,Increment      1: Step Time =    1.000,"P-1-1",           466,   170.576E-03,   101.697E-03,            0.,NA,NA,"",   951.623E+03,   965.524E+03,   965.524E+03
C:/temp/Job-1.odb,Step-1,Increment      1: Step Time =    1.000,"P-1-1",           467,   167.170E-03,   101.347E-03,            0.,NA,NA,"",   944.343E+03,   957.153E+03,   957.153E+03
C:/temp/Job-1.odb,Step-1,Increment      1: Step Time =    1.000,"P-1-1",           468,   163.615E-03,   100.840E-03,            0.,NA,NA,"",   935.101E+03,   947.037E+03,   947.037E+03
C:/temp/Job-1.odb,Step-1,Increment      1: Step Time =    1.000,"P-1-1",           469,   159.799E-03,   101.135E-03,            0.,NA,NA,"",   923.282E+03,   934.567E+03,   934.567E+03
C:/temp/Job-1.odb,Step-1,Increment      1: Step Time =    1.000,"P-1-1",           470,   157.498E-03,   100.938E-03,            0.,NA,NA,"",   914.905E+03,   925.965E+03,   925.965E+03
C:/temp/Job-1.odb,Step-1,Increment      1: Step Time =    1.000,"P-1-1",           471,   153.709E-03,   101.095E-03,            0.,NA,NA,"",   897.726E+03,   908.735E+03,   908.735E+03
C:/temp/Job-1.odb,Step-1,Increment      1: Step Time =    1.000,"P-1-1",           472,   150.440E-03,   101.825E-03,            0.,NA,NA,"",   880.966E+03,   891.980E+03,   891.980E+03
C:/temp/Job-1.odb,Step-1,Increment      1: Step Time =    1.000,"P-1-1",           473,   147.029E-03,   101.138E-03,            0.,NA,NA,"",   857.977E+03,   869.674E+03,   869.674E+03
C:/temp/Job-1.odb,Step-1,Increment      1: Step Time =    1.000,"P-1-1",           474,   144.513E-03,   102.498E-03,            0.,NA,NA,"",   842.526E+03,   853.866E+03,   853.866E+03
C:/temp/Job-1.odb,Step-1,Increment      1: Step Time =    1.000,"P-1-1",           475,   141.310E-03,   102.233E-03,            0.,NA,NA,"",   812.161E+03,   824.431E+03,   824.431E+03
C:/temp/Job-1.odb,Step-1,Increment      1: Step Time =    1.000,"P-1-1",           476,   138.551E-03,   101.494E-03,            0.,NA,NA,"",   777.543E+03,   791.308E+03,   791.308E+03
C:/temp/Job-1.odb,Step-1,Increment      1: Step Time =    1.000,"P-1-1",           477,   135.229E-03,   101.782E-03,            0.,NA,NA,"",   733.294E+03,   747.556E+03,   747.556E+03
C:/temp/Job-1.odb,Step-1,Increment      1: Step Time =    1.000,"P-1-1",           478,   131.742E-03,   102.307E-03,            0.,NA,NA,"",   678.793E+03,   691.719E+03,   691.719E+03
C:/temp/Job-1.odb,Step-1,Increment      1: Step Time =    1.000,"P-1-1",           479,   128.312E-03,   101.376E-03,            0.,NA,NA,"",   589.163E+03,   602.450E+03,   602.450E+03
C:/temp/Job-1.odb,Step-1,Increment      1: Step Time =    1.000,"P-1-1",           480,   124.737E-03,   101.395E-03,            0.,NA,NA,"",   490.171E+03,   496.085E+03,   496.085E+03
C:/temp/Job-1.odb,Step-1,Increment      1: Step Time =    1.000,"P-1-1",           481,   121.638E-03,   102.802E-03,            0.,NA,NA,"",   463.814E+03,   429.380E+03,   429.380E+03
C:/temp/Job-1.odb,Step-1,Increment      1: Step Time =    1.000,"P-1-1",           482,   119.082E-03,   101.775E-03,            0.,NA,NA,"",   343.095E+03,   269.790E+03,   269.790E+03
C:/temp/Job-1.odb,Step-1,Increment      1: Step Time =    1.000,"P-1-1",           483,   115.221E-03,   101.822E-03,            0.,NA,NA,"",   440.348E+03,  -399.877E+03,  -399.877E+03
C:/temp/Job-1.odb,Step-1,Increment      1: Step Time =    1.000,"P-1-1",           484,   115.634E-03,   94.8591E-03,            0.,NA,NA,"",   627.783E+03,   251.675E+03,   251.675E+03
C:/temp/Job-1.odb,Step-1,Increment      1: Step Time =    1.000,"P-1-1",           485,   119.296E-03,   95.2529E-03,            0.,NA,NA,"",   612.661E+03,   497.560E+03,   497.560E+03
C:/temp/Job-1.odb,Step-1,Increment      1: Step Time =    1.000,"P-1-1",           486,   122.461E-03,   95.8001E-03,            0.,NA,NA,"",   578.021E+03,   534.161E+03,   534.161E+03
C:/temp/Job-1.odb,Step-1,Increment      1: Step Time =    1.000,"P-1-1",           487,   128.095E-03,   94.7635E-03,            0.,NA,NA,"",   701.326E+03,   689.762E+03,   689.762E+03
C:/temp/Job-1.odb,Step-1,Increment      1: Step Time =    1.000,"P-1-1",           488,   130.390E-03,   94.2084E-03,            0.,NA,NA,"",   739.157E+03,   732.173E+03,   732.173E+03
C:/temp/Job-1.odb,Step-1,Increment      1: Step Time =    1.000,"P-1-1",           489,   134.150E-03,   95.6225E-03,            0.,NA,NA,"",   752.288E+03,   758.768E+03,   758.768E+03
C:/temp/Job-1.odb,Step-1,Increment      1: Step Time =    1.000,"P-1-1",           490,   136.935E-03,   95.8743E-03,            0.,NA,NA,"",   779.222E+03,   788.306E+03,   788.306E+03
C:/temp/Job-1.odb,Step-1,Increment      1: Step Time =    1.000,"P-1-1",           491,   141.259E-03,   95.3188E-03,            0.,NA,NA,"",   826.696E+03,   835.496E+03,   835.496E+03
C:/temp/Job-1.odb,Step-1,Increment      1: Step Time =    1.000,"P-1-1",           492,   143.829E-03,   95.7037E-03,            0.,NA,NA,"",   843.894E+03,   853.549E+03,   853.549E+03
C:/temp/Job-1.odb,Step-1,Increment      1: Step Time =    1.000,"P-1-1",           493,   147.733E-03,   95.7345E-03,            0.,NA,NA,"",   872.052E+03,   881.663E+03,   881.663E+03
C:/temp/Job-1.odb,Step-1,Increment      1: Step Time =    1.000,"P-1-1",           494,   150.985E-03,   95.0238E-03,            0.,NA,NA,"",   893.303E+03,   902.319E+03,   902.319E+03
C:/temp/Job-1.odb,Step-1,Increment      1: Step Time =    1.000,"P-1-1",           495,   154.002E-03,   94.1297E-03,            0.,NA,NA,"",   909.575E+03,   918.248E+03,   918.248E+03
C:/temp/Job-1.odb,Step-1,Increment      1: Step Time =    1.000,"P-1-1",           496,   157.399E-03,   93.9840E-03,            0.,NA,NA,"",   922.639E+03,   931.795E+03,   931.795E+03
C:/temp/Job-1.odb,Step-1,Increment      1: Step Time =    1.000,"P-1-1",           497,   163.663E-03,   94.5732E-03,            0.,NA,NA,"",   940.017E+03,   950.922E+03,   950.922E+03
C:/temp/Job-1.odb,Step-1,Increment      1: Step Time =    1.000,"P-1-1",           498,   167.398E-03,   95.4104E-03,            0.,NA,NA,"",   947.303E+03,   959.578E+03,   959.578E+03
C:/temp/Job-1.odb,Step-1,Increment      1: Step Time =    1.000,"P-1-1",           499,   170.425E-03,   94.5920E-03,            0.,NA,NA,"",   953.918E+03,   967.131E+03,   967.131E+03
C:/temp/Job-1.odb,Step-1,Increment      1: Step Time =    1.000,"P-1-1",           500,   173.786E-03,   95.3703E-03,            0.,NA,NA,"",   958.636E+03,   973.488E+03,   973.488E+03
C:/temp/Job-1.odb,Step-1,Increment      1: Step Time =    1.000,"P-1-1",           501,   177.462E-03,   95.9043E-03,            0.,NA,NA,"",   962.834E+03,   979.703E+03,   979.703E+03
C:/temp/Job-1.odb,Step-1,Increment      1: Step Time =    1.000,"P-1-1",           502,   180.395E-03,   95.5791E-03,            0.,NA,NA,"",   965.727E+03,   984.439E+03,   984.439E+03
C:/temp/Job-1.odb,Step-1,Increment      1: Step Time =    1.000,"P-1-1",           503,   183.666E-03,   95.2668E-03,            0.,NA,NA,"",   967.737E+03,   988.790E+03,   988.790E+03
C:/temp/Job-1.odb,Step-1,Increment      1: Step Time =    1.000,"P-1-1",           504,   185.872E-03,   93.6712E-03,            0.,NA,NA,"",   968.998E+03,   991.539E+03,   991.539E+03
C:/temp/Job-1.odb,Step-1,Increment      1: Step Time =    1.000,"P-1-1",           505,   190.822E-03,   95.2532E-03,            0.,NA,NA,"",   968.279E+03,   996.056E+03,   996.056E+03
C:/temp/Job-1.odb,Step-1,Increment      1: Step Time =    1.000,"P-1-1",           506,   193.565E-03,   94.5625E-03,            0.,NA,NA,"",   967.312E+03,   998.034E+03,   998.034E+03
C:/temp/Job-1.odb,Step-1,Increment      1: Step Time =    1.000,"P-1-1",           507,   196.477E-03,   95.8933E-03,            0.,NA,NA,"",   964.304E+03,   999.385E+03,   999.385E+03
C:/temp/Job-1.odb,Step-1,Increment      1: Step Time =    1.000,"P-1-1",           508,   112.269E-03,   92.4716E-03,            0.,NA,NA,"",   668.644E+03,   548.627E+03,   548.627E+03
C:/temp/Job-1.odb,Step-1,Increment      1: Step Time =    1.000,"P-1-1",           509,   115.571E-03,   92.2188E-03,            0.,NA,NA,"",   907.846E+03,   710.855E+03,   710.855E+03
C:/temp/Job-1.odb,Step-1,Increment      1: Step Time =    1.000,"P-1-1",           510,   118.624E-03,   92.2780E-03,            0.,NA,NA,"",   895.236E+03,   733.201E+03,   733.201E+03
C:/temp/Job-1.odb,Step-1,Increment      1: Step Time =    1.000,"P-1-1",           511,   121.644E-03,   92.5910E-03,            0.,NA,NA,"",   824.122E+03,   722.452E+03,   722.452E+03
C:/temp/Job-1.odb,Step-1,Increment      1: Step Time =    1.000,"P-1-1",           512,   125.765E-03,   91.5464E-03,            0.,NA,NA,"",   839.159E+03,   781.854E+03,   781.854E+03
C:/temp/Job-1.odb,Step-1,Increment      1: Step Time =    1.000,"P-1-1",           513,   128.855E-03,   90.9948E-03,            0.,NA,NA,"",   847.669E+03,   810.525E+03,   810.525E+03
C:/temp/Job-1.odb,Step-1,Increment      1: Step Time =    1.000,"P-1-1",           514,   132.302E-03,   91.5753E-03,            0.,NA,NA,"",   835.224E+03,   817.475E+03,   817.475E+03
C:/temp/Job-1.odb,Step-1,Increment      1: Step Time =    1.000,"P-1-1",           515,   134.597E-03,   91.6659E-03,            0.,NA,NA,"",   837.909E+03,   827.587E+03,   827.587E+03
C:/temp/Job-1.odb,Step-1,Increment      1: Step Time =    1.000,"P-1-1",           516,   137.491E-03,   91.6073E-03,            0.,NA,NA,"",   851.777E+03,   847.035E+03,   847.035E+03
C:/temp/Job-1.odb,Step-1,Increment      1: Step Time =    1.000,"P-1-1",           517,   143.256E-03,   91.6408E-03,            0.,NA,NA,"",    877.82E+03,   879.283E+03,   879.283E+03
C:/temp/Job-1.odb,Step-1,Increment      1: Step Time =    1.000,"P-1-1",           518,   147.949E-03,   92.3217E-03,            0.,NA,NA,"",   893.822E+03,   898.966E+03,   898.966E+03
C:/temp/Job-1.odb,Step-1,Increment      1: Step Time =    1.000,"P-1-1",           519,   151.347E-03,   91.6027E-03,            0.,NA,NA,"",   911.162E+03,   916.513E+03,   916.513E+03
C:/temp/Job-1.odb,Step-1,Increment      1: Step Time =    1.000,"P-1-1",           520,   154.014E-03,   91.4517E-03,            0.,NA,NA,"",   921.176E+03,   927.355E+03,   927.355E+03
C:/temp/Job-1.odb,Step-1,Increment      1: Step Time =    1.000,"P-1-1",           521,   157.534E-03,   90.6551E-03,            0.,NA,NA,"",   934.755E+03,   941.328E+03,   941.328E+03
C:/temp/Job-1.odb,Step-1,Increment      1: Step Time =    1.000,"P-1-1",           522,   161.210E-03,   91.2427E-03,            0.,NA,NA,"",   941.635E+03,   950.024E+03,   950.024E+03
C:/temp/Job-1.odb,Step-1,Increment      1: Step Time =    1.000,"P-1-1",           523,   163.972E-03,   91.1250E-03,            0.,NA,NA,"",   947.781E+03,   957.074E+03,   957.074E+03
C:/temp/Job-1.odb,Step-1,Increment      1: Step Time =    1.000,"P-1-1",           524,   170.829E-03,   91.7080E-03,            0.,NA,NA,"",   958.035E+03,   970.475E+03,   970.475E+03
C:/temp/Job-1.odb,Step-1,Increment      1: Step Time =    1.000,"P-1-1",           525,   174.508E-03,   92.2932E-03,            0.,NA,NA,"",   962.097E+03,   976.596E+03,   976.596E+03
C:/temp/Job-1.odb,Step-1,Increment      1: Step Time =    1.000,"P-1-1",           526,   177.460E-03,   91.9081E-03,            0.,NA,NA,"",   965.507E+03,   981.560E+03,   981.560E+03
C:/temp/Job-1.odb,Step-1,Increment      1: Step Time =    1.000,"P-1-1",           527,   180.052E-03,   90.9602E-03,            0.,NA,NA,"",   968.249E+03,   985.715E+03,   985.715E+03
C:/temp/Job-1.odb,Step-1,Increment      1: Step Time =    1.000,"P-1-1",           528,   183.496E-03,   91.4141E-03,            0.,NA,NA,"",   969.598E+03,   989.695E+03,   989.695E+03
C:/temp/Job-1.odb,Step-1,Increment      1: Step Time =    1.000,"P-1-1",           529,   186.462E-03,   90.6130E-03,            0.,NA,NA,"",   970.637E+03,   993.027E+03,   993.027E+03
C:/temp/Job-1.odb,Step-1,Increment      1: Step Time =    1.000,"P-1-1",           530,   189.947E-03,   91.8055E-03,            0.,NA,NA,"",   969.695E+03,   995.801E+03,   995.801E+03
C:/temp/Job-1.odb,Step-1,Increment      1: Step Time =    1.000,"P-1-1",           531,   192.633E-03,   91.2085E-03,            0.,NA,NA,"",   968.786E+03,   997.701E+03,   997.701E+03
C:/temp/Job-1.odb,Step-1,Increment      1: Step Time =    1.000,"P-1-1",           532,   196.077E-03,   92.4836E-03,            0.,NA,NA,"",   965.577E+03,   999.234E+03,   999.234E+03
C:/temp/Job-1.odb,Step-1,Increment      1: Step Time =    1.000,"P-1-1",           533,   108.536E-03,   87.8176E-03,            0.,NA,NA,"",   1.48198E+06,   1.50918E+06,   1.50918E+06
C:/temp/Job-1.odb,Step-1,Increment      1: Step Time =    1.000,"P-1-1",           534,   112.646E-03,   88.7034E-03,            0.,NA,NA,"",   1.23781E+06,   1.12328E+06,   1.12328E+06
C:/temp/Job-1.odb,Step-1,Increment      1: Step Time =    1.000,"P-1-1",           535,   115.328E-03,   88.4103E-03,            0.,NA,NA,"",   1.22572E+06,   1.06741E+06,   1.06741E+06
C:/temp/Job-1.odb,Step-1,Increment      1: Step Time =    1.000,"P-1-1",           536,   117.995E-03,   88.0670E-03,            0.,NA,NA,"",   1.19120E+06,   1.03681E+06,   1.03681E+06
C:/temp/Job-1.odb,Step-1,Increment      1: Step Time =    1.000,"P-1-1",           537,   120.661E-03,   87.9579E-03,            0.,NA,NA,"",   1.12147E+06,   988.670E+03,   988.670E+03
C:/temp/Job-1.odb,Step-1,Increment      1: Step Time =    1.000,"P-1-1",           538,   123.440E-03,   87.6683E-03,            0.,NA,NA,"",   1.06107E+06,   957.546E+03,   957.546E+03
C:/temp/Job-1.odb,Step-1,Increment      1: Step Time =    1.000,"P-1-1",           539,   128.892E-03,   86.7629E-03,            0.,NA,NA,"",   1.00139E+06,   939.548E+03,   939.548E+03
C:/temp/Job-1.odb,Step-1,Increment      1: Step Time =    1.000,"P-1-1",           540,   132.460E-03,   88.0338E-03,            0.,NA,NA,"",   932.395E+03,   896.237E+03,   896.237E+03
C:/temp/Job-1.odb,Step-1,Increment      1: Step Time =    1.000,"P-1-1",           541,   134.839E-03,   88.0650E-03,            0.,NA,NA,"",   924.928E+03,   897.976E+03,   897.976E+03
C:/temp/Job-1.odb,Step-1,Increment      1: Step Time =    1.000,"P-1-1",           542,   137.536E-03,   89.1004E-03,            0.,NA,NA,"",   896.565E+03,   882.417E+03,   882.417E+03
C:/temp/Job-1.odb,Step-1,Increment      1: Step Time =    1.000,"P-1-1",           543,   141.010E-03,   88.3198E-03,            0.,NA,NA,"",   913.454E+03,   903.476E+03,   903.476E+03
C:/temp/Job-1.odb,Step-1,Increment      1: Step Time =    1.000,"P-1-1",           544,   144.319E-03,   88.7218E-03,            0.,NA,NA,"",   914.472E+03,   909.804E+03,   909.804E+03
C:/temp/Job-1.odb,Step-1,Increment      1: Step Time =    1.000,"P-1-1",           545,   147.714E-03,   89.0450E-03,            0.,NA,NA,"",   918.584E+03,   918.082E+03,   918.082E+03
C:/temp/Job-1.odb,Step-1,Increment      1: Step Time =    1.000,"P-1-1",           546,   150.448E-03,   88.1284E-03,            0.,NA,NA,"",   932.532E+03,   932.366E+03,   932.366E+03
C:/temp/Job-1.odb,Step-1,Increment      1: Step Time =    1.000,"P-1-1",           547,   153.451E-03,   89.0668E-03,            0.,NA,NA,"",   932.514E+03,   935.556E+03,   935.556E+03
C:/temp/Job-1.odb,Step-1,Increment      1: Step Time =    1.000,"P-1-1",           548,   156.810E-03,   88.4052E-03,            0.,NA,NA,"",   942.405E+03,   946.577E+03,   946.577E+03
C:/temp/Job-1.odb,Step-1,Increment      1: Step Time =    1.000,"P-1-1",           549,   161.514E-03,   87.7979E-03,            0.,NA,NA,"",   953.045E+03,   959.039E+03,   959.039E+03
C:/temp/Job-1.odb,Step-1,Increment      1: Step Time =    1.000,"P-1-1",           550,   163.648E-03,   87.6746E-03,            0.,NA,NA,"",   956.338E+03,   963.324E+03,   963.324E+03
C:/temp/Job-1.odb,Step-1,Increment      1: Step Time =    1.000,"P-1-1",           551,   166.912E-03,   88.7924E-03,            0.,NA,NA,"",   957.642E+03,   966.920E+03,   966.920E+03
C:/temp/Job-1.odb,Step-1,Increment      1: Step Time =    1.000,"P-1-1",           552,   169.901E-03,   89.0234E-03,            0.,NA,NA,"",   961.290E+03,   972.153E+03,   972.153E+03
C:/temp/Job-1.odb,Step-1,Increment      1: Step Time =    1.000,"P-1-1",           553,   172.768E-03,   88.8347E-03,            0.,NA,NA,"",   964.833E+03,   977.096E+03,   977.096E+03
C:/temp/Job-1.odb,Step-1,Increment      1: Step Time =    1.000,"P-1-1",           554,   177.242E-03,   88.9315E-03,            0.,NA,NA,"",   968.239E+03,   983.222E+03,   983.222E+03
C:/temp/Job-1.odb,Step-1,Increment      1: Step Time =    1.000,"P-1-1",           555,   180.098E-03,   87.7396E-03,            0.,NA,NA,"",   971.208E+03,   987.655E+03,   987.655E+03
C:/temp/Job-1.odb,Step-1,Increment      1: Step Time =    1.000,"P-1-1",           556,   183.686E-03,   88.1842E-03,            0.,NA,NA,"",   971.812E+03,   991.114E+03,   991.114E+03
C:/temp/Job-1.odb,Step-1,Increment      1: Step Time =    1.000,"P-1-1",           557,   187.385E-03,   88.6923E-03,            0.,NA,NA,"",   971.680E+03,   994.366E+03,   994.366E+03
C:/temp/Job-1.odb,Step-1,Increment      1: Step Time =    1.000,"P-1-1",           558,   190.517E-03,   89.0950E-03,            0.,NA,NA,"",   970.721E+03,   996.527E+03,   996.527E+03
C:/temp/Job-1.odb,Step-1,Increment      1: Step Time =    1.000,"P-1-1",           559,   192.984E-03,   88.8865E-03,            0.,NA,NA,"",   969.467E+03,   997.969E+03,   997.969E+03
C:/temp/Job-1.odb,Step-1,Increment      1: Step Time =    1.000,"P-1-1",           560,   197.039E-03,   89.4335E-03,            0.,NA,NA,"",   965.754E+03,   999.641E+03,   999.641E+03
C:/temp/Job-1.odb,Step-1,Increment      1: Step Time =    1.000,"P-1-1",           561,   3.12939E-03,   85.3421E-03,            0.,NA,NA,"",   787.851E+03,   888.153E+03,   888.153E+03
C:/temp/Job-1.odb,Step-1,Increment      1: Step Time =    1.000,"P-1-1",           562,   6.34113E-03,   85.4254E-03,            0.,NA,NA,"",   793.696E+03,   891.943E+03,   891.943E+03
C:/temp/Job-1.odb,Step-1,Increment      1: Step Time =    1.000,"P-1-1",           563,   9.88059E-03,   85.5425E-03,            0.,NA,NA,"",   800.503E+03,   896.076E+03,   896.076E+03
C:/temp/Job-1.odb,Step-1,Increment      1: Step Time =    1.000,"P-1-1",           564,   13.1139E-03,   85.9512E-03,            0.,NA,NA,"",   806.150E+03,   899.075E+03,   899.075E+03
C:/temp/Job-1.odb,Step-1,Increment      1: Step Time =    1.000,"P-1-1",           565,   16.3058E-03,   85.9229E-03,            0.,NA,NA,"",   812.641E+03,   902.620E+03,   902.620E+03
C:/temp/Job-1.odb,Step-1,Increment      1: Step Time =    1.000,"P-1-1",           566,   19.9973E-03,   83.8982E-03,            0.,NA,NA,"",   824.060E+03,   909.872E+03,   909.872E+03
C:/temp/Job-1.odb,Step-1,Increment      1: Step Time =    1.000,"P-1-1",           567,   22.6327E-03,   84.9383E-03,            0.,NA,NA,"",   827.205E+03,   910.365E+03,   910.365E+03
C:/temp/Job-1.odb,Step-1,Increment      1: Step Time =    1.000,"P-1-1",           568,   25.8331E-03,   84.9921E-03,            0.,NA,NA,"",   833.229E+03,   912.610E+03,   912.610E+03
C:/temp/Job-1.odb,Step-1,Increment      1: Step Time =    1.000,"P-1-1",           569,   29.6547E-03,   85.3274E-03,            0.,NA,NA,"",   839.090E+03,   913.953E+03,   913.953E+03
C:/temp/Job-1.odb,Step-1,Increment      1: Step Time =    1.000,"P-1-1",           570,   32.3731E-03,   85.0511E-03,            0.,NA,NA,"",   844.738E+03,   915.944E+03,   915.944E+03
C:/temp/Job-1.odb,Step-1,Increment      1: Step Time =    1.000,"P-1-1",           571,   36.1046E-03,   85.3950E-03,            0.,NA,NA,"",   849.367E+03,   915.687E+03,   915.687E+03
C:/temp/Job-1.odb,Step-1,Increment      1: Step Time =    1.000,"P-1-1",           572,   38.9907E-03,   85.5319E-03,            0.,NA,NA,"",   853.157E+03,   915.454E+03,   915.454E+03
C:/temp/Job-1.odb,Step-1,Increment      1: Step Time =    1.000,"P-1-1",           573,   41.8571E-03,   84.6234E-03,            0.,NA,NA,"",   861.975E+03,   919.142E+03,   919.142E+03
C:/temp/Job-1.odb,Step-1,Increment      1: Step Time =    1.000,"P-1-1",           574,   45.1186E-03,   85.2983E-03,            0.,NA,NA,"",   862.499E+03,   915.198E+03,   915.198E+03
C:/temp/Job-1.odb,Step-1,Increment      1: Step Time =    1.000,"P-1-1",           575,   49.2931E-03,   85.7440E-03,            0.,NA,NA,"",   864.666E+03,   910.757E+03,   910.757E+03
C:/temp/Job-1.odb,Step-1,Increment      1: Step Time =    1.000,"P-1-1",           576,   52.2543E-03,   84.6953E-03,            0.,NA,NA,"",   879.965E+03,   918.444E+03,   918.444E+03
C:/temp/Job-1.odb,Step-1,Increment      1: Step Time =    1.000,"P-1-1",           577,   55.7778E-03,   84.4249E-03,            0.,NA,NA,"",   892.240E+03,   922.036E+03,   922.036E+03
C:/temp/Job-1.odb,Step-1,Increment      1: Step Time =    1.000,"P-1-1",           578,   58.6279E-03,   85.1732E-03,            0.,NA,NA,"",   892.685E+03,   916.170E+03,   916.170E+03
C:/temp/Job-1.odb,Step-1,Increment      1: Step Time =    1.000,"P-1-1",           579,   62.0966E-03,   85.7387E-03,            0.,NA,NA,"",   898.545E+03,   912.426E+03,   912.426E+03
C:/temp/Job-1.odb,Step-1,Increment      1: Step Time =    1.000,"P-1-1",           580,   65.8419E-03,   85.8975E-03,            0.,NA,NA,"",   917.550E+03,   916.749E+03,   916.749E+03
C:/temp/Job-1.odb,Step-1,Increment      1: Step Time =    1.000,"P-1-1",           581,   68.2642E-03,   83.9081E-03,            0.,NA,NA,"",   984.160E+03,   964.815E+03,   964.815E+03
C:/temp/Job-1.odb,Step-1,Increment      1: Step Time =    1.000,"P-1-1",           582,   72.4827E-03,   85.5960E-03,            0.,NA,NA,"",   1.00757E+06,   964.075E+03,   964.075E+03
C:/temp/Job-1.odb,Step-1,Increment      1: Step Time =    1.000,"P-1-1",           583,   74.9655E-03,   84.2810E-03,            0.,NA,NA,"",   1.08740E+06,   1.02490E+06,   1.02490E+06
C:/temp/Job-1.odb,Step-1,Increment      1: Step Time =    1.000,"P-1-1",           584,   79.2455E-03,   85.1696E-03,            0.,NA,NA,"",   1.17200E+06,   1.07720E+06,   1.07720E+06
C:/temp/Job-1.odb,Step-1,Increment      1: Step Time =    1.000,"P-1-1",           585,   82.8528E-03,   85.5631E-03,            0.,NA,NA,"",   1.25464E+06,   1.14351E+06,   1.14351E+06
C:/temp/Job-1.odb,Step-1,Increment      1: Step Time =    1.000,"P-1-1",           586,   85.7771E-03,   84.4724E-03,            0.,NA,NA,"",   1.34982E+06,   1.26679E+06,   1.26679E+06
C:/temp/Job-1.odb,Step-1,Increment      1: Step Time =    1.000,"P-1-1",           587,   89.3640E-03,   85.4443E-03,            0.,NA,NA,"",   1.41266E+06,   1.39175E+06,   1.39175E+06
C:/temp/Job-1.odb,Step-1,Increment      1: Step Time =    1.000,"P-1-1",           588,   96.5798E-03,   83.8931E-03,            0.,NA,NA,"",   1.67591E+06,   1.81125E+06,   1.81125E+06
C:/temp/Job-1.odb,Step-1,Increment      1: Step Time =    1.000,"P-1-1",           589,   105.896E-03,   84.1074E-03,            0.,NA,NA,"",   1.58280E+06,   1.68038E+06,   1.68038E+06
C:/temp/Job-1.odb,Step-1,Increment      1: Step Time =    1.000,"P-1-1",           590,   108.461E-03,   84.5129E-03,            0.,NA,NA,"",   1.48192E+06,   1.52070E+06,   1.52070E+06
C:/temp/Job-1.odb,Step-1,Increment      1: Step Time =    1.000,"P-1-1",           591,   114.948E-03,   85.6637E-03,            0.,NA,NA,"",   1.34445E+06,   1.22362E+06,   1.22362E+06
C:/temp/Job-1.odb,Step-1,Increment      1: Step Time =    1.000,"P-1-1",           592,   118.303E-03,   85.9047E-03,            0.,NA,NA,"",   1.25906E+06,   1.12422E+06,   1.12422E+06
C:/temp/Job-1.odb,Step-1,Increment      1: Step Time =    1.000,"P-1-1",           593,   120.538E-03,   85.5712E-03,            0.,NA,NA,"",   1.20684E+06,   1.08349E+06,   1.08349E+06
C:/temp/Job-1.odb,Step-1,Increment      1: Step Time =    1.000,"P-1-1",           594,   123.327E-03,   84.7337E-03,            0.,NA,NA,"",   1.15585E+06,   1.05314E+06,   1.05314E+06
C:/temp/Job-1.odb,Step-1,Increment      1: Step Time =    1.000,"P-1-1",           595,   128.429E-03,   84.5506E-03,            0.,NA,NA,"",   1.06569E+06,   995.468E+03,   995.468E+03
C:/temp/Job-1.odb,Step-1,Increment      1: Step Time =    1.000,"P-1-1",           596,   131.877E-03,   84.2869E-03,            0.,NA,NA,"",   1.02867E+06,   976.092E+03,   976.092E+03
C:/temp/Job-1.odb,Step-1,Increment      1: Step Time =    1.000,"P-1-1",           597,   134.824E-03,   84.9858E-03,            0.,NA,NA,"",   986.647E+03,   949.121E+03,   949.121E+03
C:/temp/Job-1.odb,Step-1,Increment      1: Step Time =    1.000,"P-1-1",           598,   138.247E-03,   85.8376E-03,            0.,NA,NA,"",   956.011E+03,   932.223E+03,   932.223E+03
C:/temp/Job-1.odb,Step-1,Increment      1: Step Time =    1.000,"P-1-1",           599,   141.408E-03,   85.1014E-03,            0.,NA,NA,"",   959.774E+03,   941.574E+03,   941.574E+03
C:/temp/Job-1.odb,Step-1,Increment      1: Step Time =    1.000,"P-1-1",           600,   144.104E-03,   84.7788E-03,            0.,NA,NA,"",   959.819E+03,   945.851E+03,   945.851E+03
C:/temp/Job-1.odb,Step-1,Increment      1: Step Time =    1.000,"P-1-1",           601,   148.139E-03,   85.7724E-03,            0.,NA,NA,"",   948.652E+03,   942.436E+03,   942.436E+03
C:/temp/Job-1.odb,Step-1,Increment      1: Step Time =    1.000,"P-1-1",           602,   150.611E-03,   85.7231E-03,            0.,NA,NA,"",   949.949E+03,   946.323E+03,   946.323E+03
C:/temp/Job-1.odb,Step-1,Increment      1: Step Time =    1.000,"P-1-1",           603,   153.711E-03,   85.3347E-03,            0.,NA,NA,"",   955.962E+03,   954.305E+03,   954.305E+03
C:/temp/Job-1.odb,Step-1,Increment      1: Step Time =    1.000,"P-1-1",           604,   156.962E-03,   84.5719E-03,            0.,NA,NA,"",   962.315E+03,   962.256E+03,   962.256E+03
C:/temp/Job-1.odb,Step-1,Increment      1: Step Time =    1.000,"P-1-1",           605,   160.521E-03,   84.6086E-03,            0.,NA,NA,"",   964.517E+03,   967.133E+03,   967.133E+03
C:/temp/Job-1.odb,Step-1,Increment      1: Step Time =    1.000,"P-1-1",           606,   164.137E-03,   83.3385E-03,            0.,NA,NA,"",   971.096E+03,   975.072E+03,   975.072E+03
C:/temp/Job-1.odb,Step-1,Increment      1: Step Time =    1.000,"P-1-1",           607,   166.529E-03,   84.4585E-03,            0.,NA,NA,"",   969.066E+03,   975.333E+03,   975.333E+03
C:/temp/Job-1.odb,Step-1,Increment      1: Step Time =    1.000,"P-1-1",           608,   168.915E-03,   83.6323E-03,            0.,NA,NA,"",   972.725E+03,   979.939E+03,   979.939E+03
C:/temp/Job-1.odb,Step-1,Increment      1: Step Time =    1.000,"P-1-1",           609,   173.208E-03,   85.0488E-03,            0.,NA,NA,"",   971.491E+03,   982.249E+03,   982.249E+03
C:/temp/Job-1.odb,Step-1,Increment      1: Step Time =    1.000,"P-1-1",           610,   177.129E-03,   85.6307E-03,            0.,NA,NA,"",   972.528E+03,   986.107E+03,   986.107E+03
C:/temp/Job-1.odb,Step-1,Increment      1: Step Time =    1.000,"P-1-1",           611,   180.875E-03,   85.7825E-03,            0.,NA,NA,"",   973.520E+03,   989.781E+03,   989.781E+03
C:/temp/Job-1.odb,Step-1,Increment      1: Step Time =    1.000,"P-1-1",           612,   187.474E-03,   85.3625E-03,            0.,NA,NA,"",   973.938E+03,   995.428E+03,   995.428E+03
C:/temp/Job-1.odb,Step-1,Increment      1: Step Time =    1.000,"P-1-1",           613,   190.665E-03,   84.8871E-03,            0.,NA,NA,"",   972.935E+03,   997.285E+03,   997.285E+03
C:/temp/Job-1.odb,Step-1,Increment      1: Step Time =    1.000,"P-1-1",           614,   194.091E-03,   85.1892E-03,            0.,NA,NA,"",   970.612E+03,   998.844E+03,   998.844E+03
C:/temp/Job-1.odb,Step-1,Increment      1: Step Time =    1.000,"P-1-1",           615,   197.146E-03,   85.1222E-03,            0.,NA,NA,"",   967.765E+03,   999.668E+03,   999.668E+03
C:/temp/Job-1.odb,Step-1,Increment      1: Step Time =    1.000,"P-1-1",           616,   91.5967E-03,   88.4447E-03,            0.,NA,NA,"",   1.46414E+06,   1.48965E+06,   1.48965E+06
C:/temp/Job-1.odb,Step-1,Increment      1: Step Time =    1.000,"P-1-1",           617,   87.9008E-03,   86.1432E-03,            0.,NA,NA,"",   1.36623E+06,   1.30268E+06,   1.30268E+06
C:/temp/Job-1.odb,Step-1,Increment      1: Step Time =    1.000,"P-1-1",           618,   84.8156E-03,   88.6597E-03,            0.,NA,NA,"",   1.18214E+06,   1.03802E+06,   1.03802E+06
C:/temp/Job-1.odb,Step-1,Increment      1: Step Time =    1.000,"P-1-1",           619,   81.3290E-03,   87.1665E-03,            0.,NA,NA,"",   1.16911E+06,   1.04942E+06,   1.04942E+06
C:/temp/Job-1.odb,Step-1,Increment      1: Step Time =    1.000,"P-1-1",           620,   79.2055E-03,   88.0939E-03,            0.,NA,NA,"",   1.07314E+06,   966.916E+03,   966.916E+03
C:/temp/Job-1.odb,Step-1,Increment      1: Step Time =    1.000,"P-1-1",           621,   75.5610E-03,   88.4237E-03,            0.,NA,NA,"",   964.942E+03,   902.764E+03,   902.764E+03
C:/temp/Job-1.odb,Step-1,Increment      1: Step Time =    1.000,"P-1-1",           622,   71.9834E-03,   87.5562E-03,            0.,NA,NA,"",   938.254E+03,   905.321E+03,   905.321E+03
C:/temp/Job-1.odb,Step-1,Increment      1: Step Time =    1.000,"P-1-1",           623,   67.7183E-03,   87.7123E-03,            0.,NA,NA,"",   887.327E+03,   883.913E+03,   883.913E+03
C:/temp/Job-1.odb,Step-1,Increment      1: Step Time =    1.000,"P-1-1",           624,   65.6519E-03,   88.5097E-03,            0.,NA,NA,"",   859.919E+03,   868.780E+03,   868.780E+03
C:/temp/Job-1.odb,Step-1,Increment      1: Step Time =    1.000,"P-1-1",           625,   61.3436E-03,   88.5791E-03,            0.,NA,NA,"",   846.270E+03,   871.403E+03,   871.403E+03
C:/temp/Job-1.odb,Step-1,Increment      1: Step Time =    1.000,"P-1-1",           626,   58.5957E-03,   88.3274E-03,            0.,NA,NA,"",   848.188E+03,   879.633E+03,   879.633E+03
C:/temp/Job-1.odb,Step-1,Increment      1: Step Time =    1.000,"P-1-1",           627,   54.8226E-03,   87.8632E-03,            0.,NA,NA,"",   851.189E+03,   889.923E+03,   889.923E+03
C:/temp/Job-1.odb,Step-1,Increment      1: Step Time =    1.000,"P-1-1",           628,   51.5261E-03,   87.9942E-03,            0.,NA,NA,"",   849.269E+03,   894.309E+03,   894.309E+03
C:/temp/Job-1.odb,Step-1,Increment      1: Step Time =    1.000,"P-1-1",           629,   48.4914E-03,   88.2537E-03,            0.,NA,NA,"",   846.780E+03,   897.345E+03,   897.345E+03
C:/temp/Job-1.odb,Step-1,Increment      1: Step Time =    1.000,"P-1-1",           630,   45.4546E-03,   88.5215E-03,            0.,NA,NA,"",   843.949E+03,   899.177E+03,   899.177E+03
C:/temp/Job-1.odb,Step-1,Increment      1: Step Time =    1.000,"P-1-1",           631,   41.6821E-03,   88.9652E-03,            0.,NA,NA,"",   840.699E+03,   901.634E+03,   901.634E+03
C:/temp/Job-1.odb,Step-1,Increment      1: Step Time =    1.000,"P-1-1",           632,   36.0767E-03,   87.3399E-03,            0.,NA,NA,"",   842.568E+03,   909.983E+03,   909.983E+03
C:/temp/Job-1.odb,Step-1,Increment      1: Step Time =    1.000,"P-1-1",           633,   32.6021E-03,   87.9392E-03,            0.,NA,NA,"",   836.129E+03,   908.269E+03,   908.269E+03
C:/temp/Job-1.odb,Step-1,Increment      1: Step Time =    1.000,"P-1-1",           634,   28.9757E-03,   88.6285E-03,            0.,NA,NA,"",   829.528E+03,   906.322E+03,   906.322E+03
C:/temp/Job-1.odb,Step-1,Increment      1: Step Time =    1.000,"P-1-1",           635,   25.5098E-03,   87.2299E-03,            0.,NA,NA,"",   827.248E+03,   907.719E+03,   907.719E+03
C:/temp/Job-1.odb,Step-1,Increment      1: Step Time =    1.000,"P-1-1",           636,   22.6294E-03,   88.0947E-03,            0.,NA,NA,"",   820.464E+03,   904.380E+03,   904.380E+03
C:/temp/Job-1.odb,Step-1,Increment      1: Step Time =    1.000,"P-1-1",           637,   20.3633E-03,   87.8751E-03,            0.,NA,NA,"",   816.971E+03,   903.155E+03,   903.155E+03
C:/temp/Job-1.odb,Step-1,Increment      1: Step Time =    1.000,"P-1-1",           638,   16.7479E-03,   88.9500E-03,            0.,NA,NA,"",   808.631E+03,   898.531E+03,   898.531E+03
C:/temp/Job-1.odb,Step-1,Increment      1: Step Time =    1.000,"P-1-1",           639,   12.7843E-03,   88.9588E-03,            0.,NA,NA,"",   801.421E+03,   894.795E+03,   894.795E+03
C:/temp/Job-1.odb,Step-1,Increment      1: Step Time =    1.000,"P-1-1",           640,   9.43074E-03,   88.7485E-03,            0.,NA,NA,"",   795.448E+03,   891.495E+03,   891.495E+03
C:/temp/Job-1.odb,Step-1,Increment      1: Step Time =    1.000,"P-1-1",           641,   6.26775E-03,   88.5224E-03,            0.,NA,NA,"",   790.030E+03,   888.243E+03,   888.243E+03
C:/temp/Job-1.odb,Step-1,Increment      1: Step Time =    1.000,"P-1-1",           642,   3.11098E-03,   88.4189E-03,            0.,NA,NA,"",   784.665E+03,   884.783E+03,   884.783E+03
C:/temp/Job-1.odb,Step-1,Increment      1: Step Time =    1.000,"P-1-1",           643,   87.8817E-03,   91.9281E-03,            0.,NA,NA,"",   716.382E+03,   617.956E+03,   617.956E+03
C:/temp/Job-1.odb,Step-1,Increment      1: Step Time =    1.000,"P-1-1",           644,   83.5109E-03,   89.8940E-03,            0.,NA,NA,"",   1.07921E+06,   922.809E+03,   922.809E+03
C:/temp/Job-1.odb,Step-1,Increment      1: Step Time =    1.000,"P-1-1",           645,   81.9389E-03,   90.6420E-03,            0.,NA,NA,"",   989.236E+03,   845.651E+03,   845.651E+03
C:/temp/Job-1.odb,Step-1,Increment      1: Step Time =    1.000,"P-1-1",           646,   78.6047E-03,   91.6062E-03,            0.,NA,NA,"",   854.090E+03,   767.245E+03,   767.245E+03
C:/temp/Job-1.odb,Step-1,Increment      1: Step Time =    1.000,"P-1-1",           647,   75.0467E-03,   92.5615E-03,            0.,NA,NA,"",   753.352E+03,   724.814E+03,   724.814E+03
C:/temp/Job-1.odb,Step-1,Increment      1: Step Time =    1.000,"P-1-1",           648,   71.9936E-03,   91.2402E-03,            0.,NA,NA,"",   802.812E+03,   790.631E+03,   790.631E+03
C:/temp/Job-1.odb,Step-1,Increment      1: Step Time =    1.000,"P-1-1",           649,   68.4917E-03,   91.2204E-03,            0.,NA,NA,"",   794.133E+03,   803.340E+03,   803.340E+03
C:/temp/Job-1.odb,Step-1,Increment      1: Step Time =    1.000,"P-1-1",           650,   64.9161E-03,   90.7671E-03,            0.,NA,NA,"",   807.729E+03,   828.729E+03,   828.729E+03
C:/temp/Job-1.odb,Step-1,Increment      1: Step Time =    1.000,"P-1-1",           651,   58.5493E-03,   91.3774E-03,            0.,NA,NA,"",   807.524E+03,   846.236E+03,   846.236E+03
C:/temp/Job-1.odb,Step-1,Increment      1: Step Time =    1.000,"P-1-1",           652,   55.1403E-03,   91.1994E-03,            0.,NA,NA,"",   817.021E+03,   861.199E+03,   861.199E+03
C:/temp/Job-1.odb,Step-1,Increment      1: Step Time =    1.000,"P-1-1",           653,   51.8498E-03,   91.3517E-03,            0.,NA,NA,"",   821.728E+03,   871.068E+03,   871.068E+03
C:/temp/Job-1.odb,Step-1,Increment      1: Step Time =    1.000,"P-1-1",           654,   48.8172E-03,   92.4391E-03,            0.,NA,NA,"",   820.212E+03,   874.786E+03,   874.786E+03
C:/temp/Job-1.odb,Step-1,Increment      1: Step Time =    1.000,"P-1-1",           655,   45.8763E-03,   92.6690E-03,            0.,NA,NA,"",   823.534E+03,   881.915E+03,   881.915E+03
C:/temp/Job-1.odb,Step-1,Increment      1: Step Time =    1.000,"P-1-1",           656,   42.4318E-03,   92.3715E-03,            0.,NA,NA,"",   826.896E+03,   889.086E+03,   889.086E+03
C:/temp/Job-1.odb,Step-1,Increment      1: Step Time =    1.000,"P-1-1",           657,   39.2226E-03,   91.7972E-03,            0.,NA,NA,"",   829.680E+03,   895.445E+03,   895.445E+03
C:/temp/Job-1.odb,Step-1,Increment      1: Step Time =    1.000,"P-1-1",           658,   35.8096E-03,   91.5471E-03,            0.,NA,NA,"",   829.254E+03,   898.988E+03,   898.988E+03
C:/temp/Job-1.odb,Step-1,Increment      1: Step Time =    1.000,"P-1-1",           659,   32.4493E-03,   91.8499E-03,            0.,NA,NA,"",   826.421E+03,   900.134E+03,   900.134E+03
C:/temp/Job-1.odb,Step-1,Increment      1: Step Time =    1.000,"P-1-1",           660,   28.1182E-03,   91.6041E-03,            0.,NA,NA,"",   822.370E+03,   901.077E+03,   901.077E+03
C:/temp/Job-1.odb,Step-1,Increment      1: Step Time =    1.000,"P-1-1",           661,   26.0954E-03,   91.1484E-03,            0.,NA,NA,"",   820.458E+03,   901.243E+03,   901.243E+03
C:/temp/Job-1.odb,Step-1,Increment      1: Step Time =    1.000,"P-1-1",           662,   22.4153E-03,   91.6771E-03,            0.,NA,NA,"",   814.469E+03,   899.113E+03,   899.113E+03
C:/temp/Job-1.odb,Step-1,Increment      1: Step Time =    1.000,"P-1-1",           663,   18.8473E-03,   91.5979E-03,            0.,NA,NA,"",   808.602E+03,   896.889E+03,   896.889E+03
C:/temp/Job-1.odb,Step-1,Increment      1: Step Time =    1.000,"P-1-1",           664,   15.6289E-03,   92.0680E-03,            0.,NA,NA,"",   803.061E+03,   894.184E+03,   894.184E+03
C:/temp/Job-1.odb,Step-1,Increment      1: Step Time =    1.000,"P-1-1",           665,   12.5388E-03,   91.9438E-03,            0.,NA,NA,"",   797.738E+03,   891.484E+03,   891.484E+03
C:/temp/Job-1.odb,Step-1,Increment      1: Step Time =    1.000,"P-1-1",           666,   9.31684E-03,   91.7227E-03,            0.,NA,NA,"",   792.325E+03,   888.474E+03,   888.474E+03
C:/temp/Job-1.odb,Step-1,Increment      1: Step Time =    1.000,"P-1-1",           667,   6.16748E-03,   91.5668E-03,            0.,NA,NA,"",   787.115E+03,   885.339E+03,   885.339E+03
C:/temp/Job-1.odb,Step-1,Increment      1: Step Time =    1.000,"P-1-1",           668,   3.06685E-03,   91.4893E-03,            0.,NA,NA,"",   782.125E+03,   882.112E+03,   882.112E+03
C:/temp/Job-1.odb,Step-1,Increment      1: Step Time =    1.000,"P-1-1",           669,   83.9661E-03,   95.6178E-03,            0.,NA,NA,"",   520.546E+03,   46.9530E+03,   46.9530E+03
C:/temp/Job-1.odb,Step-1,Increment      1: Step Time =    1.000,"P-1-1",           670,   81.9514E-03,   94.8106E-03,            0.,NA,NA,"",   630.194E+03,   495.655E+03,   495.655E+03
C:/temp/Job-1.odb,Step-1,Increment      1: Step Time =    1.000,"P-1-1",           671,   78.2396E-03,   95.2591E-03,            0.,NA,NA,"",   582.923E+03,   545.325E+03,   545.325E+03
C:/temp/Job-1.odb,Step-1,Increment      1: Step Time =    1.000,"P-1-1",           672,   74.2604E-03,   94.9657E-03,            0.,NA,NA,"",   627.879E+03,   630.804E+03,   630.804E+03
C:/temp/Job-1.odb,Step-1,Increment      1: Step Time =    1.000,"P-1-1",           673,   70.3141E-03,   95.3002E-03,            0.,NA,NA,"",   660.859E+03,   686.284E+03,   686.284E+03
C:/temp/Job-1.odb,Step-1,Increment      1: Step Time =    1.000,"P-1-1",           674,   67.9827E-03,   94.9539E-03,            0.,NA,NA,"",   693.863E+03,    724.42E+03,    724.42E+03
C:/temp/Job-1.odb,Step-1,Increment      1: Step Time =    1.000,"P-1-1",           675,   64.6340E-03,   94.9708E-03,            0.,NA,NA,"",   720.965E+03,   758.669E+03,   758.669E+03
C:/temp/Job-1.odb,Step-1,Increment      1: Step Time =    1.000,"P-1-1",           676,   62.3688E-03,   94.3681E-03,            0.,NA,NA,"",   749.541E+03,   789.193E+03,   789.193E+03
C:/temp/Job-1.odb,Step-1,Increment      1: Step Time =    1.000,"P-1-1",           677,   58.4717E-03,   94.3639E-03,            0.,NA,NA,"",   773.803E+03,   818.860E+03,   818.860E+03
C:/temp/Job-1.odb,Step-1,Increment      1: Step Time =    1.000,"P-1-1",           678,   55.3499E-03,   94.6468E-03,            0.,NA,NA,"",   787.199E+03,   836.307E+03,   836.307E+03
C:/temp/Job-1.odb,Step-1,Increment      1: Step Time =    1.000,"P-1-1",           679,   51.8886E-03,   95.4113E-03,            0.,NA,NA,"",   797.285E+03,   850.842E+03,   850.842E+03
C:/temp/Job-1.odb,Step-1,Increment      1: Step Time =    1.000,"P-1-1",           680,   49.4748E-03,   95.2138E-03,            0.,NA,NA,"",   806.572E+03,   862.471E+03,   862.471E+03
C:/temp/Job-1.odb,Step-1,Increment      1: Step Time =    1.000,"P-1-1",           681,   46.7261E-03,   95.2441E-03,            0.,NA,NA,"",   812.471E+03,   871.361E+03,   871.361E+03
C:/temp/Job-1.odb,Step-1,Increment      1: Step Time =    1.000,"P-1-1",           682,   43.7009E-03,   95.2479E-03,            0.,NA,NA,"",   817.333E+03,   879.537E+03,   879.537E+03
C:/temp/Job-1.odb,Step-1,Increment      1: Step Time =    1.000,"P-1-1",           683,   40.5498E-03,   95.1537E-03,            0.,NA,NA,"",   820.422E+03,   886.082E+03,   886.082E+03
C:/temp/Job-1.odb,Step-1,Increment      1: Step Time =    1.000,"P-1-1",           684,   36.0015E-03,   94.2845E-03,            0.,NA,NA,"",   823.158E+03,   893.587E+03,   893.587E+03
C:/temp/Job-1.odb,Step-1,Increment      1: Step Time =    1.000,"P-1-1",           685,   32.0831E-03,   95.2722E-03,            0.,NA,NA,"",   820.355E+03,   895.331E+03,   895.331E+03
C:/temp/Job-1.odb,Step-1,Increment      1: Step Time =    1.000,"P-1-1",           686,   29.6107E-03,   94.9331E-03,            0.,NA,NA,"",   818.907E+03,   896.593E+03,   896.593E+03
C:/temp/Job-1.odb,Step-1,Increment      1: Step Time =    1.000,"P-1-1",           687,   26.4450E-03,   94.8435E-03,            0.,NA,NA,"",   815.958E+03,   896.870E+03,   896.870E+03
C:/temp/Job-1.odb,Step-1,Increment      1: Step Time =    1.000,"P-1-1",           688,   23.2358E-03,   95.2708E-03,            0.,NA,NA,"",   811.612E+03,   895.951E+03,   895.951E+03
C:/temp/Job-1.odb,Step-1,Increment      1: Step Time =    1.000,"P-1-1",           689,   18.9803E-03,   95.1541E-03,            0.,NA,NA,"",   805.558E+03,   893.956E+03,   893.956E+03
C:/temp/Job-1.odb,Step-1,Increment      1: Step Time =    1.000,"P-1-1",           690,   16.8861E-03,   94.9415E-03,            0.,NA,NA,"",   802.551E+03,   892.777E+03,   892.777E+03
C:/temp/Job-1.odb,Step-1,Increment      1: Step Time =    1.000,"P-1-1",           691,   12.4240E-03,   94.8965E-03,            0.,NA,NA,"",   795.200E+03,   889.144E+03,   889.144E+03
C:/temp/Job-1.odb,Step-1,Increment      1: Step Time =    1.000,"P-1-1",           692,   9.17665E-03,   94.6723E-03,            0.,NA,NA,"",   790.101E+03,   886.353E+03,   886.353E+03
C:/temp/Job-1.odb,Step-1,Increment      1: Step Time =    1.000,"P-1-1",           693,   6.07576E-03,   94.5584E-03,            0.,NA,NA,"",   785.047E+03,   883.285E+03,   883.285E+03
C:/temp/Job-1.odb,Step-1,Increment      1: Step Time =    1.000,"P-1-1",           694,   3.02994E-03,   94.5430E-03,            0.,NA,NA,"",   780.332E+03,   880.231E+03,   880.231E+03
C:/temp/Job-1.odb,Step-1,Increment      1: Step Time =    1.000,"P-1-1",           695,   83.7335E-03,   98.8020E-03,            0.,NA,NA,"",   300.654E+03,  -134.330E+03,  -134.330E+03
C:/temp/Job-1.odb,Step-1,Increment      1: Step Time =    1.000,"P-1-1",           696,   80.2400E-03,   98.1989E-03,            0.,NA,NA,"",   332.995E+03,   307.595E+03,   307.595E+03
C:/temp/Job-1.odb,Step-1,Increment      1: Step Time =    1.000,"P-1-1",           697,   77.7312E-03,   97.9208E-03,            0.,NA,NA,"",   417.545E+03,   424.074E+03,   424.074E+03
C:/temp/Job-1.odb,Step-1,Increment      1: Step Time =    1.000,"P-1-1",           698,   75.0257E-03,   98.6712E-03,            0.,NA,NA,"",   473.580E+03,   501.115E+03,   501.115E+03
C:/temp/Job-1.odb,Step-1,Increment      1: Step Time =    1.000,"P-1-1",           699,   72.3492E-03,   98.5795E-03,            0.,NA,NA,"",   545.133E+03,   580.023E+03,   580.023E+03
C:/temp/Job-1.odb,Step-1,Increment      1: Step Time =    1.000,"P-1-1",           700,   68.2937E-03,   98.5356E-03,            0.,NA,NA,"",   630.438E+03,   671.709E+03,   671.709E+03
C:/temp/Job-1.odb,Step-1,Increment      1: Step Time =    1.000,"P-1-1",           701,   65.0850E-03,   99.4357E-03,            0.,NA,NA,"",   675.007E+03,   720.197E+03,   720.197E+03
C:/temp/Job-1.odb,Step-1,Increment      1: Step Time =    1.000,"P-1-1",           702,   60.6158E-03,   98.8966E-03,            0.,NA,NA,"",   728.215E+03,   776.566E+03,   776.566E+03
C:/temp/Job-1.odb,Step-1,Increment      1: Step Time =    1.000,"P-1-1",           703,   59.1354E-03,   98.9824E-03,            0.,NA,NA,"",   741.718E+03,   791.163E+03,   791.163E+03
C:/temp/Job-1.odb,Step-1,Increment      1: Step Time =    1.000,"P-1-1",           704,   55.8976E-03,   98.4534E-03,            0.,NA,NA,"",   766.678E+03,   818.439E+03,   818.439E+03
C:/temp/Job-1.odb,Step-1,Increment      1: Step Time =    1.000,"P-1-1",           705,   52.5033E-03,   99.1665E-03,            0.,NA,NA,"",   784.684E+03,   839.505E+03,   839.505E+03
C:/temp/Job-1.odb,Step-1,Increment      1: Step Time =    1.000,"P-1-1",           706,   48.7314E-03,   98.4829E-03,            0.,NA,NA,"",   799.827E+03,   857.932E+03,   857.932E+03
C:/temp/Job-1.odb,Step-1,Increment      1: Step Time =    1.000,"P-1-1",           707,   45.1245E-03,   98.1083E-03,            0.,NA,NA,"",   809.824E+03,   871.430E+03,   871.430E+03
C:/temp/Job-1.odb,Step-1,Increment      1: Step Time =    1.000,"P-1-1",           708,   42.2813E-03,   97.6980E-03,            0.,NA,NA,"",   814.832E+03,   879.348E+03,   879.348E+03
C:/temp/Job-1.odb,Step-1,Increment      1: Step Time =    1.000,"P-1-1",           709,   39.1485E-03,   98.7586E-03,            0.,NA,NA,"",   817.181E+03,   885.015E+03,   885.015E+03
C:/temp/Job-1.odb,Step-1,Increment      1: Step Time =    1.000,"P-1-1",           710,   36.3571E-03,   98.8973E-03,            0.,NA,NA,"",   818.184E+03,   888.961E+03,   888.961E+03
C:/temp/Job-1.odb,Step-1,Increment      1: Step Time =    1.000,"P-1-1",           711,   33.6020E-03,   98.4186E-03,            0.,NA,NA,"",   818.201E+03,   891.978E+03,   891.978E+03
C:/temp/Job-1.odb,Step-1,Increment      1: Step Time =    1.000,"P-1-1",           712,   29.6393E-03,   98.0333E-03,            0.,NA,NA,"",   816.468E+03,   894.404E+03,   894.404E+03
C:/temp/Job-1.odb,Step-1,Increment      1: Step Time =    1.000,"P-1-1",           713,   26.1087E-03,   97.8180E-03,            0.,NA,NA,"",   813.366E+03,   894.965E+03,   894.965E+03
C:/temp/Job-1.odb,Step-1,Increment      1: Step Time =    1.000,"P-1-1",           714,   23.3443E-03,   98.9169E-03,            0.,NA,NA,"",    809.82E+03,   894.286E+03,   894.286E+03
C:/temp/Job-1.odb,Step-1,Increment      1: Step Time =    1.000,"P-1-1",           715,   19.5879E-03,   99.4691E-03,            0.,NA,NA,"",   804.889E+03,   892.833E+03,   892.833E+03
C:/temp/Job-1.odb,Step-1,Increment      1: Step Time =    1.000,"P-1-1",           716,   16.4785E-03,   99.0328E-03,            0.,NA,NA,"",   800.284E+03,   891.011E+03,   891.011E+03
C:/temp/Job-1.odb,Step-1,Increment      1: Step Time =    1.000,"P-1-1",           717,   12.0728E-03,   97.5816E-03,            0.,NA,NA,"",   793.529E+03,   887.761E+03,   887.761E+03
C:/temp/Job-1.odb,Step-1,Increment      1: Step Time =    1.000,"P-1-1",           718,   9.00154E-03,   97.6359E-03,            0.,NA,NA,"",   788.623E+03,    884.99E+03,    884.99E+03
C:/temp/Job-1.odb,Step-1,Increment      1: Step Time =    1.000,"P-1-1",           719,   6.00052E-03,   97.4922E-03,            0.,NA,NA,"",   783.811E+03,   882.084E+03,   882.084E+03
C:/temp/Job-1.odb,Step-1,Increment      1: Step Time =    1.000,"P-1-1",           720,   3.03813E-03,   97.5996E-03,            0.,NA,NA,"",   779.379E+03,   879.202E+03,   879.202E+03
C:/temp/Job-1.odb,Step-1,Increment      1: Step Time =    1.000,"P-1-1",           721,   84.8130E-03,   102.504E-03,            0.,NA,NA,"",   412.694E+03,  -349.477E+03,  -349.477E+03
C:/temp/Job-1.odb,Step-1,Increment      1: Step Time =    1.000,"P-1-1",           722,   80.9820E-03,   101.527E-03,            0.,NA,NA,"",   296.980E+03,   251.805E+03,   251.805E+03
C:/temp/Job-1.odb,Step-1,Increment      1: Step Time =    1.000,"P-1-1",           723,   78.9222E-03,   101.934E-03,            0.,NA,NA,"",   368.013E+03,   362.144E+03,   362.144E+03
C:/temp/Job-1.odb,Step-1,Increment      1: Step Time =    1.000,"P-1-1",           724,   74.4593E-03,   102.078E-03,            0.,NA,NA,"",   500.672E+03,   527.284E+03,   527.284E+03
C:/temp/Job-1.odb,Step-1,Increment      1: Step Time =    1.000,"P-1-1",           725,   72.1561E-03,   102.304E-03,            0.,NA,NA,"",   560.889E+03,   593.715E+03,   593.715E+03
C:/temp/Job-1.odb,Step-1,Increment      1: Step Time =    1.000,"P-1-1",           726,   68.5007E-03,   102.108E-03,            0.,NA,NA,"",   630.186E+03,   670.351E+03,   670.351E+03
C:/temp/Job-1.odb,Step-1,Increment      1: Step Time =    1.000,"P-1-1",           727,   65.4179E-03,   101.997E-03,            0.,NA,NA,"",   675.878E+03,   719.621E+03,   719.621E+03
C:/temp/Job-1.odb,Step-1,Increment      1: Step Time =    1.000,"P-1-1",           728,   62.0522E-03,   102.309E-03,            0.,NA,NA,"",   719.975E+03,   766.208E+03,   766.208E+03
C:/temp/Job-1.odb,Step-1,Increment      1: Step Time =    1.000,"P-1-1",           729,   58.4584E-03,   102.377E-03,            0.,NA,NA,"",   752.340E+03,   801.461E+03,   801.461E+03
C:/temp/Job-1.odb,Step-1,Increment      1: Step Time =    1.000,"P-1-1",           730,   55.4113E-03,   101.525E-03,            0.,NA,NA,"",   769.966E+03,   822.164E+03,   822.164E+03
C:/temp/Job-1.odb,Step-1,Increment      1: Step Time =    1.000,"P-1-1",           731,   52.7322E-03,   100.909E-03,            0.,NA,NA,"",   783.206E+03,   837.816E+03,   837.816E+03
C:/temp/Job-1.odb,Step-1,Increment      1: Step Time =    1.000,"P-1-1",           732,   48.9160E-03,   102.199E-03,            0.,NA,NA,"",   800.424E+03,   858.207E+03,   858.207E+03
C:/temp/Job-1.odb,Step-1,Increment      1: Step Time =    1.000,"P-1-1",           733,   46.0094E-03,   101.391E-03,            0.,NA,NA,"",   807.221E+03,   867.996E+03,   867.996E+03
C:/temp/Job-1.odb,Step-1,Increment      1: Step Time =    1.000,"P-1-1",           734,   42.4865E-03,   101.895E-03,            0.,NA,NA,"",   813.965E+03,   878.264E+03,   878.264E+03
C:/temp/Job-1.odb,Step-1,Increment      1: Step Time =    1.000,"P-1-1",           735,   39.4145E-03,   100.831E-03,            0.,NA,NA,"",   816.770E+03,   884.367E+03,   884.367E+03
C:/temp/Job-1.odb,Step-1,Increment      1: Step Time =    1.000,"P-1-1",           736,   36.3491E-03,   101.525E-03,            0.,NA,NA,"",   818.248E+03,   889.045E+03,   889.045E+03
C:/temp/Job-1.odb,Step-1,Increment      1: Step Time =    1.000,"P-1-1",           737,   33.3202E-03,   101.764E-03,            0.,NA,NA,"",   818.246E+03,   892.246E+03,   892.246E+03
C:/temp/Job-1.odb,Step-1,Increment      1: Step Time =    1.000,"P-1-1",           738,   29.9165E-03,   101.261E-03,            0.,NA,NA,"",   816.283E+03,   893.991E+03,   893.991E+03
C:/temp/Job-1.odb,Step-1,Increment      1: Step Time =    1.000,"P-1-1",           739,   26.7503E-03,   101.691E-03,            0.,NA,NA,"",   813.831E+03,   894.818E+03,   894.818E+03
C:/temp/Job-1.odb,Step-1,Increment      1: Step Time =    1.000,"P-1-1",           740,   22.7431E-03,   102.062E-03,            0.,NA,NA,"",   809.408E+03,   894.375E+03,   894.375E+03
C:/temp/Job-1.odb,Step-1,Increment      1: Step Time =    1.000,"P-1-1",           741,   19.5766E-03,   101.377E-03,            0.,NA,NA,"",   804.929E+03,   892.896E+03,   892.896E+03
C:/temp/Job-1.odb,Step-1,Increment      1: Step Time =    1.000,"P-1-1",           742,   16.5589E-03,   102.649E-03,            0.,NA,NA,"",   800.751E+03,   891.375E+03,   891.375E+03
C:/temp/Job-1.odb,Step-1,Increment      1: Step Time =    1.000,"P-1-1",           743,   13.5003E-03,   102.772E-03,            0.,NA,NA,"",   795.929E+03,   889.077E+03,   889.077E+03
C:/temp/Job-1.odb,Step-1,Increment      1: Step Time =    1.000,"P-1-1",           744,   10.7115E-03,   101.973E-03,            0.,NA,NA,"",   791.264E+03,   886.475E+03,   886.475E+03
C:/temp/Job-1.odb,Step-1,Increment      1: Step Time =    1.000,"P-1-1",           745,   6.88265E-03,   102.003E-03,            0.,NA,NA,"",   785.162E+03,   882.872E+03,   882.872E+03
C:/temp/Job-1.odb,Step-1,Increment      1: Step Time =    1.000,"P-1-1",           746,   3.23655E-03,   102.266E-03,            0.,NA,NA,"",   779.596E+03,   879.326E+03,   879.326E+03
C:/temp/Job-1.odb,Step-1,Increment      1: Step Time =    1.000,"P-1-1",           747,   88.3904E-03,   107.542E-03,            0.,NA,NA,"",   576.963E+03,   498.248E+03,   498.248E+03
C:/temp/Job-1.odb,Step-1,Increment      1: Step Time =    1.000,"P-1-1",           748,   85.1311E-03,   108.116E-03,            0.,NA,NA,"",   914.994E+03,   734.710E+03,   734.710E+03
C:/temp/Job-1.odb,Step-1,Increment      1: Step Time =    1.000,"P-1-1",           749,   82.0920E-03,   108.424E-03,            0.,NA,NA,"",   933.816E+03,   786.314E+03,   786.314E+03
C:/temp/Job-1.odb,Step-1,Increment      1: Step Time =    1.000,"P-1-1",           750,   78.1785E-03,   109.178E-03,            0.,NA,NA,"",   902.401E+03,   818.298E+03,   818.298E+03
C:/temp/Job-1.odb,Step-1,Increment      1: Step Time =    1.000,"P-1-1",           751,   74.9742E-03,   108.706E-03,            0.,NA,NA,"",   823.849E+03,   784.697E+03,   784.697E+03
C:/temp/Job-1.odb,Step-1,Increment      1: Step Time =    1.000,"P-1-1",           752,   71.1151E-03,   108.663E-03,            0.,NA,NA,"",   797.197E+03,   791.892E+03,   791.892E+03
C:/temp/Job-1.odb,Step-1,Increment      1: Step Time =    1.000,"P-1-1",           753,   69.4164E-03,   108.873E-03,            0.,NA,NA,"",   801.134E+03,   804.157E+03,   804.157E+03
C:/temp/Job-1.odb,Step-1,Increment      1: Step Time =    1.000,"P-1-1",           754,   65.1952E-03,   108.686E-03,            0.,NA,NA,"",   794.328E+03,   816.709E+03,   816.709E+03
C:/temp/Job-1.odb,Step-1,Increment      1: Step Time =    1.000,"P-1-1",           755,   62.5814E-03,   107.625E-03,            0.,NA,NA,"",   780.167E+03,   813.589E+03,   813.589E+03
C:/temp/Job-1.odb,Step-1,Increment      1: Step Time =    1.000,"P-1-1",           756,   59.2019E-03,   108.020E-03,            0.,NA,NA,"",   798.100E+03,   837.121E+03,   837.121E+03
C:/temp/Job-1.odb,Step-1,Increment      1: Step Time =    1.000,"P-1-1",           757,   55.7387E-03,   108.399E-03,            0.,NA,NA,"",   812.003E+03,   856.007E+03,   856.007E+03
C:/temp/Job-1.odb,Step-1,Increment      1: Step Time =    1.000,"P-1-1",           758,   52.2608E-03,   108.631E-03,            0.,NA,NA,"",   821.048E+03,   869.842E+03,   869.842E+03
C:/temp/Job-1.odb,Step-1,Increment      1: Step Time =    1.000,"P-1-1",           759,   49.5399E-03,   107.392E-03,            0.,NA,NA,"",   817.878E+03,   871.693E+03,   871.693E+03
C:/temp/Job-1.odb,Step-1,Increment      1: Step Time =    1.000,"P-1-1",           760,   46.0479E-03,   107.364E-03,            0.,NA,NA,"",   822.944E+03,   881.023E+03,   881.023E+03
C:/temp/Job-1.odb,Step-1,Increment      1: Step Time =    1.000,"P-1-1",           761,   41.6518E-03,   108.098E-03,            0.,NA,NA,"",   828.814E+03,   891.732E+03,   891.732E+03
C:/temp/Job-1.odb,Step-1,Increment      1: Step Time =    1.000,"P-1-1",           762,   38.5803E-03,   108.263E-03,            0.,NA,NA,"",   829.669E+03,   896.181E+03,   896.181E+03
C:/temp/Job-1.odb,Step-1,Increment      1: Step Time =    1.000,"P-1-1",           763,   32.6903E-03,   107.059E-03,            0.,NA,NA,"",   824.069E+03,   897.869E+03,   897.869E+03
C:/temp/Job-1.odb,Step-1,Increment      1: Step Time =    1.000,"P-1-1",           764,   29.0300E-03,   108.135E-03,            0.,NA,NA,"",   822.848E+03,   900.521E+03,   900.521E+03
C:/temp/Job-1.odb,Step-1,Increment      1: Step Time =    1.000,"P-1-1",           765,   24.9101E-03,   108.145E-03,            0.,NA,NA,"",   817.700E+03,   899.811E+03,   899.811E+03
C:/temp/Job-1.odb,Step-1,Increment      1: Step Time =    1.000,"P-1-1",           766,   23.1401E-03,   108.351E-03,            0.,NA,NA,"",   815.504E+03,   899.433E+03,   899.433E+03
C:/temp/Job-1.odb,Step-1,Increment      1: Step Time =    1.000,"P-1-1",           767,   20.1715E-03,   108.162E-03,            0.,NA,NA,"",   810.707E+03,   897.650E+03,   897.650E+03
C:/temp/Job-1.odb,Step-1,Increment      1: Step Time =    1.000,"P-1-1",           768,   15.6230E-03,   107.923E-03,            0.,NA,NA,"",   802.838E+03,   894.044E+03,   894.044E+03
C:/temp/Job-1.odb,Step-1,Increment      1: Step Time =    1.000,"P-1-1",           769,   13.0257E-03,   107.615E-03,            0.,NA,NA,"",   798.134E+03,   891.553E+03,   891.553E+03
C:/temp/Job-1.odb,Step-1,Increment      1: Step Time =    1.000,"P-1-1",           770,   10.5190E-03,   108.807E-03,            0.,NA,NA,"",   794.875E+03,   890.128E+03,   890.128E+03
C:/temp/Job-1.odb,Step-1,Increment      1: Step Time =    1.000,"P-1-1",           771,   6.22781E-03,   108.725E-03,            0.,NA,NA,"",   787.436E+03,   885.620E+03,   885.620E+03
C:/temp/Job-1.odb,Step-1,Increment      1: Step Time =    1.000,"P-1-1",           772,   3.17171E-03,   108.605E-03,            0.,NA,NA,"",   782.366E+03,   882.292E+03,   882.292E+03
C:/temp/Job-1.odb,Step-1,Increment      1: Step Time =    1.000,"P-1-1",           773,   3.23400E-03,   105.424E-03,            0.,NA,NA,"",   780.629E+03,   880.408E+03,   880.408E+03
C:/temp/Job-1.odb,Step-1,Increment      1: Step Time =    1.000,"P-1-1",           774,   6.37636E-03,   105.557E-03,            0.,NA,NA,"",   785.604E+03,   883.659E+03,   883.659E+03
C:/temp/Job-1.odb,Step-1,Increment      1: Step Time =    1.000,"P-1-1",           775,   9.53219E-03,   104.587E-03,            0.,NA,NA,"",   790.244E+03,   886.272E+03,   886.272E+03
C:/temp/Job-1.odb,Step-1,Increment      1: Step Time =    1.000,"P-1-1",           776,   13.2284E-03,   105.569E-03,            0.,NA,NA,"",   797.039E+03,   890.234E+03,   890.234E+03
C:/temp/Job-1.odb,Step-1,Increment      1: Step Time =    1.000,"P-1-1",           777,   16.8061E-03,   104.791E-03,            0.,NA,NA,"",   802.211E+03,   892.547E+03,   892.547E+03
C:/temp/Job-1.odb,Step-1,Increment      1: Step Time =    1.000,"P-1-1",           778,   20.2467E-03,   105.220E-03,            0.,NA,NA,"",   807.845E+03,   895.014E+03,   895.014E+03
C:/temp/Job-1.odb,Step-1,Increment      1: Step Time =    1.000,"P-1-1",           779,   22.2286E-03,   104.910E-03,            0.,NA,NA,"",   810.438E+03,   895.721E+03,   895.721E+03
C:/temp/Job-1.odb,Step-1,Increment      1: Step Time =    1.000,"P-1-1",           780,   26.0433E-03,   104.527E-03,            0.,NA,NA,"",   814.832E+03,   896.346E+03,   896.346E+03
C:/temp/Job-1.odb,Step-1,Increment      1: Step Time =    1.000,"P-1-1",           781,   28.8141E-03,   105.025E-03,            0.,NA,NA,"",   818.126E+03,   896.521E+03,   896.521E+03
C:/temp/Job-1.odb,Step-1,Increment      1: Step Time =    1.000,"P-1-1",           782,   32.9055E-03,   105.051E-03,            0.,NA,NA,"",   821.293E+03,   895.327E+03,   895.327E+03
C:/temp/Job-1.odb,Step-1,Increment      1: Step Time =    1.000,"P-1-1",           783,   35.3657E-03,   104.610E-03,            0.,NA,NA,"",   821.192E+03,   892.629E+03,   892.629E+03
C:/temp/Job-1.odb,Step-1,Increment      1: Step Time =    1.000,"P-1-1",           784,   39.8733E-03,   104.975E-03,            0.,NA,NA,"",   820.847E+03,   887.183E+03,   887.183E+03
C:/temp/Job-1.odb,Step-1,Increment      1: Step Time =    1.000,"P-1-1",           785,   41.8947E-03,   105.083E-03,            0.,NA,NA,"",   819.936E+03,   884.041E+03,   884.041E+03
C:/temp/Job-1.odb,Step-1,Increment      1: Step Time =    1.000,"P-1-1",           786,   45.7665E-03,   105.303E-03,            0.,NA,NA,"",   815.425E+03,   875.093E+03,   875.093E+03
C:/temp/Job-1.odb,Step-1,Increment      1: Step Time =    1.000,"P-1-1",           787,   49.6525E-03,   104.102E-03,            0.,NA,NA,"",   802.863E+03,   859.126E+03,   859.126E+03
C:/temp/Job-1.odb,Step-1,Increment      1: Step Time =    1.000,"P-1-1",           788,   52.3275E-03,   105.262E-03,            0.,NA,NA,"",   798.989E+03,   851.546E+03,   851.546E+03
C:/temp/Job-1.odb,Step-1,Increment      1: Step Time =    1.000,"P-1-1",           789,   55.7471E-03,   104.904E-03,            0.,NA,NA,"",   782.751E+03,   831.981E+03,   831.981E+03
C:/temp/Job-1.odb,Step-1,Increment      1: Step Time =    1.000,"P-1-1",           790,   62.0166E-03,   105.640E-03,            0.,NA,NA,"",   752.651E+03,   792.802E+03,   792.802E+03
C:/temp/Job-1.odb,Step-1,Increment      1: Step Time =    1.000,"P-1-1",           791,   65.3320E-03,   105.534E-03,            0.,NA,NA,"",   725.351E+03,   760.000E+03,   760.000E+03
C:/temp/Job-1.odb,Step-1,Increment      1: Step Time =    1.000,"P-1-1",           792,   67.7940E-03,   106.646E-03,            0.,NA,NA,"",   734.679E+03,   757.961E+03,   757.961E+03
C:/temp/Job-1.odb,Step-1,Increment      1: Step Time =    1.000,"P-1-1",           793,   70.8783E-03,   106.783E-03,            0.,NA,NA,"",   725.030E+03,   734.329E+03,   734.329E+03
C:/temp/Job-1.odb,Step-1,Increment      1: Step Time =    1.000,"P-1-1",           794,   73.8299E-03,   105.437E-03,            0.,NA,NA,"",   652.205E+03,   653.865E+03,   653.865E+03
C:/temp/Job-1.odb,Step-1,Increment      1: Step Time =    1.000,"P-1-1",           795,   78.1414E-03,   105.141E-03,            0.,NA,NA,"",   616.220E+03,   571.762E+03,   571.762E+03
C:/temp/Job-1.odb,Step-1,Increment      1: Step Time =    1.000,"P-1-1",           796,   81.3512E-03,   105.757E-03,            0.,NA,NA,"",   677.581E+03,   558.086E+03,   558.086E+03
C:/temp/Job-1.odb,Step-1,Increment      1: Step Time =    1.000,"P-1-1",           797,   84.5955E-03,   104.708E-03,            0.,NA,NA,"",   549.571E+03,   52.6276E+03,   52.6276E+03
C:/temp/Job-1.odb,Step-1,Increment      1: Step Time =    1.000,"P-1-1",           798,   196.790E-03,   3.24017E-03,            0.,NA,NA,"",   999.972E+03,   999.947E+03,   999.947E+03
C:/temp/Job-1.odb,Step-1,Increment      1: Step Time =    1.000,"P-1-1",           799,   193.611E-03,   3.29381E-03,            0.,NA,NA,"",   999.860E+03,   999.842E+03,   999.842E+03
C:/temp/Job-1.odb,Step-1,Increment      1: Step Time =    1.000,"P-1-1",           800,   190.471E-03,   3.13763E-03,            0.,NA,NA,"",   999.711E+03,   999.702E+03,   999.702E+03
C:/temp/Job-1.odb,Step-1,Increment      1: Step Time =    1.000,"P-1-1",           801,   185.838E-03,   2.98585E-03,            0.,NA,NA,"",   999.442E+03,   999.436E+03,   999.436E+03
C:/temp/Job-1.odb,Step-1,Increment      1: Step Time =    1.000,"P-1-1",           802,   182.790E-03,   2.99502E-03,            0.,NA,NA,"",   999.236E+03,   999.226E+03,   999.226E+03
C:/temp/Job-1.odb,Step-1,Increment      1: Step Time =    1.000,"P-1-1",           803,   179.732E-03,   3.04305E-03,            0.,NA,NA,"",   998.992E+03,   998.973E+03,   998.973E+03
C:/temp/Job-1.odb,Step-1,Increment      1: Step Time =    1.000,"P-1-1",           804,   176.649E-03,   3.11533E-03,            0.,NA,NA,"",   998.682E+03,   998.652E+03,   998.652E+03
C:/temp/Job-1.odb,Step-1,Increment      1: Step Time =    1.000,"P-1-1",           805,   173.537E-03,   3.20072E-03,            0.,NA,NA,"",   998.271E+03,   998.226E+03,   998.226E+03
C:/temp/Job-1.odb,Step-1,Increment      1: Step Time =    1.000,"P-1-1",           806,   170.421E-03,   3.26947E-03,            0.,NA,NA,"",   997.724E+03,   997.661E+03,   997.661E+03
C:/temp/Job-1.odb,Step-1,Increment      1: Step Time =    1.000,"P-1-1",           807,   167.280E-03,   3.33186E-03,            0.,NA,NA,"",   996.997E+03,   996.915E+03,   996.915E+03
C:/temp/Job-1.odb,Step-1,Increment      1: Step Time =    1.000,"P-1-1",           808,   164.050E-03,   3.35729E-03,            0.,NA,NA,"",   995.981E+03,   995.885E+03,   995.885E+03
C:/temp/Job-1.odb,Step-1,Increment      1: Step Time =    1.000,"P-1-1",           809,   160.895E-03,   2.95620E-03,            0.,NA,NA,"",   994.566E+03,   994.480E+03,   994.480E+03
C:/temp/Job-1.odb,Step-1,Increment      1: Step Time =    1.000,"P-1-1",           810,   157.860E-03,   2.77445E-03,            0.,NA,NA,"",   992.941E+03,   992.856E+03,   992.856E+03
C:/temp/Job-1.odb,Step-1,Increment      1: Step Time =    1.000,"P-1-1",           811,   153.360E-03,   2.82495E-03,            0.,NA,NA,"",   990.028E+03,   989.927E+03,   989.927E+03
C:/temp/Job-1.odb,Step-1,Increment      1: Step Time =    1.000,"P-1-1",           812,   150.326E-03,   2.92612E-03,            0.,NA,NA,"",   987.682E+03,   987.568E+03,   987.568E+03
C:/temp/Job-1.odb,Step-1,Increment      1: Step Time =    1.000,"P-1-1",           813,   147.260E-03,   3.03625E-03,            0.,NA,NA,"",   984.973E+03,   984.851E+03,   984.851E+03
C:/temp/Job-1.odb,Step-1,Increment      1: Step Time =    1.000,"P-1-1",           814,   144.155E-03,   3.14020E-03,            0.,NA,NA,"",   981.881E+03,   981.755E+03,   981.755E+03
C:/temp/Job-1.odb,Step-1,Increment      1: Step Time =    1.000,"P-1-1",           815,   141.022E-03,   3.21159E-03,            0.,NA,NA,"",   978.403E+03,   978.281E+03,   978.281E+03
C:/temp/Job-1.odb,Step-1,Increment      1: Step Time =    1.000,"P-1-1",           816,   137.879E-03,   3.22071E-03,            0.,NA,NA,"",   974.518E+03,   974.416E+03,   974.416E+03
C:/temp/Job-1.odb,Step-1,Increment      1: Step Time =    1.000,"P-1-1",           817,   134.760E-03,   3.16588E-03,            0.,NA,NA,"",   970.299E+03,   970.217E+03,   970.217E+03
C:/temp/Job-1.odb,Step-1,Increment      1: Step Time =    1.000,"P-1-1",           818,   131.693E-03,   3.08629E-03,            0.,NA,NA,"",   965.857E+03,   965.807E+03,   965.807E+03
C:/temp/Job-1.odb,Step-1,Increment      1: Step Time =    1.000,"P-1-1",           819,   128.625E-03,   3.04554E-03,            0.,NA,NA,"",   961.324E+03,   961.301E+03,   961.301E+03
C:/temp/Job-1.odb,Step-1,Increment      1: Step Time =    1.000,"P-1-1",           820,   124.017E-03,   3.07285E-03,            0.,NA,NA,"",   954.657E+03,   954.674E+03,   954.674E+03
C:/temp/Job-1.odb,Step-1,Increment      1: Step Time =    1.000,"P-1-1",           821,   120.938E-03,   3.10556E-03,            0.,NA,NA,"",   950.377E+03,   950.429E+03,   950.429E+03
C:/temp/Job-1.odb,Step-1,Increment      1: Step Time =    1.000,"P-1-1",           822,   117.839E-03,   3.12227E-03,            0.,NA,NA,"",   946.251E+03,   946.338E+03,   946.338E+03
C:/temp/Job-1.odb,Step-1,Increment      1: Step Time =    1.000,"P-1-1",           823,   114.729E-03,   3.12410E-03,            0.,NA,NA,"",   942.388E+03,   942.509E+03,   942.509E+03
C:/temp/Job-1.odb,Step-1,Increment      1: Step Time =    1.000,"P-1-1",           824,   111.621E-03,   3.12759E-03,            0.,NA,NA,"",   938.938E+03,   939.095E+03,   939.095E+03
C:/temp/Job-1.odb,Step-1,Increment      1: Step Time =    1.000,"P-1-1",           825,   108.520E-03,   3.12552E-03,            0.,NA,NA,"",   935.984E+03,   936.175E+03,   936.175E+03
C:/temp/Job-1.odb,Step-1,Increment      1: Step Time =    1.000,"P-1-1",           826,   105.437E-03,   3.12066E-03,            0.,NA,NA,"",   933.649E+03,    933.85E+03,    933.85E+03
C:/temp/Job-1.odb,Step-1,Increment      1: Step Time =    1.000,"P-1-1",           827,   102.364E-03,   3.13938E-03,            0.,NA,NA,"",   932.148E+03,   932.346E+03,   932.346E+03
C:/temp/Job-1.odb,Step-1,Increment      1: Step Time =    1.000,"P-1-1",           828,   97.6748E-03,   3.28877E-03,            0.,NA,NA,"",   931.423E+03,   931.662E+03,   931.662E+03
C:/temp/Job-1.odb,Step-1,Increment      1: Step Time =    1.000,"P-1-1",           829,   94.5150E-03,   3.22490E-03,            0.,NA,NA,"",   931.339E+03,   931.572E+03,   931.572E+03
C:/temp/Job-1.odb,Step-1,Increment      1: Step Time =    1.000,"P-1-1",           830,   91.3412E-03,   3.11913E-03,            0.,NA,NA,"",   931.708E+03,   931.902E+03,   931.902E+03
C:/temp/Job-1.odb,Step-1,Increment      1: Step Time =    1.000,"P-1-1",           831,   88.2176E-03,   3.09848E-03,            0.,NA,NA,"",   933.044E+03,   933.218E+03,   933.218E+03
C:/temp/Job-1.odb,Step-1,Increment      1: Step Time =    1.000,"P-1-1",           832,   85.1193E-03,   3.12089E-03,            0.,NA,NA,"",   935.170E+03,   935.318E+03,   935.318E+03
C:/temp/Job-1.odb,Step-1,Increment      1: Step Time =    1.000,"P-1-1",           833,   82.0087E-03,   3.12163E-03,            0.,NA,NA,"",   937.727E+03,   937.860E+03,   937.860E+03
C:/temp/Job-1.odb,Step-1,Increment      1: Step Time =    1.000,"P-1-1",           834,   78.9210E-03,   3.06086E-03,            0.,NA,NA,"",   940.464E+03,   940.567E+03,   940.567E+03
C:/temp/Job-1.odb,Step-1,Increment      1: Step Time =    1.000,"P-1-1",           835,   75.9232E-03,   2.94392E-03,            0.,NA,NA,"",   943.333E+03,   943.403E+03,   943.403E+03
C:/temp/Job-1.odb,Step-1,Increment      1: Step Time =    1.000,"P-1-1",           836,   72.9164E-03,   2.91108E-03,            0.,NA,NA,"",    946.82E+03,   946.867E+03,   946.867E+03
C:/temp/Job-1.odb,Step-1,Increment      1: Step Time =    1.000,"P-1-1",           837,   68.2930E-03,   3.17803E-03,            0.,NA,NA,"",   953.724E+03,   953.762E+03,   953.762E+03
C:/temp/Job-1.odb,Step-1,Increment      1: Step Time =    1.000,"P-1-1",           838,   65.1612E-03,   3.35433E-03,            0.,NA,NA,"",   958.494E+03,   958.496E+03,   958.496E+03
C:/temp/Job-1.odb,Step-1,Increment      1: Step Time =    1.000,"P-1-1",           839,   62.0007E-03,   3.30419E-03,            0.,NA,NA,"",   962.731E+03,   962.734E+03,   962.734E+03
C:/temp/Job-1.odb,Step-1,Increment      1: Step Time =    1.000,"P-1-1",           840,   58.8351E-03,   3.21047E-03,            0.,NA,NA,"",   966.826E+03,   966.827E+03,   966.827E+03
C:/temp/Job-1.odb,Step-1,Increment      1: Step Time =    1.000,"P-1-1",           841,   55.7082E-03,   3.16049E-03,            0.,NA,NA,"",   971.186E+03,   971.191E+03,   971.191E+03
C:/temp/Job-1.odb,Step-1,Increment      1: Step Time =    1.000,"P-1-1",           842,   52.6046E-03,   3.13957E-03,            0.,NA,NA,"",   975.762E+03,   975.794E+03,   975.794E+03
C:/temp/Job-1.odb,Step-1,Increment      1: Step Time =    1.000,"P-1-1",           843,   49.5219E-03,   3.11845E-03,            0.,NA,NA,"",   980.573E+03,   980.632E+03,   980.632E+03
C:/temp/Job-1.odb,Step-1,Increment      1: Step Time =    1.000,"P-1-1",           844,   46.4663E-03,   3.10237E-03,            0.,NA,NA,"",   985.734E+03,   985.837E+03,   985.837E+03
C:/temp/Job-1.odb,Step-1,Increment      1: Step Time =    1.000,"P-1-1",           845,   43.3890E-03,   3.12570E-03,            0.,NA,NA,"",   991.615E+03,   991.775E+03,   991.775E+03
C:/temp/Job-1.odb,Step-1,Increment      1: Step Time =    1.000,"P-1-1",           846,   38.7650E-03,   3.17125E-03,            0.,NA,NA,"",   1.00191E+06,   1.00216E+06,   1.00216E+06
C:/temp/Job-1.odb,Step-1,Increment      1: Step Time =    1.000,"P-1-1",           847,   35.6807E-03,   3.15709E-03,            0.,NA,NA,"",   1.00987E+06,   1.01023E+06,   1.01023E+06
C:/temp/Job-1.odb,Step-1,Increment      1: Step Time =    1.000,"P-1-1",           848,   32.5744E-03,   3.12475E-03,            0.,NA,NA,"",   1.01936E+06,   1.01984E+06,   1.01984E+06
C:/temp/Job-1.odb,Step-1,Increment      1: Step Time =    1.000,"P-1-1",           849,   29.4642E-03,   3.09879E-03,            0.,NA,NA,"",   1.03096E+06,   1.03159E+06,   1.03159E+06
C:/temp/Job-1.odb,Step-1,Increment      1: Step Time =    1.000,"P-1-1",           850,   26.3676E-03,   3.08670E-03,            0.,NA,NA,"",   1.04532E+06,   1.04616E+06,   1.04616E+06
C:/temp/Job-1.odb,Step-1,Increment      1: Step Time =    1.000,"P-1-1",           851,   23.2840E-03,   3.06976E-03,            0.,NA,NA,"",   1.06328E+06,   1.06440E+06,   1.06440E+06
C:/temp/Job-1.odb,Step-1,Increment      1: Step Time =    1.000,"P-1-1",           852,   20.2098E-03,   3.03336E-03,            0.,NA,NA,"",   1.08613E+06,   1.08764E+06,   1.08764E+06
C:/temp/Job-1.odb,Step-1,Increment      1: Step Time =    1.000,"P-1-1",           853,   17.1367E-03,   2.97518E-03,            0.,NA,NA,"",   1.11595E+06,   1.11806E+06,   1.11806E+06
C:/temp/Job-1.odb,Step-1,Increment      1: Step Time =    1.000,"P-1-1",           854,   14.0922E-03,   2.88574E-03,            0.,NA,NA,"",   1.15518E+06,   1.15815E+06,   1.15815E+06
C:/temp/Job-1.odb,Step-1,Increment      1: Step Time =    1.000,"P-1-1",           855,   9.54766E-03,   2.91700E-03,            0.,NA,NA,"",   1.24759E+06,   1.25463E+06,   1.25463E+06
C:/temp/Job-1.odb,Step-1,Increment      1: Step Time =    1.000,"P-1-1",           856,   6.42002E-03,   3.16534E-03,            0.,NA,NA,"",   1.35050E+06,   1.36668E+06,   1.36668E+06
C:/temp/Job-1.odb,Step-1,Increment      1: Step Time =    1.000,"P-1-1",           857,   3.23689E-03,   3.21062E-03,            0.,NA,NA,"",   1.49357E+06,   1.53949E+06,   1.53949E+06
C:/temp/Job-1.odb,Step-1,Increment      1: Step Time =    1.000,"P-1-1",           858,   196.851E-03,   6.42718E-03,            0.,NA,NA,"",   1.00004E+06,   999.960E+03,   999.960E+03
C:/temp/Job-1.odb,Step-1,Increment      1: Step Time =    1.000,"P-1-1",           859,   193.336E-03,   6.97068E-03,            0.,NA,NA,"",   999.944E+03,   999.887E+03,   999.887E+03
C:/temp/Job-1.odb,Step-1,Increment      1: Step Time =    1.000,"P-1-1",           860,   190.045E-03,   6.14732E-03,            0.,NA,NA,"",   999.799E+03,   999.772E+03,   999.772E+03
C:/temp/Job-1.odb,Step-1,Increment      1: Step Time =    1.000,"P-1-1",           861,   187.090E-03,   5.96423E-03,            0.,NA,NA,"",   999.686E+03,   999.664E+03,   999.664E+03
C:/temp/Job-1.odb,Step-1,Increment      1: Step Time =    1.000,"P-1-1",           862,   184.144E-03,   5.99450E-03,            0.,NA,NA,"",   999.577E+03,   999.545E+03,   999.545E+03
C:/temp/Job-1.odb,Step-1,Increment      1: Step Time =    1.000,"P-1-1",           863,   179.657E-03,   6.11561E-03,            0.,NA,NA,"",   999.381E+03,   999.311E+03,   999.311E+03
C:/temp/Job-1.odb,Step-1,Increment      1: Step Time =    1.000,"P-1-1",           864,   176.617E-03,   6.22919E-03,            0.,NA,NA,"",   999.201E+03,   999.091E+03,   999.091E+03
C:/temp/Job-1.odb,Step-1,Increment      1: Step Time =    1.000,"P-1-1",           865,   173.498E-03,   6.40208E-03,            0.,NA,NA,"",   998.955E+03,   998.793E+03,   998.793E+03
C:/temp/Job-1.odb,Step-1,Increment      1: Step Time =    1.000,"P-1-1",           866,   170.326E-03,   6.57270E-03,            0.,NA,NA,"",   998.586E+03,   998.365E+03,   998.365E+03
C:/temp/Job-1.odb,Step-1,Increment      1: Step Time =    1.000,"P-1-1",           867,   167.241E-03,   6.61793E-03,            0.,NA,NA,"",   998.060E+03,   997.781E+03,   997.781E+03
C:/temp/Job-1.odb,Step-1,Increment      1: Step Time =    1.000,"P-1-1",           868,   162.639E-03,   6.51282E-03,            0.,NA,NA,"",   996.852E+03,   996.506E+03,   996.506E+03
C:/temp/Job-1.odb,Step-1,Increment      1: Step Time =    1.000,"P-1-1",           869,   160.275E-03,   5.66668E-03,            0.,NA,NA,"",   995.557E+03,   995.263E+03,   995.263E+03
C:/temp/Job-1.odb,Step-1,Increment      1: Step Time =    1.000,"P-1-1",           870,   156.185E-03,   5.53461E-03,            0.,NA,NA,"",   993.545E+03,   993.228E+03,   993.228E+03
C:/temp/Job-1.odb,Step-1,Increment      1: Step Time =    1.000,"P-1-1",           871,   153.314E-03,   5.70390E-03,            0.,NA,NA,"",   992.022E+03,   991.667E+03,   991.667E+03
C:/temp/Job-1.odb,Step-1,Increment      1: Step Time =    1.000,"P-1-1",           872,   150.353E-03,   5.89088E-03,            0.,NA,NA,"",   990.229E+03,   989.837E+03,   989.837E+03
C:/temp/Job-1.odb,Step-1,Increment      1: Step Time =    1.000,"P-1-1",           873,   147.337E-03,   6.08371E-03,            0.,NA,NA,"",   988.164E+03,   987.745E+03,   987.745E+03
C:/temp/Job-1.odb,Step-1,Increment      1: Step Time =    1.000,"P-1-1",           874,   144.225E-03,   6.29358E-03,            0.,NA,NA,"",   985.792E+03,   985.363E+03,   985.363E+03
C:/temp/Job-1.odb,Step-1,Increment      1: Step Time =    1.000,"P-1-1",           875,   141.000E-03,   6.47343E-03,            0.,NA,NA,"",   983.004E+03,   982.586E+03,   982.586E+03
C:/temp/Job-1.odb,Step-1,Increment      1: Step Time =    1.000,"P-1-1",           876,   137.737E-03,   6.46719E-03,            0.,NA,NA,"",   979.687E+03,   979.330E+03,   979.330E+03
C:/temp/Job-1.odb,Step-1,Increment      1: Step Time =    1.000,"P-1-1",           877,   134.538E-03,   6.39787E-03,            0.,NA,NA,"",   975.971E+03,   975.700E+03,   975.700E+03
C:/temp/Job-1.odb,Step-1,Increment      1: Step Time =    1.000,"P-1-1",           878,   131.517E-03,   6.22102E-03,            0.,NA,NA,"",   972.114E+03,   971.937E+03,   971.937E+03
C:/temp/Job-1.odb,Step-1,Increment      1: Step Time =    1.000,"P-1-1",           879,   127.059E-03,   6.10556E-03,            0.,NA,NA,"",   966.369E+03,   966.328E+03,   966.328E+03
C:/temp/Job-1.odb,Step-1,Increment      1: Step Time =    1.000,"P-1-1",           880,   124.031E-03,   6.19627E-03,            0.,NA,NA,"",   962.886E+03,   962.963E+03,   962.963E+03
C:/temp/Job-1.odb,Step-1,Increment      1: Step Time =    1.000,"P-1-1",           881,   120.959E-03,   6.24714E-03,            0.,NA,NA,"",   959.380E+03,   959.570E+03,   959.570E+03
C:/temp/Job-1.odb,Step-1,Increment      1: Step Time =    1.000,"P-1-1",           882,   117.839E-03,   6.23078E-03,            0.,NA,NA,"",   955.817E+03,   956.131E+03,   956.131E+03
C:/temp/Job-1.odb,Step-1,Increment      1: Step Time =    1.000,"P-1-1",           883,   114.723E-03,   6.21419E-03,            0.,NA,NA,"",   952.526E+03,   952.946E+03,   952.946E+03
C:/temp/Job-1.odb,Step-1,Increment      1: Step Time =    1.000,"P-1-1",           884,   111.613E-03,   6.23306E-03,            0.,NA,NA,"",   949.685E+03,   950.226E+03,   950.226E+03
C:/temp/Job-1.odb,Step-1,Increment      1: Step Time =    1.000,"P-1-1",           885,   108.503E-03,   6.26765E-03,            0.,NA,NA,"",   947.340E+03,   947.994E+03,   947.994E+03
C:/temp/Job-1.odb,Step-1,Increment      1: Step Time =    1.000,"P-1-1",           886,   105.424E-03,   6.28287E-03,            0.,NA,NA,"",   945.446E+03,   946.177E+03,   946.177E+03
C:/temp/Job-1.odb,Step-1,Increment      1: Step Time =    1.000,"P-1-1",           887,   102.427E-03,   6.23742E-03,            0.,NA,NA,"",   943.963E+03,   944.690E+03,   944.690E+03
C:/temp/Job-1.odb,Step-1,Increment      1: Step Time =    1.000,"P-1-1",           888,   97.8074E-03,   7.02270E-03,            0.,NA,NA,"",   946.158E+03,   947.128E+03,   947.128E+03
C:/temp/Job-1.odb,Step-1,Increment      1: Step Time =    1.000,"P-1-1",           889,   94.2718E-03,   6.33272E-03,            0.,NA,NA,"",   943.876E+03,   944.625E+03,   944.625E+03
C:/temp/Job-1.odb,Step-1,Increment      1: Step Time =    1.000,"P-1-1",           890,   91.1512E-03,   6.09515E-03,            0.,NA,NA,"",   943.876E+03,   944.542E+03,   944.542E+03
C:/temp/Job-1.odb,Step-1,Increment      1: Step Time =    1.000,"P-1-1",           891,   88.0931E-03,   6.14757E-03,            0.,NA,NA,"",   945.560E+03,   946.172E+03,   946.172E+03
C:/temp/Job-1.odb,Step-1,Increment      1: Step Time =    1.000,"P-1-1",           892,   84.9922E-03,   6.27727E-03,            0.,NA,NA,"",   948.039E+03,   948.573E+03,   948.573E+03
C:/temp/Job-1.odb,Step-1,Increment      1: Step Time =    1.000,"P-1-1",           893,   81.8225E-03,   6.27184E-03,            0.,NA,NA,"",   950.646E+03,   951.132E+03,   951.132E+03
C:/temp/Job-1.odb,Step-1,Increment      1: Step Time =    1.000,"P-1-1",           894,   78.6550E-03,   6.23924E-03,            0.,NA,NA,"",   953.559E+03,   953.938E+03,   953.938E+03
C:/temp/Job-1.odb,Step-1,Increment      1: Step Time =    1.000,"P-1-1",           895,   75.6723E-03,   6.01894E-03,            0.,NA,NA,"",   955.813E+03,   956.071E+03,   956.071E+03
C:/temp/Job-1.odb,Step-1,Increment      1: Step Time =    1.000,"P-1-1",           896,   71.6210E-03,   5.81803E-03,            0.,NA,NA,"",   959.686E+03,   959.833E+03,   959.833E+03
C:/temp/Job-1.odb,Step-1,Increment      1: Step Time =    1.000,"P-1-1",           897,   68.6484E-03,   6.30076E-03,            0.,NA,NA,"",   965.374E+03,   965.484E+03,   965.484E+03
C:/temp/Job-1.odb,Step-1,Increment      1: Step Time =    1.000,"P-1-1",           898,   65.2514E-03,   7.15110E-03,            0.,NA,NA,"",   973.358E+03,   973.458E+03,   973.458E+03
C:/temp/Job-1.odb,Step-1,Increment      1: Step Time =    1.000,"P-1-1",           899,   61.8226E-03,   6.53686E-03,            0.,NA,NA,"",   975.503E+03,   975.543E+03,   975.543E+03
C:/temp/Job-1.odb,Step-1,Increment      1: Step Time =    1.000,"P-1-1",           900,   58.6779E-03,   6.31473E-03,            0.,NA,NA,"",   979.360E+03,   979.419E+03,   979.419E+03
C:/temp/Job-1.odb,Step-1,Increment      1: Step Time =    1.000,"P-1-1",           901,   55.5778E-03,   6.29057E-03,            0.,NA,NA,"",   983.939E+03,   984.014E+03,   984.014E+03
C:/temp/Job-1.odb,Step-1,Increment      1: Step Time =    1.000,"P-1-1",           902,   52.4730E-03,   6.29681E-03,            0.,NA,NA,"",   988.935E+03,   989.115E+03,   989.115E+03
C:/temp/Job-1.odb,Step-1,Increment      1: Step Time =    1.000,"P-1-1",           903,   49.3858E-03,   6.29906E-03,            0.,NA,NA,"",   994.333E+03,   994.621E+03,   994.621E+03
C:/temp/Job-1.odb,Step-1,Increment      1: Step Time =    1.000,"P-1-1",           904,   46.4034E-03,   6.24417E-03,            0.,NA,NA,"",   999.668E+03,   1.00009E+06,   1.00009E+06
C:/temp/Job-1.odb,Step-1,Increment      1: Step Time =    1.000,"P-1-1",           905,   41.8806E-03,   6.34766E-03,            0.,NA,NA,"",   1.01002E+06,   1.01071E+06,   1.01071E+06
C:/temp/Job-1.odb,Step-1,Increment      1: Step Time =    1.000,"P-1-1",           906,   38.7551E-03,   6.44364E-03,            0.,NA,NA,"",   1.01813E+06,   1.01919E+06,   1.01919E+06
C:/temp/Job-1.odb,Step-1,Increment      1: Step Time =    1.000,"P-1-1",           907,   35.6509E-03,   6.34426E-03,            0.,NA,NA,"",   1.02684E+06,   1.02825E+06,   1.02825E+06
C:/temp/Job-1.odb,Step-1,Increment      1: Step Time =    1.000,"P-1-1",           908,   32.5402E-03,   6.21333E-03,            0.,NA,NA,"",   1.03704E+06,   1.03882E+06,   1.03882E+06
C:/temp/Job-1.odb,Step-1,Increment      1: Step Time =    1.000,"P-1-1",           909,   29.4501E-03,   6.15984E-03,            0.,NA,NA,"",   1.04950E+06,   1.05183E+06,   1.05183E+06
C:/temp/Job-1.odb,Step-1,Increment      1: Step Time =    1.000,"P-1-1",           910,   26.3754E-03,   6.16788E-03,            0.,NA,NA,"",   1.06486E+06,   1.06798E+06,   1.06798E+06
C:/temp/Job-1.odb,Step-1,Increment      1: Step Time =    1.000,"P-1-1",           911,   23.2965E-03,   6.17240E-03,            0.,NA,NA,"",   1.08362E+06,   1.08782E+06,   1.08782E+06
C:/temp/Job-1.odb,Step-1,Increment      1: Step Time =    1.000,"P-1-1",           912,   20.2317E-03,   6.10595E-03,            0.,NA,NA,"",   1.10642E+06,   1.11202E+06,   1.11202E+06
C:/temp/Job-1.odb,Step-1,Increment      1: Step Time =    1.000,"P-1-1",           913,   15.6138E-03,   5.93200E-03,            0.,NA,NA,"",   1.15252E+06,   1.16168E+06,   1.16168E+06
C:/temp/Job-1.odb,Step-1,Increment      1: Step Time =    1.000,"P-1-1",           914,   12.6425E-03,   5.68980E-03,            0.,NA,NA,"",   1.19413E+06,   1.20644E+06,   1.20644E+06
C:/temp/Job-1.odb,Step-1,Increment      1: Step Time =    1.000,"P-1-1",           915,   9.98017E-03,   5.53939E-03,            0.,NA,NA,"",   1.23898E+06,   1.25694E+06,   1.25694E+06
C:/temp/Job-1.odb,Step-1,Increment      1: Step Time =    1.000,"P-1-1",           916,   6.92936E-03,   6.67529E-03,            0.,NA,NA,"",   1.26610E+06,   1.30781E+06,   1.30781E+06
C:/temp/Job-1.odb,Step-1,Increment      1: Step Time =    1.000,"P-1-1",           917,   3.28553E-03,   6.39544E-03,            0.,NA,NA,"",   1.27725E+06,   1.35886E+06,   1.35886E+06
C:/temp/Job-1.odb,Step-1,Increment      1: Step Time =    1.000,"P-1-1",           918,   197.137E-03,   9.53706E-03,            0.,NA,NA,"",   1.00013E+06,   999.985E+03,   999.985E+03
C:/temp/Job-1.odb,Step-1,Increment      1: Step Time =    1.000,"P-1-1",           919,   194.519E-03,   10.0111E-03,            0.,NA,NA,"",   1.00008E+06,   999.971E+03,   999.971E+03
C:/temp/Job-1.odb,Step-1,Increment      1: Step Time =    1.000,"P-1-1",           920,   189.959E-03,   10.4930E-03,            0.,NA,NA,"",   1.00004E+06,   999.984E+03,   999.984E+03
C:/temp/Job-1.odb,Step-1,Increment      1: Step Time =    1.000,"P-1-1",           921,   186.911E-03,   8.90279E-03,            0.,NA,NA,"",   999.920E+03,   999.871E+03,   999.871E+03
C:/temp/Job-1.odb,Step-1,Increment      1: Step Time =    1.000,"P-1-1",           922,   184.037E-03,   10.6178E-03,            0.,NA,NA,"",   1.00016E+06,   1.00006E+06,   1.00006E+06
C:/temp/Job-1.odb,Step-1,Increment      1: Step Time =    1.000,"P-1-1",           923,   179.595E-03,   9.23504E-03,            0.,NA,NA,"",   999.966E+03,   999.810E+03,   999.810E+03
C:/temp/Job-1.odb,Step-1,Increment      1: Step Time =    1.000,"P-1-1",           924,   176.637E-03,   9.32742E-03,            0.,NA,NA,"",   999.959E+03,   999.726E+03,   999.726E+03
C:/temp/Job-1.odb,Step-1,Increment      1: Step Time =    1.000,"P-1-1",           925,   173.710E-03,   10.9639E-03,            0.,NA,NA,"",   1.00049E+06,   1.00006E+06,   1.00006E+06
C:/temp/Job-1.odb,Step-1,Increment      1: Step Time =    1.000,"P-1-1",           926,   170.219E-03,   10.1401E-03,            0.,NA,NA,"",   1.00009E+06,   999.581E+03,   999.581E+03
C:/temp/Job-1.odb,Step-1,Increment      1: Step Time =    1.000,"P-1-1",           927,   166.998E-03,   9.83110E-03,            0.,NA,NA,"",   999.597E+03,   999.015E+03,   999.015E+03
C:/temp/Job-1.odb,Step-1,Increment      1: Step Time =    1.000,"P-1-1",           928,   164.410E-03,   9.73499E-03,            0.,NA,NA,"",   999.121E+03,   998.475E+03,   998.475E+03
C:/temp/Job-1.odb,Step-1,Increment      1: Step Time =    1.000,"P-1-1",           929,   161.326E-03,   9.81427E-03,            0.,NA,NA,"",   998.645E+03,   997.873E+03,   997.873E+03
C:/temp/Job-1.odb,Step-1,Increment      1: Step Time =    1.000,"P-1-1",           930,   157.824E-03,   9.71740E-03,            0.,NA,NA,"",   997.613E+03,   996.772E+03,   996.772E+03
C:/temp/Job-1.odb,Step-1,Increment      1: Step Time =    1.000,"P-1-1",           931,   153.497E-03,   10.0906E-03,            0.,NA,NA,"",   996.434E+03,   995.438E+03,   995.438E+03
C:/temp/Job-1.odb,Step-1,Increment      1: Step Time =    1.000,"P-1-1",           932,   150.473E-03,   8.92248E-03,            0.,NA,NA,"",   993.599E+03,   992.772E+03,   992.772E+03
C:/temp/Job-1.odb,Step-1,Increment      1: Step Time =    1.000,"P-1-1",           933,   147.533E-03,   9.15838E-03,            0.,NA,NA,"",   992.139E+03,    991.27E+03,    991.27E+03
C:/temp/Job-1.odb,Step-1,Increment      1: Step Time =    1.000,"P-1-1",           934,   144.487E-03,   9.38761E-03,            0.,NA,NA,"",   990.426E+03,   989.543E+03,   989.543E+03
C:/temp/Job-1.odb,Step-1,Increment      1: Step Time =    1.000,"P-1-1",           935,   141.044E-03,   9.98620E-03,            0.,NA,NA,"",   988.897E+03,   987.986E+03,   987.986E+03
C:/temp/Job-1.odb,Step-1,Increment      1: Step Time =    1.000,"P-1-1",           936,   137.533E-03,   9.64414E-03,            0.,NA,NA,"",   985.253E+03,   984.531E+03,   984.531E+03
C:/temp/Job-1.odb,Step-1,Increment      1: Step Time =    1.000,"P-1-1",           937,   134.292E-03,   9.71030E-03,            0.,NA,NA,"",   982.375E+03,   981.817E+03,   981.817E+03
C:/temp/Job-1.odb,Step-1,Increment      1: Step Time =    1.000,"P-1-1",           938,   130.773E-03,   9.75307E-03,            0.,NA,NA,"",   978.822E+03,   978.488E+03,   978.488E+03
C:/temp/Job-1.odb,Step-1,Increment      1: Step Time =    1.000,"P-1-1",           939,   127.353E-03,   10.7447E-03,            0.,NA,NA,"",   977.845E+03,   977.754E+03,   977.754E+03
C:/temp/Job-1.odb,Step-1,Increment      1: Step Time =    1.000,"P-1-1",           940,   124.113E-03,   9.40004E-03,            0.,NA,NA,"",   971.269E+03,   971.424E+03,   971.424E+03
C:/temp/Job-1.odb,Step-1,Increment      1: Step Time =    1.000,"P-1-1",           941,   120.955E-03,   9.48607E-03,            0.,NA,NA,"",   968.138E+03,   968.571E+03,   968.571E+03
C:/temp/Job-1.odb,Step-1,Increment      1: Step Time =    1.000,"P-1-1",           942,   117.770E-03,   9.28140E-03,            0.,NA,NA,"",   964.463E+03,   965.130E+03,   965.130E+03
C:/temp/Job-1.odb,Step-1,Increment      1: Step Time =    1.000,"P-1-1",           943,   114.708E-03,   9.24700E-03,            0.,NA,NA,"",   961.597E+03,   962.477E+03,   962.477E+03
C:/temp/Job-1.odb,Step-1,Increment      1: Step Time =    1.000,"P-1-1",           944,   111.628E-03,   9.27929E-03,            0.,NA,NA,"",   959.220E+03,   960.343E+03,   960.343E+03
C:/temp/Job-1.odb,Step-1,Increment      1: Step Time =    1.000,"P-1-1",           945,   108.522E-03,   9.40334E-03,            0.,NA,NA,"",   957.540E+03,   958.897E+03,   958.897E+03
C:/temp/Job-1.odb,Step-1,Increment      1: Step Time =    1.000,"P-1-1",           946,   105.379E-03,   9.55433E-03,            0.,NA,NA,"",   956.335E+03,   957.888E+03,   957.888E+03
C:/temp/Job-1.odb,Step-1,Increment      1: Step Time =    1.000,"P-1-1",           947,   102.198E-03,   9.45865E-03,            0.,NA,NA,"",   955.048E+03,   956.698E+03,   956.698E+03
C:/temp/Job-1.odb,Step-1,Increment      1: Step Time =    1.000,"P-1-1",           948,   97.5329E-03,   10.9222E-03,            0.,NA,NA,"",   959.282E+03,   961.402E+03,   961.402E+03
C:/temp/Job-1.odb,Step-1,Increment      1: Step Time =    1.000,"P-1-1",           949,   95.0277E-03,   9.47443E-03,            0.,NA,NA,"",   954.922E+03,   956.552E+03,   956.552E+03
C:/temp/Job-1.odb,Step-1,Increment      1: Step Time =    1.000,"P-1-1",           950,   90.9552E-03,   10.2242E-03,            0.,NA,NA,"",   958.834E+03,   960.584E+03,   960.584E+03
C:/temp/Job-1.odb,Step-1,Increment      1: Step Time =    1.000,"P-1-1",           951,   88.1628E-03,   9.11073E-03,            0.,NA,NA,"",   956.368E+03,   957.630E+03,   957.630E+03
C:/temp/Job-1.odb,Step-1,Increment      1: Step Time =    1.000,"P-1-1",           952,   84.9378E-03,   9.73099E-03,            0.,NA,NA,"",   960.862E+03,   962.124E+03,   962.124E+03
C:/temp/Job-1.odb,Step-1,Increment      1: Step Time =    1.000,"P-1-1",           953,   81.6052E-03,   9.31159E-03,            0.,NA,NA,"",   962.121E+03,   963.112E+03,   963.112E+03
C:/temp/Job-1.odb,Step-1,Increment      1: Step Time =    1.000,"P-1-1",           954,   78.4959E-03,   9.45109E-03,            0.,NA,NA,"",   965.609E+03,   966.409E+03,   966.409E+03
C:/temp/Job-1.odb,Step-1,Increment      1: Step Time =    1.000,"P-1-1",           955,   75.2194E-03,   9.81017E-03,            0.,NA,NA,"",   970.481E+03,   971.127E+03,   971.127E+03
C:/temp/Job-1.odb,Step-1,Increment      1: Step Time =    1.000,"P-1-1",           956,   68.7956E-03,   10.9803E-03,            0.,NA,NA,"",   982.455E+03,   982.895E+03,   982.895E+03
C:/temp/Job-1.odb,Step-1,Increment      1: Step Time =    1.000,"P-1-1",           957,   64.7586E-03,   9.73966E-03,            0.,NA,NA,"",   983.168E+03,   983.369E+03,   983.369E+03
C:/temp/Job-1.odb,Step-1,Increment      1: Step Time =    1.000,"P-1-1",           958,   61.3019E-03,   9.67047E-03,            0.,NA,NA,"",   988.017E+03,   988.193E+03,   988.193E+03
C:/temp/Job-1.odb,Step-1,Increment      1: Step Time =    1.000,"P-1-1",           959,   58.5325E-03,   9.22384E-03,            0.,NA,NA,"",   990.417E+03,   990.586E+03,   990.586E+03
C:/temp/Job-1.odb,Step-1,Increment      1: Step Time =    1.000,"P-1-1",           960,   55.5012E-03,   9.45357E-03,            0.,NA,NA,"",   995.822E+03,   996.146E+03,   996.146E+03
C:/temp/Job-1.odb,Step-1,Increment      1: Step Time =    1.000,"P-1-1",           961,   52.3442E-03,   9.42274E-03,            0.,NA,NA,"",   1.00112E+06,   1.00160E+06,   1.00160E+06
C:/temp/Job-1.odb,Step-1,Increment      1: Step Time =    1.000,"P-1-1",           962,   49.2615E-03,   9.54071E-03,            0.,NA,NA,"",   1.00692E+06,   1.00768E+06,   1.00768E+06
C:/temp/Job-1.odb,Step-1,Increment      1: Step Time =    1.000,"P-1-1",           963,   45.9446E-03,   9.75142E-03,            0.,NA,NA,"",   1.01421E+06,   1.01539E+06,   1.01539E+06
C:/temp/Job-1.odb,Step-1,Increment      1: Step Time =    1.000,"P-1-1",           964,   42.1690E-03,   9.77417E-03,            0.,NA,NA,"",   1.02254E+06,   1.02428E+06,   1.02428E+06
C:/temp/Job-1.odb,Step-1,Increment      1: Step Time =    1.000,"P-1-1",           965,   38.7171E-03,   10.1456E-03,            0.,NA,NA,"",   1.03238E+06,   1.03507E+06,   1.03507E+06
C:/temp/Job-1.odb,Step-1,Increment      1: Step Time =    1.000,"P-1-1",           966,   35.4291E-03,   9.51220E-03,            0.,NA,NA,"",   1.04022E+06,   1.04342E+06,   1.04342E+06
C:/temp/Job-1.odb,Step-1,Increment      1: Step Time =    1.000,"P-1-1",           967,   32.4218E-03,   9.21385E-03,            0.,NA,NA,"",   1.04955E+06,   1.05347E+06,   1.05347E+06
C:/temp/Job-1.odb,Step-1,Increment      1: Step Time =    1.000,"P-1-1",           968,   29.4389E-03,   9.16200E-03,            0.,NA,NA,"",   1.06128E+06,   1.06637E+06,   1.06637E+06
C:/temp/Job-1.odb,Step-1,Increment      1: Step Time =    1.000,"P-1-1",           969,   26.4332E-03,   9.25224E-03,            0.,NA,NA,"",   1.07555E+06,   1.08228E+06,   1.08228E+06
C:/temp/Job-1.odb,Step-1,Increment      1: Step Time =    1.000,"P-1-1",           970,   23.3200E-03,   9.33379E-03,            0.,NA,NA,"",   1.09261E+06,   1.10181E+06,   1.10181E+06
C:/temp/Job-1.odb,Step-1,Increment      1: Step Time =    1.000,"P-1-1",           971,   20.1764E-03,   9.26756E-03,            0.,NA,NA,"",   1.11287E+06,   1.12497E+06,   1.12497E+06
C:/temp/Job-1.odb,Step-1,Increment      1: Step Time =    1.000,"P-1-1",           972,   17.0769E-03,   10.3481E-03,            0.,NA,NA,"",   1.13223E+06,   1.15256E+06,   1.15256E+06
C:/temp/Job-1.odb,Step-1,Increment      1: Step Time =    1.000,"P-1-1",           973,   12.3486E-03,   9.28757E-03,            0.,NA,NA,"",   1.17219E+06,   1.20158E+06,   1.20158E+06
C:/temp/Job-1.odb,Step-1,Increment      1: Step Time =    1.000,"P-1-1",           974,   10.2623E-03,   9.89241E-03,            0.,NA,NA,"",   1.17568E+06,   1.21678E+06,   1.21678E+06
C:/temp/Job-1.odb,Step-1,Increment      1: Step Time =    1.000,"P-1-1",           975,   6.11478E-03,   9.98582E-03,            0.,NA,NA,"",   1.17913E+06,   1.24764E+06,   1.24764E+06
C:/temp/Job-1.odb,Step-1,Increment      1: Step Time =    1.000,"P-1-1",           976,   3.12444E-03,   9.54540E-03,            0.,NA,NA,"",   1.16257E+06,   1.25605E+06,   1.25605E+06
C:/temp/Job-1.odb,Step-1,Increment      1: Step Time =    1.000,"P-1-1",           977,   197.285E-03,   14.0181E-03,            0.,NA,NA,"",   1.00028E+06,   1.00001E+06,   1.00001E+06
C:/temp/Job-1.odb,Step-1,Increment      1: Step Time =    1.000,"P-1-1",           978,   194.474E-03,   12.6563E-03,            0.,NA,NA,"",   1.00017E+06,   1.00003E+06,   1.00003E+06
C:/temp/Job-1.odb,Step-1,Increment      1: Step Time =    1.000,"P-1-1",           979,   190.785E-03,   12.5861E-03,            0.,NA,NA,"",   1.00018E+06,   1.00010E+06,   1.00010E+06
C:/temp/Job-1.odb,Step-1,Increment      1: Step Time =    1.000,"P-1-1",           980,   187.109E-03,   11.9399E-03,            0.,NA,NA,"",   1.00022E+06,   1.00015E+06,   1.00015E+06
C:/temp/Job-1.odb,Step-1,Increment      1: Step Time =    1.000,"P-1-1",           981,   184.043E-03,   13.6694E-03,            0.,NA,NA,"",   1.00065E+06,   1.00050E+06,   1.00050E+06
C:/temp/Job-1.odb,Step-1,Increment      1: Step Time =    1.000,"P-1-1",           982,   179.514E-03,   12.4413E-03,            0.,NA,NA,"",   1.00076E+06,   1.00048E+06,   1.00048E+06
C:/temp/Job-1.odb,Step-1,Increment      1: Step Time =    1.000,"P-1-1",           983,   176.603E-03,   12.4721E-03,            0.,NA,NA,"",   1.00096E+06,   1.00056E+06,   1.00056E+06
C:/temp/Job-1.odb,Step-1,Increment      1: Step Time =    1.000,"P-1-1",           984,   173.619E-03,   13.8044E-03,            0.,NA,NA,"",   1.00176E+06,   1.00110E+06,   1.00110E+06
C:/temp/Job-1.odb,Step-1,Increment      1: Step Time =    1.000,"P-1-1",           985,   170.750E-03,   13.5352E-03,            0.,NA,NA,"",   1.00178E+06,   1.00098E+06,   1.00098E+06
C:/temp/Job-1.odb,Step-1,Increment      1: Step Time =    1.000,"P-1-1",           986,   166.493E-03,   14.0918E-03,            0.,NA,NA,"",   1.00239E+06,   1.00124E+06,   1.00124E+06
C:/temp/Job-1.odb,Step-1,Increment      1: Step Time =    1.000,"P-1-1",           987,   163.020E-03,   12.8131E-03,            0.,NA,NA,"",   1.00132E+06,   1.00016E+06,   1.00016E+06
C:/temp/Job-1.odb,Step-1,Increment      1: Step Time =    1.000,"P-1-1",           988,   160.397E-03,   12.8195E-03,            0.,NA,NA,"",   1.00102E+06,   999.748E+03,   999.748E+03
C:/temp/Job-1.odb,Step-1,Increment      1: Step Time =    1.000,"P-1-1",           989,   158.252E-03,   13.0488E-03,            0.,NA,NA,"",   1.00097E+06,   999.559E+03,   999.559E+03
C:/temp/Job-1.odb,Step-1,Increment      1: Step Time =    1.000,"P-1-1",           990,   155.249E-03,   14.1062E-03,            0.,NA,NA,"",   1.00174E+06,   999.975E+03,   999.975E+03
C:/temp/Job-1.odb,Step-1,Increment      1: Step Time =    1.000,"P-1-1",           991,   150.746E-03,   12.1378E-03,            0.,NA,NA,"",   997.831E+03,   996.404E+03,   996.404E+03
C:/temp/Job-1.odb,Step-1,Increment      1: Step Time =    1.000,"P-1-1",           992,   147.778E-03,   12.3703E-03,            0.,NA,NA,"",   996.918E+03,   995.432E+03,   995.432E+03
C:/temp/Job-1.odb,Step-1,Increment      1: Step Time =    1.000,"P-1-1",           993,   144.866E-03,   12.4549E-03,            0.,NA,NA,"",   995.583E+03,   994.114E+03,   994.114E+03
C:/temp/Job-1.odb,Step-1,Increment      1: Step Time =    1.000,"P-1-1",           994,   141.133E-03,   12.9136E-03,            0.,NA,NA,"",   993.967E+03,   992.548E+03,   992.548E+03
C:/temp/Job-1.odb,Step-1,Increment      1: Step Time =    1.000,"P-1-1",           995,   137.406E-03,   14.2333E-03,            0.,NA,NA,"",   994.168E+03,   992.765E+03,   992.765E+03
C:/temp/Job-1.odb,Step-1,Increment      1: Step Time =    1.000,"P-1-1",           996,   134.387E-03,   13.0300E-03,            0.,NA,NA,"",   989.446E+03,   988.490E+03,   988.490E+03
C:/temp/Job-1.odb,Step-1,Increment      1: Step Time =    1.000,"P-1-1",           997,   131.114E-03,   13.6345E-03,            0.,NA,NA,"",   988.012E+03,   987.369E+03,   987.369E+03
C:/temp/Job-1.odb,Step-1,Increment      1: Step Time =    1.000,"P-1-1",           998,   127.680E-03,   14.0325E-03,            0.,NA,NA,"",   985.918E+03,   985.726E+03,   985.726E+03
C:/temp/Job-1.odb,Step-1,Increment      1: Step Time =    1.000,"P-1-1",           999,   124.303E-03,   12.7052E-03,            0.,NA,NA,"",   979.530E+03,   979.808E+03,   979.808E+03
C:/temp/Job-1.odb,Step-1,Increment      1: Step Time =    1.000,"P-1-1",          1000,   120.035E-03,   12.2149E-03,            0.,NA,NA,"",   974.498E+03,   975.379E+03,   975.379E+03
C:/temp/Job-1.odb,Step-1,Increment      1: Step Time =    1.000,"P-1-1",          1001,   117.662E-03,   12.1931E-03,            0.,NA,NA,"",   972.300E+03,   973.394E+03,   973.394E+03
C:/temp/Job-1.odb,Step-1,Increment      1: Step Time =    1.000,"P-1-1",          1002,   114.690E-03,   12.2849E-03,            0.,NA,NA,"",   969.945E+03,   971.446E+03,   971.446E+03
C:/temp/Job-1.odb,Step-1,Increment      1: Step Time =    1.000,"P-1-1",          1003,   111.669E-03,   12.1817E-03,            0.,NA,NA,"",   967.495E+03,   969.340E+03,   969.340E+03
C:/temp/Job-1.odb,Step-1,Increment      1: Step Time =    1.000,"P-1-1",          1004,   108.710E-03,   12.4572E-03,            0.,NA,NA,"",    966.33E+03,   968.537E+03,   968.537E+03
C:/temp/Job-1.odb,Step-1,Increment      1: Step Time =    1.000,"P-1-1",          1005,   105.503E-03,   13.2366E-03,            0.,NA,NA,"",   967.115E+03,   969.920E+03,   969.920E+03
C:/temp/Job-1.odb,Step-1,Increment      1: Step Time =    1.000,"P-1-1",          1006,   102.037E-03,   12.8744E-03,            0.,NA,NA,"",   965.133E+03,   967.992E+03,   967.992E+03
C:/temp/Job-1.odb,Step-1,Increment      1: Step Time =    1.000,"P-1-1",          1007,   97.7742E-03,   14.0985E-03,            0.,NA,NA,"",   968.346E+03,   971.759E+03,   971.759E+03
C:/temp/Job-1.odb,Step-1,Increment      1: Step Time =    1.000,"P-1-1",          1008,   94.6362E-03,   13.1466E-03,            0.,NA,NA,"",   966.538E+03,   969.417E+03,   969.417E+03
C:/temp/Job-1.odb,Step-1,Increment      1: Step Time =    1.000,"P-1-1",          1009,   92.7949E-03,   12.7451E-03,            0.,NA,NA,"",   966.106E+03,   968.855E+03,   968.855E+03
C:/temp/Job-1.odb,Step-1,Increment      1: Step Time =    1.000,"P-1-1",          1010,   88.5693E-03,   12.0595E-03,            0.,NA,NA,"",   966.081E+03,   968.259E+03,   968.259E+03
C:/temp/Job-1.odb,Step-1,Increment      1: Step Time =    1.000,"P-1-1",          1011,   84.8744E-03,   12.7108E-03,            0.,NA,NA,"",   970.595E+03,   972.622E+03,   972.622E+03
C:/temp/Job-1.odb,Step-1,Increment      1: Step Time =    1.000,"P-1-1",          1012,   81.4398E-03,   12.9032E-03,            0.,NA,NA,"",   974.405E+03,   976.116E+03,   976.116E+03
C:/temp/Job-1.odb,Step-1,Increment      1: Step Time =    1.000,"P-1-1",          1013,   78.8294E-03,   12.6905E-03,            0.,NA,NA,"",   976.445E+03,   977.886E+03,   977.886E+03
C:/temp/Job-1.odb,Step-1,Increment      1: Step Time =    1.000,"P-1-1",          1014,   75.7120E-03,   13.3793E-03,            0.,NA,NA,"",   982.425E+03,   983.710E+03,   983.710E+03
C:/temp/Job-1.odb,Step-1,Increment      1: Step Time =    1.000,"P-1-1",          1015,   72.2222E-03,   12.5229E-03,            0.,NA,NA,"",   983.559E+03,   984.330E+03,   984.330E+03
C:/temp/Job-1.odb,Step-1,Increment      1: Step Time =    1.000,"P-1-1",          1016,   69.3668E-03,   13.8622E-03,            0.,NA,NA,"",   991.783E+03,   992.547E+03,   992.547E+03
C:/temp/Job-1.odb,Step-1,Increment      1: Step Time =    1.000,"P-1-1",          1017,   65.0123E-03,   13.7393E-03,            0.,NA,NA,"",   996.904E+03,   997.461E+03,   997.461E+03
C:/temp/Job-1.odb,Step-1,Increment      1: Step Time =    1.000,"P-1-1",          1018,   61.6125E-03,   14.0812E-03,            0.,NA,NA,"",   1.00282E+06,   1.00341E+06,   1.00341E+06
C:/temp/Job-1.odb,Step-1,Increment      1: Step Time =    1.000,"P-1-1",          1019,   58.6551E-03,   13.7310E-03,            0.,NA,NA,"",   1.00607E+06,   1.00674E+06,   1.00674E+06
C:/temp/Job-1.odb,Step-1,Increment      1: Step Time =    1.000,"P-1-1",          1020,   54.7116E-03,   12.5265E-03,            0.,NA,NA,"",   1.00809E+06,   1.00882E+06,   1.00882E+06
C:/temp/Job-1.odb,Step-1,Increment      1: Step Time =    1.000,"P-1-1",          1021,   52.2147E-03,   12.4121E-03,            0.,NA,NA,"",   1.01146E+06,   1.01243E+06,   1.01243E+06
C:/temp/Job-1.odb,Step-1,Increment      1: Step Time =    1.000,"P-1-1",          1022,   49.3898E-03,   12.7574E-03,            0.,NA,NA,"",   1.01758E+06,   1.01901E+06,   1.01901E+06
C:/temp/Job-1.odb,Step-1,Increment      1: Step Time =    1.000,"P-1-1",          1023,   46.5404E-03,   13.3051E-03,            0.,NA,NA,"",   1.02442E+06,   1.02665E+06,   1.02665E+06
C:/temp/Job-1.odb,Step-1,Increment      1: Step Time =    1.000,"P-1-1",          1024,   42.0544E-03,   12.9004E-03,            0.,NA,NA,"",   1.03267E+06,   1.03592E+06,   1.03592E+06
C:/temp/Job-1.odb,Step-1,Increment      1: Step Time =    1.000,"P-1-1",          1025,   38.6080E-03,   13.9929E-03,            0.,NA,NA,"",   1.04291E+06,   1.04814E+06,   1.04814E+06
C:/temp/Job-1.odb,Step-1,Increment      1: Step Time =    1.000,"P-1-1",          1026,   35.6597E-03,   14.3147E-03,            0.,NA,NA,"",   1.05080E+06,   1.05775E+06,   1.05775E+06
C:/temp/Job-1.odb,Step-1,Increment      1: Step Time =    1.000,"P-1-1",          1027,   32.2104E-03,   12.0798E-03,            0.,NA,NA,"",   1.05729E+06,   1.06401E+06,   1.06401E+06
C:/temp/Job-1.odb,Step-1,Increment      1: Step Time =    1.000,"P-1-1",          1028,   29.5371E-03,   12.0531E-03,            0.,NA,NA,"",   1.06657E+06,   1.07510E+06,   1.07510E+06
C:/temp/Job-1.odb,Step-1,Increment      1: Step Time =    1.000,"P-1-1",          1029,   26.6208E-03,   12.4267E-03,            0.,NA,NA,"",   1.07828E+06,   1.08965E+06,   1.08965E+06
C:/temp/Job-1.odb,Step-1,Increment      1: Step Time =    1.000,"P-1-1",          1030,   23.4681E-03,   12.4126E-03,            0.,NA,NA,"",   1.09173E+06,   1.10665E+06,   1.10665E+06
C:/temp/Job-1.odb,Step-1,Increment      1: Step Time =    1.000,"P-1-1",          1031,   19.8617E-03,   12.9531E-03,            0.,NA,NA,"",   1.10601E+06,   1.12811E+06,   1.12811E+06
C:/temp/Job-1.odb,Step-1,Increment      1: Step Time =    1.000,"P-1-1",          1032,   16.4021E-03,   12.6015E-03,            0.,NA,NA,"",   1.12299E+06,   1.15206E+06,   1.15206E+06
C:/temp/Job-1.odb,Step-1,Increment      1: Step Time =    1.000,"P-1-1",          1033,   13.2247E-03,   12.6577E-03,            0.,NA,NA,"",   1.13237E+06,   1.17174E+06,   1.17174E+06
C:/temp/Job-1.odb,Step-1,Increment      1: Step Time =    1.000,"P-1-1",          1034,   9.02864E-03,   13.1317E-03,            0.,NA,NA,"",   1.12799E+06,   1.18906E+06,   1.18906E+06
C:/temp/Job-1.odb,Step-1,Increment      1: Step Time =    1.000,"P-1-1",          1035,   5.94963E-03,   12.9473E-03,            0.,NA,NA,"",   1.11518E+06,   1.19479E+06,   1.19479E+06
C:/temp/Job-1.odb,Step-1,Increment      1: Step Time =    1.000,"P-1-1",          1036,   2.96080E-03,   14.1769E-03,            0.,NA,NA,"",   1.06674E+06,   1.16648E+06,   1.16648E+06
C:/temp/Job-1.odb,Step-1,Increment      1: Step Time =    1.000,"P-1-1",          1037,   197.263E-03,   16.9742E-03,            0.,NA,NA,"",   1.00035E+06,   1.00003E+06,   1.00003E+06
C:/temp/Job-1.odb,Step-1,Increment      1: Step Time =    1.000,"P-1-1",          1038,   194.437E-03,   15.4873E-03,            0.,NA,NA,"",   1.00026E+06,   1.00010E+06,   1.00010E+06
C:/temp/Job-1.odb,Step-1,Increment      1: Step Time =    1.000,"P-1-1",          1039,   190.363E-03,   17.3153E-03,            0.,NA,NA,"",   1.00050E+06,   1.00044E+06,   1.00044E+06
C:/temp/Job-1.odb,Step-1,Increment      1: Step Time =    1.000,"P-1-1",          1040,   187.164E-03,   17.0462E-03,            0.,NA,NA,"",   1.00081E+06,   1.00071E+06,   1.00071E+06
C:/temp/Job-1.odb,Step-1,Increment      1: Step Time =    1.000,"P-1-1",          1041,   182.464E-03,   16.6273E-03,            0.,NA,NA,"",   1.00146E+06,   1.00118E+06,   1.00118E+06
C:/temp/Job-1.odb,Step-1,Increment      1: Step Time =    1.000,"P-1-1",          1042,   179.624E-03,   15.8164E-03,            0.,NA,NA,"",   1.00171E+06,   1.00130E+06,   1.00130E+06
C:/temp/Job-1.odb,Step-1,Increment      1: Step Time =    1.000,"P-1-1",          1043,   176.208E-03,   15.5749E-03,            0.,NA,NA,"",   1.00217E+06,   1.00155E+06,   1.00155E+06
C:/temp/Job-1.odb,Step-1,Increment      1: Step Time =    1.000,"P-1-1",          1044,   174.494E-03,   16.4549E-03,            0.,NA,NA,"",   1.00289E+06,   1.00207E+06,   1.00207E+06
C:/temp/Job-1.odb,Step-1,Increment      1: Step Time =    1.000,"P-1-1",          1045,   170.696E-03,   16.4822E-03,            0.,NA,NA,"",   1.00358E+06,   1.00244E+06,   1.00244E+06
C:/temp/Job-1.odb,Step-1,Increment      1: Step Time =    1.000,"P-1-1",          1046,   168.005E-03,   16.5953E-03,            0.,NA,NA,"",   1.00409E+06,   1.00270E+06,   1.00270E+06
C:/temp/Job-1.odb,Step-1,Increment      1: Step Time =    1.000,"P-1-1",          1047,   163.736E-03,   15.9621E-03,            0.,NA,NA,"",   1.00414E+06,   1.00249E+06,   1.00249E+06
C:/temp/Job-1.odb,Step-1,Increment      1: Step Time =    1.000,"P-1-1",          1048,   160.592E-03,   15.8063E-03,            0.,NA,NA,"",   1.00407E+06,   1.00223E+06,   1.00223E+06
C:/temp/Job-1.odb,Step-1,Increment      1: Step Time =    1.000,"P-1-1",          1049,   157.645E-03,   16.4745E-03,            0.,NA,NA,"",   1.00486E+06,   1.00268E+06,   1.00268E+06
C:/temp/Job-1.odb,Step-1,Increment      1: Step Time =    1.000,"P-1-1",          1050,   154.412E-03,   16.8131E-03,            0.,NA,NA,"",   1.00515E+06,   1.00273E+06,   1.00273E+06
C:/temp/Job-1.odb,Step-1,Increment      1: Step Time =    1.000,"P-1-1",          1051,   151.006E-03,   16.1791E-03,            0.,NA,NA,"",   1.00379E+06,   1.00143E+06,   1.00143E+06
C:/temp/Job-1.odb,Step-1,Increment      1: Step Time =    1.000,"P-1-1",          1052,   147.756E-03,   15.6881E-03,            0.,NA,NA,"",   1.00209E+06,   999.858E+03,   999.858E+03
C:/temp/Job-1.odb,Step-1,Increment      1: Step Time =    1.000,"P-1-1",          1053,   144.808E-03,   15.7246E-03,            0.,NA,NA,"",   1.00100E+06,   998.831E+03,   998.831E+03
C:/temp/Job-1.odb,Step-1,Increment      1: Step Time =    1.000,"P-1-1",          1054,   141.303E-03,   15.6519E-03,            0.,NA,NA,"",   999.305E+03,   997.313E+03,   997.313E+03
C:/temp/Job-1.odb,Step-1,Increment      1: Step Time =    1.000,"P-1-1",          1055,   137.951E-03,   17.1072E-03,            0.,NA,NA,"",   1.00048E+06,   998.467E+03,   998.467E+03
C:/temp/Job-1.odb,Step-1,Increment      1: Step Time =    1.000,"P-1-1",          1056,   134.960E-03,   16.2544E-03,            0.,NA,NA,"",   996.813E+03,   995.335E+03,   995.335E+03
C:/temp/Job-1.odb,Step-1,Increment      1: Step Time =    1.000,"P-1-1",          1057,   131.429E-03,   18.1614E-03,            0.,NA,NA,"",   998.486E+03,   997.353E+03,   997.353E+03
C:/temp/Job-1.odb,Step-1,Increment      1: Step Time =    1.000,"P-1-1",          1058,   129.295E-03,   17.2164E-03,            0.,NA,NA,"",   994.816E+03,   994.189E+03,   994.189E+03
C:/temp/Job-1.odb,Step-1,Increment      1: Step Time =    1.000,"P-1-1",          1059,   124.447E-03,   16.2705E-03,            0.,NA,NA,"",   988.397E+03,   988.815E+03,   988.815E+03
C:/temp/Job-1.odb,Step-1,Increment      1: Step Time =    1.000,"P-1-1",          1060,   120.275E-03,   16.8386E-03,            0.,NA,NA,"",   986.112E+03,   987.523E+03,   987.523E+03
C:/temp/Job-1.odb,Step-1,Increment      1: Step Time =    1.000,"P-1-1",          1061,   118.022E-03,   15.2860E-03,            0.,NA,NA,"",   980.232E+03,   981.857E+03,   981.857E+03
C:/temp/Job-1.odb,Step-1,Increment      1: Step Time =    1.000,"P-1-1",          1062,   113.719E-03,   14.9751E-03,            0.,NA,NA,"",   976.199E+03,   978.553E+03,   978.553E+03
C:/temp/Job-1.odb,Step-1,Increment      1: Step Time =    1.000,"P-1-1",          1063,   111.774E-03,   14.7735E-03,            0.,NA,NA,"",   974.371E+03,   976.972E+03,   976.972E+03
C:/temp/Job-1.odb,Step-1,Increment      1: Step Time =    1.000,"P-1-1",          1064,   108.773E-03,   16.2832E-03,            0.,NA,NA,"",   976.334E+03,   979.967E+03,   979.967E+03
C:/temp/Job-1.odb,Step-1,Increment      1: Step Time =    1.000,"P-1-1",          1065,   105.099E-03,   17.0989E-03,            0.,NA,NA,"",   976.789E+03,   981.273E+03,   981.273E+03
C:/temp/Job-1.odb,Step-1,Increment      1: Step Time =    1.000,"P-1-1",          1066,   102.252E-03,   16.0069E-03,            0.,NA,NA,"",   973.515E+03,   977.693E+03,   977.693E+03
C:/temp/Job-1.odb,Step-1,Increment      1: Step Time =    1.000,"P-1-1",          1067,   98.2034E-03,   16.9190E-03,            0.,NA,NA,"",   975.818E+03,   980.571E+03,   980.571E+03
C:/temp/Job-1.odb,Step-1,Increment      1: Step Time =    1.000,"P-1-1",          1068,   95.1939E-03,   16.2274E-03,            0.,NA,NA,"",   974.669E+03,   979.024E+03,   979.024E+03
C:/temp/Job-1.odb,Step-1,Increment      1: Step Time =    1.000,"P-1-1",          1069,   92.2179E-03,   15.5763E-03,            0.,NA,NA,"",   974.443E+03,   978.350E+03,   978.350E+03
C:/temp/Job-1.odb,Step-1,Increment      1: Step Time =    1.000,"P-1-1",          1070,   89.1038E-03,   15.1446E-03,            0.,NA,NA,"",   974.959E+03,   978.328E+03,   978.328E+03
C:/temp/Job-1.odb,Step-1,Increment      1: Step Time =    1.000,"P-1-1",          1071,   84.8745E-03,   16.7792E-03,            0.,NA,NA,"",   983.015E+03,   986.486E+03,   986.486E+03
C:/temp/Job-1.odb,Step-1,Increment      1: Step Time =    1.000,"P-1-1",          1072,   82.3089E-03,   15.5891E-03,            0.,NA,NA,"",   982.025E+03,   984.676E+03,   984.676E+03
C:/temp/Job-1.odb,Step-1,Increment      1: Step Time =    1.000,"P-1-1",          1073,   79.2682E-03,   16.3200E-03,            0.,NA,NA,"",   987.710E+03,   990.157E+03,   990.157E+03
C:/temp/Job-1.odb,Step-1,Increment      1: Step Time =    1.000,"P-1-1",          1074,   76.2615E-03,   16.5321E-03,            0.,NA,NA,"",   991.649E+03,   993.604E+03,   993.604E+03
C:/temp/Job-1.odb,Step-1,Increment      1: Step Time =    1.000,"P-1-1",          1075,   72.6668E-03,   15.9326E-03,            0.,NA,NA,"",   994.176E+03,   995.565E+03,   995.565E+03
C:/temp/Job-1.odb,Step-1,Increment      1: Step Time =    1.000,"P-1-1",          1076,   69.3097E-03,   16.4662E-03,            0.,NA,NA,"",   999.918E+03,   1.00108E+06,   1.00108E+06
C:/temp/Job-1.odb,Step-1,Increment      1: Step Time =    1.000,"P-1-1",          1077,   66.0286E-03,   17.7646E-03,            0.,NA,NA,"",   1.00836E+06,   1.00950E+06,   1.00950E+06
C:/temp/Job-1.odb,Step-1,Increment      1: Step Time =    1.000,"P-1-1",          1078,   61.7643E-03,   16.9891E-03,            0.,NA,NA,"",   1.01169E+06,   1.01262E+06,   1.01262E+06
C:/temp/Job-1.odb,Step-1,Increment      1: Step Time =    1.000,"P-1-1",          1079,   59.6486E-03,   15.8722E-03,            0.,NA,NA,"",   1.01114E+06,   1.01205E+06,   1.01205E+06
C:/temp/Job-1.odb,Step-1,Increment      1: Step Time =    1.000,"P-1-1",          1080,   55.4133E-03,   15.8019E-03,            0.,NA,NA,"",   1.01695E+06,   1.01816E+06,   1.01816E+06
C:/temp/Job-1.odb,Step-1,Increment      1: Step Time =    1.000,"P-1-1",          1081,   52.7303E-03,   16.6334E-03,            0.,NA,NA,"",   1.02312E+06,   1.02498E+06,   1.02498E+06
C:/temp/Job-1.odb,Step-1,Increment      1: Step Time =    1.000,"P-1-1",          1082,   49.7105E-03,   15.9769E-03,            0.,NA,NA,"",   1.02599E+06,   1.02833E+06,   1.02833E+06
C:/temp/Job-1.odb,Step-1,Increment      1: Step Time =    1.000,"P-1-1",          1083,   46.9172E-03,   16.4411E-03,            0.,NA,NA,"",   1.03166E+06,   1.03502E+06,   1.03502E+06
C:/temp/Job-1.odb,Step-1,Increment      1: Step Time =    1.000,"P-1-1",          1084,   42.5494E-03,   15.9322E-03,            0.,NA,NA,"",   1.03804E+06,   1.04280E+06,   1.04280E+06
C:/temp/Job-1.odb,Step-1,Increment      1: Step Time =    1.000,"P-1-1",          1085,   39.5076E-03,   16.2659E-03,            0.,NA,NA,"",   1.04466E+06,   1.05114E+06,   1.05114E+06
C:/temp/Job-1.odb,Step-1,Increment      1: Step Time =    1.000,"P-1-1",          1086,   36.0027E-03,   17.3976E-03,            0.,NA,NA,"",   1.05287E+06,   1.06267E+06,   1.06267E+06
C:/temp/Job-1.odb,Step-1,Increment      1: Step Time =    1.000,"P-1-1",          1087,   33.2532E-03,   16.3551E-03,            0.,NA,NA,"",   1.05857E+06,   1.06939E+06,   1.06939E+06
C:/temp/Job-1.odb,Step-1,Increment      1: Step Time =    1.000,"P-1-1",          1088,   29.5501E-03,   16.2219E-03,            0.,NA,NA,"",   1.06696E+06,   1.08126E+06,   1.08126E+06
C:/temp/Job-1.odb,Step-1,Increment      1: Step Time =    1.000,"P-1-1",          1089,   25.8142E-03,   15.7486E-03,            0.,NA,NA,"",   1.07780E+06,   1.09621E+06,   1.09621E+06
C:/temp/Job-1.odb,Step-1,Increment      1: Step Time =    1.000,"P-1-1",          1090,   23.2652E-03,   16.3809E-03,            0.,NA,NA,"",   1.08222E+06,   1.10588E+06,   1.10588E+06
C:/temp/Job-1.odb,Step-1,Increment      1: Step Time =    1.000,"P-1-1",          1091,   19.6131E-03,   15.5640E-03,            0.,NA,NA,"",   1.09414E+06,   1.12339E+06,   1.12339E+06
C:/temp/Job-1.odb,Step-1,Increment      1: Step Time =    1.000,"P-1-1",          1092,   15.7406E-03,   16.0230E-03,            0.,NA,NA,"",   1.09627E+06,   1.13806E+06,   1.13806E+06
C:/temp/Job-1.odb,Step-1,Increment      1: Step Time =    1.000,"P-1-1",          1093,   13.5132E-03,   15.4640E-03,            0.,NA,NA,"",   1.10320E+06,   1.15055E+06,   1.15055E+06
C:/temp/Job-1.odb,Step-1,Increment      1: Step Time =    1.000,"P-1-1",          1094,   10.4552E-03,   16.2662E-03,            0.,NA,NA,"",   1.08831E+06,    1.1516E+06,    1.1516E+06
C:/temp/Job-1.odb,Step-1,Increment      1: Step Time =    1.000,"P-1-1",          1095,   5.92898E-03,   15.9092E-03,            0.,NA,NA,"",   1.06833E+06,   1.15384E+06,   1.15384E+06
C:/temp/Job-1.odb,Step-1,Increment      1: Step Time =    1.000,"P-1-1",          1096,   2.94749E-03,   17.2363E-03,            0.,NA,NA,"",   1.02625E+06,   1.12745E+06,   1.12745E+06
C:/temp/Job-1.odb,Step-1,Increment      1: Step Time =    1.000,"P-1-1",          1097,   197.118E-03,   19.9849E-03,            0.,NA,NA,"",   1.00038E+06,   1.00007E+06,   1.00007E+06
C:/temp/Job-1.odb,Step-1,Increment      1: Step Time =    1.000,"P-1-1",          1098,   194.484E-03,   19.5643E-03,            0.,NA,NA,"",   1.00033E+06,   1.00020E+06,   1.00020E+06
C:/temp/Job-1.odb,Step-1,Increment      1: Step Time =    1.000,"P-1-1",          1099,   190.591E-03,   20.1625E-03,            0.,NA,NA,"",   1.00065E+06,   1.00062E+06,   1.00062E+06
C:/temp/Job-1.odb,Step-1,Increment      1: Step Time =    1.000,"P-1-1",          1100,   187.129E-03,   19.6037E-03,            0.,NA,NA,"",   1.00114E+06,   1.00105E+06,   1.00105E+06
C:/temp/Job-1.odb,Step-1,Increment      1: Step Time =    1.000,"P-1-1",          1101,   182.877E-03,   19.6354E-03,            0.,NA,NA,"",   1.00208E+06,   1.00177E+06,   1.00177E+06
C:/temp/Job-1.odb,Step-1,Increment      1: Step Time =    1.000,"P-1-1",          1102,   180.545E-03,   19.6729E-03,            0.,NA,NA,"",   1.00270E+06,   1.00221E+06,   1.00221E+06
C:/temp/Job-1.odb,Step-1,Increment      1: Step Time =    1.000,"P-1-1",          1103,   176.930E-03,   20.1011E-03,            0.,NA,NA,"",   1.00390E+06,   1.00304E+06,   1.00304E+06
C:/temp/Job-1.odb,Step-1,Increment      1: Step Time =    1.000,"P-1-1",          1104,   173.812E-03,   19.1456E-03,            0.,NA,NA,"",   1.00442E+06,   1.00330E+06,   1.00330E+06
C:/temp/Job-1.odb,Step-1,Increment      1: Step Time =    1.000,"P-1-1",          1105,   170.683E-03,   19.2254E-03,            0.,NA,NA,"",   1.00544E+06,   1.00394E+06,   1.00394E+06
C:/temp/Job-1.odb,Step-1,Increment      1: Step Time =    1.000,"P-1-1",          1106,   167.880E-03,   19.2926E-03,            0.,NA,NA,"",   1.00622E+06,   1.00440E+06,   1.00440E+06
C:/temp/Job-1.odb,Step-1,Increment      1: Step Time =    1.000,"P-1-1",          1107,   163.516E-03,   18.4853E-03,            0.,NA,NA,"",   1.00655E+06,   1.00440E+06,   1.00440E+06
C:/temp/Job-1.odb,Step-1,Increment      1: Step Time =    1.000,"P-1-1",          1108,   161.085E-03,   19.9976E-03,            0.,NA,NA,"",   1.00862E+06,   1.00591E+06,   1.00591E+06
C:/temp/Job-1.odb,Step-1,Increment      1: Step Time =    1.000,"P-1-1",          1109,   157.710E-03,   19.9122E-03,            0.,NA,NA,"",   1.00920E+06,   1.00620E+06,   1.00620E+06
C:/temp/Job-1.odb,Step-1,Increment      1: Step Time =    1.000,"P-1-1",          1110,   154.453E-03,   19.9585E-03,            0.,NA,NA,"",   1.00966E+06,   1.00642E+06,   1.00642E+06
C:/temp/Job-1.odb,Step-1,Increment      1: Step Time =    1.000,"P-1-1",          1111,   151.276E-03,   19.9962E-03,            0.,NA,NA,"",   1.00985E+06,   1.00646E+06,   1.00646E+06
C:/temp/Job-1.odb,Step-1,Increment      1: Step Time =    1.000,"P-1-1",          1112,   147.458E-03,   19.1285E-03,            0.,NA,NA,"",   1.00814E+06,   1.00497E+06,   1.00497E+06
C:/temp/Job-1.odb,Step-1,Increment      1: Step Time =    1.000,"P-1-1",          1113,   143.417E-03,   19.8308E-03,            0.,NA,NA,"",   1.00841E+06,   1.00523E+06,   1.00523E+06
C:/temp/Job-1.odb,Step-1,Increment      1: Step Time =    1.000,"P-1-1",          1114,   140.846E-03,   18.2889E-03,            0.,NA,NA,"",   1.00428E+06,   1.00172E+06,   1.00172E+06
C:/temp/Job-1.odb,Step-1,Increment      1: Step Time =    1.000,"P-1-1",          1115,   137.883E-03,   20.1248E-03,            0.,NA,NA,"",   1.00702E+06,   1.00435E+06,   1.00435E+06
C:/temp/Job-1.odb,Step-1,Increment      1: Step Time =    1.000,"P-1-1",          1116,   136.120E-03,   19.5520E-03,            0.,NA,NA,"",   1.00491E+06,   1.00265E+06,   1.00265E+06
C:/temp/Job-1.odb,Step-1,Increment      1: Step Time =    1.000,"P-1-1",          1117,   130.892E-03,   20.3453E-03,            0.,NA,NA,"",   1.00328E+06,   1.00201E+06,   1.00201E+06
C:/temp/Job-1.odb,Step-1,Increment      1: Step Time =    1.000,"P-1-1",          1118,   128.148E-03,   20.2909E-03,            0.,NA,NA,"",   1.00111E+06,   1.00060E+06,   1.00060E+06
C:/temp/Job-1.odb,Step-1,Increment      1: Step Time =    1.000,"P-1-1",          1119,   125.157E-03,   19.6344E-03,            0.,NA,NA,"",   997.102E+03,   997.465E+03,   997.465E+03
C:/temp/Job-1.odb,Step-1,Increment      1: Step Time =    1.000,"P-1-1",          1120,   120.507E-03,   19.7228E-03,            0.,NA,NA,"",   993.184E+03,   994.986E+03,   994.986E+03
C:/temp/Job-1.odb,Step-1,Increment      1: Step Time =    1.000,"P-1-1",          1121,   117.782E-03,   19.0739E-03,            0.,NA,NA,"",   989.440E+03,   991.924E+03,   991.924E+03
C:/temp/Job-1.odb,Step-1,Increment      1: Step Time =    1.000,"P-1-1",          1122,   114.744E-03,   19.0477E-03,            0.,NA,NA,"",   986.898E+03,   990.248E+03,   990.248E+03
C:/temp/Job-1.odb,Step-1,Increment      1: Step Time =    1.000,"P-1-1",          1123,   111.703E-03,   19.2511E-03,            0.,NA,NA,"",   985.012E+03,   989.242E+03,   989.242E+03
C:/temp/Job-1.odb,Step-1,Increment      1: Step Time =    1.000,"P-1-1",          1124,   108.637E-03,   19.3631E-03,            0.,NA,NA,"",   983.430E+03,   988.388E+03,   988.388E+03
C:/temp/Job-1.odb,Step-1,Increment      1: Step Time =    1.000,"P-1-1",          1125,   105.484E-03,   19.2517E-03,            0.,NA,NA,"",   981.818E+03,   987.283E+03,   987.283E+03
C:/temp/Job-1.odb,Step-1,Increment      1: Step Time =    1.000,"P-1-1",          1126,   101.381E-03,   20.8566E-03,            0.,NA,NA,"",   984.637E+03,   991.511E+03,   991.511E+03
C:/temp/Job-1.odb,Step-1,Increment      1: Step Time =    1.000,"P-1-1",          1127,   98.5089E-03,   19.7424E-03,            0.,NA,NA,"",   982.381E+03,   988.692E+03,   988.692E+03
C:/temp/Job-1.odb,Step-1,Increment      1: Step Time =    1.000,"P-1-1",          1128,   95.4545E-03,   18.9790E-03,            0.,NA,NA,"",   981.502E+03,   987.289E+03,   987.289E+03
C:/temp/Job-1.odb,Step-1,Increment      1: Step Time =    1.000,"P-1-1",          1129,   92.4537E-03,   19.6634E-03,            0.,NA,NA,"",   984.561E+03,    990.51E+03,    990.51E+03
C:/temp/Job-1.odb,Step-1,Increment      1: Step Time =    1.000,"P-1-1",          1130,   89.4492E-03,   19.3564E-03,            0.,NA,NA,"",   985.819E+03,   991.148E+03,   991.148E+03
C:/temp/Job-1.odb,Step-1,Increment      1: Step Time =    1.000,"P-1-1",          1131,   86.0573E-03,   19.4837E-03,            0.,NA,NA,"",   989.323E+03,   994.180E+03,   994.180E+03
C:/temp/Job-1.odb,Step-1,Increment      1: Step Time =    1.000,"P-1-1",          1132,   82.2245E-03,   18.6525E-03,            0.,NA,NA,"",   990.937E+03,   994.564E+03,   994.564E+03
C:/temp/Job-1.odb,Step-1,Increment      1: Step Time =    1.000,"P-1-1",          1133,   78.9012E-03,   19.0178E-03,            0.,NA,NA,"",   995.767E+03,   998.911E+03,   998.911E+03
C:/temp/Job-1.odb,Step-1,Increment      1: Step Time =    1.000,"P-1-1",          1134,   75.9988E-03,   19.4219E-03,            0.,NA,NA,"",   1.00060E+06,   1.00337E+06,   1.00337E+06
C:/temp/Job-1.odb,Step-1,Increment      1: Step Time =    1.000,"P-1-1",          1135,   72.3519E-03,   20.1211E-03,            0.,NA,NA,"",   1.00708E+06,   1.00929E+06,   1.00929E+06
C:/temp/Job-1.odb,Step-1,Increment      1: Step Time =    1.000,"P-1-1",          1136,   69.0954E-03,   19.8378E-03,            0.,NA,NA,"",   1.01039E+06,   1.01207E+06,   1.01207E+06
C:/temp/Job-1.odb,Step-1,Increment      1: Step Time =    1.000,"P-1-1",          1137,   65.7638E-03,   21.2729E-03,            0.,NA,NA,"",   1.01871E+06,   1.02041E+06,   1.02041E+06
C:/temp/Job-1.odb,Step-1,Increment      1: Step Time =    1.000,"P-1-1",          1138,   63.0339E-03,   19.5822E-03,            0.,NA,NA,"",   1.01732E+06,   1.01861E+06,   1.01861E+06
C:/temp/Job-1.odb,Step-1,Increment      1: Step Time =    1.000,"P-1-1",          1139,   58.6755E-03,   19.9351E-03,            0.,NA,NA,"",   1.02383E+06,   1.02551E+06,   1.02551E+06
C:/temp/Job-1.odb,Step-1,Increment      1: Step Time =    1.000,"P-1-1",          1140,   54.6083E-03,   18.7381E-03,            0.,NA,NA,"",   1.02603E+06,   1.02807E+06,   1.02807E+06
C:/temp/Job-1.odb,Step-1,Increment      1: Step Time =    1.000,"P-1-1",          1141,   52.2887E-03,   19.4881E-03,            0.,NA,NA,"",   1.03070E+06,   1.03359E+06,   1.03359E+06
C:/temp/Job-1.odb,Step-1,Increment      1: Step Time =    1.000,"P-1-1",          1142,   49.3341E-03,   19.1955E-03,            0.,NA,NA,"",   1.03380E+06,   1.03742E+06,   1.03742E+06
C:/temp/Job-1.odb,Step-1,Increment      1: Step Time =    1.000,"P-1-1",          1143,   47.2534E-03,   19.1662E-03,            0.,NA,NA,"",   1.03638E+06,   1.04085E+06,   1.04085E+06
C:/temp/Job-1.odb,Step-1,Increment      1: Step Time =    1.000,"P-1-1",          1144,   42.9522E-03,   19.2484E-03,            0.,NA,NA,"",   1.04256E+06,   1.04922E+06,   1.04922E+06
C:/temp/Job-1.odb,Step-1,Increment      1: Step Time =    1.000,"P-1-1",          1145,   39.9775E-03,   19.6221E-03,            0.,NA,NA,"",   1.04724E+06,   1.05615E+06,   1.05615E+06
C:/temp/Job-1.odb,Step-1,Increment      1: Step Time =    1.000,"P-1-1",          1146,   35.2847E-03,   20.4778E-03,            0.,NA,NA,"",   1.05393E+06,   1.06784E+06,   1.06784E+06
C:/temp/Job-1.odb,Step-1,Increment      1: Step Time =    1.000,"P-1-1",          1147,   32.4892E-03,   19.4023E-03,            0.,NA,NA,"",   1.05876E+06,   1.07436E+06,   1.07436E+06
C:/temp/Job-1.odb,Step-1,Increment      1: Step Time =    1.000,"P-1-1",          1148,   29.9540E-03,   18.7863E-03,            0.,NA,NA,"",   1.06341E+06,   1.08152E+06,   1.08152E+06
C:/temp/Job-1.odb,Step-1,Increment      1: Step Time =    1.000,"P-1-1",          1149,   25.7130E-03,   17.8735E-03,            0.,NA,NA,"",   1.07264E+06,   1.09515E+06,   1.09515E+06
C:/temp/Job-1.odb,Step-1,Increment      1: Step Time =    1.000,"P-1-1",          1150,   22.6299E-03,   19.4396E-03,            0.,NA,NA,"",   1.07126E+06,   1.10228E+06,   1.10228E+06
C:/temp/Job-1.odb,Step-1,Increment      1: Step Time =    1.000,"P-1-1",          1151,   20.0583E-03,   18.3417E-03,            0.,NA,NA,"",   1.07892E+06,   1.11370E+06,   1.11370E+06
C:/temp/Job-1.odb,Step-1,Increment      1: Step Time =    1.000,"P-1-1",          1152,   17.6354E-03,   19.1243E-03,            0.,NA,NA,"",   1.07391E+06,   1.11760E+06,   1.11760E+06
C:/temp/Job-1.odb,Step-1,Increment      1: Step Time =    1.000,"P-1-1",          1153,   13.3196E-03,   20.7538E-03,            0.,NA,NA,"",   1.05254E+06,   1.11431E+06,   1.11431E+06
C:/temp/Job-1.odb,Step-1,Increment      1: Step Time =    1.000,"P-1-1",          1154,   10.3675E-03,   20.6561E-03,            0.,NA,NA,"",   1.04112E+06,   1.11413E+06,   1.11413E+06
C:/temp/Job-1.odb,Step-1,Increment      1: Step Time =    1.000,"P-1-1",          1155,   7.42447E-03,   20.5307E-03,            0.,NA,NA,"",   1.02548E+06,   1.11029E+06,   1.11029E+06
C:/temp/Job-1.odb,Step-1,Increment      1: Step Time =    1.000,"P-1-1",          1156,   2.96613E-03,   20.3171E-03,            0.,NA,NA,"",   995.259E+03,   1.09726E+06,   1.09726E+06
C:/temp/Job-1.odb,Step-1,Increment      1: Step Time =    1.000,"P-1-1",          1157,   196.775E-03,   23.1309E-03,            0.,NA,NA,"",   1.00035E+06,   1.00012E+06,   1.00012E+06
C:/temp/Job-1.odb,Step-1,Increment      1: Step Time =    1.000,"P-1-1",          1158,   193.539E-03,   21.8332E-03,            0.,NA,NA,"",   1.00042E+06,   1.00037E+06,   1.00037E+06
C:/temp/Job-1.odb,Step-1,Increment      1: Step Time =    1.000,"P-1-1",          1159,   190.605E-03,   22.1568E-03,            0.,NA,NA,"",   1.00073E+06,   1.00076E+06,   1.00076E+06
C:/temp/Job-1.odb,Step-1,Increment      1: Step Time =    1.000,"P-1-1",          1160,   186.847E-03,   21.6917E-03,            0.,NA,NA,"",   1.00143E+06,   1.00137E+06,   1.00137E+06
C:/temp/Job-1.odb,Step-1,Increment      1: Step Time =    1.000,"P-1-1",          1161,   183.852E-03,   22.4220E-03,            0.,NA,NA,"",   1.00239E+06,   1.00214E+06,   1.00214E+06
C:/temp/Job-1.odb,Step-1,Increment      1: Step Time =    1.000,"P-1-1",          1162,   180.668E-03,   23.1016E-03,            0.,NA,NA,"",   1.00368E+06,   1.00311E+06,   1.00311E+06
C:/temp/Job-1.odb,Step-1,Increment      1: Step Time =    1.000,"P-1-1",          1163,   177.500E-03,   23.6605E-03,            0.,NA,NA,"",   1.00528E+06,   1.00427E+06,   1.00427E+06
C:/temp/Job-1.odb,Step-1,Increment      1: Step Time =    1.000,"P-1-1",          1164,   170.336E-03,   22.2262E-03,            0.,NA,NA,"",   1.00757E+06,   1.00565E+06,   1.00565E+06
C:/temp/Job-1.odb,Step-1,Increment      1: Step Time =    1.000,"P-1-1",          1165,   168.215E-03,   22.4988E-03,            0.,NA,NA,"",   1.00877E+06,   1.00647E+06,   1.00647E+06
C:/temp/Job-1.odb,Step-1,Increment      1: Step Time =    1.000,"P-1-1",          1166,   164.928E-03,   22.5084E-03,            0.,NA,NA,"",   1.01004E+06,   1.00728E+06,   1.00728E+06
C:/temp/Job-1.odb,Step-1,Increment      1: Step Time =    1.000,"P-1-1",          1167,   162.871E-03,   22.9997E-03,            0.,NA,NA,"",   1.01142E+06,   1.00826E+06,   1.00826E+06
C:/temp/Job-1.odb,Step-1,Increment      1: Step Time =    1.000,"P-1-1",          1168,   157.533E-03,   23.2562E-03,            0.,NA,NA,"",   1.01375E+06,   1.00983E+06,   1.00983E+06
C:/temp/Job-1.odb,Step-1,Increment      1: Step Time =    1.000,"P-1-1",          1169,   154.386E-03,   23.2217E-03,            0.,NA,NA,"",   1.01465E+06,   1.01044E+06,   1.01044E+06
C:/temp/Job-1.odb,Step-1,Increment      1: Step Time =    1.000,"P-1-1",          1170,   151.355E-03,   23.2833E-03,            0.,NA,NA,"",   1.01542E+06,   1.01101E+06,   1.01101E+06
C:/temp/Job-1.odb,Step-1,Increment      1: Step Time =    1.000,"P-1-1",          1171,   148.388E-03,   23.2338E-03,            0.,NA,NA,"",   1.01557E+06,   1.01115E+06,   1.01115E+06
C:/temp/Job-1.odb,Step-1,Increment      1: Step Time =    1.000,"P-1-1",          1172,   144.292E-03,   23.4201E-03,            0.,NA,NA,"",   1.01603E+06,   1.01166E+06,   1.01166E+06
C:/temp/Job-1.odb,Step-1,Increment      1: Step Time =    1.000,"P-1-1",          1173,   141.001E-03,   22.8815E-03,            0.,NA,NA,"",   1.01436E+06,   1.01051E+06,   1.01051E+06
C:/temp/Job-1.odb,Step-1,Increment      1: Step Time =    1.000,"P-1-1",          1174,   138.329E-03,   22.5254E-03,            0.,NA,NA,"",   1.01261E+06,   1.00927E+06,   1.00927E+06
C:/temp/Job-1.odb,Step-1,Increment      1: Step Time =    1.000,"P-1-1",          1175,   136.087E-03,   23.4812E-03,            0.,NA,NA,"",   1.01398E+06,   1.01082E+06,   1.01082E+06
C:/temp/Job-1.odb,Step-1,Increment      1: Step Time =    1.000,"P-1-1",          1176,   131.057E-03,   22.8994E-03,            0.,NA,NA,"",   1.00946E+06,   1.00782E+06,   1.00782E+06
C:/temp/Job-1.odb,Step-1,Increment      1: Step Time =    1.000,"P-1-1",          1177,   127.895E-03,   23.3399E-03,            0.,NA,NA,"",   1.00852E+06,   1.00788E+06,   1.00788E+06
C:/temp/Job-1.odb,Step-1,Increment      1: Step Time =    1.000,"P-1-1",          1178,   124.903E-03,   23.2895E-03,            0.,NA,NA,"",   1.00571E+06,   1.00625E+06,   1.00625E+06
C:/temp/Job-1.odb,Step-1,Increment      1: Step Time =    1.000,"P-1-1",          1179,   121.194E-03,   22.7199E-03,            0.,NA,NA,"",   1.00106E+06,   1.00301E+06,   1.00301E+06
C:/temp/Job-1.odb,Step-1,Increment      1: Step Time =    1.000,"P-1-1",          1180,   117.110E-03,   22.8693E-03,            0.,NA,NA,"",   997.366E+03,   1.00106E+06,   1.00106E+06
C:/temp/Job-1.odb,Step-1,Increment      1: Step Time =    1.000,"P-1-1",          1181,   115.914E-03,   22.4835E-03,            0.,NA,NA,"",   995.434E+03,   999.463E+03,   999.463E+03
C:/temp/Job-1.odb,Step-1,Increment      1: Step Time =    1.000,"P-1-1",          1182,   111.804E-03,   22.3879E-03,            0.,NA,NA,"",   991.981E+03,   997.457E+03,   997.457E+03
C:/temp/Job-1.odb,Step-1,Increment      1: Step Time =    1.000,"P-1-1",          1183,   108.692E-03,   22.6515E-03,            0.,NA,NA,"",   990.476E+03,   997.041E+03,   997.041E+03
C:/temp/Job-1.odb,Step-1,Increment      1: Step Time =    1.000,"P-1-1",          1184,   105.473E-03,   22.9520E-03,            0.,NA,NA,"",   989.585E+03,   997.078E+03,   997.078E+03
C:/temp/Job-1.odb,Step-1,Increment      1: Step Time =    1.000,"P-1-1",          1185,   101.200E-03,   23.6394E-03,            0.,NA,NA,"",   990.096E+03,    998.66E+03,    998.66E+03
C:/temp/Job-1.odb,Step-1,Increment      1: Step Time =    1.000,"P-1-1",          1186,   98.8790E-03,   23.5656E-03,            0.,NA,NA,"",   990.345E+03,   999.047E+03,   999.047E+03
C:/temp/Job-1.odb,Step-1,Increment      1: Step Time =    1.000,"P-1-1",          1187,   95.0738E-03,   23.5137E-03,            0.,NA,NA,"",   991.359E+03,   999.907E+03,   999.907E+03
C:/temp/Job-1.odb,Step-1,Increment      1: Step Time =    1.000,"P-1-1",          1188,   91.5387E-03,   23.8145E-03,            0.,NA,NA,"",   994.309E+03,   1.00249E+06,   1.00249E+06
C:/temp/Job-1.odb,Step-1,Increment      1: Step Time =    1.000,"P-1-1",          1189,   88.7548E-03,   21.6978E-03,            0.,NA,NA,"",   992.024E+03,   998.447E+03,   998.447E+03
C:/temp/Job-1.odb,Step-1,Increment      1: Step Time =    1.000,"P-1-1",          1190,   85.7358E-03,   22.5658E-03,            0.,NA,NA,"",   997.087E+03,   1.00323E+06,   1.00323E+06
C:/temp/Job-1.odb,Step-1,Increment      1: Step Time =    1.000,"P-1-1",          1191,   82.1730E-03,   22.6502E-03,            0.,NA,NA,"",   1.00156E+06,   1.00678E+06,   1.00678E+06
C:/temp/Job-1.odb,Step-1,Increment      1: Step Time =    1.000,"P-1-1",          1192,   79.2375E-03,   22.2976E-03,            0.,NA,NA,"",   1.00443E+06,   1.00875E+06,   1.00875E+06
C:/temp/Job-1.odb,Step-1,Increment      1: Step Time =    1.000,"P-1-1",          1193,   74.9717E-03,   23.4290E-03,            0.,NA,NA,"",   1.01290E+06,   1.01645E+06,   1.01645E+06
C:/temp/Job-1.odb,Step-1,Increment      1: Step Time =    1.000,"P-1-1",          1194,   72.3419E-03,   23.4224E-03,            0.,NA,NA,"",   1.01640E+06,   1.01934E+06,   1.01934E+06
C:/temp/Job-1.odb,Step-1,Increment      1: Step Time =    1.000,"P-1-1",          1195,   69.5268E-03,   23.9044E-03,            0.,NA,NA,"",   1.02110E+06,   1.02362E+06,   1.02362E+06
C:/temp/Job-1.odb,Step-1,Increment      1: Step Time =    1.000,"P-1-1",          1196,   66.0334E-03,   24.3989E-03,            0.,NA,NA,"",   1.02645E+06,   1.02871E+06,   1.02871E+06
C:/temp/Job-1.odb,Step-1,Increment      1: Step Time =    1.000,"P-1-1",          1197,   62.2630E-03,   23.2257E-03,            0.,NA,NA,"",   1.02774E+06,   1.02976E+06,   1.02976E+06
C:/temp/Job-1.odb,Step-1,Increment      1: Step Time =    1.000,"P-1-1",          1198,   59.9454E-03,   23.6296E-03,            0.,NA,NA,"",   1.03102E+06,   1.03329E+06,   1.03329E+06
C:/temp/Job-1.odb,Step-1,Increment      1: Step Time =    1.000,"P-1-1",          1199,   56.5573E-03,   22.7999E-03,            0.,NA,NA,"",   1.03270E+06,   1.03548E+06,   1.03548E+06
C:/temp/Job-1.odb,Step-1,Increment      1: Step Time =    1.000,"P-1-1",          1200,   52.8314E-03,   22.0366E-03,            0.,NA,NA,"",   1.03492E+06,   1.03848E+06,   1.03848E+06
C:/temp/Job-1.odb,Step-1,Increment      1: Step Time =    1.000,"P-1-1",          1201,   49.7778E-03,   21.5013E-03,            0.,NA,NA,"",   1.03753E+06,   1.04203E+06,   1.04203E+06
C:/temp/Job-1.odb,Step-1,Increment      1: Step Time =    1.000,"P-1-1",          1202,   45.7706E-03,   23.2952E-03,            0.,NA,NA,"",   1.04335E+06,   1.05089E+06,   1.05089E+06
C:/temp/Job-1.odb,Step-1,Increment      1: Step Time =    1.000,"P-1-1",          1203,   42.6955E-03,   23.1402E-03,            0.,NA,NA,"",   1.04599E+06,   1.05565E+06,   1.05565E+06
C:/temp/Job-1.odb,Step-1,Increment      1: Step Time =    1.000,"P-1-1",          1204,   39.9245E-03,   22.7692E-03,            0.,NA,NA,"",   1.04830E+06,   1.05995E+06,   1.05995E+06
C:/temp/Job-1.odb,Step-1,Increment      1: Step Time =    1.000,"P-1-1",          1205,   37.1414E-03,   23.1238E-03,            0.,NA,NA,"",   1.05028E+06,   1.06503E+06,   1.06503E+06
C:/temp/Job-1.odb,Step-1,Increment      1: Step Time =    1.000,"P-1-1",          1206,   32.5682E-03,   22.3403E-03,            0.,NA,NA,"",   1.05443E+06,   1.07395E+06,   1.07395E+06
C:/temp/Job-1.odb,Step-1,Increment      1: Step Time =    1.000,"P-1-1",          1207,   29.4053E-03,   21.5269E-03,            0.,NA,NA,"",   1.05864E+06,   1.08127E+06,   1.08127E+06
C:/temp/Job-1.odb,Step-1,Increment      1: Step Time =    1.000,"P-1-1",          1208,   25.8912E-03,   21.9655E-03,            0.,NA,NA,"",   1.05928E+06,   1.08891E+06,   1.08891E+06
C:/temp/Job-1.odb,Step-1,Increment      1: Step Time =    1.000,"P-1-1",          1209,   23.4729E-03,   23.7835E-03,            0.,NA,NA,"",   1.05099E+06,   1.08882E+06,   1.08882E+06
C:/temp/Job-1.odb,Step-1,Increment      1: Step Time =    1.000,"P-1-1",          1210,   20.1719E-03,   24.1333E-03,            0.,NA,NA,"",   1.04509E+06,   1.09171E+06,   1.09171E+06
C:/temp/Job-1.odb,Step-1,Increment      1: Step Time =    1.000,"P-1-1",          1211,   17.6814E-03,   22.0563E-03,            0.,NA,NA,"",   1.05317E+06,   1.10312E+06,   1.10312E+06
C:/temp/Job-1.odb,Step-1,Increment      1: Step Time =    1.000,"P-1-1",          1212,   13.4908E-03,   23.5199E-03,            0.,NA,NA,"",   1.03050E+06,   1.09673E+06,   1.09673E+06
C:/temp/Job-1.odb,Step-1,Increment      1: Step Time =    1.000,"P-1-1",          1213,   10.5149E-03,   23.5749E-03,            0.,NA,NA,"",   1.01650E+06,   1.09330E+06,   1.09330E+06
C:/temp/Job-1.odb,Step-1,Increment      1: Step Time =    1.000,"P-1-1",          1214,   7.53271E-03,   23.5627E-03,            0.,NA,NA,"",   999.528E+03,   1.08703E+06,   1.08703E+06
C:/temp/Job-1.odb,Step-1,Increment      1: Step Time =    1.000,"P-1-1",          1215,   3.00634E-03,   23.4064E-03,            0.,NA,NA,"",   970.644E+03,   1.07312E+06,   1.07312E+06
C:/temp/Job-1.odb,Step-1,Increment      1: Step Time =    1.000,"P-1-1",          1216,   196.952E-03,   26.2975E-03,            0.,NA,NA,"",   1.00022E+06,   1.00014E+06,   1.00014E+06
C:/temp/Job-1.odb,Step-1,Increment      1: Step Time =    1.000,"P-1-1",          1217,   193.905E-03,   26.5478E-03,            0.,NA,NA,"",   1.00029E+06,   1.00049E+06,   1.00049E+06
C:/temp/Job-1.odb,Step-1,Increment      1: Step Time =    1.000,"P-1-1",          1218,   190.396E-03,   26.8198E-03,            0.,NA,NA,"",   1.00091E+06,   1.00119E+06,   1.00119E+06
C:/temp/Job-1.odb,Step-1,Increment      1: Step Time =    1.000,"P-1-1",          1219,   186.732E-03,   25.6788E-03,            0.,NA,NA,"",   1.00195E+06,   1.00199E+06,   1.00199E+06
C:/temp/Job-1.odb,Step-1,Increment      1: Step Time =    1.000,"P-1-1",          1220,   184.342E-03,   25.7105E-03,            0.,NA,NA,"",   1.00286E+06,   1.00269E+06,   1.00269E+06
C:/temp/Job-1.odb,Step-1,Increment      1: Step Time =    1.000,"P-1-1",          1221,   180.999E-03,   26.3472E-03,            0.,NA,NA,"",   1.00453E+06,   1.00394E+06,   1.00394E+06
C:/temp/Job-1.odb,Step-1,Increment      1: Step Time =    1.000,"P-1-1",          1222,   177.553E-03,   26.9122E-03,            0.,NA,NA,"",   1.00645E+06,   1.00532E+06,   1.00532E+06
C:/temp/Job-1.odb,Step-1,Increment      1: Step Time =    1.000,"P-1-1",          1223,   174.764E-03,   26.7646E-03,            0.,NA,NA,"",   1.00809E+06,   1.00644E+06,   1.00644E+06
C:/temp/Job-1.odb,Step-1,Increment      1: Step Time =    1.000,"P-1-1",          1224,   171.940E-03,   26.3262E-03,            0.,NA,NA,"",   1.00963E+06,   1.00745E+06,   1.00745E+06
C:/temp/Job-1.odb,Step-1,Increment      1: Step Time =    1.000,"P-1-1",          1225,   168.514E-03,   26.3774E-03,            0.,NA,NA,"",   1.01172E+06,   1.00886E+06,   1.00886E+06
C:/temp/Job-1.odb,Step-1,Increment      1: Step Time =    1.000,"P-1-1",          1226,   164.999E-03,   25.9277E-03,            0.,NA,NA,"",   1.01344E+06,   1.00998E+06,   1.00998E+06
C:/temp/Job-1.odb,Step-1,Increment      1: Step Time =    1.000,"P-1-1",          1227,   161.282E-03,   25.5055E-03,            0.,NA,NA,"",   1.01505E+06,   1.01104E+06,   1.01104E+06
C:/temp/Job-1.odb,Step-1,Increment      1: Step Time =    1.000,"P-1-1",          1228,   158.046E-03,   25.2284E-03,            0.,NA,NA,"",   1.01624E+06,   1.01182E+06,   1.01182E+06
C:/temp/Job-1.odb,Step-1,Increment      1: Step Time =    1.000,"P-1-1",          1229,   154.286E-03,   26.3720E-03,            0.,NA,NA,"",   1.01977E+06,   1.01452E+06,   1.01452E+06
C:/temp/Job-1.odb,Step-1,Increment      1: Step Time =    1.000,"P-1-1",          1230,   151.265E-03,   26.5039E-03,            0.,NA,NA,"",   1.02096E+06,   1.01547E+06,   1.01547E+06
C:/temp/Job-1.odb,Step-1,Increment      1: Step Time =    1.000,"P-1-1",          1231,   147.432E-03,   26.5512E-03,            0.,NA,NA,"",   1.02211E+06,   1.01652E+06,   1.01652E+06
C:/temp/Job-1.odb,Step-1,Increment      1: Step Time =    1.000,"P-1-1",          1232,   143.956E-03,   26.4243E-03,            0.,NA,NA,"",   1.02212E+06,   1.01677E+06,   1.01677E+06
C:/temp/Job-1.odb,Step-1,Increment      1: Step Time =    1.000,"P-1-1",          1233,   141.192E-03,   26.6482E-03,            0.,NA,NA,"",   1.02280E+06,   1.01766E+06,   1.01766E+06
C:/temp/Job-1.odb,Step-1,Increment      1: Step Time =    1.000,"P-1-1",          1234,   138.219E-03,   25.2066E-03,            0.,NA,NA,"",   1.01881E+06,   1.01472E+06,   1.01472E+06
C:/temp/Job-1.odb,Step-1,Increment      1: Step Time =    1.000,"P-1-1",          1235,   134.717E-03,   26.4107E-03,            0.,NA,NA,"",   1.02029E+06,   1.01676E+06,   1.01676E+06
C:/temp/Job-1.odb,Step-1,Increment      1: Step Time =    1.000,"P-1-1",          1236,   130.340E-03,   26.4784E-03,            0.,NA,NA,"",   1.01787E+06,   1.01589E+06,   1.01589E+06
C:/temp/Job-1.odb,Step-1,Increment      1: Step Time =    1.000,"P-1-1",          1237,   127.704E-03,   27.2948E-03,            0.,NA,NA,"",   1.01811E+06,   1.01721E+06,   1.01721E+06
C:/temp/Job-1.odb,Step-1,Increment      1: Step Time =    1.000,"P-1-1",          1238,   124.738E-03,   26.8126E-03,            0.,NA,NA,"",   1.01396E+06,   1.01464E+06,   1.01464E+06
C:/temp/Job-1.odb,Step-1,Increment      1: Step Time =    1.000,"P-1-1",          1239,   121.021E-03,   25.9822E-03,            0.,NA,NA,"",   1.00838E+06,   1.01087E+06,   1.01087E+06
C:/temp/Job-1.odb,Step-1,Increment      1: Step Time =    1.000,"P-1-1",          1240,   117.206E-03,   25.7177E-03,            0.,NA,NA,"",   1.00387E+06,   1.00832E+06,   1.00832E+06
C:/temp/Job-1.odb,Step-1,Increment      1: Step Time =    1.000,"P-1-1",          1241,   114.914E-03,   25.0014E-03,            0.,NA,NA,"",   1.00007E+06,   1.00538E+06,   1.00538E+06
C:/temp/Job-1.odb,Step-1,Increment      1: Step Time =    1.000,"P-1-1",          1242,   111.999E-03,   25.5985E-03,            0.,NA,NA,"",   998.721E+03,   1.00555E+06,   1.00555E+06
C:/temp/Job-1.odb,Step-1,Increment      1: Step Time =    1.000,"P-1-1",          1243,   108.887E-03,   25.9789E-03,            0.,NA,NA,"",   997.163E+03,   1.00546E+06,   1.00546E+06
C:/temp/Job-1.odb,Step-1,Increment      1: Step Time =    1.000,"P-1-1",          1244,   104.628E-03,   25.9348E-03,            0.,NA,NA,"",   994.949E+03,   1.00451E+06,   1.00451E+06
C:/temp/Job-1.odb,Step-1,Increment      1: Step Time =    1.000,"P-1-1",          1245,   101.752E-03,   26.5303E-03,            0.,NA,NA,"",   995.466E+03,   1.00606E+06,   1.00606E+06
C:/temp/Job-1.odb,Step-1,Increment      1: Step Time =    1.000,"P-1-1",          1246,   99.2379E-03,   25.8806E-03,            0.,NA,NA,"",   994.496E+03,   1.00465E+06,   1.00465E+06
C:/temp/Job-1.odb,Step-1,Increment      1: Step Time =    1.000,"P-1-1",          1247,   95.8897E-03,   25.7549E-03,            0.,NA,NA,"",   995.429E+03,   1.00562E+06,   1.00562E+06
C:/temp/Job-1.odb,Step-1,Increment      1: Step Time =    1.000,"P-1-1",          1248,   92.0352E-03,   26.8048E-03,            0.,NA,NA,"",   999.830E+03,   1.01012E+06,   1.01012E+06
C:/temp/Job-1.odb,Step-1,Increment      1: Step Time =    1.000,"P-1-1",          1249,   88.4876E-03,   26.2640E-03,            0.,NA,NA,"",   1.00241E+06,   1.01140E+06,   1.01140E+06
C:/temp/Job-1.odb,Step-1,Increment      1: Step Time =    1.000,"P-1-1",          1250,   85.2579E-03,   25.9847E-03,            0.,NA,NA,"",   1.00555E+06,   1.01326E+06,   1.01326E+06
C:/temp/Job-1.odb,Step-1,Increment      1: Step Time =    1.000,"P-1-1",          1251,   81.4267E-03,   26.1275E-03,            0.,NA,NA,"",   1.01091E+06,   1.01733E+06,   1.01733E+06
C:/temp/Job-1.odb,Step-1,Increment      1: Step Time =    1.000,"P-1-1",          1252,   78.1651E-03,   25.5746E-03,            0.,NA,NA,"",   1.01387E+06,   1.01893E+06,   1.01893E+06
C:/temp/Job-1.odb,Step-1,Increment      1: Step Time =    1.000,"P-1-1",          1253,   75.0981E-03,   26.6924E-03,            0.,NA,NA,"",   1.02106E+06,   1.02559E+06,   1.02559E+06
C:/temp/Job-1.odb,Step-1,Increment      1: Step Time =    1.000,"P-1-1",          1254,   73.0671E-03,   27.0333E-03,            0.,NA,NA,"",   1.02454E+06,   1.02857E+06,   1.02857E+06
C:/temp/Job-1.odb,Step-1,Increment      1: Step Time =    1.000,"P-1-1",          1255,   68.4879E-03,   27.0297E-03,            0.,NA,NA,"",   1.03015E+06,   1.03313E+06,   1.03313E+06
C:/temp/Job-1.odb,Step-1,Increment      1: Step Time =    1.000,"P-1-1",          1256,   65.4863E-03,   27.6938E-03,            0.,NA,NA,"",   1.03507E+06,   1.03792E+06,   1.03792E+06
C:/temp/Job-1.odb,Step-1,Increment      1: Step Time =    1.000,"P-1-1",          1257,   62.9404E-03,   27.8768E-03,            0.,NA,NA,"",   1.03770E+06,   1.04056E+06,   1.04056E+06
C:/temp/Job-1.odb,Step-1,Increment      1: Step Time =    1.000,"P-1-1",          1258,   59.1535E-03,   26.5672E-03,            0.,NA,NA,"",   1.03817E+06,   1.04131E+06,   1.04131E+06
C:/temp/Job-1.odb,Step-1,Increment      1: Step Time =    1.000,"P-1-1",          1259,   56.8843E-03,   25.8536E-03,            0.,NA,NA,"",   1.03854E+06,   1.04204E+06,   1.04204E+06
C:/temp/Job-1.odb,Step-1,Increment      1: Step Time =    1.000,"P-1-1",          1260,   53.0658E-03,   25.6542E-03,            0.,NA,NA,"",   1.04103E+06,   1.04586E+06,   1.04586E+06
C:/temp/Job-1.odb,Step-1,Increment      1: Step Time =    1.000,"P-1-1",          1261,   49.4136E-03,   25.4579E-03,            0.,NA,NA,"",   1.04289E+06,   1.04942E+06,   1.04942E+06
C:/temp/Job-1.odb,Step-1,Increment      1: Step Time =    1.000,"P-1-1",          1262,   46.0123E-03,   27.0287E-03,            0.,NA,NA,"",   1.04549E+06,   1.05521E+06,   1.05521E+06
C:/temp/Job-1.odb,Step-1,Increment      1: Step Time =    1.000,"P-1-1",          1263,   42.7017E-03,   26.4433E-03,            0.,NA,NA,"",   1.04639E+06,   1.05856E+06,   1.05856E+06
C:/temp/Job-1.odb,Step-1,Increment      1: Step Time =    1.000,"P-1-1",          1264,   39.0174E-03,   26.1243E-03,            0.,NA,NA,"",   1.04725E+06,   1.06283E+06,   1.06283E+06
C:/temp/Job-1.odb,Step-1,Increment      1: Step Time =    1.000,"P-1-1",          1265,   36.0761E-03,   26.3628E-03,            0.,NA,NA,"",   1.04717E+06,   1.06675E+06,   1.06675E+06
C:/temp/Job-1.odb,Step-1,Increment      1: Step Time =    1.000,"P-1-1",          1266,   32.8776E-03,   25.4114E-03,            0.,NA,NA,"",   1.04857E+06,   1.07161E+06,   1.07161E+06
C:/temp/Job-1.odb,Step-1,Increment      1: Step Time =    1.000,"P-1-1",          1267,   29.4129E-03,   25.1378E-03,            0.,NA,NA,"",   1.04893E+06,   1.07717E+06,   1.07717E+06
C:/temp/Job-1.odb,Step-1,Increment      1: Step Time =    1.000,"P-1-1",          1268,   27.4951E-03,   25.4230E-03,            0.,NA,NA,"",   1.04649E+06,   1.07892E+06,   1.07892E+06
C:/temp/Job-1.odb,Step-1,Increment      1: Step Time =    1.000,"P-1-1",          1269,   22.7456E-03,   26.5021E-03,            0.,NA,NA,"",   1.03699E+06,   1.08115E+06,   1.08115E+06
C:/temp/Job-1.odb,Step-1,Increment      1: Step Time =    1.000,"P-1-1",          1270,   19.2516E-03,   26.9519E-03,            0.,NA,NA,"",   1.02641E+06,   1.08061E+06,   1.08061E+06
C:/temp/Job-1.odb,Step-1,Increment      1: Step Time =    1.000,"P-1-1",          1271,   16.6777E-03,   26.0408E-03,            0.,NA,NA,"",   1.02426E+06,   1.08425E+06,   1.08425E+06
C:/temp/Job-1.odb,Step-1,Increment      1: Step Time =    1.000,"P-1-1",          1272,   13.7839E-03,   26.3069E-03,            0.,NA,NA,"",   1.01169E+06,   1.08107E+06,   1.08107E+06
C:/temp/Job-1.odb,Step-1,Increment      1: Step Time =    1.000,"P-1-1",          1273,   10.8295E-03,   26.5988E-03,            0.,NA,NA,"",   995.795E+03,   1.07504E+06,   1.07504E+06
C:/temp/Job-1.odb,Step-1,Increment      1: Step Time =    1.000,"P-1-1",          1274,   7.72226E-03,   26.6314E-03,            0.,NA,NA,"",   978.136E+03,   1.06741E+06,   1.06741E+06
C:/temp/Job-1.odb,Step-1,Increment      1: Step Time =    1.000,"P-1-1",          1275,   3.06285E-03,   26.4953E-03,            0.,NA,NA,"",   950.525E+03,   1.05330E+06,   1.05330E+06
C:/temp/Job-1.odb,Step-1,Increment      1: Step Time =    1.000,"P-1-1",          1276,   197.130E-03,   29.3111E-03,            0.,NA,NA,"",   999.995E+03,   1.00015E+06,   1.00015E+06
C:/temp/Job-1.odb,Step-1,Increment      1: Step Time =    1.000,"P-1-1",          1277,   194.226E-03,   29.3316E-03,            0.,NA,NA,"",   1.00009E+06,   1.00054E+06,   1.00054E+06
C:/temp/Job-1.odb,Step-1,Increment      1: Step Time =    1.000,"P-1-1",          1278,   190.122E-03,   29.9966E-03,            0.,NA,NA,"",   1.00097E+06,   1.00152E+06,   1.00152E+06
C:/temp/Job-1.odb,Step-1,Increment      1: Step Time =    1.000,"P-1-1",          1279,   186.754E-03,   29.5026E-03,            0.,NA,NA,"",   1.00222E+06,   1.00249E+06,   1.00249E+06
C:/temp/Job-1.odb,Step-1,Increment      1: Step Time =    1.000,"P-1-1",          1280,   184.403E-03,   28.6408E-03,            0.,NA,NA,"",   1.00328E+06,   1.00322E+06,   1.00322E+06
C:/temp/Job-1.odb,Step-1,Increment      1: Step Time =    1.000,"P-1-1",          1281,   180.247E-03,   29.3378E-03,            0.,NA,NA,"",   1.00574E+06,   1.00504E+06,   1.00504E+06
C:/temp/Job-1.odb,Step-1,Increment      1: Step Time =    1.000,"P-1-1",          1282,   177.066E-03,   28.7217E-03,            0.,NA,NA,"",   1.00756E+06,   1.00624E+06,   1.00624E+06
C:/temp/Job-1.odb,Step-1,Increment      1: Step Time =    1.000,"P-1-1",          1283,   174.408E-03,   29.7856E-03,            0.,NA,NA,"",   1.00996E+06,   1.00799E+06,   1.00799E+06
C:/temp/Job-1.odb,Step-1,Increment      1: Step Time =    1.000,"P-1-1",          1284,   171.515E-03,   28.9402E-03,            0.,NA,NA,"",   1.01159E+06,   1.00902E+06,   1.00902E+06
C:/temp/Job-1.odb,Step-1,Increment      1: Step Time =    1.000,"P-1-1",          1285,   167.899E-03,   29.1799E-03,            0.,NA,NA,"",   1.01453E+06,   1.01105E+06,   1.01105E+06
C:/temp/Job-1.odb,Step-1,Increment      1: Step Time =    1.000,"P-1-1",          1286,   164.022E-03,   29.6234E-03,            0.,NA,NA,"",   1.01792E+06,   1.01344E+06,   1.01344E+06
C:/temp/Job-1.odb,Step-1,Increment      1: Step Time =    1.000,"P-1-1",          1287,   160.533E-03,   28.7143E-03,            0.,NA,NA,"",   1.01934E+06,   1.01436E+06,   1.01436E+06
C:/temp/Job-1.odb,Step-1,Increment      1: Step Time =    1.000,"P-1-1",          1288,   158.213E-03,   28.5505E-03,            0.,NA,NA,"",   1.02067E+06,   1.01531E+06,   1.01531E+06
C:/temp/Job-1.odb,Step-1,Increment      1: Step Time =    1.000,"P-1-1",          1289,   155.808E-03,   29.1100E-03,            0.,NA,NA,"",   1.02298E+06,   1.01706E+06,   1.01706E+06
C:/temp/Job-1.odb,Step-1,Increment      1: Step Time =    1.000,"P-1-1",          1290,   151.192E-03,   28.6798E-03,            0.,NA,NA,"",   1.02485E+06,   1.01857E+06,   1.01857E+06
C:/temp/Job-1.odb,Step-1,Increment      1: Step Time =    1.000,"P-1-1",          1291,   148.303E-03,   29.6640E-03,            0.,NA,NA,"",   1.02815E+06,   1.02132E+06,   1.02132E+06
C:/temp/Job-1.odb,Step-1,Increment      1: Step Time =    1.000,"P-1-1",          1292,   144.771E-03,   29.2841E-03,            0.,NA,NA,"",   1.02841E+06,   1.02186E+06,   1.02186E+06
C:/temp/Job-1.odb,Step-1,Increment      1: Step Time =    1.000,"P-1-1",          1293,   140.592E-03,   29.8561E-03,            0.,NA,NA,"",   1.03016E+06,   1.02392E+06,   1.02392E+06
C:/temp/Job-1.odb,Step-1,Increment      1: Step Time =    1.000,"P-1-1",          1294,   137.933E-03,   29.1769E-03,            0.,NA,NA,"",   1.02822E+06,   1.02287E+06,   1.02287E+06
C:/temp/Job-1.odb,Step-1,Increment      1: Step Time =    1.000,"P-1-1",          1295,   134.613E-03,   30.2310E-03,            0.,NA,NA,"",   1.02984E+06,   1.02519E+06,   1.02519E+06
C:/temp/Job-1.odb,Step-1,Increment      1: Step Time =    1.000,"P-1-1",          1296,   130.607E-03,   29.3839E-03,            0.,NA,NA,"",   1.02524E+06,   1.02264E+06,   1.02264E+06
C:/temp/Job-1.odb,Step-1,Increment      1: Step Time =    1.000,"P-1-1",          1297,   128.434E-03,   29.9964E-03,            0.,NA,NA,"",   1.02545E+06,   1.02383E+06,   1.02383E+06
C:/temp/Job-1.odb,Step-1,Increment      1: Step Time =    1.000,"P-1-1",          1298,   125.483E-03,   29.7193E-03,            0.,NA,NA,"",   1.02186E+06,   1.02205E+06,   1.02205E+06
C:/temp/Job-1.odb,Step-1,Increment      1: Step Time =    1.000,"P-1-1",          1299,   121.561E-03,   29.6419E-03,            0.,NA,NA,"",   1.01748E+06,   1.02014E+06,   1.02014E+06
C:/temp/Job-1.odb,Step-1,Increment      1: Step Time =    1.000,"P-1-1",          1300,   117.951E-03,   29.9401E-03,            0.,NA,NA,"",   1.01394E+06,   1.01912E+06,   1.01912E+06
C:/temp/Job-1.odb,Step-1,Increment      1: Step Time =    1.000,"P-1-1",          1301,   115.170E-03,   28.9438E-03,            0.,NA,NA,"",   1.00884E+06,   1.01550E+06,   1.01550E+06
C:/temp/Job-1.odb,Step-1,Increment      1: Step Time =    1.000,"P-1-1",          1302,   112.467E-03,   29.0456E-03,            0.,NA,NA,"",   1.00605E+06,   1.01430E+06,   1.01430E+06
C:/temp/Job-1.odb,Step-1,Increment      1: Step Time =    1.000,"P-1-1",          1303,   109.052E-03,   29.2879E-03,            0.,NA,NA,"",   1.00327E+06,   1.01347E+06,   1.01347E+06
C:/temp/Job-1.odb,Step-1,Increment      1: Step Time =    1.000,"P-1-1",          1304,   105.401E-03,   29.3502E-03,            0.,NA,NA,"",   1.00096E+06,   1.01269E+06,   1.01269E+06
C:/temp/Job-1.odb,Step-1,Increment      1: Step Time =    1.000,"P-1-1",          1305,   101.146E-03,   28.5446E-03,            0.,NA,NA,"",   998.796E+03,   1.01087E+06,   1.01087E+06
C:/temp/Job-1.odb,Step-1,Increment      1: Step Time =    1.000,"P-1-1",          1306,   98.0831E-03,   29.4691E-03,            0.,NA,NA,"",   1.00056E+06,   1.01370E+06,   1.01370E+06
C:/temp/Job-1.odb,Step-1,Increment      1: Step Time =    1.000,"P-1-1",          1307,   96.0470E-03,   29.7888E-03,            0.,NA,NA,"",   1.00198E+06,   1.01528E+06,   1.01528E+06
C:/temp/Job-1.odb,Step-1,Increment      1: Step Time =    1.000,"P-1-1",          1308,   92.1653E-03,   30.3672E-03,            0.,NA,NA,"",   1.00605E+06,   1.01894E+06,   1.01894E+06
C:/temp/Job-1.odb,Step-1,Increment      1: Step Time =    1.000,"P-1-1",          1309,   88.8695E-03,   28.6100E-03,            0.,NA,NA,"",   1.00658E+06,   1.01721E+06,   1.01721E+06
C:/temp/Job-1.odb,Step-1,Increment      1: Step Time =    1.000,"P-1-1",          1310,   84.7872E-03,   29.0676E-03,            0.,NA,NA,"",   1.01285E+06,   1.02210E+06,   1.02210E+06
C:/temp/Job-1.odb,Step-1,Increment      1: Step Time =    1.000,"P-1-1",          1311,   82.3449E-03,   28.7670E-03,            0.,NA,NA,"",   1.01573E+06,   1.02375E+06,   1.02375E+06
C:/temp/Job-1.odb,Step-1,Increment      1: Step Time =    1.000,"P-1-1",          1312,   78.2459E-03,   29.2195E-03,            0.,NA,NA,"",   1.02238E+06,   1.02874E+06,   1.02874E+06
C:/temp/Job-1.odb,Step-1,Increment      1: Step Time =    1.000,"P-1-1",          1313,   75.2540E-03,   30.6892E-03,            0.,NA,NA,"",   1.03037E+06,   1.03604E+06,   1.03604E+06
C:/temp/Job-1.odb,Step-1,Increment      1: Step Time =    1.000,"P-1-1",          1314,   72.1682E-03,   29.9153E-03,            0.,NA,NA,"",   1.03286E+06,   1.03727E+06,   1.03727E+06
C:/temp/Job-1.odb,Step-1,Increment      1: Step Time =    1.000,"P-1-1",          1315,   68.8523E-03,   30.9299E-03,            0.,NA,NA,"",   1.03915E+06,   1.04290E+06,   1.04290E+06
C:/temp/Job-1.odb,Step-1,Increment      1: Step Time =    1.000,"P-1-1",          1316,   65.5062E-03,   30.6568E-03,            0.,NA,NA,"",   1.04157E+06,   1.04487E+06,   1.04487E+06
C:/temp/Job-1.odb,Step-1,Increment      1: Step Time =    1.000,"P-1-1",          1317,   61.7374E-03,   29.6966E-03,            0.,NA,NA,"",   1.04243E+06,   1.04576E+06,   1.04576E+06
C:/temp/Job-1.odb,Step-1,Increment      1: Step Time =    1.000,"P-1-1",          1318,   58.3145E-03,   29.9091E-03,            0.,NA,NA,"",   1.04464E+06,   1.04882E+06,   1.04882E+06
C:/temp/Job-1.odb,Step-1,Increment      1: Step Time =    1.000,"P-1-1",          1319,   55.3174E-03,   29.2224E-03,            0.,NA,NA,"",   1.04471E+06,   1.04975E+06,   1.04975E+06
C:/temp/Job-1.odb,Step-1,Increment      1: Step Time =    1.000,"P-1-1",          1320,   52.2368E-03,   28.5895E-03,            0.,NA,NA,"",   1.04487E+06,   1.05118E+06,   1.05118E+06
C:/temp/Job-1.odb,Step-1,Increment      1: Step Time =    1.000,"P-1-1",          1321,   44.4947E-03,   30.4665E-03,            0.,NA,NA,"",   1.04557E+06,   1.05893E+06,   1.05893E+06
C:/temp/Job-1.odb,Step-1,Increment      1: Step Time =    1.000,"P-1-1",          1322,   41.6451E-03,   29.4293E-03,            0.,NA,NA,"",   1.04509E+06,   1.06076E+06,   1.06076E+06
C:/temp/Job-1.odb,Step-1,Increment      1: Step Time =    1.000,"P-1-1",          1323,   38.4901E-03,   29.3191E-03,            0.,NA,NA,"",   1.04371E+06,   1.06320E+06,   1.06320E+06
C:/temp/Job-1.odb,Step-1,Increment      1: Step Time =    1.000,"P-1-1",          1324,   36.2820E-03,   29.1217E-03,            0.,NA,NA,"",   1.04285E+06,   1.06502E+06,   1.06502E+06
C:/temp/Job-1.odb,Step-1,Increment      1: Step Time =    1.000,"P-1-1",          1325,   32.2144E-03,   28.7984E-03,            0.,NA,NA,"",   1.04029E+06,   1.06861E+06,   1.06861E+06
C:/temp/Job-1.odb,Step-1,Increment      1: Step Time =    1.000,"P-1-1",          1326,   28.6676E-03,   29.2702E-03,            0.,NA,NA,"",   1.03520E+06,   1.07052E+06,   1.07052E+06
C:/temp/Job-1.odb,Step-1,Increment      1: Step Time =    1.000,"P-1-1",          1327,   25.3659E-03,   28.4021E-03,            0.,NA,NA,"",   1.03316E+06,    1.0742E+06,    1.0742E+06
C:/temp/Job-1.odb,Step-1,Increment      1: Step Time =    1.000,"P-1-1",          1328,   22.1864E-03,   29.3270E-03,            0.,NA,NA,"",   1.02243E+06,   1.07220E+06,   1.07220E+06
C:/temp/Job-1.odb,Step-1,Increment      1: Step Time =    1.000,"P-1-1",          1329,   19.4035E-03,   30.2180E-03,            0.,NA,NA,"",   1.00943E+06,   1.06777E+06,   1.06777E+06
C:/temp/Job-1.odb,Step-1,Increment      1: Step Time =    1.000,"P-1-1",          1330,   16.4359E-03,   29.5936E-03,            0.,NA,NA,"",   1.00175E+06,   1.06768E+06,   1.06768E+06
C:/temp/Job-1.odb,Step-1,Increment      1: Step Time =    1.000,"P-1-1",          1331,   13.0925E-03,   29.9113E-03,            0.,NA,NA,"",   985.980E+03,   1.06160E+06,   1.06160E+06
C:/temp/Job-1.odb,Step-1,Increment      1: Step Time =    1.000,"P-1-1",          1332,   9.54936E-03,   29.7479E-03,            0.,NA,NA,"",   968.827E+03,   1.05482E+06,   1.05482E+06
C:/temp/Job-1.odb,Step-1,Increment      1: Step Time =    1.000,"P-1-1",          1333,   6.28852E-03,   29.6531E-03,            0.,NA,NA,"",   951.372E+03,   1.04638E+06,   1.04638E+06
C:/temp/Job-1.odb,Step-1,Increment      1: Step Time =    1.000,"P-1-1",          1334,   3.12770E-03,   29.5763E-03,            0.,NA,NA,"",   933.681E+03,   1.03662E+06,   1.03662E+06
C:/temp/Job-1.odb,Step-1,Increment      1: Step Time =    1.000,"P-1-1",          1335,   196.997E-03,   33.7271E-03,            0.,NA,NA,"",   999.415E+03,   1.00021E+06,   1.00021E+06
C:/temp/Job-1.odb,Step-1,Increment      1: Step Time =    1.000,"P-1-1",          1336,   193.108E-03,   33.7176E-03,            0.,NA,NA,"",   999.847E+03,   1.00094E+06,   1.00094E+06
C:/temp/Job-1.odb,Step-1,Increment      1: Step Time =    1.000,"P-1-1",          1337,   190.525E-03,   33.3721E-03,            0.,NA,NA,"",   1.00065E+06,   1.00163E+06,   1.00163E+06
C:/temp/Job-1.odb,Step-1,Increment      1: Step Time =    1.000,"P-1-1",          1338,   186.066E-03,   32.4582E-03,            0.,NA,NA,"",   1.00278E+06,   1.00320E+06,   1.00320E+06
C:/temp/Job-1.odb,Step-1,Increment      1: Step Time =    1.000,"P-1-1",          1339,   182.871E-03,   33.1868E-03,            0.,NA,NA,"",   1.00490E+06,   1.00481E+06,   1.00481E+06
C:/temp/Job-1.odb,Step-1,Increment      1: Step Time =    1.000,"P-1-1",          1340,   179.642E-03,   32.3305E-03,            0.,NA,NA,"",   1.00697E+06,   1.00617E+06,   1.00617E+06
C:/temp/Job-1.odb,Step-1,Increment      1: Step Time =    1.000,"P-1-1",          1341,   176.261E-03,   32.8542E-03,            0.,NA,NA,"",   1.00989E+06,   1.00822E+06,   1.00822E+06
C:/temp/Job-1.odb,Step-1,Increment      1: Step Time =    1.000,"P-1-1",          1342,   173.286E-03,   32.2189E-03,            0.,NA,NA,"",   1.01218E+06,   1.00971E+06,   1.00971E+06
C:/temp/Job-1.odb,Step-1,Increment      1: Step Time =    1.000,"P-1-1",          1343,   170.042E-03,   32.1739E-03,            0.,NA,NA,"",   1.01507E+06,   1.01169E+06,   1.01169E+06
C:/temp/Job-1.odb,Step-1,Increment      1: Step Time =    1.000,"P-1-1",          1344,   167.280E-03,   32.3716E-03,            0.,NA,NA,"",   1.01778E+06,   1.01356E+06,   1.01356E+06
C:/temp/Job-1.odb,Step-1,Increment      1: Step Time =    1.000,"P-1-1",          1345,   164.078E-03,   31.9640E-03,            0.,NA,NA,"",   1.02031E+06,   1.01529E+06,   1.01529E+06
C:/temp/Job-1.odb,Step-1,Increment      1: Step Time =    1.000,"P-1-1",          1346,   160.642E-03,   32.7072E-03,            0.,NA,NA,"",   1.02434E+06,   1.01823E+06,   1.01823E+06
C:/temp/Job-1.odb,Step-1,Increment      1: Step Time =    1.000,"P-1-1",          1347,   158.595E-03,   32.9266E-03,            0.,NA,NA,"",   1.02644E+06,   1.01977E+06,   1.01977E+06
C:/temp/Job-1.odb,Step-1,Increment      1: Step Time =    1.000,"P-1-1",          1348,   155.241E-03,   32.5876E-03,            0.,NA,NA,"",   1.02886E+06,   1.02161E+06,   1.02161E+06
C:/temp/Job-1.odb,Step-1,Increment      1: Step Time =    1.000,"P-1-1",          1349,   151.668E-03,   32.2703E-03,            0.,NA,NA,"",   1.03121E+06,   1.02352E+06,   1.02352E+06
C:/temp/Job-1.odb,Step-1,Increment      1: Step Time =    1.000,"P-1-1",          1350,   148.112E-03,   32.4326E-03,            0.,NA,NA,"",   1.03350E+06,   1.02556E+06,   1.02556E+06
C:/temp/Job-1.odb,Step-1,Increment      1: Step Time =    1.000,"P-1-1",          1351,   144.582E-03,   31.8128E-03,            0.,NA,NA,"",   1.03390E+06,   1.02629E+06,   1.02629E+06
C:/temp/Job-1.odb,Step-1,Increment      1: Step Time =    1.000,"P-1-1",          1352,   140.733E-03,   31.7441E-03,            0.,NA,NA,"",   1.03444E+06,   1.02742E+06,   1.02742E+06
C:/temp/Job-1.odb,Step-1,Increment      1: Step Time =    1.000,"P-1-1",          1353,   137.882E-03,   32.2351E-03,            0.,NA,NA,"",   1.03588E+06,   1.02936E+06,   1.02936E+06
C:/temp/Job-1.odb,Step-1,Increment      1: Step Time =    1.000,"P-1-1",          1354,   134.404E-03,   32.3618E-03,            0.,NA,NA,"",   1.03541E+06,   1.03008E+06,   1.03008E+06
C:/temp/Job-1.odb,Step-1,Increment      1: Step Time =    1.000,"P-1-1",          1355,   131.349E-03,   33.0141E-03,            0.,NA,NA,"",   1.03532E+06,   1.03136E+06,   1.03136E+06
C:/temp/Job-1.odb,Step-1,Increment      1: Step Time =    1.000,"P-1-1",          1356,   127.695E-03,   32.4325E-03,            0.,NA,NA,"",   1.03125E+06,   1.02958E+06,   1.02958E+06
C:/temp/Job-1.odb,Step-1,Increment      1: Step Time =    1.000,"P-1-1",          1357,   125.612E-03,   32.4944E-03,            0.,NA,NA,"",   1.02952E+06,   1.02936E+06,   1.02936E+06
C:/temp/Job-1.odb,Step-1,Increment      1: Step Time =    1.000,"P-1-1",          1358,   121.785E-03,   31.9932E-03,            0.,NA,NA,"",   1.02345E+06,   1.02614E+06,   1.02614E+06
C:/temp/Job-1.odb,Step-1,Increment      1: Step Time =    1.000,"P-1-1",          1359,   119.229E-03,   31.7667E-03,            0.,NA,NA,"",   1.01955E+06,   1.02423E+06,   1.02423E+06
C:/temp/Job-1.odb,Step-1,Increment      1: Step Time =    1.000,"P-1-1",          1360,   116.095E-03,   31.9213E-03,            0.,NA,NA,"",   1.01608E+06,   1.02310E+06,   1.02310E+06
C:/temp/Job-1.odb,Step-1,Increment      1: Step Time =    1.000,"P-1-1",          1361,   112.312E-03,   32.6420E-03,            0.,NA,NA,"",   1.01287E+06,   1.02312E+06,   1.02312E+06
C:/temp/Job-1.odb,Step-1,Increment      1: Step Time =    1.000,"P-1-1",          1362,   108.409E-03,   32.3839E-03,            0.,NA,NA,"",   1.00815E+06,   1.02080E+06,   1.02080E+06
C:/temp/Job-1.odb,Step-1,Increment      1: Step Time =    1.000,"P-1-1",          1363,   101.066E-03,   31.8090E-03,            0.,NA,NA,"",   1.00361E+06,   1.01851E+06,   1.01851E+06
C:/temp/Job-1.odb,Step-1,Increment      1: Step Time =    1.000,"P-1-1",          1364,   98.3696E-03,   32.4457E-03,            0.,NA,NA,"",   1.00485E+06,   1.02053E+06,   1.02053E+06
C:/temp/Job-1.odb,Step-1,Increment      1: Step Time =    1.000,"P-1-1",          1365,   95.2238E-03,   32.5621E-03,            0.,NA,NA,"",   1.00681E+06,   1.02232E+06,   1.02232E+06
C:/temp/Job-1.odb,Step-1,Increment      1: Step Time =    1.000,"P-1-1",          1366,   91.6787E-03,   33.0965E-03,            0.,NA,NA,"",   1.01112E+06,   1.02598E+06,   1.02598E+06
C:/temp/Job-1.odb,Step-1,Increment      1: Step Time =    1.000,"P-1-1",          1367,   89.6381E-03,   33.2789E-03,            0.,NA,NA,"",   1.01382E+06,   1.02821E+06,   1.02821E+06
C:/temp/Job-1.odb,Step-1,Increment      1: Step Time =    1.000,"P-1-1",          1368,   84.8861E-03,   31.9473E-03,            0.,NA,NA,"",   1.01860E+06,   1.02950E+06,   1.02950E+06
C:/temp/Job-1.odb,Step-1,Increment      1: Step Time =    1.000,"P-1-1",          1369,   81.4526E-03,   30.9865E-03,            0.,NA,NA,"",   1.02181E+06,   1.03048E+06,   1.03048E+06
C:/temp/Job-1.odb,Step-1,Increment      1: Step Time =    1.000,"P-1-1",          1370,   78.5063E-03,   32.4745E-03,            0.,NA,NA,"",   1.02993E+06,   1.03769E+06,   1.03769E+06
C:/temp/Job-1.odb,Step-1,Increment      1: Step Time =    1.000,"P-1-1",          1371,   75.9150E-03,   32.8959E-03,            0.,NA,NA,"",   1.03479E+06,   1.04127E+06,   1.04127E+06
C:/temp/Job-1.odb,Step-1,Increment      1: Step Time =    1.000,"P-1-1",          1372,   72.9350E-03,   32.9685E-03,            0.,NA,NA,"",   1.03912E+06,   1.04437E+06,   1.04437E+06
C:/temp/Job-1.odb,Step-1,Increment      1: Step Time =    1.000,"P-1-1",          1373,   69.5230E-03,   34.0542E-03,            0.,NA,NA,"",   1.04539E+06,   1.04976E+06,   1.04976E+06
C:/temp/Job-1.odb,Step-1,Increment      1: Step Time =    1.000,"P-1-1",          1374,   65.1115E-03,   32.5104E-03,            0.,NA,NA,"",   1.04579E+06,   1.04940E+06,   1.04940E+06
C:/temp/Job-1.odb,Step-1,Increment      1: Step Time =    1.000,"P-1-1",          1375,   62.4624E-03,   32.3910E-03,            0.,NA,NA,"",   1.04716E+06,   1.05092E+06,   1.05092E+06
C:/temp/Job-1.odb,Step-1,Increment      1: Step Time =    1.000,"P-1-1",          1376,   58.4571E-03,   33.1436E-03,            0.,NA,NA,"",   1.04951E+06,   1.05435E+06,   1.05435E+06
C:/temp/Job-1.odb,Step-1,Increment      1: Step Time =    1.000,"P-1-1",          1377,   54.7729E-03,   32.5515E-03,            0.,NA,NA,"",   1.04887E+06,   1.05523E+06,   1.05523E+06
C:/temp/Job-1.odb,Step-1,Increment      1: Step Time =    1.000,"P-1-1",          1378,   51.5867E-03,   32.9063E-03,            0.,NA,NA,"",   1.04839E+06,   1.05696E+06,   1.05696E+06
C:/temp/Job-1.odb,Step-1,Increment      1: Step Time =    1.000,"P-1-1",          1379,   48.9317E-03,   31.8505E-03,            0.,NA,NA,"",   1.04709E+06,   1.05722E+06,   1.05722E+06
C:/temp/Job-1.odb,Step-1,Increment      1: Step Time =    1.000,"P-1-1",          1380,   45.8310E-03,   33.3641E-03,            0.,NA,NA,"",   1.04509E+06,   1.05904E+06,   1.05904E+06
C:/temp/Job-1.odb,Step-1,Increment      1: Step Time =    1.000,"P-1-1",          1381,   41.2679E-03,   32.3845E-03,            0.,NA,NA,"",   1.04221E+06,   1.06066E+06,   1.06066E+06
C:/temp/Job-1.odb,Step-1,Increment      1: Step Time =    1.000,"P-1-1",          1382,   38.4495E-03,   32.4636E-03,            0.,NA,NA,"",   1.03905E+06,   1.06159E+06,   1.06159E+06
C:/temp/Job-1.odb,Step-1,Increment      1: Step Time =    1.000,"P-1-1",          1383,   35.6061E-03,   31.8800E-03,            0.,NA,NA,"",   1.03682E+06,   1.06300E+06,   1.06300E+06
C:/temp/Job-1.odb,Step-1,Increment      1: Step Time =    1.000,"P-1-1",          1384,   32.0047E-03,   31.9886E-03,            0.,NA,NA,"",   1.03184E+06,   1.06413E+06,   1.06413E+06
C:/temp/Job-1.odb,Step-1,Increment      1: Step Time =    1.000,"P-1-1",          1385,   28.9220E-03,   32.4982E-03,            0.,NA,NA,"",   1.02419E+06,   1.06325E+06,   1.06325E+06
C:/temp/Job-1.odb,Step-1,Increment      1: Step Time =    1.000,"P-1-1",          1386,   25.5154E-03,   32.6816E-03,            0.,NA,NA,"",   1.01601E+06,   1.06248E+06,   1.06248E+06
C:/temp/Job-1.odb,Step-1,Increment      1: Step Time =    1.000,"P-1-1",          1387,   22.1389E-03,   32.7418E-03,            0.,NA,NA,"",   1.00556E+06,   1.06018E+06,   1.06018E+06
C:/temp/Job-1.odb,Step-1,Increment      1: Step Time =    1.000,"P-1-1",          1388,   19.1879E-03,   32.6841E-03,            0.,NA,NA,"",   995.217E+03,   1.05751E+06,   1.05751E+06
C:/temp/Job-1.odb,Step-1,Increment      1: Step Time =    1.000,"P-1-1",          1389,   16.9302E-03,   33.9262E-03,            0.,NA,NA,"",   981.103E+03,   1.05019E+06,   1.05019E+06
C:/temp/Job-1.odb,Step-1,Increment      1: Step Time =    1.000,"P-1-1",          1390,   12.6089E-03,   33.2730E-03,            0.,NA,NA,"",   965.019E+03,   1.04507E+06,   1.04507E+06
C:/temp/Job-1.odb,Step-1,Increment      1: Step Time =    1.000,"P-1-1",          1391,   9.61958E-03,   32.7279E-03,            0.,NA,NA,"",   952.882E+03,   1.04049E+06,   1.04049E+06
C:/temp/Job-1.odb,Step-1,Increment      1: Step Time =    1.000,"P-1-1",          1392,   6.41277E-03,   32.6448E-03,            0.,NA,NA,"",   936.438E+03,   1.03214E+06,   1.03214E+06
C:/temp/Job-1.odb,Step-1,Increment      1: Step Time =    1.000,"P-1-1",          1393,   3.22399E-03,   32.6867E-03,            0.,NA,NA,"",   919.235E+03,   1.02218E+06,   1.02218E+06
C:/temp/Job-1.odb,Step-1,Increment      1: Step Time =    1.000,"P-1-1",          1394,   196.126E-03,   36.9965E-03,            0.,NA,NA,"",   998.768E+03,   1.00037E+06,   1.00037E+06
C:/temp/Job-1.odb,Step-1,Increment      1: Step Time =    1.000,"P-1-1",          1395,   192.640E-03,   35.8876E-03,            0.,NA,NA,"",   999.657E+03,   1.00113E+06,   1.00113E+06
C:/temp/Job-1.odb,Step-1,Increment      1: Step Time =    1.000,"P-1-1",          1396,   189.957E-03,   36.2178E-03,            0.,NA,NA,"",   1.00062E+06,   1.00203E+06,   1.00203E+06
C:/temp/Job-1.odb,Step-1,Increment      1: Step Time =    1.000,"P-1-1",          1397,   186.770E-03,   35.1596E-03,            0.,NA,NA,"",   1.00240E+06,   1.00325E+06,   1.00325E+06
C:/temp/Job-1.odb,Step-1,Increment      1: Step Time =    1.000,"P-1-1",          1398,   183.615E-03,   36.4988E-03,            0.,NA,NA,"",   1.00461E+06,   1.00498E+06,   1.00498E+06
C:/temp/Job-1.odb,Step-1,Increment      1: Step Time =    1.000,"P-1-1",          1399,   180.008E-03,   35.7829E-03,            0.,NA,NA,"",   1.00755E+06,   1.00691E+06,   1.00691E+06
C:/temp/Job-1.odb,Step-1,Increment      1: Step Time =    1.000,"P-1-1",          1400,   178.107E-03,   36.8754E-03,            0.,NA,NA,"",   1.00947E+06,   1.00833E+06,   1.00833E+06
C:/temp/Job-1.odb,Step-1,Increment      1: Step Time =    1.000,"P-1-1",          1401,   173.539E-03,   36.3239E-03,            0.,NA,NA,"",   1.01385E+06,   1.01122E+06,   1.01122E+06
C:/temp/Job-1.odb,Step-1,Increment      1: Step Time =    1.000,"P-1-1",          1402,   171.056E-03,   35.1874E-03,            0.,NA,NA,"",   1.01606E+06,   1.01262E+06,   1.01262E+06
C:/temp/Job-1.odb,Step-1,Increment      1: Step Time =    1.000,"P-1-1",          1403,   166.020E-03,   34.9734E-03,            0.,NA,NA,"",   1.02125E+06,   1.01617E+06,   1.01617E+06
C:/temp/Job-1.odb,Step-1,Increment      1: Step Time =    1.000,"P-1-1",          1404,   163.279E-03,   36.0332E-03,            0.,NA,NA,"",   1.02520E+06,   1.01899E+06,   1.01899E+06
C:/temp/Job-1.odb,Step-1,Increment      1: Step Time =    1.000,"P-1-1",          1405,   161.004E-03,   35.1856E-03,            0.,NA,NA,"",   1.02706E+06,   1.02030E+06,   1.02030E+06
C:/temp/Job-1.odb,Step-1,Increment      1: Step Time =    1.000,"P-1-1",          1406,   158.603E-03,   36.0975E-03,            0.,NA,NA,"",   1.03049E+06,   1.02283E+06,   1.02283E+06
C:/temp/Job-1.odb,Step-1,Increment      1: Step Time =    1.000,"P-1-1",          1407,   155.031E-03,   35.9138E-03,            0.,NA,NA,"",   1.03436E+06,   1.02577E+06,   1.02577E+06
C:/temp/Job-1.odb,Step-1,Increment      1: Step Time =    1.000,"P-1-1",          1408,   151.093E-03,   35.4914E-03,            0.,NA,NA,"",   1.03741E+06,   1.02830E+06,   1.02830E+06
C:/temp/Job-1.odb,Step-1,Increment      1: Step Time =    1.000,"P-1-1",          1409,   149.273E-03,   35.0373E-03,            0.,NA,NA,"",   1.03800E+06,   1.02892E+06,   1.02892E+06
C:/temp/Job-1.odb,Step-1,Increment      1: Step Time =    1.000,"P-1-1",          1410,   143.277E-03,   37.0413E-03,            0.,NA,NA,"",   1.04650E+06,   1.03645E+06,   1.03645E+06
C:/temp/Job-1.odb,Step-1,Increment      1: Step Time =    1.000,"P-1-1",          1411,   140.255E-03,   35.7510E-03,            0.,NA,NA,"",   1.04463E+06,   1.03578E+06,   1.03578E+06
C:/temp/Job-1.odb,Step-1,Increment      1: Step Time =    1.000,"P-1-1",          1412,   138.068E-03,   35.6012E-03,            0.,NA,NA,"",   1.04459E+06,   1.03643E+06,   1.03643E+06
C:/temp/Job-1.odb,Step-1,Increment      1: Step Time =    1.000,"P-1-1",          1413,   134.613E-03,   37.2259E-03,            0.,NA,NA,"",   1.04876E+06,   1.04123E+06,   1.04123E+06
C:/temp/Job-1.odb,Step-1,Increment      1: Step Time =    1.000,"P-1-1",          1414,   130.868E-03,   36.7078E-03,            0.,NA,NA,"",   1.04551E+06,   1.04055E+06,   1.04055E+06
C:/temp/Job-1.odb,Step-1,Increment      1: Step Time =    1.000,"P-1-1",          1415,   127.283E-03,   35.4969E-03,            0.,NA,NA,"",   1.03900E+06,   1.03709E+06,   1.03709E+06
C:/temp/Job-1.odb,Step-1,Increment      1: Step Time =    1.000,"P-1-1",          1416,   125.037E-03,   35.3024E-03,            0.,NA,NA,"",   1.03624E+06,   1.03615E+06,   1.03615E+06
C:/temp/Job-1.odb,Step-1,Increment      1: Step Time =    1.000,"P-1-1",          1417,   121.729E-03,   34.8438E-03,            0.,NA,NA,"",   1.03055E+06,   1.03348E+06,   1.03348E+06
C:/temp/Job-1.odb,Step-1,Increment      1: Step Time =    1.000,"P-1-1",          1418,   118.223E-03,   35.8732E-03,            0.,NA,NA,"",   1.02802E+06,   1.03436E+06,   1.03436E+06
C:/temp/Job-1.odb,Step-1,Increment      1: Step Time =    1.000,"P-1-1",          1419,   114.979E-03,   35.0143E-03,            0.,NA,NA,"",   1.02114E+06,   1.03039E+06,   1.03039E+06
C:/temp/Job-1.odb,Step-1,Increment      1: Step Time =    1.000,"P-1-1",          1420,   110.996E-03,   35.8086E-03,            0.,NA,NA,"",   1.01681E+06,   1.03009E+06,   1.03009E+06
C:/temp/Job-1.odb,Step-1,Increment      1: Step Time =    1.000,"P-1-1",          1421,   109.245E-03,   35.8854E-03,            0.,NA,NA,"",   1.01463E+06,   1.02918E+06,   1.02918E+06
C:/temp/Job-1.odb,Step-1,Increment      1: Step Time =    1.000,"P-1-1",          1422,   105.150E-03,   36.3267E-03,            0.,NA,NA,"",   1.01126E+06,   1.02894E+06,   1.02894E+06
C:/temp/Job-1.odb,Step-1,Increment      1: Step Time =    1.000,"P-1-1",          1423,   101.977E-03,   35.6934E-03,            0.,NA,NA,"",   1.00900E+06,   1.02722E+06,   1.02722E+06
C:/temp/Job-1.odb,Step-1,Increment      1: Step Time =    1.000,"P-1-1",          1424,   98.3445E-03,   35.9810E-03,            0.,NA,NA,"",   1.00961E+06,   1.02867E+06,   1.02867E+06
C:/temp/Job-1.odb,Step-1,Increment      1: Step Time =    1.000,"P-1-1",          1425,   95.1809E-03,   35.5537E-03,            0.,NA,NA,"",   1.01091E+06,   1.02915E+06,   1.02915E+06
C:/temp/Job-1.odb,Step-1,Increment      1: Step Time =    1.000,"P-1-1",          1426,   92.4361E-03,   35.7098E-03,            0.,NA,NA,"",   1.01418E+06,   1.03151E+06,   1.03151E+06
C:/temp/Job-1.odb,Step-1,Increment      1: Step Time =    1.000,"P-1-1",          1427,   89.2251E-03,   35.3196E-03,            0.,NA,NA,"",   1.01786E+06,   1.03347E+06,   1.03347E+06
C:/temp/Job-1.odb,Step-1,Increment      1: Step Time =    1.000,"P-1-1",          1428,   85.7109E-03,   34.9524E-03,            0.,NA,NA,"",   1.02304E+06,   1.03621E+06,   1.03621E+06
C:/temp/Job-1.odb,Step-1,Increment      1: Step Time =    1.000,"P-1-1",          1429,   82.0126E-03,   34.1557E-03,            0.,NA,NA,"",   1.02774E+06,   1.03815E+06,   1.03815E+06
C:/temp/Job-1.odb,Step-1,Increment      1: Step Time =    1.000,"P-1-1",          1430,   79.1333E-03,   36.0250E-03,            0.,NA,NA,"",   1.03698E+06,   1.04639E+06,   1.04639E+06
C:/temp/Job-1.odb,Step-1,Increment      1: Step Time =    1.000,"P-1-1",          1431,   76.0399E-03,   36.0562E-03,            0.,NA,NA,"",   1.04206E+06,   1.04941E+06,   1.04941E+06
C:/temp/Job-1.odb,Step-1,Increment      1: Step Time =    1.000,"P-1-1",          1432,   72.5990E-03,   36.9971E-03,            0.,NA,NA,"",   1.04912E+06,   1.05486E+06,   1.05486E+06
C:/temp/Job-1.odb,Step-1,Increment      1: Step Time =    1.000,"P-1-1",          1433,   69.9148E-03,   37.3454E-03,            0.,NA,NA,"",   1.05249E+06,   1.05731E+06,   1.05731E+06
C:/temp/Job-1.odb,Step-1,Increment      1: Step Time =    1.000,"P-1-1",          1434,   66.0519E-03,   36.4849E-03,            0.,NA,NA,"",   1.05326E+06,   1.05730E+06,   1.05730E+06
C:/temp/Job-1.odb,Step-1,Increment      1: Step Time =    1.000,"P-1-1",          1435,   63.3686E-03,   35.4898E-03,            0.,NA,NA,"",   1.05239E+06,   1.05646E+06,   1.05646E+06
C:/temp/Job-1.odb,Step-1,Increment      1: Step Time =    1.000,"P-1-1",          1436,   58.4800E-03,   36.2442E-03,            0.,NA,NA,"",   1.05361E+06,   1.05908E+06,   1.05908E+06
C:/temp/Job-1.odb,Step-1,Increment      1: Step Time =    1.000,"P-1-1",          1437,   54.8650E-03,   35.7930E-03,            0.,NA,NA,"",   1.05166E+06,   1.05906E+06,   1.05906E+06
C:/temp/Job-1.odb,Step-1,Increment      1: Step Time =    1.000,"P-1-1",          1438,   52.7453E-03,   36.0547E-03,            0.,NA,NA,"",   1.05043E+06,   1.05933E+06,   1.05933E+06
C:/temp/Job-1.odb,Step-1,Increment      1: Step Time =    1.000,"P-1-1",          1439,   49.6974E-03,   35.0220E-03,            0.,NA,NA,"",   1.04790E+06,   1.05892E+06,   1.05892E+06
C:/temp/Job-1.odb,Step-1,Increment      1: Step Time =    1.000,"P-1-1",          1440,   45.5310E-03,   36.7415E-03,            0.,NA,NA,"",   1.04288E+06,   1.05920E+06,   1.05920E+06
C:/temp/Job-1.odb,Step-1,Increment      1: Step Time =    1.000,"P-1-1",          1441,   42.3943E-03,   35.4207E-03,            0.,NA,NA,"",   1.03986E+06,   1.05930E+06,   1.05930E+06
C:/temp/Job-1.odb,Step-1,Increment      1: Step Time =    1.000,"P-1-1",          1442,   38.9871E-03,   34.4390E-03,            0.,NA,NA,"",   1.03662E+06,   1.06015E+06,   1.06015E+06
C:/temp/Job-1.odb,Step-1,Increment      1: Step Time =    1.000,"P-1-1",          1443,   35.7056E-03,   35.2073E-03,            0.,NA,NA,"",   1.02939E+06,   1.05887E+06,   1.05887E+06
C:/temp/Job-1.odb,Step-1,Increment      1: Step Time =    1.000,"P-1-1",          1444,   33.1752E-03,   35.0230E-03,            0.,NA,NA,"",   1.02517E+06,   1.05882E+06,   1.05882E+06
C:/temp/Job-1.odb,Step-1,Increment      1: Step Time =    1.000,"P-1-1",          1445,   29.3544E-03,   35.4773E-03,            0.,NA,NA,"",   1.01500E+06,   1.05665E+06,   1.05665E+06
C:/temp/Job-1.odb,Step-1,Increment      1: Step Time =    1.000,"P-1-1",          1446,   25.7147E-03,   35.9182E-03,            0.,NA,NA,"",   1.00331E+06,   1.05329E+06,   1.05329E+06
C:/temp/Job-1.odb,Step-1,Increment      1: Step Time =    1.000,"P-1-1",          1447,   22.3685E-03,   35.7661E-03,            0.,NA,NA,"",   993.531E+03,   1.05085E+06,   1.05085E+06
C:/temp/Job-1.odb,Step-1,Increment      1: Step Time =    1.000,"P-1-1",          1448,   20.4387E-03,   36.1468E-03,            0.,NA,NA,"",   984.826E+03,   1.04722E+06,   1.04722E+06
C:/temp/Job-1.odb,Step-1,Increment      1: Step Time =    1.000,"P-1-1",          1449,   16.0120E-03,   37.2812E-03,            0.,NA,NA,"",   961.761E+03,   1.03611E+06,   1.03611E+06
C:/temp/Job-1.odb,Step-1,Increment      1: Step Time =    1.000,"P-1-1",          1450,   12.2728E-03,   36.2506E-03,            0.,NA,NA,"",   949.051E+03,   1.03205E+06,   1.03205E+06
C:/temp/Job-1.odb,Step-1,Increment      1: Step Time =    1.000,"P-1-1",          1451,   9.57211E-03,   35.2839E-03,            0.,NA,NA,"",   939.885E+03,   1.02910E+06,   1.02910E+06
C:/temp/Job-1.odb,Step-1,Increment      1: Step Time =    1.000,"P-1-1",          1452,   6.49207E-03,   37.2549E-03,            0.,NA,NA,"",   916.458E+03,   1.01305E+06,   1.01305E+06
C:/temp/Job-1.odb,Step-1,Increment      1: Step Time =    1.000,"P-1-1",          1453,   3.30149E-03,   35.9007E-03,            0.,NA,NA,"",   905.756E+03,   1.00878E+06,   1.00878E+06
C:/temp/Job-1.odb,Step-1,Increment      1: Step Time =    1.000,"P-1-1",          1454,   196.830E-03,   40.1486E-03,            0.,NA,NA,"",   997.861E+03,   1.00028E+06,   1.00028E+06
C:/temp/Job-1.odb,Step-1,Increment      1: Step Time =    1.000,"P-1-1",          1455,   193.334E-03,   39.9022E-03,            0.,NA,NA,"",   998.649E+03,   1.00108E+06,   1.00108E+06
C:/temp/Job-1.odb,Step-1,Increment      1: Step Time =    1.000,"P-1-1",          1456,   189.880E-03,   38.9042E-03,            0.,NA,NA,"",   1.00035E+06,   1.00227E+06,   1.00227E+06
C:/temp/Job-1.odb,Step-1,Increment      1: Step Time =    1.000,"P-1-1",          1457,   186.695E-03,   39.2281E-03,            0.,NA,NA,"",   1.00217E+06,   1.00366E+06,   1.00366E+06
C:/temp/Job-1.odb,Step-1,Increment      1: Step Time =    1.000,"P-1-1",          1458,   183.699E-03,   39.9922E-03,            0.,NA,NA,"",   1.00463E+06,   1.00544E+06,   1.00544E+06
C:/temp/Job-1.odb,Step-1,Increment      1: Step Time =    1.000,"P-1-1",          1459,   180.518E-03,   39.3710E-03,            0.,NA,NA,"",   1.00752E+06,   1.00730E+06,   1.00730E+06
C:/temp/Job-1.odb,Step-1,Increment      1: Step Time =    1.000,"P-1-1",          1460,   177.124E-03,   38.9695E-03,            0.,NA,NA,"",   1.01094E+06,   1.00953E+06,   1.00953E+06
C:/temp/Job-1.odb,Step-1,Increment      1: Step Time =    1.000,"P-1-1",          1461,   173.710E-03,   39.3056E-03,            0.,NA,NA,"",   1.01493E+06,   1.01221E+06,   1.01221E+06
C:/temp/Job-1.odb,Step-1,Increment      1: Step Time =    1.000,"P-1-1",          1462,   170.287E-03,   39.7321E-03,            0.,NA,NA,"",   1.01928E+06,   1.01514E+06,   1.01514E+06
C:/temp/Job-1.odb,Step-1,Increment      1: Step Time =    1.000,"P-1-1",          1463,   166.584E-03,   39.7155E-03,            0.,NA,NA,"",   1.02406E+06,   1.01839E+06,   1.01839E+06
C:/temp/Job-1.odb,Step-1,Increment      1: Step Time =    1.000,"P-1-1",          1464,   162.969E-03,   40.2738E-03,            0.,NA,NA,"",   1.02947E+06,   1.02216E+06,   1.02216E+06
C:/temp/Job-1.odb,Step-1,Increment      1: Step Time =    1.000,"P-1-1",          1465,   160.233E-03,   39.8206E-03,            0.,NA,NA,"",   1.03305E+06,   1.02471E+06,   1.02471E+06
C:/temp/Job-1.odb,Step-1,Increment      1: Step Time =    1.000,"P-1-1",          1466,   157.707E-03,   39.1337E-03,            0.,NA,NA,"",   1.03559E+06,   1.02659E+06,   1.02659E+06
C:/temp/Job-1.odb,Step-1,Increment      1: Step Time =    1.000,"P-1-1",          1467,   154.341E-03,   38.8495E-03,            0.,NA,NA,"",   1.03943E+06,   1.02954E+06,   1.02954E+06
C:/temp/Job-1.odb,Step-1,Increment      1: Step Time =    1.000,"P-1-1",          1468,   150.753E-03,   38.9509E-03,            0.,NA,NA,"",   1.04391E+06,   1.03316E+06,   1.03316E+06
C:/temp/Job-1.odb,Step-1,Increment      1: Step Time =    1.000,"P-1-1",          1469,   147.194E-03,   39.6249E-03,            0.,NA,NA,"",   1.04909E+06,   1.03754E+06,   1.03754E+06
C:/temp/Job-1.odb,Step-1,Increment      1: Step Time =    1.000,"P-1-1",          1470,   143.137E-03,   39.0878E-03,            0.,NA,NA,"",   1.05136E+06,   1.04020E+06,   1.04020E+06
C:/temp/Job-1.odb,Step-1,Increment      1: Step Time =    1.000,"P-1-1",          1471,   140.185E-03,   39.9185E-03,            0.,NA,NA,"",   1.05518E+06,   1.04402E+06,   1.04402E+06
C:/temp/Job-1.odb,Step-1,Increment      1: Step Time =    1.000,"P-1-1",          1472,   138.253E-03,   39.9771E-03,            0.,NA,NA,"",   1.05617E+06,   1.04552E+06,   1.04552E+06
C:/temp/Job-1.odb,Step-1,Increment      1: Step Time =    1.000,"P-1-1",          1473,   135.254E-03,   39.3935E-03,            0.,NA,NA,"",   1.05486E+06,   1.04586E+06,   1.04586E+06
C:/temp/Job-1.odb,Step-1,Increment      1: Step Time =    1.000,"P-1-1",          1474,   130.678E-03,   40.1337E-03,            0.,NA,NA,"",   1.05581E+06,   1.04941E+06,   1.04941E+06
C:/temp/Job-1.odb,Step-1,Increment      1: Step Time =    1.000,"P-1-1",          1475,   127.393E-03,   38.7749E-03,            0.,NA,NA,"",   1.04873E+06,   1.04580E+06,   1.04580E+06
C:/temp/Job-1.odb,Step-1,Increment      1: Step Time =    1.000,"P-1-1",          1476,   123.519E-03,   39.4680E-03,            0.,NA,NA,"",   1.04615E+06,   1.04709E+06,   1.04709E+06
C:/temp/Job-1.odb,Step-1,Increment      1: Step Time =    1.000,"P-1-1",          1477,   120.929E-03,   39.3507E-03,            0.,NA,NA,"",   1.04149E+06,   1.04536E+06,   1.04536E+06
C:/temp/Job-1.odb,Step-1,Increment      1: Step Time =    1.000,"P-1-1",          1478,   117.246E-03,   39.0542E-03,            0.,NA,NA,"",   1.03413E+06,   1.04244E+06,   1.04244E+06
C:/temp/Job-1.odb,Step-1,Increment      1: Step Time =    1.000,"P-1-1",          1479,   114.398E-03,   37.9734E-03,            0.,NA,NA,"",   1.02662E+06,   1.03767E+06,   1.03767E+06
C:/temp/Job-1.odb,Step-1,Increment      1: Step Time =    1.000,"P-1-1",          1480,   111.547E-03,   39.6374E-03,            0.,NA,NA,"",   1.02488E+06,   1.04000E+06,   1.04000E+06
C:/temp/Job-1.odb,Step-1,Increment      1: Step Time =    1.000,"P-1-1",          1481,   107.373E-03,   38.9609E-03,            0.,NA,NA,"",   1.01729E+06,   1.03594E+06,   1.03594E+06
C:/temp/Job-1.odb,Step-1,Increment      1: Step Time =    1.000,"P-1-1",          1482,   104.950E-03,   39.5435E-03,            0.,NA,NA,"",   1.01546E+06,   1.03638E+06,   1.03638E+06
C:/temp/Job-1.odb,Step-1,Increment      1: Step Time =    1.000,"P-1-1",          1483,   100.624E-03,   39.3142E-03,            0.,NA,NA,"",   1.01293E+06,   1.03528E+06,   1.03528E+06
C:/temp/Job-1.odb,Step-1,Increment      1: Step Time =    1.000,"P-1-1",          1484,   97.5583E-03,   38.8632E-03,            0.,NA,NA,"",   1.01328E+06,   1.03519E+06,   1.03519E+06
C:/temp/Job-1.odb,Step-1,Increment      1: Step Time =    1.000,"P-1-1",          1485,   95.0507E-03,   39.0582E-03,            0.,NA,NA,"",   1.01541E+06,   1.03735E+06,   1.03735E+06
C:/temp/Job-1.odb,Step-1,Increment      1: Step Time =    1.000,"P-1-1",          1486,   92.1612E-03,   39.0887E-03,            0.,NA,NA,"",   1.01940E+06,   1.03988E+06,   1.03988E+06
C:/temp/Job-1.odb,Step-1,Increment      1: Step Time =    1.000,"P-1-1",          1487,   89.0327E-03,   39.2719E-03,            0.,NA,NA,"",   1.02500E+06,   1.04364E+06,   1.04364E+06
C:/temp/Job-1.odb,Step-1,Increment      1: Step Time =    1.000,"P-1-1",          1488,   85.4324E-03,   38.7346E-03,            0.,NA,NA,"",   1.03096E+06,   1.04633E+06,   1.04633E+06
C:/temp/Job-1.odb,Step-1,Increment      1: Step Time =    1.000,"P-1-1",          1489,   83.2118E-03,   37.6905E-03,            0.,NA,NA,"",   1.03317E+06,   1.04619E+06,   1.04619E+06
C:/temp/Job-1.odb,Step-1,Increment      1: Step Time =    1.000,"P-1-1",          1490,   79.2200E-03,   39.3544E-03,            0.,NA,NA,"",   1.04444E+06,   1.05484E+06,   1.05484E+06
C:/temp/Job-1.odb,Step-1,Increment      1: Step Time =    1.000,"P-1-1",          1491,   75.9816E-03,   39.3834E-03,            0.,NA,NA,"",   1.05014E+06,   1.05813E+06,   1.05813E+06
C:/temp/Job-1.odb,Step-1,Increment      1: Step Time =    1.000,"P-1-1",          1492,   72.6342E-03,   38.9941E-03,            0.,NA,NA,"",   1.05357E+06,   1.05951E+06,   1.05951E+06
C:/temp/Job-1.odb,Step-1,Increment      1: Step Time =    1.000,"P-1-1",          1493,   69.7642E-03,   40.0164E-03,            0.,NA,NA,"",   1.05874E+06,   1.06356E+06,   1.06356E+06
C:/temp/Job-1.odb,Step-1,Increment      1: Step Time =    1.000,"P-1-1",          1494,   65.6894E-03,   39.4744E-03,            0.,NA,NA,"",   1.05930E+06,   1.06347E+06,   1.06347E+06
C:/temp/Job-1.odb,Step-1,Increment      1: Step Time =    1.000,"P-1-1",          1495,   62.3559E-03,   38.8192E-03,            0.,NA,NA,"",   1.05812E+06,   1.06266E+06,   1.06266E+06
C:/temp/Job-1.odb,Step-1,Increment      1: Step Time =    1.000,"P-1-1",          1496,   59.3877E-03,   39.2630E-03,            0.,NA,NA,"",   1.05756E+06,   1.06305E+06,   1.06305E+06
C:/temp/Job-1.odb,Step-1,Increment      1: Step Time =    1.000,"P-1-1",          1497,   55.1714E-03,   39.7408E-03,            0.,NA,NA,"",   1.05439E+06,   1.06251E+06,   1.06251E+06
C:/temp/Job-1.odb,Step-1,Increment      1: Step Time =    1.000,"P-1-1",          1498,   52.3617E-03,   39.8613E-03,            0.,NA,NA,"",   1.05100E+06,   1.06152E+06,   1.06152E+06
C:/temp/Job-1.odb,Step-1,Increment      1: Step Time =    1.000,"P-1-1",          1499,   49.3209E-03,   38.0153E-03,            0.,NA,NA,"",   1.04721E+06,   1.05996E+06,   1.05996E+06
C:/temp/Job-1.odb,Step-1,Increment      1: Step Time =    1.000,"P-1-1",          1500,   45.9755E-03,   39.5814E-03,            0.,NA,NA,"",   1.04087E+06,   1.05851E+06,   1.05851E+06
C:/temp/Job-1.odb,Step-1,Increment      1: Step Time =    1.000,"P-1-1",          1501,   42.8615E-03,   38.4962E-03,            0.,NA,NA,"",   1.03648E+06,   1.05762E+06,   1.05762E+06
C:/temp/Job-1.odb,Step-1,Increment      1: Step Time =    1.000,"P-1-1",          1502,   35.3763E-03,   39.3394E-03,            0.,NA,NA,"",   1.01876E+06,   1.05262E+06,   1.05262E+06
C:/temp/Job-1.odb,Step-1,Increment      1: Step Time =    1.000,"P-1-1",          1503,   32.6941E-03,   39.2682E-03,            0.,NA,NA,"",   1.01122E+06,   1.05034E+06,   1.05034E+06
C:/temp/Job-1.odb,Step-1,Increment      1: Step Time =    1.000,"P-1-1",          1504,   30.1897E-03,   39.3474E-03,            0.,NA,NA,"",   1.00439E+06,   1.04821E+06,   1.04821E+06
C:/temp/Job-1.odb,Step-1,Increment      1: Step Time =    1.000,"P-1-1",          1505,   27.4592E-03,   39.2169E-03,            0.,NA,NA,"",   996.417E+03,   1.04591E+06,   1.04591E+06
C:/temp/Job-1.odb,Step-1,Increment      1: Step Time =    1.000,"P-1-1",          1506,   23.6720E-03,   39.4162E-03,            0.,NA,NA,"",   982.254E+03,   1.04048E+06,   1.04048E+06
C:/temp/Job-1.odb,Step-1,Increment      1: Step Time =    1.000,"P-1-1",          1507,   21.0679E-03,   40.0091E-03,            0.,NA,NA,"",   970.551E+03,   1.03495E+06,   1.03495E+06
C:/temp/Job-1.odb,Step-1,Increment      1: Step Time =    1.000,"P-1-1",          1508,   17.0052E-03,   40.0628E-03,            0.,NA,NA,"",   953.161E+03,   1.02739E+06,   1.02739E+06
C:/temp/Job-1.odb,Step-1,Increment      1: Step Time =    1.000,"P-1-1",          1509,   13.5479E-03,   38.2177E-03,            0.,NA,NA,"",   946.448E+03,   1.02735E+06,   1.02735E+06
C:/temp/Job-1.odb,Step-1,Increment      1: Step Time =    1.000,"P-1-1",          1510,   10.1012E-03,   38.5374E-03,            0.,NA,NA,"",   928.010E+03,   1.01732E+06,   1.01732E+06
C:/temp/Job-1.odb,Step-1,Increment      1: Step Time =    1.000,"P-1-1",          1511,   5.64740E-03,   39.6114E-03,            0.,NA,NA,"",   903.180E+03,   1.00193E+06,   1.00193E+06
C:/temp/Job-1.odb,Step-1,Increment      1: Step Time =    1.000,"P-1-1",          1512,   2.93172E-03,   39.0447E-03,            0.,NA,NA,"",   892.128E+03,   995.858E+03,   995.858E+03
C:/temp/Job-1.odb,Step-1,Increment      1: Step Time =    1.000,"P-1-1",          1513,   193.550E-03,   42.2185E-03,            0.,NA,NA,"",   997.975E+03,   1.00108E+06,   1.00108E+06
C:/temp/Job-1.odb,Step-1,Increment      1: Step Time =    1.000,"P-1-1",          1514,   190.328E-03,   43.0009E-03,            0.,NA,NA,"",   999.187E+03,   1.00224E+06,   1.00224E+06
C:/temp/Job-1.odb,Step-1,Increment      1: Step Time =    1.000,"P-1-1",          1515,   186.401E-03,   42.2066E-03,            0.,NA,NA,"",   1.00219E+06,   1.00414E+06,   1.00414E+06
C:/temp/Job-1.odb,Step-1,Increment      1: Step Time =    1.000,"P-1-1",          1516,   182.905E-03,   43.0188E-03,            0.,NA,NA,"",   1.00527E+06,   1.00630E+06,   1.00630E+06
C:/temp/Job-1.odb,Step-1,Increment      1: Step Time =    1.000,"P-1-1",          1517,   179.666E-03,   42.1639E-03,            0.,NA,NA,"",   1.00861E+06,   1.00835E+06,   1.00835E+06
C:/temp/Job-1.odb,Step-1,Increment      1: Step Time =    1.000,"P-1-1",          1518,   176.794E-03,   41.6337E-03,            0.,NA,NA,"",   1.01174E+06,   1.01034E+06,   1.01034E+06
C:/temp/Job-1.odb,Step-1,Increment      1: Step Time =    1.000,"P-1-1",          1519,   173.805E-03,   41.9853E-03,            0.,NA,NA,"",   1.01559E+06,   1.01287E+06,   1.01287E+06
C:/temp/Job-1.odb,Step-1,Increment      1: Step Time =    1.000,"P-1-1",          1520,   171.016E-03,   42.6862E-03,            0.,NA,NA,"",   1.01945E+06,   1.01547E+06,   1.01547E+06
C:/temp/Job-1.odb,Step-1,Increment      1: Step Time =    1.000,"P-1-1",          1521,   167.854E-03,   42.6589E-03,            0.,NA,NA,"",   1.02399E+06,   1.01849E+06,   1.01849E+06
C:/temp/Job-1.odb,Step-1,Increment      1: Step Time =    1.000,"P-1-1",          1522,   164.857E-03,   42.7944E-03,            0.,NA,NA,"",   1.02858E+06,   1.02161E+06,   1.02161E+06
C:/temp/Job-1.odb,Step-1,Increment      1: Step Time =    1.000,"P-1-1",          1523,   161.386E-03,   42.8950E-03,            0.,NA,NA,"",   1.03412E+06,   1.02546E+06,   1.02546E+06
C:/temp/Job-1.odb,Step-1,Increment      1: Step Time =    1.000,"P-1-1",          1524,   157.878E-03,   42.3609E-03,            0.,NA,NA,"",   1.03905E+06,   1.02903E+06,   1.02903E+06
C:/temp/Job-1.odb,Step-1,Increment      1: Step Time =    1.000,"P-1-1",          1525,   154.372E-03,   42.1619E-03,            0.,NA,NA,"",   1.04409E+06,   1.03285E+06,   1.03285E+06
C:/temp/Job-1.odb,Step-1,Increment      1: Step Time =    1.000,"P-1-1",          1526,   151.009E-03,   42.3673E-03,            0.,NA,NA,"",   1.04939E+06,   1.03704E+06,   1.03704E+06
C:/temp/Job-1.odb,Step-1,Increment      1: Step Time =    1.000,"P-1-1",          1527,   147.147E-03,   42.4902E-03,            0.,NA,NA,"",   1.05467E+06,   1.04155E+06,   1.04155E+06
C:/temp/Job-1.odb,Step-1,Increment      1: Step Time =    1.000,"P-1-1",          1528,   143.842E-03,   42.1467E-03,            0.,NA,NA,"",   1.05774E+06,   1.04473E+06,   1.04473E+06
C:/temp/Job-1.odb,Step-1,Increment      1: Step Time =    1.000,"P-1-1",          1529,   140.988E-03,   42.8328E-03,            0.,NA,NA,"",   1.06208E+06,   1.04889E+06,   1.04889E+06
C:/temp/Job-1.odb,Step-1,Increment      1: Step Time =    1.000,"P-1-1",          1530,   137.382E-03,   43.0719E-03,            0.,NA,NA,"",   1.06512E+06,   1.05278E+06,   1.05278E+06
C:/temp/Job-1.odb,Step-1,Increment      1: Step Time =    1.000,"P-1-1",          1531,   134.390E-03,   43.5328E-03,            0.,NA,NA,"",   1.06748E+06,   1.05625E+06,   1.05625E+06
C:/temp/Job-1.odb,Step-1,Increment      1: Step Time =    1.000,"P-1-1",          1532,   130.836E-03,   43.1699E-03,            0.,NA,NA,"",   1.06534E+06,   1.05711E+06,   1.05711E+06
C:/temp/Job-1.odb,Step-1,Increment      1: Step Time =    1.000,"P-1-1",          1533,   127.260E-03,   42.3799E-03,            0.,NA,NA,"",   1.06000E+06,   1.05576E+06,   1.05576E+06
C:/temp/Job-1.odb,Step-1,Increment      1: Step Time =    1.000,"P-1-1",          1534,   124.221E-03,   42.9148E-03,            0.,NA,NA,"",   1.05787E+06,   1.05692E+06,   1.05692E+06
C:/temp/Job-1.odb,Step-1,Increment      1: Step Time =    1.000,"P-1-1",          1535,   118.104E-03,   42.5660E-03,            0.,NA,NA,"",   1.04522E+06,   1.05311E+06,   1.05311E+06
C:/temp/Job-1.odb,Step-1,Increment      1: Step Time =    1.000,"P-1-1",          1536,   115.471E-03,   41.9554E-03,            0.,NA,NA,"",   1.03769E+06,   1.04924E+06,   1.04924E+06
C:/temp/Job-1.odb,Step-1,Increment      1: Step Time =    1.000,"P-1-1",          1537,   112.522E-03,   42.5437E-03,            0.,NA,NA,"",   1.03257E+06,   1.04847E+06,   1.04847E+06
C:/temp/Job-1.odb,Step-1,Increment      1: Step Time =    1.000,"P-1-1",          1538,   108.115E-03,   42.6825E-03,            0.,NA,NA,"",   1.02399E+06,   1.04550E+06,   1.04550E+06
C:/temp/Job-1.odb,Step-1,Increment      1: Step Time =    1.000,"P-1-1",          1539,   104.990E-03,   42.9441E-03,            0.,NA,NA,"",   1.01985E+06,   1.04454E+06,   1.04454E+06
C:/temp/Job-1.odb,Step-1,Increment      1: Step Time =    1.000,"P-1-1",          1540,   101.392E-03,   42.8218E-03,            0.,NA,NA,"",   1.01700E+06,   1.04359E+06,   1.04359E+06
C:/temp/Job-1.odb,Step-1,Increment      1: Step Time =    1.000,"P-1-1",          1541,   98.1301E-03,   42.6577E-03,            0.,NA,NA,"",   1.01736E+06,   1.04383E+06,   1.04383E+06
C:/temp/Job-1.odb,Step-1,Increment      1: Step Time =    1.000,"P-1-1",          1542,   95.9160E-03,   43.1549E-03,            0.,NA,NA,"",   1.01947E+06,   1.04631E+06,   1.04631E+06
C:/temp/Job-1.odb,Step-1,Increment      1: Step Time =    1.000,"P-1-1",          1543,   92.3353E-03,   42.6277E-03,            0.,NA,NA,"",   1.02413E+06,   1.04845E+06,   1.04845E+06
C:/temp/Job-1.odb,Step-1,Increment      1: Step Time =    1.000,"P-1-1",          1544,   90.1467E-03,   42.9561E-03,            0.,NA,NA,"",   1.02891E+06,   1.05176E+06,   1.05176E+06
C:/temp/Job-1.odb,Step-1,Increment      1: Step Time =    1.000,"P-1-1",          1545,   86.3535E-03,   42.3906E-03,            0.,NA,NA,"",   1.03660E+06,   1.05513E+06,   1.05513E+06
C:/temp/Job-1.odb,Step-1,Increment      1: Step Time =    1.000,"P-1-1",          1546,   82.2946E-03,   42.0632E-03,            0.,NA,NA,"",   1.04488E+06,   1.05900E+06,   1.05900E+06
C:/temp/Job-1.odb,Step-1,Increment      1: Step Time =    1.000,"P-1-1",          1547,   79.5057E-03,   42.7262E-03,            0.,NA,NA,"",   1.05229E+06,   1.06384E+06,   1.06384E+06
C:/temp/Job-1.odb,Step-1,Increment      1: Step Time =    1.000,"P-1-1",          1548,   76.5044E-03,   41.6982E-03,            0.,NA,NA,"",   1.05525E+06,   1.06392E+06,   1.06392E+06
C:/temp/Job-1.odb,Step-1,Increment      1: Step Time =    1.000,"P-1-1",          1549,   72.9816E-03,   42.3794E-03,            0.,NA,NA,"",   1.06154E+06,   1.06771E+06,   1.06771E+06
C:/temp/Job-1.odb,Step-1,Increment      1: Step Time =    1.000,"P-1-1",          1550,   69.8836E-03,   42.3896E-03,            0.,NA,NA,"",   1.06409E+06,   1.06890E+06,   1.06890E+06
C:/temp/Job-1.odb,Step-1,Increment      1: Step Time =    1.000,"P-1-1",          1551,   65.5181E-03,   42.3624E-03,            0.,NA,NA,"",   1.06494E+06,   1.06898E+06,   1.06898E+06
C:/temp/Job-1.odb,Step-1,Increment      1: Step Time =    1.000,"P-1-1",          1552,   61.9768E-03,   41.5920E-03,            0.,NA,NA,"",   1.06217E+06,   1.06685E+06,   1.06685E+06
C:/temp/Job-1.odb,Step-1,Increment      1: Step Time =    1.000,"P-1-1",          1553,   59.0943E-03,   42.6894E-03,            0.,NA,NA,"",   1.06094E+06,   1.06691E+06,   1.06691E+06
C:/temp/Job-1.odb,Step-1,Increment      1: Step Time =    1.000,"P-1-1",          1554,   55.8126E-03,   43.0013E-03,            0.,NA,NA,"",   1.05679E+06,   1.06503E+06,   1.06503E+06
C:/temp/Job-1.odb,Step-1,Increment      1: Step Time =    1.000,"P-1-1",          1555,   52.6487E-03,   43.1985E-03,            0.,NA,NA,"",   1.05124E+06,   1.06258E+06,   1.06258E+06
C:/temp/Job-1.odb,Step-1,Increment      1: Step Time =    1.000,"P-1-1",          1556,   48.9720E-03,   42.0308E-03,            0.,NA,NA,"",   1.04459E+06,   1.05966E+06,   1.05966E+06
C:/temp/Job-1.odb,Step-1,Increment      1: Step Time =    1.000,"P-1-1",          1557,   46.5964E-03,   42.7917E-03,            0.,NA,NA,"",   1.03882E+06,   1.05733E+06,   1.05733E+06
C:/temp/Job-1.odb,Step-1,Increment      1: Step Time =    1.000,"P-1-1",          1558,   42.3206E-03,   41.4389E-03,            0.,NA,NA,"",   1.03072E+06,   1.05469E+06,   1.05469E+06
C:/temp/Job-1.odb,Step-1,Increment      1: Step Time =    1.000,"P-1-1",          1559,   38.3351E-03,   41.9652E-03,            0.,NA,NA,"",   1.01978E+06,   1.05068E+06,   1.05068E+06
C:/temp/Job-1.odb,Step-1,Increment      1: Step Time =    1.000,"P-1-1",          1560,   35.5036E-03,   42.4654E-03,            0.,NA,NA,"",   1.01060E+06,   1.04702E+06,   1.04702E+06
C:/temp/Job-1.odb,Step-1,Increment      1: Step Time =    1.000,"P-1-1",          1561,   32.3982E-03,   42.9448E-03,            0.,NA,NA,"",   999.584E+03,   1.04242E+06,   1.04242E+06
C:/temp/Job-1.odb,Step-1,Increment      1: Step Time =    1.000,"P-1-1",          1562,   29.4814E-03,   43.2648E-03,            0.,NA,NA,"",   988.883E+03,   1.03790E+06,   1.03790E+06
C:/temp/Job-1.odb,Step-1,Increment      1: Step Time =    1.000,"P-1-1",          1563,   26.3558E-03,   42.2736E-03,            0.,NA,NA,"",   981.026E+03,   1.03587E+06,   1.03587E+06
C:/temp/Job-1.odb,Step-1,Increment      1: Step Time =    1.000,"P-1-1",          1564,   23.2344E-03,   42.9719E-03,            0.,NA,NA,"",   967.483E+03,   1.02953E+06,   1.02953E+06
C:/temp/Job-1.odb,Step-1,Increment      1: Step Time =    1.000,"P-1-1",          1565,   19.2631E-03,   43.2389E-03,            0.,NA,NA,"",   950.207E+03,   1.02140E+06,   1.02140E+06
C:/temp/Job-1.odb,Step-1,Increment      1: Step Time =    1.000,"P-1-1",          1566,   16.5336E-03,   43.4779E-03,            0.,NA,NA,"",   938.374E+03,   1.01541E+06,   1.01541E+06
C:/temp/Job-1.odb,Step-1,Increment      1: Step Time =    1.000,"P-1-1",          1567,   13.6725E-03,   41.8852E-03,            0.,NA,NA,"",   931.539E+03,   1.01418E+06,   1.01418E+06
C:/temp/Job-1.odb,Step-1,Increment      1: Step Time =    1.000,"P-1-1",          1568,   9.22027E-03,   42.1501E-03,            0.,NA,NA,"",   910.467E+03,   1.00261E+06,   1.00261E+06
C:/temp/Job-1.odb,Step-1,Increment      1: Step Time =    1.000,"P-1-1",          1569,   5.50090E-03,   43.6983E-03,            0.,NA,NA,"",   887.874E+03,   987.325E+03,   987.325E+03
C:/temp/Job-1.odb,Step-1,Increment      1: Step Time =    1.000,"P-1-1",          1570,   2.76003E-03,   42.0836E-03,            0.,NA,NA,"",   880.881E+03,   984.913E+03,   984.913E+03
C:/temp/Job-1.odb,Step-1,Increment      1: Step Time =    1.000,"P-1-1",          1571,   196.839E-03,   46.6529E-03,            0.,NA,NA,"",   995.424E+03,   1.00031E+06,   1.00031E+06
C:/temp/Job-1.odb,Step-1,Increment      1: Step Time =    1.000,"P-1-1",          1572,   193.555E-03,   46.8984E-03,            0.,NA,NA,"",   996.292E+03,   1.00113E+06,   1.00113E+06
C:/temp/Job-1.odb,Step-1,Increment      1: Step Time =    1.000,"P-1-1",          1573,   190.821E-03,   46.5954E-03,            0.,NA,NA,"",   997.875E+03,   1.00213E+06,   1.00213E+06
C:/temp/Job-1.odb,Step-1,Increment      1: Step Time =    1.000,"P-1-1",          1574,   186.752E-03,   46.7154E-03,            0.,NA,NA,"",   1.00098E+06,   1.00417E+06,   1.00417E+06
C:/temp/Job-1.odb,Step-1,Increment      1: Step Time =    1.000,"P-1-1",          1575,   183.890E-03,   45.4534E-03,            0.,NA,NA,"",   1.00394E+06,   1.00581E+06,   1.00581E+06
C:/temp/Job-1.odb,Step-1,Increment      1: Step Time =    1.000,"P-1-1",          1576,   180.374E-03,   46.4221E-03,            0.,NA,NA,"",   1.00770E+06,   1.00830E+06,   1.00830E+06
C:/temp/Job-1.odb,Step-1,Increment      1: Step Time =    1.000,"P-1-1",          1577,   177.075E-03,   44.1821E-03,            0.,NA,NA,"",   1.01177E+06,   1.01062E+06,   1.01062E+06
C:/temp/Job-1.odb,Step-1,Increment      1: Step Time =    1.000,"P-1-1",          1578,   173.526E-03,   44.7242E-03,            0.,NA,NA,"",   1.01659E+06,   1.01375E+06,   1.01375E+06
C:/temp/Job-1.odb,Step-1,Increment      1: Step Time =    1.000,"P-1-1",          1579,   170.651E-03,   46.0052E-03,            0.,NA,NA,"",   1.02088E+06,   1.01660E+06,   1.01660E+06
C:/temp/Job-1.odb,Step-1,Increment      1: Step Time =    1.000,"P-1-1",          1580,   167.656E-03,   44.9872E-03,            0.,NA,NA,"",   1.02532E+06,   1.01947E+06,   1.01947E+06
C:/temp/Job-1.odb,Step-1,Increment      1: Step Time =    1.000,"P-1-1",          1581,   164.626E-03,   47.0916E-03,            0.,NA,NA,"",   1.03091E+06,   1.02323E+06,   1.02323E+06
C:/temp/Job-1.odb,Step-1,Increment      1: Step Time =    1.000,"P-1-1",          1582,   161.201E-03,   46.1251E-03,            0.,NA,NA,"",   1.03663E+06,   1.02716E+06,   1.02716E+06
C:/temp/Job-1.odb,Step-1,Increment      1: Step Time =    1.000,"P-1-1",          1583,   157.303E-03,   45.9168E-03,            0.,NA,NA,"",   1.04340E+06,   1.03200E+06,   1.03200E+06
C:/temp/Job-1.odb,Step-1,Increment      1: Step Time =    1.000,"P-1-1",          1584,   154.321E-03,   45.3209E-03,            0.,NA,NA,"",   1.04810E+06,   1.03556E+06,   1.03556E+06
C:/temp/Job-1.odb,Step-1,Increment      1: Step Time =    1.000,"P-1-1",          1585,   151.249E-03,   45.4739E-03,            0.,NA,NA,"",   1.05383E+06,   1.04002E+06,   1.04002E+06
C:/temp/Job-1.odb,Step-1,Increment      1: Step Time =    1.000,"P-1-1",          1586,   147.449E-03,   45.5787E-03,            0.,NA,NA,"",   1.06037E+06,   1.04540E+06,   1.04540E+06
C:/temp/Job-1.odb,Step-1,Increment      1: Step Time =    1.000,"P-1-1",          1587,   143.813E-03,   45.2460E-03,            0.,NA,NA,"",   1.06518E+06,   1.05003E+06,   1.05003E+06
C:/temp/Job-1.odb,Step-1,Increment      1: Step Time =    1.000,"P-1-1",          1588,   140.768E-03,   44.9045E-03,            0.,NA,NA,"",   1.06759E+06,   1.05298E+06,   1.05298E+06
C:/temp/Job-1.odb,Step-1,Increment      1: Step Time =    1.000,"P-1-1",          1589,   137.117E-03,   45.3254E-03,            0.,NA,NA,"",   1.07152E+06,   1.05770E+06,   1.05770E+06
C:/temp/Job-1.odb,Step-1,Increment      1: Step Time =    1.000,"P-1-1",          1590,   134.536E-03,   46.7354E-03,            0.,NA,NA,"",   1.07739E+06,   1.06372E+06,   1.06372E+06
C:/temp/Job-1.odb,Step-1,Increment      1: Step Time =    1.000,"P-1-1",          1591,   130.424E-03,   46.5679E-03,            0.,NA,NA,"",   1.07694E+06,   1.06671E+06,   1.06671E+06
C:/temp/Job-1.odb,Step-1,Increment      1: Step Time =    1.000,"P-1-1",          1592,   128.284E-03,   45.6232E-03,            0.,NA,NA,"",   1.07206E+06,   1.06491E+06,   1.06491E+06
C:/temp/Job-1.odb,Step-1,Increment      1: Step Time =    1.000,"P-1-1",          1593,   124.416E-03,   45.5284E-03,            0.,NA,NA,"",   1.06739E+06,   1.06521E+06,   1.06521E+06
C:/temp/Job-1.odb,Step-1,Increment      1: Step Time =    1.000,"P-1-1",          1594,   121.223E-03,   45.2870E-03,            0.,NA,NA,"",   1.06042E+06,   1.06323E+06,   1.06323E+06
C:/temp/Job-1.odb,Step-1,Increment      1: Step Time =    1.000,"P-1-1",          1595,   117.205E-03,   46.3291E-03,            0.,NA,NA,"",   1.05469E+06,   1.06426E+06,   1.06426E+06
C:/temp/Job-1.odb,Step-1,Increment      1: Step Time =    1.000,"P-1-1",          1596,   114.388E-03,   45.7508E-03,            0.,NA,NA,"",   1.04496E+06,   1.05963E+06,   1.05963E+06
C:/temp/Job-1.odb,Step-1,Increment      1: Step Time =    1.000,"P-1-1",          1597,   111.005E-03,   46.5369E-03,            0.,NA,NA,"",   1.03776E+06,   1.05880E+06,   1.05880E+06
C:/temp/Job-1.odb,Step-1,Increment      1: Step Time =    1.000,"P-1-1",          1598,   107.807E-03,   45.3092E-03,            0.,NA,NA,"",   1.02778E+06,   1.05223E+06,   1.05223E+06
C:/temp/Job-1.odb,Step-1,Increment      1: Step Time =    1.000,"P-1-1",          1599,   104.503E-03,   45.7204E-03,            0.,NA,NA,"",   1.02257E+06,   1.05106E+06,   1.05106E+06
C:/temp/Job-1.odb,Step-1,Increment      1: Step Time =    1.000,"P-1-1",          1600,   101.433E-03,   45.7511E-03,            0.,NA,NA,"",   1.02000E+06,   1.05042E+06,   1.05042E+06
C:/temp/Job-1.odb,Step-1,Increment      1: Step Time =    1.000,"P-1-1",          1601,   98.5526E-03,   46.0985E-03,            0.,NA,NA,"",   1.02046E+06,   1.05187E+06,   1.05187E+06
C:/temp/Job-1.odb,Step-1,Increment      1: Step Time =    1.000,"P-1-1",          1602,   95.5062E-03,   46.6669E-03,            0.,NA,NA,"",   1.02402E+06,   1.05527E+06,   1.05527E+06
C:/temp/Job-1.odb,Step-1,Increment      1: Step Time =    1.000,"P-1-1",          1603,   92.0221E-03,   46.1434E-03,            0.,NA,NA,"",   1.03006E+06,   1.05798E+06,   1.05798E+06
C:/temp/Job-1.odb,Step-1,Increment      1: Step Time =    1.000,"P-1-1",          1604,   88.9032E-03,   45.3724E-03,            0.,NA,NA,"",   1.03660E+06,   1.06021E+06,   1.06021E+06
C:/temp/Job-1.odb,Step-1,Increment      1: Step Time =    1.000,"P-1-1",          1605,   84.9661E-03,   46.4852E-03,            0.,NA,NA,"",   1.04905E+06,   1.06852E+06,   1.06852E+06
C:/temp/Job-1.odb,Step-1,Increment      1: Step Time =    1.000,"P-1-1",          1606,   82.6202E-03,   45.6325E-03,            0.,NA,NA,"",   1.05290E+06,   1.06881E+06,   1.06881E+06
C:/temp/Job-1.odb,Step-1,Increment      1: Step Time =    1.000,"P-1-1",          1607,   78.2635E-03,   45.1541E-03,            0.,NA,NA,"",   1.06173E+06,   1.07218E+06,   1.07218E+06
C:/temp/Job-1.odb,Step-1,Increment      1: Step Time =    1.000,"P-1-1",          1608,   75.5639E-03,   44.8240E-03,            0.,NA,NA,"",   1.06490E+06,   1.07289E+06,   1.07289E+06
C:/temp/Job-1.odb,Step-1,Increment      1: Step Time =    1.000,"P-1-1",          1609,   73.3840E-03,   47.2550E-03,            0.,NA,NA,"",   1.07428E+06,   1.07994E+06,   1.07994E+06
C:/temp/Job-1.odb,Step-1,Increment      1: Step Time =    1.000,"P-1-1",          1610,   69.5361E-03,   45.6568E-03,            0.,NA,NA,"",   1.07212E+06,   1.07623E+06,   1.07623E+06
C:/temp/Job-1.odb,Step-1,Increment      1: Step Time =    1.000,"P-1-1",          1611,   65.6066E-03,   45.1031E-03,            0.,NA,NA,"",   1.07013E+06,   1.07380E+06,   1.07380E+06
C:/temp/Job-1.odb,Step-1,Increment      1: Step Time =    1.000,"P-1-1",          1612,   62.5047E-03,   45.3266E-03,            0.,NA,NA,"",   1.06801E+06,   1.07227E+06,   1.07227E+06
C:/temp/Job-1.odb,Step-1,Increment      1: Step Time =    1.000,"P-1-1",          1613,   59.5432E-03,   45.7316E-03,            0.,NA,NA,"",   1.06442E+06,   1.07017E+06,   1.07017E+06
C:/temp/Job-1.odb,Step-1,Increment      1: Step Time =    1.000,"P-1-1",          1614,   55.6072E-03,   46.3411E-03,            0.,NA,NA,"",   1.05726E+06,   1.06621E+06,   1.06621E+06
C:/temp/Job-1.odb,Step-1,Increment      1: Step Time =    1.000,"P-1-1",          1615,   52.9598E-03,   46.3728E-03,            0.,NA,NA,"",   1.05099E+06,   1.06284E+06,   1.06284E+06
C:/temp/Job-1.odb,Step-1,Increment      1: Step Time =    1.000,"P-1-1",          1616,   49.2553E-03,   45.4711E-03,            0.,NA,NA,"",   1.04250E+06,   1.05864E+06,   1.05864E+06
C:/temp/Job-1.odb,Step-1,Increment      1: Step Time =    1.000,"P-1-1",          1617,   46.0518E-03,   46.7147E-03,            0.,NA,NA,"",   1.03197E+06,   1.05343E+06,   1.05343E+06
C:/temp/Job-1.odb,Step-1,Increment      1: Step Time =    1.000,"P-1-1",          1618,   42.1622E-03,   46.2812E-03,            0.,NA,NA,"",   1.02110E+06,   1.04862E+06,   1.04862E+06
C:/temp/Job-1.odb,Step-1,Increment      1: Step Time =    1.000,"P-1-1",          1619,   39.9735E-03,   45.9983E-03,            0.,NA,NA,"",   1.01533E+06,   1.04624E+06,   1.04624E+06
C:/temp/Job-1.odb,Step-1,Increment      1: Step Time =    1.000,"P-1-1",          1620,   36.0853E-03,   45.6099E-03,            0.,NA,NA,"",   1.00374E+06,   1.04158E+06,   1.04158E+06
C:/temp/Job-1.odb,Step-1,Increment      1: Step Time =    1.000,"P-1-1",          1621,   28.5329E-03,   45.7652E-03,            0.,NA,NA,"",   976.665E+03,   1.02985E+06,   1.02985E+06
C:/temp/Job-1.odb,Step-1,Increment      1: Step Time =    1.000,"P-1-1",          1622,   26.5823E-03,   46.4476E-03,            0.,NA,NA,"",   967.274E+03,   1.02496E+06,   1.02496E+06
C:/temp/Job-1.odb,Step-1,Increment      1: Step Time =    1.000,"P-1-1",          1623,   23.6264E-03,   46.4747E-03,            0.,NA,NA,"",   955.910E+03,   1.01975E+06,   1.01975E+06
C:/temp/Job-1.odb,Step-1,Increment      1: Step Time =    1.000,"P-1-1",          1624,   19.5110E-03,   45.1311E-03,            0.,NA,NA,"",   943.665E+03,   1.01569E+06,   1.01569E+06
C:/temp/Job-1.odb,Step-1,Increment      1: Step Time =    1.000,"P-1-1",          1625,   17.1200E-03,   46.2132E-03,            0.,NA,NA,"",   929.640E+03,   1.00729E+06,   1.00729E+06
C:/temp/Job-1.odb,Step-1,Increment      1: Step Time =    1.000,"P-1-1",          1626,   14.0532E-03,   45.8660E-03,            0.,NA,NA,"",   918.228E+03,   1.00184E+06,   1.00184E+06
C:/temp/Job-1.odb,Step-1,Increment      1: Step Time =    1.000,"P-1-1",          1627,   10.3622E-03,   45.9765E-03,            0.,NA,NA,"",   901.533E+03,   992.496E+03,   992.496E+03
C:/temp/Job-1.odb,Step-1,Increment      1: Step Time =    1.000,"P-1-1",          1628,   5.73260E-03,   46.5318E-03,            0.,NA,NA,"",   879.707E+03,   978.987E+03,   978.987E+03
C:/temp/Job-1.odb,Step-1,Increment      1: Step Time =    1.000,"P-1-1",          1629,   2.83964E-03,   46.5809E-03,            0.,NA,NA,"",   867.297E+03,   971.089E+03,   971.089E+03
C:/temp/Job-1.odb,Step-1,Increment      1: Step Time =    1.000,"P-1-1",          1630,   196.779E-03,   49.5916E-03,            0.,NA,NA,"",   994.030E+03,   1.00035E+06,   1.00035E+06
C:/temp/Job-1.odb,Step-1,Increment      1: Step Time =    1.000,"P-1-1",          1631,   192.222E-03,   50.4718E-03,            0.,NA,NA,"",   995.489E+03,   1.00161E+06,   1.00161E+06
C:/temp/Job-1.odb,Step-1,Increment      1: Step Time =    1.000,"P-1-1",          1632,   189.204E-03,   49.7922E-03,            0.,NA,NA,"",   997.942E+03,   1.00290E+06,   1.00290E+06
C:/temp/Job-1.odb,Step-1,Increment      1: Step Time =    1.000,"P-1-1",          1633,   187.437E-03,   49.3562E-03,            0.,NA,NA,"",   999.529E+03,   1.00379E+06,   1.00379E+06
C:/temp/Job-1.odb,Step-1,Increment      1: Step Time =    1.000,"P-1-1",          1634,   184.203E-03,   50.0859E-03,            0.,NA,NA,"",   1.00243E+06,   1.00561E+06,   1.00561E+06
C:/temp/Job-1.odb,Step-1,Increment      1: Step Time =    1.000,"P-1-1",          1635,   177.159E-03,   49.4015E-03,            0.,NA,NA,"",   1.01132E+06,   1.01084E+06,   1.01084E+06
C:/temp/Job-1.odb,Step-1,Increment      1: Step Time =    1.000,"P-1-1",          1636,   174.117E-03,   49.0618E-03,            0.,NA,NA,"",   1.01575E+06,   1.01352E+06,   1.01352E+06
C:/temp/Job-1.odb,Step-1,Increment      1: Step Time =    1.000,"P-1-1",          1637,   170.091E-03,   49.1219E-03,            0.,NA,NA,"",   1.02210E+06,   1.01749E+06,   1.01749E+06
C:/temp/Job-1.odb,Step-1,Increment      1: Step Time =    1.000,"P-1-1",          1638,   168.027E-03,   49.5755E-03,            0.,NA,NA,"",    1.0256E+06,   1.01973E+06,   1.01973E+06
C:/temp/Job-1.odb,Step-1,Increment      1: Step Time =    1.000,"P-1-1",          1639,   163.850E-03,   50.0649E-03,            0.,NA,NA,"",   1.03324E+06,   1.02469E+06,   1.02469E+06
C:/temp/Job-1.odb,Step-1,Increment      1: Step Time =    1.000,"P-1-1",          1640,   160.758E-03,   49.1765E-03,            0.,NA,NA,"",   1.03902E+06,   1.02866E+06,   1.02866E+06
C:/temp/Job-1.odb,Step-1,Increment      1: Step Time =    1.000,"P-1-1",          1641,   157.837E-03,   48.9292E-03,            0.,NA,NA,"",   1.04468E+06,   1.03265E+06,   1.03265E+06
C:/temp/Job-1.odb,Step-1,Increment      1: Step Time =    1.000,"P-1-1",          1642,   148.282E-03,   47.6924E-03,            0.,NA,NA,"",   1.06221E+06,   1.04632E+06,   1.04632E+06
C:/temp/Job-1.odb,Step-1,Increment      1: Step Time =    1.000,"P-1-1",          1643,   144.560E-03,   48.2136E-03,            0.,NA,NA,"",   1.06985E+06,   1.05277E+06,   1.05277E+06
C:/temp/Job-1.odb,Step-1,Increment      1: Step Time =    1.000,"P-1-1",          1644,   141.011E-03,   48.1998E-03,            0.,NA,NA,"",   1.07548E+06,   1.05829E+06,   1.05829E+06
C:/temp/Job-1.odb,Step-1,Increment      1: Step Time =    1.000,"P-1-1",          1645,   137.590E-03,   49.3740E-03,            0.,NA,NA,"",   1.08292E+06,   1.06545E+06,   1.06545E+06
C:/temp/Job-1.odb,Step-1,Increment      1: Step Time =    1.000,"P-1-1",          1646,   133.184E-03,   50.3474E-03,            0.,NA,NA,"",   1.09024E+06,     1.074E+06,     1.074E+06
C:/temp/Job-1.odb,Step-1,Increment      1: Step Time =    1.000,"P-1-1",          1647,   129.902E-03,   50.0424E-03,            0.,NA,NA,"",   1.08962E+06,   1.07687E+06,   1.07687E+06
C:/temp/Job-1.odb,Step-1,Increment      1: Step Time =    1.000,"P-1-1",          1648,   127.969E-03,   49.3333E-03,            0.,NA,NA,"",   1.08588E+06,   1.07617E+06,   1.07617E+06
C:/temp/Job-1.odb,Step-1,Increment      1: Step Time =    1.000,"P-1-1",          1649,   125.234E-03,   48.6154E-03,            0.,NA,NA,"",   1.08009E+06,   1.07486E+06,   1.07486E+06
C:/temp/Job-1.odb,Step-1,Increment      1: Step Time =    1.000,"P-1-1",          1650,   122.183E-03,   49.1421E-03,            0.,NA,NA,"",   1.07677E+06,   1.07647E+06,   1.07647E+06
C:/temp/Job-1.odb,Step-1,Increment      1: Step Time =    1.000,"P-1-1",          1651,   117.279E-03,   49.9897E-03,            0.,NA,NA,"",   1.06729E+06,   1.07690E+06,   1.07690E+06
C:/temp/Job-1.odb,Step-1,Increment      1: Step Time =    1.000,"P-1-1",          1652,   114.365E-03,   48.7469E-03,            0.,NA,NA,"",   1.05381E+06,   1.06971E+06,   1.06971E+06
C:/temp/Job-1.odb,Step-1,Increment      1: Step Time =    1.000,"P-1-1",          1653,   110.526E-03,   50.1114E-03,            0.,NA,NA,"",   1.04454E+06,   1.06933E+06,   1.06933E+06
C:/temp/Job-1.odb,Step-1,Increment      1: Step Time =    1.000,"P-1-1",          1654,   107.577E-03,   49.0629E-03,            0.,NA,NA,"",   1.03388E+06,   1.06283E+06,   1.06283E+06
C:/temp/Job-1.odb,Step-1,Increment      1: Step Time =    1.000,"P-1-1",          1655,   104.442E-03,   49.5304E-03,            0.,NA,NA,"",   1.02752E+06,   1.06137E+06,   1.06137E+06
C:/temp/Job-1.odb,Step-1,Increment      1: Step Time =    1.000,"P-1-1",          1656,   101.020E-03,   48.9899E-03,            0.,NA,NA,"",   1.02306E+06,   1.05866E+06,   1.05866E+06
C:/temp/Job-1.odb,Step-1,Increment      1: Step Time =    1.000,"P-1-1",          1657,   98.1128E-03,   49.0399E-03,            0.,NA,NA,"",   1.02350E+06,   1.05946E+06,   1.05946E+06
C:/temp/Job-1.odb,Step-1,Increment      1: Step Time =    1.000,"P-1-1",          1658,   93.3820E-03,   49.2677E-03,            0.,NA,NA,"",   1.03178E+06,   1.06485E+06,   1.06485E+06
C:/temp/Job-1.odb,Step-1,Increment      1: Step Time =    1.000,"P-1-1",          1659,   91.4196E-03,   49.0561E-03,            0.,NA,NA,"",   1.03639E+06,   1.06702E+06,   1.06702E+06
C:/temp/Job-1.odb,Step-1,Increment      1: Step Time =    1.000,"P-1-1",          1660,   88.0839E-03,   48.5624E-03,            0.,NA,NA,"",   1.04503E+06,   1.07050E+06,   1.07050E+06
C:/temp/Job-1.odb,Step-1,Increment      1: Step Time =    1.000,"P-1-1",          1661,   85.2612E-03,   50.1062E-03,            0.,NA,NA,"",   1.05848E+06,   1.08028E+06,   1.08028E+06
C:/temp/Job-1.odb,Step-1,Increment      1: Step Time =    1.000,"P-1-1",          1662,   82.2516E-03,   48.7013E-03,            0.,NA,NA,"",   1.06317E+06,   1.07925E+06,   1.07925E+06
C:/temp/Job-1.odb,Step-1,Increment      1: Step Time =    1.000,"P-1-1",          1663,   79.3996E-03,   48.3583E-03,            0.,NA,NA,"",   1.06907E+06,   1.08101E+06,   1.08101E+06
C:/temp/Job-1.odb,Step-1,Increment      1: Step Time =    1.000,"P-1-1",          1664,   75.7064E-03,   48.8803E-03,            0.,NA,NA,"",   1.07699E+06,   1.08442E+06,   1.08442E+06
C:/temp/Job-1.odb,Step-1,Increment      1: Step Time =    1.000,"P-1-1",          1665,   72.5152E-03,   50.0783E-03,            0.,NA,NA,"",   1.08372E+06,   1.08775E+06,   1.08775E+06
C:/temp/Job-1.odb,Step-1,Increment      1: Step Time =    1.000,"P-1-1",          1666,   69.3560E-03,   48.7716E-03,            0.,NA,NA,"",   1.07982E+06,   1.08288E+06,   1.08288E+06
C:/temp/Job-1.odb,Step-1,Increment      1: Step Time =    1.000,"P-1-1",          1667,   65.0854E-03,   47.7430E-03,            0.,NA,NA,"",   1.07458E+06,   1.07769E+06,   1.07769E+06
C:/temp/Job-1.odb,Step-1,Increment      1: Step Time =    1.000,"P-1-1",          1668,   63.3989E-03,   49.5299E-03,            0.,NA,NA,"",   1.07512E+06,   1.07826E+06,   1.07826E+06
C:/temp/Job-1.odb,Step-1,Increment      1: Step Time =    1.000,"P-1-1",          1669,   58.7400E-03,   48.3790E-03,            0.,NA,NA,"",   1.06443E+06,   1.07075E+06,   1.07075E+06
C:/temp/Job-1.odb,Step-1,Increment      1: Step Time =    1.000,"P-1-1",          1670,   56.4704E-03,   49.5179E-03,            0.,NA,NA,"",   1.05939E+06,   1.06778E+06,   1.06778E+06
C:/temp/Job-1.odb,Step-1,Increment      1: Step Time =    1.000,"P-1-1",          1671,   51.9641E-03,   49.6014E-03,            0.,NA,NA,"",   1.04636E+06,   1.06021E+06,   1.06021E+06
C:/temp/Job-1.odb,Step-1,Increment      1: Step Time =    1.000,"P-1-1",          1672,   48.7483E-03,   48.1657E-03,            0.,NA,NA,"",   1.03781E+06,   1.05590E+06,   1.05590E+06
C:/temp/Job-1.odb,Step-1,Increment      1: Step Time =    1.000,"P-1-1",          1673,   45.6953E-03,   49.4943E-03,            0.,NA,NA,"",   1.02618E+06,   1.04953E+06,   1.04953E+06
C:/temp/Job-1.odb,Step-1,Increment      1: Step Time =    1.000,"P-1-1",          1674,   43.2997E-03,   49.3853E-03,            0.,NA,NA,"",   1.01804E+06,   1.04551E+06,   1.04551E+06
C:/temp/Job-1.odb,Step-1,Increment      1: Step Time =    1.000,"P-1-1",          1675,   39.7406E-03,   49.3904E-03,            0.,NA,NA,"",   1.00602E+06,   1.03981E+06,   1.03981E+06
C:/temp/Job-1.odb,Step-1,Increment      1: Step Time =    1.000,"P-1-1",          1676,   36.1304E-03,   49.0779E-03,            0.,NA,NA,"",   993.469E+03,   1.03401E+06,   1.03401E+06
C:/temp/Job-1.odb,Step-1,Increment      1: Step Time =    1.000,"P-1-1",          1677,   31.7736E-03,   49.2404E-03,            0.,NA,NA,"",     977.1E+03,   1.02630E+06,   1.02630E+06
C:/temp/Job-1.odb,Step-1,Increment      1: Step Time =    1.000,"P-1-1",          1678,   29.7105E-03,   50.0085E-03,            0.,NA,NA,"",   966.425E+03,   1.02038E+06,   1.02038E+06
C:/temp/Job-1.odb,Step-1,Increment      1: Step Time =    1.000,"P-1-1",          1679,   26.2610E-03,   48.4210E-03,            0.,NA,NA,"",   958.779E+03,   1.01869E+06,   1.01869E+06
C:/temp/Job-1.odb,Step-1,Increment      1: Step Time =    1.000,"P-1-1",          1680,   23.4751E-03,   48.3324E-03,            0.,NA,NA,"",   948.133E+03,   1.01371E+06,   1.01371E+06
C:/temp/Job-1.odb,Step-1,Increment      1: Step Time =    1.000,"P-1-1",          1681,   19.1300E-03,   48.3182E-03,            0.,NA,NA,"",   930.465E+03,   1.00501E+06,   1.00501E+06
C:/temp/Job-1.odb,Step-1,Increment      1: Step Time =    1.000,"P-1-1",          1682,   15.1406E-03,   49.2434E-03,            0.,NA,NA,"",   910.809E+03,   993.692E+03,   993.692E+03
C:/temp/Job-1.odb,Step-1,Increment      1: Step Time =    1.000,"P-1-1",          1683,   12.1637E-03,   49.1128E-03,            0.,NA,NA,"",   898.498E+03,   986.986E+03,   986.986E+03
C:/temp/Job-1.odb,Step-1,Increment      1: Step Time =    1.000,"P-1-1",          1684,   9.06153E-03,   49.2712E-03,            0.,NA,NA,"",   885.226E+03,   979.205E+03,   979.205E+03
C:/temp/Job-1.odb,Step-1,Increment      1: Step Time =    1.000,"P-1-1",          1685,   5.98076E-03,   49.4982E-03,            0.,NA,NA,"",   871.753E+03,   970.794E+03,   970.794E+03
C:/temp/Job-1.odb,Step-1,Increment      1: Step Time =    1.000,"P-1-1",          1686,   2.97049E-03,   49.6149E-03,            0.,NA,NA,"",   859.223E+03,   962.692E+03,   962.692E+03
C:/temp/Job-1.odb,Step-1,Increment      1: Step Time =    1.000,"P-1-1",          1687,   196.606E-03,   52.7571E-03,            0.,NA,NA,"",   992.267E+03,   1.00035E+06,   1.00035E+06
C:/temp/Job-1.odb,Step-1,Increment      1: Step Time =    1.000,"P-1-1",          1688,   192.182E-03,   52.7619E-03,            0.,NA,NA,"",   994.361E+03,   1.00154E+06,   1.00154E+06
C:/temp/Job-1.odb,Step-1,Increment      1: Step Time =    1.000,"P-1-1",          1689,   190.217E-03,   52.4115E-03,            0.,NA,NA,"",   995.916E+03,   1.00232E+06,   1.00232E+06
C:/temp/Job-1.odb,Step-1,Increment      1: Step Time =    1.000,"P-1-1",          1690,   187.202E-03,   52.8752E-03,            0.,NA,NA,"",   998.390E+03,   1.00379E+06,   1.00379E+06
C:/temp/Job-1.odb,Step-1,Increment      1: Step Time =    1.000,"P-1-1",          1691,   183.447E-03,   51.7494E-03,            0.,NA,NA,"",   1.00279E+06,   1.00606E+06,   1.00606E+06
C:/temp/Job-1.odb,Step-1,Increment      1: Step Time =    1.000,"P-1-1",          1692,   180.713E-03,   52.7233E-03,            0.,NA,NA,"",   1.00566E+06,   1.00782E+06,   1.00782E+06
C:/temp/Job-1.odb,Step-1,Increment      1: Step Time =    1.000,"P-1-1",          1693,   177.329E-03,   52.7948E-03,            0.,NA,NA,"",   1.01012E+06,   1.01037E+06,   1.01037E+06
C:/temp/Job-1.odb,Step-1,Increment      1: Step Time =    1.000,"P-1-1",          1694,   174.048E-03,   53.4940E-03,            0.,NA,NA,"",   1.01483E+06,   1.01312E+06,   1.01312E+06
C:/temp/Job-1.odb,Step-1,Increment      1: Step Time =    1.000,"P-1-1",          1695,   170.868E-03,   52.9375E-03,            0.,NA,NA,"",   1.02023E+06,   1.01634E+06,   1.01634E+06
C:/temp/Job-1.odb,Step-1,Increment      1: Step Time =    1.000,"P-1-1",          1696,   167.461E-03,   52.6842E-03,            0.,NA,NA,"",   1.02634E+06,   1.02011E+06,   1.02011E+06
C:/temp/Job-1.odb,Step-1,Increment      1: Step Time =    1.000,"P-1-1",          1697,   163.750E-03,   52.3718E-03,            0.,NA,NA,"",   1.03365E+06,   1.02482E+06,   1.02482E+06
C:/temp/Job-1.odb,Step-1,Increment      1: Step Time =    1.000,"P-1-1",          1698,   160.100E-03,   51.8520E-03,            0.,NA,NA,"",   1.04141E+06,   1.03005E+06,   1.03005E+06
C:/temp/Job-1.odb,Step-1,Increment      1: Step Time =    1.000,"P-1-1",          1699,   156.669E-03,   52.4802E-03,            0.,NA,NA,"",   1.04896E+06,   1.03520E+06,   1.03520E+06
C:/temp/Job-1.odb,Step-1,Increment      1: Step Time =    1.000,"P-1-1",          1700,   153.419E-03,   51.6199E-03,            0.,NA,NA,"",   1.05593E+06,   1.04044E+06,   1.04044E+06
C:/temp/Job-1.odb,Step-1,Increment      1: Step Time =    1.000,"P-1-1",          1701,   150.965E-03,   51.4663E-03,            0.,NA,NA,"",   1.06150E+06,   1.04468E+06,   1.04468E+06
C:/temp/Job-1.odb,Step-1,Increment      1: Step Time =    1.000,"P-1-1",          1702,   147.371E-03,   51.8435E-03,            0.,NA,NA,"",   1.07032E+06,   1.05155E+06,   1.05155E+06
C:/temp/Job-1.odb,Step-1,Increment      1: Step Time =    1.000,"P-1-1",          1703,   145.003E-03,   52.0005E-03,            0.,NA,NA,"",   1.07586E+06,   1.05614E+06,   1.05614E+06
C:/temp/Job-1.odb,Step-1,Increment      1: Step Time =    1.000,"P-1-1",          1704,   141.295E-03,   50.9862E-03,            0.,NA,NA,"",   1.08152E+06,   1.06204E+06,   1.06204E+06
C:/temp/Job-1.odb,Step-1,Increment      1: Step Time =    1.000,"P-1-1",          1705,   137.726E-03,   52.8055E-03,            0.,NA,NA,"",   1.09257E+06,   1.07168E+06,   1.07168E+06
C:/temp/Job-1.odb,Step-1,Increment      1: Step Time =    1.000,"P-1-1",          1706,   134.770E-03,   52.9160E-03,            0.,NA,NA,"",   1.09706E+06,   1.07722E+06,   1.07722E+06
C:/temp/Job-1.odb,Step-1,Increment      1: Step Time =    1.000,"P-1-1",          1707,   130.858E-03,   52.7740E-03,            0.,NA,NA,"",   1.10030E+06,   1.08354E+06,   1.08354E+06
C:/temp/Job-1.odb,Step-1,Increment      1: Step Time =    1.000,"P-1-1",          1708,   127.672E-03,   52.7373E-03,            0.,NA,NA,"",   1.09967E+06,   1.08700E+06,   1.08700E+06
C:/temp/Job-1.odb,Step-1,Increment      1: Step Time =    1.000,"P-1-1",          1709,   124.740E-03,   52.2850E-03,            0.,NA,NA,"",   1.09482E+06,   1.08751E+06,   1.08751E+06
C:/temp/Job-1.odb,Step-1,Increment      1: Step Time =    1.000,"P-1-1",          1710,   122.302E-03,   50.9175E-03,            0.,NA,NA,"",   1.08442E+06,   1.08280E+06,   1.08280E+06
C:/temp/Job-1.odb,Step-1,Increment      1: Step Time =    1.000,"P-1-1",          1711,   118.009E-03,   52.2206E-03,            0.,NA,NA,"",   1.07817E+06,   1.08598E+06,   1.08598E+06
C:/temp/Job-1.odb,Step-1,Increment      1: Step Time =    1.000,"P-1-1",          1712,   115.133E-03,   51.9581E-03,            0.,NA,NA,"",   1.06753E+06,   1.08242E+06,   1.08242E+06
C:/temp/Job-1.odb,Step-1,Increment      1: Step Time =    1.000,"P-1-1",          1713,   111.607E-03,   52.8920E-03,            0.,NA,NA,"",   1.05701E+06,   1.08143E+06,   1.08143E+06
C:/temp/Job-1.odb,Step-1,Increment      1: Step Time =    1.000,"P-1-1",          1714,   108.112E-03,   52.4070E-03,            0.,NA,NA,"",   1.04223E+06,   1.07427E+06,   1.07427E+06
C:/temp/Job-1.odb,Step-1,Increment      1: Step Time =    1.000,"P-1-1",          1715,   105.008E-03,   53.0550E-03,            0.,NA,NA,"",   1.03418E+06,   1.07288E+06,   1.07288E+06
C:/temp/Job-1.odb,Step-1,Increment      1: Step Time =    1.000,"P-1-1",          1716,   101.576E-03,   52.0014E-03,            0.,NA,NA,"",   1.02679E+06,   1.06712E+06,   1.06712E+06
C:/temp/Job-1.odb,Step-1,Increment      1: Step Time =    1.000,"P-1-1",          1717,   98.6364E-03,   52.5130E-03,            0.,NA,NA,"",   1.02694E+06,   1.06928E+06,   1.06928E+06
C:/temp/Job-1.odb,Step-1,Increment      1: Step Time =    1.000,"P-1-1",          1718,   94.8406E-03,   51.6152E-03,            0.,NA,NA,"",   1.03174E+06,   1.07012E+06,   1.07012E+06
C:/temp/Job-1.odb,Step-1,Increment      1: Step Time =    1.000,"P-1-1",          1719,   91.1478E-03,   52.8803E-03,            0.,NA,NA,"",   1.04512E+06,   1.07975E+06,   1.07975E+06
C:/temp/Job-1.odb,Step-1,Increment      1: Step Time =    1.000,"P-1-1",          1720,   88.2753E-03,   51.7302E-03,            0.,NA,NA,"",   1.05265E+06,   1.08098E+06,   1.08098E+06
C:/temp/Job-1.odb,Step-1,Increment      1: Step Time =    1.000,"P-1-1",          1721,   85.5230E-03,   53.1377E-03,            0.,NA,NA,"",   1.06772E+06,   1.09109E+06,   1.09109E+06
C:/temp/Job-1.odb,Step-1,Increment      1: Step Time =    1.000,"P-1-1",          1722,   82.2883E-03,   52.9157E-03,            0.,NA,NA,"",   1.07733E+06,   1.09388E+06,   1.09388E+06
C:/temp/Job-1.odb,Step-1,Increment      1: Step Time =    1.000,"P-1-1",          1723,   79.1311E-03,   51.8867E-03,            0.,NA,NA,"",   1.08168E+06,   1.09273E+06,   1.09273E+06
C:/temp/Job-1.odb,Step-1,Increment      1: Step Time =    1.000,"P-1-1",          1724,   75.0781E-03,   51.8521E-03,            0.,NA,NA,"",   1.08764E+06,   1.09316E+06,   1.09316E+06
C:/temp/Job-1.odb,Step-1,Increment      1: Step Time =    1.000,"P-1-1",          1725,   72.4902E-03,   52.6592E-03,            0.,NA,NA,"",   1.09149E+06,   1.09412E+06,   1.09412E+06
C:/temp/Job-1.odb,Step-1,Increment      1: Step Time =    1.000,"P-1-1",          1726,   69.3835E-03,   52.2398E-03,            0.,NA,NA,"",   1.08882E+06,   1.09016E+06,   1.09016E+06
C:/temp/Job-1.odb,Step-1,Increment      1: Step Time =    1.000,"P-1-1",          1727,   64.7159E-03,   51.8327E-03,            0.,NA,NA,"",   1.08069E+06,   1.08258E+06,   1.08258E+06
C:/temp/Job-1.odb,Step-1,Increment      1: Step Time =    1.000,"P-1-1",          1728,   62.1831E-03,   52.8588E-03,            0.,NA,NA,"",   1.07622E+06,   1.07904E+06,   1.07904E+06
C:/temp/Job-1.odb,Step-1,Increment      1: Step Time =    1.000,"P-1-1",          1729,   58.3003E-03,   52.3039E-03,            0.,NA,NA,"",   1.06467E+06,   1.07105E+06,   1.07105E+06
C:/temp/Job-1.odb,Step-1,Increment      1: Step Time =    1.000,"P-1-1",          1730,   55.8546E-03,   52.7083E-03,            0.,NA,NA,"",   1.05644E+06,   1.06573E+06,   1.06573E+06
C:/temp/Job-1.odb,Step-1,Increment      1: Step Time =    1.000,"P-1-1",          1731,   52.0759E-03,   52.6080E-03,            0.,NA,NA,"",   1.04364E+06,   1.05807E+06,   1.05807E+06
C:/temp/Job-1.odb,Step-1,Increment      1: Step Time =    1.000,"P-1-1",          1732,   49.2698E-03,   52.5071E-03,            0.,NA,NA,"",   1.03344E+06,   1.05222E+06,   1.05222E+06
C:/temp/Job-1.odb,Step-1,Increment      1: Step Time =    1.000,"P-1-1",          1733,   46.0527E-03,   52.6610E-03,            0.,NA,NA,"",   1.02073E+06,   1.04515E+06,   1.04515E+06
C:/temp/Job-1.odb,Step-1,Increment      1: Step Time =    1.000,"P-1-1",          1734,   41.9506E-03,   53.0712E-03,            0.,NA,NA,"",   1.00429E+06,   1.03638E+06,   1.03638E+06
C:/temp/Job-1.odb,Step-1,Increment      1: Step Time =    1.000,"P-1-1",          1735,   39.0366E-03,   52.2284E-03,            0.,NA,NA,"",   994.934E+03,   1.03218E+06,   1.03218E+06
C:/temp/Job-1.odb,Step-1,Increment      1: Step Time =    1.000,"P-1-1",          1736,   35.7533E-03,   52.5436E-03,            0.,NA,NA,"",   981.707E+03,   1.02542E+06,   1.02542E+06
C:/temp/Job-1.odb,Step-1,Increment      1: Step Time =    1.000,"P-1-1",          1737,   33.1089E-03,   51.3014E-03,            0.,NA,NA,"",   975.109E+03,   1.02328E+06,   1.02328E+06
C:/temp/Job-1.odb,Step-1,Increment      1: Step Time =    1.000,"P-1-1",          1738,   29.6022E-03,   52.4141E-03,            0.,NA,NA,"",   958.328E+03,   1.01410E+06,   1.01410E+06
C:/temp/Job-1.odb,Step-1,Increment      1: Step Time =    1.000,"P-1-1",          1739,   26.4451E-03,   52.1383E-03,            0.,NA,NA,"",   946.548E+03,   1.00858E+06,   1.00858E+06
C:/temp/Job-1.odb,Step-1,Increment      1: Step Time =    1.000,"P-1-1",          1740,   23.0567E-03,   52.8688E-03,            0.,NA,NA,"",   930.223E+03,   999.368E+03,   999.368E+03
C:/temp/Job-1.odb,Step-1,Increment      1: Step Time =    1.000,"P-1-1",          1741,   19.1137E-03,   52.0311E-03,            0.,NA,NA,"",   917.435E+03,   993.865E+03,   993.865E+03
C:/temp/Job-1.odb,Step-1,Increment      1: Step Time =    1.000,"P-1-1",          1742,   15.3745E-03,   52.0434E-03,            0.,NA,NA,"",   902.065E+03,   985.642E+03,   985.642E+03
C:/temp/Job-1.odb,Step-1,Increment      1: Step Time =    1.000,"P-1-1",          1743,   12.2617E-03,   52.1957E-03,            0.,NA,NA,"",   888.962E+03,   978.068E+03,   978.068E+03
C:/temp/Job-1.odb,Step-1,Increment      1: Step Time =    1.000,"P-1-1",          1744,   9.23134E-03,   52.3993E-03,            0.,NA,NA,"",   876.249E+03,   970.406E+03,   970.406E+03
C:/temp/Job-1.odb,Step-1,Increment      1: Step Time =    1.000,"P-1-1",          1745,   6.18032E-03,   52.5964E-03,            0.,NA,NA,"",   863.648E+03,   962.494E+03,   962.494E+03
C:/temp/Job-1.odb,Step-1,Increment      1: Step Time =    1.000,"P-1-1",          1746,   3.09604E-03,   52.7066E-03,            0.,NA,NA,"",   851.414E+03,   954.537E+03,   954.537E+03
C:/temp/Job-1.odb,Step-1,Increment      1: Step Time =    1.000,"P-1-1",          1747,   196.884E-03,   55.8962E-03,            0.,NA,NA,"",   990.164E+03,   1.00027E+06,   1.00027E+06
C:/temp/Job-1.odb,Step-1,Increment      1: Step Time =    1.000,"P-1-1",          1748,   193.747E-03,   56.3085E-03,            0.,NA,NA,"",   991.459E+03,   1.00096E+06,   1.00096E+06
C:/temp/Job-1.odb,Step-1,Increment      1: Step Time =    1.000,"P-1-1",          1749,   190.246E-03,   57.1609E-03,            0.,NA,NA,"",   993.503E+03,   1.00210E+06,   1.00210E+06
C:/temp/Job-1.odb,Step-1,Increment      1: Step Time =    1.000,"P-1-1",          1750,   186.600E-03,   57.2104E-03,            0.,NA,NA,"",   996.779E+03,   1.00366E+06,   1.00366E+06
C:/temp/Job-1.odb,Step-1,Increment      1: Step Time =    1.000,"P-1-1",          1751,   183.693E-03,   55.8146E-03,            0.,NA,NA,"",   1.00061E+06,   1.00541E+06,   1.00541E+06
C:/temp/Job-1.odb,Step-1,Increment      1: Step Time =    1.000,"P-1-1",          1752,   181.157E-03,   56.9269E-03,            0.,NA,NA,"",   1.00311E+06,   1.00677E+06,   1.00677E+06
C:/temp/Job-1.odb,Step-1,Increment      1: Step Time =    1.000,"P-1-1",          1753,   178.269E-03,   56.7437E-03,            0.,NA,NA,"",   1.00699E+06,   1.00879E+06,   1.00879E+06
C:/temp/Job-1.odb,Step-1,Increment      1: Step Time =    1.000,"P-1-1",          1754,   174.770E-03,   56.1927E-03,            0.,NA,NA,"",   1.01246E+06,   1.01175E+06,   1.01175E+06
C:/temp/Job-1.odb,Step-1,Increment      1: Step Time =    1.000,"P-1-1",          1755,   171.365E-03,   56.5869E-03,            0.,NA,NA,"",   1.01773E+06,   1.01470E+06,   1.01470E+06
C:/temp/Job-1.odb,Step-1,Increment      1: Step Time =    1.000,"P-1-1",          1756,   167.831E-03,   54.6543E-03,            0.,NA,NA,"",   1.02503E+06,   1.01918E+06,   1.01918E+06
C:/temp/Job-1.odb,Step-1,Increment      1: Step Time =    1.000,"P-1-1",          1757,   163.555E-03,   55.8903E-03,            0.,NA,NA,"",   1.03309E+06,   1.02406E+06,   1.02406E+06
C:/temp/Job-1.odb,Step-1,Increment      1: Step Time =    1.000,"P-1-1",          1758,   160.066E-03,   55.7080E-03,            0.,NA,NA,"",   1.04092E+06,   1.02916E+06,   1.02916E+06
C:/temp/Job-1.odb,Step-1,Increment      1: Step Time =    1.000,"P-1-1",          1759,   156.435E-03,   55.5058E-03,            0.,NA,NA,"",   1.04965E+06,   1.03510E+06,   1.03510E+06
C:/temp/Job-1.odb,Step-1,Increment      1: Step Time =    1.000,"P-1-1",          1760,   153.327E-03,   54.7621E-03,            0.,NA,NA,"",   1.05756E+06,   1.04089E+06,   1.04089E+06
C:/temp/Job-1.odb,Step-1,Increment      1: Step Time =    1.000,"P-1-1",          1761,   150.537E-03,   55.4924E-03,            0.,NA,NA,"",   1.06517E+06,   1.04629E+06,   1.04629E+06
C:/temp/Job-1.odb,Step-1,Increment      1: Step Time =    1.000,"P-1-1",          1762,   147.450E-03,   56.6159E-03,            0.,NA,NA,"",   1.07420E+06,   1.05282E+06,   1.05282E+06
C:/temp/Job-1.odb,Step-1,Increment      1: Step Time =    1.000,"P-1-1",          1763,   143.682E-03,   54.5892E-03,            0.,NA,NA,"",   1.08302E+06,   1.06096E+06,   1.06096E+06
C:/temp/Job-1.odb,Step-1,Increment      1: Step Time =    1.000,"P-1-1",          1764,   140.836E-03,   54.3211E-03,            0.,NA,NA,"",   1.08968E+06,   1.06713E+06,   1.06713E+06
C:/temp/Job-1.odb,Step-1,Increment      1: Step Time =    1.000,"P-1-1",          1765,   137.499E-03,   56.0075E-03,            0.,NA,NA,"",   1.10128E+06,   1.07691E+06,   1.07691E+06
C:/temp/Job-1.odb,Step-1,Increment      1: Step Time =    1.000,"P-1-1",          1766,   133.791E-03,   56.0936E-03,            0.,NA,NA,"",   1.10938E+06,   1.08609E+06,   1.08609E+06
C:/temp/Job-1.odb,Step-1,Increment      1: Step Time =    1.000,"P-1-1",          1767,   130.880E-03,   56.4596E-03,            0.,NA,NA,"",   1.11471E+06,   1.09306E+06,   1.09306E+06
C:/temp/Job-1.odb,Step-1,Increment      1: Step Time =    1.000,"P-1-1",          1768,   128.493E-03,   55.5971E-03,            0.,NA,NA,"",   1.11225E+06,   1.09482E+06,   1.09482E+06
C:/temp/Job-1.odb,Step-1,Increment      1: Step Time =    1.000,"P-1-1",          1769,   124.925E-03,   55.0808E-03,            0.,NA,NA,"",   1.10801E+06,   1.09745E+06,   1.09745E+06
C:/temp/Job-1.odb,Step-1,Increment      1: Step Time =    1.000,"P-1-1",          1770,   121.908E-03,   55.1153E-03,            0.,NA,NA,"",   1.10373E+06,   1.09963E+06,   1.09963E+06
C:/temp/Job-1.odb,Step-1,Increment      1: Step Time =    1.000,"P-1-1",          1771,   118.950E-03,   55.0082E-03,            0.,NA,NA,"",   1.09498E+06,   1.09895E+06,   1.09895E+06
C:/temp/Job-1.odb,Step-1,Increment      1: Step Time =    1.000,"P-1-1",          1772,   115.155E-03,   54.8819E-03,            0.,NA,NA,"",   1.07935E+06,   1.09458E+06,   1.09458E+06
C:/temp/Job-1.odb,Step-1,Increment      1: Step Time =    1.000,"P-1-1",          1773,   110.824E-03,   55.7033E-03,            0.,NA,NA,"",   1.06326E+06,   1.09202E+06,   1.09202E+06
C:/temp/Job-1.odb,Step-1,Increment      1: Step Time =    1.000,"P-1-1",          1774,   108.794E-03,   55.8264E-03,            0.,NA,NA,"",   1.05381E+06,   1.08876E+06,   1.08876E+06
C:/temp/Job-1.odb,Step-1,Increment      1: Step Time =    1.000,"P-1-1",          1775,   105.666E-03,   56.1114E-03,            0.,NA,NA,"",   1.04207E+06,   1.08479E+06,   1.08479E+06
C:/temp/Job-1.odb,Step-1,Increment      1: Step Time =    1.000,"P-1-1",          1776,   101.991E-03,   55.9663E-03,            0.,NA,NA,"",   1.03255E+06,   1.08063E+06,   1.08063E+06
C:/temp/Job-1.odb,Step-1,Increment      1: Step Time =    1.000,"P-1-1",          1777,   99.0612E-03,   55.3263E-03,            0.,NA,NA,"",   1.03016E+06,   1.07807E+06,   1.07807E+06
C:/temp/Job-1.odb,Step-1,Increment      1: Step Time =    1.000,"P-1-1",          1778,   94.2962E-03,   55.1963E-03,            0.,NA,NA,"",   1.03955E+06,   1.08316E+06,   1.08316E+06
C:/temp/Job-1.odb,Step-1,Increment      1: Step Time =    1.000,"P-1-1",          1779,   90.8653E-03,   56.2040E-03,            0.,NA,NA,"",   1.05578E+06,   1.09408E+06,   1.09408E+06
C:/temp/Job-1.odb,Step-1,Increment      1: Step Time =    1.000,"P-1-1",          1780,   87.7251E-03,   56.7970E-03,            0.,NA,NA,"",   1.07245E+06,   1.10327E+06,   1.10327E+06
C:/temp/Job-1.odb,Step-1,Increment      1: Step Time =    1.000,"P-1-1",          1781,   84.9475E-03,   55.6060E-03,            0.,NA,NA,"",   1.07957E+06,   1.10212E+06,   1.10212E+06
C:/temp/Job-1.odb,Step-1,Increment      1: Step Time =    1.000,"P-1-1",          1782,   81.9096E-03,   56.2398E-03,            0.,NA,NA,"",   1.09289E+06,   1.10811E+06,   1.10811E+06
C:/temp/Job-1.odb,Step-1,Increment      1: Step Time =    1.000,"P-1-1",          1783,   79.0574E-03,   55.4971E-03,            0.,NA,NA,"",   1.09680E+06,   1.10614E+06,   1.10614E+06
C:/temp/Job-1.odb,Step-1,Increment      1: Step Time =    1.000,"P-1-1",          1784,   74.8077E-03,   54.5352E-03,            0.,NA,NA,"",   1.09806E+06,   1.10136E+06,   1.10136E+06
C:/temp/Job-1.odb,Step-1,Increment      1: Step Time =    1.000,"P-1-1",          1785,   71.8361E-03,   55.2215E-03,            0.,NA,NA,"",   1.09988E+06,   1.10012E+06,   1.10012E+06
C:/temp/Job-1.odb,Step-1,Increment      1: Step Time =    1.000,"P-1-1",          1786,   68.6549E-03,   55.4983E-03,            0.,NA,NA,"",   1.09607E+06,   1.09498E+06,   1.09498E+06
C:/temp/Job-1.odb,Step-1,Increment      1: Step Time =    1.000,"P-1-1",          1787,   65.8936E-03,   54.9072E-03,            0.,NA,NA,"",   1.08845E+06,   1.08833E+06,   1.08833E+06
C:/temp/Job-1.odb,Step-1,Increment      1: Step Time =    1.000,"P-1-1",          1788,   62.7369E-03,   55.6658E-03,            0.,NA,NA,"",   1.08050E+06,   1.08177E+06,   1.08177E+06
C:/temp/Job-1.odb,Step-1,Increment      1: Step Time =    1.000,"P-1-1",          1789,   59.2390E-03,   56.2091E-03,            0.,NA,NA,"",   1.06778E+06,   1.07250E+06,   1.07250E+06
C:/temp/Job-1.odb,Step-1,Increment      1: Step Time =    1.000,"P-1-1",          1790,   55.4200E-03,   55.3750E-03,            0.,NA,NA,"",   1.05303E+06,   1.06300E+06,   1.06300E+06
C:/temp/Job-1.odb,Step-1,Increment      1: Step Time =    1.000,"P-1-1",          1791,   52.3960E-03,   56.9405E-03,            0.,NA,NA,"",   1.03785E+06,   1.05295E+06,   1.05295E+06
C:/temp/Job-1.odb,Step-1,Increment      1: Step Time =    1.000,"P-1-1",          1792,   48.9123E-03,   56.2277E-03,            0.,NA,NA,"",   1.02409E+06,   1.04514E+06,   1.04514E+06
C:/temp/Job-1.odb,Step-1,Increment      1: Step Time =    1.000,"P-1-1",          1793,   45.8042E-03,   57.2783E-03,            0.,NA,NA,"",   1.00830E+06,   1.03555E+06,   1.03555E+06
C:/temp/Job-1.odb,Step-1,Increment      1: Step Time =    1.000,"P-1-1",          1794,   43.3382E-03,   56.5478E-03,            0.,NA,NA,"",   999.799E+03,   1.03143E+06,   1.03143E+06
C:/temp/Job-1.odb,Step-1,Increment      1: Step Time =    1.000,"P-1-1",          1795,   39.7311E-03,   55.5195E-03,            0.,NA,NA,"",   987.953E+03,   1.02596E+06,   1.02596E+06
C:/temp/Job-1.odb,Step-1,Increment      1: Step Time =    1.000,"P-1-1",          1796,   36.2770E-03,   55.6824E-03,            0.,NA,NA,"",   973.482E+03,   1.01833E+06,   1.01833E+06
C:/temp/Job-1.odb,Step-1,Increment      1: Step Time =    1.000,"P-1-1",          1797,   32.3278E-03,   56.2626E-03,            0.,NA,NA,"",   955.173E+03,   1.00841E+06,   1.00841E+06
C:/temp/Job-1.odb,Step-1,Increment      1: Step Time =    1.000,"P-1-1",          1798,   29.6651E-03,   56.0213E-03,            0.,NA,NA,"",   945.461E+03,   1.00368E+06,   1.00368E+06
C:/temp/Job-1.odb,Step-1,Increment      1: Step Time =    1.000,"P-1-1",          1799,   27.2878E-03,   56.0136E-03,            0.,NA,NA,"",   936.174E+03,   998.942E+03,   998.942E+03
C:/temp/Job-1.odb,Step-1,Increment      1: Step Time =    1.000,"P-1-1",          1800,   23.3997E-03,   55.7669E-03,            0.,NA,NA,"",   921.815E+03,   991.913E+03,   991.913E+03
C:/temp/Job-1.odb,Step-1,Increment      1: Step Time =    1.000,"P-1-1",          1801,   19.9454E-03,   55.7342E-03,            0.,NA,NA,"",   907.677E+03,   984.415E+03,   984.415E+03
C:/temp/Job-1.odb,Step-1,Increment      1: Step Time =    1.000,"P-1-1",          1802,   17.0227E-03,   54.4642E-03,            0.,NA,NA,"",   900.505E+03,   981.933E+03,   981.933E+03
C:/temp/Job-1.odb,Step-1,Increment      1: Step Time =    1.000,"P-1-1",          1803,   12.5549E-03,   55.0813E-03,            0.,NA,NA,"",   881.166E+03,   970.395E+03,   970.395E+03
C:/temp/Job-1.odb,Step-1,Increment      1: Step Time =    1.000,"P-1-1",          1804,   9.49420E-03,   55.5710E-03,            0.,NA,NA,"",   867.937E+03,   962.096E+03,   962.096E+03
C:/temp/Job-1.odb,Step-1,Increment      1: Step Time =    1.000,"P-1-1",          1805,   6.38960E-03,   55.8019E-03,            0.,NA,NA,"",   855.601E+03,   954.229E+03,   954.229E+03
C:/temp/Job-1.odb,Step-1,Increment      1: Step Time =    1.000,"P-1-1",          1806,   3.20270E-03,   55.8511E-03,            0.,NA,NA,"",   843.768E+03,   946.553E+03,   946.553E+03
C:/temp/Job-1.odb,Step-1,Increment      1: Step Time =    1.000,"P-1-1",          1807,   197.121E-03,   58.8985E-03,            0.,NA,NA,"",   987.962E+03,   1.00019E+06,   1.00019E+06
C:/temp/Job-1.odb,Step-1,Increment      1: Step Time =    1.000,"P-1-1",          1808,   194.171E-03,   59.0777E-03,            0.,NA,NA,"",   989.409E+03,   1.00075E+06,   1.00075E+06
C:/temp/Job-1.odb,Step-1,Increment      1: Step Time =    1.000,"P-1-1",          1809,   191.249E-03,   59.6259E-03,            0.,NA,NA,"",   991.168E+03,   1.00155E+06,   1.00155E+06
C:/temp/Job-1.odb,Step-1,Increment      1: Step Time =    1.000,"P-1-1",          1810,   188.890E-03,   60.3118E-03,            0.,NA,NA,"",   992.707E+03,   1.00226E+06,   1.00226E+06
C:/temp/Job-1.odb,Step-1,Increment      1: Step Time =    1.000,"P-1-1",          1811,   181.867E-03,   59.6846E-03,            0.,NA,NA,"",   1.00050E+06,   1.00560E+06,   1.00560E+06
C:/temp/Job-1.odb,Step-1,Increment      1: Step Time =    1.000,"P-1-1",          1812,   177.879E-03,   60.3203E-03,            0.,NA,NA,"",   1.00513E+06,   1.00775E+06,   1.00775E+06
C:/temp/Job-1.odb,Step-1,Increment      1: Step Time =    1.000,"P-1-1",          1813,   175.628E-03,   59.7604E-03,            0.,NA,NA,"",   1.00873E+06,   1.00957E+06,   1.00957E+06
C:/temp/Job-1.odb,Step-1,Increment      1: Step Time =    1.000,"P-1-1",          1814,   170.093E-03,   60.0291E-03,            0.,NA,NA,"",   1.01732E+06,   1.01405E+06,   1.01405E+06
C:/temp/Job-1.odb,Step-1,Increment      1: Step Time =    1.000,"P-1-1",          1815,   166.722E-03,   59.1812E-03,            0.,NA,NA,"",   1.02437E+06,   1.01818E+06,   1.01818E+06
C:/temp/Job-1.odb,Step-1,Increment      1: Step Time =    1.000,"P-1-1",          1816,   164.582E-03,   59.8734E-03,            0.,NA,NA,"",   1.02806E+06,   1.02021E+06,   1.02021E+06
C:/temp/Job-1.odb,Step-1,Increment      1: Step Time =    1.000,"P-1-1",          1817,   161.026E-03,   59.6156E-03,            0.,NA,NA,"",   1.03631E+06,   1.02531E+06,   1.02531E+06
C:/temp/Job-1.odb,Step-1,Increment      1: Step Time =    1.000,"P-1-1",          1818,   157.646E-03,   59.2080E-03,            0.,NA,NA,"",   1.04508E+06,   1.03106E+06,   1.03106E+06
C:/temp/Job-1.odb,Step-1,Increment      1: Step Time =    1.000,"P-1-1",          1819,   153.619E-03,   58.6318E-03,            0.,NA,NA,"",   1.05642E+06,   1.03895E+06,   1.03895E+06
C:/temp/Job-1.odb,Step-1,Increment      1: Step Time =    1.000,"P-1-1",          1820,   150.511E-03,   58.7110E-03,            0.,NA,NA,"",   1.06573E+06,   1.04555E+06,   1.04555E+06
C:/temp/Job-1.odb,Step-1,Increment      1: Step Time =    1.000,"P-1-1",          1821,   147.979E-03,   58.1913E-03,            0.,NA,NA,"",   1.07357E+06,   1.05162E+06,   1.05162E+06
C:/temp/Job-1.odb,Step-1,Increment      1: Step Time =    1.000,"P-1-1",          1822,   143.512E-03,   57.7579E-03,            0.,NA,NA,"",   1.08698E+06,   1.06253E+06,   1.06253E+06
C:/temp/Job-1.odb,Step-1,Increment      1: Step Time =    1.000,"P-1-1",          1823,   141.746E-03,   58.5892E-03,            0.,NA,NA,"",   1.09347E+06,   1.06749E+06,   1.06749E+06
C:/temp/Job-1.odb,Step-1,Increment      1: Step Time =    1.000,"P-1-1",          1824,   137.421E-03,   58.9320E-03,            0.,NA,NA,"",   1.10813E+06,   1.08038E+06,   1.08038E+06
C:/temp/Job-1.odb,Step-1,Increment      1: Step Time =    1.000,"P-1-1",          1825,   134.170E-03,   59.6607E-03,            0.,NA,NA,"",   1.11947E+06,   1.09098E+06,   1.09098E+06
C:/temp/Job-1.odb,Step-1,Increment      1: Step Time =    1.000,"P-1-1",          1826,   130.802E-03,   59.9145E-03,            0.,NA,NA,"",   1.12856E+06,   1.10166E+06,   1.10166E+06
C:/temp/Job-1.odb,Step-1,Increment      1: Step Time =    1.000,"P-1-1",          1827,   127.360E-03,   59.1538E-03,            0.,NA,NA,"",   1.12981E+06,   1.10853E+06,   1.10853E+06
C:/temp/Job-1.odb,Step-1,Increment      1: Step Time =    1.000,"P-1-1",          1828,   123.733E-03,   58.6603E-03,            0.,NA,NA,"",   1.12608E+06,   1.11304E+06,   1.11304E+06
C:/temp/Job-1.odb,Step-1,Increment      1: Step Time =    1.000,"P-1-1",          1829,   121.545E-03,   58.3442E-03,            0.,NA,NA,"",   1.12011E+06,   1.11338E+06,   1.11338E+06
C:/temp/Job-1.odb,Step-1,Increment      1: Step Time =    1.000,"P-1-1",          1830,   119.367E-03,   58.6027E-03,            0.,NA,NA,"",   1.11600E+06,   1.11536E+06,   1.11536E+06
C:/temp/Job-1.odb,Step-1,Increment      1: Step Time =    1.000,"P-1-1",          1831,   115.810E-03,   58.9426E-03,            0.,NA,NA,"",   1.10449E+06,   1.11594E+06,   1.11594E+06
C:/temp/Job-1.odb,Step-1,Increment      1: Step Time =    1.000,"P-1-1",          1832,   111.945E-03,   58.5392E-03,            0.,NA,NA,"",   1.08132E+06,   1.10807E+06,   1.10807E+06
C:/temp/Job-1.odb,Step-1,Increment      1: Step Time =    1.000,"P-1-1",          1833,   108.306E-03,   59.2125E-03,            0.,NA,NA,"",   1.06387E+06,   1.10467E+06,   1.10467E+06
C:/temp/Job-1.odb,Step-1,Increment      1: Step Time =    1.000,"P-1-1",          1834,   105.521E-03,   58.9289E-03,            0.,NA,NA,"",   1.04835E+06,   1.09685E+06,   1.09685E+06
C:/temp/Job-1.odb,Step-1,Increment      1: Step Time =    1.000,"P-1-1",          1835,   102.197E-03,   58.7979E-03,            0.,NA,NA,"",   1.03760E+06,   1.09179E+06,   1.09179E+06
C:/temp/Job-1.odb,Step-1,Increment      1: Step Time =    1.000,"P-1-1",          1836,   98.8465E-03,   58.5348E-03,            0.,NA,NA,"",   1.03530E+06,   1.09046E+06,   1.09046E+06
C:/temp/Job-1.odb,Step-1,Increment      1: Step Time =    1.000,"P-1-1",          1837,   95.7839E-03,   57.5520E-03,            0.,NA,NA,"",   1.03958E+06,   1.08972E+06,   1.08972E+06
C:/temp/Job-1.odb,Step-1,Increment      1: Step Time =    1.000,"P-1-1",          1838,   91.8516E-03,   59.1258E-03,            0.,NA,NA,"",   1.06100E+06,   1.10559E+06,   1.10559E+06
C:/temp/Job-1.odb,Step-1,Increment      1: Step Time =    1.000,"P-1-1",          1839,   87.8850E-03,   58.4622E-03,            0.,NA,NA,"",   1.07888E+06,   1.11102E+06,   1.11102E+06
C:/temp/Job-1.odb,Step-1,Increment      1: Step Time =    1.000,"P-1-1",          1840,   85.0627E-03,   59.2686E-03,            0.,NA,NA,"",   1.09697E+06,   1.11997E+06,   1.11997E+06
C:/temp/Job-1.odb,Step-1,Increment      1: Step Time =    1.000,"P-1-1",          1841,   81.8965E-03,   59.5512E-03,            0.,NA,NA,"",   1.11091E+06,   1.12385E+06,   1.12385E+06
C:/temp/Job-1.odb,Step-1,Increment      1: Step Time =    1.000,"P-1-1",          1842,   78.4248E-03,   59.1005E-03,            0.,NA,NA,"",   1.11618E+06,   1.12091E+06,   1.12091E+06
C:/temp/Job-1.odb,Step-1,Increment      1: Step Time =    1.000,"P-1-1",          1843,   74.5403E-03,   58.9556E-03,            0.,NA,NA,"",   1.11640E+06,   1.11501E+06,   1.11501E+06
C:/temp/Job-1.odb,Step-1,Increment      1: Step Time =    1.000,"P-1-1",          1844,   71.0556E-03,   58.0890E-03,            0.,NA,NA,"",   1.10787E+06,   1.10493E+06,   1.10493E+06
C:/temp/Job-1.odb,Step-1,Increment      1: Step Time =    1.000,"P-1-1",          1845,   69.0928E-03,   58.5277E-03,            0.,NA,NA,"",   1.10446E+06,   1.10075E+06,   1.10075E+06
C:/temp/Job-1.odb,Step-1,Increment      1: Step Time =    1.000,"P-1-1",          1846,   65.5761E-03,   57.8543E-03,            0.,NA,NA,"",   1.09202E+06,   1.09012E+06,   1.09012E+06
C:/temp/Job-1.odb,Step-1,Increment      1: Step Time =    1.000,"P-1-1",          1847,   62.3214E-03,   58.7556E-03,            0.,NA,NA,"",   1.08029E+06,   1.08059E+06,   1.08059E+06
C:/temp/Job-1.odb,Step-1,Increment      1: Step Time =    1.000,"P-1-1",          1848,   58.8704E-03,   59.0904E-03,            0.,NA,NA,"",   1.06472E+06,   1.06933E+06,   1.06933E+06
C:/temp/Job-1.odb,Step-1,Increment      1: Step Time =    1.000,"P-1-1",          1849,   55.4899E-03,   58.9231E-03,            0.,NA,NA,"",   1.04875E+06,   1.05881E+06,   1.05881E+06
C:/temp/Job-1.odb,Step-1,Increment      1: Step Time =    1.000,"P-1-1",          1850,   52.3930E-03,   59.6225E-03,            0.,NA,NA,"",   1.03235E+06,   1.04811E+06,   1.04811E+06
C:/temp/Job-1.odb,Step-1,Increment      1: Step Time =    1.000,"P-1-1",          1851,   49.0285E-03,   59.0750E-03,            0.,NA,NA,"",   1.01799E+06,   1.03984E+06,   1.03984E+06
C:/temp/Job-1.odb,Step-1,Increment      1: Step Time =    1.000,"P-1-1",          1852,   46.8653E-03,   60.2933E-03,            0.,NA,NA,"",   1.00423E+06,   1.03099E+06,   1.03099E+06
C:/temp/Job-1.odb,Step-1,Increment      1: Step Time =    1.000,"P-1-1",          1853,   43.7311E-03,   59.5661E-03,            0.,NA,NA,"",   992.245E+03,   1.02488E+06,   1.02488E+06
C:/temp/Job-1.odb,Step-1,Increment      1: Step Time =    1.000,"P-1-1",          1854,   39.0069E-03,   58.7978E-03,            0.,NA,NA,"",   974.011E+03,   1.01563E+06,   1.01563E+06
C:/temp/Job-1.odb,Step-1,Increment      1: Step Time =    1.000,"P-1-1",          1855,   35.6632E-03,   59.5351E-03,            0.,NA,NA,"",   957.072E+03,   1.00598E+06,   1.00598E+06
C:/temp/Job-1.odb,Step-1,Increment      1: Step Time =    1.000,"P-1-1",          1856,   32.7709E-03,   59.4285E-03,            0.,NA,NA,"",   945.609E+03,   1.00007E+06,   1.00007E+06
C:/temp/Job-1.odb,Step-1,Increment      1: Step Time =    1.000,"P-1-1",          1857,   30.0853E-03,   59.3838E-03,            0.,NA,NA,"",   935.480E+03,   995.005E+03,   995.005E+03
C:/temp/Job-1.odb,Step-1,Increment      1: Step Time =    1.000,"P-1-1",          1858,   26.9402E-03,   59.2650E-03,            0.,NA,NA,"",   923.158E+03,   988.673E+03,   988.673E+03
C:/temp/Job-1.odb,Step-1,Increment      1: Step Time =    1.000,"P-1-1",          1859,   23.3985E-03,   59.0659E-03,            0.,NA,NA,"",   910.030E+03,   981.988E+03,   981.988E+03
C:/temp/Job-1.odb,Step-1,Increment      1: Step Time =    1.000,"P-1-1",          1860,   19.7793E-03,   58.6495E-03,            0.,NA,NA,"",   897.406E+03,   975.618E+03,   975.618E+03
C:/temp/Job-1.odb,Step-1,Increment      1: Step Time =    1.000,"P-1-1",          1861,   16.3599E-03,   58.3813E-03,            0.,NA,NA,"",   885.402E+03,   969.283E+03,   969.283E+03
C:/temp/Job-1.odb,Step-1,Increment      1: Step Time =    1.000,"P-1-1",          1862,   13.6168E-03,   58.7668E-03,            0.,NA,NA,"",   873.799E+03,   962.282E+03,   962.282E+03
C:/temp/Job-1.odb,Step-1,Increment      1: Step Time =    1.000,"P-1-1",          1863,   10.1406E-03,   59.1673E-03,            0.,NA,NA,"",   860.192E+03,   953.770E+03,   953.770E+03
C:/temp/Job-1.odb,Step-1,Increment      1: Step Time =    1.000,"P-1-1",          1864,   6.55128E-03,   59.1016E-03,            0.,NA,NA,"",   847.425E+03,   945.932E+03,   945.932E+03
C:/temp/Job-1.odb,Step-1,Increment      1: Step Time =    1.000,"P-1-1",          1865,   3.26759E-03,   59.0202E-03,            0.,NA,NA,"",   836.312E+03,   938.792E+03,   938.792E+03
C:/temp/Job-1.odb,Step-1,Increment      1: Step Time =    1.000,"P-1-1",          1866,   197.315E-03,   63.3582E-03,            0.,NA,NA,"",   984.452E+03,   1.00012E+06,   1.00012E+06
C:/temp/Job-1.odb,Step-1,Increment      1: Step Time =    1.000,"P-1-1",          1867,   193.182E-03,   61.9111E-03,            0.,NA,NA,"",   988.135E+03,   1.00083E+06,   1.00083E+06
C:/temp/Job-1.odb,Step-1,Increment      1: Step Time =    1.000,"P-1-1",          1868,   190.934E-03,   62.1796E-03,            0.,NA,NA,"",    989.67E+03,   1.00137E+06,   1.00137E+06
C:/temp/Job-1.odb,Step-1,Increment      1: Step Time =    1.000,"P-1-1",          1869,   186.606E-03,   63.0799E-03,            0.,NA,NA,"",   992.936E+03,   1.00256E+06,   1.00256E+06
C:/temp/Job-1.odb,Step-1,Increment      1: Step Time =    1.000,"P-1-1",          1870,   183.180E-03,   62.9637E-03,            0.,NA,NA,"",   996.554E+03,   1.00387E+06,   1.00387E+06
C:/temp/Job-1.odb,Step-1,Increment      1: Step Time =    1.000,"P-1-1",          1871,   180.128E-03,   62.3841E-03,            0.,NA,NA,"",   1.00056E+06,   1.00552E+06,   1.00552E+06
C:/temp/Job-1.odb,Step-1,Increment      1: Step Time =    1.000,"P-1-1",          1872,   176.943E-03,   62.7991E-03,            0.,NA,NA,"",   1.00421E+06,   1.00702E+06,   1.00702E+06
C:/temp/Job-1.odb,Step-1,Increment      1: Step Time =    1.000,"P-1-1",          1873,   173.541E-03,   62.9373E-03,            0.,NA,NA,"",   1.00891E+06,   1.00916E+06,   1.00916E+06
C:/temp/Job-1.odb,Step-1,Increment      1: Step Time =    1.000,"P-1-1",          1874,   170.286E-03,   61.9152E-03,            0.,NA,NA,"",   1.01510E+06,   1.01248E+06,   1.01248E+06
C:/temp/Job-1.odb,Step-1,Increment      1: Step Time =    1.000,"P-1-1",          1875,   167.463E-03,   62.7945E-03,            0.,NA,NA,"",   1.01917E+06,   1.01440E+06,   1.01440E+06
C:/temp/Job-1.odb,Step-1,Increment      1: Step Time =    1.000,"P-1-1",          1876,   164.553E-03,   63.0727E-03,            0.,NA,NA,"",   1.02425E+06,   1.01705E+06,   1.01705E+06
C:/temp/Job-1.odb,Step-1,Increment      1: Step Time =    1.000,"P-1-1",          1877,   160.190E-03,   62.7579E-03,            0.,NA,NA,"",   1.03455E+06,   1.02318E+06,   1.02318E+06
C:/temp/Job-1.odb,Step-1,Increment      1: Step Time =    1.000,"P-1-1",          1878,   157.110E-03,   62.0920E-03,            0.,NA,NA,"",   1.04349E+06,   1.02901E+06,   1.02901E+06
C:/temp/Job-1.odb,Step-1,Increment      1: Step Time =    1.000,"P-1-1",          1879,   155.033E-03,   63.7941E-03,            0.,NA,NA,"",   1.04685E+06,   1.03042E+06,   1.03042E+06
C:/temp/Job-1.odb,Step-1,Increment      1: Step Time =    1.000,"P-1-1",          1880,   150.284E-03,   62.5393E-03,            0.,NA,NA,"",   1.06346E+06,   1.04222E+06,   1.04222E+06
C:/temp/Job-1.odb,Step-1,Increment      1: Step Time =    1.000,"P-1-1",          1881,   147.214E-03,   62.4308E-03,            0.,NA,NA,"",   1.07466E+06,   1.05033E+06,   1.05033E+06
C:/temp/Job-1.odb,Step-1,Increment      1: Step Time =    1.000,"P-1-1",          1882,   144.074E-03,   62.3162E-03,            0.,NA,NA,"",   1.08672E+06,   1.05948E+06,   1.05948E+06
C:/temp/Job-1.odb,Step-1,Increment      1: Step Time =    1.000,"P-1-1",          1883,   140.476E-03,   62.7321E-03,            0.,NA,NA,"",   1.10145E+06,   1.07099E+06,   1.07099E+06
C:/temp/Job-1.odb,Step-1,Increment      1: Step Time =    1.000,"P-1-1",          1884,   137.829E-03,   62.6140E-03,            0.,NA,NA,"",   1.11222E+06,   1.08037E+06,   1.08037E+06
C:/temp/Job-1.odb,Step-1,Increment      1: Step Time =    1.000,"P-1-1",          1885,   135.788E-03,   62.2403E-03,            0.,NA,NA,"",   1.11981E+06,   1.08766E+06,   1.08766E+06
C:/temp/Job-1.odb,Step-1,Increment      1: Step Time =    1.000,"P-1-1",          1886,   131.264E-03,   62.8345E-03,            0.,NA,NA,"",   1.13787E+06,   1.10539E+06,   1.10539E+06
C:/temp/Job-1.odb,Step-1,Increment      1: Step Time =    1.000,"P-1-1",          1887,   127.906E-03,   62.3425E-03,            0.,NA,NA,"",   1.14505E+06,   1.11662E+06,   1.11662E+06
C:/temp/Job-1.odb,Step-1,Increment      1: Step Time =    1.000,"P-1-1",          1888,   124.501E-03,   61.7448E-03,            0.,NA,NA,"",   1.14492E+06,   1.12433E+06,   1.12433E+06
C:/temp/Job-1.odb,Step-1,Increment      1: Step Time =    1.000,"P-1-1",          1889,   121.546E-03,   61.1150E-03,            0.,NA,NA,"",   1.13766E+06,   1.12656E+06,   1.12656E+06
C:/temp/Job-1.odb,Step-1,Increment      1: Step Time =    1.000,"P-1-1",          1890,   118.906E-03,   61.9500E-03,            0.,NA,NA,"",   1.13699E+06,   1.13370E+06,   1.13370E+06
C:/temp/Job-1.odb,Step-1,Increment      1: Step Time =    1.000,"P-1-1",          1891,   115.861E-03,   62.0688E-03,            0.,NA,NA,"",   1.12577E+06,   1.13491E+06,   1.13491E+06
C:/temp/Job-1.odb,Step-1,Increment      1: Step Time =    1.000,"P-1-1",          1892,   111.531E-03,   62.6886E-03,            0.,NA,NA,"",   1.10312E+06,   1.13339E+06,   1.13339E+06
C:/temp/Job-1.odb,Step-1,Increment      1: Step Time =    1.000,"P-1-1",          1893,   105.684E-03,   62.7773E-03,            0.,NA,NA,"",   1.06310E+06,   1.11914E+06,   1.11914E+06
C:/temp/Job-1.odb,Step-1,Increment      1: Step Time =    1.000,"P-1-1",          1894,   102.051E-03,   62.6574E-03,            0.,NA,NA,"",   1.04689E+06,   1.11149E+06,   1.11149E+06
C:/temp/Job-1.odb,Step-1,Increment      1: Step Time =    1.000,"P-1-1",          1895,   98.7729E-03,   63.1365E-03,            0.,NA,NA,"",   1.04628E+06,   1.11399E+06,   1.11399E+06
C:/temp/Job-1.odb,Step-1,Increment      1: Step Time =    1.000,"P-1-1",          1896,   95.6801E-03,   61.8786E-03,            0.,NA,NA,"",   1.05158E+06,   1.11149E+06,   1.11149E+06
C:/temp/Job-1.odb,Step-1,Increment      1: Step Time =    1.000,"P-1-1",          1897,   92.5900E-03,   62.7182E-03,            0.,NA,NA,"",   1.07223E+06,   1.12490E+06,   1.12490E+06
C:/temp/Job-1.odb,Step-1,Increment      1: Step Time =    1.000,"P-1-1",          1898,   88.1122E-03,   62.8359E-03,            0.,NA,NA,"",   1.10302E+06,   1.13734E+06,   1.13734E+06
C:/temp/Job-1.odb,Step-1,Increment      1: Step Time =    1.000,"P-1-1",          1899,   85.3363E-03,   63.2461E-03,            0.,NA,NA,"",   1.12198E+06,   1.14421E+06,   1.14421E+06
C:/temp/Job-1.odb,Step-1,Increment      1: Step Time =    1.000,"P-1-1",          1900,   82.5127E-03,   63.5286E-03,            0.,NA,NA,"",   1.13552E+06,   1.14610E+06,   1.14610E+06
C:/temp/Job-1.odb,Step-1,Increment      1: Step Time =    1.000,"P-1-1",          1901,   78.4928E-03,   63.0229E-03,            0.,NA,NA,"",   1.13891E+06,   1.13807E+06,   1.13807E+06
C:/temp/Job-1.odb,Step-1,Increment      1: Step Time =    1.000,"P-1-1",          1902,   74.5555E-03,   61.7131E-03,            0.,NA,NA,"",   1.12891E+06,   1.12346E+06,   1.12346E+06
C:/temp/Job-1.odb,Step-1,Increment      1: Step Time =    1.000,"P-1-1",          1903,   71.7261E-03,   62.5998E-03,            0.,NA,NA,"",   1.12441E+06,   1.11576E+06,   1.11576E+06
C:/temp/Job-1.odb,Step-1,Increment      1: Step Time =    1.000,"P-1-1",          1904,   68.3705E-03,   61.5222E-03,            0.,NA,NA,"",   1.10867E+06,   1.10191E+06,   1.10191E+06
C:/temp/Job-1.odb,Step-1,Increment      1: Step Time =    1.000,"P-1-1",          1905,   65.8475E-03,   61.1546E-03,            0.,NA,NA,"",   1.09729E+06,   1.09251E+06,   1.09251E+06
C:/temp/Job-1.odb,Step-1,Increment      1: Step Time =    1.000,"P-1-1",          1906,   62.6944E-03,   61.7375E-03,            0.,NA,NA,"",   1.08170E+06,   1.08009E+06,   1.08009E+06
C:/temp/Job-1.odb,Step-1,Increment      1: Step Time =    1.000,"P-1-1",          1907,   59.2487E-03,   62.3866E-03,            0.,NA,NA,"",   1.06303E+06,   1.06632E+06,   1.06632E+06
C:/temp/Job-1.odb,Step-1,Increment      1: Step Time =    1.000,"P-1-1",          1908,   56.0523E-03,   62.3708E-03,            0.,NA,NA,"",   1.04498E+06,   1.05424E+06,   1.05424E+06
C:/temp/Job-1.odb,Step-1,Increment      1: Step Time =    1.000,"P-1-1",          1909,   51.7336E-03,   61.9276E-03,            0.,NA,NA,"",   1.02309E+06,   1.04081E+06,   1.04081E+06
C:/temp/Job-1.odb,Step-1,Increment      1: Step Time =    1.000,"P-1-1",          1910,   49.8282E-03,   62.5961E-03,            0.,NA,NA,"",   1.01141E+06,   1.03326E+06,   1.03326E+06
C:/temp/Job-1.odb,Step-1,Increment      1: Step Time =    1.000,"P-1-1",          1911,   46.0975E-03,   62.1567E-03,            0.,NA,NA,"",   994.238E+03,   1.02362E+06,   1.02362E+06
C:/temp/Job-1.odb,Step-1,Increment      1: Step Time =    1.000,"P-1-1",          1912,   43.1328E-03,   62.8547E-03,            0.,NA,NA,"",   977.553E+03,   1.01355E+06,   1.01355E+06
C:/temp/Job-1.odb,Step-1,Increment      1: Step Time =    1.000,"P-1-1",          1913,   40.2344E-03,   62.0613E-03,            0.,NA,NA,"",   967.544E+03,   1.00888E+06,   1.00888E+06
C:/temp/Job-1.odb,Step-1,Increment      1: Step Time =    1.000,"P-1-1",          1914,   36.2241E-03,   63.2589E-03,            0.,NA,NA,"",   945.871E+03,   995.998E+03,   995.998E+03
C:/temp/Job-1.odb,Step-1,Increment      1: Step Time =    1.000,"P-1-1",          1915,   32.8589E-03,   62.1247E-03,            0.,NA,NA,"",   936.113E+03,   992.136E+03,   992.136E+03
C:/temp/Job-1.odb,Step-1,Increment      1: Step Time =    1.000,"P-1-1",          1916,   29.3960E-03,   61.9677E-03,            0.,NA,NA,"",   922.836E+03,   985.400E+03,   985.400E+03
C:/temp/Job-1.odb,Step-1,Increment      1: Step Time =    1.000,"P-1-1",          1917,   27.1381E-03,   62.3051E-03,            0.,NA,NA,"",   913.103E+03,   979.923E+03,   979.923E+03
C:/temp/Job-1.odb,Step-1,Increment      1: Step Time =    1.000,"P-1-1",          1918,   23.6407E-03,   62.3095E-03,            0.,NA,NA,"",   899.639E+03,   972.755E+03,   972.755E+03
C:/temp/Job-1.odb,Step-1,Increment      1: Step Time =    1.000,"P-1-1",          1919,   18.8200E-03,   61.5626E-03,            0.,NA,NA,"",   884.021E+03,   965.113E+03,   965.113E+03
C:/temp/Job-1.odb,Step-1,Increment      1: Step Time =    1.000,"P-1-1",          1920,   16.4792E-03,   60.7086E-03,            0.,NA,NA,"",   878.139E+03,   962.583E+03,   962.583E+03
C:/temp/Job-1.odb,Step-1,Increment      1: Step Time =    1.000,"P-1-1",          1921,   14.0109E-03,   63.0094E-03,            0.,NA,NA,"",   862.789E+03,   951.470E+03,   951.470E+03
C:/temp/Job-1.odb,Step-1,Increment      1: Step Time =    1.000,"P-1-1",          1922,   9.61407E-03,   62.7290E-03,            0.,NA,NA,"",   848.491E+03,   943.207E+03,   943.207E+03
C:/temp/Job-1.odb,Step-1,Increment      1: Step Time =    1.000,"P-1-1",          1923,   6.50320E-03,   62.4208E-03,            0.,NA,NA,"",   839.009E+03,   937.545E+03,   937.545E+03
C:/temp/Job-1.odb,Step-1,Increment      1: Step Time =    1.000,"P-1-1",          1924,   3.26332E-03,   62.1939E-03,            0.,NA,NA,"",   828.966E+03,   931.191E+03,   931.191E+03
C:/temp/Job-1.odb,Step-1,Increment      1: Step Time =    1.000,"P-1-1",          1925,   197.276E-03,   66.2861E-03,            0.,NA,NA,"",   982.097E+03,   1.00009E+06,   1.00009E+06
C:/temp/Job-1.odb,Step-1,Increment      1: Step Time =    1.000,"P-1-1",          1926,   194.577E-03,   65.8798E-03,            0.,NA,NA,"",   984.191E+03,   1.00034E+06,   1.00034E+06
C:/temp/Job-1.odb,Step-1,Increment      1: Step Time =    1.000,"P-1-1",          1927,   190.384E-03,   65.4741E-03,            0.,NA,NA,"",   987.900E+03,   1.00113E+06,   1.00113E+06
C:/temp/Job-1.odb,Step-1,Increment      1: Step Time =    1.000,"P-1-1",          1928,   187.038E-03,   66.1085E-03,            0.,NA,NA,"",   990.285E+03,   1.00170E+06,   1.00170E+06
C:/temp/Job-1.odb,Step-1,Increment      1: Step Time =    1.000,"P-1-1",          1929,   183.705E-03,   66.1316E-03,            0.,NA,NA,"",   993.416E+03,   1.00252E+06,   1.00252E+06
C:/temp/Job-1.odb,Step-1,Increment      1: Step Time =    1.000,"P-1-1",          1930,   180.995E-03,   65.3393E-03,            0.,NA,NA,"",   996.925E+03,   1.00373E+06,   1.00373E+06
C:/temp/Job-1.odb,Step-1,Increment      1: Step Time =    1.000,"P-1-1",          1931,   177.209E-03,   65.0265E-03,            0.,NA,NA,"",   1.00173E+06,   1.00558E+06,   1.00558E+06
C:/temp/Job-1.odb,Step-1,Increment      1: Step Time =    1.000,"P-1-1",          1932,   173.682E-03,   65.1286E-03,            0.,NA,NA,"",   1.00611E+06,   1.00728E+06,   1.00728E+06
C:/temp/Job-1.odb,Step-1,Increment      1: Step Time =    1.000,"P-1-1",          1933,   170.412E-03,   65.7353E-03,            0.,NA,NA,"",   1.01001E+06,   1.00875E+06,   1.00875E+06
C:/temp/Job-1.odb,Step-1,Increment      1: Step Time =    1.000,"P-1-1",          1934,   167.365E-03,   66.7124E-03,            0.,NA,NA,"",   1.01332E+06,   1.00978E+06,   1.00978E+06
C:/temp/Job-1.odb,Step-1,Increment      1: Step Time =    1.000,"P-1-1",          1935,   164.259E-03,   65.0551E-03,            0.,NA,NA,"",   1.02182E+06,   1.01490E+06,   1.01490E+06
C:/temp/Job-1.odb,Step-1,Increment      1: Step Time =    1.000,"P-1-1",          1936,   161.039E-03,   65.7103E-03,            0.,NA,NA,"",   1.02752E+06,   1.01768E+06,   1.01768E+06
C:/temp/Job-1.odb,Step-1,Increment      1: Step Time =    1.000,"P-1-1",          1937,   157.809E-03,   66.7634E-03,            0.,NA,NA,"",   1.03308E+06,   1.02022E+06,   1.02022E+06
C:/temp/Job-1.odb,Step-1,Increment      1: Step Time =    1.000,"P-1-1",          1938,   155.034E-03,   67.2722E-03,            0.,NA,NA,"",   1.03959E+06,   1.02381E+06,   1.02381E+06
C:/temp/Job-1.odb,Step-1,Increment      1: Step Time =    1.000,"P-1-1",          1939,   150.702E-03,   65.2108E-03,            0.,NA,NA,"",   1.05862E+06,   1.03743E+06,   1.03743E+06
C:/temp/Job-1.odb,Step-1,Increment      1: Step Time =    1.000,"P-1-1",          1940,   147.387E-03,   65.0994E-03,            0.,NA,NA,"",   1.07129E+06,   1.04633E+06,   1.04633E+06
C:/temp/Job-1.odb,Step-1,Increment      1: Step Time =    1.000,"P-1-1",          1941,   144.862E-03,   65.7544E-03,            0.,NA,NA,"",   1.08048E+06,   1.05250E+06,   1.05250E+06
C:/temp/Job-1.odb,Step-1,Increment      1: Step Time =    1.000,"P-1-1",          1942,   141.411E-03,   66.0424E-03,            0.,NA,NA,"",   1.09650E+06,   1.06415E+06,   1.06415E+06
C:/temp/Job-1.odb,Step-1,Increment      1: Step Time =    1.000,"P-1-1",          1943,   137.538E-03,   65.6259E-03,            0.,NA,NA,"",   1.11566E+06,   1.08012E+06,   1.08012E+06
C:/temp/Job-1.odb,Step-1,Increment      1: Step Time =    1.000,"P-1-1",          1944,   134.159E-03,   66.0291E-03,            0.,NA,NA,"",   1.13309E+06,   1.09484E+06,   1.09484E+06
C:/temp/Job-1.odb,Step-1,Increment      1: Step Time =    1.000,"P-1-1",          1945,   132.155E-03,   65.5126E-03,            0.,NA,NA,"",   1.14212E+06,   1.10438E+06,   1.10438E+06
C:/temp/Job-1.odb,Step-1,Increment      1: Step Time =    1.000,"P-1-1",          1946,   128.663E-03,   65.3815E-03,            0.,NA,NA,"",   1.15592E+06,   1.12001E+06,   1.12001E+06
C:/temp/Job-1.odb,Step-1,Increment      1: Step Time =    1.000,"P-1-1",          1947,   124.968E-03,   65.0280E-03,            0.,NA,NA,"",   1.16495E+06,   1.13537E+06,   1.13537E+06
C:/temp/Job-1.odb,Step-1,Increment      1: Step Time =    1.000,"P-1-1",          1948,   121.437E-03,   65.4514E-03,            0.,NA,NA,"",   1.16959E+06,   1.14896E+06,   1.14896E+06
C:/temp/Job-1.odb,Step-1,Increment      1: Step Time =    1.000,"P-1-1",          1949,   116.458E-03,   65.7775E-03,            0.,NA,NA,"",   1.16024E+06,   1.16123E+06,   1.16123E+06
C:/temp/Job-1.odb,Step-1,Increment      1: Step Time =    1.000,"P-1-1",          1950,   114.093E-03,   64.4836E-03,            0.,NA,NA,"",   1.13528E+06,   1.15080E+06,   1.15080E+06
C:/temp/Job-1.odb,Step-1,Increment      1: Step Time =    1.000,"P-1-1",          1951,   110.925E-03,   66.5247E-03,            0.,NA,NA,"",   1.12941E+06,   1.16364E+06,   1.16364E+06
C:/temp/Job-1.odb,Step-1,Increment      1: Step Time =    1.000,"P-1-1",          1952,   106.099E-03,   65.2192E-03,            0.,NA,NA,"",   1.07826E+06,   1.13813E+06,   1.13813E+06
C:/temp/Job-1.odb,Step-1,Increment      1: Step Time =    1.000,"P-1-1",          1953,   102.679E-03,   64.8589E-03,            0.,NA,NA,"",   1.05678E+06,   1.12698E+06,   1.12698E+06
C:/temp/Job-1.odb,Step-1,Increment      1: Step Time =    1.000,"P-1-1",          1954,   98.5971E-03,   65.3782E-03,            0.,NA,NA,"",   1.05477E+06,   1.12940E+06,   1.12940E+06
C:/temp/Job-1.odb,Step-1,Increment      1: Step Time =    1.000,"P-1-1",          1955,   95.4566E-03,   66.3770E-03,            0.,NA,NA,"",   1.07334E+06,   1.14447E+06,   1.14447E+06
C:/temp/Job-1.odb,Step-1,Increment      1: Step Time =    1.000,"P-1-1",          1956,   91.3450E-03,   65.6965E-03,            0.,NA,NA,"",   1.09974E+06,   1.15166E+06,   1.15166E+06
C:/temp/Job-1.odb,Step-1,Increment      1: Step Time =    1.000,"P-1-1",          1957,   88.0769E-03,   65.5884E-03,            0.,NA,NA,"",   1.12407E+06,   1.15847E+06,   1.15847E+06
C:/temp/Job-1.odb,Step-1,Increment      1: Step Time =    1.000,"P-1-1",          1958,   85.5869E-03,   66.0414E-03,            0.,NA,NA,"",   1.14411E+06,   1.16513E+06,   1.16513E+06
C:/temp/Job-1.odb,Step-1,Increment      1: Step Time =    1.000,"P-1-1",          1959,   81.8099E-03,   67.1872E-03,            0.,NA,NA,"",   1.16684E+06,   1.16778E+06,   1.16778E+06
C:/temp/Job-1.odb,Step-1,Increment      1: Step Time =    1.000,"P-1-1",          1960,   78.2782E-03,   66.0416E-03,            0.,NA,NA,"",   1.15813E+06,   1.15061E+06,   1.15061E+06
C:/temp/Job-1.odb,Step-1,Increment      1: Step Time =    1.000,"P-1-1",          1961,   75.2778E-03,   64.7320E-03,            0.,NA,NA,"",   1.14472E+06,   1.13450E+06,   1.13450E+06
C:/temp/Job-1.odb,Step-1,Increment      1: Step Time =    1.000,"P-1-1",          1962,   72.3881E-03,   64.5286E-03,            0.,NA,NA,"",   1.13315E+06,   1.12133E+06,   1.12133E+06
C:/temp/Job-1.odb,Step-1,Increment      1: Step Time =    1.000,"P-1-1",          1963,   67.8264E-03,   64.6075E-03,            0.,NA,NA,"",   1.11045E+06,   1.10025E+06,   1.10025E+06
C:/temp/Job-1.odb,Step-1,Increment      1: Step Time =    1.000,"P-1-1",          1964,   65.9608E-03,   64.8157E-03,            0.,NA,NA,"",   1.09916E+06,   1.09097E+06,   1.09097E+06
C:/temp/Job-1.odb,Step-1,Increment      1: Step Time =    1.000,"P-1-1",          1965,   62.7518E-03,   65.1231E-03,            0.,NA,NA,"",   1.07972E+06,   1.07601E+06,   1.07601E+06
C:/temp/Job-1.odb,Step-1,Increment      1: Step Time =    1.000,"P-1-1",          1966,   59.7922E-03,   65.7847E-03,            0.,NA,NA,"",   1.05904E+06,   1.06082E+06,   1.06082E+06
C:/temp/Job-1.odb,Step-1,Increment      1: Step Time =    1.000,"P-1-1",          1967,   54.9908E-03,   64.8144E-03,            0.,NA,NA,"",   1.03187E+06,   1.04378E+06,   1.04378E+06
C:/temp/Job-1.odb,Step-1,Increment      1: Step Time =    1.000,"P-1-1",          1968,   52.5524E-03,   65.7290E-03,            0.,NA,NA,"",   1.01480E+06,   1.03227E+06,   1.03227E+06
C:/temp/Job-1.odb,Step-1,Increment      1: Step Time =    1.000,"P-1-1",          1969,   49.6498E-03,   65.4161E-03,            0.,NA,NA,"",   1.00041E+06,   1.02401E+06,   1.02401E+06
C:/temp/Job-1.odb,Step-1,Increment      1: Step Time =    1.000,"P-1-1",          1970,   45.5110E-03,   65.4194E-03,            0.,NA,NA,"",   978.402E+03,   1.01123E+06,   1.01123E+06
C:/temp/Job-1.odb,Step-1,Increment      1: Step Time =    1.000,"P-1-1",          1971,   42.9323E-03,   66.0365E-03,            0.,NA,NA,"",   963.240E+03,   1.00214E+06,   1.00214E+06
C:/temp/Job-1.odb,Step-1,Increment      1: Step Time =    1.000,"P-1-1",          1972,   39.0979E-03,   66.7803E-03,            0.,NA,NA,"",   942.957E+03,   990.167E+03,   990.167E+03
C:/temp/Job-1.odb,Step-1,Increment      1: Step Time =    1.000,"P-1-1",          1973,   36.2997E-03,   66.5248E-03,            0.,NA,NA,"",   932.665E+03,   985.077E+03,   985.077E+03
C:/temp/Job-1.odb,Step-1,Increment      1: Step Time =    1.000,"P-1-1",          1974,   32.8279E-03,   64.7164E-03,            0.,NA,NA,"",   926.002E+03,   983.811E+03,   983.811E+03
C:/temp/Job-1.odb,Step-1,Increment      1: Step Time =    1.000,"P-1-1",          1975,   28.6532E-03,   64.9912E-03,            0.,NA,NA,"",   908.964E+03,   974.642E+03,   974.642E+03
C:/temp/Job-1.odb,Step-1,Increment      1: Step Time =    1.000,"P-1-1",          1976,   26.4670E-03,   65.3769E-03,            0.,NA,NA,"",   899.217E+03,   969.081E+03,   969.081E+03
C:/temp/Job-1.odb,Step-1,Increment      1: Step Time =    1.000,"P-1-1",          1977,   22.5282E-03,   65.1158E-03,            0.,NA,NA,"",   885.775E+03,   962.149E+03,   962.149E+03
C:/temp/Job-1.odb,Step-1,Increment      1: Step Time =    1.000,"P-1-1",          1978,   19.8484E-03,   64.8841E-03,            0.,NA,NA,"",   877.585E+03,   957.907E+03,   957.907E+03
C:/temp/Job-1.odb,Step-1,Increment      1: Step Time =    1.000,"P-1-1",          1979,   15.9283E-03,   65.2524E-03,            0.,NA,NA,"",   862.657E+03,   949.118E+03,   949.118E+03
C:/temp/Job-1.odb,Step-1,Increment      1: Step Time =    1.000,"P-1-1",          1980,   12.9446E-03,   65.8027E-03,            0.,NA,NA,"",   851.332E+03,   942.033E+03,   942.033E+03
C:/temp/Job-1.odb,Step-1,Increment      1: Step Time =    1.000,"P-1-1",          1981,   9.72210E-03,   65.9194E-03,            0.,NA,NA,"",   840.600E+03,   935.431E+03,   935.431E+03
C:/temp/Job-1.odb,Step-1,Increment      1: Step Time =    1.000,"P-1-1",          1982,   6.44028E-03,   65.6374E-03,            0.,NA,NA,"",   831.013E+03,   929.618E+03,   929.618E+03
C:/temp/Job-1.odb,Step-1,Increment      1: Step Time =    1.000,"P-1-1",          1983,   3.20122E-03,   65.3301E-03,            0.,NA,NA,"",   821.885E+03,   923.896E+03,   923.896E+03
C:/temp/Job-1.odb,Step-1,Increment      1: Step Time =    1.000,"P-1-1",          1984,   196.968E-03,   69.1495E-03,            0.,NA,NA,"",   979.979E+03,   1.00010E+06,   1.00010E+06
C:/temp/Job-1.odb,Step-1,Increment      1: Step Time =    1.000,"P-1-1",          1985,   192.904E-03,   68.9918E-03,            0.,NA,NA,"",   983.159E+03,   1.00030E+06,   1.00030E+06
C:/temp/Job-1.odb,Step-1,Increment      1: Step Time =    1.000,"P-1-1",          1986,   190.812E-03,   70.1399E-03,            0.,NA,NA,"",   983.875E+03,   1.00029E+06,   1.00029E+06
C:/temp/Job-1.odb,Step-1,Increment      1: Step Time =    1.000,"P-1-1",          1987,   186.921E-03,   69.3391E-03,            0.,NA,NA,"",   987.770E+03,   1.00080E+06,   1.00080E+06
C:/temp/Job-1.odb,Step-1,Increment      1: Step Time =    1.000,"P-1-1",          1988,   183.956E-03,   68.8439E-03,            0.,NA,NA,"",   990.828E+03,   1.00136E+06,   1.00136E+06
C:/temp/Job-1.odb,Step-1,Increment      1: Step Time =    1.000,"P-1-1",          1989,   180.526E-03,   67.9726E-03,            0.,NA,NA,"",   994.832E+03,   1.00244E+06,   1.00244E+06
C:/temp/Job-1.odb,Step-1,Increment      1: Step Time =    1.000,"P-1-1",          1990,   176.984E-03,   69.6534E-03,            0.,NA,NA,"",   996.210E+03,   1.00201E+06,   1.00201E+06
C:/temp/Job-1.odb,Step-1,Increment      1: Step Time =    1.000,"P-1-1",          1991,   174.683E-03,   68.4794E-03,            0.,NA,NA,"",   1.00024E+06,   1.00368E+06,   1.00368E+06
C:/temp/Job-1.odb,Step-1,Increment      1: Step Time =    1.000,"P-1-1",          1992,   170.359E-03,   69.4421E-03,            0.,NA,NA,"",   1.00417E+06,   1.00437E+06,   1.00437E+06
C:/temp/Job-1.odb,Step-1,Increment      1: Step Time =    1.000,"P-1-1",          1993,   166.735E-03,   68.5759E-03,            0.,NA,NA,"",   1.01082E+06,   1.00752E+06,   1.00752E+06
C:/temp/Job-1.odb,Step-1,Increment      1: Step Time =    1.000,"P-1-1",          1994,   163.775E-03,   68.8554E-03,            0.,NA,NA,"",   1.01533E+06,   1.00938E+06,   1.00938E+06
C:/temp/Job-1.odb,Step-1,Increment      1: Step Time =    1.000,"P-1-1",          1995,   160.701E-03,   69.6398E-03,            0.,NA,NA,"",   1.01937E+06,   1.01073E+06,   1.01073E+06
C:/temp/Job-1.odb,Step-1,Increment      1: Step Time =    1.000,"P-1-1",          1996,   157.428E-03,   69.7777E-03,            0.,NA,NA,"",   1.02605E+06,   1.01401E+06,   1.01401E+06
C:/temp/Job-1.odb,Step-1,Increment      1: Step Time =    1.000,"P-1-1",          1997,   152.299E-03,   69.9637E-03,            0.,NA,NA,"",   1.04067E+06,   1.02228E+06,   1.02228E+06
C:/temp/Job-1.odb,Step-1,Increment      1: Step Time =    1.000,"P-1-1",          1998,   150.476E-03,   70.2749E-03,            0.,NA,NA,"",   1.04504E+06,   1.02455E+06,   1.02455E+06
C:/temp/Job-1.odb,Step-1,Increment      1: Step Time =    1.000,"P-1-1",          1999,   148.867E-03,   68.7582E-03,            0.,NA,NA,"",   1.05622E+06,   1.03310E+06,   1.03310E+06
C:/temp/Job-1.odb,Step-1,Increment      1: Step Time =    1.000,"P-1-1",          2000,   143.746E-03,   69.3600E-03,            0.,NA,NA,"",   1.07770E+06,   1.04721E+06,   1.04721E+06
C:/temp/Job-1.odb,Step-1,Increment      1: Step Time =    1.000,"P-1-1",          2001,   141.338E-03,   69.0416E-03,            0.,NA,NA,"",   1.09067E+06,   1.05695E+06,   1.05695E+06
C:/temp/Job-1.odb,Step-1,Increment      1: Step Time =    1.000,"P-1-1",          2002,   137.442E-03,   68.3656E-03,            0.,NA,NA,"",   1.11457E+06,   1.07608E+06,   1.07608E+06
C:/temp/Job-1.odb,Step-1,Increment      1: Step Time =    1.000,"P-1-1",          2003,   135.422E-03,   68.2439E-03,            0.,NA,NA,"",   1.12654E+06,   1.08608E+06,   1.08608E+06
C:/temp/Job-1.odb,Step-1,Increment      1: Step Time =    1.000,"P-1-1",          2004,   131.827E-03,   68.9748E-03,            0.,NA,NA,"",   1.14971E+06,   1.10518E+06,   1.10518E+06
C:/temp/Job-1.odb,Step-1,Increment      1: Step Time =    1.000,"P-1-1",          2005,   128.273E-03,   68.8016E-03,            0.,NA,NA,"",   1.17029E+06,   1.12611E+06,   1.12611E+06
C:/temp/Job-1.odb,Step-1,Increment      1: Step Time =    1.000,"P-1-1",          2006,   124.352E-03,   68.9404E-03,            0.,NA,NA,"",   1.19134E+06,   1.15082E+06,   1.15082E+06
C:/temp/Job-1.odb,Step-1,Increment      1: Step Time =    1.000,"P-1-1",          2007,   120.745E-03,   68.8215E-03,            0.,NA,NA,"",   1.19819E+06,   1.16968E+06,   1.16968E+06
C:/temp/Job-1.odb,Step-1,Increment      1: Step Time =    1.000,"P-1-1",          2008,   117.675E-03,   68.4138E-03,            0.,NA,NA,"",   1.19093E+06,   1.17862E+06,   1.17862E+06
C:/temp/Job-1.odb,Step-1,Increment      1: Step Time =    1.000,"P-1-1",          2009,   115.165E-03,   68.0859E-03,            0.,NA,NA,"",   1.17735E+06,   1.18112E+06,   1.18112E+06
C:/temp/Job-1.odb,Step-1,Increment      1: Step Time =    1.000,"P-1-1",          2010,   111.261E-03,   68.8745E-03,            0.,NA,NA,"",   1.15759E+06,   1.18880E+06,   1.18880E+06
C:/temp/Job-1.odb,Step-1,Increment      1: Step Time =    1.000,"P-1-1",          2011,   107.743E-03,   68.5661E-03,            0.,NA,NA,"",   1.11935E+06,   1.17649E+06,   1.17649E+06
C:/temp/Job-1.odb,Step-1,Increment      1: Step Time =    1.000,"P-1-1",          2012,   105.492E-03,   69.0844E-03,            0.,NA,NA,"",   1.10194E+06,   1.17460E+06,   1.17460E+06
C:/temp/Job-1.odb,Step-1,Increment      1: Step Time =    1.000,"P-1-1",          2013,   102.009E-03,   68.5090E-03,            0.,NA,NA,"",   1.07404E+06,   1.15836E+06,   1.15836E+06
C:/temp/Job-1.odb,Step-1,Increment      1: Step Time =    1.000,"P-1-1",          2014,   99.8077E-03,   68.7626E-03,            0.,NA,NA,"",   1.07186E+06,   1.15954E+06,   1.15954E+06
C:/temp/Job-1.odb,Step-1,Increment      1: Step Time =    1.000,"P-1-1",          2015,   95.3924E-03,   68.6994E-03,            0.,NA,NA,"",   1.09038E+06,   1.16805E+06,   1.16805E+06
C:/temp/Job-1.odb,Step-1,Increment      1: Step Time =    1.000,"P-1-1",          2016,   91.0900E-03,   67.9238E-03,            0.,NA,NA,"",   1.12097E+06,   1.17387E+06,   1.17387E+06
C:/temp/Job-1.odb,Step-1,Increment      1: Step Time =    1.000,"P-1-1",          2017,   88.5066E-03,   69.6455E-03,            0.,NA,NA,"",   1.16418E+06,   1.19862E+06,   1.19862E+06
C:/temp/Job-1.odb,Step-1,Increment      1: Step Time =    1.000,"P-1-1",          2018,   84.6711E-03,   69.4974E-03,            0.,NA,NA,"",   1.18378E+06,   1.19288E+06,   1.19288E+06
C:/temp/Job-1.odb,Step-1,Increment      1: Step Time =    1.000,"P-1-1",          2019,   81.7386E-03,   69.5429E-03,            0.,NA,NA,"",   1.18961E+06,   1.18358E+06,   1.18358E+06
C:/temp/Job-1.odb,Step-1,Increment      1: Step Time =    1.000,"P-1-1",          2020,   78.5627E-03,   68.6866E-03,            0.,NA,NA,"",   1.17816E+06,   1.16386E+06,   1.16386E+06
C:/temp/Job-1.odb,Step-1,Increment      1: Step Time =    1.000,"P-1-1",          2021,   73.8090E-03,   67.3545E-03,            0.,NA,NA,"",   1.15012E+06,   1.13312E+06,   1.13312E+06
C:/temp/Job-1.odb,Step-1,Increment      1: Step Time =    1.000,"P-1-1",          2022,   71.4336E-03,   67.2843E-03,            0.,NA,NA,"",   1.13621E+06,   1.11945E+06,   1.11945E+06
C:/temp/Job-1.odb,Step-1,Increment      1: Step Time =    1.000,"P-1-1",          2023,   68.2369E-03,   68.5390E-03,            0.,NA,NA,"",   1.11421E+06,   1.09863E+06,   1.09863E+06
C:/temp/Job-1.odb,Step-1,Increment      1: Step Time =    1.000,"P-1-1",          2024,   65.8192E-03,   69.5011E-03,            0.,NA,NA,"",   1.09247E+06,   1.08027E+06,   1.08027E+06
C:/temp/Job-1.odb,Step-1,Increment      1: Step Time =    1.000,"P-1-1",          2025,   62.4178E-03,   68.7686E-03,            0.,NA,NA,"",   1.06911E+06,   1.06449E+06,   1.06449E+06
C:/temp/Job-1.odb,Step-1,Increment      1: Step Time =    1.000,"P-1-1",          2026,   58.9527E-03,   68.5433E-03,            0.,NA,NA,"",   1.04344E+06,   1.04724E+06,   1.04724E+06
C:/temp/Job-1.odb,Step-1,Increment      1: Step Time =    1.000,"P-1-1",          2027,   55.6546E-03,   69.1877E-03,            0.,NA,NA,"",   1.01857E+06,   1.03052E+06,   1.03052E+06
C:/temp/Job-1.odb,Step-1,Increment      1: Step Time =    1.000,"P-1-1",          2028,   53.2174E-03,   70.2846E-03,            0.,NA,NA,"",   997.938E+03,   1.01641E+06,   1.01641E+06
C:/temp/Job-1.odb,Step-1,Increment      1: Step Time =    1.000,"P-1-1",          2029,   49.3627E-03,   69.9557E-03,            0.,NA,NA,"",   976.799E+03,   1.00442E+06,   1.00442E+06
C:/temp/Job-1.odb,Step-1,Increment      1: Step Time =    1.000,"P-1-1",          2030,   45.2064E-03,   68.5819E-03,            0.,NA,NA,"",   963.259E+03,   998.855E+03,   998.855E+03
C:/temp/Job-1.odb,Step-1,Increment      1: Step Time =    1.000,"P-1-1",          2031,   42.0021E-03,   69.4365E-03,            0.,NA,NA,"",   943.937E+03,   987.218E+03,   987.218E+03
C:/temp/Job-1.odb,Step-1,Increment      1: Step Time =    1.000,"P-1-1",          2032,   38.7293E-03,   68.0171E-03,            0.,NA,NA,"",   936.651E+03,   985.342E+03,   985.342E+03
C:/temp/Job-1.odb,Step-1,Increment      1: Step Time =    1.000,"P-1-1",          2033,   35.2262E-03,   68.1372E-03,            0.,NA,NA,"",   922.078E+03,   977.554E+03,   977.554E+03
C:/temp/Job-1.odb,Step-1,Increment      1: Step Time =    1.000,"P-1-1",          2034,   32.3448E-03,   69.5052E-03,            0.,NA,NA,"",   905.143E+03,   967.023E+03,   967.023E+03
C:/temp/Job-1.odb,Step-1,Increment      1: Step Time =    1.000,"P-1-1",          2035,   28.5929E-03,   68.9069E-03,            0.,NA,NA,"",   894.048E+03,   962.101E+03,   962.101E+03
C:/temp/Job-1.odb,Step-1,Increment      1: Step Time =    1.000,"P-1-1",          2036,   24.9260E-03,   68.5145E-03,            0.,NA,NA,"",   882.737E+03,   956.722E+03,   956.722E+03
C:/temp/Job-1.odb,Step-1,Increment      1: Step Time =    1.000,"P-1-1",          2037,   21.6732E-03,   68.4180E-03,            0.,NA,NA,"",   871.925E+03,   950.990E+03,   950.990E+03
C:/temp/Job-1.odb,Step-1,Increment      1: Step Time =    1.000,"P-1-1",          2038,   18.9575E-03,   68.5861E-03,            0.,NA,NA,"",   862.523E+03,   945.710E+03,   945.710E+03
C:/temp/Job-1.odb,Step-1,Increment      1: Step Time =    1.000,"P-1-1",          2039,   17.5158E-03,   69.2741E-03,            0.,NA,NA,"",   856.122E+03,   941.401E+03,   941.401E+03
C:/temp/Job-1.odb,Step-1,Increment      1: Step Time =    1.000,"P-1-1",          2040,   13.7775E-03,   68.8393E-03,            0.,NA,NA,"",   845.617E+03,   935.763E+03,   935.763E+03
C:/temp/Job-1.odb,Step-1,Increment      1: Step Time =    1.000,"P-1-1",          2041,   9.97239E-03,   69.3609E-03,            0.,NA,NA,"",   832.551E+03,   927.376E+03,   927.376E+03
C:/temp/Job-1.odb,Step-1,Increment      1: Step Time =    1.000,"P-1-1",          2042,   6.30954E-03,   68.6660E-03,            0.,NA,NA,"",   823.787E+03,   922.480E+03,   922.480E+03
C:/temp/Job-1.odb,Step-1,Increment      1: Step Time =    1.000,"P-1-1",          2043,   3.11863E-03,   68.3962E-03,            0.,NA,NA,"",   815.280E+03,   917.082E+03,   917.082E+03
C:/temp/Job-1.odb,Step-1,Increment      1: Step Time =    1.000,"P-1-1",          2044,   195.857E-03,   72.6112E-03,            0.,NA,NA,"",    978.03E+03,   1.00005E+06,   1.00005E+06
C:/temp/Job-1.odb,Step-1,Increment      1: Step Time =    1.000,"P-1-1",          2045,   192.955E-03,   71.9713E-03,            0.,NA,NA,"",   980.896E+03,   1.00005E+06,   1.00005E+06
C:/temp/Job-1.odb,Step-1,Increment      1: Step Time =    1.000,"P-1-1",          2046,   190.123E-03,   72.7868E-03,            0.,NA,NA,"",   982.398E+03,   999.818E+03,   999.818E+03
C:/temp/Job-1.odb,Step-1,Increment      1: Step Time =    1.000,"P-1-1",          2047,   186.348E-03,   72.7399E-03,            0.,NA,NA,"",   985.234E+03,   999.608E+03,   999.608E+03
C:/temp/Job-1.odb,Step-1,Increment      1: Step Time =    1.000,"P-1-1",          2048,   183.972E-03,   72.6177E-03,            0.,NA,NA,"",   987.033E+03,   999.529E+03,   999.529E+03
C:/temp/Job-1.odb,Step-1,Increment      1: Step Time =    1.000,"P-1-1",          2049,   180.637E-03,   71.2217E-03,            0.,NA,NA,"",   991.098E+03,   1.00036E+06,   1.00036E+06
C:/temp/Job-1.odb,Step-1,Increment      1: Step Time =    1.000,"P-1-1",          2050,   177.102E-03,   71.4847E-03,            0.,NA,NA,"",   993.820E+03,   1.00045E+06,   1.00045E+06
C:/temp/Job-1.odb,Step-1,Increment      1: Step Time =    1.000,"P-1-1",          2051,   172.638E-03,   71.8183E-03,            0.,NA,NA,"",   997.248E+03,   1.00051E+06,   1.00051E+06
C:/temp/Job-1.odb,Step-1,Increment      1: Step Time =    1.000,"P-1-1",          2052,   169.355E-03,   72.2308E-03,            0.,NA,NA,"",   999.861E+03,   1.00060E+06,   1.00060E+06
C:/temp/Job-1.odb,Step-1,Increment      1: Step Time =    1.000,"P-1-1",          2053,   166.199E-03,   72.2610E-03,            0.,NA,NA,"",   1.00346E+06,   1.00150E+06,   1.00150E+06
C:/temp/Job-1.odb,Step-1,Increment      1: Step Time =    1.000,"P-1-1",          2054,   163.275E-03,   72.1566E-03,            0.,NA,NA,"",   1.00793E+06,   1.00319E+06,   1.00319E+06
C:/temp/Job-1.odb,Step-1,Increment      1: Step Time =    1.000,"P-1-1",          2055,   160.884E-03,   72.8816E-03,            0.,NA,NA,"",   1.00935E+06,   1.00268E+06,   1.00268E+06
C:/temp/Job-1.odb,Step-1,Increment      1: Step Time =    1.000,"P-1-1",          2056,   157.752E-03,   73.4244E-03,            0.,NA,NA,"",   1.01311E+06,   1.00354E+06,   1.00354E+06
C:/temp/Job-1.odb,Step-1,Increment      1: Step Time =    1.000,"P-1-1",          2057,   154.250E-03,   73.7012E-03,            0.,NA,NA,"",   1.01960E+06,   1.00608E+06,   1.00608E+06
C:/temp/Job-1.odb,Step-1,Increment      1: Step Time =    1.000,"P-1-1",          2058,   151.053E-03,   73.4089E-03,            0.,NA,NA,"",   1.02989E+06,   1.01192E+06,   1.01192E+06
C:/temp/Job-1.odb,Step-1,Increment      1: Step Time =    1.000,"P-1-1",          2059,   148.397E-03,   72.3851E-03,            0.,NA,NA,"",   1.04456E+06,   1.02193E+06,   1.02193E+06
C:/temp/Job-1.odb,Step-1,Increment      1: Step Time =    1.000,"P-1-1",          2060,   144.222E-03,   72.7974E-03,            0.,NA,NA,"",   1.06112E+06,   1.03182E+06,   1.03182E+06
C:/temp/Job-1.odb,Step-1,Increment      1: Step Time =    1.000,"P-1-1",          2061,   141.163E-03,   72.0306E-03,            0.,NA,NA,"",   1.08165E+06,   1.04688E+06,   1.04688E+06
C:/temp/Job-1.odb,Step-1,Increment      1: Step Time =    1.000,"P-1-1",          2062,   138.337E-03,   72.0287E-03,            0.,NA,NA,"",   1.09986E+06,   1.05991E+06,   1.05991E+06
C:/temp/Job-1.odb,Step-1,Increment      1: Step Time =    1.000,"P-1-1",          2063,   134.685E-03,   72.2915E-03,            0.,NA,NA,"",   1.12475E+06,   1.07838E+06,   1.07838E+06
C:/temp/Job-1.odb,Step-1,Increment      1: Step Time =    1.000,"P-1-1",          2064,   130.755E-03,   71.6585E-03,            0.,NA,NA,"",   1.15762E+06,   1.10699E+06,   1.10699E+06
C:/temp/Job-1.odb,Step-1,Increment      1: Step Time =    1.000,"P-1-1",          2065,   128.196E-03,   73.3696E-03,            0.,NA,NA,"",   1.17872E+06,   1.12190E+06,   1.12190E+06
C:/temp/Job-1.odb,Step-1,Increment      1: Step Time =    1.000,"P-1-1",          2066,   125.187E-03,   72.1044E-03,            0.,NA,NA,"",   1.20179E+06,   1.14900E+06,   1.14900E+06
C:/temp/Job-1.odb,Step-1,Increment      1: Step Time =    1.000,"P-1-1",          2067,   121.483E-03,   72.2547E-03,            0.,NA,NA,"",   1.22506E+06,   1.17959E+06,   1.17959E+06
C:/temp/Job-1.odb,Step-1,Increment      1: Step Time =    1.000,"P-1-1",          2068,   118.350E-03,   71.8951E-03,            0.,NA,NA,"",   1.23137E+06,   1.20149E+06,   1.20149E+06
C:/temp/Job-1.odb,Step-1,Increment      1: Step Time =    1.000,"P-1-1",          2069,   115.307E-03,   71.1417E-03,            0.,NA,NA,"",   1.21516E+06,   1.20912E+06,   1.20912E+06
C:/temp/Job-1.odb,Step-1,Increment      1: Step Time =    1.000,"P-1-1",          2070,   111.700E-03,   71.1957E-03,            0.,NA,NA,"",   1.19186E+06,   1.21695E+06,   1.21695E+06
C:/temp/Job-1.odb,Step-1,Increment      1: Step Time =    1.000,"P-1-1",          2071,   107.158E-03,   72.5395E-03,            0.,NA,NA,"",   1.16298E+06,   1.23093E+06,   1.23093E+06
C:/temp/Job-1.odb,Step-1,Increment      1: Step Time =    1.000,"P-1-1",          2072,   104.785E-03,   73.0009E-03,            0.,NA,NA,"",   1.14258E+06,   1.23205E+06,   1.23205E+06
C:/temp/Job-1.odb,Step-1,Increment      1: Step Time =    1.000,"P-1-1",          2073,   102.432E-03,   73.2305E-03,            0.,NA,NA,"",   1.12594E+06,   1.22861E+06,   1.22861E+06
C:/temp/Job-1.odb,Step-1,Increment      1: Step Time =    1.000,"P-1-1",          2074,   98.8697E-03,   72.4534E-03,            0.,NA,NA,"",   1.10858E+06,   1.21193E+06,   1.21193E+06
C:/temp/Job-1.odb,Step-1,Increment      1: Step Time =    1.000,"P-1-1",          2075,   95.3682E-03,   71.1068E-03,            0.,NA,NA,"",   1.11456E+06,   1.19963E+06,   1.19963E+06
C:/temp/Job-1.odb,Step-1,Increment      1: Step Time =    1.000,"P-1-1",          2076,   91.9656E-03,   71.6899E-03,            0.,NA,NA,"",   1.15691E+06,   1.21957E+06,   1.21957E+06
C:/temp/Job-1.odb,Step-1,Increment      1: Step Time =    1.000,"P-1-1",          2077,   88.5691E-03,   72.3058E-03,            0.,NA,NA,"",   1.20089E+06,   1.23260E+06,   1.23260E+06
C:/temp/Job-1.odb,Step-1,Increment      1: Step Time =    1.000,"P-1-1",          2078,   85.2625E-03,   72.6795E-03,            0.,NA,NA,"",   1.22396E+06,   1.22641E+06,   1.22641E+06
C:/temp/Job-1.odb,Step-1,Increment      1: Step Time =    1.000,"P-1-1",          2079,   81.7004E-03,   71.1580E-03,            0.,NA,NA,"",   1.20695E+06,   1.19474E+06,   1.19474E+06
C:/temp/Job-1.odb,Step-1,Increment      1: Step Time =    1.000,"P-1-1",          2080,   78.3759E-03,   72.3611E-03,            0.,NA,NA,"",   1.20253E+06,   1.17439E+06,   1.17439E+06
C:/temp/Job-1.odb,Step-1,Increment      1: Step Time =    1.000,"P-1-1",          2081,   74.7884E-03,   71.9253E-03,            0.,NA,NA,"",   1.17187E+06,   1.14236E+06,   1.14236E+06
C:/temp/Job-1.odb,Step-1,Increment      1: Step Time =    1.000,"P-1-1",          2082,   72.5121E-03,   72.1553E-03,            0.,NA,NA,"",   1.15049E+06,   1.12226E+06,   1.12226E+06
C:/temp/Job-1.odb,Step-1,Increment      1: Step Time =    1.000,"P-1-1",          2083,   68.7578E-03,   71.9565E-03,            0.,NA,NA,"",   1.11391E+06,   1.09281E+06,   1.09281E+06
C:/temp/Job-1.odb,Step-1,Increment      1: Step Time =    1.000,"P-1-1",          2084,   66.6900E-03,   72.1034E-03,            0.,NA,NA,"",   1.09453E+06,   1.07796E+06,   1.07796E+06
C:/temp/Job-1.odb,Step-1,Increment      1: Step Time =    1.000,"P-1-1",          2085,   61.2953E-03,   71.6946E-03,            0.,NA,NA,"",   1.04734E+06,   1.04536E+06,   1.04536E+06
C:/temp/Job-1.odb,Step-1,Increment      1: Step Time =    1.000,"P-1-1",          2086,   59.0172E-03,   71.7010E-03,            0.,NA,NA,"",   1.02873E+06,   1.03316E+06,   1.03316E+06
C:/temp/Job-1.odb,Step-1,Increment      1: Step Time =    1.000,"P-1-1",          2087,   56.1820E-03,   72.6239E-03,            0.,NA,NA,"",   1.00346E+06,   1.01588E+06,   1.01588E+06
C:/temp/Job-1.odb,Step-1,Increment      1: Step Time =    1.000,"P-1-1",          2088,   53.4820E-03,   72.8890E-03,            0.,NA,NA,"",   984.181E+03,   1.00389E+06,   1.00389E+06
C:/temp/Job-1.odb,Step-1,Increment      1: Step Time =    1.000,"P-1-1",          2089,   49.2706E-03,   72.2066E-03,            0.,NA,NA,"",   963.937E+03,   993.585E+03,   993.585E+03
C:/temp/Job-1.odb,Step-1,Increment      1: Step Time =    1.000,"P-1-1",          2090,   45.5701E-03,   72.0305E-03,            0.,NA,NA,"",    946.57E+03,   984.452E+03,   984.452E+03
C:/temp/Job-1.odb,Step-1,Increment      1: Step Time =    1.000,"P-1-1",          2091,   42.1904E-03,   71.8173E-03,            0.,NA,NA,"",   932.739E+03,   977.657E+03,   977.657E+03
C:/temp/Job-1.odb,Step-1,Increment      1: Step Time =    1.000,"P-1-1",          2092,   39.8118E-03,   72.5707E-03,            0.,NA,NA,"",   919.604E+03,   969.781E+03,   969.781E+03
C:/temp/Job-1.odb,Step-1,Increment      1: Step Time =    1.000,"P-1-1",          2093,   36.6520E-03,   73.3663E-03,            0.,NA,NA,"",   903.817E+03,   960.647E+03,   960.647E+03
C:/temp/Job-1.odb,Step-1,Increment      1: Step Time =    1.000,"P-1-1",          2094,   32.9801E-03,   72.7855E-03,            0.,NA,NA,"",   893.835E+03,   956.724E+03,   956.724E+03
C:/temp/Job-1.odb,Step-1,Increment      1: Step Time =    1.000,"P-1-1",          2095,   29.7078E-03,   71.9367E-03,            0.,NA,NA,"",   886.452E+03,   954.333E+03,   954.333E+03
C:/temp/Job-1.odb,Step-1,Increment      1: Step Time =    1.000,"P-1-1",          2096,   26.7196E-03,   71.2744E-03,            0.,NA,NA,"",   878.935E+03,   951.375E+03,   951.375E+03
C:/temp/Job-1.odb,Step-1,Increment      1: Step Time =    1.000,"P-1-1",          2097,   23.3048E-03,   71.4796E-03,            0.,NA,NA,"",   867.119E+03,   944.972E+03,   944.972E+03
C:/temp/Job-1.odb,Step-1,Increment      1: Step Time =    1.000,"P-1-1",          2098,   20.7369E-03,   72.5488E-03,            0.,NA,NA,"",   856.259E+03,   938.043E+03,   938.043E+03
C:/temp/Job-1.odb,Step-1,Increment      1: Step Time =    1.000,"P-1-1",          2099,   16.0569E-03,   71.7749E-03,            0.,NA,NA,"",   844.217E+03,   932.135E+03,   932.135E+03
C:/temp/Job-1.odb,Step-1,Increment      1: Step Time =    1.000,"P-1-1",          2100,   12.8840E-03,   72.0433E-03,            0.,NA,NA,"",   834.437E+03,   926.185E+03,   926.185E+03
C:/temp/Job-1.odb,Step-1,Increment      1: Step Time =    1.000,"P-1-1",          2101,   10.4387E-03,   72.5879E-03,            0.,NA,NA,"",   826.630E+03,   921.074E+03,   921.074E+03
C:/temp/Job-1.odb,Step-1,Increment      1: Step Time =    1.000,"P-1-1",          2102,   6.08270E-03,   73.1450E-03,            0.,NA,NA,"",   813.663E+03,   912.462E+03,   912.462E+03
C:/temp/Job-1.odb,Step-1,Increment      1: Step Time =    1.000,"P-1-1",          2103,   3.05746E-03,   71.4530E-03,            0.,NA,NA,"",   809.132E+03,   910.690E+03,   910.690E+03
C:/temp/Job-1.odb,Step-1,Increment      1: Step Time =    1.000,"P-1-1",          2104,   196.792E-03,   76.0336E-03,            0.,NA,NA,"",   974.602E+03,   999.889E+03,   999.889E+03
C:/temp/Job-1.odb,Step-1,Increment      1: Step Time =    1.000,"P-1-1",          2105,   193.446E-03,   76.0593E-03,            0.,NA,NA,"",   977.330E+03,   999.586E+03,   999.586E+03
C:/temp/Job-1.odb,Step-1,Increment      1: Step Time =    1.000,"P-1-1",          2106,   190.256E-03,   75.8262E-03,            0.,NA,NA,"",   979.825E+03,   999.132E+03,   999.132E+03
C:/temp/Job-1.odb,Step-1,Increment      1: Step Time =    1.000,"P-1-1",          2107,   187.058E-03,   76.0065E-03,            0.,NA,NA,"",   981.766E+03,   998.476E+03,   998.476E+03
C:/temp/Job-1.odb,Step-1,Increment      1: Step Time =    1.000,"P-1-1",          2108,   182.766E-03,   75.6493E-03,            0.,NA,NA,"",    984.55E+03,   997.646E+03,   997.646E+03
C:/temp/Job-1.odb,Step-1,Increment      1: Step Time =    1.000,"P-1-1",          2109,   179.222E-03,   74.5960E-03,            0.,NA,NA,"",   987.848E+03,   997.664E+03,   997.664E+03
C:/temp/Job-1.odb,Step-1,Increment      1: Step Time =    1.000,"P-1-1",          2110,   176.782E-03,   74.9466E-03,            0.,NA,NA,"",   988.833E+03,   996.932E+03,   996.932E+03
C:/temp/Job-1.odb,Step-1,Increment      1: Step Time =    1.000,"P-1-1",          2111,   173.984E-03,   75.6875E-03,            0.,NA,NA,"",   989.207E+03,   995.559E+03,   995.559E+03
C:/temp/Job-1.odb,Step-1,Increment      1: Step Time =    1.000,"P-1-1",          2112,   169.685E-03,   75.7141E-03,            0.,NA,NA,"",   991.757E+03,   994.727E+03,   994.727E+03
C:/temp/Job-1.odb,Step-1,Increment      1: Step Time =    1.000,"P-1-1",          2113,   166.254E-03,   75.3939E-03,            0.,NA,NA,"",   995.214E+03,   995.151E+03,   995.151E+03
C:/temp/Job-1.odb,Step-1,Increment      1: Step Time =    1.000,"P-1-1",          2114,   160.914E-03,   75.9686E-03,            0.,NA,NA,"",   998.725E+03,   994.241E+03,   994.241E+03
C:/temp/Job-1.odb,Step-1,Increment      1: Step Time =    1.000,"P-1-1",          2115,   157.797E-03,   76.9107E-03,            0.,NA,NA,"",   999.104E+03,   992.163E+03,   992.163E+03
C:/temp/Job-1.odb,Step-1,Increment      1: Step Time =    1.000,"P-1-1",          2116,   154.237E-03,   75.8227E-03,            0.,NA,NA,"",   1.01032E+06,   998.384E+03,   998.384E+03
C:/temp/Job-1.odb,Step-1,Increment      1: Step Time =    1.000,"P-1-1",          2117,   150.425E-03,   75.5023E-03,            0.,NA,NA,"",   1.02145E+06,   1.00414E+06,   1.00414E+06
C:/temp/Job-1.odb,Step-1,Increment      1: Step Time =    1.000,"P-1-1",          2118,   147.514E-03,   75.1301E-03,            0.,NA,NA,"",   1.03318E+06,   1.01105E+06,   1.01105E+06
C:/temp/Job-1.odb,Step-1,Increment      1: Step Time =    1.000,"P-1-1",          2119,   144.635E-03,   75.8222E-03,            0.,NA,NA,"",   1.04122E+06,   1.01451E+06,   1.01451E+06
C:/temp/Job-1.odb,Step-1,Increment      1: Step Time =    1.000,"P-1-1",          2120,   141.425E-03,   76.1160E-03,            0.,NA,NA,"",   1.05566E+06,   1.02279E+06,   1.02279E+06
C:/temp/Job-1.odb,Step-1,Increment      1: Step Time =    1.000,"P-1-1",          2121,   138.120E-03,   76.1697E-03,            0.,NA,NA,"",   1.07693E+06,   1.03665E+06,   1.03665E+06
C:/temp/Job-1.odb,Step-1,Increment      1: Step Time =    1.000,"P-1-1",          2122,   134.591E-03,   75.8272E-03,            0.,NA,NA,"",   1.10749E+06,   1.05856E+06,   1.05856E+06
C:/temp/Job-1.odb,Step-1,Increment      1: Step Time =    1.000,"P-1-1",          2123,   132.332E-03,   76.1472E-03,            0.,NA,NA,"",   1.12608E+06,   1.07144E+06,   1.07144E+06
C:/temp/Job-1.odb,Step-1,Increment      1: Step Time =    1.000,"P-1-1",          2124,   128.834E-03,   77.2702E-03,            0.,NA,NA,"",   1.15797E+06,   1.09299E+06,   1.09299E+06
C:/temp/Job-1.odb,Step-1,Increment      1: Step Time =    1.000,"P-1-1",          2125,   124.886E-03,   76.4178E-03,            0.,NA,NA,"",   1.21210E+06,   1.14289E+06,   1.14289E+06
C:/temp/Job-1.odb,Step-1,Increment      1: Step Time =    1.000,"P-1-1",          2126,   121.220E-03,   75.5350E-03,            0.,NA,NA,"",   1.24963E+06,   1.18844E+06,   1.18844E+06
C:/temp/Job-1.odb,Step-1,Increment      1: Step Time =    1.000,"P-1-1",          2127,   117.609E-03,   75.2163E-03,            0.,NA,NA,"",   1.27144E+06,   1.22788E+06,   1.22788E+06
C:/temp/Job-1.odb,Step-1,Increment      1: Step Time =    1.000,"P-1-1",          2128,   113.873E-03,   74.7124E-03,            0.,NA,NA,"",   1.26477E+06,   1.25693E+06,   1.25693E+06
C:/temp/Job-1.odb,Step-1,Increment      1: Step Time =    1.000,"P-1-1",          2129,   111.354E-03,   74.8492E-03,            0.,NA,NA,"",   1.25306E+06,   1.27265E+06,   1.27265E+06
C:/temp/Job-1.odb,Step-1,Increment      1: Step Time =    1.000,"P-1-1",          2130,   107.582E-03,   75.1687E-03,            0.,NA,NA,"",   1.21644E+06,   1.28333E+06,   1.28333E+06
C:/temp/Job-1.odb,Step-1,Increment      1: Step Time =    1.000,"P-1-1",          2131,   104.990E-03,   75.6273E-03,            0.,NA,NA,"",   1.19622E+06,   1.29237E+06,   1.29237E+06
C:/temp/Job-1.odb,Step-1,Increment      1: Step Time =    1.000,"P-1-1",          2132,   102.588E-03,   75.5034E-03,            0.,NA,NA,"",   1.17060E+06,   1.28388E+06,   1.28388E+06
C:/temp/Job-1.odb,Step-1,Increment      1: Step Time =    1.000,"P-1-1",          2133,   97.7424E-03,   73.7932E-03,            0.,NA,NA,"",   1.13355E+06,   1.24081E+06,   1.24081E+06
C:/temp/Job-1.odb,Step-1,Increment      1: Step Time =    1.000,"P-1-1",          2134,   95.3374E-03,   73.6064E-03,            0.,NA,NA,"",   1.15062E+06,   1.24383E+06,   1.24383E+06
C:/temp/Job-1.odb,Step-1,Increment      1: Step Time =    1.000,"P-1-1",          2135,   92.6403E-03,   75.6132E-03,            0.,NA,NA,"",   1.21989E+06,   1.29271E+06,   1.29271E+06
C:/temp/Job-1.odb,Step-1,Increment      1: Step Time =    1.000,"P-1-1",          2136,   88.5820E-03,   74.8022E-03,            0.,NA,NA,"",   1.24394E+06,   1.26965E+06,   1.26965E+06
C:/temp/Job-1.odb,Step-1,Increment      1: Step Time =    1.000,"P-1-1",          2137,   85.3515E-03,   75.7615E-03,            0.,NA,NA,"",   1.26987E+06,   1.25918E+06,   1.25918E+06
C:/temp/Job-1.odb,Step-1,Increment      1: Step Time =    1.000,"P-1-1",          2138,   82.4686E-03,   75.7534E-03,            0.,NA,NA,"",   1.25882E+06,   1.22820E+06,   1.22820E+06
C:/temp/Job-1.odb,Step-1,Increment      1: Step Time =    1.000,"P-1-1",          2139,   79.3447E-03,   74.5361E-03,            0.,NA,NA,"",   1.22386E+06,   1.18787E+06,   1.18787E+06
C:/temp/Job-1.odb,Step-1,Increment      1: Step Time =    1.000,"P-1-1",          2140,   74.6251E-03,   75.5316E-03,            0.,NA,NA,"",   1.17272E+06,   1.13199E+06,   1.13199E+06
C:/temp/Job-1.odb,Step-1,Increment      1: Step Time =    1.000,"P-1-1",          2141,   72.4844E-03,   75.4405E-03,            0.,NA,NA,"",   1.14509E+06,   1.10921E+06,   1.10921E+06
C:/temp/Job-1.odb,Step-1,Increment      1: Step Time =    1.000,"P-1-1",          2142,   69.6728E-03,   76.1835E-03,            0.,NA,NA,"",   1.10497E+06,   1.07611E+06,   1.07611E+06
C:/temp/Job-1.odb,Step-1,Increment      1: Step Time =    1.000,"P-1-1",          2143,   66.4263E-03,   75.6664E-03,            0.,NA,NA,"",   1.07120E+06,   1.05343E+06,   1.05343E+06
C:/temp/Job-1.odb,Step-1,Increment      1: Step Time =    1.000,"P-1-1",          2144,   62.1098E-03,   76.3482E-03,            0.,NA,NA,"",   1.02099E+06,   1.01869E+06,   1.01869E+06
C:/temp/Job-1.odb,Step-1,Increment      1: Step Time =    1.000,"P-1-1",          2145,   58.4628E-03,   75.5084E-03,            0.,NA,NA,"",   998.805E+03,   1.00719E+06,   1.00719E+06
C:/temp/Job-1.odb,Step-1,Increment      1: Step Time =    1.000,"P-1-1",          2146,   55.6031E-03,   75.2445E-03,            0.,NA,NA,"",   980.669E+03,   997.046E+03,   997.046E+03
C:/temp/Job-1.odb,Step-1,Increment      1: Step Time =    1.000,"P-1-1",          2147,   53.0831E-03,   75.8259E-03,            0.,NA,NA,"",   960.545E+03,   984.365E+03,   984.365E+03
C:/temp/Job-1.odb,Step-1,Increment      1: Step Time =    1.000,"P-1-1",          2148,   48.8960E-03,   74.5262E-03,            0.,NA,NA,"",   947.487E+03,   980.294E+03,   980.294E+03
C:/temp/Job-1.odb,Step-1,Increment      1: Step Time =    1.000,"P-1-1",          2149,   45.8925E-03,   75.7359E-03,            0.,NA,NA,"",   926.406E+03,   967.174E+03,   967.174E+03
C:/temp/Job-1.odb,Step-1,Increment      1: Step Time =    1.000,"P-1-1",          2150,   42.2412E-03,   75.1111E-03,            0.,NA,NA,"",   915.726E+03,   963.386E+03,   963.386E+03
C:/temp/Job-1.odb,Step-1,Increment      1: Step Time =    1.000,"P-1-1",          2151,   39.2263E-03,   75.7301E-03,            0.,NA,NA,"",   901.450E+03,   955.439E+03,   955.439E+03
C:/temp/Job-1.odb,Step-1,Increment      1: Step Time =    1.000,"P-1-1",          2152,   36.3632E-03,   75.9509E-03,            0.,NA,NA,"",   891.598E+03,   950.816E+03,   950.816E+03
C:/temp/Job-1.odb,Step-1,Increment      1: Step Time =    1.000,"P-1-1",          2153,   33.7908E-03,   75.7814E-03,            0.,NA,NA,"",   883.775E+03,   947.333E+03,   947.333E+03
C:/temp/Job-1.odb,Step-1,Increment      1: Step Time =    1.000,"P-1-1",          2154,   30.6765E-03,   75.3474E-03,            0.,NA,NA,"",   876.198E+03,   944.547E+03,   944.547E+03
C:/temp/Job-1.odb,Step-1,Increment      1: Step Time =    1.000,"P-1-1",          2155,   26.3037E-03,   75.2841E-03,            0.,NA,NA,"",   864.014E+03,   938.896E+03,   938.896E+03
C:/temp/Job-1.odb,Step-1,Increment      1: Step Time =    1.000,"P-1-1",          2156,   22.9317E-03,   74.7681E-03,            0.,NA,NA,"",   855.696E+03,   935.302E+03,   935.302E+03
C:/temp/Job-1.odb,Step-1,Increment      1: Step Time =    1.000,"P-1-1",          2157,   19.8508E-03,   74.9624E-03,            0.,NA,NA,"",   846.431E+03,   930.206E+03,   930.206E+03
C:/temp/Job-1.odb,Step-1,Increment      1: Step Time =    1.000,"P-1-1",          2158,   16.3190E-03,   74.9394E-03,            0.,NA,NA,"",   836.535E+03,   924.740E+03,   924.740E+03
C:/temp/Job-1.odb,Step-1,Increment      1: Step Time =    1.000,"P-1-1",          2159,   13.2652E-03,   74.8584E-03,            0.,NA,NA,"",   828.878E+03,   920.490E+03,   920.490E+03
C:/temp/Job-1.odb,Step-1,Increment      1: Step Time =    1.000,"P-1-1",          2160,   8.97535E-03,   76.2845E-03,            0.,NA,NA,"",   814.629E+03,   910.768E+03,   910.768E+03
C:/temp/Job-1.odb,Step-1,Increment      1: Step Time =    1.000,"P-1-1",          2161,   6.03583E-03,   76.1827E-03,            0.,NA,NA,"",   807.683E+03,   906.422E+03,   906.422E+03
C:/temp/Job-1.odb,Step-1,Increment      1: Step Time =    1.000,"P-1-1",          2162,   3.02988E-03,   76.0743E-03,            0.,NA,NA,"",   800.821E+03,   901.955E+03,   901.955E+03
C:/temp/Job-1.odb,Step-1,Increment      1: Step Time =    1.000,"P-1-1",          2163,   196.706E-03,   79.0331E-03,            0.,NA,NA,"",   972.302E+03,   999.769E+03,   999.769E+03
C:/temp/Job-1.odb,Step-1,Increment      1: Step Time =    1.000,"P-1-1",          2164,   193.441E-03,   78.1913E-03,            0.,NA,NA,"",   975.891E+03,   999.394E+03,   999.394E+03
C:/temp/Job-1.odb,Step-1,Increment      1: Step Time =    1.000,"P-1-1",          2165,   189.763E-03,   79.4348E-03,            0.,NA,NA,"",   977.416E+03,   998.240E+03,   998.240E+03
C:/temp/Job-1.odb,Step-1,Increment      1: Step Time =    1.000,"P-1-1",          2166,   186.772E-03,   79.7463E-03,            0.,NA,NA,"",   978.612E+03,   997.025E+03,   997.025E+03
C:/temp/Job-1.odb,Step-1,Increment      1: Step Time =    1.000,"P-1-1",          2167,   183.044E-03,   79.4371E-03,            0.,NA,NA,"",   980.181E+03,   995.374E+03,   995.374E+03
C:/temp/Job-1.odb,Step-1,Increment      1: Step Time =    1.000,"P-1-1",          2168,   181.144E-03,   80.1072E-03,            0.,NA,NA,"",   980.036E+03,   994.050E+03,   994.050E+03
C:/temp/Job-1.odb,Step-1,Increment      1: Step Time =    1.000,"P-1-1",          2169,   177.982E-03,   78.7405E-03,            0.,NA,NA,"",   982.574E+03,   993.497E+03,   993.497E+03
C:/temp/Job-1.odb,Step-1,Increment      1: Step Time =    1.000,"P-1-1",          2170,   175.479E-03,   79.0847E-03,            0.,NA,NA,"",   982.743E+03,   991.923E+03,   991.923E+03
C:/temp/Job-1.odb,Step-1,Increment      1: Step Time =    1.000,"P-1-1",          2171,   170.942E-03,   78.6189E-03,            0.,NA,NA,"",   984.664E+03,   990.305E+03,   990.305E+03
C:/temp/Job-1.odb,Step-1,Increment      1: Step Time =    1.000,"P-1-1",          2172,   167.257E-03,   78.2848E-03,            0.,NA,NA,"",   986.649E+03,   989.269E+03,   989.269E+03
C:/temp/Job-1.odb,Step-1,Increment      1: Step Time =    1.000,"P-1-1",          2173,   164.041E-03,   78.6990E-03,            0.,NA,NA,"",   986.686E+03,    987.03E+03,    987.03E+03
C:/temp/Job-1.odb,Step-1,Increment      1: Step Time =    1.000,"P-1-1",          2174,   160.912E-03,   79.3777E-03,            0.,NA,NA,"",   985.578E+03,   983.822E+03,   983.822E+03
C:/temp/Job-1.odb,Step-1,Increment      1: Step Time =    1.000,"P-1-1",          2175,   157.417E-03,   79.3435E-03,            0.,NA,NA,"",    988.33E+03,   983.212E+03,   983.212E+03
C:/temp/Job-1.odb,Step-1,Increment      1: Step Time =    1.000,"P-1-1",          2176,   152.874E-03,   78.9259E-03,            0.,NA,NA,"",   995.999E+03,   985.465E+03,   985.465E+03
C:/temp/Job-1.odb,Step-1,Increment      1: Step Time =    1.000,"P-1-1",          2177,   150.360E-03,   78.6864E-03,            0.,NA,NA,"",   1.00251E+06,   988.232E+03,   988.232E+03
C:/temp/Job-1.odb,Step-1,Increment      1: Step Time =    1.000,"P-1-1",          2178,   147.089E-03,   78.1883E-03,            0.,NA,NA,"",   1.01419E+06,   994.465E+03,   994.465E+03
C:/temp/Job-1.odb,Step-1,Increment      1: Step Time =    1.000,"P-1-1",          2179,   143.253E-03,   79.1446E-03,            0.,NA,NA,"",   1.02110E+06,   995.242E+03,   995.242E+03
C:/temp/Job-1.odb,Step-1,Increment      1: Step Time =    1.000,"P-1-1",          2180,   139.657E-03,   79.1267E-03,            0.,NA,NA,"",   1.04049E+06,   1.00624E+06,   1.00624E+06
C:/temp/Job-1.odb,Step-1,Increment      1: Step Time =    1.000,"P-1-1",          2181,   136.359E-03,   79.0053E-03,            0.,NA,NA,"",   1.06534E+06,   1.02193E+06,   1.02193E+06
C:/temp/Job-1.odb,Step-1,Increment      1: Step Time =    1.000,"P-1-1",          2182,   133.398E-03,   78.8571E-03,            0.,NA,NA,"",   1.09465E+06,   1.04205E+06,   1.04205E+06
C:/temp/Job-1.odb,Step-1,Increment      1: Step Time =    1.000,"P-1-1",          2183,   130.476E-03,   79.1932E-03,            0.,NA,NA,"",   1.12299E+06,   1.06058E+06,   1.06058E+06
C:/temp/Job-1.odb,Step-1,Increment      1: Step Time =    1.000,"P-1-1",          2184,   127.771E-03,   79.9613E-03,            0.,NA,NA,"",   1.15025E+06,   1.07726E+06,   1.07726E+06
C:/temp/Job-1.odb,Step-1,Increment      1: Step Time =    1.000,"P-1-1",          2185,   124.421E-03,   79.6036E-03,            0.,NA,NA,"",   1.20682E+06,   1.12482E+06,   1.12482E+06
C:/temp/Job-1.odb,Step-1,Increment      1: Step Time =    1.000,"P-1-1",          2186,   121.856E-03,   79.1190E-03,            0.,NA,NA,"",   1.24884E+06,   1.16557E+06,   1.16557E+06
C:/temp/Job-1.odb,Step-1,Increment      1: Step Time =    1.000,"P-1-1",          2187,   118.778E-03,   78.7609E-03,            0.,NA,NA,"",   1.29237E+06,   1.21808E+06,   1.21808E+06
C:/temp/Job-1.odb,Step-1,Increment      1: Step Time =    1.000,"P-1-1",          2188,   113.636E-03,   78.8981E-03,            0.,NA,NA,"",   1.33465E+06,   1.30177E+06,   1.30177E+06
C:/temp/Job-1.odb,Step-1,Increment      1: Step Time =    1.000,"P-1-1",          2189,   111.936E-03,   78.3263E-03,            0.,NA,NA,"",   1.32551E+06,   1.32198E+06,   1.32198E+06
C:/temp/Job-1.odb,Step-1,Increment      1: Step Time =    1.000,"P-1-1",          2190,   108.540E-03,   77.6686E-03,            0.,NA,NA,"",   1.29065E+06,   1.34370E+06,   1.34370E+06
C:/temp/Job-1.odb,Step-1,Increment      1: Step Time =    1.000,"P-1-1",          2191,   104.488E-03,   78.1978E-03,            0.,NA,NA,"",   1.26559E+06,   1.37559E+06,   1.37559E+06
C:/temp/Job-1.odb,Step-1,Increment      1: Step Time =    1.000,"P-1-1",          2192,   101.601E-03,   76.4149E-03,            0.,NA,NA,"",   1.18832E+06,   1.31017E+06,   1.31017E+06
C:/temp/Job-1.odb,Step-1,Increment      1: Step Time =    1.000,"P-1-1",          2193,   97.9977E-03,   79.5269E-03,            0.,NA,NA,"",   1.31765E+06,   1.45543E+06,   1.45543E+06
C:/temp/Job-1.odb,Step-1,Increment      1: Step Time =    1.000,"P-1-1",          2194,   95.0805E-03,   79.2949E-03,            0.,NA,NA,"",   1.31348E+06,   1.42291E+06,   1.42291E+06
C:/temp/Job-1.odb,Step-1,Increment      1: Step Time =    1.000,"P-1-1",          2195,   91.7713E-03,   77.1706E-03,            0.,NA,NA,"",   1.26963E+06,   1.33364E+06,   1.33364E+06
C:/temp/Job-1.odb,Step-1,Increment      1: Step Time =    1.000,"P-1-1",          2196,   87.5481E-03,   79.1708E-03,            0.,NA,NA,"",   1.32913E+06,   1.32078E+06,   1.32078E+06
C:/temp/Job-1.odb,Step-1,Increment      1: Step Time =    1.000,"P-1-1",          2197,   85.0529E-03,   78.5919E-03,            0.,NA,NA,"",   1.30950E+06,   1.27665E+06,   1.27665E+06
C:/temp/Job-1.odb,Step-1,Increment      1: Step Time =    1.000,"P-1-1",          2198,   82.8940E-03,   77.9798E-03,            0.,NA,NA,"",   1.28524E+06,   1.24218E+06,   1.24218E+06
C:/temp/Job-1.odb,Step-1,Increment      1: Step Time =    1.000,"P-1-1",          2199,   78.1003E-03,   78.9051E-03,            0.,NA,NA,"",   1.21984E+06,   1.15967E+06,   1.15967E+06
C:/temp/Job-1.odb,Step-1,Increment      1: Step Time =    1.000,"P-1-1",          2200,   75.2807E-03,   79.8665E-03,            0.,NA,NA,"",   1.16210E+06,   1.10647E+06,   1.10647E+06
C:/temp/Job-1.odb,Step-1,Increment      1: Step Time =    1.000,"P-1-1",          2201,   71.7949E-03,   78.9070E-03,            0.,NA,NA,"",   1.11314E+06,   1.07327E+06,   1.07327E+06
C:/temp/Job-1.odb,Step-1,Increment      1: Step Time =    1.000,"P-1-1",          2202,   69.5536E-03,   79.4610E-03,            0.,NA,NA,"",   1.07416E+06,   1.04364E+06,   1.04364E+06
C:/temp/Job-1.odb,Step-1,Increment      1: Step Time =    1.000,"P-1-1",          2203,   65.7156E-03,   78.8804E-03,            0.,NA,NA,"",   1.03406E+06,   1.01961E+06,   1.01961E+06
C:/temp/Job-1.odb,Step-1,Increment      1: Step Time =    1.000,"P-1-1",          2204,   61.9209E-03,   78.4826E-03,            0.,NA,NA,"",   999.096E+03,   999.249E+03,   999.249E+03
C:/temp/Job-1.odb,Step-1,Increment      1: Step Time =    1.000,"P-1-1",          2205,   58.0067E-03,   77.3083E-03,            0.,NA,NA,"",   979.740E+03,   991.417E+03,   991.417E+03
C:/temp/Job-1.odb,Step-1,Increment      1: Step Time =    1.000,"P-1-1",          2206,   55.4716E-03,   78.3106E-03,            0.,NA,NA,"",   954.328E+03,   974.651E+03,   974.651E+03
C:/temp/Job-1.odb,Step-1,Increment      1: Step Time =    1.000,"P-1-1",          2207,   52.6455E-03,   79.1090E-03,            0.,NA,NA,"",   931.832E+03,   960.877E+03,   960.877E+03
C:/temp/Job-1.odb,Step-1,Increment      1: Step Time =    1.000,"P-1-1",          2208,   48.9600E-03,   78.4375E-03,            0.,NA,NA,"",   921.162E+03,   958.110E+03,   958.110E+03
C:/temp/Job-1.odb,Step-1,Increment      1: Step Time =    1.000,"P-1-1",          2209,   45.6493E-03,   79.7086E-03,            0.,NA,NA,"",   899.813E+03,   945.412E+03,   945.412E+03
C:/temp/Job-1.odb,Step-1,Increment      1: Step Time =    1.000,"P-1-1",          2210,   41.6037E-03,   78.4617E-03,            0.,NA,NA,"",   894.996E+03,   946.961E+03,   946.961E+03
C:/temp/Job-1.odb,Step-1,Increment      1: Step Time =    1.000,"P-1-1",          2211,   38.2264E-03,   78.9727E-03,            0.,NA,NA,"",   882.677E+03,   941.004E+03,   941.004E+03
C:/temp/Job-1.odb,Step-1,Increment      1: Step Time =    1.000,"P-1-1",          2212,   32.3210E-03,   78.7455E-03,            0.,NA,NA,"",   867.282E+03,   935.243E+03,   935.243E+03
C:/temp/Job-1.odb,Step-1,Increment      1: Step Time =    1.000,"P-1-1",          2213,   29.7038E-03,   78.2823E-03,            0.,NA,NA,"",   862.457E+03,   933.911E+03,   933.911E+03
C:/temp/Job-1.odb,Step-1,Increment      1: Step Time =    1.000,"P-1-1",          2214,   26.3892E-03,   78.2678E-03,            0.,NA,NA,"",   853.903E+03,   930.110E+03,   930.110E+03
C:/temp/Job-1.odb,Step-1,Increment      1: Step Time =    1.000,"P-1-1",          2215,   22.1607E-03,   77.6688E-03,            0.,NA,NA,"",   844.709E+03,   926.359E+03,   926.359E+03
C:/temp/Job-1.odb,Step-1,Increment      1: Step Time =    1.000,"P-1-1",          2216,   19.4378E-03,   78.5226E-03,            0.,NA,NA,"",   835.723E+03,   920.938E+03,   920.938E+03
C:/temp/Job-1.odb,Step-1,Increment      1: Step Time =    1.000,"P-1-1",          2217,   16.3841E-03,   78.7581E-03,            0.,NA,NA,"",   827.471E+03,   916.291E+03,   916.291E+03
C:/temp/Job-1.odb,Step-1,Increment      1: Step Time =    1.000,"P-1-1",          2218,   12.0947E-03,   79.0971E-03,            0.,NA,NA,"",   816.476E+03,   909.769E+03,   909.769E+03
C:/temp/Job-1.odb,Step-1,Increment      1: Step Time =    1.000,"P-1-1",          2219,   9.11572E-03,   79.2121E-03,            0.,NA,NA,"",   809.276E+03,   905.354E+03,   905.354E+03
C:/temp/Job-1.odb,Step-1,Increment      1: Step Time =    1.000,"P-1-1",          2220,   6.10608E-03,   79.2284E-03,            0.,NA,NA,"",   802.456E+03,   901.037E+03,   901.037E+03
C:/temp/Job-1.odb,Step-1,Increment      1: Step Time =    1.000,"P-1-1",          2221,   3.05900E-03,   79.1663E-03,            0.,NA,NA,"",   795.936E+03,   896.767E+03,   896.767E+03
C:/temp/Job-1.odb,Step-1,Increment      1: Step Time =    1.000,"P-1-1",          2222,   196.959E-03,   82.1537E-03,            0.,NA,NA,"",   969.833E+03,   999.699E+03,   999.699E+03
C:/temp/Job-1.odb,Step-1,Increment      1: Step Time =    1.000,"P-1-1",          2223,   193.928E-03,   82.3585E-03,            0.,NA,NA,"",   972.510E+03,   999.044E+03,   999.044E+03
C:/temp/Job-1.odb,Step-1,Increment      1: Step Time =    1.000,"P-1-1",          2224,   190.888E-03,   82.2777E-03,            0.,NA,NA,"",    974.59E+03,   997.971E+03,   997.971E+03
C:/temp/Job-1.odb,Step-1,Increment      1: Step Time =    1.000,"P-1-1",          2225,   187.927E-03,   82.4462E-03,            0.,NA,NA,"",   975.939E+03,   996.584E+03,   996.584E+03
C:/temp/Job-1.odb,Step-1,Increment      1: Step Time =    1.000,"P-1-1",          2226,   183.936E-03,   82.2916E-03,            0.,NA,NA,"",   977.151E+03,   994.319E+03,   994.319E+03
C:/temp/Job-1.odb,Step-1,Increment      1: Step Time =    1.000,"P-1-1",          2227,   180.590E-03,   82.3432E-03,            0.,NA,NA,"",   977.366E+03,   991.955E+03,   991.955E+03
C:/temp/Job-1.odb,Step-1,Increment      1: Step Time =    1.000,"P-1-1",          2228,   177.313E-03,   82.4168E-03,            0.,NA,NA,"",   977.149E+03,   989.369E+03,   989.369E+03
C:/temp/Job-1.odb,Step-1,Increment      1: Step Time =    1.000,"P-1-1",          2229,   174.146E-03,   81.7596E-03,            0.,NA,NA,"",   978.039E+03,   987.699E+03,   987.699E+03
C:/temp/Job-1.odb,Step-1,Increment      1: Step Time =    1.000,"P-1-1",          2230,   170.582E-03,   80.7104E-03,            0.,NA,NA,"",   979.650E+03,   986.314E+03,   986.314E+03
C:/temp/Job-1.odb,Step-1,Increment      1: Step Time =    1.000,"P-1-1",          2231,   167.331E-03,   81.6349E-03,            0.,NA,NA,"",   977.331E+03,   982.285E+03,   982.285E+03
C:/temp/Job-1.odb,Step-1,Increment      1: Step Time =    1.000,"P-1-1",          2232,   163.220E-03,   81.4252E-03,            0.,NA,NA,"",   977.300E+03,   979.154E+03,   979.154E+03
C:/temp/Job-1.odb,Step-1,Increment      1: Step Time =    1.000,"P-1-1",          2233,   160.952E-03,   82.6173E-03,            0.,NA,NA,"",   972.556E+03,   973.715E+03,   973.715E+03
C:/temp/Job-1.odb,Step-1,Increment      1: Step Time =    1.000,"P-1-1",          2234,   157.132E-03,   81.3301E-03,            0.,NA,NA,"",   978.310E+03,   975.004E+03,   975.004E+03
C:/temp/Job-1.odb,Step-1,Increment      1: Step Time =    1.000,"P-1-1",          2235,   153.779E-03,   81.9298E-03,            0.,NA,NA,"",   976.588E+03,   970.668E+03,   970.668E+03
C:/temp/Job-1.odb,Step-1,Increment      1: Step Time =    1.000,"P-1-1",          2236,   150.470E-03,   82.5484E-03,            0.,NA,NA,"",   974.460E+03,   965.577E+03,   965.577E+03
C:/temp/Job-1.odb,Step-1,Increment      1: Step Time =    1.000,"P-1-1",          2237,   147.735E-03,   82.2183E-03,            0.,NA,NA,"",   979.788E+03,   966.897E+03,   966.897E+03
C:/temp/Job-1.odb,Step-1,Increment      1: Step Time =    1.000,"P-1-1",          2238,   144.440E-03,   82.3584E-03,            0.,NA,NA,"",   984.776E+03,   966.660E+03,   966.660E+03
C:/temp/Job-1.odb,Step-1,Increment      1: Step Time =    1.000,"P-1-1",          2239,   141.201E-03,   82.1841E-03,            0.,NA,NA,"",   997.541E+03,   972.265E+03,   972.265E+03
C:/temp/Job-1.odb,Step-1,Increment      1: Step Time =    1.000,"P-1-1",          2240,   137.662E-03,   82.2898E-03,            0.,NA,NA,"",   1.01526E+06,   980.493E+03,   980.493E+03
C:/temp/Job-1.odb,Step-1,Increment      1: Step Time =    1.000,"P-1-1",          2241,   134.359E-03,   81.7566E-03,            0.,NA,NA,"",   1.04826E+06,   1.00125E+06,   1.00125E+06
C:/temp/Job-1.odb,Step-1,Increment      1: Step Time =    1.000,"P-1-1",          2242,   131.585E-03,   81.1106E-03,            0.,NA,NA,"",   1.08689E+06,   1.02854E+06,   1.02854E+06
C:/temp/Job-1.odb,Step-1,Increment      1: Step Time =    1.000,"P-1-1",          2243,   127.444E-03,   81.7229E-03,            0.,NA,NA,"",   1.13419E+06,   1.05763E+06,   1.05763E+06
C:/temp/Job-1.odb,Step-1,Increment      1: Step Time =    1.000,"P-1-1",          2244,   124.536E-03,   82.5607E-03,            0.,NA,NA,"",   1.17625E+06,   1.08388E+06,   1.08388E+06
C:/temp/Job-1.odb,Step-1,Increment      1: Step Time =    1.000,"P-1-1",          2245,   120.903E-03,   82.2705E-03,            0.,NA,NA,"",   1.25207E+06,   1.14902E+06,   1.14902E+06
C:/temp/Job-1.odb,Step-1,Increment      1: Step Time =    1.000,"P-1-1",          2246,   118.384E-03,   81.9543E-03,            0.,NA,NA,"",   1.29998E+06,   1.20128E+06,   1.20128E+06
C:/temp/Job-1.odb,Step-1,Increment      1: Step Time =    1.000,"P-1-1",          2247,   115.045E-03,   82.6952E-03,            0.,NA,NA,"",   1.36023E+06,   1.27525E+06,   1.27525E+06
C:/temp/Job-1.odb,Step-1,Increment      1: Step Time =    1.000,"P-1-1",          2248,   112.147E-03,   81.7250E-03,            0.,NA,NA,"",   1.38979E+06,   1.35878E+06,   1.35878E+06
C:/temp/Job-1.odb,Step-1,Increment      1: Step Time =    1.000,"P-1-1",          2249,   105.170E-03,   79.8462E-03,            0.,NA,NA,"",   1.34172E+06,   1.44947E+06,   1.44947E+06
C:/temp/Job-1.odb,Step-1,Increment      1: Step Time =    1.000,"P-1-1",          2250,   99.8535E-03,   82.3887E-03,            0.,NA,NA,"",   1.53667E+06,   1.69418E+06,   1.69418E+06
C:/temp/Job-1.odb,Step-1,Increment      1: Step Time =    1.000,"P-1-1",          2251,   99.0258E-03,   81.0936E-03,            0.,NA,NA,"",   1.41848E+06,   1.56861E+06,   1.56861E+06
C:/temp/Job-1.odb,Step-1,Increment      1: Step Time =    1.000,"P-1-1",          2252,   95.6887E-03,   82.2017E-03,            0.,NA,NA,"",   1.47082E+06,   1.59525E+06,   1.59525E+06
C:/temp/Job-1.odb,Step-1,Increment      1: Step Time =    1.000,"P-1-1",          2253,   89.6136E-03,   81.6630E-03,            0.,NA,NA,"",   1.38851E+06,   1.39923E+06,   1.39923E+06
C:/temp/Job-1.odb,Step-1,Increment      1: Step Time =    1.000,"P-1-1",          2254,   86.6051E-03,   80.9172E-03,            0.,NA,NA,"",   1.35436E+06,   1.31909E+06,   1.31909E+06
C:/temp/Job-1.odb,Step-1,Increment      1: Step Time =    1.000,"P-1-1",          2255,   82.4501E-03,   80.8024E-03,            0.,NA,NA,"",   1.29598E+06,   1.22739E+06,   1.22739E+06
C:/temp/Job-1.odb,Step-1,Increment      1: Step Time =    1.000,"P-1-1",          2256,   79.3707E-03,   83.3145E-03,            0.,NA,NA,"",   1.20975E+06,   1.12399E+06,   1.12399E+06
C:/temp/Job-1.odb,Step-1,Increment      1: Step Time =    1.000,"P-1-1",          2257,   75.1932E-03,   82.0334E-03,            0.,NA,NA,"",   1.13431E+06,   1.07331E+06,   1.07331E+06
C:/temp/Job-1.odb,Step-1,Increment      1: Step Time =    1.000,"P-1-1",          2258,   71.9103E-03,   82.0575E-03,            0.,NA,NA,"",   1.07435E+06,   1.03141E+06,   1.03141E+06
C:/temp/Job-1.odb,Step-1,Increment      1: Step Time =    1.000,"P-1-1",          2259,   68.6188E-03,   82.0131E-03,            0.,NA,NA,"",   1.02407E+06,   999.337E+03,   999.337E+03
C:/temp/Job-1.odb,Step-1,Increment      1: Step Time =    1.000,"P-1-1",          2260,   66.0036E-03,   81.6461E-03,            0.,NA,NA,"",   1.00049E+06,   987.560E+03,   987.560E+03
C:/temp/Job-1.odb,Step-1,Increment      1: Step Time =    1.000,"P-1-1",          2261,   61.7791E-03,   80.7012E-03,            0.,NA,NA,"",   971.760E+03,   975.419E+03,   975.419E+03
C:/temp/Job-1.odb,Step-1,Increment      1: Step Time =    1.000,"P-1-1",          2262,   58.2719E-03,   80.6251E-03,            0.,NA,NA,"",   947.173E+03,   962.767E+03,   962.767E+03
C:/temp/Job-1.odb,Step-1,Increment      1: Step Time =    1.000,"P-1-1",          2263,   55.4061E-03,   81.6030E-03,            0.,NA,NA,"",   921.062E+03,   946.775E+03,   946.775E+03
C:/temp/Job-1.odb,Step-1,Increment      1: Step Time =    1.000,"P-1-1",          2264,   51.9602E-03,   81.1009E-03,            0.,NA,NA,"",   911.433E+03,   945.080E+03,   945.080E+03
C:/temp/Job-1.odb,Step-1,Increment      1: Step Time =    1.000,"P-1-1",          2265,   49.1765E-03,   82.2042E-03,            0.,NA,NA,"",   893.130E+03,   934.405E+03,   934.405E+03
C:/temp/Job-1.odb,Step-1,Increment      1: Step Time =    1.000,"P-1-1",          2266,   45.6761E-03,   82.0285E-03,            0.,NA,NA,"",   885.136E+03,   933.261E+03,   933.261E+03
C:/temp/Job-1.odb,Step-1,Increment      1: Step Time =    1.000,"P-1-1",          2267,   42.3179E-03,   81.3661E-03,            0.,NA,NA,"",   880.896E+03,   934.187E+03,   934.187E+03
C:/temp/Job-1.odb,Step-1,Increment      1: Step Time =    1.000,"P-1-1",          2268,   39.2338E-03,   82.1465E-03,            0.,NA,NA,"",   869.527E+03,   928.792E+03,   928.792E+03
C:/temp/Job-1.odb,Step-1,Increment      1: Step Time =    1.000,"P-1-1",          2269,   35.6203E-03,   82.4921E-03,            0.,NA,NA,"",   860.006E+03,   925.233E+03,   925.233E+03
C:/temp/Job-1.odb,Step-1,Increment      1: Step Time =    1.000,"P-1-1",          2270,   31.3705E-03,   81.5247E-03,            0.,NA,NA,"",   854.975E+03,   925.734E+03,   925.734E+03
C:/temp/Job-1.odb,Step-1,Increment      1: Step Time =    1.000,"P-1-1",          2271,   29.6498E-03,   81.0788E-03,            0.,NA,NA,"",   852.659E+03,   925.571E+03,   925.571E+03
C:/temp/Job-1.odb,Step-1,Increment      1: Step Time =    1.000,"P-1-1",          2272,   27.3747E-03,   82.3752E-03,            0.,NA,NA,"",   843.566E+03,   920.085E+03,   920.085E+03
C:/temp/Job-1.odb,Step-1,Increment      1: Step Time =    1.000,"P-1-1",          2273,   22.3313E-03,   82.4746E-03,            0.,NA,NA,"",   832.332E+03,   915.212E+03,   915.212E+03
C:/temp/Job-1.odb,Step-1,Increment      1: Step Time =    1.000,"P-1-1",          2274,   20.3421E-03,   81.7607E-03,            0.,NA,NA,"",   829.652E+03,   914.642E+03,   914.642E+03
C:/temp/Job-1.odb,Step-1,Increment      1: Step Time =    1.000,"P-1-1",          2275,   15.4669E-03,   81.5972E-03,            0.,NA,NA,"",   819.046E+03,   909.290E+03,   909.290E+03
C:/temp/Job-1.odb,Step-1,Increment      1: Step Time =    1.000,"P-1-1",          2276,   12.4649E-03,   81.9245E-03,            0.,NA,NA,"",   811.786E+03,   904.961E+03,   904.961E+03
C:/temp/Job-1.odb,Step-1,Increment      1: Step Time =    1.000,"P-1-1",          2277,   9.38132E-03,   82.2263E-03,            0.,NA,NA,"",   804.559E+03,   900.489E+03,   900.489E+03
C:/temp/Job-1.odb,Step-1,Increment      1: Step Time =    1.000,"P-1-1",          2278,   6.24444E-03,   82.3133E-03,            0.,NA,NA,"",   797.838E+03,   896.217E+03,   896.217E+03
C:/temp/Job-1.odb,Step-1,Increment      1: Step Time =    1.000,"P-1-1",          2279,   3.10566E-03,   82.2587E-03,            0.,NA,NA,"",   791.608E+03,   892.152E+03,   892.152E+03
C:/temp/Job-1.odb,Step-1,Increment      1: Step Time =    1.000,"P-1-1",          2280,   197.060E-03,   118.951E-03,            0.,NA,NA,"",   970.456E+03,   999.745E+03,   999.745E+03
C:/temp/Job-1.odb,Step-1,Increment      1: Step Time =    1.000,"P-1-1",          2281,   193.431E-03,   118.387E-03,            0.,NA,NA,"",   973.436E+03,   998.928E+03,   998.928E+03
C:/temp/Job-1.odb,Step-1,Increment      1: Step Time =    1.000,"P-1-1",          2282,   190.133E-03,   118.050E-03,            0.,NA,NA,"",   975.195E+03,   997.738E+03,   997.738E+03
C:/temp/Job-1.odb,Step-1,Increment      1: Step Time =    1.000,"P-1-1",          2283,   187.452E-03,   117.421E-03,            0.,NA,NA,"",   975.932E+03,   996.287E+03,   996.287E+03
C:/temp/Job-1.odb,Step-1,Increment      1: Step Time =    1.000,"P-1-1",          2284,   184.535E-03,   117.542E-03,            0.,NA,NA,"",   976.804E+03,   994.574E+03,   994.574E+03
C:/temp/Job-1.odb,Step-1,Increment      1: Step Time =    1.000,"P-1-1",          2285,   180.155E-03,   119.319E-03,            0.,NA,NA,"",   979.503E+03,   993.002E+03,   993.002E+03
C:/temp/Job-1.odb,Step-1,Increment      1: Step Time =    1.000,"P-1-1",          2286,   176.795E-03,   117.479E-03,            0.,NA,NA,"",   976.971E+03,   988.944E+03,   988.944E+03
C:/temp/Job-1.odb,Step-1,Increment      1: Step Time =    1.000,"P-1-1",          2287,   173.033E-03,   117.974E-03,            0.,NA,NA,"",   977.216E+03,   986.314E+03,   986.314E+03
C:/temp/Job-1.odb,Step-1,Increment      1: Step Time =    1.000,"P-1-1",          2288,   169.647E-03,   118.294E-03,            0.,NA,NA,"",   977.312E+03,   983.955E+03,   983.955E+03
C:/temp/Job-1.odb,Step-1,Increment      1: Step Time =    1.000,"P-1-1",          2289,   166.877E-03,   117.894E-03,            0.,NA,NA,"",   975.822E+03,   980.777E+03,   980.777E+03
C:/temp/Job-1.odb,Step-1,Increment      1: Step Time =    1.000,"P-1-1",          2290,   163.049E-03,   117.615E-03,            0.,NA,NA,"",   973.923E+03,   976.422E+03,   976.422E+03
C:/temp/Job-1.odb,Step-1,Increment      1: Step Time =    1.000,"P-1-1",          2291,   160.152E-03,   117.213E-03,            0.,NA,NA,"",   971.489E+03,   972.192E+03,   972.192E+03
C:/temp/Job-1.odb,Step-1,Increment      1: Step Time =    1.000,"P-1-1",          2292,   157.137E-03,   117.153E-03,            0.,NA,NA,"",   970.889E+03,   969.247E+03,   969.247E+03
C:/temp/Job-1.odb,Step-1,Increment      1: Step Time =    1.000,"P-1-1",          2293,   154.449E-03,   118.590E-03,            0.,NA,NA,"",   979.486E+03,   973.562E+03,   973.562E+03
C:/temp/Job-1.odb,Step-1,Increment      1: Step Time =    1.000,"P-1-1",          2294,   151.398E-03,   118.605E-03,            0.,NA,NA,"",   981.636E+03,   972.454E+03,   972.454E+03
C:/temp/Job-1.odb,Step-1,Increment      1: Step Time =    1.000,"P-1-1",          2295,   148.058E-03,   117.970E-03,            0.,NA,NA,"",   980.694E+03,   968.039E+03,   968.039E+03
C:/temp/Job-1.odb,Step-1,Increment      1: Step Time =    1.000,"P-1-1",          2296,   144.973E-03,   118.242E-03,            0.,NA,NA,"",   989.606E+03,   971.443E+03,   971.443E+03
C:/temp/Job-1.odb,Step-1,Increment      1: Step Time =    1.000,"P-1-1",          2297,   141.725E-03,   118.297E-03,            0.,NA,NA,"",   1.00108E+06,   976.049E+03,   976.049E+03
C:/temp/Job-1.odb,Step-1,Increment      1: Step Time =    1.000,"P-1-1",          2298,   138.226E-03,   118.337E-03,            0.,NA,NA,"",   1.01970E+06,   985.403E+03,   985.403E+03
C:/temp/Job-1.odb,Step-1,Increment      1: Step Time =    1.000,"P-1-1",          2299,   133.947E-03,   118.575E-03,            0.,NA,NA,"",   1.05514E+06,   1.00669E+06,   1.00669E+06
C:/temp/Job-1.odb,Step-1,Increment      1: Step Time =    1.000,"P-1-1",          2300,   130.795E-03,   117.709E-03,            0.,NA,NA,"",   1.07574E+06,   1.01520E+06,   1.01520E+06
C:/temp/Job-1.odb,Step-1,Increment      1: Step Time =    1.000,"P-1-1",          2301,   127.109E-03,   117.863E-03,            0.,NA,NA,"",   1.13521E+06,   1.05600E+06,   1.05600E+06
C:/temp/Job-1.odb,Step-1,Increment      1: Step Time =    1.000,"P-1-1",          2302,   124.783E-03,   117.368E-03,            0.,NA,NA,"",   1.16618E+06,   1.07619E+06,   1.07619E+06
C:/temp/Job-1.odb,Step-1,Increment      1: Step Time =    1.000,"P-1-1",          2303,   122.182E-03,   116.722E-03,            0.,NA,NA,"",   1.21006E+06,   1.10518E+06,   1.10518E+06
C:/temp/Job-1.odb,Step-1,Increment      1: Step Time =    1.000,"P-1-1",          2304,   117.338E-03,   117.347E-03,            0.,NA,NA,"",   1.32175E+06,   1.21917E+06,   1.21917E+06
C:/temp/Job-1.odb,Step-1,Increment      1: Step Time =    1.000,"P-1-1",          2305,   114.564E-03,   118.239E-03,            0.,NA,NA,"",   1.36702E+06,   1.29542E+06,   1.29542E+06
C:/temp/Job-1.odb,Step-1,Increment      1: Step Time =    1.000,"P-1-1",          2306,   110.783E-03,   118.156E-03,            0.,NA,NA,"",   1.40244E+06,   1.39843E+06,   1.39843E+06
C:/temp/Job-1.odb,Step-1,Increment      1: Step Time =    1.000,"P-1-1",          2307,   107.994E-03,   119.296E-03,            0.,NA,NA,"",   1.37636E+06,   1.43536E+06,   1.43536E+06
C:/temp/Job-1.odb,Step-1,Increment      1: Step Time =    1.000,"P-1-1",          2308,   104.812E-03,   118.373E-03,            0.,NA,NA,"",   1.43349E+06,   1.55100E+06,   1.55100E+06
C:/temp/Job-1.odb,Step-1,Increment      1: Step Time =    1.000,"P-1-1",          2309,   100.912E-03,   118.332E-03,            0.,NA,NA,"",   1.46523E+06,   1.61746E+06,   1.61746E+06
C:/temp/Job-1.odb,Step-1,Increment      1: Step Time =    1.000,"P-1-1",          2310,   98.3029E-03,   118.833E-03,            0.,NA,NA,"",   1.41064E+06,   1.55707E+06,   1.55707E+06
C:/temp/Job-1.odb,Step-1,Increment      1: Step Time =    1.000,"P-1-1",          2311,   95.2544E-03,   117.895E-03,            0.,NA,NA,"",   1.46632E+06,   1.58592E+06,   1.58592E+06
C:/temp/Job-1.odb,Step-1,Increment      1: Step Time =    1.000,"P-1-1",          2312,   89.7771E-03,   118.274E-03,            0.,NA,NA,"",   1.39387E+06,   1.40705E+06,   1.40705E+06
C:/temp/Job-1.odb,Step-1,Increment      1: Step Time =    1.000,"P-1-1",          2313,   88.0266E-03,   117.953E-03,            0.,NA,NA,"",   1.38245E+06,   1.35828E+06,   1.35828E+06
C:/temp/Job-1.odb,Step-1,Increment      1: Step Time =    1.000,"P-1-1",          2314,   85.1260E-03,   118.259E-03,            0.,NA,NA,"",   1.33946E+06,   1.27974E+06,   1.27974E+06
C:/temp/Job-1.odb,Step-1,Increment      1: Step Time =    1.000,"P-1-1",          2315,   81.9843E-03,   118.185E-03,            0.,NA,NA,"",   1.28588E+06,   1.20757E+06,   1.20757E+06
C:/temp/Job-1.odb,Step-1,Increment      1: Step Time =    1.000,"P-1-1",          2316,   78.6173E-03,   118.287E-03,            0.,NA,NA,"",   1.21104E+06,   1.13572E+06,   1.13572E+06
C:/temp/Job-1.odb,Step-1,Increment      1: Step Time =    1.000,"P-1-1",          2317,   75.6119E-03,   118.115E-03,            0.,NA,NA,"",   1.14582E+06,   1.08199E+06,   1.08199E+06
C:/temp/Job-1.odb,Step-1,Increment      1: Step Time =    1.000,"P-1-1",          2318,   72.6696E-03,   118.140E-03,            0.,NA,NA,"",   1.09017E+06,   1.04355E+06,   1.04355E+06
C:/temp/Job-1.odb,Step-1,Increment      1: Step Time =    1.000,"P-1-1",          2319,   68.9858E-03,   117.965E-03,            0.,NA,NA,"",   1.02920E+06,   1.00267E+06,   1.00267E+06
C:/temp/Job-1.odb,Step-1,Increment      1: Step Time =    1.000,"P-1-1",          2320,   65.6752E-03,   118.057E-03,            0.,NA,NA,"",   990.114E+03,   979.973E+03,   979.973E+03
C:/temp/Job-1.odb,Step-1,Increment      1: Step Time =    1.000,"P-1-1",          2321,   62.4814E-03,   118.272E-03,            0.,NA,NA,"",   963.371E+03,   966.289E+03,   966.289E+03
C:/temp/Job-1.odb,Step-1,Increment      1: Step Time =    1.000,"P-1-1",          2322,   59.5160E-03,   117.103E-03,            0.,NA,NA,"",   927.627E+03,   943.228E+03,   943.228E+03
C:/temp/Job-1.odb,Step-1,Increment      1: Step Time =    1.000,"P-1-1",          2323,   55.5741E-03,   117.833E-03,            0.,NA,NA,"",   915.841E+03,   942.070E+03,   942.070E+03
C:/temp/Job-1.odb,Step-1,Increment      1: Step Time =    1.000,"P-1-1",          2324,   53.1179E-03,   118.177E-03,            0.,NA,NA,"",   909.225E+03,   941.101E+03,   941.101E+03
C:/temp/Job-1.odb,Step-1,Increment      1: Step Time =    1.000,"P-1-1",          2325,   49.2249E-03,   117.593E-03,            0.,NA,NA,"",   892.038E+03,   933.332E+03,   933.332E+03
C:/temp/Job-1.odb,Step-1,Increment      1: Step Time =    1.000,"P-1-1",          2326,   45.8754E-03,   117.807E-03,            0.,NA,NA,"",   884.484E+03,   932.277E+03,   932.277E+03
C:/temp/Job-1.odb,Step-1,Increment      1: Step Time =    1.000,"P-1-1",          2327,   42.4892E-03,   118.215E-03,            0.,NA,NA,"",   878.828E+03,   932.313E+03,   932.313E+03
C:/temp/Job-1.odb,Step-1,Increment      1: Step Time =    1.000,"P-1-1",          2328,   39.1024E-03,   118.534E-03,            0.,NA,NA,"",   872.787E+03,   931.682E+03,   931.682E+03
C:/temp/Job-1.odb,Step-1,Increment      1: Step Time =    1.000,"P-1-1",          2329,   36.2820E-03,   117.500E-03,            0.,NA,NA,"",   861.630E+03,   925.710E+03,   925.710E+03
C:/temp/Job-1.odb,Step-1,Increment      1: Step Time =    1.000,"P-1-1",          2330,   32.9282E-03,   117.711E-03,            0.,NA,NA,"",   855.656E+03,   924.589E+03,   924.589E+03
C:/temp/Job-1.odb,Step-1,Increment      1: Step Time =    1.000,"P-1-1",          2331,   29.6675E-03,   118.323E-03,            0.,NA,NA,"",   850.669E+03,   923.847E+03,   923.847E+03
C:/temp/Job-1.odb,Step-1,Increment      1: Step Time =    1.000,"P-1-1",          2332,   26.8804E-03,   118.547E-03,            0.,NA,NA,"",   844.868E+03,   921.792E+03,   921.792E+03
C:/temp/Job-1.odb,Step-1,Increment      1: Step Time =    1.000,"P-1-1",          2333,   23.9857E-03,   118.156E-03,            0.,NA,NA,"",   837.802E+03,   918.423E+03,   918.423E+03
C:/temp/Job-1.odb,Step-1,Increment      1: Step Time =    1.000,"P-1-1",          2334,   19.7612E-03,   117.980E-03,            0.,NA,NA,"",   827.878E+03,   913.573E+03,   913.573E+03
C:/temp/Job-1.odb,Step-1,Increment      1: Step Time =    1.000,"P-1-1",          2335,   16.8295E-03,   117.183E-03,            0.,NA,NA,"",   819.545E+03,   908.612E+03,   908.612E+03
C:/temp/Job-1.odb,Step-1,Increment      1: Step Time =    1.000,"P-1-1",          2336,   14.0402E-03,   118.592E-03,            0.,NA,NA,"",   816.267E+03,   907.864E+03,   907.864E+03
C:/temp/Job-1.odb,Step-1,Increment      1: Step Time =    1.000,"P-1-1",          2337,   9.50169E-03,   118.327E-03,            0.,NA,NA,"",   805.703E+03,   901.534E+03,   901.534E+03
C:/temp/Job-1.odb,Step-1,Increment      1: Step Time =    1.000,"P-1-1",          2338,   6.34651E-03,   118.075E-03,            0.,NA,NA,"",   798.656E+03,   896.969E+03,   896.969E+03
C:/temp/Job-1.odb,Step-1,Increment      1: Step Time =    1.000,"P-1-1",          2339,   3.14774E-03,   117.932E-03,            0.,NA,NA,"",   791.962E+03,   892.494E+03,   892.494E+03
C:/temp/Job-1.odb,Step-1,Increment      1: Step Time =    1.000,"P-1-1",          2340,   196.150E-03,   122.150E-03,            0.,NA,NA,"",   973.704E+03,   999.777E+03,   999.777E+03
C:/temp/Job-1.odb,Step-1,Increment      1: Step Time =    1.000,"P-1-1",          2341,   192.580E-03,   120.682E-03,            0.,NA,NA,"",   975.478E+03,   999.033E+03,   999.033E+03
C:/temp/Job-1.odb,Step-1,Increment      1: Step Time =    1.000,"P-1-1",          2342,   189.911E-03,   121.251E-03,            0.,NA,NA,"",   977.754E+03,   998.393E+03,   998.393E+03
C:/temp/Job-1.odb,Step-1,Increment      1: Step Time =    1.000,"P-1-1",          2343,   186.658E-03,   120.461E-03,            0.,NA,NA,"",   978.827E+03,   997.018E+03,   997.018E+03
C:/temp/Job-1.odb,Step-1,Increment      1: Step Time =    1.000,"P-1-1",          2344,   183.251E-03,   120.907E-03,            0.,NA,NA,"",   980.614E+03,   995.721E+03,   995.721E+03
C:/temp/Job-1.odb,Step-1,Increment      1: Step Time =    1.000,"P-1-1",          2345,   180.196E-03,   121.931E-03,            0.,NA,NA,"",   982.779E+03,   995.063E+03,   995.063E+03
C:/temp/Job-1.odb,Step-1,Increment      1: Step Time =    1.000,"P-1-1",          2346,   177.174E-03,   120.791E-03,            0.,NA,NA,"",   981.929E+03,   992.578E+03,   992.578E+03
C:/temp/Job-1.odb,Step-1,Increment      1: Step Time =    1.000,"P-1-1",          2347,   174.552E-03,   121.199E-03,            0.,NA,NA,"",   983.113E+03,   991.586E+03,   991.586E+03
C:/temp/Job-1.odb,Step-1,Increment      1: Step Time =    1.000,"P-1-1",          2348,   170.848E-03,   121.558E-03,            0.,NA,NA,"",   985.023E+03,   990.460E+03,   990.460E+03
C:/temp/Job-1.odb,Step-1,Increment      1: Step Time =    1.000,"P-1-1",          2349,   167.464E-03,   121.236E-03,            0.,NA,NA,"",   984.991E+03,   988.118E+03,   988.118E+03
C:/temp/Job-1.odb,Step-1,Increment      1: Step Time =    1.000,"P-1-1",          2350,   164.579E-03,   121.522E-03,            0.,NA,NA,"",   986.714E+03,   987.426E+03,   987.426E+03
C:/temp/Job-1.odb,Step-1,Increment      1: Step Time =    1.000,"P-1-1",          2351,   160.985E-03,   119.980E-03,            0.,NA,NA,"",   983.480E+03,   982.274E+03,   982.274E+03
C:/temp/Job-1.odb,Step-1,Increment      1: Step Time =    1.000,"P-1-1",          2352,   157.960E-03,   121.056E-03,            0.,NA,NA,"",   989.440E+03,   984.563E+03,   984.563E+03
C:/temp/Job-1.odb,Step-1,Increment      1: Step Time =    1.000,"P-1-1",          2353,   154.283E-03,   120.568E-03,            0.,NA,NA,"",   990.539E+03,   982.264E+03,   982.264E+03
C:/temp/Job-1.odb,Step-1,Increment      1: Step Time =    1.000,"P-1-1",          2354,   150.695E-03,   120.657E-03,            0.,NA,NA,"",   996.483E+03,   983.783E+03,   983.783E+03
C:/temp/Job-1.odb,Step-1,Increment      1: Step Time =    1.000,"P-1-1",          2355,   147.125E-03,   121.767E-03,            0.,NA,NA,"",   1.01356E+06,   993.893E+03,   993.893E+03
C:/temp/Job-1.odb,Step-1,Increment      1: Step Time =    1.000,"P-1-1",          2356,   144.191E-03,   121.885E-03,            0.,NA,NA,"",   1.02515E+06,   1.00008E+06,   1.00008E+06
C:/temp/Job-1.odb,Step-1,Increment      1: Step Time =    1.000,"P-1-1",          2357,   140.479E-03,   121.519E-03,            0.,NA,NA,"",   1.04164E+06,   1.00859E+06,   1.00859E+06
C:/temp/Job-1.odb,Step-1,Increment      1: Step Time =    1.000,"P-1-1",          2358,   138.868E-03,   121.642E-03,            0.,NA,NA,"",   1.05287E+06,   1.01579E+06,   1.01579E+06
C:/temp/Job-1.odb,Step-1,Increment      1: Step Time =    1.000,"P-1-1",          2359,   133.945E-03,   121.725E-03,            0.,NA,NA,"",   1.09384E+06,   1.04267E+06,   1.04267E+06
C:/temp/Job-1.odb,Step-1,Increment      1: Step Time =    1.000,"P-1-1",          2360,   131.846E-03,   122.198E-03,            0.,NA,NA,"",   1.12004E+06,   1.06269E+06,   1.06269E+06
C:/temp/Job-1.odb,Step-1,Increment      1: Step Time =    1.000,"P-1-1",          2361,   127.803E-03,   120.586E-03,            0.,NA,NA,"",   1.15730E+06,   1.08500E+06,   1.08500E+06
C:/temp/Job-1.odb,Step-1,Increment      1: Step Time =    1.000,"P-1-1",          2362,   125.050E-03,   119.910E-03,            0.,NA,NA,"",   1.19316E+06,   1.11140E+06,   1.11140E+06
C:/temp/Job-1.odb,Step-1,Increment      1: Step Time =    1.000,"P-1-1",          2363,   121.260E-03,   121.220E-03,            0.,NA,NA,"",   1.25898E+06,   1.17803E+06,   1.17803E+06
C:/temp/Job-1.odb,Step-1,Increment      1: Step Time =    1.000,"P-1-1",          2364,   118.046E-03,   120.061E-03,            0.,NA,NA,"",   1.31019E+06,   1.22896E+06,   1.22896E+06
C:/temp/Job-1.odb,Step-1,Increment      1: Step Time =    1.000,"P-1-1",          2365,   114.393E-03,   121.243E-03,            0.,NA,NA,"",   1.33249E+06,   1.29286E+06,   1.29286E+06
C:/temp/Job-1.odb,Step-1,Increment      1: Step Time =    1.000,"P-1-1",          2366,   110.984E-03,   122.033E-03,            0.,NA,NA,"",   1.31400E+06,   1.32771E+06,   1.32771E+06
C:/temp/Job-1.odb,Step-1,Increment      1: Step Time =    1.000,"P-1-1",          2367,   108.337E-03,   121.333E-03,            0.,NA,NA,"",   1.31292E+06,   1.36846E+06,   1.36846E+06
C:/temp/Job-1.odb,Step-1,Increment      1: Step Time =    1.000,"P-1-1",          2368,   105.353E-03,   122.943E-03,            0.,NA,NA,"",   1.23821E+06,   1.33564E+06,   1.33564E+06
C:/temp/Job-1.odb,Step-1,Increment      1: Step Time =    1.000,"P-1-1",          2369,   101.562E-03,   121.441E-03,            0.,NA,NA,"",   1.25867E+06,   1.39245E+06,   1.39245E+06
C:/temp/Job-1.odb,Step-1,Increment      1: Step Time =    1.000,"P-1-1",          2370,   97.3406E-03,   122.110E-03,            0.,NA,NA,"",   1.23971E+06,   1.36429E+06,   1.36429E+06
C:/temp/Job-1.odb,Step-1,Increment      1: Step Time =    1.000,"P-1-1",          2371,   94.3124E-03,   121.462E-03,            0.,NA,NA,"",   1.28641E+06,   1.38499E+06,   1.38499E+06
C:/temp/Job-1.odb,Step-1,Increment      1: Step Time =    1.000,"P-1-1",          2372,   91.2975E-03,   122.139E-03,            0.,NA,NA,"",   1.29194E+06,   1.34701E+06,   1.34701E+06
C:/temp/Job-1.odb,Step-1,Increment      1: Step Time =    1.000,"P-1-1",          2373,   88.3141E-03,   120.985E-03,            0.,NA,NA,"",   1.33131E+06,   1.33432E+06,   1.33432E+06
C:/temp/Job-1.odb,Step-1,Increment      1: Step Time =    1.000,"P-1-1",          2374,   85.1172E-03,   121.206E-03,            0.,NA,NA,"",   1.31270E+06,   1.27927E+06,   1.27927E+06
C:/temp/Job-1.odb,Step-1,Increment      1: Step Time =    1.000,"P-1-1",          2375,   81.9160E-03,   121.521E-03,            0.,NA,NA,"",   1.27670E+06,   1.22522E+06,   1.22522E+06
C:/temp/Job-1.odb,Step-1,Increment      1: Step Time =    1.000,"P-1-1",          2376,   78.1648E-03,   121.845E-03,            0.,NA,NA,"",   1.21972E+06,   1.16439E+06,   1.16439E+06
C:/temp/Job-1.odb,Step-1,Increment      1: Step Time =    1.000,"P-1-1",          2377,   75.8048E-03,   120.969E-03,            0.,NA,NA,"",   1.17657E+06,   1.12172E+06,   1.12172E+06
C:/temp/Job-1.odb,Step-1,Increment      1: Step Time =    1.000,"P-1-1",          2378,   72.3615E-03,   120.544E-03,            0.,NA,NA,"",   1.11545E+06,   1.07230E+06,   1.07230E+06
C:/temp/Job-1.odb,Step-1,Increment      1: Step Time =    1.000,"P-1-1",          2379,   69.3074E-03,   122.068E-03,            0.,NA,NA,"",   1.08615E+06,   1.05729E+06,   1.05729E+06
C:/temp/Job-1.odb,Step-1,Increment      1: Step Time =    1.000,"P-1-1",          2380,   66.3466E-03,   121.680E-03,            0.,NA,NA,"",   1.04584E+06,   1.02879E+06,   1.02879E+06
C:/temp/Job-1.odb,Step-1,Increment      1: Step Time =    1.000,"P-1-1",          2381,   63.5397E-03,   122.071E-03,            0.,NA,NA,"",   1.01969E+06,   1.01318E+06,   1.01318E+06
C:/temp/Job-1.odb,Step-1,Increment      1: Step Time =    1.000,"P-1-1",          2382,   58.6435E-03,   121.478E-03,            0.,NA,NA,"",   973.177E+03,   984.131E+03,   984.131E+03
C:/temp/Job-1.odb,Step-1,Increment      1: Step Time =    1.000,"P-1-1",          2383,   55.0032E-03,   120.615E-03,            0.,NA,NA,"",   941.183E+03,   964.589E+03,   964.589E+03
C:/temp/Job-1.odb,Step-1,Increment      1: Step Time =    1.000,"P-1-1",          2384,   51.5410E-03,   121.260E-03,            0.,NA,NA,"",   930.347E+03,   961.592E+03,   961.592E+03
C:/temp/Job-1.odb,Step-1,Increment      1: Step Time =    1.000,"P-1-1",          2385,   48.8232E-03,   120.385E-03,            0.,NA,NA,"",   912.055E+03,   950.744E+03,   950.744E+03
C:/temp/Job-1.odb,Step-1,Increment      1: Step Time =    1.000,"P-1-1",          2386,   46.6796E-03,   121.328E-03,            0.,NA,NA,"",   910.818E+03,   953.001E+03,   953.001E+03
C:/temp/Job-1.odb,Step-1,Increment      1: Step Time =    1.000,"P-1-1",          2387,   42.6059E-03,   121.696E-03,            0.,NA,NA,"",   899.007E+03,   948.989E+03,   948.989E+03
C:/temp/Job-1.odb,Step-1,Increment      1: Step Time =    1.000,"P-1-1",          2388,   38.6808E-03,   122.114E-03,            0.,NA,NA,"",   888.775E+03,   945.599E+03,   945.599E+03
C:/temp/Job-1.odb,Step-1,Increment      1: Step Time =    1.000,"P-1-1",          2389,   32.4735E-03,   120.722E-03,            0.,NA,NA,"",   865.818E+03,   933.722E+03,   933.722E+03
C:/temp/Job-1.odb,Step-1,Increment      1: Step Time =    1.000,"P-1-1",          2390,   28.1800E-03,   121.101E-03,            0.,NA,NA,"",   856.679E+03,   930.602E+03,   930.602E+03
C:/temp/Job-1.odb,Step-1,Increment      1: Step Time =    1.000,"P-1-1",          2391,   25.3392E-03,   120.885E-03,            0.,NA,NA,"",   848.611E+03,   926.578E+03,   926.578E+03
C:/temp/Job-1.odb,Step-1,Increment      1: Step Time =    1.000,"P-1-1",          2392,   22.3921E-03,   120.714E-03,            0.,NA,NA,"",   841.019E+03,   922.821E+03,   922.821E+03
C:/temp/Job-1.odb,Step-1,Increment      1: Step Time =    1.000,"P-1-1",          2393,   19.3087E-03,   120.755E-03,            0.,NA,NA,"",   833.302E+03,   918.944E+03,   918.944E+03
C:/temp/Job-1.odb,Step-1,Increment      1: Step Time =    1.000,"P-1-1",          2394,   16.0037E-03,   121.049E-03,            0.,NA,NA,"",   826.104E+03,   915.365E+03,   915.365E+03
C:/temp/Job-1.odb,Step-1,Increment      1: Step Time =    1.000,"P-1-1",          2395,   12.7186E-03,   121.305E-03,            0.,NA,NA,"",   818.847E+03,   911.473E+03,   911.473E+03
C:/temp/Job-1.odb,Step-1,Increment      1: Step Time =    1.000,"P-1-1",          2396,   9.48265E-03,   121.311E-03,            0.,NA,NA,"",   811.063E+03,   906.824E+03,   906.824E+03
C:/temp/Job-1.odb,Step-1,Increment      1: Step Time =    1.000,"P-1-1",          2397,   6.26875E-03,   121.187E-03,            0.,NA,NA,"",   803.531E+03,   901.999E+03,   901.999E+03
C:/temp/Job-1.odb,Step-1,Increment      1: Step Time =    1.000,"P-1-1",          2398,   3.09546E-03,   121.021E-03,            0.,NA,NA,"",   796.307E+03,   897.134E+03,   897.134E+03
C:/temp/Job-1.odb,Step-1,Increment      1: Step Time =    1.000,"P-1-1",          2399,   196.845E-03,   125.354E-03,            0.,NA,NA,"",   975.666E+03,   999.969E+03,   999.969E+03
C:/temp/Job-1.odb,Step-1,Increment      1: Step Time =    1.000,"P-1-1",          2400,   193.370E-03,   125.011E-03,            0.,NA,NA,"",   978.118E+03,   999.667E+03,   999.667E+03
C:/temp/Job-1.odb,Step-1,Increment      1: Step Time =    1.000,"P-1-1",          2401,   189.977E-03,   124.024E-03,            0.,NA,NA,"",   979.918E+03,   999.071E+03,   999.071E+03
C:/temp/Job-1.odb,Step-1,Increment      1: Step Time =    1.000,"P-1-1",          2402,   187.040E-03,   124.467E-03,            0.,NA,NA,"",   982.244E+03,   998.712E+03,   998.712E+03
C:/temp/Job-1.odb,Step-1,Increment      1: Step Time =    1.000,"P-1-1",          2403,   183.747E-03,   124.657E-03,            0.,NA,NA,"",   984.264E+03,   998.014E+03,   998.014E+03
C:/temp/Job-1.odb,Step-1,Increment      1: Step Time =    1.000,"P-1-1",          2404,   180.051E-03,   124.677E-03,            0.,NA,NA,"",   986.424E+03,   997.299E+03,   997.299E+03
C:/temp/Job-1.odb,Step-1,Increment      1: Step Time =    1.000,"P-1-1",          2405,   177.222E-03,   123.767E-03,            0.,NA,NA,"",   986.446E+03,   995.683E+03,   995.683E+03
C:/temp/Job-1.odb,Step-1,Increment      1: Step Time =    1.000,"P-1-1",          2406,   174.112E-03,   124.343E-03,            0.,NA,NA,"",   989.283E+03,   995.639E+03,   995.639E+03
C:/temp/Job-1.odb,Step-1,Increment      1: Step Time =    1.000,"P-1-1",          2407,   171.644E-03,   125.323E-03,            0.,NA,NA,"",   992.607E+03,   996.595E+03,   996.595E+03
C:/temp/Job-1.odb,Step-1,Increment      1: Step Time =    1.000,"P-1-1",          2408,   167.159E-03,   125.440E-03,            0.,NA,NA,"",   996.536E+03,   996.741E+03,   996.741E+03
C:/temp/Job-1.odb,Step-1,Increment      1: Step Time =    1.000,"P-1-1",          2409,   161.286E-03,   124.689E-03,            0.,NA,NA,"",   1.00054E+06,   995.978E+03,   995.978E+03
C:/temp/Job-1.odb,Step-1,Increment      1: Step Time =    1.000,"P-1-1",          2410,   157.165E-03,   123.549E-03,            0.,NA,NA,"",   1.00163E+06,   993.666E+03,   993.666E+03
C:/temp/Job-1.odb,Step-1,Increment      1: Step Time =    1.000,"P-1-1",          2411,   154.692E-03,   124.317E-03,            0.,NA,NA,"",   1.00935E+06,   998.036E+03,   998.036E+03
C:/temp/Job-1.odb,Step-1,Increment      1: Step Time =    1.000,"P-1-1",          2412,   151.098E-03,   125.760E-03,            0.,NA,NA,"",   1.02612E+06,   1.00875E+06,   1.00875E+06
C:/temp/Job-1.odb,Step-1,Increment      1: Step Time =    1.000,"P-1-1",          2413,   148.082E-03,   125.675E-03,            0.,NA,NA,"",   1.03559E+06,   1.01379E+06,   1.01379E+06
C:/temp/Job-1.odb,Step-1,Increment      1: Step Time =    1.000,"P-1-1",          2414,   144.184E-03,   125.612E-03,            0.,NA,NA,"",   1.05264E+06,   1.02396E+06,   1.02396E+06
C:/temp/Job-1.odb,Step-1,Increment      1: Step Time =    1.000,"P-1-1",          2415,   140.964E-03,   125.357E-03,            0.,NA,NA,"",   1.06826E+06,   1.03364E+06,   1.03364E+06
C:/temp/Job-1.odb,Step-1,Increment      1: Step Time =    1.000,"P-1-1",          2416,   138.438E-03,   124.828E-03,            0.,NA,NA,"",   1.08178E+06,   1.04185E+06,   1.04185E+06
C:/temp/Job-1.odb,Step-1,Increment      1: Step Time =    1.000,"P-1-1",          2417,   135.655E-03,   124.943E-03,            0.,NA,NA,"",   1.10327E+06,   1.05704E+06,   1.05704E+06
C:/temp/Job-1.odb,Step-1,Increment      1: Step Time =    1.000,"P-1-1",          2418,   130.313E-03,   124.826E-03,            0.,NA,NA,"",   1.15280E+06,   1.09478E+06,   1.09478E+06
C:/temp/Job-1.odb,Step-1,Increment      1: Step Time =    1.000,"P-1-1",          2419,   127.425E-03,   123.961E-03,            0.,NA,NA,"",   1.18158E+06,   1.11632E+06,   1.11632E+06
C:/temp/Job-1.odb,Step-1,Increment      1: Step Time =    1.000,"P-1-1",          2420,   124.440E-03,   124.612E-03,            0.,NA,NA,"",   1.21650E+06,   1.15125E+06,   1.15125E+06
C:/temp/Job-1.odb,Step-1,Increment      1: Step Time =    1.000,"P-1-1",          2421,   120.902E-03,   124.286E-03,            0.,NA,NA,"",   1.25602E+06,   1.19341E+06,   1.19341E+06
C:/temp/Job-1.odb,Step-1,Increment      1: Step Time =    1.000,"P-1-1",          2422,   118.105E-03,   123.981E-03,            0.,NA,NA,"",   1.27842E+06,   1.22694E+06,   1.22694E+06
C:/temp/Job-1.odb,Step-1,Increment      1: Step Time =    1.000,"P-1-1",          2423,   114.615E-03,   124.184E-03,            0.,NA,NA,"",   1.28518E+06,   1.26273E+06,   1.26273E+06
C:/temp/Job-1.odb,Step-1,Increment      1: Step Time =    1.000,"P-1-1",          2424,   111.628E-03,   123.853E-03,            0.,NA,NA,"",   1.28015E+06,   1.29242E+06,   1.29242E+06
C:/temp/Job-1.odb,Step-1,Increment      1: Step Time =    1.000,"P-1-1",          2425,   107.992E-03,   124.547E-03,            0.,NA,NA,"",   1.22919E+06,   1.29199E+06,   1.29199E+06
C:/temp/Job-1.odb,Step-1,Increment      1: Step Time =    1.000,"P-1-1",          2426,   104.938E-03,   124.991E-03,            0.,NA,NA,"",   1.18031E+06,   1.27497E+06,   1.27497E+06
C:/temp/Job-1.odb,Step-1,Increment      1: Step Time =    1.000,"P-1-1",          2427,   102.054E-03,   124.669E-03,            0.,NA,NA,"",   1.16136E+06,   1.27688E+06,   1.27688E+06
C:/temp/Job-1.odb,Step-1,Increment      1: Step Time =    1.000,"P-1-1",          2428,   99.2814E-03,   124.372E-03,            0.,NA,NA,"",   1.16388E+06,   1.28292E+06,   1.28292E+06
C:/temp/Job-1.odb,Step-1,Increment      1: Step Time =    1.000,"P-1-1",          2429,   94.8030E-03,   124.621E-03,            0.,NA,NA,"",   1.19140E+06,   1.28642E+06,   1.28642E+06
C:/temp/Job-1.odb,Step-1,Increment      1: Step Time =    1.000,"P-1-1",          2430,   91.6498E-03,   125.485E-03,            0.,NA,NA,"",   1.20919E+06,   1.27038E+06,   1.27038E+06
C:/temp/Job-1.odb,Step-1,Increment      1: Step Time =    1.000,"P-1-1",          2431,   88.1330E-03,   124.649E-03,            0.,NA,NA,"",   1.25729E+06,   1.27655E+06,   1.27655E+06
C:/temp/Job-1.odb,Step-1,Increment      1: Step Time =    1.000,"P-1-1",          2432,   84.7744E-03,   124.229E-03,            0.,NA,NA,"",   1.26949E+06,   1.25347E+06,   1.25347E+06
C:/temp/Job-1.odb,Step-1,Increment      1: Step Time =    1.000,"P-1-1",          2433,   81.9847E-03,   124.647E-03,            0.,NA,NA,"",   1.25124E+06,   1.21958E+06,   1.21958E+06
C:/temp/Job-1.odb,Step-1,Increment      1: Step Time =    1.000,"P-1-1",          2434,   78.9339E-03,   124.893E-03,            0.,NA,NA,"",   1.22302E+06,   1.18361E+06,   1.18361E+06
C:/temp/Job-1.odb,Step-1,Increment      1: Step Time =    1.000,"P-1-1",          2435,   75.0852E-03,   124.477E-03,            0.,NA,NA,"",   1.17768E+06,   1.13639E+06,   1.13639E+06
C:/temp/Job-1.odb,Step-1,Increment      1: Step Time =    1.000,"P-1-1",          2436,   72.5377E-03,   124.676E-03,            0.,NA,NA,"",   1.14528E+06,   1.10963E+06,   1.10963E+06
C:/temp/Job-1.odb,Step-1,Increment      1: Step Time =    1.000,"P-1-1",          2437,   70.3878E-03,   124.909E-03,            0.,NA,NA,"",   1.12034E+06,   1.09060E+06,   1.09060E+06
C:/temp/Job-1.odb,Step-1,Increment      1: Step Time =    1.000,"P-1-1",          2438,   66.1415E-03,   125.508E-03,            0.,NA,NA,"",   1.07587E+06,   1.05956E+06,   1.05956E+06
C:/temp/Job-1.odb,Step-1,Increment      1: Step Time =    1.000,"P-1-1",          2439,   63.0371E-03,   124.304E-03,            0.,NA,NA,"",   1.03613E+06,   1.03009E+06,   1.03009E+06
C:/temp/Job-1.odb,Step-1,Increment      1: Step Time =    1.000,"P-1-1",          2440,   59.8178E-03,   125.924E-03,            0.,NA,NA,"",   1.02044E+06,   1.02360E+06,   1.02360E+06
C:/temp/Job-1.odb,Step-1,Increment      1: Step Time =    1.000,"P-1-1",          2441,   52.9662E-03,   124.478E-03,            0.,NA,NA,"",   962.668E+03,   986.408E+03,   986.408E+03
C:/temp/Job-1.odb,Step-1,Increment      1: Step Time =    1.000,"P-1-1",          2442,   50.0502E-03,   124.291E-03,            0.,NA,NA,"",   945.485E+03,   976.769E+03,   976.769E+03
C:/temp/Job-1.odb,Step-1,Increment      1: Step Time =    1.000,"P-1-1",          2443,   45.8186E-03,   125.078E-03,            0.,NA,NA,"",   931.202E+03,   971.308E+03,   971.308E+03
C:/temp/Job-1.odb,Step-1,Increment      1: Step Time =    1.000,"P-1-1",          2444,   42.9717E-03,   124.771E-03,            0.,NA,NA,"",   918.384E+03,   964.512E+03,   964.512E+03
C:/temp/Job-1.odb,Step-1,Increment      1: Step Time =    1.000,"P-1-1",          2445,   39.8311E-03,   124.611E-03,            0.,NA,NA,"",   905.665E+03,   958.191E+03,   958.191E+03
C:/temp/Job-1.odb,Step-1,Increment      1: Step Time =    1.000,"P-1-1",          2446,   35.6443E-03,   123.294E-03,            0.,NA,NA,"",   885.557E+03,   946.698E+03,   946.698E+03
C:/temp/Job-1.odb,Step-1,Increment      1: Step Time =    1.000,"P-1-1",          2447,   32.7028E-03,   124.223E-03,            0.,NA,NA,"",   880.594E+03,   945.916E+03,   945.916E+03
C:/temp/Job-1.odb,Step-1,Increment      1: Step Time =    1.000,"P-1-1",          2448,   28.9390E-03,   124.018E-03,            0.,NA,NA,"",   868.463E+03,   939.895E+03,   939.895E+03
C:/temp/Job-1.odb,Step-1,Increment      1: Step Time =    1.000,"P-1-1",          2449,   25.1166E-03,   123.471E-03,            0.,NA,NA,"",   856.033E+03,   933.265E+03,   933.265E+03
C:/temp/Job-1.odb,Step-1,Increment      1: Step Time =    1.000,"P-1-1",          2450,   23.6853E-03,   124.002E-03,            0.,NA,NA,"",   853.830E+03,   932.838E+03,   932.838E+03
C:/temp/Job-1.odb,Step-1,Increment      1: Step Time =    1.000,"P-1-1",          2451,   19.9697E-03,   124.704E-03,            0.,NA,NA,"",   845.800E+03,   929.505E+03,   929.505E+03
C:/temp/Job-1.odb,Step-1,Increment      1: Step Time =    1.000,"P-1-1",          2452,   16.3988E-03,   124.061E-03,            0.,NA,NA,"",   834.341E+03,   922.619E+03,   922.619E+03
C:/temp/Job-1.odb,Step-1,Increment      1: Step Time =    1.000,"P-1-1",          2453,   12.9567E-03,   124.192E-03,            0.,NA,NA,"",   825.745E+03,   917.828E+03,   917.828E+03
C:/temp/Job-1.odb,Step-1,Increment      1: Step Time =    1.000,"P-1-1",          2454,   9.71794E-03,   124.182E-03,            0.,NA,NA,"",   817.489E+03,   912.916E+03,   912.916E+03
C:/temp/Job-1.odb,Step-1,Increment      1: Step Time =    1.000,"P-1-1",          2455,   6.13507E-03,   124.197E-03,            0.,NA,NA,"",   808.561E+03,   907.249E+03,   907.249E+03
C:/temp/Job-1.odb,Step-1,Increment      1: Step Time =    1.000,"P-1-1",          2456,   3.02884E-03,   124.064E-03,            0.,NA,NA,"",   801.038E+03,   902.185E+03,   902.185E+03
C:/temp/Job-1.odb,Step-1,Increment      1: Step Time =    1.000,"P-1-1",          2457,   193.610E-03,   127.364E-03,            0.,NA,NA,"",   979.750E+03,   999.923E+03,   999.923E+03
C:/temp/Job-1.odb,Step-1,Increment      1: Step Time =    1.000,"P-1-1",          2458,   190.473E-03,   128.073E-03,            0.,NA,NA,"",   982.863E+03,   1.00001E+06,   1.00001E+06
C:/temp/Job-1.odb,Step-1,Increment      1: Step Time =    1.000,"P-1-1",          2459,   186.546E-03,   127.566E-03,            0.,NA,NA,"",   985.244E+03,   999.692E+03,   999.692E+03
C:/temp/Job-1.odb,Step-1,Increment      1: Step Time =    1.000,"P-1-1",          2460,   182.951E-03,   128.282E-03,            0.,NA,NA,"",   988.712E+03,    999.97E+03,    999.97E+03
C:/temp/Job-1.odb,Step-1,Increment      1: Step Time =    1.000,"P-1-1",          2461,   179.210E-03,   127.772E-03,            0.,NA,NA,"",   990.924E+03,   999.617E+03,   999.617E+03
C:/temp/Job-1.odb,Step-1,Increment      1: Step Time =    1.000,"P-1-1",          2462,   176.999E-03,   128.238E-03,            0.,NA,NA,"",   993.319E+03,   1.00002E+06,   1.00002E+06
C:/temp/Job-1.odb,Step-1,Increment      1: Step Time =    1.000,"P-1-1",          2463,   173.181E-03,   128.325E-03,            0.,NA,NA,"",   996.999E+03,   1.00063E+06,   1.00063E+06
C:/temp/Job-1.odb,Step-1,Increment      1: Step Time =    1.000,"P-1-1",          2464,   170.791E-03,   127.216E-03,            0.,NA,NA,"",   997.189E+03,   999.427E+03,   999.427E+03
C:/temp/Job-1.odb,Step-1,Increment      1: Step Time =    1.000,"P-1-1",          2465,   167.863E-03,   128.024E-03,            0.,NA,NA,"",   1.00195E+06,   1.00134E+06,   1.00134E+06
C:/temp/Job-1.odb,Step-1,Increment      1: Step Time =    1.000,"P-1-1",          2466,   164.505E-03,   127.361E-03,            0.,NA,NA,"",   1.00463E+06,   1.00137E+06,   1.00137E+06
C:/temp/Job-1.odb,Step-1,Increment      1: Step Time =    1.000,"P-1-1",          2467,   161.227E-03,   127.166E-03,            0.,NA,NA,"",   1.00867E+06,   1.00237E+06,   1.00237E+06
C:/temp/Job-1.odb,Step-1,Increment      1: Step Time =    1.000,"P-1-1",          2468,   157.918E-03,   128.257E-03,            0.,NA,NA,"",   1.01887E+06,   1.00833E+06,   1.00833E+06
C:/temp/Job-1.odb,Step-1,Increment      1: Step Time =    1.000,"P-1-1",          2469,   154.655E-03,   127.696E-03,            0.,NA,NA,"",   1.02450E+06,   1.01046E+06,   1.01046E+06
C:/temp/Job-1.odb,Step-1,Increment      1: Step Time =    1.000,"P-1-1",          2470,   151.243E-03,   128.898E-03,            0.,NA,NA,"",   1.03948E+06,   1.02033E+06,   1.02033E+06
C:/temp/Job-1.odb,Step-1,Increment      1: Step Time =    1.000,"P-1-1",          2471,   148.662E-03,   128.749E-03,            0.,NA,NA,"",   1.04825E+06,   1.02558E+06,   1.02558E+06
C:/temp/Job-1.odb,Step-1,Increment      1: Step Time =    1.000,"P-1-1",          2472,   145.056E-03,   128.578E-03,            0.,NA,NA,"",   1.06324E+06,   1.03497E+06,   1.03497E+06
C:/temp/Job-1.odb,Step-1,Increment      1: Step Time =    1.000,"P-1-1",          2473,   140.675E-03,   127.955E-03,            0.,NA,NA,"",   1.08488E+06,   1.04914E+06,   1.04914E+06
C:/temp/Job-1.odb,Step-1,Increment      1: Step Time =    1.000,"P-1-1",          2474,   138.810E-03,   127.897E-03,            0.,NA,NA,"",   1.09563E+06,   1.05675E+06,   1.05675E+06
C:/temp/Job-1.odb,Step-1,Increment      1: Step Time =    1.000,"P-1-1",          2475,   133.909E-03,   127.282E-03,            0.,NA,NA,"",   1.12974E+06,   1.08138E+06,   1.08138E+06
C:/temp/Job-1.odb,Step-1,Increment      1: Step Time =    1.000,"P-1-1",          2476,   129.896E-03,   126.942E-03,            0.,NA,NA,"",   1.16330E+06,   1.10881E+06,   1.10881E+06
C:/temp/Job-1.odb,Step-1,Increment      1: Step Time =    1.000,"P-1-1",          2477,   126.839E-03,   127.323E-03,            0.,NA,NA,"",   1.19153E+06,   1.13585E+06,   1.13585E+06
C:/temp/Job-1.odb,Step-1,Increment      1: Step Time =    1.000,"P-1-1",          2478,   124.439E-03,   127.986E-03,            0.,NA,NA,"",   1.20690E+06,   1.15533E+06,   1.15533E+06
C:/temp/Job-1.odb,Step-1,Increment      1: Step Time =    1.000,"P-1-1",          2479,   120.694E-03,   127.478E-03,            0.,NA,NA,"",   1.23267E+06,   1.18868E+06,   1.18868E+06
C:/temp/Job-1.odb,Step-1,Increment      1: Step Time =    1.000,"P-1-1",          2480,   117.861E-03,   127.302E-03,            0.,NA,NA,"",   1.23985E+06,   1.20878E+06,   1.20878E+06
C:/temp/Job-1.odb,Step-1,Increment      1: Step Time =    1.000,"P-1-1",          2481,   114.722E-03,   127.394E-03,            0.,NA,NA,"",   1.23477E+06,   1.22758E+06,   1.22758E+06
C:/temp/Job-1.odb,Step-1,Increment      1: Step Time =    1.000,"P-1-1",          2482,   111.552E-03,   127.030E-03,            0.,NA,NA,"",   1.22020E+06,   1.24284E+06,   1.24284E+06
C:/temp/Job-1.odb,Step-1,Increment      1: Step Time =    1.000,"P-1-1",          2483,   108.552E-03,   128.152E-03,            0.,NA,NA,"",   1.16849E+06,   1.22388E+06,   1.22388E+06
C:/temp/Job-1.odb,Step-1,Increment      1: Step Time =    1.000,"P-1-1",          2484,   104.612E-03,   128.439E-03,            0.,NA,NA,"",   1.12000E+06,   1.20580E+06,   1.20580E+06
C:/temp/Job-1.odb,Step-1,Increment      1: Step Time =    1.000,"P-1-1",          2485,   101.751E-03,   127.886E-03,            0.,NA,NA,"",   1.10628E+06,   1.20685E+06,   1.20685E+06
C:/temp/Job-1.odb,Step-1,Increment      1: Step Time =    1.000,"P-1-1",          2486,   99.0314E-03,   127.372E-03,            0.,NA,NA,"",   1.11121E+06,   1.21479E+06,   1.21479E+06
C:/temp/Job-1.odb,Step-1,Increment      1: Step Time =    1.000,"P-1-1",          2487,   94.8052E-03,   128.489E-03,            0.,NA,NA,"",   1.12479E+06,   1.20804E+06,   1.20804E+06
C:/temp/Job-1.odb,Step-1,Increment      1: Step Time =    1.000,"P-1-1",          2488,   91.7493E-03,   128.681E-03,            0.,NA,NA,"",   1.15467E+06,   1.21572E+06,   1.21572E+06
C:/temp/Job-1.odb,Step-1,Increment      1: Step Time =    1.000,"P-1-1",          2489,   88.6461E-03,   127.908E-03,            0.,NA,NA,"",   1.19684E+06,   1.23036E+06,   1.23036E+06
C:/temp/Job-1.odb,Step-1,Increment      1: Step Time =    1.000,"P-1-1",          2490,   85.2346E-03,   127.150E-03,            0.,NA,NA,"",   1.22757E+06,   1.22904E+06,   1.22904E+06
C:/temp/Job-1.odb,Step-1,Increment      1: Step Time =    1.000,"P-1-1",          2491,   82.2025E-03,   127.479E-03,            0.,NA,NA,"",   1.22216E+06,   1.20609E+06,   1.20609E+06
C:/temp/Job-1.odb,Step-1,Increment      1: Step Time =    1.000,"P-1-1",          2492,   79.4516E-03,   127.728E-03,            0.,NA,NA,"",   1.20812E+06,   1.18304E+06,   1.18304E+06
C:/temp/Job-1.odb,Step-1,Increment      1: Step Time =    1.000,"P-1-1",          2493,   75.1640E-03,   128.083E-03,            0.,NA,NA,"",   1.17533E+06,   1.14568E+06,   1.14568E+06
C:/temp/Job-1.odb,Step-1,Increment      1: Step Time =    1.000,"P-1-1",          2494,   72.9373E-03,   128.050E-03,            0.,NA,NA,"",   1.15366E+06,   1.12537E+06,   1.12537E+06
C:/temp/Job-1.odb,Step-1,Increment      1: Step Time =    1.000,"P-1-1",          2495,   68.7473E-03,   128.128E-03,            0.,NA,NA,"",   1.11399E+06,   1.09303E+06,   1.09303E+06
C:/temp/Job-1.odb,Step-1,Increment      1: Step Time =    1.000,"P-1-1",          2496,   66.0064E-03,   127.558E-03,            0.,NA,NA,"",   1.08542E+06,   1.07052E+06,   1.07052E+06
C:/temp/Job-1.odb,Step-1,Increment      1: Step Time =    1.000,"P-1-1",          2497,   62.8562E-03,   128.268E-03,            0.,NA,NA,"",   1.06064E+06,   1.05434E+06,   1.05434E+06
C:/temp/Job-1.odb,Step-1,Increment      1: Step Time =    1.000,"P-1-1",          2498,   59.4968E-03,   128.911E-03,            0.,NA,NA,"",   1.03648E+06,   1.03932E+06,   1.03932E+06
C:/temp/Job-1.odb,Step-1,Increment      1: Step Time =    1.000,"P-1-1",          2499,   55.5876E-03,   129.093E-03,            0.,NA,NA,"",   1.00945E+06,   1.02240E+06,   1.02240E+06
C:/temp/Job-1.odb,Step-1,Increment      1: Step Time =    1.000,"P-1-1",          2500,   52.9159E-03,   127.483E-03,            0.,NA,NA,"",   982.825E+03,   1.00375E+06,   1.00375E+06
C:/temp/Job-1.odb,Step-1,Increment      1: Step Time =    1.000,"P-1-1",          2501,   49.8469E-03,   127.260E-03,            0.,NA,NA,"",   963.674E+03,   992.459E+03,   992.459E+03
C:/temp/Job-1.odb,Step-1,Increment      1: Step Time =    1.000,"P-1-1",          2502,   45.5979E-03,   127.522E-03,            0.,NA,NA,"",   944.096E+03,   982.394E+03,   982.394E+03
C:/temp/Job-1.odb,Step-1,Increment      1: Step Time =    1.000,"P-1-1",          2503,   42.1747E-03,   127.054E-03,            0.,NA,NA,"",   927.641E+03,   973.480E+03,   973.480E+03
C:/temp/Job-1.odb,Step-1,Increment      1: Step Time =    1.000,"P-1-1",          2504,   39.2453E-03,   128.057E-03,            0.,NA,NA,"",   920.245E+03,   971.064E+03,   971.064E+03
C:/temp/Job-1.odb,Step-1,Increment      1: Step Time =    1.000,"P-1-1",          2505,   35.8697E-03,   128.250E-03,            0.,NA,NA,"",   908.906E+03,   965.786E+03,   965.786E+03
C:/temp/Job-1.odb,Step-1,Increment      1: Step Time =    1.000,"P-1-1",          2506,   32.2528E-03,   128.192E-03,            0.,NA,NA,"",   895.772E+03,   959.199E+03,   959.199E+03
C:/temp/Job-1.odb,Step-1,Increment      1: Step Time =    1.000,"P-1-1",          2507,   28.1859E-03,   127.407E-03,            0.,NA,NA,"",   878.988E+03,   949.725E+03,   949.725E+03
C:/temp/Job-1.odb,Step-1,Increment      1: Step Time =    1.000,"P-1-1",          2508,   25.5273E-03,   128.405E-03,            0.,NA,NA,"",   873.856E+03,   948.381E+03,   948.381E+03
C:/temp/Job-1.odb,Step-1,Increment      1: Step Time =    1.000,"P-1-1",          2509,   22.9750E-03,   127.832E-03,            0.,NA,NA,"",   864.002E+03,   942.460E+03,   942.460E+03
C:/temp/Job-1.odb,Step-1,Increment      1: Step Time =    1.000,"P-1-1",          2510,   19.4747E-03,   127.851E-03,            0.,NA,NA,"",   853.823E+03,   937.134E+03,   937.134E+03
C:/temp/Job-1.odb,Step-1,Increment      1: Step Time =    1.000,"P-1-1",          2511,   16.3733E-03,   127.506E-03,            0.,NA,NA,"",   843.405E+03,   931.028E+03,   931.028E+03
C:/temp/Job-1.odb,Step-1,Increment      1: Step Time =    1.000,"P-1-1",          2512,   12.6649E-03,   127.502E-03,            0.,NA,NA,"",   832.798E+03,   924.889E+03,   924.889E+03
C:/temp/Job-1.odb,Step-1,Increment      1: Step Time =    1.000,"P-1-1",          2513,   9.06714E-03,   128.535E-03,            0.,NA,NA,"",   825.239E+03,   921.075E+03,   921.075E+03
C:/temp/Job-1.odb,Step-1,Increment      1: Step Time =    1.000,"P-1-1",          2514,   6.06933E-03,   128.547E-03,            0.,NA,NA,"",   816.992E+03,   915.870E+03,   915.870E+03
C:/temp/Job-1.odb,Step-1,Increment      1: Step Time =    1.000,"P-1-1",          2515,   3.02567E-03,   127.124E-03,            0.,NA,NA,"",   806.432E+03,   907.870E+03,   907.870E+03
C:/temp/Job-1.odb,Step-1,Increment      1: Step Time =    1.000,"P-1-1",          2516,   196.922E-03,   131.883E-03,            0.,NA,NA,"",   980.788E+03,   1.00011E+06,   1.00011E+06
C:/temp/Job-1.odb,Step-1,Increment      1: Step Time =    1.000,"P-1-1",          2517,   193.909E-03,   132.101E-03,            0.,NA,NA,"",   983.186E+03,   1.00032E+06,   1.00032E+06
C:/temp/Job-1.odb,Step-1,Increment      1: Step Time =    1.000,"P-1-1",          2518,   191.306E-03,   132.126E-03,            0.,NA,NA,"",   985.232E+03,   1.00058E+06,   1.00058E+06
C:/temp/Job-1.odb,Step-1,Increment      1: Step Time =    1.000,"P-1-1",          2519,   186.436E-03,   130.802E-03,            0.,NA,NA,"",     988.3E+03,   1.00088E+06,   1.00088E+06
C:/temp/Job-1.odb,Step-1,Increment      1: Step Time =    1.000,"P-1-1",          2520,   183.561E-03,   131.182E-03,            0.,NA,NA,"",   991.050E+03,   1.00139E+06,   1.00139E+06
C:/temp/Job-1.odb,Step-1,Increment      1: Step Time =    1.000,"P-1-1",          2521,   180.419E-03,   131.968E-03,            0.,NA,NA,"",   994.821E+03,   1.00243E+06,   1.00243E+06
C:/temp/Job-1.odb,Step-1,Increment      1: Step Time =    1.000,"P-1-1",          2522,   176.897E-03,   132.187E-03,            0.,NA,NA,"",   998.831E+03,   1.00359E+06,   1.00359E+06
C:/temp/Job-1.odb,Step-1,Increment      1: Step Time =    1.000,"P-1-1",          2523,   173.828E-03,   131.102E-03,            0.,NA,NA,"",   1.00074E+06,   1.00361E+06,   1.00361E+06
C:/temp/Job-1.odb,Step-1,Increment      1: Step Time =    1.000,"P-1-1",          2524,   170.382E-03,   131.796E-03,            0.,NA,NA,"",   1.00620E+06,   1.00591E+06,   1.00591E+06
C:/temp/Job-1.odb,Step-1,Increment      1: Step Time =    1.000,"P-1-1",          2525,   166.900E-03,   131.283E-03,            0.,NA,NA,"",   1.01029E+06,   1.00718E+06,   1.00718E+06
C:/temp/Job-1.odb,Step-1,Increment      1: Step Time =    1.000,"P-1-1",          2526,   163.354E-03,   130.665E-03,            0.,NA,NA,"",   1.01495E+06,   1.00881E+06,   1.00881E+06
C:/temp/Job-1.odb,Step-1,Increment      1: Step Time =    1.000,"P-1-1",          2527,   160.137E-03,   130.641E-03,            0.,NA,NA,"",   1.02141E+06,   1.01199E+06,   1.01199E+06
C:/temp/Job-1.odb,Step-1,Increment      1: Step Time =    1.000,"P-1-1",          2528,   156.993E-03,   130.235E-03,            0.,NA,NA,"",   1.02710E+06,   1.01457E+06,   1.01457E+06
C:/temp/Job-1.odb,Step-1,Increment      1: Step Time =    1.000,"P-1-1",          2529,   153.647E-03,   130.881E-03,            0.,NA,NA,"",   1.03865E+06,   1.02176E+06,   1.02176E+06
C:/temp/Job-1.odb,Step-1,Increment      1: Step Time =    1.000,"P-1-1",          2530,   150.600E-03,   130.524E-03,            0.,NA,NA,"",   1.04765E+06,   1.02693E+06,   1.02693E+06
C:/temp/Job-1.odb,Step-1,Increment      1: Step Time =    1.000,"P-1-1",          2531,   147.206E-03,   131.323E-03,            0.,NA,NA,"",   1.06323E+06,   1.03776E+06,   1.03776E+06
C:/temp/Job-1.odb,Step-1,Increment      1: Step Time =    1.000,"P-1-1",          2532,   143.459E-03,   131.778E-03,            0.,NA,NA,"",   1.08201E+06,   1.05140E+06,   1.05140E+06
C:/temp/Job-1.odb,Step-1,Increment      1: Step Time =    1.000,"P-1-1",          2533,   141.497E-03,   130.483E-03,            0.,NA,NA,"",   1.08846E+06,   1.05475E+06,   1.05475E+06
C:/temp/Job-1.odb,Step-1,Increment      1: Step Time =    1.000,"P-1-1",          2534,   138.376E-03,   130.706E-03,            0.,NA,NA,"",   1.10719E+06,   1.06900E+06,   1.06900E+06
C:/temp/Job-1.odb,Step-1,Increment      1: Step Time =    1.000,"P-1-1",          2535,   133.646E-03,   130.735E-03,            0.,NA,NA,"",   1.13765E+06,   1.09371E+06,   1.09371E+06
C:/temp/Job-1.odb,Step-1,Increment      1: Step Time =    1.000,"P-1-1",          2536,   130.572E-03,   130.461E-03,            0.,NA,NA,"",   1.15875E+06,   1.11233E+06,   1.11233E+06
C:/temp/Job-1.odb,Step-1,Increment      1: Step Time =    1.000,"P-1-1",          2537,   127.667E-03,   130.753E-03,            0.,NA,NA,"",   1.17522E+06,   1.12998E+06,   1.12998E+06
C:/temp/Job-1.odb,Step-1,Increment      1: Step Time =    1.000,"P-1-1",          2538,   124.163E-03,   131.605E-03,            0.,NA,NA,"",   1.18799E+06,   1.14995E+06,   1.14995E+06
C:/temp/Job-1.odb,Step-1,Increment      1: Step Time =    1.000,"P-1-1",          2539,   121.566E-03,   130.243E-03,            0.,NA,NA,"",   1.20595E+06,   1.17068E+06,   1.17068E+06
C:/temp/Job-1.odb,Step-1,Increment      1: Step Time =    1.000,"P-1-1",          2540,   117.904E-03,   131.360E-03,            0.,NA,NA,"",   1.19443E+06,   1.17971E+06,   1.17971E+06
C:/temp/Job-1.odb,Step-1,Increment      1: Step Time =    1.000,"P-1-1",          2541,   114.761E-03,   130.863E-03,            0.,NA,NA,"",   1.18705E+06,   1.19152E+06,   1.19152E+06
C:/temp/Job-1.odb,Step-1,Increment      1: Step Time =    1.000,"P-1-1",          2542,   112.485E-03,   130.957E-03,            0.,NA,NA,"",   1.17256E+06,   1.19348E+06,   1.19348E+06
C:/temp/Job-1.odb,Step-1,Increment      1: Step Time =    1.000,"P-1-1",          2543,   109.566E-03,   131.623E-03,            0.,NA,NA,"",   1.13505E+06,   1.17963E+06,   1.17963E+06
C:/temp/Job-1.odb,Step-1,Increment      1: Step Time =    1.000,"P-1-1",          2544,   106.611E-03,   130.486E-03,            0.,NA,NA,"",   1.11604E+06,   1.18345E+06,   1.18345E+06
C:/temp/Job-1.odb,Step-1,Increment      1: Step Time =    1.000,"P-1-1",          2545,   102.492E-03,   131.428E-03,            0.,NA,NA,"",   1.07660E+06,   1.15967E+06,   1.15967E+06
C:/temp/Job-1.odb,Step-1,Increment      1: Step Time =    1.000,"P-1-1",          2546,   99.3233E-03,   130.235E-03,            0.,NA,NA,"",   1.07990E+06,   1.17167E+06,   1.17167E+06
C:/temp/Job-1.odb,Step-1,Increment      1: Step Time =    1.000,"P-1-1",          2547,   94.7213E-03,   130.776E-03,            0.,NA,NA,"",   1.10082E+06,   1.17725E+06,   1.17725E+06
C:/temp/Job-1.odb,Step-1,Increment      1: Step Time =    1.000,"P-1-1",          2548,   91.4410E-03,   131.902E-03,            0.,NA,NA,"",   1.12028E+06,   1.17534E+06,   1.17534E+06
C:/temp/Job-1.odb,Step-1,Increment      1: Step Time =    1.000,"P-1-1",          2549,   87.7514E-03,   131.768E-03,            0.,NA,NA,"",   1.15264E+06,   1.18410E+06,   1.18410E+06
C:/temp/Job-1.odb,Step-1,Increment      1: Step Time =    1.000,"P-1-1",          2550,   85.6005E-03,   130.605E-03,            0.,NA,NA,"",   1.18027E+06,   1.19553E+06,   1.19553E+06
C:/temp/Job-1.odb,Step-1,Increment      1: Step Time =    1.000,"P-1-1",          2551,   81.7819E-03,   130.516E-03,            0.,NA,NA,"",   1.19036E+06,   1.18394E+06,   1.18394E+06
C:/temp/Job-1.odb,Step-1,Increment      1: Step Time =    1.000,"P-1-1",          2552,   78.3135E-03,   130.703E-03,            0.,NA,NA,"",   1.18227E+06,   1.16517E+06,   1.16517E+06
C:/temp/Job-1.odb,Step-1,Increment      1: Step Time =    1.000,"P-1-1",          2553,   75.0396E-03,   130.172E-03,            0.,NA,NA,"",   1.16833E+06,   1.14483E+06,   1.14483E+06
C:/temp/Job-1.odb,Step-1,Increment      1: Step Time =    1.000,"P-1-1",          2554,   71.4009E-03,   131.258E-03,            0.,NA,NA,"",   1.13903E+06,   1.11911E+06,   1.11911E+06
C:/temp/Job-1.odb,Step-1,Increment      1: Step Time =    1.000,"P-1-1",          2555,   68.2645E-03,   130.531E-03,            0.,NA,NA,"",   1.11349E+06,   1.09656E+06,   1.09656E+06
C:/temp/Job-1.odb,Step-1,Increment      1: Step Time =    1.000,"P-1-1",          2556,   65.2434E-03,   130.551E-03,            0.,NA,NA,"",   1.08863E+06,   1.07754E+06,   1.07754E+06
C:/temp/Job-1.odb,Step-1,Increment      1: Step Time =    1.000,"P-1-1",          2557,   62.4678E-03,   131.100E-03,            0.,NA,NA,"",   1.06791E+06,   1.06349E+06,   1.06349E+06
C:/temp/Job-1.odb,Step-1,Increment      1: Step Time =    1.000,"P-1-1",          2558,   59.2280E-03,   130.521E-03,            0.,NA,NA,"",   1.04174E+06,   1.04497E+06,   1.04497E+06
C:/temp/Job-1.odb,Step-1,Increment      1: Step Time =    1.000,"P-1-1",          2559,   55.2672E-03,   131.747E-03,            0.,NA,NA,"",   1.02078E+06,   1.03307E+06,   1.03307E+06
C:/temp/Job-1.odb,Step-1,Increment      1: Step Time =    1.000,"P-1-1",          2560,   52.4753E-03,   130.415E-03,            0.,NA,NA,"",   996.340E+03,   1.01628E+06,   1.01628E+06
C:/temp/Job-1.odb,Step-1,Increment      1: Step Time =    1.000,"P-1-1",          2561,   48.0699E-03,   130.026E-03,            0.,NA,NA,"",   970.142E+03,   1.00057E+06,   1.00057E+06
C:/temp/Job-1.odb,Step-1,Increment      1: Step Time =    1.000,"P-1-1",          2562,   44.7313E-03,   131.068E-03,            0.,NA,NA,"",   958.472E+03,   995.738E+03,   995.738E+03
C:/temp/Job-1.odb,Step-1,Increment      1: Step Time =    1.000,"P-1-1",          2563,   42.6250E-03,   130.989E-03,            0.,NA,NA,"",   949.034E+03,   990.464E+03,   990.464E+03
C:/temp/Job-1.odb,Step-1,Increment      1: Step Time =    1.000,"P-1-1",          2564,   39.4961E-03,   131.488E-03,            0.,NA,NA,"",   937.255E+03,   984.917E+03,   984.917E+03
C:/temp/Job-1.odb,Step-1,Increment      1: Step Time =    1.000,"P-1-1",          2565,   36.1583E-03,   131.826E-03,            0.,NA,NA,"",   925.106E+03,   979.052E+03,   979.052E+03
C:/temp/Job-1.odb,Step-1,Increment      1: Step Time =    1.000,"P-1-1",          2566,   31.5594E-03,   130.809E-03,            0.,NA,NA,"",   903.491E+03,   966.577E+03,   966.577E+03
C:/temp/Job-1.odb,Step-1,Increment      1: Step Time =    1.000,"P-1-1",          2567,   29.8524E-03,   131.568E-03,            0.,NA,NA,"",   900.005E+03,   965.611E+03,   965.611E+03
C:/temp/Job-1.odb,Step-1,Increment      1: Step Time =    1.000,"P-1-1",          2568,   27.2189E-03,   130.525E-03,            0.,NA,NA,"",   887.024E+03,   957.797E+03,   957.797E+03
C:/temp/Job-1.odb,Step-1,Increment      1: Step Time =    1.000,"P-1-1",          2569,   23.9012E-03,   131.922E-03,            0.,NA,NA,"",   880.822E+03,   956.158E+03,   956.158E+03
C:/temp/Job-1.odb,Step-1,Increment      1: Step Time =    1.000,"P-1-1",          2570,   19.2694E-03,   131.137E-03,            0.,NA,NA,"",   862.677E+03,   945.404E+03,   945.404E+03
C:/temp/Job-1.odb,Step-1,Increment      1: Step Time =    1.000,"P-1-1",          2571,   16.3522E-03,   130.322E-03,            0.,NA,NA,"",   851.076E+03,   938.120E+03,   938.120E+03
C:/temp/Job-1.odb,Step-1,Increment      1: Step Time =    1.000,"P-1-1",          2572,   14.2439E-03,   131.317E-03,            0.,NA,NA,"",   847.607E+03,   937.087E+03,   937.087E+03
C:/temp/Job-1.odb,Step-1,Increment      1: Step Time =    1.000,"P-1-1",          2573,   11.1358E-03,   131.506E-03,            0.,NA,NA,"",   838.393E+03,   931.716E+03,   931.716E+03
C:/temp/Job-1.odb,Step-1,Increment      1: Step Time =    1.000,"P-1-1",          2574,   6.38540E-03,   131.555E-03,            0.,NA,NA,"",   824.429E+03,   923.048E+03,   923.048E+03
C:/temp/Job-1.odb,Step-1,Increment      1: Step Time =    1.000,"P-1-1",          2575,   3.21975E-03,   131.780E-03,            0.,NA,NA,"",   815.962E+03,   917.673E+03,   917.673E+03
C:/temp/Job-1.odb,Step-1,Increment      1: Step Time =    1.000,"P-1-1",          2576,   196.859E-03,   134.902E-03,            0.,NA,NA,"",   983.280E+03,   1.00013E+06,   1.00013E+06
C:/temp/Job-1.odb,Step-1,Increment      1: Step Time =    1.000,"P-1-1",          2577,   193.897E-03,   134.114E-03,            0.,NA,NA,"",   984.557E+03,   1.00041E+06,   1.00041E+06
C:/temp/Job-1.odb,Step-1,Increment      1: Step Time =    1.000,"P-1-1",          2578,   190.392E-03,   135.210E-03,            0.,NA,NA,"",   988.308E+03,   1.00120E+06,   1.00120E+06
C:/temp/Job-1.odb,Step-1,Increment      1: Step Time =    1.000,"P-1-1",          2579,   187.381E-03,   134.902E-03,            0.,NA,NA,"",   990.825E+03,   1.00189E+06,   1.00189E+06
C:/temp/Job-1.odb,Step-1,Increment      1: Step Time =    1.000,"P-1-1",          2580,   182.997E-03,   134.357E-03,            0.,NA,NA,"",   994.507E+03,   1.00291E+06,   1.00291E+06
C:/temp/Job-1.odb,Step-1,Increment      1: Step Time =    1.000,"P-1-1",          2581,   180.231E-03,   135.571E-03,            0.,NA,NA,"",   998.636E+03,   1.00452E+06,   1.00452E+06
C:/temp/Job-1.odb,Step-1,Increment      1: Step Time =    1.000,"P-1-1",          2582,   176.832E-03,   134.991E-03,            0.,NA,NA,"",   1.00213E+06,   1.00570E+06,   1.00570E+06
C:/temp/Job-1.odb,Step-1,Increment      1: Step Time =    1.000,"P-1-1",          2583,   173.536E-03,   135.057E-03,            0.,NA,NA,"",   1.00667E+06,   1.00761E+06,   1.00761E+06
C:/temp/Job-1.odb,Step-1,Increment      1: Step Time =    1.000,"P-1-1",          2584,   171.256E-03,   135.168E-03,            0.,NA,NA,"",   1.01000E+06,   1.00911E+06,   1.00911E+06
C:/temp/Job-1.odb,Step-1,Increment      1: Step Time =    1.000,"P-1-1",          2585,   167.348E-03,   134.366E-03,            0.,NA,NA,"",   1.01528E+06,   1.01130E+06,   1.01130E+06
C:/temp/Job-1.odb,Step-1,Increment      1: Step Time =    1.000,"P-1-1",          2586,   163.815E-03,   134.144E-03,            0.,NA,NA,"",   1.02128E+06,   1.01420E+06,   1.01420E+06
C:/temp/Job-1.odb,Step-1,Increment      1: Step Time =    1.000,"P-1-1",          2587,   161.053E-03,   133.241E-03,            0.,NA,NA,"",   1.02552E+06,   1.01600E+06,   1.01600E+06
C:/temp/Job-1.odb,Step-1,Increment      1: Step Time =    1.000,"P-1-1",          2588,   157.618E-03,   134.382E-03,            0.,NA,NA,"",   1.03585E+06,   1.02259E+06,   1.02259E+06
C:/temp/Job-1.odb,Step-1,Increment      1: Step Time =    1.000,"P-1-1",          2589,   154.396E-03,   134.493E-03,            0.,NA,NA,"",   1.04582E+06,   1.02883E+06,   1.02883E+06
C:/temp/Job-1.odb,Step-1,Increment      1: Step Time =    1.000,"P-1-1",          2590,   150.963E-03,   134.779E-03,            0.,NA,NA,"",   1.05708E+06,   1.03636E+06,   1.03636E+06
C:/temp/Job-1.odb,Step-1,Increment      1: Step Time =    1.000,"P-1-1",          2591,   147.605E-03,   134.117E-03,            0.,NA,NA,"",   1.06863E+06,   1.04378E+06,   1.04378E+06
C:/temp/Job-1.odb,Step-1,Increment      1: Step Time =    1.000,"P-1-1",          2592,   143.698E-03,   133.543E-03,            0.,NA,NA,"",   1.08399E+06,   1.05443E+06,   1.05443E+06
C:/temp/Job-1.odb,Step-1,Increment      1: Step Time =    1.000,"P-1-1",          2593,   141.137E-03,   133.521E-03,            0.,NA,NA,"",   1.09636E+06,   1.06372E+06,   1.06372E+06
C:/temp/Job-1.odb,Step-1,Increment      1: Step Time =    1.000,"P-1-1",          2594,   136.820E-03,   134.004E-03,            0.,NA,NA,"",   1.11913E+06,   1.08251E+06,   1.08251E+06
C:/temp/Job-1.odb,Step-1,Increment      1: Step Time =    1.000,"P-1-1",          2595,   133.846E-03,   134.227E-03,            0.,NA,NA,"",   1.13464E+06,   1.09647E+06,   1.09647E+06
C:/temp/Job-1.odb,Step-1,Increment      1: Step Time =    1.000,"P-1-1",          2596,   130.879E-03,   132.908E-03,            0.,NA,NA,"",   1.15247E+06,   1.11151E+06,   1.11151E+06
C:/temp/Job-1.odb,Step-1,Increment      1: Step Time =    1.000,"P-1-1",          2597,   127.980E-03,   134.289E-03,            0.,NA,NA,"",   1.16026E+06,   1.12412E+06,   1.12412E+06
C:/temp/Job-1.odb,Step-1,Increment      1: Step Time =    1.000,"P-1-1",          2598,   124.820E-03,   134.662E-03,            0.,NA,NA,"",   1.16687E+06,   1.13671E+06,   1.13671E+06
C:/temp/Job-1.odb,Step-1,Increment      1: Step Time =    1.000,"P-1-1",          2599,   121.260E-03,   134.101E-03,            0.,NA,NA,"",   1.17395E+06,   1.15196E+06,   1.15196E+06
C:/temp/Job-1.odb,Step-1,Increment      1: Step Time =    1.000,"P-1-1",          2600,   118.678E-03,   134.589E-03,            0.,NA,NA,"",   1.16538E+06,   1.15551E+06,   1.15551E+06
C:/temp/Job-1.odb,Step-1,Increment      1: Step Time =    1.000,"P-1-1",          2601,   114.992E-03,   133.953E-03,            0.,NA,NA,"",   1.15692E+06,   1.16487E+06,   1.16487E+06
C:/temp/Job-1.odb,Step-1,Increment      1: Step Time =    1.000,"P-1-1",          2602,   111.859E-03,   133.909E-03,            0.,NA,NA,"",   1.13309E+06,   1.16201E+06,   1.16201E+06
C:/temp/Job-1.odb,Step-1,Increment      1: Step Time =    1.000,"P-1-1",          2603,   108.052E-03,   134.925E-03,            0.,NA,NA,"",   1.09223E+06,   1.14213E+06,   1.14213E+06
C:/temp/Job-1.odb,Step-1,Increment      1: Step Time =    1.000,"P-1-1",          2604,   105.176E-03,   134.587E-03,            0.,NA,NA,"",   1.07242E+06,   1.13655E+06,   1.13655E+06
C:/temp/Job-1.odb,Step-1,Increment      1: Step Time =    1.000,"P-1-1",          2605,   101.793E-03,   135.184E-03,            0.,NA,NA,"",   1.05376E+06,   1.12512E+06,   1.12512E+06
C:/temp/Job-1.odb,Step-1,Increment      1: Step Time =    1.000,"P-1-1",          2606,   98.9993E-03,   134.864E-03,            0.,NA,NA,"",   1.05319E+06,   1.12738E+06,   1.12738E+06
C:/temp/Job-1.odb,Step-1,Increment      1: Step Time =    1.000,"P-1-1",          2607,   95.2251E-03,   134.984E-03,            0.,NA,NA,"",   1.06703E+06,   1.13370E+06,   1.13370E+06
C:/temp/Job-1.odb,Step-1,Increment      1: Step Time =    1.000,"P-1-1",          2608,   92.2372E-03,   135.444E-03,            0.,NA,NA,"",   1.08497E+06,   1.13913E+06,   1.13913E+06
C:/temp/Job-1.odb,Step-1,Increment      1: Step Time =    1.000,"P-1-1",          2609,   87.7823E-03,   135.722E-03,            0.,NA,NA,"",   1.11490E+06,   1.14835E+06,   1.14835E+06
C:/temp/Job-1.odb,Step-1,Increment      1: Step Time =    1.000,"P-1-1",          2610,   84.6573E-03,   134.602E-03,            0.,NA,NA,"",   1.14293E+06,   1.16015E+06,   1.16015E+06
C:/temp/Job-1.odb,Step-1,Increment      1: Step Time =    1.000,"P-1-1",          2611,   77.7952E-03,   134.727E-03,            0.,NA,NA,"",   1.15260E+06,   1.14567E+06,   1.14567E+06
C:/temp/Job-1.odb,Step-1,Increment      1: Step Time =    1.000,"P-1-1",          2612,   75.0058E-03,   134.570E-03,            0.,NA,NA,"",   1.14725E+06,   1.13538E+06,   1.13538E+06
C:/temp/Job-1.odb,Step-1,Increment      1: Step Time =    1.000,"P-1-1",          2613,   72.6479E-03,   134.617E-03,            0.,NA,NA,"",   1.13780E+06,   1.12448E+06,   1.12448E+06
C:/temp/Job-1.odb,Step-1,Increment      1: Step Time =    1.000,"P-1-1",          2614,   67.8422E-03,   134.893E-03,            0.,NA,NA,"",   1.11085E+06,   1.10019E+06,   1.10019E+06
C:/temp/Job-1.odb,Step-1,Increment      1: Step Time =    1.000,"P-1-1",          2615,   65.3013E-03,   134.099E-03,            0.,NA,NA,"",   1.09528E+06,   1.08690E+06,   1.08690E+06
C:/temp/Job-1.odb,Step-1,Increment      1: Step Time =    1.000,"P-1-1",          2616,   62.4450E-03,   133.315E-03,            0.,NA,NA,"",   1.07520E+06,   1.07113E+06,   1.07113E+06
C:/temp/Job-1.odb,Step-1,Increment      1: Step Time =    1.000,"P-1-1",          2617,   59.8535E-03,   133.610E-03,            0.,NA,NA,"",   1.05710E+06,   1.05873E+06,   1.05873E+06
C:/temp/Job-1.odb,Step-1,Increment      1: Step Time =    1.000,"P-1-1",          2618,   56.1059E-03,   133.958E-03,            0.,NA,NA,"",   1.03409E+06,   1.04401E+06,   1.04401E+06
C:/temp/Job-1.odb,Step-1,Increment      1: Step Time =    1.000,"P-1-1",          2619,   52.3995E-03,   133.781E-03,            0.,NA,NA,"",   1.01207E+06,   1.03011E+06,   1.03011E+06
C:/temp/Job-1.odb,Step-1,Increment      1: Step Time =    1.000,"P-1-1",          2620,   49.0622E-03,   133.226E-03,            0.,NA,NA,"",   990.750E+03,   1.01670E+06,   1.01670E+06
C:/temp/Job-1.odb,Step-1,Increment      1: Step Time =    1.000,"P-1-1",          2621,   45.8463E-03,   134.298E-03,            0.,NA,NA,"",   979.168E+03,   1.01142E+06,   1.01142E+06
C:/temp/Job-1.odb,Step-1,Increment      1: Step Time =    1.000,"P-1-1",          2622,   43.2878E-03,   133.649E-03,            0.,NA,NA,"",   963.637E+03,   1.00185E+06,   1.00185E+06
C:/temp/Job-1.odb,Step-1,Increment      1: Step Time =    1.000,"P-1-1",          2623,   39.1942E-03,   133.574E-03,            0.,NA,NA,"",   944.947E+03,   991.691E+03,   991.691E+03
C:/temp/Job-1.odb,Step-1,Increment      1: Step Time =    1.000,"P-1-1",          2624,   36.6925E-03,   135.154E-03,            0.,NA,NA,"",   941.138E+03,   991.641E+03,   991.641E+03
C:/temp/Job-1.odb,Step-1,Increment      1: Step Time =    1.000,"P-1-1",          2625,   32.5283E-03,   134.260E-03,            0.,NA,NA,"",   920.841E+03,   979.921E+03,   979.921E+03
C:/temp/Job-1.odb,Step-1,Increment      1: Step Time =    1.000,"P-1-1",          2626,   29.3851E-03,   134.910E-03,            0.,NA,NA,"",   911.177E+03,   975.733E+03,   975.733E+03
C:/temp/Job-1.odb,Step-1,Increment      1: Step Time =    1.000,"P-1-1",          2627,   27.1025E-03,   134.913E-03,            0.,NA,NA,"",    902.62E+03,   971.150E+03,   971.150E+03
C:/temp/Job-1.odb,Step-1,Increment      1: Step Time =    1.000,"P-1-1",          2628,   23.7016E-03,   134.766E-03,            0.,NA,NA,"",   890.031E+03,   964.373E+03,   964.373E+03
C:/temp/Job-1.odb,Step-1,Increment      1: Step Time =    1.000,"P-1-1",          2629,   20.3425E-03,   134.493E-03,            0.,NA,NA,"",   876.926E+03,   956.900E+03,   956.900E+03
C:/temp/Job-1.odb,Step-1,Increment      1: Step Time =    1.000,"P-1-1",          2630,   16.9412E-03,   134.545E-03,            0.,NA,NA,"",   865.381E+03,   950.470E+03,   950.470E+03
C:/temp/Job-1.odb,Step-1,Increment      1: Step Time =    1.000,"P-1-1",          2631,   13.4104E-03,   135.208E-03,            0.,NA,NA,"",   855.408E+03,   945.428E+03,   945.428E+03
C:/temp/Job-1.odb,Step-1,Increment      1: Step Time =    1.000,"P-1-1",          2632,   9.81719E-03,   135.278E-03,            0.,NA,NA,"",   843.881E+03,   938.552E+03,   938.552E+03
C:/temp/Job-1.odb,Step-1,Increment      1: Step Time =    1.000,"P-1-1",          2633,   7.16993E-03,   134.966E-03,            0.,NA,NA,"",   834.847E+03,   932.613E+03,   932.613E+03
C:/temp/Job-1.odb,Step-1,Increment      1: Step Time =    1.000,"P-1-1",          2634,   3.34125E-03,   134.911E-03,            0.,NA,NA,"",   822.799E+03,   924.710E+03,   924.710E+03
C:/temp/Job-1.odb,Step-1,Increment      1: Step Time =    1.000,"P-1-1",          2635,   196.998E-03,   138.008E-03,            0.,NA,NA,"",   985.721E+03,   1.00020E+06,   1.00020E+06
C:/temp/Job-1.odb,Step-1,Increment      1: Step Time =    1.000,"P-1-1",          2636,   194.062E-03,   138.084E-03,            0.,NA,NA,"",   987.412E+03,   1.00063E+06,   1.00063E+06
C:/temp/Job-1.odb,Step-1,Increment      1: Step Time =    1.000,"P-1-1",          2637,   191.338E-03,   137.740E-03,            0.,NA,NA,"",   989.326E+03,   1.00127E+06,   1.00127E+06
C:/temp/Job-1.odb,Step-1,Increment      1: Step Time =    1.000,"P-1-1",          2638,   186.565E-03,   136.648E-03,            0.,NA,NA,"",   992.901E+03,   1.00255E+06,   1.00255E+06
C:/temp/Job-1.odb,Step-1,Increment      1: Step Time =    1.000,"P-1-1",          2639,   182.429E-03,   136.907E-03,            0.,NA,NA,"",   997.328E+03,   1.00417E+06,   1.00417E+06
C:/temp/Job-1.odb,Step-1,Increment      1: Step Time =    1.000,"P-1-1",          2640,   177.246E-03,   138.553E-03,            0.,NA,NA,"",   1.00499E+06,   1.00759E+06,   1.00759E+06
C:/temp/Job-1.odb,Step-1,Increment      1: Step Time =    1.000,"P-1-1",          2641,   174.807E-03,   137.737E-03,            0.,NA,NA,"",   1.00759E+06,   1.00867E+06,   1.00867E+06
C:/temp/Job-1.odb,Step-1,Increment      1: Step Time =    1.000,"P-1-1",          2642,   171.305E-03,   137.816E-03,            0.,NA,NA,"",   1.01302E+06,   1.01131E+06,   1.01131E+06
C:/temp/Job-1.odb,Step-1,Increment      1: Step Time =    1.000,"P-1-1",          2643,   167.504E-03,   138.628E-03,            0.,NA,NA,"",   1.02054E+06,   1.01554E+06,   1.01554E+06
C:/temp/Job-1.odb,Step-1,Increment      1: Step Time =    1.000,"P-1-1",          2644,   164.647E-03,   137.704E-03,            0.,NA,NA,"",   1.02524E+06,   1.01786E+06,   1.01786E+06
C:/temp/Job-1.odb,Step-1,Increment      1: Step Time =    1.000,"P-1-1",          2645,   161.122E-03,   137.491E-03,            0.,NA,NA,"",   1.03263E+06,   1.02211E+06,   1.02211E+06
C:/temp/Job-1.odb,Step-1,Increment      1: Step Time =    1.000,"P-1-1",          2646,   156.362E-03,   137.533E-03,            0.,NA,NA,"",   1.04487E+06,   1.02973E+06,   1.02973E+06
C:/temp/Job-1.odb,Step-1,Increment      1: Step Time =    1.000,"P-1-1",          2647,   153.538E-03,   137.686E-03,            0.,NA,NA,"",   1.05328E+06,   1.03530E+06,   1.03530E+06
C:/temp/Job-1.odb,Step-1,Increment      1: Step Time =    1.000,"P-1-1",          2648,   150.837E-03,   139.028E-03,            0.,NA,NA,"",   1.06359E+06,   1.04302E+06,   1.04302E+06
C:/temp/Job-1.odb,Step-1,Increment      1: Step Time =    1.000,"P-1-1",          2649,   147.838E-03,   137.834E-03,            0.,NA,NA,"",   1.07265E+06,   1.04897E+06,   1.04897E+06
C:/temp/Job-1.odb,Step-1,Increment      1: Step Time =    1.000,"P-1-1",          2650,   144.453E-03,   136.617E-03,            0.,NA,NA,"",   1.08485E+06,   1.05729E+06,   1.05729E+06
C:/temp/Job-1.odb,Step-1,Increment      1: Step Time =    1.000,"P-1-1",          2651,   140.875E-03,   137.158E-03,            0.,NA,NA,"",   1.09986E+06,   1.06952E+06,   1.06952E+06
C:/temp/Job-1.odb,Step-1,Increment      1: Step Time =    1.000,"P-1-1",          2652,   137.602E-03,   138.250E-03,            0.,NA,NA,"",   1.11270E+06,   1.08147E+06,   1.08147E+06
C:/temp/Job-1.odb,Step-1,Increment      1: Step Time =    1.000,"P-1-1",          2653,   132.985E-03,   137.343E-03,            0.,NA,NA,"",   1.13184E+06,   1.09906E+06,   1.09906E+06
C:/temp/Job-1.odb,Step-1,Increment      1: Step Time =    1.000,"P-1-1",          2654,   130.862E-03,   137.625E-03,            0.,NA,NA,"",   1.13722E+06,   1.10596E+06,   1.10596E+06
C:/temp/Job-1.odb,Step-1,Increment      1: Step Time =    1.000,"P-1-1",          2655,   127.563E-03,   137.962E-03,            0.,NA,NA,"",   1.14449E+06,   1.11708E+06,   1.11708E+06
C:/temp/Job-1.odb,Step-1,Increment      1: Step Time =    1.000,"P-1-1",          2656,   124.489E-03,   138.729E-03,            0.,NA,NA,"",   1.14237E+06,   1.12252E+06,   1.12252E+06
C:/temp/Job-1.odb,Step-1,Increment      1: Step Time =    1.000,"P-1-1",          2657,   121.166E-03,   137.828E-03,            0.,NA,NA,"",   1.14567E+06,   1.13353E+06,   1.13353E+06
C:/temp/Job-1.odb,Step-1,Increment      1: Step Time =    1.000,"P-1-1",          2658,   118.910E-03,   137.930E-03,            0.,NA,NA,"",   1.13869E+06,   1.13509E+06,   1.13509E+06
C:/temp/Job-1.odb,Step-1,Increment      1: Step Time =    1.000,"P-1-1",          2659,   116.110E-03,   137.588E-03,            0.,NA,NA,"",   1.12968E+06,   1.13753E+06,   1.13753E+06
C:/temp/Job-1.odb,Step-1,Increment      1: Step Time =    1.000,"P-1-1",          2660,   112.272E-03,   137.323E-03,            0.,NA,NA,"",   1.10760E+06,   1.13444E+06,   1.13444E+06
C:/temp/Job-1.odb,Step-1,Increment      1: Step Time =    1.000,"P-1-1",          2661,   107.677E-03,   137.664E-03,            0.,NA,NA,"",   1.07383E+06,   1.12155E+06,   1.12155E+06
C:/temp/Job-1.odb,Step-1,Increment      1: Step Time =    1.000,"P-1-1",          2662,   101.156E-03,   138.232E-03,            0.,NA,NA,"",   1.04287E+06,   1.10581E+06,   1.10581E+06
C:/temp/Job-1.odb,Step-1,Increment      1: Step Time =    1.000,"P-1-1",          2663,   98.6823E-03,   137.895E-03,            0.,NA,NA,"",   1.04381E+06,   1.10804E+06,   1.10804E+06
C:/temp/Job-1.odb,Step-1,Increment      1: Step Time =    1.000,"P-1-1",          2664,   94.1831E-03,   137.279E-03,            0.,NA,NA,"",   1.06241E+06,   1.12055E+06,   1.12055E+06
C:/temp/Job-1.odb,Step-1,Increment      1: Step Time =    1.000,"P-1-1",          2665,   91.4253E-03,   138.548E-03,            0.,NA,NA,"",   1.07289E+06,   1.11964E+06,   1.11964E+06
C:/temp/Job-1.odb,Step-1,Increment      1: Step Time =    1.000,"P-1-1",          2666,   87.7446E-03,   137.726E-03,            0.,NA,NA,"",   1.10091E+06,   1.13435E+06,   1.13435E+06
C:/temp/Job-1.odb,Step-1,Increment      1: Step Time =    1.000,"P-1-1",          2667,   83.7932E-03,   138.789E-03,            0.,NA,NA,"",   1.11458E+06,   1.13263E+06,   1.13263E+06
C:/temp/Job-1.odb,Step-1,Increment      1: Step Time =    1.000,"P-1-1",          2668,   81.4323E-03,   136.523E-03,            0.,NA,NA,"",   1.13916E+06,   1.14573E+06,   1.14573E+06
C:/temp/Job-1.odb,Step-1,Increment      1: Step Time =    1.000,"P-1-1",          2669,   78.3344E-03,   138.187E-03,            0.,NA,NA,"",   1.13161E+06,   1.13248E+06,   1.13248E+06
C:/temp/Job-1.odb,Step-1,Increment      1: Step Time =    1.000,"P-1-1",          2670,   75.0592E-03,   137.883E-03,            0.,NA,NA,"",   1.13169E+06,   1.12616E+06,   1.12616E+06
C:/temp/Job-1.odb,Step-1,Increment      1: Step Time =    1.000,"P-1-1",          2671,   71.9662E-03,   137.861E-03,            0.,NA,NA,"",   1.12380E+06,   1.11590E+06,   1.11590E+06
C:/temp/Job-1.odb,Step-1,Increment      1: Step Time =    1.000,"P-1-1",          2672,   68.6403E-03,   138.319E-03,            0.,NA,NA,"",   1.10990E+06,   1.10292E+06,   1.10292E+06
C:/temp/Job-1.odb,Step-1,Increment      1: Step Time =    1.000,"P-1-1",          2673,   65.4859E-03,   137.540E-03,            0.,NA,NA,"",   1.09640E+06,   1.09077E+06,   1.09077E+06
C:/temp/Job-1.odb,Step-1,Increment      1: Step Time =    1.000,"P-1-1",          2674,   62.6937E-03,   138.098E-03,            0.,NA,NA,"",   1.08196E+06,   1.08011E+06,   1.08011E+06
C:/temp/Job-1.odb,Step-1,Increment      1: Step Time =    1.000,"P-1-1",          2675,   57.7495E-03,   137.829E-03,            0.,NA,NA,"",   1.05459E+06,   1.06077E+06,   1.06077E+06
C:/temp/Job-1.odb,Step-1,Increment      1: Step Time =    1.000,"P-1-1",          2676,   55.6158E-03,   137.311E-03,            0.,NA,NA,"",   1.04187E+06,   1.05207E+06,   1.05207E+06
C:/temp/Job-1.odb,Step-1,Increment      1: Step Time =    1.000,"P-1-1",          2677,   52.6984E-03,   136.916E-03,            0.,NA,NA,"",   1.02471E+06,   1.04083E+06,   1.04083E+06
C:/temp/Job-1.odb,Step-1,Increment      1: Step Time =    1.000,"P-1-1",          2678,   49.5064E-03,   137.989E-03,            0.,NA,NA,"",   1.01122E+06,   1.03362E+06,   1.03362E+06
C:/temp/Job-1.odb,Step-1,Increment      1: Step Time =    1.000,"P-1-1",          2679,   46.5925E-03,   137.330E-03,            0.,NA,NA,"",   994.634E+03,   1.02336E+06,   1.02336E+06
C:/temp/Job-1.odb,Step-1,Increment      1: Step Time =    1.000,"P-1-1",          2680,   43.4007E-03,   137.756E-03,            0.,NA,NA,"",   980.650E+03,   1.01578E+06,   1.01578E+06
C:/temp/Job-1.odb,Step-1,Increment      1: Step Time =    1.000,"P-1-1",          2681,   39.7352E-03,   137.138E-03,            0.,NA,NA,"",   962.236E+03,   1.00521E+06,   1.00521E+06
C:/temp/Job-1.odb,Step-1,Increment      1: Step Time =    1.000,"P-1-1",          2682,   36.1778E-03,   137.130E-03,            0.,NA,NA,"",   946.895E+03,   997.021E+03,   997.021E+03
C:/temp/Job-1.odb,Step-1,Increment      1: Step Time =    1.000,"P-1-1",          2683,   33.0012E-03,   137.210E-03,            0.,NA,NA,"",   934.094E+03,   990.343E+03,   990.343E+03
C:/temp/Job-1.odb,Step-1,Increment      1: Step Time =    1.000,"P-1-1",          2684,   29.9118E-03,   138.251E-03,            0.,NA,NA,"",   925.570E+03,   987.035E+03,   987.035E+03
C:/temp/Job-1.odb,Step-1,Increment      1: Step Time =    1.000,"P-1-1",          2685,   26.6351E-03,   138.018E-03,            0.,NA,NA,"",   912.190E+03,   979.867E+03,   979.867E+03
C:/temp/Job-1.odb,Step-1,Increment      1: Step Time =    1.000,"P-1-1",          2686,   22.0276E-03,   137.490E-03,            0.,NA,NA,"",   892.982E+03,   968.993E+03,   968.993E+03
C:/temp/Job-1.odb,Step-1,Increment      1: Step Time =    1.000,"P-1-1",          2687,   18.7813E-03,   137.593E-03,            0.,NA,NA,"",   881.458E+03,   962.750E+03,   962.750E+03
C:/temp/Job-1.odb,Step-1,Increment      1: Step Time =    1.000,"P-1-1",          2688,   16.9352E-03,   137.785E-03,            0.,NA,NA,"",   875.128E+03,   959.385E+03,   959.385E+03
C:/temp/Job-1.odb,Step-1,Increment      1: Step Time =    1.000,"P-1-1",          2689,   13.3846E-03,   138.402E-03,            0.,NA,NA,"",   864.888E+03,   954.159E+03,   954.159E+03
C:/temp/Job-1.odb,Step-1,Increment      1: Step Time =    1.000,"P-1-1",          2690,   10.2120E-03,   138.303E-03,            0.,NA,NA,"",   853.248E+03,   947.059E+03,   947.059E+03
C:/temp/Job-1.odb,Step-1,Increment      1: Step Time =    1.000,"P-1-1",          2691,   6.31340E-03,   138.356E-03,            0.,NA,NA,"",   840.312E+03,   939.113E+03,   939.113E+03
C:/temp/Job-1.odb,Step-1,Increment      1: Step Time =    1.000,"P-1-1",          2692,   3.24825E-03,   138.078E-03,            0.,NA,NA,"",   829.619E+03,   931.864E+03,   931.864E+03
C:/temp/Job-1.odb,Step-1,Increment      1: Step Time =    1.000,"P-1-1",          2693,   197.020E-03,   141.013E-03,            0.,NA,NA,"",   987.940E+03,   1.00023E+06,   1.00023E+06
C:/temp/Job-1.odb,Step-1,Increment      1: Step Time =    1.000,"P-1-1",          2694,   193.803E-03,   140.894E-03,            0.,NA,NA,"",   989.585E+03,   1.00083E+06,   1.00083E+06
C:/temp/Job-1.odb,Step-1,Increment      1: Step Time =    1.000,"P-1-1",          2695,   190.340E-03,   139.651E-03,            0.,NA,NA,"",    991.38E+03,   1.00176E+06,   1.00176E+06
C:/temp/Job-1.odb,Step-1,Increment      1: Step Time =    1.000,"P-1-1",          2696,   186.830E-03,   140.263E-03,            0.,NA,NA,"",   995.062E+03,   1.00319E+06,   1.00319E+06
C:/temp/Job-1.odb,Step-1,Increment      1: Step Time =    1.000,"P-1-1",          2697,   182.566E-03,   140.461E-03,            0.,NA,NA,"",   999.733E+03,   1.00525E+06,   1.00525E+06
C:/temp/Job-1.odb,Step-1,Increment      1: Step Time =    1.000,"P-1-1",          2698,   180.867E-03,   140.866E-03,            0.,NA,NA,"",   1.00204E+06,   1.00632E+06,   1.00632E+06
C:/temp/Job-1.odb,Step-1,Increment      1: Step Time =    1.000,"P-1-1",          2699,   177.058E-03,   141.243E-03,            0.,NA,NA,"",   1.00740E+06,   1.00898E+06,   1.00898E+06
C:/temp/Job-1.odb,Step-1,Increment      1: Step Time =    1.000,"P-1-1",          2700,   173.384E-03,   140.634E-03,            0.,NA,NA,"",   1.01234E+06,   1.01147E+06,   1.01147E+06
C:/temp/Job-1.odb,Step-1,Increment      1: Step Time =    1.000,"P-1-1",          2701,   170.127E-03,   140.073E-03,            0.,NA,NA,"",   1.01748E+06,   1.01415E+06,   1.01415E+06
C:/temp/Job-1.odb,Step-1,Increment      1: Step Time =    1.000,"P-1-1",          2702,   167.339E-03,   140.784E-03,            0.,NA,NA,"",   1.02313E+06,   1.01745E+06,   1.01745E+06
C:/temp/Job-1.odb,Step-1,Increment      1: Step Time =    1.000,"P-1-1",          2703,   164.005E-03,   141.309E-03,            0.,NA,NA,"",   1.03023E+06,   1.02178E+06,   1.02178E+06
C:/temp/Job-1.odb,Step-1,Increment      1: Step Time =    1.000,"P-1-1",          2704,   159.636E-03,   141.451E-03,            0.,NA,NA,"",   1.04037E+06,   1.02818E+06,   1.02818E+06
C:/temp/Job-1.odb,Step-1,Increment      1: Step Time =    1.000,"P-1-1",          2705,   157.784E-03,   139.586E-03,            0.,NA,NA,"",   1.04344E+06,   1.02961E+06,   1.02961E+06
C:/temp/Job-1.odb,Step-1,Increment      1: Step Time =    1.000,"P-1-1",          2706,   154.811E-03,   140.571E-03,            0.,NA,NA,"",   1.05240E+06,   1.03588E+06,   1.03588E+06
C:/temp/Job-1.odb,Step-1,Increment      1: Step Time =    1.000,"P-1-1",          2707,   151.112E-03,   140.373E-03,            0.,NA,NA,"",   1.06332E+06,   1.04339E+06,   1.04339E+06
C:/temp/Job-1.odb,Step-1,Increment      1: Step Time =    1.000,"P-1-1",          2708,   148.379E-03,   141.055E-03,            0.,NA,NA,"",   1.07230E+06,   1.05028E+06,   1.05028E+06
C:/temp/Job-1.odb,Step-1,Increment      1: Step Time =    1.000,"P-1-1",          2709,   145.031E-03,   140.028E-03,            0.,NA,NA,"",   1.08355E+06,   1.05841E+06,   1.05841E+06
C:/temp/Job-1.odb,Step-1,Increment      1: Step Time =    1.000,"P-1-1",          2710,   140.841E-03,   141.912E-03,            0.,NA,NA,"",   1.09634E+06,   1.07023E+06,   1.07023E+06
C:/temp/Job-1.odb,Step-1,Increment      1: Step Time =    1.000,"P-1-1",          2711,   137.051E-03,   140.771E-03,            0.,NA,NA,"",   1.10988E+06,   1.08167E+06,   1.08167E+06
C:/temp/Job-1.odb,Step-1,Increment      1: Step Time =    1.000,"P-1-1",          2712,   133.424E-03,   140.541E-03,            0.,NA,NA,"",   1.12071E+06,   1.09276E+06,   1.09276E+06
C:/temp/Job-1.odb,Step-1,Increment      1: Step Time =    1.000,"P-1-1",          2713,   131.112E-03,   142.158E-03,            0.,NA,NA,"",   1.11984E+06,   1.09609E+06,   1.09609E+06
C:/temp/Job-1.odb,Step-1,Increment      1: Step Time =    1.000,"P-1-1",          2714,   127.474E-03,   141.845E-03,            0.,NA,NA,"",   1.12483E+06,   1.10488E+06,   1.10488E+06
C:/temp/Job-1.odb,Step-1,Increment      1: Step Time =    1.000,"P-1-1",          2715,   123.744E-03,   141.648E-03,            0.,NA,NA,"",   1.12487E+06,   1.11203E+06,   1.11203E+06
C:/temp/Job-1.odb,Step-1,Increment      1: Step Time =    1.000,"P-1-1",          2716,   121.834E-03,   141.914E-03,            0.,NA,NA,"",   1.11988E+06,   1.11244E+06,   1.11244E+06
C:/temp/Job-1.odb,Step-1,Increment      1: Step Time =    1.000,"P-1-1",          2717,   118.490E-03,   141.328E-03,            0.,NA,NA,"",   1.11405E+06,   1.11630E+06,   1.11630E+06
C:/temp/Job-1.odb,Step-1,Increment      1: Step Time =    1.000,"P-1-1",          2718,   114.963E-03,   141.042E-03,            0.,NA,NA,"",   1.09955E+06,   1.11496E+06,   1.11496E+06
C:/temp/Job-1.odb,Step-1,Increment      1: Step Time =    1.000,"P-1-1",          2719,   111.959E-03,   140.301E-03,            0.,NA,NA,"",   1.08730E+06,   1.11445E+06,   1.11445E+06
C:/temp/Job-1.odb,Step-1,Increment      1: Step Time =    1.000,"P-1-1",          2720,   108.845E-03,   141.226E-03,            0.,NA,NA,"",   1.06462E+06,   1.10297E+06,   1.10297E+06
C:/temp/Job-1.odb,Step-1,Increment      1: Step Time =    1.000,"P-1-1",          2721,   104.199E-03,   140.627E-03,            0.,NA,NA,"",   1.04410E+06,   1.09649E+06,   1.09649E+06
C:/temp/Job-1.odb,Step-1,Increment      1: Step Time =    1.000,"P-1-1",          2722,   100.647E-03,   140.991E-03,            0.,NA,NA,"",   1.03628E+06,   1.09211E+06,   1.09211E+06
C:/temp/Job-1.odb,Step-1,Increment      1: Step Time =    1.000,"P-1-1",          2723,   98.2003E-03,   140.738E-03,            0.,NA,NA,"",   1.03763E+06,   1.09416E+06,   1.09416E+06
C:/temp/Job-1.odb,Step-1,Increment      1: Step Time =    1.000,"P-1-1",          2724,   95.5082E-03,   140.600E-03,            0.,NA,NA,"",   1.04483E+06,   1.09866E+06,   1.09866E+06
C:/temp/Job-1.odb,Step-1,Increment      1: Step Time =    1.000,"P-1-1",          2725,   92.3105E-03,   141.202E-03,            0.,NA,NA,"",   1.05750E+06,   1.10291E+06,   1.10291E+06
C:/temp/Job-1.odb,Step-1,Increment      1: Step Time =    1.000,"P-1-1",          2726,   89.3725E-03,   140.521E-03,            0.,NA,NA,"",   1.07541E+06,   1.11331E+06,   1.11331E+06
C:/temp/Job-1.odb,Step-1,Increment      1: Step Time =    1.000,"P-1-1",          2727,   84.6475E-03,   140.933E-03,            0.,NA,NA,"",   1.09806E+06,   1.11974E+06,   1.11974E+06
C:/temp/Job-1.odb,Step-1,Increment      1: Step Time =    1.000,"P-1-1",          2728,   81.8779E-03,   140.901E-03,            0.,NA,NA,"",   1.10865E+06,   1.12209E+06,   1.12209E+06
C:/temp/Job-1.odb,Step-1,Increment      1: Step Time =    1.000,"P-1-1",          2729,   78.6952E-03,   141.198E-03,            0.,NA,NA,"",   1.11420E+06,   1.11999E+06,   1.11999E+06
C:/temp/Job-1.odb,Step-1,Increment      1: Step Time =    1.000,"P-1-1",          2730,   74.7798E-03,   140.970E-03,            0.,NA,NA,"",   1.11716E+06,   1.11592E+06,   1.11592E+06
C:/temp/Job-1.odb,Step-1,Increment      1: Step Time =    1.000,"P-1-1",          2731,   71.5785E-03,   140.705E-03,            0.,NA,NA,"",   1.11346E+06,   1.10934E+06,   1.10934E+06
C:/temp/Job-1.odb,Step-1,Increment      1: Step Time =    1.000,"P-1-1",          2732,   69.5608E-03,   141.214E-03,            0.,NA,NA,"",   1.10666E+06,   1.10265E+06,   1.10265E+06
C:/temp/Job-1.odb,Step-1,Increment      1: Step Time =    1.000,"P-1-1",          2733,   65.8141E-03,   141.580E-03,            0.,NA,NA,"",    1.0944E+06,   1.09174E+06,   1.09174E+06
C:/temp/Job-1.odb,Step-1,Increment      1: Step Time =    1.000,"P-1-1",          2734,   62.9523E-03,   139.855E-03,            0.,NA,NA,"",   1.08334E+06,   1.08216E+06,   1.08216E+06
C:/temp/Job-1.odb,Step-1,Increment      1: Step Time =    1.000,"P-1-1",          2735,   59.3003E-03,   141.076E-03,            0.,NA,NA,"",   1.06712E+06,   1.07110E+06,   1.07110E+06
C:/temp/Job-1.odb,Step-1,Increment      1: Step Time =    1.000,"P-1-1",          2736,   55.6403E-03,   141.816E-03,            0.,NA,NA,"",   1.05060E+06,   1.06038E+06,   1.06038E+06
C:/temp/Job-1.odb,Step-1,Increment      1: Step Time =    1.000,"P-1-1",          2737,   52.2336E-03,   141.866E-03,            0.,NA,NA,"",   1.03505E+06,   1.05068E+06,   1.05068E+06
C:/temp/Job-1.odb,Step-1,Increment      1: Step Time =    1.000,"P-1-1",          2738,   49.3788E-03,   139.822E-03,            0.,NA,NA,"",   1.01631E+06,   1.03804E+06,   1.03804E+06
C:/temp/Job-1.odb,Step-1,Increment      1: Step Time =    1.000,"P-1-1",          2739,   42.6881E-03,   141.277E-03,            0.,NA,NA,"",   990.162E+03,   1.02439E+06,   1.02439E+06
C:/temp/Job-1.odb,Step-1,Increment      1: Step Time =    1.000,"P-1-1",          2740,   39.4489E-03,   140.728E-03,            0.,NA,NA,"",   974.602E+03,   1.01555E+06,   1.01555E+06
C:/temp/Job-1.odb,Step-1,Increment      1: Step Time =    1.000,"P-1-1",          2741,   36.0668E-03,   140.252E-03,            0.,NA,NA,"",   958.379E+03,   1.00651E+06,   1.00651E+06
C:/temp/Job-1.odb,Step-1,Increment      1: Step Time =    1.000,"P-1-1",          2742,   33.5448E-03,   139.960E-03,            0.,NA,NA,"",   946.726E+03,   1.00004E+06,   1.00004E+06
C:/temp/Job-1.odb,Step-1,Increment      1: Step Time =    1.000,"P-1-1",          2743,   31.0266E-03,   140.380E-03,            0.,NA,NA,"",   937.905E+03,   995.907E+03,   995.907E+03
C:/temp/Job-1.odb,Step-1,Increment      1: Step Time =    1.000,"P-1-1",          2744,   25.8230E-03,   142.104E-03,            0.,NA,NA,"",   923.769E+03,   990.500E+03,   990.500E+03
C:/temp/Job-1.odb,Step-1,Increment      1: Step Time =    1.000,"P-1-1",          2745,   22.2508E-03,   140.239E-03,            0.,NA,NA,"",   903.069E+03,   977.443E+03,   977.443E+03
C:/temp/Job-1.odb,Step-1,Increment      1: Step Time =    1.000,"P-1-1",          2746,   19.4088E-03,   140.619E-03,            0.,NA,NA,"",   893.719E+03,   972.839E+03,   972.839E+03
C:/temp/Job-1.odb,Step-1,Increment      1: Step Time =    1.000,"P-1-1",          2747,   16.4137E-03,   141.172E-03,            0.,NA,NA,"",   884.286E+03,   968.199E+03,   968.199E+03
C:/temp/Job-1.odb,Step-1,Increment      1: Step Time =    1.000,"P-1-1",          2748,   12.8512E-03,   140.662E-03,            0.,NA,NA,"",   869.562E+03,   959.206E+03,   959.206E+03
C:/temp/Job-1.odb,Step-1,Increment      1: Step Time =    1.000,"P-1-1",          2749,   9.39033E-03,   141.300E-03,            0.,NA,NA,"",   858.515E+03,   953.173E+03,   953.173E+03
C:/temp/Job-1.odb,Step-1,Increment      1: Step Time =    1.000,"P-1-1",          2750,   6.26799E-03,   141.375E-03,            0.,NA,NA,"",   847.668E+03,   946.536E+03,   946.536E+03
C:/temp/Job-1.odb,Step-1,Increment      1: Step Time =    1.000,"P-1-1",          2751,   3.16641E-03,   141.222E-03,            0.,NA,NA,"",   836.634E+03,   939.249E+03,   939.249E+03
C:/temp/Job-1.odb,Step-1,Increment      1: Step Time =    1.000,"P-1-1",          2752,   197.024E-03,   144.029E-03,            0.,NA,NA,"",   990.041E+03,   1.00025E+06,   1.00025E+06
C:/temp/Job-1.odb,Step-1,Increment      1: Step Time =    1.000,"P-1-1",          2753,   192.507E-03,   143.927E-03,            0.,NA,NA,"",   992.378E+03,   1.00136E+06,   1.00136E+06
C:/temp/Job-1.odb,Step-1,Increment      1: Step Time =    1.000,"P-1-1",          2754,   189.690E-03,   145.289E-03,            0.,NA,NA,"",   995.233E+03,   1.00248E+06,   1.00248E+06
C:/temp/Job-1.odb,Step-1,Increment      1: Step Time =    1.000,"P-1-1",          2755,   187.102E-03,   143.710E-03,            0.,NA,NA,"",   996.742E+03,   1.00352E+06,   1.00352E+06
C:/temp/Job-1.odb,Step-1,Increment      1: Step Time =    1.000,"P-1-1",          2756,   183.785E-03,   143.906E-03,            0.,NA,NA,"",   1.00042E+06,   1.00534E+06,   1.00534E+06
C:/temp/Job-1.odb,Step-1,Increment      1: Step Time =    1.000,"P-1-1",          2757,   180.987E-03,   145.344E-03,            0.,NA,NA,"",   1.00447E+06,   1.00733E+06,   1.00733E+06
C:/temp/Job-1.odb,Step-1,Increment      1: Step Time =    1.000,"P-1-1",          2758,   177.399E-03,   144.815E-03,            0.,NA,NA,"",   1.00900E+06,   1.00984E+06,   1.00984E+06
C:/temp/Job-1.odb,Step-1,Increment      1: Step Time =    1.000,"P-1-1",          2759,   173.342E-03,   143.894E-03,            0.,NA,NA,"",   1.01474E+06,   1.01304E+06,   1.01304E+06
C:/temp/Job-1.odb,Step-1,Increment      1: Step Time =    1.000,"P-1-1",          2760,   170.519E-03,   144.012E-03,            0.,NA,NA,"",   1.01956E+06,   1.01581E+06,   1.01581E+06
C:/temp/Job-1.odb,Step-1,Increment      1: Step Time =    1.000,"P-1-1",          2761,   166.966E-03,   143.811E-03,            0.,NA,NA,"",   1.02603E+06,   1.01965E+06,   1.01965E+06
C:/temp/Job-1.odb,Step-1,Increment      1: Step Time =    1.000,"P-1-1",          2762,   163.570E-03,   143.394E-03,            0.,NA,NA,"",   1.03262E+06,   1.02365E+06,   1.02365E+06
C:/temp/Job-1.odb,Step-1,Increment      1: Step Time =    1.000,"P-1-1",          2763,   160.474E-03,   144.165E-03,            0.,NA,NA,"",   1.03996E+06,   1.02849E+06,   1.02849E+06
C:/temp/Job-1.odb,Step-1,Increment      1: Step Time =    1.000,"P-1-1",          2764,   157.481E-03,   145.204E-03,            0.,NA,NA,"",   1.04726E+06,   1.03359E+06,   1.03359E+06
C:/temp/Job-1.odb,Step-1,Increment      1: Step Time =    1.000,"P-1-1",          2765,   154.617E-03,   143.580E-03,            0.,NA,NA,"",   1.05425E+06,   1.03810E+06,   1.03810E+06
C:/temp/Job-1.odb,Step-1,Increment      1: Step Time =    1.000,"P-1-1",          2766,   151.447E-03,   144.892E-03,            0.,NA,NA,"",   1.06268E+06,   1.04454E+06,   1.04454E+06
C:/temp/Job-1.odb,Step-1,Increment      1: Step Time =    1.000,"P-1-1",          2767,   147.688E-03,   144.604E-03,            0.,NA,NA,"",   1.07307E+06,   1.05240E+06,   1.05240E+06
C:/temp/Job-1.odb,Step-1,Increment      1: Step Time =    1.000,"P-1-1",          2768,   140.064E-03,   143.993E-03,            0.,NA,NA,"",   1.09496E+06,   1.07065E+06,   1.07065E+06
C:/temp/Job-1.odb,Step-1,Increment      1: Step Time =    1.000,"P-1-1",          2769,   137.343E-03,   143.606E-03,            0.,NA,NA,"",   1.10311E+06,   1.07822E+06,   1.07822E+06
C:/temp/Job-1.odb,Step-1,Increment      1: Step Time =    1.000,"P-1-1",          2770,   134.031E-03,   143.559E-03,            0.,NA,NA,"",   1.10974E+06,   1.08578E+06,   1.08578E+06
C:/temp/Job-1.odb,Step-1,Increment      1: Step Time =    1.000,"P-1-1",          2771,   130.249E-03,   144.914E-03,            0.,NA,NA,"",   1.10963E+06,   1.09060E+06,   1.09060E+06
C:/temp/Job-1.odb,Step-1,Increment      1: Step Time =    1.000,"P-1-1",          2772,   127.447E-03,   143.711E-03,            0.,NA,NA,"",   1.11586E+06,   1.09885E+06,   1.09885E+06
C:/temp/Job-1.odb,Step-1,Increment      1: Step Time =    1.000,"P-1-1",          2773,   124.158E-03,   144.434E-03,            0.,NA,NA,"",   1.11031E+06,   1.10040E+06,   1.10040E+06
C:/temp/Job-1.odb,Step-1,Increment      1: Step Time =    1.000,"P-1-1",          2774,   121.915E-03,   145.113E-03,            0.,NA,NA,"",   1.10258E+06,   1.09870E+06,   1.09870E+06
C:/temp/Job-1.odb,Step-1,Increment      1: Step Time =    1.000,"P-1-1",          2775,   118.364E-03,   144.925E-03,            0.,NA,NA,"",   1.09334E+06,   1.09894E+06,   1.09894E+06
C:/temp/Job-1.odb,Step-1,Increment      1: Step Time =    1.000,"P-1-1",          2776,   115.006E-03,   144.353E-03,            0.,NA,NA,"",   1.08241E+06,   1.09823E+06,   1.09823E+06
C:/temp/Job-1.odb,Step-1,Increment      1: Step Time =    1.000,"P-1-1",          2777,   112.767E-03,   143.063E-03,            0.,NA,NA,"",   1.07762E+06,   1.10108E+06,   1.10108E+06
C:/temp/Job-1.odb,Step-1,Increment      1: Step Time =    1.000,"P-1-1",          2778,   108.957E-03,   144.300E-03,            0.,NA,NA,"",   1.05447E+06,   1.08865E+06,   1.08865E+06
C:/temp/Job-1.odb,Step-1,Increment      1: Step Time =    1.000,"P-1-1",          2779,   103.517E-03,   144.372E-03,            0.,NA,NA,"",   1.03473E+06,   1.08040E+06,   1.08040E+06
C:/temp/Job-1.odb,Step-1,Increment      1: Step Time =    1.000,"P-1-1",          2780,   101.248E-03,   143.578E-03,            0.,NA,NA,"",   1.03233E+06,   1.08178E+06,   1.08178E+06
C:/temp/Job-1.odb,Step-1,Increment      1: Step Time =    1.000,"P-1-1",          2781,   98.1846E-03,   144.525E-03,            0.,NA,NA,"",   1.03126E+06,   1.07903E+06,   1.07903E+06
C:/temp/Job-1.odb,Step-1,Increment      1: Step Time =    1.000,"P-1-1",          2782,   95.5550E-03,   143.888E-03,            0.,NA,NA,"",   1.03754E+06,   1.08438E+06,   1.08438E+06
C:/temp/Job-1.odb,Step-1,Increment      1: Step Time =    1.000,"P-1-1",          2783,   92.8091E-03,   144.370E-03,            0.,NA,NA,"",   1.04569E+06,   1.08734E+06,   1.08734E+06
C:/temp/Job-1.odb,Step-1,Increment      1: Step Time =    1.000,"P-1-1",          2784,   88.2705E-03,   143.674E-03,            0.,NA,NA,"",   1.06779E+06,   1.09974E+06,   1.09974E+06
C:/temp/Job-1.odb,Step-1,Increment      1: Step Time =    1.000,"P-1-1",          2785,   85.4601E-03,   144.332E-03,            0.,NA,NA,"",   1.07749E+06,   1.10168E+06,   1.10168E+06
C:/temp/Job-1.odb,Step-1,Increment      1: Step Time =    1.000,"P-1-1",          2786,   82.1717E-03,   143.893E-03,            0.,NA,NA,"",   1.09184E+06,   1.10748E+06,   1.10748E+06
C:/temp/Job-1.odb,Step-1,Increment      1: Step Time =    1.000,"P-1-1",          2787,   78.9776E-03,   144.160E-03,            0.,NA,NA,"",   1.09875E+06,   1.10754E+06,   1.10754E+06
C:/temp/Job-1.odb,Step-1,Increment      1: Step Time =    1.000,"P-1-1",          2788,   75.3556E-03,   143.396E-03,            0.,NA,NA,"",   1.10658E+06,   1.10886E+06,   1.10886E+06
C:/temp/Job-1.odb,Step-1,Increment      1: Step Time =    1.000,"P-1-1",          2789,   71.2207E-03,   144.546E-03,            0.,NA,NA,"",   1.09994E+06,   1.09960E+06,   1.09960E+06
C:/temp/Job-1.odb,Step-1,Increment      1: Step Time =    1.000,"P-1-1",          2790,   69.2181E-03,   144.742E-03,            0.,NA,NA,"",   1.09619E+06,   1.09545E+06,   1.09545E+06
C:/temp/Job-1.odb,Step-1,Increment      1: Step Time =    1.000,"P-1-1",          2791,   66.6368E-03,   145.007E-03,            0.,NA,NA,"",   1.09046E+06,   1.09007E+06,   1.09007E+06
C:/temp/Job-1.odb,Step-1,Increment      1: Step Time =    1.000,"P-1-1",          2792,   62.0521E-03,   143.882E-03,            0.,NA,NA,"",   1.07828E+06,   1.08000E+06,   1.08000E+06
C:/temp/Job-1.odb,Step-1,Increment      1: Step Time =    1.000,"P-1-1",          2793,   60.0041E-03,   143.649E-03,            0.,NA,NA,"",   1.07079E+06,   1.07457E+06,   1.07457E+06
C:/temp/Job-1.odb,Step-1,Increment      1: Step Time =    1.000,"P-1-1",          2794,   55.7957E-03,   145.087E-03,            0.,NA,NA,"",   1.05521E+06,   1.06455E+06,   1.06455E+06
C:/temp/Job-1.odb,Step-1,Increment      1: Step Time =    1.000,"P-1-1",          2795,   52.9279E-03,   143.990E-03,            0.,NA,NA,"",   1.04240E+06,   1.05617E+06,   1.05617E+06
C:/temp/Job-1.odb,Step-1,Increment      1: Step Time =    1.000,"P-1-1",          2796,   49.4017E-03,   144.469E-03,            0.,NA,NA,"",   1.02836E+06,   1.04806E+06,   1.04806E+06
C:/temp/Job-1.odb,Step-1,Increment      1: Step Time =    1.000,"P-1-1",          2797,   46.3585E-03,   143.861E-03,            0.,NA,NA,"",   1.01399E+06,   1.03960E+06,   1.03960E+06
C:/temp/Job-1.odb,Step-1,Increment      1: Step Time =    1.000,"P-1-1",          2798,   42.7618E-03,   142.818E-03,            0.,NA,NA,"",   995.467E+03,   1.02866E+06,   1.02866E+06
C:/temp/Job-1.odb,Step-1,Increment      1: Step Time =    1.000,"P-1-1",          2799,   39.0720E-03,   143.220E-03,            0.,NA,NA,"",   981.106E+03,   1.02122E+06,   1.02122E+06
C:/temp/Job-1.odb,Step-1,Increment      1: Step Time =    1.000,"P-1-1",          2800,   36.1132E-03,   143.745E-03,            0.,NA,NA,"",   970.479E+03,   1.01618E+06,   1.01618E+06
C:/temp/Job-1.odb,Step-1,Increment      1: Step Time =    1.000,"P-1-1",          2801,   33.4995E-03,   142.969E-03,            0.,NA,NA,"",   957.087E+03,   1.00853E+06,   1.00853E+06
C:/temp/Job-1.odb,Step-1,Increment      1: Step Time =    1.000,"P-1-1",          2802,   29.5461E-03,   144.949E-03,            0.,NA,NA,"",   948.674E+03,   1.00643E+06,   1.00643E+06
C:/temp/Job-1.odb,Step-1,Increment      1: Step Time =    1.000,"P-1-1",          2803,   25.8495E-03,   144.082E-03,            0.,NA,NA,"",   930.569E+03,   996.280E+03,   996.280E+03
C:/temp/Job-1.odb,Step-1,Increment      1: Step Time =    1.000,"P-1-1",          2804,   21.4720E-03,   143.377E-03,            0.,NA,NA,"",   910.773E+03,   985.097E+03,   985.097E+03
C:/temp/Job-1.odb,Step-1,Increment      1: Step Time =    1.000,"P-1-1",          2805,   18.4957E-03,   143.534E-03,            0.,NA,NA,"",   899.714E+03,   979.295E+03,   979.295E+03
C:/temp/Job-1.odb,Step-1,Increment      1: Step Time =    1.000,"P-1-1",          2806,   16.3255E-03,   145.314E-03,            0.,NA,NA,"",   897.499E+03,   980.169E+03,   980.169E+03
C:/temp/Job-1.odb,Step-1,Increment      1: Step Time =    1.000,"P-1-1",          2807,   13.8387E-03,   144.610E-03,            0.,NA,NA,"",   884.722E+03,   972.021E+03,   972.021E+03
C:/temp/Job-1.odb,Step-1,Increment      1: Step Time =    1.000,"P-1-1",          2808,   9.71038E-03,   144.496E-03,            0.,NA,NA,"",   868.779E+03,   962.629E+03,   962.629E+03
C:/temp/Job-1.odb,Step-1,Increment      1: Step Time =    1.000,"P-1-1",          2809,   6.35429E-03,   144.444E-03,            0.,NA,NA,"",   856.039E+03,   954.749E+03,   954.749E+03
C:/temp/Job-1.odb,Step-1,Increment      1: Step Time =    1.000,"P-1-1",          2810,   3.15520E-03,   144.319E-03,            0.,NA,NA,"",   844.051E+03,   946.918E+03,   946.918E+03
C:/temp/Job-1.odb,Step-1,Increment      1: Step Time =    1.000,"P-1-1",          2811,   197.028E-03,   148.659E-03,            0.,NA,NA,"",   992.961E+03,   1.00029E+06,   1.00029E+06
C:/temp/Job-1.odb,Step-1,Increment      1: Step Time =    1.000,"P-1-1",          2812,   192.503E-03,   148.293E-03,            0.,NA,NA,"",   994.683E+03,   1.00147E+06,   1.00147E+06
C:/temp/Job-1.odb,Step-1,Increment      1: Step Time =    1.000,"P-1-1",          2813,   189.516E-03,   148.881E-03,            0.,NA,NA,"",   997.064E+03,   1.00269E+06,   1.00269E+06
C:/temp/Job-1.odb,Step-1,Increment      1: Step Time =    1.000,"P-1-1",          2814,   187.499E-03,   146.816E-03,            0.,NA,NA,"",   997.967E+03,   1.00362E+06,   1.00362E+06
C:/temp/Job-1.odb,Step-1,Increment      1: Step Time =    1.000,"P-1-1",          2815,   184.179E-03,   147.512E-03,            0.,NA,NA,"",   1.00161E+06,   1.00552E+06,   1.00552E+06
C:/temp/Job-1.odb,Step-1,Increment      1: Step Time =    1.000,"P-1-1",          2816,   179.766E-03,   148.098E-03,            0.,NA,NA,"",   1.00718E+06,   1.00860E+06,   1.00860E+06
C:/temp/Job-1.odb,Step-1,Increment      1: Step Time =    1.000,"P-1-1",          2817,   177.125E-03,   148.120E-03,            0.,NA,NA,"",   1.01066E+06,   1.01062E+06,   1.01062E+06
C:/temp/Job-1.odb,Step-1,Increment      1: Step Time =    1.000,"P-1-1",          2818,   174.248E-03,   148.466E-03,            0.,NA,NA,"",   1.01513E+06,   1.01324E+06,   1.01324E+06
C:/temp/Job-1.odb,Step-1,Increment      1: Step Time =    1.000,"P-1-1",          2819,   171.925E-03,   147.821E-03,            0.,NA,NA,"",   1.01870E+06,   1.01542E+06,   1.01542E+06
C:/temp/Job-1.odb,Step-1,Increment      1: Step Time =    1.000,"P-1-1",          2820,   167.192E-03,   146.803E-03,            0.,NA,NA,"",   1.02674E+06,   1.02034E+06,   1.02034E+06
C:/temp/Job-1.odb,Step-1,Increment      1: Step Time =    1.000,"P-1-1",          2821,   164.376E-03,   148.369E-03,            0.,NA,NA,"",   1.03252E+06,   1.02414E+06,   1.02414E+06
C:/temp/Job-1.odb,Step-1,Increment      1: Step Time =    1.000,"P-1-1",          2822,   160.918E-03,   147.560E-03,            0.,NA,NA,"",   1.03951E+06,   1.02868E+06,   1.02868E+06
C:/temp/Job-1.odb,Step-1,Increment      1: Step Time =    1.000,"P-1-1",          2823,   157.816E-03,   147.163E-03,            0.,NA,NA,"",   1.04647E+06,   1.03339E+06,   1.03339E+06
C:/temp/Job-1.odb,Step-1,Increment      1: Step Time =    1.000,"P-1-1",          2824,   154.026E-03,   147.644E-03,            0.,NA,NA,"",   1.05494E+06,   1.03954E+06,   1.03954E+06
C:/temp/Job-1.odb,Step-1,Increment      1: Step Time =    1.000,"P-1-1",          2825,   150.764E-03,   147.856E-03,            0.,NA,NA,"",   1.06265E+06,   1.04532E+06,   1.04532E+06
C:/temp/Job-1.odb,Step-1,Increment      1: Step Time =    1.000,"P-1-1",          2826,   148.203E-03,   147.811E-03,            0.,NA,NA,"",   1.06839E+06,   1.04988E+06,   1.04988E+06
C:/temp/Job-1.odb,Step-1,Increment      1: Step Time =    1.000,"P-1-1",          2827,   144.905E-03,   146.856E-03,            0.,NA,NA,"",   1.07792E+06,   1.05739E+06,   1.05739E+06
C:/temp/Job-1.odb,Step-1,Increment      1: Step Time =    1.000,"P-1-1",          2828,   141.195E-03,   146.907E-03,            0.,NA,NA,"",   1.08646E+06,   1.06504E+06,   1.06504E+06
C:/temp/Job-1.odb,Step-1,Increment      1: Step Time =    1.000,"P-1-1",          2829,   137.337E-03,   146.667E-03,            0.,NA,NA,"",   1.09473E+06,   1.07335E+06,   1.07335E+06
C:/temp/Job-1.odb,Step-1,Increment      1: Step Time =    1.000,"P-1-1",          2830,   133.670E-03,   148.856E-03,            0.,NA,NA,"",   1.09245E+06,   1.07511E+06,   1.07511E+06
C:/temp/Job-1.odb,Step-1,Increment      1: Step Time =    1.000,"P-1-1",          2831,   130.159E-03,   147.512E-03,            0.,NA,NA,"",   1.09890E+06,   1.08325E+06,   1.08325E+06
C:/temp/Job-1.odb,Step-1,Increment      1: Step Time =    1.000,"P-1-1",          2832,   127.125E-03,   148.026E-03,            0.,NA,NA,"",   1.09663E+06,   1.08539E+06,   1.08539E+06
C:/temp/Job-1.odb,Step-1,Increment      1: Step Time =    1.000,"P-1-1",          2833,   125.350E-03,   148.559E-03,            0.,NA,NA,"",   1.09219E+06,   1.08447E+06,   1.08447E+06
C:/temp/Job-1.odb,Step-1,Increment      1: Step Time =    1.000,"P-1-1",          2834,   120.646E-03,   147.844E-03,            0.,NA,NA,"",   1.08617E+06,   1.08742E+06,   1.08742E+06
C:/temp/Job-1.odb,Step-1,Increment      1: Step Time =    1.000,"P-1-1",          2835,   117.215E-03,   148.262E-03,            0.,NA,NA,"",   1.07378E+06,   1.08363E+06,   1.08363E+06
C:/temp/Job-1.odb,Step-1,Increment      1: Step Time =    1.000,"P-1-1",          2836,   114.718E-03,   147.399E-03,            0.,NA,NA,"",   1.06802E+06,   1.08442E+06,   1.08442E+06
C:/temp/Job-1.odb,Step-1,Increment      1: Step Time =    1.000,"P-1-1",          2837,   111.721E-03,   147.258E-03,            0.,NA,NA,"",   1.05657E+06,   1.08080E+06,   1.08080E+06
C:/temp/Job-1.odb,Step-1,Increment      1: Step Time =    1.000,"P-1-1",          2838,   109.051E-03,   147.087E-03,            0.,NA,NA,"",   1.04694E+06,   1.07764E+06,   1.07764E+06
C:/temp/Job-1.odb,Step-1,Increment      1: Step Time =    1.000,"P-1-1",          2839,   102.621E-03,   147.406E-03,            0.,NA,NA,"",   1.02855E+06,   1.06943E+06,   1.06943E+06
C:/temp/Job-1.odb,Step-1,Increment      1: Step Time =    1.000,"P-1-1",          2840,   100.629E-03,   147.496E-03,            0.,NA,NA,"",   1.02694E+06,   1.06867E+06,   1.06867E+06
C:/temp/Job-1.odb,Step-1,Increment      1: Step Time =    1.000,"P-1-1",          2841,   98.5755E-03,   146.678E-03,            0.,NA,NA,"",   1.02848E+06,   1.07198E+06,   1.07198E+06
C:/temp/Job-1.odb,Step-1,Increment      1: Step Time =    1.000,"P-1-1",          2842,   95.5462E-03,   147.791E-03,            0.,NA,NA,"",   1.03117E+06,   1.07092E+06,   1.07092E+06
C:/temp/Job-1.odb,Step-1,Increment      1: Step Time =    1.000,"P-1-1",          2843,   91.6126E-03,   147.407E-03,            0.,NA,NA,"",   1.04259E+06,   1.07815E+06,   1.07815E+06
C:/temp/Job-1.odb,Step-1,Increment      1: Step Time =    1.000,"P-1-1",          2844,   88.7537E-03,   146.700E-03,            0.,NA,NA,"",   1.05541E+06,   1.08610E+06,   1.08610E+06
C:/temp/Job-1.odb,Step-1,Increment      1: Step Time =    1.000,"P-1-1",          2845,   86.0398E-03,   147.457E-03,            0.,NA,NA,"",   1.06336E+06,   1.08778E+06,   1.08778E+06
C:/temp/Job-1.odb,Step-1,Increment      1: Step Time =    1.000,"P-1-1",          2846,   81.6556E-03,   147.250E-03,            0.,NA,NA,"",   1.07885E+06,   1.09422E+06,   1.09422E+06
C:/temp/Job-1.odb,Step-1,Increment      1: Step Time =    1.000,"P-1-1",          2847,   78.5702E-03,   147.167E-03,            0.,NA,NA,"",   1.08647E+06,   1.09635E+06,   1.09635E+06
C:/temp/Job-1.odb,Step-1,Increment      1: Step Time =    1.000,"P-1-1",          2848,   75.2970E-03,   147.012E-03,            0.,NA,NA,"",   1.09156E+06,   1.09671E+06,   1.09671E+06
C:/temp/Job-1.odb,Step-1,Increment      1: Step Time =    1.000,"P-1-1",          2849,   72.0569E-03,   147.928E-03,            0.,NA,NA,"",   1.08989E+06,   1.09257E+06,   1.09257E+06
C:/temp/Job-1.odb,Step-1,Increment      1: Step Time =    1.000,"P-1-1",          2850,   68.7414E-03,   148.227E-03,            0.,NA,NA,"",   1.08712E+06,   1.08855E+06,   1.08855E+06
C:/temp/Job-1.odb,Step-1,Increment      1: Step Time =    1.000,"P-1-1",          2851,   65.3575E-03,   148.450E-03,            0.,NA,NA,"",   1.08156E+06,   1.08333E+06,   1.08333E+06
C:/temp/Job-1.odb,Step-1,Increment      1: Step Time =    1.000,"P-1-1",          2852,   62.5430E-03,   147.595E-03,            0.,NA,NA,"",   1.07701E+06,   1.07965E+06,   1.07965E+06
C:/temp/Job-1.odb,Step-1,Increment      1: Step Time =    1.000,"P-1-1",          2853,   59.0537E-03,   147.351E-03,            0.,NA,NA,"",   1.06715E+06,   1.07269E+06,   1.07269E+06
C:/temp/Job-1.odb,Step-1,Increment      1: Step Time =    1.000,"P-1-1",          2854,   55.8244E-03,   147.775E-03,            0.,NA,NA,"",   1.05671E+06,   1.06598E+06,   1.06598E+06
C:/temp/Job-1.odb,Step-1,Increment      1: Step Time =    1.000,"P-1-1",          2855,   52.3819E-03,   147.303E-03,            0.,NA,NA,"",   1.04434E+06,   1.05841E+06,   1.05841E+06
C:/temp/Job-1.odb,Step-1,Increment      1: Step Time =    1.000,"P-1-1",          2856,   49.4287E-03,   147.313E-03,            0.,NA,NA,"",   1.03391E+06,   1.05245E+06,   1.05245E+06
C:/temp/Job-1.odb,Step-1,Increment      1: Step Time =    1.000,"P-1-1",          2857,   46.1156E-03,   147.331E-03,            0.,NA,NA,"",   1.02102E+06,   1.04538E+06,   1.04538E+06
C:/temp/Job-1.odb,Step-1,Increment      1: Step Time =    1.000,"P-1-1",          2858,   43.1193E-03,   147.025E-03,            0.,NA,NA,"",   1.00878E+06,   1.03870E+06,   1.03870E+06
C:/temp/Job-1.odb,Step-1,Increment      1: Step Time =    1.000,"P-1-1",          2859,   39.4619E-03,   148.348E-03,            0.,NA,NA,"",   998.590E+03,   1.03446E+06,   1.03446E+06
C:/temp/Job-1.odb,Step-1,Increment      1: Step Time =    1.000,"P-1-1",          2860,   36.3254E-03,   147.984E-03,            0.,NA,NA,"",   985.288E+03,   1.02759E+06,   1.02759E+06
C:/temp/Job-1.odb,Step-1,Increment      1: Step Time =    1.000,"P-1-1",          2861,   33.0411E-03,   148.065E-03,            0.,NA,NA,"",   973.163E+03,   1.02177E+06,   1.02177E+06
C:/temp/Job-1.odb,Step-1,Increment      1: Step Time =    1.000,"P-1-1",          2862,   29.3626E-03,   147.919E-03,            0.,NA,NA,"",   958.239E+03,   1.01433E+06,   1.01433E+06
C:/temp/Job-1.odb,Step-1,Increment      1: Step Time =    1.000,"P-1-1",          2863,   24.9681E-03,   146.878E-03,            0.,NA,NA,"",   936.591E+03,   1.00235E+06,   1.00235E+06
C:/temp/Job-1.odb,Step-1,Increment      1: Step Time =    1.000,"P-1-1",          2864,   22.5643E-03,   147.437E-03,            0.,NA,NA,"",   929.374E+03,   999.463E+03,   999.463E+03
C:/temp/Job-1.odb,Step-1,Increment      1: Step Time =    1.000,"P-1-1",          2865,   18.5331E-03,   147.516E-03,            0.,NA,NA,"",   913.453E+03,   991.261E+03,   991.261E+03
C:/temp/Job-1.odb,Step-1,Increment      1: Step Time =    1.000,"P-1-1",          2866,   16.1618E-03,   147.805E-03,            0.,NA,NA,"",   905.054E+03,   987.002E+03,   987.002E+03
C:/temp/Job-1.odb,Step-1,Increment      1: Step Time =    1.000,"P-1-1",          2867,   13.9465E-03,   147.111E-03,            0.,NA,NA,"",   893.290E+03,   979.675E+03,   979.675E+03
C:/temp/Job-1.odb,Step-1,Increment      1: Step Time =    1.000,"P-1-1",          2868,   9.52657E-03,   147.835E-03,            0.,NA,NA,"",   878.221E+03,   971.832E+03,   971.832E+03
C:/temp/Job-1.odb,Step-1,Increment      1: Step Time =    1.000,"P-1-1",          2869,   6.33385E-03,   147.583E-03,            0.,NA,NA,"",   864.657E+03,   963.281E+03,   963.281E+03
C:/temp/Job-1.odb,Step-1,Increment      1: Step Time =    1.000,"P-1-1",          2870,   3.13800E-03,   147.411E-03,            0.,NA,NA,"",   851.847E+03,   954.931E+03,   954.931E+03
C:/temp/Job-1.odb,Step-1,Increment      1: Step Time =    1.000,"P-1-1",          2871,   197.066E-03,   151.673E-03,            0.,NA,NA,"",   994.581E+03,   1.00029E+06,   1.00029E+06
C:/temp/Job-1.odb,Step-1,Increment      1: Step Time =    1.000,"P-1-1",          2872,   193.803E-03,   151.508E-03,            0.,NA,NA,"",   995.492E+03,   1.00106E+06,   1.00106E+06
C:/temp/Job-1.odb,Step-1,Increment      1: Step Time =    1.000,"P-1-1",          2873,   190.040E-03,   151.091E-03,            0.,NA,NA,"",   997.557E+03,   1.00250E+06,   1.00250E+06
C:/temp/Job-1.odb,Step-1,Increment      1: Step Time =    1.000,"P-1-1",          2874,   186.545E-03,   150.680E-03,            0.,NA,NA,"",   1.00026E+06,   1.00422E+06,   1.00422E+06
C:/temp/Job-1.odb,Step-1,Increment      1: Step Time =    1.000,"P-1-1",          2875,   183.920E-03,   152.225E-03,            0.,NA,NA,"",   1.00348E+06,   1.00589E+06,   1.00589E+06
C:/temp/Job-1.odb,Step-1,Increment      1: Step Time =    1.000,"P-1-1",          2876,   181.442E-03,   150.846E-03,            0.,NA,NA,"",   1.00577E+06,   1.00748E+06,   1.00748E+06
C:/temp/Job-1.odb,Step-1,Increment      1: Step Time =    1.000,"P-1-1",          2877,   177.033E-03,   151.464E-03,            0.,NA,NA,"",   1.01171E+06,   1.01100E+06,   1.01100E+06
C:/temp/Job-1.odb,Step-1,Increment      1: Step Time =    1.000,"P-1-1",          2878,   173.519E-03,   150.691E-03,            0.,NA,NA,"",   1.01661E+06,   1.01406E+06,   1.01406E+06
C:/temp/Job-1.odb,Step-1,Increment      1: Step Time =    1.000,"P-1-1",          2879,   171.732E-03,   150.149E-03,            0.,NA,NA,"",   1.01929E+06,   1.01574E+06,   1.01574E+06
C:/temp/Job-1.odb,Step-1,Increment      1: Step Time =    1.000,"P-1-1",          2880,   167.932E-03,   150.804E-03,            0.,NA,NA,"",   1.02575E+06,   1.01982E+06,   1.01982E+06
C:/temp/Job-1.odb,Step-1,Increment      1: Step Time =    1.000,"P-1-1",          2881,   164.969E-03,   151.199E-03,            0.,NA,NA,"",   1.03063E+06,   1.02302E+06,   1.02302E+06
C:/temp/Job-1.odb,Step-1,Increment      1: Step Time =    1.000,"P-1-1",          2882,   161.351E-03,   150.670E-03,            0.,NA,NA,"",   1.03795E+06,   1.02791E+06,   1.02791E+06
C:/temp/Job-1.odb,Step-1,Increment      1: Step Time =    1.000,"P-1-1",          2883,   158.025E-03,   151.207E-03,            0.,NA,NA,"",   1.04432E+06,   1.03239E+06,   1.03239E+06
C:/temp/Job-1.odb,Step-1,Increment      1: Step Time =    1.000,"P-1-1",          2884,   154.815E-03,   151.411E-03,            0.,NA,NA,"",   1.05045E+06,   1.03687E+06,   1.03687E+06
C:/temp/Job-1.odb,Step-1,Increment      1: Step Time =    1.000,"P-1-1",          2885,   151.179E-03,   149.964E-03,            0.,NA,NA,"",   1.05981E+06,   1.04371E+06,   1.04371E+06
C:/temp/Job-1.odb,Step-1,Increment      1: Step Time =    1.000,"P-1-1",          2886,   147.271E-03,   151.878E-03,            0.,NA,NA,"",   1.06465E+06,   1.04822E+06,   1.04822E+06
C:/temp/Job-1.odb,Step-1,Increment      1: Step Time =    1.000,"P-1-1",          2887,   144.668E-03,   152.176E-03,            0.,NA,NA,"",   1.06879E+06,   1.05200E+06,   1.05200E+06
C:/temp/Job-1.odb,Step-1,Increment      1: Step Time =    1.000,"P-1-1",          2888,   140.946E-03,   150.727E-03,            0.,NA,NA,"",   1.07825E+06,   1.06015E+06,   1.06015E+06
C:/temp/Job-1.odb,Step-1,Increment      1: Step Time =    1.000,"P-1-1",          2889,   137.659E-03,   150.473E-03,            0.,NA,NA,"",   1.08343E+06,   1.06572E+06,   1.06572E+06
C:/temp/Job-1.odb,Step-1,Increment      1: Step Time =    1.000,"P-1-1",          2890,   134.023E-03,   151.308E-03,            0.,NA,NA,"",   1.08422E+06,   1.06892E+06,   1.06892E+06
C:/temp/Job-1.odb,Step-1,Increment      1: Step Time =    1.000,"P-1-1",          2891,   130.569E-03,   150.835E-03,            0.,NA,NA,"",   1.08658E+06,   1.07386E+06,   1.07386E+06
C:/temp/Job-1.odb,Step-1,Increment      1: Step Time =    1.000,"P-1-1",          2892,   127.690E-03,   150.766E-03,            0.,NA,NA,"",   1.08528E+06,   1.07584E+06,   1.07584E+06
C:/temp/Job-1.odb,Step-1,Increment      1: Step Time =    1.000,"P-1-1",          2893,   124.583E-03,   151.634E-03,            0.,NA,NA,"",   1.07838E+06,   1.07433E+06,   1.07433E+06
C:/temp/Job-1.odb,Step-1,Increment      1: Step Time =    1.000,"P-1-1",          2894,   121.072E-03,   151.406E-03,            0.,NA,NA,"",   1.07214E+06,   1.07433E+06,   1.07433E+06
C:/temp/Job-1.odb,Step-1,Increment      1: Step Time =    1.000,"P-1-1",          2895,   117.572E-03,   151.600E-03,            0.,NA,NA,"",   1.06221E+06,   1.07135E+06,   1.07135E+06
C:/temp/Job-1.odb,Step-1,Increment      1: Step Time =    1.000,"P-1-1",          2896,   114.715E-03,   150.692E-03,            0.,NA,NA,"",   1.05654E+06,   1.07196E+06,   1.07196E+06
C:/temp/Job-1.odb,Step-1,Increment      1: Step Time =    1.000,"P-1-1",          2897,   111.332E-03,   150.446E-03,            0.,NA,NA,"",   1.04615E+06,   1.06883E+06,   1.06883E+06
C:/temp/Job-1.odb,Step-1,Increment      1: Step Time =    1.000,"P-1-1",          2898,   109.268E-03,   150.814E-03,            0.,NA,NA,"",   1.03889E+06,   1.06511E+06,   1.06511E+06
C:/temp/Job-1.odb,Step-1,Increment      1: Step Time =    1.000,"P-1-1",          2899,   104.665E-03,   151.319E-03,            0.,NA,NA,"",   1.02677E+06,   1.05921E+06,   1.05921E+06
C:/temp/Job-1.odb,Step-1,Increment      1: Step Time =    1.000,"P-1-1",          2900,   101.947E-03,   150.845E-03,            0.,NA,NA,"",   1.02405E+06,   1.05940E+06,   1.05940E+06
C:/temp/Job-1.odb,Step-1,Increment      1: Step Time =    1.000,"P-1-1",          2901,   99.1189E-03,   150.326E-03,            0.,NA,NA,"",   1.02407E+06,   1.06094E+06,   1.06094E+06
C:/temp/Job-1.odb,Step-1,Increment      1: Step Time =    1.000,"P-1-1",          2902,   94.8337E-03,   151.152E-03,            0.,NA,NA,"",   1.02826E+06,   1.06217E+06,   1.06217E+06
C:/temp/Job-1.odb,Step-1,Increment      1: Step Time =    1.000,"P-1-1",          2903,   91.0961E-03,   150.855E-03,            0.,NA,NA,"",   1.03747E+06,   1.06782E+06,   1.06782E+06
C:/temp/Job-1.odb,Step-1,Increment      1: Step Time =    1.000,"P-1-1",          2904,   89.3812E-03,   149.629E-03,            0.,NA,NA,"",   1.04510E+06,   1.07421E+06,   1.07421E+06
C:/temp/Job-1.odb,Step-1,Increment      1: Step Time =    1.000,"P-1-1",          2905,   86.6162E-03,   150.607E-03,            0.,NA,NA,"",   1.05186E+06,   1.07561E+06,   1.07561E+06
C:/temp/Job-1.odb,Step-1,Increment      1: Step Time =    1.000,"P-1-1",          2906,   82.4534E-03,   151.436E-03,            0.,NA,NA,"",   1.06194E+06,   1.07852E+06,   1.07852E+06
C:/temp/Job-1.odb,Step-1,Increment      1: Step Time =    1.000,"P-1-1",          2907,   79.5755E-03,   150.770E-03,            0.,NA,NA,"",   1.07136E+06,   1.08363E+06,   1.08363E+06
C:/temp/Job-1.odb,Step-1,Increment      1: Step Time =    1.000,"P-1-1",          2908,   75.5587E-03,   150.578E-03,            0.,NA,NA,"",   1.07899E+06,   1.08601E+06,   1.08601E+06
C:/temp/Job-1.odb,Step-1,Increment      1: Step Time =    1.000,"P-1-1",          2909,   72.3865E-03,   151.274E-03,            0.,NA,NA,"",   1.07945E+06,   1.08401E+06,   1.08401E+06
C:/temp/Job-1.odb,Step-1,Increment      1: Step Time =    1.000,"P-1-1",          2910,   68.9001E-03,   151.920E-03,            0.,NA,NA,"",   1.07789E+06,   1.08109E+06,   1.08109E+06
C:/temp/Job-1.odb,Step-1,Increment      1: Step Time =    1.000,"P-1-1",          2911,   65.0462E-03,   151.945E-03,            0.,NA,NA,"",   1.07498E+06,   1.07809E+06,   1.07809E+06
C:/temp/Job-1.odb,Step-1,Increment      1: Step Time =    1.000,"P-1-1",          2912,   62.7741E-03,   151.868E-03,            0.,NA,NA,"",   1.07206E+06,   1.07586E+06,   1.07586E+06
C:/temp/Job-1.odb,Step-1,Increment      1: Step Time =    1.000,"P-1-1",          2913,   60.4827E-03,   151.606E-03,            0.,NA,NA,"",   1.06834E+06,   1.07333E+06,   1.07333E+06
C:/temp/Job-1.odb,Step-1,Increment      1: Step Time =    1.000,"P-1-1",          2914,   55.9897E-03,   150.814E-03,            0.,NA,NA,"",   1.05800E+06,   1.06696E+06,   1.06696E+06
C:/temp/Job-1.odb,Step-1,Increment      1: Step Time =    1.000,"P-1-1",          2915,   52.6609E-03,   151.479E-03,            0.,NA,NA,"",   1.04918E+06,   1.06191E+06,   1.06191E+06
C:/temp/Job-1.odb,Step-1,Increment      1: Step Time =    1.000,"P-1-1",          2916,   50.0314E-03,   151.050E-03,            0.,NA,NA,"",   1.04075E+06,   1.05726E+06,   1.05726E+06
C:/temp/Job-1.odb,Step-1,Increment      1: Step Time =    1.000,"P-1-1",          2917,   46.1598E-03,   150.907E-03,            0.,NA,NA,"",   1.02829E+06,   1.05073E+06,   1.05073E+06
C:/temp/Job-1.odb,Step-1,Increment      1: Step Time =    1.000,"P-1-1",          2918,   42.3198E-03,   150.817E-03,            0.,NA,NA,"",   1.01536E+06,   1.04437E+06,   1.04437E+06
C:/temp/Job-1.odb,Step-1,Increment      1: Step Time =    1.000,"P-1-1",          2919,   35.0637E-03,   150.765E-03,            0.,NA,NA,"",   989.201E+03,   1.03186E+06,   1.03186E+06
C:/temp/Job-1.odb,Step-1,Increment      1: Step Time =    1.000,"P-1-1",          2920,   32.0408E-03,   151.118E-03,            0.,NA,NA,"",   978.961E+03,   1.02759E+06,   1.02759E+06
C:/temp/Job-1.odb,Step-1,Increment      1: Step Time =    1.000,"P-1-1",          2921,   29.4995E-03,   150.850E-03,            0.,NA,NA,"",   968.854E+03,   1.02269E+06,   1.02269E+06
C:/temp/Job-1.odb,Step-1,Increment      1: Step Time =    1.000,"P-1-1",          2922,   25.9348E-03,   151.134E-03,            0.,NA,NA,"",   955.996E+03,   1.01688E+06,   1.01688E+06
C:/temp/Job-1.odb,Step-1,Increment      1: Step Time =    1.000,"P-1-1",          2923,   22.4483E-03,   151.284E-03,            0.,NA,NA,"",   942.852E+03,   1.01075E+06,   1.01075E+06
C:/temp/Job-1.odb,Step-1,Increment      1: Step Time =    1.000,"P-1-1",          2924,   19.1229E-03,   150.255E-03,            0.,NA,NA,"",   925.503E+03,   1.00076E+06,   1.00076E+06
C:/temp/Job-1.odb,Step-1,Increment      1: Step Time =    1.000,"P-1-1",          2925,   15.9822E-03,   150.751E-03,            0.,NA,NA,"",   914.353E+03,   995.581E+03,   995.581E+03
C:/temp/Job-1.odb,Step-1,Increment      1: Step Time =    1.000,"P-1-1",          2926,   12.7059E-03,   151.177E-03,            0.,NA,NA,"",   901.819E+03,   989.201E+03,   989.201E+03
C:/temp/Job-1.odb,Step-1,Increment      1: Step Time =    1.000,"P-1-1",          2927,   9.44177E-03,   150.999E-03,            0.,NA,NA,"",   887.684E+03,   980.955E+03,   980.955E+03
C:/temp/Job-1.odb,Step-1,Increment      1: Step Time =    1.000,"P-1-1",          2928,   6.22613E-03,   150.683E-03,            0.,NA,NA,"",   873.308E+03,   971.947E+03,   971.947E+03
C:/temp/Job-1.odb,Step-1,Increment      1: Step Time =    1.000,"P-1-1",          2929,   3.08500E-03,   150.491E-03,            0.,NA,NA,"",   859.969E+03,   963.272E+03,   963.272E+03
C:/temp/Job-1.odb,Step-1,Increment      1: Step Time =    1.000,"P-1-1",          2930,   197.146E-03,   154.491E-03,            0.,NA,NA,"",   995.883E+03,   1.00026E+06,   1.00026E+06
C:/temp/Job-1.odb,Step-1,Increment      1: Step Time =    1.000,"P-1-1",          2931,   193.937E-03,   154.618E-03,            0.,NA,NA,"",   996.700E+03,   1.00098E+06,   1.00098E+06
C:/temp/Job-1.odb,Step-1,Increment      1: Step Time =    1.000,"P-1-1",          2932,   190.186E-03,   154.460E-03,            0.,NA,NA,"",   998.621E+03,   1.00240E+06,   1.00240E+06
C:/temp/Job-1.odb,Step-1,Increment      1: Step Time =    1.000,"P-1-1",          2933,   186.731E-03,   154.326E-03,            0.,NA,NA,"",   1.00116E+06,   1.00410E+06,   1.00410E+06
C:/temp/Job-1.odb,Step-1,Increment      1: Step Time =    1.000,"P-1-1",          2934,   183.877E-03,   155.232E-03,            0.,NA,NA,"",   1.00398E+06,   1.00575E+06,   1.00575E+06
C:/temp/Job-1.odb,Step-1,Increment      1: Step Time =    1.000,"P-1-1",          2935,   180.394E-03,   154.762E-03,            0.,NA,NA,"",   1.00774E+06,   1.00819E+06,   1.00819E+06
C:/temp/Job-1.odb,Step-1,Increment      1: Step Time =    1.000,"P-1-1",          2936,   176.459E-03,   154.009E-03,            0.,NA,NA,"",   1.01252E+06,   1.01128E+06,   1.01128E+06
C:/temp/Job-1.odb,Step-1,Increment      1: Step Time =    1.000,"P-1-1",          2937,   173.208E-03,   153.065E-03,            0.,NA,NA,"",   1.01734E+06,   1.01439E+06,   1.01439E+06
C:/temp/Job-1.odb,Step-1,Increment      1: Step Time =    1.000,"P-1-1",          2938,   170.553E-03,   154.011E-03,            0.,NA,NA,"",   1.02088E+06,   1.01660E+06,   1.01660E+06
C:/temp/Job-1.odb,Step-1,Increment      1: Step Time =    1.000,"P-1-1",          2939,   167.100E-03,   153.851E-03,            0.,NA,NA,"",   1.02660E+06,   1.02035E+06,   1.02035E+06
C:/temp/Job-1.odb,Step-1,Increment      1: Step Time =    1.000,"P-1-1",          2940,   164.410E-03,   154.694E-03,            0.,NA,NA,"",   1.03060E+06,   1.02302E+06,   1.02302E+06
C:/temp/Job-1.odb,Step-1,Increment      1: Step Time =    1.000,"P-1-1",          2941,   161.127E-03,   154.441E-03,            0.,NA,NA,"",   1.03650E+06,   1.02709E+06,   1.02709E+06
C:/temp/Job-1.odb,Step-1,Increment      1: Step Time =    1.000,"P-1-1",          2942,   158.064E-03,   154.103E-03,            0.,NA,NA,"",   1.04218E+06,   1.03112E+06,   1.03112E+06
C:/temp/Job-1.odb,Step-1,Increment      1: Step Time =    1.000,"P-1-1",          2943,   154.460E-03,   153.359E-03,            0.,NA,NA,"",   1.04937E+06,   1.03636E+06,   1.03636E+06
C:/temp/Job-1.odb,Step-1,Increment      1: Step Time =    1.000,"P-1-1",          2944,   150.972E-03,   153.229E-03,            0.,NA,NA,"",   1.05607E+06,   1.04154E+06,   1.04154E+06
C:/temp/Job-1.odb,Step-1,Increment      1: Step Time =    1.000,"P-1-1",          2945,   147.412E-03,   154.962E-03,            0.,NA,NA,"",   1.05947E+06,   1.04487E+06,   1.04487E+06
C:/temp/Job-1.odb,Step-1,Increment      1: Step Time =    1.000,"P-1-1",          2946,   144.922E-03,   154.792E-03,            0.,NA,NA,"",   1.06339E+06,   1.04831E+06,   1.04831E+06
C:/temp/Job-1.odb,Step-1,Increment      1: Step Time =    1.000,"P-1-1",          2947,   140.978E-03,   154.117E-03,            0.,NA,NA,"",   1.06996E+06,   1.05452E+06,   1.05452E+06
C:/temp/Job-1.odb,Step-1,Increment      1: Step Time =    1.000,"P-1-1",          2948,   137.604E-03,   154.239E-03,            0.,NA,NA,"",   1.07264E+06,   1.05821E+06,   1.05821E+06
C:/temp/Job-1.odb,Step-1,Increment      1: Step Time =    1.000,"P-1-1",          2949,   134.619E-03,   154.088E-03,            0.,NA,NA,"",   1.07497E+06,   1.06182E+06,   1.06182E+06
C:/temp/Job-1.odb,Step-1,Increment      1: Step Time =    1.000,"P-1-1",          2950,   130.687E-03,   154.102E-03,            0.,NA,NA,"",   1.07480E+06,   1.06474E+06,   1.06474E+06
C:/temp/Job-1.odb,Step-1,Increment      1: Step Time =    1.000,"P-1-1",          2951,   127.776E-03,   154.683E-03,            0.,NA,NA,"",   1.07047E+06,   1.06397E+06,   1.06397E+06
C:/temp/Job-1.odb,Step-1,Increment      1: Step Time =    1.000,"P-1-1",          2952,   124.867E-03,   154.918E-03,            0.,NA,NA,"",   1.06636E+06,   1.06369E+06,   1.06369E+06
C:/temp/Job-1.odb,Step-1,Increment      1: Step Time =    1.000,"P-1-1",          2953,   120.855E-03,   154.807E-03,            0.,NA,NA,"",   1.05929E+06,   1.06282E+06,   1.06282E+06
C:/temp/Job-1.odb,Step-1,Increment      1: Step Time =    1.000,"P-1-1",          2954,   116.644E-03,   154.245E-03,            0.,NA,NA,"",   1.05104E+06,   1.06178E+06,   1.06178E+06
C:/temp/Job-1.odb,Step-1,Increment      1: Step Time =    1.000,"P-1-1",          2955,   114.221E-03,   154.078E-03,            0.,NA,NA,"",   1.04505E+06,   1.06003E+06,   1.06003E+06
C:/temp/Job-1.odb,Step-1,Increment      1: Step Time =    1.000,"P-1-1",          2956,   111.826E-03,   154.165E-03,            0.,NA,NA,"",   1.03825E+06,   1.05739E+06,   1.05739E+06
C:/temp/Job-1.odb,Step-1,Increment      1: Step Time =    1.000,"P-1-1",          2957,   108.980E-03,   153.890E-03,            0.,NA,NA,"",   1.03156E+06,   1.05521E+06,   1.05521E+06
C:/temp/Job-1.odb,Step-1,Increment      1: Step Time =    1.000,"P-1-1",          2958,   101.251E-03,   155.201E-03,            0.,NA,NA,"",   1.01891E+06,   1.04816E+06,   1.04816E+06
C:/temp/Job-1.odb,Step-1,Increment      1: Step Time =    1.000,"P-1-1",          2959,   97.3851E-03,   154.566E-03,            0.,NA,NA,"",   1.02057E+06,   1.05071E+06,   1.05071E+06
C:/temp/Job-1.odb,Step-1,Increment      1: Step Time =    1.000,"P-1-1",          2960,   95.2438E-03,   154.088E-03,            0.,NA,NA,"",   1.02366E+06,   1.05366E+06,   1.05366E+06
C:/temp/Job-1.odb,Step-1,Increment      1: Step Time =    1.000,"P-1-1",          2961,   91.9330E-03,   153.769E-03,            0.,NA,NA,"",   1.03018E+06,   1.05823E+06,   1.05823E+06
C:/temp/Job-1.odb,Step-1,Increment      1: Step Time =    1.000,"P-1-1",          2962,   87.8493E-03,   154.273E-03,            0.,NA,NA,"",   1.03950E+06,   1.06251E+06,   1.06251E+06
C:/temp/Job-1.odb,Step-1,Increment      1: Step Time =    1.000,"P-1-1",          2963,   85.2515E-03,   153.945E-03,            0.,NA,NA,"",   1.04731E+06,   1.06705E+06,   1.06705E+06
C:/temp/Job-1.odb,Step-1,Increment      1: Step Time =    1.000,"P-1-1",          2964,   82.6255E-03,   154.251E-03,            0.,NA,NA,"",   1.05353E+06,   1.06963E+06,   1.06963E+06
C:/temp/Job-1.odb,Step-1,Increment      1: Step Time =    1.000,"P-1-1",          2965,   80.0765E-03,   153.250E-03,            0.,NA,NA,"",   1.06235E+06,   1.07514E+06,   1.07514E+06
C:/temp/Job-1.odb,Step-1,Increment      1: Step Time =    1.000,"P-1-1",          2966,   76.1848E-03,   154.308E-03,            0.,NA,NA,"",   1.06670E+06,   1.07511E+06,   1.07511E+06
C:/temp/Job-1.odb,Step-1,Increment      1: Step Time =    1.000,"P-1-1",          2967,   71.5812E-03,   154.489E-03,            0.,NA,NA,"",   1.07091E+06,   1.07593E+06,   1.07593E+06
C:/temp/Job-1.odb,Step-1,Increment      1: Step Time =    1.000,"P-1-1",          2968,   69.7535E-03,   155.202E-03,            0.,NA,NA,"",   1.06993E+06,    1.0743E+06,    1.0743E+06
C:/temp/Job-1.odb,Step-1,Increment      1: Step Time =    1.000,"P-1-1",          2969,   65.3218E-03,   155.706E-03,            0.,NA,NA,"",   1.06848E+06,   1.07231E+06,   1.07231E+06
C:/temp/Job-1.odb,Step-1,Increment      1: Step Time =    1.000,"P-1-1",          2970,   62.3615E-03,   155.342E-03,            0.,NA,NA,"",   1.06671E+06,   1.07116E+06,   1.07116E+06
C:/temp/Job-1.odb,Step-1,Increment      1: Step Time =    1.000,"P-1-1",          2971,   58.9491E-03,   154.579E-03,            0.,NA,NA,"",   1.06316E+06,   1.06930E+06,   1.06930E+06
C:/temp/Job-1.odb,Step-1,Increment      1: Step Time =    1.000,"P-1-1",          2972,   54.9751E-03,   154.712E-03,            0.,NA,NA,"",   1.05589E+06,   1.06530E+06,   1.06530E+06
C:/temp/Job-1.odb,Step-1,Increment      1: Step Time =    1.000,"P-1-1",          2973,   52.7342E-03,   154.515E-03,            0.,NA,NA,"",   1.05096E+06,   1.06279E+06,   1.06279E+06
C:/temp/Job-1.odb,Step-1,Increment      1: Step Time =    1.000,"P-1-1",          2974,   49.8106E-03,   155.268E-03,            0.,NA,NA,"",   1.04450E+06,   1.05962E+06,   1.05962E+06
C:/temp/Job-1.odb,Step-1,Increment      1: Step Time =    1.000,"P-1-1",          2975,   47.1110E-03,   154.278E-03,            0.,NA,NA,"",   1.03642E+06,   1.05576E+06,   1.05576E+06
C:/temp/Job-1.odb,Step-1,Increment      1: Step Time =    1.000,"P-1-1",          2976,   42.3041E-03,   154.745E-03,            0.,NA,NA,"",   1.02361E+06,   1.05018E+06,   1.05018E+06
C:/temp/Job-1.odb,Step-1,Increment      1: Step Time =    1.000,"P-1-1",          2977,   38.4348E-03,   153.745E-03,            0.,NA,NA,"",   1.00946E+06,   1.04354E+06,   1.04354E+06
C:/temp/Job-1.odb,Step-1,Increment      1: Step Time =    1.000,"P-1-1",          2978,   35.6451E-03,   154.314E-03,            0.,NA,NA,"",   1.00192E+06,   1.04073E+06,   1.04073E+06
C:/temp/Job-1.odb,Step-1,Increment      1: Step Time =    1.000,"P-1-1",          2979,   32.2197E-03,   154.639E-03,            0.,NA,NA,"",   991.154E+03,   1.03650E+06,   1.03650E+06
C:/temp/Job-1.odb,Step-1,Increment      1: Step Time =    1.000,"P-1-1",          2980,   29.5563E-03,   154.772E-03,            0.,NA,NA,"",   982.620E+03,   1.03302E+06,   1.03302E+06
C:/temp/Job-1.odb,Step-1,Increment      1: Step Time =    1.000,"P-1-1",          2981,   26.3870E-03,   153.365E-03,            0.,NA,NA,"",   965.430E+03,   1.02379E+06,   1.02379E+06
C:/temp/Job-1.odb,Step-1,Increment      1: Step Time =    1.000,"P-1-1",          2982,   23.6643E-03,   153.994E-03,            0.,NA,NA,"",   957.743E+03,   1.02111E+06,   1.02111E+06
C:/temp/Job-1.odb,Step-1,Increment      1: Step Time =    1.000,"P-1-1",          2983,   19.7858E-03,   152.842E-03,            0.,NA,NA,"",   937.593E+03,   1.01013E+06,   1.01013E+06
C:/temp/Job-1.odb,Step-1,Increment      1: Step Time =    1.000,"P-1-1",          2984,   17.3908E-03,   154.721E-03,            0.,NA,NA,"",   934.356E+03,   1.01091E+06,   1.01091E+06
C:/temp/Job-1.odb,Step-1,Increment      1: Step Time =    1.000,"P-1-1",          2985,   13.0561E-03,   154.400E-03,            0.,NA,NA,"",   914.738E+03,   1.00035E+06,   1.00035E+06
C:/temp/Job-1.odb,Step-1,Increment      1: Step Time =    1.000,"P-1-1",          2986,   9.22508E-03,   153.948E-03,            0.,NA,NA,"",   896.372E+03,   989.500E+03,   989.500E+03
C:/temp/Job-1.odb,Step-1,Increment      1: Step Time =    1.000,"P-1-1",          2987,   6.08851E-03,   153.660E-03,            0.,NA,NA,"",   881.881E+03,   980.529E+03,   980.529E+03
C:/temp/Job-1.odb,Step-1,Increment      1: Step Time =    1.000,"P-1-1",          2988,   3.03526E-03,   153.550E-03,            0.,NA,NA,"",   868.550E+03,   972.034E+03,   972.034E+03
C:/temp/Job-1.odb,Step-1,Increment      1: Step Time =    1.000,"P-1-1",          2989,   195.873E-03,   157.327E-03,            0.,NA,NA,"",   997.107E+03,   1.00044E+06,   1.00044E+06
C:/temp/Job-1.odb,Step-1,Increment      1: Step Time =    1.000,"P-1-1",          2990,   193.415E-03,   157.397E-03,            0.,NA,NA,"",   997.820E+03,   1.00110E+06,   1.00110E+06
C:/temp/Job-1.odb,Step-1,Increment      1: Step Time =    1.000,"P-1-1",          2991,   190.219E-03,   157.691E-03,            0.,NA,NA,"",   999.443E+03,   1.00225E+06,   1.00225E+06
C:/temp/Job-1.odb,Step-1,Increment      1: Step Time =    1.000,"P-1-1",          2992,   186.528E-03,   157.486E-03,            0.,NA,NA,"",   1.00201E+06,   1.00409E+06,   1.00409E+06
C:/temp/Job-1.odb,Step-1,Increment      1: Step Time =    1.000,"P-1-1",          2993,   183.461E-03,   158.114E-03,            0.,NA,NA,"",   1.00476E+06,   1.00580E+06,   1.00580E+06
C:/temp/Job-1.odb,Step-1,Increment      1: Step Time =    1.000,"P-1-1",          2994,   179.436E-03,   158.081E-03,            0.,NA,NA,"",   1.00886E+06,   1.00849E+06,   1.00849E+06
C:/temp/Job-1.odb,Step-1,Increment      1: Step Time =    1.000,"P-1-1",          2995,   176.923E-03,   157.336E-03,            0.,NA,NA,"",   1.01176E+06,   1.01046E+06,   1.01046E+06
C:/temp/Job-1.odb,Step-1,Increment      1: Step Time =    1.000,"P-1-1",          2996,   173.446E-03,   157.351E-03,            0.,NA,NA,"",   1.01622E+06,   1.01335E+06,   1.01335E+06
C:/temp/Job-1.odb,Step-1,Increment      1: Step Time =    1.000,"P-1-1",          2997,   170.833E-03,   158.383E-03,            0.,NA,NA,"",   1.01940E+06,   1.01536E+06,   1.01536E+06
C:/temp/Job-1.odb,Step-1,Increment      1: Step Time =    1.000,"P-1-1",          2998,   167.576E-03,   158.146E-03,            0.,NA,NA,"",   1.02403E+06,   1.01848E+06,   1.01848E+06
C:/temp/Job-1.odb,Step-1,Increment      1: Step Time =    1.000,"P-1-1",          2999,   164.320E-03,   157.903E-03,            0.,NA,NA,"",   1.02891E+06,   1.02182E+06,   1.02182E+06
C:/temp/Job-1.odb,Step-1,Increment      1: Step Time =    1.000,"P-1-1",          3000,   161.055E-03,   157.700E-03,            0.,NA,NA,"",   1.03391E+06,   1.02532E+06,   1.02532E+06
C:/temp/Job-1.odb,Step-1,Increment      1: Step Time =    1.000,"P-1-1",          3001,   158.240E-03,   157.986E-03,            0.,NA,NA,"",   1.03796E+06,   1.02825E+06,   1.02825E+06
C:/temp/Job-1.odb,Step-1,Increment      1: Step Time =    1.000,"P-1-1",          3002,   154.359E-03,   157.189E-03,            0.,NA,NA,"",   1.04498E+06,   1.03347E+06,   1.03347E+06
C:/temp/Job-1.odb,Step-1,Increment      1: Step Time =    1.000,"P-1-1",          3003,   149.458E-03,   157.380E-03,            0.,NA,NA,"",   1.05203E+06,   1.03918E+06,   1.03918E+06
C:/temp/Job-1.odb,Step-1,Increment      1: Step Time =    1.000,"P-1-1",          3004,   147.578E-03,   157.839E-03,            0.,NA,NA,"",   1.05354E+06,   1.04067E+06,   1.04067E+06
C:/temp/Job-1.odb,Step-1,Increment      1: Step Time =    1.000,"P-1-1",          3005,   144.487E-03,   158.198E-03,            0.,NA,NA,"",   1.05609E+06,   1.04328E+06,   1.04328E+06
C:/temp/Job-1.odb,Step-1,Increment      1: Step Time =    1.000,"P-1-1",          3006,   141.463E-03,   157.609E-03,            0.,NA,NA,"",   1.06059E+06,   1.04758E+06,   1.04758E+06
C:/temp/Job-1.odb,Step-1,Increment      1: Step Time =    1.000,"P-1-1",          3007,   138.761E-03,   157.124E-03,            0.,NA,NA,"",   1.06388E+06,   1.05120E+06,   1.05120E+06
C:/temp/Job-1.odb,Step-1,Increment      1: Step Time =    1.000,"P-1-1",          3008,   134.105E-03,   157.547E-03,            0.,NA,NA,"",   1.06379E+06,   1.05360E+06,   1.05360E+06
C:/temp/Job-1.odb,Step-1,Increment      1: Step Time =    1.000,"P-1-1",          3009,   130.515E-03,   157.526E-03,            0.,NA,NA,"",   1.06308E+06,   1.05550E+06,   1.05550E+06
C:/temp/Job-1.odb,Step-1,Increment      1: Step Time =    1.000,"P-1-1",          3010,   127.529E-03,   158.321E-03,            0.,NA,NA,"",   1.05800E+06,   1.05373E+06,   1.05373E+06
C:/temp/Job-1.odb,Step-1,Increment      1: Step Time =    1.000,"P-1-1",          3011,   123.720E-03,   157.887E-03,            0.,NA,NA,"",   1.05477E+06,   1.05474E+06,   1.05474E+06
C:/temp/Job-1.odb,Step-1,Increment      1: Step Time =    1.000,"P-1-1",          3012,   120.302E-03,   157.670E-03,            0.,NA,NA,"",   1.04903E+06,   1.05365E+06,   1.05365E+06
C:/temp/Job-1.odb,Step-1,Increment      1: Step Time =    1.000,"P-1-1",          3013,   118.488E-03,   158.316E-03,            0.,NA,NA,"",   1.04358E+06,   1.05083E+06,   1.05083E+06
C:/temp/Job-1.odb,Step-1,Increment      1: Step Time =    1.000,"P-1-1",          3014,   115.666E-03,   157.150E-03,            0.,NA,NA,"",   1.04054E+06,   1.05197E+06,   1.05197E+06
C:/temp/Job-1.odb,Step-1,Increment      1: Step Time =    1.000,"P-1-1",          3015,   112.406E-03,   157.814E-03,            0.,NA,NA,"",   1.03177E+06,   1.04737E+06,   1.04737E+06
C:/temp/Job-1.odb,Step-1,Increment      1: Step Time =    1.000,"P-1-1",          3016,   108.389E-03,   157.221E-03,            0.,NA,NA,"",   1.02460E+06,   1.04591E+06,   1.04591E+06
C:/temp/Job-1.odb,Step-1,Increment      1: Step Time =    1.000,"P-1-1",          3017,   103.846E-03,   157.347E-03,            0.,NA,NA,"",   1.01826E+06,   1.04345E+06,   1.04345E+06
C:/temp/Job-1.odb,Step-1,Increment      1: Step Time =    1.000,"P-1-1",          3018,   101.979E-03,   157.432E-03,            0.,NA,NA,"",   1.01696E+06,   1.04301E+06,   1.04301E+06
C:/temp/Job-1.odb,Step-1,Increment      1: Step Time =    1.000,"P-1-1",          3019,   97.8484E-03,   157.825E-03,            0.,NA,NA,"",   1.01690E+06,   1.04291E+06,   1.04291E+06
C:/temp/Job-1.odb,Step-1,Increment      1: Step Time =    1.000,"P-1-1",          3020,   94.5912E-03,   157.434E-03,            0.,NA,NA,"",   1.02061E+06,   1.04614E+06,   1.04614E+06
C:/temp/Job-1.odb,Step-1,Increment      1: Step Time =    1.000,"P-1-1",          3021,   91.4675E-03,   156.527E-03,            0.,NA,NA,"",   1.02699E+06,   1.05159E+06,   1.05159E+06
C:/temp/Job-1.odb,Step-1,Increment      1: Step Time =    1.000,"P-1-1",          3022,   88.1829E-03,   157.283E-03,            0.,NA,NA,"",   1.03276E+06,   1.05338E+06,   1.05338E+06
C:/temp/Job-1.odb,Step-1,Increment      1: Step Time =    1.000,"P-1-1",          3023,   84.5401E-03,   156.257E-03,            0.,NA,NA,"",   1.04339E+06,   1.06080E+06,   1.06080E+06
C:/temp/Job-1.odb,Step-1,Increment      1: Step Time =    1.000,"P-1-1",          3024,   82.1427E-03,   158.662E-03,            0.,NA,NA,"",   1.04321E+06,   1.05703E+06,   1.05703E+06
C:/temp/Job-1.odb,Step-1,Increment      1: Step Time =    1.000,"P-1-1",          3025,   79.2993E-03,   156.402E-03,            0.,NA,NA,"",   1.05531E+06,   1.06694E+06,   1.06694E+06
C:/temp/Job-1.odb,Step-1,Increment      1: Step Time =    1.000,"P-1-1",          3026,   76.0730E-03,   157.560E-03,            0.,NA,NA,"",   1.05787E+06,   1.06621E+06,   1.06621E+06
C:/temp/Job-1.odb,Step-1,Increment      1: Step Time =    1.000,"P-1-1",          3027,   71.3735E-03,   158.486E-03,            0.,NA,NA,"",   1.06115E+06,   1.06653E+06,   1.06653E+06
C:/temp/Job-1.odb,Step-1,Increment      1: Step Time =    1.000,"P-1-1",          3028,   68.6293E-03,   158.376E-03,            0.,NA,NA,"",   1.06304E+06,   1.06748E+06,   1.06748E+06
C:/temp/Job-1.odb,Step-1,Increment      1: Step Time =    1.000,"P-1-1",          3029,   65.8670E-03,   158.766E-03,            0.,NA,NA,"",   1.06256E+06,   1.06669E+06,   1.06669E+06
C:/temp/Job-1.odb,Step-1,Increment      1: Step Time =    1.000,"P-1-1",          3030,   62.7143E-03,   158.085E-03,            0.,NA,NA,"",   1.06307E+06,   1.06755E+06,   1.06755E+06
C:/temp/Job-1.odb,Step-1,Increment      1: Step Time =    1.000,"P-1-1",          3031,   58.7309E-03,   158.414E-03,            0.,NA,NA,"",   1.05956E+06,   1.06567E+06,   1.06567E+06
C:/temp/Job-1.odb,Step-1,Increment      1: Step Time =    1.000,"P-1-1",          3032,   55.5027E-03,   157.535E-03,            0.,NA,NA,"",   1.05602E+06,   1.06452E+06,   1.06452E+06
C:/temp/Job-1.odb,Step-1,Increment      1: Step Time =    1.000,"P-1-1",          3033,   52.1365E-03,   159.172E-03,            0.,NA,NA,"",   1.05064E+06,   1.06174E+06,   1.06174E+06
C:/temp/Job-1.odb,Step-1,Increment      1: Step Time =    1.000,"P-1-1",          3034,   48.8200E-03,   158.461E-03,            0.,NA,NA,"",   1.04455E+06,   1.05962E+06,   1.05962E+06
C:/temp/Job-1.odb,Step-1,Increment      1: Step Time =    1.000,"P-1-1",          3035,   46.0343E-03,   157.077E-03,            0.,NA,NA,"",   1.03746E+06,   1.05679E+06,   1.05679E+06
C:/temp/Job-1.odb,Step-1,Increment      1: Step Time =    1.000,"P-1-1",          3036,   41.8929E-03,   158.306E-03,            0.,NA,NA,"",   1.02935E+06,   1.05418E+06,   1.05418E+06
C:/temp/Job-1.odb,Step-1,Increment      1: Step Time =    1.000,"P-1-1",          3037,   36.6526E-03,   158.054E-03,            0.,NA,NA,"",   1.01510E+06,   1.04900E+06,   1.04900E+06
C:/temp/Job-1.odb,Step-1,Increment      1: Step Time =    1.000,"P-1-1",          3038,   32.1446E-03,   156.844E-03,            0.,NA,NA,"",   997.836E+03,   1.04142E+06,   1.04142E+06
C:/temp/Job-1.odb,Step-1,Increment      1: Step Time =    1.000,"P-1-1",          3039,   29.1837E-03,   158.429E-03,            0.,NA,NA,"",   993.638E+03,   1.04184E+06,   1.04184E+06
C:/temp/Job-1.odb,Step-1,Increment      1: Step Time =    1.000,"P-1-1",          3040,   25.8038E-03,   157.572E-03,            0.,NA,NA,"",   978.964E+03,   1.03512E+06,   1.03512E+06
C:/temp/Job-1.odb,Step-1,Increment      1: Step Time =    1.000,"P-1-1",          3041,   22.4643E-03,   158.366E-03,            0.,NA,NA,"",   969.621E+03,   1.03238E+06,   1.03238E+06
C:/temp/Job-1.odb,Step-1,Increment      1: Step Time =    1.000,"P-1-1",          3042,   18.8169E-03,   157.390E-03,            0.,NA,NA,"",   951.150E+03,   1.02281E+06,   1.02281E+06
C:/temp/Job-1.odb,Step-1,Increment      1: Step Time =    1.000,"P-1-1",          3043,   16.0708E-03,   156.844E-03,            0.,NA,NA,"",   937.363E+03,   1.01530E+06,   1.01530E+06
C:/temp/Job-1.odb,Step-1,Increment      1: Step Time =    1.000,"P-1-1",          3044,   13.3043E-03,   157.482E-03,            0.,NA,NA,"",   927.861E+03,   1.01147E+06,   1.01147E+06
C:/temp/Job-1.odb,Step-1,Increment      1: Step Time =    1.000,"P-1-1",          3045,   10.5075E-03,   157.888E-03,            0.,NA,NA,"",   916.030E+03,   1.00563E+06,   1.00563E+06
C:/temp/Job-1.odb,Step-1,Increment      1: Step Time =    1.000,"P-1-1",          3046,   6.08725E-03,   158.150E-03,            0.,NA,NA,"",   896.954E+03,   995.150E+03,   995.150E+03
C:/temp/Job-1.odb,Step-1,Increment      1: Step Time =    1.000,"P-1-1",          3047,   3.03586E-03,   156.624E-03,            0.,NA,NA,"",   877.987E+03,   981.538E+03,   981.538E+03
C:/temp/Job-1.odb,Step-1,Increment      1: Step Time =    1.000,"P-1-1",          3048,   196.712E-03,   161.297E-03,            0.,NA,NA,"",   998.282E+03,   1.00029E+06,   1.00029E+06
C:/temp/Job-1.odb,Step-1,Increment      1: Step Time =    1.000,"P-1-1",          3049,   193.764E-03,   161.193E-03,            0.,NA,NA,"",   998.755E+03,   1.00093E+06,   1.00093E+06
C:/temp/Job-1.odb,Step-1,Increment      1: Step Time =    1.000,"P-1-1",          3050,   189.809E-03,   160.623E-03,            0.,NA,NA,"",   1.00030E+06,   1.00232E+06,   1.00232E+06
C:/temp/Job-1.odb,Step-1,Increment      1: Step Time =    1.000,"P-1-1",          3051,   187.946E-03,   161.520E-03,            0.,NA,NA,"",   1.00151E+06,   1.00307E+06,   1.00307E+06
C:/temp/Job-1.odb,Step-1,Increment      1: Step Time =    1.000,"P-1-1",          3052,   183.956E-03,   160.442E-03,            0.,NA,NA,"",   1.00436E+06,   1.00521E+06,   1.00521E+06
C:/temp/Job-1.odb,Step-1,Increment      1: Step Time =    1.000,"P-1-1",          3053,   179.792E-03,   161.328E-03,            0.,NA,NA,"",   1.00821E+06,   1.00770E+06,   1.00770E+06
C:/temp/Job-1.odb,Step-1,Increment      1: Step Time =    1.000,"P-1-1",          3054,   176.438E-03,   160.324E-03,            0.,NA,NA,"",   1.01184E+06,   1.01020E+06,   1.01020E+06
C:/temp/Job-1.odb,Step-1,Increment      1: Step Time =    1.000,"P-1-1",          3055,   174.119E-03,   161.332E-03,            0.,NA,NA,"",   1.01421E+06,   1.01168E+06,   1.01168E+06
C:/temp/Job-1.odb,Step-1,Increment      1: Step Time =    1.000,"P-1-1",          3056,   170.836E-03,   161.323E-03,            0.,NA,NA,"",   1.01807E+06,   1.01426E+06,   1.01426E+06
C:/temp/Job-1.odb,Step-1,Increment      1: Step Time =    1.000,"P-1-1",          3057,   167.546E-03,   161.242E-03,            0.,NA,NA,"",   1.02223E+06,   1.01708E+06,   1.01708E+06
C:/temp/Job-1.odb,Step-1,Increment      1: Step Time =    1.000,"P-1-1",          3058,   164.335E-03,   160.935E-03,            0.,NA,NA,"",   1.02662E+06,   1.02013E+06,   1.02013E+06
C:/temp/Job-1.odb,Step-1,Increment      1: Step Time =    1.000,"P-1-1",          3059,   160.784E-03,   161.505E-03,            0.,NA,NA,"",   1.03058E+06,   1.02292E+06,   1.02292E+06
C:/temp/Job-1.odb,Step-1,Increment      1: Step Time =    1.000,"P-1-1",          3060,   157.695E-03,   160.871E-03,            0.,NA,NA,"",   1.03573E+06,   1.02669E+06,   1.02669E+06
C:/temp/Job-1.odb,Step-1,Increment      1: Step Time =    1.000,"P-1-1",          3061,   154.577E-03,   160.962E-03,            0.,NA,NA,"",   1.03938E+06,   1.02949E+06,   1.02949E+06
C:/temp/Job-1.odb,Step-1,Increment      1: Step Time =    1.000,"P-1-1",          3062,   150.376E-03,   161.534E-03,            0.,NA,NA,"",   1.04331E+06,   1.03275E+06,   1.03275E+06
C:/temp/Job-1.odb,Step-1,Increment      1: Step Time =    1.000,"P-1-1",          3063,   147.725E-03,   160.873E-03,            0.,NA,NA,"",   1.04751E+06,   1.03627E+06,   1.03627E+06
C:/temp/Job-1.odb,Step-1,Increment      1: Step Time =    1.000,"P-1-1",          3064,   144.147E-03,   161.141E-03,            0.,NA,NA,"",   1.05031E+06,   1.03912E+06,   1.03912E+06
C:/temp/Job-1.odb,Step-1,Increment      1: Step Time =    1.000,"P-1-1",          3065,   141.116E-03,   160.947E-03,            0.,NA,NA,"",   1.05246E+06,   1.04160E+06,   1.04160E+06
C:/temp/Job-1.odb,Step-1,Increment      1: Step Time =    1.000,"P-1-1",          3066,   137.635E-03,   160.518E-03,            0.,NA,NA,"",   1.05497E+06,   1.04485E+06,   1.04485E+06
C:/temp/Job-1.odb,Step-1,Increment      1: Step Time =    1.000,"P-1-1",          3067,   134.792E-03,   161.031E-03,            0.,NA,NA,"",   1.05378E+06,   1.04521E+06,   1.04521E+06
C:/temp/Job-1.odb,Step-1,Increment      1: Step Time =    1.000,"P-1-1",          3068,   130.925E-03,   160.164E-03,            0.,NA,NA,"",   1.05510E+06,   1.04864E+06,   1.04864E+06
C:/temp/Job-1.odb,Step-1,Increment      1: Step Time =    1.000,"P-1-1",          3069,   127.327E-03,   161.310E-03,            0.,NA,NA,"",   1.04854E+06,   1.04557E+06,   1.04557E+06
C:/temp/Job-1.odb,Step-1,Increment      1: Step Time =    1.000,"P-1-1",          3070,   123.426E-03,   161.368E-03,            0.,NA,NA,"",   1.04361E+06,   1.04460E+06,   1.04460E+06
C:/temp/Job-1.odb,Step-1,Increment      1: Step Time =    1.000,"P-1-1",          3071,   120.470E-03,   161.649E-03,            0.,NA,NA,"",   1.03798E+06,   1.04243E+06,   1.04243E+06
C:/temp/Job-1.odb,Step-1,Increment      1: Step Time =    1.000,"P-1-1",          3072,   118.126E-03,   161.104E-03,            0.,NA,NA,"",   1.03532E+06,   1.04257E+06,   1.04257E+06
C:/temp/Job-1.odb,Step-1,Increment      1: Step Time =    1.000,"P-1-1",          3073,   115.882E-03,   161.129E-03,            0.,NA,NA,"",   1.03120E+06,   1.04107E+06,   1.04107E+06
C:/temp/Job-1.odb,Step-1,Increment      1: Step Time =    1.000,"P-1-1",          3074,   112.746E-03,   161.312E-03,            0.,NA,NA,"",   1.02514E+06,   1.03849E+06,   1.03849E+06
C:/temp/Job-1.odb,Step-1,Increment      1: Step Time =    1.000,"P-1-1",          3075,   108.162E-03,   161.027E-03,            0.,NA,NA,"",   1.01837E+06,   1.03629E+06,   1.03629E+06
C:/temp/Job-1.odb,Step-1,Increment      1: Step Time =    1.000,"P-1-1",          3076,   105.364E-03,   159.916E-03,            0.,NA,NA,"",   1.01662E+06,   1.03780E+06,   1.03780E+06
C:/temp/Job-1.odb,Step-1,Increment      1: Step Time =    1.000,"P-1-1",          3077,   102.067E-03,   160.625E-03,            0.,NA,NA,"",   1.01345E+06,   1.03561E+06,   1.03561E+06
C:/temp/Job-1.odb,Step-1,Increment      1: Step Time =    1.000,"P-1-1",          3078,   98.7987E-03,   160.469E-03,            0.,NA,NA,"",   1.01365E+06,   1.03646E+06,   1.03646E+06
C:/temp/Job-1.odb,Step-1,Increment      1: Step Time =    1.000,"P-1-1",          3079,   95.3605E-03,   160.852E-03,            0.,NA,NA,"",   1.01525E+06,   1.03718E+06,   1.03718E+06
C:/temp/Job-1.odb,Step-1,Increment      1: Step Time =    1.000,"P-1-1",          3080,   91.7692E-03,   159.795E-03,            0.,NA,NA,"",   1.02176E+06,   1.04309E+06,   1.04309E+06
C:/temp/Job-1.odb,Step-1,Increment      1: Step Time =    1.000,"P-1-1",          3081,   88.2448E-03,   161.150E-03,            0.,NA,NA,"",   1.02577E+06,   1.04353E+06,   1.04353E+06
C:/temp/Job-1.odb,Step-1,Increment      1: Step Time =    1.000,"P-1-1",          3082,   84.5942E-03,   160.565E-03,            0.,NA,NA,"",   1.03418E+06,   1.04928E+06,   1.04928E+06
C:/temp/Job-1.odb,Step-1,Increment      1: Step Time =    1.000,"P-1-1",          3083,   82.1042E-03,   161.047E-03,            0.,NA,NA,"",   1.03836E+06,   1.05104E+06,   1.05104E+06
C:/temp/Job-1.odb,Step-1,Increment      1: Step Time =    1.000,"P-1-1",          3084,   78.7943E-03,   160.464E-03,            0.,NA,NA,"",   1.04559E+06,   1.05577E+06,   1.05577E+06
C:/temp/Job-1.odb,Step-1,Increment      1: Step Time =    1.000,"P-1-1",          3085,   75.2005E-03,   161.238E-03,            0.,NA,NA,"",   1.04984E+06,   1.05726E+06,   1.05726E+06
C:/temp/Job-1.odb,Step-1,Increment      1: Step Time =    1.000,"P-1-1",          3086,   71.9391E-03,   162.020E-03,            0.,NA,NA,"",   1.05196E+06,   1.05753E+06,   1.05753E+06
C:/temp/Job-1.odb,Step-1,Increment      1: Step Time =    1.000,"P-1-1",          3087,   68.2203E-03,   160.920E-03,            0.,NA,NA,"",   1.05759E+06,   1.06200E+06,   1.06200E+06
C:/temp/Job-1.odb,Step-1,Increment      1: Step Time =    1.000,"P-1-1",          3088,   65.7899E-03,   160.585E-03,            0.,NA,NA,"",   1.05914E+06,   1.06330E+06,   1.06330E+06
C:/temp/Job-1.odb,Step-1,Increment      1: Step Time =    1.000,"P-1-1",          3089,   62.4818E-03,   160.316E-03,            0.,NA,NA,"",   1.05954E+06,   1.06404E+06,   1.06404E+06
C:/temp/Job-1.odb,Step-1,Increment      1: Step Time =    1.000,"P-1-1",          3090,   59.8220E-03,   161.215E-03,            0.,NA,NA,"",   1.05724E+06,   1.06253E+06,   1.06253E+06
C:/temp/Job-1.odb,Step-1,Increment      1: Step Time =    1.000,"P-1-1",          3091,   55.8527E-03,   160.660E-03,            0.,NA,NA,"",   1.05485E+06,   1.06246E+06,   1.06246E+06
C:/temp/Job-1.odb,Step-1,Increment      1: Step Time =    1.000,"P-1-1",          3092,   52.3243E-03,   161.105E-03,            0.,NA,NA,"",   1.05086E+06,   1.06111E+06,   1.06111E+06
C:/temp/Job-1.odb,Step-1,Increment      1: Step Time =    1.000,"P-1-1",          3093,   46.0292E-03,   160.578E-03,            0.,NA,NA,"",   1.04118E+06,   1.05856E+06,   1.05856E+06
C:/temp/Job-1.odb,Step-1,Increment      1: Step Time =    1.000,"P-1-1",          3094,   42.6596E-03,   160.399E-03,            0.,NA,NA,"",   1.03456E+06,   1.05668E+06,   1.05668E+06
C:/temp/Job-1.odb,Step-1,Increment      1: Step Time =    1.000,"P-1-1",          3095,   39.3882E-03,   160.935E-03,            0.,NA,NA,"",   1.02871E+06,   1.05547E+06,   1.05547E+06
C:/temp/Job-1.odb,Step-1,Increment      1: Step Time =    1.000,"P-1-1",          3096,   35.9567E-03,   160.421E-03,            0.,NA,NA,"",   1.01930E+06,   1.05244E+06,   1.05244E+06
C:/temp/Job-1.odb,Step-1,Increment      1: Step Time =    1.000,"P-1-1",          3097,   32.4533E-03,   160.541E-03,            0.,NA,NA,"",   1.01044E+06,   1.05000E+06,   1.05000E+06
C:/temp/Job-1.odb,Step-1,Increment      1: Step Time =    1.000,"P-1-1",          3098,   29.2465E-03,   160.744E-03,            0.,NA,NA,"",   1.00122E+06,   1.04730E+06,   1.04730E+06
C:/temp/Job-1.odb,Step-1,Increment      1: Step Time =    1.000,"P-1-1",          3099,   25.3110E-03,   159.545E-03,            0.,NA,NA,"",   984.603E+03,   1.03988E+06,   1.03988E+06
C:/temp/Job-1.odb,Step-1,Increment      1: Step Time =    1.000,"P-1-1",          3100,   22.4587E-03,   160.016E-03,            0.,NA,NA,"",   975.783E+03,   1.03718E+06,   1.03718E+06
C:/temp/Job-1.odb,Step-1,Increment      1: Step Time =    1.000,"P-1-1",          3101,   19.9950E-03,   160.694E-03,            0.,NA,NA,"",   969.073E+03,   1.03552E+06,   1.03552E+06
C:/temp/Job-1.odb,Step-1,Increment      1: Step Time =    1.000,"P-1-1",          3102,   15.4475E-03,   160.182E-03,            0.,NA,NA,"",   947.919E+03,   1.02544E+06,   1.02544E+06
C:/temp/Job-1.odb,Step-1,Increment      1: Step Time =    1.000,"P-1-1",          3103,   12.3945E-03,   160.431E-03,            0.,NA,NA,"",   935.284E+03,   1.01971E+06,   1.01971E+06
C:/temp/Job-1.odb,Step-1,Increment      1: Step Time =    1.000,"P-1-1",          3104,   9.37040E-03,   160.968E-03,            0.,NA,NA,"",   922.893E+03,   1.01387E+06,   1.01387E+06
C:/temp/Job-1.odb,Step-1,Increment      1: Step Time =    1.000,"P-1-1",          3105,   6.26637E-03,   161.221E-03,            0.,NA,NA,"",    909.12E+03,   1.00652E+06,   1.00652E+06
C:/temp/Job-1.odb,Step-1,Increment      1: Step Time =    1.000,"P-1-1",          3106,   3.12270E-03,   161.264E-03,            0.,NA,NA,"",   894.138E+03,   997.545E+03,   997.545E+03
C:/temp/Job-1.odb,Step-1,Increment      1: Step Time =    1.000,"P-1-1",          3107,   196.642E-03,   164.366E-03,            0.,NA,NA,"",   999.043E+03,   1.00028E+06,   1.00028E+06
C:/temp/Job-1.odb,Step-1,Increment      1: Step Time =    1.000,"P-1-1",          3108,   193.317E-03,   163.536E-03,            0.,NA,NA,"",   999.358E+03,   1.00101E+06,   1.00101E+06
C:/temp/Job-1.odb,Step-1,Increment      1: Step Time =    1.000,"P-1-1",          3109,   190.067E-03,   164.161E-03,            0.,NA,NA,"",   1.00062E+06,   1.00198E+06,   1.00198E+06
C:/temp/Job-1.odb,Step-1,Increment      1: Step Time =    1.000,"P-1-1",          3110,   186.816E-03,   163.809E-03,            0.,NA,NA,"",   1.00233E+06,   1.00333E+06,   1.00333E+06
C:/temp/Job-1.odb,Step-1,Increment      1: Step Time =    1.000,"P-1-1",          3111,   184.272E-03,   162.867E-03,            0.,NA,NA,"",   1.00416E+06,   1.00474E+06,   1.00474E+06
C:/temp/Job-1.odb,Step-1,Increment      1: Step Time =    1.000,"P-1-1",          3112,   180.501E-03,   164.139E-03,            0.,NA,NA,"",   1.00708E+06,   1.00661E+06,   1.00661E+06
C:/temp/Job-1.odb,Step-1,Increment      1: Step Time =    1.000,"P-1-1",          3113,   177.378E-03,   164.711E-03,            0.,NA,NA,"",   1.00972E+06,   1.00834E+06,   1.00834E+06
C:/temp/Job-1.odb,Step-1,Increment      1: Step Time =    1.000,"P-1-1",          3114,   174.092E-03,   164.242E-03,            0.,NA,NA,"",   1.01312E+06,   1.01068E+06,   1.01068E+06
C:/temp/Job-1.odb,Step-1,Increment      1: Step Time =    1.000,"P-1-1",          3115,   171.641E-03,   165.328E-03,            0.,NA,NA,"",   1.01499E+06,   1.01185E+06,   1.01185E+06
C:/temp/Job-1.odb,Step-1,Increment      1: Step Time =    1.000,"P-1-1",          3116,   167.683E-03,   164.538E-03,            0.,NA,NA,"",   1.01971E+06,   1.01513E+06,   1.01513E+06
C:/temp/Job-1.odb,Step-1,Increment      1: Step Time =    1.000,"P-1-1",          3117,   164.299E-03,   164.039E-03,            0.,NA,NA,"",   1.02398E+06,   1.01813E+06,   1.01813E+06
C:/temp/Job-1.odb,Step-1,Increment      1: Step Time =    1.000,"P-1-1",          3118,   161.838E-03,   164.089E-03,            0.,NA,NA,"",   1.02679E+06,   1.02013E+06,   1.02013E+06
C:/temp/Job-1.odb,Step-1,Increment      1: Step Time =    1.000,"P-1-1",          3119,   157.831E-03,   163.924E-03,            0.,NA,NA,"",   1.03126E+06,   1.02340E+06,   1.02340E+06
C:/temp/Job-1.odb,Step-1,Increment      1: Step Time =    1.000,"P-1-1",          3120,   154.718E-03,   163.730E-03,            0.,NA,NA,"",   1.03527E+06,   1.02646E+06,   1.02646E+06
C:/temp/Job-1.odb,Step-1,Increment      1: Step Time =    1.000,"P-1-1",          3121,   150.157E-03,   164.828E-03,            0.,NA,NA,"",   1.03754E+06,   1.02847E+06,   1.02847E+06
C:/temp/Job-1.odb,Step-1,Increment      1: Step Time =    1.000,"P-1-1",          3122,   147.391E-03,   164.196E-03,            0.,NA,NA,"",   1.04101E+06,   1.03144E+06,   1.03144E+06
C:/temp/Job-1.odb,Step-1,Increment      1: Step Time =    1.000,"P-1-1",          3123,   144.884E-03,   163.658E-03,            0.,NA,NA,"",   1.04379E+06,   1.03399E+06,   1.03399E+06
C:/temp/Job-1.odb,Step-1,Increment      1: Step Time =    1.000,"P-1-1",          3124,   140.627E-03,   164.403E-03,            0.,NA,NA,"",   1.04429E+06,   1.03537E+06,   1.03537E+06
C:/temp/Job-1.odb,Step-1,Increment      1: Step Time =    1.000,"P-1-1",          3125,   138.124E-03,   164.925E-03,            0.,NA,NA,"",   1.04301E+06,   1.03511E+06,   1.03511E+06
C:/temp/Job-1.odb,Step-1,Increment      1: Step Time =    1.000,"P-1-1",          3126,   135.081E-03,   164.486E-03,            0.,NA,NA,"",   1.04386E+06,   1.03695E+06,   1.03695E+06
C:/temp/Job-1.odb,Step-1,Increment      1: Step Time =    1.000,"P-1-1",          3127,   132.082E-03,   164.486E-03,            0.,NA,NA,"",   1.04296E+06,   1.03760E+06,   1.03760E+06
C:/temp/Job-1.odb,Step-1,Increment      1: Step Time =    1.000,"P-1-1",          3128,   128.289E-03,   162.882E-03,            0.,NA,NA,"",   1.04488E+06,   1.04161E+06,   1.04161E+06
C:/temp/Job-1.odb,Step-1,Increment      1: Step Time =    1.000,"P-1-1",          3129,   123.740E-03,   164.633E-03,            0.,NA,NA,"",   1.03473E+06,   1.03586E+06,   1.03586E+06
C:/temp/Job-1.odb,Step-1,Increment      1: Step Time =    1.000,"P-1-1",          3130,   121.084E-03,   164.001E-03,            0.,NA,NA,"",   1.03284E+06,   1.03640E+06,   1.03640E+06
C:/temp/Job-1.odb,Step-1,Increment      1: Step Time =    1.000,"P-1-1",          3131,   118.533E-03,   163.832E-03,            0.,NA,NA,"",   1.02936E+06,   1.03551E+06,   1.03551E+06
C:/temp/Job-1.odb,Step-1,Increment      1: Step Time =    1.000,"P-1-1",          3132,   115.426E-03,   164.145E-03,            0.,NA,NA,"",   1.02354E+06,   1.03273E+06,   1.03273E+06
C:/temp/Job-1.odb,Step-1,Increment      1: Step Time =    1.000,"P-1-1",          3133,   111.137E-03,   163.659E-03,            0.,NA,NA,"",   1.01810E+06,   1.03155E+06,   1.03155E+06
C:/temp/Job-1.odb,Step-1,Increment      1: Step Time =    1.000,"P-1-1",          3134,   108.034E-03,   163.147E-03,            0.,NA,NA,"",   1.01487E+06,   1.03110E+06,   1.03110E+06
C:/temp/Job-1.odb,Step-1,Increment      1: Step Time =    1.000,"P-1-1",          3135,   105.008E-03,   163.771E-03,            0.,NA,NA,"",   1.01111E+06,   1.02878E+06,   1.02878E+06
C:/temp/Job-1.odb,Step-1,Increment      1: Step Time =    1.000,"P-1-1",          3136,   102.744E-03,   163.984E-03,            0.,NA,NA,"",   1.00956E+06,   1.02779E+06,   1.02779E+06
C:/temp/Job-1.odb,Step-1,Increment      1: Step Time =    1.000,"P-1-1",          3137,   99.6326E-03,   163.215E-03,            0.,NA,NA,"",   1.01020E+06,   1.02996E+06,   1.02996E+06
C:/temp/Job-1.odb,Step-1,Increment      1: Step Time =    1.000,"P-1-1",          3138,   95.3288E-03,   164.032E-03,            0.,NA,NA,"",   1.01142E+06,   1.03005E+06,   1.03005E+06
C:/temp/Job-1.odb,Step-1,Increment      1: Step Time =    1.000,"P-1-1",          3139,   90.7750E-03,   164.793E-03,            0.,NA,NA,"",   1.01560E+06,   1.03191E+06,   1.03191E+06
C:/temp/Job-1.odb,Step-1,Increment      1: Step Time =    1.000,"P-1-1",          3140,   88.1450E-03,   164.743E-03,            0.,NA,NA,"",   1.01951E+06,   1.03443E+06,   1.03443E+06
C:/temp/Job-1.odb,Step-1,Increment      1: Step Time =    1.000,"P-1-1",          3141,   85.1801E-03,   163.449E-03,            0.,NA,NA,"",   1.02729E+06,   1.04112E+06,   1.04112E+06
C:/temp/Job-1.odb,Step-1,Increment      1: Step Time =    1.000,"P-1-1",          3142,   82.8801E-03,   163.607E-03,            0.,NA,NA,"",   1.03116E+06,   1.04326E+06,   1.04326E+06
C:/temp/Job-1.odb,Step-1,Increment      1: Step Time =    1.000,"P-1-1",          3143,   79.1486E-03,   163.029E-03,            0.,NA,NA,"",   1.03912E+06,   1.04879E+06,   1.04879E+06
C:/temp/Job-1.odb,Step-1,Increment      1: Step Time =    1.000,"P-1-1",          3144,   75.9607E-03,   164.759E-03,            0.,NA,NA,"",   1.03998E+06,   1.04720E+06,   1.04720E+06
C:/temp/Job-1.odb,Step-1,Increment      1: Step Time =    1.000,"P-1-1",          3145,   73.5314E-03,   163.771E-03,            0.,NA,NA,"",   1.04601E+06,   1.05214E+06,   1.05214E+06
C:/temp/Job-1.odb,Step-1,Increment      1: Step Time =    1.000,"P-1-1",          3146,   67.8585E-03,   163.881E-03,            0.,NA,NA,"",   1.05141E+06,   1.05561E+06,   1.05561E+06
C:/temp/Job-1.odb,Step-1,Increment      1: Step Time =    1.000,"P-1-1",          3147,   66.0730E-03,   164.199E-03,            0.,NA,NA,"",   1.05185E+06,   1.05586E+06,   1.05586E+06
C:/temp/Job-1.odb,Step-1,Increment      1: Step Time =    1.000,"P-1-1",          3148,   63.3038E-03,   163.325E-03,            0.,NA,NA,"",   1.05452E+06,   1.05869E+06,   1.05869E+06
C:/temp/Job-1.odb,Step-1,Increment      1: Step Time =    1.000,"P-1-1",          3149,   58.8686E-03,   163.791E-03,            0.,NA,NA,"",   1.05365E+06,   1.05901E+06,   1.05901E+06
C:/temp/Job-1.odb,Step-1,Increment      1: Step Time =    1.000,"P-1-1",          3150,   55.6865E-03,   163.465E-03,            0.,NA,NA,"",   1.05265E+06,   1.05967E+06,   1.05967E+06
C:/temp/Job-1.odb,Step-1,Increment      1: Step Time =    1.000,"P-1-1",          3151,   52.8107E-03,   164.143E-03,            0.,NA,NA,"",   1.05043E+06,   1.05920E+06,   1.05920E+06
C:/temp/Job-1.odb,Step-1,Increment      1: Step Time =    1.000,"P-1-1",          3152,   50.0297E-03,   164.630E-03,            0.,NA,NA,"",   1.04814E+06,   1.05905E+06,   1.05905E+06
C:/temp/Job-1.odb,Step-1,Increment      1: Step Time =    1.000,"P-1-1",          3153,   46.1401E-03,   163.997E-03,            0.,NA,NA,"",   1.04401E+06,   1.05926E+06,   1.05926E+06
C:/temp/Job-1.odb,Step-1,Increment      1: Step Time =    1.000,"P-1-1",          3154,   42.4187E-03,   163.657E-03,            0.,NA,NA,"",   1.03857E+06,   1.05879E+06,   1.05879E+06
C:/temp/Job-1.odb,Step-1,Increment      1: Step Time =    1.000,"P-1-1",          3155,   38.9233E-03,   164.240E-03,            0.,NA,NA,"",   1.03415E+06,   1.05885E+06,   1.05885E+06
C:/temp/Job-1.odb,Step-1,Increment      1: Step Time =    1.000,"P-1-1",          3156,   35.8959E-03,   164.123E-03,            0.,NA,NA,"",   1.02841E+06,   1.05814E+06,   1.05814E+06
C:/temp/Job-1.odb,Step-1,Increment      1: Step Time =    1.000,"P-1-1",          3157,   32.6803E-03,   164.222E-03,            0.,NA,NA,"",   1.02186E+06,   1.05735E+06,   1.05735E+06
C:/temp/Job-1.odb,Step-1,Increment      1: Step Time =    1.000,"P-1-1",          3158,   29.1534E-03,   164.453E-03,            0.,NA,NA,"",   1.01412E+06,   1.05639E+06,   1.05639E+06
C:/temp/Job-1.odb,Step-1,Increment      1: Step Time =    1.000,"P-1-1",          3159,   26.5854E-03,   163.715E-03,            0.,NA,NA,"",   1.00451E+06,   1.05293E+06,   1.05293E+06
C:/temp/Job-1.odb,Step-1,Increment      1: Step Time =    1.000,"P-1-1",          3160,   22.5914E-03,   163.057E-03,            0.,NA,NA,"",   988.811E+03,   1.04715E+06,   1.04715E+06
C:/temp/Job-1.odb,Step-1,Increment      1: Step Time =    1.000,"P-1-1",          3161,   19.8674E-03,   164.121E-03,            0.,NA,NA,"",   983.530E+03,   1.04731E+06,   1.04731E+06
C:/temp/Job-1.odb,Step-1,Increment      1: Step Time =    1.000,"P-1-1",          3162,   16.7559E-03,   163.494E-03,            0.,NA,NA,"",   968.019E+03,   1.04003E+06,   1.04003E+06
C:/temp/Job-1.odb,Step-1,Increment      1: Step Time =    1.000,"P-1-1",          3163,   12.3974E-03,   164.401E-03,            0.,NA,NA,"",   952.874E+03,   1.03515E+06,   1.03515E+06
C:/temp/Job-1.odb,Step-1,Increment      1: Step Time =    1.000,"P-1-1",          3164,   10.0619E-03,   164.361E-03,            0.,NA,NA,"",   941.304E+03,   1.02921E+06,   1.02921E+06
C:/temp/Job-1.odb,Step-1,Increment      1: Step Time =    1.000,"P-1-1",          3165,   6.42516E-03,   164.369E-03,            0.,NA,NA,"",   922.726E+03,   1.01921E+06,   1.01921E+06
C:/temp/Job-1.odb,Step-1,Increment      1: Step Time =    1.000,"P-1-1",          3166,   3.17767E-03,   164.366E-03,            0.,NA,NA,"",   906.230E+03,   1.00945E+06,   1.00945E+06
C:/temp/Job-1.odb,Step-1,Increment      1: Step Time =    1.000,"P-1-1",          3167,   196.864E-03,   167.463E-03,            0.,NA,NA,"",   999.594E+03,   1.00022E+06,   1.00022E+06
C:/temp/Job-1.odb,Step-1,Increment      1: Step Time =    1.000,"P-1-1",          3168,   193.764E-03,   167.683E-03,            0.,NA,NA,"",   999.852E+03,   1.00072E+06,   1.00072E+06
C:/temp/Job-1.odb,Step-1,Increment      1: Step Time =    1.000,"P-1-1",          3169,   190.636E-03,   167.436E-03,            0.,NA,NA,"",   1.00070E+06,   1.00158E+06,   1.00158E+06
C:/temp/Job-1.odb,Step-1,Increment      1: Step Time =    1.000,"P-1-1",          3170,   187.416E-03,   166.645E-03,            0.,NA,NA,"",   1.00208E+06,   1.00278E+06,   1.00278E+06
C:/temp/Job-1.odb,Step-1,Increment      1: Step Time =    1.000,"P-1-1",          3171,   183.277E-03,   166.901E-03,            0.,NA,NA,"",   1.00454E+06,   1.00454E+06,   1.00454E+06
C:/temp/Job-1.odb,Step-1,Increment      1: Step Time =    1.000,"P-1-1",          3172,   179.471E-03,   167.332E-03,            0.,NA,NA,"",   1.00726E+06,   1.00641E+06,   1.00641E+06
C:/temp/Job-1.odb,Step-1,Increment      1: Step Time =    1.000,"P-1-1",          3173,   176.428E-03,   167.580E-03,            0.,NA,NA,"",   1.00957E+06,   1.00796E+06,   1.00796E+06
C:/temp/Job-1.odb,Step-1,Increment      1: Step Time =    1.000,"P-1-1",          3174,   173.848E-03,   167.183E-03,            0.,NA,NA,"",   1.01194E+06,   1.00960E+06,   1.00960E+06
C:/temp/Job-1.odb,Step-1,Increment      1: Step Time =    1.000,"P-1-1",          3175,   170.833E-03,   167.928E-03,            0.,NA,NA,"",   1.01423E+06,   1.01111E+06,   1.01111E+06
C:/temp/Job-1.odb,Step-1,Increment      1: Step Time =    1.000,"P-1-1",          3176,   167.535E-03,   166.688E-03,            0.,NA,NA,"",   1.01827E+06,   1.01397E+06,   1.01397E+06
C:/temp/Job-1.odb,Step-1,Increment      1: Step Time =    1.000,"P-1-1",          3177,   166.101E-03,   166.790E-03,            0.,NA,NA,"",   1.01959E+06,   1.01488E+06,   1.01488E+06
C:/temp/Job-1.odb,Step-1,Increment      1: Step Time =    1.000,"P-1-1",          3178,   161.105E-03,   166.842E-03,            0.,NA,NA,"",   1.02448E+06,   1.01835E+06,   1.01835E+06
C:/temp/Job-1.odb,Step-1,Increment      1: Step Time =    1.000,"P-1-1",          3179,   157.931E-03,   167.348E-03,            0.,NA,NA,"",   1.02662E+06,   1.01990E+06,   1.01990E+06
C:/temp/Job-1.odb,Step-1,Increment      1: Step Time =    1.000,"P-1-1",          3180,   154.561E-03,   167.885E-03,            0.,NA,NA,"",   1.02875E+06,   1.02153E+06,   1.02153E+06
C:/temp/Job-1.odb,Step-1,Increment      1: Step Time =    1.000,"P-1-1",          3181,   150.673E-03,   168.400E-03,            0.,NA,NA,"",   1.03063E+06,   1.02313E+06,   1.02313E+06
C:/temp/Job-1.odb,Step-1,Increment      1: Step Time =    1.000,"P-1-1",          3182,   147.982E-03,   166.642E-03,            0.,NA,NA,"",   1.03563E+06,   1.02722E+06,   1.02722E+06
C:/temp/Job-1.odb,Step-1,Increment      1: Step Time =    1.000,"P-1-1",          3183,   144.307E-03,   166.608E-03,            0.,NA,NA,"",   1.03766E+06,   1.02932E+06,   1.02932E+06
C:/temp/Job-1.odb,Step-1,Increment      1: Step Time =    1.000,"P-1-1",          3184,   141.354E-03,   167.597E-03,            0.,NA,NA,"",   1.03631E+06,   1.02883E+06,   1.02883E+06
C:/temp/Job-1.odb,Step-1,Increment      1: Step Time =    1.000,"P-1-1",          3185,   137.155E-03,   168.617E-03,            0.,NA,NA,"",   1.03359E+06,   1.02760E+06,   1.02760E+06
C:/temp/Job-1.odb,Step-1,Increment      1: Step Time =    1.000,"P-1-1",          3186,   135.373E-03,   167.937E-03,            0.,NA,NA,"",   1.03496E+06,   1.02934E+06,   1.02934E+06
C:/temp/Job-1.odb,Step-1,Increment      1: Step Time =    1.000,"P-1-1",          3187,   132.325E-03,   167.601E-03,            0.,NA,NA,"",   1.03449E+06,   1.03011E+06,   1.03011E+06
C:/temp/Job-1.odb,Step-1,Increment      1: Step Time =    1.000,"P-1-1",          3188,   129.164E-03,   166.389E-03,            0.,NA,NA,"",   1.03574E+06,   1.03286E+06,   1.03286E+06
C:/temp/Job-1.odb,Step-1,Increment      1: Step Time =    1.000,"P-1-1",          3189,   123.776E-03,   167.944E-03,            0.,NA,NA,"",   1.02618E+06,   1.02737E+06,   1.02737E+06
C:/temp/Job-1.odb,Step-1,Increment      1: Step Time =    1.000,"P-1-1",          3190,   121.289E-03,   166.957E-03,            0.,NA,NA,"",   1.02558E+06,   1.02877E+06,   1.02877E+06
C:/temp/Job-1.odb,Step-1,Increment      1: Step Time =    1.000,"P-1-1",          3191,   118.460E-03,   167.037E-03,            0.,NA,NA,"",   1.02156E+06,   1.02710E+06,   1.02710E+06
C:/temp/Job-1.odb,Step-1,Increment      1: Step Time =    1.000,"P-1-1",          3192,   114.432E-03,   165.969E-03,            0.,NA,NA,"",   1.01845E+06,   1.02779E+06,   1.02779E+06
C:/temp/Job-1.odb,Step-1,Increment      1: Step Time =    1.000,"P-1-1",          3193,   111.605E-03,   166.978E-03,            0.,NA,NA,"",   1.01271E+06,   1.02368E+06,   1.02368E+06
C:/temp/Job-1.odb,Step-1,Increment      1: Step Time =    1.000,"P-1-1",          3194,   108.762E-03,   167.525E-03,            0.,NA,NA,"",   1.00857E+06,   1.02126E+06,   1.02126E+06
C:/temp/Job-1.odb,Step-1,Increment      1: Step Time =    1.000,"P-1-1",          3195,   104.389E-03,   167.299E-03,            0.,NA,NA,"",   1.00574E+06,   1.02056E+06,   1.02056E+06
C:/temp/Job-1.odb,Step-1,Increment      1: Step Time =    1.000,"P-1-1",          3196,   100.796E-03,   167.413E-03,            0.,NA,NA,"",   1.00476E+06,   1.02037E+06,   1.02037E+06
C:/temp/Job-1.odb,Step-1,Increment      1: Step Time =    1.000,"P-1-1",          3197,   98.8607E-03,   166.591E-03,            0.,NA,NA,"",   1.00617E+06,   1.02274E+06,   1.02274E+06
C:/temp/Job-1.odb,Step-1,Increment      1: Step Time =    1.000,"P-1-1",          3198,   95.8798E-03,   167.709E-03,            0.,NA,NA,"",   1.00594E+06,   1.02125E+06,   1.02125E+06
C:/temp/Job-1.odb,Step-1,Increment      1: Step Time =    1.000,"P-1-1",          3199,   91.7437E-03,   167.213E-03,            0.,NA,NA,"",   1.01034E+06,   1.02512E+06,   1.02512E+06
C:/temp/Job-1.odb,Step-1,Increment      1: Step Time =    1.000,"P-1-1",          3200,   87.8198E-03,   167.803E-03,            0.,NA,NA,"",   1.01439E+06,   1.02695E+06,   1.02695E+06
C:/temp/Job-1.odb,Step-1,Increment      1: Step Time =    1.000,"P-1-1",          3201,   85.1567E-03,   166.463E-03,            0.,NA,NA,"",   1.02117E+06,   1.03324E+06,   1.03324E+06
C:/temp/Job-1.odb,Step-1,Increment      1: Step Time =    1.000,"P-1-1",          3202,   82.1646E-03,   166.522E-03,            0.,NA,NA,"",   1.02622E+06,   1.03639E+06,   1.03639E+06
C:/temp/Job-1.odb,Step-1,Increment      1: Step Time =    1.000,"P-1-1",          3203,   79.0190E-03,   166.412E-03,            0.,NA,NA,"",   1.03154E+06,   1.03995E+06,   1.03995E+06
C:/temp/Job-1.odb,Step-1,Increment      1: Step Time =    1.000,"P-1-1",          3204,   76.1836E-03,   167.451E-03,            0.,NA,NA,"",   1.03371E+06,   1.04021E+06,   1.04021E+06
C:/temp/Job-1.odb,Step-1,Increment      1: Step Time =    1.000,"P-1-1",          3205,   73.4406E-03,   166.651E-03,            0.,NA,NA,"",   1.03936E+06,   1.04492E+06,   1.04492E+06
C:/temp/Job-1.odb,Step-1,Increment      1: Step Time =    1.000,"P-1-1",          3206,   68.4736E-03,   167.770E-03,            0.,NA,NA,"",   1.04249E+06,   1.04637E+06,   1.04637E+06
C:/temp/Job-1.odb,Step-1,Increment      1: Step Time =    1.000,"P-1-1",          3207,   65.3657E-03,   167.363E-03,            0.,NA,NA,"",   1.04596E+06,   1.04959E+06,   1.04959E+06
C:/temp/Job-1.odb,Step-1,Increment      1: Step Time =    1.000,"P-1-1",          3208,   62.3017E-03,   166.401E-03,            0.,NA,NA,"",   1.04934E+06,   1.05330E+06,   1.05330E+06
C:/temp/Job-1.odb,Step-1,Increment      1: Step Time =    1.000,"P-1-1",          3209,   59.5388E-03,   166.396E-03,            0.,NA,NA,"",   1.05014E+06,   1.05473E+06,   1.05473E+06
C:/temp/Job-1.odb,Step-1,Increment      1: Step Time =    1.000,"P-1-1",          3210,   55.1771E-03,   166.542E-03,            0.,NA,NA,"",   1.04973E+06,   1.05618E+06,   1.05618E+06
C:/temp/Job-1.odb,Step-1,Increment      1: Step Time =    1.000,"P-1-1",          3211,   52.0408E-03,   166.917E-03,            0.,NA,NA,"",   1.04865E+06,   1.05695E+06,   1.05695E+06
C:/temp/Job-1.odb,Step-1,Increment      1: Step Time =    1.000,"P-1-1",          3212,   49.0798E-03,   167.240E-03,            0.,NA,NA,"",   1.04724E+06,   1.05775E+06,   1.05775E+06
C:/temp/Job-1.odb,Step-1,Increment      1: Step Time =    1.000,"P-1-1",          3213,   46.1680E-03,   167.154E-03,            0.,NA,NA,"",   1.04553E+06,   1.05886E+06,   1.05886E+06
C:/temp/Job-1.odb,Step-1,Increment      1: Step Time =    1.000,"P-1-1",          3214,   43.4109E-03,   166.529E-03,            0.,NA,NA,"",   1.04289E+06,   1.05971E+06,   1.05971E+06
C:/temp/Job-1.odb,Step-1,Increment      1: Step Time =    1.000,"P-1-1",          3215,   39.0930E-03,   167.290E-03,            0.,NA,NA,"",   1.03952E+06,   1.06127E+06,   1.06127E+06
C:/temp/Job-1.odb,Step-1,Increment      1: Step Time =    1.000,"P-1-1",          3216,   35.3857E-03,   166.326E-03,            0.,NA,NA,"",   1.03270E+06,   1.06106E+06,   1.06106E+06
C:/temp/Job-1.odb,Step-1,Increment      1: Step Time =    1.000,"P-1-1",          3217,   32.2237E-03,   166.445E-03,            0.,NA,NA,"",   1.02743E+06,   1.06131E+06,   1.06131E+06
C:/temp/Job-1.odb,Step-1,Increment      1: Step Time =    1.000,"P-1-1",          3218,   29.5415E-03,   167.976E-03,            0.,NA,NA,"",   1.02689E+06,   1.06416E+06,   1.06416E+06
C:/temp/Job-1.odb,Step-1,Increment      1: Step Time =    1.000,"P-1-1",          3219,   26.4707E-03,   166.840E-03,            0.,NA,NA,"",   1.01648E+06,   1.06142E+06,   1.06142E+06
C:/temp/Job-1.odb,Step-1,Increment      1: Step Time =    1.000,"P-1-1",          3220,   22.6018E-03,   166.632E-03,            0.,NA,NA,"",   1.00430E+06,   1.05854E+06,   1.05854E+06
C:/temp/Job-1.odb,Step-1,Increment      1: Step Time =    1.000,"P-1-1",          3221,   19.4849E-03,   167.443E-03,            0.,NA,NA,"",   997.841E+03,   1.05878E+06,   1.05878E+06
C:/temp/Job-1.odb,Step-1,Increment      1: Step Time =    1.000,"P-1-1",          3222,   16.1482E-03,   167.693E-03,            0.,NA,NA,"",   986.088E+03,   1.05572E+06,   1.05572E+06
C:/temp/Job-1.odb,Step-1,Increment      1: Step Time =    1.000,"P-1-1",          3223,   13.6757E-03,   167.173E-03,            0.,NA,NA,"",   972.422E+03,   1.04926E+06,   1.04926E+06
C:/temp/Job-1.odb,Step-1,Increment      1: Step Time =    1.000,"P-1-1",          3224,   9.41527E-03,   167.813E-03,            0.,NA,NA,"",   954.744E+03,   1.04258E+06,   1.04258E+06
C:/temp/Job-1.odb,Step-1,Increment      1: Step Time =    1.000,"P-1-1",          3225,   6.36121E-03,   167.576E-03,            0.,NA,NA,"",   937.327E+03,   1.03302E+06,   1.03302E+06
C:/temp/Job-1.odb,Step-1,Increment      1: Step Time =    1.000,"P-1-1",          3226,   3.18152E-03,   167.486E-03,            0.,NA,NA,"",   919.592E+03,   1.02263E+06,   1.02263E+06
C:/temp/Job-1.odb,Step-1,Increment      1: Step Time =    1.000,"P-1-1",          3227,   196.981E-03,   170.449E-03,            0.,NA,NA,"",   999.963E+03,   1.00017E+06,   1.00017E+06
C:/temp/Job-1.odb,Step-1,Increment      1: Step Time =    1.000,"P-1-1",          3228,   193.836E-03,   170.425E-03,            0.,NA,NA,"",   1.00012E+06,   1.00062E+06,   1.00062E+06
C:/temp/Job-1.odb,Step-1,Increment      1: Step Time =    1.000,"P-1-1",          3229,   190.115E-03,   170.035E-03,            0.,NA,NA,"",   1.00098E+06,   1.00153E+06,   1.00153E+06
C:/temp/Job-1.odb,Step-1,Increment      1: Step Time =    1.000,"P-1-1",          3230,   186.923E-03,   169.421E-03,            0.,NA,NA,"",   1.00228E+06,   1.00264E+06,   1.00264E+06
C:/temp/Job-1.odb,Step-1,Increment      1: Step Time =    1.000,"P-1-1",          3231,   184.042E-03,   168.925E-03,            0.,NA,NA,"",   1.00376E+06,   1.00380E+06,   1.00380E+06
C:/temp/Job-1.odb,Step-1,Increment      1: Step Time =    1.000,"P-1-1",          3232,   180.604E-03,   170.096E-03,            0.,NA,NA,"",   1.00561E+06,   1.00500E+06,   1.00500E+06
C:/temp/Job-1.odb,Step-1,Increment      1: Step Time =    1.000,"P-1-1",          3233,   177.804E-03,   170.446E-03,            0.,NA,NA,"",   1.00741E+06,   1.00622E+06,   1.00622E+06
C:/temp/Job-1.odb,Step-1,Increment      1: Step Time =    1.000,"P-1-1",          3234,   173.838E-03,   171.406E-03,            0.,NA,NA,"",   1.00975E+06,   1.00775E+06,   1.00775E+06
C:/temp/Job-1.odb,Step-1,Increment      1: Step Time =    1.000,"P-1-1",          3235,   171.366E-03,   170.295E-03,            0.,NA,NA,"",   1.01221E+06,   1.00952E+06,   1.00952E+06
C:/temp/Job-1.odb,Step-1,Increment      1: Step Time =    1.000,"P-1-1",          3236,   167.480E-03,   170.680E-03,            0.,NA,NA,"",   1.01500E+06,   1.01139E+06,   1.01139E+06
C:/temp/Job-1.odb,Step-1,Increment      1: Step Time =    1.000,"P-1-1",          3237,   164.410E-03,   171.529E-03,            0.,NA,NA,"",   1.01646E+06,   1.01232E+06,   1.01232E+06
C:/temp/Job-1.odb,Step-1,Increment      1: Step Time =    1.000,"P-1-1",          3238,   160.454E-03,   170.230E-03,            0.,NA,NA,"",   1.02077E+06,   1.01547E+06,   1.01547E+06
C:/temp/Job-1.odb,Step-1,Increment      1: Step Time =    1.000,"P-1-1",          3239,   157.283E-03,   170.287E-03,            0.,NA,NA,"",   1.02323E+06,   1.01728E+06,   1.01728E+06
C:/temp/Job-1.odb,Step-1,Increment      1: Step Time =    1.000,"P-1-1",          3240,   154.367E-03,   171.305E-03,            0.,NA,NA,"",   1.02336E+06,   1.01736E+06,   1.01736E+06
C:/temp/Job-1.odb,Step-1,Increment      1: Step Time =    1.000,"P-1-1",          3241,   150.975E-03,   170.342E-03,            0.,NA,NA,"",   1.02699E+06,   1.02027E+06,   1.02027E+06
C:/temp/Job-1.odb,Step-1,Increment      1: Step Time =    1.000,"P-1-1",          3242,   146.969E-03,   169.904E-03,            0.,NA,NA,"",   1.02952E+06,   1.02252E+06,   1.02252E+06
C:/temp/Job-1.odb,Step-1,Increment      1: Step Time =    1.000,"P-1-1",          3243,   144.002E-03,   169.868E-03,            0.,NA,NA,"",   1.03046E+06,   1.02360E+06,   1.02360E+06
C:/temp/Job-1.odb,Step-1,Increment      1: Step Time =    1.000,"P-1-1",          3244,   140.809E-03,   169.884E-03,            0.,NA,NA,"",   1.03086E+06,   1.02446E+06,   1.02446E+06
C:/temp/Job-1.odb,Step-1,Increment      1: Step Time =    1.000,"P-1-1",          3245,   138.448E-03,   171.198E-03,            0.,NA,NA,"",   1.02748E+06,   1.02209E+06,   1.02209E+06
C:/temp/Job-1.odb,Step-1,Increment      1: Step Time =    1.000,"P-1-1",          3246,   134.719E-03,   169.926E-03,            0.,NA,NA,"",   1.02960E+06,   1.02495E+06,   1.02495E+06
C:/temp/Job-1.odb,Step-1,Increment      1: Step Time =    1.000,"P-1-1",          3247,   131.394E-03,   169.706E-03,            0.,NA,NA,"",   1.02837E+06,   1.02511E+06,   1.02511E+06
C:/temp/Job-1.odb,Step-1,Increment      1: Step Time =    1.000,"P-1-1",          3248,   127.582E-03,   170.344E-03,            0.,NA,NA,"",   1.02374E+06,   1.02262E+06,   1.02262E+06
C:/temp/Job-1.odb,Step-1,Increment      1: Step Time =    1.000,"P-1-1",          3249,   124.173E-03,   170.030E-03,            0.,NA,NA,"",   1.02129E+06,   1.02225E+06,   1.02225E+06
C:/temp/Job-1.odb,Step-1,Increment      1: Step Time =    1.000,"P-1-1",          3250,   121.360E-03,   170.739E-03,            0.,NA,NA,"",   1.01645E+06,   1.01920E+06,   1.01920E+06
C:/temp/Job-1.odb,Step-1,Increment      1: Step Time =    1.000,"P-1-1",          3251,   118.548E-03,   170.095E-03,            0.,NA,NA,"",   1.01473E+06,   1.01945E+06,   1.01945E+06
C:/temp/Job-1.odb,Step-1,Increment      1: Step Time =    1.000,"P-1-1",          3252,   115.682E-03,   170.464E-03,            0.,NA,NA,"",   1.01063E+06,   1.01716E+06,   1.01716E+06
C:/temp/Job-1.odb,Step-1,Increment      1: Step Time =    1.000,"P-1-1",          3253,   112.425E-03,   170.587E-03,            0.,NA,NA,"",   1.00667E+06,   1.01516E+06,   1.01516E+06
C:/temp/Job-1.odb,Step-1,Increment      1: Step Time =    1.000,"P-1-1",          3254,   108.812E-03,   170.914E-03,            0.,NA,NA,"",   1.00277E+06,   1.01296E+06,   1.01296E+06
C:/temp/Job-1.odb,Step-1,Increment      1: Step Time =    1.000,"P-1-1",          3255,   105.683E-03,   171.169E-03,            0.,NA,NA,"",   1.00020E+06,   1.01148E+06,   1.01148E+06
C:/temp/Job-1.odb,Step-1,Increment      1: Step Time =    1.000,"P-1-1",          3256,   101.025E-03,   170.637E-03,            0.,NA,NA,"",   999.877E+03,   1.01266E+06,   1.01266E+06
C:/temp/Job-1.odb,Step-1,Increment      1: Step Time =    1.000,"P-1-1",          3257,   98.2727E-03,   169.964E-03,            0.,NA,NA,"",   1.00136E+06,   1.01488E+06,   1.01488E+06
C:/temp/Job-1.odb,Step-1,Increment      1: Step Time =    1.000,"P-1-1",          3258,   95.2121E-03,   169.933E-03,            0.,NA,NA,"",   1.00297E+06,   1.01632E+06,   1.01632E+06
C:/temp/Job-1.odb,Step-1,Increment      1: Step Time =    1.000,"P-1-1",          3259,   90.8917E-03,   171.042E-03,            0.,NA,NA,"",   1.00489E+06,   1.01632E+06,   1.01632E+06
C:/temp/Job-1.odb,Step-1,Increment      1: Step Time =    1.000,"P-1-1",          3260,   87.4467E-03,   171.407E-03,            0.,NA,NA,"",   1.00843E+06,   1.01843E+06,   1.01843E+06
C:/temp/Job-1.odb,Step-1,Increment      1: Step Time =    1.000,"P-1-1",          3261,   85.1195E-03,   169.668E-03,            0.,NA,NA,"",   1.01462E+06,   1.02474E+06,   1.02474E+06
C:/temp/Job-1.odb,Step-1,Increment      1: Step Time =    1.000,"P-1-1",          3262,   82.2981E-03,   169.727E-03,            0.,NA,NA,"",   1.01898E+06,   1.02779E+06,   1.02779E+06
C:/temp/Job-1.odb,Step-1,Increment      1: Step Time =    1.000,"P-1-1",          3263,   78.4066E-03,   169.530E-03,            0.,NA,NA,"",   1.02539E+06,   1.03231E+06,   1.03231E+06
C:/temp/Job-1.odb,Step-1,Increment      1: Step Time =    1.000,"P-1-1",          3264,   75.4777E-03,   170.608E-03,            0.,NA,NA,"",   1.02707E+06,   1.03246E+06,   1.03246E+06
C:/temp/Job-1.odb,Step-1,Increment      1: Step Time =    1.000,"P-1-1",          3265,   72.3947E-03,   170.170E-03,            0.,NA,NA,"",   1.03221E+06,   1.03664E+06,   1.03664E+06
C:/temp/Job-1.odb,Step-1,Increment      1: Step Time =    1.000,"P-1-1",          3266,   68.9025E-03,   169.786E-03,            0.,NA,NA,"",   1.03734E+06,   1.04099E+06,   1.04099E+06
C:/temp/Job-1.odb,Step-1,Increment      1: Step Time =    1.000,"P-1-1",          3267,   64.8567E-03,   170.813E-03,            0.,NA,NA,"",   1.03896E+06,   1.04203E+06,   1.04203E+06
C:/temp/Job-1.odb,Step-1,Increment      1: Step Time =    1.000,"P-1-1",          3268,   61.4600E-03,   170.881E-03,            0.,NA,NA,"",   1.04152E+06,   1.04483E+06,   1.04483E+06
C:/temp/Job-1.odb,Step-1,Increment      1: Step Time =    1.000,"P-1-1",          3269,   58.4438E-03,   170.935E-03,            0.,NA,NA,"",   1.04331E+06,   1.04720E+06,   1.04720E+06
C:/temp/Job-1.odb,Step-1,Increment      1: Step Time =    1.000,"P-1-1",          3270,   55.3794E-03,   170.045E-03,            0.,NA,NA,"",   1.04582E+06,   1.05106E+06,   1.05106E+06
C:/temp/Job-1.odb,Step-1,Increment      1: Step Time =    1.000,"P-1-1",          3271,   52.3532E-03,   170.254E-03,            0.,NA,NA,"",   1.04617E+06,   1.05288E+06,   1.05288E+06
C:/temp/Job-1.odb,Step-1,Increment      1: Step Time =    1.000,"P-1-1",          3272,   49.3152E-03,   170.565E-03,            0.,NA,NA,"",   1.04615E+06,   1.05477E+06,   1.05477E+06
C:/temp/Job-1.odb,Step-1,Increment      1: Step Time =    1.000,"P-1-1",          3273,   45.5547E-03,   170.417E-03,            0.,NA,NA,"",   1.04593E+06,   1.05775E+06,   1.05775E+06
C:/temp/Job-1.odb,Step-1,Increment      1: Step Time =    1.000,"P-1-1",          3274,   43.6323E-03,   170.519E-03,            0.,NA,NA,"",   1.04558E+06,   1.05916E+06,   1.05916E+06
C:/temp/Job-1.odb,Step-1,Increment      1: Step Time =    1.000,"P-1-1",          3275,   39.8961E-03,   170.365E-03,            0.,NA,NA,"",   1.04409E+06,   1.06207E+06,   1.06207E+06
C:/temp/Job-1.odb,Step-1,Increment      1: Step Time =    1.000,"P-1-1",          3276,   36.0482E-03,   169.952E-03,            0.,NA,NA,"",   1.04119E+06,   1.06470E+06,   1.06470E+06
C:/temp/Job-1.odb,Step-1,Increment      1: Step Time =    1.000,"P-1-1",          3277,   32.2842E-03,   169.954E-03,            0.,NA,NA,"",   1.03756E+06,   1.06729E+06,   1.06729E+06
C:/temp/Job-1.odb,Step-1,Increment      1: Step Time =    1.000,"P-1-1",          3278,   29.6900E-03,   170.190E-03,            0.,NA,NA,"",   1.03434E+06,   1.06854E+06,   1.06854E+06
C:/temp/Job-1.odb,Step-1,Increment      1: Step Time =    1.000,"P-1-1",          3279,   25.0656E-03,   170.956E-03,            0.,NA,NA,"",   1.02988E+06,   1.07255E+06,   1.07255E+06
C:/temp/Job-1.odb,Step-1,Increment      1: Step Time =    1.000,"P-1-1",          3280,   22.5103E-03,   171.112E-03,            0.,NA,NA,"",   1.02484E+06,   1.07335E+06,   1.07335E+06
C:/temp/Job-1.odb,Step-1,Increment      1: Step Time =    1.000,"P-1-1",          3281,   18.8953E-03,   170.826E-03,            0.,NA,NA,"",   1.01314E+06,   1.07150E+06,   1.07150E+06
C:/temp/Job-1.odb,Step-1,Increment      1: Step Time =    1.000,"P-1-1",          3282,   15.1167E-03,   170.263E-03,            0.,NA,NA,"",   995.816E+03,   1.06548E+06,   1.06548E+06
C:/temp/Job-1.odb,Step-1,Increment      1: Step Time =    1.000,"P-1-1",          3283,   12.2763E-03,   170.952E-03,            0.,NA,NA,"",   986.814E+03,   1.06415E+06,   1.06415E+06
C:/temp/Job-1.odb,Step-1,Increment      1: Step Time =    1.000,"P-1-1",          3284,   9.33153E-03,   170.950E-03,            0.,NA,NA,"",   971.914E+03,   1.05794E+06,   1.05794E+06
C:/temp/Job-1.odb,Step-1,Increment      1: Step Time =    1.000,"P-1-1",          3285,   6.26049E-03,   170.767E-03,            0.,NA,NA,"",   953.701E+03,   1.04856E+06,   1.04856E+06
C:/temp/Job-1.odb,Step-1,Increment      1: Step Time =    1.000,"P-1-1",          3286,   3.13540E-03,   170.619E-03,            0.,NA,NA,"",   934.690E+03,   1.03758E+06,   1.03758E+06
C:/temp/Job-1.odb,Step-1,Increment      1: Step Time =    1.000,"P-1-1",          3287,   196.948E-03,   173.478E-03,            0.,NA,NA,"",   1.00021E+06,   1.00014E+06,   1.00014E+06
C:/temp/Job-1.odb,Step-1,Increment      1: Step Time =    1.000,"P-1-1",          3288,   192.774E-03,   174.252E-03,            0.,NA,NA,"",   1.00043E+06,   1.00064E+06,   1.00064E+06
C:/temp/Job-1.odb,Step-1,Increment      1: Step Time =    1.000,"P-1-1",          3289,   190.205E-03,   174.297E-03,            0.,NA,NA,"",   1.00094E+06,   1.00115E+06,   1.00115E+06
C:/temp/Job-1.odb,Step-1,Increment      1: Step Time =    1.000,"P-1-1",          3290,   186.439E-03,   173.590E-03,            0.,NA,NA,"",   1.00215E+06,   1.00220E+06,   1.00220E+06
C:/temp/Job-1.odb,Step-1,Increment      1: Step Time =    1.000,"P-1-1",          3291,   184.092E-03,   174.641E-03,            0.,NA,NA,"",   1.00287E+06,   1.00268E+06,   1.00268E+06
C:/temp/Job-1.odb,Step-1,Increment      1: Step Time =    1.000,"P-1-1",          3292,   181.637E-03,   174.946E-03,            0.,NA,NA,"",   1.00383E+06,   1.00335E+06,   1.00335E+06
C:/temp/Job-1.odb,Step-1,Increment      1: Step Time =    1.000,"P-1-1",          3293,   177.089E-03,   173.840E-03,            0.,NA,NA,"",   1.00651E+06,   1.00530E+06,   1.00530E+06
C:/temp/Job-1.odb,Step-1,Increment      1: Step Time =    1.000,"P-1-1",          3294,   173.469E-03,   173.982E-03,            0.,NA,NA,"",   1.00851E+06,   1.00667E+06,   1.00667E+06
C:/temp/Job-1.odb,Step-1,Increment      1: Step Time =    1.000,"P-1-1",          3295,   170.478E-03,   174.705E-03,            0.,NA,NA,"",   1.00971E+06,   1.00740E+06,   1.00740E+06
C:/temp/Job-1.odb,Step-1,Increment      1: Step Time =    1.000,"P-1-1",          3296,   167.025E-03,   174.380E-03,            0.,NA,NA,"",   1.01197E+06,   1.00895E+06,   1.00895E+06
C:/temp/Job-1.odb,Step-1,Increment      1: Step Time =    1.000,"P-1-1",          3297,   163.629E-03,   173.652E-03,            0.,NA,NA,"",   1.01473E+06,   1.01091E+06,   1.01091E+06
C:/temp/Job-1.odb,Step-1,Increment      1: Step Time =    1.000,"P-1-1",          3298,   160.617E-03,   173.552E-03,            0.,NA,NA,"",   1.01660E+06,   1.01222E+06,   1.01222E+06
C:/temp/Job-1.odb,Step-1,Increment      1: Step Time =    1.000,"P-1-1",          3299,   157.752E-03,   173.531E-03,            0.,NA,NA,"",   1.01815E+06,   1.01332E+06,   1.01332E+06
C:/temp/Job-1.odb,Step-1,Increment      1: Step Time =    1.000,"P-1-1",          3300,   153.761E-03,   174.387E-03,            0.,NA,NA,"",   1.01862E+06,   1.01361E+06,   1.01361E+06
C:/temp/Job-1.odb,Step-1,Increment      1: Step Time =    1.000,"P-1-1",          3301,   151.217E-03,   173.540E-03,            0.,NA,NA,"",   1.02104E+06,   1.01554E+06,   1.01554E+06
C:/temp/Job-1.odb,Step-1,Increment      1: Step Time =    1.000,"P-1-1",          3302,   146.548E-03,   173.624E-03,            0.,NA,NA,"",   1.02203E+06,   1.01650E+06,   1.01650E+06
C:/temp/Job-1.odb,Step-1,Increment      1: Step Time =    1.000,"P-1-1",          3303,   143.774E-03,   174.148E-03,            0.,NA,NA,"",   1.02110E+06,   1.01594E+06,   1.01594E+06
C:/temp/Job-1.odb,Step-1,Increment      1: Step Time =    1.000,"P-1-1",          3304,   141.676E-03,   174.467E-03,            0.,NA,NA,"",   1.02022E+06,   1.01544E+06,   1.01544E+06
C:/temp/Job-1.odb,Step-1,Increment      1: Step Time =    1.000,"P-1-1",          3305,   137.012E-03,   174.584E-03,            0.,NA,NA,"",   1.01879E+06,   1.01492E+06,   1.01492E+06
C:/temp/Job-1.odb,Step-1,Increment      1: Step Time =    1.000,"P-1-1",          3306,   134.838E-03,   173.409E-03,            0.,NA,NA,"",   1.02066E+06,   1.01705E+06,   1.01705E+06
C:/temp/Job-1.odb,Step-1,Increment      1: Step Time =    1.000,"P-1-1",          3307,   131.597E-03,   173.422E-03,            0.,NA,NA,"",   1.01891E+06,   1.01641E+06,   1.01641E+06
C:/temp/Job-1.odb,Step-1,Increment      1: Step Time =    1.000,"P-1-1",          3308,   128.390E-03,   173.967E-03,            0.,NA,NA,"",   1.01537E+06,   1.01429E+06,   1.01429E+06
C:/temp/Job-1.odb,Step-1,Increment      1: Step Time =    1.000,"P-1-1",          3309,   124.298E-03,   174.240E-03,            0.,NA,NA,"",   1.01092E+06,   1.01181E+06,   1.01181E+06
C:/temp/Job-1.odb,Step-1,Increment      1: Step Time =    1.000,"P-1-1",          3310,   120.248E-03,   174.344E-03,            0.,NA,NA,"",   1.00686E+06,   1.00972E+06,   1.00972E+06
C:/temp/Job-1.odb,Step-1,Increment      1: Step Time =    1.000,"P-1-1",          3311,   117.599E-03,   174.154E-03,            0.,NA,NA,"",   1.00457E+06,   1.00883E+06,   1.00883E+06
C:/temp/Job-1.odb,Step-1,Increment      1: Step Time =    1.000,"P-1-1",          3312,   114.066E-03,   173.806E-03,            0.,NA,NA,"",   1.00187E+06,   1.00799E+06,   1.00799E+06
C:/temp/Job-1.odb,Step-1,Increment      1: Step Time =    1.000,"P-1-1",          3313,   111.197E-03,   173.377E-03,            0.,NA,NA,"",   1.00013E+06,   1.00789E+06,   1.00789E+06
C:/temp/Job-1.odb,Step-1,Increment      1: Step Time =    1.000,"P-1-1",          3314,   107.989E-03,   174.248E-03,            0.,NA,NA,"",   996.227E+03,   1.00464E+06,   1.00464E+06
C:/temp/Job-1.odb,Step-1,Increment      1: Step Time =    1.000,"P-1-1",          3315,   104.733E-03,   174.407E-03,            0.,NA,NA,"",   994.404E+03,   1.00379E+06,   1.00379E+06
C:/temp/Job-1.odb,Step-1,Increment      1: Step Time =    1.000,"P-1-1",          3316,   100.572E-03,   174.289E-03,            0.,NA,NA,"",   993.907E+03,   1.00404E+06,   1.00404E+06
C:/temp/Job-1.odb,Step-1,Increment      1: Step Time =    1.000,"P-1-1",          3317,   98.0943E-03,   173.072E-03,            0.,NA,NA,"",   996.502E+03,   1.00754E+06,   1.00754E+06
C:/temp/Job-1.odb,Step-1,Increment      1: Step Time =    1.000,"P-1-1",          3318,   95.0688E-03,   173.238E-03,            0.,NA,NA,"",   997.552E+03,   1.00830E+06,   1.00830E+06
C:/temp/Job-1.odb,Step-1,Increment      1: Step Time =    1.000,"P-1-1",          3319,   91.1430E-03,   173.683E-03,            0.,NA,NA,"",   999.826E+03,   1.00954E+06,   1.00954E+06
C:/temp/Job-1.odb,Step-1,Increment      1: Step Time =    1.000,"P-1-1",          3320,   87.6551E-03,   174.075E-03,            0.,NA,NA,"",   1.00249E+06,   1.01104E+06,   1.01104E+06
C:/temp/Job-1.odb,Step-1,Increment      1: Step Time =    1.000,"P-1-1",          3321,   84.6046E-03,   173.214E-03,            0.,NA,NA,"",   1.00814E+06,   1.01610E+06,   1.01610E+06
C:/temp/Job-1.odb,Step-1,Increment      1: Step Time =    1.000,"P-1-1",          3322,   82.4845E-03,   173.279E-03,            0.,NA,NA,"",   1.01070E+06,   1.01781E+06,   1.01781E+06
C:/temp/Job-1.odb,Step-1,Increment      1: Step Time =    1.000,"P-1-1",          3323,   79.3628E-03,   173.014E-03,            0.,NA,NA,"",   1.01581E+06,   1.02188E+06,   1.02188E+06
C:/temp/Job-1.odb,Step-1,Increment      1: Step Time =    1.000,"P-1-1",          3324,   75.0186E-03,   173.767E-03,            0.,NA,NA,"",   1.01996E+06,   1.02426E+06,   1.02426E+06
C:/temp/Job-1.odb,Step-1,Increment      1: Step Time =    1.000,"P-1-1",          3325,   72.5346E-03,   173.375E-03,            0.,NA,NA,"",   1.02417E+06,   1.02793E+06,   1.02793E+06
C:/temp/Job-1.odb,Step-1,Increment      1: Step Time =    1.000,"P-1-1",          3326,   68.5710E-03,   173.124E-03,            0.,NA,NA,"",   1.02977E+06,   1.03272E+06,   1.03272E+06
C:/temp/Job-1.odb,Step-1,Increment      1: Step Time =    1.000,"P-1-1",          3327,   64.8008E-03,   174.238E-03,            0.,NA,NA,"",   1.03117E+06,   1.03364E+06,   1.03364E+06
C:/temp/Job-1.odb,Step-1,Increment      1: Step Time =    1.000,"P-1-1",          3328,   61.5848E-03,   174.673E-03,            0.,NA,NA,"",   1.03342E+06,   1.03591E+06,   1.03591E+06
C:/temp/Job-1.odb,Step-1,Increment      1: Step Time =    1.000,"P-1-1",          3329,   58.5171E-03,   173.387E-03,            0.,NA,NA,"",   1.03882E+06,   1.04211E+06,   1.04211E+06
C:/temp/Job-1.odb,Step-1,Increment      1: Step Time =    1.000,"P-1-1",          3330,   55.5455E-03,   173.254E-03,            0.,NA,NA,"",   1.04104E+06,   1.04523E+06,   1.04523E+06
C:/temp/Job-1.odb,Step-1,Increment      1: Step Time =    1.000,"P-1-1",          3331,   52.5977E-03,   173.545E-03,            0.,NA,NA,"",   1.04238E+06,   1.04766E+06,   1.04766E+06
C:/temp/Job-1.odb,Step-1,Increment      1: Step Time =    1.000,"P-1-1",          3332,   49.6339E-03,   173.610E-03,            0.,NA,NA,"",   1.04382E+06,   1.05065E+06,   1.05065E+06
C:/temp/Job-1.odb,Step-1,Increment      1: Step Time =    1.000,"P-1-1",          3333,   46.5279E-03,   173.816E-03,            0.,NA,NA,"",   1.04511E+06,   1.05399E+06,   1.05399E+06
C:/temp/Job-1.odb,Step-1,Increment      1: Step Time =    1.000,"P-1-1",          3334,   42.6683E-03,   173.704E-03,            0.,NA,NA,"",   1.04637E+06,   1.05847E+06,   1.05847E+06
C:/temp/Job-1.odb,Step-1,Increment      1: Step Time =    1.000,"P-1-1",          3335,   39.0082E-03,   173.223E-03,            0.,NA,NA,"",   1.04671E+06,   1.06308E+06,   1.06308E+06
C:/temp/Job-1.odb,Step-1,Increment      1: Step Time =    1.000,"P-1-1",          3336,   37.1444E-03,   173.382E-03,            0.,NA,NA,"",   1.04683E+06,   1.06521E+06,   1.06521E+06
C:/temp/Job-1.odb,Step-1,Increment      1: Step Time =    1.000,"P-1-1",          3337,   33.2590E-03,   173.237E-03,            0.,NA,NA,"",   1.04611E+06,   1.07013E+06,   1.07013E+06
C:/temp/Job-1.odb,Step-1,Increment      1: Step Time =    1.000,"P-1-1",          3338,   28.7400E-03,   173.250E-03,            0.,NA,NA,"",   1.04317E+06,   1.07505E+06,   1.07505E+06
C:/temp/Job-1.odb,Step-1,Increment      1: Step Time =    1.000,"P-1-1",          3339,   26.5213E-03,   173.068E-03,            0.,NA,NA,"",   1.04058E+06,   1.07704E+06,   1.07704E+06
C:/temp/Job-1.odb,Step-1,Increment      1: Step Time =    1.000,"P-1-1",          3340,   22.5325E-03,   173.171E-03,            0.,NA,NA,"",   1.03495E+06,   1.08020E+06,   1.08020E+06
C:/temp/Job-1.odb,Step-1,Increment      1: Step Time =    1.000,"P-1-1",          3341,   18.8481E-03,   172.752E-03,            0.,NA,NA,"",   1.02333E+06,   1.07916E+06,   1.07916E+06
C:/temp/Job-1.odb,Step-1,Increment      1: Step Time =    1.000,"P-1-1",          3342,   15.2034E-03,   174.663E-03,            0.,NA,NA,"",   1.02418E+06,   1.08784E+06,   1.08784E+06
C:/temp/Job-1.odb,Step-1,Increment      1: Step Time =    1.000,"P-1-1",          3343,   12.8900E-03,   174.250E-03,            0.,NA,NA,"",   1.01182E+06,   1.08324E+06,   1.08324E+06
C:/temp/Job-1.odb,Step-1,Increment      1: Step Time =    1.000,"P-1-1",          3344,   9.34636E-03,   174.078E-03,            0.,NA,NA,"",   992.340E+03,   1.07586E+06,   1.07586E+06
C:/temp/Job-1.odb,Step-1,Increment      1: Step Time =    1.000,"P-1-1",          3345,   6.16763E-03,   173.886E-03,            0.,NA,NA,"",   972.418E+03,   1.06617E+06,   1.06617E+06
C:/temp/Job-1.odb,Step-1,Increment      1: Step Time =    1.000,"P-1-1",          3346,   3.05633E-03,   173.720E-03,            0.,NA,NA,"",   951.820E+03,   1.05458E+06,   1.05458E+06
C:/temp/Job-1.odb,Step-1,Increment      1: Step Time =    1.000,"P-1-1",          3347,   196.722E-03,   176.670E-03,            0.,NA,NA,"",   1.00033E+06,   1.00012E+06,   1.00012E+06
C:/temp/Job-1.odb,Step-1,Increment      1: Step Time =    1.000,"P-1-1",          3348,   192.974E-03,   176.435E-03,            0.,NA,NA,"",   1.00046E+06,   1.00052E+06,   1.00052E+06
C:/temp/Job-1.odb,Step-1,Increment      1: Step Time =    1.000,"P-1-1",          3349,   190.138E-03,   176.315E-03,            0.,NA,NA,"",   1.00087E+06,   1.00097E+06,   1.00097E+06
C:/temp/Job-1.odb,Step-1,Increment      1: Step Time =    1.000,"P-1-1",          3350,   185.960E-03,   176.321E-03,            0.,NA,NA,"",   1.00193E+06,   1.00185E+06,   1.00185E+06
C:/temp/Job-1.odb,Step-1,Increment      1: Step Time =    1.000,"P-1-1",          3351,   182.767E-03,   177.676E-03,            0.,NA,NA,"",   1.00272E+06,   1.00238E+06,   1.00238E+06
C:/temp/Job-1.odb,Step-1,Increment      1: Step Time =    1.000,"P-1-1",          3352,   179.258E-03,   176.721E-03,            0.,NA,NA,"",   1.00432E+06,   1.00358E+06,   1.00358E+06
C:/temp/Job-1.odb,Step-1,Increment      1: Step Time =    1.000,"P-1-1",          3353,   177.287E-03,   176.964E-03,            0.,NA,NA,"",   1.00509E+06,   1.00408E+06,   1.00408E+06
C:/temp/Job-1.odb,Step-1,Increment      1: Step Time =    1.000,"P-1-1",          3354,   173.701E-03,   176.634E-03,            0.,NA,NA,"",   1.00685E+06,   1.00531E+06,   1.00531E+06
C:/temp/Job-1.odb,Step-1,Increment      1: Step Time =    1.000,"P-1-1",          3355,   170.886E-03,   177.686E-03,            0.,NA,NA,"",   1.00744E+06,   1.00559E+06,   1.00559E+06
C:/temp/Job-1.odb,Step-1,Increment      1: Step Time =    1.000,"P-1-1",          3356,   167.219E-03,   176.573E-03,            0.,NA,NA,"",   1.01002E+06,   1.00742E+06,   1.00742E+06
C:/temp/Job-1.odb,Step-1,Increment      1: Step Time =    1.000,"P-1-1",          3357,   163.607E-03,   176.868E-03,            0.,NA,NA,"",   1.01134E+06,   1.00824E+06,   1.00824E+06
C:/temp/Job-1.odb,Step-1,Increment      1: Step Time =    1.000,"P-1-1",          3358,   160.657E-03,   176.785E-03,            0.,NA,NA,"",   1.01266E+06,   1.00911E+06,   1.00911E+06
C:/temp/Job-1.odb,Step-1,Increment      1: Step Time =    1.000,"P-1-1",          3359,   157.743E-03,   176.380E-03,            0.,NA,NA,"",   1.01430E+06,   1.01028E+06,   1.01028E+06
C:/temp/Job-1.odb,Step-1,Increment      1: Step Time =    1.000,"P-1-1",          3360,   154.767E-03,   176.318E-03,            0.,NA,NA,"",   1.01527E+06,   1.01095E+06,   1.01095E+06
C:/temp/Job-1.odb,Step-1,Increment      1: Step Time =    1.000,"P-1-1",          3361,   151.614E-03,   177.029E-03,            0.,NA,NA,"",   1.01483E+06,   1.01054E+06,   1.01054E+06
C:/temp/Job-1.odb,Step-1,Increment      1: Step Time =    1.000,"P-1-1",          3362,   147.594E-03,   176.613E-03,            0.,NA,NA,"",   1.01608E+06,   1.01158E+06,   1.01158E+06
C:/temp/Job-1.odb,Step-1,Increment      1: Step Time =    1.000,"P-1-1",          3363,   141.225E-03,   177.133E-03,            0.,NA,NA,"",   1.01441E+06,   1.01052E+06,   1.01052E+06
C:/temp/Job-1.odb,Step-1,Increment      1: Step Time =    1.000,"P-1-1",          3364,   137.362E-03,   177.072E-03,            0.,NA,NA,"",   1.01319E+06,   1.00992E+06,   1.00992E+06
C:/temp/Job-1.odb,Step-1,Increment      1: Step Time =    1.000,"P-1-1",          3365,   134.712E-03,   176.459E-03,            0.,NA,NA,"",   1.01342E+06,   1.01058E+06,   1.01058E+06
C:/temp/Job-1.odb,Step-1,Increment      1: Step Time =    1.000,"P-1-1",          3366,   131.798E-03,   176.919E-03,            0.,NA,NA,"",   1.01058E+06,   1.00864E+06,   1.00864E+06
C:/temp/Job-1.odb,Step-1,Increment      1: Step Time =    1.000,"P-1-1",          3367,   128.204E-03,   176.085E-03,            0.,NA,NA,"",   1.00991E+06,   1.00910E+06,   1.00910E+06
C:/temp/Job-1.odb,Step-1,Increment      1: Step Time =    1.000,"P-1-1",          3368,   124.092E-03,   176.425E-03,            0.,NA,NA,"",   1.00551E+06,   1.00641E+06,   1.00641E+06
C:/temp/Job-1.odb,Step-1,Increment      1: Step Time =    1.000,"P-1-1",          3369,   120.469E-03,   177.678E-03,            0.,NA,NA,"",   999.376E+03,   1.00155E+06,   1.00155E+06
C:/temp/Job-1.odb,Step-1,Increment      1: Step Time =    1.000,"P-1-1",          3370,   117.844E-03,   177.819E-03,            0.,NA,NA,"",   996.740E+03,   999.985E+03,   999.985E+03
C:/temp/Job-1.odb,Step-1,Increment      1: Step Time =    1.000,"P-1-1",          3371,   114.747E-03,   177.726E-03,            0.,NA,NA,"",   994.026E+03,   998.394E+03,   998.394E+03
C:/temp/Job-1.odb,Step-1,Increment      1: Step Time =    1.000,"P-1-1",          3372,   111.954E-03,   176.877E-03,            0.,NA,NA,"",   993.702E+03,   999.478E+03,   999.478E+03
C:/temp/Job-1.odb,Step-1,Increment      1: Step Time =    1.000,"P-1-1",          3373,   108.715E-03,   177.786E-03,            0.,NA,NA,"",   989.424E+03,   995.744E+03,   995.744E+03
C:/temp/Job-1.odb,Step-1,Increment      1: Step Time =    1.000,"P-1-1",          3374,   105.055E-03,   176.741E-03,            0.,NA,NA,"",   990.077E+03,   997.842E+03,   997.842E+03
C:/temp/Job-1.odb,Step-1,Increment      1: Step Time =    1.000,"P-1-1",          3375,   100.170E-03,   177.526E-03,            0.,NA,NA,"",   987.916E+03,   995.816E+03,   995.816E+03
C:/temp/Job-1.odb,Step-1,Increment      1: Step Time =    1.000,"P-1-1",          3376,   97.9100E-03,   176.709E-03,            0.,NA,NA,"",   989.939E+03,   998.431E+03,   998.431E+03
C:/temp/Job-1.odb,Step-1,Increment      1: Step Time =    1.000,"P-1-1",          3377,   95.7530E-03,   175.692E-03,            0.,NA,NA,"",   992.651E+03,   1.00170E+06,   1.00170E+06
C:/temp/Job-1.odb,Step-1,Increment      1: Step Time =    1.000,"P-1-1",          3378,   91.9840E-03,   176.337E-03,            0.,NA,NA,"",   993.682E+03,   1.00190E+06,   1.00190E+06
C:/temp/Job-1.odb,Step-1,Increment      1: Step Time =    1.000,"P-1-1",          3379,   88.5201E-03,   178.249E-03,            0.,NA,NA,"",   992.498E+03,   998.867E+03,   998.867E+03
C:/temp/Job-1.odb,Step-1,Increment      1: Step Time =    1.000,"P-1-1",          3380,   84.7672E-03,   178.032E-03,            0.,NA,NA,"",   997.010E+03,   1.00273E+06,   1.00273E+06
C:/temp/Job-1.odb,Step-1,Increment      1: Step Time =    1.000,"P-1-1",          3381,   78.5191E-03,   176.149E-03,            0.,NA,NA,"",   1.00899E+06,   1.01366E+06,   1.01366E+06
C:/temp/Job-1.odb,Step-1,Increment      1: Step Time =    1.000,"P-1-1",          3382,   75.5713E-03,   177.255E-03,            0.,NA,NA,"",   1.01003E+06,   1.01353E+06,   1.01353E+06
C:/temp/Job-1.odb,Step-1,Increment      1: Step Time =    1.000,"P-1-1",          3383,   72.5465E-03,   177.269E-03,            0.,NA,NA,"",   1.01405E+06,   1.01690E+06,   1.01690E+06
C:/temp/Job-1.odb,Step-1,Increment      1: Step Time =    1.000,"P-1-1",          3384,   68.5120E-03,   176.747E-03,            0.,NA,NA,"",   1.02036E+06,   1.02261E+06,   1.02261E+06
C:/temp/Job-1.odb,Step-1,Increment      1: Step Time =    1.000,"P-1-1",          3385,   64.9241E-03,   176.898E-03,            0.,NA,NA,"",   1.02448E+06,   1.02648E+06,   1.02648E+06
C:/temp/Job-1.odb,Step-1,Increment      1: Step Time =    1.000,"P-1-1",          3386,   61.6591E-03,   178.119E-03,            0.,NA,NA,"",   1.02514E+06,   1.02698E+06,   1.02698E+06
C:/temp/Job-1.odb,Step-1,Increment      1: Step Time =    1.000,"P-1-1",          3387,   59.0566E-03,   177.351E-03,            0.,NA,NA,"",   1.02954E+06,   1.03170E+06,   1.03170E+06
C:/temp/Job-1.odb,Step-1,Increment      1: Step Time =    1.000,"P-1-1",          3388,   56.2254E-03,   176.608E-03,            0.,NA,NA,"",   1.03438E+06,   1.03739E+06,   1.03739E+06
C:/temp/Job-1.odb,Step-1,Increment      1: Step Time =    1.000,"P-1-1",          3389,   53.6694E-03,   177.557E-03,            0.,NA,NA,"",   1.03498E+06,   1.03844E+06,   1.03844E+06
C:/temp/Job-1.odb,Step-1,Increment      1: Step Time =    1.000,"P-1-1",          3390,   47.7445E-03,   176.822E-03,            0.,NA,NA,"",   1.04181E+06,   1.04811E+06,   1.04811E+06
C:/temp/Job-1.odb,Step-1,Increment      1: Step Time =    1.000,"P-1-1",          3391,   45.8303E-03,   177.370E-03,            0.,NA,NA,"",   1.04279E+06,   1.04984E+06,   1.04984E+06
C:/temp/Job-1.odb,Step-1,Increment      1: Step Time =    1.000,"P-1-1",          3392,   42.6891E-03,   176.332E-03,            0.,NA,NA,"",   1.04622E+06,   1.05634E+06,   1.05634E+06
C:/temp/Job-1.odb,Step-1,Increment      1: Step Time =    1.000,"P-1-1",          3393,   35.8600E-03,   176.893E-03,            0.,NA,NA,"",   1.05114E+06,   1.06736E+06,   1.06736E+06
C:/temp/Job-1.odb,Step-1,Increment      1: Step Time =    1.000,"P-1-1",          3394,   33.5910E-03,   176.750E-03,            0.,NA,NA,"",   1.05254E+06,   1.07167E+06,   1.07167E+06
C:/temp/Job-1.odb,Step-1,Increment      1: Step Time =    1.000,"P-1-1",          3395,   28.6815E-03,   177.386E-03,            0.,NA,NA,"",   1.05622E+06,   1.08182E+06,   1.08182E+06
C:/temp/Job-1.odb,Step-1,Increment      1: Step Time =    1.000,"P-1-1",          3396,   26.7320E-03,   176.478E-03,            0.,NA,NA,"",   1.05343E+06,   1.08416E+06,   1.08416E+06
C:/temp/Job-1.odb,Step-1,Increment      1: Step Time =    1.000,"P-1-1",          3397,   23.4776E-03,   176.679E-03,            0.,NA,NA,"",   1.05295E+06,   1.08996E+06,   1.08996E+06
C:/temp/Job-1.odb,Step-1,Increment      1: Step Time =    1.000,"P-1-1",          3398,   18.4894E-03,   176.196E-03,            0.,NA,NA,"",   1.04316E+06,   1.09429E+06,   1.09429E+06
C:/temp/Job-1.odb,Step-1,Increment      1: Step Time =    1.000,"P-1-1",          3399,   15.2720E-03,   177.670E-03,            0.,NA,NA,"",   1.04536E+06,   1.10327E+06,   1.10327E+06
C:/temp/Job-1.odb,Step-1,Increment      1: Step Time =    1.000,"P-1-1",          3400,   12.2479E-03,   177.558E-03,            0.,NA,NA,"",   1.03419E+06,   1.10305E+06,   1.10305E+06
C:/temp/Job-1.odb,Step-1,Increment      1: Step Time =    1.000,"P-1-1",          3401,   9.16008E-03,   177.260E-03,            0.,NA,NA,"",   1.01606E+06,   1.09674E+06,   1.09674E+06
C:/temp/Job-1.odb,Step-1,Increment      1: Step Time =    1.000,"P-1-1",          3402,   5.99329E-03,   176.966E-03,            0.,NA,NA,"",   993.913E+03,   1.08648E+06,   1.08648E+06
C:/temp/Job-1.odb,Step-1,Increment      1: Step Time =    1.000,"P-1-1",          3403,   2.93088E-03,   176.770E-03,            0.,NA,NA,"",   971.384E+03,   1.07410E+06,   1.07410E+06
C:/temp/Job-1.odb,Step-1,Increment      1: Step Time =    1.000,"P-1-1",          3404,   196.861E-03,   179.851E-03,            0.,NA,NA,"",   1.00037E+06,   1.00008E+06,   1.00008E+06
C:/temp/Job-1.odb,Step-1,Increment      1: Step Time =    1.000,"P-1-1",          3405,   193.727E-03,   180.097E-03,            0.,NA,NA,"",   1.00037E+06,   1.00028E+06,   1.00028E+06
C:/temp/Job-1.odb,Step-1,Increment      1: Step Time =    1.000,"P-1-1",          3406,   190.389E-03,   180.314E-03,            0.,NA,NA,"",   1.00064E+06,   1.00062E+06,   1.00062E+06
C:/temp/Job-1.odb,Step-1,Increment      1: Step Time =    1.000,"P-1-1",          3407,   187.689E-03,   181.443E-03,            0.,NA,NA,"",   1.00094E+06,   1.00086E+06,   1.00086E+06
C:/temp/Job-1.odb,Step-1,Increment      1: Step Time =    1.000,"P-1-1",          3408,   183.960E-03,   180.965E-03,            0.,NA,NA,"",   1.00168E+06,   1.00145E+06,   1.00145E+06
C:/temp/Job-1.odb,Step-1,Increment      1: Step Time =    1.000,"P-1-1",          3409,   179.656E-03,   181.094E-03,            0.,NA,NA,"",   1.00268E+06,   1.00215E+06,   1.00215E+06
C:/temp/Job-1.odb,Step-1,Increment      1: Step Time =    1.000,"P-1-1",          3410,   176.372E-03,   181.010E-03,            0.,NA,NA,"",   1.00363E+06,   1.00278E+06,   1.00278E+06
C:/temp/Job-1.odb,Step-1,Increment      1: Step Time =    1.000,"P-1-1",          3411,   173.456E-03,   180.742E-03,            0.,NA,NA,"",   1.00456E+06,   1.00340E+06,   1.00340E+06
C:/temp/Job-1.odb,Step-1,Increment      1: Step Time =    1.000,"P-1-1",          3412,   170.288E-03,   180.343E-03,            0.,NA,NA,"",   1.00577E+06,   1.00419E+06,   1.00419E+06
C:/temp/Job-1.odb,Step-1,Increment      1: Step Time =    1.000,"P-1-1",          3413,   167.338E-03,   179.988E-03,            0.,NA,NA,"",   1.00699E+06,   1.00500E+06,   1.00500E+06
C:/temp/Job-1.odb,Step-1,Increment      1: Step Time =    1.000,"P-1-1",          3414,   163.791E-03,   180.353E-03,            0.,NA,NA,"",   1.00768E+06,   1.00533E+06,   1.00533E+06
C:/temp/Job-1.odb,Step-1,Increment      1: Step Time =    1.000,"P-1-1",          3415,   160.534E-03,   180.136E-03,            0.,NA,NA,"",   1.00864E+06,   1.00591E+06,   1.00591E+06
C:/temp/Job-1.odb,Step-1,Increment      1: Step Time =    1.000,"P-1-1",          3416,   157.614E-03,   179.621E-03,            0.,NA,NA,"",   1.00986E+06,   1.00673E+06,   1.00673E+06
C:/temp/Job-1.odb,Step-1,Increment      1: Step Time =    1.000,"P-1-1",          3417,   153.571E-03,   180.605E-03,            0.,NA,NA,"",   1.00901E+06,   1.00585E+06,   1.00585E+06
C:/temp/Job-1.odb,Step-1,Increment      1: Step Time =    1.000,"P-1-1",          3418,   149.995E-03,   179.964E-03,            0.,NA,NA,"",   1.00990E+06,   1.00647E+06,   1.00647E+06
C:/temp/Job-1.odb,Step-1,Increment      1: Step Time =    1.000,"P-1-1",          3419,   147.186E-03,   179.934E-03,            0.,NA,NA,"",   1.00979E+06,   1.00635E+06,   1.00635E+06
C:/temp/Job-1.odb,Step-1,Increment      1: Step Time =    1.000,"P-1-1",          3420,   143.968E-03,   180.606E-03,            0.,NA,NA,"",   1.00782E+06,   1.00471E+06,   1.00471E+06
C:/temp/Job-1.odb,Step-1,Increment      1: Step Time =    1.000,"P-1-1",          3421,   140.593E-03,   180.539E-03,            0.,NA,NA,"",   1.00684E+06,   1.00399E+06,   1.00399E+06
C:/temp/Job-1.odb,Step-1,Increment      1: Step Time =    1.000,"P-1-1",          3422,   136.707E-03,   180.682E-03,            0.,NA,NA,"",   1.00472E+06,   1.00242E+06,   1.00242E+06
C:/temp/Job-1.odb,Step-1,Increment      1: Step Time =    1.000,"P-1-1",          3423,   134.391E-03,   180.414E-03,            0.,NA,NA,"",   1.00393E+06,   1.00198E+06,   1.00198E+06
C:/temp/Job-1.odb,Step-1,Increment      1: Step Time =    1.000,"P-1-1",          3424,   131.491E-03,   179.084E-03,            0.,NA,NA,"",   1.00521E+06,   1.00368E+06,   1.00368E+06
C:/temp/Job-1.odb,Step-1,Increment      1: Step Time =    1.000,"P-1-1",          3425,   127.869E-03,   179.099E-03,            0.,NA,NA,"",   1.00252E+06,   1.00200E+06,   1.00200E+06
C:/temp/Job-1.odb,Step-1,Increment      1: Step Time =    1.000,"P-1-1",          3426,   125.074E-03,   179.405E-03,            0.,NA,NA,"",   999.362E+03,   999.769E+03,   999.769E+03
C:/temp/Job-1.odb,Step-1,Increment      1: Step Time =    1.000,"P-1-1",          3427,   120.785E-03,   180.497E-03,            0.,NA,NA,"",   993.074E+03,   994.761E+03,   994.761E+03
C:/temp/Job-1.odb,Step-1,Increment      1: Step Time =    1.000,"P-1-1",          3428,   118.064E-03,   180.943E-03,            0.,NA,NA,"",   989.461E+03,   991.863E+03,   991.863E+03
C:/temp/Job-1.odb,Step-1,Increment      1: Step Time =    1.000,"P-1-1",          3429,   111.864E-03,   180.138E-03,            0.,NA,NA,"",   986.480E+03,   990.915E+03,   990.915E+03
C:/temp/Job-1.odb,Step-1,Increment      1: Step Time =    1.000,"P-1-1",          3430,   108.780E-03,   180.024E-03,            0.,NA,NA,"",   984.930E+03,   990.143E+03,   990.143E+03
C:/temp/Job-1.odb,Step-1,Increment      1: Step Time =    1.000,"P-1-1",          3431,   104.536E-03,   181.078E-03,            0.,NA,NA,"",   980.862E+03,   986.284E+03,   986.284E+03
C:/temp/Job-1.odb,Step-1,Increment      1: Step Time =    1.000,"P-1-1",          3432,   101.417E-03,   180.985E-03,            0.,NA,NA,"",   980.680E+03,   986.453E+03,   986.453E+03
C:/temp/Job-1.odb,Step-1,Increment      1: Step Time =    1.000,"P-1-1",          3433,   98.9500E-03,   179.715E-03,            0.,NA,NA,"",   983.571E+03,   990.236E+03,   990.236E+03
C:/temp/Job-1.odb,Step-1,Increment      1: Step Time =    1.000,"P-1-1",          3434,   94.7864E-03,   179.554E-03,            0.,NA,NA,"",   985.080E+03,   991.658E+03,   991.658E+03
C:/temp/Job-1.odb,Step-1,Increment      1: Step Time =    1.000,"P-1-1",          3435,   91.9259E-03,   179.577E-03,            0.,NA,NA,"",   986.643E+03,   992.967E+03,   992.967E+03
C:/temp/Job-1.odb,Step-1,Increment      1: Step Time =    1.000,"P-1-1",          3436,   88.2833E-03,   180.834E-03,            0.,NA,NA,"",   986.350E+03,   991.415E+03,   991.415E+03
C:/temp/Job-1.odb,Step-1,Increment      1: Step Time =    1.000,"P-1-1",          3437,   85.5763E-03,   181.013E-03,            0.,NA,NA,"",   988.255E+03,   992.718E+03,   992.718E+03
C:/temp/Job-1.odb,Step-1,Increment      1: Step Time =    1.000,"P-1-1",          3438,   82.4646E-03,   180.394E-03,            0.,NA,NA,"",   993.363E+03,   997.455E+03,   997.455E+03
C:/temp/Job-1.odb,Step-1,Increment      1: Step Time =    1.000,"P-1-1",          3439,   78.2288E-03,   179.412E-03,            0.,NA,NA,"",   1.00092E+06,   1.00437E+06,   1.00437E+06
C:/temp/Job-1.odb,Step-1,Increment      1: Step Time =    1.000,"P-1-1",          3440,   74.9616E-03,   181.816E-03,            0.,NA,NA,"",   998.178E+03,   1.00039E+06,   1.00039E+06
C:/temp/Job-1.odb,Step-1,Increment      1: Step Time =    1.000,"P-1-1",          3441,   72.2685E-03,   180.220E-03,            0.,NA,NA,"",   1.00619E+06,   1.00830E+06,   1.00830E+06
C:/temp/Job-1.odb,Step-1,Increment      1: Step Time =    1.000,"P-1-1",          3442,   69.4316E-03,   179.754E-03,            0.,NA,NA,"",   1.01120E+06,   1.01301E+06,   1.01301E+06
C:/temp/Job-1.odb,Step-1,Increment      1: Step Time =    1.000,"P-1-1",          3443,   64.4122E-03,   180.418E-03,            0.,NA,NA,"",   1.01568E+06,   1.01702E+06,   1.01702E+06
C:/temp/Job-1.odb,Step-1,Increment      1: Step Time =    1.000,"P-1-1",          3444,   62.0420E-03,   180.969E-03,            0.,NA,NA,"",   1.01702E+06,   1.01830E+06,   1.01830E+06
C:/temp/Job-1.odb,Step-1,Increment      1: Step Time =    1.000,"P-1-1",          3445,   59.2431E-03,   180.085E-03,            0.,NA,NA,"",   1.02311E+06,   1.02477E+06,   1.02477E+06
C:/temp/Job-1.odb,Step-1,Increment      1: Step Time =    1.000,"P-1-1",          3446,   55.5139E-03,   179.655E-03,            0.,NA,NA,"",   1.02826E+06,   1.03054E+06,   1.03054E+06
C:/temp/Job-1.odb,Step-1,Increment      1: Step Time =    1.000,"P-1-1",          3447,   52.1493E-03,   180.779E-03,            0.,NA,NA,"",   1.03004E+06,   1.03286E+06,   1.03286E+06
C:/temp/Job-1.odb,Step-1,Increment      1: Step Time =    1.000,"P-1-1",          3448,   49.2203E-03,   179.211E-03,            0.,NA,NA,"",   1.03682E+06,   1.04121E+06,   1.04121E+06
C:/temp/Job-1.odb,Step-1,Increment      1: Step Time =    1.000,"P-1-1",          3449,   45.1695E-03,   180.389E-03,            0.,NA,NA,"",   1.03996E+06,   1.04568E+06,   1.04568E+06
C:/temp/Job-1.odb,Step-1,Increment      1: Step Time =    1.000,"P-1-1",          3450,   42.5411E-03,   180.109E-03,            0.,NA,NA,"",   1.04391E+06,   1.05124E+06,   1.05124E+06
C:/temp/Job-1.odb,Step-1,Increment      1: Step Time =    1.000,"P-1-1",          3451,   38.4783E-03,   179.983E-03,            0.,NA,NA,"",   1.04953E+06,   1.06004E+06,   1.06004E+06
C:/temp/Job-1.odb,Step-1,Increment      1: Step Time =    1.000,"P-1-1",          3452,   35.7997E-03,   181.032E-03,            0.,NA,NA,"",   1.05306E+06,   1.06473E+06,   1.06473E+06
C:/temp/Job-1.odb,Step-1,Increment      1: Step Time =    1.000,"P-1-1",          3453,   32.7317E-03,   181.540E-03,            0.,NA,NA,"",   1.05888E+06,   1.07286E+06,   1.07286E+06
C:/temp/Job-1.odb,Step-1,Increment      1: Step Time =    1.000,"P-1-1",          3454,   29.5693E-03,   180.523E-03,            0.,NA,NA,"",   1.06317E+06,   1.08245E+06,   1.08245E+06
C:/temp/Job-1.odb,Step-1,Increment      1: Step Time =    1.000,"P-1-1",          3455,   25.2297E-03,   180.254E-03,            0.,NA,NA,"",   1.06779E+06,   1.09458E+06,   1.09458E+06
C:/temp/Job-1.odb,Step-1,Increment      1: Step Time =    1.000,"P-1-1",          3456,   22.9208E-03,   179.951E-03,            0.,NA,NA,"",   1.06757E+06,   1.10000E+06,   1.10000E+06
C:/temp/Job-1.odb,Step-1,Increment      1: Step Time =    1.000,"P-1-1",          3457,   18.2977E-03,   180.994E-03,            0.,NA,NA,"",   1.07458E+06,   1.11600E+06,   1.11600E+06
C:/temp/Job-1.odb,Step-1,Increment      1: Step Time =    1.000,"P-1-1",          3458,   15.1648E-03,   180.628E-03,            0.,NA,NA,"",   1.06867E+06,   1.12088E+06,   1.12088E+06
C:/temp/Job-1.odb,Step-1,Increment      1: Step Time =    1.000,"P-1-1",          3459,   12.2230E-03,   180.659E-03,            0.,NA,NA,"",   1.06152E+06,   1.12439E+06,   1.12439E+06
C:/temp/Job-1.odb,Step-1,Increment      1: Step Time =    1.000,"P-1-1",          3460,   8.86080E-03,   180.351E-03,            0.,NA,NA,"",   1.04347E+06,   1.12083E+06,   1.12083E+06
C:/temp/Job-1.odb,Step-1,Increment      1: Step Time =    1.000,"P-1-1",          3461,   5.59130E-03,   179.889E-03,            0.,NA,NA,"",   1.01672E+06,   1.10866E+06,   1.10866E+06
C:/temp/Job-1.odb,Step-1,Increment      1: Step Time =    1.000,"P-1-1",          3462,   2.76121E-03,   179.747E-03,            0.,NA,NA,"",   994.089E+03,   1.09682E+06,   1.09682E+06
C:/temp/Job-1.odb,Step-1,Increment      1: Step Time =    1.000,"P-1-1",          3463,   197.001E-03,   182.923E-03,            0.,NA,NA,"",   1.00034E+06,   1.00004E+06,   1.00004E+06
C:/temp/Job-1.odb,Step-1,Increment      1: Step Time =    1.000,"P-1-1",          3464,   194.087E-03,   184.477E-03,            0.,NA,NA,"",   1.00026E+06,   1.00011E+06,   1.00011E+06
C:/temp/Job-1.odb,Step-1,Increment      1: Step Time =    1.000,"P-1-1",          3465,   189.683E-03,   184.816E-03,            0.,NA,NA,"",   1.00039E+06,   1.00032E+06,   1.00032E+06
C:/temp/Job-1.odb,Step-1,Increment      1: Step Time =    1.000,"P-1-1",          3466,   186.804E-03,   185.107E-03,            0.,NA,NA,"",   1.00059E+06,   1.00049E+06,   1.00049E+06
C:/temp/Job-1.odb,Step-1,Increment      1: Step Time =    1.000,"P-1-1",          3467,   183.652E-03,   183.207E-03,            0.,NA,NA,"",   1.00131E+06,   1.00109E+06,   1.00109E+06
C:/temp/Job-1.odb,Step-1,Increment      1: Step Time =    1.000,"P-1-1",          3468,   179.705E-03,   183.146E-03,            0.,NA,NA,"",   1.00207E+06,   1.00162E+06,   1.00162E+06
C:/temp/Job-1.odb,Step-1,Increment      1: Step Time =    1.000,"P-1-1",          3469,   177.329E-03,   183.753E-03,            0.,NA,NA,"",   1.00225E+06,   1.00167E+06,   1.00167E+06
C:/temp/Job-1.odb,Step-1,Increment      1: Step Time =    1.000,"P-1-1",          3470,   172.881E-03,   183.860E-03,            0.,NA,NA,"",   1.00303E+06,   1.00210E+06,   1.00210E+06
C:/temp/Job-1.odb,Step-1,Increment      1: Step Time =    1.000,"P-1-1",          3471,   170.446E-03,   183.930E-03,            0.,NA,NA,"",   1.00337E+06,   1.00226E+06,   1.00226E+06
C:/temp/Job-1.odb,Step-1,Increment      1: Step Time =    1.000,"P-1-1",          3472,   167.397E-03,   183.255E-03,            0.,NA,NA,"",   1.00435E+06,   1.00287E+06,   1.00287E+06
C:/temp/Job-1.odb,Step-1,Increment      1: Step Time =    1.000,"P-1-1",          3473,   163.863E-03,   183.771E-03,            0.,NA,NA,"",   1.00433E+06,   1.00265E+06,   1.00265E+06
C:/temp/Job-1.odb,Step-1,Increment      1: Step Time =    1.000,"P-1-1",          3474,   160.150E-03,   183.586E-03,            0.,NA,NA,"",   1.00482E+06,   1.00282E+06,   1.00282E+06
C:/temp/Job-1.odb,Step-1,Increment      1: Step Time =    1.000,"P-1-1",          3475,   156.946E-03,   182.887E-03,            0.,NA,NA,"",   1.00576E+06,   1.00338E+06,   1.00338E+06
C:/temp/Job-1.odb,Step-1,Increment      1: Step Time =    1.000,"P-1-1",          3476,   154.428E-03,   183.924E-03,            0.,NA,NA,"",   1.00417E+06,   1.00193E+06,   1.00193E+06
C:/temp/Job-1.odb,Step-1,Increment      1: Step Time =    1.000,"P-1-1",          3477,   149.497E-03,   184.153E-03,            0.,NA,NA,"",   1.00293E+06,   1.00065E+06,   1.00065E+06
C:/temp/Job-1.odb,Step-1,Increment      1: Step Time =    1.000,"P-1-1",          3478,   147.571E-03,   183.598E-03,            0.,NA,NA,"",   1.00332E+06,   1.00090E+06,   1.00090E+06
C:/temp/Job-1.odb,Step-1,Increment      1: Step Time =    1.000,"P-1-1",          3479,   143.317E-03,   184.712E-03,            0.,NA,NA,"",   999.649E+03,   997.631E+03,   997.631E+03
C:/temp/Job-1.odb,Step-1,Increment      1: Step Time =    1.000,"P-1-1",          3480,   140.036E-03,   184.469E-03,            0.,NA,NA,"",   998.452E+03,   996.595E+03,   996.595E+03
C:/temp/Job-1.odb,Step-1,Increment      1: Step Time =    1.000,"P-1-1",          3481,   137.496E-03,   183.944E-03,            0.,NA,NA,"",   997.931E+03,   996.190E+03,   996.190E+03
C:/temp/Job-1.odb,Step-1,Increment      1: Step Time =    1.000,"P-1-1",          3482,   133.849E-03,   184.218E-03,            0.,NA,NA,"",   995.025E+03,   993.773E+03,   993.773E+03
C:/temp/Job-1.odb,Step-1,Increment      1: Step Time =    1.000,"P-1-1",          3483,   130.863E-03,   183.216E-03,            0.,NA,NA,"",   995.041E+03,   994.151E+03,   994.151E+03
C:/temp/Job-1.odb,Step-1,Increment      1: Step Time =    1.000,"P-1-1",          3484,   127.022E-03,   183.076E-03,            0.,NA,NA,"",   992.294E+03,   992.157E+03,   992.157E+03
C:/temp/Job-1.odb,Step-1,Increment      1: Step Time =    1.000,"P-1-1",          3485,   123.822E-03,   183.106E-03,            0.,NA,NA,"",   989.477E+03,   990.076E+03,   990.076E+03
C:/temp/Job-1.odb,Step-1,Increment      1: Step Time =    1.000,"P-1-1",          3486,   120.968E-03,   183.440E-03,            0.,NA,NA,"",   985.985E+03,   987.211E+03,   987.211E+03
C:/temp/Job-1.odb,Step-1,Increment      1: Step Time =    1.000,"P-1-1",          3487,   118.023E-03,   184.269E-03,            0.,NA,NA,"",   981.472E+03,   983.194E+03,   983.194E+03
C:/temp/Job-1.odb,Step-1,Increment      1: Step Time =    1.000,"P-1-1",          3488,   114.192E-03,   183.777E-03,            0.,NA,NA,"",   979.601E+03,   982.231E+03,   982.231E+03
C:/temp/Job-1.odb,Step-1,Increment      1: Step Time =    1.000,"P-1-1",          3489,   111.293E-03,   183.490E-03,            0.,NA,NA,"",   978.438E+03,   981.685E+03,   981.685E+03
C:/temp/Job-1.odb,Step-1,Increment      1: Step Time =    1.000,"P-1-1",          3490,   108.377E-03,   183.839E-03,            0.,NA,NA,"",   975.929E+03,   979.599E+03,   979.599E+03
C:/temp/Job-1.odb,Step-1,Increment      1: Step Time =    1.000,"P-1-1",          3491,   104.387E-03,   184.002E-03,            0.,NA,NA,"",   973.773E+03,   977.782E+03,   977.782E+03
C:/temp/Job-1.odb,Step-1,Increment      1: Step Time =    1.000,"P-1-1",          3492,   101.020E-03,   184.175E-03,            0.,NA,NA,"",   972.678E+03,   976.768E+03,   976.768E+03
C:/temp/Job-1.odb,Step-1,Increment      1: Step Time =    1.000,"P-1-1",          3493,   98.0723E-03,   182.770E-03,            0.,NA,NA,"",   976.507E+03,   981.424E+03,   981.424E+03
C:/temp/Job-1.odb,Step-1,Increment      1: Step Time =    1.000,"P-1-1",          3494,   95.3825E-03,   183.575E-03,            0.,NA,NA,"",   975.231E+03,   979.693E+03,   979.693E+03
C:/temp/Job-1.odb,Step-1,Increment      1: Step Time =    1.000,"P-1-1",          3495,   91.8902E-03,   184.485E-03,            0.,NA,NA,"",   974.338E+03,   978.150E+03,   978.150E+03
C:/temp/Job-1.odb,Step-1,Increment      1: Step Time =    1.000,"P-1-1",          3496,   88.7120E-03,   183.448E-03,            0.,NA,NA,"",   979.188E+03,   983.160E+03,   983.160E+03
C:/temp/Job-1.odb,Step-1,Increment      1: Step Time =    1.000,"P-1-1",          3497,   85.7746E-03,   184.504E-03,            0.,NA,NA,"",   978.495E+03,   981.630E+03,   981.630E+03
C:/temp/Job-1.odb,Step-1,Increment      1: Step Time =    1.000,"P-1-1",          3498,   82.1957E-03,   184.284E-03,            0.,NA,NA,"",   982.507E+03,   985.181E+03,   985.181E+03
C:/temp/Job-1.odb,Step-1,Increment      1: Step Time =    1.000,"P-1-1",          3499,   78.5849E-03,   183.280E-03,            0.,NA,NA,"",   989.377E+03,   991.813E+03,   991.813E+03
C:/temp/Job-1.odb,Step-1,Increment      1: Step Time =    1.000,"P-1-1",          3500,   75.1140E-03,   184.616E-03,            0.,NA,NA,"",   989.297E+03,    990.91E+03,    990.91E+03
C:/temp/Job-1.odb,Step-1,Increment      1: Step Time =    1.000,"P-1-1",          3501,   72.0697E-03,   183.331E-03,            0.,NA,NA,"",   997.227E+03,   998.691E+03,   998.691E+03
C:/temp/Job-1.odb,Step-1,Increment      1: Step Time =    1.000,"P-1-1",          3502,   68.8970E-03,   183.520E-03,            0.,NA,NA,"",   1.00048E+06,   1.00160E+06,   1.00160E+06
C:/temp/Job-1.odb,Step-1,Increment      1: Step Time =    1.000,"P-1-1",          3503,   65.2707E-03,   183.063E-03,            0.,NA,NA,"",   1.00676E+06,   1.00775E+06,   1.00775E+06
C:/temp/Job-1.odb,Step-1,Increment      1: Step Time =    1.000,"P-1-1",          3504,   62.2518E-03,   183.714E-03,            0.,NA,NA,"",   1.00856E+06,   1.00936E+06,   1.00936E+06
C:/temp/Job-1.odb,Step-1,Increment      1: Step Time =    1.000,"P-1-1",          3505,   59.9458E-03,   182.564E-03,            0.,NA,NA,"",   1.01509E+06,   1.01621E+06,   1.01621E+06
C:/temp/Job-1.odb,Step-1,Increment      1: Step Time =    1.000,"P-1-1",          3506,   55.1126E-03,   183.267E-03,            0.,NA,NA,"",   1.01980E+06,   1.02131E+06,   1.02131E+06
C:/temp/Job-1.odb,Step-1,Increment      1: Step Time =    1.000,"P-1-1",          3507,   52.0290E-03,   184.386E-03,            0.,NA,NA,"",   1.02126E+06,   1.02298E+06,   1.02298E+06
C:/temp/Job-1.odb,Step-1,Increment      1: Step Time =    1.000,"P-1-1",          3508,   49.1793E-03,   183.079E-03,            0.,NA,NA,"",   1.02924E+06,   1.03209E+06,   1.03209E+06
C:/temp/Job-1.odb,Step-1,Increment      1: Step Time =    1.000,"P-1-1",          3509,   45.0485E-03,   183.363E-03,            0.,NA,NA,"",   1.03519E+06,   1.03931E+06,   1.03931E+06
C:/temp/Job-1.odb,Step-1,Increment      1: Step Time =    1.000,"P-1-1",          3510,   42.3818E-03,   183.323E-03,            0.,NA,NA,"",   1.03984E+06,   1.04511E+06,   1.04511E+06
C:/temp/Job-1.odb,Step-1,Increment      1: Step Time =    1.000,"P-1-1",          3511,   39.6103E-03,   183.200E-03,            0.,NA,NA,"",   1.04525E+06,   1.05204E+06,   1.05204E+06
C:/temp/Job-1.odb,Step-1,Increment      1: Step Time =    1.000,"P-1-1",          3512,   36.4232E-03,   184.100E-03,            0.,NA,NA,"",   1.05068E+06,   1.05884E+06,   1.05884E+06
C:/temp/Job-1.odb,Step-1,Increment      1: Step Time =    1.000,"P-1-1",          3513,   33.7143E-03,   184.846E-03,            0.,NA,NA,"",   1.05640E+06,   1.06572E+06,   1.06572E+06
C:/temp/Job-1.odb,Step-1,Increment      1: Step Time =    1.000,"P-1-1",          3514,   30.1159E-03,   183.591E-03,            0.,NA,NA,"",   1.06555E+06,   1.07946E+06,   1.07946E+06
C:/temp/Job-1.odb,Step-1,Increment      1: Step Time =    1.000,"P-1-1",          3515,   25.4514E-03,   183.229E-03,            0.,NA,NA,"",   1.07599E+06,   1.09681E+06,   1.09681E+06
C:/temp/Job-1.odb,Step-1,Increment      1: Step Time =    1.000,"P-1-1",          3516,   22.3665E-03,   183.491E-03,            0.,NA,NA,"",   1.08407E+06,   1.10975E+06,   1.10975E+06
C:/temp/Job-1.odb,Step-1,Increment      1: Step Time =    1.000,"P-1-1",          3517,   19.5023E-03,   184.172E-03,            0.,NA,NA,"",   1.09328E+06,   1.12365E+06,   1.12365E+06
C:/temp/Job-1.odb,Step-1,Increment      1: Step Time =    1.000,"P-1-1",          3518,   15.2956E-03,   183.497E-03,            0.,NA,NA,"",   1.09334E+06,   1.13765E+06,   1.13765E+06
C:/temp/Job-1.odb,Step-1,Increment      1: Step Time =    1.000,"P-1-1",          3519,   12.6028E-03,   183.809E-03,            0.,NA,NA,"",   1.09413E+06,   1.14772E+06,   1.14772E+06
C:/temp/Job-1.odb,Step-1,Increment      1: Step Time =    1.000,"P-1-1",          3520,   8.97311E-03,   182.913E-03,            0.,NA,NA,"",   1.07337E+06,   1.14571E+06,   1.14571E+06
C:/temp/Job-1.odb,Step-1,Increment      1: Step Time =    1.000,"P-1-1",          3521,   5.35973E-03,   183.841E-03,            0.,NA,NA,"",   1.06022E+06,   1.14919E+06,   1.14919E+06
C:/temp/Job-1.odb,Step-1,Increment      1: Step Time =    1.000,"P-1-1",          3522,   2.68914E-03,   182.720E-03,            0.,NA,NA,"",   1.02356E+06,   1.12586E+06,   1.12586E+06
C:/temp/Job-1.odb,Step-1,Increment      1: Step Time =    1.000,"P-1-1",          3523,   197.066E-03,   185.958E-03,            0.,NA,NA,"",   1.00027E+06,   1.00002E+06,   1.00002E+06
C:/temp/Job-1.odb,Step-1,Increment      1: Step Time =    1.000,"P-1-1",          3524,   194.181E-03,   187.349E-03,            0.,NA,NA,"",   1.00017E+06,   1.00003E+06,   1.00003E+06
C:/temp/Job-1.odb,Step-1,Increment      1: Step Time =    1.000,"P-1-1",          3525,   191.330E-03,   187.326E-03,            0.,NA,NA,"",   1.00017E+06,   1.00009E+06,   1.00009E+06
C:/temp/Job-1.odb,Step-1,Increment      1: Step Time =    1.000,"P-1-1",          3526,   186.953E-03,   187.783E-03,            0.,NA,NA,"",   1.00026E+06,   1.00018E+06,   1.00018E+06
C:/temp/Job-1.odb,Step-1,Increment      1: Step Time =    1.000,"P-1-1",          3527,   183.963E-03,   186.416E-03,            0.,NA,NA,"",   1.00065E+06,   1.00050E+06,   1.00050E+06
C:/temp/Job-1.odb,Step-1,Increment      1: Step Time =    1.000,"P-1-1",          3528,   180.876E-03,   186.281E-03,            0.,NA,NA,"",   1.00099E+06,   1.00072E+06,   1.00072E+06
C:/temp/Job-1.odb,Step-1,Increment      1: Step Time =    1.000,"P-1-1",          3529,   177.635E-03,   186.869E-03,            0.,NA,NA,"",   1.00114E+06,   1.00075E+06,   1.00075E+06
C:/temp/Job-1.odb,Step-1,Increment      1: Step Time =    1.000,"P-1-1",          3530,   173.510E-03,   187.127E-03,            0.,NA,NA,"",   1.00133E+06,   1.00074E+06,   1.00074E+06
C:/temp/Job-1.odb,Step-1,Increment      1: Step Time =    1.000,"P-1-1",          3531,   170.292E-03,   187.523E-03,            0.,NA,NA,"",   1.00130E+06,   1.00057E+06,   1.00057E+06
C:/temp/Job-1.odb,Step-1,Increment      1: Step Time =    1.000,"P-1-1",          3532,   167.619E-03,   186.359E-03,            0.,NA,NA,"",   1.00204E+06,   1.00103E+06,   1.00103E+06
C:/temp/Job-1.odb,Step-1,Increment      1: Step Time =    1.000,"P-1-1",          3533,   164.964E-03,   186.866E-03,            0.,NA,NA,"",   1.00169E+06,   1.00059E+06,   1.00059E+06
C:/temp/Job-1.odb,Step-1,Increment      1: Step Time =    1.000,"P-1-1",          3534,   160.869E-03,   186.655E-03,            0.,NA,NA,"",   1.00155E+06,   1.00022E+06,   1.00022E+06
C:/temp/Job-1.odb,Step-1,Increment      1: Step Time =    1.000,"P-1-1",          3535,   157.801E-03,   186.362E-03,            0.,NA,NA,"",   1.00163E+06,   1.00007E+06,   1.00007E+06
C:/temp/Job-1.odb,Step-1,Increment      1: Step Time =    1.000,"P-1-1",          3536,   153.161E-03,   186.780E-03,            0.,NA,NA,"",   1.00015E+06,   998.526E+03,   998.526E+03
C:/temp/Job-1.odb,Step-1,Increment      1: Step Time =    1.000,"P-1-1",          3537,   150.487E-03,   187.498E-03,            0.,NA,NA,"",   998.260E+03,   996.757E+03,   996.757E+03
C:/temp/Job-1.odb,Step-1,Increment      1: Step Time =    1.000,"P-1-1",          3538,   146.956E-03,   187.533E-03,            0.,NA,NA,"",   996.663E+03,   995.164E+03,   995.164E+03
C:/temp/Job-1.odb,Step-1,Increment      1: Step Time =    1.000,"P-1-1",          3539,   143.147E-03,   187.743E-03,            0.,NA,NA,"",   994.257E+03,   992.891E+03,   992.891E+03
C:/temp/Job-1.odb,Step-1,Increment      1: Step Time =    1.000,"P-1-1",          3540,   140.151E-03,   188.327E-03,            0.,NA,NA,"",   991.170E+03,   990.027E+03,   990.027E+03
C:/temp/Job-1.odb,Step-1,Increment      1: Step Time =    1.000,"P-1-1",          3541,   136.696E-03,   186.581E-03,            0.,NA,NA,"",   992.006E+03,   990.790E+03,   990.790E+03
C:/temp/Job-1.odb,Step-1,Increment      1: Step Time =    1.000,"P-1-1",          3542,   133.871E-03,   187.253E-03,            0.,NA,NA,"",   988.389E+03,   987.520E+03,   987.520E+03
C:/temp/Job-1.odb,Step-1,Increment      1: Step Time =    1.000,"P-1-1",          3543,   130.804E-03,   187.116E-03,            0.,NA,NA,"",   986.058E+03,   985.500E+03,   985.500E+03
C:/temp/Job-1.odb,Step-1,Increment      1: Step Time =    1.000,"P-1-1",          3544,   127.510E-03,   186.534E-03,            0.,NA,NA,"",   984.559E+03,   984.385E+03,   984.385E+03
C:/temp/Job-1.odb,Step-1,Increment      1: Step Time =    1.000,"P-1-1",          3545,   124.296E-03,   187.218E-03,            0.,NA,NA,"",   979.864E+03,   980.176E+03,   980.176E+03
C:/temp/Job-1.odb,Step-1,Increment      1: Step Time =    1.000,"P-1-1",          3546,   119.996E-03,   186.694E-03,            0.,NA,NA,"",   977.183E+03,   978.101E+03,   978.101E+03
C:/temp/Job-1.odb,Step-1,Increment      1: Step Time =    1.000,"P-1-1",          3547,   117.263E-03,   187.214E-03,            0.,NA,NA,"",   973.701E+03,   975.026E+03,   975.026E+03
C:/temp/Job-1.odb,Step-1,Increment      1: Step Time =    1.000,"P-1-1",          3548,   113.615E-03,   188.072E-03,            0.,NA,NA,"",   968.116E+03,   969.689E+03,   969.689E+03
C:/temp/Job-1.odb,Step-1,Increment      1: Step Time =    1.000,"P-1-1",          3549,   111.067E-03,   188.138E-03,            0.,NA,NA,"",   966.042E+03,   967.817E+03,   967.817E+03
C:/temp/Job-1.odb,Step-1,Increment      1: Step Time =    1.000,"P-1-1",          3550,   108.360E-03,   186.978E-03,            0.,NA,NA,"",   967.769E+03,   970.202E+03,   970.202E+03
C:/temp/Job-1.odb,Step-1,Increment      1: Step Time =    1.000,"P-1-1",          3551,   105.818E-03,   185.732E-03,            0.,NA,NA,"",   970.038E+03,   973.213E+03,   973.213E+03
C:/temp/Job-1.odb,Step-1,Increment      1: Step Time =    1.000,"P-1-1",          3552,   101.181E-03,   186.653E-03,            0.,NA,NA,"",   966.458E+03,   969.497E+03,   969.497E+03
C:/temp/Job-1.odb,Step-1,Increment      1: Step Time =    1.000,"P-1-1",          3553,   98.3146E-03,   186.001E-03,            0.,NA,NA,"",   968.234E+03,   971.645E+03,   971.645E+03
C:/temp/Job-1.odb,Step-1,Increment      1: Step Time =    1.000,"P-1-1",          3554,   95.1484E-03,   187.657E-03,            0.,NA,NA,"",   963.972E+03,   966.626E+03,   966.626E+03
C:/temp/Job-1.odb,Step-1,Increment      1: Step Time =    1.000,"P-1-1",          3555,   92.1651E-03,   187.614E-03,            0.,NA,NA,"",   965.202E+03,   967.744E+03,   967.744E+03
C:/temp/Job-1.odb,Step-1,Increment      1: Step Time =    1.000,"P-1-1",          3556,   89.4299E-03,   187.504E-03,            0.,NA,NA,"",   967.061E+03,   969.474E+03,   969.474E+03
C:/temp/Job-1.odb,Step-1,Increment      1: Step Time =    1.000,"P-1-1",          3557,   86.7272E-03,   186.812E-03,            0.,NA,NA,"",   970.913E+03,   973.370E+03,   973.370E+03
C:/temp/Job-1.odb,Step-1,Increment      1: Step Time =    1.000,"P-1-1",          3558,   82.3599E-03,   187.724E-03,            0.,NA,NA,"",   971.480E+03,   973.188E+03,   973.188E+03
C:/temp/Job-1.odb,Step-1,Increment      1: Step Time =    1.000,"P-1-1",          3559,   79.4156E-03,   186.780E-03,            0.,NA,NA,"",   977.798E+03,   979.453E+03,   979.453E+03
C:/temp/Job-1.odb,Step-1,Increment      1: Step Time =    1.000,"P-1-1",          3560,   75.2815E-03,   187.385E-03,            0.,NA,NA,"",   980.283E+03,   981.263E+03,   981.263E+03
C:/temp/Job-1.odb,Step-1,Increment      1: Step Time =    1.000,"P-1-1",          3561,   72.3962E-03,   186.827E-03,            0.,NA,NA,"",   985.382E+03,   986.299E+03,   986.299E+03
C:/temp/Job-1.odb,Step-1,Increment      1: Step Time =    1.000,"P-1-1",          3562,   69.2802E-03,   186.571E-03,            0.,NA,NA,"",   990.379E+03,   991.068E+03,   991.068E+03
C:/temp/Job-1.odb,Step-1,Increment      1: Step Time =    1.000,"P-1-1",          3563,   65.4358E-03,   188.038E-03,            0.,NA,NA,"",    990.54E+03,   990.916E+03,   990.916E+03
C:/temp/Job-1.odb,Step-1,Increment      1: Step Time =    1.000,"P-1-1",          3564,   62.6395E-03,   186.900E-03,            0.,NA,NA,"",   998.631E+03,   999.029E+03,   999.029E+03
C:/temp/Job-1.odb,Step-1,Increment      1: Step Time =    1.000,"P-1-1",          3565,   58.6822E-03,   185.530E-03,            0.,NA,NA,"",   1.00822E+06,   1.00896E+06,   1.00896E+06
C:/temp/Job-1.odb,Step-1,Increment      1: Step Time =    1.000,"P-1-1",          3566,   54.5745E-03,   186.390E-03,            0.,NA,NA,"",   1.01173E+06,   1.01270E+06,   1.01270E+06
C:/temp/Job-1.odb,Step-1,Increment      1: Step Time =    1.000,"P-1-1",          3567,   52.6671E-03,   187.910E-03,            0.,NA,NA,"",   1.00978E+06,   1.01068E+06,   1.01068E+06
C:/temp/Job-1.odb,Step-1,Increment      1: Step Time =    1.000,"P-1-1",          3568,   50.0862E-03,   188.406E-03,            0.,NA,NA,"",   1.01227E+06,   1.01336E+06,   1.01336E+06
C:/temp/Job-1.odb,Step-1,Increment      1: Step Time =    1.000,"P-1-1",          3569,   45.1370E-03,   186.420E-03,            0.,NA,NA,"",   1.02792E+06,   1.03057E+06,   1.03057E+06
C:/temp/Job-1.odb,Step-1,Increment      1: Step Time =    1.000,"P-1-1",          3570,   42.3193E-03,   186.535E-03,            0.,NA,NA,"",   1.03326E+06,   1.03672E+06,   1.03672E+06
C:/temp/Job-1.odb,Step-1,Increment      1: Step Time =    1.000,"P-1-1",          3571,   38.2592E-03,   187.791E-03,            0.,NA,NA,"",   1.03958E+06,   1.04363E+06,   1.04363E+06
C:/temp/Job-1.odb,Step-1,Increment      1: Step Time =    1.000,"P-1-1",          3572,   35.6824E-03,   186.742E-03,            0.,NA,NA,"",   1.04953E+06,   1.05555E+06,   1.05555E+06
C:/temp/Job-1.odb,Step-1,Increment      1: Step Time =    1.000,"P-1-1",          3573,   32.5411E-03,   187.130E-03,            0.,NA,NA,"",   1.05750E+06,   1.06503E+06,   1.06503E+06
C:/temp/Job-1.odb,Step-1,Increment      1: Step Time =    1.000,"P-1-1",          3574,   30.2240E-03,   187.365E-03,            0.,NA,NA,"",   1.06438E+06,   1.07306E+06,   1.07306E+06
C:/temp/Job-1.odb,Step-1,Increment      1: Step Time =    1.000,"P-1-1",          3575,   25.6990E-03,   186.591E-03,            0.,NA,NA,"",   1.08174E+06,   1.09591E+06,   1.09591E+06
C:/temp/Job-1.odb,Step-1,Increment      1: Step Time =    1.000,"P-1-1",          3576,   22.6746E-03,   186.865E-03,            0.,NA,NA,"",   1.09397E+06,   1.11158E+06,   1.11158E+06
C:/temp/Job-1.odb,Step-1,Increment      1: Step Time =    1.000,"P-1-1",          3577,   19.8724E-03,   187.310E-03,            0.,NA,NA,"",   1.10706E+06,   1.12836E+06,   1.12836E+06
C:/temp/Job-1.odb,Step-1,Increment      1: Step Time =    1.000,"P-1-1",          3578,   15.6150E-03,   186.426E-03,            0.,NA,NA,"",   1.11810E+06,   1.15259E+06,   1.15259E+06
C:/temp/Job-1.odb,Step-1,Increment      1: Step Time =    1.000,"P-1-1",          3579,   11.8572E-03,   186.922E-03,            0.,NA,NA,"",   1.13042E+06,   1.17728E+06,   1.17728E+06
C:/temp/Job-1.odb,Step-1,Increment      1: Step Time =    1.000,"P-1-1",          3580,   9.99779E-03,   187.255E-03,            0.,NA,NA,"",   1.13274E+06,   1.18742E+06,   1.18742E+06
C:/temp/Job-1.odb,Step-1,Increment      1: Step Time =    1.000,"P-1-1",          3581,   5.75206E-03,   186.630E-03,            0.,NA,NA,"",   1.10625E+06,   1.18824E+06,   1.18824E+06
C:/temp/Job-1.odb,Step-1,Increment      1: Step Time =    1.000,"P-1-1",          3582,   2.82557E-03,   185.733E-03,            0.,NA,NA,"",   1.06413E+06,   1.16462E+06,   1.16462E+06
C:/temp/Job-1.odb,Step-1,Increment      1: Step Time =    1.000,"P-1-1",          3583,   196.946E-03,   190.554E-03,            0.,NA,NA,"",   1.00012E+06,   999.982E+03,   999.982E+03
C:/temp/Job-1.odb,Step-1,Increment      1: Step Time =    1.000,"P-1-1",          3584,   194.045E-03,   190.223E-03,            0.,NA,NA,"",   1.00006E+06,   999.963E+03,   999.963E+03
C:/temp/Job-1.odb,Step-1,Increment      1: Step Time =    1.000,"P-1-1",          3585,   190.052E-03,   189.823E-03,            0.,NA,NA,"",   1.00002E+06,   999.966E+03,   999.966E+03
C:/temp/Job-1.odb,Step-1,Increment      1: Step Time =    1.000,"P-1-1",          3586,   187.206E-03,   191.154E-03,            0.,NA,NA,"",   999.918E+03,   999.872E+03,   999.872E+03
C:/temp/Job-1.odb,Step-1,Increment      1: Step Time =    1.000,"P-1-1",          3587,   183.882E-03,   189.602E-03,            0.,NA,NA,"",   1.00013E+06,   1.00004E+06,   1.00004E+06
C:/temp/Job-1.odb,Step-1,Increment      1: Step Time =    1.000,"P-1-1",          3588,   180.817E-03,   189.452E-03,            0.,NA,NA,"",   1.00024E+06,   1.00008E+06,   1.00008E+06
C:/temp/Job-1.odb,Step-1,Increment      1: Step Time =    1.000,"P-1-1",          3589,   178.607E-03,   190.942E-03,            0.,NA,NA,"",   999.923E+03,   999.755E+03,   999.755E+03
C:/temp/Job-1.odb,Step-1,Increment      1: Step Time =    1.000,"P-1-1",          3590,   173.520E-03,   190.774E-03,            0.,NA,NA,"",   999.840E+03,   999.527E+03,   999.527E+03
C:/temp/Job-1.odb,Step-1,Increment      1: Step Time =    1.000,"P-1-1",          3591,   170.607E-03,   190.331E-03,            0.,NA,NA,"",   999.853E+03,   999.410E+03,   999.410E+03
C:/temp/Job-1.odb,Step-1,Increment      1: Step Time =    1.000,"P-1-1",          3592,   166.466E-03,   190.398E-03,            0.,NA,NA,"",   999.423E+03,   998.850E+03,   998.850E+03
C:/temp/Job-1.odb,Step-1,Increment      1: Step Time =    1.000,"P-1-1",          3593,   163.823E-03,   189.944E-03,            0.,NA,NA,"",   999.297E+03,   998.582E+03,   998.582E+03
C:/temp/Job-1.odb,Step-1,Increment      1: Step Time =    1.000,"P-1-1",          3594,   161.138E-03,   189.857E-03,            0.,NA,NA,"",   998.917E+03,   998.091E+03,   998.091E+03
C:/temp/Job-1.odb,Step-1,Increment      1: Step Time =    1.000,"P-1-1",          3595,   157.001E-03,   190.318E-03,            0.,NA,NA,"",   997.269E+03,   996.417E+03,   996.417E+03
C:/temp/Job-1.odb,Step-1,Increment      1: Step Time =    1.000,"P-1-1",          3596,   153.380E-03,   190.846E-03,            0.,NA,NA,"",   995.357E+03,   994.522E+03,   994.522E+03
C:/temp/Job-1.odb,Step-1,Increment      1: Step Time =    1.000,"P-1-1",          3597,   150.132E-03,   189.293E-03,            0.,NA,NA,"",   995.772E+03,   994.617E+03,   994.617E+03
C:/temp/Job-1.odb,Step-1,Increment      1: Step Time =    1.000,"P-1-1",          3598,   147.583E-03,   190.409E-03,            0.,NA,NA,"",   992.744E+03,   991.803E+03,   991.803E+03
C:/temp/Job-1.odb,Step-1,Increment      1: Step Time =    1.000,"P-1-1",          3599,   143.043E-03,   190.594E-03,            0.,NA,NA,"",   989.464E+03,   988.608E+03,   988.608E+03
C:/temp/Job-1.odb,Step-1,Increment      1: Step Time =    1.000,"P-1-1",          3600,   140.545E-03,   191.282E-03,            0.,NA,NA,"",   986.233E+03,   985.541E+03,   985.541E+03
C:/temp/Job-1.odb,Step-1,Increment      1: Step Time =    1.000,"P-1-1",          3601,   137.966E-03,   190.852E-03,            0.,NA,NA,"",   984.665E+03,   983.998E+03,   983.998E+03
C:/temp/Job-1.odb,Step-1,Increment      1: Step Time =    1.000,"P-1-1",          3602,   134.602E-03,   190.429E-03,            0.,NA,NA,"",   982.474E+03,   981.893E+03,   981.893E+03
C:/temp/Job-1.odb,Step-1,Increment      1: Step Time =    1.000,"P-1-1",          3603,   129.956E-03,   190.910E-03,            0.,NA,NA,"",    976.56E+03,   976.303E+03,   976.303E+03
C:/temp/Job-1.odb,Step-1,Increment      1: Step Time =    1.000,"P-1-1",          3604,   127.353E-03,   190.213E-03,            0.,NA,NA,"",   975.576E+03,   975.476E+03,   975.476E+03
C:/temp/Job-1.odb,Step-1,Increment      1: Step Time =    1.000,"P-1-1",          3605,   124.355E-03,   190.284E-03,            0.,NA,NA,"",   972.255E+03,   972.438E+03,   972.438E+03
C:/temp/Job-1.odb,Step-1,Increment      1: Step Time =    1.000,"P-1-1",          3606,   120.769E-03,   189.497E-03,            0.,NA,NA,"",   970.795E+03,   971.301E+03,   971.301E+03
C:/temp/Job-1.odb,Step-1,Increment      1: Step Time =    1.000,"P-1-1",          3607,   117.735E-03,   190.535E-03,            0.,NA,NA,"",   964.947E+03,   965.676E+03,   965.676E+03
C:/temp/Job-1.odb,Step-1,Increment      1: Step Time =    1.000,"P-1-1",          3608,   114.936E-03,   190.765E-03,            0.,NA,NA,"",   961.846E+03,   962.773E+03,   962.773E+03
C:/temp/Job-1.odb,Step-1,Increment      1: Step Time =    1.000,"P-1-1",          3609,   111.384E-03,   190.391E-03,            0.,NA,NA,"",   960.030E+03,   961.249E+03,   961.249E+03
C:/temp/Job-1.odb,Step-1,Increment      1: Step Time =    1.000,"P-1-1",          3610,   108.358E-03,   190.055E-03,            0.,NA,NA,"",   959.074E+03,   960.530E+03,   960.530E+03
C:/temp/Job-1.odb,Step-1,Increment      1: Step Time =    1.000,"P-1-1",          3611,   104.984E-03,   190.584E-03,            0.,NA,NA,"",   955.580E+03,   957.118E+03,   957.118E+03
C:/temp/Job-1.odb,Step-1,Increment      1: Step Time =    1.000,"P-1-1",          3612,   102.059E-03,   189.283E-03,            0.,NA,NA,"",   958.837E+03,   960.840E+03,   960.840E+03
C:/temp/Job-1.odb,Step-1,Increment      1: Step Time =    1.000,"P-1-1",          3613,   97.7739E-03,   189.919E-03,            0.,NA,NA,"",   956.506E+03,   958.344E+03,   958.344E+03
C:/temp/Job-1.odb,Step-1,Increment      1: Step Time =    1.000,"P-1-1",          3614,   94.7293E-03,   191.233E-03,            0.,NA,NA,"",   952.545E+03,   953.953E+03,   953.953E+03
C:/temp/Job-1.odb,Step-1,Increment      1: Step Time =    1.000,"P-1-1",          3615,   91.8230E-03,   190.764E-03,            0.,NA,NA,"",   955.157E+03,   956.629E+03,   956.629E+03
C:/temp/Job-1.odb,Step-1,Increment      1: Step Time =    1.000,"P-1-1",          3616,   88.9340E-03,   190.442E-03,            0.,NA,NA,"",   957.714E+03,   959.167E+03,   959.167E+03
C:/temp/Job-1.odb,Step-1,Increment      1: Step Time =    1.000,"P-1-1",          3617,   86.1526E-03,   189.863E-03,            0.,NA,NA,"",   961.506E+03,   962.970E+03,   962.970E+03
C:/temp/Job-1.odb,Step-1,Increment      1: Step Time =    1.000,"P-1-1",          3618,   81.5314E-03,   190.612E-03,            0.,NA,NA,"",   962.391E+03,   963.409E+03,   963.409E+03
C:/temp/Job-1.odb,Step-1,Increment      1: Step Time =    1.000,"P-1-1",          3619,   78.5518E-03,   190.098E-03,            0.,NA,NA,"",   967.269E+03,   968.139E+03,   968.139E+03
C:/temp/Job-1.odb,Step-1,Increment      1: Step Time =    1.000,"P-1-1",          3620,   75.8208E-03,   190.151E-03,            0.,NA,NA,"",   970.109E+03,   970.800E+03,   970.800E+03
C:/temp/Job-1.odb,Step-1,Increment      1: Step Time =    1.000,"P-1-1",          3621,   71.8627E-03,   190.577E-03,            0.,NA,NA,"",   973.146E+03,   973.549E+03,   973.549E+03
C:/temp/Job-1.odb,Step-1,Increment      1: Step Time =    1.000,"P-1-1",          3622,   67.7619E-03,   191.145E-03,            0.,NA,NA,"",   976.298E+03,   976.557E+03,   976.557E+03
C:/temp/Job-1.odb,Step-1,Increment      1: Step Time =    1.000,"P-1-1",          3623,   62.3826E-03,   191.226E-03,            0.,NA,NA,"",   982.979E+03,   983.118E+03,   983.118E+03
C:/temp/Job-1.odb,Step-1,Increment      1: Step Time =    1.000,"P-1-1",          3624,   59.9195E-03,   189.833E-03,            0.,NA,NA,"",   991.960E+03,   992.194E+03,   992.194E+03
C:/temp/Job-1.odb,Step-1,Increment      1: Step Time =    1.000,"P-1-1",          3625,   55.8799E-03,   189.657E-03,            0.,NA,NA,"",   998.936E+03,   999.295E+03,   999.295E+03
C:/temp/Job-1.odb,Step-1,Increment      1: Step Time =    1.000,"P-1-1",          3626,   52.6484E-03,   190.720E-03,            0.,NA,NA,"",   1.00031E+06,   1.00077E+06,   1.00077E+06
C:/temp/Job-1.odb,Step-1,Increment      1: Step Time =    1.000,"P-1-1",          3627,   49.4390E-03,   191.143E-03,            0.,NA,NA,"",   1.00436E+06,   1.00496E+06,   1.00496E+06
C:/temp/Job-1.odb,Step-1,Increment      1: Step Time =    1.000,"P-1-1",          3628,   45.4639E-03,   189.704E-03,            0.,NA,NA,"",   1.01717E+06,   1.01860E+06,   1.01860E+06
C:/temp/Job-1.odb,Step-1,Increment      1: Step Time =    1.000,"P-1-1",          3629,   42.1846E-03,   190.072E-03,            0.,NA,NA,"",   1.02336E+06,   1.02514E+06,   1.02514E+06
C:/temp/Job-1.odb,Step-1,Increment      1: Step Time =    1.000,"P-1-1",          3630,   39.0995E-03,   189.932E-03,            0.,NA,NA,"",   1.03173E+06,   1.03436E+06,   1.03436E+06
C:/temp/Job-1.odb,Step-1,Increment      1: Step Time =    1.000,"P-1-1",          3631,   35.7092E-03,   190.079E-03,            0.,NA,NA,"",   1.04052E+06,   1.04385E+06,   1.04385E+06
C:/temp/Job-1.odb,Step-1,Increment      1: Step Time =    1.000,"P-1-1",          3632,   32.6770E-03,   191.148E-03,            0.,NA,NA,"",   1.04752E+06,   1.05115E+06,   1.05115E+06
C:/temp/Job-1.odb,Step-1,Increment      1: Step Time =    1.000,"P-1-1",          3633,   30.4411E-03,   190.413E-03,            0.,NA,NA,"",   1.05879E+06,   1.06377E+06,   1.06377E+06
C:/temp/Job-1.odb,Step-1,Increment      1: Step Time =    1.000,"P-1-1",          3634,   25.4209E-03,   189.528E-03,            0.,NA,NA,"",   1.08234E+06,   1.09142E+06,   1.09142E+06
C:/temp/Job-1.odb,Step-1,Increment      1: Step Time =    1.000,"P-1-1",          3635,   22.8429E-03,   190.027E-03,            0.,NA,NA,"",   1.09570E+06,   1.10645E+06,   1.10645E+06
C:/temp/Job-1.odb,Step-1,Increment      1: Step Time =    1.000,"P-1-1",          3636,   20.0690E-03,   190.443E-03,            0.,NA,NA,"",   1.11329E+06,   1.12636E+06,   1.12636E+06
C:/temp/Job-1.odb,Step-1,Increment      1: Step Time =    1.000,"P-1-1",          3637,   15.8067E-03,   189.414E-03,            0.,NA,NA,"",   1.13892E+06,   1.16272E+06,   1.16272E+06
C:/temp/Job-1.odb,Step-1,Increment      1: Step Time =    1.000,"P-1-1",          3638,   13.0087E-03,   191.030E-03,            0.,NA,NA,"",   1.17111E+06,   1.19638E+06,   1.19638E+06
C:/temp/Job-1.odb,Step-1,Increment      1: Step Time =    1.000,"P-1-1",          3639,   10.4566E-03,   189.518E-03,            0.,NA,NA,"",   1.16920E+06,   1.21185E+06,   1.21185E+06
C:/temp/Job-1.odb,Step-1,Increment      1: Step Time =    1.000,"P-1-1",          3640,   6.85577E-03,   189.881E-03,            0.,NA,NA,"",   1.17818E+06,   1.24139E+06,   1.24139E+06
C:/temp/Job-1.odb,Step-1,Increment      1: Step Time =    1.000,"P-1-1",          3641,   3.26506E-03,   190.404E-03,            0.,NA,NA,"",   1.16372E+06,   1.25623E+06,   1.25623E+06
C:/temp/Job-1.odb,Step-1,Increment      1: Step Time =    1.000,"P-1-1",          3642,   196.776E-03,   193.683E-03,            0.,NA,NA,"",   1.00003E+06,   999.958E+03,   999.958E+03
C:/temp/Job-1.odb,Step-1,Increment      1: Step Time =    1.000,"P-1-1",          3643,   193.193E-03,   193.460E-03,            0.,NA,NA,"",   999.923E+03,   999.872E+03,   999.872E+03
C:/temp/Job-1.odb,Step-1,Increment      1: Step Time =    1.000,"P-1-1",          3644,   190.095E-03,   194.555E-03,            0.,NA,NA,"",   999.767E+03,   999.746E+03,   999.746E+03
C:/temp/Job-1.odb,Step-1,Increment      1: Step Time =    1.000,"P-1-1",          3645,   187.462E-03,   194.531E-03,            0.,NA,NA,"",   999.668E+03,   999.651E+03,   999.651E+03
C:/temp/Job-1.odb,Step-1,Increment      1: Step Time =    1.000,"P-1-1",          3646,   184.679E-03,   194.331E-03,            0.,NA,NA,"",   999.570E+03,   999.544E+03,   999.544E+03
C:/temp/Job-1.odb,Step-1,Increment      1: Step Time =    1.000,"P-1-1",          3647,   180.326E-03,   193.969E-03,            0.,NA,NA,"",   999.404E+03,   999.345E+03,   999.345E+03
C:/temp/Job-1.odb,Step-1,Increment      1: Step Time =    1.000,"P-1-1",          3648,   177.028E-03,   193.317E-03,            0.,NA,NA,"",   999.344E+03,   999.225E+03,   999.225E+03
C:/temp/Job-1.odb,Step-1,Increment      1: Step Time =    1.000,"P-1-1",          3649,   173.731E-03,   194.004E-03,            0.,NA,NA,"",   998.869E+03,   998.732E+03,   998.732E+03
C:/temp/Job-1.odb,Step-1,Increment      1: Step Time =    1.000,"P-1-1",          3650,   170.898E-03,   194.257E-03,            0.,NA,NA,"",   998.426E+03,   998.264E+03,   998.264E+03
C:/temp/Job-1.odb,Step-1,Increment      1: Step Time =    1.000,"P-1-1",          3651,   166.468E-03,   192.929E-03,            0.,NA,NA,"",   998.117E+03,   997.789E+03,   997.789E+03
C:/temp/Job-1.odb,Step-1,Increment      1: Step Time =    1.000,"P-1-1",          3652,   164.209E-03,   192.576E-03,            0.,NA,NA,"",   997.798E+03,   997.395E+03,   997.395E+03
C:/temp/Job-1.odb,Step-1,Increment      1: Step Time =    1.000,"P-1-1",          3653,   160.130E-03,   193.312E-03,            0.,NA,NA,"",   996.122E+03,   995.723E+03,   995.723E+03
C:/temp/Job-1.odb,Step-1,Increment      1: Step Time =    1.000,"P-1-1",          3654,   157.797E-03,   193.538E-03,            0.,NA,NA,"",   995.079E+03,   994.666E+03,   994.666E+03
C:/temp/Job-1.odb,Step-1,Increment      1: Step Time =    1.000,"P-1-1",          3655,   153.099E-03,   193.579E-03,            0.,NA,NA,"",   992.540E+03,   992.101E+03,   992.101E+03
C:/temp/Job-1.odb,Step-1,Increment      1: Step Time =    1.000,"P-1-1",          3656,   149.523E-03,   192.309E-03,            0.,NA,NA,"",   991.644E+03,   991.001E+03,   991.001E+03
C:/temp/Job-1.odb,Step-1,Increment      1: Step Time =    1.000,"P-1-1",          3657,   147.271E-03,   192.334E-03,            0.,NA,NA,"",   989.978E+03,   989.354E+03,   989.354E+03
C:/temp/Job-1.odb,Step-1,Increment      1: Step Time =    1.000,"P-1-1",          3658,   143.751E-03,   193.889E-03,            0.,NA,NA,"",   985.141E+03,   984.745E+03,   984.745E+03
C:/temp/Job-1.odb,Step-1,Increment      1: Step Time =    1.000,"P-1-1",          3659,   140.981E-03,   194.244E-03,            0.,NA,NA,"",   981.929E+03,   981.601E+03,   981.601E+03
C:/temp/Job-1.odb,Step-1,Increment      1: Step Time =    1.000,"P-1-1",          3660,   138.197E-03,   193.178E-03,            0.,NA,NA,"",   980.789E+03,   980.399E+03,   980.399E+03
C:/temp/Job-1.odb,Step-1,Increment      1: Step Time =    1.000,"P-1-1",          3661,   134.190E-03,   194.595E-03,            0.,NA,NA,"",   973.619E+03,   973.438E+03,   973.438E+03
C:/temp/Job-1.odb,Step-1,Increment      1: Step Time =    1.000,"P-1-1",          3662,   131.072E-03,   192.960E-03,            0.,NA,NA,"",   973.421E+03,   973.232E+03,   973.232E+03
C:/temp/Job-1.odb,Step-1,Increment      1: Step Time =    1.000,"P-1-1",          3663,   128.106E-03,   193.006E-03,            0.,NA,NA,"",   969.833E+03,   969.716E+03,   969.716E+03
C:/temp/Job-1.odb,Step-1,Increment      1: Step Time =    1.000,"P-1-1",          3664,   124.017E-03,   193.429E-03,            0.,NA,NA,"",   963.902E+03,   963.982E+03,   963.982E+03
C:/temp/Job-1.odb,Step-1,Increment      1: Step Time =    1.000,"P-1-1",          3665,   121.884E-03,   193.358E-03,            0.,NA,NA,"",   961.791E+03,   961.935E+03,   961.935E+03
C:/temp/Job-1.odb,Step-1,Increment      1: Step Time =    1.000,"P-1-1",          3666,   117.689E-03,   193.758E-03,            0.,NA,NA,"",   955.653E+03,   955.970E+03,   955.970E+03
C:/temp/Job-1.odb,Step-1,Increment      1: Step Time =    1.000,"P-1-1",          3667,   114.810E-03,   193.893E-03,            0.,NA,NA,"",   952.209E+03,   952.646E+03,   952.646E+03
C:/temp/Job-1.odb,Step-1,Increment      1: Step Time =    1.000,"P-1-1",          3668,   111.143E-03,   193.478E-03,            0.,NA,NA,"",   950.389E+03,   951.052E+03,   951.052E+03
C:/temp/Job-1.odb,Step-1,Increment      1: Step Time =    1.000,"P-1-1",          3669,   108.986E-03,   192.708E-03,            0.,NA,NA,"",   951.024E+03,   951.813E+03,   951.813E+03
C:/temp/Job-1.odb,Step-1,Increment      1: Step Time =    1.000,"P-1-1",          3670,   105.540E-03,   193.489E-03,            0.,NA,NA,"",   946.621E+03,   947.354E+03,   947.354E+03
C:/temp/Job-1.odb,Step-1,Increment      1: Step Time =    1.000,"P-1-1",          3671,   100.929E-03,   192.892E-03,            0.,NA,NA,"",   946.736E+03,   947.675E+03,   947.675E+03
C:/temp/Job-1.odb,Step-1,Increment      1: Step Time =    1.000,"P-1-1",          3672,   97.8508E-03,   193.173E-03,            0.,NA,NA,"",   945.449E+03,   946.360E+03,   946.360E+03
C:/temp/Job-1.odb,Step-1,Increment      1: Step Time =    1.000,"P-1-1",          3673,   94.2064E-03,   193.990E-03,            0.,NA,NA,"",   942.627E+03,   943.322E+03,   943.322E+03
C:/temp/Job-1.odb,Step-1,Increment      1: Step Time =    1.000,"P-1-1",          3674,   91.4757E-03,   193.878E-03,            0.,NA,NA,"",   943.737E+03,   944.427E+03,   944.427E+03
C:/temp/Job-1.odb,Step-1,Increment      1: Step Time =    1.000,"P-1-1",          3675,   88.4941E-03,   193.666E-03,            0.,NA,NA,"",   945.964E+03,   946.649E+03,   946.649E+03
C:/temp/Job-1.odb,Step-1,Increment      1: Step Time =    1.000,"P-1-1",          3676,   85.1348E-03,   193.368E-03,            0.,NA,NA,"",   949.431E+03,   950.038E+03,   950.038E+03
C:/temp/Job-1.odb,Step-1,Increment      1: Step Time =    1.000,"P-1-1",          3677,   81.2554E-03,   193.304E-03,            0.,NA,NA,"",   952.840E+03,   953.373E+03,   953.373E+03
C:/temp/Job-1.odb,Step-1,Increment      1: Step Time =    1.000,"P-1-1",          3678,   78.9612E-03,   192.762E-03,            0.,NA,NA,"",   956.844E+03,   957.331E+03,   957.331E+03
C:/temp/Job-1.odb,Step-1,Increment      1: Step Time =    1.000,"P-1-1",          3679,   74.8664E-03,   193.475E-03,            0.,NA,NA,"",   958.625E+03,   958.931E+03,   958.931E+03
C:/temp/Job-1.odb,Step-1,Increment      1: Step Time =    1.000,"P-1-1",          3680,   72.5447E-03,   193.679E-03,            0.,NA,NA,"",   960.710E+03,   960.906E+03,   960.906E+03
C:/temp/Job-1.odb,Step-1,Increment      1: Step Time =    1.000,"P-1-1",          3681,   67.8032E-03,   193.848E-03,            0.,NA,NA,"",   965.984E+03,   966.051E+03,   966.051E+03
C:/temp/Job-1.odb,Step-1,Increment      1: Step Time =    1.000,"P-1-1",          3682,   65.7744E-03,   193.839E-03,            0.,NA,NA,"",   968.468E+03,   968.560E+03,   968.560E+03
C:/temp/Job-1.odb,Step-1,Increment      1: Step Time =    1.000,"P-1-1",          3683,   61.7537E-03,   193.992E-03,            0.,NA,NA,"",   973.590E+03,   973.621E+03,   973.621E+03
C:/temp/Job-1.odb,Step-1,Increment      1: Step Time =    1.000,"P-1-1",          3684,   58.8450E-03,   193.682E-03,            0.,NA,NA,"",   978.906E+03,   978.983E+03,   978.983E+03
C:/temp/Job-1.odb,Step-1,Increment      1: Step Time =    1.000,"P-1-1",          3685,   55.6159E-03,   192.653E-03,            0.,NA,NA,"",   988.057E+03,   988.163E+03,   988.163E+03
C:/temp/Job-1.odb,Step-1,Increment      1: Step Time =    1.000,"P-1-1",          3686,   51.4663E-03,   193.136E-03,            0.,NA,NA,"",   992.793E+03,   993.045E+03,   993.045E+03
C:/temp/Job-1.odb,Step-1,Increment      1: Step Time =    1.000,"P-1-1",          3687,   48.4738E-03,   194.323E-03,            0.,NA,NA,"",   993.312E+03,   993.540E+03,   993.540E+03
C:/temp/Job-1.odb,Step-1,Increment      1: Step Time =    1.000,"P-1-1",          3688,   45.1136E-03,   193.190E-03,            0.,NA,NA,"",   1.00434E+06,   1.00490E+06,   1.00490E+06
C:/temp/Job-1.odb,Step-1,Increment      1: Step Time =    1.000,"P-1-1",          3689,   42.6664E-03,   193.215E-03,            0.,NA,NA,"",   1.00976E+06,   1.01053E+06,   1.01053E+06
C:/temp/Job-1.odb,Step-1,Increment      1: Step Time =    1.000,"P-1-1",          3690,   38.8938E-03,   193.727E-03,            0.,NA,NA,"",   1.01733E+06,   1.01824E+06,   1.01824E+06
C:/temp/Job-1.odb,Step-1,Increment      1: Step Time =    1.000,"P-1-1",          3691,   36.5883E-03,   193.271E-03,            0.,NA,NA,"",   1.02564E+06,   1.02710E+06,   1.02710E+06
C:/temp/Job-1.odb,Step-1,Increment      1: Step Time =    1.000,"P-1-1",          3692,   32.4136E-03,   193.901E-03,            0.,NA,NA,"",   1.03668E+06,   1.03839E+06,   1.03839E+06
C:/temp/Job-1.odb,Step-1,Increment      1: Step Time =    1.000,"P-1-1",          3693,   29.6267E-03,   193.864E-03,            0.,NA,NA,"",   1.04840E+06,   1.05068E+06,   1.05068E+06
C:/temp/Job-1.odb,Step-1,Increment      1: Step Time =    1.000,"P-1-1",          3694,   25.9897E-03,   193.132E-03,            0.,NA,NA,"",   1.07040E+06,   1.07442E+06,   1.07442E+06
C:/temp/Job-1.odb,Step-1,Increment      1: Step Time =    1.000,"P-1-1",          3695,   24.0165E-03,   192.770E-03,            0.,NA,NA,"",   1.08296E+06,   1.08801E+06,   1.08801E+06
C:/temp/Job-1.odb,Step-1,Increment      1: Step Time =    1.000,"P-1-1",          3696,   20.2341E-03,   193.605E-03,            0.,NA,NA,"",   1.10730E+06,   1.11346E+06,   1.11346E+06
C:/temp/Job-1.odb,Step-1,Increment      1: Step Time =    1.000,"P-1-1",          3697,   15.7821E-03,   193.911E-03,            0.,NA,NA,"",   1.15043E+06,   1.15981E+06,   1.15981E+06
C:/temp/Job-1.odb,Step-1,Increment      1: Step Time =    1.000,"P-1-1",          3698,   12.7832E-03,   193.935E-03,            0.,NA,NA,"",   1.18929E+06,   1.20314E+06,   1.20314E+06
C:/temp/Job-1.odb,Step-1,Increment      1: Step Time =    1.000,"P-1-1",          3699,   9.69735E-03,   193.781E-03,            0.,NA,NA,"",   1.23569E+06,   1.25899E+06,   1.25899E+06
C:/temp/Job-1.odb,Step-1,Increment      1: Step Time =    1.000,"P-1-1",          3700,   6.53302E-03,   193.570E-03,            0.,NA,NA,"",   1.27898E+06,   1.32176E+06,   1.32176E+06
C:/temp/Job-1.odb,Step-1,Increment      1: Step Time =    1.000,"P-1-1",          3701,   3.30207E-03,   193.614E-03,            0.,NA,NA,"",   1.27712E+06,   1.35837E+06,   1.35837E+06
C:/temp/Job-1.odb,Step-1,Increment      1: Step Time =    1.000,"P-1-1",          3702,   196.799E-03,   196.829E-03,            0.,NA,NA,"",   999.971E+03,   999.946E+03,   999.946E+03
C:/temp/Job-1.odb,Step-1,Increment      1: Step Time =    1.000,"P-1-1",          3703,   193.627E-03,   196.890E-03,            0.,NA,NA,"",   999.858E+03,   999.842E+03,   999.842E+03
C:/temp/Job-1.odb,Step-1,Increment      1: Step Time =    1.000,"P-1-1",          3704,   190.510E-03,   197.156E-03,            0.,NA,NA,"",   999.707E+03,   999.699E+03,   999.699E+03
C:/temp/Job-1.odb,Step-1,Increment      1: Step Time =    1.000,"P-1-1",          3705,   186.013E-03,   197.248E-03,            0.,NA,NA,"",   999.441E+03,   999.436E+03,   999.436E+03
C:/temp/Job-1.odb,Step-1,Increment      1: Step Time =    1.000,"P-1-1",          3706,   183.028E-03,   197.137E-03,            0.,NA,NA,"",   999.247E+03,   999.237E+03,   999.237E+03
C:/temp/Job-1.odb,Step-1,Increment      1: Step Time =    1.000,"P-1-1",          3707,   179.983E-03,   196.983E-03,            0.,NA,NA,"",   999.016E+03,   998.999E+03,   998.999E+03
C:/temp/Job-1.odb,Step-1,Increment      1: Step Time =    1.000,"P-1-1",          3708,   176.891E-03,   196.881E-03,            0.,NA,NA,"",   998.712E+03,   998.684E+03,   998.684E+03
C:/temp/Job-1.odb,Step-1,Increment      1: Step Time =    1.000,"P-1-1",          3709,   173.799E-03,   197.002E-03,            0.,NA,NA,"",   998.292E+03,   998.255E+03,   998.255E+03
C:/temp/Job-1.odb,Step-1,Increment      1: Step Time =    1.000,"P-1-1",          3710,   170.777E-03,   197.131E-03,            0.,NA,NA,"",   997.726E+03,   997.682E+03,   997.682E+03
C:/temp/Job-1.odb,Step-1,Increment      1: Step Time =    1.000,"P-1-1",          3711,   166.342E-03,   196.952E-03,            0.,NA,NA,"",   996.668E+03,   996.594E+03,   996.594E+03
C:/temp/Job-1.odb,Step-1,Increment      1: Step Time =    1.000,"P-1-1",          3712,   163.061E-03,   196.093E-03,            0.,NA,NA,"",   995.819E+03,   995.685E+03,   995.685E+03
C:/temp/Job-1.odb,Step-1,Increment      1: Step Time =    1.000,"P-1-1",          3713,   159.870E-03,   196.814E-03,            0.,NA,NA,"",   994.169E+03,   994.064E+03,   994.064E+03
C:/temp/Job-1.odb,Step-1,Increment      1: Step Time =    1.000,"P-1-1",          3714,   153.353E-03,   196.850E-03,            0.,NA,NA,"",   990.246E+03,   990.127E+03,   990.127E+03
C:/temp/Job-1.odb,Step-1,Increment      1: Step Time =    1.000,"P-1-1",          3715,   150.421E-03,   196.810E-03,            0.,NA,NA,"",   988.024E+03,   987.885E+03,   987.885E+03
C:/temp/Job-1.odb,Step-1,Increment      1: Step Time =    1.000,"P-1-1",          3716,   147.266E-03,   196.657E-03,            0.,NA,NA,"",   985.278E+03,   985.137E+03,   985.137E+03
C:/temp/Job-1.odb,Step-1,Increment      1: Step Time =    1.000,"P-1-1",          3717,   144.121E-03,   196.935E-03,            0.,NA,NA,"",   981.786E+03,   981.674E+03,   981.674E+03
C:/temp/Job-1.odb,Step-1,Increment      1: Step Time =    1.000,"P-1-1",          3718,   141.119E-03,   197.156E-03,            0.,NA,NA,"",   978.070E+03,   977.986E+03,   977.986E+03
C:/temp/Job-1.odb,Step-1,Increment      1: Step Time =    1.000,"P-1-1",          3719,   136.673E-03,   197.328E-03,            0.,NA,NA,"",   972.098E+03,   972.042E+03,   972.042E+03
C:/temp/Job-1.odb,Step-1,Increment      1: Step Time =    1.000,"P-1-1",          3720,   133.751E-03,   197.285E-03,            0.,NA,NA,"",   968.072E+03,   968.027E+03,   968.027E+03
C:/temp/Job-1.odb,Step-1,Increment      1: Step Time =    1.000,"P-1-1",          3721,   130.883E-03,   196.983E-03,            0.,NA,NA,"",   964.516E+03,   964.462E+03,   964.462E+03
C:/temp/Job-1.odb,Step-1,Increment      1: Step Time =    1.000,"P-1-1",          3722,   127.426E-03,   195.871E-03,            0.,NA,NA,"",   962.011E+03,   961.949E+03,   961.949E+03
C:/temp/Job-1.odb,Step-1,Increment      1: Step Time =    1.000,"P-1-1",          3723,   123.986E-03,   196.778E-03,            0.,NA,NA,"",   955.197E+03,   955.215E+03,   955.215E+03
C:/temp/Job-1.odb,Step-1,Increment      1: Step Time =    1.000,"P-1-1",          3724,   120.982E-03,   196.653E-03,            0.,NA,NA,"",   951.139E+03,   951.207E+03,   951.207E+03
C:/temp/Job-1.odb,Step-1,Increment      1: Step Time =    1.000,"P-1-1",          3725,   117.860E-03,   196.886E-03,            0.,NA,NA,"",   946.227E+03,   946.336E+03,   946.336E+03
C:/temp/Job-1.odb,Step-1,Increment      1: Step Time =    1.000,"P-1-1",          3726,   114.871E-03,   197.067E-03,            0.,NA,NA,"",   941.805E+03,   941.932E+03,   941.932E+03
C:/temp/Job-1.odb,Step-1,Increment      1: Step Time =    1.000,"P-1-1",          3727,   110.568E-03,   197.055E-03,            0.,NA,NA,"",   937.259E+03,   937.392E+03,   937.392E+03
C:/temp/Job-1.odb,Step-1,Increment      1: Step Time =    1.000,"P-1-1",          3728,   107.528E-03,   196.095E-03,            0.,NA,NA,"",   938.179E+03,   938.453E+03,   938.453E+03
C:/temp/Job-1.odb,Step-1,Increment      1: Step Time =    1.000,"P-1-1",          3729,   104.127E-03,   196.426E-03,            0.,NA,NA,"",   934.549E+03,   934.762E+03,   934.762E+03
C:/temp/Job-1.odb,Step-1,Increment      1: Step Time =    1.000,"P-1-1",          3730,   100.733E-03,   195.724E-03,            0.,NA,NA,"",   936.106E+03,   936.501E+03,   936.501E+03
C:/temp/Job-1.odb,Step-1,Increment      1: Step Time =    1.000,"P-1-1",          3731,   97.3966E-03,   196.611E-03,            0.,NA,NA,"",   931.809E+03,   932.043E+03,   932.043E+03
C:/temp/Job-1.odb,Step-1,Increment      1: Step Time =    1.000,"P-1-1",          3732,   94.4022E-03,   196.933E-03,            0.,NA,NA,"",   930.601E+03,   930.816E+03,   930.816E+03
C:/temp/Job-1.odb,Step-1,Increment      1: Step Time =    1.000,"P-1-1",          3733,   91.4124E-03,   196.966E-03,            0.,NA,NA,"",   931.225E+03,   931.422E+03,   931.422E+03
C:/temp/Job-1.odb,Step-1,Increment      1: Step Time =    1.000,"P-1-1",          3734,   88.3810E-03,   196.918E-03,            0.,NA,NA,"",   932.777E+03,   932.975E+03,   932.975E+03
C:/temp/Job-1.odb,Step-1,Increment      1: Step Time =    1.000,"P-1-1",          3735,   85.3879E-03,   196.982E-03,            0.,NA,NA,"",   934.369E+03,   934.517E+03,   934.517E+03
C:/temp/Job-1.odb,Step-1,Increment      1: Step Time =    1.000,"P-1-1",          3736,   80.9692E-03,   197.062E-03,            0.,NA,NA,"",   937.905E+03,   937.997E+03,   937.997E+03
C:/temp/Job-1.odb,Step-1,Increment      1: Step Time =    1.000,"P-1-1",          3737,   77.7477E-03,   196.210E-03,            0.,NA,NA,"",   944.678E+03,   944.807E+03,   944.807E+03
C:/temp/Job-1.odb,Step-1,Increment      1: Step Time =    1.000,"P-1-1",          3738,   74.5907E-03,   196.896E-03,            0.,NA,NA,"",   945.685E+03,   945.747E+03,   945.747E+03
C:/temp/Job-1.odb,Step-1,Increment      1: Step Time =    1.000,"P-1-1",          3739,   68.0675E-03,   196.910E-03,            0.,NA,NA,"",   953.525E+03,   953.531E+03,   953.531E+03
C:/temp/Job-1.odb,Step-1,Increment      1: Step Time =    1.000,"P-1-1",          3740,   65.0279E-03,   196.833E-03,            0.,NA,NA,"",   957.923E+03,   957.949E+03,   957.949E+03
C:/temp/Job-1.odb,Step-1,Increment      1: Step Time =    1.000,"P-1-1",          3741,   61.8930E-03,   196.962E-03,            0.,NA,NA,"",   961.855E+03,   961.856E+03,   961.856E+03
C:/temp/Job-1.odb,Step-1,Increment      1: Step Time =    1.000,"P-1-1",          3742,   58.8909E-03,   197.001E-03,            0.,NA,NA,"",   965.821E+03,   965.814E+03,   965.814E+03
C:/temp/Job-1.odb,Step-1,Increment      1: Step Time =    1.000,"P-1-1",          3743,   55.8903E-03,   197.085E-03,            0.,NA,NA,"",   969.804E+03,   969.824E+03,   969.824E+03
C:/temp/Job-1.odb,Step-1,Increment      1: Step Time =    1.000,"P-1-1",          3744,   51.3003E-03,   197.241E-03,            0.,NA,NA,"",   976.200E+03,   976.222E+03,   976.222E+03
C:/temp/Job-1.odb,Step-1,Increment      1: Step Time =    1.000,"P-1-1",          3745,   48.3449E-03,   197.307E-03,            0.,NA,NA,"",   980.663E+03,   980.701E+03,   980.701E+03
C:/temp/Job-1.odb,Step-1,Increment      1: Step Time =    1.000,"P-1-1",          3746,   45.5699E-03,   197.272E-03,            0.,NA,NA,"",   985.605E+03,   985.751E+03,   985.751E+03
C:/temp/Job-1.odb,Step-1,Increment      1: Step Time =    1.000,"P-1-1",          3747,   42.7909E-03,   195.807E-03,            0.,NA,NA,"",   997.713E+03,   997.903E+03,   997.903E+03
C:/temp/Job-1.odb,Step-1,Increment      1: Step Time =    1.000,"P-1-1",          3748,   38.7574E-03,   196.686E-03,            0.,NA,NA,"",   1.00257E+06,   1.00282E+06,   1.00282E+06
C:/temp/Job-1.odb,Step-1,Increment      1: Step Time =    1.000,"P-1-1",          3749,   35.7106E-03,   196.647E-03,            0.,NA,NA,"",   1.01083E+06,   1.01124E+06,   1.01124E+06
C:/temp/Job-1.odb,Step-1,Increment      1: Step Time =    1.000,"P-1-1",          3750,   32.5822E-03,   196.888E-03,            0.,NA,NA,"",   1.01942E+06,   1.01987E+06,   1.01987E+06
C:/temp/Job-1.odb,Step-1,Increment      1: Step Time =    1.000,"P-1-1",          3751,   29.5805E-03,   197.008E-03,            0.,NA,NA,"",   1.02958E+06,   1.03015E+06,   1.03015E+06
C:/temp/Job-1.odb,Step-1,Increment      1: Step Time =    1.000,"P-1-1",          3752,   26.5907E-03,   196.971E-03,            0.,NA,NA,"",   1.04346E+06,   1.04435E+06,   1.04435E+06
C:/temp/Job-1.odb,Step-1,Increment      1: Step Time =    1.000,"P-1-1",          3753,   23.4634E-03,   196.700E-03,            0.,NA,NA,"",   1.06386E+06,   1.06513E+06,   1.06513E+06
C:/temp/Job-1.odb,Step-1,Increment      1: Step Time =    1.000,"P-1-1",          3754,   20.3027E-03,   196.804E-03,            0.,NA,NA,"",   1.08688E+06,   1.08856E+06,   1.08856E+06
C:/temp/Job-1.odb,Step-1,Increment      1: Step Time =    1.000,"P-1-1",          3755,   17.2021E-03,   196.916E-03,            0.,NA,NA,"",   1.11614E+06,   1.11840E+06,   1.11840E+06
C:/temp/Job-1.odb,Step-1,Increment      1: Step Time =    1.000,"P-1-1",          3756,   14.1214E-03,   196.952E-03,            0.,NA,NA,"",   1.15643E+06,   1.15981E+06,   1.15981E+06
C:/temp/Job-1.odb,Step-1,Increment      1: Step Time =    1.000,"P-1-1",          3757,   9.45736E-03,   196.879E-03,            0.,NA,NA,"",   1.25141E+06,   1.25939E+06,   1.25939E+06
C:/temp/Job-1.odb,Step-1,Increment      1: Step Time =    1.000,"P-1-1",          3758,   6.34531E-03,   196.819E-03,            0.,NA,NA,"",   1.35245E+06,   1.36921E+06,   1.36921E+06
C:/temp/Job-1.odb,Step-1,Increment      1: Step Time =    1.000,"P-1-1",          3759,   3.21040E-03,   196.816E-03,            0.,NA,NA,"",   1.49708E+06,   1.54284E+06,   1.54284E+06
C:/temp/Job-1.odb,Step-1,Increment      1: Step Time =    1.000,"P-1-1",          3760,   98.4333E-03,   112.401E-03,            0.,NA,NA,"",   2.59933E+06,   2.66074E+06,   2.66074E+06
C:/temp/Job-1.odb,Step-1,Increment      1: Step Time =    1.000,"P-1-1",          3761,   96.8914E-03,   112.107E-03,            0.,NA,NA,"",   2.42176E+06,   2.48483E+06,   2.48483E+06
C:/temp/Job-1.odb,Step-1,Increment      1: Step Time =    1.000,"P-1-1",          3762,   93.9781E-03,   110.954E-03,            0.,NA,NA,"",   1.89720E+06,   1.93114E+06,   1.93114E+06
C:/temp/Job-1.odb,Step-1,Increment      1: Step Time =    1.000,"P-1-1",          3763,   92.6527E-03,   110.113E-03,            0.,NA,NA,"",   1.51979E+06,   1.54190E+06,   1.54190E+06
C:/temp/Job-1.odb,Step-1,Increment      1: Step Time =    1.000,"P-1-1",          3764,   90.3686E-03,   107.968E-03,            0.,NA,NA,"",   712.024E+03,   707.939E+03,   707.939E+03
C:/temp/Job-1.odb,Step-1,Increment      1: Step Time =    1.000,"P-1-1",          3765,   89.4459E-03,   106.698E-03,            0.,NA,NA,"",   387.116E+03,   346.190E+03,   346.190E+03
C:/temp/Job-1.odb,Step-1,Increment      1: Step Time =    1.000,"P-1-1",          3766,   88.1118E-03,   103.863E-03,            0.,NA,NA,"",   409.599E+03,  -394.888E+03,  -394.888E+03
C:/temp/Job-1.odb,Step-1,Increment      1: Step Time =    1.000,"P-1-1",          3767,   87.7214E-03,   102.342E-03,            0.,NA,NA,"",   564.969E+03,  -565.788E+03,  -565.788E+03
C:/temp/Job-1.odb,Step-1,Increment      1: Step Time =    1.000,"P-1-1",          3768,   87.5247E-03,   99.2151E-03,            0.,NA,NA,"",   665.618E+03,  -669.347E+03,  -669.347E+03
C:/temp/Job-1.odb,Step-1,Increment      1: Step Time =    1.000,"P-1-1",          3769,   87.7214E-03,   97.6577E-03,            0.,NA,NA,"",   563.430E+03,  -559.589E+03,  -559.589E+03
C:/temp/Job-1.odb,Step-1,Increment      1: Step Time =    1.000,"P-1-1",          3770,   91.4432E-03,   90.8879E-03,            0.,NA,NA,"",   1.12466E+06,   1.13594E+06,   1.13594E+06
C:/temp/Job-1.odb,Step-1,Increment      1: Step Time =    1.000,"P-1-1",          3771,   92.6527E-03,   89.8873E-03,            0.,NA,NA,"",   1.50762E+06,   1.54215E+06,   1.54215E+06
C:/temp/Job-1.odb,Step-1,Increment      1: Step Time =    1.000,"P-1-1",          3772,   100.000E-03,   87.5000E-03,            0.,NA,NA,"",   2.65881E+06,   2.72806E+06,   2.72806E+06
C:/temp/Job-1.odb,Step-1,Increment      1: Step Time =    1.000,"P-1-1",          3773,   107.347E-03,   89.8873E-03,            0.,NA,NA,"",   1.50662E+06,   1.55213E+06,   1.55213E+06
C:/temp/Job-1.odb,Step-1,Increment      1: Step Time =    1.000,"P-1-1",          3774,   108.557E-03,   90.8879E-03,            0.,NA,NA,"",   1.13560E+06,   1.14503E+06,   1.14503E+06
C:/temp/Job-1.odb,Step-1,Increment      1: Step Time =    1.000,"P-1-1",          3775,   112.279E-03,   97.6577E-03,            0.,NA,NA,"",   638.144E+03,  -635.561E+03,  -635.561E+03
C:/temp/Job-1.odb,Step-1,Increment      1: Step Time =    1.000,"P-1-1",          3776,   112.475E-03,   99.2151E-03,            0.,NA,NA,"",   723.188E+03,  -732.510E+03,  -732.510E+03
C:/temp/Job-1.odb,Step-1,Increment      1: Step Time =    1.000,"P-1-1",          3777,   112.279E-03,   102.342E-03,            0.,NA,NA,"",   654.364E+03,  -658.190E+03,  -658.190E+03
C:/temp/Job-1.odb,Step-1,Increment      1: Step Time =    1.000,"P-1-1",          3778,   111.888E-03,   103.863E-03,            0.,NA,NA,"",   482.441E+03,  -467.983E+03,  -467.983E+03
C:/temp/Job-1.odb,Step-1,Increment      1: Step Time =    1.000,"P-1-1",          3779,   110.554E-03,   106.698E-03,            0.,NA,NA,"",   397.444E+03,   340.810E+03,   340.810E+03
C:/temp/Job-1.odb,Step-1,Increment      1: Step Time =    1.000,"P-1-1",          3780,   109.631E-03,   107.968E-03,            0.,NA,NA,"",   710.610E+03,   704.815E+03,   704.815E+03
C:/temp/Job-1.odb,Step-1,Increment      1: Step Time =    1.000,"P-1-1",          3781,   107.347E-03,   110.113E-03,            0.,NA,NA,"",   1.50899E+06,   1.54397E+06,   1.54397E+06
C:/temp/Job-1.odb,Step-1,Increment      1: Step Time =    1.000,"P-1-1",          3782,   106.022E-03,   110.954E-03,            0.,NA,NA,"",   1.87679E+06,   1.91556E+06,   1.91556E+06
C:/temp/Job-1.odb,Step-1,Increment      1: Step Time =    1.000,"P-1-1",          3783,   103.109E-03,   112.107E-03,            0.,NA,NA,"",   2.40351E+06,   2.48450E+06,   2.48450E+06
C:/temp/Job-1.odb,Step-1,Increment      1: Step Time =    1.000,"P-1-1",          3784,   101.567E-03,   112.401E-03,            0.,NA,NA,"",   2.58006E+06,   2.64575E+06,   2.64575E+06
C:/temp/Job-1.odb,Step-1,Increment      1: Step Time =    1.000,"P-1-1",          3785,   198.450E-03,            0.,            0.,NA,NA,"",   999.995E+03,   999.993E+03,   999.993E+03
C:/temp/Job-1.odb,Step-1,Increment      1: Step Time =    1.000,"P-1-1",          3786,   195.349E-03,            0.,            0.,NA,NA,"",   999.932E+03,   999.929E+03,   999.929E+03
C:/temp/Job-1.odb,Step-1,Increment      1: Step Time =    1.000,"P-1-1",          3787,   192.248E-03,            0.,            0.,NA,NA,"",   999.784E+03,   999.783E+03,   999.783E+03
C:/temp/Job-1.odb,Step-1,Increment      1: Step Time =    1.000,"P-1-1",          3788,   189.147E-03,            0.,            0.,NA,NA,"",   999.583E+03,   999.582E+03,   999.582E+03
C:/temp/Job-1.odb,Step-1,Increment      1: Step Time =    1.000,"P-1-1",          3789,   186.047E-03,            0.,            0.,NA,NA,"",   999.354E+03,   999.354E+03,   999.354E+03
C:/temp/Job-1.odb,Step-1,Increment      1: Step Time =    1.000,"P-1-1",          3790,   182.946E-03,            0.,            0.,NA,NA,"",   999.104E+03,   999.103E+03,   999.103E+03
C:/temp/Job-1.odb,Step-1,Increment      1: Step Time =    1.000,"P-1-1",          3791,   179.845E-03,            0.,            0.,NA,NA,"",   998.817E+03,   998.815E+03,   998.815E+03
C:/temp/Job-1.odb,Step-1,Increment      1: Step Time =    1.000,"P-1-1",          3792,   178.295E-03,            0.,            0.,NA,NA,"",   998.651E+03,   998.648E+03,   998.648E+03
C:/temp/Job-1.odb,Step-1,Increment      1: Step Time =    1.000,"P-1-1",          3793,   175.194E-03,            0.,            0.,NA,NA,"",   998.251E+03,   998.246E+03,   998.246E+03
C:/temp/Job-1.odb,Step-1,Increment      1: Step Time =    1.000,"P-1-1",          3794,   172.093E-03,            0.,            0.,NA,NA,"",   997.724E+03,   997.717E+03,   997.717E+03
C:/temp/Job-1.odb,Step-1,Increment      1: Step Time =    1.000,"P-1-1",          3795,   168.992E-03,            0.,            0.,NA,NA,"",   997.016E+03,   997.007E+03,   997.007E+03
C:/temp/Job-1.odb,Step-1,Increment      1: Step Time =    1.000,"P-1-1",          3796,   165.891E-03,            0.,            0.,NA,NA,"",   996.084E+03,   996.074E+03,   996.074E+03
C:/temp/Job-1.odb,Step-1,Increment      1: Step Time =    1.000,"P-1-1",          3797,   162.791E-03,            0.,            0.,NA,NA,"",   994.879E+03,   994.874E+03,   994.874E+03
C:/temp/Job-1.odb,Step-1,Increment      1: Step Time =    1.000,"P-1-1",          3798,   159.690E-03,            0.,            0.,NA,NA,"",   993.332E+03,   993.325E+03,   993.325E+03
C:/temp/Job-1.odb,Step-1,Increment      1: Step Time =    1.000,"P-1-1",          3799,   156.589E-03,            0.,            0.,NA,NA,"",   991.405E+03,   991.396E+03,   991.396E+03
C:/temp/Job-1.odb,Step-1,Increment      1: Step Time =    1.000,"P-1-1",          3800,   153.488E-03,            0.,            0.,NA,NA,"",   989.096E+03,   989.083E+03,   989.083E+03
C:/temp/Job-1.odb,Step-1,Increment      1: Step Time =    1.000,"P-1-1",          3801,   150.388E-03,            0.,            0.,NA,NA,"",   986.367E+03,   986.351E+03,   986.351E+03
C:/temp/Job-1.odb,Step-1,Increment      1: Step Time =    1.000,"P-1-1",          3802,   147.287E-03,            0.,            0.,NA,NA,"",   983.199E+03,   983.181E+03,   983.181E+03
C:/temp/Job-1.odb,Step-1,Increment      1: Step Time =    1.000,"P-1-1",          3803,   144.186E-03,            0.,            0.,NA,NA,"",   979.593E+03,   979.575E+03,   979.575E+03
C:/temp/Job-1.odb,Step-1,Increment      1: Step Time =    1.000,"P-1-1",          3804,   141.085E-03,            0.,            0.,NA,NA,"",   975.567E+03,   975.553E+03,   975.553E+03
C:/temp/Job-1.odb,Step-1,Increment      1: Step Time =    1.000,"P-1-1",          3805,   139.535E-03,            0.,            0.,NA,NA,"",   973.410E+03,   973.396E+03,   973.396E+03
C:/temp/Job-1.odb,Step-1,Increment      1: Step Time =    1.000,"P-1-1",          3806,   136.434E-03,            0.,            0.,NA,NA,"",   968.828E+03,   968.821E+03,   968.821E+03
C:/temp/Job-1.odb,Step-1,Increment      1: Step Time =    1.000,"P-1-1",          3807,   133.333E-03,            0.,            0.,NA,NA,"",   963.943E+03,   963.939E+03,   963.939E+03
C:/temp/Job-1.odb,Step-1,Increment      1: Step Time =    1.000,"P-1-1",          3808,   130.233E-03,            0.,            0.,NA,NA,"",   958.839E+03,   958.837E+03,   958.837E+03
C:/temp/Job-1.odb,Step-1,Increment      1: Step Time =    1.000,"P-1-1",          3809,   127.132E-03,            0.,            0.,NA,NA,"",   953.639E+03,   953.638E+03,   953.638E+03
C:/temp/Job-1.odb,Step-1,Increment      1: Step Time =    1.000,"P-1-1",          3810,   124.031E-03,            0.,            0.,NA,NA,"",   948.458E+03,   948.459E+03,   948.459E+03
C:/temp/Job-1.odb,Step-1,Increment      1: Step Time =    1.000,"P-1-1",          3811,   120.930E-03,            0.,            0.,NA,NA,"",   943.399E+03,   943.402E+03,   943.402E+03
C:/temp/Job-1.odb,Step-1,Increment      1: Step Time =    1.000,"P-1-1",          3812,   117.829E-03,            0.,            0.,NA,NA,"",   938.567E+03,   938.576E+03,   938.576E+03
C:/temp/Job-1.odb,Step-1,Increment      1: Step Time =    1.000,"P-1-1",          3813,   114.729E-03,            0.,            0.,NA,NA,"",   934.078E+03,   934.092E+03,   934.092E+03
C:/temp/Job-1.odb,Step-1,Increment      1: Step Time =    1.000,"P-1-1",          3814,   111.628E-03,            0.,            0.,NA,NA,"",   930.058E+03,   930.076E+03,   930.076E+03
C:/temp/Job-1.odb,Step-1,Increment      1: Step Time =    1.000,"P-1-1",          3815,   108.527E-03,            0.,            0.,NA,NA,"",   926.638E+03,   926.660E+03,   926.660E+03
C:/temp/Job-1.odb,Step-1,Increment      1: Step Time =    1.000,"P-1-1",          3816,   105.426E-03,            0.,            0.,NA,NA,"",   923.930E+03,   923.951E+03,   923.951E+03
C:/temp/Job-1.odb,Step-1,Increment      1: Step Time =    1.000,"P-1-1",          3817,   102.326E-03,            0.,            0.,NA,NA,"",   921.928E+03,   921.957E+03,   921.957E+03
C:/temp/Job-1.odb,Step-1,Increment      1: Step Time =    1.000,"P-1-1",          3818,   100.775E-03,            0.,            0.,NA,NA,"",   921.236E+03,   921.261E+03,   921.261E+03
C:/temp/Job-1.odb,Step-1,Increment      1: Step Time =    1.000,"P-1-1",          3819,   97.6744E-03,            0.,            0.,NA,NA,"",   920.458E+03,   920.486E+03,   920.486E+03
C:/temp/Job-1.odb,Step-1,Increment      1: Step Time =    1.000,"P-1-1",          3820,   94.5736E-03,            0.,            0.,NA,NA,"",   920.443E+03,   920.467E+03,   920.467E+03
C:/temp/Job-1.odb,Step-1,Increment      1: Step Time =    1.000,"P-1-1",          3821,   91.4729E-03,            0.,            0.,NA,NA,"",   921.166E+03,   921.189E+03,   921.189E+03
C:/temp/Job-1.odb,Step-1,Increment      1: Step Time =    1.000,"P-1-1",          3822,   88.3721E-03,            0.,            0.,NA,NA,"",   922.638E+03,    922.66E+03,    922.66E+03
C:/temp/Job-1.odb,Step-1,Increment      1: Step Time =    1.000,"P-1-1",          3823,   85.2713E-03,            0.,            0.,NA,NA,"",   924.757E+03,   924.775E+03,   924.775E+03
C:/temp/Job-1.odb,Step-1,Increment      1: Step Time =    1.000,"P-1-1",          3824,   82.1705E-03,            0.,            0.,NA,NA,"",   927.409E+03,   927.423E+03,   927.423E+03
C:/temp/Job-1.odb,Step-1,Increment      1: Step Time =    1.000,"P-1-1",          3825,   79.0698E-03,            0.,            0.,NA,NA,"",   930.525E+03,   930.532E+03,   930.532E+03
C:/temp/Job-1.odb,Step-1,Increment      1: Step Time =    1.000,"P-1-1",          3826,   75.9690E-03,            0.,            0.,NA,NA,"",   934.048E+03,   934.053E+03,   934.053E+03
C:/temp/Job-1.odb,Step-1,Increment      1: Step Time =    1.000,"P-1-1",          3827,   72.8682E-03,            0.,            0.,NA,NA,"",   937.954E+03,   937.964E+03,   937.964E+03
C:/temp/Job-1.odb,Step-1,Increment      1: Step Time =    1.000,"P-1-1",          3828,   69.7674E-03,            0.,            0.,NA,NA,"",   942.118E+03,   942.134E+03,   942.134E+03
C:/temp/Job-1.odb,Step-1,Increment      1: Step Time =    1.000,"P-1-1",          3829,   66.6667E-03,            0.,            0.,NA,NA,"",   946.399E+03,   946.403E+03,   946.403E+03
C:/temp/Job-1.odb,Step-1,Increment      1: Step Time =    1.000,"P-1-1",          3830,   63.5659E-03,            0.,            0.,NA,NA,"",   950.644E+03,   950.642E+03,   950.642E+03
C:/temp/Job-1.odb,Step-1,Increment      1: Step Time =    1.000,"P-1-1",          3831,   60.4651E-03,            0.,            0.,NA,NA,"",   954.865E+03,   954.867E+03,   954.867E+03
C:/temp/Job-1.odb,Step-1,Increment      1: Step Time =    1.000,"P-1-1",          3832,   58.9147E-03,            0.,            0.,NA,NA,"",   957.003E+03,   956.996E+03,   956.996E+03
C:/temp/Job-1.odb,Step-1,Increment      1: Step Time =    1.000,"P-1-1",          3833,   55.8140E-03,            0.,            0.,NA,NA,"",   961.266E+03,   961.263E+03,   961.263E+03
C:/temp/Job-1.odb,Step-1,Increment      1: Step Time =    1.000,"P-1-1",          3834,   52.7132E-03,            0.,            0.,NA,NA,"",   965.559E+03,   965.557E+03,   965.557E+03
C:/temp/Job-1.odb,Step-1,Increment      1: Step Time =    1.000,"P-1-1",          3835,   49.6124E-03,            0.,            0.,NA,NA,"",   969.951E+03,   969.953E+03,   969.953E+03
C:/temp/Job-1.odb,Step-1,Increment      1: Step Time =    1.000,"P-1-1",          3836,   46.5116E-03,            0.,            0.,NA,NA,"",   974.568E+03,   974.578E+03,   974.578E+03
C:/temp/Job-1.odb,Step-1,Increment      1: Step Time =    1.000,"P-1-1",          3837,   43.4109E-03,            0.,            0.,NA,NA,"",   979.585E+03,   979.597E+03,   979.597E+03
C:/temp/Job-1.odb,Step-1,Increment      1: Step Time =    1.000,"P-1-1",          3838,   40.3101E-03,            0.,            0.,NA,NA,"",   985.159E+03,   985.173E+03,   985.173E+03
C:/temp/Job-1.odb,Step-1,Increment      1: Step Time =    1.000,"P-1-1",          3839,   37.2093E-03,            0.,            0.,NA,NA,"",   991.452E+03,   991.479E+03,   991.479E+03
C:/temp/Job-1.odb,Step-1,Increment      1: Step Time =    1.000,"P-1-1",          3840,   34.1085E-03,            0.,            0.,NA,NA,"",   998.811E+03,   998.853E+03,   998.853E+03
C:/temp/Job-1.odb,Step-1,Increment      1: Step Time =    1.000,"P-1-1",          3841,   31.0078E-03,            0.,            0.,NA,NA,"",   1.00772E+06,   1.00778E+06,   1.00778E+06
C:/temp/Job-1.odb,Step-1,Increment      1: Step Time =    1.000,"P-1-1",          3842,   27.9070E-03,            0.,            0.,NA,NA,"",   1.01875E+06,   1.01882E+06,   1.01882E+06
C:/temp/Job-1.odb,Step-1,Increment      1: Step Time =    1.000,"P-1-1",          3843,   24.8062E-03,            0.,            0.,NA,NA,"",   1.03265E+06,   1.03273E+06,   1.03273E+06
C:/temp/Job-1.odb,Step-1,Increment      1: Step Time =    1.000,"P-1-1",          3844,   21.7054E-03,            0.,            0.,NA,NA,"",   1.05049E+06,   1.05057E+06,   1.05057E+06
C:/temp/Job-1.odb,Step-1,Increment      1: Step Time =    1.000,"P-1-1",          3845,   20.1550E-03,            0.,            0.,NA,NA,"",   1.06118E+06,   1.06143E+06,   1.06143E+06
C:/temp/Job-1.odb,Step-1,Increment      1: Step Time =    1.000,"P-1-1",          3846,   17.0543E-03,            0.,            0.,NA,NA,"",   1.08809E+06,   1.08847E+06,   1.08847E+06
C:/temp/Job-1.odb,Step-1,Increment      1: Step Time =    1.000,"P-1-1",          3847,   13.9535E-03,            0.,            0.,NA,NA,"",   1.12521E+06,   1.12582E+06,   1.12582E+06
C:/temp/Job-1.odb,Step-1,Increment      1: Step Time =    1.000,"P-1-1",          3848,   10.8527E-03,            0.,            0.,NA,NA,"",   1.18021E+06,   1.18122E+06,   1.18122E+06
C:/temp/Job-1.odb,Step-1,Increment      1: Step Time =    1.000,"P-1-1",          3849,   7.75194E-03,            0.,            0.,NA,NA,"",   1.26819E+06,   1.27053E+06,   1.27053E+06
C:/temp/Job-1.odb,Step-1,Increment      1: Step Time =    1.000,"P-1-1",          3850,   4.65116E-03,            0.,            0.,NA,NA,"",   1.42623E+06,   1.43317E+06,   1.43317E+06
C:/temp/Job-1.odb,Step-1,Increment      1: Step Time =    1.000,"P-1-1",          3851,   1.55039E-03,            0.,            0.,NA,NA,"",   1.87095E+06,   1.91265E+06,   1.91265E+06
C:/temp/Job-1.odb,Step-1,Increment      1: Step Time =    1.000,"P-1-1",          3852,   200.000E-03,   198.450E-03,            0.,NA,NA,"",   999.999E+03,   999.996E+03,   999.996E+03
C:/temp/Job-1.odb,Step-1,Increment      1: Step Time =    1.000,"P-1-1",          3853,   200.000E-03,   195.349E-03,            0.,NA,NA,"",   1.00003E+06,   999.993E+03,   999.993E+03
C:/temp/Job-1.odb,Step-1,Increment      1: Step Time =    1.000,"P-1-1",          3854,   200.000E-03,   192.248E-03,            0.,NA,NA,"",   1.00011E+06,   999.996E+03,   999.996E+03
C:/temp/Job-1.odb,Step-1,Increment      1: Step Time =    1.000,"P-1-1",          3855,   200.000E-03,   189.147E-03,            0.,NA,NA,"",   1.00023E+06,   999.999E+03,   999.999E+03
C:/temp/Job-1.odb,Step-1,Increment      1: Step Time =    1.000,"P-1-1",          3856,   200.000E-03,   186.047E-03,            0.,NA,NA,"",   1.00036E+06,   1.00000E+06,   1.00000E+06
C:/temp/Job-1.odb,Step-1,Increment      1: Step Time =    1.000,"P-1-1",          3857,   200.000E-03,   182.946E-03,            0.,NA,NA,"",   1.00047E+06,   1.00000E+06,   1.00000E+06
C:/temp/Job-1.odb,Step-1,Increment      1: Step Time =    1.000,"P-1-1",          3858,   200.000E-03,   179.845E-03,            0.,NA,NA,"",   1.00054E+06,   1.00001E+06,   1.00001E+06
C:/temp/Job-1.odb,Step-1,Increment      1: Step Time =    1.000,"P-1-1",          3859,   200.000E-03,   178.295E-03,            0.,NA,NA,"",   1.00055E+06,   1.00001E+06,   1.00001E+06
C:/temp/Job-1.odb,Step-1,Increment      1: Step Time =    1.000,"P-1-1",          3860,   200.000E-03,   175.194E-03,            0.,NA,NA,"",   1.00050E+06,   1.00001E+06,   1.00001E+06
C:/temp/Job-1.odb,Step-1,Increment      1: Step Time =    1.000,"P-1-1",          3861,   200.000E-03,   172.093E-03,            0.,NA,NA,"",   1.00034E+06,   1.00002E+06,   1.00002E+06
C:/temp/Job-1.odb,Step-1,Increment      1: Step Time =    1.000,"P-1-1",          3862,   200.000E-03,   168.992E-03,            0.,NA,NA,"",   1.00002E+06,   1.00002E+06,   1.00002E+06
C:/temp/Job-1.odb,Step-1,Increment      1: Step Time =    1.000,"P-1-1",          3863,   200.000E-03,   165.891E-03,            0.,NA,NA,"",   999.540E+03,   1.00003E+06,   1.00003E+06
C:/temp/Job-1.odb,Step-1,Increment      1: Step Time =    1.000,"P-1-1",          3864,   200.000E-03,   162.791E-03,            0.,NA,NA,"",   998.852E+03,   1.00003E+06,   1.00003E+06
C:/temp/Job-1.odb,Step-1,Increment      1: Step Time =    1.000,"P-1-1",          3865,   200.000E-03,   159.690E-03,            0.,NA,NA,"",   997.931E+03,   1.00008E+06,   1.00008E+06
C:/temp/Job-1.odb,Step-1,Increment      1: Step Time =    1.000,"P-1-1",          3866,   200.000E-03,   156.589E-03,            0.,NA,NA,"",   996.644E+03,   999.966E+03,   999.966E+03
C:/temp/Job-1.odb,Step-1,Increment      1: Step Time =    1.000,"P-1-1",          3867,   200.000E-03,   153.488E-03,            0.,NA,NA,"",   995.301E+03,   1.00004E+06,   1.00004E+06
C:/temp/Job-1.odb,Step-1,Increment      1: Step Time =    1.000,"P-1-1",          3868,   200.000E-03,   150.388E-03,            0.,NA,NA,"",   993.661E+03,   1.00004E+06,   1.00004E+06
C:/temp/Job-1.odb,Step-1,Increment      1: Step Time =    1.000,"P-1-1",          3869,   200.000E-03,   147.287E-03,            0.,NA,NA,"",   991.742E+03,   1.00003E+06,   1.00003E+06
C:/temp/Job-1.odb,Step-1,Increment      1: Step Time =    1.000,"P-1-1",          3870,   200.000E-03,   144.186E-03,            0.,NA,NA,"",   989.576E+03,   1.00002E+06,   1.00002E+06
C:/temp/Job-1.odb,Step-1,Increment      1: Step Time =    1.000,"P-1-1",          3871,   200.000E-03,   141.085E-03,            0.,NA,NA,"",   987.218E+03,   1.00003E+06,   1.00003E+06
C:/temp/Job-1.odb,Step-1,Increment      1: Step Time =    1.000,"P-1-1",          3872,   200.000E-03,   139.535E-03,            0.,NA,NA,"",    985.96E+03,   1.00003E+06,   1.00003E+06
C:/temp/Job-1.odb,Step-1,Increment      1: Step Time =    1.000,"P-1-1",          3873,   200.000E-03,   136.434E-03,            0.,NA,NA,"",   983.339E+03,   1.00002E+06,   1.00002E+06
C:/temp/Job-1.odb,Step-1,Increment      1: Step Time =    1.000,"P-1-1",          3874,   200.000E-03,   133.333E-03,            0.,NA,NA,"",   980.662E+03,   1.00001E+06,   1.00001E+06
C:/temp/Job-1.odb,Step-1,Increment      1: Step Time =    1.000,"P-1-1",          3875,   200.000E-03,   130.233E-03,            0.,NA,NA,"",   977.996E+03,   1.00014E+06,   1.00014E+06
C:/temp/Job-1.odb,Step-1,Increment      1: Step Time =    1.000,"P-1-1",          3876,   200.000E-03,   127.132E-03,            0.,NA,NA,"",   974.947E+03,   999.907E+03,   999.907E+03
C:/temp/Job-1.odb,Step-1,Increment      1: Step Time =    1.000,"P-1-1",          3877,   200.000E-03,   124.031E-03,            0.,NA,NA,"",   972.174E+03,   999.978E+03,   999.978E+03
C:/temp/Job-1.odb,Step-1,Increment      1: Step Time =    1.000,"P-1-1",          3878,   200.000E-03,   120.930E-03,            0.,NA,NA,"",   969.670E+03,   999.962E+03,   999.962E+03
C:/temp/Job-1.odb,Step-1,Increment      1: Step Time =    1.000,"P-1-1",          3879,   200.000E-03,   117.829E-03,            0.,NA,NA,"",   967.151E+03,   999.934E+03,   999.934E+03
C:/temp/Job-1.odb,Step-1,Increment      1: Step Time =    1.000,"P-1-1",          3880,   200.000E-03,   114.729E-03,            0.,NA,NA,"",   965.057E+03,   999.967E+03,   999.967E+03
C:/temp/Job-1.odb,Step-1,Increment      1: Step Time =    1.000,"P-1-1",          3881,   200.000E-03,   111.628E-03,            0.,NA,NA,"",   963.312E+03,   999.953E+03,   999.953E+03
C:/temp/Job-1.odb,Step-1,Increment      1: Step Time =    1.000,"P-1-1",          3882,   200.000E-03,   108.527E-03,            0.,NA,NA,"",   961.963E+03,   999.956E+03,   999.956E+03
C:/temp/Job-1.odb,Step-1,Increment      1: Step Time =    1.000,"P-1-1",          3883,   200.000E-03,   105.426E-03,            0.,NA,NA,"",   961.027E+03,   999.943E+03,   999.943E+03
C:/temp/Job-1.odb,Step-1,Increment      1: Step Time =    1.000,"P-1-1",          3884,   200.000E-03,   102.326E-03,            0.,NA,NA,"",   960.574E+03,   999.939E+03,   999.939E+03
C:/temp/Job-1.odb,Step-1,Increment      1: Step Time =    1.000,"P-1-1",          3885,   200.000E-03,   100.775E-03,            0.,NA,NA,"",   960.494E+03,   999.926E+03,   999.926E+03
C:/temp/Job-1.odb,Step-1,Increment      1: Step Time =    1.000,"P-1-1",          3886,   200.000E-03,   97.6744E-03,            0.,NA,NA,"",   960.663E+03,   999.916E+03,   999.916E+03
C:/temp/Job-1.odb,Step-1,Increment      1: Step Time =    1.000,"P-1-1",          3887,   200.000E-03,   94.5736E-03,            0.,NA,NA,"",   961.259E+03,   999.944E+03,   999.944E+03
C:/temp/Job-1.odb,Step-1,Increment      1: Step Time =    1.000,"P-1-1",          3888,   200.000E-03,   91.4729E-03,            0.,NA,NA,"",   962.139E+03,   999.948E+03,   999.948E+03
C:/temp/Job-1.odb,Step-1,Increment      1: Step Time =    1.000,"P-1-1",          3889,   200.000E-03,   88.3721E-03,            0.,NA,NA,"",   963.487E+03,   999.968E+03,   999.968E+03
C:/temp/Job-1.odb,Step-1,Increment      1: Step Time =    1.000,"P-1-1",          3890,   200.000E-03,   85.2713E-03,            0.,NA,NA,"",   965.202E+03,   999.948E+03,   999.948E+03
C:/temp/Job-1.odb,Step-1,Increment      1: Step Time =    1.000,"P-1-1",          3891,   200.000E-03,   82.1705E-03,            0.,NA,NA,"",   967.310E+03,   999.942E+03,   999.942E+03
C:/temp/Job-1.odb,Step-1,Increment      1: Step Time =    1.000,"P-1-1",          3892,   200.000E-03,   79.0698E-03,            0.,NA,NA,"",   969.715E+03,   999.980E+03,   999.980E+03
C:/temp/Job-1.odb,Step-1,Increment      1: Step Time =    1.000,"P-1-1",          3893,   200.000E-03,   75.9690E-03,            0.,NA,NA,"",   972.230E+03,   999.895E+03,   999.895E+03
C:/temp/Job-1.odb,Step-1,Increment      1: Step Time =    1.000,"P-1-1",          3894,   200.000E-03,   72.8682E-03,            0.,NA,NA,"",   975.315E+03,   1.00009E+06,   1.00009E+06
C:/temp/Job-1.odb,Step-1,Increment      1: Step Time =    1.000,"P-1-1",          3895,   200.000E-03,   69.7674E-03,            0.,NA,NA,"",   978.038E+03,   1.00007E+06,   1.00007E+06
C:/temp/Job-1.odb,Step-1,Increment      1: Step Time =    1.000,"P-1-1",          3896,   200.000E-03,   66.6667E-03,            0.,NA,NA,"",   980.714E+03,   1.00003E+06,   1.00003E+06
C:/temp/Job-1.odb,Step-1,Increment      1: Step Time =    1.000,"P-1-1",          3897,   200.000E-03,   63.5659E-03,            0.,NA,NA,"",   983.391E+03,   1.00001E+06,   1.00001E+06
C:/temp/Job-1.odb,Step-1,Increment      1: Step Time =    1.000,"P-1-1",          3898,   200.000E-03,   60.4651E-03,            0.,NA,NA,"",   985.996E+03,   1.00000E+06,   1.00000E+06
C:/temp/Job-1.odb,Step-1,Increment      1: Step Time =    1.000,"P-1-1",          3899,   200.000E-03,   58.9147E-03,            0.,NA,NA,"",   987.251E+03,   1.00000E+06,   1.00000E+06
C:/temp/Job-1.odb,Step-1,Increment      1: Step Time =    1.000,"P-1-1",          3900,   200.000E-03,   55.8140E-03,            0.,NA,NA,"",   989.643E+03,   1.00002E+06,   1.00002E+06
C:/temp/Job-1.odb,Step-1,Increment      1: Step Time =    1.000,"P-1-1",          3901,   200.000E-03,   52.7132E-03,            0.,NA,NA,"",   991.785E+03,   1.00003E+06,   1.00003E+06
C:/temp/Job-1.odb,Step-1,Increment      1: Step Time =    1.000,"P-1-1",          3902,   200.000E-03,   49.6124E-03,            0.,NA,NA,"",   993.692E+03,   1.00004E+06,   1.00004E+06
C:/temp/Job-1.odb,Step-1,Increment      1: Step Time =    1.000,"P-1-1",          3903,   200.000E-03,   46.5116E-03,            0.,NA,NA,"",   995.337E+03,   1.00002E+06,   1.00002E+06
C:/temp/Job-1.odb,Step-1,Increment      1: Step Time =    1.000,"P-1-1",          3904,   200.000E-03,   43.4109E-03,            0.,NA,NA,"",   996.799E+03,   1.00004E+06,   1.00004E+06
C:/temp/Job-1.odb,Step-1,Increment      1: Step Time =    1.000,"P-1-1",          3905,   200.000E-03,   40.3101E-03,            0.,NA,NA,"",   998.010E+03,   1.00005E+06,   1.00005E+06
C:/temp/Job-1.odb,Step-1,Increment      1: Step Time =    1.000,"P-1-1",          3906,   200.000E-03,   37.2093E-03,            0.,NA,NA,"",   998.871E+03,   1.00003E+06,   1.00003E+06
C:/temp/Job-1.odb,Step-1,Increment      1: Step Time =    1.000,"P-1-1",          3907,   200.000E-03,   34.1085E-03,            0.,NA,NA,"",   999.572E+03,   1.00004E+06,   1.00004E+06
C:/temp/Job-1.odb,Step-1,Increment      1: Step Time =    1.000,"P-1-1",          3908,   200.000E-03,   31.0078E-03,            0.,NA,NA,"",   1.00006E+06,   1.00002E+06,   1.00002E+06
C:/temp/Job-1.odb,Step-1,Increment      1: Step Time =    1.000,"P-1-1",          3909,   200.000E-03,   27.9070E-03,            0.,NA,NA,"",   1.00036E+06,   1.00002E+06,   1.00002E+06
C:/temp/Job-1.odb,Step-1,Increment      1: Step Time =    1.000,"P-1-1",          3910,   200.000E-03,   24.8062E-03,            0.,NA,NA,"",   1.00051E+06,   1.00001E+06,   1.00001E+06
C:/temp/Job-1.odb,Step-1,Increment      1: Step Time =    1.000,"P-1-1",          3911,   200.000E-03,   21.7054E-03,            0.,NA,NA,"",   1.00055E+06,   1.00001E+06,   1.00001E+06
C:/temp/Job-1.odb,Step-1,Increment      1: Step Time =    1.000,"P-1-1",          3912,   200.000E-03,   20.1550E-03,            0.,NA,NA,"",   1.00054E+06,   1.00001E+06,   1.00001E+06
C:/temp/Job-1.odb,Step-1,Increment      1: Step Time =    1.000,"P-1-1",          3913,   200.000E-03,   17.0543E-03,            0.,NA,NA,"",   1.00047E+06,   1.00000E+06,   1.00000E+06
C:/temp/Job-1.odb,Step-1,Increment      1: Step Time =    1.000,"P-1-1",          3914,   200.000E-03,   13.9535E-03,            0.,NA,NA,"",   1.00036E+06,   1.00000E+06,   1.00000E+06
C:/temp/Job-1.odb,Step-1,Increment      1: Step Time =    1.000,"P-1-1",          3915,   200.000E-03,   10.8527E-03,            0.,NA,NA,"",   1.00023E+06,  1000.000E+03,  1000.000E+03
C:/temp/Job-1.odb,Step-1,Increment      1: Step Time =    1.000,"P-1-1",          3916,   200.000E-03,   7.75194E-03,            0.,NA,NA,"",   1.00011E+06,   999.997E+03,   999.997E+03
C:/temp/Job-1.odb,Step-1,Increment      1: Step Time =    1.000,"P-1-1",          3917,   200.000E-03,   4.65116E-03,            0.,NA,NA,"",   1.00003E+06,   999.994E+03,   999.994E+03
C:/temp/Job-1.odb,Step-1,Increment      1: Step Time =    1.000,"P-1-1",          3918,   200.000E-03,   1.55039E-03,            0.,NA,NA,"",   999.999E+03,   999.996E+03,   999.996E+03
C:/temp/Job-1.odb,Step-1,Increment      1: Step Time =    1.000,"P-1-1",          3919,   1.55039E-03,   200.000E-03,            0.,NA,NA,"",   1.87178E+06,   1.91345E+06,   1.91345E+06
C:/temp/Job-1.odb,Step-1,Increment      1: Step Time =    1.000,"P-1-1",          3920,   4.65116E-03,   200.000E-03,            0.,NA,NA,"",   1.42647E+06,   1.43334E+06,   1.43334E+06
C:/temp/Job-1.odb,Step-1,Increment      1: Step Time =    1.000,"P-1-1",          3921,   7.75194E-03,   200.000E-03,            0.,NA,NA,"",   1.26910E+06,   1.27146E+06,   1.27146E+06
C:/temp/Job-1.odb,Step-1,Increment      1: Step Time =    1.000,"P-1-1",          3922,   10.8527E-03,   200.000E-03,            0.,NA,NA,"",   1.18202E+06,   1.18311E+06,   1.18311E+06
C:/temp/Job-1.odb,Step-1,Increment      1: Step Time =    1.000,"P-1-1",          3923,   13.9535E-03,   200.000E-03,            0.,NA,NA,"",   1.12658E+06,   1.12718E+06,   1.12718E+06
C:/temp/Job-1.odb,Step-1,Increment      1: Step Time =    1.000,"P-1-1",          3924,   17.0543E-03,   200.000E-03,            0.,NA,NA,"",   1.08865E+06,   1.08901E+06,   1.08901E+06
C:/temp/Job-1.odb,Step-1,Increment      1: Step Time =    1.000,"P-1-1",          3925,   20.1550E-03,   200.000E-03,            0.,NA,NA,"",   1.06130E+06,   1.06158E+06,   1.06158E+06
C:/temp/Job-1.odb,Step-1,Increment      1: Step Time =    1.000,"P-1-1",          3926,   21.7054E-03,   200.000E-03,            0.,NA,NA,"",   1.05067E+06,   1.05074E+06,   1.05074E+06
C:/temp/Job-1.odb,Step-1,Increment      1: Step Time =    1.000,"P-1-1",          3927,   24.8062E-03,   200.000E-03,            0.,NA,NA,"",   1.03260E+06,   1.03273E+06,   1.03273E+06
C:/temp/Job-1.odb,Step-1,Increment      1: Step Time =    1.000,"P-1-1",          3928,   27.9070E-03,   200.000E-03,            0.,NA,NA,"",   1.01855E+06,   1.01862E+06,   1.01862E+06
C:/temp/Job-1.odb,Step-1,Increment      1: Step Time =    1.000,"P-1-1",          3929,   31.0078E-03,   200.000E-03,            0.,NA,NA,"",   1.00753E+06,   1.00756E+06,   1.00756E+06
C:/temp/Job-1.odb,Step-1,Increment      1: Step Time =    1.000,"P-1-1",          3930,   34.1085E-03,   200.000E-03,            0.,NA,NA,"",   998.805E+03,   998.825E+03,   998.825E+03
C:/temp/Job-1.odb,Step-1,Increment      1: Step Time =    1.000,"P-1-1",          3931,   37.2093E-03,   200.000E-03,            0.,NA,NA,"",   991.695E+03,   991.736E+03,   991.736E+03
C:/temp/Job-1.odb,Step-1,Increment      1: Step Time =    1.000,"P-1-1",          3932,   40.3101E-03,   200.000E-03,            0.,NA,NA,"",   985.755E+03,   985.684E+03,   985.684E+03
C:/temp/Job-1.odb,Step-1,Increment      1: Step Time =    1.000,"P-1-1",          3933,   43.4109E-03,   200.000E-03,            0.,NA,NA,"",   979.659E+03,   979.744E+03,   979.744E+03
C:/temp/Job-1.odb,Step-1,Increment      1: Step Time =    1.000,"P-1-1",          3934,   46.5116E-03,   200.000E-03,            0.,NA,NA,"",   973.811E+03,   973.828E+03,   973.828E+03
C:/temp/Job-1.odb,Step-1,Increment      1: Step Time =    1.000,"P-1-1",          3935,   49.6124E-03,   200.000E-03,            0.,NA,NA,"",   969.298E+03,   969.295E+03,   969.295E+03
C:/temp/Job-1.odb,Step-1,Increment      1: Step Time =    1.000,"P-1-1",          3936,   52.7132E-03,   200.000E-03,            0.,NA,NA,"",   964.997E+03,   964.996E+03,   964.996E+03
C:/temp/Job-1.odb,Step-1,Increment      1: Step Time =    1.000,"P-1-1",          3937,   55.8140E-03,   200.000E-03,            0.,NA,NA,"",   960.805E+03,   960.802E+03,   960.802E+03
C:/temp/Job-1.odb,Step-1,Increment      1: Step Time =    1.000,"P-1-1",          3938,   58.9147E-03,   200.000E-03,            0.,NA,NA,"",   956.693E+03,   956.681E+03,   956.681E+03
C:/temp/Job-1.odb,Step-1,Increment      1: Step Time =    1.000,"P-1-1",          3939,   60.4651E-03,   200.000E-03,            0.,NA,NA,"",   954.596E+03,   954.593E+03,   954.593E+03
C:/temp/Job-1.odb,Step-1,Increment      1: Step Time =    1.000,"P-1-1",          3940,   63.5659E-03,   200.000E-03,            0.,NA,NA,"",   950.430E+03,   950.430E+03,   950.430E+03
C:/temp/Job-1.odb,Step-1,Increment      1: Step Time =    1.000,"P-1-1",          3941,   66.6667E-03,   200.000E-03,            0.,NA,NA,"",   946.425E+03,   946.434E+03,   946.434E+03
C:/temp/Job-1.odb,Step-1,Increment      1: Step Time =    1.000,"P-1-1",          3942,   69.7674E-03,   200.000E-03,            0.,NA,NA,"",   942.582E+03,   942.535E+03,   942.535E+03
C:/temp/Job-1.odb,Step-1,Increment      1: Step Time =    1.000,"P-1-1",          3943,   72.8682E-03,   200.000E-03,            0.,NA,NA,"",   938.428E+03,   938.449E+03,   938.449E+03
C:/temp/Job-1.odb,Step-1,Increment      1: Step Time =    1.000,"P-1-1",          3944,   75.9690E-03,   200.000E-03,            0.,NA,NA,"",   934.122E+03,   934.150E+03,   934.150E+03
C:/temp/Job-1.odb,Step-1,Increment      1: Step Time =    1.000,"P-1-1",          3945,   79.0698E-03,   200.000E-03,            0.,NA,NA,"",   930.708E+03,   930.707E+03,   930.707E+03
C:/temp/Job-1.odb,Step-1,Increment      1: Step Time =    1.000,"P-1-1",          3946,   82.1705E-03,   200.000E-03,            0.,NA,NA,"",   927.180E+03,   927.208E+03,   927.208E+03
C:/temp/Job-1.odb,Step-1,Increment      1: Step Time =    1.000,"P-1-1",          3947,   85.2713E-03,   200.000E-03,            0.,NA,NA,"",   924.371E+03,   924.393E+03,   924.393E+03
C:/temp/Job-1.odb,Step-1,Increment      1: Step Time =    1.000,"P-1-1",          3948,   88.3721E-03,   200.000E-03,            0.,NA,NA,"",   922.337E+03,   922.355E+03,   922.355E+03
C:/temp/Job-1.odb,Step-1,Increment      1: Step Time =    1.000,"P-1-1",          3949,   91.4729E-03,   200.000E-03,            0.,NA,NA,"",   920.973E+03,   920.991E+03,   920.991E+03
C:/temp/Job-1.odb,Step-1,Increment      1: Step Time =    1.000,"P-1-1",          3950,   94.5736E-03,   200.000E-03,            0.,NA,NA,"",   920.443E+03,   920.471E+03,   920.471E+03
C:/temp/Job-1.odb,Step-1,Increment      1: Step Time =    1.000,"P-1-1",          3951,   97.6744E-03,   200.000E-03,            0.,NA,NA,"",   920.823E+03,   920.849E+03,   920.849E+03
C:/temp/Job-1.odb,Step-1,Increment      1: Step Time =    1.000,"P-1-1",          3952,   99.2248E-03,   200.000E-03,            0.,NA,NA,"",   921.256E+03,   921.285E+03,   921.285E+03
C:/temp/Job-1.odb,Step-1,Increment      1: Step Time =    1.000,"P-1-1",          3953,   102.326E-03,   200.000E-03,            0.,NA,NA,"",   922.617E+03,   922.648E+03,   922.648E+03
C:/temp/Job-1.odb,Step-1,Increment      1: Step Time =    1.000,"P-1-1",          3954,   105.426E-03,   200.000E-03,            0.,NA,NA,"",   924.635E+03,   924.644E+03,   924.644E+03
C:/temp/Job-1.odb,Step-1,Increment      1: Step Time =    1.000,"P-1-1",          3955,   108.527E-03,   200.000E-03,            0.,NA,NA,"",   927.009E+03,   927.020E+03,   927.020E+03
C:/temp/Job-1.odb,Step-1,Increment      1: Step Time =    1.000,"P-1-1",          3956,   111.628E-03,   200.000E-03,            0.,NA,NA,"",   930.206E+03,   930.220E+03,   930.220E+03
C:/temp/Job-1.odb,Step-1,Increment      1: Step Time =    1.000,"P-1-1",          3957,   114.729E-03,   200.000E-03,            0.,NA,NA,"",   934.074E+03,   934.098E+03,   934.098E+03
C:/temp/Job-1.odb,Step-1,Increment      1: Step Time =    1.000,"P-1-1",          3958,   117.829E-03,   200.000E-03,            0.,NA,NA,"",   938.565E+03,    938.59E+03,    938.59E+03
C:/temp/Job-1.odb,Step-1,Increment      1: Step Time =    1.000,"P-1-1",          3959,   120.930E-03,   200.000E-03,            0.,NA,NA,"",   943.431E+03,   943.435E+03,   943.435E+03
C:/temp/Job-1.odb,Step-1,Increment      1: Step Time =    1.000,"P-1-1",          3960,   124.031E-03,   200.000E-03,            0.,NA,NA,"",   948.558E+03,   948.606E+03,   948.606E+03
C:/temp/Job-1.odb,Step-1,Increment      1: Step Time =    1.000,"P-1-1",          3961,   127.132E-03,   200.000E-03,            0.,NA,NA,"",   954.268E+03,   954.210E+03,   954.210E+03
C:/temp/Job-1.odb,Step-1,Increment      1: Step Time =    1.000,"P-1-1",          3962,   130.233E-03,   200.000E-03,            0.,NA,NA,"",   959.262E+03,   959.238E+03,   959.238E+03
C:/temp/Job-1.odb,Step-1,Increment      1: Step Time =    1.000,"P-1-1",          3963,   133.333E-03,   200.000E-03,            0.,NA,NA,"",   964.107E+03,   964.096E+03,   964.096E+03
C:/temp/Job-1.odb,Step-1,Increment      1: Step Time =    1.000,"P-1-1",          3964,   136.434E-03,   200.000E-03,            0.,NA,NA,"",   968.867E+03,   968.863E+03,   968.863E+03
C:/temp/Job-1.odb,Step-1,Increment      1: Step Time =    1.000,"P-1-1",          3965,   139.535E-03,   200.000E-03,            0.,NA,NA,"",   973.428E+03,   973.425E+03,   973.425E+03
C:/temp/Job-1.odb,Step-1,Increment      1: Step Time =    1.000,"P-1-1",          3966,   141.085E-03,   200.000E-03,            0.,NA,NA,"",   975.601E+03,   975.599E+03,   975.599E+03
C:/temp/Job-1.odb,Step-1,Increment      1: Step Time =    1.000,"P-1-1",          3967,   144.186E-03,   200.000E-03,            0.,NA,NA,"",   979.666E+03,   979.659E+03,   979.659E+03
C:/temp/Job-1.odb,Step-1,Increment      1: Step Time =    1.000,"P-1-1",          3968,   147.287E-03,   200.000E-03,            0.,NA,NA,"",   983.264E+03,   983.249E+03,   983.249E+03
C:/temp/Job-1.odb,Step-1,Increment      1: Step Time =    1.000,"P-1-1",          3969,   150.388E-03,   200.000E-03,            0.,NA,NA,"",   986.403E+03,   986.388E+03,   986.388E+03
C:/temp/Job-1.odb,Step-1,Increment      1: Step Time =    1.000,"P-1-1",          3970,   153.488E-03,   200.000E-03,            0.,NA,NA,"",   989.162E+03,   989.158E+03,   989.158E+03
C:/temp/Job-1.odb,Step-1,Increment      1: Step Time =    1.000,"P-1-1",          3971,   156.589E-03,   200.000E-03,            0.,NA,NA,"",   991.565E+03,   991.543E+03,   991.543E+03
C:/temp/Job-1.odb,Step-1,Increment      1: Step Time =    1.000,"P-1-1",          3972,   159.690E-03,   200.000E-03,            0.,NA,NA,"",   993.497E+03,   993.481E+03,   993.481E+03
C:/temp/Job-1.odb,Step-1,Increment      1: Step Time =    1.000,"P-1-1",          3973,   162.791E-03,   200.000E-03,            0.,NA,NA,"",   994.955E+03,   994.944E+03,   994.944E+03
C:/temp/Job-1.odb,Step-1,Increment      1: Step Time =    1.000,"P-1-1",          3974,   165.891E-03,   200.000E-03,            0.,NA,NA,"",   996.152E+03,   996.136E+03,   996.136E+03
C:/temp/Job-1.odb,Step-1,Increment      1: Step Time =    1.000,"P-1-1",          3975,   168.992E-03,   200.000E-03,            0.,NA,NA,"",   997.076E+03,   997.070E+03,   997.070E+03
C:/temp/Job-1.odb,Step-1,Increment      1: Step Time =    1.000,"P-1-1",          3976,   172.093E-03,   200.000E-03,            0.,NA,NA,"",   997.757E+03,   997.753E+03,   997.753E+03
C:/temp/Job-1.odb,Step-1,Increment      1: Step Time =    1.000,"P-1-1",          3977,   175.194E-03,   200.000E-03,            0.,NA,NA,"",   998.268E+03,   998.265E+03,   998.265E+03
C:/temp/Job-1.odb,Step-1,Increment      1: Step Time =    1.000,"P-1-1",          3978,   178.295E-03,   200.000E-03,            0.,NA,NA,"",   998.659E+03,   998.656E+03,   998.656E+03
C:/temp/Job-1.odb,Step-1,Increment      1: Step Time =    1.000,"P-1-1",          3979,   179.845E-03,   200.000E-03,            0.,NA,NA,"",   998.822E+03,   998.820E+03,   998.820E+03
C:/temp/Job-1.odb,Step-1,Increment      1: Step Time =    1.000,"P-1-1",          3980,   182.946E-03,   200.000E-03,            0.,NA,NA,"",   999.106E+03,   999.105E+03,   999.105E+03
C:/temp/Job-1.odb,Step-1,Increment      1: Step Time =    1.000,"P-1-1",          3981,   186.047E-03,   200.000E-03,            0.,NA,NA,"",   999.355E+03,   999.354E+03,   999.354E+03
C:/temp/Job-1.odb,Step-1,Increment      1: Step Time =    1.000,"P-1-1",          3982,   189.147E-03,   200.000E-03,            0.,NA,NA,"",   999.583E+03,   999.583E+03,   999.583E+03
C:/temp/Job-1.odb,Step-1,Increment      1: Step Time =    1.000,"P-1-1",          3983,   192.248E-03,   200.000E-03,            0.,NA,NA,"",   999.786E+03,   999.785E+03,   999.785E+03
C:/temp/Job-1.odb,Step-1,Increment      1: Step Time =    1.000,"P-1-1",          3984,   195.349E-03,   200.000E-03,            0.,NA,NA,"",   999.933E+03,   999.931E+03,   999.931E+03
C:/temp/Job-1.odb,Step-1,Increment      1: Step Time =    1.000,"P-1-1",          3985,   198.450E-03,   200.000E-03,            0.,NA,NA,"",   999.995E+03,   999.993E+03,   999.993E+03
C:/temp/Job-1.odb,Step-1,Increment      1: Step Time =    1.000,"P-1-1",          3986,            0.,   1.55039E-03,            0.,NA,NA,"",   1.80223E+06,   1.90903E+06,   1.90903E+06
C:/temp/Job-1.odb,Step-1,Increment      1: Step Time =    1.000,"P-1-1",          3987,            0.,   4.65116E-03,            0.,NA,NA,"",   1.32364E+06,   1.44127E+06,   1.44127E+06
C:/temp/Job-1.odb,Step-1,Increment      1: Step Time =    1.000,"P-1-1",          3988,            0.,   7.75194E-03,            0.,NA,NA,"",   1.17833E+06,   1.29275E+06,   1.29275E+06
C:/temp/Job-1.odb,Step-1,Increment      1: Step Time =    1.000,"P-1-1",          3989,            0.,   10.8527E-03,            0.,NA,NA,"",   1.09774E+06,   1.21008E+06,   1.21008E+06
C:/temp/Job-1.odb,Step-1,Increment      1: Step Time =    1.000,"P-1-1",          3990,            0.,   13.9535E-03,            0.,NA,NA,"",   1.04537E+06,   1.15636E+06,   1.15636E+06
C:/temp/Job-1.odb,Step-1,Increment      1: Step Time =    1.000,"P-1-1",          3991,            0.,   17.0543E-03,            0.,NA,NA,"",   1.00781E+06,   1.11785E+06,   1.11785E+06
C:/temp/Job-1.odb,Step-1,Increment      1: Step Time =    1.000,"P-1-1",          3992,            0.,   20.1550E-03,            0.,NA,NA,"",   978.961E+03,   1.08831E+06,   1.08831E+06
C:/temp/Job-1.odb,Step-1,Increment      1: Step Time =    1.000,"P-1-1",          3993,            0.,   21.7054E-03,            0.,NA,NA,"",   966.838E+03,   1.07590E+06,   1.07590E+06
C:/temp/Job-1.odb,Step-1,Increment      1: Step Time =    1.000,"P-1-1",          3994,            0.,   24.8062E-03,            0.,NA,NA,"",   945.912E+03,   1.05455E+06,   1.05455E+06
C:/temp/Job-1.odb,Step-1,Increment      1: Step Time =    1.000,"P-1-1",          3995,            0.,   27.9070E-03,            0.,NA,NA,"",   928.422E+03,   1.03671E+06,   1.03671E+06
C:/temp/Job-1.odb,Step-1,Increment      1: Step Time =    1.000,"P-1-1",          3996,            0.,   31.0078E-03,            0.,NA,NA,"",   913.389E+03,   1.02136E+06,   1.02136E+06
C:/temp/Job-1.odb,Step-1,Increment      1: Step Time =    1.000,"P-1-1",          3997,            0.,   34.1085E-03,            0.,NA,NA,"",   900.154E+03,   1.00787E+06,   1.00787E+06
C:/temp/Job-1.odb,Step-1,Increment      1: Step Time =    1.000,"P-1-1",          3998,            0.,   37.2093E-03,            0.,NA,NA,"",   888.320E+03,   995.846E+03,   995.846E+03
C:/temp/Job-1.odb,Step-1,Increment      1: Step Time =    1.000,"P-1-1",          3999,            0.,   40.3101E-03,            0.,NA,NA,"",   877.322E+03,   984.682E+03,   984.682E+03
C:/temp/Job-1.odb,Step-1,Increment      1: Step Time =    1.000,"P-1-1",          4000,            0.,   43.4109E-03,            0.,NA,NA,"",   867.432E+03,   974.574E+03,   974.574E+03
C:/temp/Job-1.odb,Step-1,Increment      1: Step Time =    1.000,"P-1-1",          4001,            0.,   46.5116E-03,            0.,NA,NA,"",   858.552E+03,   965.371E+03,   965.371E+03
C:/temp/Job-1.odb,Step-1,Increment      1: Step Time =    1.000,"P-1-1",          4002,            0.,   49.6124E-03,            0.,NA,NA,"",   850.349E+03,   956.793E+03,   956.793E+03
C:/temp/Job-1.odb,Step-1,Increment      1: Step Time =    1.000,"P-1-1",          4003,            0.,   52.7132E-03,            0.,NA,NA,"",   842.606E+03,   948.643E+03,   948.643E+03
C:/temp/Job-1.odb,Step-1,Increment      1: Step Time =    1.000,"P-1-1",          4004,            0.,   55.8140E-03,            0.,NA,NA,"",   835.236E+03,   940.851E+03,   940.851E+03
C:/temp/Job-1.odb,Step-1,Increment      1: Step Time =    1.000,"P-1-1",          4005,            0.,   58.9147E-03,            0.,NA,NA,"",   828.214E+03,   933.399E+03,   933.399E+03
C:/temp/Job-1.odb,Step-1,Increment      1: Step Time =    1.000,"P-1-1",          4006,            0.,   60.4651E-03,            0.,NA,NA,"",   824.821E+03,   929.790E+03,   929.790E+03
C:/temp/Job-1.odb,Step-1,Increment      1: Step Time =    1.000,"P-1-1",          4007,            0.,   63.5659E-03,            0.,NA,NA,"",   818.252E+03,   922.792E+03,   922.792E+03
C:/temp/Job-1.odb,Step-1,Increment      1: Step Time =    1.000,"P-1-1",          4008,            0.,   66.6667E-03,            0.,NA,NA,"",   812.029E+03,   916.137E+03,   916.137E+03
C:/temp/Job-1.odb,Step-1,Increment      1: Step Time =    1.000,"P-1-1",          4009,            0.,   69.7674E-03,            0.,NA,NA,"",   806.193E+03,   909.858E+03,   909.858E+03
C:/temp/Job-1.odb,Step-1,Increment      1: Step Time =    1.000,"P-1-1",          4010,            0.,   72.8682E-03,            0.,NA,NA,"",   800.765E+03,   903.983E+03,   903.983E+03
C:/temp/Job-1.odb,Step-1,Increment      1: Step Time =    1.000,"P-1-1",          4011,            0.,   75.9690E-03,            0.,NA,NA,"",   795.769E+03,   898.545E+03,   898.545E+03
C:/temp/Job-1.odb,Step-1,Increment      1: Step Time =    1.000,"P-1-1",          4012,            0.,   79.0698E-03,            0.,NA,NA,"",   791.235E+03,   893.589E+03,   893.589E+03
C:/temp/Job-1.odb,Step-1,Increment      1: Step Time =    1.000,"P-1-1",          4013,            0.,   82.1705E-03,            0.,NA,NA,"",   787.217E+03,   889.183E+03,   889.183E+03
C:/temp/Job-1.odb,Step-1,Increment      1: Step Time =    1.000,"P-1-1",          4014,            0.,   85.2713E-03,            0.,NA,NA,"",   783.754E+03,   885.379E+03,   885.379E+03
C:/temp/Job-1.odb,Step-1,Increment      1: Step Time =    1.000,"P-1-1",          4015,            0.,   88.3721E-03,            0.,NA,NA,"",   780.871E+03,   882.210E+03,   882.210E+03
C:/temp/Job-1.odb,Step-1,Increment      1: Step Time =    1.000,"P-1-1",          4016,            0.,   91.4729E-03,            0.,NA,NA,"",   778.606E+03,   879.722E+03,   879.722E+03
C:/temp/Job-1.odb,Step-1,Increment      1: Step Time =    1.000,"P-1-1",          4017,            0.,   94.5736E-03,            0.,NA,NA,"",   777.018E+03,   877.975E+03,   877.975E+03
C:/temp/Job-1.odb,Step-1,Increment      1: Step Time =    1.000,"P-1-1",          4018,            0.,   97.6744E-03,            0.,NA,NA,"",   776.123E+03,   876.982E+03,   876.982E+03
C:/temp/Job-1.odb,Step-1,Increment      1: Step Time =    1.000,"P-1-1",          4019,            0.,   99.2248E-03,            0.,NA,NA,"",   775.951E+03,   876.785E+03,   876.785E+03
C:/temp/Job-1.odb,Step-1,Increment      1: Step Time =    1.000,"P-1-1",          4020,            0.,   102.326E-03,            0.,NA,NA,"",   776.154E+03,   876.997E+03,   876.997E+03
C:/temp/Job-1.odb,Step-1,Increment      1: Step Time =    1.000,"P-1-1",          4021,            0.,   105.426E-03,            0.,NA,NA,"",   777.060E+03,   877.987E+03,   877.987E+03
C:/temp/Job-1.odb,Step-1,Increment      1: Step Time =    1.000,"P-1-1",          4022,            0.,   108.527E-03,            0.,NA,NA,"",   778.660E+03,   879.754E+03,   879.754E+03
C:/temp/Job-1.odb,Step-1,Increment      1: Step Time =    1.000,"P-1-1",          4023,            0.,   111.628E-03,            0.,NA,NA,"",   780.934E+03,   882.266E+03,   882.266E+03
C:/temp/Job-1.odb,Step-1,Increment      1: Step Time =    1.000,"P-1-1",          4024,            0.,   114.729E-03,            0.,NA,NA,"",   783.829E+03,   885.453E+03,   885.453E+03
C:/temp/Job-1.odb,Step-1,Increment      1: Step Time =    1.000,"P-1-1",          4025,            0.,   117.829E-03,            0.,NA,NA,"",   787.300E+03,   889.269E+03,   889.269E+03
C:/temp/Job-1.odb,Step-1,Increment      1: Step Time =    1.000,"P-1-1",          4026,            0.,   120.930E-03,            0.,NA,NA,"",   791.299E+03,   893.659E+03,   893.659E+03
C:/temp/Job-1.odb,Step-1,Increment      1: Step Time =    1.000,"P-1-1",          4027,            0.,   124.031E-03,            0.,NA,NA,"",   795.802E+03,   898.583E+03,   898.583E+03
C:/temp/Job-1.odb,Step-1,Increment      1: Step Time =    1.000,"P-1-1",          4028,            0.,   127.132E-03,            0.,NA,NA,"",   800.827E+03,   904.042E+03,   904.042E+03
C:/temp/Job-1.odb,Step-1,Increment      1: Step Time =    1.000,"P-1-1",          4029,            0.,   130.233E-03,            0.,NA,NA,"",   806.340E+03,   909.991E+03,   909.991E+03
C:/temp/Job-1.odb,Step-1,Increment      1: Step Time =    1.000,"P-1-1",          4030,            0.,   133.333E-03,            0.,NA,NA,"",   812.235E+03,   916.323E+03,   916.323E+03
C:/temp/Job-1.odb,Step-1,Increment      1: Step Time =    1.000,"P-1-1",          4031,            0.,   136.434E-03,            0.,NA,NA,"",   818.400E+03,   922.933E+03,   922.933E+03
C:/temp/Job-1.odb,Step-1,Increment      1: Step Time =    1.000,"P-1-1",          4032,            0.,   139.535E-03,            0.,NA,NA,"",   824.932E+03,   929.924E+03,   929.924E+03
C:/temp/Job-1.odb,Step-1,Increment      1: Step Time =    1.000,"P-1-1",          4033,            0.,   141.085E-03,            0.,NA,NA,"",   828.345E+03,   933.561E+03,   933.561E+03
C:/temp/Job-1.odb,Step-1,Increment      1: Step Time =    1.000,"P-1-1",          4034,            0.,   144.186E-03,            0.,NA,NA,"",   835.359E+03,   941.003E+03,   941.003E+03
C:/temp/Job-1.odb,Step-1,Increment      1: Step Time =    1.000,"P-1-1",          4035,            0.,   147.287E-03,            0.,NA,NA,"",   842.727E+03,   948.763E+03,   948.763E+03
C:/temp/Job-1.odb,Step-1,Increment      1: Step Time =    1.000,"P-1-1",          4036,            0.,   150.388E-03,            0.,NA,NA,"",   850.542E+03,   956.947E+03,   956.947E+03
C:/temp/Job-1.odb,Step-1,Increment      1: Step Time =    1.000,"P-1-1",          4037,            0.,   153.488E-03,            0.,NA,NA,"",   858.902E+03,   965.644E+03,   965.644E+03
C:/temp/Job-1.odb,Step-1,Increment      1: Step Time =    1.000,"P-1-1",          4038,            0.,   156.589E-03,            0.,NA,NA,"",   867.934E+03,   974.970E+03,   974.970E+03
C:/temp/Job-1.odb,Step-1,Increment      1: Step Time =    1.000,"P-1-1",          4039,            0.,   159.690E-03,            0.,NA,NA,"",   877.748E+03,   985.038E+03,   985.038E+03
C:/temp/Job-1.odb,Step-1,Increment      1: Step Time =    1.000,"P-1-1",          4040,            0.,   162.791E-03,            0.,NA,NA,"",   888.465E+03,   995.982E+03,   995.982E+03
C:/temp/Job-1.odb,Step-1,Increment      1: Step Time =    1.000,"P-1-1",          4041,            0.,   165.891E-03,            0.,NA,NA,"",   900.270E+03,   1.00801E+06,   1.00801E+06
C:/temp/Job-1.odb,Step-1,Increment      1: Step Time =    1.000,"P-1-1",          4042,            0.,   168.992E-03,            0.,NA,NA,"",   913.507E+03,   1.02149E+06,   1.02149E+06
C:/temp/Job-1.odb,Step-1,Increment      1: Step Time =    1.000,"P-1-1",          4043,            0.,   172.093E-03,            0.,NA,NA,"",   928.598E+03,   1.03689E+06,   1.03689E+06
C:/temp/Job-1.odb,Step-1,Increment      1: Step Time =    1.000,"P-1-1",          4044,            0.,   175.194E-03,            0.,NA,NA,"",   946.019E+03,   1.05472E+06,   1.05472E+06
C:/temp/Job-1.odb,Step-1,Increment      1: Step Time =    1.000,"P-1-1",          4045,            0.,   178.295E-03,            0.,NA,NA,"",   966.522E+03,   1.07574E+06,   1.07574E+06
C:/temp/Job-1.odb,Step-1,Increment      1: Step Time =    1.000,"P-1-1",          4046,            0.,   179.845E-03,            0.,NA,NA,"",   978.431E+03,   1.08796E+06,   1.08796E+06
C:/temp/Job-1.odb,Step-1,Increment      1: Step Time =    1.000,"P-1-1",          4047,            0.,   182.946E-03,            0.,NA,NA,"",   1.00721E+06,   1.11745E+06,   1.11745E+06
C:/temp/Job-1.odb,Step-1,Increment      1: Step Time =    1.000,"P-1-1",          4048,            0.,   186.047E-03,            0.,NA,NA,"",   1.04525E+06,   1.15631E+06,   1.15631E+06
C:/temp/Job-1.odb,Step-1,Increment      1: Step Time =    1.000,"P-1-1",          4049,            0.,   189.147E-03,            0.,NA,NA,"",   1.09850E+06,   1.21069E+06,   1.21069E+06
C:/temp/Job-1.odb,Step-1,Increment      1: Step Time =    1.000,"P-1-1",          4050,            0.,   192.248E-03,            0.,NA,NA,"",   1.17830E+06,   1.29246E+06,   1.29246E+06
C:/temp/Job-1.odb,Step-1,Increment      1: Step Time =    1.000,"P-1-1",          4051,            0.,   195.349E-03,            0.,NA,NA,"",   1.32334E+06,   1.44093E+06,   1.44093E+06
C:/temp/Job-1.odb,Step-1,Increment      1: Step Time =    1.000,"P-1-1",          4052,            0.,   198.450E-03,            0.,NA,NA,"",   1.80354E+06,   1.91046E+06,   1.91046E+06
C:/temp/Job-1.odb,Step-1,Increment      1: Step Time =    1.000,"P-1-1",          4053,   88.6897E-03,   94.6778E-03,            0.,NA,NA,"",   362.832E+03,  -9.00706E+03,  -9.00706E+03
C:/temp/Job-1.odb,Step-1,Increment      1: Step Time =    1.000,"P-1-1",          4054,   89.4459E-03,   93.3022E-03,            0.,NA,NA,"",   479.416E+03,   421.572E+03,   421.572E+03
C:/temp/Job-1.odb,Step-1,Increment      1: Step Time =    1.000,"P-1-1",          4055,   95.3984E-03,   88.3778E-03,            0.,NA,NA,"",   2.20017E+06,   2.24258E+06,   2.24258E+06
C:/temp/Job-1.odb,Step-1,Increment      1: Step Time =    1.000,"P-1-1",          4056,   96.8914E-03,   87.8927E-03,            0.,NA,NA,"",   2.42911E+06,   2.49253E+06,   2.49253E+06
C:/temp/Job-1.odb,Step-1,Increment      1: Step Time =    1.000,"P-1-1",          4057,   103.109E-03,   87.8927E-03,            0.,NA,NA,"",   2.50709E+06,   2.55338E+06,   2.55338E+06
C:/temp/Job-1.odb,Step-1,Increment      1: Step Time =    1.000,"P-1-1",          4058,   104.602E-03,   88.3778E-03,            0.,NA,NA,"",   2.20733E+06,   2.25039E+06,   2.25039E+06
C:/temp/Job-1.odb,Step-1,Increment      1: Step Time =    1.000,"P-1-1",          4059,   110.554E-03,   93.3022E-03,            0.,NA,NA,"",   464.693E+03,   390.015E+03,   390.015E+03
C:/temp/Job-1.odb,Step-1,Increment      1: Step Time =    1.000,"P-1-1",          4060,   111.310E-03,   94.6778E-03,            0.,NA,NA,"",   358.316E+03,  -76.0767E+03,  -76.0767E+03
C:/temp/Job-1.odb,Step-1,Increment      1: Step Time =    1.000,"P-1-1",          4061,   127.110E-03,   1.51919E-03,            0.,NA,NA,"",   955.445E+03,   955.442E+03,   955.442E+03
C:/temp/Job-1.odb,Step-1,Increment      1: Step Time =    1.000,"P-1-1",          4062,   133.287E-03,   1.55742E-03,            0.,NA,NA,"",   965.306E+03,   965.286E+03,   965.286E+03
C:/temp/Job-1.odb,Step-1,Increment      1: Step Time =    1.000,"P-1-1",          4063,   139.493E-03,   1.60889E-03,            0.,NA,NA,"",   974.402E+03,   974.363E+03,   974.363E+03
C:/temp/Job-1.odb,Step-1,Increment      1: Step Time =    1.000,"P-1-1",          4064,   147.262E-03,   1.51558E-03,            0.,NA,NA,"",   983.744E+03,   983.700E+03,   983.700E+03
C:/temp/Job-1.odb,Step-1,Increment      1: Step Time =    1.000,"P-1-1",          4065,   153.416E-03,   1.40504E-03,            0.,NA,NA,"",   989.367E+03,   989.332E+03,   989.332E+03
C:/temp/Job-1.odb,Step-1,Increment      1: Step Time =    1.000,"P-1-1",          4066,   159.549E-03,   1.42906E-03,            0.,NA,NA,"",   993.452E+03,   993.426E+03,   993.426E+03
C:/temp/Job-1.odb,Step-1,Increment      1: Step Time =    1.000,"P-1-1",          4067,   165.781E-03,   1.67893E-03,            0.,NA,NA,"",   996.192E+03,   996.163E+03,   996.163E+03
C:/temp/Job-1.odb,Step-1,Increment      1: Step Time =    1.000,"P-1-1",          4068,   172.030E-03,   1.61801E-03,            0.,NA,NA,"",   997.802E+03,   997.783E+03,   997.783E+03
C:/temp/Job-1.odb,Step-1,Increment      1: Step Time =    1.000,"P-1-1",          4069,   178.238E-03,   1.53594E-03,            0.,NA,NA,"",   998.707E+03,   998.699E+03,   998.699E+03
C:/temp/Job-1.odb,Step-1,Increment      1: Step Time =    1.000,"P-1-1",          4070,   182.865E-03,   1.49276E-03,            0.,NA,NA,"",   999.143E+03,   999.140E+03,   999.140E+03
C:/temp/Job-1.odb,Step-1,Increment      1: Step Time =    1.000,"P-1-1",          4071,   189.043E-03,   1.53610E-03,            0.,NA,NA,"",   999.594E+03,   999.592E+03,   999.592E+03
C:/temp/Job-1.odb,Step-1,Increment      1: Step Time =    1.000,"P-1-1",          4072,   195.267E-03,   1.63975E-03,            0.,NA,NA,"",   999.923E+03,   999.914E+03,   999.914E+03
C:/temp/Job-1.odb,Step-1,Increment      1: Step Time =    1.000,"P-1-1",          4073,   198.337E-03,   126.942E-03,            0.,NA,NA,"",   975.536E+03,   999.962E+03,   999.962E+03
C:/temp/Job-1.odb,Step-1,Increment      1: Step Time =    1.000,"P-1-1",          4074,   198.453E-03,   133.354E-03,            0.,NA,NA,"",   981.081E+03,   1.00003E+06,   1.00003E+06
C:/temp/Job-1.odb,Step-1,Increment      1: Step Time =    1.000,"P-1-1",          4075,   198.518E-03,   139.522E-03,            0.,NA,NA,"",   986.235E+03,   1.00008E+06,   1.00008E+06
C:/temp/Job-1.odb,Step-1,Increment      1: Step Time =    1.000,"P-1-1",          4076,   198.523E-03,   147.199E-03,            0.,NA,NA,"",   991.803E+03,   1.00009E+06,   1.00009E+06
C:/temp/Job-1.odb,Step-1,Increment      1: Step Time =    1.000,"P-1-1",          4077,   198.580E-03,   153.294E-03,            0.,NA,NA,"",   995.252E+03,   1.00010E+06,   1.00010E+06
C:/temp/Job-1.odb,Step-1,Increment      1: Step Time =    1.000,"P-1-1",          4078,   198.236E-03,   159.668E-03,            0.,NA,NA,"",   997.856E+03,   1.00013E+06,   1.00013E+06
C:/temp/Job-1.odb,Step-1,Increment      1: Step Time =    1.000,"P-1-1",          4079,   198.386E-03,   165.884E-03,            0.,NA,NA,"",   999.433E+03,   1.00009E+06,   1.00009E+06
C:/temp/Job-1.odb,Step-1,Increment      1: Step Time =    1.000,"P-1-1",          4080,   198.491E-03,   172.025E-03,            0.,NA,NA,"",   1.00024E+06,   1.00005E+06,   1.00005E+06
C:/temp/Job-1.odb,Step-1,Increment      1: Step Time =    1.000,"P-1-1",          4081,   198.395E-03,   178.269E-03,            0.,NA,NA,"",   1.00047E+06,   1.00003E+06,   1.00003E+06
C:/temp/Job-1.odb,Step-1,Increment      1: Step Time =    1.000,"P-1-1",          4082,   198.502E-03,   182.922E-03,            0.,NA,NA,"",   1.00042E+06,   1.00001E+06,   1.00001E+06
C:/temp/Job-1.odb,Step-1,Increment      1: Step Time =    1.000,"P-1-1",          4083,   198.502E-03,   189.087E-03,            0.,NA,NA,"",   1.00021E+06,   999.998E+03,   999.998E+03
C:/temp/Job-1.odb,Step-1,Increment      1: Step Time =    1.000,"P-1-1",          4084,   198.389E-03,   195.298E-03,            0.,NA,NA,"",   1.00002E+06,   999.981E+03,   999.981E+03
C:/temp/Job-1.odb,Step-1,Increment      1: Step Time =    1.000,"P-1-1",          4085,   196.834E-03,   1.62411E-03,            0.,NA,NA,"",   999.969E+03,   999.959E+03,   999.959E+03
C:/temp/Job-1.odb,Step-1,Increment      1: Step Time =    1.000,"P-1-1",          4086,   190.601E-03,   1.57535E-03,            0.,NA,NA,"",   999.692E+03,   999.689E+03,   999.689E+03
C:/temp/Job-1.odb,Step-1,Increment      1: Step Time =    1.000,"P-1-1",          4087,   184.405E-03,   1.48868E-03,            0.,NA,NA,"",   999.265E+03,   999.263E+03,   999.263E+03
C:/temp/Job-1.odb,Step-1,Increment      1: Step Time =    1.000,"P-1-1",          4088,   176.689E-03,   1.55658E-03,            0.,NA,NA,"",   998.525E+03,   998.515E+03,   998.515E+03
C:/temp/Job-1.odb,Step-1,Increment      1: Step Time =    1.000,"P-1-1",          4089,   170.476E-03,   1.63535E-03,            0.,NA,NA,"",   997.484E+03,   997.462E+03,   997.462E+03
C:/temp/Job-1.odb,Step-1,Increment      1: Step Time =    1.000,"P-1-1",          4090,   164.219E-03,   1.65608E-03,            0.,NA,NA,"",   995.637E+03,   995.607E+03,   995.607E+03
C:/temp/Job-1.odb,Step-1,Increment      1: Step Time =    1.000,"P-1-1",          4091,   158.008E-03,   1.39156E-03,            0.,NA,NA,"",   992.558E+03,   992.531E+03,   992.531E+03
C:/temp/Job-1.odb,Step-1,Increment      1: Step Time =    1.000,"P-1-1",          4092,   151.883E-03,   1.43039E-03,            0.,NA,NA,"",   988.115E+03,   988.077E+03,   988.077E+03
C:/temp/Job-1.odb,Step-1,Increment      1: Step Time =    1.000,"P-1-1",          4093,   145.714E-03,   1.54412E-03,            0.,NA,NA,"",   982.079E+03,   982.034E+03,   982.034E+03
C:/temp/Job-1.odb,Step-1,Increment      1: Step Time =    1.000,"P-1-1",          4094,   141.050E-03,   1.60274E-03,            0.,NA,NA,"",   976.470E+03,   976.427E+03,   976.427E+03
C:/temp/Job-1.odb,Step-1,Increment      1: Step Time =    1.000,"P-1-1",          4095,   134.831E-03,   1.57835E-03,            0.,NA,NA,"",   967.685E+03,   967.659E+03,   967.659E+03
C:/temp/Job-1.odb,Step-1,Increment      1: Step Time =    1.000,"P-1-1",          4096,   128.655E-03,   1.52110E-03,            0.,NA,NA,"",   957.929E+03,   957.922E+03,   957.922E+03
C:/temp/Job-1.odb,Step-1,Increment      1: Step Time =    1.000,"P-1-1",          4097,   198.398E-03,   196.857E-03,            0.,NA,NA,"",  1000.000E+03,   999.980E+03,   999.980E+03
C:/temp/Job-1.odb,Step-1,Increment      1: Step Time =    1.000,"P-1-1",          4098,   198.465E-03,   190.641E-03,            0.,NA,NA,"",   1.00016E+06,   999.993E+03,   999.993E+03
C:/temp/Job-1.odb,Step-1,Increment      1: Step Time =    1.000,"P-1-1",          4099,   198.523E-03,   184.461E-03,            0.,NA,NA,"",   1.00038E+06,   1.00001E+06,   1.00001E+06
C:/temp/Job-1.odb,Step-1,Increment      1: Step Time =    1.000,"P-1-1",          4100,   198.382E-03,   176.712E-03,            0.,NA,NA,"",   1.00045E+06,   1.00004E+06,   1.00004E+06
C:/temp/Job-1.odb,Step-1,Increment      1: Step Time =    1.000,"P-1-1",          4101,   198.494E-03,   170.492E-03,            0.,NA,NA,"",   1.00010E+06,   1.00006E+06,   1.00006E+06
C:/temp/Job-1.odb,Step-1,Increment      1: Step Time =    1.000,"P-1-1",          4102,   198.348E-03,   164.346E-03,            0.,NA,NA,"",   999.120E+03,   1.00009E+06,   1.00009E+06
C:/temp/Job-1.odb,Step-1,Increment      1: Step Time =    1.000,"P-1-1",          4103,   197.993E-03,   157.907E-03,            0.,NA,NA,"",   997.177E+03,   1.00012E+06,   1.00012E+06
C:/temp/Job-1.odb,Step-1,Increment      1: Step Time =    1.000,"P-1-1",          4104,   198.562E-03,   151.797E-03,            0.,NA,NA,"",   994.491E+03,   1.00010E+06,   1.00010E+06
C:/temp/Job-1.odb,Step-1,Increment      1: Step Time =    1.000,"P-1-1",          4105,   198.523E-03,   145.651E-03,            0.,NA,NA,"",   990.775E+03,   1.00009E+06,   1.00009E+06
C:/temp/Job-1.odb,Step-1,Increment      1: Step Time =    1.000,"P-1-1",          4106,   198.525E-03,   141.048E-03,            0.,NA,NA,"",   987.427E+03,   1.00008E+06,   1.00008E+06
C:/temp/Job-1.odb,Step-1,Increment      1: Step Time =    1.000,"P-1-1",          4107,   198.450E-03,   134.891E-03,            0.,NA,NA,"",   982.387E+03,   1.00003E+06,   1.00003E+06
C:/temp/Job-1.odb,Step-1,Increment      1: Step Time =    1.000,"P-1-1",          4108,   198.010E-03,   128.591E-03,            0.,NA,NA,"",   977.276E+03,   1.00003E+06,   1.00003E+06
C:/temp/Job-1.odb,Step-1,Increment      1: Step Time =    1.000,"P-1-1",          4109,   1.47043E-03,   17.1452E-03,            0.,NA,NA,"",   1.01393E+06,   1.12114E+06,   1.12114E+06
C:/temp/Job-1.odb,Step-1,Increment      1: Step Time =    1.000,"P-1-1",          4110,   1.47937E-03,   14.0594E-03,            0.,NA,NA,"",   1.05253E+06,   1.15991E+06,   1.15991E+06
C:/temp/Job-1.odb,Step-1,Increment      1: Step Time =    1.000,"P-1-1",          4111,   1.52906E-03,   10.9647E-03,            0.,NA,NA,"",   1.10674E+06,   1.21396E+06,   1.21396E+06
C:/temp/Job-1.odb,Step-1,Increment      1: Step Time =    1.000,"P-1-1",          4112,   111.808E-03,   198.567E-03,            0.,NA,NA,"",   932.949E+03,   933.001E+03,   933.001E+03
C:/temp/Job-1.odb,Step-1,Increment      1: Step Time =    1.000,"P-1-1",          4113,   198.550E-03,   111.606E-03,            0.,NA,NA,"",   964.284E+03,   999.864E+03,   999.864E+03
C:/temp/Job-1.odb,Step-1,Increment      1: Step Time =    1.000,"P-1-1",          4114,   198.576E-03,   114.647E-03,            0.,NA,NA,"",   965.943E+03,   999.898E+03,   999.898E+03
C:/temp/Job-1.odb,Step-1,Increment      1: Step Time =    1.000,"P-1-1",          4115,   114.818E-03,   198.550E-03,            0.,NA,NA,"",   936.684E+03,   936.731E+03,   936.731E+03
C:/temp/Job-1.odb,Step-1,Increment      1: Step Time =    1.000,"P-1-1",          4116,   1.48982E-03,   21.7863E-03,            0.,NA,NA,"",   971.985E+03,   1.07887E+06,   1.07887E+06
C:/temp/Job-1.odb,Step-1,Increment      1: Step Time =    1.000,"P-1-1",          4117,   1.51323E-03,   24.8821E-03,            0.,NA,NA,"",   950.625E+03,   1.05733E+06,   1.05733E+06
C:/temp/Job-1.odb,Step-1,Increment      1: Step Time =    1.000,"P-1-1",          4118,   1.62329E-03,   3.16653E-03,            0.,NA,NA,"",   1.48941E+06,   1.58115E+06,   1.58115E+06
C:/temp/Job-1.odb,Step-1,Increment      1: Step Time =    1.000,"P-1-1",          4119,   1.63842E-03,   4.73429E-03,            0.,NA,NA,"",   1.33798E+06,   1.44003E+06,   1.44003E+06
C:/temp/Job-1.odb,Step-1,Increment      1: Step Time =    1.000,"P-1-1",          4120,   1.60743E-03,   7.84586E-03,            0.,NA,NA,"",   1.19080E+06,   1.29693E+06,   1.29693E+06
C:/temp/Job-1.odb,Step-1,Increment      1: Step Time =    1.000,"P-1-1",          4121,   75.9570E-03,   1.46294E-03,            0.,NA,NA,"",   937.144E+03,   937.167E+03,   937.167E+03
C:/temp/Job-1.odb,Step-1,Increment      1: Step Time =    1.000,"P-1-1",          4122,   79.0104E-03,   1.51773E-03,            0.,NA,NA,"",   933.856E+03,   933.886E+03,   933.886E+03
C:/temp/Job-1.odb,Step-1,Increment      1: Step Time =    1.000,"P-1-1",          4123,   82.0948E-03,   1.55549E-03,            0.,NA,NA,"",   930.886E+03,   930.931E+03,   930.931E+03
C:/temp/Job-1.odb,Step-1,Increment      1: Step Time =    1.000,"P-1-1",          4124,   85.1951E-03,   1.55913E-03,            0.,NA,NA,"",   928.284E+03,   928.334E+03,   928.334E+03
C:/temp/Job-1.odb,Step-1,Increment      1: Step Time =    1.000,"P-1-1",          4125,   88.2955E-03,   1.55460E-03,            0.,NA,NA,"",   926.179E+03,   926.239E+03,   926.239E+03
C:/temp/Job-1.odb,Step-1,Increment      1: Step Time =    1.000,"P-1-1",          4126,   91.4160E-03,   1.57183E-03,            0.,NA,NA,"",   924.777E+03,   924.843E+03,   924.843E+03
C:/temp/Job-1.odb,Step-1,Increment      1: Step Time =    1.000,"P-1-1",          4127,   94.5542E-03,   1.61822E-03,            0.,NA,NA,"",   924.149E+03,   924.228E+03,   924.228E+03
C:/temp/Job-1.odb,Step-1,Increment      1: Step Time =    1.000,"P-1-1",          4128,   97.6705E-03,   1.63336E-03,            0.,NA,NA,"",   924.194E+03,   924.273E+03,   924.273E+03
C:/temp/Job-1.odb,Step-1,Increment      1: Step Time =    1.000,"P-1-1",          4129,   100.782E-03,   1.59448E-03,            0.,NA,NA,"",   924.799E+03,   924.883E+03,   924.883E+03
C:/temp/Job-1.odb,Step-1,Increment      1: Step Time =    1.000,"P-1-1",          4130,   105.433E-03,   1.55735E-03,            0.,NA,NA,"",   927.235E+03,   927.302E+03,   927.302E+03
C:/temp/Job-1.odb,Step-1,Increment      1: Step Time =    1.000,"P-1-1",          4131,   108.526E-03,   1.56084E-03,            0.,NA,NA,"",   929.815E+03,   929.880E+03,   929.880E+03
C:/temp/Job-1.odb,Step-1,Increment      1: Step Time =    1.000,"P-1-1",          4132,   111.625E-03,   1.56500E-03,            0.,NA,NA,"",   933.076E+03,   933.130E+03,   933.130E+03
C:/temp/Job-1.odb,Step-1,Increment      1: Step Time =    1.000,"P-1-1",          4133,   114.729E-03,   1.56506E-03,            0.,NA,NA,"",   936.897E+03,   936.938E+03,   936.938E+03
C:/temp/Job-1.odb,Step-1,Increment      1: Step Time =    1.000,"P-1-1",          4134,   117.834E-03,   1.56232E-03,            0.,NA,NA,"",   941.163E+03,   941.192E+03,   941.192E+03
C:/temp/Job-1.odb,Step-1,Increment      1: Step Time =    1.000,"P-1-1",          4135,   120.932E-03,   1.55057E-03,            0.,NA,NA,"",   945.741E+03,   945.757E+03,   945.757E+03
C:/temp/Job-1.odb,Step-1,Increment      1: Step Time =    1.000,"P-1-1",          4136,   124.021E-03,   1.53203E-03,            0.,NA,NA,"",   950.527E+03,   950.532E+03,   950.532E+03
C:/temp/Job-1.odb,Step-1,Increment      1: Step Time =    1.000,"P-1-1",          4137,   198.384E-03,   76.0031E-03,            0.,NA,NA,"",   972.979E+03,   999.886E+03,   999.886E+03
C:/temp/Job-1.odb,Step-1,Increment      1: Step Time =    1.000,"P-1-1",          4138,   198.388E-03,   79.0453E-03,            0.,NA,NA,"",   970.598E+03,   999.932E+03,   999.932E+03
C:/temp/Job-1.odb,Step-1,Increment      1: Step Time =    1.000,"P-1-1",          4139,   198.486E-03,   82.1347E-03,            0.,NA,NA,"",   968.199E+03,   999.881E+03,   999.881E+03
C:/temp/Job-1.odb,Step-1,Increment      1: Step Time =    1.000,"P-1-1",          4140,   198.587E-03,   85.1804E-03,            0.,NA,NA,"",   966.097E+03,   999.879E+03,   999.879E+03
C:/temp/Job-1.odb,Step-1,Increment      1: Step Time =    1.000,"P-1-1",          4141,   198.583E-03,   88.1933E-03,            0.,NA,NA,"",   964.426E+03,   999.873E+03,   999.873E+03
C:/temp/Job-1.odb,Step-1,Increment      1: Step Time =    1.000,"P-1-1",          4142,   198.313E-03,   91.2694E-03,            0.,NA,NA,"",   963.398E+03,   999.844E+03,   999.844E+03
C:/temp/Job-1.odb,Step-1,Increment      1: Step Time =    1.000,"P-1-1",          4143,   198.154E-03,   94.3950E-03,            0.,NA,NA,"",   962.537E+03,   999.774E+03,   999.774E+03
C:/temp/Job-1.odb,Step-1,Increment      1: Step Time =    1.000,"P-1-1",          4144,   198.089E-03,   97.6397E-03,            0.,NA,NA,"",   962.017E+03,   999.736E+03,   999.736E+03
C:/temp/Job-1.odb,Step-1,Increment      1: Step Time =    1.000,"P-1-1",          4145,   198.144E-03,   100.832E-03,            0.,NA,NA,"",   961.832E+03,   999.739E+03,   999.739E+03
C:/temp/Job-1.odb,Step-1,Increment      1: Step Time =    1.000,"P-1-1",          4146,   198.487E-03,   105.497E-03,            0.,NA,NA,"",   962.075E+03,   999.817E+03,   999.817E+03
C:/temp/Job-1.odb,Step-1,Increment      1: Step Time =    1.000,"P-1-1",          4147,   198.537E-03,   108.553E-03,            0.,NA,NA,"",   962.976E+03,   999.852E+03,   999.852E+03
C:/temp/Job-1.odb,Step-1,Increment      1: Step Time =    1.000,"P-1-1",          4148,   198.568E-03,   117.666E-03,            0.,NA,NA,"",   967.895E+03,   999.868E+03,   999.868E+03
C:/temp/Job-1.odb,Step-1,Increment      1: Step Time =    1.000,"P-1-1",          4149,   117.871E-03,   198.451E-03,            0.,NA,NA,"",   941.171E+03,   941.217E+03,   941.217E+03
C:/temp/Job-1.odb,Step-1,Increment      1: Step Time =    1.000,"P-1-1",          4150,   198.341E-03,   120.777E-03,            0.,NA,NA,"",   970.475E+03,   999.906E+03,   999.906E+03
C:/temp/Job-1.odb,Step-1,Increment      1: Step Time =    1.000,"P-1-1",          4151,   120.959E-03,   198.365E-03,            0.,NA,NA,"",   945.977E+03,   945.995E+03,   945.995E+03
C:/temp/Job-1.odb,Step-1,Increment      1: Step Time =    1.000,"P-1-1",          4152,   198.297E-03,   123.886E-03,            0.,NA,NA,"",   973.057E+03,   999.974E+03,   999.974E+03
C:/temp/Job-1.odb,Step-1,Increment      1: Step Time =    1.000,"P-1-1",          4153,   124.003E-03,   198.374E-03,            0.,NA,NA,"",   950.674E+03,   950.719E+03,   950.719E+03
C:/temp/Job-1.odb,Step-1,Increment      1: Step Time =    1.000,"P-1-1",          4154,   1.58626E-03,   198.419E-03,            0.,NA,NA,"",   1.73705E+06,   1.79885E+06,   1.79885E+06
C:/temp/Job-1.odb,Step-1,Increment      1: Step Time =    1.000,"P-1-1",          4155,   4.71571E-03,   198.405E-03,            0.,NA,NA,"",   1.43386E+06,   1.44510E+06,   1.44510E+06
C:/temp/Job-1.odb,Step-1,Increment      1: Step Time =    1.000,"P-1-1",          4156,   7.81893E-03,   198.424E-03,            0.,NA,NA,"",   1.28344E+06,   1.28771E+06,   1.28771E+06
C:/temp/Job-1.odb,Step-1,Increment      1: Step Time =    1.000,"P-1-1",          4157,   10.9287E-03,   198.453E-03,            0.,NA,NA,"",   1.19524E+06,   1.19736E+06,   1.19736E+06
C:/temp/Job-1.odb,Step-1,Increment      1: Step Time =    1.000,"P-1-1",          4158,   14.0364E-03,   198.472E-03,            0.,NA,NA,"",   1.13807E+06,   1.13927E+06,   1.13927E+06
C:/temp/Job-1.odb,Step-1,Increment      1: Step Time =    1.000,"P-1-1",          4159,   17.1367E-03,   198.455E-03,            0.,NA,NA,"",   1.09882E+06,   1.09958E+06,   1.09958E+06
C:/temp/Job-1.odb,Step-1,Increment      1: Step Time =    1.000,"P-1-1",          4160,   21.8024E-03,   198.379E-03,            0.,NA,NA,"",   1.05912E+06,   1.05960E+06,   1.05960E+06
C:/temp/Job-1.odb,Step-1,Increment      1: Step Time =    1.000,"P-1-1",          4161,   24.8959E-03,   198.424E-03,            0.,NA,NA,"",   1.04003E+06,   1.04042E+06,   1.04042E+06
C:/temp/Job-1.odb,Step-1,Increment      1: Step Time =    1.000,"P-1-1",          4162,   27.9976E-03,   198.507E-03,            0.,NA,NA,"",   1.02458E+06,   1.02482E+06,   1.02482E+06
C:/temp/Job-1.odb,Step-1,Increment      1: Step Time =    1.000,"P-1-1",          4163,   31.0537E-03,   198.486E-03,            0.,NA,NA,"",   1.01329E+06,   1.01344E+06,   1.01344E+06
C:/temp/Job-1.odb,Step-1,Increment      1: Step Time =    1.000,"P-1-1",          4164,   34.1495E-03,   198.390E-03,            0.,NA,NA,"",   1.00425E+06,   1.00440E+06,   1.00440E+06
C:/temp/Job-1.odb,Step-1,Increment      1: Step Time =    1.000,"P-1-1",          4165,   37.2291E-03,   198.335E-03,            0.,NA,NA,"",   996.782E+03,   996.904E+03,   996.904E+03
C:/temp/Job-1.odb,Step-1,Increment      1: Step Time =    1.000,"P-1-1",          4166,   40.3660E-03,   198.212E-03,            0.,NA,NA,"",   990.553E+03,   990.554E+03,   990.554E+03
C:/temp/Job-1.odb,Step-1,Increment      1: Step Time =    1.000,"P-1-1",          4167,   43.7492E-03,   198.451E-03,            0.,NA,NA,"",   982.826E+03,   982.925E+03,   982.925E+03
C:/temp/Job-1.odb,Step-1,Increment      1: Step Time =    1.000,"P-1-1",          4168,   60.4323E-03,   198.503E-03,            0.,NA,NA,"",   957.681E+03,   957.670E+03,   957.670E+03
C:/temp/Job-1.odb,Step-1,Increment      1: Step Time =    1.000,"P-1-1",          4169,   63.5209E-03,   198.453E-03,            0.,NA,NA,"",   953.576E+03,   953.583E+03,   953.583E+03
C:/temp/Job-1.odb,Step-1,Increment      1: Step Time =    1.000,"P-1-1",          4170,   66.6174E-03,   198.441E-03,            0.,NA,NA,"",   949.462E+03,   949.481E+03,   949.481E+03
C:/temp/Job-1.odb,Step-1,Increment      1: Step Time =    1.000,"P-1-1",          4171,   69.6835E-03,   198.349E-03,            0.,NA,NA,"",   945.879E+03,   945.842E+03,   945.842E+03
C:/temp/Job-1.odb,Step-1,Increment      1: Step Time =    1.000,"P-1-1",          4172,   108.730E-03,   198.322E-03,            0.,NA,NA,"",   930.627E+03,   930.676E+03,   930.676E+03
C:/temp/Job-1.odb,Step-1,Increment      1: Step Time =    1.000,"P-1-1",          4173,   102.368E-03,   198.058E-03,            0.,NA,NA,"",   926.952E+03,   927.047E+03,   927.047E+03
C:/temp/Job-1.odb,Step-1,Increment      1: Step Time =    1.000,"P-1-1",          4174,   99.1784E-03,   198.111E-03,            0.,NA,NA,"",   925.586E+03,   925.688E+03,   925.688E+03
C:/temp/Job-1.odb,Step-1,Increment      1: Step Time =    1.000,"P-1-1",          4175,   94.5047E-03,   198.455E-03,            0.,NA,NA,"",   923.897E+03,   923.979E+03,   923.979E+03
C:/temp/Job-1.odb,Step-1,Increment      1: Step Time =    1.000,"P-1-1",          4176,   91.4383E-03,   198.492E-03,            0.,NA,NA,"",   924.449E+03,   924.514E+03,   924.514E+03
C:/temp/Job-1.odb,Step-1,Increment      1: Step Time =    1.000,"P-1-1",          4177,   88.3760E-03,   198.484E-03,            0.,NA,NA,"",   925.825E+03,   925.890E+03,   925.890E+03
C:/temp/Job-1.odb,Step-1,Increment      1: Step Time =    1.000,"P-1-1",          4178,   85.3435E-03,   198.522E-03,            0.,NA,NA,"",   927.720E+03,   927.770E+03,   927.770E+03
C:/temp/Job-1.odb,Step-1,Increment      1: Step Time =    1.000,"P-1-1",          4179,   82.3087E-03,   198.550E-03,            0.,NA,NA,"",   930.225E+03,   930.289E+03,   930.289E+03
C:/temp/Job-1.odb,Step-1,Increment      1: Step Time =    1.000,"P-1-1",          4180,   79.1857E-03,   198.357E-03,            0.,NA,NA,"",   934.221E+03,   934.244E+03,   934.244E+03
C:/temp/Job-1.odb,Step-1,Increment      1: Step Time =    1.000,"P-1-1",          4181,   76.0770E-03,   198.327E-03,            0.,NA,NA,"",   937.845E+03,   937.885E+03,   937.885E+03
C:/temp/Job-1.odb,Step-1,Increment      1: Step Time =    1.000,"P-1-1",          4182,   73.0312E-03,   198.361E-03,            0.,NA,NA,"",   941.303E+03,   941.318E+03,   941.318E+03
C:/temp/Job-1.odb,Step-1,Increment      1: Step Time =    1.000,"P-1-1",          4183,   55.8615E-03,   198.556E-03,            0.,NA,NA,"",   963.801E+03,   963.801E+03,   963.801E+03
C:/temp/Job-1.odb,Step-1,Increment      1: Step Time =    1.000,"P-1-1",          4184,   52.7808E-03,   198.606E-03,            0.,NA,NA,"",   968.005E+03,   968.010E+03,   968.010E+03
C:/temp/Job-1.odb,Step-1,Increment      1: Step Time =    1.000,"P-1-1",          4185,   49.7166E-03,   198.658E-03,            0.,NA,NA,"",   972.329E+03,   972.331E+03,   972.331E+03
C:/temp/Job-1.odb,Step-1,Increment      1: Step Time =    1.000,"P-1-1",          4186,   46.7208E-03,   198.674E-03,            0.,NA,NA,"",   976.867E+03,   976.909E+03,   976.909E+03
C:/temp/Job-1.odb,Step-1,Increment      1: Step Time =    1.000,"P-1-1",          4187,   1.51001E-03,   124.044E-03,            0.,NA,NA,"",   797.527E+03,   899.778E+03,   899.778E+03
C:/temp/Job-1.odb,Step-1,Increment      1: Step Time =    1.000,"P-1-1",          4188,   1.53842E-03,   120.967E-03,            0.,NA,NA,"",   792.942E+03,   894.805E+03,   894.805E+03
C:/temp/Job-1.odb,Step-1,Increment      1: Step Time =    1.000,"P-1-1",          4189,   1.56749E-03,   117.876E-03,            0.,NA,NA,"",   788.830E+03,   890.335E+03,   890.335E+03
C:/temp/Job-1.odb,Step-1,Increment      1: Step Time =    1.000,"P-1-1",          4190,   1.57868E-03,   114.782E-03,            0.,NA,NA,"",   785.246E+03,   886.440E+03,   886.440E+03
C:/temp/Job-1.odb,Step-1,Increment      1: Step Time =    1.000,"P-1-1",          4191,   1.58326E-03,   111.682E-03,            0.,NA,NA,"",   782.243E+03,   883.175E+03,   883.175E+03
C:/temp/Job-1.odb,Step-1,Increment      1: Step Time =    1.000,"P-1-1",          4192,   1.59728E-03,   108.560E-03,            0.,NA,NA,"",   779.884E+03,   880.599E+03,   880.599E+03
C:/temp/Job-1.odb,Step-1,Increment      1: Step Time =    1.000,"P-1-1",          4193,   1.62184E-03,   105.421E-03,            0.,NA,NA,"",   778.225E+03,   878.784E+03,   878.784E+03
C:/temp/Job-1.odb,Step-1,Increment      1: Step Time =    1.000,"P-1-1",          4194,   1.60873E-03,   102.306E-03,            0.,NA,NA,"",   777.283E+03,   877.769E+03,   877.769E+03
C:/temp/Job-1.odb,Step-1,Increment      1: Step Time =    1.000,"P-1-1",          4195,   1.54952E-03,   99.1980E-03,            0.,NA,NA,"",   777.027E+03,   877.522E+03,   877.522E+03
C:/temp/Job-1.odb,Step-1,Increment      1: Step Time =    1.000,"P-1-1",          4196,   1.51466E-03,   94.5558E-03,            0.,NA,NA,"",   778.107E+03,   878.723E+03,   878.723E+03
C:/temp/Job-1.odb,Step-1,Increment      1: Step Time =    1.000,"P-1-1",          4197,   1.52993E-03,   91.4752E-03,            0.,NA,NA,"",   779.761E+03,   880.514E+03,   880.514E+03
C:/temp/Job-1.odb,Step-1,Increment      1: Step Time =    1.000,"P-1-1",          4198,   1.55044E-03,   88.3902E-03,            0.,NA,NA,"",   782.118E+03,   883.064E+03,   883.064E+03
C:/temp/Job-1.odb,Step-1,Increment      1: Step Time =    1.000,"P-1-1",          4199,   1.55821E-03,   85.3051E-03,            0.,NA,NA,"",   785.102E+03,   886.300E+03,   886.300E+03
C:/temp/Job-1.odb,Step-1,Increment      1: Step Time =    1.000,"P-1-1",          4200,   1.54902E-03,   82.2172E-03,            0.,NA,NA,"",   788.664E+03,   890.168E+03,   890.168E+03
C:/temp/Job-1.odb,Step-1,Increment      1: Step Time =    1.000,"P-1-1",          4201,   1.52958E-03,   79.1203E-03,            0.,NA,NA,"",   792.789E+03,   894.646E+03,   894.646E+03
C:/temp/Job-1.odb,Step-1,Increment      1: Step Time =    1.000,"P-1-1",          4202,   1.51542E-03,   76.0208E-03,            0.,NA,NA,"",   797.445E+03,   899.684E+03,   899.684E+03
C:/temp/Job-1.odb,Step-1,Increment      1: Step Time =    1.000,"P-1-1",          4203,   1.51742E-03,   72.9252E-03,            0.,NA,NA,"",   802.581E+03,   905.212E+03,   905.212E+03
C:/temp/Job-1.odb,Step-1,Increment      1: Step Time =    1.000,"P-1-1",          4204,   1.53670E-03,   69.8378E-03,            0.,NA,NA,"",   808.168E+03,   911.187E+03,   911.187E+03
C:/temp/Job-1.odb,Step-1,Increment      1: Step Time =    1.000,"P-1-1",          4205,   1.57358E-03,   66.7565E-03,            0.,NA,NA,"",   814.188E+03,   917.578E+03,   917.578E+03
C:/temp/Job-1.odb,Step-1,Increment      1: Step Time =    1.000,"P-1-1",          4206,   1.61878E-03,   63.6594E-03,            0.,NA,NA,"",   820.624E+03,   924.370E+03,   924.370E+03
C:/temp/Job-1.odb,Step-1,Increment      1: Step Time =    1.000,"P-1-1",          4207,   1.64017E-03,   60.5356E-03,            0.,NA,NA,"",   827.411E+03,   931.523E+03,   931.523E+03
C:/temp/Job-1.odb,Step-1,Increment      1: Step Time =    1.000,"P-1-1",          4208,   1.60484E-03,   55.8421E-03,            0.,NA,NA,"",   838.061E+03,   942.752E+03,   942.752E+03
C:/temp/Job-1.odb,Step-1,Increment      1: Step Time =    1.000,"P-1-1",          4209,   1.54838E-03,   52.7221E-03,            0.,NA,NA,"",   845.514E+03,   950.601E+03,   950.601E+03
C:/temp/Job-1.odb,Step-1,Increment      1: Step Time =    1.000,"P-1-1",          4210,   1.48051E-03,   49.6279E-03,            0.,NA,NA,"",   853.276E+03,   958.750E+03,   958.750E+03
C:/temp/Job-1.odb,Step-1,Increment      1: Step Time =    1.000,"P-1-1",          4211,   1.41370E-03,   46.5572E-03,            0.,NA,NA,"",   861.437E+03,   967.269E+03,   967.269E+03
C:/temp/Job-1.odb,Step-1,Increment      1: Step Time =    1.000,"P-1-1",          4212,   1.37683E-03,   43.4977E-03,            0.,NA,NA,"",   870.288E+03,   976.406E+03,   976.406E+03
C:/temp/Job-1.odb,Step-1,Increment      1: Step Time =    1.000,"P-1-1",          4213,   1.41897E-03,   40.4220E-03,            0.,NA,NA,"",   880.318E+03,   986.555E+03,   986.555E+03
C:/temp/Job-1.odb,Step-1,Increment      1: Step Time =    1.000,"P-1-1",          4214,   1.55936E-03,   37.3098E-03,            0.,NA,NA,"",   891.885E+03,   998.056E+03,   998.056E+03
C:/temp/Job-1.odb,Step-1,Increment      1: Step Time =    1.000,"P-1-1",          4215,   1.63431E-03,   34.2018E-03,            0.,NA,NA,"",   904.142E+03,   1.01032E+06,   1.01032E+06
C:/temp/Job-1.odb,Step-1,Increment      1: Step Time =    1.000,"P-1-1",          4216,   1.58675E-03,   31.0762E-03,            0.,NA,NA,"",   917.654E+03,   1.02400E+06,   1.02400E+06
C:/temp/Job-1.odb,Step-1,Increment      1: Step Time =    1.000,"P-1-1",          4217,   1.54357E-03,   27.9765E-03,            0.,NA,NA,"",   932.841E+03,   1.03939E+06,   1.03939E+06
C:/temp/Job-1.odb,Step-1,Increment      1: Step Time =    1.000,"P-1-1",          4218,   105.607E-03,   198.144E-03,            0.,NA,NA,"",   928.588E+03,   928.659E+03,   928.659E+03
C:/temp/Job-1.odb,Step-1,Increment      1: Step Time =    1.000,"P-1-1",          4219,   122.478E-03,   1.54111E-03,            0.,NA,NA,"",   948.113E+03,   948.124E+03,   948.124E+03
C:/temp/Job-1.odb,Step-1,Increment      1: Step Time =    1.000,"P-1-1",          4220,   119.384E-03,   1.55802E-03,            0.,NA,NA,"",   943.421E+03,   943.444E+03,   943.444E+03
C:/temp/Job-1.odb,Step-1,Increment      1: Step Time =    1.000,"P-1-1",          4221,   116.282E-03,   1.56367E-03,            0.,NA,NA,"",   938.981E+03,   939.016E+03,   939.016E+03
C:/temp/Job-1.odb,Step-1,Increment      1: Step Time =    1.000,"P-1-1",          4222,   113.177E-03,   1.56601E-03,            0.,NA,NA,"",   934.924E+03,   934.971E+03,   934.971E+03
C:/temp/Job-1.odb,Step-1,Increment      1: Step Time =    1.000,"P-1-1",          4223,   110.074E-03,   1.56322E-03,            0.,NA,NA,"",   931.367E+03,   931.428E+03,   931.428E+03
C:/temp/Job-1.odb,Step-1,Increment      1: Step Time =    1.000,"P-1-1",          4224,   106.978E-03,   1.55847E-03,            0.,NA,NA,"",   928.431E+03,   928.500E+03,   928.500E+03
C:/temp/Job-1.odb,Step-1,Increment      1: Step Time =    1.000,"P-1-1",          4225,   103.887E-03,   1.56204E-03,            0.,NA,NA,"",   926.240E+03,   926.302E+03,   926.302E+03
C:/temp/Job-1.odb,Step-1,Increment      1: Step Time =    1.000,"P-1-1",          4226,   102.338E-03,   1.57324E-03,            0.,NA,NA,"",   925.421E+03,   925.495E+03,   925.495E+03
C:/temp/Job-1.odb,Step-1,Increment      1: Step Time =    1.000,"P-1-1",          4227,   99.2215E-03,   1.61822E-03,            0.,NA,NA,"",   924.405E+03,   924.488E+03,   924.488E+03
C:/temp/Job-1.odb,Step-1,Increment      1: Step Time =    1.000,"P-1-1",          4228,   96.1185E-03,   1.63427E-03,            0.,NA,NA,"",   924.107E+03,   924.181E+03,   924.181E+03
C:/temp/Job-1.odb,Step-1,Increment      1: Step Time =    1.000,"P-1-1",          4229,   92.9838E-03,   1.59487E-03,            0.,NA,NA,"",   924.369E+03,   924.445E+03,   924.445E+03
C:/temp/Job-1.odb,Step-1,Increment      1: Step Time =    1.000,"P-1-1",          4230,   89.8519E-03,   1.55946E-03,            0.,NA,NA,"",   925.378E+03,   925.441E+03,   925.441E+03
C:/temp/Job-1.odb,Step-1,Increment      1: Step Time =    1.000,"P-1-1",          4231,   86.7433E-03,   1.55578E-03,            0.,NA,NA,"",   927.157E+03,   927.210E+03,   927.210E+03
C:/temp/Job-1.odb,Step-1,Increment      1: Step Time =    1.000,"P-1-1",          4232,   83.6450E-03,   1.56032E-03,            0.,NA,NA,"",   929.536E+03,   929.581E+03,   929.581E+03
C:/temp/Job-1.odb,Step-1,Increment      1: Step Time =    1.000,"P-1-1",          4233,   80.5479E-03,   1.54121E-03,            0.,NA,NA,"",   932.330E+03,   932.369E+03,   932.369E+03
C:/temp/Job-1.odb,Step-1,Increment      1: Step Time =    1.000,"P-1-1",          4234,   77.4809E-03,   1.48853E-03,            0.,NA,NA,"",   935.455E+03,   935.480E+03,   935.480E+03
C:/temp/Job-1.odb,Step-1,Increment      1: Step Time =    1.000,"P-1-1",          4235,   198.217E-03,   122.323E-03,            0.,NA,NA,"",   971.815E+03,   999.947E+03,   999.947E+03
C:/temp/Job-1.odb,Step-1,Increment      1: Step Time =    1.000,"P-1-1",          4236,   198.489E-03,   119.209E-03,            0.,NA,NA,"",   969.100E+03,   999.870E+03,   999.870E+03
C:/temp/Job-1.odb,Step-1,Increment      1: Step Time =    1.000,"P-1-1",          4237,   198.588E-03,   116.153E-03,            0.,NA,NA,"",   966.867E+03,   999.887E+03,   999.887E+03
C:/temp/Job-1.odb,Step-1,Increment      1: Step Time =    1.000,"P-1-1",          4238,   198.559E-03,   113.131E-03,            0.,NA,NA,"",   965.074E+03,   999.881E+03,   999.881E+03
C:/temp/Job-1.odb,Step-1,Increment      1: Step Time =    1.000,"P-1-1",          4239,   198.543E-03,   110.080E-03,            0.,NA,NA,"",   963.585E+03,   999.858E+03,   999.858E+03
C:/temp/Job-1.odb,Step-1,Increment      1: Step Time =    1.000,"P-1-1",          4240,   198.522E-03,   107.027E-03,            0.,NA,NA,"",   962.462E+03,   999.832E+03,   999.832E+03
C:/temp/Job-1.odb,Step-1,Increment      1: Step Time =    1.000,"P-1-1",          4241,   198.416E-03,   103.960E-03,            0.,NA,NA,"",   961.851E+03,   999.815E+03,   999.815E+03
C:/temp/Job-1.odb,Step-1,Increment      1: Step Time =    1.000,"P-1-1",          4242,   198.300E-03,   102.410E-03,            0.,NA,NA,"",   961.781E+03,   999.798E+03,   999.798E+03
C:/temp/Job-1.odb,Step-1,Increment      1: Step Time =    1.000,"P-1-1",          4243,   198.019E-03,   99.2462E-03,            0.,NA,NA,"",   961.911E+03,   999.683E+03,   999.683E+03
C:/temp/Job-1.odb,Step-1,Increment      1: Step Time =    1.000,"P-1-1",          4244,   198.157E-03,   96.0179E-03,            0.,NA,NA,"",   962.215E+03,   999.803E+03,   999.803E+03
C:/temp/Job-1.odb,Step-1,Increment      1: Step Time =    1.000,"P-1-1",          4245,   198.148E-03,   92.7977E-03,            0.,NA,NA,"",   962.954E+03,   999.766E+03,   999.766E+03
C:/temp/Job-1.odb,Step-1,Increment      1: Step Time =    1.000,"P-1-1",          4246,   198.484E-03,   89.7282E-03,            0.,NA,NA,"",   963.870E+03,   999.905E+03,   999.905E+03
C:/temp/Job-1.odb,Step-1,Increment      1: Step Time =    1.000,"P-1-1",          4247,   198.607E-03,   86.6832E-03,            0.,NA,NA,"",   965.177E+03,   999.854E+03,   999.854E+03
C:/temp/Job-1.odb,Step-1,Increment      1: Step Time =    1.000,"P-1-1",          4248,   198.542E-03,   83.6663E-03,            0.,NA,NA,"",   967.103E+03,   999.886E+03,   999.886E+03
C:/temp/Job-1.odb,Step-1,Increment      1: Step Time =    1.000,"P-1-1",          4249,   198.429E-03,   80.5872E-03,            0.,NA,NA,"",   969.385E+03,   999.902E+03,   999.902E+03
C:/temp/Job-1.odb,Step-1,Increment      1: Step Time =    1.000,"P-1-1",          4250,   198.387E-03,   77.5168E-03,            0.,NA,NA,"",   971.793E+03,   999.929E+03,   999.929E+03
C:/temp/Job-1.odb,Step-1,Increment      1: Step Time =    1.000,"P-1-1",          4251,   3.15552E-03,   198.407E-03,            0.,NA,NA,"",   1.57491E+06,   1.59102E+06,   1.59102E+06
C:/temp/Job-1.odb,Step-1,Increment      1: Step Time =    1.000,"P-1-1",          4252,   6.26758E-03,   198.412E-03,            0.,NA,NA,"",   1.34930E+06,   1.35536E+06,   1.35536E+06
C:/temp/Job-1.odb,Step-1,Increment      1: Step Time =    1.000,"P-1-1",          4253,   9.37319E-03,   198.437E-03,            0.,NA,NA,"",   1.23455E+06,   1.23744E+06,   1.23744E+06
C:/temp/Job-1.odb,Step-1,Increment      1: Step Time =    1.000,"P-1-1",          4254,   12.4835E-03,   198.466E-03,            0.,NA,NA,"",   1.16388E+06,   1.16546E+06,   1.16546E+06
C:/temp/Job-1.odb,Step-1,Increment      1: Step Time =    1.000,"P-1-1",          4255,   15.5870E-03,   198.469E-03,            0.,NA,NA,"",   1.11674E+06,   1.11769E+06,   1.11769E+06
C:/temp/Job-1.odb,Step-1,Increment      1: Step Time =    1.000,"P-1-1",          4256,   18.6882E-03,   198.432E-03,            0.,NA,NA,"",   1.08364E+06,   1.08428E+06,   1.08428E+06
C:/temp/Job-1.odb,Step-1,Increment      1: Step Time =    1.000,"P-1-1",          4257,   20.2444E-03,   198.403E-03,            0.,NA,NA,"",   1.07051E+06,   1.07109E+06,   1.07109E+06
C:/temp/Job-1.odb,Step-1,Increment      1: Step Time =    1.000,"P-1-1",          4258,   23.3489E-03,   198.379E-03,            0.,NA,NA,"",   1.04914E+06,   1.04955E+06,   1.04955E+06
C:/temp/Job-1.odb,Step-1,Increment      1: Step Time =    1.000,"P-1-1",          4259,   26.4539E-03,   198.475E-03,            0.,NA,NA,"",   1.03173E+06,   1.03205E+06,   1.03205E+06
C:/temp/Job-1.odb,Step-1,Increment      1: Step Time =    1.000,"P-1-1",          4260,   29.5250E-03,   198.508E-03,            0.,NA,NA,"",   1.01854E+06,   1.01873E+06,   1.01873E+06
C:/temp/Job-1.odb,Step-1,Increment      1: Step Time =    1.000,"P-1-1",          4261,   32.5947E-03,   198.442E-03,            0.,NA,NA,"",   1.00854E+06,   1.00870E+06,   1.00870E+06
C:/temp/Job-1.odb,Step-1,Increment      1: Step Time =    1.000,"P-1-1",          4262,   35.6935E-03,   198.350E-03,            0.,NA,NA,"",   1.00040E+06,   1.00051E+06,   1.00051E+06
C:/temp/Job-1.odb,Step-1,Increment      1: Step Time =    1.000,"P-1-1",          4263,   38.7794E-03,   198.306E-03,            0.,NA,NA,"",   993.421E+03,   993.494E+03,   993.494E+03
C:/temp/Job-1.odb,Step-1,Increment      1: Step Time =    1.000,"P-1-1",          4264,   42.1310E-03,   197.967E-03,            0.,NA,NA,"",   988.434E+03,   988.498E+03,   988.498E+03
C:/temp/Job-1.odb,Step-1,Increment      1: Step Time =    1.000,"P-1-1",          4265,   45.2392E-03,   198.620E-03,            0.,NA,NA,"",   979.438E+03,   979.547E+03,   979.547E+03
C:/temp/Job-1.odb,Step-1,Increment      1: Step Time =    1.000,"P-1-1",          4266,   48.2086E-03,   198.677E-03,            0.,NA,NA,"",   974.523E+03,   974.539E+03,   974.539E+03
C:/temp/Job-1.odb,Step-1,Increment      1: Step Time =    1.000,"P-1-1",          4267,   51.2429E-03,   198.632E-03,            0.,NA,NA,"",   970.159E+03,   970.159E+03,   970.159E+03
C:/temp/Job-1.odb,Step-1,Increment      1: Step Time =    1.000,"P-1-1",          4268,   54.3239E-03,   198.580E-03,            0.,NA,NA,"",   965.884E+03,   965.888E+03,   965.888E+03
C:/temp/Job-1.odb,Step-1,Increment      1: Step Time =    1.000,"P-1-1",          4269,   57.3902E-03,   198.537E-03,            0.,NA,NA,"",   961.737E+03,   961.737E+03,   961.737E+03
C:/temp/Job-1.odb,Step-1,Increment      1: Step Time =    1.000,"P-1-1",          4270,   58.9102E-03,   198.520E-03,            0.,NA,NA,"",   959.702E+03,   959.692E+03,   959.692E+03
C:/temp/Job-1.odb,Step-1,Increment      1: Step Time =    1.000,"P-1-1",          4271,   61.9685E-03,   198.481E-03,            0.,NA,NA,"",   955.634E+03,   955.634E+03,   955.634E+03
C:/temp/Job-1.odb,Step-1,Increment      1: Step Time =    1.000,"P-1-1",          4272,   65.0726E-03,   198.433E-03,            0.,NA,NA,"",   951.525E+03,   951.538E+03,   951.538E+03
C:/temp/Job-1.odb,Step-1,Increment      1: Step Time =    1.000,"P-1-1",          4273,   68.1446E-03,   198.436E-03,            0.,NA,NA,"",   947.489E+03,   947.489E+03,   947.489E+03
C:/temp/Job-1.odb,Step-1,Increment      1: Step Time =    1.000,"P-1-1",          4274,   71.3776E-03,   198.027E-03,            0.,NA,NA,"",   944.981E+03,   944.961E+03,   944.961E+03
C:/temp/Job-1.odb,Step-1,Increment      1: Step Time =    1.000,"P-1-1",          4275,   74.5354E-03,   198.407E-03,            0.,NA,NA,"",   939.343E+03,   939.384E+03,   939.384E+03
C:/temp/Job-1.odb,Step-1,Increment      1: Step Time =    1.000,"P-1-1",          4276,   77.6316E-03,   198.242E-03,            0.,NA,NA,"",   936.251E+03,   936.274E+03,   936.274E+03
C:/temp/Job-1.odb,Step-1,Increment      1: Step Time =    1.000,"P-1-1",          4277,   80.7582E-03,   198.489E-03,            0.,NA,NA,"",   932.045E+03,   932.087E+03,   932.087E+03
C:/temp/Job-1.odb,Step-1,Increment      1: Step Time =    1.000,"P-1-1",          4278,   83.8338E-03,   198.550E-03,            0.,NA,NA,"",   928.830E+03,   928.891E+03,   928.891E+03
C:/temp/Job-1.odb,Step-1,Increment      1: Step Time =    1.000,"P-1-1",          4279,   86.8544E-03,   198.495E-03,            0.,NA,NA,"",   926.726E+03,   926.777E+03,   926.777E+03
C:/temp/Job-1.odb,Step-1,Increment      1: Step Time =    1.000,"P-1-1",          4280,   89.9068E-03,   198.486E-03,            0.,NA,NA,"",   925.056E+03,   925.128E+03,   925.128E+03
C:/temp/Job-1.odb,Step-1,Increment      1: Step Time =    1.000,"P-1-1",          4281,   92.9702E-03,   198.486E-03,            0.,NA,NA,"",   924.038E+03,   924.112E+03,   924.112E+03
C:/temp/Job-1.odb,Step-1,Increment      1: Step Time =    1.000,"P-1-1",          4282,   96.0448E-03,   198.385E-03,            0.,NA,NA,"",   924.099E+03,   924.177E+03,   924.177E+03
C:/temp/Job-1.odb,Step-1,Increment      1: Step Time =    1.000,"P-1-1",          4283,   97.5986E-03,   198.267E-03,            0.,NA,NA,"",   924.677E+03,   924.757E+03,   924.757E+03
C:/temp/Job-1.odb,Step-1,Increment      1: Step Time =    1.000,"P-1-1",          4284,   100.765E-03,   197.984E-03,            0.,NA,NA,"",   926.425E+03,   926.552E+03,   926.552E+03
C:/temp/Job-1.odb,Step-1,Increment      1: Step Time =    1.000,"P-1-1",          4285,   103.987E-03,   198.134E-03,            0.,NA,NA,"",   927.569E+03,   927.620E+03,   927.620E+03
C:/temp/Job-1.odb,Step-1,Increment      1: Step Time =    1.000,"P-1-1",          4286,   107.202E-03,   198.150E-03,            0.,NA,NA,"",   929.707E+03,   929.793E+03,   929.793E+03
C:/temp/Job-1.odb,Step-1,Increment      1: Step Time =    1.000,"P-1-1",          4287,   110.279E-03,   198.486E-03,            0.,NA,NA,"",   931.605E+03,   931.635E+03,   931.635E+03
C:/temp/Job-1.odb,Step-1,Increment      1: Step Time =    1.000,"P-1-1",          4288,   113.313E-03,   198.578E-03,            0.,NA,NA,"",   934.687E+03,   934.746E+03,   934.746E+03
C:/temp/Job-1.odb,Step-1,Increment      1: Step Time =    1.000,"P-1-1",          4289,   116.336E-03,   198.505E-03,            0.,NA,NA,"",   938.849E+03,   938.892E+03,   938.892E+03
C:/temp/Job-1.odb,Step-1,Increment      1: Step Time =    1.000,"P-1-1",          4290,   119.419E-03,   198.397E-03,            0.,NA,NA,"",   943.590E+03,   943.623E+03,   943.623E+03
C:/temp/Job-1.odb,Step-1,Increment      1: Step Time =    1.000,"P-1-1",          4291,   122.488E-03,   198.371E-03,            0.,NA,NA,"",   948.318E+03,   948.342E+03,   948.342E+03
C:/temp/Job-1.odb,Step-1,Increment      1: Step Time =    1.000,"P-1-1",          4292,   1.63307E-03,   6.29232E-03,            0.,NA,NA,"",   1.25543E+06,   1.35975E+06,   1.35975E+06
C:/temp/Job-1.odb,Step-1,Increment      1: Step Time =    1.000,"P-1-1",          4293,   1.56874E-03,   9.40578E-03,            0.,NA,NA,"",   1.14453E+06,   1.25129E+06,   1.25129E+06
C:/temp/Job-1.odb,Step-1,Increment      1: Step Time =    1.000,"P-1-1",          4294,   1.49761E-03,   12.5149E-03,            0.,NA,NA,"",   1.07736E+06,   1.18469E+06,   1.18469E+06
C:/temp/Job-1.odb,Step-1,Increment      1: Step Time =    1.000,"P-1-1",          4295,   1.47135E-03,   15.6018E-03,            0.,NA,NA,"",   1.03197E+06,   1.13926E+06,   1.13926E+06
C:/temp/Job-1.odb,Step-1,Increment      1: Step Time =    1.000,"P-1-1",          4296,   1.47374E-03,   18.6904E-03,            0.,NA,NA,"",   998.336E+03,   1.10542E+06,   1.10542E+06
C:/temp/Job-1.odb,Step-1,Increment      1: Step Time =    1.000,"P-1-1",          4297,   1.48041E-03,   20.2377E-03,            0.,NA,NA,"",   984.365E+03,   1.09135E+06,   1.09135E+06
C:/temp/Job-1.odb,Step-1,Increment      1: Step Time =    1.000,"P-1-1",          4298,   1.50138E-03,   23.3353E-03,            0.,NA,NA,"",   960.753E+03,   1.06755E+06,   1.06755E+06
C:/temp/Job-1.odb,Step-1,Increment      1: Step Time =    1.000,"P-1-1",          4299,   1.52819E-03,   26.4304E-03,            0.,NA,NA,"",   941.335E+03,   1.04796E+06,   1.04796E+06
C:/temp/Job-1.odb,Step-1,Increment      1: Step Time =    1.000,"P-1-1",          4300,   1.56327E-03,   29.5252E-03,            0.,NA,NA,"",   924.968E+03,   1.03142E+06,   1.03142E+06
C:/temp/Job-1.odb,Step-1,Increment      1: Step Time =    1.000,"P-1-1",          4301,   1.61418E-03,   32.6358E-03,            0.,NA,NA,"",   910.722E+03,   1.01697E+06,   1.01697E+06
C:/temp/Job-1.odb,Step-1,Increment      1: Step Time =    1.000,"P-1-1",          4302,   1.62309E-03,   35.7596E-03,            0.,NA,NA,"",   897.925E+03,   1.00408E+06,   1.00408E+06
C:/temp/Job-1.odb,Step-1,Increment      1: Step Time =    1.000,"P-1-1",          4303,   1.48049E-03,   38.8699E-03,            0.,NA,NA,"",   885.931E+03,   992.143E+03,   992.143E+03
C:/temp/Job-1.odb,Step-1,Increment      1: Step Time =    1.000,"P-1-1",          4304,   1.38491E-03,   41.9645E-03,            0.,NA,NA,"",   875.121E+03,   981.328E+03,   981.328E+03
C:/temp/Job-1.odb,Step-1,Increment      1: Step Time =    1.000,"P-1-1",          4305,   1.38824E-03,   45.0277E-03,            0.,NA,NA,"",   865.745E+03,   971.734E+03,   971.734E+03
C:/temp/Job-1.odb,Step-1,Increment      1: Step Time =    1.000,"P-1-1",          4306,   1.44515E-03,   48.0904E-03,            0.,NA,NA,"",   857.290E+03,   962.949E+03,   962.949E+03
C:/temp/Job-1.odb,Step-1,Increment      1: Step Time =    1.000,"P-1-1",          4307,   1.51571E-03,   51.1710E-03,            0.,NA,NA,"",   849.356E+03,   954.639E+03,   954.639E+03
C:/temp/Job-1.odb,Step-1,Increment      1: Step Time =    1.000,"P-1-1",          4308,   1.57913E-03,   54.2803E-03,            0.,NA,NA,"",   841.749E+03,   946.638E+03,   946.638E+03
C:/temp/Job-1.odb,Step-1,Increment      1: Step Time =    1.000,"P-1-1",          4309,   1.62430E-03,   57.4060E-03,            0.,NA,NA,"",   834.447E+03,   938.942E+03,   938.942E+03
C:/temp/Job-1.odb,Step-1,Increment      1: Step Time =    1.000,"P-1-1",          4310,   1.63669E-03,   58.9706E-03,            0.,NA,NA,"",   830.902E+03,   935.203E+03,   935.203E+03
C:/temp/Job-1.odb,Step-1,Increment      1: Step Time =    1.000,"P-1-1",          4311,   1.63456E-03,   62.0998E-03,            0.,NA,NA,"",   823.981E+03,   927.908E+03,   927.908E+03
C:/temp/Job-1.odb,Step-1,Increment      1: Step Time =    1.000,"P-1-1",          4312,   1.59719E-03,   65.2118E-03,            0.,NA,NA,"",   817.352E+03,   920.921E+03,   920.921E+03
C:/temp/Job-1.odb,Step-1,Increment      1: Step Time =    1.000,"P-1-1",          4313,   1.55406E-03,   68.2980E-03,            0.,NA,NA,"",   811.127E+03,   914.333E+03,   914.333E+03
C:/temp/Job-1.odb,Step-1,Increment      1: Step Time =    1.000,"P-1-1",          4314,   1.52560E-03,   71.3809E-03,            0.,NA,NA,"",   805.321E+03,   908.147E+03,   908.147E+03
C:/temp/Job-1.odb,Step-1,Increment      1: Step Time =    1.000,"P-1-1",          4315,   1.51413E-03,   74.4716E-03,            0.,NA,NA,"",   799.954E+03,    902.39E+03,    902.39E+03
C:/temp/Job-1.odb,Step-1,Increment      1: Step Time =    1.000,"P-1-1",          4316,   1.52099E-03,   77.5706E-03,            0.,NA,NA,"",   795.053E+03,   897.099E+03,   897.099E+03
C:/temp/Job-1.odb,Step-1,Increment      1: Step Time =    1.000,"P-1-1",          4317,   1.53991E-03,   80.6681E-03,            0.,NA,NA,"",   790.658E+03,   892.333E+03,   892.333E+03
C:/temp/Job-1.odb,Step-1,Increment      1: Step Time =    1.000,"P-1-1",          4318,   1.55593E-03,   83.7611E-03,            0.,NA,NA,"",   786.811E+03,   888.156E+03,   888.156E+03
C:/temp/Job-1.odb,Step-1,Increment      1: Step Time =    1.000,"P-1-1",          4319,   1.55615E-03,   86.8474E-03,            0.,NA,NA,"",   783.535E+03,   884.600E+03,   884.600E+03
C:/temp/Job-1.odb,Step-1,Increment      1: Step Time =    1.000,"P-1-1",          4320,   1.54027E-03,   89.9337E-03,            0.,NA,NA,"",   780.857E+03,   881.699E+03,   881.699E+03
C:/temp/Job-1.odb,Step-1,Increment      1: Step Time =    1.000,"P-1-1",          4321,   1.52065E-03,   93.0155E-03,            0.,NA,NA,"",   778.844E+03,   879.522E+03,   879.522E+03
C:/temp/Job-1.odb,Step-1,Increment      1: Step Time =    1.000,"P-1-1",          4322,   1.51554E-03,   96.0975E-03,            0.,NA,NA,"",   777.560E+03,   878.124E+03,   878.124E+03
C:/temp/Job-1.odb,Step-1,Increment      1: Step Time =    1.000,"P-1-1",          4323,   1.52542E-03,   97.6448E-03,            0.,NA,NA,"",   777.199E+03,   877.721E+03,   877.721E+03
C:/temp/Job-1.odb,Step-1,Increment      1: Step Time =    1.000,"P-1-1",          4324,   1.58007E-03,   100.756E-03,            0.,NA,NA,"",   777.061E+03,   877.542E+03,   877.542E+03
C:/temp/Job-1.odb,Step-1,Increment      1: Step Time =    1.000,"P-1-1",          4325,   1.62235E-03,   103.857E-03,            0.,NA,NA,"",   777.668E+03,   878.180E+03,   878.180E+03
C:/temp/Job-1.odb,Step-1,Increment      1: Step Time =    1.000,"P-1-1",          4326,   1.60943E-03,   106.991E-03,            0.,NA,NA,"",   778.965E+03,   879.593E+03,   879.593E+03
C:/temp/Job-1.odb,Step-1,Increment      1: Step Time =    1.000,"P-1-1",          4327,   1.58873E-03,   110.125E-03,            0.,NA,NA,"",   780.978E+03,   881.796E+03,   881.796E+03
C:/temp/Job-1.odb,Step-1,Increment      1: Step Time =    1.000,"P-1-1",          4328,   1.58126E-03,   113.234E-03,            0.,NA,NA,"",   783.668E+03,   884.725E+03,   884.725E+03
C:/temp/Job-1.odb,Step-1,Increment      1: Step Time =    1.000,"P-1-1",          4329,   1.57538E-03,   116.329E-03,            0.,NA,NA,"",   786.967E+03,   888.310E+03,   888.310E+03
C:/temp/Job-1.odb,Step-1,Increment      1: Step Time =    1.000,"P-1-1",          4330,   1.55571E-03,   119.423E-03,            0.,NA,NA,"",   790.826E+03,   892.504E+03,   892.504E+03
C:/temp/Job-1.odb,Step-1,Increment      1: Step Time =    1.000,"P-1-1",          4331,   1.52159E-03,   122.506E-03,            0.,NA,NA,"",   795.170E+03,   897.226E+03,   897.226E+03
C:/temp/Job-1.odb,Step-1,Increment      1: Step Time =    1.000,"P-1-1",          4332,   198.546E-03,   20.0995E-03,            0.,NA,NA,"",   1.00048E+06,   1.00002E+06,   1.00002E+06
C:/temp/Job-1.odb,Step-1,Increment      1: Step Time =    1.000,"P-1-1",          4333,   14.0320E-03,   1.43743E-03,            0.,NA,NA,"",   1.13655E+06,   1.13759E+06,   1.13759E+06
C:/temp/Job-1.odb,Step-1,Increment      1: Step Time =    1.000,"P-1-1",          4334,   17.1029E-03,   1.48172E-03,            0.,NA,NA,"",   1.09827E+06,   1.09898E+06,   1.09898E+06
C:/temp/Job-1.odb,Step-1,Increment      1: Step Time =    1.000,"P-1-1",          4335,   1.63972E-03,   133.351E-03,            0.,NA,NA,"",   814.608E+03,   917.954E+03,   917.954E+03
C:/temp/Job-1.odb,Step-1,Increment      1: Step Time =    1.000,"P-1-1",          4336,   1.57152E-03,   130.238E-03,            0.,NA,NA,"",   808.431E+03,   911.424E+03,   911.424E+03
C:/temp/Job-1.odb,Step-1,Increment      1: Step Time =    1.000,"P-1-1",          4337,   1.65212E-03,   136.452E-03,            0.,NA,NA,"",   820.955E+03,   924.686E+03,   924.686E+03
C:/temp/Job-1.odb,Step-1,Increment      1: Step Time =    1.000,"P-1-1",          4338,   1.59065E-03,   141.146E-03,            0.,NA,NA,"",   831.107E+03,   935.469E+03,   935.469E+03
C:/temp/Job-1.odb,Step-1,Increment      1: Step Time =    1.000,"P-1-1",          4339,   1.57568E-03,   144.250E-03,            0.,NA,NA,"",   838.238E+03,   942.978E+03,   942.978E+03
C:/temp/Job-1.odb,Step-1,Increment      1: Step Time =    1.000,"P-1-1",          4340,   1.49063E-03,   175.207E-03,            0.,NA,NA,"",   951.024E+03,   1.05781E+06,   1.05781E+06
C:/temp/Job-1.odb,Step-1,Increment      1: Step Time =    1.000,"P-1-1",          4341,   1.37153E-03,   179.782E-03,            0.,NA,NA,"",   983.536E+03,   1.09089E+06,   1.09089E+06
C:/temp/Job-1.odb,Step-1,Increment      1: Step Time =    1.000,"P-1-1",          4342,   198.448E-03,   55.8210E-03,            0.,NA,NA,"",   989.795E+03,   1.00008E+06,   1.00008E+06
C:/temp/Job-1.odb,Step-1,Increment      1: Step Time =    1.000,"P-1-1",          4343,   198.569E-03,   58.8850E-03,            0.,NA,NA,"",   987.461E+03,   1.00005E+06,   1.00005E+06
C:/temp/Job-1.odb,Step-1,Increment      1: Step Time =    1.000,"P-1-1",          4344,   198.340E-03,   52.7283E-03,            0.,NA,NA,"",   991.889E+03,   1.00011E+06,   1.00011E+06
C:/temp/Job-1.odb,Step-1,Increment      1: Step Time =    1.000,"P-1-1",          4345,   198.388E-03,   49.6211E-03,            0.,NA,NA,"",   993.760E+03,   1.00012E+06,   1.00012E+06
C:/temp/Job-1.odb,Step-1,Increment      1: Step Time =    1.000,"P-1-1",          4346,   4.73930E-03,   1.60607E-03,            0.,NA,NA,"",   1.43289E+06,   1.44411E+06,   1.44411E+06
C:/temp/Job-1.odb,Step-1,Increment      1: Step Time =    1.000,"P-1-1",          4347,   7.84506E-03,   1.52784E-03,            0.,NA,NA,"",   1.28160E+06,   1.28577E+06,   1.28577E+06
C:/temp/Job-1.odb,Step-1,Increment      1: Step Time =    1.000,"P-1-1",          4348,   10.9638E-03,   1.43773E-03,            0.,NA,NA,"",   1.19243E+06,   1.19428E+06,   1.19428E+06
C:/temp/Job-1.odb,Step-1,Increment      1: Step Time =    1.000,"P-1-1",          4349,   20.1868E-03,   1.51156E-03,            0.,NA,NA,"",   1.07018E+06,   1.07068E+06,   1.07068E+06
C:/temp/Job-1.odb,Step-1,Increment      1: Step Time =    1.000,"P-1-1",          4350,   24.8175E-03,   1.53750E-03,            0.,NA,NA,"",   1.04007E+06,   1.04040E+06,   1.04040E+06
C:/temp/Job-1.odb,Step-1,Increment      1: Step Time =    1.000,"P-1-1",          4351,   27.9129E-03,   1.54882E-03,            0.,NA,NA,"",   1.02538E+06,   1.02563E+06,   1.02563E+06
C:/temp/Job-1.odb,Step-1,Increment      1: Step Time =    1.000,"P-1-1",          4352,   31.0162E-03,   1.55845E-03,            0.,NA,NA,"",   1.01366E+06,   1.01384E+06,   1.01384E+06
C:/temp/Job-1.odb,Step-1,Increment      1: Step Time =    1.000,"P-1-1",          4353,   34.1230E-03,   1.57065E-03,            0.,NA,NA,"",   1.00417E+06,   1.00431E+06,   1.00431E+06
C:/temp/Job-1.odb,Step-1,Increment      1: Step Time =    1.000,"P-1-1",          4354,   37.2196E-03,   1.57750E-03,            0.,NA,NA,"",   996.325E+03,   996.423E+03,   996.423E+03
C:/temp/Job-1.odb,Step-1,Increment      1: Step Time =    1.000,"P-1-1",          4355,   40.3064E-03,   1.57420E-03,            0.,NA,NA,"",   989.610E+03,   989.678E+03,   989.678E+03
C:/temp/Job-1.odb,Step-1,Increment      1: Step Time =    1.000,"P-1-1",          4356,   43.3978E-03,   1.55878E-03,            0.,NA,NA,"",   983.651E+03,   983.704E+03,   983.704E+03
C:/temp/Job-1.odb,Step-1,Increment      1: Step Time =    1.000,"P-1-1",          4357,   46.4887E-03,   1.54726E-03,            0.,NA,NA,"",   978.330E+03,   978.364E+03,   978.364E+03
C:/temp/Job-1.odb,Step-1,Increment      1: Step Time =    1.000,"P-1-1",          4358,   49.5720E-03,   1.55297E-03,            0.,NA,NA,"",   973.505E+03,   973.523E+03,   973.523E+03
C:/temp/Job-1.odb,Step-1,Increment      1: Step Time =    1.000,"P-1-1",          4359,   52.6635E-03,   1.56722E-03,            0.,NA,NA,"",   968.969E+03,   968.977E+03,   968.977E+03
C:/temp/Job-1.odb,Step-1,Increment      1: Step Time =    1.000,"P-1-1",          4360,   55.7671E-03,   1.58392E-03,            0.,NA,NA,"",   964.584E+03,   964.584E+03,   964.584E+03
C:/temp/Job-1.odb,Step-1,Increment      1: Step Time =    1.000,"P-1-1",          4361,   58.8851E-03,   1.61447E-03,            0.,NA,NA,"",   960.305E+03,   960.299E+03,   960.299E+03
C:/temp/Job-1.odb,Step-1,Increment      1: Step Time =    1.000,"P-1-1",          4362,   63.5801E-03,   1.66716E-03,            0.,NA,NA,"",   953.976E+03,   953.971E+03,   953.971E+03
C:/temp/Job-1.odb,Step-1,Increment      1: Step Time =    1.000,"P-1-1",          4363,   66.6803E-03,   1.63353E-03,            0.,NA,NA,"",   949.654E+03,   949.662E+03,   949.662E+03
C:/temp/Job-1.odb,Step-1,Increment      1: Step Time =    1.000,"P-1-1",          4364,   69.7892E-03,   1.53481E-03,            0.,NA,NA,"",   945.217E+03,   945.232E+03,   945.232E+03
C:/temp/Job-1.odb,Step-1,Increment      1: Step Time =    1.000,"P-1-1",          4365,   72.8863E-03,   1.46045E-03,            0.,NA,NA,"",   940.938E+03,   940.957E+03,   940.957E+03
C:/temp/Job-1.odb,Step-1,Increment      1: Step Time =    1.000,"P-1-1",          4366,   130.202E-03,   1.52608E-03,            0.,NA,NA,"",   960.410E+03,   960.400E+03,   960.400E+03
C:/temp/Job-1.odb,Step-1,Increment      1: Step Time =    1.000,"P-1-1",          4367,   136.381E-03,   1.59639E-03,            0.,NA,NA,"",   970.001E+03,   969.972E+03,   969.972E+03
C:/temp/Job-1.odb,Step-1,Increment      1: Step Time =    1.000,"P-1-1",          4368,   144.162E-03,   1.56859E-03,            0.,NA,NA,"",   980.310E+03,   980.264E+03,   980.264E+03
C:/temp/Job-1.odb,Step-1,Increment      1: Step Time =    1.000,"P-1-1",          4369,   150.346E-03,   1.45759E-03,            0.,NA,NA,"",   986.762E+03,   986.722E+03,   986.722E+03
C:/temp/Job-1.odb,Step-1,Increment      1: Step Time =    1.000,"P-1-1",          4370,   156.477E-03,   1.38064E-03,            0.,NA,NA,"",   991.585E+03,   991.555E+03,   991.555E+03
C:/temp/Job-1.odb,Step-1,Increment      1: Step Time =    1.000,"P-1-1",          4371,   162.664E-03,   1.58357E-03,            0.,NA,NA,"",   995.004E+03,   994.975E+03,   994.975E+03
C:/temp/Job-1.odb,Step-1,Increment      1: Step Time =    1.000,"P-1-1",          4372,   168.917E-03,   1.65376E-03,            0.,NA,NA,"",   997.116E+03,   997.091E+03,   997.091E+03
C:/temp/Job-1.odb,Step-1,Increment      1: Step Time =    1.000,"P-1-1",          4373,   175.137E-03,   1.57844E-03,            0.,NA,NA,"",   998.317E+03,   998.304E+03,   998.304E+03
C:/temp/Job-1.odb,Step-1,Increment      1: Step Time =    1.000,"P-1-1",          4374,   185.947E-03,   1.49221E-03,            0.,NA,NA,"",   999.380E+03,   999.379E+03,   999.379E+03
C:/temp/Job-1.odb,Step-1,Increment      1: Step Time =    1.000,"P-1-1",          4375,   192.159E-03,   1.61187E-03,            0.,NA,NA,"",   999.782E+03,   999.777E+03,   999.777E+03
C:/temp/Job-1.odb,Step-1,Increment      1: Step Time =    1.000,"P-1-1",          4376,   198.409E-03,   1.59433E-03,            0.,NA,NA,"",   999.993E+03,   999.987E+03,   999.987E+03
C:/temp/Job-1.odb,Step-1,Increment      1: Step Time =    1.000,"P-1-1",          4377,   198.398E-03,   4.74058E-03,            0.,NA,NA,"",   1.00002E+06,   999.982E+03,   999.982E+03
C:/temp/Job-1.odb,Step-1,Increment      1: Step Time =    1.000,"P-1-1",          4378,   198.492E-03,   7.84057E-03,            0.,NA,NA,"",   1.00011E+06,   999.990E+03,   999.990E+03
C:/temp/Job-1.odb,Step-1,Increment      1: Step Time =    1.000,"P-1-1",          4379,   198.612E-03,   10.9419E-03,            0.,NA,NA,"",   1.00022E+06,   999.998E+03,   999.998E+03
C:/temp/Job-1.odb,Step-1,Increment      1: Step Time =    1.000,"P-1-1",          4380,   198.655E-03,   13.9854E-03,            0.,NA,NA,"",   1.00033E+06,   1.00000E+06,   1.00000E+06
C:/temp/Job-1.odb,Step-1,Increment      1: Step Time =    1.000,"P-1-1",          4381,   198.635E-03,   17.0231E-03,            0.,NA,NA,"",   1.00043E+06,   1.00001E+06,   1.00001E+06
C:/temp/Job-1.odb,Step-1,Increment      1: Step Time =    1.000,"P-1-1",          4382,   198.433E-03,   24.7492E-03,            0.,NA,NA,"",   1.00042E+06,   1.00004E+06,   1.00004E+06
C:/temp/Job-1.odb,Step-1,Increment      1: Step Time =    1.000,"P-1-1",          4383,   198.532E-03,   27.8406E-03,            0.,NA,NA,"",   1.00026E+06,   1.00005E+06,   1.00005E+06
C:/temp/Job-1.odb,Step-1,Increment      1: Step Time =    1.000,"P-1-1",          4384,   198.580E-03,   30.8942E-03,            0.,NA,NA,"",   999.965E+03,   1.00006E+06,   1.00006E+06
C:/temp/Job-1.odb,Step-1,Increment      1: Step Time =    1.000,"P-1-1",          4385,   198.462E-03,   33.9657E-03,            0.,NA,NA,"",   999.496E+03,   1.00009E+06,   1.00009E+06
C:/temp/Job-1.odb,Step-1,Increment      1: Step Time =    1.000,"P-1-1",          4386,   198.202E-03,   37.1004E-03,            0.,NA,NA,"",   998.791E+03,   1.00011E+06,   1.00011E+06
C:/temp/Job-1.odb,Step-1,Increment      1: Step Time =    1.000,"P-1-1",          4387,   198.372E-03,   40.1988E-03,            0.,NA,NA,"",   997.901E+03,   1.00010E+06,   1.00010E+06
C:/temp/Job-1.odb,Step-1,Increment      1: Step Time =    1.000,"P-1-1",          4388,   197.981E-03,   43.3571E-03,            0.,NA,NA,"",   996.786E+03,   1.00015E+06,   1.00015E+06
C:/temp/Job-1.odb,Step-1,Increment      1: Step Time =    1.000,"P-1-1",          4389,   198.406E-03,   46.5745E-03,            0.,NA,NA,"",   995.315E+03,   1.00009E+06,   1.00009E+06
C:/temp/Job-1.odb,Step-1,Increment      1: Step Time =    1.000,"P-1-1",          4390,   198.666E-03,   63.4561E-03,            0.,NA,NA,"",   983.729E+03,   1.00004E+06,   1.00004E+06
C:/temp/Job-1.odb,Step-1,Increment      1: Step Time =    1.000,"P-1-1",          4391,   198.640E-03,   66.4905E-03,            0.,NA,NA,"",   981.162E+03,   1.00004E+06,   1.00004E+06
C:/temp/Job-1.odb,Step-1,Increment      1: Step Time =    1.000,"P-1-1",          4392,   198.456E-03,   69.5202E-03,            0.,NA,NA,"",   978.647E+03,   1.00006E+06,   1.00006E+06
C:/temp/Job-1.odb,Step-1,Increment      1: Step Time =    1.000,"P-1-1",          4393,   197.914E-03,   72.7146E-03,            0.,NA,NA,"",   976.395E+03,   1.00010E+06,   1.00010E+06
C:/temp/Job-1.odb,Step-1,Increment      1: Step Time =    1.000,"P-1-1",          4394,   198.343E-03,   130.290E-03,            0.,NA,NA,"",   978.605E+03,   1.00012E+06,   1.00012E+06
C:/temp/Job-1.odb,Step-1,Increment      1: Step Time =    1.000,"P-1-1",          4395,   127.302E-03,   197.919E-03,            0.,NA,NA,"",   957.214E+03,   957.146E+03,   957.146E+03
C:/temp/Job-1.odb,Step-1,Increment      1: Step Time =    1.000,"P-1-1",          4396,   130.499E-03,   198.462E-03,            0.,NA,NA,"",   960.958E+03,   960.933E+03,   960.933E+03
C:/temp/Job-1.odb,Step-1,Increment      1: Step Time =    1.000,"P-1-1",          4397,   198.472E-03,   136.435E-03,            0.,NA,NA,"",   983.693E+03,   1.00005E+06,   1.00005E+06
C:/temp/Job-1.odb,Step-1,Increment      1: Step Time =    1.000,"P-1-1",          4398,   133.526E-03,   198.645E-03,            0.,NA,NA,"",   965.412E+03,   965.393E+03,   965.393E+03
C:/temp/Job-1.odb,Step-1,Increment      1: Step Time =    1.000,"P-1-1",          4399,   136.557E-03,   198.674E-03,            0.,NA,NA,"",   969.924E+03,   969.907E+03,   969.907E+03
C:/temp/Job-1.odb,Step-1,Increment      1: Step Time =    1.000,"P-1-1",          4400,   141.123E-03,   198.586E-03,            0.,NA,NA,"",   976.396E+03,   976.374E+03,   976.374E+03
C:/temp/Job-1.odb,Step-1,Increment      1: Step Time =    1.000,"P-1-1",          4401,   198.522E-03,   144.109E-03,            0.,NA,NA,"",   989.697E+03,   1.00008E+06,   1.00008E+06
C:/temp/Job-1.odb,Step-1,Increment      1: Step Time =    1.000,"P-1-1",          4402,   144.186E-03,   198.469E-03,            0.,NA,NA,"",   980.357E+03,   980.323E+03,   980.323E+03
C:/temp/Job-1.odb,Step-1,Increment      1: Step Time =    1.000,"P-1-1",          4403,   147.285E-03,   198.364E-03,            0.,NA,NA,"",   983.865E+03,   983.820E+03,   983.820E+03
C:/temp/Job-1.odb,Step-1,Increment      1: Step Time =    1.000,"P-1-1",          4404,   198.541E-03,   150.279E-03,            0.,NA,NA,"",   993.670E+03,   1.00010E+06,   1.00010E+06
C:/temp/Job-1.odb,Step-1,Increment      1: Step Time =    1.000,"P-1-1",          4405,   150.387E-03,   198.403E-03,            0.,NA,NA,"",   986.902E+03,   986.855E+03,   986.855E+03
C:/temp/Job-1.odb,Step-1,Increment      1: Step Time =    1.000,"P-1-1",          4406,   198.441E-03,   156.266E-03,            0.,NA,NA,"",   996.543E+03,   1.00005E+06,   1.00005E+06
C:/temp/Job-1.odb,Step-1,Increment      1: Step Time =    1.000,"P-1-1",          4407,   153.430E-03,   198.412E-03,            0.,NA,NA,"",   989.457E+03,   989.425E+03,   989.425E+03
C:/temp/Job-1.odb,Step-1,Increment      1: Step Time =    1.000,"P-1-1",          4408,   156.650E-03,   197.978E-03,            0.,NA,NA,"",   992.013E+03,   991.948E+03,   991.948E+03
C:/temp/Job-1.odb,Step-1,Increment      1: Step Time =    1.000,"P-1-1",          4409,   198.340E-03,   162.806E-03,            0.,NA,NA,"",   998.765E+03,   1.00010E+06,   1.00010E+06
C:/temp/Job-1.odb,Step-1,Increment      1: Step Time =    1.000,"P-1-1",          4410,   159.813E-03,   198.362E-03,            0.,NA,NA,"",   993.654E+03,   993.621E+03,   993.621E+03
C:/temp/Job-1.odb,Step-1,Increment      1: Step Time =    1.000,"P-1-1",          4411,   162.931E-03,   198.184E-03,            0.,NA,NA,"",   995.185E+03,   995.145E+03,   995.145E+03
C:/temp/Job-1.odb,Step-1,Increment      1: Step Time =    1.000,"P-1-1",          4412,   198.474E-03,   168.965E-03,            0.,NA,NA,"",   999.922E+03,   1.00006E+06,   1.00006E+06
C:/temp/Job-1.odb,Step-1,Increment      1: Step Time =    1.000,"P-1-1",          4413,   166.068E-03,   198.439E-03,            0.,NA,NA,"",   996.311E+03,   996.279E+03,   996.279E+03
C:/temp/Job-1.odb,Step-1,Increment      1: Step Time =    1.000,"P-1-1",          4414,   169.141E-03,   198.570E-03,            0.,NA,NA,"",   997.166E+03,   997.149E+03,   997.149E+03
C:/temp/Job-1.odb,Step-1,Increment      1: Step Time =    1.000,"P-1-1",          4415,   198.416E-03,   175.148E-03,            0.,NA,NA,"",   1.00041E+06,   1.00005E+06,   1.00005E+06
C:/temp/Job-1.odb,Step-1,Increment      1: Step Time =    1.000,"P-1-1",          4416,   172.198E-03,   198.545E-03,            0.,NA,NA,"",   997.832E+03,   997.819E+03,   997.819E+03
C:/temp/Job-1.odb,Step-1,Increment      1: Step Time =    1.000,"P-1-1",          4417,   175.279E-03,   198.478E-03,            0.,NA,NA,"",   998.339E+03,   998.329E+03,   998.329E+03
C:/temp/Job-1.odb,Step-1,Increment      1: Step Time =    1.000,"P-1-1",          4418,   179.897E-03,   198.499E-03,            0.,NA,NA,"",   998.879E+03,   998.873E+03,   998.873E+03
C:/temp/Job-1.odb,Step-1,Increment      1: Step Time =    1.000,"P-1-1",          4419,   198.532E-03,   186.000E-03,            0.,NA,NA,"",   1.00033E+06,   1.00001E+06,   1.00001E+06
C:/temp/Job-1.odb,Step-1,Increment      1: Step Time =    1.000,"P-1-1",          4420,   182.971E-03,   198.576E-03,            0.,NA,NA,"",   999.149E+03,   999.146E+03,   999.146E+03
C:/temp/Job-1.odb,Step-1,Increment      1: Step Time =    1.000,"P-1-1",          4421,   186.021E-03,   198.629E-03,            0.,NA,NA,"",   999.381E+03,   999.380E+03,   999.380E+03
C:/temp/Job-1.odb,Step-1,Increment      1: Step Time =    1.000,"P-1-1",          4422,   198.426E-03,   192.197E-03,            0.,NA,NA,"",   1.00010E+06,   999.989E+03,   999.989E+03
C:/temp/Job-1.odb,Step-1,Increment      1: Step Time =    1.000,"P-1-1",          4423,   189.076E-03,   198.614E-03,            0.,NA,NA,"",   999.594E+03,   999.592E+03,   999.592E+03
C:/temp/Job-1.odb,Step-1,Increment      1: Step Time =    1.000,"P-1-1",          4424,   192.181E-03,   198.506E-03,            0.,NA,NA,"",   999.783E+03,   999.779E+03,   999.779E+03
C:/temp/Job-1.odb,Step-1,Increment      1: Step Time =    1.000,"P-1-1",          4425,   198.419E-03,   198.424E-03,            0.,NA,NA,"",   999.993E+03,   999.987E+03,   999.987E+03
C:/temp/Job-1.odb,Step-1,Increment      1: Step Time =    1.000,"P-1-1",          4426,   195.284E-03,   198.421E-03,            0.,NA,NA,"",   999.924E+03,   999.916E+03,   999.916E+03
C:/temp/Job-1.odb,Step-1,Increment      1: Step Time =    1.000,"P-1-1",          4427,   1.64133E-03,   195.273E-03,            0.,NA,NA,"",   1.33809E+06,   1.44004E+06,   1.44004E+06
C:/temp/Job-1.odb,Step-1,Increment      1: Step Time =    1.000,"P-1-1",          4428,   1.65567E-03,   192.130E-03,            0.,NA,NA,"",   1.19083E+06,   1.29653E+06,   1.29653E+06
C:/temp/Job-1.odb,Step-1,Increment      1: Step Time =    1.000,"P-1-1",          4429,   1.56812E-03,   189.015E-03,            0.,NA,NA,"",   1.10742E+06,   1.21438E+06,   1.21438E+06
C:/temp/Job-1.odb,Step-1,Increment      1: Step Time =    1.000,"P-1-1",          4430,   1.42422E-03,   185.912E-03,            0.,NA,NA,"",   1.05175E+06,   1.15936E+06,   1.15936E+06
C:/temp/Job-1.odb,Step-1,Increment      1: Step Time =    1.000,"P-1-1",          4431,   1.34876E-03,   182.836E-03,            0.,NA,NA,"",   1.01266E+06,   1.12033E+06,   1.12033E+06
C:/temp/Job-1.odb,Step-1,Increment      1: Step Time =    1.000,"P-1-1",          4432,   1.54717E-03,   172.123E-03,            0.,NA,NA,"",   933.340E+03,   1.03988E+06,   1.03988E+06
C:/temp/Job-1.odb,Step-1,Increment      1: Step Time =    1.000,"P-1-1",          4433,   1.58215E-03,   169.016E-03,            0.,NA,NA,"",   917.934E+03,   1.02430E+06,   1.02430E+06
C:/temp/Job-1.odb,Step-1,Increment      1: Step Time =    1.000,"P-1-1",          4434,   1.59060E-03,   165.907E-03,            0.,NA,NA,"",   904.389E+03,   1.01064E+06,   1.01064E+06
C:/temp/Job-1.odb,Step-1,Increment      1: Step Time =    1.000,"P-1-1",          4435,   1.57383E-03,   162.807E-03,            0.,NA,NA,"",   892.304E+03,   998.462E+03,   998.462E+03
C:/temp/Job-1.odb,Step-1,Increment      1: Step Time =    1.000,"P-1-1",          4436,   1.54271E-03,   159.707E-03,            0.,NA,NA,"",   881.315E+03,   987.368E+03,   987.368E+03
C:/temp/Job-1.odb,Step-1,Increment      1: Step Time =    1.000,"P-1-1",          4437,   1.51863E-03,   156.609E-03,            0.,NA,NA,"",   871.274E+03,   977.175E+03,   977.175E+03
C:/temp/Job-1.odb,Step-1,Increment      1: Step Time =    1.000,"P-1-1",          4438,   1.51472E-03,   153.516E-03,            0.,NA,NA,"",   862.093E+03,   967.775E+03,   967.775E+03
C:/temp/Job-1.odb,Step-1,Increment      1: Step Time =    1.000,"P-1-1",          4439,   1.53733E-03,   150.432E-03,            0.,NA,NA,"",   853.650E+03,   959.048E+03,   959.048E+03
C:/temp/Job-1.odb,Step-1,Increment      1: Step Time =    1.000,"P-1-1",          4440,   1.56255E-03,   147.343E-03,            0.,NA,NA,"",   845.737E+03,   950.815E+03,   950.815E+03
C:/temp/Job-1.odb,Step-1,Increment      1: Step Time =    1.000,"P-1-1",          4441,   1.51536E-03,   127.133E-03,            0.,NA,NA,"",   802.687E+03,   905.322E+03,   905.322E+03
C:/temp/Job-1.odb,Step-1,Increment      1: Step Time =    1.000,"P-1-1",          4442,   193.711E-03,   1.63591E-03,            0.,NA,NA,"",   999.859E+03,   999.852E+03,   999.852E+03
C:/temp/Job-1.odb,Step-1,Increment      1: Step Time =    1.000,"P-1-1",          4443,   187.491E-03,   1.50844E-03,            0.,NA,NA,"",   999.490E+03,   999.488E+03,   999.488E+03
C:/temp/Job-1.odb,Step-1,Increment      1: Step Time =    1.000,"P-1-1",          4444,   181.326E-03,   1.50293E-03,            0.,NA,NA,"",   999.012E+03,   999.007E+03,   999.007E+03
C:/temp/Job-1.odb,Step-1,Increment      1: Step Time =    1.000,"P-1-1",          4445,   179.783E-03,   1.51777E-03,            0.,NA,NA,"",   998.868E+03,   998.862E+03,   998.862E+03
C:/temp/Job-1.odb,Step-1,Increment      1: Step Time =    1.000,"P-1-1",          4446,   173.583E-03,   1.59977E-03,            0.,NA,NA,"",   998.078E+03,   998.062E+03,   998.062E+03
C:/temp/Job-1.odb,Step-1,Increment      1: Step Time =    1.000,"P-1-1",          4447,   167.352E-03,   1.67091E-03,            0.,NA,NA,"",   996.687E+03,   996.659E+03,   996.659E+03
C:/temp/Job-1.odb,Step-1,Increment      1: Step Time =    1.000,"P-1-1",          4448,   161.101E-03,   1.49603E-03,            0.,NA,NA,"",   994.272E+03,   994.244E+03,   994.244E+03
C:/temp/Job-1.odb,Step-1,Increment      1: Step Time =    1.000,"P-1-1",          4449,   154.948E-03,   1.38761E-03,            0.,NA,NA,"",   990.523E+03,    990.49E+03,    990.49E+03
C:/temp/Job-1.odb,Step-1,Increment      1: Step Time =    1.000,"P-1-1",          4450,   148.806E-03,   1.48664E-03,            0.,NA,NA,"",   985.306E+03,   985.263E+03,   985.263E+03
C:/temp/Job-1.odb,Step-1,Increment      1: Step Time =    1.000,"P-1-1",          4451,   142.606E-03,   1.58871E-03,            0.,NA,NA,"",   978.439E+03,   978.395E+03,   978.395E+03
C:/temp/Job-1.odb,Step-1,Increment      1: Step Time =    1.000,"P-1-1",          4452,   137.936E-03,   1.60688E-03,            0.,NA,NA,"",   972.243E+03,   972.209E+03,   972.209E+03
C:/temp/Job-1.odb,Step-1,Increment      1: Step Time =    1.000,"P-1-1",          4453,   131.745E-03,   1.53884E-03,            0.,NA,NA,"",   962.876E+03,   962.861E+03,   962.861E+03
C:/temp/Job-1.odb,Step-1,Increment      1: Step Time =    1.000,"P-1-1",          4454,   125.565E-03,   1.52333E-03,            0.,NA,NA,"",   952.974E+03,   952.974E+03,   952.974E+03
C:/temp/Job-1.odb,Step-1,Increment      1: Step Time =    1.000,"P-1-1",          4455,   74.4274E-03,   1.45148E-03,            0.,NA,NA,"",   938.968E+03,   938.993E+03,   938.993E+03
C:/temp/Job-1.odb,Step-1,Increment      1: Step Time =    1.000,"P-1-1",          4456,   71.3398E-03,   1.48961E-03,            0.,NA,NA,"",   943.037E+03,   943.049E+03,   943.049E+03
C:/temp/Job-1.odb,Step-1,Increment      1: Step Time =    1.000,"P-1-1",          4457,   68.2342E-03,   1.58747E-03,            0.,NA,NA,"",   947.426E+03,   947.442E+03,   947.442E+03
C:/temp/Job-1.odb,Step-1,Increment      1: Step Time =    1.000,"P-1-1",          4458,   65.1316E-03,   1.66219E-03,            0.,NA,NA,"",   951.851E+03,   951.849E+03,   951.849E+03
C:/temp/Job-1.odb,Step-1,Increment      1: Step Time =    1.000,"P-1-1",          4459,   62.0169E-03,   1.65613E-03,            0.,NA,NA,"",   956.072E+03,   956.071E+03,   956.071E+03
C:/temp/Job-1.odb,Step-1,Increment      1: Step Time =    1.000,"P-1-1",          4460,   60.4502E-03,   1.63616E-03,            0.,NA,NA,"",   958.186E+03,   958.185E+03,   958.185E+03
C:/temp/Job-1.odb,Step-1,Increment      1: Step Time =    1.000,"P-1-1",          4461,   57.3228E-03,   1.59749E-03,            0.,NA,NA,"",   962.429E+03,   962.426E+03,   962.426E+03
C:/temp/Job-1.odb,Step-1,Increment      1: Step Time =    1.000,"P-1-1",          4462,   54.2131E-03,   1.57534E-03,            0.,NA,NA,"",   966.765E+03,   966.768E+03,   966.768E+03
C:/temp/Job-1.odb,Step-1,Increment      1: Step Time =    1.000,"P-1-1",          4463,   51.1165E-03,   1.55988E-03,            0.,NA,NA,"",   971.213E+03,   971.225E+03,   971.225E+03
C:/temp/Job-1.odb,Step-1,Increment      1: Step Time =    1.000,"P-1-1",          4464,   48.0308E-03,   1.54768E-03,            0.,NA,NA,"",   975.868E+03,   975.892E+03,   975.892E+03
C:/temp/Job-1.odb,Step-1,Increment      1: Step Time =    1.000,"P-1-1",          4465,   44.9442E-03,   1.55186E-03,            0.,NA,NA,"",   980.915E+03,   980.959E+03,   980.959E+03
C:/temp/Job-1.odb,Step-1,Increment      1: Step Time =    1.000,"P-1-1",          4466,   41.8507E-03,   1.56780E-03,            0.,NA,NA,"",   986.550E+03,   986.610E+03,   986.610E+03
C:/temp/Job-1.odb,Step-1,Increment      1: Step Time =    1.000,"P-1-1",          4467,   38.7630E-03,   1.57752E-03,            0.,NA,NA,"",   992.857E+03,   992.937E+03,   992.937E+03
C:/temp/Job-1.odb,Step-1,Increment      1: Step Time =    1.000,"P-1-1",          4468,   35.6721E-03,   1.57545E-03,            0.,NA,NA,"",   1.00008E+06,   1.00019E+06,   1.00019E+06
C:/temp/Job-1.odb,Step-1,Increment      1: Step Time =    1.000,"P-1-1",          4469,   32.5696E-03,   1.56475E-03,            0.,NA,NA,"",   1.00868E+06,   1.00884E+06,   1.00884E+06
C:/temp/Job-1.odb,Step-1,Increment      1: Step Time =    1.000,"P-1-1",          4470,   29.4633E-03,   1.55227E-03,            0.,NA,NA,"",   1.01920E+06,   1.01941E+06,   1.01941E+06
C:/temp/Job-1.odb,Step-1,Increment      1: Step Time =    1.000,"P-1-1",          4471,   26.3639E-03,   1.54371E-03,            0.,NA,NA,"",   1.03230E+06,   1.03257E+06,   1.03257E+06
C:/temp/Job-1.odb,Step-1,Increment      1: Step Time =    1.000,"P-1-1",          4472,   23.2726E-03,   1.53153E-03,            0.,NA,NA,"",   1.04885E+06,   1.04922E+06,   1.04922E+06
C:/temp/Job-1.odb,Step-1,Increment      1: Step Time =    1.000,"P-1-1",          4473,   21.7294E-03,   1.52221E-03,            0.,NA,NA,"",   1.05882E+06,   1.05925E+06,   1.05925E+06
C:/temp/Job-1.odb,Step-1,Increment      1: Step Time =    1.000,"P-1-1",          4474,   18.6442E-03,   1.49868E-03,            0.,NA,NA,"",   1.08326E+06,   1.08384E+06,   1.08384E+06
C:/temp/Job-1.odb,Step-1,Increment      1: Step Time =    1.000,"P-1-1",          4475,   15.5646E-03,   1.45998E-03,            0.,NA,NA,"",   1.11590E+06,   1.11671E+06,   1.11671E+06
C:/temp/Job-1.odb,Step-1,Increment      1: Step Time =    1.000,"P-1-1",          4476,   12.5021E-03,   1.42523E-03,            0.,NA,NA,"",   1.16148E+06,   1.16282E+06,   1.16282E+06
C:/temp/Job-1.odb,Step-1,Increment      1: Step Time =    1.000,"P-1-1",          4477,   9.40658E-03,   1.47470E-03,            0.,NA,NA,"",   1.23200E+06,   1.23471E+06,   1.23471E+06
C:/temp/Job-1.odb,Step-1,Increment      1: Step Time =    1.000,"P-1-1",          4478,   6.29340E-03,   1.57725E-03,            0.,NA,NA,"",   1.34824E+06,   1.35422E+06,   1.35422E+06
C:/temp/Job-1.odb,Step-1,Increment      1: Step Time =    1.000,"P-1-1",          4479,   3.17180E-03,   1.60858E-03,            0.,NA,NA,"",   1.57305E+06,   1.58932E+06,   1.58932E+06
C:/temp/Job-1.odb,Step-1,Increment      1: Step Time =    1.000,"P-1-1",          4480,   198.398E-03,   193.748E-03,            0.,NA,NA,"",   1.00006E+06,   999.985E+03,   999.985E+03
C:/temp/Job-1.odb,Step-1,Increment      1: Step Time =    1.000,"P-1-1",          4481,   198.525E-03,   187.541E-03,            0.,NA,NA,"",   1.00027E+06,   1.00000E+06,   1.00000E+06
C:/temp/Job-1.odb,Step-1,Increment      1: Step Time =    1.000,"P-1-1",          4482,   198.469E-03,   181.379E-03,            0.,NA,NA,"",   1.00045E+06,   1.00002E+06,   1.00002E+06
C:/temp/Job-1.odb,Step-1,Increment      1: Step Time =    1.000,"P-1-1",          4483,   198.431E-03,   179.828E-03,            0.,NA,NA,"",   1.00047E+06,   1.00003E+06,   1.00003E+06
C:/temp/Job-1.odb,Step-1,Increment      1: Step Time =    1.000,"P-1-1",          4484,   198.461E-03,   173.578E-03,            0.,NA,NA,"",   1.00034E+06,   1.00005E+06,   1.00005E+06
C:/temp/Job-1.odb,Step-1,Increment      1: Step Time =    1.000,"P-1-1",          4485,   198.435E-03,   167.429E-03,            0.,NA,NA,"",   999.701E+03,   1.00008E+06,   1.00008E+06
C:/temp/Job-1.odb,Step-1,Increment      1: Step Time =    1.000,"P-1-1",          4486,   198.320E-03,   161.252E-03,            0.,NA,NA,"",   998.359E+03,   1.00013E+06,   1.00013E+06
C:/temp/Job-1.odb,Step-1,Increment      1: Step Time =    1.000,"P-1-1",          4487,   198.563E-03,   154.774E-03,            0.,NA,NA,"",   995.937E+03,   1.00008E+06,   1.00008E+06
C:/temp/Job-1.odb,Step-1,Increment      1: Step Time =    1.000,"P-1-1",          4488,   198.528E-03,   148.745E-03,            0.,NA,NA,"",   992.774E+03,   1.00010E+06,   1.00010E+06
C:/temp/Job-1.odb,Step-1,Increment      1: Step Time =    1.000,"P-1-1",          4489,   198.525E-03,   142.574E-03,            0.,NA,NA,"",   988.577E+03,   1.00008E+06,   1.00008E+06
C:/temp/Job-1.odb,Step-1,Increment      1: Step Time =    1.000,"P-1-1",          4490,   198.500E-03,   137.983E-03,            0.,NA,NA,"",   984.983E+03,   1.00007E+06,   1.00007E+06
C:/temp/Job-1.odb,Step-1,Increment      1: Step Time =    1.000,"P-1-1",          4491,   198.442E-03,   131.829E-03,            0.,NA,NA,"",   979.830E+03,   1.00008E+06,   1.00008E+06
C:/temp/Job-1.odb,Step-1,Increment      1: Step Time =    1.000,"P-1-1",          4492,   198.381E-03,   125.436E-03,            0.,NA,NA,"",   974.286E+03,   999.985E+03,   999.985E+03
C:/temp/Job-1.odb,Step-1,Increment      1: Step Time =    1.000,"P-1-1",          4493,   198.294E-03,   74.4680E-03,            0.,NA,NA,"",   974.404E+03,   999.918E+03,   999.918E+03
C:/temp/Job-1.odb,Step-1,Increment      1: Step Time =    1.000,"P-1-1",          4494,   198.262E-03,   71.0531E-03,            0.,NA,NA,"",   977.521E+03,   1.00015E+06,   1.00015E+06
C:/temp/Job-1.odb,Step-1,Increment      1: Step Time =    1.000,"P-1-1",          4495,   198.575E-03,   68.0029E-03,            0.,NA,NA,"",   979.887E+03,   1.00004E+06,   1.00004E+06
C:/temp/Job-1.odb,Step-1,Increment      1: Step Time =    1.000,"P-1-1",          4496,   198.667E-03,   64.9764E-03,            0.,NA,NA,"",   982.441E+03,   1.00003E+06,   1.00003E+06
C:/temp/Job-1.odb,Step-1,Increment      1: Step Time =    1.000,"P-1-1",          4497,   198.647E-03,   61.9343E-03,            0.,NA,NA,"",   985.002E+03,   1.00004E+06,   1.00004E+06
C:/temp/Job-1.odb,Step-1,Increment      1: Step Time =    1.000,"P-1-1",          4498,   198.614E-03,   60.4088E-03,            0.,NA,NA,"",   986.250E+03,   1.00004E+06,   1.00004E+06
C:/temp/Job-1.odb,Step-1,Increment      1: Step Time =    1.000,"P-1-1",          4499,   198.513E-03,   57.3575E-03,            0.,NA,NA,"",   988.644E+03,   1.00006E+06,   1.00006E+06
C:/temp/Job-1.odb,Step-1,Increment      1: Step Time =    1.000,"P-1-1",          4500,   198.382E-03,   54.2724E-03,            0.,NA,NA,"",   990.880E+03,   1.00010E+06,   1.00010E+06
C:/temp/Job-1.odb,Step-1,Increment      1: Step Time =    1.000,"P-1-1",          4501,   198.353E-03,   51.1774E-03,            0.,NA,NA,"",   992.847E+03,   1.00012E+06,   1.00012E+06
C:/temp/Job-1.odb,Step-1,Increment      1: Step Time =    1.000,"P-1-1",          4502,   198.412E-03,   48.0848E-03,            0.,NA,NA,"",    994.59E+03,   1.00012E+06,   1.00012E+06
C:/temp/Job-1.odb,Step-1,Increment      1: Step Time =    1.000,"P-1-1",          4503,   198.310E-03,   45.0437E-03,            0.,NA,NA,"",   996.010E+03,   1.00008E+06,   1.00008E+06
C:/temp/Job-1.odb,Step-1,Increment      1: Step Time =    1.000,"P-1-1",          4504,   198.323E-03,   41.7031E-03,            0.,NA,NA,"",   997.411E+03,   1.00012E+06,   1.00012E+06
C:/temp/Job-1.odb,Step-1,Increment      1: Step Time =    1.000,"P-1-1",          4505,   198.289E-03,   38.6560E-03,            0.,NA,NA,"",   998.372E+03,   1.00010E+06,   1.00010E+06
C:/temp/Job-1.odb,Step-1,Increment      1: Step Time =    1.000,"P-1-1",          4506,   198.317E-03,   35.5396E-03,            0.,NA,NA,"",   999.164E+03,   1.00010E+06,   1.00010E+06
C:/temp/Job-1.odb,Step-1,Increment      1: Step Time =    1.000,"P-1-1",          4507,   198.550E-03,   32.4206E-03,            0.,NA,NA,"",   999.757E+03,   1.00007E+06,   1.00007E+06
C:/temp/Job-1.odb,Step-1,Increment      1: Step Time =    1.000,"P-1-1",          4508,   198.569E-03,   29.3704E-03,            0.,NA,NA,"",   1.00013E+06,   1.00005E+06,   1.00005E+06
C:/temp/Job-1.odb,Step-1,Increment      1: Step Time =    1.000,"P-1-1",          4509,   198.480E-03,   26.2999E-03,            0.,NA,NA,"",   1.00036E+06,   1.00005E+06,   1.00005E+06
C:/temp/Job-1.odb,Step-1,Increment      1: Step Time =    1.000,"P-1-1",          4510,   198.424E-03,   23.2037E-03,            0.,NA,NA,"",   1.00046E+06,   1.00004E+06,   1.00004E+06
C:/temp/Job-1.odb,Step-1,Increment      1: Step Time =    1.000,"P-1-1",          4511,   198.475E-03,   21.6582E-03,            0.,NA,NA,"",   1.00048E+06,   1.00003E+06,   1.00003E+06
C:/temp/Job-1.odb,Step-1,Increment      1: Step Time =    1.000,"P-1-1",          4512,   198.602E-03,   18.5540E-03,            0.,NA,NA,"",   1.00046E+06,   1.00002E+06,   1.00002E+06
C:/temp/Job-1.odb,Step-1,Increment      1: Step Time =    1.000,"P-1-1",          4513,   198.651E-03,   15.5015E-03,            0.,NA,NA,"",   1.00038E+06,   1.00001E+06,   1.00001E+06
C:/temp/Job-1.odb,Step-1,Increment      1: Step Time =    1.000,"P-1-1",          4514,   198.644E-03,   12.4693E-03,            0.,NA,NA,"",   1.00027E+06,   1.00000E+06,   1.00000E+06
C:/temp/Job-1.odb,Step-1,Increment      1: Step Time =    1.000,"P-1-1",          4515,   198.557E-03,   9.39472E-03,            0.,NA,NA,"",   1.00016E+06,   999.994E+03,   999.994E+03
C:/temp/Job-1.odb,Step-1,Increment      1: Step Time =    1.000,"P-1-1",          4516,   198.433E-03,   6.29337E-03,            0.,NA,NA,"",   1.00006E+06,   999.985E+03,   999.985E+03
C:/temp/Job-1.odb,Step-1,Increment      1: Step Time =    1.000,"P-1-1",          4517,   198.391E-03,   3.17316E-03,            0.,NA,NA,"",   1.00000E+06,   999.980E+03,   999.980E+03
C:/temp/Job-1.odb,Step-1,Increment      1: Step Time =    1.000,"P-1-1",          4518,   125.542E-03,   198.294E-03,            0.,NA,NA,"",   953.423E+03,   953.443E+03,   953.443E+03
C:/temp/Job-1.odb,Step-1,Increment      1: Step Time =    1.000,"P-1-1",          4519,   128.964E-03,   198.269E-03,            0.,NA,NA,"",   958.911E+03,   958.839E+03,   958.839E+03
C:/temp/Job-1.odb,Step-1,Increment      1: Step Time =    1.000,"P-1-1",          4520,   132.015E-03,   198.580E-03,            0.,NA,NA,"",   963.169E+03,   963.151E+03,   963.151E+03
C:/temp/Job-1.odb,Step-1,Increment      1: Step Time =    1.000,"P-1-1",          4521,   135.041E-03,   198.672E-03,            0.,NA,NA,"",   967.670E+03,   967.655E+03,   967.655E+03
C:/temp/Job-1.odb,Step-1,Increment      1: Step Time =    1.000,"P-1-1",          4522,   138.077E-03,   198.658E-03,            0.,NA,NA,"",   972.141E+03,   972.123E+03,   972.123E+03
C:/temp/Job-1.odb,Step-1,Increment      1: Step Time =    1.000,"P-1-1",          4523,   139.600E-03,   198.628E-03,            0.,NA,NA,"",   974.303E+03,   974.284E+03,   974.284E+03
C:/temp/Job-1.odb,Step-1,Increment      1: Step Time =    1.000,"P-1-1",          4524,   142.649E-03,   198.533E-03,            0.,NA,NA,"",   978.416E+03,   978.387E+03,   978.387E+03
C:/temp/Job-1.odb,Step-1,Increment      1: Step Time =    1.000,"P-1-1",          4525,   145.737E-03,   198.404E-03,            0.,NA,NA,"",   982.186E+03,   982.148E+03,   982.148E+03
C:/temp/Job-1.odb,Step-1,Increment      1: Step Time =    1.000,"P-1-1",          4526,   148.834E-03,   198.374E-03,            0.,NA,NA,"",   985.426E+03,   985.379E+03,   985.379E+03
C:/temp/Job-1.odb,Step-1,Increment      1: Step Time =    1.000,"P-1-1",          4527,   151.921E-03,   198.423E-03,            0.,NA,NA,"",   988.248E+03,   988.202E+03,   988.202E+03
C:/temp/Job-1.odb,Step-1,Increment      1: Step Time =    1.000,"P-1-1",          4528,   154.961E-03,   198.311E-03,            0.,NA,NA,"",   990.658E+03,   990.628E+03,   990.628E+03
C:/temp/Job-1.odb,Step-1,Increment      1: Step Time =    1.000,"P-1-1",          4529,   158.305E-03,   198.317E-03,            0.,NA,NA,"",   992.844E+03,   992.793E+03,   992.793E+03
C:/temp/Job-1.odb,Step-1,Increment      1: Step Time =    1.000,"P-1-1",          4530,   161.363E-03,   198.275E-03,            0.,NA,NA,"",   994.473E+03,   994.439E+03,   994.439E+03
C:/temp/Job-1.odb,Step-1,Increment      1: Step Time =    1.000,"P-1-1",          4531,   164.495E-03,   198.295E-03,            0.,NA,NA,"",   995.783E+03,   995.745E+03,   995.745E+03
C:/temp/Job-1.odb,Step-1,Increment      1: Step Time =    1.000,"P-1-1",          4532,   167.613E-03,   198.532E-03,            0.,NA,NA,"",   996.765E+03,   996.741E+03,   996.741E+03
C:/temp/Job-1.odb,Step-1,Increment      1: Step Time =    1.000,"P-1-1",          4533,   170.667E-03,   198.569E-03,            0.,NA,NA,"",   997.521E+03,   997.506E+03,   997.506E+03
C:/temp/Job-1.odb,Step-1,Increment      1: Step Time =    1.000,"P-1-1",          4534,   173.737E-03,   198.510E-03,            0.,NA,NA,"",   998.104E+03,   998.092E+03,   998.092E+03
C:/temp/Job-1.odb,Step-1,Increment      1: Step Time =    1.000,"P-1-1",          4535,   176.818E-03,   198.462E-03,            0.,NA,NA,"",   998.544E+03,   998.534E+03,   998.534E+03
C:/temp/Job-1.odb,Step-1,Increment      1: Step Time =    1.000,"P-1-1",          4536,   178.354E-03,   198.470E-03,            0.,NA,NA,"",   998.721E+03,   998.714E+03,   998.714E+03
C:/temp/Job-1.odb,Step-1,Increment      1: Step Time =    1.000,"P-1-1",          4537,   181.437E-03,   198.538E-03,            0.,NA,NA,"",   999.020E+03,   999.016E+03,   999.016E+03
C:/temp/Job-1.odb,Step-1,Increment      1: Step Time =    1.000,"P-1-1",          4538,   184.499E-03,   198.608E-03,            0.,NA,NA,"",   999.268E+03,   999.266E+03,   999.266E+03
C:/temp/Job-1.odb,Step-1,Increment      1: Step Time =    1.000,"P-1-1",          4539,   187.544E-03,   198.634E-03,            0.,NA,NA,"",   999.489E+03,   999.488E+03,   999.488E+03
C:/temp/Job-1.odb,Step-1,Increment      1: Step Time =    1.000,"P-1-1",          4540,   190.626E-03,   198.567E-03,            0.,NA,NA,"",   999.693E+03,   999.690E+03,   999.690E+03
C:/temp/Job-1.odb,Step-1,Increment      1: Step Time =    1.000,"P-1-1",          4541,   193.732E-03,   198.454E-03,            0.,NA,NA,"",   999.860E+03,   999.855E+03,   999.855E+03
C:/temp/Job-1.odb,Step-1,Increment      1: Step Time =    1.000,"P-1-1",          4542,   196.847E-03,   198.412E-03,            0.,NA,NA,"",   999.969E+03,   999.960E+03,   999.960E+03
C:/temp/Job-1.odb,Step-1,Increment      1: Step Time =    1.000,"P-1-1",          4543,   1.50743E-03,   125.586E-03,            0.,NA,NA,"",   800.035E+03,   902.480E+03,   902.480E+03
C:/temp/Job-1.odb,Step-1,Increment      1: Step Time =    1.000,"P-1-1",          4544,   1.53776E-03,   128.683E-03,            0.,NA,NA,"",   805.491E+03,   908.308E+03,   908.308E+03
C:/temp/Job-1.odb,Step-1,Increment      1: Step Time =    1.000,"P-1-1",          4545,   1.60969E-03,   131.797E-03,            0.,NA,NA,"",   811.480E+03,   914.649E+03,   914.649E+03
C:/temp/Job-1.odb,Step-1,Increment      1: Step Time =    1.000,"P-1-1",          4546,   1.65656E-03,   134.900E-03,            0.,NA,NA,"",   817.764E+03,   921.295E+03,   921.295E+03
C:/temp/Job-1.odb,Step-1,Increment      1: Step Time =    1.000,"P-1-1",          4547,   1.63258E-03,   138.019E-03,            0.,NA,NA,"",   824.249E+03,   928.189E+03,   928.189E+03
C:/temp/Job-1.odb,Step-1,Increment      1: Step Time =    1.000,"P-1-1",          4548,   1.60853E-03,   139.585E-03,            0.,NA,NA,"",   827.648E+03,   931.801E+03,   931.801E+03
C:/temp/Job-1.odb,Step-1,Increment      1: Step Time =    1.000,"P-1-1",          4549,   1.58125E-03,   142.701E-03,            0.,NA,NA,"",   834.630E+03,   939.188E+03,   939.188E+03
C:/temp/Job-1.odb,Step-1,Increment      1: Step Time =    1.000,"P-1-1",          4550,   1.57034E-03,   145.797E-03,            0.,NA,NA,"",   841.938E+03,   946.850E+03,   946.850E+03
C:/temp/Job-1.odb,Step-1,Increment      1: Step Time =    1.000,"P-1-1",          4551,   1.55116E-03,   148.889E-03,            0.,NA,NA,"",   849.637E+03,   954.877E+03,   954.877E+03
C:/temp/Job-1.odb,Step-1,Increment      1: Step Time =    1.000,"P-1-1",          4552,   1.52349E-03,   151.973E-03,            0.,NA,NA,"",   857.792E+03,   963.338E+03,   963.338E+03
C:/temp/Job-1.odb,Step-1,Increment      1: Step Time =    1.000,"P-1-1",          4553,   1.51358E-03,   155.061E-03,            0.,NA,NA,"",   866.582E+03,   972.381E+03,   972.381E+03
C:/temp/Job-1.odb,Step-1,Increment      1: Step Time =    1.000,"P-1-1",          4554,   1.52811E-03,   158.157E-03,            0.,NA,NA,"",   876.175E+03,   982.160E+03,   982.160E+03
C:/temp/Job-1.odb,Step-1,Increment      1: Step Time =    1.000,"P-1-1",          4555,   1.55880E-03,   161.257E-03,            0.,NA,NA,"",   886.681E+03,   992.791E+03,   992.791E+03
C:/temp/Job-1.odb,Step-1,Increment      1: Step Time =    1.000,"P-1-1",          4556,   1.58499E-03,   164.357E-03,            0.,NA,NA,"",   898.188E+03,   1.00439E+06,   1.00439E+06
C:/temp/Job-1.odb,Step-1,Increment      1: Step Time =    1.000,"P-1-1",          4557,   1.58993E-03,   167.461E-03,            0.,NA,NA,"",   910.946E+03,   1.01725E+06,   1.01725E+06
C:/temp/Job-1.odb,Step-1,Increment      1: Step Time =    1.000,"P-1-1",          4558,   1.56754E-03,   170.572E-03,            0.,NA,NA,"",   925.370E+03,   1.03181E+06,   1.03181E+06
C:/temp/Job-1.odb,Step-1,Increment      1: Step Time =    1.000,"P-1-1",          4559,   1.52104E-03,   173.669E-03,            0.,NA,NA,"",   941.842E+03,   1.04850E+06,   1.04850E+06
C:/temp/Job-1.odb,Step-1,Increment      1: Step Time =    1.000,"P-1-1",          4560,   1.45224E-03,   176.739E-03,            0.,NA,NA,"",   960.872E+03,   1.06783E+06,   1.06783E+06
C:/temp/Job-1.odb,Step-1,Increment      1: Step Time =    1.000,"P-1-1",          4561,   1.41043E-03,   178.262E-03,            0.,NA,NA,"",   971.680E+03,   1.07883E+06,   1.07883E+06
C:/temp/Job-1.odb,Step-1,Increment      1: Step Time =    1.000,"P-1-1",          4562,   1.34833E-03,   181.304E-03,            0.,NA,NA,"",   997.162E+03,   1.10469E+06,   1.10469E+06
C:/temp/Job-1.odb,Step-1,Increment      1: Step Time =    1.000,"P-1-1",          4563,   1.37455E-03,   184.372E-03,            0.,NA,NA,"",   1.03083E+06,   1.13851E+06,   1.13851E+06
C:/temp/Job-1.odb,Step-1,Increment      1: Step Time =    1.000,"P-1-1",          4564,   1.49196E-03,   187.461E-03,            0.,NA,NA,"",   1.07723E+06,   1.18457E+06,   1.18457E+06
C:/temp/Job-1.odb,Step-1,Increment      1: Step Time =    1.000,"P-1-1",          4565,   1.62588E-03,   190.570E-03,            0.,NA,NA,"",   1.14525E+06,   1.25156E+06,   1.25156E+06
C:/temp/Job-1.odb,Step-1,Increment      1: Step Time =    1.000,"P-1-1",          4566,   1.65762E-03,   193.700E-03,            0.,NA,NA,"",   1.25504E+06,   1.35911E+06,   1.35911E+06
C:/temp/Job-1.odb,Step-1,Increment      1: Step Time =    1.000,"P-1-1",          4567,   1.61508E-03,   196.847E-03,            0.,NA,NA,"",   1.49118E+06,   1.58284E+06,   1.58284E+06
C:/temp/Job-1.odb,Step-1,Increment      1: Step Time =    1.000,"P-1-1",          4568,   99.8650E-03,   114.061E-03,            0.,NA,NA,"",   2.36453E+06,   2.46192E+06,   2.46192E+06
C:/temp/Job-1.odb,Step-1,Increment      1: Step Time =    1.000,"P-1-1",          4569,   110.766E-03,   108.957E-03,            0.,NA,NA,"",   854.556E+03,   810.697E+03,   810.697E+03
C:/temp/Job-1.odb,Step-1,Increment      1: Step Time =    1.000,"P-1-1",          4570,   96.5945E-03,   113.980E-03,            0.,NA,NA,"",   2.13256E+06,   2.22920E+06,   2.22920E+06
C:/temp/Job-1.odb,Step-1,Increment      1: Step Time =    1.000,"P-1-1",          4571,   106.887E-03,   86.3566E-03,            0.,NA,NA,"",   1.69337E+06,   1.75860E+06,   1.75860E+06
C:/temp/Job-1.odb,Step-1,Increment      1: Step Time =    1.000,"P-1-1",          4572,   85.5435E-03,   96.8530E-03,            0.,NA,NA,"",   484.074E+03,  -407.752E+03,  -407.752E+03
C:/temp/Job-1.odb,Step-1,Increment      1: Step Time =    1.000,"P-1-1",          4573,   113.256E-03,   104.643E-03,            0.,NA,NA,"",   515.974E+03,  -240.600E+03,  -240.600E+03
C:/temp/Job-1.odb,Step-1,Increment      1: Step Time =    1.000,"P-1-1",          4574,   113.707E-03,   95.4104E-03,            0.,NA,NA,"",   538.905E+03,  -206.340E+03,  -206.340E+03
C:/temp/Job-1.odb,Step-1,Increment      1: Step Time =    1.000,"P-1-1",          4575,   103.244E-03,   86.4747E-03,            0.,NA,NA,"",   2.28414E+06,   2.36114E+06,   2.36114E+06
C:/temp/Job-1.odb,Step-1,Increment      1: Step Time =    1.000,"P-1-1",          4576,   114.579E-03,   100.250E-03,            0.,NA,NA,"",   506.582E+03,  -510.323E+03,  -510.323E+03
C:/temp/Job-1.odb,Step-1,Increment      1: Step Time =    1.000,"P-1-1",          4577,   85.7408E-03,   100.527E-03,            0.,NA,NA,"",   519.115E+03,  -517.608E+03,  -517.608E+03
C:/temp/Job-1.odb,Step-1,Increment      1: Step Time =    1.000,"P-1-1",          4578,   95.0404E-03,   113.930E-03,            0.,NA,NA,"",   1.91564E+06,   2.00884E+06,   2.00884E+06
C:/temp/Job-1.odb,Step-1,Increment      1: Step Time =    1.000,"P-1-1",          4579,   113.732E-03,   103.204E-03,            0.,NA,NA,"",   558.927E+03,  -515.497E+03,  -515.497E+03
C:/temp/Job-1.odb,Step-1,Increment      1: Step Time =    1.000,"P-1-1",          4580,   89.3811E-03,   108.828E-03,            0.,NA,NA,"",   832.282E+03,   798.502E+03,   798.502E+03
C:/temp/Job-1.odb,Step-1,Increment      1: Step Time =    1.000,"P-1-1",          4581,   105.140E-03,   113.343E-03,            0.,NA,NA,"",   1.98382E+06,   2.06442E+06,   2.06442E+06
C:/temp/Job-1.odb,Step-1,Increment      1: Step Time =    1.000,"P-1-1",          4582,   93.1375E-03,   87.2921E-03,            0.,NA,NA,"",   1.72307E+06,   1.77892E+06,   1.77892E+06
C:/temp/Job-1.odb,Step-1,Increment      1: Step Time =    1.000,"P-1-1",          4583,   90.2427E-03,   89.4985E-03,            0.,NA,NA,"",   1.19075E+06,   1.18016E+06,   1.18016E+06
C:/temp/Job-1.odb,Step-1,Increment      1: Step Time =    1.000,"P-1-1",          4584,   85.9312E-03,   103.678E-03,            0.,NA,NA,"",   494.836E+03,  -411.157E+03,  -411.157E+03
C:/temp/Job-1.odb,Step-1,Increment      1: Step Time =    1.000,"P-1-1",          4585,   114.027E-03,   97.1465E-03,            0.,NA,NA,"",   547.454E+03,  -508.263E+03,  -508.263E+03
C:/temp/Job-1.odb,Step-1,Increment      1: Step Time =    1.000,"P-1-1",          4586,   86.7174E-03,   104.853E-03,            0.,NA,NA,"",   487.068E+03,  -189.517E+03,  -189.517E+03
C:/temp/Job-1.odb,Step-1,Increment      1: Step Time =    1.000,"P-1-1",          4587,   103.424E-03,   114.316E-03,            0.,NA,NA,"",   2.04445E+06,   2.15588E+06,   2.15588E+06
C:/temp/Job-1.odb,Step-1,Increment      1: Step Time =    1.000,"P-1-1",          4588,   90.5284E-03,   109.995E-03,            0.,NA,NA,"",   1.13833E+06,   1.13609E+06,   1.13609E+06
C:/temp/Job-1.odb,Step-1,Increment      1: Step Time =    1.000,"P-1-1",          4589,   93.8810E-03,   112.447E-03,            0.,NA,NA,"",   1.88357E+06,   1.95058E+06,   1.95058E+06
C:/temp/Job-1.odb,Step-1,Increment      1: Step Time =    1.000,"P-1-1",          4590,   112.556E-03,   106.129E-03,            0.,NA,NA,"",   490.382E+03,   177.853E+03,   177.853E+03
C:/temp/Job-1.odb,Step-1,Increment      1: Step Time =    1.000,"P-1-1",          4591,   86.2573E-03,   95.0987E-03,            0.,NA,NA,"",   521.808E+03,  -152.641E+03,  -152.641E+03
C:/temp/Job-1.odb,Step-1,Increment      1: Step Time =    1.000,"P-1-1",          4592,   109.720E-03,   110.328E-03,            0.,NA,NA,"",   1.16558E+06,   1.15741E+06,   1.15741E+06
C:/temp/Job-1.odb,Step-1,Increment      1: Step Time =    1.000,"P-1-1",          4593,   101.540E-03,   114.125E-03,            0.,NA,NA,"",   2.28985E+06,   2.39245E+06,   2.39245E+06
C:/temp/Job-1.odb,Step-1,Increment      1: Step Time =    1.000,"P-1-1",          4594,   98.2252E-03,   114.026E-03,            0.,NA,NA,"",   2.30002E+06,   2.39765E+06,   2.39765E+06
C:/temp/Job-1.odb,Step-1,Increment      1: Step Time =    1.000,"P-1-1",          4595,   87.5176E-03,   106.190E-03,            0.,NA,NA,"",   462.840E+03,   200.133E+03,   200.133E+03
C:/temp/Job-1.odb,Step-1,Increment      1: Step Time =    1.000,"P-1-1",          4596,   111.503E-03,   90.5031E-03,            0.,NA,NA,"",   960.191E+03,   882.909E+03,   882.909E+03
C:/temp/Job-1.odb,Step-1,Increment      1: Step Time =    1.000,"P-1-1",          4597,   99.6853E-03,   115.625E-03,            0.,NA,NA,"",   1.88539E+06,   2.03139E+06,   2.03139E+06
C:/temp/Job-1.odb,Step-1,Increment      1: Step Time =    1.000,"P-1-1",          4598,   110.291E-03,   112.688E-03,            0.,NA,NA,"",   1.37871E+06,   1.35017E+06,   1.35017E+06
C:/temp/Job-1.odb,Step-1,Increment      1: Step Time =    1.000,"P-1-1",          4599,   102.532E-03,   116.209E-03,            0.,NA,NA,"",   1.70055E+06,   1.84582E+06,   1.84582E+06
C:/temp/Job-1.odb,Step-1,Increment      1: Step Time =    1.000,"P-1-1",          4600,   96.4873E-03,   115.788E-03,            0.,NA,NA,"",   1.72381E+06,   1.85738E+06,   1.85738E+06
C:/temp/Job-1.odb,Step-1,Increment      1: Step Time =    1.000,"P-1-1",          4601,   103.902E-03,   3.12396E-03,            0.,NA,NA,"",   932.781E+03,   932.975E+03,   932.975E+03
C:/temp/Job-1.odb,Step-1,Increment      1: Step Time =    1.000,"P-1-1",          4602,   162.461E-03,   3.15409E-03,            0.,NA,NA,"",   995.319E+03,   995.227E+03,   995.227E+03
C:/temp/Job-1.odb,Step-1,Increment      1: Step Time =    1.000,"P-1-1",          4603,   168.859E-03,   3.29888E-03,            0.,NA,NA,"",   997.387E+03,   997.314E+03,   997.314E+03
C:/temp/Job-1.odb,Step-1,Increment      1: Step Time =    1.000,"P-1-1",          4604,   175.096E-03,   3.15798E-03,            0.,NA,NA,"",   998.492E+03,   998.454E+03,   998.454E+03
C:/temp/Job-1.odb,Step-1,Increment      1: Step Time =    1.000,"P-1-1",          4605,   196.692E-03,   162.819E-03,            0.,NA,NA,"",   998.691E+03,   1.00029E+06,   1.00029E+06
C:/temp/Job-1.odb,Step-1,Increment      1: Step Time =    1.000,"P-1-1",          4606,   196.939E-03,   168.968E-03,            0.,NA,NA,"",   999.795E+03,   1.00019E+06,   1.00019E+06
C:/temp/Job-1.odb,Step-1,Increment      1: Step Time =    1.000,"P-1-1",          4607,   196.842E-03,   175.064E-03,            0.,NA,NA,"",   1.00029E+06,   1.00014E+06,   1.00014E+06
C:/temp/Job-1.odb,Step-1,Increment      1: Step Time =    1.000,"P-1-1",          4608,   95.8919E-03,   196.821E-03,            0.,NA,NA,"",   930.923E+03,   931.144E+03,   931.144E+03
C:/temp/Job-1.odb,Step-1,Increment      1: Step Time =    1.000,"P-1-1",          4609,   3.02481E-03,   96.0677E-03,            0.,NA,NA,"",   779.742E+03,   879.605E+03,   879.605E+03
C:/temp/Job-1.odb,Step-1,Increment      1: Step Time =    1.000,"P-1-1",          4610,   196.876E-03,   104.118E-03,            0.,NA,NA,"",   963.849E+03,   999.456E+03,   999.456E+03
C:/temp/Job-1.odb,Step-1,Increment      1: Step Time =    1.000,"P-1-1",          4611,   122.480E-03,   3.08971E-03,            0.,NA,NA,"",   952.498E+03,   952.533E+03,   952.533E+03
C:/temp/Job-1.odb,Step-1,Increment      1: Step Time =    1.000,"P-1-1",          4612,   119.391E-03,   3.11709E-03,            0.,NA,NA,"",   948.291E+03,   948.360E+03,   948.360E+03
C:/temp/Job-1.odb,Step-1,Increment      1: Step Time =    1.000,"P-1-1",          4613,   116.284E-03,   3.12278E-03,            0.,NA,NA,"",   944.276E+03,   944.380E+03,   944.380E+03
C:/temp/Job-1.odb,Step-1,Increment      1: Step Time =    1.000,"P-1-1",          4614,   113.174E-03,   3.12495E-03,            0.,NA,NA,"",   940.606E+03,   940.745E+03,   940.745E+03
C:/temp/Job-1.odb,Step-1,Increment      1: Step Time =    1.000,"P-1-1",          4615,   110.069E-03,   3.12747E-03,            0.,NA,NA,"",   937.394E+03,   937.569E+03,   937.569E+03
C:/temp/Job-1.odb,Step-1,Increment      1: Step Time =    1.000,"P-1-1",          4616,   106.976E-03,   3.12227E-03,            0.,NA,NA,"",   934.727E+03,   934.927E+03,   934.927E+03
C:/temp/Job-1.odb,Step-1,Increment      1: Step Time =    1.000,"P-1-1",          4617,   196.604E-03,   123.896E-03,            0.,NA,NA,"",   974.661E+03,   999.919E+03,   999.919E+03
C:/temp/Job-1.odb,Step-1,Increment      1: Step Time =    1.000,"P-1-1",          4618,   196.736E-03,   120.469E-03,            0.,NA,NA,"",   971.884E+03,   999.796E+03,   999.796E+03
C:/temp/Job-1.odb,Step-1,Increment      1: Step Time =    1.000,"P-1-1",          4619,   197.156E-03,   116.033E-03,            0.,NA,NA,"",   968.430E+03,   999.707E+03,   999.707E+03
C:/temp/Job-1.odb,Step-1,Increment      1: Step Time =    1.000,"P-1-1",          4620,   197.080E-03,   113.094E-03,            0.,NA,NA,"",   966.837E+03,   999.629E+03,   999.629E+03
C:/temp/Job-1.odb,Step-1,Increment      1: Step Time =    1.000,"P-1-1",          4621,   197.042E-03,   107.092E-03,            0.,NA,NA,"",   964.370E+03,   999.524E+03,   999.524E+03
C:/temp/Job-1.odb,Step-1,Increment      1: Step Time =    1.000,"P-1-1",          4622,   73.3203E-03,   196.842E-03,            0.,NA,NA,"",   947.276E+03,   947.343E+03,   947.343E+03
C:/temp/Job-1.odb,Step-1,Increment      1: Step Time =    1.000,"P-1-1",          4623,   76.0334E-03,   196.661E-03,            0.,NA,NA,"",   944.695E+03,   944.767E+03,   944.767E+03
C:/temp/Job-1.odb,Step-1,Increment      1: Step Time =    1.000,"P-1-1",          4624,   79.4442E-03,   196.770E-03,            0.,NA,NA,"",   940.546E+03,   940.625E+03,   940.625E+03
C:/temp/Job-1.odb,Step-1,Increment      1: Step Time =    1.000,"P-1-1",          4625,   83.9212E-03,   197.080E-03,            0.,NA,NA,"",   935.141E+03,   935.304E+03,   935.304E+03
C:/temp/Job-1.odb,Step-1,Increment      1: Step Time =    1.000,"P-1-1",          4626,   86.8677E-03,   196.926E-03,            0.,NA,NA,"",   933.612E+03,   933.783E+03,   933.783E+03
C:/temp/Job-1.odb,Step-1,Increment      1: Step Time =    1.000,"P-1-1",          4627,   89.9016E-03,   196.940E-03,            0.,NA,NA,"",   931.947E+03,   932.142E+03,   932.142E+03
C:/temp/Job-1.odb,Step-1,Increment      1: Step Time =    1.000,"P-1-1",          4628,   92.9110E-03,   196.973E-03,            0.,NA,NA,"",   930.740E+03,   930.941E+03,   930.941E+03
C:/temp/Job-1.odb,Step-1,Increment      1: Step Time =    1.000,"P-1-1",          4629,   3.02991E-03,   74.5299E-03,            0.,NA,NA,"",   803.469E+03,   904.750E+03,   904.750E+03
C:/temp/Job-1.odb,Step-1,Increment      1: Step Time =    1.000,"P-1-1",          4630,   3.04033E-03,   77.6203E-03,            0.,NA,NA,"",   798.309E+03,   899.292E+03,   899.292E+03
C:/temp/Job-1.odb,Step-1,Increment      1: Step Time =    1.000,"P-1-1",          4631,   3.08239E-03,   80.7129E-03,            0.,NA,NA,"",   793.701E+03,   894.384E+03,   894.384E+03
C:/temp/Job-1.odb,Step-1,Increment      1: Step Time =    1.000,"P-1-1",          4632,   3.12233E-03,   83.8028E-03,            0.,NA,NA,"",   789.659E+03,   890.075E+03,   890.075E+03
C:/temp/Job-1.odb,Step-1,Increment      1: Step Time =    1.000,"P-1-1",          4633,   3.12478E-03,   86.8804E-03,            0.,NA,NA,"",   786.186E+03,   886.389E+03,   886.389E+03
C:/temp/Job-1.odb,Step-1,Increment      1: Step Time =    1.000,"P-1-1",          4634,   3.08952E-03,   89.9565E-03,            0.,NA,NA,"",   783.306E+03,   883.353E+03,   883.353E+03
C:/temp/Job-1.odb,Step-1,Increment      1: Step Time =    1.000,"P-1-1",          4635,   3.04600E-03,   93.0174E-03,            0.,NA,NA,"",   781.130E+03,   881.069E+03,   881.069E+03
C:/temp/Job-1.odb,Step-1,Increment      1: Step Time =    1.000,"P-1-1",          4636,   181.262E-03,   3.01603E-03,            0.,NA,NA,"",   999.120E+03,   999.106E+03,   999.106E+03
C:/temp/Job-1.odb,Step-1,Increment      1: Step Time =    1.000,"P-1-1",          4637,   196.939E-03,   181.397E-03,            0.,NA,NA,"",   1.00036E+06,   1.00006E+06,   1.00006E+06
C:/temp/Job-1.odb,Step-1,Increment      1: Step Time =    1.000,"P-1-1",          4638,   197.062E-03,   110.082E-03,            0.,NA,NA,"",   965.440E+03,   999.579E+03,   999.579E+03
C:/temp/Job-1.odb,Step-1,Increment      1: Step Time =    1.000,"P-1-1",          4639,   125.552E-03,   3.05699E-03,            0.,NA,NA,"",   956.852E+03,   956.853E+03,   956.853E+03
C:/temp/Job-1.odb,Step-1,Increment      1: Step Time =    1.000,"P-1-1",          4640,   196.622E-03,   159.835E-03,            0.,NA,NA,"",   997.853E+03,   1.00031E+06,   1.00031E+06
C:/temp/Job-1.odb,Step-1,Increment      1: Step Time =    1.000,"P-1-1",          4641,   196.797E-03,   126.626E-03,            0.,NA,NA,"",   976.689E+03,   999.975E+03,   999.975E+03
C:/temp/Job-1.odb,Step-1,Increment      1: Step Time =    1.000,"P-1-1",          4642,   57.4012E-03,   197.034E-03,            0.,NA,NA,"",   967.805E+03,   967.808E+03,   967.808E+03
C:/temp/Job-1.odb,Step-1,Increment      1: Step Time =    1.000,"P-1-1",          4643,   40.2239E-03,   196.581E-03,            0.,NA,NA,"",   999.729E+03,   999.946E+03,   999.946E+03
C:/temp/Job-1.odb,Step-1,Increment      1: Step Time =    1.000,"P-1-1",          4644,   11.0179E-03,   196.914E-03,            0.,NA,NA,"",   1.21401E+06,   1.21971E+06,   1.21971E+06
C:/temp/Job-1.odb,Step-1,Increment      1: Step Time =    1.000,"P-1-1",          4645,   3.24437E-03,   57.4356E-03,            0.,NA,NA,"",   840.022E+03,   942.648E+03,   942.648E+03
C:/temp/Job-1.odb,Step-1,Increment      1: Step Time =    1.000,"P-1-1",          4646,   3.04455E-03,   11.1080E-03,            0.,NA,NA,"",   1.12375E+06,   1.22028E+06,   1.22028E+06
C:/temp/Job-1.odb,Step-1,Increment      1: Step Time =    1.000,"P-1-1",          4647,   46.9352E-03,   197.320E-03,            0.,NA,NA,"",   982.956E+03,   983.054E+03,   983.054E+03
C:/temp/Job-1.odb,Step-1,Increment      1: Step Time =    1.000,"P-1-1",          4648,   49.7992E-03,   197.276E-03,            0.,NA,NA,"",   978.416E+03,   978.437E+03,   978.437E+03
C:/temp/Job-1.odb,Step-1,Increment      1: Step Time =    1.000,"P-1-1",          4649,   54.3628E-03,   197.145E-03,            0.,NA,NA,"",   971.896E+03,   971.914E+03,   971.914E+03
C:/temp/Job-1.odb,Step-1,Increment      1: Step Time =    1.000,"P-1-1",          4650,   2.78629E-03,   45.0799E-03,            0.,NA,NA,"",   871.548E+03,   975.471E+03,   975.471E+03
C:/temp/Job-1.odb,Step-1,Increment      1: Step Time =    1.000,"P-1-1",          4651,   2.90284E-03,   48.0919E-03,            0.,NA,NA,"",   863.210E+03,   966.847E+03,   966.847E+03
C:/temp/Job-1.odb,Step-1,Increment      1: Step Time =    1.000,"P-1-1",          4652,   3.03527E-03,   51.1529E-03,            0.,NA,NA,"",   855.299E+03,   958.595E+03,   958.595E+03
C:/temp/Job-1.odb,Step-1,Increment      1: Step Time =    1.000,"P-1-1",          4653,   3.15251E-03,   54.2735E-03,            0.,NA,NA,"",   847.565E+03,   950.517E+03,   950.517E+03
C:/temp/Job-1.odb,Step-1,Increment      1: Step Time =    1.000,"P-1-1",          4654,   2.95350E-03,   18.7744E-03,            0.,NA,NA,"",   1.00974E+06,   1.11140E+06,   1.11140E+06
C:/temp/Job-1.odb,Step-1,Increment      1: Step Time =    1.000,"P-1-1",          4655,   18.7456E-03,   196.868E-03,            0.,NA,NA,"",   1.10040E+06,   1.10233E+06,   1.10233E+06
C:/temp/Job-1.odb,Step-1,Increment      1: Step Time =    1.000,"P-1-1",          4656,   44.3036E-03,   197.090E-03,            0.,NA,NA,"",   988.977E+03,   989.146E+03,   989.146E+03
C:/temp/Job-1.odb,Step-1,Increment      1: Step Time =    1.000,"P-1-1",          4657,   3.13460E-03,   130.214E-03,            0.,NA,NA,"",   812.576E+03,   914.218E+03,   914.218E+03
C:/temp/Job-1.odb,Step-1,Increment      1: Step Time =    1.000,"P-1-1",          4658,   40.3045E-03,   3.16414E-03,            0.,NA,NA,"",   998.306E+03,   998.515E+03,   998.515E+03
C:/temp/Job-1.odb,Step-1,Increment      1: Step Time =    1.000,"P-1-1",          4659,   69.8507E-03,   3.06129E-03,            0.,NA,NA,"",   951.272E+03,   951.297E+03,   951.297E+03
C:/temp/Job-1.odb,Step-1,Increment      1: Step Time =    1.000,"P-1-1",          4660,   142.590E-03,   3.18244E-03,            0.,NA,NA,"",   980.191E+03,   980.065E+03,   980.065E+03
C:/temp/Job-1.odb,Step-1,Increment      1: Step Time =    1.000,"P-1-1",          4661,   145.713E-03,   3.09062E-03,            0.,NA,NA,"",   983.474E+03,   983.350E+03,   983.350E+03
C:/temp/Job-1.odb,Step-1,Increment      1: Step Time =    1.000,"P-1-1",          4662,   148.798E-03,   2.97982E-03,            0.,NA,NA,"",   986.375E+03,   986.255E+03,   986.255E+03
C:/temp/Job-1.odb,Step-1,Increment      1: Step Time =    1.000,"P-1-1",          4663,   151.846E-03,   2.87264E-03,            0.,NA,NA,"",   988.898E+03,   988.791E+03,   988.791E+03
C:/temp/Job-1.odb,Step-1,Increment      1: Step Time =    1.000,"P-1-1",          4664,   196.657E-03,   70.5248E-03,            0.,NA,NA,"",   979.135E+03,   1.00012E+06,   1.00012E+06
C:/temp/Job-1.odb,Step-1,Increment      1: Step Time =    1.000,"P-1-1",          4665,   197.020E-03,   142.508E-03,            0.,NA,NA,"",   989.002E+03,   1.00024E+06,   1.00024E+06
C:/temp/Job-1.odb,Step-1,Increment      1: Step Time =    1.000,"P-1-1",          4666,   197.029E-03,   145.566E-03,            0.,NA,NA,"",   991.064E+03,   1.00026E+06,   1.00026E+06
C:/temp/Job-1.odb,Step-1,Increment      1: Step Time =    1.000,"P-1-1",          4667,   197.037E-03,   150.183E-03,            0.,NA,NA,"",   993.812E+03,   1.00030E+06,   1.00030E+06
C:/temp/Job-1.odb,Step-1,Increment      1: Step Time =    1.000,"P-1-1",          4668,   197.111E-03,   153.117E-03,            0.,NA,NA,"",   995.268E+03,   1.00028E+06,   1.00028E+06
C:/temp/Job-1.odb,Step-1,Increment      1: Step Time =    1.000,"P-1-1",          4669,   69.4186E-03,   196.904E-03,            0.,NA,NA,"",   952.030E+03,   952.030E+03,   952.030E+03
C:/temp/Job-1.odb,Step-1,Increment      1: Step Time =    1.000,"P-1-1",          4670,   3.12873E-03,   188.827E-03,            0.,NA,NA,"",   1.12395E+06,   1.21988E+06,   1.21988E+06
C:/temp/Job-1.odb,Step-1,Increment      1: Step Time =    1.000,"P-1-1",          4671,   197.240E-03,   11.0684E-03,            0.,NA,NA,"",   1.00018E+06,   999.996E+03,   999.996E+03
C:/temp/Job-1.odb,Step-1,Increment      1: Step Time =    1.000,"P-1-1",          4672,   196.777E-03,   41.4188E-03,            0.,NA,NA,"",   997.453E+03,   1.00030E+06,   1.00030E+06
C:/temp/Job-1.odb,Step-1,Increment      1: Step Time =    1.000,"P-1-1",          4673,   3.08682E-03,   159.713E-03,            0.,NA,NA,"",   888.475E+03,   991.959E+03,   991.959E+03
C:/temp/Job-1.odb,Step-1,Increment      1: Step Time =    1.000,"P-1-1",          4674,   96.1073E-03,   3.27933E-03,            0.,NA,NA,"",   931.376E+03,   931.612E+03,   931.612E+03
C:/temp/Job-1.odb,Step-1,Increment      1: Step Time =    1.000,"P-1-1",          4675,   92.9217E-03,   3.16434E-03,            0.,NA,NA,"",   931.420E+03,   931.629E+03,   931.629E+03
C:/temp/Job-1.odb,Step-1,Increment      1: Step Time =    1.000,"P-1-1",          4676,   89.7730E-03,   3.09926E-03,            0.,NA,NA,"",   932.252E+03,   932.438E+03,   932.438E+03
C:/temp/Job-1.odb,Step-1,Increment      1: Step Time =    1.000,"P-1-1",          4677,   86.6669E-03,   3.10877E-03,            0.,NA,NA,"",   934.037E+03,   934.197E+03,   934.197E+03
C:/temp/Job-1.odb,Step-1,Increment      1: Step Time =    1.000,"P-1-1",          4678,   83.5665E-03,   3.12696E-03,            0.,NA,NA,"",   936.411E+03,   936.551E+03,   936.551E+03
C:/temp/Job-1.odb,Step-1,Increment      1: Step Time =    1.000,"P-1-1",          4679,   80.4557E-03,   3.10031E-03,            0.,NA,NA,"",   939.079E+03,   939.205E+03,   939.205E+03
C:/temp/Job-1.odb,Step-1,Increment      1: Step Time =    1.000,"P-1-1",          4680,   77.4101E-03,   3.00466E-03,            0.,NA,NA,"",   941.878E+03,   941.955E+03,   941.955E+03
C:/temp/Job-1.odb,Step-1,Increment      1: Step Time =    1.000,"P-1-1",          4681,   60.4139E-03,   3.25391E-03,            0.,NA,NA,"",   964.772E+03,   964.766E+03,   964.766E+03
C:/temp/Job-1.odb,Step-1,Increment      1: Step Time =    1.000,"P-1-1",          4682,   57.2661E-03,   3.18039E-03,            0.,NA,NA,"",   968.971E+03,   968.975E+03,   968.975E+03
C:/temp/Job-1.odb,Step-1,Increment      1: Step Time =    1.000,"P-1-1",          4683,   54.1540E-03,   3.14924E-03,            0.,NA,NA,"",   973.449E+03,   973.465E+03,   973.465E+03
C:/temp/Job-1.odb,Step-1,Increment      1: Step Time =    1.000,"P-1-1",          4684,   51.0590E-03,   3.13032E-03,            0.,NA,NA,"",   978.130E+03,   978.178E+03,   978.178E+03
C:/temp/Job-1.odb,Step-1,Increment      1: Step Time =    1.000,"P-1-1",          4685,   47.9925E-03,   3.10775E-03,            0.,NA,NA,"",   983.095E+03,   983.171E+03,   983.171E+03
C:/temp/Job-1.odb,Step-1,Increment      1: Step Time =    1.000,"P-1-1",          4686,   21.7464E-03,   3.05310E-03,            0.,NA,NA,"",   1.07396E+06,   1.07527E+06,   1.07527E+06
C:/temp/Job-1.odb,Step-1,Increment      1: Step Time =    1.000,"P-1-1",          4687,   18.6732E-03,   3.00671E-03,            0.,NA,NA,"",   1.09998E+06,   1.10177E+06,   1.10177E+06
C:/temp/Job-1.odb,Step-1,Increment      1: Step Time =    1.000,"P-1-1",          4688,   196.296E-03,   97.4907E-03,            0.,NA,NA,"",   964.272E+03,   999.280E+03,   999.280E+03
C:/temp/Job-1.odb,Step-1,Increment      1: Step Time =    1.000,"P-1-1",          4689,   196.410E-03,   94.2893E-03,            0.,NA,NA,"",   964.689E+03,   999.345E+03,   999.345E+03
C:/temp/Job-1.odb,Step-1,Increment      1: Step Time =    1.000,"P-1-1",          4690,   196.685E-03,   90.8919E-03,            0.,NA,NA,"",   965.548E+03,   999.535E+03,   999.535E+03
C:/temp/Job-1.odb,Step-1,Increment      1: Step Time =    1.000,"P-1-1",          4691,   197.208E-03,   86.5549E-03,            0.,NA,NA,"",   966.873E+03,   999.627E+03,   999.627E+03
C:/temp/Job-1.odb,Step-1,Increment      1: Step Time =    1.000,"P-1-1",          4692,   197.063E-03,   83.6582E-03,            0.,NA,NA,"",   968.747E+03,   999.685E+03,   999.685E+03
C:/temp/Job-1.odb,Step-1,Increment      1: Step Time =    1.000,"P-1-1",          4693,   196.829E-03,   80.6030E-03,            0.,NA,NA,"",   971.053E+03,   999.724E+03,   999.724E+03
C:/temp/Job-1.odb,Step-1,Increment      1: Step Time =    1.000,"P-1-1",          4694,   196.738E-03,   77.4868E-03,            0.,NA,NA,"",   973.487E+03,   999.824E+03,   999.824E+03
C:/temp/Job-1.odb,Step-1,Increment      1: Step Time =    1.000,"P-1-1",          4695,   197.209E-03,   60.3881E-03,            0.,NA,NA,"",   986.822E+03,   1.00017E+06,   1.00017E+06
C:/temp/Job-1.odb,Step-1,Increment      1: Step Time =    1.000,"P-1-1",          4696,   197.013E-03,   57.4056E-03,            0.,NA,NA,"",   989.068E+03,   1.00022E+06,   1.00022E+06
C:/temp/Job-1.odb,Step-1,Increment      1: Step Time =    1.000,"P-1-1",          4697,   196.827E-03,   45.3142E-03,            0.,NA,NA,"",   996.022E+03,   1.00031E+06,   1.00031E+06
C:/temp/Job-1.odb,Step-1,Increment      1: Step Time =    1.000,"P-1-1",          4698,   196.943E-03,   21.5518E-03,            0.,NA,NA,"",   1.00038E+06,   1.00009E+06,   1.00009E+06
C:/temp/Job-1.odb,Step-1,Increment      1: Step Time =    1.000,"P-1-1",          4699,   105.730E-03,   196.387E-03,            0.,NA,NA,"",   935.653E+03,   935.887E+03,   935.887E+03
C:/temp/Job-1.odb,Step-1,Increment      1: Step Time =    1.000,"P-1-1",          4700,   109.101E-03,   196.721E-03,            0.,NA,NA,"",   937.126E+03,   937.282E+03,   937.282E+03
C:/temp/Job-1.odb,Step-1,Increment      1: Step Time =    1.000,"P-1-1",          4701,   139.634E-03,   197.236E-03,            0.,NA,NA,"",   976.134E+03,   976.060E+03,   976.060E+03
C:/temp/Job-1.odb,Step-1,Increment      1: Step Time =    1.000,"P-1-1",          4702,   178.435E-03,   196.912E-03,            0.,NA,NA,"",   998.874E+03,   998.852E+03,   998.852E+03
C:/temp/Job-1.odb,Step-1,Increment      1: Step Time =    1.000,"P-1-1",          4703,   3.25618E-03,   103.831E-03,            0.,NA,NA,"",   780.032E+03,   879.771E+03,   879.771E+03
C:/temp/Job-1.odb,Step-1,Increment      1: Step Time =    1.000,"P-1-1",          4704,   3.19787E-03,   107.019E-03,            0.,NA,NA,"",   781.401E+03,   881.248E+03,   881.248E+03
C:/temp/Job-1.odb,Step-1,Increment      1: Step Time =    1.000,"P-1-1",          4705,   3.16031E-03,   110.178E-03,            0.,NA,NA,"",   783.538E+03,   883.547E+03,   883.547E+03
C:/temp/Job-1.odb,Step-1,Increment      1: Step Time =    1.000,"P-1-1",          4706,   3.16580E-03,   113.293E-03,            0.,NA,NA,"",   786.448E+03,   886.637E+03,   886.637E+03
C:/temp/Job-1.odb,Step-1,Increment      1: Step Time =    1.000,"P-1-1",          4707,   3.16243E-03,   116.384E-03,            0.,NA,NA,"",   789.980E+03,   890.385E+03,   890.385E+03
C:/temp/Job-1.odb,Step-1,Increment      1: Step Time =    1.000,"P-1-1",          4708,   3.12605E-03,   119.481E-03,            0.,NA,NA,"",   794.077E+03,   894.751E+03,   894.751E+03
C:/temp/Job-1.odb,Step-1,Increment      1: Step Time =    1.000,"P-1-1",          4709,   3.06150E-03,   122.548E-03,            0.,NA,NA,"",   798.621E+03,   899.607E+03,   899.607E+03
C:/temp/Job-1.odb,Step-1,Increment      1: Step Time =    1.000,"P-1-1",          4710,   3.19445E-03,   139.659E-03,            0.,NA,NA,"",   833.100E+03,   935.544E+03,   935.544E+03
C:/temp/Job-1.odb,Step-1,Increment      1: Step Time =    1.000,"P-1-1",          4711,   3.11536E-03,   148.955E-03,            0.,NA,NA,"",   855.869E+03,   959.063E+03,   959.063E+03
C:/temp/Job-1.odb,Step-1,Increment      1: Step Time =    1.000,"P-1-1",          4712,   3.05657E-03,   152.022E-03,            0.,NA,NA,"",   864.179E+03,   967.583E+03,   967.583E+03
C:/temp/Job-1.odb,Step-1,Increment      1: Step Time =    1.000,"P-1-1",          4713,   2.84618E-03,   178.268E-03,            0.,NA,NA,"",   982.172E+03,   1.08491E+06,   1.08491E+06
C:/temp/Job-1.odb,Step-1,Increment      1: Step Time =    1.000,"P-1-1",          4714,   188.910E-03,   3.05830E-03,            0.,NA,NA,"",   999.626E+03,   999.619E+03,   999.619E+03
C:/temp/Job-1.odb,Step-1,Increment      1: Step Time =    1.000,"P-1-1",          4715,   197.020E-03,   189.004E-03,            0.,NA,NA,"",   1.00018E+06,   999.995E+03,   999.995E+03
C:/temp/Job-1.odb,Step-1,Increment      1: Step Time =    1.000,"P-1-1",          4716,   102.531E-03,   196.225E-03,            0.,NA,NA,"",   934.641E+03,   934.903E+03,   934.903E+03
C:/temp/Job-1.odb,Step-1,Increment      1: Step Time =    1.000,"P-1-1",          4717,   113.435E-03,   197.137E-03,            0.,NA,NA,"",   939.908E+03,   940.048E+03,   940.048E+03
C:/temp/Job-1.odb,Step-1,Increment      1: Step Time =    1.000,"P-1-1",          4718,   116.348E-03,   196.983E-03,            0.,NA,NA,"",   943.916E+03,   944.038E+03,   944.038E+03
C:/temp/Job-1.odb,Step-1,Increment      1: Step Time =    1.000,"P-1-1",          4719,   119.414E-03,   196.763E-03,            0.,NA,NA,"",   948.726E+03,   948.815E+03,   948.815E+03
C:/temp/Job-1.odb,Step-1,Increment      1: Step Time =    1.000,"P-1-1",          4720,   122.529E-03,   196.704E-03,            0.,NA,NA,"",   953.277E+03,   953.323E+03,   953.323E+03
C:/temp/Job-1.odb,Step-1,Increment      1: Step Time =    1.000,"P-1-1",          4721,   11.0949E-03,   2.84623E-03,            0.,NA,NA,"",   1.21017E+06,   1.21496E+06,   1.21496E+06
C:/temp/Job-1.odb,Step-1,Increment      1: Step Time =    1.000,"P-1-1",          4722,   154.865E-03,   2.78591E-03,            0.,NA,NA,"",   991.075E+03,    990.98E+03,    990.98E+03
C:/temp/Job-1.odb,Step-1,Increment      1: Step Time =    1.000,"P-1-1",          4723,   129.507E-03,   196.675E-03,            0.,NA,NA,"",   963.256E+03,   963.187E+03,   963.187E+03
C:/temp/Job-1.odb,Step-1,Increment      1: Step Time =    1.000,"P-1-1",          4724,   197.066E-03,   155.761E-03,            0.,NA,NA,"",   996.416E+03,   1.00026E+06,   1.00026E+06
C:/temp/Job-1.odb,Step-1,Increment      1: Step Time =    1.000,"P-1-1",          4725,   158.596E-03,   196.764E-03,            0.,NA,NA,"",   993.509E+03,   993.397E+03,   993.397E+03
C:/temp/Job-1.odb,Step-1,Increment      1: Step Time =    1.000,"P-1-1",          4726,   188.978E-03,   197.248E-03,            0.,NA,NA,"",   999.620E+03,   999.615E+03,   999.615E+03
C:/temp/Job-1.odb,Step-1,Increment      1: Step Time =    1.000,"P-1-1",          4727,   196.906E-03,   130.537E-03,            0.,NA,NA,"",   979.744E+03,   1.00009E+06,   1.00009E+06
C:/temp/Job-1.odb,Step-1,Increment      1: Step Time =    1.000,"P-1-1",          4728,   196.829E-03,   74.7154E-03,            0.,NA,NA,"",   975.764E+03,   999.974E+03,   999.974E+03
C:/temp/Job-1.odb,Step-1,Increment      1: Step Time =    1.000,"P-1-1",          4729,   196.729E-03,   54.3403E-03,            0.,NA,NA,"",   991.257E+03,   1.00032E+06,   1.00032E+06
C:/temp/Job-1.odb,Step-1,Increment      1: Step Time =    1.000,"P-1-1",          4730,   196.686E-03,   51.1616E-03,            0.,NA,NA,"",   993.185E+03,   1.00036E+06,   1.00036E+06
C:/temp/Job-1.odb,Step-1,Increment      1: Step Time =    1.000,"P-1-1",          4731,   196.818E-03,   48.0811E-03,            0.,NA,NA,"",   994.773E+03,   1.00033E+06,   1.00033E+06
C:/temp/Job-1.odb,Step-1,Increment      1: Step Time =    1.000,"P-1-1",          4732,   197.219E-03,   18.4668E-03,            0.,NA,NA,"",   1.00037E+06,   1.00005E+06,   1.00005E+06
C:/temp/Job-1.odb,Step-1,Increment      1: Step Time =    1.000,"P-1-1",          4733,   125.307E-03,   196.828E-03,            0.,NA,NA,"",   957.249E+03,   957.227E+03,   957.227E+03
C:/temp/Job-1.odb,Step-1,Increment      1: Step Time =    1.000,"P-1-1",          4734,   142.610E-03,   197.058E-03,            0.,NA,NA,"",   979.945E+03,   979.847E+03,   979.847E+03
C:/temp/Job-1.odb,Step-1,Increment      1: Step Time =    1.000,"P-1-1",          4735,   145.679E-03,   196.783E-03,            0.,NA,NA,"",   983.614E+03,   983.485E+03,   983.485E+03
C:/temp/Job-1.odb,Step-1,Increment      1: Step Time =    1.000,"P-1-1",          4736,   148.857E-03,   196.729E-03,            0.,NA,NA,"",   986.723E+03,   986.581E+03,   986.581E+03
C:/temp/Job-1.odb,Step-1,Increment      1: Step Time =    1.000,"P-1-1",          4737,   151.927E-03,   196.838E-03,            0.,NA,NA,"",   989.198E+03,   989.067E+03,   989.067E+03
C:/temp/Job-1.odb,Step-1,Increment      1: Step Time =    1.000,"P-1-1",          4738,   154.691E-03,   196.832E-03,            0.,NA,NA,"",   991.239E+03,   991.120E+03,   991.120E+03
C:/temp/Job-1.odb,Step-1,Increment      1: Step Time =    1.000,"P-1-1",          4739,   181.515E-03,   197.063E-03,            0.,NA,NA,"",   999.138E+03,   999.125E+03,   999.125E+03
C:/temp/Job-1.odb,Step-1,Increment      1: Step Time =    1.000,"P-1-1",          4740,   3.15774E-03,   142.774E-03,            0.,NA,NA,"",   840.289E+03,   943.040E+03,   943.040E+03
C:/temp/Job-1.odb,Step-1,Increment      1: Step Time =    1.000,"P-1-1",          4741,   3.15138E-03,   145.866E-03,            0.,NA,NA,"",   847.905E+03,   950.881E+03,   950.881E+03
C:/temp/Job-1.odb,Step-1,Increment      1: Step Time =    1.000,"P-1-1",          4742,   2.69889E-03,   181.223E-03,            0.,NA,NA,"",   1.00758E+06,   1.11022E+06,   1.11022E+06
C:/temp/Job-1.odb,Step-1,Increment      1: Step Time =    1.000,"P-1-1",          4743,   106.698E-03,   112.540E-03,            0.,NA,NA,"",   1.77359E+06,   1.82517E+06,   1.82517E+06
C:/temp/Job-1.odb,Step-1,Increment      1: Step Time =    1.000,"P-1-1",          4744,   113.174E-03,   93.7997E-03,            0.,NA,NA,"",   561.472E+03,   236.008E+03,   236.008E+03
C:/temp/Job-1.odb,Step-1,Increment      1: Step Time =    1.000,"P-1-1",          4745,   85.6111E-03,   98.8681E-03,            0.,NA,NA,"",   500.582E+03,  -489.267E+03,  -489.267E+03
C:/temp/Job-1.odb,Step-1,Increment      1: Step Time =    1.000,"P-1-1",          4746,   114.282E-03,   98.7904E-03,            0.,NA,NA,"",   556.298E+03,  -553.103E+03,  -553.103E+03
C:/temp/Job-1.odb,Step-1,Increment      1: Step Time =    1.000,"P-1-1",          4747,   112.948E-03,   108.515E-03,            0.,NA,NA,"",   911.007E+03,   754.788E+03,   754.788E+03
C:/temp/Job-1.odb,Step-1,Increment      1: Step Time =    1.000,"P-1-1",          4748,   87.2369E-03,   108.525E-03,            0.,NA,NA,"",   883.892E+03,   748.835E+03,   748.835E+03
C:/temp/Job-1.odb,Step-1,Increment      1: Step Time =    1.000,"P-1-1",          4749,   113.871E-03,   107.063E-03,            0.,NA,NA,"",   764.645E+03,   557.702E+03,   557.702E+03
C:/temp/Job-1.odb,Step-1,Increment      1: Step Time =    1.000,"P-1-1",          4750,   111.994E-03,   109.914E-03,            0.,NA,NA,"",   1.08570E+06,   978.862E+03,   978.862E+03
C:/temp/Job-1.odb,Step-1,Increment      1: Step Time =    1.000,"P-1-1",          4751,   88.2519E-03,   109.851E-03,            0.,NA,NA,"",   1.04532E+06,   959.760E+03,   959.760E+03
C:/temp/Job-1.odb,Step-1,Increment      1: Step Time =    1.000,"P-1-1",          4752,   116.196E-03,   99.9504E-03,            0.,NA,NA,"",   297.362E+03,  -267.218E+03,  -267.218E+03
C:/temp/Job-1.odb,Step-1,Increment      1: Step Time =    1.000,"P-1-1",          4753,   83.6409E-03,   100.839E-03,            0.,NA,NA,"",   296.233E+03,  -172.163E+03,  -172.163E+03
C:/temp/Job-1.odb,Step-1,Increment      1: Step Time =    1.000,"P-1-1",          4754,   85.4718E-03,   105.888E-03,            0.,NA,NA,"",   646.429E+03,   273.091E+03,   273.091E+03
C:/temp/Job-1.odb,Step-1,Increment      1: Step Time =    1.000,"P-1-1",          4755,   84.8432E-03,   91.9940E-03,            0.,NA,NA,"",   890.218E+03,   711.492E+03,   711.492E+03
C:/temp/Job-1.odb,Step-1,Increment      1: Step Time =    1.000,"P-1-1",          4756,   66.5909E-03,   196.878E-03,            0.,NA,NA,"",   955.684E+03,   955.713E+03,   955.713E+03
C:/temp/Job-1.odb,Step-1,Increment      1: Step Time =    1.000,"P-1-1",          4757,   197.168E-03,   67.7271E-03,            0.,NA,NA,"",   980.985E+03,   1.00009E+06,   1.00009E+06
C:/temp/Job-1.odb,Step-1,Increment      1: Step Time =    1.000,"P-1-1",          4758,   196.899E-03,   133.354E-03,            0.,NA,NA,"",   982.000E+03,   1.00011E+06,   1.00011E+06
C:/temp/Job-1.odb,Step-1,Increment      1: Step Time =    1.000,"P-1-1",          4759,   132.310E-03,   197.179E-03,            0.,NA,NA,"",   966.184E+03,   966.141E+03,   966.141E+03
C:/temp/Job-1.odb,Step-1,Increment      1: Step Time =    1.000,"P-1-1",          4760,   3.16008E-03,   66.8699E-03,            0.,NA,NA,"",   818.522E+03,   920.430E+03,   920.430E+03
C:/temp/Job-1.odb,Step-1,Increment      1: Step Time =    1.000,"P-1-1",          4761,   66.7237E-03,   3.28861E-03,            0.,NA,NA,"",   956.186E+03,   956.212E+03,   956.212E+03
C:/temp/Job-1.odb,Step-1,Increment      1: Step Time =    1.000,"P-1-1",          4762,   133.221E-03,   3.12596E-03,            0.,NA,NA,"",   968.098E+03,   968.030E+03,   968.030E+03
C:/temp/Job-1.odb,Step-1,Increment      1: Step Time =    1.000,"P-1-1",          4763,   3.30179E-03,   133.352E-03,            0.,NA,NA,"",   819.428E+03,   921.223E+03,   921.223E+03
C:/temp/Job-1.odb,Step-1,Increment      1: Step Time =    1.000,"P-1-1",          4764,   161.322E-03,   196.566E-03,            0.,NA,NA,"",   994.920E+03,   994.810E+03,   994.810E+03
C:/temp/Job-1.odb,Step-1,Increment      1: Step Time =    1.000,"P-1-1",          4765,   37.2436E-03,   196.681E-03,            0.,NA,NA,"",   1.00652E+06,   1.00686E+06,   1.00686E+06
C:/temp/Job-1.odb,Step-1,Increment      1: Step Time =    1.000,"P-1-1",          4766,   196.589E-03,   38.7078E-03,            0.,NA,NA,"",   998.291E+03,   1.00030E+06,   1.00030E+06
C:/temp/Job-1.odb,Step-1,Increment      1: Step Time =    1.000,"P-1-1",          4767,   3.15536E-03,   162.816E-03,            0.,NA,NA,"",   900.051E+03,   1.00337E+06,   1.00337E+06
C:/temp/Job-1.odb,Step-1,Increment      1: Step Time =    1.000,"P-1-1",          4768,   3.11741E-03,   37.4820E-03,            0.,NA,NA,"",   898.845E+03,   1.00220E+06,   1.00220E+06
C:/temp/Job-1.odb,Step-1,Increment      1: Step Time =    1.000,"P-1-1",          4769,   37.2265E-03,   3.16788E-03,            0.,NA,NA,"",   1.00573E+06,   1.00604E+06,   1.00604E+06
C:/temp/Job-1.odb,Step-1,Increment      1: Step Time =    1.000,"P-1-1",          4770,   7.90021E-03,   196.844E-03,            0.,NA,NA,"",   1.29826E+06,   1.30910E+06,   1.30910E+06
C:/temp/Job-1.odb,Step-1,Increment      1: Step Time =    1.000,"P-1-1",          4771,   196.990E-03,   7.98140E-03,            0.,NA,NA,"",   1.00008E+06,   999.972E+03,   999.972E+03
C:/temp/Job-1.odb,Step-1,Increment      1: Step Time =    1.000,"P-1-1",          4772,   196.851E-03,   192.121E-03,            0.,NA,NA,"",   1.00008E+06,   999.969E+03,   999.969E+03
C:/temp/Job-1.odb,Step-1,Increment      1: Step Time =    1.000,"P-1-1",          4773,   192.067E-03,   197.020E-03,            0.,NA,NA,"",   999.788E+03,   999.776E+03,   999.776E+03
C:/temp/Job-1.odb,Step-1,Increment      1: Step Time =    1.000,"P-1-1",          4774,   3.21962E-03,   7.96698E-03,            0.,NA,NA,"",   1.21352E+06,   1.30213E+06,   1.30213E+06
C:/temp/Job-1.odb,Step-1,Increment      1: Step Time =    1.000,"P-1-1",          4775,   7.98016E-03,   3.04151E-03,            0.,NA,NA,"",   1.29578E+06,   1.30588E+06,   1.30588E+06
C:/temp/Job-1.odb,Step-1,Increment      1: Step Time =    1.000,"P-1-1",          4776,   192.045E-03,   3.23052E-03,            0.,NA,NA,"",   999.790E+03,   999.777E+03,   999.777E+03
C:/temp/Job-1.odb,Step-1,Increment      1: Step Time =    1.000,"P-1-1",          4777,   3.31394E-03,   192.002E-03,            0.,NA,NA,"",   1.21353E+06,   1.30135E+06,   1.30135E+06
C:/temp/Job-1.odb,Step-1,Increment      1: Step Time =    1.000,"P-1-1",          4778,   21.8828E-03,   196.727E-03,            0.,NA,NA,"",   1.07486E+06,   1.07634E+06,   1.07634E+06
C:/temp/Job-1.odb,Step-1,Increment      1: Step Time =    1.000,"P-1-1",          4779,   196.770E-03,   178.272E-03,            0.,NA,NA,"",   1.00036E+06,   1.00010E+06,   1.00010E+06
C:/temp/Job-1.odb,Step-1,Increment      1: Step Time =    1.000,"P-1-1",          4780,   2.98421E-03,   21.8618E-03,            0.,NA,NA,"",   982.258E+03,   1.08453E+06,   1.08453E+06
C:/temp/Job-1.odb,Step-1,Increment      1: Step Time =    1.000,"P-1-1",          4781,   178.195E-03,   3.07626E-03,            0.,NA,NA,"",   998.847E+03,   998.823E+03,   998.823E+03
C:/temp/Job-1.odb,Step-1,Increment      1: Step Time =    1.000,"P-1-1",          4782,   63.4509E-03,   196.906E-03,            0.,NA,NA,"",   959.934E+03,   959.946E+03,   959.946E+03
C:/temp/Job-1.odb,Step-1,Increment      1: Step Time =    1.000,"P-1-1",          4783,   197.319E-03,   64.8308E-03,            0.,NA,NA,"",   983.261E+03,   1.00010E+06,   1.00010E+06
C:/temp/Job-1.odb,Step-1,Increment      1: Step Time =    1.000,"P-1-1",          4784,   196.935E-03,   136.462E-03,            0.,NA,NA,"",   984.521E+03,   1.00017E+06,   1.00017E+06
C:/temp/Job-1.odb,Step-1,Increment      1: Step Time =    1.000,"P-1-1",          4785,   135.205E-03,   197.329E-03,            0.,NA,NA,"",   970.062E+03,   970.013E+03,   970.013E+03
C:/temp/Job-1.odb,Step-1,Increment      1: Step Time =    1.000,"P-1-1",          4786,   3.23821E-03,   63.7712E-03,            0.,NA,NA,"",   825.368E+03,   927.484E+03,   927.484E+03
C:/temp/Job-1.odb,Step-1,Increment      1: Step Time =    1.000,"P-1-1",          4787,   63.5875E-03,   3.34918E-03,            0.,NA,NA,"",   960.646E+03,   960.650E+03,   960.650E+03
C:/temp/Job-1.odb,Step-1,Increment      1: Step Time =    1.000,"P-1-1",          4788,   136.312E-03,   3.20063E-03,            0.,NA,NA,"",    972.44E+03,   972.348E+03,   972.348E+03
C:/temp/Job-1.odb,Step-1,Increment      1: Step Time =    1.000,"P-1-1",          4789,   3.31139E-03,   136.483E-03,            0.,NA,NA,"",   826.162E+03,   928.221E+03,   928.221E+03
C:/temp/Job-1.odb,Step-1,Increment      1: Step Time =    1.000,"P-1-1",          4790,   115.767E-03,   96.7833E-03,            0.,NA,NA,"",   454.860E+03,  -166.082E+03,  -166.082E+03
C:/temp/Job-1.odb,Step-1,Increment      1: Step Time =    1.000,"P-1-1",          4791,   115.719E-03,   103.828E-03,            0.,NA,NA,"",   506.874E+03,  -48.7950E+03,  -48.7950E+03
C:/temp/Job-1.odb,Step-1,Increment      1: Step Time =    1.000,"P-1-1",          4792,   83.7180E-03,   97.0127E-03,            0.,NA,NA,"",   400.414E+03,  -14.6717E+03,  -14.6717E+03
C:/temp/Job-1.odb,Step-1,Increment      1: Step Time =    1.000,"P-1-1",          4793,   83.5767E-03,   103.529E-03,            0.,NA,NA,"",   447.766E+03,   44.8196E+03,   44.8196E+03
C:/temp/Job-1.odb,Step-1,Increment      1: Step Time =    1.000,"P-1-1",          4794,   196.749E-03,   165.919E-03,            0.,NA,NA,"",   999.344E+03,   1.00025E+06,   1.00025E+06
C:/temp/Job-1.odb,Step-1,Increment      1: Step Time =    1.000,"P-1-1",          4795,   164.793E-03,   196.643E-03,            0.,NA,NA,"",   996.255E+03,   996.161E+03,   996.161E+03
C:/temp/Job-1.odb,Step-1,Increment      1: Step Time =    1.000,"P-1-1",          4796,   34.1441E-03,   196.766E-03,            0.,NA,NA,"",   1.01503E+06,   1.01548E+06,   1.01548E+06
C:/temp/Job-1.odb,Step-1,Increment      1: Step Time =    1.000,"P-1-1",          4797,   196.686E-03,   35.2733E-03,            0.,NA,NA,"",   999.117E+03,   1.00026E+06,   1.00026E+06
C:/temp/Job-1.odb,Step-1,Increment      1: Step Time =    1.000,"P-1-1",          4798,   165.670E-03,   3.36912E-03,            0.,NA,NA,"",   996.531E+03,   996.440E+03,   996.440E+03
C:/temp/Job-1.odb,Step-1,Increment      1: Step Time =    1.000,"P-1-1",          4799,   3.18704E-03,   165.922E-03,            0.,NA,NA,"",   912.716E+03,   1.01585E+06,   1.01585E+06
C:/temp/Job-1.odb,Step-1,Increment      1: Step Time =    1.000,"P-1-1",          4800,   3.28799E-03,   34.2878E-03,            0.,NA,NA,"",   912.458E+03,   1.01537E+06,   1.01537E+06
C:/temp/Job-1.odb,Step-1,Increment      1: Step Time =    1.000,"P-1-1",          4801,   34.1301E-03,   3.14117E-03,            0.,NA,NA,"",   1.01439E+06,   1.01481E+06,   1.01481E+06
C:/temp/Job-1.odb,Step-1,Increment      1: Step Time =    1.000,"P-1-1",          4802,   4.78561E-03,   196.807E-03,            0.,NA,NA,"",   1.42340E+06,   1.44785E+06,   1.44785E+06
C:/temp/Job-1.odb,Step-1,Increment      1: Step Time =    1.000,"P-1-1",          4803,   196.788E-03,   4.84839E-03,            0.,NA,NA,"",  1000.000E+03,   999.951E+03,   999.951E+03
C:/temp/Job-1.odb,Step-1,Increment      1: Step Time =    1.000,"P-1-1",          4804,   196.767E-03,   195.249E-03,            0.,NA,NA,"",   999.996E+03,   999.949E+03,   999.949E+03
C:/temp/Job-1.odb,Step-1,Increment      1: Step Time =    1.000,"P-1-1",          4805,   195.203E-03,   196.832E-03,            0.,NA,NA,"",    999.92E+03,   999.899E+03,   999.899E+03
C:/temp/Job-1.odb,Step-1,Increment      1: Step Time =    1.000,"P-1-1",          4806,   3.28419E-03,   4.81084E-03,            0.,NA,NA,"",   1.36249E+06,   1.43273E+06,   1.43273E+06
C:/temp/Job-1.odb,Step-1,Increment      1: Step Time =    1.000,"P-1-1",          4807,   4.84230E-03,   3.21861E-03,            0.,NA,NA,"",   1.42012E+06,   1.44441E+06,   1.44441E+06
C:/temp/Job-1.odb,Step-1,Increment      1: Step Time =    1.000,"P-1-1",          4808,   195.193E-03,   3.29058E-03,            0.,NA,NA,"",   999.922E+03,   999.899E+03,   999.899E+03
C:/temp/Job-1.odb,Step-1,Increment      1: Step Time =    1.000,"P-1-1",          4809,   3.26094E-03,   195.220E-03,            0.,NA,NA,"",   1.36463E+06,   1.43474E+06,   1.43474E+06
C:/temp/Job-1.odb,Step-1,Increment      1: Step Time =    1.000,"P-1-1",          4810,   196.832E-03,   24.7268E-03,            0.,NA,NA,"",   1.00030E+06,   1.00013E+06,   1.00013E+06
C:/temp/Job-1.odb,Step-1,Increment      1: Step Time =    1.000,"P-1-1",          4811,   25.0302E-03,   196.847E-03,            0.,NA,NA,"",   1.05310E+06,   1.05421E+06,   1.05421E+06
C:/temp/Job-1.odb,Step-1,Increment      1: Step Time =    1.000,"P-1-1",          4812,   175.344E-03,   196.924E-03,            0.,NA,NA,"",   998.521E+03,   998.488E+03,   998.488E+03
C:/temp/Job-1.odb,Step-1,Increment      1: Step Time =    1.000,"P-1-1",          4813,   24.8244E-03,   3.07858E-03,            0.,NA,NA,"",   1.05377E+06,   1.05475E+06,   1.05475E+06
C:/temp/Job-1.odb,Step-1,Increment      1: Step Time =    1.000,"P-1-1",          4814,   3.03405E-03,   24.9519E-03,            0.,NA,NA,"",   960.088E+03,   1.06273E+06,   1.06273E+06
C:/temp/Job-1.odb,Step-1,Increment      1: Step Time =    1.000,"P-1-1",          4815,   3.00060E-03,   175.252E-03,            0.,NA,NA,"",   961.250E+03,   1.06398E+06,   1.06398E+06
C:/temp/Job-1.odb,Step-1,Increment      1: Step Time =    1.000,"P-1-1",          4816,   60.3787E-03,   196.983E-03,            0.,NA,NA,"",   963.818E+03,   963.807E+03,   963.807E+03
C:/temp/Job-1.odb,Step-1,Increment      1: Step Time =    1.000,"P-1-1",          4817,   197.019E-03,   139.522E-03,            0.,NA,NA,"",   986.851E+03,   1.00022E+06,   1.00022E+06
C:/temp/Job-1.odb,Step-1,Increment      1: Step Time =    1.000,"P-1-1",          4818,   3.27381E-03,   60.6072E-03,            0.,NA,NA,"",   832.628E+03,   934.974E+03,   934.974E+03
C:/temp/Job-1.odb,Step-1,Increment      1: Step Time =    1.000,"P-1-1",          4819,   139.451E-03,   3.22432E-03,            0.,NA,NA,"",   976.513E+03,   976.399E+03,   976.399E+03
C:/temp/Job-1.odb,Step-1,Increment      1: Step Time =    1.000,"P-1-1",          4820,   169.295E-03,   197.146E-03,            0.,NA,NA,"",   997.399E+03,   997.350E+03,   997.350E+03
C:/temp/Job-1.odb,Step-1,Increment      1: Step Time =    1.000,"P-1-1",          4821,   31.0639E-03,   196.966E-03,            0.,NA,NA,"",   1.02417E+06,   1.02466E+06,   1.02466E+06
C:/temp/Job-1.odb,Step-1,Increment      1: Step Time =    1.000,"P-1-1",          4822,   197.164E-03,   30.7843E-03,            0.,NA,NA,"",   999.840E+03,   1.00016E+06,   1.00016E+06
C:/temp/Job-1.odb,Step-1,Increment      1: Step Time =    1.000,"P-1-1",          4823,   3.16306E-03,   169.055E-03,            0.,NA,NA,"",   926.892E+03,   1.02985E+06,   1.02985E+06
C:/temp/Job-1.odb,Step-1,Increment      1: Step Time =    1.000,"P-1-1",          4824,   3.16972E-03,   31.1225E-03,            0.,NA,NA,"",   926.207E+03,   1.02917E+06,   1.02917E+06
C:/temp/Job-1.odb,Step-1,Increment      1: Step Time =    1.000,"P-1-1",          4825,   31.0177E-03,   3.10915E-03,            0.,NA,NA,"",   1.02486E+06,   1.02541E+06,   1.02541E+06
C:/temp/Job-1.odb,Step-1,Increment      1: Step Time =    1.000,"P-1-1",          4826,   197.056E-03,   27.8187E-03,            0.,NA,NA,"",   1.00012E+06,   1.00014E+06,   1.00014E+06
C:/temp/Job-1.odb,Step-1,Increment      1: Step Time =    1.000,"P-1-1",          4827,   28.1004E-03,   197.015E-03,            0.,NA,NA,"",   1.03587E+06,   1.03655E+06,   1.03655E+06
C:/temp/Job-1.odb,Step-1,Increment      1: Step Time =    1.000,"P-1-1",          4828,   172.277E-03,   197.078E-03,            0.,NA,NA,"",   998.025E+03,   997.985E+03,   997.985E+03
C:/temp/Job-1.odb,Step-1,Increment      1: Step Time =    1.000,"P-1-1",          4829,   196.988E-03,   171.943E-03,            0.,NA,NA,"",   1.00010E+06,   1.00015E+06,   1.00015E+06
C:/temp/Job-1.odb,Step-1,Increment      1: Step Time =    1.000,"P-1-1",          4830,   27.9141E-03,   3.09104E-03,            0.,NA,NA,"",   1.03774E+06,   1.03847E+06,   1.03847E+06
C:/temp/Job-1.odb,Step-1,Increment      1: Step Time =    1.000,"P-1-1",          4831,   3.09398E-03,   28.0365E-03,            0.,NA,NA,"",   941.742E+03,   1.04461E+06,   1.04461E+06
C:/temp/Job-1.odb,Step-1,Increment      1: Step Time =    1.000,"P-1-1",          4832,   3.09954E-03,   172.175E-03,            0.,NA,NA,"",   942.971E+03,   1.04579E+06,   1.04579E+06
C:/temp/Job-1.odb,Step-1,Increment      1: Step Time =    1.000,"P-1-1",          4833,   171.977E-03,   3.23882E-03,            0.,NA,NA,"",   998.017E+03,   997.963E+03,   997.963E+03
C:/temp/Job-1.odb,Step-1,Increment      1: Step Time =    1.000,"P-1-1",          4834,   89.0023E-03,   87.9483E-03,            0.,NA,NA,"",   1.30601E+06,   1.25820E+06,   1.25820E+06
C:/temp/Job-1.odb,Step-1,Increment      1: Step Time =    1.000,"P-1-1",          4835,   92.9830E-03,   111.866E-03,            0.,NA,NA,"",   1.73461E+06,   1.77885E+06,   1.77885E+06
C:/temp/Job-1.odb,Step-1,Increment      1: Step Time =    1.000,"P-1-1",          4836,   195.246E-03,   129.754E-03,            0.,NA,NA,"",   980.347E+03,   1.00011E+06,   1.00011E+06
C:/temp/Job-1.odb,Step-1,Increment      1: Step Time =    1.000,"P-1-1",          4837,   4.67578E-03,   130.148E-03,            0.,NA,NA,"",   816.621E+03,   916.855E+03,   916.855E+03
C:/temp/Job-1.odb,Step-1,Increment      1: Step Time =    1.000,"P-1-1",          4838,   130.045E-03,   195.210E-03,            0.,NA,NA,"",   967.231E+03,   967.135E+03,   967.135E+03
C:/temp/Job-1.odb,Step-1,Increment      1: Step Time =    1.000,"P-1-1",          4839,   130.115E-03,   4.59040E-03,            0.,NA,NA,"",   966.836E+03,   966.764E+03,   966.764E+03
C:/temp/Job-1.odb,Step-1,Increment      1: Step Time =    1.000,"P-1-1",          4840,   69.9699E-03,   4.56191E-03,            0.,NA,NA,"",   956.978E+03,   957.046E+03,   957.046E+03
C:/temp/Job-1.odb,Step-1,Increment      1: Step Time =    1.000,"P-1-1",          4841,   195.179E-03,   70.0015E-03,            0.,NA,NA,"",   980.680E+03,   1.00015E+06,   1.00015E+06
C:/temp/Job-1.odb,Step-1,Increment      1: Step Time =    1.000,"P-1-1",          4842,   70.1833E-03,   195.254E-03,            0.,NA,NA,"",   957.167E+03,   957.224E+03,   957.224E+03
C:/temp/Job-1.odb,Step-1,Increment      1: Step Time =    1.000,"P-1-1",          4843,   4.64049E-03,   70.0217E-03,            0.,NA,NA,"",   816.173E+03,   916.437E+03,   916.437E+03
C:/temp/Job-1.odb,Step-1,Increment      1: Step Time =    1.000,"P-1-1",          4844,   195.150E-03,   44.5444E-03,            0.,NA,NA,"",   996.568E+03,   1.00062E+06,   1.00062E+06
C:/temp/Job-1.odb,Step-1,Increment      1: Step Time =    1.000,"P-1-1",          4845,   4.54062E-03,   155.108E-03,            0.,NA,NA,"",   879.784E+03,   980.910E+03,   980.910E+03
C:/temp/Job-1.odb,Step-1,Increment      1: Step Time =    1.000,"P-1-1",          4846,   44.9259E-03,   4.66678E-03,            0.,NA,NA,"",   995.849E+03,   996.140E+03,   996.140E+03
C:/temp/Job-1.odb,Step-1,Increment      1: Step Time =    1.000,"P-1-1",          4847,   195.818E-03,   155.471E-03,            0.,NA,NA,"",   996.502E+03,   1.00051E+06,   1.00051E+06
C:/temp/Job-1.odb,Step-1,Increment      1: Step Time =    1.000,"P-1-1",          4848,   154.801E-03,   4.19423E-03,            0.,NA,NA,"",   991.842E+03,   991.645E+03,   991.645E+03
C:/temp/Job-1.odb,Step-1,Increment      1: Step Time =    1.000,"P-1-1",          4849,   44.6906E-03,   195.832E-03,            0.,NA,NA,"",   994.385E+03,   994.672E+03,   994.672E+03
C:/temp/Job-1.odb,Step-1,Increment      1: Step Time =    1.000,"P-1-1",          4850,   155.460E-03,   195.153E-03,            0.,NA,NA,"",   992.574E+03,   992.336E+03,   992.336E+03
C:/temp/Job-1.odb,Step-1,Increment      1: Step Time =    1.000,"P-1-1",          4851,   4.19217E-03,   45.1075E-03,            0.,NA,NA,"",   877.519E+03,   979.244E+03,   979.244E+03
C:/temp/Job-1.odb,Step-1,Increment      1: Step Time =    1.000,"P-1-1",          4852,   194.897E-03,   41.3368E-03,            0.,NA,NA,"",   997.807E+03,   1.00066E+06,   1.00066E+06
C:/temp/Job-1.odb,Step-1,Increment      1: Step Time =    1.000,"P-1-1",          4853,   4.63034E-03,   159.707E-03,            0.,NA,NA,"",   895.690E+03,   996.423E+03,   996.423E+03
C:/temp/Job-1.odb,Step-1,Increment      1: Step Time =    1.000,"P-1-1",          4854,   40.3068E-03,   4.77489E-03,            0.,NA,NA,"",   1.00647E+06,   1.00694E+06,   1.00694E+06
C:/temp/Job-1.odb,Step-1,Increment      1: Step Time =    1.000,"P-1-1",          4855,   40.1445E-03,   195.051E-03,            0.,NA,NA,"",   1.00765E+06,   1.00819E+06,   1.00819E+06
C:/temp/Job-1.odb,Step-1,Increment      1: Step Time =    1.000,"P-1-1",          4856,   159.151E-03,   4.19646E-03,            0.,NA,NA,"",   994.261E+03,   994.088E+03,   994.088E+03
C:/temp/Job-1.odb,Step-1,Increment      1: Step Time =    1.000,"P-1-1",          4857,   195.100E-03,   159.928E-03,            0.,NA,NA,"",   998.096E+03,   1.00061E+06,   1.00061E+06
C:/temp/Job-1.odb,Step-1,Increment      1: Step Time =    1.000,"P-1-1",          4858,   158.683E-03,   194.882E-03,            0.,NA,NA,"",   994.546E+03,   994.294E+03,   994.294E+03
C:/temp/Job-1.odb,Step-1,Increment      1: Step Time =    1.000,"P-1-1",          4859,   4.17017E-03,   40.7554E-03,            0.,NA,NA,"",   891.873E+03,   993.482E+03,   993.482E+03
C:/temp/Job-1.odb,Step-1,Increment      1: Step Time =    1.000,"P-1-1",          4860,   4.50419E-03,   125.596E-03,            0.,NA,NA,"",   807.314E+03,   907.399E+03,   907.399E+03
C:/temp/Job-1.odb,Step-1,Increment      1: Step Time =    1.000,"P-1-1",          4861,   126.174E-03,   195.222E-03,            0.,NA,NA,"",   961.738E+03,   961.729E+03,   961.729E+03
C:/temp/Job-1.odb,Step-1,Increment      1: Step Time =    1.000,"P-1-1",          4862,   74.4227E-03,   4.34537E-03,            0.,NA,NA,"",   950.803E+03,   950.936E+03,   950.936E+03
C:/temp/Job-1.odb,Step-1,Increment      1: Step Time =    1.000,"P-1-1",          4863,   194.930E-03,   126.503E-03,            0.,NA,NA,"",   977.922E+03,   999.909E+03,   999.909E+03
C:/temp/Job-1.odb,Step-1,Increment      1: Step Time =    1.000,"P-1-1",          4864,   125.545E-03,   4.59850E-03,            0.,NA,NA,"",   960.728E+03,   960.735E+03,   960.735E+03
C:/temp/Job-1.odb,Step-1,Increment      1: Step Time =    1.000,"P-1-1",          4865,   73.4165E-03,   195.000E-03,            0.,NA,NA,"",   954.018E+03,   954.155E+03,   954.155E+03
C:/temp/Job-1.odb,Step-1,Increment      1: Step Time =    1.000,"P-1-1",          4866,   4.54177E-03,   74.5927E-03,            0.,NA,NA,"",   807.022E+03,   907.084E+03,   907.084E+03
C:/temp/Job-1.odb,Step-1,Increment      1: Step Time =    1.000,"P-1-1",          4867,   195.211E-03,   73.8688E-03,            0.,NA,NA,"",   977.424E+03,   999.904E+03,   999.904E+03
C:/temp/Job-1.odb,Step-1,Increment      1: Step Time =    1.000,"P-1-1",          4868,   195.901E-03,   11.2236E-03,            0.,NA,NA,"",   1.00015E+06,   999.996E+03,   999.996E+03
C:/temp/Job-1.odb,Step-1,Increment      1: Step Time =    1.000,"P-1-1",          4869,   188.745E-03,   4.55416E-03,            0.,NA,NA,"",   999.675E+03,   999.661E+03,   999.661E+03
C:/temp/Job-1.odb,Step-1,Increment      1: Step Time =    1.000,"P-1-1",          4870,   11.1253E-03,   195.386E-03,            0.,NA,NA,"",   1.21819E+06,   1.22944E+06,   1.22944E+06
C:/temp/Job-1.odb,Step-1,Increment      1: Step Time =    1.000,"P-1-1",          4871,   4.67375E-03,   188.555E-03,            0.,NA,NA,"",   1.13419E+06,   1.21887E+06,   1.21887E+06
C:/temp/Job-1.odb,Step-1,Increment      1: Step Time =    1.000,"P-1-1",          4872,   195.569E-03,   188.899E-03,            0.,NA,NA,"",   1.00014E+06,   999.994E+03,   999.994E+03
C:/temp/Job-1.odb,Step-1,Increment      1: Step Time =    1.000,"P-1-1",          4873,   4.53496E-03,   11.2830E-03,            0.,NA,NA,"",   1.13604E+06,   1.22165E+06,   1.22165E+06
C:/temp/Job-1.odb,Step-1,Increment      1: Step Time =    1.000,"P-1-1",          4874,   11.2355E-03,   4.20413E-03,            0.,NA,NA,"",   1.21571E+06,   1.22516E+06,   1.22516E+06
C:/temp/Job-1.odb,Step-1,Increment      1: Step Time =    1.000,"P-1-1",          4875,   188.858E-03,   195.925E-03,            0.,NA,NA,"",   999.661E+03,   999.650E+03,   999.650E+03
C:/temp/Job-1.odb,Step-1,Increment      1: Step Time =    1.000,"P-1-1",          4876,   92.1096E-03,   113.027E-03,            0.,NA,NA,"",   1.52492E+06,   1.57166E+06,   1.57166E+06
C:/temp/Job-1.odb,Step-1,Increment      1: Step Time =    1.000,"P-1-1",          4877,   107.176E-03,   114.044E-03,            0.,NA,NA,"",   1.61825E+06,   1.67972E+06,   1.67972E+06
C:/temp/Job-1.odb,Step-1,Increment      1: Step Time =    1.000,"P-1-1",          4878,   108.501E-03,   113.688E-03,            0.,NA,NA,"",   1.52463E+06,   1.55198E+06,   1.55198E+06
C:/temp/Job-1.odb,Step-1,Increment      1: Step Time =    1.000,"P-1-1",          4879,   90.8315E-03,   112.067E-03,            0.,NA,NA,"",   1.38829E+06,   1.39714E+06,   1.39714E+06
C:/temp/Job-1.odb,Step-1,Increment      1: Step Time =    1.000,"P-1-1",          4880,   4.52821E-03,   96.0418E-03,            0.,NA,NA,"",   781.989E+03,   881.085E+03,   881.085E+03
C:/temp/Job-1.odb,Step-1,Increment      1: Step Time =    1.000,"P-1-1",          4881,   95.6865E-03,   195.321E-03,            0.,NA,NA,"",   937.187E+03,   937.621E+03,   937.621E+03
C:/temp/Job-1.odb,Step-1,Increment      1: Step Time =    1.000,"P-1-1",          4882,   195.394E-03,   104.331E-03,            0.,NA,NA,"",   965.462E+03,   998.915E+03,   998.915E+03
C:/temp/Job-1.odb,Step-1,Increment      1: Step Time =    1.000,"P-1-1",          4883,   4.91896E-03,   103.815E-03,            0.,NA,NA,"",   782.584E+03,   881.441E+03,   881.441E+03
C:/temp/Job-1.odb,Step-1,Increment      1: Step Time =    1.000,"P-1-1",          4884,   103.916E-03,   4.68754E-03,            0.,NA,NA,"",   938.869E+03,   939.292E+03,   939.292E+03
C:/temp/Job-1.odb,Step-1,Increment      1: Step Time =    1.000,"P-1-1",          4885,   102.985E-03,   194.666E-03,            0.,NA,NA,"",   940.959E+03,   941.459E+03,   941.459E+03
C:/temp/Job-1.odb,Step-1,Increment      1: Step Time =    1.000,"P-1-1",          4886,   96.0728E-03,   4.94996E-03,            0.,NA,NA,"",   938.348E+03,   938.844E+03,   938.844E+03
C:/temp/Job-1.odb,Step-1,Increment      1: Step Time =    1.000,"P-1-1",          4887,   194.775E-03,   97.0604E-03,            0.,NA,NA,"",   965.857E+03,   998.655E+03,   998.655E+03
C:/temp/Job-1.odb,Step-1,Increment      1: Step Time =    1.000,"P-1-1",          4888,   181.638E-03,   195.584E-03,            0.,NA,NA,"",   999.286E+03,   999.259E+03,   999.259E+03
C:/temp/Job-1.odb,Step-1,Increment      1: Step Time =    1.000,"P-1-1",          4889,   4.43904E-03,   18.8574E-03,            0.,NA,NA,"",   1.02097E+06,   1.11666E+06,   1.11666E+06
C:/temp/Job-1.odb,Step-1,Increment      1: Step Time =    1.000,"P-1-1",          4890,   18.6927E-03,   4.52543E-03,            0.,NA,NA,"",   1.11217E+06,   1.11594E+06,   1.11594E+06
C:/temp/Job-1.odb,Step-1,Increment      1: Step Time =    1.000,"P-1-1",          4891,   195.409E-03,   181.455E-03,            0.,NA,NA,"",   1.00033E+06,   1.00013E+06,   1.00013E+06
C:/temp/Job-1.odb,Step-1,Increment      1: Step Time =    1.000,"P-1-1",          4892,   18.7691E-03,   195.307E-03,            0.,NA,NA,"",   1.11242E+06,   1.11645E+06,   1.11645E+06
C:/temp/Job-1.odb,Step-1,Increment      1: Step Time =    1.000,"P-1-1",          4893,   4.02907E-03,   181.167E-03,            0.,NA,NA,"",   1.01811E+06,   1.11542E+06,   1.11542E+06
C:/temp/Job-1.odb,Step-1,Increment      1: Step Time =    1.000,"P-1-1",          4894,   195.863E-03,   18.3590E-03,            0.,NA,NA,"",   1.00033E+06,   1.00009E+06,   1.00009E+06
C:/temp/Job-1.odb,Step-1,Increment      1: Step Time =    1.000,"P-1-1",          4895,   181.206E-03,   4.53770E-03,            0.,NA,NA,"",   999.267E+03,   999.236E+03,   999.236E+03
C:/temp/Job-1.odb,Step-1,Increment      1: Step Time =    1.000,"P-1-1",          4896,   195.799E-03,   67.4221E-03,            0.,NA,NA,"",   982.145E+03,   1.00017E+06,   1.00017E+06
C:/temp/Job-1.odb,Step-1,Increment      1: Step Time =    1.000,"P-1-1",          4897,   4.76100E-03,   67.0091E-03,            0.,NA,NA,"",   822.903E+03,   923.232E+03,   923.232E+03
C:/temp/Job-1.odb,Step-1,Increment      1: Step Time =    1.000,"P-1-1",          4898,   132.629E-03,   195.819E-03,            0.,NA,NA,"",   969.239E+03,   969.146E+03,   969.146E+03
C:/temp/Job-1.odb,Step-1,Increment      1: Step Time =    1.000,"P-1-1",          4899,   66.6383E-03,   195.378E-03,            0.,NA,NA,"",   961.472E+03,   961.507E+03,   961.507E+03
C:/temp/Job-1.odb,Step-1,Increment      1: Step Time =    1.000,"P-1-1",          4900,   66.8197E-03,   4.97764E-03,            0.,NA,NA,"",   962.757E+03,   962.818E+03,   962.818E+03
C:/temp/Job-1.odb,Step-1,Increment      1: Step Time =    1.000,"P-1-1",          4901,   133.129E-03,   4.71076E-03,            0.,NA,NA,"",   971.025E+03,   970.884E+03,   970.884E+03
C:/temp/Job-1.odb,Step-1,Increment      1: Step Time =    1.000,"P-1-1",          4902,   5.00041E-03,   133.314E-03,            0.,NA,NA,"",   824.396E+03,   924.471E+03,   924.471E+03
C:/temp/Job-1.odb,Step-1,Increment      1: Step Time =    1.000,"P-1-1",          4903,   195.410E-03,   133.282E-03,            0.,NA,NA,"",   982.928E+03,   1.00023E+06,   1.00023E+06
C:/temp/Job-1.odb,Step-1,Increment      1: Step Time =    1.000,"P-1-1",          4904,   151.959E-03,   195.256E-03,            0.,NA,NA,"",   990.333E+03,   990.074E+03,   990.074E+03
C:/temp/Job-1.odb,Step-1,Increment      1: Step Time =    1.000,"P-1-1",          4905,   4.37330E-03,   48.0627E-03,            0.,NA,NA,"",   869.348E+03,   970.821E+03,   970.821E+03
C:/temp/Job-1.odb,Step-1,Increment      1: Step Time =    1.000,"P-1-1",          4906,   195.528E-03,   153.018E-03,            0.,NA,NA,"",   995.552E+03,   1.00059E+06,   1.00059E+06
C:/temp/Job-1.odb,Step-1,Increment      1: Step Time =    1.000,"P-1-1",          4907,   195.227E-03,   48.0463E-03,            0.,NA,NA,"",   995.154E+03,   1.00065E+06,   1.00065E+06
C:/temp/Job-1.odb,Step-1,Increment      1: Step Time =    1.000,"P-1-1",          4908,   47.1048E-03,   195.934E-03,            0.,NA,NA,"",   989.048E+03,   989.234E+03,   989.234E+03
C:/temp/Job-1.odb,Step-1,Increment      1: Step Time =    1.000,"P-1-1",          4909,   151.832E-03,   4.32903E-03,            0.,NA,NA,"",   989.920E+03,   989.699E+03,   989.699E+03
C:/temp/Job-1.odb,Step-1,Increment      1: Step Time =    1.000,"P-1-1",          4910,   4.59931E-03,   152.089E-03,            0.,NA,NA,"",   870.759E+03,   971.866E+03,   971.866E+03
C:/temp/Job-1.odb,Step-1,Increment      1: Step Time =    1.000,"P-1-1",          4911,   47.9440E-03,   4.68195E-03,            0.,NA,NA,"",   990.147E+03,   990.320E+03,   990.320E+03
C:/temp/Job-1.odb,Step-1,Increment      1: Step Time =    1.000,"P-1-1",          4912,   162.132E-03,   194.403E-03,            0.,NA,NA,"",   996.216E+03,   995.946E+03,   995.946E+03
C:/temp/Job-1.odb,Step-1,Increment      1: Step Time =    1.000,"P-1-1",          4913,   4.61307E-03,   37.7907E-03,            0.,NA,NA,"",   904.882E+03,   1.00545E+06,   1.00545E+06
C:/temp/Job-1.odb,Step-1,Increment      1: Step Time =    1.000,"P-1-1",          4914,   195.098E-03,   162.729E-03,            0.,NA,NA,"",   998.794E+03,   1.00057E+06,   1.00057E+06
C:/temp/Job-1.odb,Step-1,Increment      1: Step Time =    1.000,"P-1-1",          4915,   37.2263E-03,   4.77560E-03,            0.,NA,NA,"",   1.01443E+06,   1.01510E+06,   1.01510E+06
C:/temp/Job-1.odb,Step-1,Increment      1: Step Time =    1.000,"P-1-1",          4916,   194.430E-03,   37.9266E-03,            0.,NA,NA,"",   998.800E+03,   1.00076E+06,   1.00076E+06
C:/temp/Job-1.odb,Step-1,Increment      1: Step Time =    1.000,"P-1-1",          4917,   162.121E-03,   4.64766E-03,            0.,NA,NA,"",   995.737E+03,   995.549E+03,   995.549E+03
C:/temp/Job-1.odb,Step-1,Increment      1: Step Time =    1.000,"P-1-1",          4918,   37.3508E-03,   195.075E-03,            0.,NA,NA,"",   1.01479E+06,   1.01543E+06,   1.01543E+06
C:/temp/Job-1.odb,Step-1,Increment      1: Step Time =    1.000,"P-1-1",          4919,   4.75005E-03,   162.813E-03,            0.,NA,NA,"",   907.914E+03,   1.00816E+06,   1.00816E+06
C:/temp/Job-1.odb,Step-1,Increment      1: Step Time =    1.000,"P-1-1",          4920,   117.540E-03,   98.2951E-03,            0.,NA,NA,"",   316.797E+03,   4.52570E+03,   4.52570E+03
C:/temp/Job-1.odb,Step-1,Increment      1: Step Time =    1.000,"P-1-1",          4921,   81.9064E-03,   98.4851E-03,            0.,NA,NA,"",   285.560E+03,   152.458E+03,   152.458E+03
C:/temp/Job-1.odb,Step-1,Increment      1: Step Time =    1.000,"P-1-1",          4922,   195.108E-03,   77.3670E-03,            0.,NA,NA,"",   975.045E+03,   999.684E+03,   999.684E+03
C:/temp/Job-1.odb,Step-1,Increment      1: Step Time =    1.000,"P-1-1",          4923,   4.55433E-03,   77.6652E-03,            0.,NA,NA,"",   801.623E+03,   901.479E+03,   901.479E+03
C:/temp/Job-1.odb,Step-1,Increment      1: Step Time =    1.000,"P-1-1",          4924,   122.672E-03,   195.061E-03,            0.,NA,NA,"",   958.003E+03,   958.073E+03,   958.073E+03
C:/temp/Job-1.odb,Step-1,Increment      1: Step Time =    1.000,"P-1-1",          4925,   76.8506E-03,   194.548E-03,            0.,NA,NA,"",   952.633E+03,   952.925E+03,   952.925E+03
C:/temp/Job-1.odb,Step-1,Increment      1: Step Time =    1.000,"P-1-1",          4926,   122.486E-03,   4.65177E-03,            0.,NA,NA,"",   956.838E+03,   956.913E+03,   956.913E+03
C:/temp/Job-1.odb,Step-1,Increment      1: Step Time =    1.000,"P-1-1",          4927,   77.2928E-03,   4.56028E-03,            0.,NA,NA,"",   948.284E+03,   948.452E+03,   948.452E+03
C:/temp/Job-1.odb,Step-1,Increment      1: Step Time =    1.000,"P-1-1",          4928,   4.62428E-03,   122.616E-03,            0.,NA,NA,"",   802.240E+03,   902.073E+03,   902.073E+03
C:/temp/Job-1.odb,Step-1,Increment      1: Step Time =    1.000,"P-1-1",          4929,   194.462E-03,   123.002E-03,            0.,NA,NA,"",   975.892E+03,   999.594E+03,   999.594E+03
C:/temp/Job-1.odb,Step-1,Increment      1: Step Time =    1.000,"P-1-1",          4930,   100.831E-03,   117.152E-03,            0.,NA,NA,"",   1.59209E+06,   1.74791E+06,   1.74791E+06
C:/temp/Job-1.odb,Step-1,Increment      1: Step Time =    1.000,"P-1-1",          4931,   4.83251E-03,   8.13710E-03,            0.,NA,NA,"",   1.22339E+06,   1.29485E+06,   1.29485E+06
C:/temp/Job-1.odb,Step-1,Increment      1: Step Time =    1.000,"P-1-1",          4932,   191.873E-03,   195.553E-03,            0.,NA,NA,"",   999.808E+03,   999.787E+03,   999.787E+03
C:/temp/Job-1.odb,Step-1,Increment      1: Step Time =    1.000,"P-1-1",          4933,   8.18981E-03,   4.53064E-03,            0.,NA,NA,"",   1.28324E+06,   1.30204E+06,   1.30204E+06
C:/temp/Job-1.odb,Step-1,Increment      1: Step Time =    1.000,"P-1-1",          4934,   195.278E-03,   191.993E-03,            0.,NA,NA,"",   1.00004E+06,   999.944E+03,   999.944E+03
C:/temp/Job-1.odb,Step-1,Increment      1: Step Time =    1.000,"P-1-1",          4935,   7.99696E-03,   195.257E-03,            0.,NA,NA,"",   1.28600E+06,   1.30701E+06,   1.30701E+06
C:/temp/Job-1.odb,Step-1,Increment      1: Step Time =    1.000,"P-1-1",          4936,   4.99101E-03,   191.884E-03,            0.,NA,NA,"",   1.22509E+06,   1.29505E+06,   1.29505E+06
C:/temp/Job-1.odb,Step-1,Increment      1: Step Time =    1.000,"P-1-1",          4937,   195.505E-03,   8.20588E-03,            0.,NA,NA,"",   1.00005E+06,   999.951E+03,   999.951E+03
C:/temp/Job-1.odb,Step-1,Increment      1: Step Time =    1.000,"P-1-1",          4938,   191.880E-03,   4.85542E-03,            0.,NA,NA,"",   999.822E+03,   999.796E+03,   999.796E+03
C:/temp/Job-1.odb,Step-1,Increment      1: Step Time =    1.000,"P-1-1",          4939,   195.563E-03,   107.154E-03,            0.,NA,NA,"",   965.953E+03,   999.027E+03,   999.027E+03
C:/temp/Job-1.odb,Step-1,Increment      1: Step Time =    1.000,"P-1-1",          4940,   106.968E-03,   4.69568E-03,            0.,NA,NA,"",   940.678E+03,   941.091E+03,   941.091E+03
C:/temp/Job-1.odb,Step-1,Increment      1: Step Time =    1.000,"P-1-1",          4941,   106.916E-03,   194.462E-03,            0.,NA,NA,"",   943.901E+03,   944.413E+03,   944.413E+03
C:/temp/Job-1.odb,Step-1,Increment      1: Step Time =    1.000,"P-1-1",          4942,   92.8685E-03,   195.464E-03,            0.,NA,NA,"",   937.057E+03,   937.463E+03,   937.463E+03
C:/temp/Job-1.odb,Step-1,Increment      1: Step Time =    1.000,"P-1-1",          4943,   4.57844E-03,   93.0330E-03,            0.,NA,NA,"",   783.512E+03,   882.636E+03,   882.636E+03
C:/temp/Job-1.odb,Step-1,Increment      1: Step Time =    1.000,"P-1-1",          4944,   4.75648E-03,   107.073E-03,            0.,NA,NA,"",   783.883E+03,   882.896E+03,   882.896E+03
C:/temp/Job-1.odb,Step-1,Increment      1: Step Time =    1.000,"P-1-1",          4945,   92.8275E-03,   4.69440E-03,            0.,NA,NA,"",   937.844E+03,   938.263E+03,   938.263E+03
C:/temp/Job-1.odb,Step-1,Increment      1: Step Time =    1.000,"P-1-1",          4946,   194.463E-03,   93.1524E-03,            0.,NA,NA,"",   966.934E+03,   998.557E+03,   998.557E+03
C:/temp/Job-1.odb,Step-1,Increment      1: Step Time =    1.000,"P-1-1",          4947,   4.48039E-03,   21.9307E-03,            0.,NA,NA,"",   992.537E+03,   1.08976E+06,   1.08976E+06
C:/temp/Job-1.odb,Step-1,Increment      1: Step Time =    1.000,"P-1-1",          4948,   178.554E-03,   195.321E-03,            0.,NA,NA,"",   999.094E+03,   999.045E+03,   999.045E+03
C:/temp/Job-1.odb,Step-1,Increment      1: Step Time =    1.000,"P-1-1",          4949,   21.7571E-03,   4.59357E-03,            0.,NA,NA,"",   1.08586E+06,   1.08864E+06,   1.08864E+06
C:/temp/Job-1.odb,Step-1,Increment      1: Step Time =    1.000,"P-1-1",          4950,   195.145E-03,   178.358E-03,            0.,NA,NA,"",   1.00034E+06,   1.00021E+06,   1.00021E+06
C:/temp/Job-1.odb,Step-1,Increment      1: Step Time =    1.000,"P-1-1",          4951,   21.8834E-03,   195.054E-03,            0.,NA,NA,"",   1.08736E+06,   1.09051E+06,   1.09051E+06
C:/temp/Job-1.odb,Step-1,Increment      1: Step Time =    1.000,"P-1-1",          4952,   195.479E-03,   21.3058E-03,            0.,NA,NA,"",   1.00034E+06,   1.00018E+06,   1.00018E+06
C:/temp/Job-1.odb,Step-1,Increment      1: Step Time =    1.000,"P-1-1",          4953,   4.31475E-03,   178.329E-03,            0.,NA,NA,"",   993.450E+03,   1.09122E+06,   1.09122E+06
C:/temp/Job-1.odb,Step-1,Increment      1: Step Time =    1.000,"P-1-1",          4954,   178.163E-03,   4.62008E-03,            0.,NA,NA,"",   999.044E+03,   998.994E+03,   998.994E+03
C:/temp/Job-1.odb,Step-1,Increment      1: Step Time =    1.000,"P-1-1",          4955,   4.85719E-03,   63.9015E-03,            0.,NA,NA,"",   830.134E+03,   930.521E+03,   930.521E+03
C:/temp/Job-1.odb,Step-1,Increment      1: Step Time =    1.000,"P-1-1",          4956,   195.968E-03,   64.6943E-03,            0.,NA,NA,"",   984.166E+03,   1.00022E+06,   1.00022E+06
C:/temp/Job-1.odb,Step-1,Increment      1: Step Time =    1.000,"P-1-1",          4957,   63.3126E-03,   195.417E-03,            0.,NA,NA,"",   966.016E+03,   966.027E+03,   966.027E+03
C:/temp/Job-1.odb,Step-1,Increment      1: Step Time =    1.000,"P-1-1",          4958,   135.362E-03,   195.979E-03,            0.,NA,NA,"",   972.559E+03,   972.447E+03,   972.447E+03
C:/temp/Job-1.odb,Step-1,Increment      1: Step Time =    1.000,"P-1-1",          4959,   63.5636E-03,   5.05301E-03,            0.,NA,NA,"",   967.491E+03,   967.500E+03,   967.500E+03
C:/temp/Job-1.odb,Step-1,Increment      1: Step Time =    1.000,"P-1-1",          4960,   136.226E-03,   4.81565E-03,            0.,NA,NA,"",   975.062E+03,   974.875E+03,   974.875E+03
C:/temp/Job-1.odb,Step-1,Increment      1: Step Time =    1.000,"P-1-1",          4961,   195.443E-03,   136.560E-03,            0.,NA,NA,"",   985.480E+03,   1.00035E+06,   1.00035E+06
C:/temp/Job-1.odb,Step-1,Increment      1: Step Time =    1.000,"P-1-1",          4962,   4.97728E-03,   136.554E-03,            0.,NA,NA,"",   831.701E+03,   931.953E+03,   931.953E+03
C:/temp/Job-1.odb,Step-1,Increment      1: Step Time =    1.000,"P-1-1",          4963,   148.984E-03,   195.124E-03,            0.,NA,NA,"",   988.282E+03,   987.997E+03,   987.997E+03
C:/temp/Job-1.odb,Step-1,Increment      1: Step Time =    1.000,"P-1-1",          4964,   4.55832E-03,   51.1072E-03,            0.,NA,NA,"",   861.415E+03,   962.598E+03,   962.598E+03
C:/temp/Job-1.odb,Step-1,Increment      1: Step Time =    1.000,"P-1-1",          4965,   195.478E-03,   150.097E-03,            0.,NA,NA,"",   994.183E+03,   1.00061E+06,   1.00061E+06
C:/temp/Job-1.odb,Step-1,Increment      1: Step Time =    1.000,"P-1-1",          4966,   195.057E-03,   51.0341E-03,            0.,NA,NA,"",   993.811E+03,   1.00071E+06,   1.00071E+06
C:/temp/Job-1.odb,Step-1,Increment      1: Step Time =    1.000,"P-1-1",          4967,   148.814E-03,   4.47998E-03,            0.,NA,NA,"",   987.693E+03,   987.451E+03,   987.451E+03
C:/temp/Job-1.odb,Step-1,Increment      1: Step Time =    1.000,"P-1-1",          4968,   49.8548E-03,   195.849E-03,            0.,NA,NA,"",   984.576E+03,   984.655E+03,   984.655E+03
C:/temp/Job-1.odb,Step-1,Increment      1: Step Time =    1.000,"P-1-1",          4969,   4.69441E-03,   149.040E-03,            0.,NA,NA,"",   862.314E+03,   963.304E+03,   963.304E+03
C:/temp/Job-1.odb,Step-1,Increment      1: Step Time =    1.000,"P-1-1",          4970,   50.9932E-03,   4.71052E-03,            0.,NA,NA,"",   984.948E+03,   985.069E+03,   985.069E+03
C:/temp/Job-1.odb,Step-1,Increment      1: Step Time =    1.000,"P-1-1",          4971,   165.367E-03,   195.206E-03,            0.,NA,NA,"",   996.858E+03,   996.691E+03,   996.691E+03
C:/temp/Job-1.odb,Step-1,Increment      1: Step Time =    1.000,"P-1-1",          4972,   4.93875E-03,   34.2949E-03,            0.,NA,NA,"",   921.184E+03,   1.02062E+06,   1.02062E+06
C:/temp/Job-1.odb,Step-1,Increment      1: Step Time =    1.000,"P-1-1",          4973,   195.135E-03,   166.057E-03,            0.,NA,NA,"",   999.454E+03,   1.00050E+06,   1.00050E+06
C:/temp/Job-1.odb,Step-1,Increment      1: Step Time =    1.000,"P-1-1",          4974,   34.1224E-03,   4.70977E-03,            0.,NA,NA,"",   1.02357E+06,   1.02448E+06,   1.02448E+06
C:/temp/Job-1.odb,Step-1,Increment      1: Step Time =    1.000,"P-1-1",          4975,   165.624E-03,   5.05363E-03,            0.,NA,NA,"",   997.069E+03,   996.882E+03,   996.882E+03
C:/temp/Job-1.odb,Step-1,Increment      1: Step Time =    1.000,"P-1-1",          4976,   195.281E-03,   34.7377E-03,            0.,NA,NA,"",   999.258E+03,   1.00047E+06,   1.00047E+06
C:/temp/Job-1.odb,Step-1,Increment      1: Step Time =    1.000,"P-1-1",          4977,   4.79300E-03,   165.939E-03,            0.,NA,NA,"",   921.201E+03,   1.02094E+06,   1.02094E+06
C:/temp/Job-1.odb,Step-1,Increment      1: Step Time =    1.000,"P-1-1",          4978,   34.0298E-03,   195.186E-03,            0.,NA,NA,"",   1.02466E+06,   1.02556E+06,   1.02556E+06
C:/temp/Job-1.odb,Step-1,Increment      1: Step Time =    1.000,"P-1-1",          4979,   86.9304E-03,   93.3951E-03,            0.,NA,NA,"",   577.925E+03,   296.448E+03,   296.448E+03
C:/temp/Job-1.odb,Step-1,Increment      1: Step Time =    1.000,"P-1-1",          4980,   113.909E-03,   102.020E-03,            0.,NA,NA,"",   581.333E+03,  -571.503E+03,  -571.503E+03
C:/temp/Job-1.odb,Step-1,Increment      1: Step Time =    1.000,"P-1-1",          4981,   86.0028E-03,   101.741E-03,            0.,NA,NA,"",   522.585E+03,  -516.219E+03,  -516.219E+03
C:/temp/Job-1.odb,Step-1,Increment      1: Step Time =    1.000,"P-1-1",          4982,   195.253E-03,   80.7269E-03,            0.,NA,NA,"",   972.422E+03,   999.455E+03,   999.455E+03
C:/temp/Job-1.odb,Step-1,Increment      1: Step Time =    1.000,"P-1-1",          4983,   4.62722E-03,   80.7474E-03,            0.,NA,NA,"",   796.842E+03,   896.459E+03,   896.459E+03
C:/temp/Job-1.odb,Step-1,Increment      1: Step Time =    1.000,"P-1-1",          4984,   79.9836E-03,   195.404E-03,            0.,NA,NA,"",   945.696E+03,   945.867E+03,   945.867E+03
C:/temp/Job-1.odb,Step-1,Increment      1: Step Time =    1.000,"P-1-1",          4985,   80.3479E-03,   4.67610E-03,            0.,NA,NA,"",   945.690E+03,   945.949E+03,   945.949E+03
C:/temp/Job-1.odb,Step-1,Increment      1: Step Time =    1.000,"P-1-1",          4986,   119.305E-03,   195.141E-03,            0.,NA,NA,"",   953.408E+03,   953.582E+03,   953.582E+03
C:/temp/Job-1.odb,Step-1,Increment      1: Step Time =    1.000,"P-1-1",          4987,   119.399E-03,   4.67881E-03,            0.,NA,NA,"",   953.013E+03,   953.159E+03,   953.159E+03
C:/temp/Job-1.odb,Step-1,Increment      1: Step Time =    1.000,"P-1-1",          4988,   4.71050E-03,   119.553E-03,            0.,NA,NA,"",   797.490E+03,   897.065E+03,   897.065E+03
C:/temp/Job-1.odb,Step-1,Increment      1: Step Time =    1.000,"P-1-1",          4989,   195.362E-03,   119.863E-03,            0.,NA,NA,"",   972.836E+03,   999.612E+03,   999.612E+03
C:/temp/Job-1.odb,Step-1,Increment      1: Step Time =    1.000,"P-1-1",          4990,   195.118E-03,   195.218E-03,            0.,NA,NA,"",   999.944E+03,   999.903E+03,   999.903E+03
C:/temp/Job-1.odb,Step-1,Increment      1: Step Time =    1.000,"P-1-1",          4991,   4.95090E-03,   4.86206E-03,            0.,NA,NA,"",   1.35650E+06,   1.39990E+06,   1.39990E+06
C:/temp/Job-1.odb,Step-1,Increment      1: Step Time =    1.000,"P-1-1",          4992,   4.85871E-03,   195.197E-03,            0.,NA,NA,"",   1.36133E+06,   1.40499E+06,   1.40499E+06
C:/temp/Job-1.odb,Step-1,Increment      1: Step Time =    1.000,"P-1-1",          4993,   195.146E-03,   4.96424E-03,            0.,NA,NA,"",   999.950E+03,   999.906E+03,   999.906E+03
C:/temp/Job-1.odb,Step-1,Increment      1: Step Time =    1.000,"P-1-1",          4994,   90.4025E-03,   87.0325E-03,            0.,NA,NA,"",   1.41788E+06,   1.41855E+06,   1.41855E+06
C:/temp/Job-1.odb,Step-1,Increment      1: Step Time =    1.000,"P-1-1",          4995,   109.737E-03,   195.374E-03,            0.,NA,NA,"",   942.507E+03,   942.822E+03,   942.822E+03
C:/temp/Job-1.odb,Step-1,Increment      1: Step Time =    1.000,"P-1-1",          4996,   110.062E-03,   4.69060E-03,            0.,NA,NA,"",   943.077E+03,   943.436E+03,   943.436E+03
C:/temp/Job-1.odb,Step-1,Increment      1: Step Time =    1.000,"P-1-1",          4997,   89.9270E-03,   195.368E-03,            0.,NA,NA,"",   938.510E+03,   938.916E+03,   938.916E+03
C:/temp/Job-1.odb,Step-1,Increment      1: Step Time =    1.000,"P-1-1",          4998,   89.6933E-03,   4.61292E-03,            0.,NA,NA,"",   938.639E+03,   939.019E+03,   939.019E+03
C:/temp/Job-1.odb,Step-1,Increment      1: Step Time =    1.000,"P-1-1",          4999,   4.64868E-03,   89.9944E-03,            0.,NA,NA,"",   785.850E+03,   885.021E+03,   885.021E+03
C:/temp/Job-1.odb,Step-1,Increment      1: Step Time =    1.000,"P-1-1",          5000,   195.555E-03,   110.075E-03,            0.,NA,NA,"",   966.989E+03,   999.104E+03,   999.104E+03
C:/temp/Job-1.odb,Step-1,Increment      1: Step Time =    1.000,"P-1-1",          5001,   4.71468E-03,   110.233E-03,            0.,NA,NA,"",   786.161E+03,   885.295E+03,   885.295E+03
C:/temp/Job-1.odb,Step-1,Increment      1: Step Time =    1.000,"P-1-1",          5002,   195.277E-03,   90.2301E-03,            0.,NA,NA,"",   967.189E+03,   999.069E+03,   999.069E+03
C:/temp/Job-1.odb,Step-1,Increment      1: Step Time =    1.000,"P-1-1",          5003,   4.55976E-03,   25.0123E-03,            0.,NA,NA,"",   969.660E+03,   1.06786E+06,   1.06786E+06
C:/temp/Job-1.odb,Step-1,Increment      1: Step Time =    1.000,"P-1-1",          5004,   175.364E-03,   195.336E-03,            0.,NA,NA,"",   998.780E+03,   998.707E+03,   998.707E+03
C:/temp/Job-1.odb,Step-1,Increment      1: Step Time =    1.000,"P-1-1",          5005,   24.8294E-03,   4.62365E-03,            0.,NA,NA,"",   1.06504E+06,   1.06712E+06,   1.06712E+06
C:/temp/Job-1.odb,Step-1,Increment      1: Step Time =    1.000,"P-1-1",          5006,   195.342E-03,   174.877E-03,            0.,NA,NA,"",   1.00027E+06,   1.00028E+06,   1.00028E+06
C:/temp/Job-1.odb,Step-1,Increment      1: Step Time =    1.000,"P-1-1",          5007,   25.2742E-03,   195.343E-03,            0.,NA,NA,"",   1.06276E+06,   1.06480E+06,   1.06480E+06
C:/temp/Job-1.odb,Step-1,Increment      1: Step Time =    1.000,"P-1-1",          5008,   195.227E-03,   24.8118E-03,            0.,NA,NA,"",   1.00028E+06,   1.00028E+06,   1.00028E+06
C:/temp/Job-1.odb,Step-1,Increment      1: Step Time =    1.000,"P-1-1",          5009,   4.53630E-03,   175.329E-03,            0.,NA,NA,"",   971.948E+03,   1.07011E+06,   1.07011E+06
C:/temp/Job-1.odb,Step-1,Increment      1: Step Time =    1.000,"P-1-1",          5010,   175.073E-03,   4.73632E-03,            0.,NA,NA,"",   998.751E+03,   998.672E+03,   998.672E+03
C:/temp/Job-1.odb,Step-1,Increment      1: Step Time =    1.000,"P-1-1",          5011,   4.90875E-03,   60.6817E-03,            0.,NA,NA,"",   837.906E+03,   938.384E+03,   938.384E+03
C:/temp/Job-1.odb,Step-1,Increment      1: Step Time =    1.000,"P-1-1",          5012,   139.635E-03,   195.829E-03,            0.,NA,NA,"",   978.108E+03,   977.944E+03,   977.944E+03
C:/temp/Job-1.odb,Step-1,Increment      1: Step Time =    1.000,"P-1-1",          5013,   195.792E-03,   60.4053E-03,            0.,NA,NA,"",   987.518E+03,   1.00037E+06,   1.00037E+06
C:/temp/Job-1.odb,Step-1,Increment      1: Step Time =    1.000,"P-1-1",          5014,   60.3213E-03,   195.429E-03,            0.,NA,NA,"",   970.011E+03,   970.029E+03,   970.029E+03
C:/temp/Job-1.odb,Step-1,Increment      1: Step Time =    1.000,"P-1-1",          5015,   60.3484E-03,   4.84423E-03,            0.,NA,NA,"",   971.136E+03,   971.152E+03,   971.152E+03
C:/temp/Job-1.odb,Step-1,Increment      1: Step Time =    1.000,"P-1-1",          5016,   195.498E-03,   139.523E-03,            0.,NA,NA,"",   987.621E+03,   1.00044E+06,   1.00044E+06
C:/temp/Job-1.odb,Step-1,Increment      1: Step Time =    1.000,"P-1-1",          5017,   139.411E-03,   4.85124E-03,            0.,NA,NA,"",   978.857E+03,   978.624E+03,   978.624E+03
C:/temp/Job-1.odb,Step-1,Increment      1: Step Time =    1.000,"P-1-1",          5018,   4.74496E-03,   139.760E-03,            0.,NA,NA,"",   838.504E+03,   939.193E+03,   939.193E+03
C:/temp/Job-1.odb,Step-1,Increment      1: Step Time =    1.000,"P-1-1",          5019,   145.493E-03,   195.189E-03,            0.,NA,NA,"",   985.114E+03,   984.850E+03,   984.850E+03
C:/temp/Job-1.odb,Step-1,Increment      1: Step Time =    1.000,"P-1-1",          5020,   4.72280E-03,   54.2436E-03,            0.,NA,NA,"",   853.529E+03,   954.427E+03,   954.427E+03
C:/temp/Job-1.odb,Step-1,Increment      1: Step Time =    1.000,"P-1-1",          5021,   195.532E-03,   145.483E-03,            0.,NA,NA,"",   991.579E+03,   1.00055E+06,   1.00055E+06
C:/temp/Job-1.odb,Step-1,Increment      1: Step Time =    1.000,"P-1-1",          5022,   195.089E-03,   54.5379E-03,            0.,NA,NA,"",   991.767E+03,   1.00065E+06,   1.00065E+06
C:/temp/Job-1.odb,Step-1,Increment      1: Step Time =    1.000,"P-1-1",          5023,   145.737E-03,   4.63929E-03,            0.,NA,NA,"",   985.133E+03,   984.880E+03,   984.880E+03
C:/temp/Job-1.odb,Step-1,Increment      1: Step Time =    1.000,"P-1-1",          5024,   54.3692E-03,   195.708E-03,            0.,NA,NA,"",   977.882E+03,   977.917E+03,   977.917E+03
C:/temp/Job-1.odb,Step-1,Increment      1: Step Time =    1.000,"P-1-1",          5025,   4.74630E-03,   145.937E-03,            0.,NA,NA,"",   854.031E+03,   954.923E+03,   954.923E+03
C:/temp/Job-1.odb,Step-1,Increment      1: Step Time =    1.000,"P-1-1",          5026,   54.0896E-03,   4.72237E-03,            0.,NA,NA,"",   980.016E+03,   980.067E+03,   980.067E+03
C:/temp/Job-1.odb,Step-1,Increment      1: Step Time =    1.000,"P-1-1",          5027,   117.466E-03,   102.934E-03,            0.,NA,NA,"",   430.696E+03,   151.915E+03,   151.915E+03
C:/temp/Job-1.odb,Step-1,Increment      1: Step Time =    1.000,"P-1-1",          5028,   82.4004E-03,   102.380E-03,            0.,NA,NA,"",   352.194E+03,   140.130E+03,   140.130E+03
C:/temp/Job-1.odb,Step-1,Increment      1: Step Time =    1.000,"P-1-1",          5029,   169.428E-03,   195.732E-03,            0.,NA,NA,"",   997.730E+03,   997.628E+03,   997.628E+03
C:/temp/Job-1.odb,Step-1,Increment      1: Step Time =    1.000,"P-1-1",          5030,   4.74993E-03,   31.1463E-03,            0.,NA,NA,"",   934.844E+03,   1.03417E+06,   1.03417E+06
C:/temp/Job-1.odb,Step-1,Increment      1: Step Time =    1.000,"P-1-1",          5031,   195.389E-03,   169.004E-03,            0.,NA,NA,"",   999.824E+03,   1.00039E+06,   1.00039E+06
C:/temp/Job-1.odb,Step-1,Increment      1: Step Time =    1.000,"P-1-1",          5032,   31.0102E-03,   4.64976E-03,            0.,NA,NA,"",   1.03464E+06,   1.03581E+06,   1.03581E+06
C:/temp/Job-1.odb,Step-1,Increment      1: Step Time =    1.000,"P-1-1",          5033,   168.814E-03,   4.94068E-03,            0.,NA,NA,"",   997.796E+03,   997.648E+03,   997.648E+03
C:/temp/Job-1.odb,Step-1,Increment      1: Step Time =    1.000,"P-1-1",          5034,   4.74073E-03,   169.108E-03,            0.,NA,NA,"",   936.055E+03,   1.03531E+06,   1.03531E+06
C:/temp/Job-1.odb,Step-1,Increment      1: Step Time =    1.000,"P-1-1",          5035,   195.759E-03,   30.7044E-03,            0.,NA,NA,"",   999.832E+03,   1.00032E+06,   1.00032E+06
C:/temp/Job-1.odb,Step-1,Increment      1: Step Time =    1.000,"P-1-1",          5036,   31.0417E-03,   195.441E-03,            0.,NA,NA,"",   1.03394E+06,   1.03503E+06,   1.03503E+06
C:/temp/Job-1.odb,Step-1,Increment      1: Step Time =    1.000,"P-1-1",          5037,   195.552E-03,   83.7015E-03,            0.,NA,NA,"",   970.199E+03,   999.359E+03,   999.359E+03
C:/temp/Job-1.odb,Step-1,Increment      1: Step Time =    1.000,"P-1-1",          5038,   83.9110E-03,   195.606E-03,            0.,NA,NA,"",   941.482E+03,   941.759E+03,   941.759E+03
C:/temp/Job-1.odb,Step-1,Increment      1: Step Time =    1.000,"P-1-1",          5039,   83.4909E-03,   4.70213E-03,            0.,NA,NA,"",   942.999E+03,   943.294E+03,   943.294E+03
C:/temp/Job-1.odb,Step-1,Increment      1: Step Time =    1.000,"P-1-1",          5040,   116.317E-03,   195.423E-03,            0.,NA,NA,"",   948.920E+03,   949.163E+03,   949.163E+03
C:/temp/Job-1.odb,Step-1,Increment      1: Step Time =    1.000,"P-1-1",          5041,   116.284E-03,   4.67523E-03,            0.,NA,NA,"",   949.321E+03,   949.537E+03,   949.537E+03
C:/temp/Job-1.odb,Step-1,Increment      1: Step Time =    1.000,"P-1-1",          5042,   4.70485E-03,   83.8417E-03,            0.,NA,NA,"",   792.617E+03,   892.020E+03,   892.020E+03
C:/temp/Job-1.odb,Step-1,Increment      1: Step Time =    1.000,"P-1-1",          5043,   4.76658E-03,   116.441E-03,            0.,NA,NA,"",    793.12E+03,   892.497E+03,   892.497E+03
C:/temp/Job-1.odb,Step-1,Increment      1: Step Time =    1.000,"P-1-1",          5044,   195.680E-03,   115.971E-03,            0.,NA,NA,"",   969.940E+03,   999.436E+03,   999.436E+03
C:/temp/Job-1.odb,Step-1,Increment      1: Step Time =    1.000,"P-1-1",          5045,   195.803E-03,   86.4911E-03,            0.,NA,NA,"",   968.351E+03,   999.273E+03,   999.273E+03
C:/temp/Job-1.odb,Step-1,Increment      1: Step Time =    1.000,"P-1-1",          5046,   113.493E-03,   195.650E-03,            0.,NA,NA,"",   945.008E+03,   945.269E+03,   945.269E+03
C:/temp/Job-1.odb,Step-1,Increment      1: Step Time =    1.000,"P-1-1",          5047,   113.170E-03,   4.67711E-03,            0.,NA,NA,"",   945.974E+03,   946.258E+03,   946.258E+03
C:/temp/Job-1.odb,Step-1,Increment      1: Step Time =    1.000,"P-1-1",          5048,   86.8626E-03,   195.264E-03,            0.,NA,NA,"",   940.648E+03,   941.025E+03,   941.025E+03
C:/temp/Job-1.odb,Step-1,Increment      1: Step Time =    1.000,"P-1-1",          5049,   86.5968E-03,   4.66126E-03,            0.,NA,NA,"",   940.558E+03,   940.891E+03,   940.891E+03
C:/temp/Job-1.odb,Step-1,Increment      1: Step Time =    1.000,"P-1-1",          5050,   4.71038E-03,   86.9210E-03,            0.,NA,NA,"",   788.943E+03,   888.199E+03,   888.199E+03
C:/temp/Job-1.odb,Step-1,Increment      1: Step Time =    1.000,"P-1-1",          5051,   4.76000E-03,   113.348E-03,            0.,NA,NA,"",   789.337E+03,   888.573E+03,   888.573E+03
C:/temp/Job-1.odb,Step-1,Increment      1: Step Time =    1.000,"P-1-1",          5052,   195.556E-03,   113.069E-03,            0.,NA,NA,"",   968.401E+03,   999.220E+03,   999.220E+03
C:/temp/Job-1.odb,Step-1,Increment      1: Step Time =    1.000,"P-1-1",          5053,   82.4205E-03,   104.642E-03,            0.,NA,NA,"",   569.940E+03,   430.088E+03,   430.088E+03
C:/temp/Job-1.odb,Step-1,Increment      1: Step Time =    1.000,"P-1-1",          5054,   117.236E-03,   105.451E-03,            0.,NA,NA,"",   679.061E+03,   496.233E+03,   496.233E+03
C:/temp/Job-1.odb,Step-1,Increment      1: Step Time =    1.000,"P-1-1",          5055,   4.65319E-03,   28.0877E-03,            0.,NA,NA,"",   950.781E+03,   1.04965E+06,   1.04965E+06
C:/temp/Job-1.odb,Step-1,Increment      1: Step Time =    1.000,"P-1-1",          5056,   172.315E-03,   195.612E-03,            0.,NA,NA,"",   998.301E+03,   998.215E+03,   998.215E+03
C:/temp/Job-1.odb,Step-1,Increment      1: Step Time =    1.000,"P-1-1",          5057,   27.9126E-03,   4.62843E-03,            0.,NA,NA,"",   1.04824E+06,   1.04979E+06,   1.04979E+06
C:/temp/Job-1.odb,Step-1,Increment      1: Step Time =    1.000,"P-1-1",          5058,   195.502E-03,   171.855E-03,            0.,NA,NA,"",   1.00009E+06,   1.00032E+06,   1.00032E+06
C:/temp/Job-1.odb,Step-1,Increment      1: Step Time =    1.000,"P-1-1",          5059,   195.578E-03,   27.8516E-03,            0.,NA,NA,"",   1.00010E+06,   1.00029E+06,   1.00029E+06
C:/temp/Job-1.odb,Step-1,Increment      1: Step Time =    1.000,"P-1-1",          5060,   28.2039E-03,   195.531E-03,            0.,NA,NA,"",   1.04547E+06,   1.04690E+06,   1.04690E+06
C:/temp/Job-1.odb,Step-1,Increment      1: Step Time =    1.000,"P-1-1",          5061,   171.935E-03,   4.86468E-03,            0.,NA,NA,"",   998.347E+03,   998.235E+03,   998.235E+03
C:/temp/Job-1.odb,Step-1,Increment      1: Step Time =    1.000,"P-1-1",          5062,   4.65739E-03,   172.247E-03,            0.,NA,NA,"",   952.844E+03,   1.05158E+06,   1.05158E+06
C:/temp/Job-1.odb,Step-1,Increment      1: Step Time =    1.000,"P-1-1",          5063,   85.9599E-03,   109.512E-03,            0.,NA,NA,"",   1.05007E+06,   893.779E+03,   893.779E+03
C:/temp/Job-1.odb,Step-1,Increment      1: Step Time =    1.000,"P-1-1",          5064,   195.473E-03,   142.438E-03,            0.,NA,NA,"",   989.623E+03,   1.00049E+06,   1.00049E+06
C:/temp/Job-1.odb,Step-1,Increment      1: Step Time =    1.000,"P-1-1",          5065,   4.73306E-03,   142.846E-03,            0.,NA,NA,"",   846.009E+03,   946.843E+03,   946.843E+03
C:/temp/Job-1.odb,Step-1,Increment      1: Step Time =    1.000,"P-1-1",          5066,   142.592E-03,   4.78499E-03,            0.,NA,NA,"",   982.203E+03,   981.948E+03,   981.948E+03
C:/temp/Job-1.odb,Step-1,Increment      1: Step Time =    1.000,"P-1-1",          5067,   57.3957E-03,   195.476E-03,            0.,NA,NA,"",   974.016E+03,   974.058E+03,   974.058E+03
C:/temp/Job-1.odb,Step-1,Increment      1: Step Time =    1.000,"P-1-1",          5068,   57.1971E-03,   4.74498E-03,            0.,NA,NA,"",   975.385E+03,   975.404E+03,   975.404E+03
C:/temp/Job-1.odb,Step-1,Increment      1: Step Time =    1.000,"P-1-1",          5069,   195.500E-03,   57.5112E-03,            0.,NA,NA,"",   989.679E+03,   1.00049E+06,   1.00049E+06
C:/temp/Job-1.odb,Step-1,Increment      1: Step Time =    1.000,"P-1-1",          5070,   142.519E-03,   195.575E-03,            0.,NA,NA,"",   981.657E+03,   981.448E+03,   981.448E+03
C:/temp/Job-1.odb,Step-1,Increment      1: Step Time =    1.000,"P-1-1",          5071,   4.86492E-03,   57.4512E-03,            0.,NA,NA,"",   845.699E+03,   946.346E+03,   946.346E+03
C:/temp/Job-1.odb,Step-1,Increment      1: Step Time =    1.000,"P-1-1",          5072,   93.4743E-03,   113.753E-03,            0.,NA,NA,"",   1.69380E+06,   1.77076E+06,   1.77076E+06
C:/temp/Job-1.odb,Step-1,Increment      1: Step Time =    1.000,"P-1-1",          5073,   105.903E-03,   114.810E-03,            0.,NA,NA,"",   1.67097E+06,   1.76573E+06,   1.76573E+06
C:/temp/Job-1.odb,Step-1,Increment      1: Step Time =    1.000,"P-1-1",          5074,   116.170E-03,   106.723E-03,            0.,NA,NA,"",   804.232E+03,   599.122E+03,   599.122E+03
C:/temp/Job-1.odb,Step-1,Increment      1: Step Time =    1.000,"P-1-1",          5075,   103.698E-03,   117.190E-03,            0.,NA,NA,"",   1.55189E+06,   1.68698E+06,   1.68698E+06
C:/temp/Job-1.odb,Step-1,Increment      1: Step Time =    1.000,"P-1-1",          5076,   99.5744E-03,   117.143E-03,            0.,NA,NA,"",   1.59836E+06,   1.75527E+06,   1.75527E+06
C:/temp/Job-1.odb,Step-1,Increment      1: Step Time =    1.000,"P-1-1",          5077,   195.570E-03,   68.7304E-03,            0.,NA,NA,"",   981.336E+03,   1.00018E+06,   1.00018E+06
C:/temp/Job-1.odb,Step-1,Increment      1: Step Time =    1.000,"P-1-1",          5078,   4.70081E-03,   68.5171E-03,            0.,NA,NA,"",   819.491E+03,   919.790E+03,   919.790E+03
C:/temp/Job-1.odb,Step-1,Increment      1: Step Time =    1.000,"P-1-1",          5079,   131.317E-03,   195.595E-03,            0.,NA,NA,"",   968.004E+03,   967.903E+03,   967.903E+03
C:/temp/Job-1.odb,Step-1,Increment      1: Step Time =    1.000,"P-1-1",          5080,   68.2248E-03,   195.258E-03,            0.,NA,NA,"",   959.685E+03,   959.721E+03,   959.721E+03
C:/temp/Job-1.odb,Step-1,Increment      1: Step Time =    1.000,"P-1-1",          5081,   131.622E-03,   4.64535E-03,            0.,NA,NA,"",   968.944E+03,   968.838E+03,   968.838E+03
C:/temp/Job-1.odb,Step-1,Increment      1: Step Time =    1.000,"P-1-1",          5082,   68.4172E-03,   4.76174E-03,            0.,NA,NA,"",   959.779E+03,   959.848E+03,   959.848E+03
C:/temp/Job-1.odb,Step-1,Increment      1: Step Time =    1.000,"P-1-1",          5083,   4.82598E-03,   131.714E-03,            0.,NA,NA,"",   820.360E+03,   920.528E+03,   920.528E+03
C:/temp/Job-1.odb,Step-1,Increment      1: Step Time =    1.000,"P-1-1",          5084,   195.281E-03,   131.704E-03,            0.,NA,NA,"",   981.758E+03,   1.00018E+06,   1.00018E+06
C:/temp/Job-1.odb,Step-1,Increment      1: Step Time =    1.000,"P-1-1",          5085,   4.27758E-03,   46.5762E-03,            0.,NA,NA,"",   873.378E+03,   974.988E+03,   974.988E+03
C:/temp/Job-1.odb,Step-1,Increment      1: Step Time =    1.000,"P-1-1",          5086,   153.495E-03,   195.132E-03,            0.,NA,NA,"",   991.515E+03,   991.254E+03,   991.254E+03
C:/temp/Job-1.odb,Step-1,Increment      1: Step Time =    1.000,"P-1-1",          5087,   46.4397E-03,   4.66714E-03,            0.,NA,NA,"",   992.887E+03,   993.113E+03,   993.113E+03
C:/temp/Job-1.odb,Step-1,Increment      1: Step Time =    1.000,"P-1-1",          5088,   195.661E-03,   154.340E-03,            0.,NA,NA,"",   996.071E+03,   1.00055E+06,   1.00055E+06
C:/temp/Job-1.odb,Step-1,Increment      1: Step Time =    1.000,"P-1-1",          5089,   195.117E-03,   46.5081E-03,            0.,NA,NA,"",   995.887E+03,   1.00067E+06,   1.00067E+06
C:/temp/Job-1.odb,Step-1,Increment      1: Step Time =    1.000,"P-1-1",          5090,   45.8332E-03,   195.939E-03,            0.,NA,NA,"",   991.594E+03,   991.857E+03,   991.857E+03
C:/temp/Job-1.odb,Step-1,Increment      1: Step Time =    1.000,"P-1-1",          5091,   153.323E-03,   4.25700E-03,            0.,NA,NA,"",   990.917E+03,   990.708E+03,   990.708E+03
C:/temp/Job-1.odb,Step-1,Increment      1: Step Time =    1.000,"P-1-1",          5092,   4.56053E-03,   153.597E-03,            0.,NA,NA,"",   875.139E+03,   976.279E+03,   976.279E+03
C:/temp/Job-1.odb,Step-1,Increment      1: Step Time =    1.000,"P-1-1",          5093,   4.32096E-03,   39.2944E-03,            0.,NA,NA,"",   897.787E+03,   999.053E+03,   999.053E+03
C:/temp/Job-1.odb,Step-1,Increment      1: Step Time =    1.000,"P-1-1",          5094,   160.879E-03,   194.954E-03,            0.,NA,NA,"",   995.391E+03,   995.167E+03,   995.167E+03
C:/temp/Job-1.odb,Step-1,Increment      1: Step Time =    1.000,"P-1-1",          5095,   195.179E-03,   161.283E-03,            0.,NA,NA,"",   998.422E+03,   1.00057E+06,   1.00057E+06
C:/temp/Job-1.odb,Step-1,Increment      1: Step Time =    1.000,"P-1-1",          5096,   38.7630E-03,   4.78893E-03,            0.,NA,NA,"",   1.01034E+06,   1.01091E+06,   1.01091E+06
C:/temp/Job-1.odb,Step-1,Increment      1: Step Time =    1.000,"P-1-1",          5097,   160.612E-03,   4.34744E-03,            0.,NA,NA,"",   994.990E+03,   994.816E+03,   994.816E+03
C:/temp/Job-1.odb,Step-1,Increment      1: Step Time =    1.000,"P-1-1",          5098,   194.976E-03,   39.1559E-03,            0.,NA,NA,"",   998.348E+03,   1.00060E+06,   1.00060E+06
C:/temp/Job-1.odb,Step-1,Increment      1: Step Time =    1.000,"P-1-1",          5099,   38.7875E-03,   195.145E-03,            0.,NA,NA,"",   1.01054E+06,   1.01107E+06,   1.01107E+06
C:/temp/Job-1.odb,Step-1,Increment      1: Step Time =    1.000,"P-1-1",          5100,   4.69246E-03,   161.256E-03,            0.,NA,NA,"",   901.645E+03,   1.00215E+06,   1.00215E+06
C:/temp/Job-1.odb,Step-1,Increment      1: Step Time =    1.000,"P-1-1",          5101,   195.025E-03,   75.7709E-03,            0.,NA,NA,"",   976.320E+03,   999.789E+03,   999.789E+03
C:/temp/Job-1.odb,Step-1,Increment      1: Step Time =    1.000,"P-1-1",          5102,   4.53905E-03,   76.1293E-03,            0.,NA,NA,"",   804.242E+03,   904.207E+03,   904.207E+03
C:/temp/Job-1.odb,Step-1,Increment      1: Step Time =    1.000,"P-1-1",          5103,   124.273E-03,   195.013E-03,            0.,NA,NA,"",   960.158E+03,   960.188E+03,   960.188E+03
C:/temp/Job-1.odb,Step-1,Increment      1: Step Time =    1.000,"P-1-1",          5104,   75.5989E-03,   195.081E-03,            0.,NA,NA,"",   951.277E+03,   951.428E+03,   951.428E+03
C:/temp/Job-1.odb,Step-1,Increment      1: Step Time =    1.000,"P-1-1",          5105,   124.018E-03,   4.62747E-03,            0.,NA,NA,"",   958.770E+03,   958.811E+03,   958.811E+03
C:/temp/Job-1.odb,Step-1,Increment      1: Step Time =    1.000,"P-1-1",          5106,   75.8468E-03,   4.44995E-03,            0.,NA,NA,"",   949.449E+03,   949.597E+03,   949.597E+03
C:/temp/Job-1.odb,Step-1,Increment      1: Step Time =    1.000,"P-1-1",          5107,   4.56310E-03,   124.105E-03,            0.,NA,NA,"",   804.662E+03,   904.626E+03,   904.626E+03
C:/temp/Job-1.odb,Step-1,Increment      1: Step Time =    1.000,"P-1-1",          5108,   195.003E-03,   124.298E-03,            0.,NA,NA,"",   976.295E+03,    999.82E+03,    999.82E+03
C:/temp/Job-1.odb,Step-1,Increment      1: Step Time =    1.000,"P-1-1",          5109,   190.339E-03,   195.805E-03,            0.,NA,NA,"",   999.734E+03,   999.720E+03,   999.720E+03
C:/temp/Job-1.odb,Step-1,Increment      1: Step Time =    1.000,"P-1-1",          5110,   4.65190E-03,   9.73487E-03,            0.,NA,NA,"",   1.17426E+06,   1.25446E+06,   1.25446E+06
C:/temp/Job-1.odb,Step-1,Increment      1: Step Time =    1.000,"P-1-1",          5111,   9.73575E-03,   4.29092E-03,            0.,NA,NA,"",   1.24850E+06,   1.26071E+06,   1.26071E+06
C:/temp/Job-1.odb,Step-1,Increment      1: Step Time =    1.000,"P-1-1",          5112,   195.461E-03,   190.421E-03,            0.,NA,NA,"",   1.00009E+06,   999.971E+03,   999.971E+03
C:/temp/Job-1.odb,Step-1,Increment      1: Step Time =    1.000,"P-1-1",          5113,   9.56329E-03,   195.323E-03,            0.,NA,NA,"",   1.25067E+06,   1.26563E+06,   1.26563E+06
C:/temp/Job-1.odb,Step-1,Increment      1: Step Time =    1.000,"P-1-1",          5114,   4.95578E-03,   190.191E-03,            0.,NA,NA,"",   1.17565E+06,   1.25354E+06,   1.25354E+06
C:/temp/Job-1.odb,Step-1,Increment      1: Step Time =    1.000,"P-1-1",          5115,   195.774E-03,   9.73987E-03,            0.,NA,NA,"",   1.00010E+06,   999.975E+03,   999.975E+03
C:/temp/Job-1.odb,Step-1,Increment      1: Step Time =    1.000,"P-1-1",          5116,   190.291E-03,   4.67374E-03,            0.,NA,NA,"",   999.748E+03,   999.730E+03,   999.730E+03
C:/temp/Job-1.odb,Step-1,Increment      1: Step Time =    1.000,"P-1-1",          5117,   4.54887E-03,   94.5403E-03,            0.,NA,NA,"",   782.640E+03,   881.750E+03,   881.750E+03
C:/temp/Job-1.odb,Step-1,Increment      1: Step Time =    1.000,"P-1-1",          5118,   105.436E-03,   4.69344E-03,            0.,NA,NA,"",   939.690E+03,   940.114E+03,   940.114E+03
C:/temp/Job-1.odb,Step-1,Increment      1: Step Time =    1.000,"P-1-1",          5119,   94.2916E-03,   195.443E-03,            0.,NA,NA,"",   936.844E+03,   937.258E+03,   937.258E+03
C:/temp/Job-1.odb,Step-1,Increment      1: Step Time =    1.000,"P-1-1",          5120,   195.523E-03,   105.729E-03,            0.,NA,NA,"",   965.616E+03,   998.983E+03,   998.983E+03
C:/temp/Job-1.odb,Step-1,Increment      1: Step Time =    1.000,"P-1-1",          5121,   4.83152E-03,   105.458E-03,            0.,NA,NA,"",   783.127E+03,   882.058E+03,   882.058E+03
C:/temp/Job-1.odb,Step-1,Increment      1: Step Time =    1.000,"P-1-1",          5122,   105.618E-03,   194.863E-03,            0.,NA,NA,"",   941.469E+03,   941.926E+03,   941.926E+03
C:/temp/Job-1.odb,Step-1,Increment      1: Step Time =    1.000,"P-1-1",          5123,   94.4331E-03,   4.81070E-03,            0.,NA,NA,"",   937.981E+03,   938.441E+03,   938.441E+03
C:/temp/Job-1.odb,Step-1,Increment      1: Step Time =    1.000,"P-1-1",          5124,   194.909E-03,   94.4362E-03,            0.,NA,NA,"",   966.198E+03,   998.757E+03,   998.757E+03
C:/temp/Job-1.odb,Step-1,Increment      1: Step Time =    1.000,"P-1-1",          5125,   4.45506E-03,   20.3927E-03,            0.,NA,NA,"",   1.00591E+06,   1.10245E+06,   1.10245E+06
C:/temp/Job-1.odb,Step-1,Increment      1: Step Time =    1.000,"P-1-1",          5126,   180.121E-03,   195.465E-03,            0.,NA,NA,"",   999.197E+03,   999.161E+03,   999.161E+03
C:/temp/Job-1.odb,Step-1,Increment      1: Step Time =    1.000,"P-1-1",          5127,   195.297E-03,   179.936E-03,            0.,NA,NA,"",   1.00034E+06,   1.00016E+06,   1.00016E+06
C:/temp/Job-1.odb,Step-1,Increment      1: Step Time =    1.000,"P-1-1",          5128,   20.2256E-03,   4.56219E-03,            0.,NA,NA,"",   1.09816E+06,   1.10140E+06,   1.10140E+06
C:/temp/Job-1.odb,Step-1,Increment      1: Step Time =    1.000,"P-1-1",          5129,   20.3039E-03,   195.203E-03,            0.,NA,NA,"",   1.09904E+06,   1.10258E+06,   1.10258E+06
C:/temp/Job-1.odb,Step-1,Increment      1: Step Time =    1.000,"P-1-1",          5130,   4.15873E-03,   179.765E-03,            0.,NA,NA,"",   1.00484E+06,   1.10250E+06,   1.10250E+06
C:/temp/Job-1.odb,Step-1,Increment      1: Step Time =    1.000,"P-1-1",          5131,   179.689E-03,   4.57534E-03,            0.,NA,NA,"",   999.163E+03,   999.123E+03,   999.123E+03
C:/temp/Job-1.odb,Step-1,Increment      1: Step Time =    1.000,"P-1-1",          5132,   195.760E-03,   19.7981E-03,            0.,NA,NA,"",   1.00034E+06,   1.00012E+06,   1.00012E+06
C:/temp/Job-1.odb,Step-1,Increment      1: Step Time =    1.000,"P-1-1",          5133,   195.921E-03,   66.0766E-03,            0.,NA,NA,"",   983.109E+03,   1.00019E+06,   1.00019E+06
C:/temp/Job-1.odb,Step-1,Increment      1: Step Time =    1.000,"P-1-1",          5134,   4.81607E-03,   65.4733E-03,            0.,NA,NA,"",   826.429E+03,   926.788E+03,   926.788E+03
C:/temp/Job-1.odb,Step-1,Increment      1: Step Time =    1.000,"P-1-1",          5135,   133.978E-03,   195.936E-03,            0.,NA,NA,"",   970.812E+03,   970.715E+03,   970.715E+03
C:/temp/Job-1.odb,Step-1,Increment      1: Step Time =    1.000,"P-1-1",          5136,   64.9851E-03,   195.113E-03,            0.,NA,NA,"",   964.910E+03,   964.956E+03,   964.956E+03
C:/temp/Job-1.odb,Step-1,Increment      1: Step Time =    1.000,"P-1-1",          5137,   134.662E-03,   4.77253E-03,            0.,NA,NA,"",   973.059E+03,   972.892E+03,   972.892E+03
C:/temp/Job-1.odb,Step-1,Increment      1: Step Time =    1.000,"P-1-1",          5138,   65.2006E-03,   5.12986E-03,            0.,NA,NA,"",   965.414E+03,   965.446E+03,   965.446E+03
C:/temp/Job-1.odb,Step-1,Increment      1: Step Time =    1.000,"P-1-1",          5139,   5.11344E-03,   134.927E-03,            0.,NA,NA,"",   828.240E+03,   928.317E+03,   928.317E+03
C:/temp/Job-1.odb,Step-1,Increment      1: Step Time =    1.000,"P-1-1",          5140,   195.137E-03,   134.915E-03,            0.,NA,NA,"",   984.403E+03,   1.00032E+06,   1.00032E+06
C:/temp/Job-1.odb,Step-1,Increment      1: Step Time =    1.000,"P-1-1",          5141,   4.46882E-03,   49.5726E-03,            0.,NA,NA,"",   865.374E+03,   966.702E+03,   966.702E+03
C:/temp/Job-1.odb,Step-1,Increment      1: Step Time =    1.000,"P-1-1",          5142,   150.502E-03,   195.254E-03,            0.,NA,NA,"",   989.294E+03,   989.027E+03,   989.027E+03
C:/temp/Job-1.odb,Step-1,Increment      1: Step Time =    1.000,"P-1-1",          5143,   195.475E-03,   151.585E-03,            0.,NA,NA,"",   994.919E+03,   1.00061E+06,   1.00061E+06
C:/temp/Job-1.odb,Step-1,Increment      1: Step Time =    1.000,"P-1-1",          5144,   49.4592E-03,   4.69968E-03,            0.,NA,NA,"",   987.512E+03,   987.658E+03,   987.658E+03
C:/temp/Job-1.odb,Step-1,Increment      1: Step Time =    1.000,"P-1-1",          5145,   150.328E-03,   4.40273E-03,            0.,NA,NA,"",   988.846E+03,   988.613E+03,   988.613E+03
C:/temp/Job-1.odb,Step-1,Increment      1: Step Time =    1.000,"P-1-1",          5146,   195.208E-03,   49.5079E-03,            0.,NA,NA,"",   994.492E+03,   1.00066E+06,   1.00066E+06
C:/temp/Job-1.odb,Step-1,Increment      1: Step Time =    1.000,"P-1-1",          5147,   48.4441E-03,   195.877E-03,            0.,NA,NA,"",   986.844E+03,   986.938E+03,   986.938E+03
C:/temp/Job-1.odb,Step-1,Increment      1: Step Time =    1.000,"P-1-1",          5148,   4.64872E-03,   150.573E-03,            0.,NA,NA,"",   866.515E+03,   967.566E+03,   967.566E+03
C:/temp/Job-1.odb,Step-1,Increment      1: Step Time =    1.000,"P-1-1",          5149,   164.169E-03,   194.547E-03,            0.,NA,NA,"",   996.804E+03,   996.576E+03,   996.576E+03
C:/temp/Job-1.odb,Step-1,Increment      1: Step Time =    1.000,"P-1-1",          5150,   5.18649E-03,   36.1108E-03,            0.,NA,NA,"",   914.616E+03,   1.01375E+06,   1.01375E+06
C:/temp/Job-1.odb,Step-1,Increment      1: Step Time =    1.000,"P-1-1",          5151,   194.729E-03,   164.384E-03,            0.,NA,NA,"",   999.234E+03,   1.00064E+06,   1.00064E+06
C:/temp/Job-1.odb,Step-1,Increment      1: Step Time =    1.000,"P-1-1",          5152,   35.6761E-03,   4.74699E-03,            0.,NA,NA,"",   1.01880E+06,   1.01958E+06,   1.01958E+06
C:/temp/Job-1.odb,Step-1,Increment      1: Step Time =    1.000,"P-1-1",          5153,   194.607E-03,   35.9273E-03,            0.,NA,NA,"",   999.161E+03,   1.00063E+06,   1.00063E+06
C:/temp/Job-1.odb,Step-1,Increment      1: Step Time =    1.000,"P-1-1",          5154,   163.800E-03,   5.25203E-03,            0.,NA,NA,"",   996.608E+03,   996.384E+03,   996.384E+03
C:/temp/Job-1.odb,Step-1,Increment      1: Step Time =    1.000,"P-1-1",          5155,   35.7241E-03,   194.743E-03,            0.,NA,NA,"",   1.02144E+06,   1.02243E+06,   1.02243E+06
C:/temp/Job-1.odb,Step-1,Increment      1: Step Time =    1.000,"P-1-1",          5156,   4.78640E-03,   164.372E-03,            0.,NA,NA,"",   914.422E+03,   1.01440E+06,   1.01440E+06
C:/temp/Job-1.odb,Step-1,Increment      1: Step Time =    1.000,"P-1-1",          5157,   194.841E-03,   79.0385E-03,            0.,NA,NA,"",   974.016E+03,   999.482E+03,   999.482E+03
C:/temp/Job-1.odb,Step-1,Increment      1: Step Time =    1.000,"P-1-1",          5158,   4.58581E-03,   79.2055E-03,            0.,NA,NA,"",   799.163E+03,   898.900E+03,   898.900E+03
C:/temp/Job-1.odb,Step-1,Increment      1: Step Time =    1.000,"P-1-1",          5159,   78.8490E-03,   194.723E-03,            0.,NA,NA,"",   949.534E+03,   949.776E+03,   949.776E+03
C:/temp/Job-1.odb,Step-1,Increment      1: Step Time =    1.000,"P-1-1",          5160,   120.998E-03,   194.749E-03,            0.,NA,NA,"",   956.790E+03,   956.943E+03,   956.943E+03
C:/temp/Job-1.odb,Step-1,Increment      1: Step Time =    1.000,"P-1-1",          5161,   120.947E-03,   4.66969E-03,            0.,NA,NA,"",   954.916E+03,   955.027E+03,   955.027E+03
C:/temp/Job-1.odb,Step-1,Increment      1: Step Time =    1.000,"P-1-1",          5162,   78.7983E-03,   4.63469E-03,            0.,NA,NA,"",   947.039E+03,   947.258E+03,   947.258E+03
C:/temp/Job-1.odb,Step-1,Increment      1: Step Time =    1.000,"P-1-1",          5163,   4.67387E-03,   121.096E-03,            0.,NA,NA,"",   799.848E+03,   899.545E+03,   899.545E+03
C:/temp/Job-1.odb,Step-1,Increment      1: Step Time =    1.000,"P-1-1",          5164,   194.633E-03,   120.960E-03,            0.,NA,NA,"",   974.196E+03,   999.533E+03,   999.533E+03
C:/temp/Job-1.odb,Step-1,Increment      1: Step Time =    1.000,"P-1-1",          5165,   193.469E-03,   195.274E-03,            0.,NA,NA,"",   999.880E+03,   999.848E+03,   999.848E+03
C:/temp/Job-1.odb,Step-1,Increment      1: Step Time =    1.000,"P-1-1",          5166,   4.99992E-03,   6.51476E-03,            0.,NA,NA,"",   1.28158E+06,   1.34150E+06,   1.34150E+06
C:/temp/Job-1.odb,Step-1,Increment      1: Step Time =    1.000,"P-1-1",          5167,   6.60622E-03,   4.81295E-03,            0.,NA,NA,"",   1.31982E+06,   1.34825E+06,   1.34825E+06
C:/temp/Job-1.odb,Step-1,Increment      1: Step Time =    1.000,"P-1-1",          5168,   195.093E-03,   193.599E-03,            0.,NA,NA,"",   999.984E+03,   999.920E+03,   999.920E+03
C:/temp/Job-1.odb,Step-1,Increment      1: Step Time =    1.000,"P-1-1",          5169,   4.93275E-03,   193.561E-03,            0.,NA,NA,"",   1.28457E+06,   1.34442E+06,   1.34442E+06
C:/temp/Job-1.odb,Step-1,Increment      1: Step Time =    1.000,"P-1-1",          5170,   6.43151E-03,   195.210E-03,            0.,NA,NA,"",   1.32460E+06,   1.35395E+06,   1.35395E+06
C:/temp/Job-1.odb,Step-1,Increment      1: Step Time =    1.000,"P-1-1",          5171,   195.205E-03,   6.62709E-03,            0.,NA,NA,"",   999.995E+03,   999.926E+03,   999.926E+03
C:/temp/Job-1.odb,Step-1,Increment      1: Step Time =    1.000,"P-1-1",          5172,   193.494E-03,   5.02021E-03,            0.,NA,NA,"",    999.89E+03,   999.855E+03,   999.855E+03
C:/temp/Job-1.odb,Step-1,Increment      1: Step Time =    1.000,"P-1-1",          5173,   4.61219E-03,   91.5192E-03,            0.,NA,NA,"",   784.585E+03,   883.729E+03,   883.729E+03
C:/temp/Job-1.odb,Step-1,Increment      1: Step Time =    1.000,"P-1-1",          5174,   108.511E-03,   4.69486E-03,            0.,NA,NA,"",   941.813E+03,   942.202E+03,   942.202E+03
C:/temp/Job-1.odb,Step-1,Increment      1: Step Time =    1.000,"P-1-1",          5175,   91.4167E-03,   195.428E-03,            0.,NA,NA,"",   937.654E+03,   938.055E+03,   938.055E+03
C:/temp/Job-1.odb,Step-1,Increment      1: Step Time =    1.000,"P-1-1",          5176,   195.564E-03,   108.602E-03,            0.,NA,NA,"",   966.428E+03,   999.073E+03,   999.073E+03
C:/temp/Job-1.odb,Step-1,Increment      1: Step Time =    1.000,"P-1-1",          5177,   4.71923E-03,   108.663E-03,            0.,NA,NA,"",   784.896E+03,   883.976E+03,   883.976E+03
C:/temp/Job-1.odb,Step-1,Increment      1: Step Time =    1.000,"P-1-1",          5178,   108.737E-03,   194.671E-03,            0.,NA,NA,"",   944.330E+03,   944.753E+03,   944.753E+03
C:/temp/Job-1.odb,Step-1,Increment      1: Step Time =    1.000,"P-1-1",          5179,   91.2502E-03,   4.63041E-03,            0.,NA,NA,"",   938.067E+03,   938.464E+03,   938.464E+03
C:/temp/Job-1.odb,Step-1,Increment      1: Step Time =    1.000,"P-1-1",          5180,   194.596E-03,   91.2943E-03,            0.,NA,NA,"",   967.430E+03,   998.737E+03,   998.737E+03
C:/temp/Job-1.odb,Step-1,Increment      1: Step Time =    1.000,"P-1-1",          5181,   4.51730E-03,   23.4718E-03,            0.,NA,NA,"",   980.494E+03,   1.07826E+06,   1.07826E+06
C:/temp/Job-1.odb,Step-1,Increment      1: Step Time =    1.000,"P-1-1",          5182,   176.964E-03,   195.217E-03,            0.,NA,NA,"",   998.962E+03,   998.900E+03,   998.900E+03
C:/temp/Job-1.odb,Step-1,Increment      1: Step Time =    1.000,"P-1-1",          5183,   194.886E-03,   176.598E-03,            0.,NA,NA,"",   1.00034E+06,   1.00029E+06,   1.00029E+06
C:/temp/Job-1.odb,Step-1,Increment      1: Step Time =    1.000,"P-1-1",          5184,   23.2915E-03,   4.61316E-03,            0.,NA,NA,"",   1.07486E+06,   1.07727E+06,   1.07727E+06
C:/temp/Job-1.odb,Step-1,Increment      1: Step Time =    1.000,"P-1-1",          5185,   23.6300E-03,   194.806E-03,            0.,NA,NA,"",   1.07640E+06,   1.07934E+06,   1.07934E+06
C:/temp/Job-1.odb,Step-1,Increment      1: Step Time =    1.000,"P-1-1",          5186,   4.44071E-03,   176.846E-03,            0.,NA,NA,"",   982.445E+03,   1.08037E+06,   1.08037E+06
C:/temp/Job-1.odb,Step-1,Increment      1: Step Time =    1.000,"P-1-1",          5187,   194.888E-03,   23.0013E-03,            0.,NA,NA,"",   1.00034E+06,   1.00027E+06,   1.00027E+06
C:/temp/Job-1.odb,Step-1,Increment      1: Step Time =    1.000,"P-1-1",          5188,   176.625E-03,   4.67388E-03,            0.,NA,NA,"",   998.909E+03,   998.845E+03,   998.845E+03
C:/temp/Job-1.odb,Step-1,Increment      1: Step Time =    1.000,"P-1-1",          5189,   4.89134E-03,   62.3001E-03,            0.,NA,NA,"",   833.987E+03,   934.413E+03,   934.413E+03
C:/temp/Job-1.odb,Step-1,Increment      1: Step Time =    1.000,"P-1-1",          5190,   138.200E-03,   195.918E-03,            0.,NA,NA,"",   976.253E+03,   976.109E+03,   976.109E+03
C:/temp/Job-1.odb,Step-1,Increment      1: Step Time =    1.000,"P-1-1",          5191,   195.896E-03,   61.8487E-03,            0.,NA,NA,"",   986.393E+03,   1.00031E+06,   1.00031E+06
C:/temp/Job-1.odb,Step-1,Increment      1: Step Time =    1.000,"P-1-1",          5192,   61.7996E-03,   195.462E-03,            0.,NA,NA,"",   967.878E+03,   967.887E+03,   967.887E+03
C:/temp/Job-1.odb,Step-1,Increment      1: Step Time =    1.000,"P-1-1",          5193,   61.9432E-03,   4.93921E-03,            0.,NA,NA,"",   969.296E+03,   969.296E+03,   969.296E+03
C:/temp/Job-1.odb,Step-1,Increment      1: Step Time =    1.000,"P-1-1",          5194,   137.813E-03,   4.84438E-03,            0.,NA,NA,"",   977.009E+03,   976.798E+03,   976.798E+03
C:/temp/Job-1.odb,Step-1,Increment      1: Step Time =    1.000,"P-1-1",          5195,   4.82597E-03,   138.184E-03,            0.,NA,NA,"",   835.068E+03,   935.573E+03,   935.573E+03
C:/temp/Job-1.odb,Step-1,Increment      1: Step Time =    1.000,"P-1-1",          5196,   195.517E-03,   138.057E-03,            0.,NA,NA,"",   986.563E+03,   1.00040E+06,   1.00040E+06
C:/temp/Job-1.odb,Step-1,Increment      1: Step Time =    1.000,"P-1-1",          5197,   4.64126E-03,   52.6650E-03,            0.,NA,NA,"",   857.468E+03,   958.508E+03,   958.508E+03
C:/temp/Job-1.odb,Step-1,Increment      1: Step Time =    1.000,"P-1-1",          5198,   147.232E-03,   194.730E-03,            0.,NA,NA,"",   987.286E+03,   986.954E+03,   986.954E+03
C:/temp/Job-1.odb,Step-1,Increment      1: Step Time =    1.000,"P-1-1",          5199,   194.632E-03,   52.7998E-03,            0.,NA,NA,"",   993.075E+03,   1.00083E+06,   1.00083E+06
C:/temp/Job-1.odb,Step-1,Increment      1: Step Time =    1.000,"P-1-1",          5200,   52.5394E-03,   4.71700E-03,            0.,NA,NA,"",   982.448E+03,   982.532E+03,   982.532E+03
C:/temp/Job-1.odb,Step-1,Increment      1: Step Time =    1.000,"P-1-1",          5201,   147.285E-03,   4.55916E-03,            0.,NA,NA,"",   986.459E+03,   986.209E+03,   986.209E+03
C:/temp/Job-1.odb,Step-1,Increment      1: Step Time =    1.000,"P-1-1",          5202,   52.8503E-03,   195.795E-03,            0.,NA,NA,"",   979.944E+03,   979.982E+03,   979.982E+03
C:/temp/Job-1.odb,Step-1,Increment      1: Step Time =    1.000,"P-1-1",          5203,   195.531E-03,   147.024E-03,            0.,NA,NA,"",   992.502E+03,   1.00058E+06,   1.00058E+06
C:/temp/Job-1.odb,Step-1,Increment      1: Step Time =    1.000,"P-1-1",          5204,   4.72859E-03,   147.490E-03,            0.,NA,NA,"",   858.149E+03,   959.083E+03,   959.083E+03
C:/temp/Job-1.odb,Step-1,Increment      1: Step Time =    1.000,"P-1-1",          5205,   168.050E-03,   195.709E-03,            0.,NA,NA,"",   997.425E+03,   997.311E+03,   997.311E+03
C:/temp/Job-1.odb,Step-1,Increment      1: Step Time =    1.000,"P-1-1",          5206,   4.81985E-03,   32.6919E-03,            0.,NA,NA,"",   927.783E+03,   1.02724E+06,   1.02724E+06
C:/temp/Job-1.odb,Step-1,Increment      1: Step Time =    1.000,"P-1-1",          5207,   32.5660E-03,   4.67577E-03,            0.,NA,NA,"",   1.02883E+06,   1.02985E+06,   1.02985E+06
C:/temp/Job-1.odb,Step-1,Increment      1: Step Time =    1.000,"P-1-1",          5208,   195.306E-03,   167.559E-03,            0.,NA,NA,"",   999.655E+03,   1.00043E+06,   1.00043E+06
C:/temp/Job-1.odb,Step-1,Increment      1: Step Time =    1.000,"P-1-1",          5209,   167.243E-03,   4.97669E-03,            0.,NA,NA,"",   997.458E+03,   997.292E+03,   997.292E+03
C:/temp/Job-1.odb,Step-1,Increment      1: Step Time =    1.000,"P-1-1",          5210,   195.766E-03,   32.0702E-03,            0.,NA,NA,"",   999.665E+03,   1.00035E+06,   1.00035E+06
C:/temp/Job-1.odb,Step-1,Increment      1: Step Time =    1.000,"P-1-1",          5211,   4.77411E-03,   167.523E-03,            0.,NA,NA,"",   928.373E+03,   1.02787E+06,   1.02787E+06
C:/temp/Job-1.odb,Step-1,Increment      1: Step Time =    1.000,"P-1-1",          5212,   32.5067E-03,   195.368E-03,            0.,NA,NA,"",   1.02891E+06,   1.02987E+06,   1.02987E+06
C:/temp/Job-1.odb,Step-1,Increment      1: Step Time =    1.000,"P-1-1",          5213,   195.439E-03,   82.2411E-03,            0.,NA,NA,"",   971.234E+03,   999.418E+03,   999.418E+03
C:/temp/Job-1.odb,Step-1,Increment      1: Step Time =    1.000,"P-1-1",          5214,   4.67044E-03,   82.2957E-03,            0.,NA,NA,"",   794.656E+03,   894.160E+03,   894.160E+03
C:/temp/Job-1.odb,Step-1,Increment      1: Step Time =    1.000,"P-1-1",          5215,   82.5396E-03,   195.822E-03,            0.,NA,NA,"",   941.750E+03,   941.983E+03,   941.983E+03
C:/temp/Job-1.odb,Step-1,Increment      1: Step Time =    1.000,"P-1-1",          5216,   117.789E-03,   195.320E-03,            0.,NA,NA,"",   950.995E+03,   951.190E+03,   951.190E+03
C:/temp/Job-1.odb,Step-1,Increment      1: Step Time =    1.000,"P-1-1",          5217,   117.842E-03,   4.67804E-03,            0.,NA,NA,"",   951.136E+03,   951.317E+03,   951.317E+03
C:/temp/Job-1.odb,Step-1,Increment      1: Step Time =    1.000,"P-1-1",          5218,   81.9180E-03,   4.69726E-03,            0.,NA,NA,"",   944.311E+03,   944.595E+03,   944.595E+03
C:/temp/Job-1.odb,Step-1,Increment      1: Step Time =    1.000,"P-1-1",          5219,   4.74431E-03,   117.998E-03,            0.,NA,NA,"",   795.231E+03,   894.701E+03,   894.701E+03
C:/temp/Job-1.odb,Step-1,Increment      1: Step Time =    1.000,"P-1-1",          5220,   195.848E-03,   117.315E-03,            0.,NA,NA,"",   970.623E+03,   999.488E+03,   999.488E+03
C:/temp/Job-1.odb,Step-1,Increment      1: Step Time =    1.000,"P-1-1",          5221,   111.615E-03,   4.68307E-03,            0.,NA,NA,"",   944.464E+03,   944.786E+03,   944.786E+03
C:/temp/Job-1.odb,Step-1,Increment      1: Step Time =    1.000,"P-1-1",          5222,   88.4053E-03,   195.303E-03,            0.,NA,NA,"",   939.565E+03,   939.971E+03,   939.971E+03
C:/temp/Job-1.odb,Step-1,Increment      1: Step Time =    1.000,"P-1-1",          5223,   112.181E-03,   195.832E-03,            0.,NA,NA,"",   943.137E+03,   943.421E+03,   943.421E+03
C:/temp/Job-1.odb,Step-1,Increment      1: Step Time =    1.000,"P-1-1",          5224,   88.1449E-03,   4.62981E-03,            0.,NA,NA,"",   939.492E+03,   939.854E+03,   939.854E+03
C:/temp/Job-1.odb,Step-1,Increment      1: Step Time =    1.000,"P-1-1",          5225,   4.68344E-03,   88.4616E-03,            0.,NA,NA,"",   787.309E+03,   886.517E+03,   886.517E+03
C:/temp/Job-1.odb,Step-1,Increment      1: Step Time =    1.000,"P-1-1",          5226,   195.550E-03,   111.568E-03,            0.,NA,NA,"",   967.660E+03,   999.159E+03,   999.159E+03
C:/temp/Job-1.odb,Step-1,Increment      1: Step Time =    1.000,"P-1-1",          5227,   4.73566E-03,   111.795E-03,            0.,NA,NA,"",   787.655E+03,   886.839E+03,   886.839E+03
C:/temp/Job-1.odb,Step-1,Increment      1: Step Time =    1.000,"P-1-1",          5228,   195.928E-03,   87.7747E-03,            0.,NA,NA,"",   967.596E+03,   999.262E+03,   999.262E+03
C:/temp/Job-1.odb,Step-1,Increment      1: Step Time =    1.000,"P-1-1",          5229,   173.808E-03,   195.491E-03,            0.,NA,NA,"",   998.552E+03,   998.473E+03,   998.473E+03
C:/temp/Job-1.odb,Step-1,Increment      1: Step Time =    1.000,"P-1-1",          5230,   4.60722E-03,   26.5532E-03,            0.,NA,NA,"",   959.781E+03,   1.05835E+06,   1.05835E+06
C:/temp/Job-1.odb,Step-1,Increment      1: Step Time =    1.000,"P-1-1",          5231,   26.3695E-03,   4.62562E-03,            0.,NA,NA,"",   1.05617E+06,   1.05797E+06,   1.05797E+06
C:/temp/Job-1.odb,Step-1,Increment      1: Step Time =    1.000,"P-1-1",          5232,   195.493E-03,   173.339E-03,            0.,NA,NA,"",   1.00019E+06,   1.00029E+06,   1.00029E+06
C:/temp/Job-1.odb,Step-1,Increment      1: Step Time =    1.000,"P-1-1",          5233,   4.60381E-03,   173.796E-03,            0.,NA,NA,"",   962.074E+03,   1.06052E+06,   1.06052E+06
C:/temp/Job-1.odb,Step-1,Increment      1: Step Time =    1.000,"P-1-1",          5234,   26.7667E-03,   195.522E-03,            0.,NA,NA,"",   1.05277E+06,   1.05446E+06,   1.05446E+06
C:/temp/Job-1.odb,Step-1,Increment      1: Step Time =    1.000,"P-1-1",          5235,   195.432E-03,   26.3777E-03,            0.,NA,NA,"",   1.00020E+06,   1.00028E+06,   1.00028E+06
C:/temp/Job-1.odb,Step-1,Increment      1: Step Time =    1.000,"P-1-1",          5236,   173.505E-03,   4.80347E-03,            0.,NA,NA,"",   998.564E+03,    998.47E+03,    998.47E+03
C:/temp/Job-1.odb,Step-1,Increment      1: Step Time =    1.000,"P-1-1",          5237,   4.90432E-03,   59.0648E-03,            0.,NA,NA,"",   841.820E+03,   942.369E+03,   942.369E+03
C:/temp/Job-1.odb,Step-1,Increment      1: Step Time =    1.000,"P-1-1",          5238,   58.8649E-03,   195.414E-03,            0.,NA,NA,"",   972.075E+03,   972.092E+03,   972.092E+03
C:/temp/Job-1.odb,Step-1,Increment      1: Step Time =    1.000,"P-1-1",          5239,   141.004E-03,   4.83291E-03,            0.,NA,NA,"",   980.591E+03,   980.343E+03,   980.343E+03
C:/temp/Job-1.odb,Step-1,Increment      1: Step Time =    1.000,"P-1-1",          5240,   195.465E-03,   140.968E-03,            0.,NA,NA,"",   988.631E+03,   1.00047E+06,   1.00047E+06
C:/temp/Job-1.odb,Step-1,Increment      1: Step Time =    1.000,"P-1-1",          5241,   4.80147E-03,   55.8414E-03,            0.,NA,NA,"",   849.596E+03,   950.362E+03,   950.362E+03
C:/temp/Job-1.odb,Step-1,Increment      1: Step Time =    1.000,"P-1-1",          5242,   143.970E-03,   195.419E-03,            0.,NA,NA,"",   983.314E+03,   983.085E+03,   983.085E+03
C:/temp/Job-1.odb,Step-1,Increment      1: Step Time =    1.000,"P-1-1",          5243,   195.328E-03,   56.0624E-03,            0.,NA,NA,"",   990.682E+03,   1.00055E+06,   1.00055E+06
C:/temp/Job-1.odb,Step-1,Increment      1: Step Time =    1.000,"P-1-1",          5244,   144.172E-03,   4.71644E-03,            0.,NA,NA,"",   983.712E+03,   983.457E+03,   983.457E+03
C:/temp/Job-1.odb,Step-1,Increment      1: Step Time =    1.000,"P-1-1",          5245,   55.8878E-03,   195.590E-03,            0.,NA,NA,"",   975.941E+03,   975.992E+03,   975.992E+03
C:/temp/Job-1.odb,Step-1,Increment      1: Step Time =    1.000,"P-1-1",          5246,   55.6409E-03,   4.72962E-03,            0.,NA,NA,"",   977.660E+03,   977.687E+03,   977.687E+03
C:/temp/Job-1.odb,Step-1,Increment      1: Step Time =    1.000,"P-1-1",          5247,   4.74594E-03,   144.388E-03,            0.,NA,NA,"",   849.975E+03,   950.838E+03,   950.838E+03
C:/temp/Job-1.odb,Step-1,Increment      1: Step Time =    1.000,"P-1-1",          5248,   195.505E-03,   143.952E-03,            0.,NA,NA,"",   990.615E+03,   1.00052E+06,   1.00052E+06
C:/temp/Job-1.odb,Step-1,Increment      1: Step Time =    1.000,"P-1-1",          5249,   4.69998E-03,   29.6183E-03,            0.,NA,NA,"",   942.488E+03,   1.04162E+06,   1.04162E+06
C:/temp/Job-1.odb,Step-1,Increment      1: Step Time =    1.000,"P-1-1",          5250,   195.446E-03,   170.421E-03,            0.,NA,NA,"",   999.964E+03,   1.00035E+06,   1.00035E+06
C:/temp/Job-1.odb,Step-1,Increment      1: Step Time =    1.000,"P-1-1",          5251,   170.371E-03,   4.91037E-03,            0.,NA,NA,"",   998.092E+03,   997.962E+03,   997.962E+03
C:/temp/Job-1.odb,Step-1,Increment      1: Step Time =    1.000,"P-1-1",          5252,   29.6187E-03,   195.482E-03,            0.,NA,NA,"",   1.03940E+06,   1.04063E+06,   1.04063E+06
C:/temp/Job-1.odb,Step-1,Increment      1: Step Time =    1.000,"P-1-1",          5253,   195.659E-03,   85.1215E-03,            0.,NA,NA,"",   969.258E+03,   999.322E+03,   999.322E+03
C:/temp/Job-1.odb,Step-1,Increment      1: Step Time =    1.000,"P-1-1",          5254,   114.867E-03,   195.518E-03,            0.,NA,NA,"",   946.945E+03,   947.208E+03,   947.208E+03
C:/temp/Job-1.odb,Step-1,Increment      1: Step Time =    1.000,"P-1-1",          5255,   85.0496E-03,   4.68975E-03,            0.,NA,NA,"",   941.751E+03,   942.060E+03,   942.060E+03
C:/temp/Job-1.odb,Step-1,Increment      1: Step Time =    1.000,"P-1-1",          5256,   4.77428E-03,   114.894E-03,            0.,NA,NA,"",   791.164E+03,   890.462E+03,   890.462E+03
C:/temp/Job-1.odb,Step-1,Increment      1: Step Time =    1.000,"P-1-1",          5257,   114.727E-03,   4.67470E-03,            0.,NA,NA,"",   947.598E+03,   947.847E+03,   947.847E+03
C:/temp/Job-1.odb,Step-1,Increment      1: Step Time =    1.000,"P-1-1",          5258,   85.3584E-03,   195.326E-03,            0.,NA,NA,"",   941.342E+03,   941.669E+03,   941.669E+03
C:/temp/Job-1.odb,Step-1,Increment      1: Step Time =    1.000,"P-1-1",          5259,   4.71925E-03,   85.3833E-03,            0.,NA,NA,"",   790.718E+03,   890.038E+03,   890.038E+03
C:/temp/Job-1.odb,Step-1,Increment      1: Step Time =    1.000,"P-1-1",          5260,   195.587E-03,   114.557E-03,            0.,NA,NA,"",   969.198E+03,   999.322E+03,   999.322E+03
C:/temp/Job-1.odb,Step-1,Increment      1: Step Time =    1.000,"P-1-1",          5261,   170.855E-03,   195.694E-03,            0.,NA,NA,"",   998.026E+03,   997.934E+03,   997.934E+03
C:/temp/Job-1.odb,Step-1,Increment      1: Step Time =    1.000,"P-1-1",          5262,   29.4586E-03,   4.63401E-03,            0.,NA,NA,"",   1.04107E+06,   1.04241E+06,   1.04241E+06
C:/temp/Job-1.odb,Step-1,Increment      1: Step Time =    1.000,"P-1-1",          5263,   195.686E-03,   29.2942E-03,            0.,NA,NA,"",   999.982E+03,   1.00031E+06,   1.00031E+06
C:/temp/Job-1.odb,Step-1,Increment      1: Step Time =    1.000,"P-1-1",          5264,   4.70058E-03,   170.686E-03,            0.,NA,NA,"",   944.188E+03,   1.04319E+06,   1.04319E+06
C:/temp/Job-1.odb,Step-1,Increment      1: Step Time =    1.000,"P-1-1",          5265,   141.073E-03,   195.712E-03,            0.,NA,NA,"",   979.924E+03,   979.737E+03,   979.737E+03
C:/temp/Job-1.odb,Step-1,Increment      1: Step Time =    1.000,"P-1-1",          5266,   195.656E-03,   58.9601E-03,            0.,NA,NA,"",   988.624E+03,   1.00043E+06,   1.00043E+06
C:/temp/Job-1.odb,Step-1,Increment      1: Step Time =    1.000,"P-1-1",          5267,   58.7638E-03,   4.78080E-03,            0.,NA,NA,"",   973.186E+03,   973.212E+03,   973.212E+03
C:/temp/Job-1.odb,Step-1,Increment      1: Step Time =    1.000,"P-1-1",          5268,   4.72516E-03,   141.307E-03,            0.,NA,NA,"",   842.165E+03,   942.951E+03,   942.951E+03
C:/temp/Job-1.odb,Step-1,Increment      1: Step Time =    1.000,"P-1-1",          5269,   92.4806E-03,   117.242E-03,            0.,NA,NA,"",   1.44703E+06,   1.51622E+06,   1.51622E+06
C:/temp/Job-1.odb,Step-1,Increment      1: Step Time =    1.000,"P-1-1",          5270,   105.788E-03,   117.135E-03,            0.,NA,NA,"",   1.48746E+06,   1.58935E+06,   1.58935E+06
C:/temp/Job-1.odb,Step-1,Increment      1: Step Time =    1.000,"P-1-1",          5271,   83.4134E-03,   105.706E-03,            0.,NA,NA,"",   675.384E+03,   499.966E+03,   499.966E+03
C:/temp/Job-1.odb,Step-1,Increment      1: Step Time =    1.000,"P-1-1",          5272,   117.456E-03,   96.6884E-03,            0.,NA,NA,"",   460.487E+03,   199.038E+03,   199.038E+03
C:/temp/Job-1.odb,Step-1,Increment      1: Step Time =    1.000,"P-1-1",          5273,   81.9385E-03,   96.7115E-03,            0.,NA,NA,"",   426.951E+03,   317.903E+03,   317.903E+03
C:/temp/Job-1.odb,Step-1,Increment      1: Step Time =    1.000,"P-1-1",          5274,   84.4804E-03,   110.288E-03,            0.,NA,NA,"",   1.11121E+06,   956.448E+03,   956.448E+03
C:/temp/Job-1.odb,Step-1,Increment      1: Step Time =    1.000,"P-1-1",          5275,   89.8904E-03,   113.134E-03,            0.,NA,NA,"",   1.38475E+06,   1.36867E+06,   1.36867E+06
C:/temp/Job-1.odb,Step-1,Increment      1: Step Time =    1.000,"P-1-1",          5276,   109.819E-03,   114.112E-03,            0.,NA,NA,"",   1.45774E+06,   1.45096E+06,   1.45096E+06
C:/temp/Job-1.odb,Step-1,Increment      1: Step Time =    1.000,"P-1-1",          5277,   117.766E-03,   101.005E-03,            0.,NA,NA,"",   271.690E+03,   70.0546E+03,   70.0546E+03
C:/temp/Job-1.odb,Step-1,Increment      1: Step Time =    1.000,"P-1-1",          5278,   81.6315E-03,   100.111E-03,            0.,NA,NA,"",   238.803E+03,   128.783E+03,   128.783E+03
C:/temp/Job-1.odb,Step-1,Increment      1: Step Time =    1.000,"P-1-1",          5279,   117.443E-03,   107.940E-03,            0.,NA,NA,"",   924.699E+03,   745.461E+03,   745.461E+03
C:/temp/Job-1.odb,Step-1,Increment      1: Step Time =    1.000,"P-1-1",          5280,   86.8859E-03,   111.127E-03,            0.,NA,NA,"",   1.19805E+06,   1.08097E+06,   1.08097E+06
C:/temp/Job-1.odb,Step-1,Increment      1: Step Time =    1.000,"P-1-1",          5281,   99.6769E-03,   118.603E-03,            0.,NA,NA,"",   1.43370E+06,   1.58558E+06,   1.58558E+06
C:/temp/Job-1.odb,Step-1,Increment      1: Step Time =    1.000,"P-1-1",          5282,   86.0604E-03,   86.8697E-03,            0.,NA,NA,"",   1.29557E+06,   1.18769E+06,   1.18769E+06
C:/temp/Job-1.odb,Step-1,Increment      1: Step Time =    1.000,"P-1-1",          5283,   82.7038E-03,   92.3176E-03,            0.,NA,NA,"",   863.295E+03,   706.903E+03,   706.903E+03
C:/temp/Job-1.odb,Step-1,Increment      1: Step Time =    1.000,"P-1-1",          5284,   96.6788E-03,   117.502E-03,            0.,NA,NA,"",   1.52188E+06,   1.65908E+06,   1.65908E+06
C:/temp/Job-1.odb,Step-1,Increment      1: Step Time =    1.000,"P-1-1",          5285,   114.229E-03,   109.568E-03,            0.,NA,NA,"",   1.08630E+06,   910.758E+03,   910.758E+03
C:/temp/Job-1.odb,Step-1,Increment      1: Step Time =    1.000,"P-1-1",          5286,   4.52904E-03,   97.5410E-03,            0.,NA,NA,"",   781.580E+03,   880.658E+03,   880.658E+03
C:/temp/Job-1.odb,Step-1,Increment      1: Step Time =    1.000,"P-1-1",          5287,   102.401E-03,   4.69236E-03,            0.,NA,NA,"",   938.289E+03,   938.700E+03,   938.700E+03
C:/temp/Job-1.odb,Step-1,Increment      1: Step Time =    1.000,"P-1-1",          5288,   97.0713E-03,   195.063E-03,            0.,NA,NA,"",   938.147E+03,   938.610E+03,   938.610E+03
C:/temp/Job-1.odb,Step-1,Increment      1: Step Time =    1.000,"P-1-1",          5289,   195.140E-03,   102.947E-03,            0.,NA,NA,"",   965.501E+03,   998.814E+03,   998.814E+03
C:/temp/Job-1.odb,Step-1,Increment      1: Step Time =    1.000,"P-1-1",          5290,   4.93306E-03,   102.190E-03,            0.,NA,NA,"",   782.129E+03,   880.973E+03,   880.973E+03
C:/temp/Job-1.odb,Step-1,Increment      1: Step Time =    1.000,"P-1-1",          5291,   97.6993E-03,   5.01899E-03,            0.,NA,NA,"",   938.489E+03,   939.017E+03,   939.017E+03
C:/temp/Job-1.odb,Step-1,Increment      1: Step Time =    1.000,"P-1-1",          5292,   101.781E-03,   194.056E-03,            0.,NA,NA,"",   943.076E+03,   943.730E+03,   943.730E+03
C:/temp/Job-1.odb,Step-1,Increment      1: Step Time =    1.000,"P-1-1",          5293,   194.185E-03,   98.2598E-03,            0.,NA,NA,"",   966.256E+03,   998.287E+03,   998.287E+03
C:/temp/Job-1.odb,Step-1,Increment      1: Step Time =    1.000,"P-1-1",          5294,   4.43331E-03,   17.3285E-03,            0.,NA,NA,"",   1.03793E+06,   1.13255E+06,   1.13255E+06
C:/temp/Job-1.odb,Step-1,Increment      1: Step Time =    1.000,"P-1-1",          5295,   183.122E-03,   195.685E-03,            0.,NA,NA,"",   999.369E+03,   999.349E+03,   999.349E+03
C:/temp/Job-1.odb,Step-1,Increment      1: Step Time =    1.000,"P-1-1",          5296,   195.497E-03,   182.956E-03,            0.,NA,NA,"",   1.00030E+06,   1.00009E+06,   1.00009E+06
C:/temp/Job-1.odb,Step-1,Increment      1: Step Time =    1.000,"P-1-1",          5297,   17.1563E-03,   4.48051E-03,            0.,NA,NA,"",   1.12817E+06,   1.13266E+06,   1.13266E+06
C:/temp/Job-1.odb,Step-1,Increment      1: Step Time =    1.000,"P-1-1",          5298,   17.2469E-03,   195.379E-03,            0.,NA,NA,"",   1.12773E+06,   1.13245E+06,   1.13245E+06
C:/temp/Job-1.odb,Step-1,Increment      1: Step Time =    1.000,"P-1-1",          5299,   182.717E-03,   4.50703E-03,            0.,NA,NA,"",   999.360E+03,   999.337E+03,   999.337E+03
C:/temp/Job-1.odb,Step-1,Increment      1: Step Time =    1.000,"P-1-1",          5300,   3.99699E-03,   182.608E-03,            0.,NA,NA,"",   1.03388E+06,   1.13049E+06,   1.13049E+06
C:/temp/Job-1.odb,Step-1,Increment      1: Step Time =    1.000,"P-1-1",          5301,   195.884E-03,   16.9248E-03,            0.,NA,NA,"",   1.00031E+06,   1.00007E+06,   1.00007E+06
C:/temp/Job-1.odb,Step-1,Increment      1: Step Time =    1.000,"P-1-1",          5302,   81.3221E-03,   103.660E-03,            0.,NA,NA,"",   476.738E+03,   385.197E+03,   385.197E+03
C:/temp/Job-1.odb,Step-1,Increment      1: Step Time =    1.000,"P-1-1",          5303,   118.545E-03,   104.419E-03,            0.,NA,NA,"",   575.361E+03,   438.596E+03,   438.596E+03
C:/temp/Job-1.odb,Step-1,Increment      1: Step Time =    1.000,"P-1-1",          5304,   101.805E-03,   117.569E-03,            0.,NA,NA,"",   1.53849E+06,   1.68926E+06,   1.68926E+06
C:/temp/Job-1.odb,Step-1,Increment      1: Step Time =    1.000,"P-1-1",          5305,   118.489E-03,   106.827E-03,            0.,NA,NA,"",   812.817E+03,   655.139E+03,   655.139E+03
C:/temp/Job-1.odb,Step-1,Increment      1: Step Time =    1.000,"P-1-1",          5306,   92.4993E-03,   115.487E-03,            0.,NA,NA,"",   1.52911E+06,   1.59203E+06,   1.59203E+06
C:/temp/Job-1.odb,Step-1,Increment      1: Step Time =    1.000,"P-1-1",          5307,   120.697E-03,   107.194E-03,            0.,NA,NA,"",   816.798E+03,   700.791E+03,   700.791E+03
C:/temp/Job-1.odb,Step-1,Increment      1: Step Time =    1.000,"P-1-1",          5308,   193.994E-03,   83.7706E-03,            0.,NA,NA,"",   971.529E+03,   998.910E+03,   998.910E+03
C:/temp/Job-1.odb,Step-1,Increment      1: Step Time =    1.000,"P-1-1",          5309,   116.278E-03,   6.21814E-03,            0.,NA,NA,"",   954.126E+03,   954.491E+03,   954.491E+03
C:/temp/Job-1.odb,Step-1,Increment      1: Step Time =    1.000,"P-1-1",          5310,   83.4203E-03,   6.28615E-03,            0.,NA,NA,"",   949.306E+03,   949.823E+03,   949.823E+03
C:/temp/Job-1.odb,Step-1,Increment      1: Step Time =    1.000,"P-1-1",          5311,   83.6335E-03,   194.211E-03,            0.,NA,NA,"",   947.253E+03,   947.648E+03,   947.648E+03
C:/temp/Job-1.odb,Step-1,Increment      1: Step Time =    1.000,"P-1-1",          5312,   116.276E-03,   193.831E-03,            0.,NA,NA,"",   953.904E+03,   954.301E+03,   954.301E+03
C:/temp/Job-1.odb,Step-1,Increment      1: Step Time =    1.000,"P-1-1",          5313,   6.30995E-03,   83.8735E-03,            0.,NA,NA,"",   795.699E+03,   893.998E+03,   893.998E+03
C:/temp/Job-1.odb,Step-1,Increment      1: Step Time =    1.000,"P-1-1",          5314,   194.018E-03,   116.143E-03,            0.,NA,NA,"",   971.531E+03,   998.965E+03,   998.965E+03
C:/temp/Job-1.odb,Step-1,Increment      1: Step Time =    1.000,"P-1-1",          5315,   6.39458E-03,   116.504E-03,            0.,NA,NA,"",   796.401E+03,   894.649E+03,   894.649E+03
C:/temp/Job-1.odb,Step-1,Increment      1: Step Time =    1.000,"P-1-1",          5316,   6.34549E-03,   31.1592E-03,            0.,NA,NA,"",   943.565E+03,   1.03897E+06,   1.03897E+06
C:/temp/Job-1.odb,Step-1,Increment      1: Step Time =    1.000,"P-1-1",          5317,   169.518E-03,   194.308E-03,            0.,NA,NA,"",   998.168E+03,    997.99E+03,    997.99E+03
C:/temp/Job-1.odb,Step-1,Increment      1: Step Time =    1.000,"P-1-1",          5318,   193.781E-03,   169.054E-03,            0.,NA,NA,"",   1.00000E+06,   1.00068E+06,   1.00068E+06
C:/temp/Job-1.odb,Step-1,Increment      1: Step Time =    1.000,"P-1-1",          5319,   194.343E-03,   30.6879E-03,            0.,NA,NA,"",   999.944E+03,   1.00055E+06,   1.00055E+06
C:/temp/Job-1.odb,Step-1,Increment      1: Step Time =    1.000,"P-1-1",          5320,   168.771E-03,   6.59773E-03,            0.,NA,NA,"",   998.343E+03,   998.094E+03,   998.094E+03
C:/temp/Job-1.odb,Step-1,Increment      1: Step Time =    1.000,"P-1-1",          5321,   30.9922E-03,   6.17551E-03,            0.,NA,NA,"",   1.04292E+06,   1.04496E+06,   1.04496E+06
C:/temp/Job-1.odb,Step-1,Increment      1: Step Time =    1.000,"P-1-1",          5322,   31.0194E-03,   193.881E-03,            0.,NA,NA,"",   1.04241E+06,   1.04441E+06,   1.04441E+06
C:/temp/Job-1.odb,Step-1,Increment      1: Step Time =    1.000,"P-1-1",          5323,   6.30600E-03,   169.182E-03,            0.,NA,NA,"",   945.263E+03,   1.04057E+06,   1.04057E+06
C:/temp/Job-1.odb,Step-1,Increment      1: Step Time =    1.000,"P-1-1",          5324,   194.272E-03,   86.6833E-03,            0.,NA,NA,"",   969.651E+03,   998.771E+03,   998.771E+03
C:/temp/Job-1.odb,Step-1,Increment      1: Step Time =    1.000,"P-1-1",          5325,   113.168E-03,   6.21843E-03,            0.,NA,NA,"",   951.045E+03,   951.524E+03,   951.524E+03
C:/temp/Job-1.odb,Step-1,Increment      1: Step Time =    1.000,"P-1-1",          5326,   86.5484E-03,   6.21973E-03,            0.,NA,NA,"",   946.772E+03,   947.347E+03,   947.347E+03
C:/temp/Job-1.odb,Step-1,Increment      1: Step Time =    1.000,"P-1-1",          5327,   86.9070E-03,   193.533E-03,            0.,NA,NA,"",   947.445E+03,   948.100E+03,   948.100E+03
C:/temp/Job-1.odb,Step-1,Increment      1: Step Time =    1.000,"P-1-1",          5328,   113.304E-03,   193.980E-03,            0.,NA,NA,"",   950.325E+03,   950.784E+03,   950.784E+03
C:/temp/Job-1.odb,Step-1,Increment      1: Step Time =    1.000,"P-1-1",          5329,   194.006E-03,   113.039E-03,            0.,NA,NA,"",   969.708E+03,   998.667E+03,   998.667E+03
C:/temp/Job-1.odb,Step-1,Increment      1: Step Time =    1.000,"P-1-1",          5330,   6.37568E-03,   113.390E-03,            0.,NA,NA,"",   792.337E+03,   890.526E+03,   890.526E+03
C:/temp/Job-1.odb,Step-1,Increment      1: Step Time =    1.000,"P-1-1",          5331,   6.31636E-03,   86.9759E-03,            0.,NA,NA,"",   791.801E+03,   890.020E+03,   890.020E+03
C:/temp/Job-1.odb,Step-1,Increment      1: Step Time =    1.000,"P-1-1",          5332,   6.22873E-03,   28.1333E-03,            0.,NA,NA,"",   959.826E+03,   1.05439E+06,   1.05439E+06
C:/temp/Job-1.odb,Step-1,Increment      1: Step Time =    1.000,"P-1-1",          5333,   172.304E-03,   194.154E-03,            0.,NA,NA,"",   998.657E+03,   998.508E+03,   998.508E+03
C:/temp/Job-1.odb,Step-1,Increment      1: Step Time =    1.000,"P-1-1",          5334,   194.030E-03,   171.807E-03,            0.,NA,NA,"",   1.00020E+06,   1.00054E+06,   1.00054E+06
C:/temp/Job-1.odb,Step-1,Increment      1: Step Time =    1.000,"P-1-1",          5335,   27.9116E-03,   6.15871E-03,            0.,NA,NA,"",   1.05677E+06,   1.05946E+06,   1.05946E+06
C:/temp/Job-1.odb,Step-1,Increment      1: Step Time =    1.000,"P-1-1",          5336,   194.071E-03,   27.9401E-03,            0.,NA,NA,"",   1.00020E+06,   1.00051E+06,   1.00051E+06
C:/temp/Job-1.odb,Step-1,Increment      1: Step Time =    1.000,"P-1-1",          5337,   171.906E-03,   6.50034E-03,            0.,NA,NA,"",   998.789E+03,   998.597E+03,   998.597E+03
C:/temp/Job-1.odb,Step-1,Increment      1: Step Time =    1.000,"P-1-1",          5338,   28.2505E-03,   194.029E-03,            0.,NA,NA,"",   1.05427E+06,   1.05677E+06,   1.05677E+06
C:/temp/Job-1.odb,Step-1,Increment      1: Step Time =    1.000,"P-1-1",          5339,   6.21717E-03,   172.334E-03,            0.,NA,NA,"",   962.737E+03,   1.05707E+06,   1.05707E+06
C:/temp/Job-1.odb,Step-1,Increment      1: Step Time =    1.000,"P-1-1",          5340,   194.375E-03,   60.4748E-03,            0.,NA,NA,"",   988.314E+03,   1.00064E+06,   1.00064E+06
C:/temp/Job-1.odb,Step-1,Increment      1: Step Time =    1.000,"P-1-1",          5341,   193.939E-03,   139.477E-03,            0.,NA,NA,"",   988.509E+03,   1.00073E+06,   1.00073E+06
C:/temp/Job-1.odb,Step-1,Increment      1: Step Time =    1.000,"P-1-1",          5342,   139.370E-03,   6.48729E-03,            0.,NA,NA,"",   981.420E+03,   981.027E+03,   981.027E+03
C:/temp/Job-1.odb,Step-1,Increment      1: Step Time =    1.000,"P-1-1",          5343,   60.2475E-03,   6.39462E-03,            0.,NA,NA,"",   977.309E+03,   977.381E+03,   977.381E+03
C:/temp/Job-1.odb,Step-1,Increment      1: Step Time =    1.000,"P-1-1",          5344,   60.3196E-03,   193.808E-03,            0.,NA,NA,"",   976.378E+03,   976.442E+03,   976.442E+03
C:/temp/Job-1.odb,Step-1,Increment      1: Step Time =    1.000,"P-1-1",          5345,   139.594E-03,   194.414E-03,            0.,NA,NA,"",   980.207E+03,   979.918E+03,   979.918E+03
C:/temp/Job-1.odb,Step-1,Increment      1: Step Time =    1.000,"P-1-1",          5346,   6.24837E-03,   139.871E-03,            0.,NA,NA,"",   843.791E+03,   942.684E+03,   942.684E+03
C:/temp/Job-1.odb,Step-1,Increment      1: Step Time =    1.000,"P-1-1",          5347,   6.54273E-03,   60.7617E-03,            0.,NA,NA,"",   843.251E+03,   941.757E+03,   941.757E+03
C:/temp/Job-1.odb,Step-1,Increment      1: Step Time =    1.000,"P-1-1",          5348,   193.872E-03,   142.379E-03,            0.,NA,NA,"",   990.538E+03,   1.00089E+06,   1.00089E+06
C:/temp/Job-1.odb,Step-1,Increment      1: Step Time =    1.000,"P-1-1",          5349,   193.939E-03,   57.6735E-03,            0.,NA,NA,"",   990.477E+03,   1.00086E+06,   1.00086E+06
C:/temp/Job-1.odb,Step-1,Increment      1: Step Time =    1.000,"P-1-1",          5350,   142.621E-03,   6.39960E-03,            0.,NA,NA,"",   984.451E+03,   984.024E+03,   984.024E+03
C:/temp/Job-1.odb,Step-1,Increment      1: Step Time =    1.000,"P-1-1",          5351,   57.1238E-03,   6.29053E-03,            0.,NA,NA,"",   981.585E+03,   981.639E+03,   981.639E+03
C:/temp/Job-1.odb,Step-1,Increment      1: Step Time =    1.000,"P-1-1",          5352,   142.381E-03,   194.052E-03,            0.,NA,NA,"",   983.606E+03,   983.240E+03,   983.240E+03
C:/temp/Job-1.odb,Step-1,Increment      1: Step Time =    1.000,"P-1-1",          5353,   57.3402E-03,   193.845E-03,            0.,NA,NA,"",   980.714E+03,   980.800E+03,   980.800E+03
C:/temp/Job-1.odb,Step-1,Increment      1: Step Time =    1.000,"P-1-1",          5354,   6.31723E-03,   142.899E-03,            0.,NA,NA,"",   851.796E+03,   950.586E+03,   950.586E+03
C:/temp/Job-1.odb,Step-1,Increment      1: Step Time =    1.000,"P-1-1",          5355,   6.49262E-03,   57.4470E-03,            0.,NA,NA,"",   851.515E+03,   950.060E+03,   950.060E+03
C:/temp/Job-1.odb,Step-1,Increment      1: Step Time =    1.000,"P-1-1",          5356,   87.8367E-03,   113.271E-03,            0.,NA,NA,"",   1.34106E+06,   1.26627E+06,   1.26627E+06
C:/temp/Job-1.odb,Step-1,Increment      1: Step Time =    1.000,"P-1-1",          5357,   102.744E-03,   118.529E-03,            0.,NA,NA,"",   1.44751E+06,   1.58976E+06,   1.58976E+06
C:/temp/Job-1.odb,Step-1,Increment      1: Step Time =    1.000,"P-1-1",          5358,   193.981E-03,   69.4122E-03,            0.,NA,NA,"",   981.988E+03,   1.00021E+06,   1.00021E+06
C:/temp/Job-1.odb,Step-1,Increment      1: Step Time =    1.000,"P-1-1",          5359,   6.20462E-03,   70.1431E-03,            0.,NA,NA,"",   820.255E+03,   918.996E+03,   918.996E+03
C:/temp/Job-1.odb,Step-1,Increment      1: Step Time =    1.000,"P-1-1",          5360,   70.1633E-03,   6.01894E-03,            0.,NA,NA,"",   962.333E+03,   962.469E+03,   962.469E+03
C:/temp/Job-1.odb,Step-1,Increment      1: Step Time =    1.000,"P-1-1",          5361,   130.645E-03,   194.023E-03,            0.,NA,NA,"",   970.522E+03,   970.387E+03,   970.387E+03
C:/temp/Job-1.odb,Step-1,Increment      1: Step Time =    1.000,"P-1-1",          5362,   130.053E-03,   6.11307E-03,            0.,NA,NA,"",   970.135E+03,   970.016E+03,   970.016E+03
C:/temp/Job-1.odb,Step-1,Increment      1: Step Time =    1.000,"P-1-1",          5363,   193.430E-03,   129.281E-03,            0.,NA,NA,"",   981.387E+03,   1.00011E+06,   1.00011E+06
C:/temp/Job-1.odb,Step-1,Increment      1: Step Time =    1.000,"P-1-1",          5364,   70.6334E-03,   193.456E-03,            0.,NA,NA,"",   963.936E+03,   964.074E+03,   964.074E+03
C:/temp/Job-1.odb,Step-1,Increment      1: Step Time =    1.000,"P-1-1",          5365,   6.17604E-03,   130.035E-03,            0.,NA,NA,"",   820.523E+03,   919.316E+03,   919.316E+03
C:/temp/Job-1.odb,Step-1,Increment      1: Step Time =    1.000,"P-1-1",          5366,   5.60467E-03,   45.1001E-03,            0.,NA,NA,"",   883.722E+03,   983.110E+03,   983.110E+03
C:/temp/Job-1.odb,Step-1,Increment      1: Step Time =    1.000,"P-1-1",          5367,   155.902E-03,   193.320E-03,            0.,NA,NA,"",   994.358E+03,   993.894E+03,   993.894E+03
C:/temp/Job-1.odb,Step-1,Increment      1: Step Time =    1.000,"P-1-1",          5368,   193.319E-03,   44.1022E-03,            0.,NA,NA,"",   997.474E+03,   1.00120E+06,   1.00120E+06
C:/temp/Job-1.odb,Step-1,Increment      1: Step Time =    1.000,"P-1-1",          5369,   154.766E-03,   5.61203E-03,            0.,NA,NA,"",   992.813E+03,   992.478E+03,   992.478E+03
C:/temp/Job-1.odb,Step-1,Increment      1: Step Time =    1.000,"P-1-1",          5370,   44.9254E-03,   6.21256E-03,            0.,NA,NA,"",   1.00267E+06,   1.00321E+06,   1.00321E+06
C:/temp/Job-1.odb,Step-1,Increment      1: Step Time =    1.000,"P-1-1",          5371,   194.632E-03,   156.370E-03,            0.,NA,NA,"",   996.979E+03,   1.00072E+06,   1.00072E+06
C:/temp/Job-1.odb,Step-1,Increment      1: Step Time =    1.000,"P-1-1",          5372,   43.8142E-03,   194.470E-03,            0.,NA,NA,"",   1.00158E+06,   1.00194E+06,   1.00194E+06
C:/temp/Job-1.odb,Step-1,Increment      1: Step Time =    1.000,"P-1-1",          5373,   6.04512E-03,   155.139E-03,            0.,NA,NA,"",   886.476E+03,   985.068E+03,   985.068E+03
C:/temp/Job-1.odb,Step-1,Increment      1: Step Time =    1.000,"P-1-1",          5374,   5.48748E-03,   40.9531E-03,            0.,NA,NA,"",   897.419E+03,   996.618E+03,   996.618E+03
C:/temp/Job-1.odb,Step-1,Increment      1: Step Time =    1.000,"P-1-1",          5375,   40.3184E-03,   6.41505E-03,            0.,NA,NA,"",   1.01398E+06,   1.01486E+06,   1.01486E+06
C:/temp/Job-1.odb,Step-1,Increment      1: Step Time =    1.000,"P-1-1",          5376,   193.687E-03,   159.931E-03,            0.,NA,NA,"",   998.489E+03,   1.00099E+06,   1.00099E+06
C:/temp/Job-1.odb,Step-1,Increment      1: Step Time =    1.000,"P-1-1",          5377,   158.928E-03,   5.52294E-03,            0.,NA,NA,"",   994.895E+03,   994.602E+03,   994.602E+03
C:/temp/Job-1.odb,Step-1,Increment      1: Step Time =    1.000,"P-1-1",          5378,   40.1399E-03,   193.638E-03,            0.,NA,NA,"",   1.01438E+06,   1.01526E+06,   1.01526E+06
C:/temp/Job-1.odb,Step-1,Increment      1: Step Time =    1.000,"P-1-1",          5379,   6.16602E-03,   159.674E-03,            0.,NA,NA,"",   902.781E+03,   1.00063E+06,   1.00063E+06
C:/temp/Job-1.odb,Step-1,Increment      1: Step Time =    1.000,"P-1-1",          5380,   188.748E-03,   194.692E-03,            0.,NA,NA,"",   999.714E+03,   999.696E+03,   999.696E+03
C:/temp/Job-1.odb,Step-1,Increment      1: Step Time =    1.000,"P-1-1",          5381,   5.99420E-03,   11.4804E-03,            0.,NA,NA,"",   1.14377E+06,   1.21896E+06,   1.21896E+06
C:/temp/Job-1.odb,Step-1,Increment      1: Step Time =    1.000,"P-1-1",          5382,   11.3410E-03,   5.46061E-03,            0.,NA,NA,"",   1.21704E+06,   1.23101E+06,   1.23101E+06
C:/temp/Job-1.odb,Step-1,Increment      1: Step Time =    1.000,"P-1-1",          5383,   194.155E-03,   188.778E-03,            0.,NA,NA,"",   1.00012E+06,   999.997E+03,   999.997E+03
C:/temp/Job-1.odb,Step-1,Increment      1: Step Time =    1.000,"P-1-1",          5384,   193.471E-03,   73.1308E-03,            0.,NA,NA,"",   979.561E+03,   999.939E+03,   999.939E+03
C:/temp/Job-1.odb,Step-1,Increment      1: Step Time =    1.000,"P-1-1",          5385,   125.552E-03,   6.15167E-03,            0.,NA,NA,"",   964.619E+03,   964.639E+03,   964.639E+03
C:/temp/Job-1.odb,Step-1,Increment      1: Step Time =    1.000,"P-1-1",          5386,   6.04437E-03,   74.6644E-03,            0.,NA,NA,"",   810.588E+03,   909.369E+03,   909.369E+03
C:/temp/Job-1.odb,Step-1,Increment      1: Step Time =    1.000,"P-1-1",          5387,   74.3678E-03,   5.73369E-03,            0.,NA,NA,"",   956.497E+03,   956.678E+03,   956.678E+03
C:/temp/Job-1.odb,Step-1,Increment      1: Step Time =    1.000,"P-1-1",          5388,   5.94153E-03,   125.625E-03,            0.,NA,NA,"",   811.046E+03,   909.874E+03,   909.874E+03
C:/temp/Job-1.odb,Step-1,Increment      1: Step Time =    1.000,"P-1-1",          5389,   126.939E-03,   193.506E-03,            0.,NA,NA,"",   967.151E+03,   967.092E+03,   967.092E+03
C:/temp/Job-1.odb,Step-1,Increment      1: Step Time =    1.000,"P-1-1",          5390,   11.2550E-03,   193.880E-03,            0.,NA,NA,"",   1.21203E+06,   1.22956E+06,   1.22956E+06
C:/temp/Job-1.odb,Step-1,Increment      1: Step Time =    1.000,"P-1-1",          5391,   6.11606E-03,   188.128E-03,            0.,NA,NA,"",   1.13628E+06,   1.21166E+06,   1.21166E+06
C:/temp/Job-1.odb,Step-1,Increment      1: Step Time =    1.000,"P-1-1",          5392,   194.645E-03,   11.3622E-03,            0.,NA,NA,"",   1.00013E+06,   999.998E+03,   999.998E+03
C:/temp/Job-1.odb,Step-1,Increment      1: Step Time =    1.000,"P-1-1",          5393,   188.556E-03,   6.01188E-03,            0.,NA,NA,"",   999.741E+03,   999.718E+03,   999.718E+03
C:/temp/Job-1.odb,Step-1,Increment      1: Step Time =    1.000,"P-1-1",          5394,   5.92432E-03,   17.4189E-03,            0.,NA,NA,"",   1.04873E+06,   1.13637E+06,   1.13637E+06
C:/temp/Job-1.odb,Step-1,Increment      1: Step Time =    1.000,"P-1-1",          5395,   181.805E-03,   194.102E-03,            0.,NA,NA,"",   999.460E+03,   999.415E+03,   999.415E+03
C:/temp/Job-1.odb,Step-1,Increment      1: Step Time =    1.000,"P-1-1",          5396,   193.866E-03,   181.556E-03,            0.,NA,NA,"",   1.00034E+06,   1.00021E+06,   1.00021E+06
C:/temp/Job-1.odb,Step-1,Increment      1: Step Time =    1.000,"P-1-1",          5397,   18.7040E-03,   6.04918E-03,            0.,NA,NA,"",   1.11976E+06,   1.12628E+06,   1.12628E+06
C:/temp/Job-1.odb,Step-1,Increment      1: Step Time =    1.000,"P-1-1",          5398,   6.03360E-03,   96.0366E-03,            0.,NA,NA,"",   784.312E+03,   882.568E+03,   882.568E+03
C:/temp/Job-1.odb,Step-1,Increment      1: Step Time =    1.000,"P-1-1",          5399,   193.972E-03,   104.573E-03,            0.,NA,NA,"",   966.736E+03,   998.254E+03,   998.254E+03
C:/temp/Job-1.odb,Step-1,Increment      1: Step Time =    1.000,"P-1-1",          5400,   103.912E-03,   6.26860E-03,            0.,NA,NA,"",   944.642E+03,   945.382E+03,   945.382E+03
C:/temp/Job-1.odb,Step-1,Increment      1: Step Time =    1.000,"P-1-1",          5401,   95.4588E-03,   193.884E-03,            0.,NA,NA,"",   942.878E+03,   943.567E+03,   943.567E+03
C:/temp/Job-1.odb,Step-1,Increment      1: Step Time =    1.000,"P-1-1",          5402,   6.57635E-03,   103.884E-03,            0.,NA,NA,"",   785.192E+03,   883.113E+03,   883.113E+03
C:/temp/Job-1.odb,Step-1,Increment      1: Step Time =    1.000,"P-1-1",          5403,   95.9304E-03,   6.61107E-03,            0.,NA,NA,"",   944.687E+03,   945.507E+03,   945.507E+03
C:/temp/Job-1.odb,Step-1,Increment      1: Step Time =    1.000,"P-1-1",          5404,   104.468E-03,   193.554E-03,            0.,NA,NA,"",   946.097E+03,   946.930E+03,   946.930E+03
C:/temp/Job-1.odb,Step-1,Increment      1: Step Time =    1.000,"P-1-1",          5405,   193.670E-03,   95.6185E-03,            0.,NA,NA,"",   966.905E+03,   997.863E+03,   997.863E+03
C:/temp/Job-1.odb,Step-1,Increment      1: Step Time =    1.000,"P-1-1",          5406,   18.7554E-03,   193.744E-03,            0.,NA,NA,"",   1.11987E+06,   1.12684E+06,   1.12684E+06
C:/temp/Job-1.odb,Step-1,Increment      1: Step Time =    1.000,"P-1-1",          5407,   5.28522E-03,   181.170E-03,            0.,NA,NA,"",   1.02859E+06,   1.12043E+06,   1.12043E+06
C:/temp/Job-1.odb,Step-1,Increment      1: Step Time =    1.000,"P-1-1",          5408,   181.158E-03,   6.07202E-03,            0.,NA,NA,"",   999.454E+03,   999.400E+03,   999.400E+03
C:/temp/Job-1.odb,Step-1,Increment      1: Step Time =    1.000,"P-1-1",          5409,   194.526E-03,   18.2715E-03,            0.,NA,NA,"",   1.00032E+06,   1.00016E+06,   1.00016E+06
C:/temp/Job-1.odb,Step-1,Increment      1: Step Time =    1.000,"P-1-1",          5410,   194.473E-03,   67.1297E-03,            0.,NA,NA,"",   983.321E+03,   1.00029E+06,   1.00029E+06
C:/temp/Job-1.odb,Step-1,Increment      1: Step Time =    1.000,"P-1-1",          5411,   6.39421E-03,   67.1809E-03,            0.,NA,NA,"",   827.306E+03,   925.955E+03,   925.955E+03
C:/temp/Job-1.odb,Step-1,Increment      1: Step Time =    1.000,"P-1-1",          5412,   67.0492E-03,   6.67049E-03,            0.,NA,NA,"",   968.868E+03,   968.977E+03,   968.977E+03
C:/temp/Job-1.odb,Step-1,Increment      1: Step Time =    1.000,"P-1-1",          5413,   132.933E-03,   194.502E-03,            0.,NA,NA,"",   972.266E+03,   972.106E+03,   972.106E+03
C:/temp/Job-1.odb,Step-1,Increment      1: Step Time =    1.000,"P-1-1",          5414,   132.997E-03,   6.32989E-03,            0.,NA,NA,"",   974.052E+03,   973.820E+03,   973.820E+03
C:/temp/Job-1.odb,Step-1,Increment      1: Step Time =    1.000,"P-1-1",          5415,   66.7152E-03,   194.100E-03,            0.,NA,NA,"",   966.380E+03,   966.456E+03,   966.456E+03
C:/temp/Job-1.odb,Step-1,Increment      1: Step Time =    1.000,"P-1-1",          5416,   194.164E-03,   133.188E-03,            0.,NA,NA,"",   983.760E+03,   1.00034E+06,   1.00034E+06
C:/temp/Job-1.odb,Step-1,Increment      1: Step Time =    1.000,"P-1-1",          5417,   6.70848E-03,   133.149E-03,            0.,NA,NA,"",   828.957E+03,   927.263E+03,   927.263E+03
C:/temp/Job-1.odb,Step-1,Increment      1: Step Time =    1.000,"P-1-1",          5418,   5.86228E-03,   47.9962E-03,            0.,NA,NA,"",   875.747E+03,   974.904E+03,   974.904E+03
C:/temp/Job-1.odb,Step-1,Increment      1: Step Time =    1.000,"P-1-1",          5419,   151.889E-03,   193.707E-03,            0.,NA,NA,"",   991.629E+03,   991.202E+03,   991.202E+03
C:/temp/Job-1.odb,Step-1,Increment      1: Step Time =    1.000,"P-1-1",          5420,   193.669E-03,   48.1083E-03,            0.,NA,NA,"",   995.715E+03,   1.00107E+06,   1.00107E+06
C:/temp/Job-1.odb,Step-1,Increment      1: Step Time =    1.000,"P-1-1",          5421,   47.8747E-03,   6.28380E-03,            0.,NA,NA,"",   997.014E+03,   997.350E+03,   997.350E+03
C:/temp/Job-1.odb,Step-1,Increment      1: Step Time =    1.000,"P-1-1",          5422,   151.840E-03,   5.79690E-03,            0.,NA,NA,"",   991.160E+03,   990.786E+03,   990.786E+03
C:/temp/Job-1.odb,Step-1,Increment      1: Step Time =    1.000,"P-1-1",          5423,   193.807E-03,   153.025E-03,            0.,NA,NA,"",   996.117E+03,   1.00105E+06,   1.00105E+06
C:/temp/Job-1.odb,Step-1,Increment      1: Step Time =    1.000,"P-1-1",          5424,   47.1539E-03,   194.499E-03,            0.,NA,NA,"",   995.203E+03,   995.551E+03,   995.551E+03
C:/temp/Job-1.odb,Step-1,Increment      1: Step Time =    1.000,"P-1-1",          5425,   6.15652E-03,   152.185E-03,            0.,NA,NA,"",   877.557E+03,   976.212E+03,   976.212E+03
C:/temp/Job-1.odb,Step-1,Increment      1: Step Time =    1.000,"P-1-1",          5426,   191.514E-03,   194.189E-03,            0.,NA,NA,"",   999.834E+03,   999.803E+03,   999.803E+03
C:/temp/Job-1.odb,Step-1,Increment      1: Step Time =    1.000,"P-1-1",          5427,   8.56801E-03,   5.90226E-03,            0.,NA,NA,"",   1.25681E+06,   1.28284E+06,   1.28284E+06
C:/temp/Job-1.odb,Step-1,Increment      1: Step Time =    1.000,"P-1-1",          5428,   161.481E-03,   193.217E-03,            0.,NA,NA,"",   996.653E+03,   996.264E+03,   996.264E+03
C:/temp/Job-1.odb,Step-1,Increment      1: Step Time =    1.000,"P-1-1",          5429,   5.95948E-03,   38.3411E-03,            0.,NA,NA,"",   909.727E+03,   1.00763E+06,   1.00763E+06
C:/temp/Job-1.odb,Step-1,Increment      1: Step Time =    1.000,"P-1-1",          5430,   37.2081E-03,   6.41147E-03,            0.,NA,NA,"",   1.02237E+06,   1.02359E+06,   1.02359E+06
C:/temp/Job-1.odb,Step-1,Increment      1: Step Time =    1.000,"P-1-1",          5431,   193.696E-03,   162.423E-03,            0.,NA,NA,"",   999.035E+03,   1.00092E+06,   1.00092E+06
C:/temp/Job-1.odb,Step-1,Increment      1: Step Time =    1.000,"P-1-1",          5432,   193.243E-03,   38.5700E-03,            0.,NA,NA,"",    998.98E+03,   1.00108E+06,   1.00108E+06
C:/temp/Job-1.odb,Step-1,Increment      1: Step Time =    1.000,"P-1-1",          5433,   161.557E-03,   5.97011E-03,            0.,NA,NA,"",   996.219E+03,   995.910E+03,   995.910E+03
C:/temp/Job-1.odb,Step-1,Increment      1: Step Time =    1.000,"P-1-1",          5434,   37.6814E-03,   193.638E-03,            0.,NA,NA,"",   1.02105E+06,   1.02211E+06,   1.02211E+06
C:/temp/Job-1.odb,Step-1,Increment      1: Step Time =    1.000,"P-1-1",          5435,   6.36549E-03,   162.792E-03,            0.,NA,NA,"",   915.865E+03,   1.01279E+06,   1.01279E+06
C:/temp/Job-1.odb,Step-1,Increment      1: Step Time =    1.000,"P-1-1",          5436,   194.124E-03,   8.60580E-03,            0.,NA,NA,"",   1.00003E+06,   999.938E+03,   999.938E+03
C:/temp/Job-1.odb,Step-1,Increment      1: Step Time =    1.000,"P-1-1",          5437,   193.704E-03,   77.2231E-03,            0.,NA,NA,"",   976.327E+03,   999.520E+03,   999.520E+03
C:/temp/Job-1.odb,Step-1,Increment      1: Step Time =    1.000,"P-1-1",          5438,   6.05888E-03,   77.7038E-03,            0.,NA,NA,"",   804.983E+03,   903.653E+03,   903.653E+03
C:/temp/Job-1.odb,Step-1,Increment      1: Step Time =    1.000,"P-1-1",          5439,   77.1084E-03,   6.18652E-03,            0.,NA,NA,"",   954.914E+03,   955.223E+03,   955.223E+03
C:/temp/Job-1.odb,Step-1,Increment      1: Step Time =    1.000,"P-1-1",          5440,   122.849E-03,   193.654E-03,            0.,NA,NA,"",   962.027E+03,   962.131E+03,   962.131E+03
C:/temp/Job-1.odb,Step-1,Increment      1: Step Time =    1.000,"P-1-1",          5441,   122.498E-03,   6.23062E-03,            0.,NA,NA,"",   961.144E+03,   961.275E+03,   961.275E+03
C:/temp/Job-1.odb,Step-1,Increment      1: Step Time =    1.000,"P-1-1",          5442,   76.2207E-03,   193.388E-03,            0.,NA,NA,"",   957.756E+03,   958.136E+03,   958.136E+03
C:/temp/Job-1.odb,Step-1,Increment      1: Step Time =    1.000,"P-1-1",          5443,   193.285E-03,   123.618E-03,            0.,NA,NA,"",   977.245E+03,   999.494E+03,   999.494E+03
C:/temp/Job-1.odb,Step-1,Increment      1: Step Time =    1.000,"P-1-1",          5444,   6.23343E-03,   122.722E-03,            0.,NA,NA,"",   806.137E+03,   904.695E+03,   904.695E+03
C:/temp/Job-1.odb,Step-1,Increment      1: Step Time =    1.000,"P-1-1",          5445,   5.97611E-03,   21.9921E-03,            0.,NA,NA,"",   1.00244E+06,   1.09431E+06,   1.09431E+06
C:/temp/Job-1.odb,Step-1,Increment      1: Step Time =    1.000,"P-1-1",          5446,   193.240E-03,   177.332E-03,            0.,NA,NA,"",   1.00044E+06,   1.00045E+06,   1.00045E+06
C:/temp/Job-1.odb,Step-1,Increment      1: Step Time =    1.000,"P-1-1",          5447,   106.955E-03,   6.28131E-03,            0.,NA,NA,"",   946.349E+03,   947.047E+03,   947.047E+03
C:/temp/Job-1.odb,Step-1,Increment      1: Step Time =    1.000,"P-1-1",          5448,   6.12070E-03,   93.0678E-03,            0.,NA,NA,"",   785.978E+03,   884.208E+03,   884.208E+03
C:/temp/Job-1.odb,Step-1,Increment      1: Step Time =    1.000,"P-1-1",          5449,   92.6918E-03,   6.16821E-03,            0.,NA,NA,"",   943.630E+03,   944.332E+03,   944.332E+03
C:/temp/Job-1.odb,Step-1,Increment      1: Step Time =    1.000,"P-1-1",          5450,   194.079E-03,   107.184E-03,            0.,NA,NA,"",   967.236E+03,   998.370E+03,   998.370E+03
C:/temp/Job-1.odb,Step-1,Increment      1: Step Time =    1.000,"P-1-1",          5451,   92.8756E-03,   193.957E-03,            0.,NA,NA,"",   943.000E+03,   943.675E+03,   943.675E+03
C:/temp/Job-1.odb,Step-1,Increment      1: Step Time =    1.000,"P-1-1",          5452,   6.26667E-03,   107.158E-03,            0.,NA,NA,"",   786.360E+03,   884.499E+03,   884.499E+03
C:/temp/Job-1.odb,Step-1,Increment      1: Step Time =    1.000,"P-1-1",          5453,   107.957E-03,   193.519E-03,            0.,NA,NA,"",   947.508E+03,   948.154E+03,   948.154E+03
C:/temp/Job-1.odb,Step-1,Increment      1: Step Time =    1.000,"P-1-1",          5454,   193.477E-03,   92.1559E-03,            0.,NA,NA,"",   967.927E+03,   998.175E+03,   998.175E+03
C:/temp/Job-1.odb,Step-1,Increment      1: Step Time =    1.000,"P-1-1",          5455,   23.0160E-03,   193.108E-03,            0.,NA,NA,"",   1.08824E+06,   1.09337E+06,   1.09337E+06
C:/temp/Job-1.odb,Step-1,Increment      1: Step Time =    1.000,"P-1-1",          5456,   194.604E-03,   63.2360E-03,            0.,NA,NA,"",   986.170E+03,   1.00047E+06,   1.00047E+06
C:/temp/Job-1.odb,Step-1,Increment      1: Step Time =    1.000,"P-1-1",          5457,   63.4191E-03,   6.73406E-03,            0.,NA,NA,"",   974.029E+03,   974.061E+03,   974.061E+03
C:/temp/Job-1.odb,Step-1,Increment      1: Step Time =    1.000,"P-1-1",          5458,   136.842E-03,   194.612E-03,            0.,NA,NA,"",   976.779E+03,   976.551E+03,   976.551E+03
C:/temp/Job-1.odb,Step-1,Increment      1: Step Time =    1.000,"P-1-1",          5459,   194.061E-03,   136.784E-03,            0.,NA,NA,"",   986.501E+03,   1.00056E+06,   1.00056E+06
C:/temp/Job-1.odb,Step-1,Increment      1: Step Time =    1.000,"P-1-1",          5460,   63.0769E-03,   194.060E-03,            0.,NA,NA,"",   971.513E+03,   971.548E+03,   971.548E+03
C:/temp/Job-1.odb,Step-1,Increment      1: Step Time =    1.000,"P-1-1",          5461,   6.57437E-03,   136.765E-03,            0.,NA,NA,"",   837.340E+03,   935.805E+03,   935.805E+03
C:/temp/Job-1.odb,Step-1,Increment      1: Step Time =    1.000,"P-1-1",          5462,   6.08464E-03,   51.0336E-03,            0.,NA,NA,"",   867.703E+03,   966.645E+03,   966.645E+03
C:/temp/Job-1.odb,Step-1,Increment      1: Step Time =    1.000,"P-1-1",          5463,   148.129E-03,   193.289E-03,            0.,NA,NA,"",   989.652E+03,   989.141E+03,   989.141E+03
C:/temp/Job-1.odb,Step-1,Increment      1: Step Time =    1.000,"P-1-1",          5464,   193.184E-03,   51.8930E-03,            0.,NA,NA,"",   994.333E+03,   1.00128E+06,   1.00128E+06
C:/temp/Job-1.odb,Step-1,Increment      1: Step Time =    1.000,"P-1-1",          5465,   148.854E-03,   5.98642E-03,            0.,NA,NA,"",   989.231E+03,   988.824E+03,   988.824E+03
C:/temp/Job-1.odb,Step-1,Increment      1: Step Time =    1.000,"P-1-1",          5466,   193.984E-03,   148.457E-03,            0.,NA,NA,"",   993.974E+03,   1.00100E+06,   1.00100E+06
C:/temp/Job-1.odb,Step-1,Increment      1: Step Time =    1.000,"P-1-1",          5467,   51.3813E-03,   194.447E-03,            0.,NA,NA,"",   987.837E+03,   987.983E+03,   987.983E+03
C:/temp/Job-1.odb,Step-1,Increment      1: Step Time =    1.000,"P-1-1",          5468,   165.939E-03,   193.999E-03,            0.,NA,NA,"",   997.491E+03,   997.244E+03,   997.244E+03
C:/temp/Job-1.odb,Step-1,Increment      1: Step Time =    1.000,"P-1-1",          5469,   6.53786E-03,   34.0982E-03,            0.,NA,NA,"",   930.311E+03,   1.02607E+06,   1.02607E+06
C:/temp/Job-1.odb,Step-1,Increment      1: Step Time =    1.000,"P-1-1",          5470,   34.0927E-03,   6.27207E-03,            0.,NA,NA,"",   1.03171E+06,   1.03329E+06,   1.03329E+06
C:/temp/Job-1.odb,Step-1,Increment      1: Step Time =    1.000,"P-1-1",          5471,   193.664E-03,   166.372E-03,            0.,NA,NA,"",   999.718E+03,   1.00080E+06,   1.00080E+06
C:/temp/Job-1.odb,Step-1,Increment      1: Step Time =    1.000,"P-1-1",          5472,   194.111E-03,   34.2056E-03,            0.,NA,NA,"",   999.525E+03,   1.00070E+06,   1.00070E+06
C:/temp/Job-1.odb,Step-1,Increment      1: Step Time =    1.000,"P-1-1",          5473,   165.766E-03,   6.69278E-03,            0.,NA,NA,"",   997.778E+03,   997.466E+03,   997.466E+03
C:/temp/Job-1.odb,Step-1,Increment      1: Step Time =    1.000,"P-1-1",          5474,   33.7358E-03,   193.790E-03,            0.,NA,NA,"",   1.03261E+06,   1.03417E+06,   1.03417E+06
C:/temp/Job-1.odb,Step-1,Increment      1: Step Time =    1.000,"P-1-1",          5475,   6.41228E-03,   165.964E-03,            0.,NA,NA,"",   929.789E+03,   1.02586E+06,   1.02586E+06
C:/temp/Job-1.odb,Step-1,Increment      1: Step Time =    1.000,"P-1-1",          5476,   193.808E-03,   81.0208E-03,            0.,NA,NA,"",   973.466E+03,   999.101E+03,   999.101E+03
C:/temp/Job-1.odb,Step-1,Increment      1: Step Time =    1.000,"P-1-1",          5477,   6.17091E-03,   80.7650E-03,            0.,NA,NA,"",   800.088E+03,   898.568E+03,   898.568E+03
C:/temp/Job-1.odb,Step-1,Increment      1: Step Time =    1.000,"P-1-1",          5478,   119.403E-03,   6.24415E-03,            0.,NA,NA,"",   957.586E+03,   957.840E+03,   957.840E+03
C:/temp/Job-1.odb,Step-1,Increment      1: Step Time =    1.000,"P-1-1",          5479,   80.5912E-03,   194.266E-03,            0.,NA,NA,"",   949.607E+03,   949.938E+03,   949.938E+03
C:/temp/Job-1.odb,Step-1,Increment      1: Step Time =    1.000,"P-1-1",          5480,   119.021E-03,   193.638E-03,            0.,NA,NA,"",   957.523E+03,   957.822E+03,   957.822E+03
C:/temp/Job-1.odb,Step-1,Increment      1: Step Time =    1.000,"P-1-1",          5481,   194.263E-03,   119.169E-03,            0.,NA,NA,"",   973.296E+03,   999.298E+03,   999.298E+03
C:/temp/Job-1.odb,Step-1,Increment      1: Step Time =    1.000,"P-1-1",          5482,   89.6227E-03,   6.09678E-03,            0.,NA,NA,"",   944.559E+03,   945.193E+03,   945.193E+03
C:/temp/Job-1.odb,Step-1,Increment      1: Step Time =    1.000,"P-1-1",          5483,   175.252E-03,   193.770E-03,            0.,NA,NA,"",   999.091E+03,   998.964E+03,   998.964E+03
C:/temp/Job-1.odb,Step-1,Increment      1: Step Time =    1.000,"P-1-1",          5484,   6.09088E-03,   25.0617E-03,            0.,NA,NA,"",   979.105E+03,   1.07256E+06,   1.07256E+06
C:/temp/Job-1.odb,Step-1,Increment      1: Step Time =    1.000,"P-1-1",          5485,   110.409E-03,   194.297E-03,            0.,NA,NA,"",   947.001E+03,   947.473E+03,   947.473E+03
C:/temp/Job-1.odb,Step-1,Increment      1: Step Time =    1.000,"P-1-1",          5486,   6.24785E-03,   110.277E-03,            0.,NA,NA,"",   788.814E+03,   887.011E+03,   887.011E+03
C:/temp/Job-1.odb,Step-1,Increment      1: Step Time =    1.000,"P-1-1",          5487,   194.005E-03,   174.523E-03,            0.,NA,NA,"",   1.00033E+06,   1.00045E+06,   1.00045E+06
C:/temp/Job-1.odb,Step-1,Increment      1: Step Time =    1.000,"P-1-1",          5488,   194.071E-03,   89.5311E-03,            0.,NA,NA,"",    968.45E+03,   998.514E+03,   998.514E+03
C:/temp/Job-1.odb,Step-1,Increment      1: Step Time =    1.000,"P-1-1",          5489,   193.703E-03,   25.1372E-03,            0.,NA,NA,"",   1.00037E+06,   1.00048E+06,   1.00048E+06
C:/temp/Job-1.odb,Step-1,Increment      1: Step Time =    1.000,"P-1-1",          5490,   175.070E-03,   6.30788E-03,            0.,NA,NA,"",   999.088E+03,   998.955E+03,   998.955E+03
C:/temp/Job-1.odb,Step-1,Increment      1: Step Time =    1.000,"P-1-1",          5491,   25.6987E-03,   194.061E-03,            0.,NA,NA,"",   1.06848E+06,   1.07161E+06,   1.07161E+06
C:/temp/Job-1.odb,Step-1,Increment      1: Step Time =    1.000,"P-1-1",          5492,   6.28240E-03,   54.1846E-03,            0.,NA,NA,"",   859.633E+03,   958.373E+03,   958.373E+03
C:/temp/Job-1.odb,Step-1,Increment      1: Step Time =    1.000,"P-1-1",          5493,   145.074E-03,   193.746E-03,            0.,NA,NA,"",   986.650E+03,   986.214E+03,   986.214E+03
C:/temp/Job-1.odb,Step-1,Increment      1: Step Time =    1.000,"P-1-1",          5494,   193.590E-03,   54.9784E-03,            0.,NA,NA,"",   992.419E+03,   1.00108E+06,   1.00108E+06
C:/temp/Job-1.odb,Step-1,Increment      1: Step Time =    1.000,"P-1-1",          5495,   145.797E-03,   6.18538E-03,            0.,NA,NA,"",   987.024E+03,   986.596E+03,   986.596E+03
C:/temp/Job-1.odb,Step-1,Increment      1: Step Time =    1.000,"P-1-1",          5496,   194.051E-03,   145.412E-03,            0.,NA,NA,"",   992.277E+03,   1.00093E+06,   1.00093E+06
C:/temp/Job-1.odb,Step-1,Increment      1: Step Time =    1.000,"P-1-1",          5497,   54.3243E-03,   194.299E-03,            0.,NA,NA,"",   983.669E+03,   983.732E+03,   983.732E+03
C:/temp/Job-1.odb,Step-1,Increment      1: Step Time =    1.000,"P-1-1",          5498,   89.5197E-03,   111.004E-03,            0.,NA,NA,"",   1.21685E+06,   1.18070E+06,   1.18070E+06
C:/temp/Job-1.odb,Step-1,Increment      1: Step Time =    1.000,"P-1-1",          5499,   89.8833E-03,   115.232E-03,            0.,NA,NA,"",   1.43863E+06,   1.43298E+06,   1.43298E+06
C:/temp/Job-1.odb,Step-1,Increment      1: Step Time =    1.000,"P-1-1",          5500,   109.357E-03,   115.325E-03,            0.,NA,NA,"",   1.48359E+06,   1.49740E+06,   1.49740E+06
C:/temp/Job-1.odb,Step-1,Increment      1: Step Time =    1.000,"P-1-1",          5501,   83.8597E-03,   108.936E-03,            0.,NA,NA,"",   998.320E+03,   831.157E+03,   831.157E+03
C:/temp/Job-1.odb,Step-1,Increment      1: Step Time =    1.000,"P-1-1",          5502,   96.9024E-03,   119.134E-03,            0.,NA,NA,"",   1.38746E+06,   1.52278E+06,   1.52278E+06
C:/temp/Job-1.odb,Step-1,Increment      1: Step Time =    1.000,"P-1-1",          5503,   98.5000E-03,   120.322E-03,            0.,NA,NA,"",   1.31360E+06,   1.45322E+06,   1.45322E+06
C:/temp/Job-1.odb,Step-1,Increment      1: Step Time =    1.000,"P-1-1",          5504,   116.470E-03,   109.228E-03,            0.,NA,NA,"",   1.04891E+06,   864.251E+03,   864.251E+03
C:/temp/Job-1.odb,Step-1,Increment      1: Step Time =    1.000,"P-1-1",          5505,   80.1224E-03,   102.776E-03,            0.,NA,NA,"",   407.603E+03,   363.520E+03,   363.520E+03
C:/temp/Job-1.odb,Step-1,Increment      1: Step Time =    1.000,"P-1-1",          5506,   120.024E-03,   103.498E-03,            0.,NA,NA,"",   496.970E+03,   417.096E+03,   417.096E+03
C:/temp/Job-1.odb,Step-1,Increment      1: Step Time =    1.000,"P-1-1",          5507,   119.129E-03,   99.8848E-03,            0.,NA,NA,"",   275.208E+03,   226.686E+03,   226.686E+03
C:/temp/Job-1.odb,Step-1,Increment      1: Step Time =    1.000,"P-1-1",          5508,   4.58252E-03,   99.0523E-03,            0.,NA,NA,"",   781.465E+03,   880.487E+03,   880.487E+03
C:/temp/Job-1.odb,Step-1,Increment      1: Step Time =    1.000,"P-1-1",          5509,   100.872E-03,   4.73558E-03,            0.,NA,NA,"",   938.043E+03,   938.489E+03,   938.489E+03
C:/temp/Job-1.odb,Step-1,Increment      1: Step Time =    1.000,"P-1-1",          5510,   194.738E-03,   101.587E-03,            0.,NA,NA,"",   965.688E+03,   998.556E+03,   998.556E+03
C:/temp/Job-1.odb,Step-1,Increment      1: Step Time =    1.000,"P-1-1",          5511,   98.4311E-03,   194.650E-03,            0.,NA,NA,"",   939.864E+03,   940.434E+03,   940.434E+03
C:/temp/Job-1.odb,Step-1,Increment      1: Step Time =    1.000,"P-1-1",          5512,   4.73126E-03,   100.619E-03,            0.,NA,NA,"",   781.696E+03,   880.615E+03,   880.615E+03
C:/temp/Job-1.odb,Step-1,Increment      1: Step Time =    1.000,"P-1-1",          5513,   99.2871E-03,   4.85873E-03,            0.,NA,NA,"",   938.211E+03,   938.736E+03,   938.736E+03
C:/temp/Job-1.odb,Step-1,Increment      1: Step Time =    1.000,"P-1-1",          5514,   99.7400E-03,   193.998E-03,            0.,NA,NA,"",   942.657E+03,   943.409E+03,   943.409E+03
C:/temp/Job-1.odb,Step-1,Increment      1: Step Time =    1.000,"P-1-1",          5515,   194.108E-03,   100.281E-03,            0.,NA,NA,"",   966.101E+03,   998.118E+03,   998.118E+03
C:/temp/Job-1.odb,Step-1,Increment      1: Step Time =    1.000,"P-1-1",          5516,   4.43529E-03,   15.8095E-03,            0.,NA,NA,"",   1.05730E+06,   1.15055E+06,   1.15055E+06
C:/temp/Job-1.odb,Step-1,Increment      1: Step Time =    1.000,"P-1-1",          5517,   184.586E-03,   195.774E-03,            0.,NA,NA,"",   999.447E+03,   999.433E+03,   999.433E+03
C:/temp/Job-1.odb,Step-1,Increment      1: Step Time =    1.000,"P-1-1",          5518,   195.566E-03,   184.446E-03,            0.,NA,NA,"",   1.00027E+06,   1.00006E+06,   1.00006E+06
C:/temp/Job-1.odb,Step-1,Increment      1: Step Time =    1.000,"P-1-1",          5519,   15.6221E-03,   4.42505E-03,            0.,NA,NA,"",   1.14666E+06,   1.15192E+06,   1.15192E+06
C:/temp/Job-1.odb,Step-1,Increment      1: Step Time =    1.000,"P-1-1",          5520,   15.7291E-03,   195.425E-03,            0.,NA,NA,"",   1.14561E+06,   1.15119E+06,   1.15119E+06
C:/temp/Job-1.odb,Step-1,Increment      1: Step Time =    1.000,"P-1-1",          5521,   4.05888E-03,   184.049E-03,            0.,NA,NA,"",   1.05215E+06,   1.14750E+06,   1.14750E+06
C:/temp/Job-1.odb,Step-1,Increment      1: Step Time =    1.000,"P-1-1",          5522,   184.223E-03,   4.48526E-03,            0.,NA,NA,"",   999.446E+03,   999.428E+03,   999.428E+03
C:/temp/Job-1.odb,Step-1,Increment      1: Step Time =    1.000,"P-1-1",          5523,   195.877E-03,   15.4804E-03,            0.,NA,NA,"",   1.00027E+06,   1.00005E+06,   1.00005E+06
C:/temp/Job-1.odb,Step-1,Increment      1: Step Time =    1.000,"P-1-1",          5524,   106.776E-03,   116.116E-03,            0.,NA,NA,"",   1.51725E+06,   1.59763E+06,   1.59763E+06
C:/temp/Job-1.odb,Step-1,Increment      1: Step Time =    1.000,"P-1-1",          5525,   191.591E-03,   6.42827E-03,            0.,NA,NA,"",   999.864E+03,   999.827E+03,   999.827E+03
C:/temp/Job-1.odb,Step-1,Increment      1: Step Time =    1.000,"P-1-1",          5526,   8.11469E-03,   193.660E-03,            0.,NA,NA,"",   1.25865E+06,   1.29014E+06,   1.29014E+06
C:/temp/Job-1.odb,Step-1,Increment      1: Step Time =    1.000,"P-1-1",          5527,   193.783E-03,   191.735E-03,            0.,NA,NA,"",   1.00000E+06,   999.925E+03,   999.925E+03
C:/temp/Job-1.odb,Step-1,Increment      1: Step Time =    1.000,"P-1-1",          5528,   6.38540E-03,   8.42592E-03,            0.,NA,NA,"",   1.21845E+06,   1.27703E+06,   1.27703E+06
C:/temp/Job-1.odb,Step-1,Increment      1: Step Time =    1.000,"P-1-1",          5529,   82.9949E-03,   110.950E-03,            0.,NA,NA,"",   1.12108E+06,   977.233E+03,   977.233E+03
C:/temp/Job-1.odb,Step-1,Increment      1: Step Time =    1.000,"P-1-1",          5530,   113.251E-03,   110.895E-03,            0.,NA,NA,"",   1.21030E+06,   1.07107E+06,   1.07107E+06
C:/temp/Job-1.odb,Step-1,Increment      1: Step Time =    1.000,"P-1-1",          5531,   79.9628E-03,   99.6369E-03,            0.,NA,NA,"",   281.159E+03,   275.105E+03,   275.105E+03
C:/temp/Job-1.odb,Step-1,Increment      1: Step Time =    1.000,"P-1-1",          5532,   119.098E-03,   96.7635E-03,            0.,NA,NA,"",   470.411E+03,   375.818E+03,   375.818E+03
C:/temp/Job-1.odb,Step-1,Increment      1: Step Time =    1.000,"P-1-1",          5533,   80.2276E-03,   96.6162E-03,            0.,NA,NA,"",   454.983E+03,   401.394E+03,   401.394E+03
C:/temp/Job-1.odb,Step-1,Increment      1: Step Time =    1.000,"P-1-1",          5534,   92.6238E-03,   118.801E-03,            0.,NA,NA,"",   1.38833E+06,   1.45992E+06,   1.45992E+06
C:/temp/Job-1.odb,Step-1,Increment      1: Step Time =    1.000,"P-1-1",          5535,   106.879E-03,   118.291E-03,            0.,NA,NA,"",   1.41834E+06,   1.49809E+06,   1.49809E+06
C:/temp/Job-1.odb,Step-1,Increment      1: Step Time =    1.000,"P-1-1",          5536,   52.8300E-03,   193.123E-03,            0.,NA,NA,"",   990.632E+03,   990.808E+03,   990.808E+03
C:/temp/Job-1.odb,Step-1,Increment      1: Step Time =    1.000,"P-1-1",          5537,   7.99185E-03,   146.080E-03,            0.,NA,NA,"",   866.799E+03,   963.050E+03,   963.050E+03
C:/temp/Job-1.odb,Step-1,Increment      1: Step Time =    1.000,"P-1-1",          5538,   192.612E-03,   146.805E-03,            0.,NA,NA,"",   993.853E+03,   1.00139E+06,   1.00139E+06
C:/temp/Job-1.odb,Step-1,Increment      1: Step Time =    1.000,"P-1-1",          5539,   191.774E-03,   54.4494E-03,            0.,NA,NA,"",   993.688E+03,   1.00162E+06,   1.00162E+06
C:/temp/Job-1.odb,Step-1,Increment      1: Step Time =    1.000,"P-1-1",          5540,   53.9728E-03,   7.86626E-03,            0.,NA,NA,"",   992.489E+03,   992.737E+03,   992.737E+03
C:/temp/Job-1.odb,Step-1,Increment      1: Step Time =    1.000,"P-1-1",          5541,   145.895E-03,   7.72620E-03,            0.,NA,NA,"",   989.089E+03,   988.452E+03,   988.452E+03
C:/temp/Job-1.odb,Step-1,Increment      1: Step Time =    1.000,"P-1-1",          5542,   145.612E-03,   192.000E-03,            0.,NA,NA,"",   989.112E+03,   988.456E+03,   988.456E+03
C:/temp/Job-1.odb,Step-1,Increment      1: Step Time =    1.000,"P-1-1",          5543,   7.82259E-03,   54.0932E-03,            0.,NA,NA,"",   865.788E+03,   962.294E+03,   962.294E+03
C:/temp/Job-1.odb,Step-1,Increment      1: Step Time =    1.000,"P-1-1",          5544,   24.4371E-03,   191.462E-03,            0.,NA,NA,"",   1.08416E+06,   1.09090E+06,   1.09090E+06
C:/temp/Job-1.odb,Step-1,Increment      1: Step Time =    1.000,"P-1-1",          5545,   7.67615E-03,   175.542E-03,            0.,NA,NA,"",   993.447E+03,   1.08122E+06,   1.08122E+06
C:/temp/Job-1.odb,Step-1,Increment      1: Step Time =    1.000,"P-1-1",          5546,   192.244E-03,   25.4299E-03,            0.,NA,NA,"",   1.00055E+06,   1.00073E+06,   1.00073E+06
C:/temp/Job-1.odb,Step-1,Increment      1: Step Time =    1.000,"P-1-1",          5547,   175.093E-03,   7.86189E-03,            0.,NA,NA,"",   999.490E+03,   999.289E+03,   999.289E+03
C:/temp/Job-1.odb,Step-1,Increment      1: Step Time =    1.000,"P-1-1",          5548,   191.977E-03,   176.176E-03,            0.,NA,NA,"",   1.00056E+06,   1.00066E+06,   1.00066E+06
C:/temp/Job-1.odb,Step-1,Increment      1: Step Time =    1.000,"P-1-1",          5549,   24.8556E-03,   7.73544E-03,            0.,NA,NA,"",   1.07998E+06,   1.08555E+06,   1.08555E+06
C:/temp/Job-1.odb,Step-1,Increment      1: Step Time =    1.000,"P-1-1",          5550,   7.62283E-03,   25.0940E-03,            0.,NA,NA,"",   988.356E+03,   1.07683E+06,   1.07683E+06
C:/temp/Job-1.odb,Step-1,Increment      1: Step Time =    1.000,"P-1-1",          5551,   176.139E-03,   191.805E-03,            0.,NA,NA,"",   999.649E+03,   999.456E+03,   999.456E+03
C:/temp/Job-1.odb,Step-1,Increment      1: Step Time =    1.000,"P-1-1",          5552,   192.530E-03,   89.7688E-03,            0.,NA,NA,"",   969.295E+03,   997.565E+03,   997.565E+03
C:/temp/Job-1.odb,Step-1,Increment      1: Step Time =    1.000,"P-1-1",          5553,   7.75617E-03,   110.290E-03,            0.,NA,NA,"",   791.442E+03,   888.653E+03,   888.653E+03
C:/temp/Job-1.odb,Step-1,Increment      1: Step Time =    1.000,"P-1-1",          5554,   192.475E-03,   109.998E-03,            0.,NA,NA,"",   969.294E+03,   997.637E+03,   997.637E+03
C:/temp/Job-1.odb,Step-1,Increment      1: Step Time =    1.000,"P-1-1",          5555,   110.510E-03,   192.825E-03,            0.,NA,NA,"",    951.83E+03,   952.606E+03,   952.606E+03
C:/temp/Job-1.odb,Step-1,Increment      1: Step Time =    1.000,"P-1-1",          5556,   7.79018E-03,   90.1337E-03,            0.,NA,NA,"",   791.100E+03,   888.299E+03,   888.299E+03
C:/temp/Job-1.odb,Step-1,Increment      1: Step Time =    1.000,"P-1-1",          5557,   90.1692E-03,   192.189E-03,            0.,NA,NA,"",   950.692E+03,   951.744E+03,   951.744E+03
C:/temp/Job-1.odb,Step-1,Increment      1: Step Time =    1.000,"P-1-1",          5558,   89.5813E-03,   7.54693E-03,            0.,NA,NA,"",   950.011E+03,   950.953E+03,   950.953E+03
C:/temp/Job-1.odb,Step-1,Increment      1: Step Time =    1.000,"P-1-1",          5559,   110.058E-03,   7.79902E-03,            0.,NA,NA,"",   953.527E+03,   954.425E+03,   954.425E+03
C:/temp/Job-1.odb,Step-1,Increment      1: Step Time =    1.000,"P-1-1",          5560,   192.727E-03,   119.045E-03,            0.,NA,NA,"",   974.387E+03,   998.842E+03,   998.842E+03
C:/temp/Job-1.odb,Step-1,Increment      1: Step Time =    1.000,"P-1-1",          5561,   7.88732E-03,   119.732E-03,            0.,NA,NA,"",   804.609E+03,   901.755E+03,   901.755E+03
C:/temp/Job-1.odb,Step-1,Increment      1: Step Time =    1.000,"P-1-1",          5562,   118.911E-03,   192.130E-03,            0.,NA,NA,"",   961.686E+03,   962.129E+03,   962.129E+03
C:/temp/Job-1.odb,Step-1,Increment      1: Step Time =    1.000,"P-1-1",          5563,   80.4454E-03,   192.755E-03,            0.,NA,NA,"",   955.842E+03,   956.410E+03,   956.410E+03
C:/temp/Job-1.odb,Step-1,Increment      1: Step Time =    1.000,"P-1-1",          5564,   80.1225E-03,   7.81899E-03,            0.,NA,NA,"",   958.082E+03,   958.729E+03,   958.729E+03
C:/temp/Job-1.odb,Step-1,Increment      1: Step Time =    1.000,"P-1-1",          5565,   119.394E-03,   7.81121E-03,            0.,NA,NA,"",   962.023E+03,   962.416E+03,   962.416E+03
C:/temp/Job-1.odb,Step-1,Increment      1: Step Time =    1.000,"P-1-1",          5566,   7.70794E-03,   80.7541E-03,            0.,NA,NA,"",   803.415E+03,   900.695E+03,   900.695E+03
C:/temp/Job-1.odb,Step-1,Increment      1: Step Time =    1.000,"P-1-1",          5567,   192.374E-03,   81.1434E-03,            0.,NA,NA,"",   974.439E+03,   998.677E+03,   998.677E+03
C:/temp/Job-1.odb,Step-1,Increment      1: Step Time =    1.000,"P-1-1",          5568,   33.6013E-03,   192.507E-03,            0.,NA,NA,"",   1.03864E+06,   1.04093E+06,   1.04093E+06
C:/temp/Job-1.odb,Step-1,Increment      1: Step Time =    1.000,"P-1-1",          5569,   8.04101E-03,   166.020E-03,            0.,NA,NA,"",   938.728E+03,   1.03086E+06,   1.03086E+06
C:/temp/Job-1.odb,Step-1,Increment      1: Step Time =    1.000,"P-1-1",          5570,   192.629E-03,   34.4977E-03,            0.,NA,NA,"",   999.871E+03,   1.00111E+06,   1.00111E+06
C:/temp/Job-1.odb,Step-1,Increment      1: Step Time =    1.000,"P-1-1",          5571,   165.799E-03,   8.29469E-03,            0.,NA,NA,"",   998.575E+03,   998.116E+03,   998.116E+03
C:/temp/Job-1.odb,Step-1,Increment      1: Step Time =    1.000,"P-1-1",          5572,   192.278E-03,   166.512E-03,            0.,NA,NA,"",   1.00007E+06,   1.00115E+06,   1.00115E+06
C:/temp/Job-1.odb,Step-1,Increment      1: Step Time =    1.000,"P-1-1",          5573,   34.0282E-03,   7.81692E-03,            0.,NA,NA,"",   1.03875E+06,   1.04119E+06,   1.04119E+06
C:/temp/Job-1.odb,Step-1,Increment      1: Step Time =    1.000,"P-1-1",          5574,   8.10673E-03,   33.9881E-03,            0.,NA,NA,"",   938.899E+03,   1.03091E+06,   1.03091E+06
C:/temp/Job-1.odb,Step-1,Increment      1: Step Time =    1.000,"P-1-1",          5575,   165.646E-03,   192.498E-03,            0.,NA,NA,"",   998.174E+03,   997.786E+03,   997.786E+03
C:/temp/Job-1.odb,Step-1,Increment      1: Step Time =    1.000,"P-1-1",          5576,   50.0429E-03,   192.946E-03,            0.,NA,NA,"",   996.119E+03,   996.438E+03,   996.438E+03
C:/temp/Job-1.odb,Step-1,Increment      1: Step Time =    1.000,"P-1-1",          5577,   7.88537E-03,   149.281E-03,            0.,NA,NA,"",   875.938E+03,   972.033E+03,   972.033E+03
C:/temp/Job-1.odb,Step-1,Increment      1: Step Time =    1.000,"P-1-1",          5578,   192.279E-03,   149.821E-03,            0.,NA,NA,"",   995.557E+03,   1.00158E+06,   1.00158E+06
C:/temp/Job-1.odb,Step-1,Increment      1: Step Time =    1.000,"P-1-1",          5579,   192.245E-03,   51.3602E-03,            0.,NA,NA,"",   995.090E+03,   1.00158E+06,   1.00158E+06
C:/temp/Job-1.odb,Step-1,Increment      1: Step Time =    1.000,"P-1-1",          5580,   50.8545E-03,   7.88936E-03,            0.,NA,NA,"",   997.997E+03,   998.382E+03,   998.382E+03
C:/temp/Job-1.odb,Step-1,Increment      1: Step Time =    1.000,"P-1-1",          5581,   148.921E-03,   7.50356E-03,            0.,NA,NA,"",   990.969E+03,   990.359E+03,   990.359E+03
C:/temp/Job-1.odb,Step-1,Increment      1: Step Time =    1.000,"P-1-1",          5582,   148.646E-03,   192.350E-03,            0.,NA,NA,"",   991.045E+03,   990.414E+03,   990.414E+03
C:/temp/Job-1.odb,Step-1,Increment      1: Step Time =    1.000,"P-1-1",          5583,   7.61512E-03,   50.9388E-03,            0.,NA,NA,"",   874.147E+03,   970.716E+03,   970.716E+03
C:/temp/Job-1.odb,Step-1,Increment      1: Step Time =    1.000,"P-1-1",          5584,   192.714E-03,   136.834E-03,            0.,NA,NA,"",   987.464E+03,   1.00081E+06,   1.00081E+06
C:/temp/Job-1.odb,Step-1,Increment      1: Step Time =    1.000,"P-1-1",          5585,   7.90724E-03,   137.241E-03,            0.,NA,NA,"",   842.831E+03,   939.645E+03,   939.645E+03
C:/temp/Job-1.odb,Step-1,Increment      1: Step Time =    1.000,"P-1-1",          5586,   63.0561E-03,   192.826E-03,            0.,NA,NA,"",   976.109E+03,   976.187E+03,   976.187E+03
C:/temp/Job-1.odb,Step-1,Increment      1: Step Time =    1.000,"P-1-1",          5587,   136.012E-03,   8.05819E-03,            0.,NA,NA,"",   980.788E+03,   980.318E+03,   980.318E+03
C:/temp/Job-1.odb,Step-1,Increment      1: Step Time =    1.000,"P-1-1",          5588,   63.0761E-03,   8.36998E-03,            0.,NA,NA,"",   980.619E+03,   980.730E+03,   980.730E+03
C:/temp/Job-1.odb,Step-1,Increment      1: Step Time =    1.000,"P-1-1",          5589,   136.881E-03,   193.264E-03,            0.,NA,NA,"",   979.222E+03,   978.869E+03,   978.869E+03
C:/temp/Job-1.odb,Step-1,Increment      1: Step Time =    1.000,"P-1-1",          5590,   193.270E-03,   63.2205E-03,            0.,NA,NA,"",   987.123E+03,   1.00072E+06,   1.00072E+06
C:/temp/Job-1.odb,Step-1,Increment      1: Step Time =    1.000,"P-1-1",          5591,   8.06654E-03,   64.2002E-03,            0.,NA,NA,"",   839.662E+03,   936.375E+03,   936.375E+03
C:/temp/Job-1.odb,Step-1,Increment      1: Step Time =    1.000,"P-1-1",          5592,   103.804E-03,   119.654E-03,            0.,NA,NA,"",   1.36148E+06,   1.48893E+06,   1.48893E+06
C:/temp/Job-1.odb,Step-1,Increment      1: Step Time =    1.000,"P-1-1",          5593,   7.92764E-03,   142.908E-03,            0.,NA,NA,"",   857.686E+03,   954.277E+03,   954.277E+03
C:/temp/Job-1.odb,Step-1,Increment      1: Step Time =    1.000,"P-1-1",          5594,   192.335E-03,   57.9116E-03,            0.,NA,NA,"",   991.382E+03,   1.00131E+06,   1.00131E+06
C:/temp/Job-1.odb,Step-1,Increment      1: Step Time =    1.000,"P-1-1",          5595,   57.0654E-03,   7.81877E-03,            0.,NA,NA,"",   987.499E+03,   987.618E+03,   987.618E+03
C:/temp/Job-1.odb,Step-1,Increment      1: Step Time =    1.000,"P-1-1",          5596,   142.187E-03,   192.494E-03,            0.,NA,NA,"",   985.688E+03,   985.134E+03,   985.134E+03
C:/temp/Job-1.odb,Step-1,Increment      1: Step Time =    1.000,"P-1-1",          5597,   178.143E-03,   6.16677E-03,            0.,NA,NA,"",   999.297E+03,   999.209E+03,   999.209E+03
C:/temp/Job-1.odb,Step-1,Increment      1: Step Time =    1.000,"P-1-1",          5598,   7.40737E-03,   178.699E-03,            0.,NA,NA,"",   1.01810E+06,   1.10395E+06,   1.10395E+06
C:/temp/Job-1.odb,Step-1,Increment      1: Step Time =    1.000,"P-1-1",          5599,   21.5578E-03,   191.811E-03,            0.,NA,NA,"",   1.10223E+06,   1.11083E+06,   1.11083E+06
C:/temp/Job-1.odb,Step-1,Increment      1: Step Time =    1.000,"P-1-1",          5600,   192.007E-03,   178.894E-03,            0.,NA,NA,"",   1.00053E+06,   1.00052E+06,   1.00052E+06
C:/temp/Job-1.odb,Step-1,Increment      1: Step Time =    1.000,"P-1-1",          5601,   21.7514E-03,   7.72600E-03,            0.,NA,NA,"",   1.09995E+06,   1.10743E+06,   1.10743E+06
C:/temp/Job-1.odb,Step-1,Increment      1: Step Time =    1.000,"P-1-1",          5602,   179.226E-03,   192.322E-03,            0.,NA,NA,"",   999.636E+03,   999.523E+03,   999.523E+03
C:/temp/Job-1.odb,Step-1,Increment      1: Step Time =    1.000,"P-1-1",          5603,   7.46715E-03,   22.0440E-03,            0.,NA,NA,"",   1.01182E+06,   1.09813E+06,   1.09813E+06
C:/temp/Job-1.odb,Step-1,Increment      1: Step Time =    1.000,"P-1-1",          5604,   192.520E-03,   28.0823E-03,            0.,NA,NA,"",   1.00043E+06,   1.00081E+06,   1.00081E+06
C:/temp/Job-1.odb,Step-1,Increment      1: Step Time =    1.000,"P-1-1",          5605,   7.78004E-03,   172.428E-03,            0.,NA,NA,"",   972.462E+03,   1.06214E+06,   1.06214E+06
C:/temp/Job-1.odb,Step-1,Increment      1: Step Time =    1.000,"P-1-1",          5606,   27.9176E-03,   7.68274E-03,            0.,NA,NA,"",   1.06340E+06,   1.06753E+06,   1.06753E+06
C:/temp/Job-1.odb,Step-1,Increment      1: Step Time =    1.000,"P-1-1",          5607,   172.249E-03,   192.683E-03,            0.,NA,NA,"",   999.095E+03,   998.866E+03,   998.866E+03
C:/temp/Job-1.odb,Step-1,Increment      1: Step Time =    1.000,"P-1-1",          5608,   192.141E-03,   93.0879E-03,            0.,NA,NA,"",   968.383E+03,   997.271E+03,   997.271E+03
C:/temp/Job-1.odb,Step-1,Increment      1: Step Time =    1.000,"P-1-1",          5609,   107.088E-03,   192.143E-03,            0.,NA,NA,"",   951.578E+03,   952.562E+03,   952.562E+03
C:/temp/Job-1.odb,Step-1,Increment      1: Step Time =    1.000,"P-1-1",          5610,   92.5219E-03,   7.57849E-03,            0.,NA,NA,"",   948.893E+03,   949.933E+03,   949.933E+03
C:/temp/Job-1.odb,Step-1,Increment      1: Step Time =    1.000,"P-1-1",          5611,   192.566E-03,   107.126E-03,            0.,NA,NA,"",   968.199E+03,   997.515E+03,   997.515E+03
C:/temp/Job-1.odb,Step-1,Increment      1: Step Time =    1.000,"P-1-1",          5612,   92.9864E-03,   192.430E-03,            0.,NA,NA,"",   948.632E+03,   949.651E+03,   949.651E+03
C:/temp/Job-1.odb,Step-1,Increment      1: Step Time =    1.000,"P-1-1",          5613,   7.72459E-03,   107.269E-03,            0.,NA,NA,"",   788.822E+03,   886.053E+03,   886.053E+03
C:/temp/Job-1.odb,Step-1,Increment      1: Step Time =    1.000,"P-1-1",          5614,   106.944E-03,   7.88011E-03,            0.,NA,NA,"",   951.755E+03,   952.803E+03,   952.803E+03
C:/temp/Job-1.odb,Step-1,Increment      1: Step Time =    1.000,"P-1-1",          5615,   7.67695E-03,   93.1242E-03,            0.,NA,NA,"",   788.519E+03,   885.773E+03,   885.773E+03
C:/temp/Job-1.odb,Step-1,Increment      1: Step Time =    1.000,"P-1-1",          5616,   192.472E-03,   112.978E-03,            0.,NA,NA,"",   970.761E+03,   997.991E+03,   997.991E+03
C:/temp/Job-1.odb,Step-1,Increment      1: Step Time =    1.000,"P-1-1",          5617,   7.93897E-03,   87.0626E-03,            0.,NA,NA,"",   794.721E+03,   891.804E+03,   891.804E+03
C:/temp/Job-1.odb,Step-1,Increment      1: Step Time =    1.000,"P-1-1",          5618,   87.1929E-03,   191.822E-03,            0.,NA,NA,"",   953.765E+03,   954.783E+03,   954.783E+03
C:/temp/Job-1.odb,Step-1,Increment      1: Step Time =    1.000,"P-1-1",          5619,   113.169E-03,   7.74505E-03,            0.,NA,NA,"",   955.824E+03,   956.545E+03,   956.545E+03
C:/temp/Job-1.odb,Step-1,Increment      1: Step Time =    1.000,"P-1-1",          5620,   188.365E-03,   7.43016E-03,            0.,NA,NA,"",   999.825E+03,   999.792E+03,   999.792E+03
C:/temp/Job-1.odb,Step-1,Increment      1: Step Time =    1.000,"P-1-1",          5621,   193.640E-03,   11.3537E-03,            0.,NA,NA,"",   1.00011E+06,   1.00000E+06,   1.00000E+06
C:/temp/Job-1.odb,Step-1,Increment      1: Step Time =    1.000,"P-1-1",          5622,   11.4124E-03,   192.412E-03,            0.,NA,NA,"",   1.19879E+06,   1.22298E+06,   1.22298E+06
C:/temp/Job-1.odb,Step-1,Increment      1: Step Time =    1.000,"P-1-1",          5623,   8.06276E-03,   188.557E-03,            0.,NA,NA,"",   1.15421E+06,   1.21480E+06,   1.21480E+06
C:/temp/Job-1.odb,Step-1,Increment      1: Step Time =    1.000,"P-1-1",          5624,   192.767E-03,   188.666E-03,            0.,NA,NA,"",   1.00010E+06,   1.00001E+06,   1.00001E+06
C:/temp/Job-1.odb,Step-1,Increment      1: Step Time =    1.000,"P-1-1",          5625,   11.2943E-03,   6.44422E-03,            0.,NA,NA,"",   1.21169E+06,   1.23011E+06,   1.23011E+06
C:/temp/Job-1.odb,Step-1,Increment      1: Step Time =    1.000,"P-1-1",          5626,   7.42620E-03,   11.6681E-03,            0.,NA,NA,"",   1.14800E+06,   1.21355E+06,   1.21355E+06
C:/temp/Job-1.odb,Step-1,Increment      1: Step Time =    1.000,"P-1-1",          5627,   188.750E-03,   193.701E-03,            0.,NA,NA,"",   999.761E+03,   999.737E+03,   999.737E+03
C:/temp/Job-1.odb,Step-1,Increment      1: Step Time =    1.000,"P-1-1",          5628,   7.60382E-03,   126.937E-03,            0.,NA,NA,"",   817.660E+03,   915.013E+03,   915.013E+03
C:/temp/Job-1.odb,Step-1,Increment      1: Step Time =    1.000,"P-1-1",          5629,   126.510E-03,   192.194E-03,            0.,NA,NA,"",   969.888E+03,   969.861E+03,   969.861E+03
C:/temp/Job-1.odb,Step-1,Increment      1: Step Time =    1.000,"P-1-1",          5630,   192.442E-03,   126.278E-03,            0.,NA,NA,"",   979.917E+03,   999.774E+03,   999.774E+03
C:/temp/Job-1.odb,Step-1,Increment      1: Step Time =    1.000,"P-1-1",          5631,   73.1246E-03,   7.05925E-03,            0.,NA,NA,"",   962.333E+03,   962.583E+03,   962.583E+03
C:/temp/Job-1.odb,Step-1,Increment      1: Step Time =    1.000,"P-1-1",          5632,   73.6089E-03,   192.551E-03,            0.,NA,NA,"",   963.826E+03,   964.142E+03,   964.142E+03
C:/temp/Job-1.odb,Step-1,Increment      1: Step Time =    1.000,"P-1-1",          5633,   125.584E-03,   7.72140E-03,            0.,NA,NA,"",   968.603E+03,   968.632E+03,   968.632E+03
C:/temp/Job-1.odb,Step-1,Increment      1: Step Time =    1.000,"P-1-1",          5634,   7.52599E-03,   74.7501E-03,            0.,NA,NA,"",   814.090E+03,   911.551E+03,   911.551E+03
C:/temp/Job-1.odb,Step-1,Increment      1: Step Time =    1.000,"P-1-1",          5635,   192.149E-03,   73.5887E-03,            0.,NA,NA,"",   980.244E+03,   999.795E+03,   999.795E+03
C:/temp/Job-1.odb,Step-1,Increment      1: Step Time =    1.000,"P-1-1",          5636,   8.04334E-03,   116.591E-03,            0.,NA,NA,"",   799.913E+03,   896.920E+03,   896.920E+03
C:/temp/Job-1.odb,Step-1,Increment      1: Step Time =    1.000,"P-1-1",          5637,   116.282E-03,   192.233E-03,            0.,NA,NA,"",   958.745E+03,   959.333E+03,   959.333E+03
C:/temp/Job-1.odb,Step-1,Increment      1: Step Time =    1.000,"P-1-1",          5638,   83.3431E-03,   7.87201E-03,            0.,NA,NA,"",   955.419E+03,   956.209E+03,   956.209E+03
C:/temp/Job-1.odb,Step-1,Increment      1: Step Time =    1.000,"P-1-1",          5639,   192.398E-03,   83.7866E-03,            0.,NA,NA,"",   972.701E+03,   998.338E+03,   998.338E+03
C:/temp/Job-1.odb,Step-1,Increment      1: Step Time =    1.000,"P-1-1",          5640,   7.68543E-03,   159.601E-03,            0.,NA,NA,"",   909.571E+03,   1.00446E+06,   1.00446E+06
C:/temp/Job-1.odb,Step-1,Increment      1: Step Time =    1.000,"P-1-1",          5641,   192.386E-03,   41.1639E-03,            0.,NA,NA,"",   998.670E+03,   1.00142E+06,   1.00142E+06
C:/temp/Job-1.odb,Step-1,Increment      1: Step Time =    1.000,"P-1-1",          5642,   40.1340E-03,   192.278E-03,            0.,NA,NA,"",   1.02021E+06,   1.02148E+06,   1.02148E+06
C:/temp/Job-1.odb,Step-1,Increment      1: Step Time =    1.000,"P-1-1",          5643,   158.730E-03,   6.80655E-03,            0.,NA,NA,"",   995.664E+03,   995.226E+03,   995.226E+03
C:/temp/Job-1.odb,Step-1,Increment      1: Step Time =    1.000,"P-1-1",          5644,   40.3539E-03,   8.07458E-03,            0.,NA,NA,"",   1.02081E+06,   1.02226E+06,   1.02226E+06
C:/temp/Job-1.odb,Step-1,Increment      1: Step Time =    1.000,"P-1-1",          5645,   192.303E-03,   159.922E-03,            0.,NA,NA,"",   998.980E+03,   1.00142E+06,   1.00142E+06
C:/temp/Job-1.odb,Step-1,Increment      1: Step Time =    1.000,"P-1-1",          5646,   158.858E-03,   192.366E-03,            0.,NA,NA,"",   996.287E+03,   995.755E+03,   995.755E+03
C:/temp/Job-1.odb,Step-1,Increment      1: Step Time =    1.000,"P-1-1",          5647,   6.75352E-03,   41.1372E-03,            0.,NA,NA,"",   902.879E+03,   999.625E+03,   999.625E+03
C:/temp/Job-1.odb,Step-1,Increment      1: Step Time =    1.000,"P-1-1",          5648,   7.88476E-03,   122.832E-03,            0.,NA,NA,"",   810.161E+03,   907.325E+03,   907.325E+03
C:/temp/Job-1.odb,Step-1,Increment      1: Step Time =    1.000,"P-1-1",          5649,   122.661E-03,   192.624E-03,            0.,NA,NA,"",   964.711E+03,   964.869E+03,   964.869E+03
C:/temp/Job-1.odb,Step-1,Increment      1: Step Time =    1.000,"P-1-1",          5650,   76.8956E-03,   7.88178E-03,            0.,NA,NA,"",   961.531E+03,   962.023E+03,   962.023E+03
C:/temp/Job-1.odb,Step-1,Increment      1: Step Time =    1.000,"P-1-1",          5651,   192.680E-03,   77.4382E-03,            0.,NA,NA,"",   977.036E+03,   999.327E+03,   999.327E+03
C:/temp/Job-1.odb,Step-1,Increment      1: Step Time =    1.000,"P-1-1",          5652,   31.1214E-03,   192.309E-03,            0.,NA,NA,"",   1.04896E+06,   1.05201E+06,   1.05201E+06
C:/temp/Job-1.odb,Step-1,Increment      1: Step Time =    1.000,"P-1-1",          5653,   168.691E-03,   8.27174E-03,            0.,NA,NA,"",   999.031E+03,   998.647E+03,   998.647E+03
C:/temp/Job-1.odb,Step-1,Increment      1: Step Time =    1.000,"P-1-1",          5654,   192.089E-03,   169.030E-03,            0.,NA,NA,"",   1.00034E+06,   1.00106E+06,   1.00106E+06
C:/temp/Job-1.odb,Step-1,Increment      1: Step Time =    1.000,"P-1-1",          5655,   7.96948E-03,   31.1873E-03,            0.,NA,NA,"",   952.270E+03,   1.04346E+06,   1.04346E+06
C:/temp/Job-1.odb,Step-1,Increment      1: Step Time =    1.000,"P-1-1",          5656,   7.52856E-03,   155.181E-03,            0.,NA,NA,"",   893.247E+03,   989.178E+03,   989.178E+03
C:/temp/Job-1.odb,Step-1,Increment      1: Step Time =    1.000,"P-1-1",          5657,   192.321E-03,   44.8073E-03,            0.,NA,NA,"",   997.659E+03,   1.00153E+06,   1.00153E+06
C:/temp/Job-1.odb,Step-1,Increment      1: Step Time =    1.000,"P-1-1",          5658,   193.434E-03,   156.106E-03,            0.,NA,NA,"",   997.373E+03,   1.00110E+06,   1.00110E+06
C:/temp/Job-1.odb,Step-1,Increment      1: Step Time =    1.000,"P-1-1",          5659,   44.9229E-03,   7.69482E-03,            0.,NA,NA,"",   1.00894E+06,   1.00977E+06,   1.00977E+06
C:/temp/Job-1.odb,Step-1,Increment      1: Step Time =    1.000,"P-1-1",          5660,   154.773E-03,   7.04463E-03,            0.,NA,NA,"",   993.993E+03,   993.484E+03,   993.484E+03
C:/temp/Job-1.odb,Step-1,Increment      1: Step Time =    1.000,"P-1-1",          5661,   43.9321E-03,   193.079E-03,            0.,NA,NA,"",   1.00727E+06,   1.00790E+06,   1.00790E+06
C:/temp/Job-1.odb,Step-1,Increment      1: Step Time =    1.000,"P-1-1",          5662,   155.190E-03,   192.328E-03,            0.,NA,NA,"",   994.813E+03,   994.216E+03,   994.216E+03
C:/temp/Job-1.odb,Step-1,Increment      1: Step Time =    1.000,"P-1-1",          5663,   7.03413E-03,   45.0336E-03,            0.,NA,NA,"",   890.223E+03,   987.128E+03,   987.128E+03
C:/temp/Job-1.odb,Step-1,Increment      1: Step Time =    1.000,"P-1-1",          5664,   37.9458E-03,   192.319E-03,            0.,NA,NA,"",   1.02595E+06,   1.02757E+06,   1.02757E+06
C:/temp/Job-1.odb,Step-1,Increment      1: Step Time =    1.000,"P-1-1",          5665,   161.046E-03,   7.18733E-03,            0.,NA,NA,"",   996.765E+03,   996.320E+03,   996.320E+03
C:/temp/Job-1.odb,Step-1,Increment      1: Step Time =    1.000,"P-1-1",          5666,   192.445E-03,   162.228E-03,            0.,NA,NA,"",   999.391E+03,   1.00128E+06,   1.00128E+06
C:/temp/Job-1.odb,Step-1,Increment      1: Step Time =    1.000,"P-1-1",          5667,   7.22548E-03,   38.8654E-03,            0.,NA,NA,"",   913.900E+03,   1.00925E+06,   1.00925E+06
C:/temp/Job-1.odb,Step-1,Increment      1: Step Time =    1.000,"P-1-1",          5668,   192.375E-03,   139.263E-03,            0.,NA,NA,"",   989.464E+03,   1.00110E+06,   1.00110E+06
C:/temp/Job-1.odb,Step-1,Increment      1: Step Time =    1.000,"P-1-1",          5669,   60.5328E-03,   192.134E-03,            0.,NA,NA,"",   982.272E+03,   982.372E+03,   982.372E+03
C:/temp/Job-1.odb,Step-1,Increment      1: Step Time =    1.000,"P-1-1",          5670,   139.315E-03,   8.12334E-03,            0.,NA,NA,"",   984.144E+03,   983.556E+03,   983.556E+03
C:/temp/Job-1.odb,Step-1,Increment      1: Step Time =    1.000,"P-1-1",          5671,   8.16840E-03,   60.8675E-03,            0.,NA,NA,"",   848.578E+03,   945.006E+03,   945.006E+03
C:/temp/Job-1.odb,Step-1,Increment      1: Step Time =    1.000,"P-1-1",          5672,   192.465E-03,   129.964E-03,            0.,NA,NA,"",   982.761E+03,   1.00027E+06,   1.00027E+06
C:/temp/Job-1.odb,Step-1,Increment      1: Step Time =    1.000,"P-1-1",          5673,   7.61459E-03,   129.884E-03,            0.,NA,NA,"",   824.288E+03,   921.632E+03,   921.632E+03
C:/temp/Job-1.odb,Step-1,Increment      1: Step Time =    1.000,"P-1-1",          5674,   130.328E-03,   192.804E-03,            0.,NA,NA,"",   972.945E+03,   972.766E+03,   972.766E+03
C:/temp/Job-1.odb,Step-1,Increment      1: Step Time =    1.000,"P-1-1",          5675,   70.4375E-03,   7.41792E-03,            0.,NA,NA,"",   967.414E+03,   967.606E+03,   967.606E+03
C:/temp/Job-1.odb,Step-1,Increment      1: Step Time =    1.000,"P-1-1",          5676,   129.961E-03,   7.58117E-03,            0.,NA,NA,"",   973.298E+03,   973.124E+03,   973.124E+03
C:/temp/Job-1.odb,Step-1,Increment      1: Step Time =    1.000,"P-1-1",          5677,   69.9470E-03,   192.469E-03,            0.,NA,NA,"",   968.637E+03,   968.786E+03,   968.786E+03
C:/temp/Job-1.odb,Step-1,Increment      1: Step Time =    1.000,"P-1-1",          5678,   192.748E-03,   69.7419E-03,            0.,NA,NA,"",   982.761E+03,   1.00025E+06,   1.00025E+06
C:/temp/Job-1.odb,Step-1,Increment      1: Step Time =    1.000,"P-1-1",          5679,   7.74132E-03,   70.2953E-03,            0.,NA,NA,"",   824.299E+03,   921.438E+03,   921.438E+03
C:/temp/Job-1.odb,Step-1,Increment      1: Step Time =    1.000,"P-1-1",          5680,   90.6545E-03,   116.380E-03,            0.,NA,NA,"",   1.44612E+06,   1.46754E+06,   1.46754E+06
C:/temp/Job-1.odb,Step-1,Increment      1: Step Time =    1.000,"P-1-1",          5681,   7.74084E-03,   152.325E-03,            0.,NA,NA,"",   884.661E+03,   980.693E+03,   980.693E+03
C:/temp/Job-1.odb,Step-1,Increment      1: Step Time =    1.000,"P-1-1",          5682,   192.132E-03,   49.3127E-03,            0.,NA,NA,"",   996.042E+03,   1.00164E+06,   1.00164E+06
C:/temp/Job-1.odb,Step-1,Increment      1: Step Time =    1.000,"P-1-1",          5683,   47.7733E-03,   7.93956E-03,            0.,NA,NA,"",   1.00383E+06,   1.00443E+06,   1.00443E+06
C:/temp/Job-1.odb,Step-1,Increment      1: Step Time =    1.000,"P-1-1",          5684,   150.673E-03,   192.198E-03,            0.,NA,NA,"",   992.480E+03,   991.827E+03,   991.827E+03
C:/temp/Job-1.odb,Step-1,Increment      1: Step Time =    1.000,"P-1-1",          5685,   193.259E-03,   133.414E-03,            0.,NA,NA,"",   984.534E+03,   1.00043E+06,   1.00043E+06
C:/temp/Job-1.odb,Step-1,Increment      1: Step Time =    1.000,"P-1-1",          5686,   66.4679E-03,   193.148E-03,            0.,NA,NA,"",   970.282E+03,   970.432E+03,   970.432E+03
C:/temp/Job-1.odb,Step-1,Increment      1: Step Time =    1.000,"P-1-1",          5687,   132.810E-03,   8.01382E-03,            0.,NA,NA,"",   977.308E+03,   976.970E+03,   976.970E+03
C:/temp/Job-1.odb,Step-1,Increment      1: Step Time =    1.000,"P-1-1",          5688,   8.08932E-03,   67.3865E-03,            0.,NA,NA,"",   831.900E+03,   928.701E+03,   928.701E+03
C:/temp/Job-1.odb,Step-1,Increment      1: Step Time =    1.000,"P-1-1",          5689,   193.179E-03,   18.2769E-03,            0.,NA,NA,"",   1.00036E+06,   1.00025E+06,   1.00025E+06
C:/temp/Job-1.odb,Step-1,Increment      1: Step Time =    1.000,"P-1-1",          5690,   6.48096E-03,   182.307E-03,            0.,NA,NA,"",   1.04867E+06,   1.13435E+06,   1.13435E+06
C:/temp/Job-1.odb,Step-1,Increment      1: Step Time =    1.000,"P-1-1",          5691,   18.7013E-03,   7.57578E-03,            0.,NA,NA,"",   1.12336E+06,   1.13324E+06,   1.13324E+06
C:/temp/Job-1.odb,Step-1,Increment      1: Step Time =    1.000,"P-1-1",          5692,   182.002E-03,   192.603E-03,            0.,NA,NA,"",   999.667E+03,   999.599E+03,   999.599E+03
C:/temp/Job-1.odb,Step-1,Increment      1: Step Time =    1.000,"P-1-1",          5693,   113.559E-03,   113.136E-03,            0.,NA,NA,"",   1.33325E+06,   1.21561E+06,   1.21561E+06
C:/temp/Job-1.odb,Step-1,Increment      1: Step Time =    1.000,"P-1-1",          5694,   192.185E-03,   8.39757E-03,            0.,NA,NA,"",   999.963E+03,   999.902E+03,   999.902E+03
C:/temp/Job-1.odb,Step-1,Increment      1: Step Time =    1.000,"P-1-1",          5695,   8.28808E-03,   192.058E-03,            0.,NA,NA,"",   1.22484E+06,   1.26582E+06,   1.26582E+06
C:/temp/Job-1.odb,Step-1,Increment      1: Step Time =    1.000,"P-1-1",          5696,   191.948E-03,   192.374E-03,            0.,NA,NA,"",   999.924E+03,   999.873E+03,   999.873E+03
C:/temp/Job-1.odb,Step-1,Increment      1: Step Time =    1.000,"P-1-1",          5697,   8.31850E-03,   7.80625E-03,            0.,NA,NA,"",   1.22884E+06,   1.26860E+06,   1.26860E+06
C:/temp/Job-1.odb,Step-1,Increment      1: Step Time =    1.000,"P-1-1",          5698,   96.2773E-03,   192.261E-03,            0.,NA,NA,"",   948.648E+03,   949.723E+03,   949.723E+03
C:/temp/Job-1.odb,Step-1,Increment      1: Step Time =    1.000,"P-1-1",          5699,   192.354E-03,   103.758E-03,            0.,NA,NA,"",   967.597E+03,   997.274E+03,   997.274E+03
C:/temp/Job-1.odb,Step-1,Increment      1: Step Time =    1.000,"P-1-1",          5700,   103.872E-03,   7.88869E-03,            0.,NA,NA,"",   950.278E+03,   951.422E+03,   951.422E+03
C:/temp/Job-1.odb,Step-1,Increment      1: Step Time =    1.000,"P-1-1",          5701,   7.55853E-03,   96.0702E-03,            0.,NA,NA,"",   786.761E+03,   884.079E+03,   884.079E+03
C:/temp/Job-1.odb,Step-1,Increment      1: Step Time =    1.000,"P-1-1",          5702,   120.922E-03,   104.979E-03,            0.,NA,NA,"",   633.179E+03,   548.223E+03,   548.223E+03
C:/temp/Job-1.odb,Step-1,Increment      1: Step Time =    1.000,"P-1-1",          5703,   187.447E-03,   195.913E-03,            0.,NA,NA,"",   999.590E+03,   999.580E+03,   999.580E+03
C:/temp/Job-1.odb,Step-1,Increment      1: Step Time =    1.000,"P-1-1",          5704,   4.47341E-03,   12.7971E-03,            0.,NA,NA,"",   1.10515E+06,   1.19424E+06,   1.19424E+06
C:/temp/Job-1.odb,Step-1,Increment      1: Step Time =    1.000,"P-1-1",          5705,   12.6633E-03,   4.25841E-03,            0.,NA,NA,"",   1.18941E+06,   1.19683E+06,   1.19683E+06
C:/temp/Job-1.odb,Step-1,Increment      1: Step Time =    1.000,"P-1-1",          5706,   195.612E-03,   187.409E-03,            0.,NA,NA,"",   1.00019E+06,   1.00002E+06,   1.00002E+06
C:/temp/Job-1.odb,Step-1,Increment      1: Step Time =    1.000,"P-1-1",          5707,   4.39273E-03,   186.992E-03,            0.,NA,NA,"",   1.10039E+06,   1.19029E+06,   1.19029E+06
C:/temp/Job-1.odb,Step-1,Increment      1: Step Time =    1.000,"P-1-1",          5708,   12.6728E-03,   195.428E-03,            0.,NA,NA,"",   1.19045E+06,   1.19898E+06,   1.19898E+06
C:/temp/Job-1.odb,Step-1,Increment      1: Step Time =    1.000,"P-1-1",          5709,   195.903E-03,   12.6318E-03,            0.,NA,NA,"",   1.00020E+06,   1.00001E+06,   1.00001E+06
C:/temp/Job-1.odb,Step-1,Increment      1: Step Time =    1.000,"P-1-1",          5710,   187.230E-03,   4.49400E-03,            0.,NA,NA,"",   999.601E+03,   999.588E+03,   999.588E+03
C:/temp/Job-1.odb,Step-1,Increment      1: Step Time =    1.000,"P-1-1",          5711,   194.500E-03,   71.3314E-03,            0.,NA,NA,"",   980.176E+03,   1.00010E+06,   1.00010E+06
C:/temp/Job-1.odb,Step-1,Increment      1: Step Time =    1.000,"P-1-1",          5712,   71.4798E-03,   4.41238E-03,            0.,NA,NA,"",   954.551E+03,   954.607E+03,   954.607E+03
C:/temp/Job-1.odb,Step-1,Increment      1: Step Time =    1.000,"P-1-1",          5713,   4.59606E-03,   71.5392E-03,            0.,NA,NA,"",   812.987E+03,   913.197E+03,   913.197E+03
C:/temp/Job-1.odb,Step-1,Increment      1: Step Time =    1.000,"P-1-1",          5714,   128.723E-03,   194.535E-03,            0.,NA,NA,"",   967.042E+03,   966.945E+03,   966.945E+03
C:/temp/Job-1.odb,Step-1,Increment      1: Step Time =    1.000,"P-1-1",          5715,   128.590E-03,   4.56995E-03,            0.,NA,NA,"",   964.762E+03,   964.713E+03,   964.713E+03
C:/temp/Job-1.odb,Step-1,Increment      1: Step Time =    1.000,"P-1-1",          5716,   194.494E-03,   128.604E-03,            0.,NA,NA,"",   979.971E+03,   1.00005E+06,   1.00005E+06
C:/temp/Job-1.odb,Step-1,Increment      1: Step Time =    1.000,"P-1-1",          5717,   71.3219E-03,   194.531E-03,            0.,NA,NA,"",   958.570E+03,   958.661E+03,   958.661E+03
C:/temp/Job-1.odb,Step-1,Increment      1: Step Time =    1.000,"P-1-1",          5718,   4.57832E-03,   128.617E-03,            0.,NA,NA,"",   813.241E+03,   913.482E+03,   913.482E+03
C:/temp/Job-1.odb,Step-1,Increment      1: Step Time =    1.000,"P-1-1",          5719,   4.13084E-03,   43.6555E-03,            0.,NA,NA,"",   881.889E+03,   983.675E+03,   983.675E+03
C:/temp/Job-1.odb,Step-1,Increment      1: Step Time =    1.000,"P-1-1",          5720,   156.595E-03,   194.410E-03,            0.,NA,NA,"",   993.793E+03,   993.477E+03,   993.477E+03
C:/temp/Job-1.odb,Step-1,Increment      1: Step Time =    1.000,"P-1-1",          5721,   4.11594E-03,   42.2071E-03,            0.,NA,NA,"",   886.613E+03,   988.379E+03,   988.379E+03
C:/temp/Job-1.odb,Step-1,Increment      1: Step Time =    1.000,"P-1-1",          5722,   157.151E-03,   195.601E-03,            0.,NA,NA,"",   993.300E+03,   993.109E+03,   993.109E+03
C:/temp/Job-1.odb,Step-1,Increment      1: Step Time =    1.000,"P-1-1",          5723,   194.414E-03,   43.4133E-03,            0.,NA,NA,"",   997.244E+03,   1.00082E+06,   1.00082E+06
C:/temp/Job-1.odb,Step-1,Increment      1: Step Time =    1.000,"P-1-1",          5724,   156.261E-03,   4.14939E-03,            0.,NA,NA,"",   992.700E+03,   992.514E+03,   992.514E+03
C:/temp/Job-1.odb,Step-1,Increment      1: Step Time =    1.000,"P-1-1",          5725,   43.3886E-03,   4.69624E-03,            0.,NA,NA,"",   999.158E+03,   999.505E+03,   999.505E+03
C:/temp/Job-1.odb,Step-1,Increment      1: Step Time =    1.000,"P-1-1",          5726,   194.690E-03,   157.447E-03,            0.,NA,NA,"",   997.382E+03,   1.00070E+06,   1.00070E+06
C:/temp/Job-1.odb,Step-1,Increment      1: Step Time =    1.000,"P-1-1",          5727,   42.6733E-03,   194.573E-03,            0.,NA,NA,"",   1.00365E+06,   1.00407E+06,   1.00407E+06
C:/temp/Job-1.odb,Step-1,Increment      1: Step Time =    1.000,"P-1-1",          5728,   4.54712E-03,   156.634E-03,            0.,NA,NA,"",   884.753E+03,   985.810E+03,   985.810E+03
C:/temp/Job-1.odb,Step-1,Increment      1: Step Time =    1.000,"P-1-1",          5729,   41.8500E-03,   4.74000E-03,            0.,NA,NA,"",   1.00275E+06,   1.00314E+06,   1.00314E+06
C:/temp/Job-1.odb,Step-1,Increment      1: Step Time =    1.000,"P-1-1",          5730,   194.912E-03,   158.654E-03,            0.,NA,NA,"",   997.769E+03,   1.00067E+06,   1.00067E+06
C:/temp/Job-1.odb,Step-1,Increment      1: Step Time =    1.000,"P-1-1",          5731,   157.706E-03,   4.14104E-03,            0.,NA,NA,"",   993.501E+03,   993.323E+03,   993.323E+03
C:/temp/Job-1.odb,Step-1,Increment      1: Step Time =    1.000,"P-1-1",          5732,   195.609E-03,   42.8595E-03,            0.,NA,NA,"",   997.121E+03,   1.00049E+06,   1.00049E+06
C:/temp/Job-1.odb,Step-1,Increment      1: Step Time =    1.000,"P-1-1",          5733,   41.4345E-03,   194.836E-03,            0.,NA,NA,"",   1.00555E+06,   1.00606E+06,   1.00606E+06
C:/temp/Job-1.odb,Step-1,Increment      1: Step Time =    1.000,"P-1-1",          5734,   4.57891E-03,   158.167E-03,            0.,NA,NA,"",   890.051E+03,   990.976E+03,   990.976E+03
C:/temp/Job-1.odb,Step-1,Increment      1: Step Time =    1.000,"P-1-1",          5735,   127.067E-03,   4.57663E-03,            0.,NA,NA,"",   962.730E+03,   962.704E+03,   962.704E+03
C:/temp/Job-1.odb,Step-1,Increment      1: Step Time =    1.000,"P-1-1",          5736,   72.9554E-03,   4.33359E-03,            0.,NA,NA,"",   952.520E+03,   952.596E+03,   952.596E+03
C:/temp/Job-1.odb,Step-1,Increment      1: Step Time =    1.000,"P-1-1",          5737,   4.56275E-03,   73.0621E-03,            0.,NA,NA,"",   809.941E+03,   910.083E+03,   910.083E+03
C:/temp/Job-1.odb,Step-1,Increment      1: Step Time =    1.000,"P-1-1",          5738,   71.8777E-03,   195.700E-03,            0.,NA,NA,"",   952.942E+03,   952.992E+03,   952.992E+03
C:/temp/Job-1.odb,Step-1,Increment      1: Step Time =    1.000,"P-1-1",          5739,   4.52267E-03,   127.107E-03,            0.,NA,NA,"",   810.193E+03,   910.382E+03,   910.382E+03
C:/temp/Job-1.odb,Step-1,Increment      1: Step Time =    1.000,"P-1-1",          5740,   195.658E-03,   128.061E-03,            0.,NA,NA,"",   978.564E+03,   1.00003E+06,   1.00003E+06
C:/temp/Job-1.odb,Step-1,Increment      1: Step Time =    1.000,"P-1-1",          5741,   194.048E-03,   146.925E-03,            0.,NA,NA,"",   993.119E+03,   1.00095E+06,   1.00095E+06
C:/temp/Job-1.odb,Step-1,Increment      1: Step Time =    1.000,"P-1-1",          5742,   52.8507E-03,   194.425E-03,            0.,NA,NA,"",   985.496E+03,   985.587E+03,   985.587E+03
C:/temp/Job-1.odb,Step-1,Increment      1: Step Time =    1.000,"P-1-1",          5743,   88.5613E-03,   112.112E-03,            0.,NA,NA,"",   1.29613E+06,   1.23248E+06,   1.23248E+06
C:/temp/Job-1.odb,Step-1,Increment      1: Step Time =    1.000,"P-1-1",          5744,   107.773E-03,   117.249E-03,            0.,NA,NA,"",   1.45105E+06,   1.51046E+06,   1.51046E+06
C:/temp/Job-1.odb,Step-1,Increment      1: Step Time =    1.000,"P-1-1",          5745,   99.9421E-03,   120.047E-03,            0.,NA,NA,"",   1.32921E+06,   1.47313E+06,   1.47313E+06
C:/temp/Job-1.odb,Step-1,Increment      1: Step Time =    1.000,"P-1-1",          5746,   82.5356E-03,   109.599E-03,            0.,NA,NA,"",   1.02606E+06,   876.072E+03,   876.072E+03
C:/temp/Job-1.odb,Step-1,Increment      1: Step Time =    1.000,"P-1-1",          5747,   2.95018E-03,   15.7056E-03,            0.,NA,NA,"",   1.04490E+06,   1.14550E+06,   1.14550E+06
C:/temp/Job-1.odb,Step-1,Increment      1: Step Time =    1.000,"P-1-1",          5748,   184.527E-03,   197.200E-03,            0.,NA,NA,"",   999.347E+03,   999.340E+03,   999.340E+03
C:/temp/Job-1.odb,Step-1,Increment      1: Step Time =    1.000,"P-1-1",          5749,   197.044E-03,   184.443E-03,            0.,NA,NA,"",   1.00031E+06,   1.00003E+06,   1.00003E+06
C:/temp/Job-1.odb,Step-1,Increment      1: Step Time =    1.000,"P-1-1",          5750,   15.6062E-03,   2.93323E-03,            0.,NA,NA,"",   1.13408E+06,   1.13661E+06,   1.13661E+06
C:/temp/Job-1.odb,Step-1,Increment      1: Step Time =    1.000,"P-1-1",          5751,   3.08537E-03,   99.1452E-03,            0.,NA,NA,"",   779.238E+03,   879.016E+03,   879.016E+03
C:/temp/Job-1.odb,Step-1,Increment      1: Step Time =    1.000,"P-1-1",          5752,   100.809E-03,   3.18007E-03,            0.,NA,NA,"",   931.718E+03,   931.954E+03,   931.954E+03
C:/temp/Job-1.odb,Step-1,Increment      1: Step Time =    1.000,"P-1-1",          5753,   98.9578E-03,   196.272E-03,            0.,NA,NA,"",   933.380E+03,   933.671E+03,   933.671E+03
C:/temp/Job-1.odb,Step-1,Increment      1: Step Time =    1.000,"P-1-1",          5754,   196.340E-03,   101.060E-03,            0.,NA,NA,"",   964.093E+03,   999.256E+03,   999.256E+03
C:/temp/Job-1.odb,Step-1,Increment      1: Step Time =    1.000,"P-1-1",          5755,   15.6629E-03,   196.942E-03,            0.,NA,NA,"",   1.13450E+06,   1.13725E+06,   1.13725E+06
C:/temp/Job-1.odb,Step-1,Increment      1: Step Time =    1.000,"P-1-1",          5756,   2.73002E-03,   184.223E-03,            0.,NA,NA,"",   1.04206E+06,   1.14372E+06,   1.14372E+06
C:/temp/Job-1.odb,Step-1,Increment      1: Step Time =    1.000,"P-1-1",          5757,   184.312E-03,   2.98436E-03,            0.,NA,NA,"",   999.343E+03,   999.335E+03,   999.335E+03
C:/temp/Job-1.odb,Step-1,Increment      1: Step Time =    1.000,"P-1-1",          5758,   197.280E-03,   15.4913E-03,            0.,NA,NA,"",   1.00032E+06,   1.00002E+06,   1.00002E+06
C:/temp/Job-1.odb,Step-1,Increment      1: Step Time =    1.000,"P-1-1",          5759,   117.700E-03,   110.195E-03,            0.,NA,NA,"",   1.09734E+06,   930.710E+03,   930.710E+03
C:/temp/Job-1.odb,Step-1,Increment      1: Step Time =    1.000,"P-1-1",          5760,   83.4828E-03,   112.394E-03,            0.,NA,NA,"",   1.20688E+06,   1.07323E+06,   1.07323E+06
C:/temp/Job-1.odb,Step-1,Increment      1: Step Time =    1.000,"P-1-1",          5761,   120.947E-03,   101.302E-03,            0.,NA,NA,"",   362.162E+03,   340.461E+03,   340.461E+03
C:/temp/Job-1.odb,Step-1,Increment      1: Step Time =    1.000,"P-1-1",          5762,   80.2791E-03,   104.864E-03,            0.,NA,NA,"",   593.713E+03,   510.515E+03,   510.515E+03
C:/temp/Job-1.odb,Step-1,Increment      1: Step Time =    1.000,"P-1-1",          5763,   111.063E-03,   111.303E-03,            0.,NA,NA,"",   1.25483E+06,   1.19258E+06,   1.19258E+06
C:/temp/Job-1.odb,Step-1,Increment      1: Step Time =    1.000,"P-1-1",          5764,   194.230E-03,   20.8020E-03,            0.,NA,NA,"",   1.00036E+06,   1.00026E+06,   1.00026E+06
C:/temp/Job-1.odb,Step-1,Increment      1: Step Time =    1.000,"P-1-1",          5765,   5.83482E-03,   178.476E-03,            0.,NA,NA,"",   1.00562E+06,   1.09773E+06,   1.09773E+06
C:/temp/Job-1.odb,Step-1,Increment      1: Step Time =    1.000,"P-1-1",          5766,   193.801E-03,   135.642E-03,            0.,NA,NA,"",   985.895E+03,   1.00054E+06,   1.00054E+06
C:/temp/Job-1.odb,Step-1,Increment      1: Step Time =    1.000,"P-1-1",          5767,   64.2363E-03,   193.815E-03,            0.,NA,NA,"",   970.966E+03,   971.016E+03,   971.016E+03
C:/temp/Job-1.odb,Step-1,Increment      1: Step Time =    1.000,"P-1-1",          5768,   136.122E-03,   6.44025E-03,            0.,NA,NA,"",   977.861E+03,   977.545E+03,   977.545E+03
C:/temp/Job-1.odb,Step-1,Increment      1: Step Time =    1.000,"P-1-1",          5769,   6.47226E-03,   64.0483E-03,            0.,NA,NA,"",    834.92E+03,   933.492E+03,   933.492E+03
C:/temp/Job-1.odb,Step-1,Increment      1: Step Time =    1.000,"P-1-1",          5770,   21.7600E-03,   6.14766E-03,            0.,NA,NA,"",   1.09443E+06,   1.09929E+06,   1.09929E+06
C:/temp/Job-1.odb,Step-1,Increment      1: Step Time =    1.000,"P-1-1",          5771,   178.783E-03,   193.759E-03,            0.,NA,NA,"",   999.357E+03,   999.276E+03,   999.276E+03
C:/temp/Job-1.odb,Step-1,Increment      1: Step Time =    1.000,"P-1-1",          5772,   6.28745E-03,   149.148E-03,            0.,NA,NA,"",   869.013E+03,   967.633E+03,   967.633E+03
C:/temp/Job-1.odb,Step-1,Increment      1: Step Time =    1.000,"P-1-1",          5773,   193.588E-03,   50.6878E-03,            0.,NA,NA,"",   994.628E+03,   1.00114E+06,   1.00114E+06
C:/temp/Job-1.odb,Step-1,Increment      1: Step Time =    1.000,"P-1-1",          5774,   50.9216E-03,   6.30002E-03,            0.,NA,NA,"",   991.616E+03,   991.849E+03,   991.849E+03
C:/temp/Job-1.odb,Step-1,Increment      1: Step Time =    1.000,"P-1-1",          5775,   149.320E-03,   193.666E-03,            0.,NA,NA,"",   989.984E+03,   989.530E+03,   989.530E+03
C:/temp/Job-1.odb,Step-1,Increment      1: Step Time =    1.000,"P-1-1",          5776,   34.9218E-03,   193.373E-03,            0.,NA,NA,"",   1.03109E+06,   1.03271E+06,   1.03271E+06
C:/temp/Job-1.odb,Step-1,Increment      1: Step Time =    1.000,"P-1-1",          5777,   164.422E-03,   6.93038E-03,            0.,NA,NA,"",   997.592E+03,   997.234E+03,   997.234E+03
C:/temp/Job-1.odb,Step-1,Increment      1: Step Time =    1.000,"P-1-1",          5778,   193.289E-03,   165.199E-03,            0.,NA,NA,"",   999.683E+03,   1.00096E+06,   1.00096E+06
C:/temp/Job-1.odb,Step-1,Increment      1: Step Time =    1.000,"P-1-1",          5779,   6.82594E-03,   35.4389E-03,            0.,NA,NA,"",   925.906E+03,   1.02130E+06,   1.02130E+06
C:/temp/Job-1.odb,Step-1,Increment      1: Step Time =    1.000,"P-1-1",          5780,   6.30411E-03,   119.638E-03,            0.,NA,NA,"",   801.029E+03,   899.422E+03,   899.422E+03
C:/temp/Job-1.odb,Step-1,Increment      1: Step Time =    1.000,"P-1-1",          5781,   120.227E-03,   193.302E-03,            0.,NA,NA,"",   959.969E+03,   960.253E+03,   960.253E+03
C:/temp/Job-1.odb,Step-1,Increment      1: Step Time =    1.000,"P-1-1",          5782,   80.2296E-03,   6.25661E-03,            0.,NA,NA,"",   952.079E+03,   952.508E+03,   952.508E+03
C:/temp/Job-1.odb,Step-1,Increment      1: Step Time =    1.000,"P-1-1",          5783,   193.456E-03,   79.8266E-03,            0.,NA,NA,"",   974.554E+03,   999.105E+03,   999.105E+03
C:/temp/Job-1.odb,Step-1,Increment      1: Step Time =    1.000,"P-1-1",          5784,   94.1464E-03,   119.939E-03,            0.,NA,NA,"",   1.34831E+06,   1.44745E+06,   1.44745E+06
C:/temp/Job-1.odb,Step-1,Increment      1: Step Time =    1.000,"P-1-1",          5785,   90.0132E-03,   193.779E-03,            0.,NA,NA,"",   944.744E+03,   945.443E+03,   945.443E+03
C:/temp/Job-1.odb,Step-1,Increment      1: Step Time =    1.000,"P-1-1",          5786,   194.025E-03,   110.048E-03,            0.,NA,NA,"",   968.260E+03,   998.448E+03,   998.448E+03
C:/temp/Job-1.odb,Step-1,Increment      1: Step Time =    1.000,"P-1-1",          5787,   6.21599E-03,   90.0534E-03,            0.,NA,NA,"",   788.465E+03,   886.683E+03,   886.683E+03
C:/temp/Job-1.odb,Step-1,Increment      1: Step Time =    1.000,"P-1-1",          5788,   110.055E-03,   6.24901E-03,            0.,NA,NA,"",   948.445E+03,   949.048E+03,   949.048E+03
C:/temp/Job-1.odb,Step-1,Increment      1: Step Time =    1.000,"P-1-1",          5789,   105.970E-03,   119.531E-03,            0.,NA,NA,"",   1.36641E+06,   1.46262E+06,   1.46262E+06
C:/temp/Job-1.odb,Step-1,Increment      1: Step Time =    1.000,"P-1-1",          5790,   193.299E-03,   23.7611E-03,            0.,NA,NA,"",   1.00044E+06,   1.00049E+06,   1.00049E+06
C:/temp/Job-1.odb,Step-1,Increment      1: Step Time =    1.000,"P-1-1",          5791,   6.09505E-03,   175.431E-03,            0.,NA,NA,"",   982.781E+03,   1.07593E+06,   1.07593E+06
C:/temp/Job-1.odb,Step-1,Increment      1: Step Time =    1.000,"P-1-1",          5792,   24.8369E-03,   6.17445E-03,            0.,NA,NA,"",   1.07375E+06,   1.07739E+06,   1.07739E+06
C:/temp/Job-1.odb,Step-1,Increment      1: Step Time =    1.000,"P-1-1",          5793,   120.419E-03,   98.3257E-03,            0.,NA,NA,"",   367.983E+03,   335.442E+03,   335.442E+03
C:/temp/Job-1.odb,Step-1,Increment      1: Step Time =    1.000,"P-1-1",          5794,   78.8000E-03,   98.0285E-03,            0.,NA,NA,"",   383.811E+03,   380.588E+03,   380.588E+03
C:/temp/Job-1.odb,Step-1,Increment      1: Step Time =    1.000,"P-1-1",          5795,   86.6267E-03,   112.724E-03,            0.,NA,NA,"",   1.29852E+06,   1.19509E+06,   1.19509E+06
C:/temp/Job-1.odb,Step-1,Increment      1: Step Time =    1.000,"P-1-1",          5796,   6.36026E-03,   146.008E-03,            0.,NA,NA,"",   860.321E+03,   958.975E+03,   958.975E+03
C:/temp/Job-1.odb,Step-1,Increment      1: Step Time =    1.000,"P-1-1",          5797,   54.0272E-03,   6.29477E-03,            0.,NA,NA,"",   986.376E+03,   986.499E+03,   986.499E+03
C:/temp/Job-1.odb,Step-1,Increment      1: Step Time =    1.000,"P-1-1",          5798,   193.052E-03,   53.7600E-03,            0.,NA,NA,"",   993.369E+03,   1.00126E+06,   1.00126E+06
C:/temp/Job-1.odb,Step-1,Increment      1: Step Time =    1.000,"P-1-1",          5799,   146.291E-03,   193.211E-03,            0.,NA,NA,"",   988.232E+03,   987.723E+03,   987.723E+03
C:/temp/Job-1.odb,Step-1,Increment      1: Step Time =    1.000,"P-1-1",          5800,   79.5435E-03,   100.905E-03,            0.,NA,NA,"",   300.493E+03,   298.480E+03,   298.480E+03
C:/temp/Job-1.odb,Step-1,Increment      1: Step Time =    1.000,"P-1-1",          5801,   120.936E-03,   95.5164E-03,            0.,NA,NA,"",   588.631E+03,   514.860E+03,   514.860E+03
C:/temp/Job-1.odb,Step-1,Increment      1: Step Time =    1.000,"P-1-1",          5802,   79.9588E-03,   94.9946E-03,            0.,NA,NA,"",   606.312E+03,   530.111E+03,   530.111E+03
C:/temp/Job-1.odb,Step-1,Increment      1: Step Time =    1.000,"P-1-1",          5803,   111.653E-03,   113.553E-03,            0.,NA,NA,"",   1.37971E+06,   1.31284E+06,   1.31284E+06
C:/temp/Job-1.odb,Step-1,Increment      1: Step Time =    1.000,"P-1-1",          5804,   110.414E-03,   116.110E-03,            0.,NA,NA,"",   1.44514E+06,   1.43517E+06,   1.43517E+06
C:/temp/Job-1.odb,Step-1,Increment      1: Step Time =    1.000,"P-1-1",          5805,   88.5999E-03,   116.122E-03,            0.,NA,NA,"",   1.40690E+06,   1.37723E+06,   1.37723E+06
C:/temp/Job-1.odb,Step-1,Increment      1: Step Time =    1.000,"P-1-1",          5806,   84.2995E-03,   106.852E-03,            0.,NA,NA,"",    789.23E+03,   601.850E+03,   601.850E+03
C:/temp/Job-1.odb,Step-1,Increment      1: Step Time =    1.000,"P-1-1",          5807,   7.71342E-03,   139.944E-03,            0.,NA,NA,"",   848.950E+03,   945.980E+03,   945.980E+03
C:/temp/Job-1.odb,Step-1,Increment      1: Step Time =    1.000,"P-1-1",          5808,   139.494E-03,   192.998E-03,            0.,NA,NA,"",   982.394E+03,   981.954E+03,   981.954E+03
C:/temp/Job-1.odb,Step-1,Increment      1: Step Time =    1.000,"P-1-1",          5809,   60.1081E-03,   7.88779E-03,            0.,NA,NA,"",   983.308E+03,   983.426E+03,   983.426E+03
C:/temp/Job-1.odb,Step-1,Increment      1: Step Time =    1.000,"P-1-1",          5810,   192.977E-03,   60.6158E-03,            0.,NA,NA,"",   989.182E+03,   1.00097E+06,   1.00097E+06
C:/temp/Job-1.odb,Step-1,Increment      1: Step Time =    1.000,"P-1-1",          5811,   7.84403E-03,   169.278E-03,            0.,NA,NA,"",   954.265E+03,   1.04549E+06,   1.04549E+06
C:/temp/Job-1.odb,Step-1,Increment      1: Step Time =    1.000,"P-1-1",          5812,   192.970E-03,   32.0971E-03,            0.,NA,NA,"",   1.00003E+06,   1.00089E+06,   1.00089E+06
C:/temp/Job-1.odb,Step-1,Increment      1: Step Time =    1.000,"P-1-1",          5813,   30.9649E-03,   7.68137E-03,            0.,NA,NA,"",   1.04974E+06,   1.05288E+06,   1.05288E+06
C:/temp/Job-1.odb,Step-1,Increment      1: Step Time =    1.000,"P-1-1",          5814,   168.173E-03,   192.778E-03,            0.,NA,NA,"",   998.502E+03,   998.190E+03,   998.190E+03
C:/temp/Job-1.odb,Step-1,Increment      1: Step Time =    1.000,"P-1-1",          5815,   192.763E-03,   101.005E-03,            0.,NA,NA,"",   966.985E+03,   997.252E+03,   997.252E+03
C:/temp/Job-1.odb,Step-1,Increment      1: Step Time =    1.000,"P-1-1",          5816,   99.0045E-03,   192.640E-03,            0.,NA,NA,"",   947.575E+03,   948.680E+03,   948.680E+03
C:/temp/Job-1.odb,Step-1,Increment      1: Step Time =    1.000,"P-1-1",          5817,   100.972E-03,   6.22847E-03,            0.,NA,NA,"",   943.539E+03,   944.255E+03,   944.255E+03
C:/temp/Job-1.odb,Step-1,Increment      1: Step Time =    1.000,"P-1-1",          5818,   6.00763E-03,   98.9198E-03,            0.,NA,NA,"",   783.580E+03,   881.849E+03,   881.849E+03
C:/temp/Job-1.odb,Step-1,Increment      1: Step Time =    1.000,"P-1-1",          5819,   119.745E-03,   110.286E-03,            0.,NA,NA,"",   1.05208E+06,   908.166E+03,   908.166E+03
C:/temp/Job-1.odb,Step-1,Increment      1: Step Time =    1.000,"P-1-1",          5820,   87.0389E-03,   114.262E-03,            0.,NA,NA,"",   1.36313E+06,   1.28315E+06,   1.28315E+06
C:/temp/Job-1.odb,Step-1,Increment      1: Step Time =    1.000,"P-1-1",          5821,   100.049E-03,   121.437E-03,            0.,NA,NA,"",   1.25798E+06,   1.39426E+06,   1.39426E+06
C:/temp/Job-1.odb,Step-1,Increment      1: Step Time =    1.000,"P-1-1",          5822,   101.553E-03,   119.758E-03,            0.,NA,NA,"",   1.35226E+06,   1.49551E+06,   1.49551E+06
C:/temp/Job-1.odb,Step-1,Increment      1: Step Time =    1.000,"P-1-1",          5823,   79.2617E-03,   106.089E-03,            0.,NA,NA,"",   695.562E+03,   618.321E+03,   618.321E+03
C:/temp/Job-1.odb,Step-1,Increment      1: Step Time =    1.000,"P-1-1",          5824,   79.1391E-03,   103.956E-03,            0.,NA,NA,"",   518.080E+03,   473.920E+03,   473.920E+03
C:/temp/Job-1.odb,Step-1,Increment      1: Step Time =    1.000,"P-1-1",          5825,   196.248E-03,   71.7378E-03,            0.,NA,NA,"",   978.501E+03,   1.00011E+06,   1.00011E+06
C:/temp/Job-1.odb,Step-1,Increment      1: Step Time =    1.000,"P-1-1",          5826,   128.297E-03,   196.267E-03,            0.,NA,NA,"",   962.481E+03,   962.404E+03,   962.404E+03
C:/temp/Job-1.odb,Step-1,Increment      1: Step Time =    1.000,"P-1-1",          5827,   71.3904E-03,   2.96627E-03,            0.,NA,NA,"",   948.962E+03,   948.987E+03,   948.987E+03
C:/temp/Job-1.odb,Step-1,Increment      1: Step Time =    1.000,"P-1-1",          5828,   3.06809E-03,   128.663E-03,            0.,NA,NA,"",   809.409E+03,   910.962E+03,   910.962E+03
C:/temp/Job-1.odb,Step-1,Increment      1: Step Time =    1.000,"P-1-1",          5829,   2.75521E-03,   43.5836E-03,            0.,NA,NA,"",   876.035E+03,   980.047E+03,   980.047E+03
C:/temp/Job-1.odb,Step-1,Increment      1: Step Time =    1.000,"P-1-1",          5830,   196.718E-03,   156.794E-03,            0.,NA,NA,"",   996.830E+03,   1.00030E+06,   1.00030E+06
C:/temp/Job-1.odb,Step-1,Increment      1: Step Time =    1.000,"P-1-1",          5831,   43.3020E-03,   196.688E-03,            0.,NA,NA,"",   992.833E+03,   993.000E+03,   993.000E+03
C:/temp/Job-1.odb,Step-1,Increment      1: Step Time =    1.000,"P-1-1",          5832,   156.364E-03,   2.76487E-03,            0.,NA,NA,"",   992.043E+03,   991.954E+03,   991.954E+03
C:/temp/Job-1.odb,Step-1,Increment      1: Step Time =    1.000,"P-1-1",          5833,   157.528E-03,   196.739E-03,            0.,NA,NA,"",   993.014E+03,   992.894E+03,   992.894E+03
C:/temp/Job-1.odb,Step-1,Increment      1: Step Time =    1.000,"P-1-1",          5834,   41.8450E-03,   3.14765E-03,            0.,NA,NA,"",   994.865E+03,   995.048E+03,   995.048E+03
C:/temp/Job-1.odb,Step-1,Increment      1: Step Time =    1.000,"P-1-1",          5835,   196.749E-03,   42.4831E-03,            0.,NA,NA,"",   997.134E+03,   1.00031E+06,   1.00031E+06
C:/temp/Job-1.odb,Step-1,Increment      1: Step Time =    1.000,"P-1-1",          5836,   3.05689E-03,   158.168E-03,            0.,NA,NA,"",   883.103E+03,   986.635E+03,   986.635E+03
C:/temp/Job-1.odb,Step-1,Increment      1: Step Time =    1.000,"P-1-1",          5837,   3.04008E-03,   72.9900E-03,            0.,NA,NA,"",   806.239E+03,   907.662E+03,   907.662E+03
C:/temp/Job-1.odb,Step-1,Increment      1: Step Time =    1.000,"P-1-1",          5838,   72.2501E-03,   196.815E-03,            0.,NA,NA,"",   948.582E+03,   948.616E+03,   948.616E+03
C:/temp/Job-1.odb,Step-1,Increment      1: Step Time =    1.000,"P-1-1",          5839,   127.087E-03,   3.04722E-03,            0.,NA,NA,"",   959.074E+03,   959.062E+03,   959.062E+03
C:/temp/Job-1.odb,Step-1,Increment      1: Step Time =    1.000,"P-1-1",          5840,   196.773E-03,   127.697E-03,            0.,NA,NA,"",   977.463E+03,   999.997E+03,   999.997E+03
C:/temp/Job-1.odb,Step-1,Increment      1: Step Time =    1.000,"P-1-1",          5841,   187.489E-03,   197.272E-03,            0.,NA,NA,"",   999.532E+03,   999.528E+03,   999.528E+03
C:/temp/Job-1.odb,Step-1,Increment      1: Step Time =    1.000,"P-1-1",          5842,   12.5969E-03,   2.84632E-03,            0.,NA,NA,"",   1.17974E+06,   1.18347E+06,   1.18347E+06
C:/temp/Job-1.odb,Step-1,Increment      1: Step Time =    1.000,"P-1-1",          5843,   2.96243E-03,   187.265E-03,            0.,NA,NA,"",   1.09051E+06,   1.18917E+06,   1.18917E+06
C:/temp/Job-1.odb,Step-1,Increment      1: Step Time =    1.000,"P-1-1",          5844,   197.281E-03,   12.5517E-03,            0.,NA,NA,"",   1.00023E+06,   1.00001E+06,   1.00001E+06
C:/temp/Job-1.odb,Step-1,Increment      1: Step Time =    1.000,"P-1-1",          5845,   191.904E-03,   56.4262E-03,            0.,NA,NA,"",   992.653E+03,   1.00154E+06,   1.00154E+06
C:/temp/Job-1.odb,Step-1,Increment      1: Step Time =    1.000,"P-1-1",          5846,   144.328E-03,   7.85750E-03,            0.,NA,NA,"",   988.066E+03,   987.423E+03,   987.423E+03
C:/temp/Job-1.odb,Step-1,Increment      1: Step Time =    1.000,"P-1-1",          5847,   55.5252E-03,   7.85651E-03,            0.,NA,NA,"",   989.924E+03,   990.097E+03,   990.097E+03
C:/temp/Job-1.odb,Step-1,Increment      1: Step Time =    1.000,"P-1-1",          5848,   191.196E-03,   145.330E-03,            0.,NA,NA,"",   994.054E+03,   1.00186E+06,   1.00186E+06
C:/temp/Job-1.odb,Step-1,Increment      1: Step Time =    1.000,"P-1-1",          5849,   7.96300E-03,   55.7192E-03,            0.,NA,NA,"",   861.757E+03,   958.167E+03,   958.167E+03
C:/temp/Job-1.odb,Step-1,Increment      1: Step Time =    1.000,"P-1-1",          5850,   143.676E-03,   192.139E-03,            0.,NA,NA,"",   987.603E+03,   986.975E+03,   986.975E+03
C:/temp/Job-1.odb,Step-1,Increment      1: Step Time =    1.000,"P-1-1",          5851,   55.2551E-03,   191.348E-03,            0.,NA,NA,"",   993.420E+03,   993.617E+03,   993.617E+03
C:/temp/Job-1.odb,Step-1,Increment      1: Step Time =    1.000,"P-1-1",          5852,   8.00006E-03,   144.481E-03,            0.,NA,NA,"",   862.236E+03,   958.635E+03,   958.635E+03
C:/temp/Job-1.odb,Step-1,Increment      1: Step Time =    1.000,"P-1-1",          5853,   9.28688E-03,   26.6394E-03,            0.,NA,NA,"",   987.066E+03,   1.07137E+06,   1.07137E+06
C:/temp/Job-1.odb,Step-1,Increment      1: Step Time =    1.000,"P-1-1",          5854,   173.574E-03,   192.507E-03,            0.,NA,NA,"",   999.275E+03,   999.063E+03,   999.063E+03
C:/temp/Job-1.odb,Step-1,Increment      1: Step Time =    1.000,"P-1-1",          5855,   191.584E-03,   174.129E-03,            0.,NA,NA,"",   1.00062E+06,   1.00086E+06,   1.00086E+06
C:/temp/Job-1.odb,Step-1,Increment      1: Step Time =    1.000,"P-1-1",          5856,   26.3923E-03,   7.70750E-03,            0.,NA,NA,"",   1.07129E+06,   1.07607E+06,   1.07607E+06
C:/temp/Job-1.odb,Step-1,Increment      1: Step Time =    1.000,"P-1-1",          5857,   192.300E-03,   26.7291E-03,            0.,NA,NA,"",   1.00050E+06,   1.00078E+06,   1.00078E+06
C:/temp/Job-1.odb,Step-1,Increment      1: Step Time =    1.000,"P-1-1",          5858,   173.606E-03,   9.49670E-03,            0.,NA,NA,"",   999.934E+03,   999.603E+03,   999.603E+03
C:/temp/Job-1.odb,Step-1,Increment      1: Step Time =    1.000,"P-1-1",          5859,   25.7748E-03,   190.764E-03,            0.,NA,NA,"",   1.07865E+06,   1.08573E+06,   1.08573E+06
C:/temp/Job-1.odb,Step-1,Increment      1: Step Time =    1.000,"P-1-1",          5860,   7.74129E-03,   173.986E-03,            0.,NA,NA,"",   982.567E+03,   1.07132E+06,   1.07132E+06
C:/temp/Job-1.odb,Step-1,Increment      1: Step Time =    1.000,"P-1-1",          5861,   111.615E-03,   7.76535E-03,            0.,NA,NA,"",    954.61E+03,   955.417E+03,   955.417E+03
C:/temp/Job-1.odb,Step-1,Increment      1: Step Time =    1.000,"P-1-1",          5862,   88.0880E-03,   7.64589E-03,            0.,NA,NA,"",   951.202E+03,   952.117E+03,   952.117E+03
C:/temp/Job-1.odb,Step-1,Increment      1: Step Time =    1.000,"P-1-1",          5863,   7.85376E-03,   88.6181E-03,            0.,NA,NA,"",   792.747E+03,   889.899E+03,   889.899E+03
C:/temp/Job-1.odb,Step-1,Increment      1: Step Time =    1.000,"P-1-1",          5864,   88.6869E-03,   192.035E-03,            0.,NA,NA,"",   952.021E+03,   953.056E+03,   953.056E+03
C:/temp/Job-1.odb,Step-1,Increment      1: Step Time =    1.000,"P-1-1",          5865,   112.049E-03,   192.787E-03,            0.,NA,NA,"",   953.043E+03,   953.776E+03,   953.776E+03
C:/temp/Job-1.odb,Step-1,Increment      1: Step Time =    1.000,"P-1-1",          5866,   192.472E-03,   111.485E-03,            0.,NA,NA,"",   969.977E+03,   997.793E+03,   997.793E+03
C:/temp/Job-1.odb,Step-1,Increment      1: Step Time =    1.000,"P-1-1",          5867,   7.87341E-03,   111.818E-03,            0.,NA,NA,"",   793.267E+03,   890.396E+03,   890.396E+03
C:/temp/Job-1.odb,Step-1,Increment      1: Step Time =    1.000,"P-1-1",          5868,   191.833E-03,   88.3660E-03,            0.,NA,NA,"",   970.560E+03,   997.526E+03,   997.526E+03
C:/temp/Job-1.odb,Step-1,Increment      1: Step Time =    1.000,"P-1-1",          5869,   192.383E-03,   82.3831E-03,            0.,NA,NA,"",   973.649E+03,   998.535E+03,   998.535E+03
C:/temp/Job-1.odb,Step-1,Increment      1: Step Time =    1.000,"P-1-1",          5870,   117.819E-03,   7.76891E-03,            0.,NA,NA,"",   960.293E+03,   960.769E+03,   960.769E+03
C:/temp/Job-1.odb,Step-1,Increment      1: Step Time =    1.000,"P-1-1",          5871,   81.7211E-03,   7.82169E-03,            0.,NA,NA,"",   956.632E+03,   957.353E+03,   957.353E+03
C:/temp/Job-1.odb,Step-1,Increment      1: Step Time =    1.000,"P-1-1",          5872,   7.82062E-03,   82.3003E-03,            0.,NA,NA,"",   801.159E+03,   898.339E+03,   898.339E+03
C:/temp/Job-1.odb,Step-1,Increment      1: Step Time =    1.000,"P-1-1",          5873,   81.9620E-03,   192.356E-03,            0.,NA,NA,"",   956.016E+03,   956.744E+03,   956.744E+03
C:/temp/Job-1.odb,Step-1,Increment      1: Step Time =    1.000,"P-1-1",          5874,   117.669E-03,   192.148E-03,            0.,NA,NA,"",   960.402E+03,   960.908E+03,   960.908E+03
C:/temp/Job-1.odb,Step-1,Increment      1: Step Time =    1.000,"P-1-1",          5875,   7.94463E-03,   118.180E-03,            0.,NA,NA,"",   802.181E+03,   899.273E+03,   899.273E+03
C:/temp/Job-1.odb,Step-1,Increment      1: Step Time =    1.000,"P-1-1",          5876,   192.753E-03,   117.414E-03,            0.,NA,NA,"",   973.296E+03,   998.673E+03,   998.673E+03
C:/temp/Job-1.odb,Step-1,Increment      1: Step Time =    1.000,"P-1-1",          5877,   8.02856E-03,   32.6351E-03,            0.,NA,NA,"",   945.052E+03,   1.03673E+06,   1.03673E+06
C:/temp/Job-1.odb,Step-1,Increment      1: Step Time =    1.000,"P-1-1",          5878,   167.069E-03,   191.961E-03,            0.,NA,NA,"",   998.717E+03,   998.309E+03,   998.309E+03
C:/temp/Job-1.odb,Step-1,Increment      1: Step Time =    1.000,"P-1-1",          5879,   192.196E-03,   167.687E-03,            0.,NA,NA,"",   1.00020E+06,   1.00111E+06,   1.00111E+06
C:/temp/Job-1.odb,Step-1,Increment      1: Step Time =    1.000,"P-1-1",          5880,   32.4915E-03,   7.72862E-03,            0.,NA,NA,"",   1.04393E+06,   1.04669E+06,   1.04669E+06
C:/temp/Job-1.odb,Step-1,Increment      1: Step Time =    1.000,"P-1-1",          5881,   192.270E-03,   33.1898E-03,            0.,NA,NA,"",   1.00015E+06,   1.00115E+06,   1.00115E+06
C:/temp/Job-1.odb,Step-1,Increment      1: Step Time =    1.000,"P-1-1",          5882,   167.181E-03,   8.26142E-03,            0.,NA,NA,"",   998.790E+03,   998.369E+03,   998.369E+03
C:/temp/Job-1.odb,Step-1,Increment      1: Step Time =    1.000,"P-1-1",          5883,   32.4439E-03,   192.471E-03,            0.,NA,NA,"",   1.04277E+06,   1.04542E+06,   1.04542E+06
C:/temp/Job-1.odb,Step-1,Increment      1: Step Time =    1.000,"P-1-1",          5884,   7.92015E-03,   167.669E-03,            0.,NA,NA,"",   946.259E+03,   1.03800E+06,   1.03800E+06
C:/temp/Job-1.odb,Step-1,Increment      1: Step Time =    1.000,"P-1-1",          5885,   191.018E-03,   53.4668E-03,            0.,NA,NA,"",   994.749E+03,   1.00194E+06,   1.00194E+06
C:/temp/Job-1.odb,Step-1,Increment      1: Step Time =    1.000,"P-1-1",          5886,   147.423E-03,   7.61231E-03,            0.,NA,NA,"",   990.059E+03,   989.433E+03,   989.433E+03
C:/temp/Job-1.odb,Step-1,Increment      1: Step Time =    1.000,"P-1-1",          5887,   52.4084E-03,   7.87151E-03,            0.,NA,NA,"",   995.194E+03,   995.510E+03,   995.510E+03
C:/temp/Job-1.odb,Step-1,Increment      1: Step Time =    1.000,"P-1-1",          5888,   191.119E-03,   148.060E-03,            0.,NA,NA,"",   995.480E+03,   1.00198E+06,   1.00198E+06
C:/temp/Job-1.odb,Step-1,Increment      1: Step Time =    1.000,"P-1-1",          5889,   146.572E-03,   191.237E-03,            0.,NA,NA,"",   990.882E+03,   990.093E+03,   990.093E+03
C:/temp/Job-1.odb,Step-1,Increment      1: Step Time =    1.000,"P-1-1",          5890,   7.71242E-03,   52.5039E-03,            0.,NA,NA,"",   869.927E+03,   966.474E+03,   966.474E+03
C:/temp/Job-1.odb,Step-1,Increment      1: Step Time =    1.000,"P-1-1",          5891,   51.5931E-03,   191.930E-03,            0.,NA,NA,"",   997.392E+03,   997.745E+03,   997.745E+03
C:/temp/Job-1.odb,Step-1,Increment      1: Step Time =    1.000,"P-1-1",          5892,   7.94319E-03,   147.694E-03,            0.,NA,NA,"",   871.401E+03,   967.557E+03,   967.557E+03
C:/temp/Job-1.odb,Step-1,Increment      1: Step Time =    1.000,"P-1-1",          5893,   191.927E-03,   62.0123E-03,            0.,NA,NA,"",   989.020E+03,   1.00114E+06,   1.00114E+06
C:/temp/Job-1.odb,Step-1,Increment      1: Step Time =    1.000,"P-1-1",          5894,   61.6180E-03,   8.12484E-03,            0.,NA,NA,"",   981.855E+03,   981.968E+03,   981.968E+03
C:/temp/Job-1.odb,Step-1,Increment      1: Step Time =    1.000,"P-1-1",          5895,   137.644E-03,   8.07780E-03,            0.,NA,NA,"",   982.455E+03,   981.925E+03,   981.925E+03
C:/temp/Job-1.odb,Step-1,Increment      1: Step Time =    1.000,"P-1-1",          5896,   192.626E-03,   137.974E-03,            0.,NA,NA,"",   988.328E+03,   1.00092E+06,   1.00092E+06
C:/temp/Job-1.odb,Step-1,Increment      1: Step Time =    1.000,"P-1-1",          5897,   8.09106E-03,   62.5624E-03,            0.,NA,NA,"",   843.875E+03,   940.487E+03,   940.487E+03
C:/temp/Job-1.odb,Step-1,Increment      1: Step Time =    1.000,"P-1-1",          5898,   138.127E-03,   191.883E-03,            0.,NA,NA,"",   983.024E+03,   982.480E+03,   982.480E+03
C:/temp/Job-1.odb,Step-1,Increment      1: Step Time =    1.000,"P-1-1",          5899,   61.9103E-03,   192.552E-03,            0.,NA,NA,"",   978.691E+03,   978.769E+03,   978.769E+03
C:/temp/Job-1.odb,Step-1,Increment      1: Step Time =    1.000,"P-1-1",          5900,   7.69172E-03,   138.568E-03,            0.,NA,NA,"",   845.304E+03,   942.411E+03,   942.411E+03
C:/temp/Job-1.odb,Step-1,Increment      1: Step Time =    1.000,"P-1-1",          5901,   177.176E-03,   190.908E-03,            0.,NA,NA,"",   999.905E+03,   999.699E+03,   999.699E+03
C:/temp/Job-1.odb,Step-1,Increment      1: Step Time =    1.000,"P-1-1",          5902,   9.03107E-03,   23.5816E-03,            0.,NA,NA,"",   1.00833E+06,   1.09049E+06,   1.09049E+06
C:/temp/Job-1.odb,Step-1,Increment      1: Step Time =    1.000,"P-1-1",          5903,   191.481E-03,   177.424E-03,            0.,NA,NA,"",   1.00062E+06,   1.00067E+06,   1.00067E+06
C:/temp/Job-1.odb,Step-1,Increment      1: Step Time =    1.000,"P-1-1",          5904,   23.3027E-03,   7.74481E-03,            0.,NA,NA,"",   1.08950E+06,   1.09600E+06,   1.09600E+06
C:/temp/Job-1.odb,Step-1,Increment      1: Step Time =    1.000,"P-1-1",          5905,   192.494E-03,   22.5597E-03,            0.,NA,NA,"",   1.00050E+06,   1.00052E+06,   1.00052E+06
C:/temp/Job-1.odb,Step-1,Increment      1: Step Time =    1.000,"P-1-1",          5906,   176.624E-03,   7.77930E-03,            0.,NA,NA,"",   999.551E+03,   999.385E+03,   999.385E+03
C:/temp/Job-1.odb,Step-1,Increment      1: Step Time =    1.000,"P-1-1",          5907,   7.56452E-03,   177.117E-03,            0.,NA,NA,"",   1.00517E+06,   1.09196E+06,   1.09196E+06
C:/temp/Job-1.odb,Step-1,Increment      1: Step Time =    1.000,"P-1-1",          5908,   22.9395E-03,   191.583E-03,            0.,NA,NA,"",   1.09363E+06,   1.10141E+06,   1.10141E+06
C:/temp/Job-1.odb,Step-1,Increment      1: Step Time =    1.000,"P-1-1",          5909,   9.07371E-03,   9.43849E-03,            0.,NA,NA,"",   1.19199E+06,   1.23610E+06,   1.23610E+06
C:/temp/Job-1.odb,Step-1,Increment      1: Step Time =    1.000,"P-1-1",          5910,   190.323E-03,   192.002E-03,            0.,NA,NA,"",   999.904E+03,   999.860E+03,   999.860E+03
C:/temp/Job-1.odb,Step-1,Increment      1: Step Time =    1.000,"P-1-1",          5911,   191.371E-03,   189.823E-03,            0.,NA,NA,"",   1.00003E+06,   999.964E+03,   999.964E+03
C:/temp/Job-1.odb,Step-1,Increment      1: Step Time =    1.000,"P-1-1",          5912,   9.81718E-03,   7.77994E-03,            0.,NA,NA,"",   1.21446E+06,   1.24696E+06,   1.24696E+06
C:/temp/Job-1.odb,Step-1,Increment      1: Step Time =    1.000,"P-1-1",          5913,   108.500E-03,   7.83975E-03,            0.,NA,NA,"",   952.568E+03,   953.551E+03,   953.551E+03
C:/temp/Job-1.odb,Step-1,Increment      1: Step Time =    1.000,"P-1-1",          5914,   91.0525E-03,   7.51602E-03,            0.,NA,NA,"",   949.220E+03,   950.207E+03,   950.207E+03
C:/temp/Job-1.odb,Step-1,Increment      1: Step Time =    1.000,"P-1-1",          5915,   7.73409E-03,   91.6365E-03,            0.,NA,NA,"",   789.702E+03,   886.929E+03,   886.929E+03
C:/temp/Job-1.odb,Step-1,Increment      1: Step Time =    1.000,"P-1-1",          5916,   192.503E-03,   108.535E-03,            0.,NA,NA,"",   968.679E+03,   997.518E+03,   997.518E+03
C:/temp/Job-1.odb,Step-1,Increment      1: Step Time =    1.000,"P-1-1",          5917,   7.70137E-03,   108.782E-03,            0.,NA,NA,"",   789.960E+03,   887.206E+03,   887.206E+03
C:/temp/Job-1.odb,Step-1,Increment      1: Step Time =    1.000,"P-1-1",          5918,   91.6135E-03,   192.311E-03,            0.,NA,NA,"",   949.602E+03,   950.656E+03,   950.656E+03
C:/temp/Job-1.odb,Step-1,Increment      1: Step Time =    1.000,"P-1-1",          5919,   108.577E-03,   191.503E-03,            0.,NA,NA,"",   954.801E+03,   955.888E+03,   955.888E+03
C:/temp/Job-1.odb,Step-1,Increment      1: Step Time =    1.000,"P-1-1",          5920,   191.425E-03,   91.6632E-03,            0.,NA,NA,"",   969.245E+03,   996.882E+03,   996.882E+03
C:/temp/Job-1.odb,Step-1,Increment      1: Step Time =    1.000,"P-1-1",          5921,   9.88055E-03,   192.276E-03,            0.,NA,NA,"",   1.21362E+06,   1.24462E+06,   1.24462E+06
C:/temp/Job-1.odb,Step-1,Increment      1: Step Time =    1.000,"P-1-1",          5922,   9.17276E-03,   189.199E-03,            0.,NA,NA,"",   1.16580E+06,   1.21723E+06,   1.21723E+06
C:/temp/Job-1.odb,Step-1,Increment      1: Step Time =    1.000,"P-1-1",          5923,   190.506E-03,   9.19827E-03,            0.,NA,NA,"",   999.971E+03,   999.916E+03,   999.916E+03
C:/temp/Job-1.odb,Step-1,Increment      1: Step Time =    1.000,"P-1-1",          5924,   192.215E-03,   9.93337E-03,            0.,NA,NA,"",   1.00003E+06,   999.952E+03,   999.952E+03
C:/temp/Job-1.odb,Step-1,Increment      1: Step Time =    1.000,"P-1-1",          5925,   122.519E-03,   100.735E-03,            0.,NA,NA,"",   400.722E+03,   399.545E+03,   399.545E+03
C:/temp/Job-1.odb,Step-1,Increment      1: Step Time =    1.000,"P-1-1",          5926,   192.154E-03,   76.4236E-03,            0.,NA,NA,"",   978.018E+03,   999.323E+03,   999.323E+03
C:/temp/Job-1.odb,Step-1,Increment      1: Step Time =    1.000,"P-1-1",          5927,   124.059E-03,   7.78839E-03,            0.,NA,NA,"",   967.052E+03,   967.170E+03,   967.170E+03
C:/temp/Job-1.odb,Step-1,Increment      1: Step Time =    1.000,"P-1-1",          5928,   75.1223E-03,   7.83394E-03,            0.,NA,NA,"",   963.236E+03,   963.625E+03,   963.625E+03
C:/temp/Job-1.odb,Step-1,Increment      1: Step Time =    1.000,"P-1-1",          5929,   7.51633E-03,   76.2391E-03,            0.,NA,NA,"",   811.129E+03,   908.596E+03,   908.596E+03
C:/temp/Job-1.odb,Step-1,Increment      1: Step Time =    1.000,"P-1-1",          5930,   7.92025E-03,   124.524E-03,            0.,NA,NA,"",   813.637E+03,   910.777E+03,   910.777E+03
C:/temp/Job-1.odb,Step-1,Increment      1: Step Time =    1.000,"P-1-1",          5931,   75.5129E-03,   191.673E-03,            0.,NA,NA,"",   965.048E+03,   965.553E+03,   965.553E+03
C:/temp/Job-1.odb,Step-1,Increment      1: Step Time =    1.000,"P-1-1",          5932,   123.688E-03,   192.135E-03,            0.,NA,NA,"",   966.884E+03,   967.043E+03,   967.043E+03
C:/temp/Job-1.odb,Step-1,Increment      1: Step Time =    1.000,"P-1-1",          5933,   191.528E-03,   124.339E-03,            0.,NA,NA,"",   979.121E+03,   999.367E+03,   999.367E+03
C:/temp/Job-1.odb,Step-1,Increment      1: Step Time =    1.000,"P-1-1",          5934,   160.789E-03,   191.446E-03,            0.,NA,NA,"",   997.611E+03,   996.994E+03,   996.994E+03
C:/temp/Job-1.odb,Step-1,Increment      1: Step Time =    1.000,"P-1-1",          5935,   8.13469E-03,   40.2516E-03,            0.,NA,NA,"",   912.729E+03,   1.00653E+06,   1.00653E+06
C:/temp/Job-1.odb,Step-1,Increment      1: Step Time =    1.000,"P-1-1",          5936,   38.7302E-03,   8.17643E-03,            0.,NA,NA,"",   1.02544E+06,   1.02716E+06,   1.02716E+06
C:/temp/Job-1.odb,Step-1,Increment      1: Step Time =    1.000,"P-1-1",          5937,   191.188E-03,   161.246E-03,            0.,NA,NA,"",   999.708E+03,   1.00177E+06,   1.00177E+06
C:/temp/Job-1.odb,Step-1,Increment      1: Step Time =    1.000,"P-1-1",          5938,   191.471E-03,   39.2472E-03,            0.,NA,NA,"",   999.513E+03,   1.00169E+06,   1.00169E+06
C:/temp/Job-1.odb,Step-1,Increment      1: Step Time =    1.000,"P-1-1",          5939,   159.693E-03,   8.09902E-03,            0.,NA,NA,"",   996.899E+03,   996.321E+03,   996.321E+03
C:/temp/Job-1.odb,Step-1,Increment      1: Step Time =    1.000,"P-1-1",          5940,   7.83430E-03,   161.136E-03,            0.,NA,NA,"",   916.274E+03,   1.01046E+06,   1.01046E+06
C:/temp/Job-1.odb,Step-1,Increment      1: Step Time =    1.000,"P-1-1",          5941,   38.9926E-03,   191.354E-03,            0.,NA,NA,"",   1.02663E+06,   1.02847E+06,   1.02847E+06
C:/temp/Job-1.odb,Step-1,Increment      1: Step Time =    1.000,"P-1-1",          5942,   152.998E-03,   192.187E-03,            0.,NA,NA,"",   993.846E+03,   993.211E+03,   993.211E+03
C:/temp/Job-1.odb,Step-1,Increment      1: Step Time =    1.000,"P-1-1",          5943,   8.74715E-03,   46.2609E-03,            0.,NA,NA,"",   893.578E+03,   987.607E+03,   987.607E+03
C:/temp/Job-1.odb,Step-1,Increment      1: Step Time =    1.000,"P-1-1",          5944,   192.160E-03,   46.9890E-03,            0.,NA,NA,"",   996.974E+03,   1.00162E+06,   1.00162E+06
C:/temp/Job-1.odb,Step-1,Increment      1: Step Time =    1.000,"P-1-1",          5945,   153.396E-03,   8.63394E-03,            0.,NA,NA,"",   994.811E+03,   994.057E+03,   994.057E+03
C:/temp/Job-1.odb,Step-1,Increment      1: Step Time =    1.000,"P-1-1",          5946,   46.3109E-03,   7.87499E-03,            0.,NA,NA,"",   1.00639E+06,   1.00711E+06,   1.00711E+06
C:/temp/Job-1.odb,Step-1,Increment      1: Step Time =    1.000,"P-1-1",          5947,   191.981E-03,   154.477E-03,            0.,NA,NA,"",   997.583E+03,   1.00168E+06,   1.00168E+06
C:/temp/Job-1.odb,Step-1,Increment      1: Step Time =    1.000,"P-1-1",          5948,   7.63092E-03,   153.760E-03,            0.,NA,NA,"",   888.783E+03,   984.798E+03,   984.798E+03
C:/temp/Job-1.odb,Step-1,Increment      1: Step Time =    1.000,"P-1-1",          5949,   45.7957E-03,   191.594E-03,            0.,NA,NA,"",   1.00936E+06,   1.01023E+06,   1.01023E+06
C:/temp/Job-1.odb,Step-1,Increment      1: Step Time =    1.000,"P-1-1",          5950,   191.924E-03,   69.9477E-03,            0.,NA,NA,"",   983.219E+03,   1.00028E+06,   1.00028E+06
C:/temp/Job-1.odb,Step-1,Increment      1: Step Time =    1.000,"P-1-1",          5951,   69.0092E-03,   7.76958E-03,            0.,NA,NA,"",   970.476E+03,   970.642E+03,   970.642E+03
C:/temp/Job-1.odb,Step-1,Increment      1: Step Time =    1.000,"P-1-1",          5952,   131.321E-03,   7.86373E-03,            0.,NA,NA,"",   975.373E+03,   975.117E+03,   975.117E+03
C:/temp/Job-1.odb,Step-1,Increment      1: Step Time =    1.000,"P-1-1",          5953,   192.824E-03,   132.520E-03,            0.,NA,NA,"",   984.326E+03,   1.00044E+06,   1.00044E+06
C:/temp/Job-1.odb,Step-1,Increment      1: Step Time =    1.000,"P-1-1",          5954,   7.99793E-03,   68.8806E-03,            0.,NA,NA,"",   828.147E+03,   925.084E+03,   925.084E+03
C:/temp/Job-1.odb,Step-1,Increment      1: Step Time =    1.000,"P-1-1",          5955,   130.132E-03,   191.996E-03,            0.,NA,NA,"",   974.399E+03,   974.182E+03,   974.182E+03
C:/temp/Job-1.odb,Step-1,Increment      1: Step Time =    1.000,"P-1-1",          5956,   7.87577E-03,   131.279E-03,            0.,NA,NA,"",   828.100E+03,   925.190E+03,   925.190E+03
C:/temp/Job-1.odb,Step-1,Increment      1: Step Time =    1.000,"P-1-1",          5957,   67.3595E-03,   192.698E-03,            0.,NA,NA,"",   970.910E+03,   971.067E+03,   971.067E+03
C:/temp/Job-1.odb,Step-1,Increment      1: Step Time =    1.000,"P-1-1",          5958,   114.417E-03,   111.925E-03,            0.,NA,NA,"",   1.26481E+06,   1.11826E+06,   1.11826E+06
C:/temp/Job-1.odb,Step-1,Increment      1: Step Time =    1.000,"P-1-1",          5959,   4.44451E-03,   14.2998E-03,            0.,NA,NA,"",   1.07934E+06,   1.17083E+06,   1.17083E+06
C:/temp/Job-1.odb,Step-1,Increment      1: Step Time =    1.000,"P-1-1",          5960,   186.034E-03,   195.853E-03,            0.,NA,NA,"",   999.520E+03,   999.509E+03,   999.509E+03
C:/temp/Job-1.odb,Step-1,Increment      1: Step Time =    1.000,"P-1-1",          5961,   195.606E-03,   185.928E-03,            0.,NA,NA,"",   1.00023E+06,   1.00004E+06,   1.00004E+06
C:/temp/Job-1.odb,Step-1,Increment      1: Step Time =    1.000,"P-1-1",          5962,   14.1157E-03,   4.35015E-03,            0.,NA,NA,"",   1.16699E+06,   1.17320E+06,   1.17320E+06
C:/temp/Job-1.odb,Step-1,Increment      1: Step Time =    1.000,"P-1-1",          5963,   14.2063E-03,   195.440E-03,            0.,NA,NA,"",   1.16615E+06,   1.17301E+06,   1.17301E+06
C:/temp/Job-1.odb,Step-1,Increment      1: Step Time =    1.000,"P-1-1",          5964,   4.19120E-03,   185.504E-03,            0.,NA,NA,"",   1.07387E+06,   1.16712E+06,   1.16712E+06
C:/temp/Job-1.odb,Step-1,Increment      1: Step Time =    1.000,"P-1-1",          5965,   185.726E-03,   4.47709E-03,            0.,NA,NA,"",   999.525E+03,   999.511E+03,   999.511E+03
C:/temp/Job-1.odb,Step-1,Increment      1: Step Time =    1.000,"P-1-1",          5966,   195.880E-03,   14.0419E-03,            0.,NA,NA,"",   1.00024E+06,   1.00003E+06,   1.00003E+06
C:/temp/Job-1.odb,Step-1,Increment      1: Step Time =    1.000,"P-1-1",          5967,   109.662E-03,   117.208E-03,            0.,NA,NA,"",   1.43255E+06,   1.44865E+06,   1.44865E+06
C:/temp/Job-1.odb,Step-1,Increment      1: Step Time =    1.000,"P-1-1",          5968,   121.748E-03,   106.300E-03,            0.,NA,NA,"",   739.327E+03,   651.682E+03,   651.682E+03
C:/temp/Job-1.odb,Step-1,Increment      1: Step Time =    1.000,"P-1-1",          5969,   116.934E-03,   111.319E-03,            0.,NA,NA,"",   1.18097E+06,   1.01535E+06,   1.01535E+06
C:/temp/Job-1.odb,Step-1,Increment      1: Step Time =    1.000,"P-1-1",          5970,   78.4808E-03,   99.3195E-03,            0.,NA,NA,"",   339.988E+03,   350.818E+03,   350.818E+03
C:/temp/Job-1.odb,Step-1,Increment      1: Step Time =    1.000,"P-1-1",          5971,   112.856E-03,   114.414E-03,            0.,NA,NA,"",   1.38259E+06,   1.29432E+06,   1.29432E+06
C:/temp/Job-1.odb,Step-1,Increment      1: Step Time =    1.000,"P-1-1",          5972,   95.5210E-03,   119.517E-03,            0.,NA,NA,"",   1.36466E+06,   1.48429E+06,   1.48429E+06
C:/temp/Job-1.odb,Step-1,Increment      1: Step Time =    1.000,"P-1-1",          5973,   107.192E-03,   120.438E-03,            0.,NA,NA,"",   1.33279E+06,   1.40737E+06,   1.40737E+06
C:/temp/Job-1.odb,Step-1,Increment      1: Step Time =    1.000,"P-1-1",          5974,   91.3442E-03,   119.106E-03,            0.,NA,NA,"",   1.37763E+06,   1.42685E+06,   1.42685E+06
C:/temp/Job-1.odb,Step-1,Increment      1: Step Time =    1.000,"P-1-1",          5975,   119.660E-03,   108.117E-03,            0.,NA,NA,"",   905.426E+03,   764.523E+03,   764.523E+03
C:/temp/Job-1.odb,Step-1,Increment      1: Step Time =    1.000,"P-1-1",          5976,   9.23306E-03,   7.02580E-03,            0.,NA,NA,"",   1.23281E+06,   1.26322E+06,   1.26322E+06
C:/temp/Job-1.odb,Step-1,Increment      1: Step Time =    1.000,"P-1-1",          5977,   190.883E-03,   193.020E-03,            0.,NA,NA,"",   999.865E+03,   999.827E+03,   999.827E+03
C:/temp/Job-1.odb,Step-1,Increment      1: Step Time =    1.000,"P-1-1",          5978,   6.65933E-03,   191.851E-03,            0.,NA,NA,"",   1.22764E+06,   1.28200E+06,   1.28200E+06
C:/temp/Job-1.odb,Step-1,Increment      1: Step Time =    1.000,"P-1-1",          5979,   192.985E-03,   9.30690E-03,            0.,NA,NA,"",   1.00002E+06,   999.940E+03,   999.940E+03
C:/temp/Job-1.odb,Step-1,Increment      1: Step Time =    1.000,"P-1-1",          5980,   82.3392E-03,   106.675E-03,            0.,NA,NA,"",   773.730E+03,   625.613E+03,   625.613E+03
C:/temp/Job-1.odb,Step-1,Increment      1: Step Time =    1.000,"P-1-1",          5981,   191.641E-03,   79.6455E-03,            0.,NA,NA,"",   976.025E+03,   998.808E+03,   998.808E+03
C:/temp/Job-1.odb,Step-1,Increment      1: Step Time =    1.000,"P-1-1",          5982,   180.587E-03,   192.498E-03,            0.,NA,NA,"",   999.641E+03,   999.554E+03,   999.554E+03
C:/temp/Job-1.odb,Step-1,Increment      1: Step Time =    1.000,"P-1-1",          5983,   8.48158E-03,   36.2848E-03,            0.,NA,NA,"",   930.611E+03,   1.02256E+06,   1.02256E+06
C:/temp/Job-1.odb,Step-1,Increment      1: Step Time =    1.000,"P-1-1",          5984,   20.2211E-03,   7.66462E-03,            0.,NA,NA,"",   1.11114E+06,   1.11973E+06,   1.11973E+06
C:/temp/Job-1.odb,Step-1,Increment      1: Step Time =    1.000,"P-1-1",          5985,   78.5290E-03,   7.85090E-03,            0.,NA,NA,"",   959.754E+03,   960.328E+03,   960.328E+03
C:/temp/Job-1.odb,Step-1,Increment      1: Step Time =    1.000,"P-1-1",          5986,   120.469E-03,   191.425E-03,            0.,NA,NA,"",   965.085E+03,   965.424E+03,   965.424E+03
C:/temp/Job-1.odb,Step-1,Increment      1: Step Time =    1.000,"P-1-1",          5987,   7.87395E-03,   121.272E-03,            0.,NA,NA,"",   807.249E+03,   904.413E+03,   904.413E+03
C:/temp/Job-1.odb,Step-1,Increment      1: Step Time =    1.000,"P-1-1",          5988,   191.412E-03,   165.100E-03,            0.,NA,NA,"",   1.00018E+06,   1.00145E+06,   1.00145E+06
C:/temp/Job-1.odb,Step-1,Increment      1: Step Time =    1.000,"P-1-1",          5989,   163.525E-03,   8.54700E-03,            0.,NA,NA,"",   998.309E+03,   997.761E+03,   997.761E+03
C:/temp/Job-1.odb,Step-1,Increment      1: Step Time =    1.000,"P-1-1",          5990,   34.9432E-03,   191.559E-03,            0.,NA,NA,"",   1.03808E+06,   1.04051E+06,   1.04051E+06
C:/temp/Job-1.odb,Step-1,Increment      1: Step Time =    1.000,"P-1-1",          5991,   149.286E-03,   190.965E-03,            0.,NA,NA,"",   993.082E+03,   992.235E+03,   992.235E+03
C:/temp/Job-1.odb,Step-1,Increment      1: Step Time =    1.000,"P-1-1",          5992,   190.856E-03,   50.6921E-03,            0.,NA,NA,"",   996.260E+03,   1.00211E+06,   1.00211E+06
C:/temp/Job-1.odb,Step-1,Increment      1: Step Time =    1.000,"P-1-1",          5993,   49.3068E-03,   7.92085E-03,            0.,NA,NA,"",   1.00090E+06,   1.00139E+06,   1.00139E+06
C:/temp/Job-1.odb,Step-1,Increment      1: Step Time =    1.000,"P-1-1",          5994,   7.82421E-03,   150.830E-03,            0.,NA,NA,"",   880.384E+03,   976.434E+03,   976.434E+03
C:/temp/Job-1.odb,Step-1,Increment      1: Step Time =    1.000,"P-1-1",          5995,   7.16628E-03,   180.372E-03,            0.,NA,NA,"",   1.03322E+06,   1.11813E+06,   1.11813E+06
C:/temp/Job-1.odb,Step-1,Increment      1: Step Time =    1.000,"P-1-1",          5996,   192.023E-03,   19.6825E-03,            0.,NA,NA,"",   1.00047E+06,   1.00042E+06,   1.00042E+06
C:/temp/Job-1.odb,Step-1,Increment      1: Step Time =    1.000,"P-1-1",          5997,   134.398E-03,   8.05299E-03,            0.,NA,NA,"",   979.101E+03,   978.698E+03,   978.698E+03
C:/temp/Job-1.odb,Step-1,Increment      1: Step Time =    1.000,"P-1-1",          5998,   8.08383E-03,   65.8045E-03,            0.,NA,NA,"",   835.742E+03,   932.489E+03,   932.489E+03
C:/temp/Job-1.odb,Step-1,Increment      1: Step Time =    1.000,"P-1-1",          5999,   192.133E-03,   135.421E-03,            0.,NA,NA,"",   986.922E+03,   1.00082E+06,   1.00082E+06
C:/temp/Job-1.odb,Step-1,Increment      1: Step Time =    1.000,"P-1-1",          6000,   64.3874E-03,   192.246E-03,            0.,NA,NA,"",   976.325E+03,   976.381E+03,   976.381E+03
C:/temp/Job-1.odb,Step-1,Increment      1: Step Time =    1.000,"P-1-1",          6001,   7.61928E-03,   94.6030E-03,            0.,NA,NA,"",   787.540E+03,   884.824E+03,   884.824E+03
C:/temp/Job-1.odb,Step-1,Increment      1: Step Time =    1.000,"P-1-1",          6002,   105.399E-03,   7.90347E-03,            0.,NA,NA,"",   951.024E+03,   952.129E+03,   952.129E+03
C:/temp/Job-1.odb,Step-1,Increment      1: Step Time =    1.000,"P-1-1",          6003,   192.694E-03,   105.856E-03,            0.,NA,NA,"",   967.714E+03,   997.428E+03,   997.428E+03
C:/temp/Job-1.odb,Step-1,Increment      1: Step Time =    1.000,"P-1-1",          6004,   94.2159E-03,   192.580E-03,            0.,NA,NA,"",   947.826E+03,   948.875E+03,   948.875E+03
C:/temp/Job-1.odb,Step-1,Increment      1: Step Time =    1.000,"P-1-1",          6005,   87.8232E-03,   115.125E-03,            0.,NA,NA,"",   1.39237E+06,   1.33571E+06,   1.33571E+06
C:/temp/Job-1.odb,Step-1,Increment      1: Step Time =    1.000,"P-1-1",          6006,   89.2501E-03,   117.176E-03,            0.,NA,NA,"",   1.40685E+06,   1.40049E+06,   1.40049E+06
C:/temp/Job-1.odb,Step-1,Increment      1: Step Time =    1.000,"P-1-1",          6007,   112.241E-03,   115.747E-03,            0.,NA,NA,"",   1.41134E+06,   1.35158E+06,   1.35158E+06
C:/temp/Job-1.odb,Step-1,Increment      1: Step Time =    1.000,"P-1-1",          6008,   170.858E-03,   191.521E-03,            0.,NA,NA,"",   999.372E+03,   999.032E+03,   999.032E+03
C:/temp/Job-1.odb,Step-1,Increment      1: Step Time =    1.000,"P-1-1",          6009,   7.90767E-03,   29.6952E-03,            0.,NA,NA,"",   960.218E+03,   1.05083E+06,   1.05083E+06
C:/temp/Job-1.odb,Step-1,Increment      1: Step Time =    1.000,"P-1-1",          6010,   192.324E-03,   85.3469E-03,            0.,NA,NA,"",   971.769E+03,   998.099E+03,   998.099E+03
C:/temp/Job-1.odb,Step-1,Increment      1: Step Time =    1.000,"P-1-1",          6011,   192.691E-03,   59.2907E-03,            0.,NA,NA,"",   990.248E+03,   1.00112E+06,   1.00112E+06
C:/temp/Job-1.odb,Step-1,Increment      1: Step Time =    1.000,"P-1-1",          6012,   58.5847E-03,   7.80436E-03,            0.,NA,NA,"",   985.230E+03,   985.328E+03,   985.328E+03
C:/temp/Job-1.odb,Step-1,Increment      1: Step Time =    1.000,"P-1-1",          6013,   29.4395E-03,   7.66866E-03,            0.,NA,NA,"",   1.05619E+06,   1.05979E+06,   1.05979E+06
C:/temp/Job-1.odb,Step-1,Increment      1: Step Time =    1.000,"P-1-1",          6014,   140.811E-03,   192.769E-03,            0.,NA,NA,"",   984.001E+03,   983.506E+03,   983.506E+03
C:/temp/Job-1.odb,Step-1,Increment      1: Step Time =    1.000,"P-1-1",          6015,   7.81615E-03,   141.393E-03,            0.,NA,NA,"",   853.170E+03,   949.989E+03,   949.989E+03
C:/temp/Job-1.odb,Step-1,Increment      1: Step Time =    1.000,"P-1-1",          6016,   191.951E-03,   170.568E-03,            0.,NA,NA,"",   1.00048E+06,   1.00101E+06,   1.00101E+06
C:/temp/Job-1.odb,Step-1,Increment      1: Step Time =    1.000,"P-1-1",          6017,   141.012E-03,   8.15724E-03,            0.,NA,NA,"",   985.680E+03,   985.049E+03,   985.049E+03
C:/temp/Job-1.odb,Step-1,Increment      1: Step Time =    1.000,"P-1-1",          6018,   191.820E-03,   140.753E-03,            0.,NA,NA,"",   990.941E+03,   1.00140E+06,   1.00140E+06
C:/temp/Job-1.odb,Step-1,Increment      1: Step Time =    1.000,"P-1-1",          6019,   8.25390E-03,   59.1333E-03,            0.,NA,NA,"",   853.306E+03,   949.587E+03,   949.587E+03
C:/temp/Job-1.odb,Step-1,Increment      1: Step Time =    1.000,"P-1-1",          6020,   58.8360E-03,   191.550E-03,            0.,NA,NA,"",   987.176E+03,   987.343E+03,   987.343E+03
C:/temp/Job-1.odb,Step-1,Increment      1: Step Time =    1.000,"P-1-1",          6021,   192.764E-03,   29.4405E-03,            0.,NA,NA,"",   1.00031E+06,   1.00083E+06,   1.00083E+06
C:/temp/Job-1.odb,Step-1,Increment      1: Step Time =    1.000,"P-1-1",          6022,   170.275E-03,   8.28497E-03,            0.,NA,NA,"",   999.227E+03,   998.885E+03,   998.885E+03
C:/temp/Job-1.odb,Step-1,Increment      1: Step Time =    1.000,"P-1-1",          6023,   7.80377E-03,   170.864E-03,            0.,NA,NA,"",   963.000E+03,   1.05352E+06,   1.05352E+06
C:/temp/Job-1.odb,Step-1,Increment      1: Step Time =    1.000,"P-1-1",          6024,   29.5692E-03,   191.932E-03,            0.,NA,NA,"",   1.05735E+06,   1.06127E+06,   1.06127E+06
C:/temp/Job-1.odb,Step-1,Increment      1: Step Time =    1.000,"P-1-1",          6025,   114.716E-03,   7.73591E-03,            0.,NA,NA,"",   957.180E+03,   957.812E+03,   957.812E+03
C:/temp/Job-1.odb,Step-1,Increment      1: Step Time =    1.000,"P-1-1",          6026,   84.9530E-03,   7.91542E-03,            0.,NA,NA,"",   954.208E+03,   955.044E+03,   955.044E+03
C:/temp/Job-1.odb,Step-1,Increment      1: Step Time =    1.000,"P-1-1",          6027,   85.7690E-03,   191.490E-03,            0.,NA,NA,"",   956.015E+03,   957.045E+03,   957.045E+03
C:/temp/Job-1.odb,Step-1,Increment      1: Step Time =    1.000,"P-1-1",          6028,   114.827E-03,   192.282E-03,            0.,NA,NA,"",   957.214E+03,   957.873E+03,   957.873E+03
C:/temp/Job-1.odb,Step-1,Increment      1: Step Time =    1.000,"P-1-1",          6029,   8.02370E-03,   85.4765E-03,            0.,NA,NA,"",   796.861E+03,   893.904E+03,   893.904E+03
C:/temp/Job-1.odb,Step-1,Increment      1: Step Time =    1.000,"P-1-1",          6030,   8.13352E-03,   114.988E-03,            0.,NA,NA,"",   797.705E+03,   894.670E+03,   894.670E+03
C:/temp/Job-1.odb,Step-1,Increment      1: Step Time =    1.000,"P-1-1",          6031,   192.440E-03,   114.487E-03,            0.,NA,NA,"",   971.641E+03,   998.159E+03,   998.159E+03
C:/temp/Job-1.odb,Step-1,Increment      1: Step Time =    1.000,"P-1-1",          6032,   120.645E-03,   96.9492E-03,            0.,NA,NA,"",   473.223E+03,   418.998E+03,   418.998E+03
C:/temp/Job-1.odb,Step-1,Increment      1: Step Time =    1.000,"P-1-1",          6033,   78.6593E-03,   96.6816E-03,            0.,NA,NA,"",   474.495E+03,   452.717E+03,   452.717E+03
C:/temp/Job-1.odb,Step-1,Increment      1: Step Time =    1.000,"P-1-1",          6034,   7.48871E-03,   97.5080E-03,            0.,NA,NA,"",   786.162E+03,   883.534E+03,   883.534E+03
C:/temp/Job-1.odb,Step-1,Increment      1: Step Time =    1.000,"P-1-1",          6035,   102.380E-03,   7.82169E-03,            0.,NA,NA,"",   949.509E+03,   950.643E+03,   950.643E+03
C:/temp/Job-1.odb,Step-1,Increment      1: Step Time =    1.000,"P-1-1",          6036,   191.717E-03,   102.730E-03,            0.,NA,NA,"",   967.645E+03,   996.648E+03,   996.648E+03
C:/temp/Job-1.odb,Step-1,Increment      1: Step Time =    1.000,"P-1-1",          6037,   97.2889E-03,   191.615E-03,            0.,NA,NA,"",    950.93E+03,   952.269E+03,   952.269E+03
C:/temp/Job-1.odb,Step-1,Increment      1: Step Time =    1.000,"P-1-1",          6038,   183.647E-03,   191.165E-03,            0.,NA,NA,"",     999.9E+03,   999.827E+03,   999.827E+03
C:/temp/Job-1.odb,Step-1,Increment      1: Step Time =    1.000,"P-1-1",          6039,   17.1629E-03,   8.94168E-03,            0.,NA,NA,"",   1.13563E+06,   1.15133E+06,   1.15133E+06
C:/temp/Job-1.odb,Step-1,Increment      1: Step Time =    1.000,"P-1-1",          6040,   119.643E-03,   93.8079E-03,            0.,NA,NA,"",   738.880E+03,    610.85E+03,    610.85E+03
C:/temp/Job-1.odb,Step-1,Increment      1: Step Time =    1.000,"P-1-1",          6041,   6.64072E-03,   183.573E-03,            0.,NA,NA,"",   1.06635E+06,   1.14897E+06,   1.14897E+06
C:/temp/Job-1.odb,Step-1,Increment      1: Step Time =    1.000,"P-1-1",          6042,   191.705E-03,   17.1228E-03,            0.,NA,NA,"",   1.00039E+06,   1.00031E+06,   1.00031E+06
C:/temp/Job-1.odb,Step-1,Increment      1: Step Time =    1.000,"P-1-1",          6043,   81.0285E-03,   92.8705E-03,            0.,NA,NA,"",   801.135E+03,   678.371E+03,   678.371E+03
C:/temp/Job-1.odb,Step-1,Increment      1: Step Time =    1.000,"P-1-1",          6044,   81.1462E-03,   109.999E-03,            0.,NA,NA,"",   1.01662E+06,   886.569E+03,   886.569E+03
C:/temp/Job-1.odb,Step-1,Increment      1: Step Time =    1.000,"P-1-1",          6045,   92.7489E-03,   120.309E-03,            0.,NA,NA,"",   1.33760E+06,   1.41315E+06,   1.41315E+06
C:/temp/Job-1.odb,Step-1,Increment      1: Step Time =    1.000,"P-1-1",          6046,   106.549E-03,   121.635E-03,            0.,NA,NA,"",   1.28870E+06,   1.37299E+06,   1.37299E+06
C:/temp/Job-1.odb,Step-1,Increment      1: Step Time =    1.000,"P-1-1",          6047,   90.1862E-03,   119.399E-03,            0.,NA,NA,"",   1.36987E+06,   1.39814E+06,   1.39814E+06
C:/temp/Job-1.odb,Step-1,Increment      1: Step Time =    1.000,"P-1-1",          6048,   109.086E-03,   120.247E-03,            0.,NA,NA,"",   1.34843E+06,   1.38890E+06,   1.38890E+06
C:/temp/Job-1.odb,Step-1,Increment      1: Step Time =    1.000,"P-1-1",          6049,   115.399E-03,   112.980E-03,            0.,NA,NA,"",   1.29149E+06,   1.14914E+06,   1.14914E+06
C:/temp/Job-1.odb,Step-1,Increment      1: Step Time =    1.000,"P-1-1",          6050,   191.924E-03,   122.738E-03,            0.,NA,NA,"",   977.547E+03,   999.183E+03,   999.183E+03
C:/temp/Job-1.odb,Step-1,Increment      1: Step Time =    1.000,"P-1-1",          6051,   77.0513E-03,   192.062E-03,            0.,NA,NA,"",   961.560E+03,   962.070E+03,   962.070E+03
C:/temp/Job-1.odb,Step-1,Increment      1: Step Time =    1.000,"P-1-1",          6052,   122.516E-03,   7.83369E-03,            0.,NA,NA,"",   965.431E+03,   965.639E+03,   965.639E+03
C:/temp/Job-1.odb,Step-1,Increment      1: Step Time =    1.000,"P-1-1",          6053,   7.55065E-03,   77.7308E-03,            0.,NA,NA,"",   808.388E+03,   905.816E+03,   905.816E+03
C:/temp/Job-1.odb,Step-1,Increment      1: Step Time =    1.000,"P-1-1",          6054,   8.00763E-03,   162.729E-03,            0.,NA,NA,"",   923.774E+03,   1.01712E+06,   1.01712E+06
C:/temp/Job-1.odb,Step-1,Increment      1: Step Time =    1.000,"P-1-1",          6055,   191.892E-03,   37.7406E-03,            0.,NA,NA,"",   999.591E+03,   1.00145E+06,   1.00145E+06
C:/temp/Job-1.odb,Step-1,Increment      1: Step Time =    1.000,"P-1-1",          6056,   37.1538E-03,   8.08466E-03,            0.,NA,NA,"",   1.02968E+06,   1.03166E+06,   1.03166E+06
C:/temp/Job-1.odb,Step-1,Increment      1: Step Time =    1.000,"P-1-1",          6057,   162.312E-03,   191.862E-03,            0.,NA,NA,"",   997.696E+03,   997.174E+03,   997.174E+03
C:/temp/Job-1.odb,Step-1,Increment      1: Step Time =    1.000,"P-1-1",          6058,   46.8767E-03,   193.006E-03,            0.,NA,NA,"",   1.00170E+06,   1.00225E+06,   1.00225E+06
C:/temp/Job-1.odb,Step-1,Increment      1: Step Time =    1.000,"P-1-1",          6059,   191.989E-03,   152.935E-03,            0.,NA,NA,"",   997.005E+03,   1.00168E+06,   1.00168E+06
C:/temp/Job-1.odb,Step-1,Increment      1: Step Time =    1.000,"P-1-1",          6060,   151.873E-03,   7.28078E-03,            0.,NA,NA,"",   992.601E+03,   992.036E+03,   992.036E+03
C:/temp/Job-1.odb,Step-1,Increment      1: Step Time =    1.000,"P-1-1",          6061,   7.37905E-03,   47.8870E-03,            0.,NA,NA,"",   882.479E+03,   979.138E+03,   979.138E+03
C:/temp/Job-1.odb,Step-1,Increment      1: Step Time =    1.000,"P-1-1",          6062,   76.9659E-03,   104.148E-03,            0.,NA,NA,"",   551.961E+03,   538.432E+03,   538.432E+03
C:/temp/Job-1.odb,Step-1,Increment      1: Step Time =    1.000,"P-1-1",          6063,   6.02851E-03,   23.5262E-03,            0.,NA,NA,"",   990.200E+03,   1.08294E+06,   1.08294E+06
C:/temp/Job-1.odb,Step-1,Increment      1: Step Time =    1.000,"P-1-1",          6064,   193.619E-03,   175.680E-03,            0.,NA,NA,"",   1.00040E+06,   1.00048E+06,   1.00048E+06
C:/temp/Job-1.odb,Step-1,Increment      1: Step Time =    1.000,"P-1-1",          6065,   24.6939E-03,   193.522E-03,            0.,NA,NA,"",   1.07626E+06,   1.08052E+06,   1.08052E+06
C:/temp/Job-1.odb,Step-1,Increment      1: Step Time =    1.000,"P-1-1",          6066,   109.657E-03,   193.652E-03,            0.,NA,NA,"",   948.452E+03,   949.033E+03,   949.033E+03
C:/temp/Job-1.odb,Step-1,Increment      1: Step Time =    1.000,"P-1-1",          6067,   193.496E-03,   90.4316E-03,            0.,NA,NA,"",   968.510E+03,   998.191E+03,   998.191E+03
C:/temp/Job-1.odb,Step-1,Increment      1: Step Time =    1.000,"P-1-1",          6068,   120.775E-03,   109.384E-03,            0.,NA,NA,"",   974.983E+03,   845.943E+03,   845.943E+03
C:/temp/Job-1.odb,Step-1,Increment      1: Step Time =    1.000,"P-1-1",          6069,   80.3579E-03,   106.954E-03,            0.,NA,NA,"",   778.053E+03,   669.428E+03,   669.428E+03
C:/temp/Job-1.odb,Step-1,Increment      1: Step Time =    1.000,"P-1-1",          6070,   9.14756E-03,   25.0998E-03,            0.,NA,NA,"",   997.302E+03,   1.08064E+06,   1.08064E+06
C:/temp/Job-1.odb,Step-1,Increment      1: Step Time =    1.000,"P-1-1",          6071,   175.461E-03,   190.601E-03,            0.,NA,NA,"",   999.946E+03,   999.677E+03,   999.677E+03
C:/temp/Job-1.odb,Step-1,Increment      1: Step Time =    1.000,"P-1-1",          6072,   189.871E-03,   54.1970E-03,            0.,NA,NA,"",   995.384E+03,   1.00243E+06,   1.00243E+06
C:/temp/Job-1.odb,Step-1,Increment      1: Step Time =    1.000,"P-1-1",          6073,   146.028E-03,   9.26389E-03,            0.,NA,NA,"",   991.306E+03,   990.427E+03,   990.427E+03
C:/temp/Job-1.odb,Step-1,Increment      1: Step Time =    1.000,"P-1-1",          6074,   53.9126E-03,   9.43095E-03,            0.,NA,NA,"",   998.488E+03,   998.887E+03,   998.887E+03
C:/temp/Job-1.odb,Step-1,Increment      1: Step Time =    1.000,"P-1-1",          6075,   191.239E-03,   146.668E-03,            0.,NA,NA,"",   994.747E+03,   1.00190E+06,   1.00190E+06
C:/temp/Job-1.odb,Step-1,Increment      1: Step Time =    1.000,"P-1-1",          6076,   190.966E-03,   175.473E-03,            0.,NA,NA,"",   1.00073E+06,   1.00088E+06,   1.00088E+06
C:/temp/Job-1.odb,Step-1,Increment      1: Step Time =    1.000,"P-1-1",          6077,   24.8977E-03,   9.29823E-03,            0.,NA,NA,"",   1.08368E+06,   1.09151E+06,   1.09151E+06
C:/temp/Job-1.odb,Step-1,Increment      1: Step Time =    1.000,"P-1-1",          6078,   9.34130E-03,   53.9706E-03,            0.,NA,NA,"",   871.990E+03,   966.184E+03,   966.184E+03
C:/temp/Job-1.odb,Step-1,Increment      1: Step Time =    1.000,"P-1-1",          6079,   145.864E-03,   190.186E-03,            0.,NA,NA,"",   992.045E+03,   991.074E+03,   991.074E+03
C:/temp/Job-1.odb,Step-1,Increment      1: Step Time =    1.000,"P-1-1",          6080,   53.9986E-03,   191.696E-03,            0.,NA,NA,"",   994.245E+03,   994.459E+03,   994.459E+03
C:/temp/Job-1.odb,Step-1,Increment      1: Step Time =    1.000,"P-1-1",          6081,   9.62775E-03,   146.178E-03,            0.,NA,NA,"",   873.581E+03,   967.270E+03,   967.270E+03
C:/temp/Job-1.odb,Step-1,Increment      1: Step Time =    1.000,"P-1-1",          6082,   190.844E-03,   25.4068E-03,            0.,NA,NA,"",   1.00079E+06,   1.00097E+06,   1.00097E+06
C:/temp/Job-1.odb,Step-1,Increment      1: Step Time =    1.000,"P-1-1",          6083,   175.135E-03,   9.39112E-03,            0.,NA,NA,"",   999.946E+03,   999.667E+03,   999.667E+03
C:/temp/Job-1.odb,Step-1,Increment      1: Step Time =    1.000,"P-1-1",          6084,   24.1831E-03,   189.805E-03,            0.,NA,NA,"",   1.08829E+06,   1.09813E+06,   1.09813E+06
C:/temp/Job-1.odb,Step-1,Increment      1: Step Time =    1.000,"P-1-1",          6085,   9.27140E-03,   175.657E-03,            0.,NA,NA,"",   1.00352E+06,   1.08567E+06,   1.08567E+06
C:/temp/Job-1.odb,Step-1,Increment      1: Step Time =    1.000,"P-1-1",          6086,   110.075E-03,   9.32833E-03,            0.,NA,NA,"",   958.311E+03,   959.538E+03,   959.538E+03
C:/temp/Job-1.odb,Step-1,Increment      1: Step Time =    1.000,"P-1-1",          6087,   89.5889E-03,   8.96347E-03,            0.,NA,NA,"",   955.097E+03,   956.393E+03,   956.393E+03
C:/temp/Job-1.odb,Step-1,Increment      1: Step Time =    1.000,"P-1-1",          6088,   9.37485E-03,   90.2342E-03,            0.,NA,NA,"",   793.806E+03,   889.897E+03,   889.897E+03
C:/temp/Job-1.odb,Step-1,Increment      1: Step Time =    1.000,"P-1-1",          6089,   90.3794E-03,   190.622E-03,            0.,NA,NA,"",   956.276E+03,   957.740E+03,   957.740E+03
C:/temp/Job-1.odb,Step-1,Increment      1: Step Time =    1.000,"P-1-1",          6090,   110.142E-03,   191.132E-03,            0.,NA,NA,"",   956.902E+03,   958.005E+03,   958.005E+03
C:/temp/Job-1.odb,Step-1,Increment      1: Step Time =    1.000,"P-1-1",          6091,   190.920E-03,   109.936E-03,            0.,NA,NA,"",   970.060E+03,   996.660E+03,   996.660E+03
C:/temp/Job-1.odb,Step-1,Increment      1: Step Time =    1.000,"P-1-1",          6092,   9.23306E-03,   110.248E-03,            0.,NA,NA,"",   794.008E+03,   890.189E+03,   890.189E+03
C:/temp/Job-1.odb,Step-1,Increment      1: Step Time =    1.000,"P-1-1",          6093,   190.772E-03,   80.7649E-03,            0.,NA,NA,"",   975.749E+03,   998.243E+03,   998.243E+03
C:/temp/Job-1.odb,Step-1,Increment      1: Step Time =    1.000,"P-1-1",          6094,   191.166E-03,   90.4257E-03,            0.,NA,NA,"",   969.786E+03,   996.768E+03,   996.768E+03
C:/temp/Job-1.odb,Step-1,Increment      1: Step Time =    1.000,"P-1-1",          6095,   9.61972E-03,   34.0901E-03,            0.,NA,NA,"",   945.937E+03,   1.03434E+06,   1.03434E+06
C:/temp/Job-1.odb,Step-1,Increment      1: Step Time =    1.000,"P-1-1",          6096,   165.029E-03,   191.183E-03,            0.,NA,NA,"",   998.768E+03,   998.238E+03,   998.238E+03
C:/temp/Job-1.odb,Step-1,Increment      1: Step Time =    1.000,"P-1-1",          6097,   119.347E-03,   9.36384E-03,            0.,NA,NA,"",   966.260E+03,   966.823E+03,   966.823E+03
C:/temp/Job-1.odb,Step-1,Increment      1: Step Time =    1.000,"P-1-1",          6098,   80.0486E-03,   9.34334E-03,            0.,NA,NA,"",   963.684E+03,   964.589E+03,   964.589E+03
C:/temp/Job-1.odb,Step-1,Increment      1: Step Time =    1.000,"P-1-1",          6099,   9.23181E-03,   80.7071E-03,            0.,NA,NA,"",   806.830E+03,   902.844E+03,   902.844E+03
C:/temp/Job-1.odb,Step-1,Increment      1: Step Time =    1.000,"P-1-1",          6100,   79.8519E-03,   191.351E-03,            0.,NA,NA,"",   961.166E+03,   961.916E+03,   961.916E+03
C:/temp/Job-1.odb,Step-1,Increment      1: Step Time =    1.000,"P-1-1",          6101,   119.328E-03,   190.405E-03,            0.,NA,NA,"",   966.825E+03,   967.399E+03,   967.399E+03
C:/temp/Job-1.odb,Step-1,Increment      1: Step Time =    1.000,"P-1-1",          6102,   9.46209E-03,   119.826E-03,            0.,NA,NA,"",   808.238E+03,   904.058E+03,   904.058E+03
C:/temp/Job-1.odb,Step-1,Increment      1: Step Time =    1.000,"P-1-1",          6103,   190.947E-03,   119.396E-03,            0.,NA,NA,"",   975.612E+03,   998.298E+03,   998.298E+03
C:/temp/Job-1.odb,Step-1,Increment      1: Step Time =    1.000,"P-1-1",          6104,   190.912E-03,   166.199E-03,            0.,NA,NA,"",   1.00049E+06,   1.00157E+06,   1.00157E+06
C:/temp/Job-1.odb,Step-1,Increment      1: Step Time =    1.000,"P-1-1",          6105,   33.9143E-03,   9.32942E-03,            0.,NA,NA,"",   1.04460E+06,   1.04812E+06,   1.04812E+06
C:/temp/Job-1.odb,Step-1,Increment      1: Step Time =    1.000,"P-1-1",          6106,   9.76024E-03,   10.6554E-03,            0.,NA,NA,"",   1.16825E+06,   1.21474E+06,   1.21474E+06
C:/temp/Job-1.odb,Step-1,Increment      1: Step Time =    1.000,"P-1-1",          6107,   188.816E-03,   191.115E-03,            0.,NA,NA,"",   999.925E+03,   999.881E+03,   999.881E+03
C:/temp/Job-1.odb,Step-1,Increment      1: Step Time =    1.000,"P-1-1",          6108,   191.376E-03,   188.605E-03,            0.,NA,NA,"",   1.00010E+06,   1.00002E+06,   1.00002E+06
C:/temp/Job-1.odb,Step-1,Increment      1: Step Time =    1.000,"P-1-1",          6109,   10.7665E-03,   8.85694E-03,            0.,NA,NA,"",   1.19015E+06,   1.22404E+06,   1.22404E+06
C:/temp/Job-1.odb,Step-1,Increment      1: Step Time =    1.000,"P-1-1",          6110,   191.260E-03,   35.0364E-03,            0.,NA,NA,"",   1.00025E+06,   1.00152E+06,   1.00152E+06
C:/temp/Job-1.odb,Step-1,Increment      1: Step Time =    1.000,"P-1-1",          6111,   165.609E-03,   9.82262E-03,            0.,NA,NA,"",   999.385E+03,   998.762E+03,   998.762E+03
C:/temp/Job-1.odb,Step-1,Increment      1: Step Time =    1.000,"P-1-1",          6112,   77.2714E-03,   96.9791E-03,            0.,NA,NA,"",   477.811E+03,   477.753E+03,   477.753E+03
C:/temp/Job-1.odb,Step-1,Increment      1: Step Time =    1.000,"P-1-1",          6113,   33.8519E-03,   191.245E-03,            0.,NA,NA,"",   1.04264E+06,   1.04571E+06,   1.04571E+06
C:/temp/Job-1.odb,Step-1,Increment      1: Step Time =    1.000,"P-1-1",          6114,   9.61507E-03,   166.191E-03,            0.,NA,NA,"",   947.658E+03,   1.03583E+06,   1.03583E+06
C:/temp/Job-1.odb,Step-1,Increment      1: Step Time =    1.000,"P-1-1",          6115,   179.543E-03,   190.964E-03,            0.,NA,NA,"",   999.925E+03,   999.775E+03,   999.775E+03
C:/temp/Job-1.odb,Step-1,Increment      1: Step Time =    1.000,"P-1-1",          6116,   8.94977E-03,   22.0838E-03,            0.,NA,NA,"",   1.02045E+06,   1.10115E+06,   1.10115E+06
C:/temp/Job-1.odb,Step-1,Increment      1: Step Time =    1.000,"P-1-1",          6117,   149.014E-03,   9.04726E-03,            0.,NA,NA,"",   992.904E+03,   992.052E+03,   992.052E+03
C:/temp/Job-1.odb,Step-1,Increment      1: Step Time =    1.000,"P-1-1",          6118,   50.8033E-03,   9.46258E-03,            0.,NA,NA,"",   1.00391E+06,   1.00450E+06,   1.00450E+06
C:/temp/Job-1.odb,Step-1,Increment      1: Step Time =    1.000,"P-1-1",          6119,   190.765E-03,   149.484E-03,            0.,NA,NA,"",   996.353E+03,   1.00215E+06,   1.00215E+06
C:/temp/Job-1.odb,Step-1,Increment      1: Step Time =    1.000,"P-1-1",          6120,   9.14694E-03,   50.8350E-03,            0.,NA,NA,"",   880.686E+03,   974.753E+03,   974.753E+03
C:/temp/Job-1.odb,Step-1,Increment      1: Step Time =    1.000,"P-1-1",          6121,   190.159E-03,   178.229E-03,            0.,NA,NA,"",   1.00078E+06,   1.00080E+06,   1.00080E+06
C:/temp/Job-1.odb,Step-1,Increment      1: Step Time =    1.000,"P-1-1",          6122,   21.7291E-03,   9.33320E-03,            0.,NA,NA,"",   1.10246E+06,   1.11312E+06,   1.11312E+06
C:/temp/Job-1.odb,Step-1,Increment      1: Step Time =    1.000,"P-1-1",          6123,   50.4458E-03,   191.747E-03,            0.,NA,NA,"",   1.00047E+06,   1.00092E+06,   1.00092E+06
C:/temp/Job-1.odb,Step-1,Increment      1: Step Time =    1.000,"P-1-1",          6124,   9.47257E-03,   149.436E-03,            0.,NA,NA,"",   882.881E+03,   976.353E+03,   976.353E+03
C:/temp/Job-1.odb,Step-1,Increment      1: Step Time =    1.000,"P-1-1",          6125,   191.978E-03,   63.2127E-03,            0.,NA,NA,"",   988.117E+03,   1.00100E+06,   1.00100E+06
C:/temp/Job-1.odb,Step-1,Increment      1: Step Time =    1.000,"P-1-1",          6126,   11.5903E-03,   190.995E-03,            0.,NA,NA,"",   1.18250E+06,   1.21283E+06,   1.21283E+06
C:/temp/Job-1.odb,Step-1,Increment      1: Step Time =    1.000,"P-1-1",          6127,   9.68758E-03,   188.084E-03,            0.,NA,NA,"",   1.14499E+06,   1.19842E+06,   1.19842E+06
C:/temp/Job-1.odb,Step-1,Increment      1: Step Time =    1.000,"P-1-1",          6128,   135.918E-03,   9.66092E-03,            0.,NA,NA,"",   983.817E+03,   983.173E+03,   983.173E+03
C:/temp/Job-1.odb,Step-1,Increment      1: Step Time =    1.000,"P-1-1",          6129,   191.234E-03,   136.423E-03,            0.,NA,NA,"",   988.433E+03,   1.00113E+06,   1.00113E+06
C:/temp/Job-1.odb,Step-1,Increment      1: Step Time =    1.000,"P-1-1",          6130,   9.63430E-03,   64.3262E-03,            0.,NA,NA,"",   844.399E+03,   939.216E+03,   939.216E+03
C:/temp/Job-1.odb,Step-1,Increment      1: Step Time =    1.000,"P-1-1",          6131,   136.907E-03,   191.950E-03,            0.,NA,NA,"",   981.639E+03,   981.143E+03,   981.143E+03
C:/temp/Job-1.odb,Step-1,Increment      1: Step Time =    1.000,"P-1-1",          6132,   189.223E-03,   9.90008E-03,            0.,NA,NA,"",   1.00001E+06,   999.957E+03,   999.957E+03
C:/temp/Job-1.odb,Step-1,Increment      1: Step Time =    1.000,"P-1-1",          6133,   191.090E-03,   10.9649E-03,            0.,NA,NA,"",   1.00007E+06,   999.999E+03,   999.999E+03
C:/temp/Job-1.odb,Step-1,Increment      1: Step Time =    1.000,"P-1-1",          6134,   63.4736E-03,   191.703E-03,            0.,NA,NA,"",   979.619E+03,   979.737E+03,   979.737E+03
C:/temp/Job-1.odb,Step-1,Increment      1: Step Time =    1.000,"P-1-1",          6135,   9.61239E-03,   137.113E-03,            0.,NA,NA,"",   848.148E+03,   942.882E+03,   942.882E+03
C:/temp/Job-1.odb,Step-1,Increment      1: Step Time =    1.000,"P-1-1",          6136,   191.577E-03,   21.4424E-03,            0.,NA,NA,"",   1.00058E+06,   1.00058E+06,   1.00058E+06
C:/temp/Job-1.odb,Step-1,Increment      1: Step Time =    1.000,"P-1-1",          6137,   178.130E-03,   7.71793E-03,            0.,NA,NA,"",   999.605E+03,   999.469E+03,   999.469E+03
C:/temp/Job-1.odb,Step-1,Increment      1: Step Time =    1.000,"P-1-1",          6138,   21.4611E-03,   190.236E-03,            0.,NA,NA,"",   1.10416E+06,   1.11600E+06,   1.11600E+06
C:/temp/Job-1.odb,Step-1,Increment      1: Step Time =    1.000,"P-1-1",          6139,   9.01959E-03,   178.856E-03,            0.,NA,NA,"",   1.02998E+06,   1.10904E+06,   1.10904E+06
C:/temp/Job-1.odb,Step-1,Increment      1: Step Time =    1.000,"P-1-1",          6140,   106.951E-03,   9.48697E-03,            0.,NA,NA,"",   956.875E+03,   958.354E+03,   958.354E+03
C:/temp/Job-1.odb,Step-1,Increment      1: Step Time =    1.000,"P-1-1",          6141,   92.3402E-03,   8.93050E-03,            0.,NA,NA,"",   953.770E+03,   955.177E+03,   955.177E+03
C:/temp/Job-1.odb,Step-1,Increment      1: Step Time =    1.000,"P-1-1",          6142,   9.25069E-03,   93.2048E-03,            0.,NA,NA,"",   791.107E+03,   887.309E+03,   887.309E+03
C:/temp/Job-1.odb,Step-1,Increment      1: Step Time =    1.000,"P-1-1",          6143,   9.13312E-03,   107.386E-03,            0.,NA,NA,"",   791.273E+03,   887.557E+03,   887.557E+03
C:/temp/Job-1.odb,Step-1,Increment      1: Step Time =    1.000,"P-1-1",          6144,   191.064E-03,   106.925E-03,            0.,NA,NA,"",   968.877E+03,   996.443E+03,   996.443E+03
C:/temp/Job-1.odb,Step-1,Increment      1: Step Time =    1.000,"P-1-1",          6145,   93.2573E-03,   190.927E-03,            0.,NA,NA,"",   954.103E+03,   955.553E+03,   955.553E+03
C:/temp/Job-1.odb,Step-1,Increment      1: Step Time =    1.000,"P-1-1",          6146,   106.818E-03,   190.354E-03,            0.,NA,NA,"",   957.346E+03,   958.844E+03,   958.844E+03
C:/temp/Job-1.odb,Step-1,Increment      1: Step Time =    1.000,"P-1-1",          6147,   190.386E-03,   93.4429E-03,            0.,NA,NA,"",   968.928E+03,   995.871E+03,   995.871E+03
C:/temp/Job-1.odb,Step-1,Increment      1: Step Time =    1.000,"P-1-1",          6148,   190.803E-03,   74.0606E-03,            0.,NA,NA,"",   980.847E+03,   999.589E+03,   999.589E+03
C:/temp/Job-1.odb,Step-1,Increment      1: Step Time =    1.000,"P-1-1",          6149,   125.655E-03,   9.31396E-03,            0.,NA,NA,"",   972.649E+03,   972.680E+03,   972.680E+03
C:/temp/Job-1.odb,Step-1,Increment      1: Step Time =    1.000,"P-1-1",          6150,   8.96793E-03,   74.8512E-03,            0.,NA,NA,"",   817.526E+03,   913.651E+03,   913.651E+03
C:/temp/Job-1.odb,Step-1,Increment      1: Step Time =    1.000,"P-1-1",          6151,   74.2822E-03,   191.193E-03,            0.,NA,NA,"",   968.109E+03,   968.556E+03,   968.556E+03
C:/temp/Job-1.odb,Step-1,Increment      1: Step Time =    1.000,"P-1-1",          6152,   191.044E-03,   125.595E-03,            0.,NA,NA,"",   980.512E+03,   999.604E+03,   999.604E+03
C:/temp/Job-1.odb,Step-1,Increment      1: Step Time =    1.000,"P-1-1",          6153,   8.74081E-03,   127.438E-03,            0.,NA,NA,"",   821.846E+03,   918.049E+03,   918.049E+03
C:/temp/Job-1.odb,Step-1,Increment      1: Step Time =    1.000,"P-1-1",          6154,   126.078E-03,   190.859E-03,            0.,NA,NA,"",   972.653E+03,   972.667E+03,   972.667E+03
C:/temp/Job-1.odb,Step-1,Increment      1: Step Time =    1.000,"P-1-1",          6155,   159.553E-03,   190.943E-03,            0.,NA,NA,"",   997.568E+03,   996.862E+03,   996.862E+03
C:/temp/Job-1.odb,Step-1,Increment      1: Step Time =    1.000,"P-1-1",          6156,   7.91496E-03,   41.2806E-03,            0.,NA,NA,"",   907.949E+03,   1.00236E+06,   1.00236E+06
C:/temp/Job-1.odb,Step-1,Increment      1: Step Time =    1.000,"P-1-1",          6157,   40.4344E-03,   9.61897E-03,            0.,NA,NA,"",   1.02623E+06,   1.02828E+06,   1.02828E+06
C:/temp/Job-1.odb,Step-1,Increment      1: Step Time =    1.000,"P-1-1",          6158,   190.810E-03,   159.912E-03,            0.,NA,NA,"",   999.591E+03,   1.00194E+06,   1.00194E+06
C:/temp/Job-1.odb,Step-1,Increment      1: Step Time =    1.000,"P-1-1",          6159,   190.968E-03,   40.4745E-03,            0.,NA,NA,"",   999.443E+03,   1.00190E+06,   1.00190E+06
C:/temp/Job-1.odb,Step-1,Increment      1: Step Time =    1.000,"P-1-1",          6160,   158.604E-03,   8.01340E-03,            0.,NA,NA,"",   996.516E+03,   995.924E+03,   995.924E+03
C:/temp/Job-1.odb,Step-1,Increment      1: Step Time =    1.000,"P-1-1",          6161,   9.18479E-03,   159.476E-03,            0.,NA,NA,"",   916.091E+03,   1.00795E+06,   1.00795E+06
C:/temp/Job-1.odb,Step-1,Increment      1: Step Time =    1.000,"P-1-1",          6162,   40.0334E-03,   190.803E-03,            0.,NA,NA,"",   1.02596E+06,   1.02785E+06,   1.02785E+06
C:/temp/Job-1.odb,Step-1,Increment      1: Step Time =    1.000,"P-1-1",          6163,   156.071E-03,   191.385E-03,            0.,NA,NA,"",   995.984E+03,   995.272E+03,   995.272E+03
C:/temp/Job-1.odb,Step-1,Increment      1: Step Time =    1.000,"P-1-1",          6164,   8.49126E-03,   44.8761E-03,            0.,NA,NA,"",   897.308E+03,   991.502E+03,   991.502E+03
C:/temp/Job-1.odb,Step-1,Increment      1: Step Time =    1.000,"P-1-1",          6165,   191.385E-03,   43.9280E-03,            0.,NA,NA,"",   998.369E+03,   1.00185E+06,   1.00185E+06
C:/temp/Job-1.odb,Step-1,Increment      1: Step Time =    1.000,"P-1-1",          6166,   154.831E-03,   8.49364E-03,            0.,NA,NA,"",   995.356E+03,   994.639E+03,   994.639E+03
C:/temp/Job-1.odb,Step-1,Increment      1: Step Time =    1.000,"P-1-1",          6167,   43.7127E-03,   9.29888E-03,            0.,NA,NA,"",   1.01696E+06,   1.01827E+06,   1.01827E+06
C:/temp/Job-1.odb,Step-1,Increment      1: Step Time =    1.000,"P-1-1",          6168,   191.890E-03,   155.977E-03,            0.,NA,NA,"",    998.08E+03,   1.00166E+06,   1.00166E+06
C:/temp/Job-1.odb,Step-1,Increment      1: Step Time =    1.000,"P-1-1",          6169,   8.95195E-03,   155.258E-03,            0.,NA,NA,"",   900.081E+03,   993.325E+03,   993.325E+03
C:/temp/Job-1.odb,Step-1,Increment      1: Step Time =    1.000,"P-1-1",          6170,   44.0415E-03,   191.552E-03,            0.,NA,NA,"",   1.01345E+06,   1.01450E+06,   1.01450E+06
C:/temp/Job-1.odb,Step-1,Increment      1: Step Time =    1.000,"P-1-1",          6171,   191.090E-03,   71.2543E-03,            0.,NA,NA,"",   982.815E+03,   1.00014E+06,   1.00014E+06
C:/temp/Job-1.odb,Step-1,Increment      1: Step Time =    1.000,"P-1-1",          6172,   193.041E-03,   67.9983E-03,            0.,NA,NA,"",   983.779E+03,   1.00037E+06,   1.00037E+06
C:/temp/Job-1.odb,Step-1,Increment      1: Step Time =    1.000,"P-1-1",          6173,   67.5540E-03,   8.25125E-03,            0.,NA,NA,"",   974.161E+03,   974.363E+03,   974.363E+03
C:/temp/Job-1.odb,Step-1,Increment      1: Step Time =    1.000,"P-1-1",          6174,   70.7768E-03,   8.72811E-03,            0.,NA,NA,"",   971.883E+03,   972.129E+03,   972.129E+03
C:/temp/Job-1.odb,Step-1,Increment      1: Step Time =    1.000,"P-1-1",          6175,   128.610E-03,   9.03764E-03,            0.,NA,NA,"",   975.019E+03,   974.847E+03,   974.847E+03
C:/temp/Job-1.odb,Step-1,Increment      1: Step Time =    1.000,"P-1-1",          6176,   191.534E-03,   128.991E-03,            0.,NA,NA,"",   982.811E+03,   1.00019E+06,   1.00019E+06
C:/temp/Job-1.odb,Step-1,Increment      1: Step Time =    1.000,"P-1-1",          6177,   9.42257E-03,   71.8196E-03,            0.,NA,NA,"",   825.466E+03,   920.998E+03,   920.998E+03
C:/temp/Job-1.odb,Step-1,Increment      1: Step Time =    1.000,"P-1-1",          6178,   128.851E-03,   191.175E-03,            0.,NA,NA,"",   974.739E+03,   974.539E+03,   974.539E+03
C:/temp/Job-1.odb,Step-1,Increment      1: Step Time =    1.000,"P-1-1",          6179,   132.066E-03,   193.092E-03,            0.,NA,NA,"",   974.224E+03,   974.008E+03,   974.008E+03
C:/temp/Job-1.odb,Step-1,Increment      1: Step Time =    1.000,"P-1-1",          6180,   70.9359E-03,   191.584E-03,            0.,NA,NA,"",   970.790E+03,   971.041E+03,   971.041E+03
C:/temp/Job-1.odb,Step-1,Increment      1: Step Time =    1.000,"P-1-1",          6181,   8.30349E-03,   132.683E-03,            0.,NA,NA,"",   832.731E+03,   929.294E+03,   929.294E+03
C:/temp/Job-1.odb,Step-1,Increment      1: Step Time =    1.000,"P-1-1",          6182,   8.96418E-03,   129.740E-03,            0.,NA,NA,"",   827.585E+03,   923.569E+03,   923.569E+03
C:/temp/Job-1.odb,Step-1,Increment      1: Step Time =    1.000,"P-1-1",          6183,   3.08485E-03,   69.9226E-03,            0.,NA,NA,"",   812.151E+03,   913.835E+03,   913.835E+03
C:/temp/Job-1.odb,Step-1,Increment      1: Step Time =    1.000,"P-1-1",          6184,   70.6912E-03,   196.476E-03,            0.,NA,NA,"",   951.903E+03,   951.912E+03,   951.912E+03
C:/temp/Job-1.odb,Step-1,Increment      1: Step Time =    1.000,"P-1-1",          6185,   2.81407E-03,   40.5733E-03,            0.,NA,NA,"",   886.198E+03,   990.154E+03,   990.154E+03
C:/temp/Job-1.odb,Step-1,Increment      1: Step Time =    1.000,"P-1-1",          6186,   41.5917E-03,   196.305E-03,            0.,NA,NA,"",   998.198E+03,   998.437E+03,   998.437E+03
C:/temp/Job-1.odb,Step-1,Increment      1: Step Time =    1.000,"P-1-1",          6187,   159.364E-03,   2.83264E-03,            0.,NA,NA,"",   993.776E+03,   993.693E+03,   993.693E+03
C:/temp/Job-1.odb,Step-1,Increment      1: Step Time =    1.000,"P-1-1",          6188,   196.358E-03,   158.484E-03,            0.,NA,NA,"",   997.457E+03,   1.00036E+06,   1.00036E+06
C:/temp/Job-1.odb,Step-1,Increment      1: Step Time =    1.000,"P-1-1",          6189,   5.93690E-03,   14.4180E-03,            0.,NA,NA,"",   1.09034E+06,   1.17325E+06,   1.17325E+06
C:/temp/Job-1.odb,Step-1,Increment      1: Step Time =    1.000,"P-1-1",          6190,   186.107E-03,   194.434E-03,            0.,NA,NA,"",   999.621E+03,   999.601E+03,   999.601E+03
C:/temp/Job-1.odb,Step-1,Increment      1: Step Time =    1.000,"P-1-1",          6191,   194.154E-03,   185.919E-03,            0.,NA,NA,"",   1.00022E+06,   1.00007E+06,   1.00007E+06
C:/temp/Job-1.odb,Step-1,Increment      1: Step Time =    1.000,"P-1-1",          6192,   14.0756E-03,   5.85260E-03,            0.,NA,NA,"",   1.17284E+06,   1.18356E+06,   1.18356E+06
C:/temp/Job-1.odb,Step-1,Increment      1: Step Time =    1.000,"P-1-1",          6193,   14.2887E-03,   193.943E-03,            0.,NA,NA,"",   1.16892E+06,   1.18009E+06,   1.18009E+06
C:/temp/Job-1.odb,Step-1,Increment      1: Step Time =    1.000,"P-1-1",          6194,   5.52250E-03,   185.225E-03,            0.,NA,NA,"",   1.08142E+06,   1.16746E+06,   1.16746E+06
C:/temp/Job-1.odb,Step-1,Increment      1: Step Time =    1.000,"P-1-1",          6195,   185.622E-03,   5.96757E-03,            0.,NA,NA,"",   999.633E+03,   999.607E+03,   999.607E+03
C:/temp/Job-1.odb,Step-1,Increment      1: Step Time =    1.000,"P-1-1",          6196,   194.405E-03,   14.0408E-03,            0.,NA,NA,"",   1.00021E+06,   1.00006E+06,   1.00006E+06
C:/temp/Job-1.odb,Step-1,Increment      1: Step Time =    1.000,"P-1-1",          6197,   8.86036E-03,   37.2703E-03,            0.,NA,NA,"",   927.212E+03,   1.01896E+06,   1.01896E+06
C:/temp/Job-1.odb,Step-1,Increment      1: Step Time =    1.000,"P-1-1",          6198,   191.753E-03,   78.0164E-03,            0.,NA,NA,"",   977.226E+03,   999.088E+03,   999.088E+03
C:/temp/Job-1.odb,Step-1,Increment      1: Step Time =    1.000,"P-1-1",          6199,   76.8912E-03,   9.60296E-03,            0.,NA,NA,"",   967.820E+03,   968.533E+03,   968.533E+03
C:/temp/Job-1.odb,Step-1,Increment      1: Step Time =    1.000,"P-1-1",          6200,   162.556E-03,   8.82914E-03,            0.,NA,NA,"",   998.182E+03,   997.587E+03,   997.587E+03
C:/temp/Job-1.odb,Step-1,Increment      1: Step Time =    1.000,"P-1-1",          6201,   122.109E-03,   191.668E-03,            0.,NA,NA,"",   966.383E+03,   966.604E+03,   966.604E+03
C:/temp/Job-1.odb,Step-1,Increment      1: Step Time =    1.000,"P-1-1",          6202,   150.534E-03,   190.644E-03,            0.,NA,NA,"",   994.213E+03,   993.309E+03,   993.309E+03
C:/temp/Job-1.odb,Step-1,Increment      1: Step Time =    1.000,"P-1-1",          6203,   9.56052E-03,   122.782E-03,            0.,NA,NA,"",   814.193E+03,   909.828E+03,   909.828E+03
C:/temp/Job-1.odb,Step-1,Increment      1: Step Time =    1.000,"P-1-1",          6204,   190.567E-03,   49.4271E-03,            0.,NA,NA,"",   997.022E+03,   1.00228E+06,   1.00228E+06
C:/temp/Job-1.odb,Step-1,Increment      1: Step Time =    1.000,"P-1-1",          6205,   47.6788E-03,   9.64567E-03,            0.,NA,NA,"",   1.01028E+06,   1.01120E+06,   1.01120E+06
C:/temp/Job-1.odb,Step-1,Increment      1: Step Time =    1.000,"P-1-1",          6206,   132.612E-03,   9.76472E-03,            0.,NA,NA,"",   980.821E+03,   980.355E+03,   980.355E+03
C:/temp/Job-1.odb,Step-1,Increment      1: Step Time =    1.000,"P-1-1",          6207,   9.38732E-03,   152.527E-03,            0.,NA,NA,"",   892.369E+03,   985.492E+03,   985.492E+03
C:/temp/Job-1.odb,Step-1,Increment      1: Step Time =    1.000,"P-1-1",          6208,   192.394E-03,   133.947E-03,            0.,NA,NA,"",   985.555E+03,   1.00061E+06,   1.00061E+06
C:/temp/Job-1.odb,Step-1,Increment      1: Step Time =    1.000,"P-1-1",          6209,   9.85194E-03,   67.5610E-03,            0.,NA,NA,"",   836.851E+03,   931.664E+03,   931.664E+03
C:/temp/Job-1.odb,Step-1,Increment      1: Step Time =    1.000,"P-1-1",          6210,   65.8741E-03,   192.234E-03,            0.,NA,NA,"",   974.319E+03,   974.457E+03,   974.457E+03
C:/temp/Job-1.odb,Step-1,Increment      1: Step Time =    1.000,"P-1-1",          6211,   100.107E-03,   122.710E-03,            0.,NA,NA,"",   1.20853E+06,   1.33712E+06,   1.33712E+06
C:/temp/Job-1.odb,Step-1,Increment      1: Step Time =    1.000,"P-1-1",          6212,   172.100E-03,   191.212E-03,            0.,NA,NA,"",   999.589E+03,   999.263E+03,   999.263E+03
C:/temp/Job-1.odb,Step-1,Increment      1: Step Time =    1.000,"P-1-1",          6213,   7.82451E-03,   28.1726E-03,            0.,NA,NA,"",   968.808E+03,   1.05878E+06,   1.05878E+06
C:/temp/Job-1.odb,Step-1,Increment      1: Step Time =    1.000,"P-1-1",          6214,   9.60204E-03,   31.2640E-03,            0.,NA,NA,"",   960.600E+03,   1.04740E+06,   1.04740E+06
C:/temp/Job-1.odb,Step-1,Increment      1: Step Time =    1.000,"P-1-1",          6215,   192.965E-03,   86.4611E-03,            0.,NA,NA,"",   970.785E+03,   998.309E+03,   998.309E+03
C:/temp/Job-1.odb,Step-1,Increment      1: Step Time =    1.000,"P-1-1",          6216,   190.880E-03,   83.6210E-03,            0.,NA,NA,"",   973.686E+03,   997.684E+03,   997.684E+03
C:/temp/Job-1.odb,Step-1,Increment      1: Step Time =    1.000,"P-1-1",          6217,   27.9387E-03,   9.19966E-03,            0.,NA,NA,"",   1.06809E+06,   1.07393E+06,   1.07393E+06
C:/temp/Job-1.odb,Step-1,Increment      1: Step Time =    1.000,"P-1-1",          6218,   191.670E-03,   173.144E-03,            0.,NA,NA,"",   1.00059E+06,   1.00091E+06,   1.00091E+06
C:/temp/Job-1.odb,Step-1,Increment      1: Step Time =    1.000,"P-1-1",          6219,   190.401E-03,   168.735E-03,            0.,NA,NA,"",   1.00084E+06,   1.00155E+06,   1.00155E+06
C:/temp/Job-1.odb,Step-1,Increment      1: Step Time =    1.000,"P-1-1",          6220,   190.977E-03,   28.3458E-03,            0.,NA,NA,"",   1.00074E+06,   1.00116E+06,   1.00116E+06
C:/temp/Job-1.odb,Step-1,Increment      1: Step Time =    1.000,"P-1-1",          6221,   168.502E-03,   9.87445E-03,            0.,NA,NA,"",   999.795E+03,   999.256E+03,   999.256E+03
C:/temp/Job-1.odb,Step-1,Increment      1: Step Time =    1.000,"P-1-1",          6222,   171.910E-03,   8.13697E-03,            0.,NA,NA,"",   999.346E+03,   999.054E+03,   999.054E+03
C:/temp/Job-1.odb,Step-1,Increment      1: Step Time =    1.000,"P-1-1",          6223,   190.803E-03,   58.3664E-03,            0.,NA,NA,"",   992.341E+03,   1.00181E+06,   1.00181E+06
C:/temp/Job-1.odb,Step-1,Increment      1: Step Time =    1.000,"P-1-1",          6224,   57.0655E-03,   9.33606E-03,            0.,NA,NA,"",   992.983E+03,   993.221E+03,   993.221E+03
C:/temp/Job-1.odb,Step-1,Increment      1: Step Time =    1.000,"P-1-1",          6225,   139.189E-03,   9.71129E-03,            0.,NA,NA,"",   986.837E+03,   986.035E+03,   986.035E+03
C:/temp/Job-1.odb,Step-1,Increment      1: Step Time =    1.000,"P-1-1",          6226,   142.697E-03,   8.01664E-03,            0.,NA,NA,"",   986.955E+03,   986.311E+03,   986.311E+03
C:/temp/Job-1.odb,Step-1,Increment      1: Step Time =    1.000,"P-1-1",          6227,   141.826E-03,   190.995E-03,            0.,NA,NA,"",   987.843E+03,   987.077E+03,   987.077E+03
C:/temp/Job-1.odb,Step-1,Increment      1: Step Time =    1.000,"P-1-1",          6228,   192.262E-03,   142.431E-03,            0.,NA,NA,"",   991.668E+03,   1.00136E+06,   1.00136E+06
C:/temp/Job-1.odb,Step-1,Increment      1: Step Time =    1.000,"P-1-1",          6229,   191.079E-03,   138.735E-03,            0.,NA,NA,"",   990.217E+03,   1.00145E+06,   1.00145E+06
C:/temp/Job-1.odb,Step-1,Increment      1: Step Time =    1.000,"P-1-1",          6230,   9.34967E-03,   172.515E-03,            0.,NA,NA,"",   981.857E+03,   1.06665E+06,   1.06665E+06
C:/temp/Job-1.odb,Step-1,Increment      1: Step Time =    1.000,"P-1-1",          6231,   8.13006E-03,   57.4034E-03,            0.,NA,NA,"",   857.651E+03,   953.944E+03,   953.944E+03
C:/temp/Job-1.odb,Step-1,Increment      1: Step Time =    1.000,"P-1-1",          6232,   9.73449E-03,   61.0659E-03,            0.,NA,NA,"",   853.381E+03,   947.772E+03,   947.772E+03
C:/temp/Job-1.odb,Step-1,Increment      1: Step Time =    1.000,"P-1-1",          6233,   26.3828E-03,   191.803E-03,            0.,NA,NA,"",   1.07266E+06,   1.07817E+06,   1.07817E+06
C:/temp/Job-1.odb,Step-1,Increment      1: Step Time =    1.000,"P-1-1",          6234,   31.5246E-03,   190.916E-03,            0.,NA,NA,"",   1.05329E+06,   1.05744E+06,   1.05744E+06
C:/temp/Job-1.odb,Step-1,Increment      1: Step Time =    1.000,"P-1-1",          6235,   9.57856E-03,   142.838E-03,            0.,NA,NA,"",   863.610E+03,   957.817E+03,   957.817E+03
C:/temp/Job-1.odb,Step-1,Increment      1: Step Time =    1.000,"P-1-1",          6236,   116.261E-03,   7.74257E-03,            0.,NA,NA,"",   958.669E+03,   959.216E+03,   959.216E+03
C:/temp/Job-1.odb,Step-1,Increment      1: Step Time =    1.000,"P-1-1",          6237,   113.176E-03,   9.25339E-03,            0.,NA,NA,"",   960.333E+03,   961.340E+03,   961.340E+03
C:/temp/Job-1.odb,Step-1,Increment      1: Step Time =    1.000,"P-1-1",          6238,   86.5453E-03,   7.79009E-03,            0.,NA,NA,"",   952.715E+03,   953.599E+03,   953.599E+03
C:/temp/Job-1.odb,Step-1,Increment      1: Step Time =    1.000,"P-1-1",          6239,   83.1977E-03,   9.40818E-03,            0.,NA,NA,"",   961.101E+03,   962.186E+03,   962.186E+03
C:/temp/Job-1.odb,Step-1,Increment      1: Step Time =    1.000,"P-1-1",          6240,   61.1611E-03,   190.643E-03,            0.,NA,NA,"",   987.101E+03,   987.249E+03,   987.249E+03
C:/temp/Job-1.odb,Step-1,Increment      1: Step Time =    1.000,"P-1-1",          6241,   57.1147E-03,   192.196E-03,            0.,NA,NA,"",   987.405E+03,   987.535E+03,   987.535E+03
C:/temp/Job-1.odb,Step-1,Increment      1: Step Time =    1.000,"P-1-1",          6242,   83.8020E-03,   192.211E-03,            0.,NA,NA,"",   954.998E+03,   955.761E+03,   955.761E+03
C:/temp/Job-1.odb,Step-1,Increment      1: Step Time =    1.000,"P-1-1",          6243,   87.5138E-03,   190.187E-03,            0.,NA,NA,"",   959.485E+03,   960.948E+03,   960.948E+03
C:/temp/Job-1.odb,Step-1,Increment      1: Step Time =    1.000,"P-1-1",          6244,   116.308E-03,   190.685E-03,            0.,NA,NA,"",   963.256E+03,   964.084E+03,   964.084E+03
C:/temp/Job-1.odb,Step-1,Increment      1: Step Time =    1.000,"P-1-1",          6245,   113.274E-03,   192.201E-03,            0.,NA,NA,"",   956.092E+03,   956.827E+03,   956.827E+03
C:/temp/Job-1.odb,Step-1,Increment      1: Step Time =    1.000,"P-1-1",          6246,   7.94342E-03,   83.8809E-03,            0.,NA,NA,"",   798.990E+03,   896.073E+03,   896.073E+03
C:/temp/Job-1.odb,Step-1,Increment      1: Step Time =    1.000,"P-1-1",          6247,   9.51850E-03,   87.2401E-03,            0.,NA,NA,"",   797.423E+03,   893.362E+03,   893.362E+03
C:/temp/Job-1.odb,Step-1,Increment      1: Step Time =    1.000,"P-1-1",          6248,   192.237E-03,   116.115E-03,            0.,NA,NA,"",   972.785E+03,   998.279E+03,   998.279E+03
C:/temp/Job-1.odb,Step-1,Increment      1: Step Time =    1.000,"P-1-1",          6249,   190.947E-03,   112.917E-03,            0.,NA,NA,"",   971.614E+03,   997.176E+03,   997.176E+03
C:/temp/Job-1.odb,Step-1,Increment      1: Step Time =    1.000,"P-1-1",          6250,   9.65613E-03,   116.778E-03,            0.,NA,NA,"",   803.517E+03,   899.253E+03,   899.253E+03
C:/temp/Job-1.odb,Step-1,Increment      1: Step Time =    1.000,"P-1-1",          6251,   8.02478E-03,   113.390E-03,            0.,NA,NA,"",   795.439E+03,   892.462E+03,   892.462E+03
C:/temp/Job-1.odb,Step-1,Increment      1: Step Time =    1.000,"P-1-1",          6252,   87.3866E-03,   116.926E-03,            0.,NA,NA,"",   1.38395E+06,   1.33933E+06,   1.33933E+06
C:/temp/Job-1.odb,Step-1,Increment      1: Step Time =    1.000,"P-1-1",          6253,   122.220E-03,   97.3786E-03,            0.,NA,NA,"",   472.243E+03,   449.191E+03,   449.191E+03
C:/temp/Job-1.odb,Step-1,Increment      1: Step Time =    1.000,"P-1-1",          6254,   184.810E-03,   192.886E-03,            0.,NA,NA,"",   999.710E+03,   999.670E+03,   999.670E+03
C:/temp/Job-1.odb,Step-1,Increment      1: Step Time =    1.000,"P-1-1",          6255,   182.185E-03,   191.056E-03,            0.,NA,NA,"",   999.916E+03,   999.819E+03,   999.819E+03
C:/temp/Job-1.odb,Step-1,Increment      1: Step Time =    1.000,"P-1-1",          6256,   18.6613E-03,   9.11092E-03,            0.,NA,NA,"",   1.12359E+06,   1.13740E+06,   1.13740E+06
C:/temp/Job-1.odb,Step-1,Increment      1: Step Time =    1.000,"P-1-1",          6257,   103.800E-03,   9.55014E-03,            0.,NA,NA,"",   955.777E+03,   957.405E+03,   957.405E+03
C:/temp/Job-1.odb,Step-1,Increment      1: Step Time =    1.000,"P-1-1",          6258,   9.09265E-03,   96.1463E-03,            0.,NA,NA,"",   789.260E+03,   885.565E+03,   885.565E+03
C:/temp/Job-1.odb,Step-1,Increment      1: Step Time =    1.000,"P-1-1",          6259,   191.220E-03,   103.944E-03,            0.,NA,NA,"",   968.048E+03,   996.324E+03,   996.324E+03
C:/temp/Job-1.odb,Step-1,Increment      1: Step Time =    1.000,"P-1-1",          6260,   96.1135E-03,   191.125E-03,            0.,NA,NA,"",   952.800E+03,   954.268E+03,   954.268E+03
C:/temp/Job-1.odb,Step-1,Increment      1: Step Time =    1.000,"P-1-1",          6261,   6.84284E-03,   184.901E-03,            0.,NA,NA,"",   1.08714E+06,   1.16602E+06,   1.16602E+06
C:/temp/Job-1.odb,Step-1,Increment      1: Step Time =    1.000,"P-1-1",          6262,   7.60725E-03,   181.902E-03,            0.,NA,NA,"",   1.05280E+06,   1.13334E+06,   1.13334E+06
C:/temp/Job-1.odb,Step-1,Increment      1: Step Time =    1.000,"P-1-1",          6263,   191.809E-03,   18.4400E-03,            0.,NA,NA,"",   1.00045E+06,   1.00038E+06,   1.00038E+06
C:/temp/Job-1.odb,Step-1,Increment      1: Step Time =    1.000,"P-1-1",          6264,   88.6330E-03,   119.002E-03,            0.,NA,NA,"",   1.37010E+06,   1.36539E+06,   1.36539E+06
C:/temp/Job-1.odb,Step-1,Increment      1: Step Time =    1.000,"P-1-1",          6265,   111.596E-03,   117.055E-03,            0.,NA,NA,"",   1.41608E+06,   1.38451E+06,   1.38451E+06
C:/temp/Job-1.odb,Step-1,Increment      1: Step Time =    1.000,"P-1-1",          6266,   191.736E-03,   101.578E-03,            0.,NA,NA,"",   967.507E+03,   996.592E+03,   996.592E+03
C:/temp/Job-1.odb,Step-1,Increment      1: Step Time =    1.000,"P-1-1",          6267,   98.4200E-03,   191.614E-03,            0.,NA,NA,"",   950.963E+03,   952.327E+03,   952.327E+03
C:/temp/Job-1.odb,Step-1,Increment      1: Step Time =    1.000,"P-1-1",          6268,   7.39230E-03,   98.8538E-03,            0.,NA,NA,"",    785.74E+03,   883.188E+03,   883.188E+03
C:/temp/Job-1.odb,Step-1,Increment      1: Step Time =    1.000,"P-1-1",          6269,   100.998E-03,   7.69109E-03,            0.,NA,NA,"",   948.715E+03,   949.803E+03,   949.803E+03
C:/temp/Job-1.odb,Step-1,Increment      1: Step Time =    1.000,"P-1-1",          6270,   77.9480E-03,   100.754E-03,            0.,NA,NA,"",   355.555E+03,   370.561E+03,   370.561E+03
C:/temp/Job-1.odb,Step-1,Increment      1: Step Time =    1.000,"P-1-1",          6271,   79.4855E-03,   108.454E-03,            0.,NA,NA,"",   881.296E+03,   780.256E+03,   780.256E+03
C:/temp/Job-1.odb,Step-1,Increment      1: Step Time =    1.000,"P-1-1",          6272,   79.9191E-03,   111.744E-03,            0.,NA,NA,"",   1.07846E+06,   967.042E+03,   967.042E+03
C:/temp/Job-1.odb,Step-1,Increment      1: Step Time =    1.000,"P-1-1",          6273,   103.635E-03,   121.975E-03,            0.,NA,NA,"",   1.25296E+06,   1.37241E+06,   1.37241E+06
C:/temp/Job-1.odb,Step-1,Increment      1: Step Time =    1.000,"P-1-1",          6274,   123.885E-03,   100.012E-03,            0.,NA,NA,"",   445.335E+03,   452.214E+03,   452.214E+03
C:/temp/Job-1.odb,Step-1,Increment      1: Step Time =    1.000,"P-1-1",          6275,   95.7262E-03,   121.053E-03,            0.,NA,NA,"",   1.29171E+06,   1.40808E+06,   1.40808E+06
C:/temp/Job-1.odb,Step-1,Increment      1: Step Time =    1.000,"P-1-1",          6276,   9.33680E-03,   169.389E-03,            0.,NA,NA,"",   962.802E+03,   1.04988E+06,   1.04988E+06
C:/temp/Job-1.odb,Step-1,Increment      1: Step Time =    1.000,"P-1-1",          6277,   191.549E-03,   31.9144E-03,            0.,NA,NA,"",   1.00040E+06,   1.00124E+06,   1.00124E+06
C:/temp/Job-1.odb,Step-1,Increment      1: Step Time =    1.000,"P-1-1",          6278,   30.9315E-03,   9.15954E-03,            0.,NA,NA,"",   1.05506E+06,   1.05951E+06,   1.05951E+06
C:/temp/Job-1.odb,Step-1,Increment      1: Step Time =    1.000,"P-1-1",          6279,   168.612E-03,   191.317E-03,            0.,NA,NA,"",   999.251E+03,   998.825E+03,   998.825E+03
C:/temp/Job-1.odb,Step-1,Increment      1: Step Time =    1.000,"P-1-1",          6280,   9.17956E-03,   139.894E-03,            0.,NA,NA,"",   853.922E+03,   948.988E+03,   948.988E+03
C:/temp/Job-1.odb,Step-1,Increment      1: Step Time =    1.000,"P-1-1",          6281,   139.297E-03,   191.568E-03,            0.,NA,NA,"",   984.637E+03,   984.022E+03,   984.022E+03
C:/temp/Job-1.odb,Step-1,Increment      1: Step Time =    1.000,"P-1-1",          6282,   59.9235E-03,   9.24883E-03,            0.,NA,NA,"",   988.682E+03,   988.844E+03,   988.844E+03
C:/temp/Job-1.odb,Step-1,Increment      1: Step Time =    1.000,"P-1-1",          6283,   191.603E-03,   60.8653E-03,            0.,NA,NA,"",   990.058E+03,   1.00132E+06,   1.00132E+06
C:/temp/Job-1.odb,Step-1,Increment      1: Step Time =    1.000,"P-1-1",          6284,   117.844E-03,   93.4092E-03,            0.,NA,NA,"",   801.368E+03,   629.957E+03,   629.957E+03
C:/temp/Job-1.odb,Step-1,Increment      1: Step Time =    1.000,"P-1-1",          6285,   123.570E-03,   107.084E-03,            0.,NA,NA,"",   782.637E+03,   711.236E+03,   711.236E+03
C:/temp/Job-1.odb,Step-1,Increment      1: Step Time =    1.000,"P-1-1",          6286,   79.3281E-03,   93.2931E-03,            0.,NA,NA,"",   743.079E+03,   657.522E+03,   657.522E+03
C:/temp/Job-1.odb,Step-1,Increment      1: Step Time =    1.000,"P-1-1",          6287,   155.962E-03,   196.395E-03,            0.,NA,NA,"",   992.224E+03,   992.080E+03,   992.080E+03
C:/temp/Job-1.odb,Step-1,Increment      1: Step Time =    1.000,"P-1-1",          6288,   196.395E-03,   44.0455E-03,            0.,NA,NA,"",   996.563E+03,   1.00037E+06,   1.00037E+06
C:/temp/Job-1.odb,Step-1,Increment      1: Step Time =    1.000,"P-1-1",          6289,   3.02824E-03,   155.083E-03,            0.,NA,NA,"",   873.139E+03,   976.675E+03,   976.675E+03
C:/temp/Job-1.odb,Step-1,Increment      1: Step Time =    1.000,"P-1-1",          6290,   44.9312E-03,   3.10973E-03,            0.,NA,NA,"",   988.569E+03,   988.701E+03,   988.701E+03
C:/temp/Job-1.odb,Step-1,Increment      1: Step Time =    1.000,"P-1-1",          6291,   196.476E-03,   73.5010E-03,            0.,NA,NA,"",   976.980E+03,   1.00004E+06,   1.00004E+06
C:/temp/Job-1.odb,Step-1,Increment      1: Step Time =    1.000,"P-1-1",          6292,   126.530E-03,   196.483E-03,            0.,NA,NA,"",   959.653E+03,   959.600E+03,   959.600E+03
C:/temp/Job-1.odb,Step-1,Increment      1: Step Time =    1.000,"P-1-1",          6293,   196.460E-03,   129.258E-03,            0.,NA,NA,"",   979.036E+03,   1.00007E+06,   1.00007E+06
C:/temp/Job-1.odb,Step-1,Increment      1: Step Time =    1.000,"P-1-1",          6294,   74.4322E-03,   2.90496E-03,            0.,NA,NA,"",   944.934E+03,   944.999E+03,   944.999E+03
C:/temp/Job-1.odb,Step-1,Increment      1: Step Time =    1.000,"P-1-1",          6295,   3.01379E-03,   125.589E-03,            0.,NA,NA,"",   803.629E+03,   904.932E+03,   904.932E+03
C:/temp/Job-1.odb,Step-1,Increment      1: Step Time =    1.000,"P-1-1",          6296,   130.162E-03,   3.05952E-03,            0.,NA,NA,"",   963.595E+03,   963.559E+03,   963.559E+03
C:/temp/Job-1.odb,Step-1,Increment      1: Step Time =    1.000,"P-1-1",          6297,   78.2519E-03,   107.328E-03,            0.,NA,NA,"",   778.506E+03,   706.199E+03,   706.199E+03
C:/temp/Job-1.odb,Step-1,Increment      1: Step Time =    1.000,"P-1-1",          6298,   191.462E-03,   9.61016E-03,            0.,NA,NA,"",   1.00000E+06,   999.936E+03,   999.936E+03
C:/temp/Job-1.odb,Step-1,Increment      1: Step Time =    1.000,"P-1-1",          6299,   8.60208E-03,   190.527E-03,            0.,NA,NA,"",   1.19104E+06,   1.23893E+06,   1.23893E+06
C:/temp/Job-1.odb,Step-1,Increment      1: Step Time =    1.000,"P-1-1",          6300,   191.303E-03,   190.918E-03,            0.,NA,NA,"",   999.972E+03,   999.914E+03,   999.914E+03
C:/temp/Job-1.odb,Step-1,Increment      1: Step Time =    1.000,"P-1-1",          6301,   9.48150E-03,   8.50117E-03,            0.,NA,NA,"",   1.20436E+06,   1.24199E+06,   1.24199E+06
C:/temp/Job-1.odb,Step-1,Increment      1: Step Time =    1.000,"P-1-1",          6302,   109.917E-03,   119.201E-03,            0.,NA,NA,"",   1.37938E+06,   1.39999E+06,   1.39999E+06
C:/temp/Job-1.odb,Step-1,Increment      1: Step Time =    1.000,"P-1-1",          6303,   85.3067E-03,   112.955E-03,            0.,NA,NA,"",   1.28153E+06,   1.16171E+06,   1.16171E+06
C:/temp/Job-1.odb,Step-1,Increment      1: Step Time =    1.000,"P-1-1",          6304,   116.231E-03,   112.140E-03,            0.,NA,NA,"",   1.24248E+06,   1.08470E+06,   1.08470E+06
C:/temp/Job-1.odb,Step-1,Increment      1: Step Time =    1.000,"P-1-1",          6305,   84.1810E-03,   113.934E-03,            0.,NA,NA,"",   1.28443E+06,   1.16831E+06,   1.16831E+06
C:/temp/Job-1.odb,Step-1,Increment      1: Step Time =    1.000,"P-1-1",          6306,   110.087E-03,   121.162E-03,            0.,NA,NA,"",   1.32871E+06,   1.35425E+06,   1.35425E+06
C:/temp/Job-1.odb,Step-1,Increment      1: Step Time =    1.000,"P-1-1",          6307,   89.2740E-03,   119.989E-03,            0.,NA,NA,"",   1.35317E+06,   1.36693E+06,   1.36693E+06
C:/temp/Job-1.odb,Step-1,Increment      1: Step Time =    1.000,"P-1-1",          6308,   116.395E-03,   114.026E-03,            0.,NA,NA,"",   1.30207E+06,   1.16790E+06,   1.16790E+06
C:/temp/Job-1.odb,Step-1,Increment      1: Step Time =    1.000,"P-1-1",          6309,   86.2504E-03,   117.651E-03,            0.,NA,NA,"",   1.36177E+06,   1.30791E+06,   1.30791E+06
C:/temp/Job-1.odb,Step-1,Increment      1: Step Time =    1.000,"P-1-1",          6310,   113.477E-03,   116.532E-03,            0.,NA,NA,"",   1.39295E+06,   1.31809E+06,   1.31809E+06
C:/temp/Job-1.odb,Step-1,Increment      1: Step Time =    1.000,"P-1-1",          6311,   86.8697E-03,   118.709E-03,            0.,NA,NA,"",   1.35948E+06,   1.32407E+06,   1.32407E+06
C:/temp/Job-1.odb,Step-1,Increment      1: Step Time =    1.000,"P-1-1",          6312,   113.032E-03,   118.184E-03,            0.,NA,NA,"",   1.38581E+06,   1.33736E+06,   1.33736E+06
C:/temp/Job-1.odb,Step-1,Increment      1: Step Time =    1.000,"P-1-1",          6313,   192.859E-03,   14.0385E-03,            0.,NA,NA,"",   1.00022E+06,   1.00010E+06,   1.00010E+06
C:/temp/Job-1.odb,Step-1,Increment      1: Step Time =    1.000,"P-1-1",          6314,   185.542E-03,   7.46717E-03,            0.,NA,NA,"",   999.766E+03,   999.725E+03,   999.725E+03
C:/temp/Job-1.odb,Step-1,Increment      1: Step Time =    1.000,"P-1-1",          6315,   14.3626E-03,   192.461E-03,            0.,NA,NA,"",   1.16571E+06,   1.18194E+06,   1.18194E+06
C:/temp/Job-1.odb,Step-1,Increment      1: Step Time =    1.000,"P-1-1",          6316,   7.06661E-03,   186.195E-03,            0.,NA,NA,"",   1.10939E+06,   1.18386E+06,   1.18386E+06
C:/temp/Job-1.odb,Step-1,Increment      1: Step Time =    1.000,"P-1-1",          6317,   13.9853E-03,   7.39558E-03,            0.,NA,NA,"",   1.17019E+06,   1.18677E+06,   1.18677E+06
C:/temp/Job-1.odb,Step-1,Increment      1: Step Time =    1.000,"P-1-1",          6318,   192.704E-03,   185.944E-03,            0.,NA,NA,"",   1.00022E+06,   1.00011E+06,   1.00011E+06
C:/temp/Job-1.odb,Step-1,Increment      1: Step Time =    1.000,"P-1-1",          6319,   7.45785E-03,   14.5199E-03,            0.,NA,NA,"",   1.09945E+06,   1.17362E+06,   1.17362E+06
C:/temp/Job-1.odb,Step-1,Increment      1: Step Time =    1.000,"P-1-1",          6320,   186.213E-03,   193.032E-03,            0.,NA,NA,"",   999.740E+03,   999.708E+03,   999.708E+03
C:/temp/Job-1.odb,Step-1,Increment      1: Step Time =    1.000,"P-1-1",          6321,   114.641E-03,   114.009E-03,            0.,NA,NA,"",   1.34002E+06,   1.21730E+06,   1.21730E+06
C:/temp/Job-1.odb,Step-1,Increment      1: Step Time =    1.000,"P-1-1",          6322,   120.963E-03,   7.84531E-03,            0.,NA,NA,"",   963.757E+03,   964.053E+03,   964.053E+03
C:/temp/Job-1.odb,Step-1,Increment      1: Step Time =    1.000,"P-1-1",          6323,   7.61686E-03,   79.2348E-03,            0.,NA,NA,"",   805.821E+03,   903.184E+03,   903.184E+03
C:/temp/Job-1.odb,Step-1,Increment      1: Step Time =    1.000,"P-1-1",          6324,   78.5758E-03,   191.546E-03,            0.,NA,NA,"",   961.835E+03,   962.485E+03,   962.485E+03
C:/temp/Job-1.odb,Step-1,Increment      1: Step Time =    1.000,"P-1-1",          6325,   191.338E-03,   121.068E-03,            0.,NA,NA,"",   976.645E+03,   998.745E+03,   998.745E+03
C:/temp/Job-1.odb,Step-1,Increment      1: Step Time =    1.000,"P-1-1",          6326,   163.811E-03,   191.365E-03,            0.,NA,NA,"",   998.401E+03,   997.860E+03,   997.860E+03
C:/temp/Job-1.odb,Step-1,Increment      1: Step Time =    1.000,"P-1-1",          6327,   35.5778E-03,   7.94201E-03,            0.,NA,NA,"",   1.03404E+06,   1.03625E+06,   1.03625E+06
C:/temp/Job-1.odb,Step-1,Increment      1: Step Time =    1.000,"P-1-1",          6328,   191.409E-03,   36.2503E-03,            0.,NA,NA,"",   1.00003E+06,   1.00153E+06,   1.00153E+06
C:/temp/Job-1.odb,Step-1,Increment      1: Step Time =    1.000,"P-1-1",          6329,   8.13424E-03,   164.365E-03,            0.,NA,NA,"",   931.369E+03,   1.02398E+06,   1.02398E+06
C:/temp/Job-1.odb,Step-1,Increment      1: Step Time =    1.000,"P-1-1",          6330,   7.51086E-03,   49.3940E-03,            0.,NA,NA,"",   878.369E+03,   974.968E+03,   974.968E+03
C:/temp/Job-1.odb,Step-1,Increment      1: Step Time =    1.000,"P-1-1",          6331,   150.401E-03,   7.39334E-03,            0.,NA,NA,"",   991.814E+03,   991.224E+03,   991.224E+03
C:/temp/Job-1.odb,Step-1,Increment      1: Step Time =    1.000,"P-1-1",          6332,   192.034E-03,   151.366E-03,            0.,NA,NA,"",   996.348E+03,   1.00166E+06,   1.00166E+06
C:/temp/Job-1.odb,Step-1,Increment      1: Step Time =    1.000,"P-1-1",          6333,   48.4025E-03,   192.445E-03,            0.,NA,NA,"",   1.00111E+06,   1.00159E+06,   1.00159E+06
C:/temp/Job-1.odb,Step-1,Increment      1: Step Time =    1.000,"P-1-1",          6334,   7.44723E-03,   13.0771E-03,            0.,NA,NA,"",   1.12268E+06,   1.19300E+06,   1.19300E+06
C:/temp/Job-1.odb,Step-1,Increment      1: Step Time =    1.000,"P-1-1",          6335,   187.728E-03,   192.948E-03,            0.,NA,NA,"",   999.781E+03,   999.752E+03,   999.752E+03
C:/temp/Job-1.odb,Step-1,Increment      1: Step Time =    1.000,"P-1-1",          6336,   192.760E-03,   187.317E-03,            0.,NA,NA,"",   1.00016E+06,   1.00006E+06,   1.00006E+06
C:/temp/Job-1.odb,Step-1,Increment      1: Step Time =    1.000,"P-1-1",          6337,   12.2812E-03,   7.31929E-03,            0.,NA,NA,"",   1.19163E+06,   1.21208E+06,   1.21208E+06
C:/temp/Job-1.odb,Step-1,Increment      1: Step Time =    1.000,"P-1-1",          6338,   8.90171E-03,   20.5962E-03,            0.,NA,NA,"",   1.03383E+06,   1.11269E+06,   1.11269E+06
C:/temp/Job-1.odb,Step-1,Increment      1: Step Time =    1.000,"P-1-1",          6339,   12.8974E-03,   192.467E-03,            0.,NA,NA,"",   1.18225E+06,   1.20171E+06,   1.20171E+06
C:/temp/Job-1.odb,Step-1,Increment      1: Step Time =    1.000,"P-1-1",          6340,   8.86906E-03,   187.565E-03,            0.,NA,NA,"",   1.13600E+06,   1.19582E+06,   1.19582E+06
C:/temp/Job-1.odb,Step-1,Increment      1: Step Time =    1.000,"P-1-1",          6341,   186.971E-03,   7.42561E-03,            0.,NA,NA,"",   999.793E+03,   999.758E+03,   999.758E+03
C:/temp/Job-1.odb,Step-1,Increment      1: Step Time =    1.000,"P-1-1",          6342,   192.806E-03,   12.3779E-03,            0.,NA,NA,"",   1.00015E+06,   1.00004E+06,   1.00004E+06
C:/temp/Job-1.odb,Step-1,Increment      1: Step Time =    1.000,"P-1-1",          6343,   192.139E-03,   180.277E-03,            0.,NA,NA,"",   1.00046E+06,   1.00042E+06,   1.00042E+06
C:/temp/Job-1.odb,Step-1,Increment      1: Step Time =    1.000,"P-1-1",          6344,   179.625E-03,   7.66776E-03,            0.,NA,NA,"",   999.649E+03,   999.540E+03,   999.540E+03
C:/temp/Job-1.odb,Step-1,Increment      1: Step Time =    1.000,"P-1-1",          6345,   20.1501E-03,   192.014E-03,            0.,NA,NA,"",   1.11204E+06,   1.12145E+06,   1.12145E+06
C:/temp/Job-1.odb,Step-1,Increment      1: Step Time =    1.000,"P-1-1",          6346,   193.267E-03,   64.4898E-03,            0.,NA,NA,"",   986.202E+03,   1.00063E+06,   1.00063E+06
C:/temp/Job-1.odb,Step-1,Increment      1: Step Time =    1.000,"P-1-1",          6347,   64.3149E-03,   8.45077E-03,            0.,NA,NA,"",   979.493E+03,   979.633E+03,   979.633E+03
C:/temp/Job-1.odb,Step-1,Increment      1: Step Time =    1.000,"P-1-1",          6348,   135.603E-03,   193.274E-03,            0.,NA,NA,"",   977.790E+03,   977.467E+03,   977.467E+03
C:/temp/Job-1.odb,Step-1,Increment      1: Step Time =    1.000,"P-1-1",          6349,   8.62694E-03,   136.111E-03,            0.,NA,NA,"",   842.351E+03,   938.358E+03,   938.358E+03
C:/temp/Job-1.odb,Step-1,Increment      1: Step Time =    1.000,"P-1-1",          6350,   191.556E-03,   72.4015E-03,            0.,NA,NA,"",   981.607E+03,   999.952E+03,   999.952E+03
C:/temp/Job-1.odb,Step-1,Increment      1: Step Time =    1.000,"P-1-1",          6351,   94.0076E-03,   7.76696E-03,            0.,NA,NA,"",   949.153E+03,   950.249E+03,   950.249E+03
C:/temp/Job-1.odb,Step-1,Increment      1: Step Time =    1.000,"P-1-1",          6352,   157.814E-03,   191.400E-03,            0.,NA,NA,"",   996.689E+03,   996.007E+03,   996.007E+03
C:/temp/Job-1.odb,Step-1,Increment      1: Step Time =    1.000,"P-1-1",          6353,   8.00803E-03,   42.3809E-03,            0.,NA,NA,"",   904.042E+03,   998.612E+03,   998.612E+03
C:/temp/Job-1.odb,Step-1,Increment      1: Step Time =    1.000,"P-1-1",          6354,   7.85080E-03,   105.745E-03,            0.,NA,NA,"",   788.065E+03,   885.216E+03,   885.216E+03
C:/temp/Job-1.odb,Step-1,Increment      1: Step Time =    1.000,"P-1-1",          6355,   127.169E-03,   9.20044E-03,            0.,NA,NA,"",   973.947E+03,   973.876E+03,   973.876E+03
C:/temp/Job-1.odb,Step-1,Increment      1: Step Time =    1.000,"P-1-1",          6356,   105.581E-03,   192.139E-03,            0.,NA,NA,"",   951.069E+03,   952.138E+03,   952.138E+03
C:/temp/Job-1.odb,Step-1,Increment      1: Step Time =    1.000,"P-1-1",          6357,   71.8318E-03,   7.18584E-03,            0.,NA,NA,"",   964.683E+03,   964.950E+03,   964.950E+03
C:/temp/Job-1.odb,Step-1,Increment      1: Step Time =    1.000,"P-1-1",          6358,   41.9679E-03,   7.99156E-03,            0.,NA,NA,"",   1.01630E+06,   1.01744E+06,   1.01744E+06
C:/temp/Job-1.odb,Step-1,Increment      1: Step Time =    1.000,"P-1-1",          6359,   191.112E-03,   158.782E-03,            0.,NA,NA,"",   999.186E+03,   1.00185E+06,   1.00185E+06
C:/temp/Job-1.odb,Step-1,Increment      1: Step Time =    1.000,"P-1-1",          6360,   9.04867E-03,   73.4123E-03,            0.,NA,NA,"",   820.839E+03,   916.847E+03,   916.847E+03
C:/temp/Job-1.odb,Step-1,Increment      1: Step Time =    1.000,"P-1-1",          6361,   191.415E-03,   42.1988E-03,            0.,NA,NA,"",   998.863E+03,   1.00181E+06,   1.00181E+06
C:/temp/Job-1.odb,Step-1,Increment      1: Step Time =    1.000,"P-1-1",          6362,   157.484E-03,   8.19388E-03,            0.,NA,NA,"",   996.197E+03,   995.568E+03,   995.568E+03
C:/temp/Job-1.odb,Step-1,Increment      1: Step Time =    1.000,"P-1-1",          6363,   191.510E-03,   127.301E-03,            0.,NA,NA,"",   981.461E+03,   999.885E+03,   999.885E+03
C:/temp/Job-1.odb,Step-1,Increment      1: Step Time =    1.000,"P-1-1",          6364,   72.6068E-03,   191.617E-03,            0.,NA,NA,"",   968.617E+03,   968.971E+03,   968.971E+03
C:/temp/Job-1.odb,Step-1,Increment      1: Step Time =    1.000,"P-1-1",          6365,   127.703E-03,   191.624E-03,            0.,NA,NA,"",   972.557E+03,   972.449E+03,   972.449E+03
C:/temp/Job-1.odb,Step-1,Increment      1: Step Time =    1.000,"P-1-1",          6366,   7.53673E-03,   128.501E-03,            0.,NA,NA,"",   820.903E+03,   918.335E+03,   918.335E+03
C:/temp/Job-1.odb,Step-1,Increment      1: Step Time =    1.000,"P-1-1",          6367,   191.771E-03,   67.8569E-03,            0.,NA,NA,"",   984.960E+03,   1.00054E+06,   1.00054E+06
C:/temp/Job-1.odb,Step-1,Increment      1: Step Time =    1.000,"P-1-1",          6368,   66.8248E-03,   10.4020E-03,            0.,NA,NA,"",   982.882E+03,   983.203E+03,   983.203E+03
C:/temp/Job-1.odb,Step-1,Increment      1: Step Time =    1.000,"P-1-1",          6369,   41.1604E-03,   191.025E-03,            0.,NA,NA,"",   1.02236E+06,   1.02388E+06,   1.02388E+06
C:/temp/Job-1.odb,Step-1,Increment      1: Step Time =    1.000,"P-1-1",          6370,   7.57497E-03,   158.110E-03,            0.,NA,NA,"",   903.595E+03,   999.010E+03,   999.010E+03
C:/temp/Job-1.odb,Step-1,Increment      1: Step Time =    1.000,"P-1-1",          6371,   192.248E-03,   94.5852E-03,            0.,NA,NA,"",   968.012E+03,   997.210E+03,   997.210E+03
C:/temp/Job-1.odb,Step-1,Increment      1: Step Time =    1.000,"P-1-1",          6372,   132.213E-03,   191.842E-03,            0.,NA,NA,"",   977.147E+03,   976.840E+03,   976.840E+03
C:/temp/Job-1.odb,Step-1,Increment      1: Step Time =    1.000,"P-1-1",          6373,   10.4227E-03,   133.350E-03,            0.,NA,NA,"",   840.890E+03,   934.903E+03,   934.903E+03
C:/temp/Job-1.odb,Step-1,Increment      1: Step Time =    1.000,"P-1-1",          6374,   185.061E-03,   191.395E-03,            0.,NA,NA,"",   999.873E+03,   999.818E+03,   999.818E+03
C:/temp/Job-1.odb,Step-1,Increment      1: Step Time =    1.000,"P-1-1",          6375,   15.6503E-03,   8.83754E-03,            0.,NA,NA,"",   1.14861E+06,   1.16669E+06,   1.16669E+06
C:/temp/Job-1.odb,Step-1,Increment      1: Step Time =    1.000,"P-1-1",          6376,   191.564E-03,   15.7327E-03,            0.,NA,NA,"",   1.00032E+06,   1.00024E+06,   1.00024E+06
C:/temp/Job-1.odb,Step-1,Increment      1: Step Time =    1.000,"P-1-1",          6377,   8.12710E-03,   184.541E-03,            0.,NA,NA,"",   1.08945E+06,   1.16206E+06,   1.16206E+06
C:/temp/Job-1.odb,Step-1,Increment      1: Step Time =    1.000,"P-1-1",          6378,   106.239E-03,   122.712E-03,            0.,NA,NA,"",   1.25601E+06,   1.34408E+06,   1.34408E+06
C:/temp/Job-1.odb,Step-1,Increment      1: Step Time =    1.000,"P-1-1",          6379,   92.8464E-03,   121.843E-03,            0.,NA,NA,"",   1.28733E+06,   1.36519E+06,   1.36519E+06
C:/temp/Job-1.odb,Step-1,Increment      1: Step Time =    1.000,"P-1-1",          6380,   101.054E-03,   122.551E-03,            0.,NA,NA,"",   1.21403E+06,   1.34257E+06,   1.34257E+06
C:/temp/Job-1.odb,Step-1,Increment      1: Step Time =    1.000,"P-1-1",          6381,   86.6711E-03,   115.927E-03,            0.,NA,NA,"",   1.37073E+06,   1.30531E+06,   1.30531E+06
C:/temp/Job-1.odb,Step-1,Increment      1: Step Time =    1.000,"P-1-1",          6382,   79.6939E-03,   110.192E-03,            0.,NA,NA,"",   996.660E+03,     886.2E+03,     886.2E+03
C:/temp/Job-1.odb,Step-1,Increment      1: Step Time =    1.000,"P-1-1",          6383,   79.9861E-03,   113.607E-03,            0.,NA,NA,"",   1.15017E+06,   1.04525E+06,   1.04525E+06
C:/temp/Job-1.odb,Step-1,Increment      1: Step Time =    1.000,"P-1-1",          6384,   77.1291E-03,   106.348E-03,            0.,NA,NA,"",   701.402E+03,   657.037E+03,   657.037E+03
C:/temp/Job-1.odb,Step-1,Increment      1: Step Time =    1.000,"P-1-1",          6385,   190.771E-03,   100.952E-03,            0.,NA,NA,"",   967.809E+03,   995.870E+03,   995.870E+03
C:/temp/Job-1.odb,Step-1,Increment      1: Step Time =    1.000,"P-1-1",          6386,   100.653E-03,   9.19674E-03,            0.,NA,NA,"",   953.847E+03,   955.420E+03,   955.420E+03
C:/temp/Job-1.odb,Step-1,Increment      1: Step Time =    1.000,"P-1-1",          6387,   99.0359E-03,   190.620E-03,            0.,NA,NA,"",   954.239E+03,   955.876E+03,   955.876E+03
C:/temp/Job-1.odb,Step-1,Increment      1: Step Time =    1.000,"P-1-1",          6388,   8.80926E-03,   99.1199E-03,            0.,NA,NA,"",   788.039E+03,   884.549E+03,   884.549E+03
C:/temp/Job-1.odb,Step-1,Increment      1: Step Time =    1.000,"P-1-1",          6389,   124.604E-03,   105.236E-03,            0.,NA,NA,"",   663.812E+03,   628.024E+03,   628.024E+03
C:/temp/Job-1.odb,Step-1,Increment      1: Step Time =    1.000,"P-1-1",          6390,   190.871E-03,   115.538E-03,            0.,NA,NA,"",   973.082E+03,   997.428E+03,   997.428E+03
C:/temp/Job-1.odb,Step-1,Increment      1: Step Time =    1.000,"P-1-1",          6391,   9.57927E-03,   83.8025E-03,            0.,NA,NA,"",   802.461E+03,   898.262E+03,   898.262E+03
C:/temp/Job-1.odb,Step-1,Increment      1: Step Time =    1.000,"P-1-1",          6392,   84.4712E-03,   190.915E-03,            0.,NA,NA,"",   958.894E+03,   959.948E+03,   959.948E+03
C:/temp/Job-1.odb,Step-1,Increment      1: Step Time =    1.000,"P-1-1",          6393,   116.233E-03,   9.25045E-03,            0.,NA,NA,"",   962.959E+03,   963.722E+03,   963.722E+03
C:/temp/Job-1.odb,Step-1,Increment      1: Step Time =    1.000,"P-1-1",          6394,   9.67834E-03,   113.265E-03,            0.,NA,NA,"",   798.354E+03,   894.157E+03,   894.157E+03
C:/temp/Job-1.odb,Step-1,Increment      1: Step Time =    1.000,"P-1-1",          6395,   113.688E-03,   190.704E-03,            0.,NA,NA,"",   960.971E+03,   961.981E+03,   961.981E+03
C:/temp/Job-1.odb,Step-1,Increment      1: Step Time =    1.000,"P-1-1",          6396,   86.6606E-03,   9.33626E-03,            0.,NA,NA,"",   958.111E+03,   959.364E+03,   959.364E+03
C:/temp/Job-1.odb,Step-1,Increment      1: Step Time =    1.000,"P-1-1",          6397,   26.8668E-03,   190.149E-03,            0.,NA,NA,"",   1.07456E+06,   1.08225E+06,   1.08225E+06
C:/temp/Job-1.odb,Step-1,Increment      1: Step Time =    1.000,"P-1-1",          6398,   172.014E-03,   9.70114E-03,            0.,NA,NA,"",   999.957E+03,   999.558E+03,   999.558E+03
C:/temp/Job-1.odb,Step-1,Increment      1: Step Time =    1.000,"P-1-1",          6399,   191.329E-03,   86.6602E-03,            0.,NA,NA,"",   971.684E+03,   997.470E+03,   997.470E+03
C:/temp/Job-1.odb,Step-1,Increment      1: Step Time =    1.000,"P-1-1",          6400,   190.527E-03,   172.932E-03,            0.,NA,NA,"",   1.00087E+06,   1.00119E+06,   1.00119E+06
C:/temp/Job-1.odb,Step-1,Increment      1: Step Time =    1.000,"P-1-1",          6401,   9.43561E-03,   28.1992E-03,            0.,NA,NA,"",   977.562E+03,   1.06274E+06,   1.06274E+06
C:/temp/Job-1.odb,Step-1,Increment      1: Step Time =    1.000,"P-1-1",          6402,   57.7434E-03,   189.927E-03,            0.,NA,NA,"",   995.061E+03,   995.359E+03,   995.359E+03
C:/temp/Job-1.odb,Step-1,Increment      1: Step Time =    1.000,"P-1-1",          6403,   9.73360E-03,   57.2487E-03,            0.,NA,NA,"",   864.056E+03,   958.046E+03,   958.046E+03
C:/temp/Job-1.odb,Step-1,Increment      1: Step Time =    1.000,"P-1-1",          6404,   189.816E-03,   144.117E-03,            0.,NA,NA,"",   994.444E+03,   1.00232E+06,   1.00232E+06
C:/temp/Job-1.odb,Step-1,Increment      1: Step Time =    1.000,"P-1-1",          6405,   142.877E-03,   9.58142E-03,            0.,NA,NA,"",   989.568E+03,   988.681E+03,   988.681E+03
C:/temp/Job-1.odb,Step-1,Increment      1: Step Time =    1.000,"P-1-1",          6406,   77.5976E-03,   93.6975E-03,            0.,NA,NA,"",   695.074E+03,   645.770E+03,   645.770E+03
C:/temp/Job-1.odb,Step-1,Increment      1: Step Time =    1.000,"P-1-1",          6407,   121.674E-03,   110.678E-03,            0.,NA,NA,"",   1.02564E+06,   905.923E+03,   905.923E+03
C:/temp/Job-1.odb,Step-1,Increment      1: Step Time =    1.000,"P-1-1",          6408,   95.9529E-03,   122.560E-03,            0.,NA,NA,"",   1.23461E+06,   1.34713E+06,   1.34713E+06
C:/temp/Job-1.odb,Step-1,Increment      1: Step Time =    1.000,"P-1-1",          6409,   11.2080E-03,   142.630E-03,            0.,NA,NA,"",   869.192E+03,   960.962E+03,   960.962E+03
C:/temp/Job-1.odb,Step-1,Increment      1: Step Time =    1.000,"P-1-1",          6410,   141.496E-03,   189.559E-03,            0.,NA,NA,"",   990.003E+03,   989.018E+03,   989.018E+03
C:/temp/Job-1.odb,Step-1,Increment      1: Step Time =    1.000,"P-1-1",          6411,   57.2140E-03,   10.8167E-03,            0.,NA,NA,"",   998.011E+03,   998.392E+03,   998.392E+03
C:/temp/Job-1.odb,Step-1,Increment      1: Step Time =    1.000,"P-1-1",          6412,   189.373E-03,   58.8938E-03,            0.,NA,NA,"",   993.201E+03,   1.00227E+06,   1.00227E+06
C:/temp/Job-1.odb,Step-1,Increment      1: Step Time =    1.000,"P-1-1",          6413,   76.7775E-03,   101.956E-03,            0.,NA,NA,"",   431.641E+03,   446.567E+03,   446.567E+03
C:/temp/Job-1.odb,Step-1,Increment      1: Step Time =    1.000,"P-1-1",          6414,   10.9399E-03,   172.559E-03,            0.,NA,NA,"",   990.591E+03,   1.07034E+06,   1.07034E+06
C:/temp/Job-1.odb,Step-1,Increment      1: Step Time =    1.000,"P-1-1",          6415,   188.937E-03,   27.7559E-03,            0.,NA,NA,"",   1.00135E+06,   1.00165E+06,   1.00165E+06
C:/temp/Job-1.odb,Step-1,Increment      1: Step Time =    1.000,"P-1-1",          6416,   27.9893E-03,   10.7181E-03,            0.,NA,NA,"",   1.07114E+06,   1.07890E+06,   1.07890E+06
C:/temp/Job-1.odb,Step-1,Increment      1: Step Time =    1.000,"P-1-1",          6417,   171.673E-03,   189.844E-03,            0.,NA,NA,"",   1.00014E+06,   999.697E+03,   999.697E+03
C:/temp/Job-1.odb,Step-1,Increment      1: Step Time =    1.000,"P-1-1",          6418,   77.1532E-03,   98.7255E-03,            0.,NA,NA,"",   403.569E+03,   420.996E+03,   420.996E+03
C:/temp/Job-1.odb,Step-1,Increment      1: Step Time =    1.000,"P-1-1",          6419,   189.395E-03,   112.941E-03,            0.,NA,NA,"",   972.233E+03,   996.178E+03,   996.178E+03
C:/temp/Job-1.odb,Step-1,Increment      1: Step Time =    1.000,"P-1-1",          6420,   11.0122E-03,   87.4975E-03,            0.,NA,NA,"",   800.116E+03,   894.847E+03,   894.847E+03
C:/temp/Job-1.odb,Step-1,Increment      1: Step Time =    1.000,"P-1-1",          6421,   87.8069E-03,   188.651E-03,            0.,NA,NA,"",   964.453E+03,   966.380E+03,   966.380E+03
C:/temp/Job-1.odb,Step-1,Increment      1: Step Time =    1.000,"P-1-1",          6422,   113.184E-03,   10.7411E-03,            0.,NA,NA,"",   964.618E+03,   965.944E+03,   965.944E+03
C:/temp/Job-1.odb,Step-1,Increment      1: Step Time =    1.000,"P-1-1",          6423,   11.1946E-03,   146.370E-03,            0.,NA,NA,"",   880.396E+03,   971.545E+03,   971.545E+03
C:/temp/Job-1.odb,Step-1,Increment      1: Step Time =    1.000,"P-1-1",          6424,   53.7989E-03,   10.9369E-03,            0.,NA,NA,"",   1.00409E+06,   1.00466E+06,   1.00466E+06
C:/temp/Job-1.odb,Step-1,Increment      1: Step Time =    1.000,"P-1-1",          6425,   188.681E-03,   54.9053E-03,            0.,NA,NA,"",   996.080E+03,   1.00293E+06,   1.00293E+06
C:/temp/Job-1.odb,Step-1,Increment      1: Step Time =    1.000,"P-1-1",          6426,   145.182E-03,   189.132E-03,            0.,NA,NA,"",   993.246E+03,   992.089E+03,   992.089E+03
C:/temp/Job-1.odb,Step-1,Increment      1: Step Time =    1.000,"P-1-1",          6427,   11.1379E-03,   117.159E-03,            0.,NA,NA,"",   807.204E+03,   901.636E+03,   901.636E+03
C:/temp/Job-1.odb,Step-1,Increment      1: Step Time =    1.000,"P-1-1",          6428,   116.235E-03,   189.194E-03,            0.,NA,NA,"",   967.375E+03,   968.484E+03,   968.484E+03
C:/temp/Job-1.odb,Step-1,Increment      1: Step Time =    1.000,"P-1-1",          6429,   82.8820E-03,   10.8421E-03,            0.,NA,NA,"",   966.378E+03,   967.784E+03,   967.784E+03
C:/temp/Job-1.odb,Step-1,Increment      1: Step Time =    1.000,"P-1-1",          6430,   189.527E-03,   83.4659E-03,            0.,NA,NA,"",   974.524E+03,   997.064E+03,   997.064E+03
C:/temp/Job-1.odb,Step-1,Increment      1: Step Time =    1.000,"P-1-1",          6431,   80.2764E-03,   91.1824E-03,            0.,NA,NA,"",   913.322E+03,   797.305E+03,   797.305E+03
C:/temp/Job-1.odb,Step-1,Increment      1: Step Time =    1.000,"P-1-1",          6432,   31.9742E-03,   189.754E-03,            0.,NA,NA,"",   1.05481E+06,   1.05990E+06,   1.05990E+06
C:/temp/Job-1.odb,Step-1,Increment      1: Step Time =    1.000,"P-1-1",          6433,   168.125E-03,   11.3421E-03,            0.,NA,NA,"",   1.00061E+06,   999.901E+03,   999.901E+03
C:/temp/Job-1.odb,Step-1,Increment      1: Step Time =    1.000,"P-1-1",          6434,   188.776E-03,   168.364E-03,            0.,NA,NA,"",   1.00147E+06,   1.00211E+06,   1.00211E+06
C:/temp/Job-1.odb,Step-1,Increment      1: Step Time =    1.000,"P-1-1",          6435,   11.2073E-03,   31.4172E-03,            0.,NA,NA,"",   968.094E+03,   1.05049E+06,   1.05049E+06
C:/temp/Job-1.odb,Step-1,Increment      1: Step Time =    1.000,"P-1-1",          6436,   10.8761E-03,   175.780E-03,            0.,NA,NA,"",   1.01339E+06,   1.08969E+06,   1.08969E+06
C:/temp/Job-1.odb,Step-1,Increment      1: Step Time =    1.000,"P-1-1",          6437,   188.664E-03,   23.7963E-03,            0.,NA,NA,"",   1.00120E+06,   1.00127E+06,   1.00127E+06
C:/temp/Job-1.odb,Step-1,Increment      1: Step Time =    1.000,"P-1-1",          6438,   24.9763E-03,   10.8583E-03,            0.,NA,NA,"",   1.08495E+06,   1.09529E+06,   1.09529E+06
C:/temp/Job-1.odb,Step-1,Increment      1: Step Time =    1.000,"P-1-1",          6439,   175.713E-03,   188.792E-03,            0.,NA,NA,"",   1.00058E+06,   1.00021E+06,   1.00021E+06
C:/temp/Job-1.odb,Step-1,Increment      1: Step Time =    1.000,"P-1-1",          6440,   189.358E-03,   109.883E-03,            0.,NA,NA,"",   970.544E+03,   995.519E+03,   995.519E+03
C:/temp/Job-1.odb,Step-1,Increment      1: Step Time =    1.000,"P-1-1",          6441,   10.9907E-03,   90.3374E-03,            0.,NA,NA,"",   796.630E+03,   891.500E+03,   891.500E+03
C:/temp/Job-1.odb,Step-1,Increment      1: Step Time =    1.000,"P-1-1",          6442,   90.5931E-03,   189.094E-03,            0.,NA,NA,"",   961.341E+03,   963.293E+03,   963.293E+03
C:/temp/Job-1.odb,Step-1,Increment      1: Step Time =    1.000,"P-1-1",          6443,   110.115E-03,   10.8280E-03,            0.,NA,NA,"",   962.707E+03,   964.308E+03,   964.308E+03
C:/temp/Job-1.odb,Step-1,Increment      1: Step Time =    1.000,"P-1-1",          6444,   60.8609E-03,   188.539E-03,            0.,NA,NA,"",   995.065E+03,   995.372E+03,   995.372E+03
C:/temp/Job-1.odb,Step-1,Increment      1: Step Time =    1.000,"P-1-1",          6445,   189.277E-03,   138.619E-03,            0.,NA,NA,"",   991.575E+03,   1.00196E+06,   1.00196E+06
C:/temp/Job-1.odb,Step-1,Increment      1: Step Time =    1.000,"P-1-1",          6446,   11.1876E-03,   61.4559E-03,            0.,NA,NA,"",   857.589E+03,   949.996E+03,   949.996E+03
C:/temp/Job-1.odb,Step-1,Increment      1: Step Time =    1.000,"P-1-1",          6447,   138.905E-03,   11.2312E-03,            0.,NA,NA,"",   989.496E+03,   988.474E+03,   988.474E+03
C:/temp/Job-1.odb,Step-1,Increment      1: Step Time =    1.000,"P-1-1",          6448,   189.517E-03,   119.822E-03,            0.,NA,NA,"",   976.851E+03,   997.902E+03,   997.902E+03
C:/temp/Job-1.odb,Step-1,Increment      1: Step Time =    1.000,"P-1-1",          6449,   11.0321E-03,   119.903E-03,            0.,NA,NA,"",   811.974E+03,   906.367E+03,   906.367E+03
C:/temp/Job-1.odb,Step-1,Increment      1: Step Time =    1.000,"P-1-1",          6450,   118.945E-03,   188.627E-03,            0.,NA,NA,"",   971.411E+03,   972.248E+03,   972.248E+03
C:/temp/Job-1.odb,Step-1,Increment      1: Step Time =    1.000,"P-1-1",          6451,   80.1524E-03,   189.879E-03,            0.,NA,NA,"",   966.340E+03,   967.389E+03,   967.389E+03
C:/temp/Job-1.odb,Step-1,Increment      1: Step Time =    1.000,"P-1-1",          6452,   10.7493E-03,   80.6222E-03,            0.,NA,NA,"",   810.371E+03,   905.043E+03,   905.043E+03
C:/temp/Job-1.odb,Step-1,Increment      1: Step Time =    1.000,"P-1-1",          6453,   80.0424E-03,   10.8270E-03,            0.,NA,NA,"",   968.954E+03,   970.138E+03,   970.138E+03
C:/temp/Job-1.odb,Step-1,Increment      1: Step Time =    1.000,"P-1-1",          6454,   119.201E-03,   10.8259E-03,            0.,NA,NA,"",   970.054E+03,   970.802E+03,   970.802E+03
C:/temp/Job-1.odb,Step-1,Increment      1: Step Time =    1.000,"P-1-1",          6455,   189.308E-03,   81.1735E-03,            0.,NA,NA,"",   976.326E+03,   997.570E+03,   997.570E+03
C:/temp/Job-1.odb,Step-1,Increment      1: Step Time =    1.000,"P-1-1",          6456,   34.1243E-03,   189.850E-03,            0.,NA,NA,"",   1.04677E+06,   1.05081E+06,   1.05081E+06
C:/temp/Job-1.odb,Step-1,Increment      1: Step Time =    1.000,"P-1-1",          6457,   11.0485E-03,   166.592E-03,            0.,NA,NA,"",   956.575E+03,   1.04083E+06,   1.04083E+06
C:/temp/Job-1.odb,Step-1,Increment      1: Step Time =    1.000,"P-1-1",          6458,   189.825E-03,   34.6618E-03,            0.,NA,NA,"",   1.00083E+06,   1.00196E+06,   1.00196E+06
C:/temp/Job-1.odb,Step-1,Increment      1: Step Time =    1.000,"P-1-1",          6459,   165.252E-03,   11.2664E-03,            0.,NA,NA,"",   1.00034E+06,   999.516E+03,   999.516E+03
C:/temp/Job-1.odb,Step-1,Increment      1: Step Time =    1.000,"P-1-1",          6460,   189.480E-03,   165.698E-03,            0.,NA,NA,"",   1.00105E+06,   1.00209E+06,   1.00209E+06
C:/temp/Job-1.odb,Step-1,Increment      1: Step Time =    1.000,"P-1-1",          6461,   33.7451E-03,   10.8038E-03,            0.,NA,NA,"",   1.04938E+06,   1.05416E+06,   1.05416E+06
C:/temp/Job-1.odb,Step-1,Increment      1: Step Time =    1.000,"P-1-1",          6462,   11.0373E-03,   34.3926E-03,            0.,NA,NA,"",   951.798E+03,   1.03672E+06,   1.03672E+06
C:/temp/Job-1.odb,Step-1,Increment      1: Step Time =    1.000,"P-1-1",          6463,   165.345E-03,   189.816E-03,            0.,NA,NA,"",   999.616E+03,   998.942E+03,   998.942E+03
C:/temp/Job-1.odb,Step-1,Increment      1: Step Time =    1.000,"P-1-1",          6464,   11.0281E-03,   149.581E-03,            0.,NA,NA,"",   889.667E+03,   980.456E+03,   980.456E+03
C:/temp/Job-1.odb,Step-1,Increment      1: Step Time =    1.000,"P-1-1",          6465,   51.6487E-03,   190.748E-03,            0.,NA,NA,"",   1.00197E+06,   1.00252E+06,   1.00252E+06
C:/temp/Job-1.odb,Step-1,Increment      1: Step Time =    1.000,"P-1-1",          6466,   188.842E-03,   149.866E-03,            0.,NA,NA,"",   997.998E+03,   1.00305E+06,   1.00305E+06
C:/temp/Job-1.odb,Step-1,Increment      1: Step Time =    1.000,"P-1-1",          6467,   50.7849E-03,   11.0155E-03,            0.,NA,NA,"",   1.00932E+06,   1.01019E+06,   1.01019E+06
C:/temp/Job-1.odb,Step-1,Increment      1: Step Time =    1.000,"P-1-1",          6468,   149.134E-03,   10.6374E-03,            0.,NA,NA,"",   995.053E+03,   993.918E+03,   993.918E+03
C:/temp/Job-1.odb,Step-1,Increment      1: Step Time =    1.000,"P-1-1",          6469,   189.363E-03,   51.1968E-03,            0.,NA,NA,"",   997.188E+03,   1.00276E+06,   1.00276E+06
C:/temp/Job-1.odb,Step-1,Increment      1: Step Time =    1.000,"P-1-1",          6470,   148.745E-03,   189.508E-03,            0.,NA,NA,"",   994.707E+03,   993.596E+03,   993.596E+03
C:/temp/Job-1.odb,Step-1,Increment      1: Step Time =    1.000,"P-1-1",          6471,   10.6761E-03,   50.7460E-03,            0.,NA,NA,"",   887.163E+03,   978.651E+03,   978.651E+03
C:/temp/Job-1.odb,Step-1,Increment      1: Step Time =    1.000,"P-1-1",          6472,   10.6938E-03,   136.488E-03,            0.,NA,NA,"",   850.020E+03,   943.453E+03,   943.453E+03
C:/temp/Job-1.odb,Step-1,Increment      1: Step Time =    1.000,"P-1-1",          6473,   64.1295E-03,   190.623E-03,            0.,NA,NA,"",   982.828E+03,   982.989E+03,   982.989E+03
C:/temp/Job-1.odb,Step-1,Increment      1: Step Time =    1.000,"P-1-1",          6474,   136.070E-03,   189.223E-03,            0.,NA,NA,"",   986.257E+03,   985.457E+03,   985.457E+03
C:/temp/Job-1.odb,Step-1,Increment      1: Step Time =    1.000,"P-1-1",          6475,   189.793E-03,   136.882E-03,            0.,NA,NA,"",   990.057E+03,   1.00159E+06,   1.00159E+06
C:/temp/Job-1.odb,Step-1,Increment      1: Step Time =    1.000,"P-1-1",          6476,   11.1681E-03,   64.3902E-03,            0.,NA,NA,"",   849.300E+03,   942.160E+03,   942.160E+03
C:/temp/Job-1.odb,Step-1,Increment      1: Step Time =    1.000,"P-1-1",          6477,   135.875E-03,   11.2481E-03,            0.,NA,NA,"",   986.974E+03,   986.130E+03,   986.130E+03
C:/temp/Job-1.odb,Step-1,Increment      1: Step Time =    1.000,"P-1-1",          6478,   62.9673E-03,   10.3744E-03,            0.,NA,NA,"",   988.142E+03,   988.369E+03,   988.369E+03
C:/temp/Job-1.odb,Step-1,Increment      1: Step Time =    1.000,"P-1-1",          6479,   189.234E-03,   63.9939E-03,            0.,NA,NA,"",   989.978E+03,   1.00164E+06,   1.00164E+06
C:/temp/Job-1.odb,Step-1,Increment      1: Step Time =    1.000,"P-1-1",          6480,   10.6415E-03,   179.039E-03,            0.,NA,NA,"",   1.03992E+06,   1.11228E+06,   1.11228E+06
C:/temp/Job-1.odb,Step-1,Increment      1: Step Time =    1.000,"P-1-1",          6481,   21.3684E-03,   188.660E-03,            0.,NA,NA,"",   1.10326E+06,   1.11873E+06,   1.11873E+06
C:/temp/Job-1.odb,Step-1,Increment      1: Step Time =    1.000,"P-1-1",          6482,   189.740E-03,   21.1688E-03,            0.,NA,NA,"",   1.00081E+06,   1.00081E+06,   1.00081E+06
C:/temp/Job-1.odb,Step-1,Increment      1: Step Time =    1.000,"P-1-1",          6483,   178.117E-03,   9.27941E-03,            0.,NA,NA,"",   999.966E+03,   999.774E+03,   999.774E+03
C:/temp/Job-1.odb,Step-1,Increment      1: Step Time =    1.000,"P-1-1",          6484,   21.7101E-03,   10.9763E-03,            0.,NA,NA,"",   1.10205E+06,   1.11630E+06,   1.11630E+06
C:/temp/Job-1.odb,Step-1,Increment      1: Step Time =    1.000,"P-1-1",          6485,   188.141E-03,   178.063E-03,            0.,NA,NA,"",   1.00118E+06,   1.00117E+06,   1.00117E+06
C:/temp/Job-1.odb,Step-1,Increment      1: Step Time =    1.000,"P-1-1",          6486,   179.426E-03,   189.560E-03,            0.,NA,NA,"",   1.00025E+06,   1.00005E+06,   1.00005E+06
C:/temp/Job-1.odb,Step-1,Increment      1: Step Time =    1.000,"P-1-1",          6487,   10.4252E-03,   22.1107E-03,            0.,NA,NA,"",   1.02820E+06,   1.10331E+06,   1.10331E+06
C:/temp/Job-1.odb,Step-1,Increment      1: Step Time =    1.000,"P-1-1",          6488,   188.844E-03,   93.6066E-03,            0.,NA,NA,"",   969.187E+03,   994.530E+03,   994.530E+03
C:/temp/Job-1.odb,Step-1,Increment      1: Step Time =    1.000,"P-1-1",          6489,   106.840E-03,   188.697E-03,            0.,NA,NA,"",   962.305E+03,   964.306E+03,   964.306E+03
C:/temp/Job-1.odb,Step-1,Increment      1: Step Time =    1.000,"P-1-1",          6490,   93.4902E-03,   189.294E-03,            0.,NA,NA,"",   959.459E+03,   961.438E+03,   961.438E+03
C:/temp/Job-1.odb,Step-1,Increment      1: Step Time =    1.000,"P-1-1",          6491,   10.5909E-03,   106.199E-03,            0.,NA,NA,"",   792.900E+03,   888.167E+03,   888.167E+03
C:/temp/Job-1.odb,Step-1,Increment      1: Step Time =    1.000,"P-1-1",          6492,   189.439E-03,   106.764E-03,            0.,NA,NA,"",   969.280E+03,   995.144E+03,   995.144E+03
C:/temp/Job-1.odb,Step-1,Increment      1: Step Time =    1.000,"P-1-1",          6493,   93.3698E-03,   10.3842E-03,            0.,NA,NA,"",   958.386E+03,   960.264E+03,   960.264E+03
C:/temp/Job-1.odb,Step-1,Increment      1: Step Time =    1.000,"P-1-1",          6494,   10.8484E-03,   93.3094E-03,            0.,NA,NA,"",   793.686E+03,   888.759E+03,   888.759E+03
C:/temp/Job-1.odb,Step-1,Increment      1: Step Time =    1.000,"P-1-1",          6495,   107.009E-03,   11.0941E-03,            0.,NA,NA,"",   961.813E+03,   963.774E+03,   963.774E+03
C:/temp/Job-1.odb,Step-1,Increment      1: Step Time =    1.000,"P-1-1",          6496,   11.2192E-03,   122.742E-03,            0.,NA,NA,"",   818.235E+03,   912.244E+03,   912.244E+03
C:/temp/Job-1.odb,Step-1,Increment      1: Step Time =    1.000,"P-1-1",          6497,   122.605E-03,   189.875E-03,            0.,NA,NA,"",   971.536E+03,   971.867E+03,   971.867E+03
C:/temp/Job-1.odb,Step-1,Increment      1: Step Time =    1.000,"P-1-1",          6498,   77.0456E-03,   11.3189E-03,            0.,NA,NA,"",   973.763E+03,   974.762E+03,   974.762E+03
C:/temp/Job-1.odb,Step-1,Increment      1: Step Time =    1.000,"P-1-1",          6499,   189.915E-03,   77.6068E-03,            0.,NA,NA,"",   978.670E+03,   998.665E+03,   998.665E+03
C:/temp/Job-1.odb,Step-1,Increment      1: Step Time =    1.000,"P-1-1",          6500,   123.728E-03,   108.491E-03,            0.,NA,NA,"",   867.992E+03,   786.235E+03,   786.235E+03
C:/temp/Job-1.odb,Step-1,Increment      1: Step Time =    1.000,"P-1-1",          6501,   87.5261E-03,   119.818E-03,            0.,NA,NA,"",   1.34948E+06,   1.33243E+06,   1.33243E+06
C:/temp/Job-1.odb,Step-1,Increment      1: Step Time =    1.000,"P-1-1",          6502,   190.364E-03,   18.6450E-03,            0.,NA,NA,"",   1.00059E+06,   1.00054E+06,   1.00054E+06
C:/temp/Job-1.odb,Step-1,Increment      1: Step Time =    1.000,"P-1-1",          6503,   10.0722E-03,   182.639E-03,            0.,NA,NA,"",   1.07437E+06,   1.14233E+06,   1.14233E+06
C:/temp/Job-1.odb,Step-1,Increment      1: Step Time =    1.000,"P-1-1",          6504,   18.5189E-03,   10.6706E-03,            0.,NA,NA,"",   1.12129E+06,   1.13971E+06,   1.13971E+06
C:/temp/Job-1.odb,Step-1,Increment      1: Step Time =    1.000,"P-1-1",          6505,   182.306E-03,   189.497E-03,            0.,NA,NA,"",   1.00019E+06,   1.00006E+06,   1.00006E+06
C:/temp/Job-1.odb,Step-1,Increment      1: Step Time =    1.000,"P-1-1",          6506,   96.4010E-03,   189.560E-03,            0.,NA,NA,"",   957.779E+03,   959.754E+03,   959.754E+03
C:/temp/Job-1.odb,Step-1,Increment      1: Step Time =    1.000,"P-1-1",          6507,   189.682E-03,   103.689E-03,            0.,NA,NA,"",   968.386E+03,   995.058E+03,   995.058E+03
C:/temp/Job-1.odb,Step-1,Increment      1: Step Time =    1.000,"P-1-1",          6508,   110.928E-03,   120.176E-03,            0.,NA,NA,"",   1.35642E+06,   1.36260E+06,   1.36260E+06
C:/temp/Job-1.odb,Step-1,Increment      1: Step Time =    1.000,"P-1-1",          6509,   10.6149E-03,   96.2367E-03,            0.,NA,NA,"",   791.727E+03,   886.972E+03,   886.972E+03
C:/temp/Job-1.odb,Step-1,Increment      1: Step Time =    1.000,"P-1-1",          6510,   103.742E-03,   11.2405E-03,            0.,NA,NA,"",   960.958E+03,   963.151E+03,   963.151E+03
C:/temp/Job-1.odb,Step-1,Increment      1: Step Time =    1.000,"P-1-1",          6511,   37.2721E-03,   189.485E-03,            0.,NA,NA,"",   1.03774E+06,   1.04107E+06,   1.04107E+06
C:/temp/Job-1.odb,Step-1,Increment      1: Step Time =    1.000,"P-1-1",          6512,   162.590E-03,   10.2545E-03,            0.,NA,NA,"",   999.206E+03,   998.424E+03,   998.424E+03
C:/temp/Job-1.odb,Step-1,Increment      1: Step Time =    1.000,"P-1-1",          6513,   189.751E-03,   162.445E-03,            0.,NA,NA,"",   1.00057E+06,   1.00224E+06,   1.00224E+06
C:/temp/Job-1.odb,Step-1,Increment      1: Step Time =    1.000,"P-1-1",          6514,   10.2641E-03,   37.0878E-03,            0.,NA,NA,"",   935.259E+03,   1.02364E+06,   1.02364E+06
C:/temp/Job-1.odb,Step-1,Increment      1: Step Time =    1.000,"P-1-1",          6515,   75.9749E-03,   105.321E-03,            0.,NA,NA,"",   634.258E+03,   617.566E+03,   617.566E+03
C:/temp/Job-1.odb,Step-1,Increment      1: Step Time =    1.000,"P-1-1",          6516,   11.1046E-03,   152.755E-03,            0.,NA,NA,"",   900.348E+03,   990.300E+03,   990.300E+03
C:/temp/Job-1.odb,Step-1,Increment      1: Step Time =    1.000,"P-1-1",          6517,   47.7882E-03,   11.3399E-03,            0.,NA,NA,"",   1.01604E+06,   1.01736E+06,   1.01736E+06
C:/temp/Job-1.odb,Step-1,Increment      1: Step Time =    1.000,"P-1-1",          6518,   190.179E-03,   47.9219E-03,            0.,NA,NA,"",   997.901E+03,   1.00246E+06,   1.00246E+06
C:/temp/Job-1.odb,Step-1,Increment      1: Step Time =    1.000,"P-1-1",          6519,   152.032E-03,   190.224E-03,            0.,NA,NA,"",   995.498E+03,   994.530E+03,   994.530E+03
C:/temp/Job-1.odb,Step-1,Increment      1: Step Time =    1.000,"P-1-1",          6520,   66.1012E-03,   190.174E-03,            0.,NA,NA,"",   981.814E+03,   982.084E+03,   982.084E+03
C:/temp/Job-1.odb,Step-1,Increment      1: Step Time =    1.000,"P-1-1",          6521,   190.818E-03,   133.592E-03,            0.,NA,NA,"",   986.728E+03,   1.00087E+06,   1.00087E+06
C:/temp/Job-1.odb,Step-1,Increment      1: Step Time =    1.000,"P-1-1",          6522,   11.6045E-03,   67.4910E-03,            0.,NA,NA,"",   842.361E+03,   935.045E+03,   935.045E+03
C:/temp/Job-1.odb,Step-1,Increment      1: Step Time =    1.000,"P-1-1",          6523,   132.631E-03,   11.5325E-03,            0.,NA,NA,"",   984.617E+03,   984.001E+03,   984.001E+03
C:/temp/Job-1.odb,Step-1,Increment      1: Step Time =    1.000,"P-1-1",          6524,   117.509E-03,   94.9994E-03,            0.,NA,NA,"",   644.740E+03,   472.943E+03,   472.943E+03
C:/temp/Job-1.odb,Step-1,Increment      1: Step Time =    1.000,"P-1-1",          6525,   123.267E-03,   102.153E-03,            0.,NA,NA,"",   468.590E+03,    461.11E+03,    461.11E+03
C:/temp/Job-1.odb,Step-1,Increment      1: Step Time =    1.000,"P-1-1",          6526,   123.107E-03,   98.7587E-03,            0.,NA,NA,"",   436.897E+03,   436.276E+03,   436.276E+03
C:/temp/Job-1.odb,Step-1,Increment      1: Step Time =    1.000,"P-1-1",          6527,   188.289E-03,   10.2341E-03,            0.,NA,NA,"",   1.00003E+06,   999.978E+03,   999.978E+03
C:/temp/Job-1.odb,Step-1,Increment      1: Step Time =    1.000,"P-1-1",          6528,   188.909E-03,   11.7576E-03,            0.,NA,NA,"",   1.00015E+06,   1.00009E+06,   1.00009E+06
C:/temp/Job-1.odb,Step-1,Increment      1: Step Time =    1.000,"P-1-1",          6529,   11.7642E-03,   189.625E-03,            0.,NA,NA,"",   1.16553E+06,   1.20145E+06,   1.20145E+06
C:/temp/Job-1.odb,Step-1,Increment      1: Step Time =    1.000,"P-1-1",          6530,   10.7230E-03,   188.283E-03,            0.,NA,NA,"",   1.14933E+06,   1.19626E+06,   1.19626E+06
C:/temp/Job-1.odb,Step-1,Increment      1: Step Time =    1.000,"P-1-1",          6531,   189.300E-03,   126.917E-03,            0.,NA,NA,"",   982.701E+03,   999.697E+03,   999.697E+03
C:/temp/Job-1.odb,Step-1,Increment      1: Step Time =    1.000,"P-1-1",          6532,   125.589E-03,   189.548E-03,            0.,NA,NA,"",   975.331E+03,   975.403E+03,   975.403E+03
C:/temp/Job-1.odb,Step-1,Increment      1: Step Time =    1.000,"P-1-1",          6533,   10.0155E-03,   125.425E-03,            0.,NA,NA,"",   820.718E+03,   915.884E+03,   915.884E+03
C:/temp/Job-1.odb,Step-1,Increment      1: Step Time =    1.000,"P-1-1",          6534,   73.0047E-03,   189.479E-03,            0.,NA,NA,"",   975.463E+03,   976.038E+03,   976.038E+03
C:/temp/Job-1.odb,Step-1,Increment      1: Step Time =    1.000,"P-1-1",          6535,   73.3726E-03,   10.1743E-03,            0.,NA,NA,"",   973.862E+03,   974.441E+03,   974.441E+03
C:/temp/Job-1.odb,Step-1,Increment      1: Step Time =    1.000,"P-1-1",          6536,   10.3678E-03,   73.6417E-03,            0.,NA,NA,"",   824.191E+03,   918.782E+03,   918.782E+03
C:/temp/Job-1.odb,Step-1,Increment      1: Step Time =    1.000,"P-1-1",          6537,   125.765E-03,   10.9174E-03,            0.,NA,NA,"",   976.661E+03,   976.714E+03,   976.714E+03
C:/temp/Job-1.odb,Step-1,Increment      1: Step Time =    1.000,"P-1-1",          6538,   189.474E-03,   74.6041E-03,            0.,NA,NA,"",    981.35E+03,   999.322E+03,   999.322E+03
C:/temp/Job-1.odb,Step-1,Increment      1: Step Time =    1.000,"P-1-1",          6539,   189.983E-03,   188.634E-03,            0.,NA,NA,"",   1.00011E+06,   1.00004E+06,   1.00004E+06
C:/temp/Job-1.odb,Step-1,Increment      1: Step Time =    1.000,"P-1-1",          6540,   11.2722E-03,   10.6483E-03,            0.,NA,NA,"",   1.16068E+06,   1.20057E+06,   1.20057E+06
C:/temp/Job-1.odb,Step-1,Increment      1: Step Time =    1.000,"P-1-1",          6541,   10.1917E-03,   11.5413E-03,            0.,NA,NA,"",   1.15503E+06,   1.20324E+06,   1.20324E+06
C:/temp/Job-1.odb,Step-1,Increment      1: Step Time =    1.000,"P-1-1",          6542,   188.788E-03,   189.944E-03,            0.,NA,NA,"",   1.00002E+06,   999.965E+03,   999.965E+03
C:/temp/Job-1.odb,Step-1,Increment      1: Step Time =    1.000,"P-1-1",          6543,   118.943E-03,   113.251E-03,            0.,NA,NA,"",   1.20900E+06,   1.06947E+06,   1.06947E+06
C:/temp/Job-1.odb,Step-1,Increment      1: Step Time =    1.000,"P-1-1",          6544,   10.6810E-03,   159.296E-03,            0.,NA,NA,"",   922.505E+03,   1.01122E+06,   1.01122E+06
C:/temp/Job-1.odb,Step-1,Increment      1: Step Time =    1.000,"P-1-1",          6545,   40.7591E-03,   189.560E-03,            0.,NA,NA,"",   1.02870E+06,   1.03113E+06,   1.03113E+06
C:/temp/Job-1.odb,Step-1,Increment      1: Step Time =    1.000,"P-1-1",          6546,   189.164E-03,   41.7657E-03,            0.,NA,NA,"",   1.00019E+06,   1.00269E+06,   1.00269E+06
C:/temp/Job-1.odb,Step-1,Increment      1: Step Time =    1.000,"P-1-1",          6547,   160.037E-03,   10.1970E-03,            0.,NA,NA,"",   998.641E+03,   997.776E+03,   997.776E+03
C:/temp/Job-1.odb,Step-1,Increment      1: Step Time =    1.000,"P-1-1",          6548,   39.7869E-03,   11.3787E-03,            0.,NA,NA,"",   1.03349E+06,   1.03655E+06,   1.03655E+06
C:/temp/Job-1.odb,Step-1,Increment      1: Step Time =    1.000,"P-1-1",          6549,   189.629E-03,   159.086E-03,            0.,NA,NA,"",   1.00016E+06,   1.00251E+06,   1.00251E+06
C:/temp/Job-1.odb,Step-1,Increment      1: Step Time =    1.000,"P-1-1",          6550,   158.251E-03,   189.139E-03,            0.,NA,NA,"",   998.766E+03,   997.754E+03,   997.754E+03
C:/temp/Job-1.odb,Step-1,Increment      1: Step Time =    1.000,"P-1-1",          6551,   10.9892E-03,   40.3744E-03,            0.,NA,NA,"",   924.704E+03,   1.01272E+06,   1.01272E+06
C:/temp/Job-1.odb,Step-1,Increment      1: Step Time =    1.000,"P-1-1",          6552,   98.9223E-03,   123.062E-03,            0.,NA,NA,"",   1.19969E+06,   1.32558E+06,   1.32558E+06
C:/temp/Job-1.odb,Step-1,Increment      1: Step Time =    1.000,"P-1-1",          6553,   10.3402E-03,   156.534E-03,            0.,NA,NA,"",   909.887E+03,   1.00037E+06,   1.00037E+06
C:/temp/Job-1.odb,Step-1,Increment      1: Step Time =    1.000,"P-1-1",          6554,   43.8798E-03,   189.890E-03,            0.,NA,NA,"",   1.01990E+06,   1.02146E+06,   1.02146E+06
C:/temp/Job-1.odb,Step-1,Increment      1: Step Time =    1.000,"P-1-1",          6555,   190.160E-03,   156.023E-03,            0.,NA,NA,"",   999.051E+03,   1.00235E+06,   1.00235E+06
C:/temp/Job-1.odb,Step-1,Increment      1: Step Time =    1.000,"P-1-1",          6556,   43.1045E-03,   11.1917E-03,            0.,NA,NA,"",   1.02557E+06,   1.02770E+06,   1.02770E+06
C:/temp/Job-1.odb,Step-1,Increment      1: Step Time =    1.000,"P-1-1",          6557,   189.394E-03,   43.9185E-03,            0.,NA,NA,"",   999.533E+03,   1.00267E+06,   1.00267E+06
C:/temp/Job-1.odb,Step-1,Increment      1: Step Time =    1.000,"P-1-1",          6558,   156.372E-03,   11.2131E-03,            0.,NA,NA,"",   998.589E+03,   997.458E+03,   997.458E+03
C:/temp/Job-1.odb,Step-1,Increment      1: Step Time =    1.000,"P-1-1",          6559,   156.069E-03,   189.394E-03,            0.,NA,NA,"",   997.857E+03,   996.832E+03,   996.832E+03
C:/temp/Job-1.odb,Step-1,Increment      1: Step Time =    1.000,"P-1-1",          6560,   11.1838E-03,   44.2454E-03,            0.,NA,NA,"",   911.484E+03,   1.00038E+06,   1.00038E+06
C:/temp/Job-1.odb,Step-1,Increment      1: Step Time =    1.000,"P-1-1",          6561,   11.8177E-03,   129.704E-03,            0.,NA,NA,"",   835.853E+03,   928.554E+03,   928.554E+03
C:/temp/Job-1.odb,Step-1,Increment      1: Step Time =    1.000,"P-1-1",          6562,   71.0220E-03,   189.736E-03,            0.,NA,NA,"",   976.990E+03,   977.429E+03,   977.429E+03
C:/temp/Job-1.odb,Step-1,Increment      1: Step Time =    1.000,"P-1-1",          6563,   189.651E-03,   128.947E-03,            0.,NA,NA,"",   984.134E+03,   1.00018E+06,   1.00018E+06
C:/temp/Job-1.odb,Step-1,Increment      1: Step Time =    1.000,"P-1-1",          6564,   128.651E-03,   189.744E-03,            0.,NA,NA,"",   977.915E+03,   977.688E+03,   977.688E+03
C:/temp/Job-1.odb,Step-1,Increment      1: Step Time =    1.000,"P-1-1",          6565,   128.974E-03,   10.4526E-03,            0.,NA,NA,"",   978.747E+03,   978.514E+03,   978.514E+03
C:/temp/Job-1.odb,Step-1,Increment      1: Step Time =    1.000,"P-1-1",          6566,   10.8924E-03,   70.9716E-03,            0.,NA,NA,"",   831.535E+03,   925.403E+03,   925.403E+03
C:/temp/Job-1.odb,Step-1,Increment      1: Step Time =    1.000,"P-1-1",          6567,   70.4895E-03,   11.5678E-03,            0.,NA,NA,"",   982.359E+03,   982.973E+03,   982.973E+03
C:/temp/Job-1.odb,Step-1,Increment      1: Step Time =    1.000,"P-1-1",          6568,   189.629E-03,   71.4857E-03,            0.,NA,NA,"",   983.802E+03,   1.00010E+06,   1.00010E+06
C:/temp/Job-1.odb,Step-1,Increment      1: Step Time =    1.000,"P-1-1",          6569,   189.626E-03,   90.0082E-03,            0.,NA,NA,"",   970.533E+03,   995.832E+03,   995.832E+03
C:/temp/Job-1.odb,Step-1,Increment      1: Step Time =    1.000,"P-1-1",          6570,   109.807E-03,   189.749E-03,            0.,NA,NA,"",   960.849E+03,   962.328E+03,   962.328E+03
C:/temp/Job-1.odb,Step-1,Increment      1: Step Time =    1.000,"P-1-1",          6571,   10.6909E-03,   110.131E-03,            0.,NA,NA,"",   796.486E+03,   891.594E+03,   891.594E+03
C:/temp/Job-1.odb,Step-1,Increment      1: Step Time =    1.000,"P-1-1",          6572,   89.6638E-03,   10.3700E-03,            0.,NA,NA,"",   959.888E+03,   961.573E+03,   961.573E+03
C:/temp/Job-1.odb,Step-1,Increment      1: Step Time =    1.000,"P-1-1",          6573,   24.1324E-03,   188.251E-03,            0.,NA,NA,"",   1.08907E+06,   1.10196E+06,   1.10196E+06
C:/temp/Job-1.odb,Step-1,Increment      1: Step Time =    1.000,"P-1-1",          6574,   175.168E-03,   10.9104E-03,            0.,NA,NA,"",   1.00046E+06,   1.00009E+06,   1.00009E+06
C:/temp/Job-1.odb,Step-1,Increment      1: Step Time =    1.000,"P-1-1",          6575,   10.6518E-03,   25.0685E-03,            0.,NA,NA,"",   1.00572E+06,   1.08390E+06,   1.08390E+06
C:/temp/Job-1.odb,Step-1,Increment      1: Step Time =    1.000,"P-1-1",          6576,   189.062E-03,   175.237E-03,            0.,NA,NA,"",   1.00118E+06,   1.00131E+06,   1.00131E+06
C:/temp/Job-1.odb,Step-1,Increment      1: Step Time =    1.000,"P-1-1",          6577,   53.7190E-03,   190.483E-03,            0.,NA,NA,"",   998.984E+03,   999.326E+03,   999.326E+03
C:/temp/Job-1.odb,Step-1,Increment      1: Step Time =    1.000,"P-1-1",          6578,   10.8529E-03,   53.8222E-03,            0.,NA,NA,"",   878.319E+03,   970.102E+03,   970.102E+03
C:/temp/Job-1.odb,Step-1,Increment      1: Step Time =    1.000,"P-1-1",          6579,   188.484E-03,   145.891E-03,            0.,NA,NA,"",   996.607E+03,   1.00307E+06,   1.00307E+06
C:/temp/Job-1.odb,Step-1,Increment      1: Step Time =    1.000,"P-1-1",          6580,   146.173E-03,   10.8182E-03,            0.,NA,NA,"",   993.700E+03,   992.539E+03,   992.539E+03
C:/temp/Job-1.odb,Step-1,Increment      1: Step Time =    1.000,"P-1-1",          6581,   122.421E-03,   104.271E-03,            0.,NA,NA,"",   580.476E+03,   532.515E+03,   532.515E+03
C:/temp/Job-1.odb,Step-1,Increment      1: Step Time =    1.000,"P-1-1",          6582,   97.1117E-03,   120.663E-03,            0.,NA,NA,"",   1.30101E+06,   1.43125E+06,   1.43125E+06
C:/temp/Job-1.odb,Step-1,Increment      1: Step Time =    1.000,"P-1-1",          6583,   10.6506E-03,   139.624E-03,            0.,NA,NA,"",   858.417E+03,   951.467E+03,   951.467E+03
C:/temp/Job-1.odb,Step-1,Increment      1: Step Time =    1.000,"P-1-1",          6584,   138.805E-03,   190.001E-03,            0.,NA,NA,"",   986.978E+03,   986.161E+03,   986.161E+03
C:/temp/Job-1.odb,Step-1,Increment      1: Step Time =    1.000,"P-1-1",          6585,   60.5179E-03,   11.0113E-03,            0.,NA,NA,"",   993.679E+03,   993.960E+03,   993.960E+03
C:/temp/Job-1.odb,Step-1,Increment      1: Step Time =    1.000,"P-1-1",          6586,   190.151E-03,   61.3917E-03,            0.,NA,NA,"",   990.871E+03,   1.00170E+06,   1.00170E+06
C:/temp/Job-1.odb,Step-1,Increment      1: Step Time =    1.000,"P-1-1",          6587,   10.7798E-03,   169.490E-03,            0.,NA,NA,"",   970.755E+03,   1.05372E+06,   1.05372E+06
C:/temp/Job-1.odb,Step-1,Increment      1: Step Time =    1.000,"P-1-1",          6588,   190.310E-03,   30.9553E-03,            0.,NA,NA,"",   1.00088E+06,   1.00155E+06,   1.00155E+06
C:/temp/Job-1.odb,Step-1,Increment      1: Step Time =    1.000,"P-1-1",          6589,   30.9004E-03,   10.6032E-03,            0.,NA,NA,"",   1.05903E+06,   1.06493E+06,   1.06493E+06
C:/temp/Job-1.odb,Step-1,Increment      1: Step Time =    1.000,"P-1-1",          6590,   169.101E-03,   190.144E-03,            0.,NA,NA,"",   999.855E+03,   999.343E+03,   999.343E+03
C:/temp/Job-1.odb,Step-1,Increment      1: Step Time =    1.000,"P-1-1",          6591,   185.693E-03,   189.805E-03,            0.,NA,NA,"",   1.00007E+06,   999.997E+03,   999.997E+03
C:/temp/Job-1.odb,Step-1,Increment      1: Step Time =    1.000,"P-1-1",          6592,   15.6978E-03,   10.1503E-03,            0.,NA,NA,"",   1.14397E+06,   1.16617E+06,   1.16617E+06
C:/temp/Job-1.odb,Step-1,Increment      1: Step Time =    1.000,"P-1-1",          6593,   190.180E-03,   15.9977E-03,            0.,NA,NA,"",   1.00041E+06,   1.00033E+06,   1.00033E+06
C:/temp/Job-1.odb,Step-1,Increment      1: Step Time =    1.000,"P-1-1",          6594,   9.85998E-03,   185.011E-03,            0.,NA,NA,"",   1.10325E+06,   1.16556E+06,   1.16556E+06
C:/temp/Job-1.odb,Step-1,Increment      1: Step Time =    1.000,"P-1-1",          6595,   98.4332E-03,   9.74793E-03,            0.,NA,NA,"",   955.316E+03,   957.025E+03,   957.025E+03
C:/temp/Job-1.odb,Step-1,Increment      1: Step Time =    1.000,"P-1-1",          6596,   9.46438E-03,   101.214E-03,            0.,NA,NA,"",   789.049E+03,   885.159E+03,   885.159E+03
C:/temp/Job-1.odb,Step-1,Increment      1: Step Time =    1.000,"P-1-1",          6597,   190.762E-03,   98.8450E-03,            0.,NA,NA,"",   967.934E+03,   995.982E+03,   995.982E+03
C:/temp/Job-1.odb,Step-1,Increment      1: Step Time =    1.000,"P-1-1",          6598,   101.129E-03,   190.549E-03,            0.,NA,NA,"",   954.736E+03,   956.326E+03,   956.326E+03
C:/temp/Job-1.odb,Step-1,Increment      1: Step Time =    1.000,"P-1-1",          6599,   100.059E-03,   11.0522E-03,            0.,NA,NA,"",   959.593E+03,   961.796E+03,   961.796E+03
C:/temp/Job-1.odb,Step-1,Increment      1: Step Time =    1.000,"P-1-1",          6600,   10.5335E-03,   99.5476E-03,            0.,NA,NA,"",   790.789E+03,   886.123E+03,   886.123E+03
C:/temp/Job-1.odb,Step-1,Increment      1: Step Time =    1.000,"P-1-1",          6601,   189.607E-03,   100.051E-03,            0.,NA,NA,"",   968.096E+03,   994.935E+03,   994.935E+03
C:/temp/Job-1.odb,Step-1,Increment      1: Step Time =    1.000,"P-1-1",          6602,   99.9096E-03,   189.407E-03,            0.,NA,NA,"",   958.119E+03,   960.121E+03,   960.121E+03
C:/temp/Job-1.odb,Step-1,Increment      1: Step Time =    1.000,"P-1-1",          6603,   79.5864E-03,   89.5859E-03,            0.,NA,NA,"",   1.00779E+06,    896.95E+03,    896.95E+03
C:/temp/Job-1.odb,Step-1,Increment      1: Step Time =    1.000,"P-1-1",          6604,   95.5184E-03,   8.12225E-03,            0.,NA,NA,"",   950.179E+03,   951.385E+03,   951.385E+03
C:/temp/Job-1.odb,Step-1,Increment      1: Step Time =    1.000,"P-1-1",          6605,   8.11731E-03,   104.202E-03,            0.,NA,NA,"",   787.763E+03,   884.735E+03,   884.735E+03
C:/temp/Job-1.odb,Step-1,Increment      1: Step Time =    1.000,"P-1-1",          6606,   104.617E-03,   192.511E-03,            0.,NA,NA,"",   949.928E+03,   951.016E+03,   951.016E+03
C:/temp/Job-1.odb,Step-1,Increment      1: Step Time =    1.000,"P-1-1",          6607,   192.656E-03,   95.5114E-03,            0.,NA,NA,"",   967.570E+03,   997.208E+03,   997.208E+03
C:/temp/Job-1.odb,Step-1,Increment      1: Step Time =    1.000,"P-1-1",          6608,   7.41072E-03,   19.0222E-03,            0.,NA,NA,"",   1.04080E+06,   1.12372E+06,   1.12372E+06
C:/temp/Job-1.odb,Step-1,Increment      1: Step Time =    1.000,"P-1-1",          6609,   192.302E-03,   181.690E-03,            0.,NA,NA,"",   1.00041E+06,   1.00033E+06,   1.00033E+06
C:/temp/Job-1.odb,Step-1,Increment      1: Step Time =    1.000,"P-1-1",          6610,   181.116E-03,   7.62121E-03,            0.,NA,NA,"",   999.685E+03,   999.599E+03,   999.599E+03
C:/temp/Job-1.odb,Step-1,Increment      1: Step Time =    1.000,"P-1-1",          6611,   18.7169E-03,   192.180E-03,            0.,NA,NA,"",   1.12343E+06,   1.13392E+06,   1.13392E+06
C:/temp/Job-1.odb,Step-1,Increment      1: Step Time =    1.000,"P-1-1",          6612,   191.773E-03,   66.7405E-03,            0.,NA,NA,"",   985.804E+03,   1.00071E+06,   1.00071E+06
C:/temp/Job-1.odb,Step-1,Increment      1: Step Time =    1.000,"P-1-1",          6613,   66.1399E-03,   8.89434E-03,            0.,NA,NA,"",   978.412E+03,   978.621E+03,   978.621E+03
C:/temp/Job-1.odb,Step-1,Increment      1: Step Time =    1.000,"P-1-1",          6614,   133.334E-03,   191.829E-03,            0.,NA,NA,"",   978.324E+03,   977.942E+03,   977.942E+03
C:/temp/Job-1.odb,Step-1,Increment      1: Step Time =    1.000,"P-1-1",          6615,   8.92113E-03,   134.043E-03,            0.,NA,NA,"",   837.995E+03,   933.757E+03,   933.757E+03
C:/temp/Job-1.odb,Step-1,Increment      1: Step Time =    1.000,"P-1-1",          6616,   189.596E-03,   69.0935E-03,            0.,NA,NA,"",   985.756E+03,   1.00059E+06,   1.00059E+06
C:/temp/Job-1.odb,Step-1,Increment      1: Step Time =    1.000,"P-1-1",          6617,   67.5822E-03,   11.7728E-03,            0.,NA,NA,"",   986.752E+03,   987.185E+03,   987.185E+03
C:/temp/Job-1.odb,Step-1,Increment      1: Step Time =    1.000,"P-1-1",          6618,   130.999E-03,   189.730E-03,            0.,NA,NA,"",   980.406E+03,   980.008E+03,   980.008E+03
C:/temp/Job-1.odb,Step-1,Increment      1: Step Time =    1.000,"P-1-1",          6619,   11.8069E-03,   132.690E-03,            0.,NA,NA,"",   843.550E+03,   935.930E+03,   935.930E+03
C:/temp/Job-1.odb,Step-1,Increment      1: Step Time =    1.000,"P-1-1",          6620,   11.8793E-03,   188.282E-03,            0.,NA,NA,"",   1.14780E+06,   1.18919E+06,   1.18919E+06
C:/temp/Job-1.odb,Step-1,Increment      1: Step Time =    1.000,"P-1-1",          6621,   84.5990E-03,   115.709E-03,            0.,NA,NA,"",   1.32794E+06,   1.23730E+06,   1.23730E+06
C:/temp/Job-1.odb,Step-1,Increment      1: Step Time =    1.000,"P-1-1",          6622,   188.609E-03,   188.767E-03,            0.,NA,NA,"",   1.00012E+06,   1.00006E+06,   1.00006E+06
C:/temp/Job-1.odb,Step-1,Increment      1: Step Time =    1.000,"P-1-1",          6623,   12.1392E-03,   11.7211E-03,            0.,NA,NA,"",   1.14636E+06,   1.18622E+06,   1.18622E+06
C:/temp/Job-1.odb,Step-1,Increment      1: Step Time =    1.000,"P-1-1",          6624,   79.7136E-03,   193.664E-03,            0.,NA,NA,"",   952.801E+03,   953.192E+03,   953.192E+03
C:/temp/Job-1.odb,Step-1,Increment      1: Step Time =    1.000,"P-1-1",          6625,   193.572E-03,   119.977E-03,            0.,NA,NA,"",   974.402E+03,   999.249E+03,   999.249E+03
C:/temp/Job-1.odb,Step-1,Increment      1: Step Time =    1.000,"P-1-1",          6626,   164.997E-03,   193.450E-03,            0.,NA,NA,"",   997.529E+03,   997.220E+03,   997.220E+03
C:/temp/Job-1.odb,Step-1,Increment      1: Step Time =    1.000,"P-1-1",          6627,   193.541E-03,   35.1302E-03,            0.,NA,NA,"",   999.521E+03,   1.00087E+06,   1.00087E+06
C:/temp/Job-1.odb,Step-1,Increment      1: Step Time =    1.000,"P-1-1",          6628,   193.881E-03,   149.995E-03,            0.,NA,NA,"",   994.785E+03,   1.00104E+06,   1.00104E+06
C:/temp/Job-1.odb,Step-1,Increment      1: Step Time =    1.000,"P-1-1",          6629,   49.8998E-03,   194.376E-03,            0.,NA,NA,"",   990.699E+03,   990.893E+03,   990.893E+03
C:/temp/Job-1.odb,Step-1,Increment      1: Step Time =    1.000,"P-1-1",          6630,   194.621E-03,   64.5827E-03,            0.,NA,NA,"",   985.151E+03,   1.00041E+06,   1.00041E+06
C:/temp/Job-1.odb,Step-1,Increment      1: Step Time =    1.000,"P-1-1",          6631,   135.493E-03,   194.632E-03,            0.,NA,NA,"",   975.149E+03,   974.943E+03,   974.943E+03
C:/temp/Job-1.odb,Step-1,Increment      1: Step Time =    1.000,"P-1-1",          6632,   8.52381E-03,   185.844E-03,            0.,NA,NA,"",   1.11192E+06,   1.17838E+06,   1.17838E+06
C:/temp/Job-1.odb,Step-1,Increment      1: Step Time =    1.000,"P-1-1",          6633,   191.341E-03,   14.2680E-03,            0.,NA,NA,"",   1.00025E+06,   1.00017E+06,   1.00017E+06
C:/temp/Job-1.odb,Step-1,Increment      1: Step Time =    1.000,"P-1-1",          6634,   14.0754E-03,   8.90364E-03,            0.,NA,NA,"",   1.16212E+06,   1.18400E+06,   1.18400E+06
C:/temp/Job-1.odb,Step-1,Increment      1: Step Time =    1.000,"P-1-1",          6635,   186.167E-03,   191.846E-03,            0.,NA,NA,"",   999.845E+03,   999.802E+03,   999.802E+03
C:/temp/Job-1.odb,Step-1,Increment      1: Step Time =    1.000,"P-1-1",          6636,   5.94326E-03,   20.4643E-03,            0.,NA,NA,"",   1.01611E+06,   1.10687E+06,   1.10687E+06
C:/temp/Job-1.odb,Step-1,Increment      1: Step Time =    1.000,"P-1-1",          6637,   193.534E-03,   178.646E-03,            0.,NA,NA,"",   1.00041E+06,   1.00036E+06,   1.00036E+06
C:/temp/Job-1.odb,Step-1,Increment      1: Step Time =    1.000,"P-1-1",          6638,   21.6852E-03,   193.404E-03,            0.,NA,NA,"",   1.09643E+06,   1.10209E+06,   1.10209E+06
C:/temp/Job-1.odb,Step-1,Increment      1: Step Time =    1.000,"P-1-1",          6639,   106.468E-03,   193.405E-03,            0.,NA,NA,"",   947.289E+03,   947.973E+03,   947.973E+03
C:/temp/Job-1.odb,Step-1,Increment      1: Step Time =    1.000,"P-1-1",          6640,   193.434E-03,   93.6438E-03,            0.,NA,NA,"",   967.622E+03,   998.062E+03,   998.062E+03
C:/temp/Job-1.odb,Step-1,Increment      1: Step Time =    1.000,"P-1-1",          6641,   75.4240E-03,   100.907E-03,            0.,NA,NA,"",   445.486E+03,   473.704E+03,   473.704E+03
C:/temp/Job-1.odb,Step-1,Increment      1: Step Time =    1.000,"P-1-1",          6642,   122.543E-03,   9.46749E-03,            0.,NA,NA,"",   969.788E+03,   970.083E+03,   970.083E+03
C:/temp/Job-1.odb,Step-1,Increment      1: Step Time =    1.000,"P-1-1",          6643,   9.02974E-03,   77.7399E-03,            0.,NA,NA,"",   811.875E+03,   907.996E+03,   907.996E+03
C:/temp/Job-1.odb,Step-1,Increment      1: Step Time =    1.000,"P-1-1",          6644,   77.1394E-03,   190.281E-03,            0.,NA,NA,"",   968.316E+03,   969.079E+03,   969.079E+03
C:/temp/Job-1.odb,Step-1,Increment      1: Step Time =    1.000,"P-1-1",          6645,   190.127E-03,   122.678E-03,            0.,NA,NA,"",   978.767E+03,   998.766E+03,   998.766E+03
C:/temp/Job-1.odb,Step-1,Increment      1: Step Time =    1.000,"P-1-1",          6646,   162.442E-03,   190.049E-03,            0.,NA,NA,"",   999.026E+03,   998.269E+03,   998.269E+03
C:/temp/Job-1.odb,Step-1,Increment      1: Step Time =    1.000,"P-1-1",          6647,   36.9898E-03,   9.77169E-03,            0.,NA,NA,"",   1.03625E+06,   1.03920E+06,   1.03920E+06
C:/temp/Job-1.odb,Step-1,Increment      1: Step Time =    1.000,"P-1-1",          6648,   190.066E-03,   37.6051E-03,            0.,NA,NA,"",   1.00044E+06,   1.00212E+06,   1.00212E+06
C:/temp/Job-1.odb,Step-1,Increment      1: Step Time =    1.000,"P-1-1",          6649,   9.63149E-03,   162.550E-03,            0.,NA,NA,"",   930.820E+03,   1.02061E+06,   1.02061E+06
C:/temp/Job-1.odb,Step-1,Increment      1: Step Time =    1.000,"P-1-1",          6650,   103.182E-03,   124.087E-03,            0.,NA,NA,"",   1.18310E+06,   1.29600E+06,   1.29600E+06
C:/temp/Job-1.odb,Step-1,Increment      1: Step Time =    1.000,"P-1-1",          6651,   8.94009E-03,   47.7284E-03,            0.,NA,NA,"",   889.604E+03,   983.563E+03,   983.563E+03
C:/temp/Job-1.odb,Step-1,Increment      1: Step Time =    1.000,"P-1-1",          6652,   151.933E-03,   8.78241E-03,            0.,NA,NA,"",   994.229E+03,   993.436E+03,   993.436E+03
C:/temp/Job-1.odb,Step-1,Increment      1: Step Time =    1.000,"P-1-1",          6653,   190.172E-03,   152.871E-03,            0.,NA,NA,"",   998.128E+03,   1.00244E+06,   1.00244E+06
C:/temp/Job-1.odb,Step-1,Increment      1: Step Time =    1.000,"P-1-1",          6654,   47.4317E-03,   190.837E-03,            0.,NA,NA,"",   1.00904E+06,   1.00993E+06,   1.00993E+06
C:/temp/Job-1.odb,Step-1,Increment      1: Step Time =    1.000,"P-1-1",          6655,   120.751E-03,   111.462E-03,            0.,NA,NA,"",   1.08401E+06,   953.069E+03,   953.069E+03
C:/temp/Job-1.odb,Step-1,Increment      1: Step Time =    1.000,"P-1-1",          6656,   156.910E-03,   192.405E-03,            0.,NA,NA,"",   995.544E+03,   994.976E+03,   994.976E+03
C:/temp/Job-1.odb,Step-1,Increment      1: Step Time =    1.000,"P-1-1",          6657,   192.412E-03,   43.0984E-03,            0.,NA,NA,"",   998.168E+03,   1.00149E+06,   1.00149E+06
C:/temp/Job-1.odb,Step-1,Increment      1: Step Time =    1.000,"P-1-1",          6658,   43.4678E-03,   7.80103E-03,            0.,NA,NA,"",   1.01233E+06,   1.01325E+06,   1.01325E+06
C:/temp/Job-1.odb,Step-1,Increment      1: Step Time =    1.000,"P-1-1",          6659,   7.51463E-03,   156.643E-03,            0.,NA,NA,"",   898.230E+03,   993.979E+03,   993.979E+03
C:/temp/Job-1.odb,Step-1,Increment      1: Step Time =    1.000,"P-1-1",          6660,   128.531E-03,   7.56521E-03,            0.,NA,NA,"",   971.496E+03,   971.376E+03,   971.376E+03
C:/temp/Job-1.odb,Step-1,Increment      1: Step Time =    1.000,"P-1-1",          6661,   192.510E-03,   128.216E-03,            0.,NA,NA,"",   981.400E+03,   1.00003E+06,   1.00003E+06
C:/temp/Job-1.odb,Step-1,Increment      1: Step Time =    1.000,"P-1-1",          6662,   7.70052E-03,   71.7612E-03,            0.,NA,NA,"",   820.686E+03,   917.990E+03,   917.990E+03
C:/temp/Job-1.odb,Step-1,Increment      1: Step Time =    1.000,"P-1-1",          6663,   71.6953E-03,   192.575E-03,            0.,NA,NA,"",   966.219E+03,   966.456E+03,   966.456E+03
C:/temp/Job-1.odb,Step-1,Increment      1: Step Time =    1.000,"P-1-1",          6664,   122.661E-03,   110.176E-03,            0.,NA,NA,"",   979.756E+03,   874.119E+03,   874.119E+03
C:/temp/Job-1.odb,Step-1,Increment      1: Step Time =    1.000,"P-1-1",          6665,   91.4240E-03,   123.781E-03,            0.,NA,NA,"",   1.24929E+06,   1.30764E+06,   1.30764E+06
C:/temp/Job-1.odb,Step-1,Increment      1: Step Time =    1.000,"P-1-1",          6666,   108.698E-03,   123.310E-03,            0.,NA,NA,"",   1.26721E+06,   1.31946E+06,   1.31946E+06
C:/temp/Job-1.odb,Step-1,Increment      1: Step Time =    1.000,"P-1-1",          6667,   115.878E-03,   116.307E-03,            0.,NA,NA,"",   1.34941E+06,   1.24442E+06,   1.24442E+06
C:/temp/Job-1.odb,Step-1,Increment      1: Step Time =    1.000,"P-1-1",          6668,   81.8503E-03,   113.030E-03,            0.,NA,NA,"",   1.18624E+06,   1.06443E+06,   1.06443E+06
C:/temp/Job-1.odb,Step-1,Increment      1: Step Time =    1.000,"P-1-1",          6669,   94.5073E-03,   123.022E-03,            0.,NA,NA,"",   1.23589E+06,   1.33270E+06,   1.33270E+06
C:/temp/Job-1.odb,Step-1,Increment      1: Step Time =    1.000,"P-1-1",          6670,   123.458E-03,   97.1559E-03,            0.,NA,NA,"",   514.166E+03,   500.262E+03,   500.262E+03
C:/temp/Job-1.odb,Step-1,Increment      1: Step Time =    1.000,"P-1-1",          6671,   117.696E-03,   10.7470E-03,            0.,NA,NA,"",    968.41E+03,   969.280E+03,   969.280E+03
C:/temp/Job-1.odb,Step-1,Increment      1: Step Time =    1.000,"P-1-1",          6672,   189.018E-03,   118.512E-03,            0.,NA,NA,"",   976.055E+03,   997.351E+03,   997.351E+03
C:/temp/Job-1.odb,Step-1,Increment      1: Step Time =    1.000,"P-1-1",          6673,   10.9300E-03,   82.0846E-03,            0.,NA,NA,"",   808.103E+03,   902.697E+03,   902.697E+03
C:/temp/Job-1.odb,Step-1,Increment      1: Step Time =    1.000,"P-1-1",          6674,   82.3579E-03,   189.383E-03,            0.,NA,NA,"",   966.083E+03,   967.406E+03,   967.406E+03
C:/temp/Job-1.odb,Step-1,Increment      1: Step Time =    1.000,"P-1-1",          6675,   189.087E-03,   32.1276E-03,            0.,NA,NA,"",   1.00129E+06,   1.00201E+06,   1.00201E+06
C:/temp/Job-1.odb,Step-1,Increment      1: Step Time =    1.000,"P-1-1",          6676,   32.3244E-03,   10.6625E-03,            0.,NA,NA,"",   1.05391E+06,   1.05917E+06,   1.05917E+06
C:/temp/Job-1.odb,Step-1,Increment      1: Step Time =    1.000,"P-1-1",          6677,   168.051E-03,   189.309E-03,            0.,NA,NA,"",   1.00021E+06,   999.574E+03,   999.574E+03
C:/temp/Job-1.odb,Step-1,Increment      1: Step Time =    1.000,"P-1-1",          6678,   12.2006E-03,   168.189E-03,            0.,NA,NA,"",   970.606E+03,   1.05059E+06,   1.05059E+06
C:/temp/Job-1.odb,Step-1,Increment      1: Step Time =    1.000,"P-1-1",          6679,   147.662E-03,   10.7397E-03,            0.,NA,NA,"",   994.421E+03,   993.267E+03,   993.267E+03
C:/temp/Job-1.odb,Step-1,Increment      1: Step Time =    1.000,"P-1-1",          6680,   188.716E-03,   147.405E-03,            0.,NA,NA,"",   997.134E+03,   1.00305E+06,   1.00305E+06
C:/temp/Job-1.odb,Step-1,Increment      1: Step Time =    1.000,"P-1-1",          6681,   10.7474E-03,   52.2928E-03,            0.,NA,NA,"",   882.595E+03,   974.271E+03,   974.271E+03
C:/temp/Job-1.odb,Step-1,Increment      1: Step Time =    1.000,"P-1-1",          6682,   52.4937E-03,   189.737E-03,            0.,NA,NA,"",   1.00392E+06,   1.00452E+06,   1.00452E+06
C:/temp/Job-1.odb,Step-1,Increment      1: Step Time =    1.000,"P-1-1",          6683,   61.6864E-03,   11.8871E-03,            0.,NA,NA,"",   995.373E+03,   995.736E+03,   995.736E+03
C:/temp/Job-1.odb,Step-1,Increment      1: Step Time =    1.000,"P-1-1",          6684,   188.371E-03,   62.4103E-03,            0.,NA,NA,"",   991.846E+03,   1.00214E+06,   1.00214E+06
C:/temp/Job-1.odb,Step-1,Increment      1: Step Time =    1.000,"P-1-1",          6685,   137.639E-03,   188.175E-03,            0.,NA,NA,"",   989.536E+03,   988.506E+03,   988.506E+03
C:/temp/Job-1.odb,Step-1,Increment      1: Step Time =    1.000,"P-1-1",          6686,   11.4257E-03,   137.770E-03,            0.,NA,NA,"",   855.876E+03,   948.159E+03,   948.159E+03
C:/temp/Job-1.odb,Step-1,Increment      1: Step Time =    1.000,"P-1-1",          6687,   188.055E-03,   176.176E-03,            0.,NA,NA,"",   1.00137E+06,   1.00142E+06,   1.00142E+06
C:/temp/Job-1.odb,Step-1,Increment      1: Step Time =    1.000,"P-1-1",          6688,   11.9967E-03,   23.5525E-03,            0.,NA,NA,"",   1.02387E+06,   1.09537E+06,   1.09537E+06
C:/temp/Job-1.odb,Step-1,Increment      1: Step Time =    1.000,"P-1-1",          6689,   176.636E-03,   10.8869E-03,            0.,NA,NA,"",   1.00043E+06,   1.00012E+06,   1.00012E+06
C:/temp/Job-1.odb,Step-1,Increment      1: Step Time =    1.000,"P-1-1",          6690,   22.7519E-03,   188.442E-03,            0.,NA,NA,"",   1.09584E+06,   1.10995E+06,   1.10995E+06
C:/temp/Job-1.odb,Step-1,Increment      1: Step Time =    1.000,"P-1-1",          6691,   125.181E-03,   99.1162E-03,            0.,NA,NA,"",   498.319E+03,   507.361E+03,   507.361E+03
C:/temp/Job-1.odb,Step-1,Increment      1: Step Time =    1.000,"P-1-1",          6692,   92.0182E-03,   11.4685E-03,            0.,NA,NA,"",   962.338E+03,   964.563E+03,   964.563E+03
C:/temp/Job-1.odb,Step-1,Increment      1: Step Time =    1.000,"P-1-1",          6693,   11.7722E-03,   107.541E-03,            0.,NA,NA,"",   795.910E+03,   890.287E+03,   890.287E+03
C:/temp/Job-1.odb,Step-1,Increment      1: Step Time =    1.000,"P-1-1",          6694,   108.310E-03,   188.516E-03,            0.,NA,NA,"",   963.513E+03,    965.43E+03,    965.43E+03
C:/temp/Job-1.odb,Step-1,Increment      1: Step Time =    1.000,"P-1-1",          6695,   188.451E-03,   91.9441E-03,            0.,NA,NA,"",   969.958E+03,   994.559E+03,   994.559E+03
C:/temp/Job-1.odb,Step-1,Increment      1: Step Time =    1.000,"P-1-1",          6696,   77.1146E-03,   108.579E-03,            0.,NA,NA,"",   848.551E+03,   782.006E+03,   782.006E+03
C:/temp/Job-1.odb,Step-1,Increment      1: Step Time =    1.000,"P-1-1",          6697,   119.826E-03,   114.218E-03,            0.,NA,NA,"",   1.21392E+06,   1.08534E+06,   1.08534E+06
C:/temp/Job-1.odb,Step-1,Increment      1: Step Time =    1.000,"P-1-1",          6698,   74.7784E-03,   104.288E-03,            0.,NA,NA,"",   585.807E+03,   591.953E+03,   591.953E+03
C:/temp/Job-1.odb,Step-1,Increment      1: Step Time =    1.000,"P-1-1",          6699,   75.4394E-03,   11.6223E-03,            0.,NA,NA,"",   976.686E+03,   977.635E+03,   977.635E+03
C:/temp/Job-1.odb,Step-1,Increment      1: Step Time =    1.000,"P-1-1",          6700,   124.195E-03,   11.0279E-03,            0.,NA,NA,"",   975.406E+03,   975.603E+03,   975.603E+03
C:/temp/Job-1.odb,Step-1,Increment      1: Step Time =    1.000,"P-1-1",          6701,   188.233E-03,   75.2567E-03,            0.,NA,NA,"",   981.657E+03,   998.954E+03,   998.954E+03
C:/temp/Job-1.odb,Step-1,Increment      1: Step Time =    1.000,"P-1-1",          6702,   188.585E-03,   123.810E-03,            0.,NA,NA,"",   980.660E+03,   998.786E+03,   998.786E+03
C:/temp/Job-1.odb,Step-1,Increment      1: Step Time =    1.000,"P-1-1",          6703,   11.8155E-03,   74.9203E-03,            0.,NA,NA,"",   825.001E+03,   918.173E+03,   918.173E+03
C:/temp/Job-1.odb,Step-1,Increment      1: Step Time =    1.000,"P-1-1",          6704,   124.998E-03,   188.333E-03,            0.,NA,NA,"",   977.752E+03,   977.928E+03,   977.928E+03
C:/temp/Job-1.odb,Step-1,Increment      1: Step Time =    1.000,"P-1-1",          6705,   11.3494E-03,   124.136E-03,            0.,NA,NA,"",   821.523E+03,   915.305E+03,   915.305E+03
C:/temp/Job-1.odb,Step-1,Increment      1: Step Time =    1.000,"P-1-1",          6706,   76.0021E-03,   188.804E-03,            0.,NA,NA,"",   974.545E+03,   975.440E+03,   975.440E+03
C:/temp/Job-1.odb,Step-1,Increment      1: Step Time =    1.000,"P-1-1",          6707,   124.971E-03,   106.824E-03,            0.,NA,NA,"",   761.798E+03,   710.363E+03,   710.363E+03
C:/temp/Job-1.odb,Step-1,Increment      1: Step Time =    1.000,"P-1-1",          6708,   188.447E-03,   38.6303E-03,            0.,NA,NA,"",   1.00118E+06,   1.00285E+06,   1.00285E+06
C:/temp/Job-1.odb,Step-1,Increment      1: Step Time =    1.000,"P-1-1",          6709,   160.587E-03,   10.8933E-03,            0.,NA,NA,"",   999.297E+03,   998.353E+03,   998.353E+03
C:/temp/Job-1.odb,Step-1,Increment      1: Step Time =    1.000,"P-1-1",          6710,   39.1132E-03,   12.5809E-03,            0.,NA,NA,"",   1.03820E+06,   1.04218E+06,   1.04218E+06
C:/temp/Job-1.odb,Step-1,Increment      1: Step Time =    1.000,"P-1-1",          6711,   188.636E-03,   160.463E-03,            0.,NA,NA,"",   1.00094E+06,   1.00283E+06,   1.00283E+06
C:/temp/Job-1.odb,Step-1,Increment      1: Step Time =    1.000,"P-1-1",          6712,   161.431E-03,   188.426E-03,            0.,NA,NA,"",   1.00012E+06,   999.094E+03,   999.094E+03
C:/temp/Job-1.odb,Step-1,Increment      1: Step Time =    1.000,"P-1-1",          6713,   11.5228E-03,   39.0420E-03,            0.,NA,NA,"",   932.970E+03,   1.01917E+06,   1.01917E+06
C:/temp/Job-1.odb,Step-1,Increment      1: Step Time =    1.000,"P-1-1",          6714,   10.8850E-03,   160.710E-03,            0.,NA,NA,"",   929.221E+03,   1.01695E+06,   1.01695E+06
C:/temp/Job-1.odb,Step-1,Increment      1: Step Time =    1.000,"P-1-1",          6715,   39.3151E-03,   188.585E-03,            0.,NA,NA,"",   1.03471E+06,   1.03789E+06,   1.03789E+06
C:/temp/Job-1.odb,Step-1,Increment      1: Step Time =    1.000,"P-1-1",          6716,   46.2963E-03,   11.6238E-03,            0.,NA,NA,"",   1.02000E+06,   1.02169E+06,   1.02169E+06
C:/temp/Job-1.odb,Step-1,Increment      1: Step Time =    1.000,"P-1-1",          6717,   188.427E-03,   154.464E-03,            0.,NA,NA,"",   999.835E+03,   1.00322E+06,   1.00322E+06
C:/temp/Job-1.odb,Step-1,Increment      1: Step Time =    1.000,"P-1-1",          6718,   188.839E-03,   46.7849E-03,            0.,NA,NA,"",   999.283E+03,   1.00310E+06,   1.00310E+06
C:/temp/Job-1.odb,Step-1,Increment      1: Step Time =    1.000,"P-1-1",          6719,   155.040E-03,   11.3247E-03,            0.,NA,NA,"",   998.318E+03,   997.134E+03,   997.134E+03
C:/temp/Job-1.odb,Step-1,Increment      1: Step Time =    1.000,"P-1-1",          6720,   153.148E-03,   188.868E-03,            0.,NA,NA,"",   997.587E+03,   996.381E+03,   996.381E+03
C:/temp/Job-1.odb,Step-1,Increment      1: Step Time =    1.000,"P-1-1",          6721,   12.2436E-03,   45.3805E-03,            0.,NA,NA,"",   911.748E+03,   998.997E+03,   998.997E+03
C:/temp/Job-1.odb,Step-1,Increment      1: Step Time =    1.000,"P-1-1",          6722,   11.0515E-03,   154.488E-03,            0.,NA,NA,"",   906.174E+03,   995.787E+03,   995.787E+03
C:/temp/Job-1.odb,Step-1,Increment      1: Step Time =    1.000,"P-1-1",          6723,   45.2563E-03,   188.027E-03,            0.,NA,NA,"",   1.02306E+06,   1.02506E+06,   1.02506E+06
C:/temp/Job-1.odb,Step-1,Increment      1: Step Time =    1.000,"P-1-1",          6724,   188.192E-03,   70.0321E-03,            0.,NA,NA,"",   986.265E+03,   1.00055E+06,   1.00055E+06
C:/temp/Job-1.odb,Step-1,Increment      1: Step Time =    1.000,"P-1-1",          6725,   130.956E-03,   11.7403E-03,            0.,NA,NA,"",   983.574E+03,   983.093E+03,   983.093E+03
C:/temp/Job-1.odb,Step-1,Increment      1: Step Time =    1.000,"P-1-1",          6726,   69.4970E-03,   12.0759E-03,            0.,NA,NA,"",   985.423E+03,   986.010E+03,   986.010E+03
C:/temp/Job-1.odb,Step-1,Increment      1: Step Time =    1.000,"P-1-1",          6727,   189.898E-03,   131.729E-03,            0.,NA,NA,"",   986.036E+03,   1.00066E+06,   1.00066E+06
C:/temp/Job-1.odb,Step-1,Increment      1: Step Time =    1.000,"P-1-1",          6728,   11.9471E-03,   69.0448E-03,            0.,NA,NA,"",   839.450E+03,   931.880E+03,   931.880E+03
C:/temp/Job-1.odb,Step-1,Increment      1: Step Time =    1.000,"P-1-1",          6729,   12.3978E-03,   130.844E-03,            0.,NA,NA,"",   840.742E+03,   932.564E+03,   932.564E+03
C:/temp/Job-1.odb,Step-1,Increment      1: Step Time =    1.000,"P-1-1",          6730,   68.3328E-03,   189.829E-03,            0.,NA,NA,"",   979.844E+03,   980.205E+03,   980.205E+03
C:/temp/Job-1.odb,Step-1,Increment      1: Step Time =    1.000,"P-1-1",          6731,   130.099E-03,   188.357E-03,            0.,NA,NA,"",   982.725E+03,   982.297E+03,   982.297E+03
C:/temp/Job-1.odb,Step-1,Increment      1: Step Time =    1.000,"P-1-1",          6732,   105.017E-03,   121.096E-03,            0.,NA,NA,"",   1.29682E+06,   1.40366E+06,   1.40366E+06
C:/temp/Job-1.odb,Step-1,Increment      1: Step Time =    1.000,"P-1-1",          6733,   86.3561E-03,   120.555E-03,            0.,NA,NA,"",   1.33074E+06,   1.30477E+06,   1.30477E+06
C:/temp/Job-1.odb,Step-1,Increment      1: Step Time =    1.000,"P-1-1",          6734,   100.447E-03,   123.946E-03,            0.,NA,NA,"",   1.17393E+06,   1.29552E+06,   1.29552E+06
C:/temp/Job-1.odb,Step-1,Increment      1: Step Time =    1.000,"P-1-1",          6735,   119.822E-03,   112.323E-03,            0.,NA,NA,"",   1.14772E+06,   1.00997E+06,   1.00997E+06
C:/temp/Job-1.odb,Step-1,Increment      1: Step Time =    1.000,"P-1-1",          6736,   12.3266E-03,   26.4914E-03,            0.,NA,NA,"",   1.00395E+06,   1.07827E+06,   1.07827E+06
C:/temp/Job-1.odb,Step-1,Increment      1: Step Time =    1.000,"P-1-1",          6737,   172.820E-03,   189.240E-03,            0.,NA,NA,"",   1.00044E+06,   999.995E+03,   999.995E+03
C:/temp/Job-1.odb,Step-1,Increment      1: Step Time =    1.000,"P-1-1",          6738,   188.780E-03,   57.7815E-03,            0.,NA,NA,"",   994.362E+03,   1.00261E+06,   1.00261E+06
C:/temp/Job-1.odb,Step-1,Increment      1: Step Time =    1.000,"P-1-1",          6739,   144.693E-03,   10.9093E-03,            0.,NA,NA,"",   992.934E+03,   991.777E+03,   991.777E+03
C:/temp/Job-1.odb,Step-1,Increment      1: Step Time =    1.000,"P-1-1",          6740,   55.5097E-03,   11.1796E-03,            0.,NA,NA,"",   1.00228E+06,   1.00280E+06,   1.00280E+06
C:/temp/Job-1.odb,Step-1,Increment      1: Step Time =    1.000,"P-1-1",          6741,   188.817E-03,   144.357E-03,            0.,NA,NA,"",   995.538E+03,   1.00281E+06,   1.00281E+06
C:/temp/Job-1.odb,Step-1,Increment      1: Step Time =    1.000,"P-1-1",          6742,   187.933E-03,   174.050E-03,            0.,NA,NA,"",   1.00158E+06,   1.00172E+06,   1.00172E+06
C:/temp/Job-1.odb,Step-1,Increment      1: Step Time =    1.000,"P-1-1",          6743,   26.5061E-03,   10.8059E-03,            0.,NA,NA,"",   1.07784E+06,   1.08674E+06,   1.08674E+06
C:/temp/Job-1.odb,Step-1,Increment      1: Step Time =    1.000,"P-1-1",          6744,   11.0213E-03,   55.3416E-03,            0.,NA,NA,"",   874.374E+03,   966.152E+03,   966.152E+03
C:/temp/Job-1.odb,Step-1,Increment      1: Step Time =    1.000,"P-1-1",          6745,   142.604E-03,   189.261E-03,            0.,NA,NA,"",   991.318E+03,   990.250E+03,   990.250E+03
C:/temp/Job-1.odb,Step-1,Increment      1: Step Time =    1.000,"P-1-1",          6746,   55.6590E-03,   188.020E-03,            0.,NA,NA,"",   1.00457E+06,   1.00516E+06,   1.00516E+06
C:/temp/Job-1.odb,Step-1,Increment      1: Step Time =    1.000,"P-1-1",          6747,   11.5973E-03,   144.514E-03,            0.,NA,NA,"",   876.352E+03,   967.172E+03,   967.172E+03
C:/temp/Job-1.odb,Step-1,Increment      1: Step Time =    1.000,"P-1-1",          6748,   173.735E-03,   12.4228E-03,            0.,NA,NA,"",   1.00112E+06,   1.00058E+06,   1.00058E+06
C:/temp/Job-1.odb,Step-1,Increment      1: Step Time =    1.000,"P-1-1",          6749,   188.902E-03,   25.7364E-03,            0.,NA,NA,"",   1.00128E+06,   1.00145E+06,   1.00145E+06
C:/temp/Job-1.odb,Step-1,Increment      1: Step Time =    1.000,"P-1-1",          6750,   25.5003E-03,   188.142E-03,            0.,NA,NA,"",   1.08290E+06,   1.09439E+06,   1.09439E+06
C:/temp/Job-1.odb,Step-1,Increment      1: Step Time =    1.000,"P-1-1",          6751,   11.0079E-03,   174.166E-03,            0.,NA,NA,"",   1.00168E+06,   1.07961E+06,   1.07961E+06
C:/temp/Job-1.odb,Step-1,Increment      1: Step Time =    1.000,"P-1-1",          6752,   111.647E-03,   10.7567E-03,            0.,NA,NA,"",   963.537E+03,   965.015E+03,   965.015E+03
C:/temp/Job-1.odb,Step-1,Increment      1: Step Time =    1.000,"P-1-1",          6753,   88.3381E-03,   10.5705E-03,            0.,NA,NA,"",   961.290E+03,   962.966E+03,   962.966E+03
C:/temp/Job-1.odb,Step-1,Increment      1: Step Time =    1.000,"P-1-1",          6754,   11.0403E-03,   88.8829E-03,            0.,NA,NA,"",   798.348E+03,   893.149E+03,   893.149E+03
C:/temp/Job-1.odb,Step-1,Increment      1: Step Time =    1.000,"P-1-1",          6755,   189.366E-03,   111.430E-03,            0.,NA,NA,"",   971.360E+03,   995.831E+03,   995.831E+03
C:/temp/Job-1.odb,Step-1,Increment      1: Step Time =    1.000,"P-1-1",          6756,   89.1896E-03,   188.923E-03,            0.,NA,NA,"",   962.733E+03,   964.652E+03,   964.652E+03
C:/temp/Job-1.odb,Step-1,Increment      1: Step Time =    1.000,"P-1-1",          6757,   111.082E-03,   189.444E-03,            0.,NA,NA,"",   962.486E+03,   963.935E+03,   963.935E+03
C:/temp/Job-1.odb,Step-1,Increment      1: Step Time =    1.000,"P-1-1",          6758,   10.9421E-03,   111.490E-03,            0.,NA,NA,"",   798.496E+03,   893.375E+03,   893.375E+03
C:/temp/Job-1.odb,Step-1,Increment      1: Step Time =    1.000,"P-1-1",          6759,   189.476E-03,   82.3280E-03,            0.,NA,NA,"",   975.347E+03,   997.359E+03,   997.359E+03
C:/temp/Job-1.odb,Step-1,Increment      1: Step Time =    1.000,"P-1-1",          6760,   188.902E-03,   88.4106E-03,            0.,NA,NA,"",   971.576E+03,   995.577E+03,   995.577E+03
C:/temp/Job-1.odb,Step-1,Increment      1: Step Time =    1.000,"P-1-1",          6761,   11.1406E-03,   32.9539E-03,            0.,NA,NA,"",   959.419E+03,   1.04315E+06,   1.04315E+06
C:/temp/Job-1.odb,Step-1,Increment      1: Step Time =    1.000,"P-1-1",          6762,   81.4837E-03,   10.7254E-03,            0.,NA,NA,"",   967.265E+03,   968.539E+03,   968.539E+03
C:/temp/Job-1.odb,Step-1,Increment      1: Step Time =    1.000,"P-1-1",          6763,   117.579E-03,   188.913E-03,            0.,NA,NA,"",   969.301E+03,   970.279E+03,   970.279E+03
C:/temp/Job-1.odb,Step-1,Increment      1: Step Time =    1.000,"P-1-1",          6764,   11.0290E-03,   118.503E-03,            0.,NA,NA,"",   809.330E+03,   903.806E+03,   903.806E+03
C:/temp/Job-1.odb,Step-1,Increment      1: Step Time =    1.000,"P-1-1",          6765,   189.076E-03,   167.051E-03,            0.,NA,NA,"",   1.00130E+06,   1.00212E+06,   1.00212E+06
C:/temp/Job-1.odb,Step-1,Increment      1: Step Time =    1.000,"P-1-1",          6766,   166.724E-03,   11.2963E-03,            0.,NA,NA,"",   1.00050E+06,   999.734E+03,   999.734E+03
C:/temp/Job-1.odb,Step-1,Increment      1: Step Time =    1.000,"P-1-1",          6767,   32.8844E-03,   189.942E-03,            0.,NA,NA,"",   1.05102E+06,   1.05551E+06,   1.05551E+06
C:/temp/Job-1.odb,Step-1,Increment      1: Step Time =    1.000,"P-1-1",          6768,   177.566E-03,   188.900E-03,            0.,NA,NA,"",   1.00047E+06,   1.00018E+06,   1.00018E+06
C:/temp/Job-1.odb,Step-1,Increment      1: Step Time =    1.000,"P-1-1",          6769,   23.3680E-03,   10.9072E-03,            0.,NA,NA,"",   1.09296E+06,   1.10512E+06,   1.10512E+06
C:/temp/Job-1.odb,Step-1,Increment      1: Step Time =    1.000,"P-1-1",          6770,   188.338E-03,   52.2484E-03,            0.,NA,NA,"",   997.670E+03,   1.00325E+06,   1.00325E+06
C:/temp/Job-1.odb,Step-1,Increment      1: Step Time =    1.000,"P-1-1",          6771,   52.2729E-03,   10.9328E-03,            0.,NA,NA,"",   1.00651E+06,   1.00720E+06,   1.00720E+06
C:/temp/Job-1.odb,Step-1,Increment      1: Step Time =    1.000,"P-1-1",          6772,   147.659E-03,   188.577E-03,            0.,NA,NA,"",   995.544E+03,   994.245E+03,   994.245E+03
C:/temp/Job-1.odb,Step-1,Increment      1: Step Time =    1.000,"P-1-1",          6773,   11.0459E-03,   148.014E-03,            0.,NA,NA,"",   884.776E+03,   975.874E+03,   975.874E+03
C:/temp/Job-1.odb,Step-1,Increment      1: Step Time =    1.000,"P-1-1",          6774,   137.418E-03,   11.1897E-03,            0.,NA,NA,"",   988.170E+03,   987.232E+03,   987.232E+03
C:/temp/Job-1.odb,Step-1,Increment      1: Step Time =    1.000,"P-1-1",          6775,   188.503E-03,   137.442E-03,            0.,NA,NA,"",   991.560E+03,   1.00205E+06,   1.00205E+06
C:/temp/Job-1.odb,Step-1,Increment      1: Step Time =    1.000,"P-1-1",          6776,   11.1002E-03,   62.9007E-03,            0.,NA,NA,"",   853.134E+03,   945.904E+03,   945.904E+03
C:/temp/Job-1.odb,Step-1,Increment      1: Step Time =    1.000,"P-1-1",          6777,   62.6863E-03,   188.363E-03,            0.,NA,NA,"",   993.318E+03,   993.661E+03,   993.661E+03
C:/temp/Job-1.odb,Step-1,Increment      1: Step Time =    1.000,"P-1-1",          6778,   188.748E-03,   21.9253E-03,            0.,NA,NA,"",   1.00103E+06,   1.00104E+06,   1.00104E+06
C:/temp/Job-1.odb,Step-1,Increment      1: Step Time =    1.000,"P-1-1",          6779,   10.7323E-03,   177.412E-03,            0.,NA,NA,"",   1.02596E+06,   1.10052E+06,   1.10052E+06
C:/temp/Job-1.odb,Step-1,Increment      1: Step Time =    1.000,"P-1-1",          6780,   108.585E-03,   10.9409E-03,            0.,NA,NA,"",   962.141E+03,   963.896E+03,   963.896E+03
C:/temp/Job-1.odb,Step-1,Increment      1: Step Time =    1.000,"P-1-1",          6781,   10.9234E-03,   91.8277E-03,            0.,NA,NA,"",   795.074E+03,   890.031E+03,   890.031E+03
C:/temp/Job-1.odb,Step-1,Increment      1: Step Time =    1.000,"P-1-1",          6782,   189.377E-03,   108.325E-03,            0.,NA,NA,"",   969.865E+03,   995.302E+03,   995.302E+03
C:/temp/Job-1.odb,Step-1,Increment      1: Step Time =    1.000,"P-1-1",          6783,   92.0332E-03,   189.194E-03,            0.,NA,NA,"",   960.317E+03,   962.282E+03,   962.282E+03
C:/temp/Job-1.odb,Step-1,Increment      1: Step Time =    1.000,"P-1-1",          6784,   170.008E-03,   189.327E-03,            0.,NA,NA,"",   1.00033E+06,   999.773E+03,   999.773E+03
C:/temp/Job-1.odb,Step-1,Increment      1: Step Time =    1.000,"P-1-1",          6785,   29.4582E-03,   10.6279E-03,            0.,NA,NA,"",   1.06472E+06,   1.07150E+06,   1.07150E+06
C:/temp/Job-1.odb,Step-1,Increment      1: Step Time =    1.000,"P-1-1",          6786,   188.519E-03,   29.5692E-03,            0.,NA,NA,"",   1.00156E+06,   1.00198E+06,   1.00198E+06
C:/temp/Job-1.odb,Step-1,Increment      1: Step Time =    1.000,"P-1-1",          6787,   189.913E-03,   60.0248E-03,            0.,NA,NA,"",   992.048E+03,   1.00196E+06,   1.00196E+06
C:/temp/Job-1.odb,Step-1,Increment      1: Step Time =    1.000,"P-1-1",          6788,   59.1884E-03,   12.1260E-03,            0.,NA,NA,"",   999.720E+03,   1.00015E+06,   1.00015E+06
C:/temp/Job-1.odb,Step-1,Increment      1: Step Time =    1.000,"P-1-1",          6789,   140.246E-03,   189.795E-03,            0.,NA,NA,"",   988.630E+03,   987.720E+03,   987.720E+03
C:/temp/Job-1.odb,Step-1,Increment      1: Step Time =    1.000,"P-1-1",          6790,   10.8280E-03,   171.002E-03,            0.,NA,NA,"",   979.999E+03,   1.06155E+06,   1.06155E+06
C:/temp/Job-1.odb,Step-1,Increment      1: Step Time =    1.000,"P-1-1",          6791,   11.0098E-03,   141.055E-03,            0.,NA,NA,"",   863.608E+03,   956.006E+03,   956.006E+03
C:/temp/Job-1.odb,Step-1,Increment      1: Step Time =    1.000,"P-1-1",          6792,   78.6268E-03,   113.042E-03,            0.,NA,NA,"",   1.09627E+06,   1.00085E+06,   1.00085E+06
C:/temp/Job-1.odb,Step-1,Increment      1: Step Time =    1.000,"P-1-1",          6793,   180.775E-03,   187.902E-03,            0.,NA,NA,"",   1.00059E+06,   1.00037E+06,   1.00037E+06
C:/temp/Job-1.odb,Step-1,Increment      1: Step Time =    1.000,"P-1-1",          6794,   20.0695E-03,   10.9629E-03,            0.,NA,NA,"",   1.11158E+06,   1.12790E+06,   1.12790E+06
C:/temp/Job-1.odb,Step-1,Increment      1: Step Time =    1.000,"P-1-1",          6795,   105.394E-03,   11.2732E-03,            0.,NA,NA,"",   961.521E+03,   963.632E+03,   963.632E+03
C:/temp/Job-1.odb,Step-1,Increment      1: Step Time =    1.000,"P-1-1",          6796,   10.7560E-03,   94.7657E-03,            0.,NA,NA,"",   792.586E+03,   887.767E+03,   887.767E+03
C:/temp/Job-1.odb,Step-1,Increment      1: Step Time =    1.000,"P-1-1",          6797,   189.549E-03,   105.224E-03,            0.,NA,NA,"",   968.746E+03,   994.999E+03,   994.999E+03
C:/temp/Job-1.odb,Step-1,Increment      1: Step Time =    1.000,"P-1-1",          6798,   94.9426E-03,   189.419E-03,            0.,NA,NA,"",   958.657E+03,   960.680E+03,   960.680E+03
C:/temp/Job-1.odb,Step-1,Increment      1: Step Time =    1.000,"P-1-1",          6799,   10.5670E-03,   180.775E-03,            0.,NA,NA,"",   1.05687E+06,   1.12626E+06,   1.12626E+06
C:/temp/Job-1.odb,Step-1,Increment      1: Step Time =    1.000,"P-1-1",          6800,   10.8202E-03,   35.7365E-03,            0.,NA,NA,"",   944.375E+03,   1.03062E+06,   1.03062E+06
C:/temp/Job-1.odb,Step-1,Increment      1: Step Time =    1.000,"P-1-1",          6801,   134.283E-03,   11.3720E-03,            0.,NA,NA,"",   985.803E+03,   985.066E+03,   985.066E+03
C:/temp/Job-1.odb,Step-1,Increment      1: Step Time =    1.000,"P-1-1",          6802,   189.188E-03,   135.725E-03,            0.,NA,NA,"",   989.750E+03,   1.00157E+06,   1.00157E+06
C:/temp/Job-1.odb,Step-1,Increment      1: Step Time =    1.000,"P-1-1",          6803,   11.3483E-03,   65.9191E-03,            0.,NA,NA,"",   845.763E+03,    938.58E+03,    938.58E+03
C:/temp/Job-1.odb,Step-1,Increment      1: Step Time =    1.000,"P-1-1",          6804,   188.259E-03,   164.015E-03,            0.,NA,NA,"",   1.00155E+06,   1.00273E+06,   1.00273E+06
C:/temp/Job-1.odb,Step-1,Increment      1: Step Time =    1.000,"P-1-1",          6805,   188.651E-03,   80.0514E-03,            0.,NA,NA,"",   977.528E+03,   997.705E+03,   997.705E+03
C:/temp/Job-1.odb,Step-1,Increment      1: Step Time =    1.000,"P-1-1",          6806,   64.8581E-03,   189.458E-03,            0.,NA,NA,"",   986.359E+03,   986.599E+03,   986.599E+03
C:/temp/Job-1.odb,Step-1,Increment      1: Step Time =    1.000,"P-1-1",          6807,   49.2929E-03,   11.1506E-03,            0.,NA,NA,"",   1.01248E+06,   1.01354E+06,   1.01354E+06
C:/temp/Job-1.odb,Step-1,Increment      1: Step Time =    1.000,"P-1-1",          6808,   163.832E-03,   11.0376E-03,            0.,NA,NA,"",   999.981E+03,   999.136E+03,   999.136E+03
C:/temp/Job-1.odb,Step-1,Increment      1: Step Time =    1.000,"P-1-1",          6809,   11.0684E-03,   151.146E-03,            0.,NA,NA,"",   894.912E+03,   985.280E+03,   985.280E+03
C:/temp/Job-1.odb,Step-1,Increment      1: Step Time =    1.000,"P-1-1",          6810,   35.5618E-03,   188.261E-03,            0.,NA,NA,"",   1.04633E+06,   1.05113E+06,   1.05113E+06
C:/temp/Job-1.odb,Step-1,Increment      1: Step Time =    1.000,"P-1-1",          6811,   78.5795E-03,   11.0528E-03,            0.,NA,NA,"",   971.190E+03,   972.263E+03,   972.263E+03
C:/temp/Job-1.odb,Step-1,Increment      1: Step Time =    1.000,"P-1-1",          6812,   120.288E-03,   188.140E-03,            0.,NA,NA,"",   973.813E+03,   974.515E+03,   974.515E+03
C:/temp/Job-1.odb,Step-1,Increment      1: Step Time =    1.000,"P-1-1",          6813,   11.1064E-03,   121.323E-03,            0.,NA,NA,"",   814.988E+03,   909.218E+03,   909.218E+03
C:/temp/Job-1.odb,Step-1,Increment      1: Step Time =    1.000,"P-1-1",          6814,   11.2363E-03,   29.8255E-03,            0.,NA,NA,"",   977.164E+03,   1.05832E+06,   1.05832E+06
C:/temp/Job-1.odb,Step-1,Increment      1: Step Time =    1.000,"P-1-1",          6815,   189.271E-03,   84.5935E-03,            0.,NA,NA,"",   973.816E+03,   996.624E+03,   996.624E+03
C:/temp/Job-1.odb,Step-1,Increment      1: Step Time =    1.000,"P-1-1",          6816,   188.488E-03,   169.698E-03,            0.,NA,NA,"",   1.00158E+06,   1.00207E+06,   1.00207E+06
C:/temp/Job-1.odb,Step-1,Increment      1: Step Time =    1.000,"P-1-1",          6817,   140.220E-03,   11.4691E-03,            0.,NA,NA,"",   990.905E+03,   989.781E+03,   989.781E+03
C:/temp/Job-1.odb,Step-1,Increment      1: Step Time =    1.000,"P-1-1",          6818,   188.093E-03,   139.393E-03,            0.,NA,NA,"",   993.241E+03,   1.00252E+06,   1.00252E+06
C:/temp/Job-1.odb,Step-1,Increment      1: Step Time =    1.000,"P-1-1",          6819,   169.312E-03,   11.5803E-03,            0.,NA,NA,"",   1.00077E+06,   1.00008E+06,   1.00008E+06
C:/temp/Job-1.odb,Step-1,Increment      1: Step Time =    1.000,"P-1-1",          6820,   11.5762E-03,   60.1635E-03,            0.,NA,NA,"",   862.487E+03,   954.148E+03,   954.148E+03
C:/temp/Job-1.odb,Step-1,Increment      1: Step Time =    1.000,"P-1-1",          6821,   59.8321E-03,   187.314E-03,            0.,NA,NA,"",   1.00053E+06,   1.00096E+06,   1.00096E+06
C:/temp/Job-1.odb,Step-1,Increment      1: Step Time =    1.000,"P-1-1",          6822,   31.1109E-03,   189.226E-03,            0.,NA,NA,"",   1.05910E+06,   1.06505E+06,   1.06505E+06
C:/temp/Job-1.odb,Step-1,Increment      1: Step Time =    1.000,"P-1-1",          6823,   84.0808E-03,   11.1736E-03,            0.,NA,NA,"",   966.397E+03,   967.971E+03,   967.971E+03
C:/temp/Job-1.odb,Step-1,Increment      1: Step Time =    1.000,"P-1-1",          6824,   114.702E-03,   10.7516E-03,            0.,NA,NA,"",   965.814E+03,   966.980E+03,   966.980E+03
C:/temp/Job-1.odb,Step-1,Increment      1: Step Time =    1.000,"P-1-1",          6825,   114.917E-03,   189.346E-03,            0.,NA,NA,"",   965.837E+03,   967.043E+03,   967.043E+03
C:/temp/Job-1.odb,Step-1,Increment      1: Step Time =    1.000,"P-1-1",          6826,   11.4733E-03,   116.010E-03,            0.,NA,NA,"",   806.100E+03,   900.295E+03,   900.295E+03
C:/temp/Job-1.odb,Step-1,Increment      1: Step Time =    1.000,"P-1-1",          6827,   86.4338E-03,   188.306E-03,            0.,NA,NA,"",   966.449E+03,   968.385E+03,   968.385E+03
C:/temp/Job-1.odb,Step-1,Increment      1: Step Time =    1.000,"P-1-1",          6828,   11.0039E-03,   86.4183E-03,            0.,NA,NA,"",   801.480E+03,   896.185E+03,   896.185E+03
C:/temp/Job-1.odb,Step-1,Increment      1: Step Time =    1.000,"P-1-1",          6829,   189.501E-03,   114.348E-03,            0.,NA,NA,"",   973.016E+03,   996.510E+03,   996.510E+03
C:/temp/Job-1.odb,Step-1,Increment      1: Step Time =    1.000,"P-1-1",          6830,   188.653E-03,   73.2657E-03,            0.,NA,NA,"",   983.061E+03,   999.607E+03,   999.607E+03
C:/temp/Job-1.odb,Step-1,Increment      1: Step Time =    1.000,"P-1-1",          6831,   71.8190E-03,   11.1244E-03,            0.,NA,NA,"",   979.140E+03,   979.716E+03,   979.716E+03
C:/temp/Job-1.odb,Step-1,Increment      1: Step Time =    1.000,"P-1-1",          6832,   11.4828E-03,   72.2689E-03,            0.,NA,NA,"",   829.923E+03,   923.277E+03,   923.277E+03
C:/temp/Job-1.odb,Step-1,Increment      1: Step Time =    1.000,"P-1-1",          6833,   127.539E-03,   12.3555E-03,            0.,NA,NA,"",   981.806E+03,   981.677E+03,   981.677E+03
C:/temp/Job-1.odb,Step-1,Increment      1: Step Time =    1.000,"P-1-1",          6834,   126.919E-03,   188.769E-03,            0.,NA,NA,"",   978.553E+03,   978.475E+03,   978.475E+03
C:/temp/Job-1.odb,Step-1,Increment      1: Step Time =    1.000,"P-1-1",          6835,   188.340E-03,   128.216E-03,            0.,NA,NA,"",   984.516E+03,   999.981E+03,   999.981E+03
C:/temp/Job-1.odb,Step-1,Increment      1: Step Time =    1.000,"P-1-1",          6836,   71.7503E-03,   188.503E-03,            0.,NA,NA,"",   980.456E+03,   981.085E+03,   981.085E+03
C:/temp/Job-1.odb,Step-1,Increment      1: Step Time =    1.000,"P-1-1",          6837,   11.1821E-03,   128.586E-03,            0.,NA,NA,"",   831.209E+03,   924.854E+03,   924.854E+03
C:/temp/Job-1.odb,Step-1,Increment      1: Step Time =    1.000,"P-1-1",          6838,   11.3798E-03,   42.7450E-03,            0.,NA,NA,"",   917.269E+03,   1.00542E+06,   1.00542E+06
C:/temp/Job-1.odb,Step-1,Increment      1: Step Time =    1.000,"P-1-1",          6839,   157.004E-03,   188.115E-03,            0.,NA,NA,"",   999.505E+03,   998.264E+03,   998.264E+03
C:/temp/Job-1.odb,Step-1,Increment      1: Step Time =    1.000,"P-1-1",          6840,   157.715E-03,   11.2242E-03,            0.,NA,NA,"",   999.058E+03,   997.949E+03,   997.949E+03
C:/temp/Job-1.odb,Step-1,Increment      1: Step Time =    1.000,"P-1-1",          6841,   188.129E-03,   42.9910E-03,            0.,NA,NA,"",   1.00067E+06,   1.00326E+06,   1.00326E+06
C:/temp/Job-1.odb,Step-1,Increment      1: Step Time =    1.000,"P-1-1",          6842,   41.4423E-03,   11.0761E-03,            0.,NA,NA,"",   1.02915E+06,   1.03165E+06,   1.03165E+06
C:/temp/Job-1.odb,Step-1,Increment      1: Step Time =    1.000,"P-1-1",          6843,   188.325E-03,   157.492E-03,            0.,NA,NA,"",   1.00068E+06,   1.00318E+06,   1.00318E+06
C:/temp/Job-1.odb,Step-1,Increment      1: Step Time =    1.000,"P-1-1",          6844,   42.2834E-03,   188.236E-03,            0.,NA,NA,"",   1.02891E+06,   1.03152E+06,   1.03152E+06
C:/temp/Job-1.odb,Step-1,Increment      1: Step Time =    1.000,"P-1-1",          6845,   11.9238E-03,   157.674E-03,            0.,NA,NA,"",   922.194E+03,   1.00872E+06,   1.00872E+06
C:/temp/Job-1.odb,Step-1,Increment      1: Step Time =    1.000,"P-1-1",          6846,   183.926E-03,   188.013E-03,            0.,NA,NA,"",   1.00039E+06,   1.00026E+06,   1.00026E+06
C:/temp/Job-1.odb,Step-1,Increment      1: Step Time =    1.000,"P-1-1",          6847,   16.8259E-03,   11.6335E-03,            0.,NA,NA,"",   1.12874E+06,   1.15365E+06,   1.15365E+06
C:/temp/Job-1.odb,Step-1,Increment      1: Step Time =    1.000,"P-1-1",          6848,   102.005E-03,   11.1569E-03,            0.,NA,NA,"",   960.264E+03,   962.499E+03,   962.499E+03
C:/temp/Job-1.odb,Step-1,Increment      1: Step Time =    1.000,"P-1-1",          6849,   10.5292E-03,   97.7426E-03,            0.,NA,NA,"",   791.100E+03,   886.402E+03,   886.402E+03
C:/temp/Job-1.odb,Step-1,Increment      1: Step Time =    1.000,"P-1-1",          6850,   188.249E-03,   101.509E-03,            0.,NA,NA,"",   968.178E+03,   993.554E+03,   993.554E+03
C:/temp/Job-1.odb,Step-1,Increment      1: Step Time =    1.000,"P-1-1",          6851,   98.5193E-03,   188.057E-03,            0.,NA,NA,"",   962.291E+03,   964.840E+03,   964.840E+03
C:/temp/Job-1.odb,Step-1,Increment      1: Step Time =    1.000,"P-1-1",          6852,   189.201E-03,   17.4020E-03,            0.,NA,NA,"",   1.00060E+06,   1.00054E+06,   1.00054E+06
C:/temp/Job-1.odb,Step-1,Increment      1: Step Time =    1.000,"P-1-1",          6853,   11.1451E-03,   184.072E-03,            0.,NA,NA,"",   1.09386E+06,   1.15308E+06,   1.15308E+06
C:/temp/Job-1.odb,Step-1,Increment      1: Step Time =    1.000,"P-1-1",          6854,   76.6402E-03,   95.7133E-03,            0.,NA,NA,"",    563.42E+03,   553.607E+03,   553.607E+03
C:/temp/Job-1.odb,Step-1,Increment      1: Step Time =    1.000,"P-1-1",          6855,   109.370E-03,   122.198E-03,            0.,NA,NA,"",   1.29931E+06,   1.33976E+06,   1.33976E+06
C:/temp/Job-1.odb,Step-1,Increment      1: Step Time =    1.000,"P-1-1",          6856,   11.8378E-03,   20.7121E-03,            0.,NA,NA,"",   1.04725E+06,   1.11457E+06,   1.11457E+06
C:/temp/Job-1.odb,Step-1,Increment      1: Step Time =    1.000,"P-1-1",          6857,   188.933E-03,   180.979E-03,            0.,NA,NA,"",   1.00079E+06,   1.00074E+06,   1.00074E+06
C:/temp/Job-1.odb,Step-1,Increment      1: Step Time =    1.000,"P-1-1",          6858,   95.0886E-03,   12.2257E-03,            0.,NA,NA,"",   963.864E+03,   966.464E+03,   966.464E+03
C:/temp/Job-1.odb,Step-1,Increment      1: Step Time =    1.000,"P-1-1",          6859,   12.0785E-03,   105.302E-03,            0.,NA,NA,"",   794.817E+03,   888.974E+03,   888.974E+03
C:/temp/Job-1.odb,Step-1,Increment      1: Step Time =    1.000,"P-1-1",          6860,   105.623E-03,   187.135E-03,            0.,NA,NA,"",   966.315E+03,   969.000E+03,   969.000E+03
C:/temp/Job-1.odb,Step-1,Increment      1: Step Time =    1.000,"P-1-1",          6861,   187.310E-03,   93.6215E-03,            0.,NA,NA,"",   969.229E+03,   993.076E+03,   993.076E+03
C:/temp/Job-1.odb,Step-1,Increment      1: Step Time =    1.000,"P-1-1",          6862,   179.556E-03,   10.8225E-03,            0.,NA,NA,"",   1.00033E+06,   1.00012E+06,   1.00012E+06
C:/temp/Job-1.odb,Step-1,Increment      1: Step Time =    1.000,"P-1-1",          6863,   19.9779E-03,   188.873E-03,            0.,NA,NA,"",   1.11134E+06,   1.12842E+06,   1.12842E+06
C:/temp/Job-1.odb,Step-1,Increment      1: Step Time =    1.000,"P-1-1",          6864,   188.929E-03,   65.2947E-03,            0.,NA,NA,"",   989.283E+03,   1.00148E+06,   1.00148E+06
C:/temp/Job-1.odb,Step-1,Increment      1: Step Time =    1.000,"P-1-1",          6865,   64.0488E-03,   12.1005E-03,            0.,NA,NA,"",   992.741E+03,   993.099E+03,   993.099E+03
C:/temp/Job-1.odb,Step-1,Increment      1: Step Time =    1.000,"P-1-1",          6866,   134.742E-03,   189.010E-03,            0.,NA,NA,"",   985.507E+03,   984.761E+03,   984.761E+03
C:/temp/Job-1.odb,Step-1,Increment      1: Step Time =    1.000,"P-1-1",          6867,   11.9785E-03,   135.852E-03,            0.,NA,NA,"",   852.468E+03,   944.313E+03,   944.313E+03
C:/temp/Job-1.odb,Step-1,Increment      1: Step Time =    1.000,"P-1-1",          6868,   10.6259E-03,   49.1592E-03,            0.,NA,NA,"",   892.077E+03,   983.300E+03,   983.300E+03
C:/temp/Job-1.odb,Step-1,Increment      1: Step Time =    1.000,"P-1-1",          6869,   150.578E-03,   10.4897E-03,            0.,NA,NA,"",   995.585E+03,   994.482E+03,   994.482E+03
C:/temp/Job-1.odb,Step-1,Increment      1: Step Time =    1.000,"P-1-1",          6870,   187.731E-03,   150.382E-03,            0.,NA,NA,"",   999.070E+03,   1.00357E+06,   1.00357E+06
C:/temp/Job-1.odb,Step-1,Increment      1: Step Time =    1.000,"P-1-1",          6871,   50.3494E-03,   190.209E-03,            0.,NA,NA,"",   1.00601E+06,   1.00673E+06,   1.00673E+06
C:/temp/Job-1.odb,Step-1,Increment      1: Step Time =    1.000,"P-1-1",          6872,   165.143E-03,   188.313E-03,            0.,NA,NA,"",   1.00059E+06,   999.715E+03,   999.715E+03
C:/temp/Job-1.odb,Step-1,Increment      1: Step Time =    1.000,"P-1-1",          6873,   35.1688E-03,   11.0384E-03,            0.,NA,NA,"",   1.04542E+06,   1.04983E+06,   1.04983E+06
C:/temp/Job-1.odb,Step-1,Increment      1: Step Time =    1.000,"P-1-1",          6874,   188.261E-03,   34.9146E-03,            0.,NA,NA,"",   1.00156E+06,   1.00258E+06,   1.00258E+06
C:/temp/Job-1.odb,Step-1,Increment      1: Step Time =    1.000,"P-1-1",          6875,   11.4999E-03,   165.334E-03,            0.,NA,NA,"",   952.999E+03,   1.03681E+06,   1.03681E+06
C:/temp/Job-1.odb,Step-1,Increment      1: Step Time =    1.000,"P-1-1",          6876,   120.890E-03,   11.2626E-03,            0.,NA,NA,"",   972.889E+03,   973.507E+03,   973.507E+03
C:/temp/Job-1.odb,Step-1,Increment      1: Step Time =    1.000,"P-1-1",          6877,   10.6099E-03,   79.1670E-03,            0.,NA,NA,"",   812.837E+03,   907.556E+03,   907.556E+03
C:/temp/Job-1.odb,Step-1,Increment      1: Step Time =    1.000,"P-1-1",          6878,   79.7392E-03,   188.276E-03,            0.,NA,NA,"",   972.403E+03,   973.745E+03,   973.745E+03
C:/temp/Job-1.odb,Step-1,Increment      1: Step Time =    1.000,"P-1-1",          6879,   188.108E-03,   120.110E-03,            0.,NA,NA,"",   977.837E+03,   997.454E+03,   997.454E+03
C:/temp/Job-1.odb,Step-1,Increment      1: Step Time =    1.000,"P-1-1",          6880,   8.96279E-03,   16.1153E-03,            0.,NA,NA,"",   1.08432E+06,   1.15436E+06,   1.15436E+06
C:/temp/Job-1.odb,Step-1,Increment      1: Step Time =    1.000,"P-1-1",          6881,   191.142E-03,   184.665E-03,            0.,NA,NA,"",   1.00032E+06,   1.00024E+06,   1.00024E+06
C:/temp/Job-1.odb,Step-1,Increment      1: Step Time =    1.000,"P-1-1",          6882,   15.8295E-03,   190.908E-03,            0.,NA,NA,"",   1.14613E+06,   1.16479E+06,   1.16479E+06
C:/temp/Job-1.odb,Step-1,Increment      1: Step Time =    1.000,"P-1-1",          6883,   184.048E-03,   9.06368E-03,            0.,NA,NA,"",   999.935E+03,   999.861E+03,   999.861E+03
C:/temp/Job-1.odb,Step-1,Increment      1: Step Time =    1.000,"P-1-1",          6884,   81.0946E-03,   89.1402E-03,            0.,NA,NA,"",   1.07781E+06,   947.954E+03,   947.954E+03
C:/temp/Job-1.odb,Step-1,Increment      1: Step Time =    1.000,"P-1-1",          6885,   117.346E-03,   115.112E-03,            0.,NA,NA,"",   1.30084E+06,   1.17568E+06,   1.17568E+06
C:/temp/Job-1.odb,Step-1,Increment      1: Step Time =    1.000,"P-1-1",          6886,   106.050E-03,   124.414E-03,            0.,NA,NA,"",   1.20618E+06,   1.29247E+06,   1.29247E+06
C:/temp/Job-1.odb,Step-1,Increment      1: Step Time =    1.000,"P-1-1",          6887,   85.7065E-03,   119.391E-03,            0.,NA,NA,"",   1.33916E+06,   1.29596E+06,   1.29596E+06
C:/temp/Job-1.odb,Step-1,Increment      1: Step Time =    1.000,"P-1-1",          6888,   113.755E-03,   119.895E-03,            0.,NA,NA,"",   1.35689E+06,   1.31375E+06,   1.31375E+06
C:/temp/Job-1.odb,Step-1,Increment      1: Step Time =    1.000,"P-1-1",          6889,   112.737E-03,   120.484E-03,            0.,NA,NA,"",   1.35046E+06,   1.32747E+06,   1.32747E+06
C:/temp/Job-1.odb,Step-1,Increment      1: Step Time =    1.000,"P-1-1",          6890,   124.077E-03,   103.668E-03,            0.,NA,NA,"",   562.393E+03,   542.379E+03,   542.379E+03
C:/temp/Job-1.odb,Step-1,Increment      1: Step Time =    1.000,"P-1-1",          6891,   78.0964E-03,   110.452E-03,            0.,NA,NA,"",   968.681E+03,   879.903E+03,   879.903E+03
C:/temp/Job-1.odb,Step-1,Increment      1: Step Time =    1.000,"P-1-1",          6892,   113.990E-03,   115.188E-03,            0.,NA,NA,"",   1.37581E+06,   1.27654E+06,   1.27654E+06
C:/temp/Job-1.odb,Step-1,Increment      1: Step Time =    1.000,"P-1-1",          6893,   89.4602E-03,   122.240E-03,            0.,NA,NA,"",   1.30145E+06,   1.32879E+06,   1.32879E+06
C:/temp/Job-1.odb,Step-1,Increment      1: Step Time =    1.000,"P-1-1",          6894,   185.505E-03,   8.98939E-03,            0.,NA,NA,"",   999.925E+03,   999.867E+03,   999.867E+03
C:/temp/Job-1.odb,Step-1,Increment      1: Step Time =    1.000,"P-1-1",          6895,   14.4172E-03,   190.994E-03,            0.,NA,NA,"",   1.15864E+06,   1.18014E+06,   1.18014E+06
C:/temp/Job-1.odb,Step-1,Increment      1: Step Time =    1.000,"P-1-1",          6896,   191.252E-03,   186.012E-03,            0.,NA,NA,"",   1.00024E+06,   1.00016E+06,   1.00016E+06
C:/temp/Job-1.odb,Step-1,Increment      1: Step Time =    1.000,"P-1-1",          6897,   9.03042E-03,   14.6021E-03,            0.,NA,NA,"",   1.10569E+06,   1.17131E+06,   1.17131E+06
C:/temp/Job-1.odb,Step-1,Increment      1: Step Time =    1.000,"P-1-1",          6898,   97.6353E-03,   123.517E-03,            0.,NA,NA,"",   1.19302E+06,   1.31214E+06,   1.31214E+06
C:/temp/Job-1.odb,Step-1,Increment      1: Step Time =    1.000,"P-1-1",          6899,   74.9712E-03,   106.475E-03,            0.,NA,NA,"",   702.867E+03,   684.191E+03,   684.191E+03
C:/temp/Job-1.odb,Step-1,Increment      1: Step Time =    1.000,"P-1-1",          6900,   120.716E-03,   113.360E-03,            0.,NA,NA,"",   1.16481E+06,   1.03762E+06,   1.03762E+06
C:/temp/Job-1.odb,Step-1,Increment      1: Step Time =    1.000,"P-1-1",          6901,   125.211E-03,   96.8863E-03,            0.,NA,NA,"",   567.022E+03,   560.856E+03,   560.856E+03
C:/temp/Job-1.odb,Step-1,Increment      1: Step Time =    1.000,"P-1-1",          6902,   78.5285E-03,   114.851E-03,            0.,NA,NA,"",   1.15016E+06,   1.06011E+06,   1.06011E+06
C:/temp/Job-1.odb,Step-1,Increment      1: Step Time =    1.000,"P-1-1",          6903,   77.5721E-03,   113.725E-03,            0.,NA,NA,"",   1.09369E+06,   1.00744E+06,   1.00744E+06
C:/temp/Job-1.odb,Step-1,Increment      1: Step Time =    1.000,"P-1-1",          6904,   96.2643E-03,   124.047E-03,            0.,NA,NA,"",   1.19007E+06,   1.29883E+06,   1.29883E+06
C:/temp/Job-1.odb,Step-1,Increment      1: Step Time =    1.000,"P-1-1",          6905,   103.738E-03,   125.528E-03,            0.,NA,NA,"",   1.15633E+06,   1.25863E+06,   1.25863E+06
C:/temp/Job-1.odb,Step-1,Increment      1: Step Time =    1.000,"P-1-1",          6906,   116.581E-03,   115.866E-03,            0.,NA,NA,"",   1.33002E+06,   1.21592E+06,   1.21592E+06
C:/temp/Job-1.odb,Step-1,Increment      1: Step Time =    1.000,"P-1-1",          6907,   72.8903E-03,   106.562E-03,            0.,NA,NA,"",   709.773E+03,   707.960E+03,   707.960E+03
C:/temp/Job-1.odb,Step-1,Increment      1: Step Time =    1.000,"P-1-1",          6908,   185.516E-03,   10.5365E-03,            0.,NA,NA,"",   1.00011E+06,   1.00003E+06,   1.00003E+06
C:/temp/Job-1.odb,Step-1,Increment      1: Step Time =    1.000,"P-1-1",          6909,   14.4375E-03,   189.535E-03,            0.,NA,NA,"",   1.14861E+06,   1.17563E+06,   1.17563E+06
C:/temp/Job-1.odb,Step-1,Increment      1: Step Time =    1.000,"P-1-1",          6910,   189.793E-03,   186.123E-03,            0.,NA,NA,"",   1.00029E+06,   1.00021E+06,   1.00021E+06
C:/temp/Job-1.odb,Step-1,Increment      1: Step Time =    1.000,"P-1-1",          6911,   10.6108E-03,   14.7279E-03,            0.,NA,NA,"",   1.10872E+06,   1.16669E+06,   1.16669E+06
C:/temp/Job-1.odb,Step-1,Increment      1: Step Time =    1.000,"P-1-1",          6912,   188.559E-03,   13.3982E-03,            0.,NA,NA,"",   1.00031E+06,   1.00024E+06,   1.00024E+06
C:/temp/Job-1.odb,Step-1,Increment      1: Step Time =    1.000,"P-1-1",          6913,   10.7844E-03,   187.108E-03,            0.,NA,NA,"",   1.13200E+06,   1.18335E+06,   1.18335E+06
C:/temp/Job-1.odb,Step-1,Increment      1: Step Time =    1.000,"P-1-1",          6914,   187.202E-03,   189.088E-03,            0.,NA,NA,"",   1.00011E+06,   1.00005E+06,   1.00005E+06
C:/temp/Job-1.odb,Step-1,Increment      1: Step Time =    1.000,"P-1-1",          6915,   13.1915E-03,   10.7328E-03,            0.,NA,NA,"",   1.15199E+06,   1.18423E+06,   1.18423E+06
C:/temp/Job-1.odb,Step-1,Increment      1: Step Time =    1.000,"P-1-1",          6916,   104.291E-03,   123.470E-03,            0.,NA,NA,"",   1.21104E+06,   1.31743E+06,   1.31743E+06
C:/temp/Job-1.odb,Step-1,Increment      1: Step Time =    1.000,"P-1-1",          6917,   93.0030E-03,   123.442E-03,            0.,NA,NA,"",   1.24113E+06,   1.31988E+06,   1.31988E+06
C:/temp/Job-1.odb,Step-1,Increment      1: Step Time =    1.000,"P-1-1",          6918,   166.434E-03,   188.002E-03,            0.,NA,NA,"",   1.00089E+06,   1.00004E+06,   1.00004E+06
C:/temp/Job-1.odb,Step-1,Increment      1: Step Time =    1.000,"P-1-1",          6919,   11.9043E-03,   22.1279E-03,            0.,NA,NA,"",   1.03512E+06,   1.10471E+06,   1.10471E+06
C:/temp/Job-1.odb,Step-1,Increment      1: Step Time =    1.000,"P-1-1",          6920,   118.987E-03,   12.1357E-03,            0.,NA,NA,"",   973.431E+03,   974.407E+03,   974.407E+03
C:/temp/Job-1.odb,Step-1,Increment      1: Step Time =    1.000,"P-1-1",          6921,   33.5270E-03,   12.2284E-03,            0.,NA,NA,"",   1.05327E+06,   1.05951E+06,   1.05951E+06
C:/temp/Job-1.odb,Step-1,Increment      1: Step Time =    1.000,"P-1-1",          6922,   11.1700E-03,   83.5329E-03,            0.,NA,NA,"",   806.118E+03,   900.572E+03,   900.572E+03
C:/temp/Job-1.odb,Step-1,Increment      1: Step Time =    1.000,"P-1-1",          6923,   12.2587E-03,   80.5144E-03,            0.,NA,NA,"",   814.013E+03,   907.271E+03,   907.271E+03
C:/temp/Job-1.odb,Step-1,Increment      1: Step Time =    1.000,"P-1-1",          6924,   187.269E-03,   178.894E-03,            0.,NA,NA,"",   1.00128E+06,   1.00123E+06,   1.00123E+06
C:/temp/Job-1.odb,Step-1,Increment      1: Step Time =    1.000,"P-1-1",          6925,   187.707E-03,   118.787E-03,            0.,NA,NA,"",   976.951E+03,   996.892E+03,   996.892E+03
C:/temp/Job-1.odb,Step-1,Increment      1: Step Time =    1.000,"P-1-1",          6926,   190.317E-03,   116.381E-03,            0.,NA,NA,"",   974.046E+03,   997.491E+03,   997.491E+03
C:/temp/Job-1.odb,Step-1,Increment      1: Step Time =    1.000,"P-1-1",          6927,   81.0218E-03,   187.826E-03,            0.,NA,NA,"",   972.204E+03,   973.732E+03,   973.732E+03
C:/temp/Job-1.odb,Step-1,Increment      1: Step Time =    1.000,"P-1-1",          6928,   187.899E-03,   33.6178E-03,            0.,NA,NA,"",   1.00180E+06,   1.00259E+06,   1.00259E+06
C:/temp/Job-1.odb,Step-1,Increment      1: Step Time =    1.000,"P-1-1",          6929,   12.3904E-03,   166.953E-03,            0.,NA,NA,"",   965.067E+03,   1.04549E+06,   1.04549E+06
C:/temp/Job-1.odb,Step-1,Increment      1: Step Time =    1.000,"P-1-1",          6930,   149.281E-03,   12.3062E-03,            0.,NA,NA,"",   997.485E+03,   996.011E+03,   996.011E+03
C:/temp/Job-1.odb,Step-1,Increment      1: Step Time =    1.000,"P-1-1",          6931,   188.420E-03,   148.309E-03,            0.,NA,NA,"",   997.840E+03,   1.00326E+06,   1.00326E+06
C:/temp/Job-1.odb,Step-1,Increment      1: Step Time =    1.000,"P-1-1",          6932,   12.1933E-03,   50.6905E-03,            0.,NA,NA,"",   893.483E+03,   982.341E+03,   982.341E+03
C:/temp/Job-1.odb,Step-1,Increment      1: Step Time =    1.000,"P-1-1",          6933,   51.4491E-03,   189.318E-03,            0.,NA,NA,"",   1.00684E+06,   1.00763E+06,   1.00763E+06
C:/temp/Job-1.odb,Step-1,Increment      1: Step Time =    1.000,"P-1-1",          6934,   178.094E-03,   10.8629E-03,            0.,NA,NA,"",   1.00039E+06,   1.00013E+06,   1.00013E+06
C:/temp/Job-1.odb,Step-1,Increment      1: Step Time =    1.000,"P-1-1",          6935,   187.934E-03,   63.6073E-03,            0.,NA,NA,"",   991.348E+03,   1.00204E+06,   1.00204E+06
C:/temp/Job-1.odb,Step-1,Increment      1: Step Time =    1.000,"P-1-1",          6936,   62.7693E-03,   13.1050E-03,            0.,NA,NA,"",   997.865E+03,   998.326E+03,   998.326E+03
C:/temp/Job-1.odb,Step-1,Increment      1: Step Time =    1.000,"P-1-1",          6937,   21.2648E-03,   187.077E-03,            0.,NA,NA,"",   1.10035E+06,   1.11970E+06,   1.11970E+06
C:/temp/Job-1.odb,Step-1,Increment      1: Step Time =    1.000,"P-1-1",          6938,   136.364E-03,   187.914E-03,            0.,NA,NA,"",   989.014E+03,   988.030E+03,   988.030E+03
C:/temp/Job-1.odb,Step-1,Increment      1: Step Time =    1.000,"P-1-1",          6939,   12.6878E-03,   137.133E-03,            0.,NA,NA,"",   858.437E+03,   949.071E+03,   949.071E+03
C:/temp/Job-1.odb,Step-1,Increment      1: Step Time =    1.000,"P-1-1",          6940,   115.914E-03,   117.259E-03,            0.,NA,NA,"",   1.35188E+06,   1.25648E+06,   1.25648E+06
C:/temp/Job-1.odb,Step-1,Increment      1: Step Time =    1.000,"P-1-1",          6941,   93.7790E-03,   12.8176E-03,            0.,NA,NA,"",   966.032E+03,   968.846E+03,   968.846E+03
C:/temp/Job-1.odb,Step-1,Increment      1: Step Time =    1.000,"P-1-1",          6942,   13.1057E-03,   106.575E-03,            0.,NA,NA,"",   797.506E+03,   890.843E+03,   890.843E+03
C:/temp/Job-1.odb,Step-1,Increment      1: Step Time =    1.000,"P-1-1",          6943,   106.973E-03,   187.120E-03,            0.,NA,NA,"",   966.812E+03,   969.358E+03,   969.358E+03
C:/temp/Job-1.odb,Step-1,Increment      1: Step Time =    1.000,"P-1-1",          6944,   186.954E-03,   92.1182E-03,            0.,NA,NA,"",   969.928E+03,   993.135E+03,   993.135E+03
C:/temp/Job-1.odb,Step-1,Increment      1: Step Time =    1.000,"P-1-1",          6945,   75.8878E-03,   110.490E-03,            0.,NA,NA,"",   925.096E+03,   864.022E+03,   864.022E+03
C:/temp/Job-1.odb,Step-1,Increment      1: Step Time =    1.000,"P-1-1",          6946,   187.332E-03,   73.9965E-03,            0.,NA,NA,"",   983.405E+03,   999.253E+03,   999.253E+03
C:/temp/Job-1.odb,Step-1,Increment      1: Step Time =    1.000,"P-1-1",          6947,   125.888E-03,   12.5649E-03,            0.,NA,NA,"",   980.724E+03,   980.804E+03,   980.804E+03
C:/temp/Job-1.odb,Step-1,Increment      1: Step Time =    1.000,"P-1-1",          6948,   73.8112E-03,   12.0124E-03,            0.,NA,NA,"",   979.963E+03,   980.826E+03,   980.826E+03
C:/temp/Job-1.odb,Step-1,Increment      1: Step Time =    1.000,"P-1-1",          6949,   187.663E-03,   126.239E-03,            0.,NA,NA,"",   983.250E+03,   999.355E+03,   999.355E+03
C:/temp/Job-1.odb,Step-1,Increment      1: Step Time =    1.000,"P-1-1",          6950,   188.683E-03,   122.628E-03,            0.,NA,NA,"",   979.626E+03,   998.390E+03,   998.390E+03
C:/temp/Job-1.odb,Step-1,Increment      1: Step Time =    1.000,"P-1-1",          6951,   11.7264E-03,   73.6036E-03,            0.,NA,NA,"",   827.751E+03,   920.891E+03,   920.891E+03
C:/temp/Job-1.odb,Step-1,Increment      1: Step Time =    1.000,"P-1-1",          6952,   10.5044E-03,   77.7250E-03,            0.,NA,NA,"",   815.481E+03,   910.219E+03,   910.219E+03
C:/temp/Job-1.odb,Step-1,Increment      1: Step Time =    1.000,"P-1-1",          6953,   73.6481E-03,   187.951E-03,            0.,NA,NA,"",   980.008E+03,   980.817E+03,   980.817E+03
C:/temp/Job-1.odb,Step-1,Increment      1: Step Time =    1.000,"P-1-1",          6954,   77.1833E-03,   188.843E-03,            0.,NA,NA,"",   973.263E+03,   974.263E+03,   974.263E+03
C:/temp/Job-1.odb,Step-1,Increment      1: Step Time =    1.000,"P-1-1",          6955,   126.233E-03,   187.465E-03,            0.,NA,NA,"",   981.131E+03,   981.132E+03,   981.132E+03
C:/temp/Job-1.odb,Step-1,Increment      1: Step Time =    1.000,"P-1-1",          6956,   11.4135E-03,   125.486E-03,            0.,NA,NA,"",   824.621E+03,   918.289E+03,   918.289E+03
C:/temp/Job-1.odb,Step-1,Increment      1: Step Time =    1.000,"P-1-1",          6957,   162.595E-03,   188.597E-03,            0.,NA,NA,"",   1.00018E+06,   999.216E+03,   999.216E+03
C:/temp/Job-1.odb,Step-1,Increment      1: Step Time =    1.000,"P-1-1",          6958,   159.034E-03,   187.440E-03,            0.,NA,NA,"",   1.00062E+06,   999.333E+03,   999.333E+03
C:/temp/Job-1.odb,Step-1,Increment      1: Step Time =    1.000,"P-1-1",          6959,   12.2901E-03,   41.1850E-03,            0.,NA,NA,"",   927.912E+03,   1.01327E+06,   1.01327E+06
C:/temp/Job-1.odb,Step-1,Increment      1: Step Time =    1.000,"P-1-1",          6960,   40.2339E-03,   13.1798E-03,            0.,NA,NA,"",   1.03704E+06,   1.04106E+06,   1.04106E+06
C:/temp/Job-1.odb,Step-1,Increment      1: Step Time =    1.000,"P-1-1",          6961,   188.254E-03,   159.043E-03,            0.,NA,NA,"",   1.00098E+06,   1.00310E+06,   1.00310E+06
C:/temp/Job-1.odb,Step-1,Increment      1: Step Time =    1.000,"P-1-1",          6962,   188.601E-03,   37.4684E-03,            0.,NA,NA,"",   1.00125E+06,   1.00271E+06,   1.00271E+06
C:/temp/Job-1.odb,Step-1,Increment      1: Step Time =    1.000,"P-1-1",          6963,   187.484E-03,   41.0001E-03,            0.,NA,NA,"",   1.00148E+06,   1.00345E+06,   1.00345E+06
C:/temp/Job-1.odb,Step-1,Increment      1: Step Time =    1.000,"P-1-1",          6964,   159.226E-03,   11.6756E-03,            0.,NA,NA,"",   999.742E+03,   998.624E+03,   998.624E+03
C:/temp/Job-1.odb,Step-1,Increment      1: Step Time =    1.000,"P-1-1",          6965,   40.7602E-03,   188.152E-03,            0.,NA,NA,"",   1.03247E+06,   1.03555E+06,   1.03555E+06
C:/temp/Job-1.odb,Step-1,Increment      1: Step Time =    1.000,"P-1-1",          6966,   12.1703E-03,   159.081E-03,            0.,NA,NA,"",   928.823E+03,   1.01433E+06,   1.01433E+06
C:/temp/Job-1.odb,Step-1,Increment      1: Step Time =    1.000,"P-1-1",          6967,   11.1718E-03,   162.117E-03,            0.,NA,NA,"",   936.644E+03,   1.02300E+06,   1.02300E+06
C:/temp/Job-1.odb,Step-1,Increment      1: Step Time =    1.000,"P-1-1",          6968,   152.031E-03,   10.2896E-03,            0.,NA,NA,"",   996.036E+03,   994.983E+03,   994.983E+03
C:/temp/Job-1.odb,Step-1,Increment      1: Step Time =    1.000,"P-1-1",          6969,   157.482E-03,   12.3195E-03,            0.,NA,NA,"",   1.00011E+06,   998.802E+03,   998.802E+03
C:/temp/Job-1.odb,Step-1,Increment      1: Step Time =    1.000,"P-1-1",          6970,   188.449E-03,   152.987E-03,            0.,NA,NA,"",   999.383E+03,   1.00323E+06,   1.00323E+06
C:/temp/Job-1.odb,Step-1,Increment      1: Step Time =    1.000,"P-1-1",          6971,   188.324E-03,   155.982E-03,            0.,NA,NA,"",   1.00030E+06,   1.00321E+06,   1.00321E+06
C:/temp/Job-1.odb,Step-1,Increment      1: Step Time =    1.000,"P-1-1",          6972,   13.0810E-03,   43.5360E-03,            0.,NA,NA,"",   922.453E+03,   1.00720E+06,   1.00720E+06
C:/temp/Job-1.odb,Step-1,Increment      1: Step Time =    1.000,"P-1-1",          6973,   10.5571E-03,   47.5361E-03,            0.,NA,NA,"",    897.17E+03,   988.158E+03,   988.158E+03
C:/temp/Job-1.odb,Step-1,Increment      1: Step Time =    1.000,"P-1-1",          6974,   46.9624E-03,   189.298E-03,            0.,NA,NA,"",   1.01539E+06,   1.01670E+06,   1.01670E+06
C:/temp/Job-1.odb,Step-1,Increment      1: Step Time =    1.000,"P-1-1",          6975,   43.7766E-03,   188.186E-03,            0.,NA,NA,"",   1.02574E+06,   1.02798E+06,   1.02798E+06
C:/temp/Job-1.odb,Step-1,Increment      1: Step Time =    1.000,"P-1-1",          6976,   187.777E-03,   71.6404E-03,            0.,NA,NA,"",   985.168E+03,   1.00007E+06,   1.00007E+06
C:/temp/Job-1.odb,Step-1,Increment      1: Step Time =    1.000,"P-1-1",          6977,   70.5784E-03,   12.9280E-03,            0.,NA,NA,"",   986.979E+03,   987.744E+03,   987.744E+03
C:/temp/Job-1.odb,Step-1,Increment      1: Step Time =    1.000,"P-1-1",          6978,   128.542E-03,   187.936E-03,            0.,NA,NA,"",   982.162E+03,   981.881E+03,   981.881E+03
C:/temp/Job-1.odb,Step-1,Increment      1: Step Time =    1.000,"P-1-1",          6979,   13.1276E-03,   129.113E-03,            0.,NA,NA,"",   838.356E+03,   929.594E+03,   929.594E+03
C:/temp/Job-1.odb,Step-1,Increment      1: Step Time =    1.000,"P-1-1",          6980,   119.990E-03,   116.018E-03,            0.,NA,NA,"",   1.24879E+06,   1.13213E+06,   1.13213E+06
C:/temp/Job-1.odb,Step-1,Increment      1: Step Time =    1.000,"P-1-1",          6981,   12.1333E-03,   25.0001E-03,            0.,NA,NA,"",   1.01354E+06,   1.08661E+06,   1.08661E+06
C:/temp/Job-1.odb,Step-1,Increment      1: Step Time =    1.000,"P-1-1",          6982,   11.0535E-03,   28.1925E-03,            0.,NA,NA,"",   986.289E+03,   1.06645E+06,   1.06645E+06
C:/temp/Job-1.odb,Step-1,Increment      1: Step Time =    1.000,"P-1-1",          6983,   173.969E-03,   188.490E-03,            0.,NA,NA,"",   1.00070E+06,   1.00025E+06,   1.00025E+06
C:/temp/Job-1.odb,Step-1,Increment      1: Step Time =    1.000,"P-1-1",          6984,   187.010E-03,   175.275E-03,            0.,NA,NA,"",   1.00175E+06,   1.00177E+06,   1.00177E+06
C:/temp/Job-1.odb,Step-1,Increment      1: Step Time =    1.000,"P-1-1",          6985,   189.155E-03,   173.616E-03,            0.,NA,NA,"",   1.00125E+06,   1.00146E+06,   1.00146E+06
C:/temp/Job-1.odb,Step-1,Increment      1: Step Time =    1.000,"P-1-1",          6986,   25.0757E-03,   12.4000E-03,            0.,NA,NA,"",   1.08456E+06,   1.09761E+06,   1.09761E+06
C:/temp/Job-1.odb,Step-1,Increment      1: Step Time =    1.000,"P-1-1",          6987,   179.005E-03,   187.925E-03,            0.,NA,NA,"",   1.00070E+06,   1.00042E+06,   1.00042E+06
C:/temp/Job-1.odb,Step-1,Increment      1: Step Time =    1.000,"P-1-1",          6988,   21.7891E-03,   12.5845E-03,            0.,NA,NA,"",   1.09896E+06,   1.11666E+06,   1.11666E+06
C:/temp/Job-1.odb,Step-1,Increment      1: Step Time =    1.000,"P-1-1",          6989,   172.293E-03,   11.1049E-03,            0.,NA,NA,"",   1.00057E+06,   1.00007E+06,   1.00007E+06
C:/temp/Job-1.odb,Step-1,Increment      1: Step Time =    1.000,"P-1-1",          6990,   175.146E-03,   12.4306E-03,            0.,NA,NA,"",   1.00104E+06,   1.00057E+06,   1.00057E+06
C:/temp/Job-1.odb,Step-1,Increment      1: Step Time =    1.000,"P-1-1",          6991,   186.724E-03,   23.6790E-03,            0.,NA,NA,"",   1.00171E+06,   1.00168E+06,   1.00168E+06
C:/temp/Job-1.odb,Step-1,Increment      1: Step Time =    1.000,"P-1-1",          6992,   187.900E-03,   53.8714E-03,            0.,NA,NA,"",   997.318E+03,   1.00338E+06,   1.00338E+06
C:/temp/Job-1.odb,Step-1,Increment      1: Step Time =    1.000,"P-1-1",          6993,   143.243E-03,   11.0686E-03,            0.,NA,NA,"",   992.303E+03,   991.147E+03,   991.147E+03
C:/temp/Job-1.odb,Step-1,Increment      1: Step Time =    1.000,"P-1-1",          6994,   146.295E-03,   12.4057E-03,            0.,NA,NA,"",   996.232E+03,   994.751E+03,   994.751E+03
C:/temp/Job-1.odb,Step-1,Increment      1: Step Time =    1.000,"P-1-1",          6995,   53.5597E-03,   12.3583E-03,            0.,NA,NA,"",   1.00917E+06,   1.00997E+06,   1.00997E+06
C:/temp/Job-1.odb,Step-1,Increment      1: Step Time =    1.000,"P-1-1",          6996,   186.613E-03,   145.626E-03,            0.,NA,NA,"",   998.189E+03,   1.00395E+06,   1.00395E+06
C:/temp/Job-1.odb,Step-1,Increment      1: Step Time =    1.000,"P-1-1",          6997,   26.3390E-03,   189.372E-03,            0.,NA,NA,"",   1.07844E+06,   1.08716E+06,   1.08716E+06
C:/temp/Job-1.odb,Step-1,Increment      1: Step Time =    1.000,"P-1-1",          6998,   24.1292E-03,   186.685E-03,            0.,NA,NA,"",   1.08778E+06,   1.10378E+06,   1.10378E+06
C:/temp/Job-1.odb,Step-1,Increment      1: Step Time =    1.000,"P-1-1",          6999,   12.4052E-03,   175.984E-03,            0.,NA,NA,"",   1.02256E+06,   1.09317E+06,   1.09317E+06
C:/temp/Job-1.odb,Step-1,Increment      1: Step Time =    1.000,"P-1-1",          7000,   12.4938E-03,   34.7932E-03,            0.,NA,NA,"",   956.939E+03,   1.03842E+06,   1.03842E+06
C:/temp/Job-1.odb,Step-1,Increment      1: Step Time =    1.000,"P-1-1",          7001,   188.254E-03,   81.4509E-03,            0.,NA,NA,"",   976.628E+03,   997.082E+03,   997.082E+03
C:/temp/Job-1.odb,Step-1,Increment      1: Step Time =    1.000,"P-1-1",          7002,   12.3778E-03,   53.6566E-03,            0.,NA,NA,"",   884.859E+03,   974.094E+03,   974.094E+03
C:/temp/Job-1.odb,Step-1,Increment      1: Step Time =    1.000,"P-1-1",          7003,   11.2891E-03,   56.8436E-03,            0.,NA,NA,"",   870.979E+03,   962.553E+03,   962.553E+03
C:/temp/Job-1.odb,Step-1,Increment      1: Step Time =    1.000,"P-1-1",          7004,   146.076E-03,   188.322E-03,            0.,NA,NA,"",   995.046E+03,   993.717E+03,   993.717E+03
C:/temp/Job-1.odb,Step-1,Increment      1: Step Time =    1.000,"P-1-1",          7005,   56.7599E-03,   188.763E-03,            0.,NA,NA,"",   1.00062E+06,   1.00103E+06,   1.00103E+06
C:/temp/Job-1.odb,Step-1,Increment      1: Step Time =    1.000,"P-1-1",          7006,   54.4110E-03,   189.005E-03,            0.,NA,NA,"",   1.00325E+06,   1.00378E+06,   1.00378E+06
C:/temp/Job-1.odb,Step-1,Increment      1: Step Time =    1.000,"P-1-1",          7007,   13.0637E-03,   145.502E-03,            0.,NA,NA,"",   885.015E+03,   973.276E+03,   973.276E+03
C:/temp/Job-1.odb,Step-1,Increment      1: Step Time =    1.000,"P-1-1",          7008,   110.184E-03,   12.2913E-03,            0.,NA,NA,"",   966.809E+03,   968.828E+03,   968.828E+03
C:/temp/Job-1.odb,Step-1,Increment      1: Step Time =    1.000,"P-1-1",          7009,   87.0022E-03,   10.8233E-03,            0.,NA,NA,"",   963.075E+03,   964.778E+03,   964.778E+03
C:/temp/Job-1.odb,Step-1,Increment      1: Step Time =    1.000,"P-1-1",          7010,   91.5310E-03,   12.7196E-03,            0.,NA,NA,"",   966.408E+03,   969.053E+03,   969.053E+03
C:/temp/Job-1.odb,Step-1,Increment      1: Step Time =    1.000,"P-1-1",          7011,   187.901E-03,   165.318E-03,            0.,NA,NA,"",   1.00181E+06,   1.00274E+06,   1.00274E+06
C:/temp/Job-1.odb,Step-1,Increment      1: Step Time =    1.000,"P-1-1",          7012,   189.119E-03,   20.1714E-03,            0.,NA,NA,"",   1.00083E+06,   1.00080E+06,   1.00080E+06
C:/temp/Job-1.odb,Step-1,Increment      1: Step Time =    1.000,"P-1-1",          7013,   12.6363E-03,   90.4506E-03,            0.,NA,NA,"",   799.409E+03,   892.979E+03,   892.979E+03
C:/temp/Job-1.odb,Step-1,Increment      1: Step Time =    1.000,"P-1-1",          7014,   187.815E-03,   109.858E-03,            0.,NA,NA,"",   970.797E+03,   994.272E+03,   994.272E+03
C:/temp/Job-1.odb,Step-1,Increment      1: Step Time =    1.000,"P-1-1",          7015,   164.941E-03,   12.7907E-03,            0.,NA,NA,"",   1.00142E+06,   1.00038E+06,   1.00038E+06
C:/temp/Job-1.odb,Step-1,Increment      1: Step Time =    1.000,"P-1-1",          7016,   90.7467E-03,   187.622E-03,            0.,NA,NA,"",   965.934E+03,   968.426E+03,   968.426E+03
C:/temp/Job-1.odb,Step-1,Increment      1: Step Time =    1.000,"P-1-1",          7017,   112.725E-03,   190.519E-03,            0.,NA,NA,"",   960.641E+03,   961.741E+03,   961.741E+03
C:/temp/Job-1.odb,Step-1,Increment      1: Step Time =    1.000,"P-1-1",          7018,   109.723E-03,   188.305E-03,            0.,NA,NA,"",   964.815E+03,   966.688E+03,   966.688E+03
C:/temp/Job-1.odb,Step-1,Increment      1: Step Time =    1.000,"P-1-1",          7019,   11.2643E-03,   112.887E-03,            0.,NA,NA,"",   800.985E+03,   895.523E+03,   895.523E+03
C:/temp/Job-1.odb,Step-1,Increment      1: Step Time =    1.000,"P-1-1",          7020,   12.8757E-03,   108.536E-03,            0.,NA,NA,"",   798.626E+03,   892.119E+03,   892.119E+03
C:/temp/Job-1.odb,Step-1,Increment      1: Step Time =    1.000,"P-1-1",          7021,   80.1739E-03,   12.2405E-03,            0.,NA,NA,"",   973.655E+03,   975.141E+03,   975.141E+03
C:/temp/Job-1.odb,Step-1,Increment      1: Step Time =    1.000,"P-1-1",          7022,   12.1873E-03,   179.106E-03,            0.,NA,NA,"",   1.04724E+06,    1.1135E+06,    1.1135E+06
C:/temp/Job-1.odb,Step-1,Increment      1: Step Time =    1.000,"P-1-1",          7023,   187.891E-03,   50.8155E-03,            0.,NA,NA,"",   998.615E+03,   1.00351E+06,   1.00351E+06
C:/temp/Job-1.odb,Step-1,Increment      1: Step Time =    1.000,"P-1-1",          7024,   118.705E-03,   187.052E-03,            0.,NA,NA,"",   975.248E+03,   976.334E+03,   976.334E+03
C:/temp/Job-1.odb,Step-1,Increment      1: Step Time =    1.000,"P-1-1",          7025,   50.8108E-03,   12.5601E-03,            0.,NA,NA,"",   1.01436E+06,   1.01554E+06,   1.01554E+06
C:/temp/Job-1.odb,Step-1,Increment      1: Step Time =    1.000,"P-1-1",          7026,   33.9081E-03,   188.152E-03,            0.,NA,NA,"",   1.05173E+06,   1.05735E+06,   1.05735E+06
C:/temp/Job-1.odb,Step-1,Increment      1: Step Time =    1.000,"P-1-1",          7027,   12.6079E-03,   119.932E-03,            0.,NA,NA,"",   815.724E+03,   908.594E+03,   908.594E+03
C:/temp/Job-1.odb,Step-1,Increment      1: Step Time =    1.000,"P-1-1",          7028,   149.040E-03,   188.017E-03,            0.,NA,NA,"",   996.955E+03,   995.550E+03,   995.550E+03
C:/temp/Job-1.odb,Step-1,Increment      1: Step Time =    1.000,"P-1-1",          7029,   135.910E-03,   12.8375E-03,            0.,NA,NA,"",   990.240E+03,   989.169E+03,   989.169E+03
C:/temp/Job-1.odb,Step-1,Increment      1: Step Time =    1.000,"P-1-1",          7030,   187.901E-03,   136.202E-03,            0.,NA,NA,"",   991.302E+03,   1.00203E+06,   1.00203E+06
C:/temp/Job-1.odb,Step-1,Increment      1: Step Time =    1.000,"P-1-1",          7031,   187.988E-03,   90.3031E-03,            0.,NA,NA,"",   970.722E+03,   994.436E+03,   994.436E+03
C:/temp/Job-1.odb,Step-1,Increment      1: Step Time =    1.000,"P-1-1",          7032,   189.750E-03,   87.0042E-03,            0.,NA,NA,"",   972.051E+03,   996.407E+03,   996.407E+03
C:/temp/Job-1.odb,Step-1,Increment      1: Step Time =    1.000,"P-1-1",          7033,   12.5545E-03,   149.665E-03,            0.,NA,NA,"",   896.182E+03,   984.261E+03,   984.261E+03
C:/temp/Job-1.odb,Step-1,Increment      1: Step Time =    1.000,"P-1-1",          7034,   12.6879E-03,   64.3670E-03,            0.,NA,NA,"",   854.461E+03,   945.279E+03,   945.279E+03
C:/temp/Job-1.odb,Step-1,Increment      1: Step Time =    1.000,"P-1-1",          7035,   64.2718E-03,   187.724E-03,            0.,NA,NA,"",   993.370E+03,   993.786E+03,   993.786E+03
C:/temp/Job-1.odb,Step-1,Increment      1: Step Time =    1.000,"P-1-1",          7036,   107.204E-03,   12.6118E-03,            0.,NA,NA,"",   966.213E+03,   968.648E+03,   968.648E+03
C:/temp/Job-1.odb,Step-1,Increment      1: Step Time =    1.000,"P-1-1",          7037,   12.4840E-03,   93.4329E-03,            0.,NA,NA,"",   796.415E+03,   890.233E+03,   890.233E+03
C:/temp/Job-1.odb,Step-1,Increment      1: Step Time =    1.000,"P-1-1",          7038,   187.769E-03,   106.664E-03,            0.,NA,NA,"",   969.359E+03,   993.613E+03,   993.613E+03
C:/temp/Job-1.odb,Step-1,Increment      1: Step Time =    1.000,"P-1-1",          7039,   93.6447E-03,   187.604E-03,            0.,NA,NA,"",   964.590E+03,   967.211E+03,   967.211E+03
C:/temp/Job-1.odb,Step-1,Increment      1: Step Time =    1.000,"P-1-1",          7040,   80.3912E-03,   87.8517E-03,            0.,NA,NA,"",   1.11593E+06,   998.196E+03,   998.196E+03
C:/temp/Job-1.odb,Step-1,Increment      1: Step Time =    1.000,"P-1-1",          7041,   169.299E-03,   188.415E-03,            0.,NA,NA,"",   1.00082E+06,   1.00013E+06,   1.00013E+06
C:/temp/Job-1.odb,Step-1,Increment      1: Step Time =    1.000,"P-1-1",          7042,   30.8758E-03,   11.9982E-03,            0.,NA,NA,"",   1.06152E+06,   1.06899E+06,   1.06899E+06
C:/temp/Job-1.odb,Step-1,Increment      1: Step Time =    1.000,"P-1-1",          7043,   187.534E-03,   31.0367E-03,            0.,NA,NA,"",   1.00198E+06,   1.00244E+06,   1.00244E+06
C:/temp/Job-1.odb,Step-1,Increment      1: Step Time =    1.000,"P-1-1",          7044,   187.651E-03,   60.9087E-03,            0.,NA,NA,"",   993.582E+03,   1.00267E+06,   1.00267E+06
C:/temp/Job-1.odb,Step-1,Increment      1: Step Time =    1.000,"P-1-1",          7045,   60.5672E-03,   13.0560E-03,            0.,NA,NA,"",   1.00106E+06,   1.00157E+06,   1.00157E+06
C:/temp/Job-1.odb,Step-1,Increment      1: Step Time =    1.000,"P-1-1",          7046,   12.1522E-03,   169.550E-03,            0.,NA,NA,"",   978.002E+03,   1.05695E+06,   1.05695E+06
C:/temp/Job-1.odb,Step-1,Increment      1: Step Time =    1.000,"P-1-1",          7047,   139.020E-03,   186.995E-03,            0.,NA,NA,"",   992.936E+03,   991.628E+03,   991.628E+03
C:/temp/Job-1.odb,Step-1,Increment      1: Step Time =    1.000,"P-1-1",          7048,   12.0820E-03,   139.132E-03,            0.,NA,NA,"",   861.996E+03,   953.141E+03,   953.141E+03
C:/temp/Job-1.odb,Step-1,Increment      1: Step Time =    1.000,"P-1-1",          7049,   11.9159E-03,   37.6409E-03,            0.,NA,NA,"",   941.169E+03,   1.02573E+06,   1.02573E+06
C:/temp/Job-1.odb,Step-1,Increment      1: Step Time =    1.000,"P-1-1",          7050,   187.974E-03,   77.1576E-03,            0.,NA,NA,"",   980.196E+03,   998.294E+03,   998.294E+03
C:/temp/Job-1.odb,Step-1,Increment      1: Step Time =    1.000,"P-1-1",          7051,   188.220E-03,   162.725E-03,            0.,NA,NA,"",   1.00146E+06,   1.00285E+06,   1.00285E+06
C:/temp/Job-1.odb,Step-1,Increment      1: Step Time =    1.000,"P-1-1",          7052,   161.636E-03,   11.7385E-03,            0.,NA,NA,"",   1.00019E+06,   999.152E+03,   999.152E+03
C:/temp/Job-1.odb,Step-1,Increment      1: Step Time =    1.000,"P-1-1",          7053,   132.777E-03,   13.3146E-03,            0.,NA,NA,"",   988.750E+03,   987.940E+03,   987.940E+03
C:/temp/Job-1.odb,Step-1,Increment      1: Step Time =    1.000,"P-1-1",          7054,   187.744E-03,   47.6563E-03,            0.,NA,NA,"",   999.842E+03,   1.00363E+06,   1.00363E+06
C:/temp/Job-1.odb,Step-1,Increment      1: Step Time =    1.000,"P-1-1",          7055,   47.9624E-03,   13.0011E-03,            0.,NA,NA,"",   1.02096E+06,   1.02274E+06,   1.02274E+06
C:/temp/Job-1.odb,Step-1,Increment      1: Step Time =    1.000,"P-1-1",          7056,   189.270E-03,   133.018E-03,            0.,NA,NA,"",   987.626E+03,   1.00103E+06,   1.00103E+06
C:/temp/Job-1.odb,Step-1,Increment      1: Step Time =    1.000,"P-1-1",          7057,   152.232E-03,   187.781E-03,            0.,NA,NA,"",   998.539E+03,   997.110E+03,   997.110E+03
C:/temp/Job-1.odb,Step-1,Increment      1: Step Time =    1.000,"P-1-1",          7058,   77.3201E-03,   13.0363E-03,            0.,NA,NA,"",   979.374E+03,   980.734E+03,   980.734E+03
C:/temp/Job-1.odb,Step-1,Increment      1: Step Time =    1.000,"P-1-1",          7059,   13.3313E-03,   67.3103E-03,            0.,NA,NA,"",   848.431E+03,   938.853E+03,   938.853E+03
C:/temp/Job-1.odb,Step-1,Increment      1: Step Time =    1.000,"P-1-1",          7060,   66.6881E-03,   188.484E-03,            0.,NA,NA,"",   987.316E+03,   987.727E+03,   987.727E+03
C:/temp/Job-1.odb,Step-1,Increment      1: Step Time =    1.000,"P-1-1",          7061,   12.8901E-03,   152.779E-03,            0.,NA,NA,"",   908.242E+03,   994.746E+03,   994.746E+03
C:/temp/Job-1.odb,Step-1,Increment      1: Step Time =    1.000,"P-1-1",          7062,   36.9951E-03,   188.074E-03,            0.,NA,NA,"",   1.04248E+06,   1.04687E+06,   1.04687E+06
C:/temp/Job-1.odb,Step-1,Increment      1: Step Time =    1.000,"P-1-1",          7063,   123.212E-03,   188.081E-03,            0.,NA,NA,"",   976.585E+03,   976.979E+03,   976.979E+03
C:/temp/Job-1.odb,Step-1,Increment      1: Step Time =    1.000,"P-1-1",          7064,   12.8532E-03,   122.726E-03,            0.,NA,NA,"",   822.215E+03,   914.562E+03,   914.562E+03
C:/temp/Job-1.odb,Step-1,Increment      1: Step Time =    1.000,"P-1-1",          7065,   12.7460E-03,   31.6956E-03,            0.,NA,NA,"",   974.144E+03,   1.05249E+06,   1.05249E+06
C:/temp/Job-1.odb,Step-1,Increment      1: Step Time =    1.000,"P-1-1",          7066,   182.358E-03,   187.943E-03,            0.,NA,NA,"",   1.00049E+06,   1.00032E+06,   1.00032E+06
C:/temp/Job-1.odb,Step-1,Increment      1: Step Time =    1.000,"P-1-1",          7067,   18.1263E-03,   12.2112E-03,            0.,NA,NA,"",   1.11788E+06,   1.14145E+06,   1.14145E+06
C:/temp/Job-1.odb,Step-1,Increment      1: Step Time =    1.000,"P-1-1",          7068,   188.008E-03,   84.2083E-03,            0.,NA,NA,"",   974.616E+03,   996.124E+03,   996.124E+03
C:/temp/Job-1.odb,Step-1,Increment      1: Step Time =    1.000,"P-1-1",          7069,   187.159E-03,   168.000E-03,            0.,NA,NA,"",   1.00223E+06,   1.00274E+06,   1.00274E+06
C:/temp/Job-1.odb,Step-1,Increment      1: Step Time =    1.000,"P-1-1",          7070,   167.909E-03,   12.7024E-03,            0.,NA,NA,"",   1.00144E+06,   1.00056E+06,   1.00056E+06
C:/temp/Job-1.odb,Step-1,Increment      1: Step Time =    1.000,"P-1-1",          7071,   138.728E-03,   12.7333E-03,            0.,NA,NA,"",   992.171E+03,   990.923E+03,   990.923E+03
C:/temp/Job-1.odb,Step-1,Increment      1: Step Time =    1.000,"P-1-1",          7072,   187.148E-03,   138.064E-03,            0.,NA,NA,"",   993.272E+03,   1.00264E+06,   1.00264E+06
C:/temp/Job-1.odb,Step-1,Increment      1: Step Time =    1.000,"P-1-1",          7073,   82.6157E-03,   12.1705E-03,            0.,NA,NA,"",   971.104E+03,   972.805E+03,   972.805E+03
C:/temp/Job-1.odb,Step-1,Increment      1: Step Time =    1.000,"P-1-1",          7074,   113.174E-03,   12.1893E-03,            0.,NA,NA,"",   968.599E+03,   970.279E+03,   970.279E+03
C:/temp/Job-1.odb,Step-1,Increment      1: Step Time =    1.000,"P-1-1",          7075,   31.6854E-03,   188.121E-03,            0.,NA,NA,"",   1.05852E+06,   1.06538E+06,   1.06538E+06
C:/temp/Job-1.odb,Step-1,Increment      1: Step Time =    1.000,"P-1-1",          7076,   12.5744E-03,   61.7597E-03,            0.,NA,NA,"",   861.625E+03,   952.071E+03,   952.071E+03
C:/temp/Job-1.odb,Step-1,Increment      1: Step Time =    1.000,"P-1-1",          7077,   61.0869E-03,   186.513E-03,            0.,NA,NA,"",   1.00161E+06,   1.00215E+06,   1.00215E+06
C:/temp/Job-1.odb,Step-1,Increment      1: Step Time =    1.000,"P-1-1",          7078,   116.016E-03,   187.854E-03,            0.,NA,NA,"",   970.795E+03,   972.191E+03,   972.191E+03
C:/temp/Job-1.odb,Step-1,Increment      1: Step Time =    1.000,"P-1-1",          7079,   88.1073E-03,   187.223E-03,            0.,NA,NA,"",   968.699E+03,   971.077E+03,   971.077E+03
C:/temp/Job-1.odb,Step-1,Increment      1: Step Time =    1.000,"P-1-1",          7080,   187.853E-03,   113.030E-03,            0.,NA,NA,"",   972.595E+03,   995.072E+03,   995.072E+03
C:/temp/Job-1.odb,Step-1,Increment      1: Step Time =    1.000,"P-1-1",          7081,   12.5469E-03,   117.368E-03,            0.,NA,NA,"",   810.673E+03,   903.800E+03,   903.800E+03
C:/temp/Job-1.odb,Step-1,Increment      1: Step Time =    1.000,"P-1-1",          7082,   129.246E-03,   12.0744E-03,            0.,NA,NA,"",   982.713E+03,   982.392E+03,   982.392E+03
C:/temp/Job-1.odb,Step-1,Increment      1: Step Time =    1.000,"P-1-1",          7083,   187.871E-03,   129.502E-03,            0.,NA,NA,"",   985.957E+03,   1.00033E+06,   1.00033E+06
C:/temp/Job-1.odb,Step-1,Increment      1: Step Time =    1.000,"P-1-1",          7084,   12.4488E-03,   70.5725E-03,            0.,NA,NA,"",   836.999E+03,   929.058E+03,   929.058E+03
C:/temp/Job-1.odb,Step-1,Increment      1: Step Time =    1.000,"P-1-1",          7085,   70.5224E-03,   188.001E-03,            0.,NA,NA,"",   983.789E+03,   984.423E+03,   984.423E+03
C:/temp/Job-1.odb,Step-1,Increment      1: Step Time =    1.000,"P-1-1",          7086,   188.561E-03,   18.5925E-03,            0.,NA,NA,"",   1.00079E+06,   1.00072E+06,   1.00072E+06
C:/temp/Job-1.odb,Step-1,Increment      1: Step Time =    1.000,"P-1-1",          7087,   11.1398E-03,   182.420E-03,            0.,NA,NA,"",   1.07573E+06,   1.13908E+06,   1.13908E+06
C:/temp/Job-1.odb,Step-1,Increment      1: Step Time =    1.000,"P-1-1",          7088,   155.861E-03,   187.460E-03,            0.,NA,NA,"",   1.00004E+06,   998.626E+03,   998.626E+03
C:/temp/Job-1.odb,Step-1,Increment      1: Step Time =    1.000,"P-1-1",          7089,   187.465E-03,   44.0973E-03,            0.,NA,NA,"",   1.00102E+06,   1.00370E+06,   1.00370E+06
C:/temp/Job-1.odb,Step-1,Increment      1: Step Time =    1.000,"P-1-1",          7090,   44.8334E-03,   12.1146E-03,            0.,NA,NA,"",   1.02437E+06,   1.02654E+06,   1.02654E+06
C:/temp/Job-1.odb,Step-1,Increment      1: Step Time =    1.000,"P-1-1",          7091,   11.6590E-03,   156.182E-03,            0.,NA,NA,"",   915.049E+03,   1.00278E+06,   1.00278E+06
C:/temp/Job-1.odb,Step-1,Increment      1: Step Time =    1.000,"P-1-1",          7092,   103.687E-03,   12.9323E-03,            0.,NA,NA,"",   965.656E+03,   968.472E+03,   968.472E+03
C:/temp/Job-1.odb,Step-1,Increment      1: Step Time =    1.000,"P-1-1",          7093,   12.1348E-03,   96.3490E-03,            0.,NA,NA,"",   794.109E+03,   888.267E+03,   888.267E+03
C:/temp/Job-1.odb,Step-1,Increment      1: Step Time =    1.000,"P-1-1",          7094,   187.983E-03,   103.405E-03,            0.,NA,NA,"",   968.422E+03,   993.384E+03,   993.384E+03
C:/temp/Job-1.odb,Step-1,Increment      1: Step Time =    1.000,"P-1-1",          7095,   96.7237E-03,   187.806E-03,            0.,NA,NA,"",   963.211E+03,   965.867E+03,   965.867E+03
C:/temp/Job-1.odb,Step-1,Increment      1: Step Time =    1.000,"P-1-1",          7096,   191.873E-03,   97.7042E-03,            0.,NA,NA,"",   967.577E+03,   996.826E+03,   996.826E+03
C:/temp/Job-1.odb,Step-1,Increment      1: Step Time =    1.000,"P-1-1",          7097,   102.344E-03,   191.656E-03,            0.,NA,NA,"",   951.255E+03,   952.487E+03,   952.487E+03
C:/temp/Job-1.odb,Step-1,Increment      1: Step Time =    1.000,"P-1-1",          7098,   8.59975E-03,   102.683E-03,            0.,NA,NA,"",   788.037E+03,   884.687E+03,   884.687E+03
C:/temp/Job-1.odb,Step-1,Increment      1: Step Time =    1.000,"P-1-1",          7099,   97.0086E-03,   8.72244E-03,            0.,NA,NA,"",   952.139E+03,   953.527E+03,   953.527E+03
C:/temp/Job-1.odb,Step-1,Increment      1: Step Time =    1.000,"P-1-1",          7100,   87.0523E-03,   121.797E-03,            0.,NA,NA,"",   1.31408E+06,   1.30579E+06,   1.30579E+06
C:/temp/Job-1.odb,Step-1,Increment      1: Step Time =    1.000,"P-1-1",          7101,   10.3507E-03,   19.2064E-03,            0.,NA,NA,"",   1.05525E+06,   1.12569E+06,   1.12569E+06
C:/temp/Job-1.odb,Step-1,Increment      1: Step Time =    1.000,"P-1-1",          7102,   189.316E-03,   182.212E-03,            0.,NA,NA,"",   1.00063E+06,   1.00057E+06,   1.00057E+06
C:/temp/Job-1.odb,Step-1,Increment      1: Step Time =    1.000,"P-1-1",          7103,   181.038E-03,   10.7641E-03,            0.,NA,NA,"",   1.00027E+06,   1.00011E+06,   1.00011E+06
C:/temp/Job-1.odb,Step-1,Increment      1: Step Time =    1.000,"P-1-1",          7104,   18.5850E-03,   189.075E-03,            0.,NA,NA,"",   1.12005E+06,   1.13898E+06,   1.13898E+06
C:/temp/Job-1.odb,Step-1,Increment      1: Step Time =    1.000,"P-1-1",          7105,   95.6599E-03,   11.1964E-03,            0.,NA,NA,"",   960.454E+03,   962.699E+03,   962.699E+03
C:/temp/Job-1.odb,Step-1,Increment      1: Step Time =    1.000,"P-1-1",          7106,   11.2459E-03,   103.801E-03,            0.,NA,NA,"",   792.717E+03,   887.537E+03,   887.537E+03
C:/temp/Job-1.odb,Step-1,Increment      1: Step Time =    1.000,"P-1-1",          7107,   105.342E-03,   188.723E-03,            0.,NA,NA,"",   961.635E+03,   963.792E+03,   963.792E+03
C:/temp/Job-1.odb,Step-1,Increment      1: Step Time =    1.000,"P-1-1",          7108,   189.089E-03,   95.4766E-03,            0.,NA,NA,"",   968.579E+03,   994.501E+03,   994.501E+03
C:/temp/Job-1.odb,Step-1,Increment      1: Step Time =    1.000,"P-1-1",          7109,   7.41986E-03,   17.5128E-03,            0.,NA,NA,"",   1.05806E+06,   1.13861E+06,   1.13861E+06
C:/temp/Job-1.odb,Step-1,Increment      1: Step Time =    1.000,"P-1-1",          7110,   192.474E-03,   183.129E-03,            0.,NA,NA,"",   1.00034E+06,   1.00025E+06,   1.00025E+06
C:/temp/Job-1.odb,Step-1,Increment      1: Step Time =    1.000,"P-1-1",          7111,   188.647E-03,   66.8257E-03,            0.,NA,NA,"",   988.335E+03,   1.00122E+06,   1.00122E+06
C:/temp/Job-1.odb,Step-1,Increment      1: Step Time =    1.000,"P-1-1",          7112,   65.4499E-03,   11.2404E-03,            0.,NA,NA,"",   987.709E+03,   988.023E+03,   988.023E+03
C:/temp/Job-1.odb,Step-1,Increment      1: Step Time =    1.000,"P-1-1",          7113,   133.221E-03,   188.795E-03,            0.,NA,NA,"",   984.522E+03,   983.869E+03,   983.869E+03
C:/temp/Job-1.odb,Step-1,Increment      1: Step Time =    1.000,"P-1-1",          7114,   11.1949E-03,   134.592E-03,            0.,NA,NA,"",   846.549E+03,   939.531E+03,   939.531E+03
C:/temp/Job-1.odb,Step-1,Increment      1: Step Time =    1.000,"P-1-1",          7115,   17.2700E-03,   192.310E-03,            0.,NA,NA,"",   1.13615E+06,   1.14810E+06,   1.14810E+06
C:/temp/Job-1.odb,Step-1,Increment      1: Step Time =    1.000,"P-1-1",          7116,   182.604E-03,   7.57221E-03,            0.,NA,NA,"",   999.714E+03,   999.648E+03,   999.648E+03
C:/temp/Job-1.odb,Step-1,Increment      1: Step Time =    1.000,"P-1-1",          7117,   73.0673E-03,   101.046E-03,            0.,NA,NA,"",   518.718E+03,   553.597E+03,   553.597E+03
C:/temp/Job-1.odb,Step-1,Increment      1: Step Time =    1.000,"P-1-1",          7118,   127.265E-03,   99.7711E-03,            0.,NA,NA,"",   556.582E+03,   570.939E+03,   570.939E+03
C:/temp/Job-1.odb,Step-1,Increment      1: Step Time =    1.000,"P-1-1",          7119,   123.877E-03,   96.1282E-03,            0.,NA,NA,"",   574.013E+03,   550.703E+03,   550.703E+03
C:/temp/Job-1.odb,Step-1,Increment      1: Step Time =    1.000,"P-1-1",          7120,   83.8852E-03,   118.838E-03,            0.,NA,NA,"",   1.31825E+06,   1.25515E+06,   1.25515E+06
C:/temp/Job-1.odb,Step-1,Increment      1: Step Time =    1.000,"P-1-1",          7121,   114.889E-03,   119.559E-03,            0.,NA,NA,"",   1.35289E+06,   1.29176E+06,   1.29176E+06
C:/temp/Job-1.odb,Step-1,Increment      1: Step Time =    1.000,"P-1-1",          7122,   72.6056E-03,   104.465E-03,            0.,NA,NA,"",   621.425E+03,   639.189E+03,   639.189E+03
C:/temp/Job-1.odb,Step-1,Increment      1: Step Time =    1.000,"P-1-1",          7123,   125.991E-03,   103.013E-03,            0.,NA,NA,"",   572.636E+03,   571.894E+03,   571.894E+03
C:/temp/Job-1.odb,Step-1,Increment      1: Step Time =    1.000,"P-1-1",          7124,   110.381E-03,   123.028E-03,            0.,NA,NA,"",   1.28862E+06,   1.31580E+06,   1.31580E+06
C:/temp/Job-1.odb,Step-1,Increment      1: Step Time =    1.000,"P-1-1",          7125,   87.7126E-03,   123.123E-03,            0.,NA,NA,"",   1.28802E+06,   1.29554E+06,   1.29554E+06
C:/temp/Job-1.odb,Step-1,Increment      1: Step Time =    1.000,"P-1-1",          7126,   77.9069E-03,   89.8482E-03,            0.,NA,NA,"",   947.087E+03,   860.740E+03,   860.740E+03
C:/temp/Job-1.odb,Step-1,Increment      1: Step Time =    1.000,"P-1-1",          7127,   75.1760E-03,   96.4404E-03,            0.,NA,NA,"",   547.134E+03,   557.809E+03,   557.809E+03
C:/temp/Job-1.odb,Step-1,Increment      1: Step Time =    1.000,"P-1-1",          7128,   10.8818E-03,   12.9924E-03,            0.,NA,NA,"",   1.13243E+06,   1.18296E+06,   1.18296E+06
C:/temp/Job-1.odb,Step-1,Increment      1: Step Time =    1.000,"P-1-1",          7129,   189.892E-03,   187.402E-03,            0.,NA,NA,"",   1.00019E+06,   1.00012E+06,   1.00012E+06
C:/temp/Job-1.odb,Step-1,Increment      1: Step Time =    1.000,"P-1-1",          7130,   13.0888E-03,   189.613E-03,            0.,NA,NA,"",   1.15773E+06,   1.18871E+06,   1.18871E+06
C:/temp/Job-1.odb,Step-1,Increment      1: Step Time =    1.000,"P-1-1",          7131,   186.965E-03,   10.4317E-03,            0.,NA,NA,"",   1.00007E+06,   1.00000E+06,   1.00000E+06
C:/temp/Job-1.odb,Step-1,Increment      1: Step Time =    1.000,"P-1-1",          7132,   100.893E-03,   125.175E-03,            0.,NA,NA,"",   1.14706E+06,   1.26214E+06,   1.26214E+06
C:/temp/Job-1.odb,Step-1,Increment      1: Step Time =    1.000,"P-1-1",          7133,   126.489E-03,   106.678E-03,            0.,NA,NA,"",   753.383E+03,   717.498E+03,   717.498E+03
C:/temp/Job-1.odb,Step-1,Increment      1: Step Time =    1.000,"P-1-1",          7134,   82.3627E-03,   88.4037E-03,            0.,NA,NA,"",   1.15063E+06,   1.01423E+06,   1.01423E+06
C:/temp/Job-1.odb,Step-1,Increment      1: Step Time =    1.000,"P-1-1",          7135,   122.823E-03,   111.714E-03,            0.,NA,NA,"",   1.04993E+06,   941.158E+03,   941.158E+03
C:/temp/Job-1.odb,Step-1,Increment      1: Step Time =    1.000,"P-1-1",          7136,   12.6724E-03,   101.852E-03,            0.,NA,NA,"",   794.421E+03,   888.170E+03,   888.170E+03
C:/temp/Job-1.odb,Step-1,Increment      1: Step Time =    1.000,"P-1-1",          7137,   97.4238E-03,   12.8866E-03,            0.,NA,NA,"",   965.031E+03,   967.943E+03,   967.943E+03
C:/temp/Job-1.odb,Step-1,Increment      1: Step Time =    1.000,"P-1-1",          7138,   100.913E-03,   188.379E-03,            0.,NA,NA,"",   961.529E+03,   963.899E+03,   963.899E+03
C:/temp/Job-1.odb,Step-1,Increment      1: Step Time =    1.000,"P-1-1",          7139,   188.593E-03,   98.9670E-03,            0.,NA,NA,"",   968.278E+03,   993.990E+03,   993.990E+03
C:/temp/Job-1.odb,Step-1,Increment      1: Step Time =    1.000,"P-1-1",          7140,   11.6038E-03,   185.544E-03,            0.,NA,NA,"",   1.11273E+06,   1.16548E+06,   1.16548E+06
C:/temp/Job-1.odb,Step-1,Increment      1: Step Time =    1.000,"P-1-1",          7141,   188.729E-03,   16.3562E-03,            0.,NA,NA,"",   1.00055E+06,   1.00048E+06,   1.00048E+06
C:/temp/Job-1.odb,Step-1,Increment      1: Step Time =    1.000,"P-1-1",          7142,   15.5974E-03,   11.3507E-03,            0.,NA,NA,"",   1.13771E+06,   1.16432E+06,   1.16432E+06
C:/temp/Job-1.odb,Step-1,Increment      1: Step Time =    1.000,"P-1-1",          7143,   185.466E-03,   188.020E-03,            0.,NA,NA,"",   1.00031E+06,   1.00021E+06,   1.00021E+06
C:/temp/Job-1.odb,Step-1,Increment      1: Step Time =    1.000,"P-1-1",          7144,   187.778E-03,   28.5869E-03,            0.,NA,NA,"",   1.00178E+06,   1.00207E+06,   1.00207E+06
C:/temp/Job-1.odb,Step-1,Increment      1: Step Time =    1.000,"P-1-1",          7145,   12.7191E-03,   142.281E-03,            0.,NA,NA,"",   874.189E+03,   963.680E+03,   963.680E+03
C:/temp/Job-1.odb,Step-1,Increment      1: Step Time =    1.000,"P-1-1",          7146,   141.319E-03,   188.164E-03,            0.,NA,NA,"",   992.269E+03,   991.050E+03,   991.050E+03
C:/temp/Job-1.odb,Step-1,Increment      1: Step Time =    1.000,"P-1-1",          7147,   57.5329E-03,   12.1745E-03,            0.,NA,NA,"",   1.00248E+06,   1.00299E+06,   1.00299E+06
C:/temp/Job-1.odb,Step-1,Increment      1: Step Time =    1.000,"P-1-1",          7148,   187.985E-03,   59.6074E-03,            0.,NA,NA,"",   993.966E+03,   1.00271E+06,   1.00271E+06
C:/temp/Job-1.odb,Step-1,Increment      1: Step Time =    1.000,"P-1-1",          7149,   28.1015E-03,   12.2489E-03,            0.,NA,NA,"",   1.07245E+06,   1.08227E+06,   1.08227E+06
C:/temp/Job-1.odb,Step-1,Increment      1: Step Time =    1.000,"P-1-1",          7150,   13.0745E-03,   132.009E-03,            0.,NA,NA,"",   845.751E+03,   936.660E+03,   936.660E+03
C:/temp/Job-1.odb,Step-1,Increment      1: Step Time =    1.000,"P-1-1",          7151,   131.999E-03,   187.827E-03,            0.,NA,NA,"",   985.486E+03,   984.856E+03,   984.856E+03
C:/temp/Job-1.odb,Step-1,Increment      1: Step Time =    1.000,"P-1-1",          7152,   68.4462E-03,   12.9354E-03,            0.,NA,NA,"",   989.567E+03,   990.140E+03,   990.140E+03
C:/temp/Job-1.odb,Step-1,Increment      1: Step Time =    1.000,"P-1-1",          7153,   187.634E-03,   68.0818E-03,            0.,NA,NA,"",   988.191E+03,   1.00108E+06,   1.00108E+06
C:/temp/Job-1.odb,Step-1,Increment      1: Step Time =    1.000,"P-1-1",          7154,   171.049E-03,   188.619E-03,            0.,NA,NA,"",   1.00073E+06,   1.00015E+06,   1.00015E+06
C:/temp/Job-1.odb,Step-1,Increment      1: Step Time =    1.000,"P-1-1",          7155,   100.055E-03,   187.223E-03,            0.,NA,NA,"",   964.909E+03,   967.735E+03,   967.735E+03
C:/temp/Job-1.odb,Step-1,Increment      1: Step Time =    1.000,"P-1-1",          7156,   187.403E-03,   99.9330E-03,            0.,NA,NA,"",   968.178E+03,   992.746E+03,   992.746E+03
C:/temp/Job-1.odb,Step-1,Increment      1: Step Time =    1.000,"P-1-1",          7157,   12.3027E-03,   98.8918E-03,            0.,NA,NA,"",   793.689E+03,   887.735E+03,   887.735E+03
C:/temp/Job-1.odb,Step-1,Increment      1: Step Time =    1.000,"P-1-1",          7158,   100.509E-03,   13.0592E-03,            0.,NA,NA,"",   965.530E+03,   968.499E+03,   968.499E+03
C:/temp/Job-1.odb,Step-1,Increment      1: Step Time =    1.000,"P-1-1",          7159,   18.6602E-03,   190.624E-03,            0.,NA,NA,"",   1.12330E+06,   1.13785E+06,   1.13785E+06
C:/temp/Job-1.odb,Step-1,Increment      1: Step Time =    1.000,"P-1-1",          7160,   181.076E-03,   9.18639E-03,            0.,NA,NA,"",   999.958E+03,   999.835E+03,   999.835E+03
C:/temp/Job-1.odb,Step-1,Increment      1: Step Time =    1.000,"P-1-1",          7161,   192.171E-03,   96.2854E-03,            0.,NA,NA,"",   967.565E+03,   996.908E+03,   996.908E+03
C:/temp/Job-1.odb,Step-1,Increment      1: Step Time =    1.000,"P-1-1",          7162,   103.838E-03,   191.977E-03,            0.,NA,NA,"",   950.897E+03,   952.083E+03,   952.083E+03
C:/temp/Job-1.odb,Step-1,Increment      1: Step Time =    1.000,"P-1-1",          7163,   190.755E-03,   181.874E-03,            0.,NA,NA,"",   1.00051E+06,   1.00045E+06,   1.00045E+06
C:/temp/Job-1.odb,Step-1,Increment      1: Step Time =    1.000,"P-1-1",          7164,   8.88841E-03,   19.1116E-03,            0.,NA,NA,"",   1.04877E+06,   1.12533E+06,   1.12533E+06
C:/temp/Job-1.odb,Step-1,Increment      1: Step Time =    1.000,"P-1-1",          7165,   89.7726E-03,   124.123E-03,            0.,NA,NA,"",   1.25605E+06,   1.29359E+06,   1.29359E+06
C:/temp/Job-1.odb,Step-1,Increment      1: Step Time =    1.000,"P-1-1",          7166,   109.736E-03,   124.054E-03,            0.,NA,NA,"",   1.26007E+06,   1.29862E+06,   1.29862E+06
C:/temp/Job-1.odb,Step-1,Increment      1: Step Time =    1.000,"P-1-1",          7167,   193.453E-03,   96.6255E-03,            0.,NA,NA,"",   966.878E+03,   997.796E+03,   997.796E+03
C:/temp/Job-1.odb,Step-1,Increment      1: Step Time =    1.000,"P-1-1",          7168,   103.453E-03,   193.304E-03,            0.,NA,NA,"",   946.377E+03,   947.215E+03,   947.215E+03
C:/temp/Job-1.odb,Step-1,Increment      1: Step Time =    1.000,"P-1-1",          7169,   124.011E-03,   109.981E-03,            0.,NA,NA,"",   943.536E+03,   854.582E+03,   854.582E+03
C:/temp/Job-1.odb,Step-1,Increment      1: Step Time =    1.000,"P-1-1",          7170,   122.881E-03,   94.3320E-03,            0.,NA,NA,"",   682.776E+03,   622.920E+03,   622.920E+03
C:/temp/Job-1.odb,Step-1,Increment      1: Step Time =    1.000,"P-1-1",          7171,   80.3319E-03,   86.1359E-03,            0.,NA,NA,"",   1.17122E+06,   1.06511E+06,   1.06511E+06
C:/temp/Job-1.odb,Step-1,Increment      1: Step Time =    1.000,"P-1-1",          7172,   116.842E-03,   118.694E-03,            0.,NA,NA,"",   1.33011E+06,   1.24306E+06,   1.24306E+06
C:/temp/Job-1.odb,Step-1,Increment      1: Step Time =    1.000,"P-1-1",          7173,   102.530E-03,   126.032E-03,            0.,NA,NA,"",   1.13705E+06,   1.24386E+06,   1.24386E+06
C:/temp/Job-1.odb,Step-1,Increment      1: Step Time =    1.000,"P-1-1",          7174,   13.8801E-03,   133.218E-03,            0.,NA,NA,"",   851.568E+03,   941.245E+03,   941.245E+03
C:/temp/Job-1.odb,Step-1,Increment      1: Step Time =    1.000,"P-1-1",          7175,   131.621E-03,   185.970E-03,            0.,NA,NA,"",   989.397E+03,   988.648E+03,   988.648E+03
C:/temp/Job-1.odb,Step-1,Increment      1: Step Time =    1.000,"P-1-1",          7176,   186.405E-03,   67.3417E-03,            0.,NA,NA,"",   989.846E+03,   1.00149E+06,   1.00149E+06
C:/temp/Job-1.odb,Step-1,Increment      1: Step Time =    1.000,"P-1-1",          7177,   67.2936E-03,   14.0436E-03,            0.,NA,NA,"",   994.778E+03,   995.462E+03,   995.462E+03
C:/temp/Job-1.odb,Step-1,Increment      1: Step Time =    1.000,"P-1-1",          7178,   76.8449E-03,   112.323E-03,            0.,NA,NA,"",   1.02385E+06,   946.143E+03,   946.143E+03
C:/temp/Job-1.odb,Step-1,Increment      1: Step Time =    1.000,"P-1-1",          7179,   141.948E-03,   11.3999E-03,            0.,NA,NA,"",   992.040E+03,   990.857E+03,   990.857E+03
C:/temp/Job-1.odb,Step-1,Increment      1: Step Time =    1.000,"P-1-1",          7180,   189.563E-03,   143.034E-03,            0.,NA,NA,"",   994.058E+03,   1.00234E+06,   1.00234E+06
C:/temp/Job-1.odb,Step-1,Increment      1: Step Time =    1.000,"P-1-1",          7181,   11.7435E-03,   58.2095E-03,            0.,NA,NA,"",   868.782E+03,   959.879E+03,   959.879E+03
C:/temp/Job-1.odb,Step-1,Increment      1: Step Time =    1.000,"P-1-1",          7182,   58.7788E-03,   188.618E-03,            0.,NA,NA,"",   997.866E+03,   998.230E+03,   998.230E+03
C:/temp/Job-1.odb,Step-1,Increment      1: Step Time =    1.000,"P-1-1",          7183,   189.676E-03,   171.308E-03,            0.,NA,NA,"",   1.00111E+06,   1.00152E+06,   1.00152E+06
C:/temp/Job-1.odb,Step-1,Increment      1: Step Time =    1.000,"P-1-1",          7184,   171.000E-03,   11.4975E-03,            0.,NA,NA,"",   1.00080E+06,   1.00020E+06,   1.00020E+06
C:/temp/Job-1.odb,Step-1,Increment      1: Step Time =    1.000,"P-1-1",          7185,   29.4804E-03,   189.435E-03,            0.,NA,NA,"",   1.06379E+06,   1.07036E+06,   1.07036E+06
C:/temp/Job-1.odb,Step-1,Increment      1: Step Time =    1.000,"P-1-1",          7186,   190.184E-03,   86.0670E-03,            0.,NA,NA,"",   972.381E+03,   996.807E+03,   996.807E+03
C:/temp/Job-1.odb,Step-1,Increment      1: Step Time =    1.000,"P-1-1",          7187,   118.277E-03,   116.228E-03,            0.,NA,NA,"",   1.29222E+06,   1.17588E+06,   1.17588E+06
C:/temp/Job-1.odb,Step-1,Increment      1: Step Time =    1.000,"P-1-1",          7188,   85.7724E-03,   11.1817E-03,            0.,NA,NA,"",   965.130E+03,   966.854E+03,   966.854E+03
C:/temp/Job-1.odb,Step-1,Increment      1: Step Time =    1.000,"P-1-1",          7189,   113.659E-03,   189.391E-03,            0.,NA,NA,"",   964.699E+03,   965.971E+03,   965.971E+03
C:/temp/Job-1.odb,Step-1,Increment      1: Step Time =    1.000,"P-1-1",          7190,   11.7108E-03,   114.208E-03,            0.,NA,NA,"",   803.778E+03,   897.862E+03,   897.862E+03
C:/temp/Job-1.odb,Step-1,Increment      1: Step Time =    1.000,"P-1-1",          7191,   125.421E-03,   109.819E-03,            0.,NA,NA,"",   913.302E+03,   841.289E+03,   841.289E+03
C:/temp/Job-1.odb,Step-1,Increment      1: Step Time =    1.000,"P-1-1",          7192,   14.2465E-03,   143.157E-03,            0.,NA,NA,"",   881.742E+03,   968.744E+03,   968.744E+03
C:/temp/Job-1.odb,Step-1,Increment      1: Step Time =    1.000,"P-1-1",          7193,   141.307E-03,   186.881E-03,            0.,NA,NA,"",   994.610E+03,   993.145E+03,   993.145E+03
C:/temp/Job-1.odb,Step-1,Increment      1: Step Time =    1.000,"P-1-1",          7194,   57.4709E-03,   13.5773E-03,            0.,NA,NA,"",   1.00698E+06,   1.00767E+06,   1.00767E+06
C:/temp/Job-1.odb,Step-1,Increment      1: Step Time =    1.000,"P-1-1",          7195,   185.867E-03,   58.0812E-03,            0.,NA,NA,"",   996.946E+03,   1.00385E+06,   1.00385E+06
C:/temp/Job-1.odb,Step-1,Increment      1: Step Time =    1.000,"P-1-1",          7196,   13.9990E-03,   172.098E-03,            0.,NA,NA,"",   1.00239E+06,   1.07309E+06,   1.07309E+06
C:/temp/Job-1.odb,Step-1,Increment      1: Step Time =    1.000,"P-1-1",          7197,   186.852E-03,   27.6477E-03,            0.,NA,NA,"",   1.00205E+06,   1.00221E+06,   1.00221E+06
C:/temp/Job-1.odb,Step-1,Increment      1: Step Time =    1.000,"P-1-1",          7198,   28.3797E-03,   13.7615E-03,            0.,NA,NA,"",   1.07178E+06,   1.08340E+06,   1.08340E+06
C:/temp/Job-1.odb,Step-1,Increment      1: Step Time =    1.000,"P-1-1",          7199,   171.441E-03,   186.687E-03,            0.,NA,NA,"",   1.00171E+06,   1.00096E+06,   1.00096E+06
C:/temp/Job-1.odb,Step-1,Increment      1: Step Time =    1.000,"P-1-1",          7200,   12.7092E-03,   83.3155E-03,            0.,NA,NA,"",   809.802E+03,   902.858E+03,   902.858E+03
C:/temp/Job-1.odb,Step-1,Increment      1: Step Time =    1.000,"P-1-1",          7201,   188.640E-03,   117.303E-03,            0.,NA,NA,"",    975.26E+03,   996.839E+03,   996.839E+03
C:/temp/Job-1.odb,Step-1,Increment      1: Step Time =    1.000,"P-1-1",          7202,   83.6274E-03,   189.220E-03,            0.,NA,NA,"",   965.601E+03,   967.024E+03,   967.024E+03
C:/temp/Job-1.odb,Step-1,Increment      1: Step Time =    1.000,"P-1-1",          7203,   162.691E-03,   187.350E-03,            0.,NA,NA,"",   1.00115E+06,   1.00001E+06,   1.00001E+06
C:/temp/Job-1.odb,Step-1,Increment      1: Step Time =    1.000,"P-1-1",          7204,   122.807E-03,   12.7957E-03,            0.,NA,NA,"",   978.381E+03,   978.860E+03,   978.860E+03
C:/temp/Job-1.odb,Step-1,Increment      1: Step Time =    1.000,"P-1-1",          7205,   37.3623E-03,   13.3908E-03,            0.,NA,NA,"",   1.04478E+06,   1.05017E+06,   1.05017E+06
C:/temp/Job-1.odb,Step-1,Increment      1: Step Time =    1.000,"P-1-1",          7206,   187.340E-03,   37.4058E-03,            0.,NA,NA,"",   1.00195E+06,   1.00322E+06,   1.00322E+06
C:/temp/Job-1.odb,Step-1,Increment      1: Step Time =    1.000,"P-1-1",          7207,   187.439E-03,   122.596E-03,            0.,NA,NA,"",   980.416E+03,   998.120E+03,   998.120E+03
C:/temp/Job-1.odb,Step-1,Increment      1: Step Time =    1.000,"P-1-1",          7208,   155.177E-03,   12.7170E-03,            0.,NA,NA,"",   1.00000E+06,   998.543E+03,   998.543E+03
C:/temp/Job-1.odb,Step-1,Increment      1: Step Time =    1.000,"P-1-1",          7209,   11.8863E-03,   76.2839E-03,            0.,NA,NA,"",   822.045E+03,   915.288E+03,   915.288E+03
C:/temp/Job-1.odb,Step-1,Increment      1: Step Time =    1.000,"P-1-1",          7210,   186.842E-03,   153.004E-03,            0.,NA,NA,"",   1.00077E+06,   1.00409E+06,   1.00409E+06
C:/temp/Job-1.odb,Step-1,Increment      1: Step Time =    1.000,"P-1-1",          7211,   12.1878E-03,   47.4014E-03,            0.,NA,NA,"",   904.333E+03,   992.301E+03,   992.301E+03
C:/temp/Job-1.odb,Step-1,Increment      1: Step Time =    1.000,"P-1-1",          7212,   77.1176E-03,   187.589E-03,            0.,NA,NA,"",   977.748E+03,   978.946E+03,   978.946E+03
C:/temp/Job-1.odb,Step-1,Increment      1: Step Time =    1.000,"P-1-1",          7213,   12.6282E-03,   161.717E-03,            0.,NA,NA,"",   941.623E+03,   1.02481E+06,   1.02481E+06
C:/temp/Job-1.odb,Step-1,Increment      1: Step Time =    1.000,"P-1-1",          7214,   46.6991E-03,   187.770E-03,            0.,NA,NA,"",   1.02089E+06,   1.02268E+06,   1.02268E+06
C:/temp/Job-1.odb,Step-1,Increment      1: Step Time =    1.000,"P-1-1",          7215,   12.6209E-03,   28.0755E-03,            0.,NA,NA,"",   994.937E+03,   1.07013E+06,   1.07013E+06
C:/temp/Job-1.odb,Step-1,Increment      1: Step Time =    1.000,"P-1-1",          7216,   187.975E-03,   172.442E-03,            0.,NA,NA,"",   1.00165E+06,   1.00189E+06,   1.00189E+06
C:/temp/Job-1.odb,Step-1,Increment      1: Step Time =    1.000,"P-1-1",          7217,   172.436E-03,   12.4619E-03,            0.,NA,NA,"",   1.00120E+06,   1.00058E+06,   1.00058E+06
C:/temp/Job-1.odb,Step-1,Increment      1: Step Time =    1.000,"P-1-1",          7218,   26.7796E-03,   188.359E-03,            0.,NA,NA,"",   1.07730E+06,   1.08726E+06,   1.08726E+06
C:/temp/Job-1.odb,Step-1,Increment      1: Step Time =    1.000,"P-1-1",          7219,   143.519E-03,   12.5482E-03,            0.,NA,NA,"",   995.046E+03,   993.595E+03,   993.595E+03
C:/temp/Job-1.odb,Step-1,Increment      1: Step Time =    1.000,"P-1-1",          7220,   188.337E-03,   143.206E-03,            0.,NA,NA,"",   995.378E+03,   1.00292E+06,   1.00292E+06
C:/temp/Job-1.odb,Step-1,Increment      1: Step Time =    1.000,"P-1-1",          7221,   87.2963E-03,   12.3175E-03,            0.,NA,NA,"",   967.727E+03,   969.929E+03,   969.929E+03
C:/temp/Job-1.odb,Step-1,Increment      1: Step Time =    1.000,"P-1-1",          7222,   12.8337E-03,   56.4374E-03,            0.,NA,NA,"",   878.111E+03,   967.169E+03,   967.169E+03
C:/temp/Job-1.odb,Step-1,Increment      1: Step Time =    1.000,"P-1-1",          7223,   56.1354E-03,   186.748E-03,            0.,NA,NA,"",   1.00806E+06,   1.00881E+06,   1.00881E+06
C:/temp/Job-1.odb,Step-1,Increment      1: Step Time =    1.000,"P-1-1",          7224,   112.311E-03,   189.525E-03,            0.,NA,NA,"",   963.070E+03,   964.395E+03,   964.395E+03
C:/temp/Job-1.odb,Step-1,Increment      1: Step Time =    1.000,"P-1-1",          7225,   12.8193E-03,   112.505E-03,            0.,NA,NA,"",   803.446E+03,   896.691E+03,   896.691E+03
C:/temp/Job-1.odb,Step-1,Increment      1: Step Time =    1.000,"P-1-1",          7226,   188.578E-03,   87.0373E-03,            0.,NA,NA,"",   972.455E+03,   995.710E+03,   995.710E+03
C:/temp/Job-1.odb,Step-1,Increment      1: Step Time =    1.000,"P-1-1",          7227,   79.3371E-03,   116.131E-03,            0.,NA,NA,"",   1.19776E+06,   1.10879E+06,   1.10879E+06
C:/temp/Job-1.odb,Step-1,Increment      1: Step Time =    1.000,"P-1-1",          7228,   83.3518E-03,   117.545E-03,            0.,NA,NA,"",   1.31283E+06,   1.23410E+06,   1.23410E+06
C:/temp/Job-1.odb,Step-1,Increment      1: Step Time =    1.000,"P-1-1",          7229,   187.067E-03,   15.1443E-03,            0.,NA,NA,"",   1.00060E+06,   1.00050E+06,   1.00050E+06
C:/temp/Job-1.odb,Step-1,Increment      1: Step Time =    1.000,"P-1-1",          7230,   12.8466E-03,   185.289E-03,            0.,NA,NA,"",   1.11065E+06,   1.15885E+06,   1.15885E+06
C:/temp/Job-1.odb,Step-1,Increment      1: Step Time =    1.000,"P-1-1",          7231,   14.3575E-03,   13.3731E-03,            0.,NA,NA,"",   1.12271E+06,   1.16063E+06,   1.16063E+06
C:/temp/Job-1.odb,Step-1,Increment      1: Step Time =    1.000,"P-1-1",          7232,   185.404E-03,   186.501E-03,            0.,NA,NA,"",   1.00052E+06,   1.00040E+06,   1.00040E+06
C:/temp/Job-1.odb,Step-1,Increment      1: Step Time =    1.000,"P-1-1",          7233,   185.938E-03,   100.385E-03,            0.,NA,NA,"",   967.938E+03,   991.262E+03,   991.262E+03
C:/temp/Job-1.odb,Step-1,Increment      1: Step Time =    1.000,"P-1-1",          7234,   99.7182E-03,   185.739E-03,            0.,NA,NA,"",   968.652E+03,   972.011E+03,   972.011E+03
C:/temp/Job-1.odb,Step-1,Increment      1: Step Time =    1.000,"P-1-1",          7235,   14.0294E-03,   99.4883E-03,            0.,NA,NA,"",   796.307E+03,   889.063E+03,   889.063E+03
C:/temp/Job-1.odb,Step-1,Increment      1: Step Time =    1.000,"P-1-1",          7236,   100.755E-03,   14.7255E-03,            0.,NA,NA,"",   970.049E+03,   973.720E+03,   973.720E+03
C:/temp/Job-1.odb,Step-1,Increment      1: Step Time =    1.000,"P-1-1",          7237,   112.507E-03,   122.297E-03,            0.,NA,NA,"",   1.31532E+06,   1.30833E+06,   1.30833E+06
C:/temp/Job-1.odb,Step-1,Increment      1: Step Time =    1.000,"P-1-1",          7238,   116.203E-03,   10.7460E-03,            0.,NA,NA,"",   967.065E+03,   968.083E+03,   968.083E+03
C:/temp/Job-1.odb,Step-1,Increment      1: Step Time =    1.000,"P-1-1",          7239,   84.8555E-03,   189.501E-03,            0.,NA,NA,"",   963.669E+03,   965.112E+03,   965.112E+03
C:/temp/Job-1.odb,Step-1,Increment      1: Step Time =    1.000,"P-1-1",          7240,   11.5221E-03,   84.8845E-03,            0.,NA,NA,"",   804.615E+03,   898.870E+03,   898.870E+03
C:/temp/Job-1.odb,Step-1,Increment      1: Step Time =    1.000,"P-1-1",          7241,   189.771E-03,   115.539E-03,            0.,NA,NA,"",   973.658E+03,   996.932E+03,   996.932E+03
C:/temp/Job-1.odb,Step-1,Increment      1: Step Time =    1.000,"P-1-1",          7242,   73.8130E-03,   97.3840E-03,            0.,NA,NA,"",   538.660E+03,   563.647E+03,   563.647E+03
C:/temp/Job-1.odb,Step-1,Increment      1: Step Time =    1.000,"P-1-1",          7243,   96.6547E-03,   11.9094E-03,            0.,NA,NA,"",   962.426E+03,   964.942E+03,   964.942E+03
C:/temp/Job-1.odb,Step-1,Increment      1: Step Time =    1.000,"P-1-1",          7244,   11.8440E-03,   102.737E-03,            0.,NA,NA,"",   793.352E+03,   887.718E+03,   887.718E+03
C:/temp/Job-1.odb,Step-1,Increment      1: Step Time =    1.000,"P-1-1",          7245,   102.773E-03,   187.997E-03,            0.,NA,NA,"",   962.928E+03,   965.395E+03,   965.395E+03
C:/temp/Job-1.odb,Step-1,Increment      1: Step Time =    1.000,"P-1-1",          7246,   188.387E-03,   96.8907E-03,            0.,NA,NA,"",   968.490E+03,   993.849E+03,   993.849E+03
C:/temp/Job-1.odb,Step-1,Increment      1: Step Time =    1.000,"P-1-1",          7247,   90.0127E-03,   125.841E-03,            0.,NA,NA,"",   1.21931E+06,   1.26295E+06,   1.26295E+06
C:/temp/Job-1.odb,Step-1,Increment      1: Step Time =    1.000,"P-1-1",          7248,   123.548E-03,   113.304E-03,            0.,NA,NA,"",   1.09357E+06,   990.459E+03,   990.459E+03
C:/temp/Job-1.odb,Step-1,Increment      1: Step Time =    1.000,"P-1-1",          7249,   86.1964E-03,   123.753E-03,            0.,NA,NA,"",   1.27814E+06,   1.27206E+06,   1.27206E+06
C:/temp/Job-1.odb,Step-1,Increment      1: Step Time =    1.000,"P-1-1",          7250,   112.935E-03,   123.486E-03,            0.,NA,NA,"",   1.29347E+06,   1.28644E+06,   1.28644E+06
C:/temp/Job-1.odb,Step-1,Increment      1: Step Time =    1.000,"P-1-1",          7251,   128.014E-03,   104.994E-03,            0.,NA,NA,"",   686.204E+03,   676.446E+03,   676.446E+03
C:/temp/Job-1.odb,Step-1,Increment      1: Step Time =    1.000,"P-1-1",          7252,   122.456E-03,   113.824E-03,            0.,NA,NA,"",   1.13529E+06,   1.02312E+06,   1.02312E+06
C:/temp/Job-1.odb,Step-1,Increment      1: Step Time =    1.000,"P-1-1",          7253,   187.406E-03,   95.0815E-03,            0.,NA,NA,"",   968.668E+03,   992.834E+03,   992.834E+03
C:/temp/Job-1.odb,Step-1,Increment      1: Step Time =    1.000,"P-1-1",          7254,   104.354E-03,   186.956E-03,            0.,NA,NA,"",   966.431E+03,   969.260E+03,   969.260E+03
C:/temp/Job-1.odb,Step-1,Increment      1: Step Time =    1.000,"P-1-1",          7255,   12.4196E-03,   104.287E-03,            0.,NA,NA,"",   794.817E+03,   888.751E+03,   888.751E+03
C:/temp/Job-1.odb,Step-1,Increment      1: Step Time =    1.000,"P-1-1",          7256,   48.4085E-03,   188.806E-03,            0.,NA,NA,"",   1.01400E+06,   1.01520E+06,   1.01520E+06
C:/temp/Job-1.odb,Step-1,Increment      1: Step Time =    1.000,"P-1-1",          7257,   95.9379E-03,   12.7839E-03,            0.,NA,NA,"",   965.150E+03,   968.053E+03,   968.053E+03
C:/temp/Job-1.odb,Step-1,Increment      1: Step Time =    1.000,"P-1-1",          7258,   78.1974E-03,   187.274E-03,            0.,NA,NA,"",   977.521E+03,   978.915E+03,   978.915E+03
C:/temp/Job-1.odb,Step-1,Increment      1: Step Time =    1.000,"P-1-1",          7259,   187.262E-03,   121.651E-03,            0.,NA,NA,"",   979.565E+03,   997.579E+03,   997.579E+03
C:/temp/Job-1.odb,Step-1,Increment      1: Step Time =    1.000,"P-1-1",          7260,   12.9844E-03,   162.884E-03,            0.,NA,NA,"",   948.375E+03,   1.02994E+06,   1.02994E+06
C:/temp/Job-1.odb,Step-1,Increment      1: Step Time =    1.000,"P-1-1",          7261,   11.9737E-03,   77.6848E-03,            0.,NA,NA,"",   819.173E+03,   912.457E+03,   912.457E+03
C:/temp/Job-1.odb,Step-1,Increment      1: Step Time =    1.000,"P-1-1",          7262,   186.762E-03,   151.818E-03,            0.,NA,NA,"",   1.00051E+06,   1.00415E+06,   1.00415E+06
C:/temp/Job-1.odb,Step-1,Increment      1: Step Time =    1.000,"P-1-1",          7263,   152.196E-03,   11.7763E-03,            0.,NA,NA,"",   997.996E+03,   996.651E+03,   996.651E+03
C:/temp/Job-1.odb,Step-1,Increment      1: Step Time =    1.000,"P-1-1",          7264,   121.451E-03,   12.9165E-03,            0.,NA,NA,"",   977.559E+03,   978.228E+03,   978.228E+03
C:/temp/Job-1.odb,Step-1,Increment      1: Step Time =    1.000,"P-1-1",          7265,   187.124E-03,   36.3432E-03,            0.,NA,NA,"",   1.00217E+06,   1.00324E+06,   1.00324E+06
C:/temp/Job-1.odb,Step-1,Increment      1: Step Time =    1.000,"P-1-1",          7266,   36.1222E-03,   12.8942E-03,            0.,NA,NA,"",   1.04702E+06,   1.05253E+06,   1.05253E+06
C:/temp/Job-1.odb,Step-1,Increment      1: Step Time =    1.000,"P-1-1",          7267,   18.4807E-03,   187.532E-03,            0.,NA,NA,"",   1.11424E+06,   1.13781E+06,   1.13781E+06
C:/temp/Job-1.odb,Step-1,Increment      1: Step Time =    1.000,"P-1-1",          7268,   181.004E-03,   12.3454E-03,            0.,NA,NA,"",   1.00063E+06,   1.00041E+06,   1.00041E+06
C:/temp/Job-1.odb,Step-1,Increment      1: Step Time =    1.000,"P-1-1",          7269,   163.766E-03,   187.170E-03,            0.,NA,NA,"",   1.00139E+06,   1.00027E+06,   1.00027E+06
C:/temp/Job-1.odb,Step-1,Increment      1: Step Time =    1.000,"P-1-1",          7270,   187.938E-03,   182.531E-03,            0.,NA,NA,"",   1.00077E+06,   1.00070E+06,   1.00070E+06
C:/temp/Job-1.odb,Step-1,Increment      1: Step Time =    1.000,"P-1-1",          7271,   11.8065E-03,   19.3039E-03,            0.,NA,NA,"",   1.06056E+06,   1.12515E+06,   1.12515E+06
C:/temp/Job-1.odb,Step-1,Increment      1: Step Time =    1.000,"P-1-1",          7272,   107.092E-03,   126.010E-03,            0.,NA,NA,"",   1.18657E+06,   1.25849E+06,   1.25849E+06
C:/temp/Job-1.odb,Step-1,Increment      1: Step Time =    1.000,"P-1-1",          7273,   126.641E-03,   108.270E-03,            0.,NA,NA,"",   830.988E+03,   781.529E+03,   781.529E+03
C:/temp/Job-1.odb,Step-1,Increment      1: Step Time =    1.000,"P-1-1",          7274,   98.5099E-03,   126.148E-03,            0.,NA,NA,"",   1.13149E+06,   1.24008E+06,   1.24008E+06
C:/temp/Job-1.odb,Step-1,Increment      1: Step Time =    1.000,"P-1-1",          7275,   76.8734E-03,   92.0350E-03,            0.,NA,NA,"",   801.188E+03,   743.824E+03,   743.824E+03
C:/temp/Job-1.odb,Step-1,Increment      1: Step Time =    1.000,"P-1-1",          7276,   81.2093E-03,   85.2311E-03,            0.,NA,NA,"",   1.21465E+06,   1.11063E+06,   1.11063E+06
C:/temp/Job-1.odb,Step-1,Increment      1: Step Time =    1.000,"P-1-1",          7277,   85.7070E-03,   122.444E-03,            0.,NA,NA,"",   1.29812E+06,   1.27937E+06,   1.27937E+06
C:/temp/Job-1.odb,Step-1,Increment      1: Step Time =    1.000,"P-1-1",          7278,   126.754E-03,   101.619E-03,            0.,NA,NA,"",   554.137E+03,   564.816E+03,   564.816E+03
C:/temp/Job-1.odb,Step-1,Increment      1: Step Time =    1.000,"P-1-1",          7279,   190.316E-03,   96.6729E-03,            0.,NA,NA,"",   968.181E+03,   995.583E+03,   995.583E+03
C:/temp/Job-1.odb,Step-1,Increment      1: Step Time =    1.000,"P-1-1",          7280,   103.346E-03,   189.983E-03,            0.,NA,NA,"",   957.027E+03,   958.810E+03,   958.810E+03
C:/temp/Job-1.odb,Step-1,Increment      1: Step Time =    1.000,"P-1-1",          7281,   17.2444E-03,   190.780E-03,            0.,NA,NA,"",   1.13433E+06,   1.15069E+06,   1.15069E+06
C:/temp/Job-1.odb,Step-1,Increment      1: Step Time =    1.000,"P-1-1",          7282,   182.565E-03,   9.12952E-03,            0.,NA,NA,"",   999.947E+03,   999.851E+03,   999.851E+03
C:/temp/Job-1.odb,Step-1,Increment      1: Step Time =    1.000,"P-1-1",          7283,   9.99658E-03,   103.255E-03,            0.,NA,NA,"",   790.460E+03,   886.174E+03,   886.174E+03
C:/temp/Job-1.odb,Step-1,Increment      1: Step Time =    1.000,"P-1-1",          7284,   96.3158E-03,   10.0528E-03,            0.,NA,NA,"",   956.611E+03,   958.431E+03,   958.431E+03
C:/temp/Job-1.odb,Step-1,Increment      1: Step Time =    1.000,"P-1-1",          7285,   190.986E-03,   183.292E-03,            0.,NA,NA,"",   1.00041E+06,   1.00034E+06,   1.00034E+06
C:/temp/Job-1.odb,Step-1,Increment      1: Step Time =    1.000,"P-1-1",          7286,   8.90992E-03,   17.6199E-03,            0.,NA,NA,"",   1.06550E+06,   1.13917E+06,   1.13917E+06
C:/temp/Job-1.odb,Step-1,Increment      1: Step Time =    1.000,"P-1-1",          7287,   188.510E-03,   121.403E-03,            0.,NA,NA,"",   978.673E+03,   997.919E+03,   997.919E+03
C:/temp/Job-1.odb,Step-1,Increment      1: Step Time =    1.000,"P-1-1",          7288,   78.4386E-03,   188.647E-03,            0.,NA,NA,"",   972.627E+03,   973.789E+03,   973.789E+03
C:/temp/Job-1.odb,Step-1,Increment      1: Step Time =    1.000,"P-1-1",          7289,   122.613E-03,   11.1166E-03,            0.,NA,NA,"",   974.133E+03,   974.507E+03,   974.507E+03
C:/temp/Job-1.odb,Step-1,Increment      1: Step Time =    1.000,"P-1-1",          7290,   122.007E-03,   115.485E-03,            0.,NA,NA,"",   1.19233E+06,   1.08089E+06,   1.08089E+06
C:/temp/Job-1.odb,Step-1,Increment      1: Step Time =    1.000,"P-1-1",          7291,   11.6505E-03,   163.412E-03,            0.,NA,NA,"",   944.669E+03,   1.02917E+06,   1.02917E+06
C:/temp/Job-1.odb,Step-1,Increment      1: Step Time =    1.000,"P-1-1",          7292,   188.513E-03,   36.2223E-03,            0.,NA,NA,"",   1.00136E+06,   1.00261E+06,   1.00261E+06
C:/temp/Job-1.odb,Step-1,Increment      1: Step Time =    1.000,"P-1-1",          7293,   36.5776E-03,   11.3823E-03,            0.,NA,NA,"",   1.04209E+06,   1.04624E+06,   1.04624E+06
C:/temp/Job-1.odb,Step-1,Increment      1: Step Time =    1.000,"P-1-1",          7294,   163.840E-03,   188.532E-03,            0.,NA,NA,"",   1.00033E+06,   999.421E+03,   999.421E+03
C:/temp/Job-1.odb,Step-1,Increment      1: Step Time =    1.000,"P-1-1",          7295,   185.861E-03,   89.1125E-03,            0.,NA,NA,"",   971.514E+03,   992.929E+03,   992.929E+03
C:/temp/Job-1.odb,Step-1,Increment      1: Step Time =    1.000,"P-1-1",          7296,   109.744E-03,   186.808E-03,            0.,NA,NA,"",   968.947E+03,   971.267E+03,   971.267E+03
C:/temp/Job-1.odb,Step-1,Increment      1: Step Time =    1.000,"P-1-1",          7297,   13.7559E-03,   109.330E-03,            0.,NA,NA,"",   801.045E+03,   893.737E+03,   893.737E+03
C:/temp/Job-1.odb,Step-1,Increment      1: Step Time =    1.000,"P-1-1",          7298,   90.1459E-03,   13.2104E-03,            0.,NA,NA,"",   968.728E+03,   971.447E+03,   971.447E+03
C:/temp/Job-1.odb,Step-1,Increment      1: Step Time =    1.000,"P-1-1",          7299,   24.0448E-03,   185.056E-03,            0.,NA,NA,"",   1.08478E+06,   1.10418E+06,   1.10418E+06
C:/temp/Job-1.odb,Step-1,Increment      1: Step Time =    1.000,"P-1-1",          7300,   175.027E-03,   13.8942E-03,            0.,NA,NA,"",   1.00166E+06,   1.00108E+06,   1.00108E+06
C:/temp/Job-1.odb,Step-1,Increment      1: Step Time =    1.000,"P-1-1",          7301,   185.972E-03,   174.557E-03,            0.,NA,NA,"",   1.00215E+06,   1.00213E+06,   1.00213E+06
C:/temp/Job-1.odb,Step-1,Increment      1: Step Time =    1.000,"P-1-1",          7302,   13.6128E-03,   24.9065E-03,            0.,NA,NA,"",   1.02073E+06,   1.08871E+06,   1.08871E+06
C:/temp/Job-1.odb,Step-1,Increment      1: Step Time =    1.000,"P-1-1",          7303,   53.1040E-03,   186.176E-03,            0.,NA,NA,"",   1.01466E+06,   1.01586E+06,   1.01586E+06
C:/temp/Job-1.odb,Step-1,Increment      1: Step Time =    1.000,"P-1-1",          7304,   13.9063E-03,   53.4960E-03,            0.,NA,NA,"",   891.467E+03,   978.049E+03,   978.049E+03
C:/temp/Job-1.odb,Step-1,Increment      1: Step Time =    1.000,"P-1-1",          7305,   186.402E-03,   147.438E-03,            0.,NA,NA,"",   999.220E+03,   1.00421E+06,   1.00421E+06
C:/temp/Job-1.odb,Step-1,Increment      1: Step Time =    1.000,"P-1-1",          7306,   146.347E-03,   14.0007E-03,            0.,NA,NA,"",   998.876E+03,   997.046E+03,   997.046E+03
C:/temp/Job-1.odb,Step-1,Increment      1: Step Time =    1.000,"P-1-1",          7307,   48.7238E-03,   190.080E-03,            0.,NA,NA,"",   1.00885E+06,   1.00970E+06,   1.00970E+06
C:/temp/Job-1.odb,Step-1,Increment      1: Step Time =    1.000,"P-1-1",          7308,   188.256E-03,   151.627E-03,            0.,NA,NA,"",   999.123E+03,   1.00334E+06,   1.00334E+06
C:/temp/Job-1.odb,Step-1,Increment      1: Step Time =    1.000,"P-1-1",          7309,   13.6900E-03,   158.848E-03,            0.,NA,NA,"",   934.802E+03,   1.01707E+06,   1.01707E+06
C:/temp/Job-1.odb,Step-1,Increment      1: Step Time =    1.000,"P-1-1",          7310,   159.121E-03,   185.391E-03,            0.,NA,NA,"",   1.00292E+06,   1.00122E+06,   1.00122E+06
C:/temp/Job-1.odb,Step-1,Increment      1: Step Time =    1.000,"P-1-1",          7311,   41.1224E-03,   13.5800E-03,            0.,NA,NA,"",   1.03629E+06,   1.04028E+06,   1.04028E+06
C:/temp/Job-1.odb,Step-1,Increment      1: Step Time =    1.000,"P-1-1",          7312,   185.464E-03,   40.9418E-03,            0.,NA,NA,"",   1.00315E+06,   1.00459E+06,   1.00459E+06
C:/temp/Job-1.odb,Step-1,Increment      1: Step Time =    1.000,"P-1-1",          7313,   73.7843E-03,   186.074E-03,            0.,NA,NA,"",   986.243E+03,   987.477E+03,   987.477E+03
C:/temp/Job-1.odb,Step-1,Increment      1: Step Time =    1.000,"P-1-1",          7314,   13.1519E-03,   73.4878E-03,            0.,NA,NA,"",   831.707E+03,   923.320E+03,   923.320E+03
C:/temp/Job-1.odb,Step-1,Increment      1: Step Time =    1.000,"P-1-1",          7315,   185.632E-03,   126.110E-03,            0.,NA,NA,"",   984.467E+03,   998.952E+03,   998.952E+03
C:/temp/Job-1.odb,Step-1,Increment      1: Step Time =    1.000,"P-1-1",          7316,   125.998E-03,   14.2648E-03,            0.,NA,NA,"",   984.920E+03,   985.005E+03,   985.005E+03
C:/temp/Job-1.odb,Step-1,Increment      1: Step Time =    1.000,"P-1-1",          7317,   83.3956E-03,   87.3990E-03,            0.,NA,NA,"",   1.22131E+06,   1.09079E+06,   1.09079E+06
C:/temp/Job-1.odb,Step-1,Increment      1: Step Time =    1.000,"P-1-1",          7318,   186.306E-03,   112.996E-03,            0.,NA,NA,"",   972.771E+03,   993.876E+03,   993.876E+03
C:/temp/Job-1.odb,Step-1,Increment      1: Step Time =    1.000,"P-1-1",          7319,   12.7373E-03,   87.3236E-03,            0.,NA,NA,"",   803.487E+03,   896.809E+03,   896.809E+03
C:/temp/Job-1.odb,Step-1,Increment      1: Step Time =    1.000,"P-1-1",          7320,   88.4592E-03,   185.920E-03,            0.,NA,NA,"",   972.202E+03,   975.068E+03,   975.068E+03
C:/temp/Job-1.odb,Step-1,Increment      1: Step Time =    1.000,"P-1-1",          7321,   113.080E-03,   13.5282E-03,            0.,NA,NA,"",   972.046E+03,   974.105E+03,   974.105E+03
C:/temp/Job-1.odb,Step-1,Increment      1: Step Time =    1.000,"P-1-1",          7322,   13.8562E-03,   116.160E-03,            0.,NA,NA,"",   811.207E+03,   903.338E+03,   903.338E+03
C:/temp/Job-1.odb,Step-1,Increment      1: Step Time =    1.000,"P-1-1",          7323,   116.232E-03,   186.163E-03,            0.,NA,NA,"",   975.307E+03,   977.030E+03,   977.030E+03
C:/temp/Job-1.odb,Step-1,Increment      1: Step Time =    1.000,"P-1-1",          7324,   83.3872E-03,   14.0045E-03,            0.,NA,NA,"",   976.296E+03,   978.576E+03,   978.576E+03
C:/temp/Job-1.odb,Step-1,Increment      1: Step Time =    1.000,"P-1-1",          7325,   186.922E-03,   83.4666E-03,            0.,NA,NA,"",   975.433E+03,   995.649E+03,   995.649E+03
C:/temp/Job-1.odb,Step-1,Increment      1: Step Time =    1.000,"P-1-1",          7326,   31.3941E-03,   186.208E-03,            0.,NA,NA,"",   1.06191E+06,   1.07134E+06,   1.07134E+06
C:/temp/Job-1.odb,Step-1,Increment      1: Step Time =    1.000,"P-1-1",          7327,   14.1313E-03,   139.517E-03,            0.,NA,NA,"",   871.056E+03,   958.917E+03,   958.917E+03
C:/temp/Job-1.odb,Step-1,Increment      1: Step Time =    1.000,"P-1-1",          7328,   139.131E-03,   185.778E-03,            0.,NA,NA,"",   995.436E+03,   993.902E+03,   993.902E+03
C:/temp/Job-1.odb,Step-1,Increment      1: Step Time =    1.000,"P-1-1",          7329,   186.045E-03,   61.3851E-03,            0.,NA,NA,"",   994.779E+03,   1.00318E+06,   1.00318E+06
C:/temp/Job-1.odb,Step-1,Increment      1: Step Time =    1.000,"P-1-1",          7330,   59.7556E-03,   14.1889E-03,            0.,NA,NA,"",   1.00598E+06,   1.00667E+06,   1.00667E+06
C:/temp/Job-1.odb,Step-1,Increment      1: Step Time =    1.000,"P-1-1",          7331,   169.287E-03,   13.8700E-03,            0.,NA,NA,"",   1.00208E+06,   1.00114E+06,   1.00114E+06
C:/temp/Job-1.odb,Step-1,Increment      1: Step Time =    1.000,"P-1-1",          7332,   185.561E-03,   167.744E-03,            0.,NA,NA,"",   1.00305E+06,   1.00338E+06,   1.00338E+06
C:/temp/Job-1.odb,Step-1,Increment      1: Step Time =    1.000,"P-1-1",          7333,   14.6616E-03,   168.503E-03,            0.,NA,NA,"",   984.208E+03,   1.05711E+06,   1.05711E+06
C:/temp/Job-1.odb,Step-1,Increment      1: Step Time =    1.000,"P-1-1",          7334,   185.826E-03,   30.8307E-03,            0.,NA,NA,"",   1.00280E+06,   1.00305E+06,   1.00305E+06
C:/temp/Job-1.odb,Step-1,Increment      1: Step Time =    1.000,"P-1-1",          7335,   30.8316E-03,   13.3244E-03,            0.,NA,NA,"",   1.06351E+06,   1.07268E+06,   1.07268E+06
C:/temp/Job-1.odb,Step-1,Increment      1: Step Time =    1.000,"P-1-1",          7336,   14.1904E-03,   32.1718E-03,            0.,NA,NA,"",   978.658E+03,   1.05336E+06,   1.05336E+06
C:/temp/Job-1.odb,Step-1,Increment      1: Step Time =    1.000,"P-1-1",          7337,   169.207E-03,   186.376E-03,            0.,NA,NA,"",   1.00197E+06,   1.00106E+06,   1.00106E+06
C:/temp/Job-1.odb,Step-1,Increment      1: Step Time =    1.000,"P-1-1",          7338,   12.4212E-03,   182.244E-03,            0.,NA,NA,"",   1.07767E+06,   1.13619E+06,   1.13619E+06
C:/temp/Job-1.odb,Step-1,Increment      1: Step Time =    1.000,"P-1-1",          7339,   186.106E-03,   18.5363E-03,            0.,NA,NA,"",   1.00118E+06,   1.00105E+06,   1.00105E+06
C:/temp/Job-1.odb,Step-1,Increment      1: Step Time =    1.000,"P-1-1",          7340,   96.8342E-03,   185.950E-03,            0.,NA,NA,"",   968.574E+03,   972.038E+03,   972.038E+03
C:/temp/Job-1.odb,Step-1,Increment      1: Step Time =    1.000,"P-1-1",          7341,   186.187E-03,   103.330E-03,            0.,NA,NA,"",   968.110E+03,   991.405E+03,   991.405E+03
C:/temp/Job-1.odb,Step-1,Increment      1: Step Time =    1.000,"P-1-1",          7342,   13.5879E-03,   96.9588E-03,            0.,NA,NA,"",   796.106E+03,   889.210E+03,   889.210E+03
C:/temp/Job-1.odb,Step-1,Increment      1: Step Time =    1.000,"P-1-1",          7343,   103.448E-03,   14.4775E-03,            0.,NA,NA,"",   969.907E+03,   973.388E+03,   973.388E+03
C:/temp/Job-1.odb,Step-1,Increment      1: Step Time =    1.000,"P-1-1",          7344,   60.7212E-03,   185.254E-03,            0.,NA,NA,"",   1.00604E+06,   1.00673E+06,   1.00673E+06
C:/temp/Job-1.odb,Step-1,Increment      1: Step Time =    1.000,"P-1-1",          7345,   13.9479E-03,   60.7806E-03,            0.,NA,NA,"",   869.014E+03,   957.344E+03,   957.344E+03
C:/temp/Job-1.odb,Step-1,Increment      1: Step Time =    1.000,"P-1-1",          7346,   182.417E-03,   186.355E-03,            0.,NA,NA,"",   1.00082E+06,   1.00061E+06,   1.00061E+06
C:/temp/Job-1.odb,Step-1,Increment      1: Step Time =    1.000,"P-1-1",          7347,   185.492E-03,   138.744E-03,            0.,NA,NA,"",   995.464E+03,   1.00347E+06,   1.00347E+06
C:/temp/Job-1.odb,Step-1,Increment      1: Step Time =    1.000,"P-1-1",          7348,   139.966E-03,   14.1450E-03,            0.,NA,NA,"",   995.662E+03,   994.070E+03,   994.070E+03
C:/temp/Job-1.odb,Step-1,Increment      1: Step Time =    1.000,"P-1-1",          7349,   93.2515E-03,   125.162E-03,            0.,NA,NA,"",   1.19834E+06,   1.27727E+06,   1.27727E+06
C:/temp/Job-1.odb,Step-1,Increment      1: Step Time =    1.000,"P-1-1",          7350,   76.1846E-03,   114.582E-03,            0.,NA,NA,"",   1.08419E+06,   1.01061E+06,   1.01061E+06
C:/temp/Job-1.odb,Step-1,Increment      1: Step Time =    1.000,"P-1-1",          7351,   13.1595E-03,   155.985E-03,            0.,NA,NA,"",   921.042E+03,   1.00579E+06,   1.00579E+06
C:/temp/Job-1.odb,Step-1,Increment      1: Step Time =    1.000,"P-1-1",          7352,   43.7290E-03,   14.0769E-03,            0.,NA,NA,"",   1.03188E+06,   1.03518E+06,   1.03518E+06
C:/temp/Job-1.odb,Step-1,Increment      1: Step Time =    1.000,"P-1-1",          7353,   186.180E-03,   43.5969E-03,            0.,NA,NA,"",   1.00211E+06,   1.00435E+06,   1.00435E+06
C:/temp/Job-1.odb,Step-1,Increment      1: Step Time =    1.000,"P-1-1",          7354,   156.358E-03,   186.162E-03,            0.,NA,NA,"",   1.00159E+06,   999.931E+03,   999.931E+03
C:/temp/Job-1.odb,Step-1,Increment      1: Step Time =    1.000,"P-1-1",          7355,   70.7437E-03,   186.598E-03,            0.,NA,NA,"",   988.386E+03,   989.183E+03,   989.183E+03
C:/temp/Job-1.odb,Step-1,Increment      1: Step Time =    1.000,"P-1-1",          7356,   14.1209E-03,   70.3571E-03,            0.,NA,NA,"",   842.615E+03,   932.587E+03,   932.587E+03
C:/temp/Job-1.odb,Step-1,Increment      1: Step Time =    1.000,"P-1-1",          7357,   186.417E-03,   129.293E-03,            0.,NA,NA,"",   986.995E+03,   1.00037E+06,   1.00037E+06
C:/temp/Job-1.odb,Step-1,Increment      1: Step Time =    1.000,"P-1-1",          7358,   129.406E-03,   13.8323E-03,            0.,NA,NA,"",   987.024E+03,   986.586E+03,   986.586E+03
C:/temp/Job-1.odb,Step-1,Increment      1: Step Time =    1.000,"P-1-1",          7359,   14.5083E-03,   122.666E-03,            0.,NA,NA,"",   826.142E+03,   916.750E+03,   916.750E+03
C:/temp/Job-1.odb,Step-1,Increment      1: Step Time =    1.000,"P-1-1",          7360,   121.252E-03,   186.338E-03,            0.,NA,NA,"",   979.209E+03,   980.002E+03,   980.002E+03
C:/temp/Job-1.odb,Step-1,Increment      1: Step Time =    1.000,"P-1-1",          7361,   77.6366E-03,   14.7126E-03,            0.,NA,NA,"",   984.547E+03,   986.298E+03,   986.298E+03
C:/temp/Job-1.odb,Step-1,Increment      1: Step Time =    1.000,"P-1-1",          7362,   185.944E-03,   76.8261E-03,            0.,NA,NA,"",   981.662E+03,   997.876E+03,   997.876E+03
C:/temp/Job-1.odb,Step-1,Increment      1: Step Time =    1.000,"P-1-1",          7363,   36.9666E-03,   186.722E-03,            0.,NA,NA,"",   1.04612E+06,   1.05157E+06,   1.05157E+06
C:/temp/Job-1.odb,Step-1,Increment      1: Step Time =    1.000,"P-1-1",          7364,   161.347E-03,   13.9018E-03,            0.,NA,NA,"",   1.00219E+06,   1.00076E+06,   1.00076E+06
C:/temp/Job-1.odb,Step-1,Increment      1: Step Time =    1.000,"P-1-1",          7365,   186.881E-03,   162.734E-03,            0.,NA,NA,"",   1.00233E+06,   1.00346E+06,   1.00346E+06
C:/temp/Job-1.odb,Step-1,Increment      1: Step Time =    1.000,"P-1-1",          7366,   14.6805E-03,   152.635E-03,            0.,NA,NA,"",   915.436E+03,   998.450E+03,   998.450E+03
C:/temp/Job-1.odb,Step-1,Increment      1: Step Time =    1.000,"P-1-1",          7367,   48.1453E-03,   14.6150E-03,            0.,NA,NA,"",   1.02506E+06,   1.02735E+06,   1.02735E+06
C:/temp/Job-1.odb,Step-1,Increment      1: Step Time =    1.000,"P-1-1",          7368,   186.580E-03,   48.4788E-03,            0.,NA,NA,"",   1.00059E+06,   1.00426E+06,   1.00426E+06
C:/temp/Job-1.odb,Step-1,Increment      1: Step Time =    1.000,"P-1-1",          7369,   151.343E-03,   186.612E-03,            0.,NA,NA,"",   999.784E+03,   998.094E+03,   998.094E+03
C:/temp/Job-1.odb,Step-1,Increment      1: Step Time =    1.000,"P-1-1",          7370,   67.5738E-03,   185.507E-03,            0.,NA,NA,"",   996.082E+03,   996.866E+03,   996.866E+03
C:/temp/Job-1.odb,Step-1,Increment      1: Step Time =    1.000,"P-1-1",          7371,   14.9568E-03,   66.9946E-03,            0.,NA,NA,"",   854.439E+03,   942.685E+03,   942.685E+03
C:/temp/Job-1.odb,Step-1,Increment      1: Step Time =    1.000,"P-1-1",          7372,   185.315E-03,   132.397E-03,            0.,NA,NA,"",   990.609E+03,   1.00159E+06,   1.00159E+06
C:/temp/Job-1.odb,Step-1,Increment      1: Step Time =    1.000,"P-1-1",          7373,   133.084E-03,   15.0287E-03,            0.,NA,NA,"",   992.816E+03,   991.767E+03,   991.767E+03
C:/temp/Job-1.odb,Step-1,Increment      1: Step Time =    1.000,"P-1-1",          7374,   96.7020E-03,   125.464E-03,            0.,NA,NA,"",   1.15500E+06,   1.26038E+06,   1.26038E+06
C:/temp/Job-1.odb,Step-1,Increment      1: Step Time =    1.000,"P-1-1",          7375,   12.5952E-03,   133.931E-03,            0.,NA,NA,"",   849.347E+03,   940.588E+03,   940.588E+03
C:/temp/Job-1.odb,Step-1,Increment      1: Step Time =    1.000,"P-1-1",          7376,   66.3089E-03,   12.7387E-03,            0.,NA,NA,"",   991.851E+03,   992.342E+03,   992.342E+03
C:/temp/Job-1.odb,Step-1,Increment      1: Step Time =    1.000,"P-1-1",          7377,   13.5883E-03,   130.202E-03,            0.,NA,NA,"",   842.592E+03,   933.102E+03,   933.102E+03
C:/temp/Job-1.odb,Step-1,Increment      1: Step Time =    1.000,"P-1-1",          7378,   129.664E-03,   186.384E-03,            0.,NA,NA,"",   986.829E+03,   986.356E+03,   986.356E+03
C:/temp/Job-1.odb,Step-1,Increment      1: Step Time =    1.000,"P-1-1",          7379,   70.1130E-03,   14.8913E-03,            0.,NA,NA,"",   994.226E+03,   995.218E+03,   995.218E+03
C:/temp/Job-1.odb,Step-1,Increment      1: Step Time =    1.000,"P-1-1",          7380,   186.189E-03,   70.5641E-03,            0.,NA,NA,"",   987.370E+03,   1.00045E+06,   1.00045E+06
C:/temp/Job-1.odb,Step-1,Increment      1: Step Time =    1.000,"P-1-1",          7381,   43.7265E-03,   186.518E-03,            0.,NA,NA,"",   1.03047E+06,   1.03349E+06,   1.03349E+06
C:/temp/Job-1.odb,Step-1,Increment      1: Step Time =    1.000,"P-1-1",          7382,   14.9149E-03,   44.1356E-03,            0.,NA,NA,"",   928.572E+03,   1.00958E+06,   1.00958E+06
C:/temp/Job-1.odb,Step-1,Increment      1: Step Time =    1.000,"P-1-1",          7383,   186.245E-03,   155.894E-03,            0.,NA,NA,"",   1.00196E+06,   1.00434E+06,   1.00434E+06
C:/temp/Job-1.odb,Step-1,Increment      1: Step Time =    1.000,"P-1-1",          7384,   156.902E-03,   14.1974E-03,            0.,NA,NA,"",   1.00210E+06,   1.00038E+06,   1.00038E+06
C:/temp/Job-1.odb,Step-1,Increment      1: Step Time =    1.000,"P-1-1",          7385,   185.495E-03,   92.3545E-03,            0.,NA,NA,"",   969.602E+03,   991.557E+03,   991.557E+03
C:/temp/Job-1.odb,Step-1,Increment      1: Step Time =    1.000,"P-1-1",          7386,   107.073E-03,   185.628E-03,            0.,NA,NA,"",   970.757E+03,   973.877E+03,   973.877E+03
C:/temp/Job-1.odb,Step-1,Increment      1: Step Time =    1.000,"P-1-1",          7387,   14.3616E-03,   106.632E-03,            0.,NA,NA,"",   799.575E+03,   891.912E+03,   891.912E+03
C:/temp/Job-1.odb,Step-1,Increment      1: Step Time =    1.000,"P-1-1",          7388,   94.1878E-03,   14.0164E-03,            0.,NA,NA,"",   969.002E+03,   972.224E+03,   972.224E+03
C:/temp/Job-1.odb,Step-1,Increment      1: Step Time =    1.000,"P-1-1",          7389,   21.1256E-03,   185.467E-03,            0.,NA,NA,"",   1.09527E+06,   1.11875E+06,   1.11875E+06
C:/temp/Job-1.odb,Step-1,Increment      1: Step Time =    1.000,"P-1-1",          7390,   14.0259E-03,   136.491E-03,            0.,NA,NA,"",   861.259E+03,   950.096E+03,   950.096E+03
C:/temp/Job-1.odb,Step-1,Increment      1: Step Time =    1.000,"P-1-1",          7391,   135.537E-03,   186.263E-03,            0.,NA,NA,"",   991.783E+03,   990.637E+03,   990.637E+03
C:/temp/Job-1.odb,Step-1,Increment      1: Step Time =    1.000,"P-1-1",          7392,   178.052E-03,   12.4905E-03,            0.,NA,NA,"",   1.00086E+06,   1.00053E+06,   1.00053E+06
C:/temp/Job-1.odb,Step-1,Increment      1: Step Time =    1.000,"P-1-1",          7393,   63.6796E-03,   14.5448E-03,            0.,NA,NA,"",   1.00138E+06,   1.00200E+06,   1.00200E+06
C:/temp/Job-1.odb,Step-1,Increment      1: Step Time =    1.000,"P-1-1",          7394,   186.083E-03,   64.2481E-03,            0.,NA,NA,"",   992.591E+03,   1.00244E+06,   1.00244E+06
C:/temp/Job-1.odb,Step-1,Increment      1: Step Time =    1.000,"P-1-1",          7395,   51.2831E-03,   187.238E-03,            0.,NA,NA,"",   1.01434E+06,   1.01554E+06,   1.01554E+06
C:/temp/Job-1.odb,Step-1,Increment      1: Step Time =    1.000,"P-1-1",          7396,   13.7097E-03,   50.6711E-03,            0.,NA,NA,"",   899.753E+03,   985.901E+03,   985.901E+03
C:/temp/Job-1.odb,Step-1,Increment      1: Step Time =    1.000,"P-1-1",          7397,   187.057E-03,   149.101E-03,            0.,NA,NA,"",   999.214E+03,   1.00391E+06,   1.00391E+06
C:/temp/Job-1.odb,Step-1,Increment      1: Step Time =    1.000,"P-1-1",          7398,   149.404E-03,   14.0667E-03,            0.,NA,NA,"",   1.00011E+06,   998.250E+03,   998.250E+03
C:/temp/Job-1.odb,Step-1,Increment      1: Step Time =    1.000,"P-1-1",          7399,   14.2305E-03,   146.047E-03,            0.,NA,NA,"",   891.286E+03,   977.483E+03,   977.483E+03
C:/temp/Job-1.odb,Step-1,Increment      1: Step Time =    1.000,"P-1-1",          7400,   186.099E-03,   178.138E-03,            0.,NA,NA,"",   1.00163E+06,   1.00154E+06,   1.00154E+06
C:/temp/Job-1.odb,Step-1,Increment      1: Step Time =    1.000,"P-1-1",          7401,   146.202E-03,   186.410E-03,            0.,NA,NA,"",   998.023E+03,   996.305E+03,   996.305E+03
C:/temp/Job-1.odb,Step-1,Increment      1: Step Time =    1.000,"P-1-1",          7402,   185.554E-03,   12.0589E-03,            0.,NA,NA,"",   1.00030E+06,   1.00021E+06,   1.00021E+06
C:/temp/Job-1.odb,Step-1,Increment      1: Step Time =    1.000,"P-1-1",          7403,   14.4029E-03,   188.073E-03,            0.,NA,NA,"",   1.13651E+06,   1.16915E+06,   1.16915E+06
C:/temp/Job-1.odb,Step-1,Increment      1: Step Time =    1.000,"P-1-1",          7404,   14.9150E-03,   22.1304E-03,            0.,NA,NA,"",   1.04616E+06,   1.10499E+06,   1.10499E+06
C:/temp/Job-1.odb,Step-1,Increment      1: Step Time =    1.000,"P-1-1",          7405,   53.5130E-03,   13.7067E-03,            0.,NA,NA,"",   1.01350E+06,   1.01458E+06,   1.01458E+06
C:/temp/Job-1.odb,Step-1,Increment      1: Step Time =    1.000,"P-1-1",          7406,   185.962E-03,   53.4750E-03,            0.,NA,NA,"",   999.306E+03,   1.00439E+06,   1.00439E+06
C:/temp/Job-1.odb,Step-1,Increment      1: Step Time =    1.000,"P-1-1",          7407,   13.8828E-03,   166.060E-03,            0.,NA,NA,"",   967.648E+03,   1.04490E+06,   1.04490E+06
C:/temp/Job-1.odb,Step-1,Increment      1: Step Time =    1.000,"P-1-1",          7408,   186.392E-03,   33.8766E-03,            0.,NA,NA,"",   1.00261E+06,   1.00324E+06,   1.00324E+06
C:/temp/Job-1.odb,Step-1,Increment      1: Step Time =    1.000,"P-1-1",          7409,   34.4866E-03,   13.8902E-03,            0.,NA,NA,"",   1.05317E+06,   1.06040E+06,   1.06040E+06
C:/temp/Job-1.odb,Step-1,Increment      1: Step Time =    1.000,"P-1-1",          7410,   80.7753E-03,   186.246E-03,            0.,NA,NA,"",   977.886E+03,   979.785E+03,   979.785E+03
C:/temp/Job-1.odb,Step-1,Increment      1: Step Time =    1.000,"P-1-1",          7411,   186.259E-03,   119.024E-03,            0.,NA,NA,"",   977.748E+03,   996.273E+03,   996.273E+03
C:/temp/Job-1.odb,Step-1,Increment      1: Step Time =    1.000,"P-1-1",          7412,   13.7448E-03,   80.3906E-03,            0.,NA,NA,"",   817.658E+03,   909.460E+03,   909.460E+03
C:/temp/Job-1.odb,Step-1,Increment      1: Step Time =    1.000,"P-1-1",          7413,   188.326E-03,   186.272E-03,            0.,NA,NA,"",   1.00034E+06,   1.00027E+06,   1.00027E+06
C:/temp/Job-1.odb,Step-1,Increment      1: Step Time =    1.000,"P-1-1",          7414,   166.251E-03,   186.563E-03,            0.,NA,NA,"",   1.00192E+06,   1.00085E+06,   1.00085E+06
C:/temp/Job-1.odb,Step-1,Increment      1: Step Time =    1.000,"P-1-1",          7415,   12.5043E-03,   13.7732E-03,            0.,NA,NA,"",   1.12124E+06,   1.16727E+06,   1.16727E+06
C:/temp/Job-1.odb,Step-1,Increment      1: Step Time =    1.000,"P-1-1",          7416,   119.093E-03,   13.5068E-03,            0.,NA,NA,"",   976.818E+03,   977.985E+03,   977.985E+03
C:/temp/Job-1.odb,Step-1,Increment      1: Step Time =    1.000,"P-1-1",          7417,   13.7510E-03,   176.354E-03,            0.,NA,NA,"",   1.02968E+06,   1.09517E+06,   1.09517E+06
C:/temp/Job-1.odb,Step-1,Increment      1: Step Time =    1.000,"P-1-1",          7418,   184.756E-03,   23.5036E-03,            0.,NA,NA,"",   1.00233E+06,   1.00215E+06,   1.00215E+06
C:/temp/Job-1.odb,Step-1,Increment      1: Step Time =    1.000,"P-1-1",          7419,   186.311E-03,   109.876E-03,            0.,NA,NA,"",   970.864E+03,   992.974E+03,   992.974E+03
C:/temp/Job-1.odb,Step-1,Increment      1: Step Time =    1.000,"P-1-1",          7420,   90.7590E-03,   186.231E-03,            0.,NA,NA,"",   970.039E+03,   973.059E+03,   973.059E+03
C:/temp/Job-1.odb,Step-1,Increment      1: Step Time =    1.000,"P-1-1",          7421,   14.2033E-03,   90.6703E-03,            0.,NA,NA,"",   801.902E+03,   894.245E+03,   894.245E+03
C:/temp/Job-1.odb,Step-1,Increment      1: Step Time =    1.000,"P-1-1",          7422,   110.335E-03,   13.6882E-03,            0.,NA,NA,"",   970.634E+03,   973.060E+03,   973.060E+03
C:/temp/Job-1.odb,Step-1,Increment      1: Step Time =    1.000,"P-1-1",          7423,   104.218E-03,   126.996E-03,            0.,NA,NA,"",   1.13607E+06,   1.22932E+06,   1.22932E+06
C:/temp/Job-1.odb,Step-1,Increment      1: Step Time =    1.000,"P-1-1",          7424,   25.0738E-03,   13.8677E-03,            0.,NA,NA,"",   1.08366E+06,   1.09940E+06,   1.09940E+06
C:/temp/Job-1.odb,Step-1,Increment      1: Step Time =    1.000,"P-1-1",          7425,   175.252E-03,   186.685E-03,            0.,NA,NA,"",   1.00138E+06,   1.00086E+06,   1.00086E+06
C:/temp/Job-1.odb,Step-1,Increment      1: Step Time =    1.000,"P-1-1",          7426,   14.1850E-03,   119.878E-03,            0.,NA,NA,"",   819.281E+03,   910.592E+03,   910.592E+03
C:/temp/Job-1.odb,Step-1,Increment      1: Step Time =    1.000,"P-1-1",          7427,   118.556E-03,   185.628E-03,            0.,NA,NA,"",   978.614E+03,   979.981E+03,   979.981E+03
C:/temp/Job-1.odb,Step-1,Increment      1: Step Time =    1.000,"P-1-1",          7428,   80.6246E-03,   13.4557E-03,            0.,NA,NA,"",   976.945E+03,   978.747E+03,   978.747E+03
C:/temp/Job-1.odb,Step-1,Increment      1: Step Time =    1.000,"P-1-1",          7429,   186.692E-03,   81.5625E-03,            0.,NA,NA,"",   977.041E+03,   996.214E+03,   996.214E+03
C:/temp/Job-1.odb,Step-1,Increment      1: Step Time =    1.000,"P-1-1",          7430,   34.4273E-03,   186.528E-03,            0.,NA,NA,"",   1.05305E+06,   1.06004E+06,   1.06004E+06
C:/temp/Job-1.odb,Step-1,Increment      1: Step Time =    1.000,"P-1-1",          7431,   164.977E-03,   14.2381E-03,            0.,NA,NA,"",   1.00255E+06,   1.00128E+06,   1.00128E+06
C:/temp/Job-1.odb,Step-1,Increment      1: Step Time =    1.000,"P-1-1",          7432,   186.416E-03,   164.818E-03,            0.,NA,NA,"",   1.00259E+06,   1.00340E+06,   1.00340E+06
C:/temp/Job-1.odb,Step-1,Increment      1: Step Time =    1.000,"P-1-1",          7433,   14.8617E-03,   148.280E-03,            0.,NA,NA,"",   900.947E+03,   985.311E+03,   985.311E+03
C:/temp/Job-1.odb,Step-1,Increment      1: Step Time =    1.000,"P-1-1",          7434,   147.936E-03,   186.846E-03,            0.,NA,NA,"",   998.120E+03,   996.478E+03,   996.478E+03
C:/temp/Job-1.odb,Step-1,Increment      1: Step Time =    1.000,"P-1-1",          7435,   14.0407E-03,   35.1839E-03,            0.,NA,NA,"",   962.507E+03,   1.04024E+06,   1.04024E+06
C:/temp/Job-1.odb,Step-1,Increment      1: Step Time =    1.000,"P-1-1",          7436,   50.9056E-03,   14.1082E-03,            0.,NA,NA,"",   1.01900E+06,   1.02053E+06,   1.02053E+06
C:/temp/Job-1.odb,Step-1,Increment      1: Step Time =    1.000,"P-1-1",          7437,   186.630E-03,   51.8198E-03,            0.,NA,NA,"",   999.332E+03,   1.00411E+06,   1.00411E+06
C:/temp/Job-1.odb,Step-1,Increment      1: Step Time =    1.000,"P-1-1",          7438,   64.4428E-03,   186.409E-03,            0.,NA,NA,"",   997.503E+03,   998.053E+03,   998.053E+03
C:/temp/Job-1.odb,Step-1,Increment      1: Step Time =    1.000,"P-1-1",          7439,   14.1913E-03,   64.2418E-03,            0.,NA,NA,"",   859.821E+03,   948.537E+03,   948.537E+03
C:/temp/Job-1.odb,Step-1,Increment      1: Step Time =    1.000,"P-1-1",          7440,   186.094E-03,   135.220E-03,            0.,NA,NA,"",   992.263E+03,   1.00232E+06,   1.00232E+06
C:/temp/Job-1.odb,Step-1,Increment      1: Step Time =    1.000,"P-1-1",          7441,   136.044E-03,   14.4083E-03,            0.,NA,NA,"",   993.558E+03,   992.248E+03,   992.248E+03
C:/temp/Job-1.odb,Step-1,Increment      1: Step Time =    1.000,"P-1-1",          7442,   110.292E-03,   125.690E-03,            0.,NA,NA,"",   1.23110E+06,   1.26599E+06,   1.26599E+06
C:/temp/Job-1.odb,Step-1,Increment      1: Step Time =    1.000,"P-1-1",          7443,   13.7060E-03,   179.150E-03,            0.,NA,NA,"",   1.05267E+06,   1.11322E+06,   1.11322E+06
C:/temp/Job-1.odb,Step-1,Increment      1: Step Time =    1.000,"P-1-1",          7444,   185.939E-03,   20.5876E-03,            0.,NA,NA,"",   1.00151E+06,   1.00139E+06,   1.00139E+06
C:/temp/Job-1.odb,Step-1,Increment      1: Step Time =    1.000,"P-1-1",          7445,   93.6835E-03,   185.850E-03,            0.,NA,NA,"",   969.710E+03,   973.069E+03,   973.069E+03
C:/temp/Job-1.odb,Step-1,Increment      1: Step Time =    1.000,"P-1-1",          7446,   186.053E-03,   106.644E-03,            0.,NA,NA,"",   969.168E+03,   991.871E+03,   991.871E+03
C:/temp/Job-1.odb,Step-1,Increment      1: Step Time =    1.000,"P-1-1",          7447,   14.1130E-03,   93.5007E-03,            0.,NA,NA,"",   799.074E+03,   891.630E+03,   891.630E+03
C:/temp/Job-1.odb,Step-1,Increment      1: Step Time =    1.000,"P-1-1",          7448,   106.688E-03,   14.5751E-03,            0.,NA,NA,"",   971.088E+03,   974.278E+03,   974.278E+03
C:/temp/Job-1.odb,Step-1,Increment      1: Step Time =    1.000,"P-1-1",          7449,   22.1621E-03,   14.0393E-03,            0.,NA,NA,"",   1.09350E+06,   1.11397E+06,   1.11397E+06
C:/temp/Job-1.odb,Step-1,Increment      1: Step Time =    1.000,"P-1-1",          7450,   77.3475E-03,   87.7273E-03,            0.,NA,NA,"",   1.03839E+06,   953.568E+03,   953.568E+03
C:/temp/Job-1.odb,Step-1,Increment      1: Step Time =    1.000,"P-1-1",          7451,   179.462E-03,   186.280E-03,            0.,NA,NA,"",   1.00117E+06,   1.00083E+06,   1.00083E+06
C:/temp/Job-1.odb,Step-1,Increment      1: Step Time =    1.000,"P-1-1",          7452,   13.0523E-03,   143.637E-03,            0.,NA,NA,"",   878.872E+03,   967.690E+03,   967.690E+03
C:/temp/Job-1.odb,Step-1,Increment      1: Step Time =    1.000,"P-1-1",          7453,   142.339E-03,   188.009E-03,            0.,NA,NA,"",   993.250E+03,   991.975E+03,   991.975E+03
C:/temp/Job-1.odb,Step-1,Increment      1: Step Time =    1.000,"P-1-1",          7454,   56.2865E-03,   12.4479E-03,            0.,NA,NA,"",   1.00540E+06,   1.00604E+06,   1.00604E+06
C:/temp/Job-1.odb,Step-1,Increment      1: Step Time =    1.000,"P-1-1",          7455,   187.427E-03,   58.3955E-03,            0.,NA,NA,"",   995.260E+03,   1.00311E+06,   1.00311E+06
C:/temp/Job-1.odb,Step-1,Increment      1: Step Time =    1.000,"P-1-1",          7456,   12.5117E-03,   172.474E-03,            0.,NA,NA,"",   997.636E+03,   1.07263E+06,   1.07263E+06
C:/temp/Job-1.odb,Step-1,Increment      1: Step Time =    1.000,"P-1-1",          7457,   187.889E-03,   26.6967E-03,            0.,NA,NA,"",   1.00164E+06,   1.00181E+06,   1.00181E+06
C:/temp/Job-1.odb,Step-1,Increment      1: Step Time =    1.000,"P-1-1",          7458,   172.193E-03,   187.889E-03,            0.,NA,NA,"",   1.00107E+06,   1.00048E+06,   1.00048E+06
C:/temp/Job-1.odb,Step-1,Increment      1: Step Time =    1.000,"P-1-1",          7459,   125.375E-03,   186.189E-03,            0.,NA,NA,"",   983.386E+03,   983.543E+03,   983.543E+03
C:/temp/Job-1.odb,Step-1,Increment      1: Step Time =    1.000,"P-1-1",          7460,   12.9588E-03,   125.733E-03,            0.,NA,NA,"",   829.281E+03,   921.219E+03,   921.219E+03
C:/temp/Job-1.odb,Step-1,Increment      1: Step Time =    1.000,"P-1-1",          7461,   74.0978E-03,   13.7750E-03,            0.,NA,NA,"",   985.606E+03,   986.772E+03,   986.772E+03
C:/temp/Job-1.odb,Step-1,Increment      1: Step Time =    1.000,"P-1-1",          7462,   186.092E-03,   74.8472E-03,            0.,NA,NA,"",   983.441E+03,   998.737E+03,   998.737E+03
C:/temp/Job-1.odb,Step-1,Increment      1: Step Time =    1.000,"P-1-1",          7463,   40.9197E-03,   186.464E-03,            0.,NA,NA,"",   1.03638E+06,   1.04034E+06,   1.04034E+06
C:/temp/Job-1.odb,Step-1,Increment      1: Step Time =    1.000,"P-1-1",          7464,   159.239E-03,   13.9107E-03,            0.,NA,NA,"",   1.00201E+06,   1.00048E+06,   1.00048E+06
C:/temp/Job-1.odb,Step-1,Increment      1: Step Time =    1.000,"P-1-1",          7465,   186.626E-03,   158.928E-03,            0.,NA,NA,"",   1.00210E+06,   1.00390E+06,   1.00390E+06
C:/temp/Job-1.odb,Step-1,Increment      1: Step Time =    1.000,"P-1-1",          7466,   14.4027E-03,   40.3756E-03,            0.,NA,NA,"",   940.968E+03,   1.02117E+06,   1.02117E+06
C:/temp/Job-1.odb,Step-1,Increment      1: Step Time =    1.000,"P-1-1",          7467,   113.998E-03,   122.981E-03,            0.,NA,NA,"",   1.30472E+06,   1.28194E+06,   1.28194E+06
C:/temp/Job-1.odb,Step-1,Increment      1: Step Time =    1.000,"P-1-1",          7468,   17.1887E-03,   189.256E-03,            0.,NA,NA,"",   1.12927E+06,   1.15043E+06,   1.15043E+06
C:/temp/Job-1.odb,Step-1,Increment      1: Step Time =    1.000,"P-1-1",          7469,   182.539E-03,   10.6939E-03,            0.,NA,NA,"",   1.00021E+06,   1.00008E+06,   1.00008E+06
C:/temp/Job-1.odb,Step-1,Increment      1: Step Time =    1.000,"P-1-1",          7470,   189.538E-03,   183.510E-03,            0.,NA,NA,"",   1.00050E+06,   1.00044E+06,   1.00044E+06
C:/temp/Job-1.odb,Step-1,Increment      1: Step Time =    1.000,"P-1-1",          7471,   10.3768E-03,   17.7481E-03,            0.,NA,NA,"",   1.07105E+06,   1.13828E+06,   1.13828E+06
C:/temp/Job-1.odb,Step-1,Increment      1: Step Time =    1.000,"P-1-1",          7472,   13.2389E-03,   18.0342E-03,            0.,NA,NA,"",   1.07755E+06,   1.13337E+06,   1.13337E+06
C:/temp/Job-1.odb,Step-1,Increment      1: Step Time =    1.000,"P-1-1",          7473,   186.556E-03,   182.714E-03,            0.,NA,NA,"",   1.00095E+06,   1.00083E+06,   1.00083E+06
C:/temp/Job-1.odb,Step-1,Increment      1: Step Time =    1.000,"P-1-1",          7474,   180.997E-03,   13.9063E-03,            0.,NA,NA,"",   1.00101E+06,   1.00075E+06,   1.00075E+06
C:/temp/Job-1.odb,Step-1,Increment      1: Step Time =    1.000,"P-1-1",          7475,   18.3400E-03,   186.005E-03,            0.,NA,NA,"",   1.10673E+06,   1.13501E+06,   1.13501E+06
C:/temp/Job-1.odb,Step-1,Increment      1: Step Time =    1.000,"P-1-1",          7476,   96.3464E-03,   14.4454E-03,            0.,NA,NA,"",   969.429E+03,   973.010E+03,   973.010E+03
C:/temp/Job-1.odb,Step-1,Increment      1: Step Time =    1.000,"P-1-1",          7477,   13.5724E-03,   104.635E-03,            0.,NA,NA,"",   796.897E+03,   889.888E+03,   889.888E+03
C:/temp/Job-1.odb,Step-1,Increment      1: Step Time =    1.000,"P-1-1",          7478,   103.198E-03,   186.664E-03,            0.,NA,NA,"",   966.828E+03,   969.837E+03,   969.837E+03
C:/temp/Job-1.odb,Step-1,Increment      1: Step Time =    1.000,"P-1-1",          7479,   186.719E-03,   97.3238E-03,            0.,NA,NA,"",   968.276E+03,   992.114E+03,   992.114E+03
C:/temp/Job-1.odb,Step-1,Increment      1: Step Time =    1.000,"P-1-1",          7480,   77.7017E-03,   186.019E-03,            0.,NA,NA,"",   981.886E+03,   983.430E+03,   983.430E+03
C:/temp/Job-1.odb,Step-1,Increment      1: Step Time =    1.000,"P-1-1",          7481,   186.384E-03,   122.296E-03,            0.,NA,NA,"",   980.662E+03,   997.652E+03,   997.652E+03
C:/temp/Job-1.odb,Step-1,Increment      1: Step Time =    1.000,"P-1-1",          7482,   13.4176E-03,   77.6319E-03,            0.,NA,NA,"",   822.861E+03,   914.650E+03,   914.650E+03
C:/temp/Job-1.odb,Step-1,Increment      1: Step Time =    1.000,"P-1-1",          7483,   121.484E-03,   14.4175E-03,            0.,NA,NA,"",   981.158E+03,   981.986E+03,   981.986E+03
C:/temp/Job-1.odb,Step-1,Increment      1: Step Time =    1.000,"P-1-1",          7484,   14.0378E-03,   161.529E-03,            0.,NA,NA,"",   947.341E+03,   1.02738E+06,   1.02738E+06
C:/temp/Job-1.odb,Step-1,Increment      1: Step Time =    1.000,"P-1-1",          7485,   185.872E-03,   36.6946E-03,            0.,NA,NA,"",   1.00301E+06,   1.00390E+06,   1.00390E+06
C:/temp/Job-1.odb,Step-1,Increment      1: Step Time =    1.000,"P-1-1",          7486,   48.1256E-03,   187.455E-03,            0.,NA,NA,"",   1.01913E+06,   1.02074E+06,   1.02074E+06
C:/temp/Job-1.odb,Step-1,Increment      1: Step Time =    1.000,"P-1-1",          7487,   36.8472E-03,   14.7835E-03,            0.,NA,NA,"",   1.04862E+06,   1.05541E+06,   1.05541E+06
C:/temp/Job-1.odb,Step-1,Increment      1: Step Time =    1.000,"P-1-1",          7488,   13.7265E-03,   47.5621E-03,            0.,NA,NA,"",   910.608E+03,   995.643E+03,   995.643E+03
C:/temp/Job-1.odb,Step-1,Increment      1: Step Time =    1.000,"P-1-1",          7489,   185.366E-03,   152.857E-03,            0.,NA,NA,"",   1.00216E+06,   1.00497E+06,   1.00497E+06
C:/temp/Job-1.odb,Step-1,Increment      1: Step Time =    1.000,"P-1-1",          7490,   152.937E-03,   13.9225E-03,            0.,NA,NA,"",   1.00106E+06,   999.266E+03,   999.266E+03
C:/temp/Job-1.odb,Step-1,Increment      1: Step Time =    1.000,"P-1-1",          7491,   163.480E-03,   185.935E-03,            0.,NA,NA,"",   1.00251E+06,   1.00115E+06,   1.00115E+06
C:/temp/Job-1.odb,Step-1,Increment      1: Step Time =    1.000,"P-1-1",          7492,   14.0818E-03,   27.7203E-03,            0.,NA,NA,"",   1.00361E+06,   1.07384E+06,   1.07384E+06
C:/temp/Job-1.odb,Step-1,Increment      1: Step Time =    1.000,"P-1-1",          7493,   186.465E-03,   172.270E-03,            0.,NA,NA,"",   1.00223E+06,   1.00235E+06,   1.00235E+06
C:/temp/Job-1.odb,Step-1,Increment      1: Step Time =    1.000,"P-1-1",          7494,   87.5108E-03,   13.7910E-03,            0.,NA,NA,"",   972.070E+03,   974.792E+03,   974.792E+03
C:/temp/Job-1.odb,Step-1,Increment      1: Step Time =    1.000,"P-1-1",          7495,   112.352E-03,   188.099E-03,            0.,NA,NA,"",   967.106E+03,   968.775E+03,   968.775E+03
C:/temp/Job-1.odb,Step-1,Increment      1: Step Time =    1.000,"P-1-1",          7496,   14.2971E-03,   112.197E-03,            0.,NA,NA,"",   805.760E+03,   897.765E+03,   897.765E+03
C:/temp/Job-1.odb,Step-1,Increment      1: Step Time =    1.000,"P-1-1",          7497,   172.245E-03,   13.7526E-03,            0.,NA,NA,"",   1.00183E+06,   1.00110E+06,   1.00110E+06
C:/temp/Job-1.odb,Step-1,Increment      1: Step Time =    1.000,"P-1-1",          7498,   27.5600E-03,   186.702E-03,            0.,NA,NA,"",   1.07451E+06,   1.08647E+06,   1.08647E+06
C:/temp/Job-1.odb,Step-1,Increment      1: Step Time =    1.000,"P-1-1",          7499,   186.808E-03,   86.9009E-03,            0.,NA,NA,"",   972.967E+03,   994.462E+03,   994.462E+03
C:/temp/Job-1.odb,Step-1,Increment      1: Step Time =    1.000,"P-1-1",          7500,   143.629E-03,   13.9414E-03,            0.,NA,NA,"",   997.510E+03,   995.765E+03,   995.765E+03
C:/temp/Job-1.odb,Step-1,Increment      1: Step Time =    1.000,"P-1-1",          7501,   186.482E-03,   142.431E-03,            0.,NA,NA,"",   996.696E+03,   1.00367E+06,   1.00367E+06
C:/temp/Job-1.odb,Step-1,Increment      1: Step Time =    1.000,"P-1-1",          7502,   14.3287E-03,   56.1252E-03,            0.,NA,NA,"",   884.858E+03,   971.411E+03,   971.411E+03
C:/temp/Job-1.odb,Step-1,Increment      1: Step Time =    1.000,"P-1-1",          7503,   56.5389E-03,   185.230E-03,            0.,NA,NA,"",   1.01234E+06,   1.01330E+06,   1.01330E+06
C:/temp/Job-1.odb,Step-1,Increment      1: Step Time =    1.000,"P-1-1",          7504,   84.1203E-03,   86.0213E-03,            0.,NA,NA,"",   1.27779E+06,   1.16248E+06,   1.16248E+06
C:/temp/Job-1.odb,Step-1,Increment      1: Step Time =    1.000,"P-1-1",          7505,   14.2270E-03,   83.1551E-03,            0.,NA,NA,"",   813.357E+03,   904.992E+03,   904.992E+03
C:/temp/Job-1.odb,Step-1,Increment      1: Step Time =    1.000,"P-1-1",          7506,   83.7095E-03,   187.748E-03,            0.,NA,NA,"",    970.23E+03,   972.048E+03,   972.048E+03
C:/temp/Job-1.odb,Step-1,Increment      1: Step Time =    1.000,"P-1-1",          7507,   187.454E-03,   116.093E-03,            0.,NA,NA,"",   974.900E+03,   995.835E+03,   995.835E+03
C:/temp/Job-1.odb,Step-1,Increment      1: Step Time =    1.000,"P-1-1",          7508,   116.607E-03,   120.420E-03,            0.,NA,NA,"",   1.33027E+06,   1.26173E+06,   1.26173E+06
C:/temp/Job-1.odb,Step-1,Increment      1: Step Time =    1.000,"P-1-1",          7509,   124.139E-03,   114.745E-03,            0.,NA,NA,"",   1.12403E+06,   1.02608E+06,   1.02608E+06
C:/temp/Job-1.odb,Step-1,Increment      1: Step Time =    1.000,"P-1-1",          7510,   118.765E-03,   118.446E-03,            0.,NA,NA,"",   1.29679E+06,   1.19901E+06,   1.19901E+06
C:/temp/Job-1.odb,Step-1,Increment      1: Step Time =    1.000,"P-1-1",          7511,   80.1202E-03,   84.3315E-03,            0.,NA,NA,"",   1.21037E+06,   1.11543E+06,   1.11543E+06
C:/temp/Job-1.odb,Step-1,Increment      1: Step Time =    1.000,"P-1-1",          7512,   13.2082E-03,   113.779E-03,            0.,NA,NA,"",   805.976E+03,   898.831E+03,   898.831E+03
C:/temp/Job-1.odb,Step-1,Increment      1: Step Time =    1.000,"P-1-1",          7513,   86.0655E-03,   12.5672E-03,            0.,NA,NA,"",   969.283E+03,   971.453E+03,   971.453E+03
C:/temp/Job-1.odb,Step-1,Increment      1: Step Time =    1.000,"P-1-1",          7514,   188.859E-03,   85.7621E-03,            0.,NA,NA,"",   973.186E+03,   996.112E+03,   996.112E+03
C:/temp/Job-1.odb,Step-1,Increment      1: Step Time =    1.000,"P-1-1",          7515,   28.7377E-03,   188.182E-03,            0.,NA,NA,"",   1.06904E+06,   1.07778E+06,   1.07778E+06
C:/temp/Job-1.odb,Step-1,Increment      1: Step Time =    1.000,"P-1-1",          7516,   171.429E-03,   12.4764E-03,            0.,NA,NA,"",   1.00124E+06,   1.00058E+06,   1.00058E+06
C:/temp/Job-1.odb,Step-1,Increment      1: Step Time =    1.000,"P-1-1",          7517,   188.198E-03,   171.051E-03,            0.,NA,NA,"",   1.00164E+06,   1.00198E+06,   1.00198E+06
C:/temp/Job-1.odb,Step-1,Increment      1: Step Time =    1.000,"P-1-1",          7518,   57.6029E-03,   187.431E-03,            0.,NA,NA,"",   1.00360E+06,   1.00412E+06,   1.00412E+06
C:/temp/Job-1.odb,Step-1,Increment      1: Step Time =    1.000,"P-1-1",          7519,   13.2114E-03,   57.6685E-03,            0.,NA,NA,"",   875.760E+03,   964.536E+03,   964.536E+03
C:/temp/Job-1.odb,Step-1,Increment      1: Step Time =    1.000,"P-1-1",          7520,   188.017E-03,   141.662E-03,            0.,NA,NA,"",   994.755E+03,   1.00287E+06,   1.00287E+06
C:/temp/Job-1.odb,Step-1,Increment      1: Step Time =    1.000,"P-1-1",          7521,   142.280E-03,   12.7357E-03,            0.,NA,NA,"",   994.570E+03,   993.129E+03,   993.129E+03
C:/temp/Job-1.odb,Step-1,Increment      1: Step Time =    1.000,"P-1-1",          7522,   185.729E-03,   68.5433E-03,            0.,NA,NA,"",   989.465E+03,   1.00120E+06,   1.00120E+06
C:/temp/Job-1.odb,Step-1,Increment      1: Step Time =    1.000,"P-1-1",          7523,   69.2695E-03,   15.4227E-03,            0.,NA,NA,"",   996.838E+03,   997.806E+03,   997.806E+03
C:/temp/Job-1.odb,Step-1,Increment      1: Step Time =    1.000,"P-1-1",          7524,   130.652E-03,   185.178E-03,            0.,NA,NA,"",   990.471E+03,   989.786E+03,   989.786E+03
C:/temp/Job-1.odb,Step-1,Increment      1: Step Time =    1.000,"P-1-1",          7525,   16.1252E-03,   131.893E-03,            0.,NA,NA,"",   855.151E+03,   942.012E+03,   942.012E+03
C:/temp/Job-1.odb,Step-1,Increment      1: Step Time =    1.000,"P-1-1",          7526,   102.952E-03,   127.479E-03,            0.,NA,NA,"",   1.11862E+06,   1.21674E+06,   1.21674E+06
C:/temp/Job-1.odb,Step-1,Increment      1: Step Time =    1.000,"P-1-1",          7527,   186.502E-03,   59.8726E-03,            0.,NA,NA,"",   995.286E+03,   1.00329E+06,   1.00329E+06
C:/temp/Job-1.odb,Step-1,Increment      1: Step Time =    1.000,"P-1-1",          7528,   58.2826E-03,   15.1048E-03,            0.,NA,NA,"",   1.01074E+06,   1.01164E+06,   1.01164E+06
C:/temp/Job-1.odb,Step-1,Increment      1: Step Time =    1.000,"P-1-1",          7529,   140.155E-03,   185.715E-03,            0.,NA,NA,"",   996.080E+03,   994.463E+03,   994.463E+03
C:/temp/Job-1.odb,Step-1,Increment      1: Step Time =    1.000,"P-1-1",          7530,   14.6838E-03,   141.443E-03,            0.,NA,NA,"",   878.679E+03,   965.261E+03,   965.261E+03
C:/temp/Job-1.odb,Step-1,Increment      1: Step Time =    1.000,"P-1-1",          7531,   170.529E-03,   185.680E-03,            0.,NA,NA,"",   1.00239E+06,   1.00147E+06,   1.00147E+06
C:/temp/Job-1.odb,Step-1,Increment      1: Step Time =    1.000,"P-1-1",          7532,   28.9618E-03,   15.0675E-03,            0.,NA,NA,"",   1.06979E+06,   1.08286E+06,   1.08286E+06
C:/temp/Job-1.odb,Step-1,Increment      1: Step Time =    1.000,"P-1-1",          7533,   184.926E-03,   29.5486E-03,            0.,NA,NA,"",   1.00314E+06,   1.00318E+06,   1.00318E+06
C:/temp/Job-1.odb,Step-1,Increment      1: Step Time =    1.000,"P-1-1",          7534,   13.6662E-03,   170.755E-03,            0.,NA,NA,"",   992.350E+03,   1.06571E+06,   1.06571E+06
C:/temp/Job-1.odb,Step-1,Increment      1: Step Time =    1.000,"P-1-1",          7535,   184.139E-03,   184.755E-03,            0.,NA,NA,"",   1.00092E+06,   1.00075E+06,   1.00075E+06
C:/temp/Job-1.odb,Step-1,Increment      1: Step Time =    1.000,"P-1-1",          7536,   15.4580E-03,   13.7069E-03,            0.,NA,NA,"",   1.11623E+06,   1.15175E+06,   1.15175E+06
C:/temp/Job-1.odb,Step-1,Increment      1: Step Time =    1.000,"P-1-1",          7537,   119.405E-03,   117.149E-03,            0.,NA,NA,"",   1.27682E+06,   1.16764E+06,   1.16764E+06
C:/temp/Job-1.odb,Step-1,Increment      1: Step Time =    1.000,"P-1-1",          7538,   185.422E-03,   16.6613E-03,            0.,NA,NA,"",   1.00101E+06,   1.00086E+06,   1.00086E+06
C:/temp/Job-1.odb,Step-1,Increment      1: Step Time =    1.000,"P-1-1",          7539,   13.9584E-03,   183.632E-03,            0.,NA,NA,"",   1.09392E+06,   1.14271E+06,   1.14271E+06
C:/temp/Job-1.odb,Step-1,Increment      1: Step Time =    1.000,"P-1-1",          7540,   82.5790E-03,   119.506E-03,            0.,NA,NA,"",   1.29642E+06,   1.23185E+06,   1.23185E+06
C:/temp/Job-1.odb,Step-1,Increment      1: Step Time =    1.000,"P-1-1",          7541,   75.5979E-03,   113.238E-03,            0.,NA,NA,"",   1.03009E+06,   962.217E+03,   962.217E+03
C:/temp/Job-1.odb,Step-1,Increment      1: Step Time =    1.000,"P-1-1",          7542,   78.0160E-03,   116.965E-03,            0.,NA,NA,"",   1.17982E+06,   1.10100E+06,   1.10100E+06
C:/temp/Job-1.odb,Step-1,Increment      1: Step Time =    1.000,"P-1-1",          7543,   86.5560E-03,   125.185E-03,            0.,NA,NA,"",   1.25451E+06,   1.25903E+06,   1.25903E+06
C:/temp/Job-1.odb,Step-1,Increment      1: Step Time =    1.000,"P-1-1",          7544,   112.333E-03,   125.240E-03,            0.,NA,NA,"",   1.25683E+06,   1.26569E+06,   1.26569E+06
C:/temp/Job-1.odb,Step-1,Increment      1: Step Time =    1.000,"P-1-1",          7545,   124.771E-03,   112.925E-03,            0.,NA,NA,"",   1.05693E+06,   963.875E+03,   963.875E+03
C:/temp/Job-1.odb,Step-1,Increment      1: Step Time =    1.000,"P-1-1",          7546,   101.346E-03,   126.482E-03,            0.,NA,NA,"",   1.12426E+06,   1.23227E+06,   1.23227E+06
C:/temp/Job-1.odb,Step-1,Increment      1: Step Time =    1.000,"P-1-1",          7547,   124.424E-03,   94.7770E-03,            0.,NA,NA,"",   659.867E+03,   623.825E+03,   623.825E+03
C:/temp/Job-1.odb,Step-1,Increment      1: Step Time =    1.000,"P-1-1",          7548,   83.8844E-03,   121.814E-03,            0.,NA,NA,"",   1.29392E+06,   1.25524E+06,   1.25524E+06
C:/temp/Job-1.odb,Step-1,Increment      1: Step Time =    1.000,"P-1-1",          7549,   128.088E-03,   106.721E-03,            0.,NA,NA,"",   759.341E+03,   734.133E+03,   734.133E+03
C:/temp/Job-1.odb,Step-1,Increment      1: Step Time =    1.000,"P-1-1",          7550,   123.347E-03,   116.448E-03,            0.,NA,NA,"",   1.18099E+06,   1.08101E+06,   1.08101E+06
C:/temp/Job-1.odb,Step-1,Increment      1: Step Time =    1.000,"P-1-1",          7551,   102.092E-03,   14.4878E-03,            0.,NA,NA,"",   969.591E+03,   973.101E+03,   973.101E+03
C:/temp/Job-1.odb,Step-1,Increment      1: Step Time =    1.000,"P-1-1",          7552,   15.0103E-03,   98.7224E-03,            0.,NA,NA,"",   797.894E+03,   889.895E+03,   889.895E+03
C:/temp/Job-1.odb,Step-1,Increment      1: Step Time =    1.000,"P-1-1",          7553,   184.594E-03,   101.848E-03,            0.,NA,NA,"",   967.464E+03,   989.568E+03,   989.568E+03
C:/temp/Job-1.odb,Step-1,Increment      1: Step Time =    1.000,"P-1-1",          7554,   98.3375E-03,   184.320E-03,            0.,NA,NA,"",   972.542E+03,   976.693E+03,   976.693E+03
C:/temp/Job-1.odb,Step-1,Increment      1: Step Time =    1.000,"P-1-1",          7555,   14.9972E-03,   42.3656E-03,            0.,NA,NA,"",   935.525E+03,   1.01567E+06,   1.01567E+06
C:/temp/Job-1.odb,Step-1,Increment      1: Step Time =    1.000,"P-1-1",          7556,   157.389E-03,   184.474E-03,            0.,NA,NA,"",   1.00377E+06,   1.00179E+06,   1.00179E+06
C:/temp/Job-1.odb,Step-1,Increment      1: Step Time =    1.000,"P-1-1",          7557,   42.3990E-03,   14.4252E-03,            0.,NA,NA,"",   1.03538E+06,   1.03935E+06,   1.03935E+06
C:/temp/Job-1.odb,Step-1,Increment      1: Step Time =    1.000,"P-1-1",          7558,   184.895E-03,   157.758E-03,            0.,NA,NA,"",   1.00343E+06,   1.00499E+06,   1.00499E+06
C:/temp/Job-1.odb,Step-1,Increment      1: Step Time =    1.000,"P-1-1",          7559,   158.283E-03,   15.0861E-03,            0.,NA,NA,"",   1.00331E+06,   1.00147E+06,   1.00147E+06
C:/temp/Job-1.odb,Step-1,Increment      1: Step Time =    1.000,"P-1-1",          7560,   184.512E-03,   42.6039E-03,            0.,NA,NA,"",   1.00374E+06,   1.00524E+06,   1.00524E+06
C:/temp/Job-1.odb,Step-1,Increment      1: Step Time =    1.000,"P-1-1",          7561,   42.3422E-03,   184.909E-03,            0.,NA,NA,"",   1.03690E+06,   1.04125E+06,   1.04125E+06
C:/temp/Job-1.odb,Step-1,Increment      1: Step Time =    1.000,"P-1-1",          7562,   14.4442E-03,   157.320E-03,            0.,NA,NA,"",   931.893E+03,   1.01334E+06,   1.01334E+06
C:/temp/Job-1.odb,Step-1,Increment      1: Step Time =    1.000,"P-1-1",          7563,   185.069E-03,   73.7143E-03,            0.,NA,NA,"",   985.163E+03,   999.065E+03,   999.065E+03
C:/temp/Job-1.odb,Step-1,Increment      1: Step Time =    1.000,"P-1-1",          7564,   128.060E-03,   103.257E-03,            0.,NA,NA,"",   626.823E+03,   630.631E+03,   630.631E+03
C:/temp/Job-1.odb,Step-1,Increment      1: Step Time =    1.000,"P-1-1",          7565,   127.768E-03,   15.7000E-03,            0.,NA,NA,"",   989.894E+03,   989.644E+03,   989.644E+03
C:/temp/Job-1.odb,Step-1,Increment      1: Step Time =    1.000,"P-1-1",          7566,   72.5256E-03,   14.1736E-03,            0.,NA,NA,"",   988.725E+03,   989.755E+03,   989.755E+03
C:/temp/Job-1.odb,Step-1,Increment      1: Step Time =    1.000,"P-1-1",          7567,   184.602E-03,   127.943E-03,            0.,NA,NA,"",   987.140E+03,   999.832E+03,   999.832E+03
C:/temp/Job-1.odb,Step-1,Increment      1: Step Time =    1.000,"P-1-1",          7568,   14.4650E-03,   71.9070E-03,            0.,NA,NA,"",   839.425E+03,   929.261E+03,   929.261E+03
C:/temp/Job-1.odb,Step-1,Increment      1: Step Time =    1.000,"P-1-1",          7569,   72.1560E-03,   184.946E-03,            0.,NA,NA,"",   992.092E+03,   993.261E+03,   993.261E+03
C:/temp/Job-1.odb,Step-1,Increment      1: Step Time =    1.000,"P-1-1",          7570,   126.585E-03,   185.242E-03,            0.,NA,NA,"",   986.740E+03,   986.718E+03,   986.718E+03
C:/temp/Job-1.odb,Step-1,Increment      1: Step Time =    1.000,"P-1-1",          7571,   14.6371E-03,   127.485E-03,            0.,NA,NA,"",   838.537E+03,   928.212E+03,   928.212E+03
C:/temp/Job-1.odb,Step-1,Increment      1: Step Time =    1.000,"P-1-1",          7572,   76.2136E-03,   116.599E-03,            0.,NA,NA,"",   1.13255E+06,   1.06237E+06,   1.06237E+06
C:/temp/Job-1.odb,Step-1,Increment      1: Step Time =    1.000,"P-1-1",          7573,   179.419E-03,   184.928E-03,            0.,NA,NA,"",   1.00155E+06,   1.00115E+06,   1.00115E+06
C:/temp/Job-1.odb,Step-1,Increment      1: Step Time =    1.000,"P-1-1",          7574,   20.7913E-03,   14.5969E-03,            0.,NA,NA,"",   1.09527E+06,   1.11967E+06,   1.11967E+06
C:/temp/Job-1.odb,Step-1,Increment      1: Step Time =    1.000,"P-1-1",          7575,   184.938E-03,   19.5272E-03,            0.,NA,NA,"",   1.00157E+06,   1.00139E+06,   1.00139E+06
C:/temp/Job-1.odb,Step-1,Increment      1: Step Time =    1.000,"P-1-1",          7576,   105.869E-03,   15.7814E-03,            0.,NA,NA,"",   973.755E+03,   977.511E+03,   977.511E+03
C:/temp/Job-1.odb,Step-1,Increment      1: Step Time =    1.000,"P-1-1",          7577,   13.7156E-03,   180.627E-03,            0.,NA,NA,"",   1.06554E+06,   1.12284E+06,   1.12284E+06
C:/temp/Job-1.odb,Step-1,Increment      1: Step Time =    1.000,"P-1-1",          7578,   14.3331E-03,   95.0847E-03,            0.,NA,NA,"",   798.372E+03,   890.765E+03,   890.765E+03
C:/temp/Job-1.odb,Step-1,Increment      1: Step Time =    1.000,"P-1-1",          7579,   185.993E-03,   104.979E-03,            0.,NA,NA,"",   968.608E+03,   991.581E+03,   991.581E+03
C:/temp/Job-1.odb,Step-1,Increment      1: Step Time =    1.000,"P-1-1",          7580,   95.2681E-03,   185.777E-03,            0.,NA,NA,"",   969.316E+03,   972.730E+03,   972.730E+03
C:/temp/Job-1.odb,Step-1,Increment      1: Step Time =    1.000,"P-1-1",          7581,   15.0279E-03,   23.4921E-03,            0.,NA,NA,"",   1.03621E+06,   1.09724E+06,   1.09724E+06
C:/temp/Job-1.odb,Step-1,Increment      1: Step Time =    1.000,"P-1-1",          7582,   184.623E-03,   177.443E-03,            0.,NA,NA,"",   1.00216E+06,   1.00197E+06,   1.00197E+06
C:/temp/Job-1.odb,Step-1,Increment      1: Step Time =    1.000,"P-1-1",          7583,   134.618E-03,   14.6566E-03,            0.,NA,NA,"",   993.070E+03,   991.871E+03,   991.871E+03
C:/temp/Job-1.odb,Step-1,Increment      1: Step Time =    1.000,"P-1-1",          7584,   167.492E-03,   184.842E-03,            0.,NA,NA,"",   1.00313E+06,   1.00190E+06,   1.00190E+06
C:/temp/Job-1.odb,Step-1,Increment      1: Step Time =    1.000,"P-1-1",          7585,   185.672E-03,   133.816E-03,            0.,NA,NA,"",   991.495E+03,   1.00199E+06,   1.00199E+06
C:/temp/Job-1.odb,Step-1,Increment      1: Step Time =    1.000,"P-1-1",          7586,   14.4862E-03,   65.5684E-03,            0.,NA,NA,"",   856.993E+03,   945.582E+03,   945.582E+03
C:/temp/Job-1.odb,Step-1,Increment      1: Step Time =    1.000,"P-1-1",          7587,   185.117E-03,   44.8670E-03,            0.,NA,NA,"",   1.00280E+06,   1.00499E+06,   1.00499E+06
C:/temp/Job-1.odb,Step-1,Increment      1: Step Time =    1.000,"P-1-1",          7588,   154.942E-03,   15.4885E-03,            0.,NA,NA,"",   1.00341E+06,   1.00134E+06,   1.00134E+06
C:/temp/Job-1.odb,Step-1,Increment      1: Step Time =    1.000,"P-1-1",          7589,   46.7405E-03,   14.9069E-03,            0.,NA,NA,"",   1.02826E+06,   1.03106E+06,   1.03106E+06
C:/temp/Job-1.odb,Step-1,Increment      1: Step Time =    1.000,"P-1-1",          7590,   185.123E-03,   154.983E-03,            0.,NA,NA,"",   1.00280E+06,   1.00503E+06,   1.00503E+06
C:/temp/Job-1.odb,Step-1,Increment      1: Step Time =    1.000,"P-1-1",          7591,   34.0101E-03,   15.2058E-03,            0.,NA,NA,"",   1.05609E+06,   1.06498E+06,   1.06498E+06
C:/temp/Job-1.odb,Step-1,Increment      1: Step Time =    1.000,"P-1-1",          7592,   15.4677E-03,   46.4726E-03,            0.,NA,NA,"",   922.424E+03,   1.00333E+06,   1.00333E+06
C:/temp/Job-1.odb,Step-1,Increment      1: Step Time =    1.000,"P-1-1",          7593,   155.034E-03,   185.123E-03,            0.,NA,NA,"",   1.00260E+06,   1.00068E+06,   1.00068E+06
C:/temp/Job-1.odb,Step-1,Increment      1: Step Time =    1.000,"P-1-1",          7594,   65.9533E-03,   186.294E-03,            0.,NA,NA,"",   995.552E+03,   996.149E+03,   996.149E+03
C:/temp/Job-1.odb,Step-1,Increment      1: Step Time =    1.000,"P-1-1",          7595,   131.325E-03,   15.7118E-03,            0.,NA,NA,"",   993.005E+03,   992.148E+03,   992.148E+03
C:/temp/Job-1.odb,Step-1,Increment      1: Step Time =    1.000,"P-1-1",          7596,   185.041E-03,   130.933E-03,            0.,NA,NA,"",   989.558E+03,   1.00109E+06,   1.00109E+06
C:/temp/Job-1.odb,Step-1,Increment      1: Step Time =    1.000,"P-1-1",          7597,   117.777E-03,   13.6962E-03,            0.,NA,NA,"",   976.161E+03,   977.525E+03,   977.525E+03
C:/temp/Job-1.odb,Step-1,Increment      1: Step Time =    1.000,"P-1-1",          7598,   13.9417E-03,   36.7663E-03,            0.,NA,NA,"",   954.642E+03,   1.03380E+06,   1.03380E+06
C:/temp/Job-1.odb,Step-1,Increment      1: Step Time =    1.000,"P-1-1",          7599,   184.456E-03,   32.8242E-03,            0.,NA,NA,"",   1.00377E+06,   1.00397E+06,   1.00397E+06
C:/temp/Job-1.odb,Step-1,Increment      1: Step Time =    1.000,"P-1-1",          7600,   45.0714E-03,   184.869E-03,            0.,NA,NA,"",   1.03193E+06,   1.03529E+06,   1.03529E+06
C:/temp/Job-1.odb,Step-1,Increment      1: Step Time =    1.000,"P-1-1",          7601,   15.1532E-03,   154.453E-03,            0.,NA,NA,"",   924.341E+03,   1.00551E+06,   1.00551E+06
C:/temp/Job-1.odb,Step-1,Increment      1: Step Time =    1.000,"P-1-1",          7602,   176.495E-03,   14.0616E-03,            0.,NA,NA,"",   1.00156E+06,   1.00105E+06,   1.00105E+06
C:/temp/Job-1.odb,Step-1,Increment      1: Step Time =    1.000,"P-1-1",          7603,   15.7523E-03,   68.6058E-03,            0.,NA,NA,"",   852.465E+03,   939.953E+03,   939.953E+03
C:/temp/Job-1.odb,Step-1,Increment      1: Step Time =    1.000,"P-1-1",          7604,   69.1260E-03,   185.147E-03,            0.,NA,NA,"",   995.159E+03,   996.034E+03,   996.034E+03
C:/temp/Job-1.odb,Step-1,Increment      1: Step Time =    1.000,"P-1-1",          7605,   13.9747E-03,   81.7708E-03,            0.,NA,NA,"",   815.425E+03,   907.157E+03,   907.157E+03
C:/temp/Job-1.odb,Step-1,Increment      1: Step Time =    1.000,"P-1-1",          7606,   186.044E-03,   117.488E-03,            0.,NA,NA,"",   976.429E+03,   995.488E+03,   995.488E+03
C:/temp/Job-1.odb,Step-1,Increment      1: Step Time =    1.000,"P-1-1",          7607,   186.379E-03,   50.4797E-03,            0.,NA,NA,"",   1.00011E+06,   1.00433E+06,   1.00433E+06
C:/temp/Job-1.odb,Step-1,Increment      1: Step Time =    1.000,"P-1-1",          7608,   82.2718E-03,   186.058E-03,            0.,NA,NA,"",     977.1E+03,   979.249E+03,   979.249E+03
C:/temp/Job-1.odb,Step-1,Increment      1: Step Time =    1.000,"P-1-1",          7609,   49.5312E-03,   14.3591E-03,            0.,NA,NA,"",   1.02202E+06,   1.02388E+06,   1.02388E+06
C:/temp/Job-1.odb,Step-1,Increment      1: Step Time =    1.000,"P-1-1",          7610,   22.5518E-03,   185.228E-03,            0.,NA,NA,"",   1.09002E+06,   1.11142E+06,   1.11142E+06
C:/temp/Job-1.odb,Step-1,Increment      1: Step Time =    1.000,"P-1-1",          7611,   14.9236E-03,   167.382E-03,            0.,NA,NA,"",   979.377E+03,   1.05261E+06,   1.05261E+06
C:/temp/Job-1.odb,Step-1,Increment      1: Step Time =    1.000,"P-1-1",          7612,   147.839E-03,   14.0297E-03,            0.,NA,NA,"",   999.510E+03,   997.659E+03,   997.659E+03
C:/temp/Job-1.odb,Step-1,Increment      1: Step Time =    1.000,"P-1-1",          7613,   185.729E-03,   148.354E-03,            0.,NA,NA,"",   1.00023E+06,   1.00463E+06,   1.00463E+06
C:/temp/Job-1.odb,Step-1,Increment      1: Step Time =    1.000,"P-1-1",          7614,   149.270E-03,   186.469E-03,            0.,NA,NA,"",    999.28E+03,   997.550E+03,   997.550E+03
C:/temp/Job-1.odb,Step-1,Increment      1: Step Time =    1.000,"P-1-1",          7615,   13.7965E-03,   52.1069E-03,            0.,NA,NA,"",   895.456E+03,   981.861E+03,   981.861E+03
C:/temp/Job-1.odb,Step-1,Increment      1: Step Time =    1.000,"P-1-1",          7616,   185.434E-03,   163.802E-03,            0.,NA,NA,"",   1.00320E+06,   1.00395E+06,   1.00395E+06
C:/temp/Job-1.odb,Step-1,Increment      1: Step Time =    1.000,"P-1-1",          7617,   184.645E-03,   63.5857E-03,            0.,NA,NA,"",   994.570E+03,   1.00313E+06,   1.00313E+06
C:/temp/Job-1.odb,Step-1,Increment      1: Step Time =    1.000,"P-1-1",          7618,   62.4119E-03,   15.2694E-03,            0.,NA,NA,"",   1.00547E+06,   1.00617E+06,   1.00617E+06
C:/temp/Job-1.odb,Step-1,Increment      1: Step Time =    1.000,"P-1-1",          7619,   14.3542E-03,   151.048E-03,            0.,NA,NA,"",   908.291E+03,   992.607E+03,   992.607E+03
C:/temp/Job-1.odb,Step-1,Increment      1: Step Time =    1.000,"P-1-1",          7620,   51.7950E-03,   185.858E-03,            0.,NA,NA,"",   1.01747E+06,   1.01886E+06,   1.01886E+06
C:/temp/Job-1.odb,Step-1,Increment      1: Step Time =    1.000,"P-1-1",          7621,   137.059E-03,   185.260E-03,            0.,NA,NA,"",   994.989E+03,   993.516E+03,   993.516E+03
C:/temp/Job-1.odb,Step-1,Increment      1: Step Time =    1.000,"P-1-1",          7622,   14.6502E-03,   137.718E-03,            0.,NA,NA,"",   867.308E+03,   954.798E+03,   954.798E+03
C:/temp/Job-1.odb,Step-1,Increment      1: Step Time =    1.000,"P-1-1",          7623,   163.404E-03,   14.5519E-03,            0.,NA,NA,"",   1.00291E+06,   1.00147E+06,   1.00147E+06
C:/temp/Job-1.odb,Step-1,Increment      1: Step Time =    1.000,"P-1-1",          7624,   184.892E-03,   79.5577E-03,            0.,NA,NA,"",   979.575E+03,   996.282E+03,   996.282E+03
C:/temp/Job-1.odb,Step-1,Increment      1: Step Time =    1.000,"P-1-1",          7625,   91.7686E-03,   14.2634E-03,            0.,NA,NA,"",   970.989E+03,   974.317E+03,   974.317E+03
C:/temp/Job-1.odb,Step-1,Increment      1: Step Time =    1.000,"P-1-1",          7626,   14.2567E-03,   107.844E-03,            0.,NA,NA,"",   800.444E+03,   892.799E+03,   892.799E+03
C:/temp/Job-1.odb,Step-1,Increment      1: Step Time =    1.000,"P-1-1",          7627,   176.700E-03,   185.698E-03,            0.,NA,NA,"",   1.00163E+06,   1.00112E+06,   1.00112E+06
C:/temp/Job-1.odb,Step-1,Increment      1: Step Time =    1.000,"P-1-1",          7628,   108.418E-03,   185.426E-03,            0.,NA,NA,"",   971.876E+03,   974.890E+03,   974.890E+03
C:/temp/Job-1.odb,Step-1,Increment      1: Step Time =    1.000,"P-1-1",          7629,   35.9460E-03,   185.347E-03,            0.,NA,NA,"",   1.05052E+06,   1.05771E+06,   1.05771E+06
C:/temp/Job-1.odb,Step-1,Increment      1: Step Time =    1.000,"P-1-1",          7630,   184.971E-03,   90.9809E-03,            0.,NA,NA,"",   970.294E+03,   991.471E+03,   991.471E+03
C:/temp/Job-1.odb,Step-1,Increment      1: Step Time =    1.000,"P-1-1",          7631,   79.4218E-03,   14.4994E-03,            0.,NA,NA,"",   981.710E+03,   983.680E+03,   983.680E+03
C:/temp/Job-1.odb,Step-1,Increment      1: Step Time =    1.000,"P-1-1",          7632,   22.6500E-03,   15.3162E-03,            0.,NA,NA,"",   1.08738E+06,   1.10982E+06,   1.10982E+06
C:/temp/Job-1.odb,Step-1,Increment      1: Step Time =    1.000,"P-1-1",          7633,   121.103E-03,   184.930E-03,            0.,NA,NA,"",   982.512E+03,   983.519E+03,   983.519E+03
C:/temp/Job-1.odb,Step-1,Increment      1: Step Time =    1.000,"P-1-1",          7634,   14.3499E-03,   121.227E-03,            0.,NA,NA,"",   822.535E+03,    913.52E+03,    913.52E+03
C:/temp/Job-1.odb,Step-1,Increment      1: Step Time =    1.000,"P-1-1",          7635,   184.874E-03,   21.5325E-03,            0.,NA,NA,"",   1.00192E+06,   1.00174E+06,   1.00174E+06
C:/temp/Job-1.odb,Step-1,Increment      1: Step Time =    1.000,"P-1-1",          7636,   108.803E-03,   14.1300E-03,            0.,NA,NA,"",   970.950E+03,   973.749E+03,   973.749E+03
C:/temp/Job-1.odb,Step-1,Increment      1: Step Time =    1.000,"P-1-1",          7637,   13.7237E-03,   177.704E-03,            0.,NA,NA,"",   1.04084E+06,   1.10423E+06,   1.10423E+06
C:/temp/Job-1.odb,Step-1,Increment      1: Step Time =    1.000,"P-1-1",          7638,   14.1355E-03,   92.0646E-03,            0.,NA,NA,"",   800.309E+03,   892.804E+03,   892.804E+03
C:/temp/Job-1.odb,Step-1,Increment      1: Step Time =    1.000,"P-1-1",          7639,   186.195E-03,   108.288E-03,            0.,NA,NA,"",   969.965E+03,   992.406E+03,   992.406E+03
C:/temp/Job-1.odb,Step-1,Increment      1: Step Time =    1.000,"P-1-1",          7640,   92.1430E-03,   186.019E-03,            0.,NA,NA,"",   969.903E+03,    973.07E+03,    973.07E+03
C:/temp/Job-1.odb,Step-1,Increment      1: Step Time =    1.000,"P-1-1",          7641,   185.358E-03,   52.3205E-03,            0.,NA,NA,"",   1.00042E+06,   1.00481E+06,   1.00481E+06
C:/temp/Job-1.odb,Step-1,Increment      1: Step Time =    1.000,"P-1-1",          7642,   52.4382E-03,   15.3091E-03,            0.,NA,NA,"",   1.01997E+06,   1.02156E+06,   1.02156E+06
C:/temp/Job-1.odb,Step-1,Increment      1: Step Time =    1.000,"P-1-1",          7643,   147.270E-03,   185.634E-03,            0.,NA,NA,"",   999.768E+03,   997.859E+03,   997.859E+03
C:/temp/Job-1.odb,Step-1,Increment      1: Step Time =    1.000,"P-1-1",          7644,   15.1106E-03,   147.355E-03,            0.,NA,NA,"",   899.056E+03,   983.285E+03,   983.285E+03
C:/temp/Job-1.odb,Step-1,Increment      1: Step Time =    1.000,"P-1-1",          7645,   73.9725E-03,   99.7986E-03,            0.,NA,NA,"",   488.360E+03,   521.890E+03,   521.890E+03
C:/temp/Job-1.odb,Step-1,Increment      1: Step Time =    1.000,"P-1-1",          7646,   105.550E-03,   126.515E-03,            0.,NA,NA,"",   1.15773E+06,   1.24302E+06,   1.24302E+06
C:/temp/Job-1.odb,Step-1,Increment      1: Step Time =    1.000,"P-1-1",          7647,   188.708E-03,   116.067E-03,            0.,NA,NA,"",   974.460E+03,   996.596E+03,   996.596E+03
C:/temp/Job-1.odb,Step-1,Increment      1: Step Time =    1.000,"P-1-1",          7648,   85.0763E-03,   187.965E-03,            0.,NA,NA,"",   968.510E+03,   970.406E+03,   970.406E+03
C:/temp/Job-1.odb,Step-1,Increment      1: Step Time =    1.000,"P-1-1",          7649,   12.9594E-03,   84.6618E-03,            0.,NA,NA,"",   808.003E+03,   900.946E+03,   900.946E+03
C:/temp/Job-1.odb,Step-1,Increment      1: Step Time =    1.000,"P-1-1",          7650,   116.205E-03,   12.2562E-03,            0.,NA,NA,"",   971.182E+03,   972.481E+03,   972.481E+03
C:/temp/Job-1.odb,Step-1,Increment      1: Step Time =    1.000,"P-1-1",          7651,   108.722E-03,   126.595E-03,            0.,NA,NA,"",   1.19623E+06,   1.24984E+06,   1.24984E+06
C:/temp/Job-1.odb,Step-1,Increment      1: Step Time =    1.000,"P-1-1",          7652,   78.3020E-03,   86.2084E-03,            0.,NA,NA,"",   1.11976E+06,   1.02792E+06,   1.02792E+06
C:/temp/Job-1.odb,Step-1,Increment      1: Step Time =    1.000,"P-1-1",          7653,   91.8066E-03,   127.153E-03,            0.,NA,NA,"",   1.17723E+06,   1.23925E+06,   1.23925E+06
C:/temp/Job-1.odb,Step-1,Increment      1: Step Time =    1.000,"P-1-1",          7654,   14.7259E-03,   19.4226E-03,            0.,NA,NA,"",   1.06808E+06,   1.12178E+06,   1.12178E+06
C:/temp/Job-1.odb,Step-1,Increment      1: Step Time =    1.000,"P-1-1",          7655,   186.315E-03,   180.828E-03,            0.,NA,NA,"",   1.00125E+06,   1.00113E+06,   1.00113E+06
C:/temp/Job-1.odb,Step-1,Increment      1: Step Time =    1.000,"P-1-1",          7656,   179.493E-03,   14.1033E-03,            0.,NA,NA,"",   1.00124E+06,   1.00089E+06,   1.00089E+06
C:/temp/Job-1.odb,Step-1,Increment      1: Step Time =    1.000,"P-1-1",          7657,   19.7224E-03,   185.738E-03,            0.,NA,NA,"",   1.10088E+06,   1.12663E+06,   1.12663E+06
C:/temp/Job-1.odb,Step-1,Increment      1: Step Time =    1.000,"P-1-1",          7658,   95.0267E-03,   15.0481E-03,            0.,NA,NA,"",   971.516E+03,   975.299E+03,   975.299E+03
C:/temp/Job-1.odb,Step-1,Increment      1: Step Time =    1.000,"P-1-1",          7659,   14.1570E-03,   105.777E-03,            0.,NA,NA,"",   798.736E+03,   891.193E+03,   891.193E+03
C:/temp/Job-1.odb,Step-1,Increment      1: Step Time =    1.000,"P-1-1",          7660,   105.842E-03,   184.483E-03,            0.,NA,NA,"",   973.127E+03,   976.821E+03,   976.821E+03
C:/temp/Job-1.odb,Step-1,Increment      1: Step Time =    1.000,"P-1-1",          7661,   164.631E-03,   185.399E-03,            0.,NA,NA,"",   1.00291E+06,   1.00156E+06,   1.00156E+06
C:/temp/Job-1.odb,Step-1,Increment      1: Step Time =    1.000,"P-1-1",          7662,   184.803E-03,   94.9147E-03,            0.,NA,NA,"",   968.250E+03,   990.150E+03,   990.150E+03
C:/temp/Job-1.odb,Step-1,Increment      1: Step Time =    1.000,"P-1-1",          7663,   185.082E-03,   66.6791E-03,            0.,NA,NA,"",   991.642E+03,   1.00199E+06,   1.00199E+06
C:/temp/Job-1.odb,Step-1,Increment      1: Step Time =    1.000,"P-1-1",          7664,   66.0739E-03,   15.5910E-03,            0.,NA,NA,"",   1.00149E+06,   1.00233E+06,   1.00233E+06
C:/temp/Job-1.odb,Step-1,Increment      1: Step Time =    1.000,"P-1-1",          7665,   35.1476E-03,   15.7270E-03,            0.,NA,NA,"",   1.05387E+06,   1.06252E+06,   1.06252E+06
C:/temp/Job-1.odb,Step-1,Increment      1: Step Time =    1.000,"P-1-1",          7666,   133.357E-03,   185.467E-03,            0.,NA,NA,"",   991.895E+03,   990.860E+03,   990.860E+03
C:/temp/Job-1.odb,Step-1,Increment      1: Step Time =    1.000,"P-1-1",          7667,   15.0622E-03,   134.514E-03,            0.,NA,NA,"",   859.009E+03,   946.806E+03,   946.806E+03
C:/temp/Job-1.odb,Step-1,Increment      1: Step Time =    1.000,"P-1-1",          7668,   151.110E-03,   14.0174E-03,            0.,NA,NA,"",   1.00062E+06,   998.783E+03,   998.783E+03
C:/temp/Job-1.odb,Step-1,Increment      1: Step Time =    1.000,"P-1-1",          7669,   185.369E-03,   151.848E-03,            0.,NA,NA,"",   1.00188E+06,   1.00498E+06,   1.00498E+06
C:/temp/Job-1.odb,Step-1,Increment      1: Step Time =    1.000,"P-1-1",          7670,   13.6633E-03,   49.1624E-03,            0.,NA,NA,"",   904.578E+03,   990.341E+03,   990.341E+03
C:/temp/Job-1.odb,Step-1,Increment      1: Step Time =    1.000,"P-1-1",          7671,   185.264E-03,   35.5918E-03,            0.,NA,NA,"",   1.00341E+06,   1.00402E+06,   1.00402E+06
C:/temp/Job-1.odb,Step-1,Increment      1: Step Time =    1.000,"P-1-1",          7672,   49.4740E-03,   187.104E-03,            0.,NA,NA,"",   1.01792E+06,   1.01941E+06,   1.01941E+06
C:/temp/Job-1.odb,Step-1,Increment      1: Step Time =    1.000,"P-1-1",          7673,   15.2169E-03,   164.835E-03,            0.,NA,NA,"",   967.736E+03,   1.04260E+06,   1.04260E+06
C:/temp/Job-1.odb,Step-1,Increment      1: Step Time =    1.000,"P-1-1",          7674,   120.275E-03,   13.1994E-03,            0.,NA,NA,"",   977.150E+03,   978.061E+03,   978.061E+03
C:/temp/Job-1.odb,Step-1,Increment      1: Step Time =    1.000,"P-1-1",          7675,   13.5553E-03,   79.0146E-03,            0.,NA,NA,"",   820.127E+03,   911.950E+03,   911.950E+03
C:/temp/Job-1.odb,Step-1,Increment      1: Step Time =    1.000,"P-1-1",          7676,   185.253E-03,   160.370E-03,            0.,NA,NA,"",   1.00325E+06,   1.00447E+06,   1.00447E+06
C:/temp/Job-1.odb,Step-1,Increment      1: Step Time =    1.000,"P-1-1",          7677,   78.8615E-03,   185.387E-03,            0.,NA,NA,"",    982.87E+03,   984.772E+03,   984.772E+03
C:/temp/Job-1.odb,Step-1,Increment      1: Step Time =    1.000,"P-1-1",          7678,   185.056E-03,   121.166E-03,            0.,NA,NA,"",   980.186E+03,   996.679E+03,   996.679E+03
C:/temp/Job-1.odb,Step-1,Increment      1: Step Time =    1.000,"P-1-1",          7679,   160.133E-03,   14.7580E-03,            0.,NA,NA,"",   1.00297E+06,   1.00131E+06,   1.00131E+06
C:/temp/Job-1.odb,Step-1,Increment      1: Step Time =    1.000,"P-1-1",          7680,   39.5039E-03,   184.800E-03,            0.,NA,NA,"",   1.04304E+06,   1.04861E+06,   1.04861E+06
C:/temp/Job-1.odb,Step-1,Increment      1: Step Time =    1.000,"P-1-1",          7681,   184.936E-03,   75.7433E-03,            0.,NA,NA,"",    983.25E+03,   998.097E+03,   998.097E+03
C:/temp/Job-1.odb,Step-1,Increment      1: Step Time =    1.000,"P-1-1",          7682,   75.9844E-03,   15.0320E-03,            0.,NA,NA,"",   987.453E+03,   989.067E+03,   989.067E+03
C:/temp/Job-1.odb,Step-1,Increment      1: Step Time =    1.000,"P-1-1",          7683,   124.223E-03,   184.861E-03,            0.,NA,NA,"",   985.456E+03,   985.873E+03,   985.873E+03
C:/temp/Job-1.odb,Step-1,Increment      1: Step Time =    1.000,"P-1-1",          7684,   14.6513E-03,   124.196E-03,            0.,NA,NA,"",   830.127E+03,   920.359E+03,   920.359E+03
C:/temp/Job-1.odb,Step-1,Increment      1: Step Time =    1.000,"P-1-1",          7685,   124.369E-03,   14.4779E-03,            0.,NA,NA,"",   983.932E+03,   984.301E+03,   984.301E+03
C:/temp/Job-1.odb,Step-1,Increment      1: Step Time =    1.000,"P-1-1",          7686,   185.438E-03,   124.863E-03,            0.,NA,NA,"",   983.511E+03,   998.443E+03,   998.443E+03
C:/temp/Job-1.odb,Step-1,Increment      1: Step Time =    1.000,"P-1-1",          7687,   160.295E-03,   185.003E-03,            0.,NA,NA,"",   1.00339E+06,   1.00168E+06,   1.00168E+06
C:/temp/Job-1.odb,Step-1,Increment      1: Step Time =    1.000,"P-1-1",          7688,   14.7697E-03,   74.8244E-03,            0.,NA,NA,"",   832.898E+03,   922.829E+03,   922.829E+03
C:/temp/Job-1.odb,Step-1,Increment      1: Step Time =    1.000,"P-1-1",          7689,   39.8536E-03,   14.5302E-03,            0.,NA,NA,"",   1.04107E+06,   1.04606E+06,   1.04606E+06
C:/temp/Job-1.odb,Step-1,Increment      1: Step Time =    1.000,"P-1-1",          7690,   185.083E-03,   39.8215E-03,            0.,NA,NA,"",   1.00355E+06,   1.00469E+06,   1.00469E+06
C:/temp/Job-1.odb,Step-1,Increment      1: Step Time =    1.000,"P-1-1",          7691,   74.9106E-03,   185.956E-03,            0.,NA,NA,"",   985.390E+03,   986.757E+03,   986.757E+03
C:/temp/Job-1.odb,Step-1,Increment      1: Step Time =    1.000,"P-1-1",          7692,   13.9253E-03,   160.230E-03,            0.,NA,NA,"",   941.395E+03,   1.02241E+06,   1.02241E+06
C:/temp/Job-1.odb,Step-1,Increment      1: Step Time =    1.000,"P-1-1",          7693,   184.039E-03,   12.1527E-03,            0.,NA,NA,"",   1.00040E+06,   1.00027E+06,   1.00027E+06
C:/temp/Job-1.odb,Step-1,Increment      1: Step Time =    1.000,"P-1-1",          7694,   15.7327E-03,   187.919E-03,            0.,NA,NA,"",   1.12934E+06,   1.15848E+06,   1.15848E+06
C:/temp/Job-1.odb,Step-1,Increment      1: Step Time =    1.000,"P-1-1",          7695,   185.564E-03,   13.5878E-03,            0.,NA,NA,"",   1.00051E+06,   1.00040E+06,   1.00040E+06
C:/temp/Job-1.odb,Step-1,Increment      1: Step Time =    1.000,"P-1-1",          7696,   13.0372E-03,   186.755E-03,            0.,NA,NA,"",   1.12712E+06,   1.16958E+06,   1.16958E+06
C:/temp/Job-1.odb,Step-1,Increment      1: Step Time =    1.000,"P-1-1",          7697,   188.231E-03,   184.980E-03,            0.,NA,NA,"",   1.00048E+06,   1.00040E+06,   1.00040E+06
C:/temp/Job-1.odb,Step-1,Increment      1: Step Time =    1.000,"P-1-1",          7698,   12.1100E-03,   15.0822E-03,            0.,NA,NA,"",   1.10706E+06,   1.15903E+06,   1.15903E+06
C:/temp/Job-1.odb,Step-1,Increment      1: Step Time =    1.000,"P-1-1",          7699,   174.582E-03,   185.069E-03,            0.,NA,NA,"",   1.00218E+06,   1.00149E+06,   1.00149E+06
C:/temp/Job-1.odb,Step-1,Increment      1: Step Time =    1.000,"P-1-1",          7700,   15.2483E-03,   26.1248E-03,            0.,NA,NA,"",   1.01884E+06,   1.08330E+06,   1.08330E+06
C:/temp/Job-1.odb,Step-1,Increment      1: Step Time =    1.000,"P-1-1",          7701,   73.7252E-03,   110.428E-03,            0.,NA,NA,"",   888.278E+03,   850.536E+03,   850.536E+03
C:/temp/Job-1.odb,Step-1,Increment      1: Step Time =    1.000,"P-1-1",          7702,   186.857E-03,   186.426E-03,            0.,NA,NA,"",   1.00042E+06,   1.00033E+06,   1.00033E+06
C:/temp/Job-1.odb,Step-1,Increment      1: Step Time =    1.000,"P-1-1",          7703,   185.230E-03,   173.738E-03,            0.,NA,NA,"",   1.00256E+06,   1.00250E+06,   1.00250E+06
C:/temp/Job-1.odb,Step-1,Increment      1: Step Time =    1.000,"P-1-1",          7704,   13.8841E-03,   14.3490E-03,            0.,NA,NA,"",   1.11385E+06,   1.15649E+06,   1.15649E+06
C:/temp/Job-1.odb,Step-1,Increment      1: Step Time =    1.000,"P-1-1",          7705,   14.0780E-03,   33.6294E-03,            0.,NA,NA,"",   970.451E+03,   1.04683E+06,   1.04683E+06
C:/temp/Job-1.odb,Step-1,Increment      1: Step Time =    1.000,"P-1-1",          7706,   185.598E-03,   82.5372E-03,            0.,NA,NA,"",   976.529E+03,   995.160E+03,   995.160E+03
C:/temp/Job-1.odb,Step-1,Increment      1: Step Time =    1.000,"P-1-1",          7707,   173.449E-03,   15.1169E-03,            0.,NA,NA,"",   1.00239E+06,   1.00161E+06,   1.00161E+06
C:/temp/Job-1.odb,Step-1,Increment      1: Step Time =    1.000,"P-1-1",          7708,   185.649E-03,   24.6407E-03,            0.,NA,NA,"",   1.00219E+06,   1.00211E+06,   1.00211E+06
C:/temp/Job-1.odb,Step-1,Increment      1: Step Time =    1.000,"P-1-1",          7709,   185.379E-03,   166.143E-03,            0.,NA,NA,"",   1.00322E+06,   1.00369E+06,   1.00369E+06
C:/temp/Job-1.odb,Step-1,Increment      1: Step Time =    1.000,"P-1-1",          7710,   166.573E-03,   15.3969E-03,            0.,NA,NA,"",   1.00336E+06,   1.00203E+06,   1.00203E+06
C:/temp/Job-1.odb,Step-1,Increment      1: Step Time =    1.000,"P-1-1",          7711,   14.1942E-03,   175.325E-03,            0.,NA,NA,"",   1.02401E+06,   1.08970E+06,   1.08970E+06
C:/temp/Job-1.odb,Step-1,Increment      1: Step Time =    1.000,"P-1-1",          7712,   25.6212E-03,   184.903E-03,            0.,NA,NA,"",   1.07938E+06,   1.09677E+06,   1.09677E+06
C:/temp/Job-1.odb,Step-1,Increment      1: Step Time =    1.000,"P-1-1",          7713,   137.588E-03,   15.6908E-03,            0.,NA,NA,"",   997.269E+03,   995.586E+03,   995.586E+03
C:/temp/Job-1.odb,Step-1,Increment      1: Step Time =    1.000,"P-1-1",          7714,   185.172E-03,   136.973E-03,            0.,NA,NA,"",   994.495E+03,   1.00311E+06,   1.00311E+06
C:/temp/Job-1.odb,Step-1,Increment      1: Step Time =    1.000,"P-1-1",          7715,   82.3909E-03,   14.6098E-03,            0.,NA,NA,"",   979.291E+03,   981.678E+03,   981.678E+03
C:/temp/Job-1.odb,Step-1,Increment      1: Step Time =    1.000,"P-1-1",          7716,   111.701E-03,   13.5080E-03,            0.,NA,NA,"",   970.941E+03,   973.142E+03,   973.142E+03
C:/temp/Job-1.odb,Step-1,Increment      1: Step Time =    1.000,"P-1-1",          7717,   88.8298E-03,   13.5547E-03,            0.,NA,NA,"",   970.549E+03,   973.278E+03,   973.278E+03
C:/temp/Job-1.odb,Step-1,Increment      1: Step Time =    1.000,"P-1-1",          7718,   185.311E-03,   55.4474E-03,            0.,NA,NA,"",   999.019E+03,   1.00454E+06,   1.00454E+06
C:/temp/Job-1.odb,Step-1,Increment      1: Step Time =    1.000,"P-1-1",          7719,   144.937E-03,   14.0117E-03,            0.,NA,NA,"",   998.220E+03,   996.420E+03,   996.420E+03
C:/temp/Job-1.odb,Step-1,Increment      1: Step Time =    1.000,"P-1-1",          7720,   54.5979E-03,   13.5638E-03,            0.,NA,NA,"",   1.01140E+06,   1.01229E+06,   1.01229E+06
C:/temp/Job-1.odb,Step-1,Increment      1: Step Time =    1.000,"P-1-1",          7721,   185.842E-03,   144.413E-03,            0.,NA,NA,"",   998.368E+03,   1.00423E+06,   1.00423E+06
C:/temp/Job-1.odb,Step-1,Increment      1: Step Time =    1.000,"P-1-1",          7722,   33.2589E-03,   186.035E-03,            0.,NA,NA,"",   1.05660E+06,   1.06490E+06,   1.06490E+06
C:/temp/Job-1.odb,Step-1,Increment      1: Step Time =    1.000,"P-1-1",          7723,   15.2133E-03,   61.7931E-03,            0.,NA,NA,"",   870.710E+03,    957.28E+03,    957.28E+03
C:/temp/Job-1.odb,Step-1,Increment      1: Step Time =    1.000,"P-1-1",          7724,   62.2361E-03,   184.958E-03,            0.,NA,NA,"",   1.00461E+06,   1.00529E+06,   1.00529E+06
C:/temp/Job-1.odb,Step-1,Increment      1: Step Time =    1.000,"P-1-1",          7725,   15.5646E-03,   54.6315E-03,            0.,NA,NA,"",   894.429E+03,    978.42E+03,    978.42E+03
C:/temp/Job-1.odb,Step-1,Increment      1: Step Time =    1.000,"P-1-1",          7726,   144.123E-03,   186.224E-03,            0.,NA,NA,"",   997.253E+03,   995.552E+03,   995.552E+03
C:/temp/Job-1.odb,Step-1,Increment      1: Step Time =    1.000,"P-1-1",          7727,   14.7769E-03,   89.2596E-03,            0.,NA,NA,"",   804.594E+03,   896.330E+03,   896.330E+03
C:/temp/Job-1.odb,Step-1,Increment      1: Step Time =    1.000,"P-1-1",          7728,   186.357E-03,   111.443E-03,            0.,NA,NA,"",   971.736E+03,   993.410E+03,   993.410E+03
C:/temp/Job-1.odb,Step-1,Increment      1: Step Time =    1.000,"P-1-1",          7729,   117.616E-03,   185.932E-03,            0.,NA,NA,"",   977.111E+03,   978.574E+03,   978.574E+03
C:/temp/Job-1.odb,Step-1,Increment      1: Step Time =    1.000,"P-1-1",          7730,   89.6597E-03,   186.187E-03,            0.,NA,NA,"",   970.729E+03,   973.665E+03,   973.665E+03
C:/temp/Job-1.odb,Step-1,Increment      1: Step Time =    1.000,"P-1-1",          7731,   13.9951E-03,   110.833E-03,            0.,NA,NA,"",   803.403E+03,   895.769E+03,   895.769E+03
C:/temp/Job-1.odb,Step-1,Increment      1: Step Time =    1.000,"P-1-1",          7732,   112.419E-03,   186.650E-03,            0.,NA,NA,"",   971.103E+03,   973.166E+03,   973.166E+03
C:/temp/Job-1.odb,Step-1,Increment      1: Step Time =    1.000,"P-1-1",          7733,   15.3634E-03,   117.229E-03,            0.,NA,NA,"",   816.290E+03,   906.844E+03,   906.844E+03
C:/temp/Job-1.odb,Step-1,Increment      1: Step Time =    1.000,"P-1-1",          7734,   54.8812E-03,   184.878E-03,            0.,NA,NA,"",   1.01579E+06,   1.01702E+06,   1.01702E+06
C:/temp/Job-1.odb,Step-1,Increment      1: Step Time =    1.000,"P-1-1",          7735,   14.7536E-03,   145.237E-03,            0.,NA,NA,"",   890.705E+03,   976.253E+03,   976.253E+03
C:/temp/Job-1.odb,Step-1,Increment      1: Step Time =    1.000,"P-1-1",          7736,   185.171E-03,   87.6736E-03,            0.,NA,NA,"",   972.427E+03,   992.751E+03,   992.751E+03
C:/temp/Job-1.odb,Step-1,Increment      1: Step Time =    1.000,"P-1-1",          7737,   95.2713E-03,   126.192E-03,            0.,NA,NA,"",   1.15488E+06,   1.24864E+06,   1.24864E+06
C:/temp/Job-1.odb,Step-1,Increment      1: Step Time =    1.000,"P-1-1",          7738,   14.5512E-03,   30.9333E-03,            0.,NA,NA,"",   986.662E+03,   1.05918E+06,   1.05918E+06
C:/temp/Job-1.odb,Step-1,Increment      1: Step Time =    1.000,"P-1-1",          7739,   185.432E-03,   169.192E-03,            0.,NA,NA,"",   1.00298E+06,   1.00319E+06,   1.00319E+06
C:/temp/Job-1.odb,Step-1,Increment      1: Step Time =    1.000,"P-1-1",          7740,   184.396E-03,   84.7010E-03,            0.,NA,NA,"",   974.652E+03,   993.231E+03,   993.231E+03
C:/temp/Job-1.odb,Step-1,Increment      1: Step Time =    1.000,"P-1-1",          7741,   141.192E-03,   14.1654E-03,            0.,NA,NA,"",    996.37E+03,   994.702E+03,   994.702E+03
C:/temp/Job-1.odb,Step-1,Increment      1: Step Time =    1.000,"P-1-1",          7742,   184.525E-03,   140.099E-03,            0.,NA,NA,"",   997.450E+03,   1.00424E+06,   1.00424E+06
C:/temp/Job-1.odb,Step-1,Increment      1: Step Time =    1.000,"P-1-1",          7743,   170.729E-03,   15.0661E-03,            0.,NA,NA,"",   1.00270E+06,   1.00173E+06,   1.00173E+06
C:/temp/Job-1.odb,Step-1,Increment      1: Step Time =    1.000,"P-1-1",          7744,   14.9353E-03,   58.5328E-03,            0.,NA,NA,"",   879.340E+03,   965.678E+03,   965.678E+03
C:/temp/Job-1.odb,Step-1,Increment      1: Step Time =    1.000,"P-1-1",          7745,   59.6079E-03,   183.810E-03,            0.,NA,NA,"",   1.01212E+06,   1.01308E+06,   1.01308E+06
C:/temp/Job-1.odb,Step-1,Increment      1: Step Time =    1.000,"P-1-1",          7746,   30.5904E-03,   184.995E-03,            0.,NA,NA,"",   1.06454E+06,   1.07605E+06,   1.07605E+06
C:/temp/Job-1.odb,Step-1,Increment      1: Step Time =    1.000,"P-1-1",          7747,   84.8260E-03,   14.0337E-03,            0.,NA,NA,"",   975.005E+03,   977.462E+03,   977.462E+03
C:/temp/Job-1.odb,Step-1,Increment      1: Step Time =    1.000,"P-1-1",          7748,   114.624E-03,   13.9267E-03,            0.,NA,NA,"",   974.300E+03,   976.216E+03,   976.216E+03
C:/temp/Job-1.odb,Step-1,Increment      1: Step Time =    1.000,"P-1-1",          7749,   114.796E-03,   186.794E-03,            0.,NA,NA,"",   972.526E+03,   974.249E+03,   974.249E+03
C:/temp/Job-1.odb,Step-1,Increment      1: Step Time =    1.000,"P-1-1",          7750,   15.0162E-03,   114.766E-03,            0.,NA,NA,"",   811.136E+03,   902.319E+03,   902.319E+03
C:/temp/Job-1.odb,Step-1,Increment      1: Step Time =    1.000,"P-1-1",          7751,   87.1588E-03,   185.493E-03,            0.,NA,NA,"",   974.515E+03,   977.466E+03,   977.466E+03
C:/temp/Job-1.odb,Step-1,Increment      1: Step Time =    1.000,"P-1-1",          7752,   14.6515E-03,   86.0301E-03,            0.,NA,NA,"",   809.108E+03,   900.695E+03,   900.695E+03
C:/temp/Job-1.odb,Step-1,Increment      1: Step Time =    1.000,"P-1-1",          7753,   186.180E-03,   114.506E-03,            0.,NA,NA,"",   973.966E+03,   994.407E+03,   994.407E+03
C:/temp/Job-1.odb,Step-1,Increment      1: Step Time =    1.000,"P-1-1",          7754,   111.299E-03,   125.683E-03,            0.,NA,NA,"",   1.24119E+06,   1.26397E+06,   1.26397E+06
C:/temp/Job-1.odb,Step-1,Increment      1: Step Time =    1.000,"P-1-1",          7755,   99.3975E-03,   15.0883E-03,            0.,NA,NA,"",   970.948E+03,   974.796E+03,   974.796E+03
C:/temp/Job-1.odb,Step-1,Increment      1: Step Time =    1.000,"P-1-1",          7756,   14.5640E-03,   102.273E-03,            0.,NA,NA,"",   797.355E+03,   889.717E+03,   889.717E+03
C:/temp/Job-1.odb,Step-1,Increment      1: Step Time =    1.000,"P-1-1",          7757,   100.968E-03,   185.507E-03,            0.,NA,NA,"",   969.218E+03,   972.697E+03,   972.697E+03
C:/temp/Job-1.odb,Step-1,Increment      1: Step Time =    1.000,"P-1-1",          7758,   185.613E-03,   99.1407E-03,            0.,NA,NA,"",   967.812E+03,   990.870E+03,   990.870E+03
C:/temp/Job-1.odb,Step-1,Increment      1: Step Time =    1.000,"P-1-1",          7759,   88.4061E-03,   126.283E-03,            0.,NA,NA,"",   1.22561E+06,   1.25330E+06,   1.25330E+06
C:/temp/Job-1.odb,Step-1,Increment      1: Step Time =    1.000,"P-1-1",          7760,   125.774E-03,   111.235E-03,            0.,NA,NA,"",   974.571E+03,   897.141E+03,   897.141E+03
C:/temp/Job-1.odb,Step-1,Increment      1: Step Time =    1.000,"P-1-1",          7761,   75.8792E-03,   94.2296E-03,            0.,NA,NA,"",   657.366E+03,   637.783E+03,   637.783E+03
C:/temp/Job-1.odb,Step-1,Increment      1: Step Time =    1.000,"P-1-1",          7762,   82.1769E-03,   86.3362E-03,            0.,NA,NA,"",   1.21956E+06,   1.10401E+06,   1.10401E+06
C:/temp/Job-1.odb,Step-1,Increment      1: Step Time =    1.000,"P-1-1",          7763,   76.1932E-03,   90.2690E-03,            0.,NA,NA,"",   892.323E+03,   830.793E+03,   830.793E+03
C:/temp/Job-1.odb,Step-1,Increment      1: Step Time =    1.000,"P-1-1",          7764,   81.4207E-03,   116.767E-03,            0.,NA,NA,"",   1.26219E+06,   1.17125E+06,   1.17125E+06
C:/temp/Job-1.odb,Step-1,Increment      1: Step Time =    1.000,"P-1-1",          7765,   126.760E-03,   109.691E-03,            0.,NA,NA,"",   894.633E+03,   835.769E+03,   835.769E+03
C:/temp/Job-1.odb,Step-1,Increment      1: Step Time =    1.000,"P-1-1",          7766,   97.2635E-03,   126.767E-03,            0.,NA,NA,"",   1.12803E+06,   1.23004E+06,   1.23004E+06
C:/temp/Job-1.odb,Step-1,Increment      1: Step Time =    1.000,"P-1-1",          7767,   81.2031E-03,   120.307E-03,            0.,NA,NA,"",   1.27146E+06,   1.20850E+06,   1.20850E+06
C:/temp/Job-1.odb,Step-1,Increment      1: Step Time =    1.000,"P-1-1",          7768,   76.8051E-03,   117.668E-03,            0.,NA,NA,"",   1.16381E+06,   1.09289E+06,   1.09289E+06
C:/temp/Job-1.odb,Step-1,Increment      1: Step Time =    1.000,"P-1-1",          7769,   96.7943E-03,   128.737E-03,            0.,NA,NA,"",   1.10507E+06,   1.19709E+06,   1.19709E+06
C:/temp/Job-1.odb,Step-1,Increment      1: Step Time =    1.000,"P-1-1",          7770,   11.8202E-03,   17.8945E-03,            0.,NA,NA,"",   1.07477E+06,   1.13608E+06,   1.13608E+06
C:/temp/Job-1.odb,Step-1,Increment      1: Step Time =    1.000,"P-1-1",          7771,   188.108E-03,   183.724E-03,            0.,NA,NA,"",   1.00062E+06,   1.00054E+06,   1.00054E+06
C:/temp/Job-1.odb,Step-1,Increment      1: Step Time =    1.000,"P-1-1",          7772,   182.524E-03,   12.2450E-03,            0.,NA,NA,"",   1.00051E+06,   1.00034E+06,   1.00034E+06
C:/temp/Job-1.odb,Step-1,Increment      1: Step Time =    1.000,"P-1-1",          7773,   17.0942E-03,   187.737E-03,            0.,NA,NA,"",    1.1218E+06,   1.14794E+06,   1.14794E+06
C:/temp/Job-1.odb,Step-1,Increment      1: Step Time =    1.000,"P-1-1",          7774,   96.5803E-03,   13.3361E-03,            0.,NA,NA,"",   966.381E+03,   969.508E+03,   969.508E+03
C:/temp/Job-1.odb,Step-1,Increment      1: Step Time =    1.000,"P-1-1",          7775,   12.8356E-03,   103.403E-03,            0.,NA,NA,"",   795.083E+03,   888.752E+03,   888.752E+03
C:/temp/Job-1.odb,Step-1,Increment      1: Step Time =    1.000,"P-1-1",          7776,   101.772E-03,   187.454E-03,            0.,NA,NA,"",   964.390E+03,   967.109E+03,   967.109E+03
C:/temp/Job-1.odb,Step-1,Increment      1: Step Time =    1.000,"P-1-1",          7777,   187.666E-03,   97.9991E-03,            0.,NA,NA,"",   968.336E+03,   993.074E+03,   993.074E+03
C:/temp/Job-1.odb,Step-1,Increment      1: Step Time =    1.000,"P-1-1",          7778,   184.564E-03,   67.8299E-03,            0.,NA,NA,"",    991.16E+03,   1.00169E+06,   1.00169E+06
C:/temp/Job-1.odb,Step-1,Increment      1: Step Time =    1.000,"P-1-1",          7779,   67.7875E-03,   16.2270E-03,            0.,NA,NA,"",   1.00124E+06,   1.00230E+06,   1.00230E+06
C:/temp/Job-1.odb,Step-1,Increment      1: Step Time =    1.000,"P-1-1",          7780,   171.430E-03,   184.794E-03,            0.,NA,NA,"",   1.00276E+06,   1.00182E+06,   1.00182E+06
C:/temp/Job-1.odb,Step-1,Increment      1: Step Time =    1.000,"P-1-1",          7781,   131.595E-03,   184.130E-03,            0.,NA,NA,"",   993.588E+03,   992.655E+03,   992.655E+03
C:/temp/Job-1.odb,Step-1,Increment      1: Step Time =    1.000,"P-1-1",          7782,   15.5873E-03,   133.388E-03,            0.,NA,NA,"",   857.606E+03,   944.911E+03,   944.911E+03
C:/temp/Job-1.odb,Step-1,Increment      1: Step Time =    1.000,"P-1-1",          7783,   27.7619E-03,   15.7655E-03,            0.,NA,NA,"",   1.07236E+06,   1.08801E+06,   1.08801E+06
C:/temp/Job-1.odb,Step-1,Increment      1: Step Time =    1.000,"P-1-1",          7784,   184.939E-03,   27.7750E-03,            0.,NA,NA,"",   1.00292E+06,   1.00289E+06,   1.00289E+06
C:/temp/Job-1.odb,Step-1,Increment      1: Step Time =    1.000,"P-1-1",          7785,   184.757E-03,   58.0172E-03,            0.,NA,NA,"",   998.111E+03,   1.00439E+06,   1.00439E+06
C:/temp/Job-1.odb,Step-1,Increment      1: Step Time =    1.000,"P-1-1",          7786,   56.8829E-03,   15.1156E-03,            0.,NA,NA,"",   1.01257E+06,   1.01352E+06,   1.01352E+06
C:/temp/Job-1.odb,Step-1,Increment      1: Step Time =    1.000,"P-1-1",          7787,   15.3520E-03,   171.685E-03,            0.,NA,NA,"",   1.00553E+06,   1.07263E+06,   1.07263E+06
C:/temp/Job-1.odb,Step-1,Increment      1: Step Time =    1.000,"P-1-1",          7788,   142.179E-03,   185.341E-03,            0.,NA,NA,"",    997.95E+03,   996.135E+03,   996.135E+03
C:/temp/Job-1.odb,Step-1,Increment      1: Step Time =    1.000,"P-1-1",          7789,   15.6546E-03,   144.217E-03,            0.,NA,NA,"",   890.738E+03,   975.095E+03,   975.095E+03
C:/temp/Job-1.odb,Step-1,Increment      1: Step Time =    1.000,"P-1-1",          7790,   83.2200E-03,   120.694E-03,            0.,NA,NA,"",   1.29866E+06,   1.24703E+06,   1.24703E+06
C:/temp/Job-1.odb,Step-1,Increment      1: Step Time =    1.000,"P-1-1",          7791,   71.6563E-03,   100.117E-03,            0.,NA,NA,"",   547.500E+03,   586.254E+03,   586.254E+03
C:/temp/Job-1.odb,Step-1,Increment      1: Step Time =    1.000,"P-1-1",          7792,   128.231E-03,   109.973E-03,            0.,NA,NA,"",   895.472E+03,   845.865E+03,   845.865E+03
C:/temp/Job-1.odb,Step-1,Increment      1: Step Time =    1.000,"P-1-1",          7793,   79.9936E-03,   117.526E-03,            0.,NA,NA,"",   1.23549E+06,   1.15200E+06,   1.15200E+06
C:/temp/Job-1.odb,Step-1,Increment      1: Step Time =    1.000,"P-1-1",          7794,   84.4105E-03,   122.969E-03,            0.,NA,NA,"",   1.28401E+06,   1.25757E+06,   1.25757E+06
C:/temp/Job-1.odb,Step-1,Increment      1: Step Time =    1.000,"P-1-1",          7795,   185.141E-03,   159.062E-03,            0.,NA,NA,"",   1.00328E+06,   1.00468E+06,   1.00468E+06
C:/temp/Job-1.odb,Step-1,Increment      1: Step Time =    1.000,"P-1-1",          7796,   15.6056E-03,   41.1633E-03,            0.,NA,NA,"",   942.754E+03,   1.02097E+06,   1.02097E+06
C:/temp/Job-1.odb,Step-1,Increment      1: Step Time =    1.000,"P-1-1",          7797,   159.452E-03,   15.7139E-03,            0.,NA,NA,"",   1.00402E+06,   1.00212E+06,   1.00212E+06
C:/temp/Job-1.odb,Step-1,Increment      1: Step Time =    1.000,"P-1-1",          7798,   183.872E-03,   74.6705E-03,            0.,NA,NA,"",   984.951E+03,   998.419E+03,   998.419E+03
C:/temp/Job-1.odb,Step-1,Increment      1: Step Time =    1.000,"P-1-1",          7799,   74.3422E-03,   15.4818E-03,            0.,NA,NA,"",   990.834E+03,   992.348E+03,   992.348E+03
C:/temp/Job-1.odb,Step-1,Increment      1: Step Time =    1.000,"P-1-1",          7800,   40.9548E-03,   184.861E-03,            0.,NA,NA,"",   1.03978E+06,   1.04470E+06,   1.04470E+06
C:/temp/Job-1.odb,Step-1,Increment      1: Step Time =    1.000,"P-1-1",          7801,   125.736E-03,   183.960E-03,            0.,NA,NA,"",   989.088E+03,   989.237E+03,   989.237E+03
C:/temp/Job-1.odb,Step-1,Increment      1: Step Time =    1.000,"P-1-1",          7802,   14.7243E-03,   125.799E-03,            0.,NA,NA,"",   834.244E+03,   924.181E+03,   924.181E+03
C:/temp/Job-1.odb,Step-1,Increment      1: Step Time =    1.000,"P-1-1",          7803,   178.061E-03,   184.900E-03,            0.,NA,NA,"",   1.00171E+06,   1.00124E+06,   1.00124E+06
C:/temp/Job-1.odb,Step-1,Increment      1: Step Time =    1.000,"P-1-1",          7804,   21.5595E-03,   15.8950E-03,            0.,NA,NA,"",   1.08741E+06,   1.11342E+06,   1.11342E+06
C:/temp/Job-1.odb,Step-1,Increment      1: Step Time =    1.000,"P-1-1",          7805,   16.3892E-03,   20.7530E-03,            0.,NA,NA,"",   1.06066E+06,   1.11177E+06,   1.11177E+06
C:/temp/Job-1.odb,Step-1,Increment      1: Step Time =    1.000,"P-1-1",          7806,   184.337E-03,   178.974E-03,            0.,NA,NA,"",   1.00196E+06,   1.00175E+06,   1.00175E+06
C:/temp/Job-1.odb,Step-1,Increment      1: Step Time =    1.000,"P-1-1",          7807,   183.911E-03,   20.5247E-03,            0.,NA,NA,"",   1.00200E+06,   1.00176E+06,   1.00176E+06
C:/temp/Job-1.odb,Step-1,Increment      1: Step Time =    1.000,"P-1-1",          7808,   176.039E-03,   184.409E-03,            0.,NA,NA,"",   1.00222E+06,   1.00159E+06,   1.00159E+06
C:/temp/Job-1.odb,Step-1,Increment      1: Step Time =    1.000,"P-1-1",          7809,   23.7324E-03,   14.9640E-03,            0.,NA,NA,"",   1.08551E+06,   1.10524E+06,   1.10524E+06
C:/temp/Job-1.odb,Step-1,Increment      1: Step Time =    1.000,"P-1-1",          7810,   177.983E-03,   14.2108E-03,            0.,NA,NA,"",   1.00143E+06,   1.00100E+06,   1.00100E+06
C:/temp/Job-1.odb,Step-1,Increment      1: Step Time =    1.000,"P-1-1",          7811,   106.994E-03,   16.6430E-03,            0.,NA,NA,"",   976.370E+03,   980.407E+03,   980.407E+03
C:/temp/Job-1.odb,Step-1,Increment      1: Step Time =    1.000,"P-1-1",          7812,   166.010E-03,   185.032E-03,            0.,NA,NA,"",   1.00311E+06,   1.00179E+06,   1.00179E+06
C:/temp/Job-1.odb,Step-1,Increment      1: Step Time =    1.000,"P-1-1",          7813,   20.9011E-03,   183.799E-03,            0.,NA,NA,"",   1.08862E+06,   1.11662E+06,   1.11662E+06
C:/temp/Job-1.odb,Step-1,Increment      1: Step Time =    1.000,"P-1-1",          7814,   15.6366E-03,   35.3884E-03,            0.,NA,NA,"",   968.487E+03,   1.04241E+06,   1.04241E+06
C:/temp/Job-1.odb,Step-1,Increment      1: Step Time =    1.000,"P-1-1",          7815,   15.7729E-03,   93.7103E-03,            0.,NA,NA,"",   801.726E+03,   892.860E+03,   892.860E+03
C:/temp/Job-1.odb,Step-1,Increment      1: Step Time =    1.000,"P-1-1",          7816,   184.330E-03,   106.806E-03,            0.,NA,NA,"",   968.847E+03,   990.074E+03,   990.074E+03
C:/temp/Job-1.odb,Step-1,Increment      1: Step Time =    1.000,"P-1-1",          7817,   184.800E-03,   34.2759E-03,            0.,NA,NA,"",   1.00364E+06,   1.00403E+06,   1.00403E+06
C:/temp/Job-1.odb,Step-1,Increment      1: Step Time =    1.000,"P-1-1",          7818,   93.5152E-03,   184.090E-03,            0.,NA,NA,"",   974.582E+03,   978.688E+03,   978.688E+03
C:/temp/Job-1.odb,Step-1,Increment      1: Step Time =    1.000,"P-1-1",          7819,   136.291E-03,   15.9752E-03,            0.,NA,NA,"",   997.081E+03,   995.484E+03,   995.484E+03
C:/temp/Job-1.odb,Step-1,Increment      1: Step Time =    1.000,"P-1-1",          7820,   184.747E-03,   43.7749E-03,            0.,NA,NA,"",   1.00333E+06,   1.00515E+06,   1.00515E+06
C:/temp/Job-1.odb,Step-1,Increment      1: Step Time =    1.000,"P-1-1",          7821,   156.307E-03,   15.8853E-03,            0.,NA,NA,"",   1.00411E+06,   1.00199E+06,   1.00199E+06
C:/temp/Job-1.odb,Step-1,Increment      1: Step Time =    1.000,"P-1-1",          7822,   184.246E-03,   164.777E-03,            0.,NA,NA,"",   1.00408E+06,   1.00448E+06,   1.00448E+06
C:/temp/Job-1.odb,Step-1,Increment      1: Step Time =    1.000,"P-1-1",          7823,   43.9311E-03,   15.6104E-03,            0.,NA,NA,"",   1.03493E+06,   1.03896E+06,   1.03896E+06
C:/temp/Job-1.odb,Step-1,Increment      1: Step Time =    1.000,"P-1-1",          7824,   184.452E-03,   156.488E-03,            0.,NA,NA,"",   1.00371E+06,   1.00537E+06,   1.00537E+06
C:/temp/Job-1.odb,Step-1,Increment      1: Step Time =    1.000,"P-1-1",          7825,   184.782E-03,   135.476E-03,            0.,NA,NA,"",   993.695E+03,   1.00278E+06,   1.00278E+06
C:/temp/Job-1.odb,Step-1,Increment      1: Step Time =    1.000,"P-1-1",          7826,   129.453E-03,   15.5799E-03,            0.,NA,NA,"",   991.055E+03,   990.513E+03,   990.513E+03
C:/temp/Job-1.odb,Step-1,Increment      1: Step Time =    1.000,"P-1-1",          7827,   119.565E-03,   14.9545E-03,            0.,NA,NA,"",   980.626E+03,   981.875E+03,   981.875E+03
C:/temp/Job-1.odb,Step-1,Increment      1: Step Time =    1.000,"P-1-1",          7828,   184.833E-03,   81.3681E-03,            0.,NA,NA,"",   977.914E+03,   995.385E+03,   995.385E+03
C:/temp/Job-1.odb,Step-1,Increment      1: Step Time =    1.000,"P-1-1",          7829,   184.837E-03,   51.1643E-03,            0.,NA,NA,"",   1.00144E+06,   1.00520E+06,   1.00520E+06
C:/temp/Job-1.odb,Step-1,Increment      1: Step Time =    1.000,"P-1-1",          7830,   16.1994E-03,   45.3528E-03,            0.,NA,NA,"",   929.198E+03,   1.00814E+06,   1.00814E+06
C:/temp/Job-1.odb,Step-1,Increment      1: Step Time =    1.000,"P-1-1",          7831,   156.164E-03,   184.733E-03,            0.,NA,NA,"",   1.00327E+06,   1.00130E+06,   1.00130E+06
C:/temp/Job-1.odb,Step-1,Increment      1: Step Time =    1.000,"P-1-1",          7832,   184.837E-03,   129.435E-03,            0.,NA,NA,"",   988.339E+03,   1.00049E+06,   1.00049E+06
C:/temp/Job-1.odb,Step-1,Increment      1: Step Time =    1.000,"P-1-1",          7833,   51.0873E-03,   15.6388E-03,            0.,NA,NA,"",   1.02302E+06,   1.02495E+06,   1.02495E+06
C:/temp/Job-1.odb,Step-1,Increment      1: Step Time =    1.000,"P-1-1",          7834,   149.289E-03,   15.8822E-03,            0.,NA,NA,"",   1.00288E+06,   1.00058E+06,   1.00058E+06
C:/temp/Job-1.odb,Step-1,Increment      1: Step Time =    1.000,"P-1-1",          7835,   165.157E-03,   15.5871E-03,            0.,NA,NA,"",   1.00367E+06,   1.00219E+06,   1.00219E+06
C:/temp/Job-1.odb,Step-1,Increment      1: Step Time =    1.000,"P-1-1",          7836,   185.323E-03,   149.451E-03,            0.,NA,NA,"",   1.00107E+06,   1.00491E+06,   1.00491E+06
C:/temp/Job-1.odb,Step-1,Increment      1: Step Time =    1.000,"P-1-1",          7837,   184.155E-03,   64.8756E-03,            0.,NA,NA,"",   994.057E+03,   1.00287E+06,   1.00287E+06
C:/temp/Job-1.odb,Step-1,Increment      1: Step Time =    1.000,"P-1-1",          7838,   64.3377E-03,   16.1435E-03,            0.,NA,NA,"",   1.00567E+06,   1.00650E+06,   1.00650E+06
C:/temp/Job-1.odb,Step-1,Increment      1: Step Time =    1.000,"P-1-1",          7839,   183.714E-03,   24.2602E-03,            0.,NA,NA,"",   1.00284E+06,   1.00258E+06,   1.00258E+06
C:/temp/Job-1.odb,Step-1,Increment      1: Step Time =    1.000,"P-1-1",          7840,   15.4621E-03,   62.8642E-03,            0.,NA,NA,"",   868.122E+03,   954.676E+03,   954.676E+03
C:/temp/Job-1.odb,Step-1,Increment      1: Step Time =    1.000,"P-1-1",          7841,   93.6040E-03,   15.0602E-03,            0.,NA,NA,"",   972.189E+03,   975.878E+03,   975.878E+03
C:/temp/Job-1.odb,Step-1,Increment      1: Step Time =    1.000,"P-1-1",          7842,   15.2073E-03,   80.2403E-03,            0.,NA,NA,"",   821.326E+03,   911.637E+03,   911.637E+03
C:/temp/Job-1.odb,Step-1,Increment      1: Step Time =    1.000,"P-1-1",          7843,   15.7952E-03,   70.2512E-03,            0.,NA,NA,"",   847.713E+03,   935.587E+03,   935.587E+03
C:/temp/Job-1.odb,Step-1,Increment      1: Step Time =    1.000,"P-1-1",          7844,   184.747E-03,   119.244E-03,            0.,NA,NA,"",   978.417E+03,   995.563E+03,   995.563E+03
C:/temp/Job-1.odb,Step-1,Increment      1: Step Time =    1.000,"P-1-1",          7845,   63.8575E-03,   184.997E-03,            0.,NA,NA,"",   1.00233E+06,   1.00302E+06,   1.00302E+06
C:/temp/Job-1.odb,Step-1,Increment      1: Step Time =    1.000,"P-1-1",          7846,   15.1384E-03,   166.176E-03,            0.,NA,NA,"",   974.093E+03,   1.04792E+06,   1.04792E+06
C:/temp/Job-1.odb,Step-1,Increment      1: Step Time =    1.000,"P-1-1",          7847,   148.404E-03,   184.946E-03,            0.,NA,NA,"",   1.00136E+06,   999.274E+03,   999.274E+03
C:/temp/Job-1.odb,Step-1,Increment      1: Step Time =    1.000,"P-1-1",          7848,   43.7067E-03,   184.915E-03,            0.,NA,NA,"",   1.03429E+06,   1.03811E+06,   1.03811E+06
C:/temp/Job-1.odb,Step-1,Increment      1: Step Time =    1.000,"P-1-1",          7849,   14.7301E-03,   156.137E-03,            0.,NA,NA,"",   928.664E+03,   1.01008E+06,   1.01008E+06
C:/temp/Job-1.odb,Step-1,Increment      1: Step Time =    1.000,"P-1-1",          7850,   15.2571E-03,   50.6616E-03,            0.,NA,NA,"",   906.123E+03,   989.414E+03,   989.414E+03
C:/temp/Job-1.odb,Step-1,Increment      1: Step Time =    1.000,"P-1-1",          7851,   70.6612E-03,   185.019E-03,            0.,NA,NA,"",   993.604E+03,   994.616E+03,   994.616E+03
C:/temp/Job-1.odb,Step-1,Increment      1: Step Time =    1.000,"P-1-1",          7852,   80.2727E-03,   184.286E-03,            0.,NA,NA,"",   984.618E+03,   987.038E+03,   987.038E+03
C:/temp/Job-1.odb,Step-1,Increment      1: Step Time =    1.000,"P-1-1",          7853,   80.9866E-03,   15.2653E-03,            0.,NA,NA,"",   982.484E+03,   984.894E+03,   984.894E+03
C:/temp/Job-1.odb,Step-1,Increment      1: Step Time =    1.000,"P-1-1",          7854,   50.6385E-03,   184.328E-03,            0.,NA,NA,"",   1.02361E+06,   1.02563E+06,   1.02563E+06
C:/temp/Job-1.odb,Step-1,Increment      1: Step Time =    1.000,"P-1-1",          7855,   15.6899E-03,   149.196E-03,            0.,NA,NA,"",   907.406E+03,   989.876E+03,   989.876E+03
C:/temp/Job-1.odb,Step-1,Increment      1: Step Time =    1.000,"P-1-1",          7856,   15.8684E-03,   106.242E-03,            0.,NA,NA,"",   801.682E+03,   892.799E+03,   892.799E+03
C:/temp/Job-1.odb,Step-1,Increment      1: Step Time =    1.000,"P-1-1",          7857,   134.875E-03,   184.558E-03,            0.,NA,NA,"",   995.058E+03,   993.727E+03,   993.727E+03
C:/temp/Job-1.odb,Step-1,Increment      1: Step Time =    1.000,"P-1-1",          7858,   14.8235E-03,   176.303E-03,            0.,NA,NA,"",   1.03418E+06,   1.09594E+06,   1.09594E+06
C:/temp/Job-1.odb,Step-1,Increment      1: Step Time =    1.000,"P-1-1",          7859,   15.4780E-03,   136.022E-03,            0.,NA,NA,"",   865.108E+03,   951.937E+03,   951.937E+03
C:/temp/Job-1.odb,Step-1,Increment      1: Step Time =    1.000,"P-1-1",          7860,   34.8025E-03,   185.088E-03,            0.,NA,NA,"",   1.05342E+06,   1.06178E+06,   1.06178E+06
C:/temp/Job-1.odb,Step-1,Increment      1: Step Time =    1.000,"P-1-1",          7861,   107.023E-03,   184.191E-03,            0.,NA,NA,"",   974.376E+03,   978.084E+03,   978.084E+03
C:/temp/Job-1.odb,Step-1,Increment      1: Step Time =    1.000,"P-1-1",          7862,   109.575E-03,   15.3626E-03,            0.,NA,NA,"",   974.664E+03,   977.823E+03,   977.823E+03
C:/temp/Job-1.odb,Step-1,Increment      1: Step Time =    1.000,"P-1-1",          7863,   119.402E-03,   183.534E-03,            0.,NA,NA,"",   984.467E+03,   986.056E+03,   986.056E+03
C:/temp/Job-1.odb,Step-1,Increment      1: Step Time =    1.000,"P-1-1",          7864,   16.6392E-03,   118.251E-03,            0.,NA,NA,"",   821.298E+03,   910.370E+03,   910.370E+03
C:/temp/Job-1.odb,Step-1,Increment      1: Step Time =    1.000,"P-1-1",          7865,   184.069E-03,   92.7089E-03,            0.,NA,NA,"",   969.025E+03,   989.877E+03,   989.877E+03
C:/temp/Job-1.odb,Step-1,Increment      1: Step Time =    1.000,"P-1-1",          7866,   15.4656E-03,   90.6602E-03,            0.,NA,NA,"",   804.260E+03,   895.460E+03,   895.460E+03
C:/temp/Job-1.odb,Step-1,Increment      1: Step Time =    1.000,"P-1-1",          7867,   184.870E-03,   109.960E-03,            0.,NA,NA,"",   970.760E+03,   991.651E+03,   991.651E+03
C:/temp/Job-1.odb,Step-1,Increment      1: Step Time =    1.000,"P-1-1",          7868,   90.2603E-03,   184.900E-03,            0.,NA,NA,"",   974.048E+03,   977.544E+03,   977.544E+03
C:/temp/Job-1.odb,Step-1,Increment      1: Step Time =    1.000,"P-1-1",          7869,   184.627E-03,   54.1223E-03,            0.,NA,NA,"",   1.00044E+06,   1.00510E+06,   1.00510E+06
C:/temp/Job-1.odb,Step-1,Increment      1: Step Time =    1.000,"P-1-1",          7870,   53.7287E-03,   15.0087E-03,            0.,NA,NA,"",   1.01702E+06,   1.01834E+06,   1.01834E+06
C:/temp/Job-1.odb,Step-1,Increment      1: Step Time =    1.000,"P-1-1",          7871,   145.305E-03,   185.228E-03,            0.,NA,NA,"",   999.674E+03,   997.702E+03,   997.702E+03
C:/temp/Job-1.odb,Step-1,Increment      1: Step Time =    1.000,"P-1-1",          7872,   15.3972E-03,   146.170E-03,            0.,NA,NA,"",   896.317E+03,   980.395E+03,   980.395E+03
C:/temp/Job-1.odb,Step-1,Increment      1: Step Time =    1.000,"P-1-1",          7873,   15.2686E-03,   38.9291E-03,            0.,NA,NA,"",   950.633E+03,   1.02810E+06,   1.02810E+06
C:/temp/Job-1.odb,Step-1,Increment      1: Step Time =    1.000,"P-1-1",          7874,   185.208E-03,   161.806E-03,            0.,NA,NA,"",   1.00342E+06,   1.00437E+06,   1.00437E+06
C:/temp/Job-1.odb,Step-1,Increment      1: Step Time =    1.000,"P-1-1",          7875,   161.907E-03,   15.2138E-03,            0.,NA,NA,"",   1.00352E+06,   1.00187E+06,   1.00187E+06
C:/temp/Job-1.odb,Step-1,Increment      1: Step Time =    1.000,"P-1-1",          7876,   183.865E-03,   76.6709E-03,            0.,NA,NA,"",   982.880E+03,   997.344E+03,   997.344E+03
C:/temp/Job-1.odb,Step-1,Increment      1: Step Time =    1.000,"P-1-1",          7877,   37.8908E-03,   184.792E-03,            0.,NA,NA,"",   1.04680E+06,   1.05330E+06,   1.05330E+06
C:/temp/Job-1.odb,Step-1,Increment      1: Step Time =    1.000,"P-1-1",          7878,   77.7778E-03,   16.2888E-03,            0.,NA,NA,"",   989.253E+03,   991.403E+03,   991.403E+03
C:/temp/Job-1.odb,Step-1,Increment      1: Step Time =    1.000,"P-1-1",          7879,   41.1328E-03,   14.6844E-03,            0.,NA,NA,"",   1.03855E+06,   1.04315E+06,   1.04315E+06
C:/temp/Job-1.odb,Step-1,Increment      1: Step Time =    1.000,"P-1-1",          7880,   158.704E-03,   184.012E-03,            0.,NA,NA,"",   1.00432E+06,   1.00232E+06,   1.00232E+06
C:/temp/Job-1.odb,Step-1,Increment      1: Step Time =    1.000,"P-1-1",          7881,   184.092E-03,   41.3520E-03,            0.,NA,NA,"",   1.00418E+06,   1.00535E+06,   1.00535E+06
C:/temp/Job-1.odb,Step-1,Increment      1: Step Time =    1.000,"P-1-1",          7882,   126.118E-03,   15.9515E-03,            0.,NA,NA,"",   989.091E+03,   989.155E+03,   989.155E+03
C:/temp/Job-1.odb,Step-1,Increment      1: Step Time =    1.000,"P-1-1",          7883,   184.136E-03,   126.418E-03,            0.,NA,NA,"",   985.910E+03,   999.062E+03,   999.062E+03
C:/temp/Job-1.odb,Step-1,Increment      1: Step Time =    1.000,"P-1-1",          7884,   122.543E-03,   184.776E-03,            0.,NA,NA,"",    984.12E+03,   984.866E+03,   984.866E+03
C:/temp/Job-1.odb,Step-1,Increment      1: Step Time =    1.000,"P-1-1",          7885,   16.1839E-03,   122.516E-03,            0.,NA,NA,"",   829.949E+03,   918.766E+03,   918.766E+03
C:/temp/Job-1.odb,Step-1,Increment      1: Step Time =    1.000,"P-1-1",          7886,   14.7378E-03,   73.4210E-03,            0.,NA,NA,"",   836.245E+03,   926.038E+03,   926.038E+03
C:/temp/Job-1.odb,Step-1,Increment      1: Step Time =    1.000,"P-1-1",          7887,   73.6103E-03,   184.720E-03,            0.,NA,NA,"",   990.846E+03,   992.204E+03,   992.204E+03
C:/temp/Job-1.odb,Step-1,Increment      1: Step Time =    1.000,"P-1-1",          7888,   15.3834E-03,   158.424E-03,            0.,NA,NA,"",   940.164E+03,   1.01899E+06,   1.01899E+06
C:/temp/Job-1.odb,Step-1,Increment      1: Step Time =    1.000,"P-1-1",          7889,   172.818E-03,   185.564E-03,            0.,NA,NA,"",   1.00217E+06,   1.00140E+06,   1.00140E+06
C:/temp/Job-1.odb,Step-1,Increment      1: Step Time =    1.000,"P-1-1",          7890,   15.1266E-03,   24.8194E-03,            0.,NA,NA,"",   1.02718E+06,   1.09012E+06,   1.09012E+06
C:/temp/Job-1.odb,Step-1,Increment      1: Step Time =    1.000,"P-1-1",          7891,   26.7512E-03,   14.3001E-03,            0.,NA,NA,"",   1.07695E+06,   1.09138E+06,   1.09138E+06
C:/temp/Job-1.odb,Step-1,Increment      1: Step Time =    1.000,"P-1-1",          7892,   184.122E-03,   176.046E-03,            0.,NA,NA,"",   1.00258E+06,   1.00238E+06,   1.00238E+06
C:/temp/Job-1.odb,Step-1,Increment      1: Step Time =    1.000,"P-1-1",          7893,   174.800E-03,   15.2425E-03,            0.,NA,NA,"",   1.00226E+06,   1.00157E+06,   1.00157E+06
C:/temp/Job-1.odb,Step-1,Increment      1: Step Time =    1.000,"P-1-1",          7894,   185.722E-03,   26.6933E-03,            0.,NA,NA,"",   1.00242E+06,   1.00243E+06,   1.00243E+06
C:/temp/Job-1.odb,Step-1,Increment      1: Step Time =    1.000,"P-1-1",          7895,   23.8973E-03,   183.370E-03,            0.,NA,NA,"",   1.07993E+06,   1.10311E+06,   1.10311E+06
C:/temp/Job-1.odb,Step-1,Increment      1: Step Time =    1.000,"P-1-1",          7896,   14.4764E-03,   173.461E-03,            0.,NA,NA,"",   1.01274E+06,   1.08024E+06,   1.08024E+06
C:/temp/Job-1.odb,Step-1,Increment      1: Step Time =    1.000,"P-1-1",          7897,   185.131E-03,   56.8659E-03,            0.,NA,NA,"",   998.580E+03,   1.00449E+06,   1.00449E+06
C:/temp/Job-1.odb,Step-1,Increment      1: Step Time =    1.000,"P-1-1",          7898,   90.4744E-03,   14.7302E-03,            0.,NA,NA,"",   973.016E+03,   976.413E+03,   976.413E+03
C:/temp/Job-1.odb,Step-1,Increment      1: Step Time =    1.000,"P-1-1",          7899,   146.341E-03,   15.5175E-03,            0.,NA,NA,"",   1.00139E+06,   999.210E+03,   999.210E+03
C:/temp/Job-1.odb,Step-1,Increment      1: Step Time =    1.000,"P-1-1",          7900,   55.4081E-03,   13.1546E-03,            0.,NA,NA,"",   1.00877E+06,   1.00950E+06,   1.00950E+06
C:/temp/Job-1.odb,Step-1,Increment      1: Step Time =    1.000,"P-1-1",          7901,   185.420E-03,   146.421E-03,            0.,NA,NA,"",   999.793E+03,   1.00468E+06,   1.00468E+06
C:/temp/Job-1.odb,Step-1,Increment      1: Step Time =    1.000,"P-1-1",          7902,   15.4446E-03,   53.3706E-03,            0.,NA,NA,"",   898.171E+03,   981.967E+03,   981.967E+03
C:/temp/Job-1.odb,Step-1,Increment      1: Step Time =    1.000,"P-1-1",          7903,   142.583E-03,   186.756E-03,            0.,NA,NA,"",   995.586E+03,   994.051E+03,   994.051E+03
C:/temp/Job-1.odb,Step-1,Increment      1: Step Time =    1.000,"P-1-1",          7904,   15.3709E-03,   109.338E-03,            0.,NA,NA,"",   804.012E+03,   895.285E+03,   895.285E+03
C:/temp/Job-1.odb,Step-1,Increment      1: Step Time =    1.000,"P-1-1",          7905,   109.796E-03,   185.234E-03,            0.,NA,NA,"",   973.108E+03,   975.960E+03,   975.960E+03
C:/temp/Job-1.odb,Step-1,Increment      1: Step Time =    1.000,"P-1-1",          7906,   53.4091E-03,   184.591E-03,            0.,NA,NA,"",   1.01868E+06,   1.02017E+06,   1.02017E+06
C:/temp/Job-1.odb,Step-1,Increment      1: Step Time =    1.000,"P-1-1",          7907,   14.5549E-03,   143.969E-03,            0.,NA,NA,"",   885.277E+03,   971.609E+03,   971.609E+03
C:/temp/Job-1.odb,Step-1,Increment      1: Step Time =    1.000,"P-1-1",          7908,   184.356E-03,   89.5747E-03,            0.,NA,NA,"",   970.991E+03,   991.261E+03,   991.261E+03
C:/temp/Job-1.odb,Step-1,Increment      1: Step Time =    1.000,"P-1-1",          7909,   14.5822E-03,   29.0413E-03,            0.,NA,NA,"",   997.893E+03,   1.06816E+06,   1.06816E+06
C:/temp/Job-1.odb,Step-1,Increment      1: Step Time =    1.000,"P-1-1",          7910,   15.5573E-03,   32.5428E-03,            0.,NA,NA,"",   982.605E+03,   1.05390E+06,   1.05390E+06
C:/temp/Job-1.odb,Step-1,Increment      1: Step Time =    1.000,"P-1-1",          7911,   184.302E-03,   167.874E-03,            0.,NA,NA,"",   1.00369E+06,   1.00385E+06,   1.00385E+06
C:/temp/Job-1.odb,Step-1,Increment      1: Step Time =    1.000,"P-1-1",          7912,   185.092E-03,   83.7768E-03,            0.,NA,NA,"",   975.451E+03,   994.157E+03,   994.157E+03
C:/temp/Job-1.odb,Step-1,Increment      1: Step Time =    1.000,"P-1-1",          7913,   185.461E-03,   85.6382E-03,            0.,NA,NA,"",   973.978E+03,   993.796E+03,   993.796E+03
C:/temp/Job-1.odb,Step-1,Increment      1: Step Time =    1.000,"P-1-1",          7914,   169.351E-03,   15.1756E-03,            0.,NA,NA,"",   1.00291E+06,   1.00182E+06,   1.00182E+06
C:/temp/Job-1.odb,Step-1,Increment      1: Step Time =    1.000,"P-1-1",          7915,   142.393E-03,   14.0102E-03,            0.,NA,NA,"",   996.893E+03,   995.192E+03,   995.192E+03
C:/temp/Job-1.odb,Step-1,Increment      1: Step Time =    1.000,"P-1-1",          7916,   138.793E-03,   15.4729E-03,            0.,NA,NA,"",   997.527E+03,   995.772E+03,   995.772E+03
C:/temp/Job-1.odb,Step-1,Increment      1: Step Time =    1.000,"P-1-1",          7917,   183.630E-03,   138.278E-03,            0.,NA,NA,"",   997.091E+03,   1.00413E+06,   1.00413E+06
C:/temp/Job-1.odb,Step-1,Increment      1: Step Time =    1.000,"P-1-1",          7918,   185.628E-03,   141.194E-03,            0.,NA,NA,"",   996.897E+03,   1.00390E+06,   1.00390E+06
C:/temp/Job-1.odb,Step-1,Increment      1: Step Time =    1.000,"P-1-1",          7919,   83.5531E-03,   15.4959E-03,            0.,NA,NA,"",   980.725E+03,   983.519E+03,   983.519E+03
C:/temp/Job-1.odb,Step-1,Increment      1: Step Time =    1.000,"P-1-1",          7920,   86.1782E-03,   13.9528E-03,            0.,NA,NA,"",   973.588E+03,   976.212E+03,   976.212E+03
C:/temp/Job-1.odb,Step-1,Increment      1: Step Time =    1.000,"P-1-1",          7921,   112.863E-03,   14.6716E-03,            0.,NA,NA,"",   974.987E+03,   977.421E+03,   977.421E+03
C:/temp/Job-1.odb,Step-1,Increment      1: Step Time =    1.000,"P-1-1",          7922,   116.285E-03,   13.7666E-03,            0.,NA,NA,"",   975.170E+03,   976.771E+03,   976.771E+03
C:/temp/Job-1.odb,Step-1,Increment      1: Step Time =    1.000,"P-1-1",          7923,   32.3083E-03,   185.351E-03,            0.,NA,NA,"",   1.05979E+06,   1.06960E+06,   1.06960E+06
C:/temp/Job-1.odb,Step-1,Increment      1: Step Time =    1.000,"P-1-1",          7924,   29.2531E-03,   185.808E-03,            0.,NA,NA,"",   1.06870E+06,   1.08036E+06,   1.08036E+06
C:/temp/Job-1.odb,Step-1,Increment      1: Step Time =    1.000,"P-1-1",          7925,   15.1321E-03,   59.6435E-03,            0.,NA,NA,"",   876.473E+03,   962.855E+03,   962.855E+03
C:/temp/Job-1.odb,Step-1,Increment      1: Step Time =    1.000,"P-1-1",          7926,   14.6420E-03,   57.3529E-03,            0.,NA,NA,"",   882.078E+03,   968.503E+03,   968.503E+03
C:/temp/Job-1.odb,Step-1,Increment      1: Step Time =    1.000,"P-1-1",          7927,   60.8532E-03,   183.889E-03,            0.,NA,NA,"",   1.01014E+06,   1.01099E+06,   1.01099E+06
C:/temp/Job-1.odb,Step-1,Increment      1: Step Time =    1.000,"P-1-1",          7928,   115.833E-03,   183.970E-03,            0.,NA,NA,"",   980.501E+03,   982.751E+03,   982.751E+03
C:/temp/Job-1.odb,Step-1,Increment      1: Step Time =    1.000,"P-1-1",          7929,   113.671E-03,   186.690E-03,            0.,NA,NA,"",   971.896E+03,   973.795E+03,   973.795E+03
C:/temp/Job-1.odb,Step-1,Increment      1: Step Time =    1.000,"P-1-1",          7930,   184.799E-03,   112.879E-03,            0.,NA,NA,"",   972.710E+03,   992.544E+03,   992.544E+03
C:/temp/Job-1.odb,Step-1,Increment      1: Step Time =    1.000,"P-1-1",          7931,   14.4734E-03,   84.5636E-03,            0.,NA,NA,"",   811.320E+03,   902.878E+03,   902.878E+03
C:/temp/Job-1.odb,Step-1,Increment      1: Step Time =    1.000,"P-1-1",          7932,   14.6927E-03,   87.5428E-03,            0.,NA,NA,"",   806.843E+03,   898.519E+03,   898.519E+03
C:/temp/Job-1.odb,Step-1,Increment      1: Step Time =    1.000,"P-1-1",          7933,   15.2626E-03,   116.009E-03,            0.,NA,NA,"",   813.807E+03,   904.649E+03,   904.649E+03
C:/temp/Job-1.odb,Step-1,Increment      1: Step Time =    1.000,"P-1-1",          7934,   14.6605E-03,   113.492E-03,            0.,NA,NA,"",   808.351E+03,   899.948E+03,   899.948E+03
C:/temp/Job-1.odb,Step-1,Increment      1: Step Time =    1.000,"P-1-1",          7935,   88.7990E-03,   184.712E-03,            0.,NA,NA,"",   975.670E+03,   979.080E+03,   979.080E+03
C:/temp/Job-1.odb,Step-1,Increment      1: Step Time =    1.000,"P-1-1",          7936,   85.3164E-03,   186.340E-03,            0.,NA,NA,"",   973.390E+03,   975.821E+03,   975.821E+03
C:/temp/Job-1.odb,Step-1,Increment      1: Step Time =    1.000,"P-1-1",          7937,   93.6134E-03,   127.139E-03,            0.,NA,NA,"",   1.15698E+06,   1.23500E+06,   1.23500E+06
C:/temp/Job-1.odb,Step-1,Increment      1: Step Time =    1.000,"P-1-1",          7938,   100.991E-03,   16.3088E-03,            0.,NA,NA,"",   974.107E+03,   978.512E+03,   978.512E+03
C:/temp/Job-1.odb,Step-1,Increment      1: Step Time =    1.000,"P-1-1",          7939,   15.6304E-03,   99.8379E-03,            0.,NA,NA,"",   798.761E+03,   890.304E+03,   890.304E+03
C:/temp/Job-1.odb,Step-1,Increment      1: Step Time =    1.000,"P-1-1",          7940,   99.7219E-03,   184.178E-03,            0.,NA,NA,"",   972.730E+03,   976.834E+03,   976.834E+03
C:/temp/Job-1.odb,Step-1,Increment      1: Step Time =    1.000,"P-1-1",          7941,   184.444E-03,   100.512E-03,            0.,NA,NA,"",   967.415E+03,   989.467E+03,   989.467E+03
C:/temp/Job-1.odb,Step-1,Increment      1: Step Time =    1.000,"P-1-1",          7942,   73.2279E-03,   93.2700E-03,            0.,NA,NA,"",   713.322E+03,   708.252E+03,   708.252E+03
C:/temp/Job-1.odb,Step-1,Increment      1: Step Time =    1.000,"P-1-1",          7943,   90.2050E-03,   127.469E-03,            0.,NA,NA,"",   1.18966E+06,   1.23700E+06,   1.23700E+06
C:/temp/Job-1.odb,Step-1,Increment      1: Step Time =    1.000,"P-1-1",          7944,   127.458E-03,   92.4899E-03,            0.,NA,NA,"",   789.555E+03,   754.980E+03,   754.980E+03
C:/temp/Job-1.odb,Step-1,Increment      1: Step Time =    1.000,"P-1-1",          7945,   115.937E-03,   121.967E-03,            0.,NA,NA,"",   1.31410E+06,   1.26307E+06,   1.26307E+06
C:/temp/Job-1.odb,Step-1,Increment      1: Step Time =    1.000,"P-1-1",          7946,   74.2965E-03,   90.7629E-03,            0.,NA,NA,"",   840.889E+03,   804.608E+03,   804.608E+03
C:/temp/Job-1.odb,Step-1,Increment      1: Step Time =    1.000,"P-1-1",          7947,   73.1712E-03,   111.935E-03,            0.,NA,NA,"",   937.266E+03,   896.908E+03,   896.908E+03
C:/temp/Job-1.odb,Step-1,Increment      1: Step Time =    1.000,"P-1-1",          7948,   82.9285E-03,   116.127E-03,            0.,NA,NA,"",   1.29336E+06,   1.19822E+06,   1.19822E+06
C:/temp/Job-1.odb,Step-1,Increment      1: Step Time =    1.000,"P-1-1",          7949,   126.621E-03,   93.9679E-03,            0.,NA,NA,"",   721.391E+03,   694.373E+03,   694.373E+03
C:/temp/Job-1.odb,Step-1,Increment      1: Step Time =    1.000,"P-1-1",          7950,   84.1089E-03,   84.3144E-03,            0.,NA,NA,"",   1.31443E+06,   1.21772E+06,   1.21772E+06
C:/temp/Job-1.odb,Step-1,Increment      1: Step Time =    1.000,"P-1-1",          7951,   126.159E-03,   112.682E-03,            0.,NA,NA,"",   1.02499E+06,   944.163E+03,   944.163E+03
C:/temp/Job-1.odb,Step-1,Increment      1: Step Time =    1.000,"P-1-1",          7952,   129.806E-03,   103.512E-03,            0.,NA,NA,"",   666.530E+03,   672.515E+03,   672.515E+03
C:/temp/Job-1.odb,Step-1,Increment      1: Step Time =    1.000,"P-1-1",          7953,   126.208E-03,   113.849E-03,            0.,NA,NA,"",   1.05876E+06,   976.121E+03,   976.121E+03
C:/temp/Job-1.odb,Step-1,Increment      1: Step Time =    1.000,"P-1-1",          7954,   80.6397E-03,   83.3718E-03,            0.,NA,NA,"",   1.23751E+06,   1.14736E+06,   1.14736E+06
C:/temp/Job-1.odb,Step-1,Increment      1: Step Time =    1.000,"P-1-1",          7955,   73.8838E-03,   109.260E-03,            0.,NA,NA,"",   843.878E+03,   810.494E+03,   810.494E+03
C:/temp/Job-1.odb,Step-1,Increment      1: Step Time =    1.000,"P-1-1",          7956,   120.199E-03,   119.193E-03,            0.,NA,NA,"",   1.27315E+06,   1.17975E+06,   1.17975E+06
C:/temp/Job-1.odb,Step-1,Increment      1: Step Time =    1.000,"P-1-1",          7957,   100.620E-03,   128.194E-03,            0.,NA,NA,"",   1.09979E+06,   1.20028E+06,   1.20028E+06
C:/temp/Job-1.odb,Step-1,Increment      1: Step Time =    1.000,"P-1-1",          7958,   85.0367E-03,   125.614E-03,            0.,NA,NA,"",   1.24984E+06,   1.24309E+06,   1.24309E+06
C:/temp/Job-1.odb,Step-1,Increment      1: Step Time =    1.000,"P-1-1",          7959,   153.944E-03,   13.9874E-03,            0.,NA,NA,"",   1.00136E+06,   999.575E+03,   999.575E+03
C:/temp/Job-1.odb,Step-1,Increment      1: Step Time =    1.000,"P-1-1",          7960,   185.255E-03,   153.987E-03,            0.,NA,NA,"",   1.00252E+06,   1.00501E+06,   1.00501E+06
C:/temp/Job-1.odb,Step-1,Increment      1: Step Time =    1.000,"P-1-1",          7961,   46.4417E-03,   184.768E-03,            0.,NA,NA,"",   1.02975E+06,   1.03273E+06,   1.03273E+06
C:/temp/Job-1.odb,Step-1,Increment      1: Step Time =    1.000,"P-1-1",          7962,   161.696E-03,   185.167E-03,            0.,NA,NA,"",   1.00310E+06,   1.00153E+06,   1.00153E+06
C:/temp/Job-1.odb,Step-1,Increment      1: Step Time =    1.000,"P-1-1",          7963,   38.0996E-03,   15.3940E-03,            0.,NA,NA,"",   1.04660E+06,   1.05323E+06,   1.05323E+06
C:/temp/Job-1.odb,Step-1,Increment      1: Step Time =    1.000,"P-1-1",          7964,   185.198E-03,   38.4811E-03,            0.,NA,NA,"",   1.00338E+06,   1.00438E+06,   1.00438E+06
C:/temp/Job-1.odb,Step-1,Increment      1: Step Time =    1.000,"P-1-1",          7965,   122.846E-03,   14.5771E-03,            0.,NA,NA,"",   982.734E+03,   983.369E+03,   983.369E+03
C:/temp/Job-1.odb,Step-1,Increment      1: Step Time =    1.000,"P-1-1",          7966,   186.020E-03,   123.588E-03,            0.,NA,NA,"",   982.032E+03,   998.091E+03,   998.091E+03
C:/temp/Job-1.odb,Step-1,Increment      1: Step Time =    1.000,"P-1-1",          7967,   14.7565E-03,   76.2115E-03,            0.,NA,NA,"",   829.544E+03,   919.683E+03,   919.683E+03
C:/temp/Job-1.odb,Step-1,Increment      1: Step Time =    1.000,"P-1-1",          7968,   75.9872E-03,   186.388E-03,            0.,NA,NA,"",   982.665E+03,   983.951E+03,   983.951E+03
C:/temp/Job-1.odb,Step-1,Increment      1: Step Time =    1.000,"P-1-1",          7969,   14.1384E-03,   185.111E-03,            0.,NA,NA,"",   1.10854E+06,   1.15226E+06,   1.15226E+06
C:/temp/Job-1.odb,Step-1,Increment      1: Step Time =    1.000,"P-1-1",          7970,   184.012E-03,   15.1807E-03,            0.,NA,NA,"",   1.00093E+06,   1.00075E+06,   1.00075E+06
C:/temp/Job-1.odb,Step-1,Increment      1: Step Time =    1.000,"P-1-1",          7971,   15.1840E-03,   14.7464E-03,            0.,NA,NA,"",   1.10788E+06,   1.14734E+06,   1.14734E+06
C:/temp/Job-1.odb,Step-1,Increment      1: Step Time =    1.000,"P-1-1",          7972,   185.467E-03,   185.157E-03,            0.,NA,NA,"",   1.00070E+06,   1.00058E+06,   1.00058E+06
C:/temp/Job-1.odb,Step-1,Increment      1: Step Time =    1.000,"P-1-1",          7973,   129.701E-03,   106.894E-03,            0.,NA,NA,"",   772.145E+03,   754.437E+03,   754.437E+03
C:/temp/Job-1.odb,Step-1,Increment      1: Step Time =    1.000,"P-1-1",          7974,   16.0961E-03,   139.903E-03,            0.,NA,NA,"",   878.703E+03,   963.675E+03,   963.675E+03
C:/temp/Job-1.odb,Step-1,Increment      1: Step Time =    1.000,"P-1-1",          7975,   14.3906E-03,   169.428E-03,            0.,NA,NA,"",   987.725E+03,   1.06047E+06,   1.06047E+06
C:/temp/Job-1.odb,Step-1,Increment      1: Step Time =    1.000,"P-1-1",          7976,   139.225E-03,   184.832E-03,            0.,NA,NA,"",   997.336E+03,   995.610E+03,   995.610E+03
C:/temp/Job-1.odb,Step-1,Increment      1: Step Time =    1.000,"P-1-1",          7977,   59.2093E-03,   15.0831E-03,            0.,NA,NA,"",   1.00948E+06,   1.01034E+06,   1.01034E+06
C:/temp/Job-1.odb,Step-1,Increment      1: Step Time =    1.000,"P-1-1",          7978,   185.224E-03,   60.4335E-03,            0.,NA,NA,"",   996.249E+03,   1.00374E+06,   1.00374E+06
C:/temp/Job-1.odb,Step-1,Increment      1: Step Time =    1.000,"P-1-1",          7979,   183.618E-03,   29.9817E-03,            0.,NA,NA,"",   1.00389E+06,   1.00377E+06,   1.00377E+06
C:/temp/Job-1.odb,Step-1,Increment      1: Step Time =    1.000,"P-1-1",          7980,   30.4042E-03,   14.5627E-03,            0.,NA,NA,"",   1.06599E+06,   1.07708E+06,   1.07708E+06
C:/temp/Job-1.odb,Step-1,Increment      1: Step Time =    1.000,"P-1-1",          7981,   169.945E-03,   184.785E-03,            0.,NA,NA,"",   1.00297E+06,   1.00190E+06,   1.00190E+06
C:/temp/Job-1.odb,Step-1,Increment      1: Step Time =    1.000,"P-1-1",          7982,   107.160E-03,   127.898E-03,            0.,NA,NA,"",   1.15483E+06,   1.22281E+06,   1.22281E+06
C:/temp/Job-1.odb,Step-1,Increment      1: Step Time =    1.000,"P-1-1",          7983,   119.732E-03,   120.709E-03,            0.,NA,NA,"",   1.28173E+06,   1.20013E+06,   1.20013E+06
C:/temp/Job-1.odb,Step-1,Increment      1: Step Time =    1.000,"P-1-1",          7984,   86.2752E-03,   90.3635E-03,            0.,NA,NA,"",   1.04911E+06,   904.783E+03,   904.783E+03
C:/temp/Job-1.odb,Step-1,Increment      1: Step Time =    1.000,"P-1-1",          7985,   83.8153E-03,   186.100E-03,            0.,NA,NA,"",   975.506E+03,   977.836E+03,   977.836E+03
C:/temp/Job-1.odb,Step-1,Increment      1: Step Time =    1.000,"P-1-1",          7986,   15.7369E-03,   82.9731E-03,            0.,NA,NA,"",   816.890E+03,   907.060E+03,   907.060E+03
C:/temp/Job-1.odb,Step-1,Increment      1: Step Time =    1.000,"P-1-1",          7987,   116.460E-03,   15.2131E-03,            0.,NA,NA,"",   978.775E+03,   980.697E+03,   980.697E+03
C:/temp/Job-1.odb,Step-1,Increment      1: Step Time =    1.000,"P-1-1",          7988,   56.5576E-03,   183.639E-03,            0.,NA,NA,"",   1.01686E+06,   1.01811E+06,   1.01811E+06
C:/temp/Job-1.odb,Step-1,Increment      1: Step Time =    1.000,"P-1-1",          7989,   15.7824E-03,   55.8731E-03,            0.,NA,NA,"",   891.239E+03,   975.310E+03,   975.310E+03
C:/temp/Job-1.odb,Step-1,Increment      1: Step Time =    1.000,"P-1-1",          7990,   184.466E-03,   142.059E-03,            0.,NA,NA,"",   998.687E+03,   1.00465E+06,   1.00465E+06
C:/temp/Job-1.odb,Step-1,Increment      1: Step Time =    1.000,"P-1-1",          7991,   143.540E-03,   15.1814E-03,            0.,NA,NA,"",   999.430E+03,   997.443E+03,   997.443E+03
C:/temp/Job-1.odb,Step-1,Increment      1: Step Time =    1.000,"P-1-1",          7992,   184.327E-03,   86.4051E-03,            0.,NA,NA,"",   973.457E+03,   992.656E+03,   992.656E+03
C:/temp/Job-1.odb,Step-1,Increment      1: Step Time =    1.000,"P-1-1",          7993,   15.6791E-03,   111.956E-03,            0.,NA,NA,"",   807.972E+03,   898.777E+03,   898.777E+03
C:/temp/Job-1.odb,Step-1,Increment      1: Step Time =    1.000,"P-1-1",          7994,   112.555E-03,   185.144E-03,            0.,NA,NA,"",   975.141E+03,   977.640E+03,   977.640E+03
C:/temp/Job-1.odb,Step-1,Increment      1: Step Time =    1.000,"P-1-1",          7995,   27.2017E-03,   184.678E-03,            0.,NA,NA,"",   1.07423E+06,   1.08999E+06,   1.08999E+06
C:/temp/Job-1.odb,Step-1,Increment      1: Step Time =    1.000,"P-1-1",          7996,   87.6664E-03,   15.2922E-03,            0.,NA,NA,"",   976.430E+03,   979.741E+03,   979.741E+03
C:/temp/Job-1.odb,Step-1,Increment      1: Step Time =    1.000,"P-1-1",          7997,   172.100E-03,   15.0749E-03,            0.,NA,NA,"",   1.00254E+06,   1.00166E+06,   1.00166E+06
C:/temp/Job-1.odb,Step-1,Increment      1: Step Time =    1.000,"P-1-1",          7998,   77.1576E-03,   84.9116E-03,            0.,NA,NA,"",   1.12357E+06,   1.04352E+06,   1.04352E+06
C:/temp/Job-1.odb,Step-1,Increment      1: Step Time =    1.000,"P-1-1",          7999,   184.670E-03,   172.263E-03,            0.,NA,NA,"",   1.00304E+06,   1.00297E+06,   1.00297E+06
C:/temp/Job-1.odb,Step-1,Increment      1: Step Time =    1.000,"P-1-1",          8000,   15.4919E-03,   27.3802E-03,            0.,NA,NA,"",   1.01183E+06,   1.07723E+06,   1.07723E+06
C:/temp/Job-1.odb,Step-1,Increment      1: Step Time =    1.000,"P-1-1",          8001,   96.0010E-03,   127.533E-03,            0.,NA,NA,"",   1.12641E+06,   1.21940E+06,   1.21940E+06
C:/temp/Job-1.odb,Step-1,Increment      1: Step Time =    1.000,"P-1-1",          8002,   185.635E-03,   97.0113E-03,            0.,NA,NA,"",   968.089E+03,   990.986E+03,   990.986E+03
C:/temp/Job-1.odb,Step-1,Increment      1: Step Time =    1.000,"P-1-1",          8003,   103.410E-03,   185.090E-03,            0.,NA,NA,"",   970.943E+03,   974.563E+03,   974.563E+03
C:/temp/Job-1.odb,Step-1,Increment      1: Step Time =    1.000,"P-1-1",          8004,   15.3744E-03,   103.723E-03,            0.,NA,NA,"",   799.235E+03,   890.895E+03,   890.895E+03
C:/temp/Job-1.odb,Step-1,Increment      1: Step Time =    1.000,"P-1-1",          8005,   96.5949E-03,   15.8525E-03,            0.,NA,NA,"",   973.334E+03,   977.548E+03,   977.548E+03
C:/temp/Job-1.odb,Step-1,Increment      1: Step Time =    1.000,"P-1-1",          8006,   18.1475E-03,   184.513E-03,            0.,NA,NA,"",   1.09793E+06,   1.13095E+06,   1.13095E+06
C:/temp/Job-1.odb,Step-1,Increment      1: Step Time =    1.000,"P-1-1",          8007,   181.069E-03,   15.3687E-03,            0.,NA,NA,"",   1.00137E+06,   1.00106E+06,   1.00106E+06
C:/temp/Job-1.odb,Step-1,Increment      1: Step Time =    1.000,"P-1-1",          8008,   73.8305E-03,   113.706E-03,            0.,NA,NA,"",   1.01259E+06,   960.734E+03,   960.734E+03
C:/temp/Job-1.odb,Step-1,Increment      1: Step Time =    1.000,"P-1-1",          8009,   184.943E-03,   182.580E-03,            0.,NA,NA,"",   1.00120E+06,   1.00103E+06,   1.00103E+06
C:/temp/Job-1.odb,Step-1,Increment      1: Step Time =    1.000,"P-1-1",          8010,   15.8446E-03,   16.9329E-03,            0.,NA,NA,"",   1.09065E+06,   1.13407E+06,   1.13407E+06
C:/temp/Job-1.odb,Step-1,Increment      1: Step Time =    1.000,"P-1-1",          8011,   86.8157E-03,   126.752E-03,            0.,NA,NA,"",   1.22798E+06,   1.24139E+06,   1.24139E+06
C:/temp/Job-1.odb,Step-1,Increment      1: Step Time =    1.000,"P-1-1",          8012,   103.342E-03,   128.971E-03,            0.,NA,NA,"",   1.10395E+06,   1.19367E+06,   1.19367E+06
C:/temp/Job-1.odb,Step-1,Increment      1: Step Time =    1.000,"P-1-1",          8013,   185.163E-03,   17.8243E-03,            0.,NA,NA,"",   1.00121E+06,   1.00105E+06,   1.00105E+06
C:/temp/Job-1.odb,Step-1,Increment      1: Step Time =    1.000,"P-1-1",          8014,   97.0735E-03,   184.185E-03,            0.,NA,NA,"",   973.155E+03,   977.400E+03,   977.400E+03
C:/temp/Job-1.odb,Step-1,Increment      1: Step Time =    1.000,"P-1-1",          8015,   184.467E-03,   103.131E-03,            0.,NA,NA,"",   967.546E+03,   989.426E+03,   989.426E+03
C:/temp/Job-1.odb,Step-1,Increment      1: Step Time =    1.000,"P-1-1",          8016,   15.2546E-03,   97.3559E-03,            0.,NA,NA,"",   798.780E+03,   890.463E+03,   890.463E+03
C:/temp/Job-1.odb,Step-1,Increment      1: Step Time =    1.000,"P-1-1",          8017,   103.233E-03,   15.6477E-03,            0.,NA,NA,"",   972.931E+03,   976.940E+03,   976.940E+03
C:/temp/Job-1.odb,Step-1,Increment      1: Step Time =    1.000,"P-1-1",          8018,   16.6096E-03,   15.3102E-03,            0.,NA,NA,"",   1.10065E+06,   1.13784E+06,   1.13784E+06
C:/temp/Job-1.odb,Step-1,Increment      1: Step Time =    1.000,"P-1-1",          8019,   182.505E-03,   184.836E-03,            0.,NA,NA,"",   1.00114E+06,   1.00090E+06,   1.00090E+06
C:/temp/Job-1.odb,Step-1,Increment      1: Step Time =    1.000,"P-1-1",          8020,   15.3442E-03,   130.690E-03,            0.,NA,NA,"",   849.452E+03,   937.542E+03,   937.542E+03
C:/temp/Job-1.odb,Step-1,Increment      1: Step Time =    1.000,"P-1-1",          8021,   129.786E-03,   184.267E-03,            0.,NA,NA,"",   991.825E+03,   991.203E+03,   991.203E+03
C:/temp/Job-1.odb,Step-1,Increment      1: Step Time =    1.000,"P-1-1",          8022,   184.975E-03,   69.6472E-03,            0.,NA,NA,"",   989.187E+03,   1.00088E+06,   1.00088E+06
C:/temp/Job-1.odb,Step-1,Increment      1: Step Time =    1.000,"P-1-1",          8023,   112.845E-03,   126.626E-03,            0.,NA,NA,"",   1.23599E+06,   1.24378E+06,   1.24378E+06
C:/temp/Job-1.odb,Step-1,Increment      1: Step Time =    1.000,"P-1-1",          8024,   83.2109E-03,   123.378E-03,            0.,NA,NA,"",   1.27299E+06,   1.24088E+06,   1.24088E+06
C:/temp/Job-1.odb,Step-1,Increment      1: Step Time =    1.000,"P-1-1",          8025,   77.2282E-03,   118.945E-03,            0.,NA,NA,"",   1.18731E+06,   1.11970E+06,   1.11970E+06
C:/temp/Job-1.odb,Step-1,Increment      1: Step Time =    1.000,"P-1-1",          8026,   83.3847E-03,   124.552E-03,            0.,NA,NA,"",   1.26117E+06,   1.23686E+06,   1.23686E+06
C:/temp/Job-1.odb,Step-1,Increment      1: Step Time =    1.000,"P-1-1",          8027,   80.7307E-03,   81.8972E-03,            0.,NA,NA,"",   1.25735E+06,   1.17618E+06,   1.17618E+06
C:/temp/Job-1.odb,Step-1,Increment      1: Step Time =    1.000,"P-1-1",          8028,   76.1638E-03,   83.4447E-03,            0.,NA,NA,"",   1.13004E+06,   1.06046E+06,   1.06046E+06
C:/temp/Job-1.odb,Step-1,Increment      1: Step Time =    1.000,"P-1-1",          8029,   123.307E-03,   119.377E-03,            0.,NA,NA,"",   1.21760E+06,   1.12897E+06,   1.12897E+06
C:/temp/Job-1.odb,Step-1,Increment      1: Step Time =    1.000,"P-1-1",          8030,   83.9796E-03,   82.6220E-03,            0.,NA,NA,"",   1.32616E+06,   1.24770E+06,   1.24770E+06
C:/temp/Job-1.odb,Step-1,Increment      1: Step Time =    1.000,"P-1-1",          8031,   98.5496E-03,   129.125E-03,            0.,NA,NA,"",   1.09176E+06,   1.18711E+06,   1.18711E+06
C:/temp/Job-1.odb,Step-1,Increment      1: Step Time =    1.000,"P-1-1",          8032,   184.431E-03,   115.893E-03,            0.,NA,NA,"",   975.305E+03,   993.718E+03,   993.718E+03
C:/temp/Job-1.odb,Step-1,Increment      1: Step Time =    1.000,"P-1-1",          8033,   83.9353E-03,   184.365E-03,            0.,NA,NA,"",   980.590E+03,   983.485E+03,   983.485E+03
C:/temp/Job-1.odb,Step-1,Increment      1: Step Time =    1.000,"P-1-1",          8034,   17.2670E-03,   82.7430E-03,            0.,NA,NA,"",   820.552E+03,   909.152E+03,   909.152E+03
C:/temp/Job-1.odb,Step-1,Increment      1: Step Time =    1.000,"P-1-1",          8035,   116.404E-03,   16.5885E-03,            0.,NA,NA,"",   982.176E+03,   984.421E+03,   984.421E+03
C:/temp/Job-1.odb,Step-1,Increment      1: Step Time =    1.000,"P-1-1",          8036,   75.4611E-03,   117.226E-03,            0.,NA,NA,"",   1.12947E+06,   1.06498E+06,   1.06498E+06
C:/temp/Job-1.odb,Step-1,Increment      1: Step Time =    1.000,"P-1-1",          8037,   57.7487E-03,   181.914E-03,            0.,NA,NA,"",   1.02005E+06,   1.02148E+06,   1.02148E+06
C:/temp/Job-1.odb,Step-1,Increment      1: Step Time =    1.000,"P-1-1",          8038,   17.3915E-03,   56.8988E-03,            0.,NA,NA,"",   894.258E+03,   975.901E+03,   975.901E+03
C:/temp/Job-1.odb,Step-1,Increment      1: Step Time =    1.000,"P-1-1",          8039,   16.9491E-03,   111.686E-03,            0.,NA,NA,"",   809.896E+03,   899.562E+03,   899.562E+03
C:/temp/Job-1.odb,Step-1,Increment      1: Step Time =    1.000,"P-1-1",          8040,   112.755E-03,   183.589E-03,            0.,NA,NA,"",   979.072E+03,   982.021E+03,   982.021E+03
C:/temp/Job-1.odb,Step-1,Increment      1: Step Time =    1.000,"P-1-1",          8041,   182.981E-03,   86.8035E-03,            0.,NA,NA,"",   972.928E+03,   991.210E+03,   991.210E+03
C:/temp/Job-1.odb,Step-1,Increment      1: Step Time =    1.000,"P-1-1",          8042,   26.9378E-03,   182.962E-03,            0.,NA,NA,"",   1.07226E+06,   1.09132E+06,   1.09132E+06
C:/temp/Job-1.odb,Step-1,Increment      1: Step Time =    1.000,"P-1-1",          8043,   182.955E-03,   141.804E-03,            0.,NA,NA,"",   1.00028E+06,   1.00543E+06,   1.00543E+06
C:/temp/Job-1.odb,Step-1,Increment      1: Step Time =    1.000,"P-1-1",          8044,   142.208E-03,   16.7149E-03,            0.,NA,NA,"",   1.00199E+06,   999.693E+03,   999.693E+03
C:/temp/Job-1.odb,Step-1,Increment      1: Step Time =    1.000,"P-1-1",          8045,   87.6801E-03,   16.7839E-03,            0.,NA,NA,"",   980.626E+03,   984.528E+03,   984.528E+03
C:/temp/Job-1.odb,Step-1,Increment      1: Step Time =    1.000,"P-1-1",          8046,   172.050E-03,   17.8131E-03,            0.,NA,NA,"",   1.00413E+06,   1.00296E+06,   1.00296E+06
C:/temp/Job-1.odb,Step-1,Increment      1: Step Time =    1.000,"P-1-1",          8047,   183.169E-03,   171.398E-03,            0.,NA,NA,"",   1.00393E+06,   1.00370E+06,   1.00370E+06
C:/temp/Job-1.odb,Step-1,Increment      1: Step Time =    1.000,"P-1-1",          8048,   17.1016E-03,   28.2635E-03,            0.,NA,NA,"",   1.01291E+06,   1.07479E+06,   1.07479E+06
C:/temp/Job-1.odb,Step-1,Increment      1: Step Time =    1.000,"P-1-1",          8049,   74.6829E-03,   86.6283E-03,            0.,NA,NA,"",   1.01658E+06,   957.421E+03,   957.421E+03
C:/temp/Job-1.odb,Step-1,Increment      1: Step Time =    1.000,"P-1-1",          8050,   87.0447E-03,   128.397E-03,            0.,NA,NA,"",   1.20137E+06,   1.22194E+06,   1.22194E+06
C:/temp/Job-1.odb,Step-1,Increment      1: Step Time =    1.000,"P-1-1",          8051,   15.1769E-03,   182.045E-03,            0.,NA,NA,"",   1.08052E+06,   1.12911E+06,   1.12911E+06
C:/temp/Job-1.odb,Step-1,Increment      1: Step Time =    1.000,"P-1-1",          8052,   183.806E-03,   18.3201E-03,            0.,NA,NA,"",   1.00156E+06,   1.00133E+06,   1.00133E+06
C:/temp/Job-1.odb,Step-1,Increment      1: Step Time =    1.000,"P-1-1",          8053,   17.8594E-03,   15.4984E-03,            0.,NA,NA,"",   1.09818E+06,   1.13199E+06,   1.13199E+06
C:/temp/Job-1.odb,Step-1,Increment      1: Step Time =    1.000,"P-1-1",          8054,   182.628E-03,   183.682E-03,            0.,NA,NA,"",   1.00138E+06,   1.00112E+06,   1.00112E+06
C:/temp/Job-1.odb,Step-1,Increment      1: Step Time =    1.000,"P-1-1",          8055,   96.6348E-03,   181.963E-03,            0.,NA,NA,"",   978.968E+03,   984.328E+03,   984.328E+03
C:/temp/Job-1.odb,Step-1,Increment      1: Step Time =    1.000,"P-1-1",          8056,   17.1345E-03,   96.7820E-03,            0.,NA,NA,"",   801.938E+03,   891.995E+03,   891.995E+03
C:/temp/Job-1.odb,Step-1,Increment      1: Step Time =    1.000,"P-1-1",          8057,   182.220E-03,   103.637E-03,            0.,NA,NA,"",   966.532E+03,   986.576E+03,   986.576E+03
C:/temp/Job-1.odb,Step-1,Increment      1: Step Time =    1.000,"P-1-1",          8058,   102.880E-03,   17.6028E-03,            0.,NA,NA,"",   977.442E+03,   982.380E+03,   982.380E+03
C:/temp/Job-1.odb,Step-1,Increment      1: Step Time =    1.000,"P-1-1",          8059,   183.086E-03,   97.7463E-03,            0.,NA,NA,"",    966.98E+03,   987.845E+03,   987.845E+03
C:/temp/Job-1.odb,Step-1,Increment      1: Step Time =    1.000,"P-1-1",          8060,   103.778E-03,   182.948E-03,            0.,NA,NA,"",   976.180E+03,   980.715E+03,   980.715E+03
C:/temp/Job-1.odb,Step-1,Increment      1: Step Time =    1.000,"P-1-1",          8061,   17.7379E-03,   103.591E-03,            0.,NA,NA,"",   802.939E+03,   892.528E+03,   892.528E+03
C:/temp/Job-1.odb,Step-1,Increment      1: Step Time =    1.000,"P-1-1",          8062,   96.7668E-03,   17.2499E-03,            0.,NA,NA,"",   976.941E+03,   981.843E+03,   981.843E+03
C:/temp/Job-1.odb,Step-1,Increment      1: Step Time =    1.000,"P-1-1",          8063,   181.300E-03,   16.4962E-03,            0.,NA,NA,"",   1.00162E+06,   1.00129E+06,   1.00129E+06
C:/temp/Job-1.odb,Step-1,Increment      1: Step Time =    1.000,"P-1-1",          8064,   182.794E-03,   181.937E-03,            0.,NA,NA,"",   1.00174E+06,   1.00145E+06,   1.00145E+06
C:/temp/Job-1.odb,Step-1,Increment      1: Step Time =    1.000,"P-1-1",          8065,   17.2051E-03,   17.7649E-03,            0.,NA,NA,"",   1.08250E+06,   1.12427E+06,   1.12427E+06
C:/temp/Job-1.odb,Step-1,Increment      1: Step Time =    1.000,"P-1-1",          8066,   126.153E-03,   115.819E-03,            0.,NA,NA,"",   1.11183E+06,   1.02711E+06,   1.02711E+06
C:/temp/Job-1.odb,Step-1,Increment      1: Step Time =    1.000,"P-1-1",          8067,   31.2960E-03,   16.4140E-03,            0.,NA,NA,"",   1.06324E+06,   1.07608E+06,   1.07608E+06
C:/temp/Job-1.odb,Step-1,Increment      1: Step Time =    1.000,"P-1-1",          8068,   169.158E-03,   183.130E-03,            0.,NA,NA,"",   1.00414E+06,   1.00281E+06,   1.00281E+06
C:/temp/Job-1.odb,Step-1,Increment      1: Step Time =    1.000,"P-1-1",          8069,   16.8591E-03,   169.337E-03,            0.,NA,NA,"",   998.037E+03,   1.06384E+06,   1.06384E+06
C:/temp/Job-1.odb,Step-1,Increment      1: Step Time =    1.000,"P-1-1",          8070,   182.558E-03,   31.7014E-03,            0.,NA,NA,"",   1.00485E+06,   1.00462E+06,   1.00462E+06
C:/temp/Job-1.odb,Step-1,Increment      1: Step Time =    1.000,"P-1-1",          8071,   138.508E-03,   184.358E-03,            0.,NA,NA,"",     997.7E+03,   995.947E+03,   995.947E+03
C:/temp/Job-1.odb,Step-1,Increment      1: Step Time =    1.000,"P-1-1",          8072,   17.5225E-03,   139.407E-03,            0.,NA,NA,"",   882.725E+03,   965.459E+03,   965.459E+03
C:/temp/Job-1.odb,Step-1,Increment      1: Step Time =    1.000,"P-1-1",          8073,   60.2446E-03,   16.7571E-03,            0.,NA,NA,"",   1.01292E+06,   1.01389E+06,   1.01389E+06
C:/temp/Job-1.odb,Step-1,Increment      1: Step Time =    1.000,"P-1-1",          8074,   183.753E-03,   61.2985E-03,            0.,NA,NA,"",   997.185E+03,   1.00415E+06,   1.00415E+06
C:/temp/Job-1.odb,Step-1,Increment      1: Step Time =    1.000,"P-1-1",          8075,   70.6882E-03,   101.371E-03,            0.,NA,NA,"",   576.242E+03,   614.874E+03,   614.874E+03
C:/temp/Job-1.odb,Step-1,Increment      1: Step Time =    1.000,"P-1-1",          8076,   71.9804E-03,   109.951E-03,            0.,NA,NA,"",   850.673E+03,   831.071E+03,   831.071E+03
C:/temp/Job-1.odb,Step-1,Increment      1: Step Time =    1.000,"P-1-1",          8077,   184.098E-03,   31.3660E-03,            0.,NA,NA,"",   1.00385E+06,   1.00388E+06,   1.00388E+06
C:/temp/Job-1.odb,Step-1,Increment      1: Step Time =    1.000,"P-1-1",          8078,   15.7322E-03,   168.919E-03,            0.,NA,NA,"",   991.038E+03,   1.06044E+06,   1.06044E+06
C:/temp/Job-1.odb,Step-1,Increment      1: Step Time =    1.000,"P-1-1",          8079,   60.6124E-03,   15.0081E-03,            0.,NA,NA,"",   1.00713E+06,   1.00784E+06,   1.00784E+06
C:/temp/Job-1.odb,Step-1,Increment      1: Step Time =    1.000,"P-1-1",          8080,   185.248E-03,   62.3691E-03,            0.,NA,NA,"",   994.831E+03,   1.00323E+06,   1.00323E+06
C:/temp/Job-1.odb,Step-1,Increment      1: Step Time =    1.000,"P-1-1",          8081,   32.0338E-03,   15.1396E-03,            0.,NA,NA,"",   1.06121E+06,   1.07153E+06,   1.07153E+06
C:/temp/Job-1.odb,Step-1,Increment      1: Step Time =    1.000,"P-1-1",          8082,   15.4615E-03,   138.754E-03,            0.,NA,NA,"",   873.048E+03,   959.201E+03,   959.201E+03
C:/temp/Job-1.odb,Step-1,Increment      1: Step Time =    1.000,"P-1-1",          8083,   138.105E-03,   185.573E-03,            0.,NA,NA,"",   995.074E+03,   993.573E+03,   993.573E+03
C:/temp/Job-1.odb,Step-1,Increment      1: Step Time =    1.000,"P-1-1",          8084,   168.908E-03,   184.788E-03,            0.,NA,NA,"",   1.00305E+06,   1.00192E+06,   1.00192E+06
C:/temp/Job-1.odb,Step-1,Increment      1: Step Time =    1.000,"P-1-1",          8085,   127.893E-03,   112.748E-03,            0.,NA,NA,"",   997.378E+03,   930.296E+03,   930.296E+03
C:/temp/Job-1.odb,Step-1,Increment      1: Step Time =    1.000,"P-1-1",          8086,   107.110E-03,   129.383E-03,            0.,NA,NA,"",   1.13321E+06,   1.19907E+06,   1.19907E+06
C:/temp/Job-1.odb,Step-1,Increment      1: Step Time =    1.000,"P-1-1",          8087,   119.508E-03,   122.373E-03,            0.,NA,NA,"",   1.28002E+06,   1.21034E+06,   1.21034E+06
C:/temp/Job-1.odb,Step-1,Increment      1: Step Time =    1.000,"P-1-1",          8088,   16.5959E-03,   129.153E-03,            0.,NA,NA,"",   848.770E+03,   935.663E+03,   935.663E+03
C:/temp/Job-1.odb,Step-1,Increment      1: Step Time =    1.000,"P-1-1",          8089,   128.971E-03,   183.242E-03,            0.,NA,NA,"",   993.491E+03,   992.947E+03,   992.947E+03
C:/temp/Job-1.odb,Step-1,Increment      1: Step Time =    1.000,"P-1-1",          8090,   70.9227E-03,   16.0385E-03,            0.,NA,NA,"",   996.670E+03,   997.918E+03,   997.918E+03
C:/temp/Job-1.odb,Step-1,Increment      1: Step Time =    1.000,"P-1-1",          8091,   184.030E-03,   70.6237E-03,            0.,NA,NA,"",   989.041E+03,   1.00054E+06,   1.00054E+06
C:/temp/Job-1.odb,Step-1,Increment      1: Step Time =    1.000,"P-1-1",          8092,   113.403E-03,   128.036E-03,            0.,NA,NA,"",   1.21828E+06,   1.22493E+06,   1.22493E+06
C:/temp/Job-1.odb,Step-1,Increment      1: Step Time =    1.000,"P-1-1",          8093,   78.2821E-03,   83.9718E-03,            0.,NA,NA,"",   1.17315E+06,   1.08926E+06,   1.08926E+06
C:/temp/Job-1.odb,Step-1,Increment      1: Step Time =    1.000,"P-1-1",          8094,   73.8542E-03,   88.9496E-03,            0.,NA,NA,"",   913.931E+03,   871.746E+03,   871.746E+03
C:/temp/Job-1.odb,Step-1,Increment      1: Step Time =    1.000,"P-1-1",          8095,   182.541E-03,   15.2118E-03,            0.,NA,NA,"",   1.00111E+06,   1.00088E+06,   1.00088E+06
C:/temp/Job-1.odb,Step-1,Increment      1: Step Time =    1.000,"P-1-1",          8096,   185.345E-03,   184.045E-03,            0.,NA,NA,"",   1.00090E+06,   1.00076E+06,   1.00076E+06
C:/temp/Job-1.odb,Step-1,Increment      1: Step Time =    1.000,"P-1-1",          8097,   16.7895E-03,   184.766E-03,            0.,NA,NA,"",   1.10252E+06,   1.13856E+06,   1.13856E+06
C:/temp/Job-1.odb,Step-1,Increment      1: Step Time =    1.000,"P-1-1",          8098,   14.7714E-03,   15.7580E-03,            0.,NA,NA,"",   1.09926E+06,   1.14300E+06,   1.14300E+06
C:/temp/Job-1.odb,Step-1,Increment      1: Step Time =    1.000,"P-1-1",          8099,   125.018E-03,   88.8894E-03,            0.,NA,NA,"",   980.217E+03,   896.219E+03,   896.219E+03
C:/temp/Job-1.odb,Step-1,Increment      1: Step Time =    1.000,"P-1-1",          8100,   129.697E-03,   108.869E-03,            0.,NA,NA,"",   846.329E+03,   813.848E+03,   813.848E+03
C:/temp/Job-1.odb,Step-1,Increment      1: Step Time =    1.000,"P-1-1",          8101,   13.8030E-03,   182.126E-03,            0.,NA,NA,"",   1.07928E+06,   1.13269E+06,   1.13269E+06
C:/temp/Job-1.odb,Step-1,Increment      1: Step Time =    1.000,"P-1-1",          8102,   80.5849E-03,   118.935E-03,            0.,NA,NA,"",   1.25874E+06,   1.18457E+06,   1.18457E+06
C:/temp/Job-1.odb,Step-1,Increment      1: Step Time =    1.000,"P-1-1",          8103,   102.088E-03,   129.481E-03,            0.,NA,NA,"",   1.09091E+06,   1.18331E+06,   1.18331E+06
C:/temp/Job-1.odb,Step-1,Increment      1: Step Time =    1.000,"P-1-1",          8104,   18.6177E-03,   14.4298E-03,            0.,NA,NA,"",   1.10262E+06,   1.13186E+06,   1.13186E+06
C:/temp/Job-1.odb,Step-1,Increment      1: Step Time =    1.000,"P-1-1",          8105,   180.853E-03,   184.449E-03,            0.,NA,NA,"",   1.00148E+06,   1.00115E+06,   1.00115E+06
C:/temp/Job-1.odb,Step-1,Increment      1: Step Time =    1.000,"P-1-1",          8106,   104.018E-03,   16.3336E-03,            0.,NA,NA,"",   974.608E+03,   978.849E+03,   978.849E+03
C:/temp/Job-1.odb,Step-1,Increment      1: Step Time =    1.000,"P-1-1",          8107,   15.8732E-03,   96.0221E-03,            0.,NA,NA,"",   800.335E+03,   891.451E+03,   891.451E+03
C:/temp/Job-1.odb,Step-1,Increment      1: Step Time =    1.000,"P-1-1",          8108,   83.5525E-03,   125.896E-03,            0.,NA,NA,"",   1.24421E+06,   1.22818E+06,   1.22818E+06
C:/temp/Job-1.odb,Step-1,Increment      1: Step Time =    1.000,"P-1-1",          8109,   71.1081E-03,   14.4440E-03,            0.,NA,NA,"",   991.376E+03,   992.420E+03,   992.420E+03
C:/temp/Job-1.odb,Step-1,Increment      1: Step Time =    1.000,"P-1-1",          8110,   185.162E-03,   71.6333E-03,            0.,NA,NA,"",   987.163E+03,   1.00005E+06,   1.00005E+06
C:/temp/Job-1.odb,Step-1,Increment      1: Step Time =    1.000,"P-1-1",          8111,   14.6926E-03,   129.238E-03,            0.,NA,NA,"",   843.202E+03,   932.571E+03,   932.571E+03
C:/temp/Job-1.odb,Step-1,Increment      1: Step Time =    1.000,"P-1-1",          8112,   128.688E-03,   185.395E-03,            0.,NA,NA,"",   988.225E+03,   987.842E+03,   987.842E+03
C:/temp/Job-1.odb,Step-1,Increment      1: Step Time =    1.000,"P-1-1",          8113,   85.4978E-03,   82.6512E-03,            0.,NA,NA,"",   1.35294E+06,   1.28770E+06,   1.28770E+06
C:/temp/Job-1.odb,Step-1,Increment      1: Step Time =    1.000,"P-1-1",          8114,   114.087E-03,   126.051E-03,            0.,NA,NA,"",   1.25201E+06,   1.24515E+06,   1.24515E+06
C:/temp/Job-1.odb,Step-1,Increment      1: Step Time =    1.000,"P-1-1",          8115,   16.3410E-03,   152.236E-03,            0.,NA,NA,"",   921.430E+03,   1.00118E+06,   1.00118E+06
C:/temp/Job-1.odb,Step-1,Increment      1: Step Time =    1.000,"P-1-1",          8116,   151.435E-03,   184.512E-03,            0.,NA,NA,"",   1.00285E+06,   1.00067E+06,   1.00067E+06
C:/temp/Job-1.odb,Step-1,Increment      1: Step Time =    1.000,"P-1-1",          8117,   67.2384E-03,   183.992E-03,            0.,NA,NA,"",   1.00121E+06,   1.00220E+06,   1.00220E+06
C:/temp/Job-1.odb,Step-1,Increment      1: Step Time =    1.000,"P-1-1",          8118,   16.3267E-03,   66.4906E-03,            0.,NA,NA,"",   860.403E+03,   946.560E+03,   946.560E+03
C:/temp/Job-1.odb,Step-1,Increment      1: Step Time =    1.000,"P-1-1",          8119,   48.3218E-03,   16.1852E-03,            0.,NA,NA,"",   1.02879E+06,   1.03161E+06,   1.03161E+06
C:/temp/Job-1.odb,Step-1,Increment      1: Step Time =    1.000,"P-1-1",          8120,   184.516E-03,   48.3029E-03,            0.,NA,NA,"",   1.00268E+06,   1.00549E+06,   1.00549E+06
C:/temp/Job-1.odb,Step-1,Increment      1: Step Time =    1.000,"P-1-1",          8121,   183.933E-03,   132.641E-03,            0.,NA,NA,"",   992.052E+03,   1.00194E+06,   1.00194E+06
C:/temp/Job-1.odb,Step-1,Increment      1: Step Time =    1.000,"P-1-1",          8122,   133.626E-03,   16.5249E-03,            0.,NA,NA,"",   996.677E+03,   995.351E+03,   995.351E+03
C:/temp/Job-1.odb,Step-1,Increment      1: Step Time =    1.000,"P-1-1",          8123,   73.4729E-03,   114.827E-03,            0.,NA,NA,"",   1.03261E+06,   981.890E+03,   981.890E+03
C:/temp/Job-1.odb,Step-1,Increment      1: Step Time =    1.000,"P-1-1",          8124,   131.287E-03,   105.294E-03,            0.,NA,NA,"",   735.367E+03,   733.897E+03,   733.897E+03
C:/temp/Job-1.odb,Step-1,Increment      1: Step Time =    1.000,"P-1-1",          8125,   47.9301E-03,   186.024E-03,            0.,NA,NA,"",   1.02378E+06,   1.02591E+06,   1.02591E+06
C:/temp/Job-1.odb,Step-1,Increment      1: Step Time =    1.000,"P-1-1",          8126,   14.8108E-03,   77.5843E-03,            0.,NA,NA,"",   826.444E+03,   916.733E+03,   916.733E+03
C:/temp/Job-1.odb,Step-1,Increment      1: Step Time =    1.000,"P-1-1",          8127,   15.0454E-03,   163.292E-03,            0.,NA,NA,"",   959.265E+03,   1.03585E+06,   1.03585E+06
C:/temp/Job-1.odb,Step-1,Increment      1: Step Time =    1.000,"P-1-1",          8128,   15.1624E-03,   47.8316E-03,            0.,NA,NA,"",   916.222E+03,   998.413E+03,   998.413E+03
C:/temp/Job-1.odb,Step-1,Increment      1: Step Time =    1.000,"P-1-1",          8129,   121.020E-03,   15.7583E-03,            0.,NA,NA,"",   983.976E+03,   985.047E+03,   985.047E+03
C:/temp/Job-1.odb,Step-1,Increment      1: Step Time =    1.000,"P-1-1",          8130,   184.904E-03,   37.2408E-03,            0.,NA,NA,"",   1.00370E+06,   1.00445E+06,   1.00445E+06
C:/temp/Job-1.odb,Step-1,Increment      1: Step Time =    1.000,"P-1-1",          8131,   36.3247E-03,   16.0868E-03,            0.,NA,NA,"",   1.05141E+06,   1.05974E+06,   1.05974E+06
C:/temp/Job-1.odb,Step-1,Increment      1: Step Time =    1.000,"P-1-1",          8132,   163.008E-03,   184.964E-03,            0.,NA,NA,"",   1.00340E+06,   1.00185E+06,   1.00185E+06
C:/temp/Job-1.odb,Step-1,Increment      1: Step Time =    1.000,"P-1-1",          8133,   114.986E-03,   122.443E-03,            0.,NA,NA,"",   1.31053E+06,   1.27377E+06,   1.27377E+06
C:/temp/Job-1.odb,Step-1,Increment      1: Step Time =    1.000,"P-1-1",          8134,   182.883E-03,   90.0357E-03,            0.,NA,NA,"",   970.212E+03,   989.471E+03,   989.471E+03
C:/temp/Job-1.odb,Step-1,Increment      1: Step Time =    1.000,"P-1-1",          8135,   109.824E-03,   183.530E-03,            0.,NA,NA,"",   977.407E+03,   980.918E+03,   980.918E+03
C:/temp/Job-1.odb,Step-1,Increment      1: Step Time =    1.000,"P-1-1",          8136,   16.7055E-03,   109.420E-03,            0.,NA,NA,"",   806.385E+03,   896.500E+03,   896.500E+03
C:/temp/Job-1.odb,Step-1,Increment      1: Step Time =    1.000,"P-1-1",          8137,   90.9762E-03,   16.2827E-03,            0.,NA,NA,"",   976.919E+03,   981.018E+03,   981.018E+03
C:/temp/Job-1.odb,Step-1,Increment      1: Step Time =    1.000,"P-1-1",          8138,   53.6392E-03,   182.935E-03,            0.,NA,NA,"",   1.02278E+06,   1.02462E+06,   1.02462E+06
C:/temp/Job-1.odb,Step-1,Increment      1: Step Time =    1.000,"P-1-1",          8139,   16.9954E-03,   53.3506E-03,            0.,NA,NA,"",   904.377E+03,   985.361E+03,   985.361E+03
C:/temp/Job-1.odb,Step-1,Increment      1: Step Time =    1.000,"P-1-1",          8140,   23.8319E-03,   181.737E-03,            0.,NA,NA,"",   1.07441E+06,   1.10097E+06,   1.10097E+06
C:/temp/Job-1.odb,Step-1,Increment      1: Step Time =    1.000,"P-1-1",          8141,   183.279E-03,   145.889E-03,            0.,NA,NA,"",   1.00201E+06,   1.00595E+06,   1.00595E+06
C:/temp/Job-1.odb,Step-1,Increment      1: Step Time =    1.000,"P-1-1",          8142,   145.337E-03,   17.1324E-03,            0.,NA,NA,"",   1.00381E+06,   1.00127E+06,   1.00127E+06
C:/temp/Job-1.odb,Step-1,Increment      1: Step Time =    1.000,"P-1-1",          8143,   175.597E-03,   16.8503E-03,            0.,NA,NA,"",   1.00281E+06,   1.00206E+06,   1.00206E+06
C:/temp/Job-1.odb,Step-1,Increment      1: Step Time =    1.000,"P-1-1",          8144,   182.736E-03,   176.260E-03,            0.,NA,NA,"",   1.00304E+06,   1.00270E+06,   1.00270E+06
C:/temp/Job-1.odb,Step-1,Increment      1: Step Time =    1.000,"P-1-1",          8145,   16.6841E-03,   24.7935E-03,            0.,NA,NA,"",   1.03248E+06,   1.09049E+06,   1.09049E+06
C:/temp/Job-1.odb,Step-1,Increment      1: Step Time =    1.000,"P-1-1",          8146,   105.031E-03,   129.799E-03,            0.,NA,NA,"",   1.10915E+06,   1.18820E+06,   1.18820E+06
C:/temp/Job-1.odb,Step-1,Increment      1: Step Time =    1.000,"P-1-1",          8147,   130.125E-03,   101.911E-03,            0.,NA,NA,"",   640.176E+03,   653.622E+03,   653.622E+03
C:/temp/Job-1.odb,Step-1,Increment      1: Step Time =    1.000,"P-1-1",          8148,   117.865E-03,   122.187E-03,            0.,NA,NA,"",   1.29874E+06,   1.23609E+06,   1.23609E+06
C:/temp/Job-1.odb,Step-1,Increment      1: Step Time =    1.000,"P-1-1",          8149,   43.7160E-03,   183.355E-03,            0.,NA,NA,"",   1.03745E+06,   1.04211E+06,   1.04211E+06
C:/temp/Job-1.odb,Step-1,Increment      1: Step Time =    1.000,"P-1-1",          8150,   17.3295E-03,   44.6241E-03,            0.,NA,NA,"",   936.695E+03,   1.01294E+06,   1.01294E+06
C:/temp/Job-1.odb,Step-1,Increment      1: Step Time =    1.000,"P-1-1",          8151,   182.923E-03,   156.921E-03,            0.,NA,NA,"",   1.00526E+06,   1.00630E+06,   1.00630E+06
C:/temp/Job-1.odb,Step-1,Increment      1: Step Time =    1.000,"P-1-1",          8152,   155.717E-03,   17.3282E-03,            0.,NA,NA,"",   1.00594E+06,   1.00345E+06,   1.00345E+06
C:/temp/Job-1.odb,Step-1,Increment      1: Step Time =    1.000,"P-1-1",          8153,   129.340E-03,   111.658E-03,            0.,NA,NA,"",   942.465E+03,   891.004E+03,   891.004E+03
C:/temp/Job-1.odb,Step-1,Increment      1: Step Time =    1.000,"P-1-1",          8154,   17.3936E-03,   149.178E-03,            0.,NA,NA,"",   914.614E+03,   993.781E+03,   993.781E+03
C:/temp/Job-1.odb,Step-1,Increment      1: Step Time =    1.000,"P-1-1",          8155,   148.663E-03,   182.845E-03,            0.,NA,NA,"",   1.00486E+06,   1.00223E+06,   1.00223E+06
C:/temp/Job-1.odb,Step-1,Increment      1: Step Time =    1.000,"P-1-1",          8156,   51.4001E-03,   17.0821E-03,            0.,NA,NA,"",   1.02616E+06,   1.02846E+06,   1.02846E+06
C:/temp/Job-1.odb,Step-1,Increment      1: Step Time =    1.000,"P-1-1",          8157,   182.928E-03,   50.6700E-03,            0.,NA,NA,"",   1.00371E+06,   1.00644E+06,   1.00644E+06
C:/temp/Job-1.odb,Step-1,Increment      1: Step Time =    1.000,"P-1-1",          8158,   93.0166E-03,   182.483E-03,            0.,NA,NA,"",   979.041E+03,   983.899E+03,   983.899E+03
C:/temp/Job-1.odb,Step-1,Increment      1: Step Time =    1.000,"P-1-1",          8159,   17.8253E-03,   122.296E-03,            0.,NA,NA,"",   833.617E+03,   920.615E+03,   920.615E+03
C:/temp/Job-1.odb,Step-1,Increment      1: Step Time =    1.000,"P-1-1",          8160,   182.751E-03,   107.330E-03,            0.,NA,NA,"",   968.489E+03,   988.334E+03,   988.334E+03
C:/temp/Job-1.odb,Step-1,Increment      1: Step Time =    1.000,"P-1-1",          8161,   122.425E-03,   183.301E-03,            0.,NA,NA,"",   987.644E+03,   988.522E+03,   988.522E+03
C:/temp/Job-1.odb,Step-1,Increment      1: Step Time =    1.000,"P-1-1",          8162,   17.5138E-03,   93.0598E-03,            0.,NA,NA,"",   805.165E+03,   894.683E+03,   894.683E+03
C:/temp/Job-1.odb,Step-1,Increment      1: Step Time =    1.000,"P-1-1",          8163,   38.1937E-03,   183.061E-03,            0.,NA,NA,"",   1.04807E+06,   1.05590E+06,   1.05590E+06
C:/temp/Job-1.odb,Step-1,Increment      1: Step Time =    1.000,"P-1-1",          8164,   77.8540E-03,   17.6894E-03,            0.,NA,NA,"",   993.418E+03,   995.957E+03,   995.957E+03
C:/temp/Job-1.odb,Step-1,Increment      1: Step Time =    1.000,"P-1-1",          8165,   108.095E-03,   17.4225E-03,            0.,NA,NA,"",   978.718E+03,   982.905E+03,   982.905E+03
C:/temp/Job-1.odb,Step-1,Increment      1: Step Time =    1.000,"P-1-1",          8166,   17.8531E-03,   38.4436E-03,            0.,NA,NA,"",   964.097E+03,   1.03499E+06,   1.03499E+06
C:/temp/Job-1.odb,Step-1,Increment      1: Step Time =    1.000,"P-1-1",          8167,   181.755E-03,   76.6769E-03,            0.,NA,NA,"",   983.907E+03,   996.728E+03,   996.728E+03
C:/temp/Job-1.odb,Step-1,Increment      1: Step Time =    1.000,"P-1-1",          8168,   162.307E-03,   16.6102E-03,            0.,NA,NA,"",   1.00486E+06,   1.00298E+06,   1.00298E+06
C:/temp/Job-1.odb,Step-1,Increment      1: Step Time =    1.000,"P-1-1",          8169,   184.059E-03,   161.395E-03,            0.,NA,NA,"",   1.00435E+06,   1.00507E+06,   1.00507E+06
C:/temp/Job-1.odb,Step-1,Increment      1: Step Time =    1.000,"P-1-1",          8170,   15.1787E-03,   179.202E-03,            0.,NA,NA,"",   1.05734E+06,   1.11261E+06,   1.11261E+06
C:/temp/Job-1.odb,Step-1,Increment      1: Step Time =    1.000,"P-1-1",          8171,   182.951E-03,   21.4564E-03,            0.,NA,NA,"",   1.00245E+06,   1.00213E+06,   1.00213E+06
C:/temp/Job-1.odb,Step-1,Increment      1: Step Time =    1.000,"P-1-1",          8172,   16.7413E-03,   125.766E-03,            0.,NA,NA,"",   840.046E+03,   927.504E+03,   927.504E+03
C:/temp/Job-1.odb,Step-1,Increment      1: Step Time =    1.000,"P-1-1",          8173,   125.102E-03,   182.586E-03,            0.,NA,NA,"",   991.822E+03,   992.133E+03,   992.133E+03
C:/temp/Job-1.odb,Step-1,Increment      1: Step Time =    1.000,"P-1-1",          8174,   41.0158E-03,   183.273E-03,            0.,NA,NA,"",   1.04244E+06,   1.04839E+06,   1.04839E+06
C:/temp/Job-1.odb,Step-1,Increment      1: Step Time =    1.000,"P-1-1",          8175,   74.7226E-03,   17.0581E-03,            0.,NA,NA,"",   995.022E+03,   996.901E+03,   996.901E+03
C:/temp/Job-1.odb,Step-1,Increment      1: Step Time =    1.000,"P-1-1",          8176,   22.3199E-03,   16.9919E-03,            0.,NA,NA,"",   1.08121E+06,   1.10815E+06,   1.10815E+06
C:/temp/Job-1.odb,Step-1,Increment      1: Step Time =    1.000,"P-1-1",          8177,   182.751E-03,   73.5843E-03,            0.,NA,NA,"",   986.817E+03,   998.870E+03,   998.870E+03
C:/temp/Job-1.odb,Step-1,Increment      1: Step Time =    1.000,"P-1-1",          8178,   178.419E-03,   183.247E-03,            0.,NA,NA,"",   1.00224E+06,   1.00172E+06,   1.00172E+06
C:/temp/Job-1.odb,Step-1,Increment      1: Step Time =    1.000,"P-1-1",          8179,   159.055E-03,   17.0651E-03,            0.,NA,NA,"",   1.00550E+06,   1.00328E+06,   1.00328E+06
C:/temp/Job-1.odb,Step-1,Increment      1: Step Time =    1.000,"P-1-1",          8180,   17.3525E-03,   41.7173E-03,            0.,NA,NA,"",   948.030E+03,   1.02242E+06,   1.02242E+06
C:/temp/Job-1.odb,Step-1,Increment      1: Step Time =    1.000,"P-1-1",          8181,   182.235E-03,   158.518E-03,            0.,NA,NA,"",   1.00586E+06,   1.00648E+06,   1.00648E+06
C:/temp/Job-1.odb,Step-1,Increment      1: Step Time =    1.000,"P-1-1",          8182,   16.7668E-03,   142.477E-03,            0.,NA,NA,"",   889.660E+03,   972.587E+03,   972.587E+03
C:/temp/Job-1.odb,Step-1,Increment      1: Step Time =    1.000,"P-1-1",          8183,   142.478E-03,   183.388E-03,            0.,NA,NA,"",   1.00186E+06,   999.564E+03,   999.564E+03
C:/temp/Job-1.odb,Step-1,Increment      1: Step Time =    1.000,"P-1-1",          8184,   57.1760E-03,   16.7709E-03,            0.,NA,NA,"",   1.01730E+06,   1.01853E+06,   1.01853E+06
C:/temp/Job-1.odb,Step-1,Increment      1: Step Time =    1.000,"P-1-1",          8185,   183.208E-03,   57.8149E-03,            0.,NA,NA,"",   1.00011E+06,   1.00533E+06,   1.00533E+06
C:/temp/Job-1.odb,Step-1,Increment      1: Step Time =    1.000,"P-1-1",          8186,   16.4940E-03,   171.397E-03,            0.,NA,NA,"",   1.00790E+06,   1.07226E+06,   1.07226E+06
C:/temp/Job-1.odb,Step-1,Increment      1: Step Time =    1.000,"P-1-1",          8187,   183.353E-03,   28.6047E-03,            0.,NA,NA,"",   1.00377E+06,   1.00357E+06,   1.00357E+06
C:/temp/Job-1.odb,Step-1,Increment      1: Step Time =    1.000,"P-1-1",          8188,   28.5749E-03,   16.9081E-03,            0.,NA,NA,"",   1.06858E+06,   1.08507E+06,   1.08507E+06
C:/temp/Job-1.odb,Step-1,Increment      1: Step Time =    1.000,"P-1-1",          8189,   171.319E-03,   183.072E-03,            0.,NA,NA,"",   1.00374E+06,   1.00260E+06,   1.00260E+06
C:/temp/Job-1.odb,Step-1,Increment      1: Step Time =    1.000,"P-1-1",          8190,   90.4034E-03,   129.020E-03,            0.,NA,NA,"",   1.16383E+06,   1.21398E+06,   1.21398E+06
C:/temp/Job-1.odb,Step-1,Increment      1: Step Time =    1.000,"P-1-1",          8191,   98.0095E-03,   15.4837E-03,            0.,NA,NA,"",   972.095E+03,   976.124E+03,   976.124E+03
C:/temp/Job-1.odb,Step-1,Increment      1: Step Time =    1.000,"P-1-1",          8192,   13.8320E-03,   103.711E-03,            0.,NA,NA,"",   796.767E+03,   889.663E+03,   889.663E+03
C:/temp/Job-1.odb,Step-1,Increment      1: Step Time =    1.000,"P-1-1",          8193,   102.139E-03,   186.496E-03,            0.,NA,NA,"",   967.004E+03,   970.130E+03,   970.130E+03
C:/temp/Job-1.odb,Step-1,Increment      1: Step Time =    1.000,"P-1-1",          8194,   185.465E-03,   98.0415E-03,            0.,NA,NA,"",   967.881E+03,   990.771E+03,   990.771E+03
C:/temp/Job-1.odb,Step-1,Increment      1: Step Time =    1.000,"P-1-1",          8195,   183.004E-03,   100.514E-03,            0.,NA,NA,"",   966.664E+03,   987.530E+03,   987.530E+03
C:/temp/Job-1.odb,Step-1,Increment      1: Step Time =    1.000,"P-1-1",          8196,   99.8389E-03,   182.680E-03,            0.,NA,NA,"",   976.662E+03,   981.568E+03,   981.568E+03
C:/temp/Job-1.odb,Step-1,Increment      1: Step Time =    1.000,"P-1-1",          8197,   17.0598E-03,   100.078E-03,            0.,NA,NA,"",   801.114E+03,   891.360E+03,   891.360E+03
C:/temp/Job-1.odb,Step-1,Increment      1: Step Time =    1.000,"P-1-1",          8198,   99.8054E-03,   18.0811E-03,            0.,NA,NA,"",   978.447E+03,   983.816E+03,   983.816E+03
C:/temp/Job-1.odb,Step-1,Increment      1: Step Time =    1.000,"P-1-1",          8199,   183.460E-03,   112.568E-03,            0.,NA,NA,"",   972.386E+03,   991.316E+03,   991.316E+03
C:/temp/Job-1.odb,Step-1,Increment      1: Step Time =    1.000,"P-1-1",          8200,   16.5782E-03,   87.4436E-03,            0.,NA,NA,"",   810.557E+03,   900.469E+03,   900.469E+03
C:/temp/Job-1.odb,Step-1,Increment      1: Step Time =    1.000,"P-1-1",          8201,   87.2986E-03,   183.714E-03,            0.,NA,NA,"",   979.427E+03,   983.069E+03,   983.069E+03
C:/temp/Job-1.odb,Step-1,Increment      1: Step Time =    1.000,"P-1-1",          8202,   111.970E-03,   16.1375E-03,            0.,NA,NA,"",   977.961E+03,   981.027E+03,   981.027E+03
C:/temp/Job-1.odb,Step-1,Increment      1: Step Time =    1.000,"P-1-1",          8203,   16.4475E-03,   146.774E-03,            0.,NA,NA,"",   902.711E+03,   984.499E+03,   984.499E+03
C:/temp/Job-1.odb,Step-1,Increment      1: Step Time =    1.000,"P-1-1",          8204,   145.610E-03,   183.088E-03,            0.,NA,NA,"",   1.00360E+06,   1.00109E+06,   1.00109E+06
C:/temp/Job-1.odb,Step-1,Increment      1: Step Time =    1.000,"P-1-1",          8205,   54.0546E-03,   16.2448E-03,            0.,NA,NA,"",   1.02020E+06,   1.02174E+06,   1.02174E+06
C:/temp/Job-1.odb,Step-1,Increment      1: Step Time =    1.000,"P-1-1",          8206,   182.651E-03,   53.4337E-03,            0.,NA,NA,"",   1.00303E+06,   1.00642E+06,   1.00642E+06
C:/temp/Job-1.odb,Step-1,Increment      1: Step Time =    1.000,"P-1-1",          8207,   90.1137E-03,   183.292E-03,            0.,NA,NA,"",   978.641E+03,   982.871E+03,   982.871E+03
C:/temp/Job-1.odb,Step-1,Increment      1: Step Time =    1.000,"P-1-1",          8208,   183.495E-03,   110.154E-03,            0.,NA,NA,"",   970.630E+03,   990.358E+03,   990.358E+03
C:/temp/Job-1.odb,Step-1,Increment      1: Step Time =    1.000,"P-1-1",          8209,   17.0071E-03,   90.4078E-03,            0.,NA,NA,"",   807.044E+03,   896.890E+03,   896.890E+03
C:/temp/Job-1.odb,Step-1,Increment      1: Step Time =    1.000,"P-1-1",          8210,   16.8447E-03,   115.877E-03,            0.,NA,NA,"",   816.895E+03,   906.165E+03,   906.165E+03
C:/temp/Job-1.odb,Step-1,Increment      1: Step Time =    1.000,"P-1-1",          8211,   115.536E-03,   182.543E-03,            0.,NA,NA,"",   983.742E+03,   986.372E+03,   986.372E+03
C:/temp/Job-1.odb,Step-1,Increment      1: Step Time =    1.000,"P-1-1",          8212,   16.3249E-03,   176.961E-03,            0.,NA,NA,"",   1.04276E+06,   1.09869E+06,   1.09869E+06
C:/temp/Job-1.odb,Step-1,Increment      1: Step Time =    1.000,"P-1-1",          8213,   109.793E-03,   16.9749E-03,            0.,NA,NA,"",   978.554E+03,   982.256E+03,   982.256E+03
C:/temp/Job-1.odb,Step-1,Increment      1: Step Time =    1.000,"P-1-1",          8214,   182.818E-03,   24.6719E-03,            0.,NA,NA,"",   1.00324E+06,   1.00290E+06,   1.00290E+06
C:/temp/Job-1.odb,Step-1,Increment      1: Step Time =    1.000,"P-1-1",          8215,   17.5698E-03,   119.167E-03,            0.,NA,NA,"",   825.436E+03,   913.371E+03,   913.371E+03
C:/temp/Job-1.odb,Step-1,Increment      1: Step Time =    1.000,"P-1-1",          8216,   83.5303E-03,   16.8529E-03,            0.,NA,NA,"",   984.537E+03,   987.839E+03,   987.839E+03
C:/temp/Job-1.odb,Step-1,Increment      1: Step Time =    1.000,"P-1-1",          8217,   80.7484E-03,   16.6725E-03,            0.,NA,NA,"",   986.878E+03,   989.644E+03,   989.644E+03
C:/temp/Job-1.odb,Step-1,Increment      1: Step Time =    1.000,"P-1-1",          8218,   85.6194E-03,   116.632E-03,            0.,NA,NA,"",   1.35282E+06,   1.28166E+06,   1.28166E+06
C:/temp/Job-1.odb,Step-1,Increment      1: Step Time =    1.000,"P-1-1",          8219,   33.6991E-03,   183.458E-03,            0.,NA,NA,"",   1.05679E+06,   1.06782E+06,   1.06782E+06
C:/temp/Job-1.odb,Step-1,Increment      1: Step Time =    1.000,"P-1-1",          8220,   166.718E-03,   17.9046E-03,            0.,NA,NA,"",   1.00538E+06,   1.00366E+06,   1.00366E+06
C:/temp/Job-1.odb,Step-1,Increment      1: Step Time =    1.000,"P-1-1",          8221,   23.9523E-03,   17.4044E-03,            0.,NA,NA,"",   1.07722E+06,   1.10210E+06,   1.10210E+06
C:/temp/Job-1.odb,Step-1,Increment      1: Step Time =    1.000,"P-1-1",          8222,   183.001E-03,   81.1660E-03,            0.,NA,NA,"",   978.513E+03,   994.417E+03,   994.417E+03
C:/temp/Job-1.odb,Step-1,Increment      1: Step Time =    1.000,"P-1-1",          8223,   31.3969E-03,   183.149E-03,            0.,NA,NA,"",   1.06217E+06,   1.07530E+06,   1.07530E+06
C:/temp/Job-1.odb,Step-1,Increment      1: Step Time =    1.000,"P-1-1",          8224,   182.691E-03,   165.289E-03,            0.,NA,NA,"",   1.00518E+06,   1.00518E+06,   1.00518E+06
C:/temp/Job-1.odb,Step-1,Increment      1: Step Time =    1.000,"P-1-1",          8225,   63.5064E-03,   182.109E-03,            0.,NA,NA,"",   1.01189E+06,   1.01296E+06,   1.01296E+06
C:/temp/Job-1.odb,Step-1,Increment      1: Step Time =    1.000,"P-1-1",          8226,   17.0612E-03,   62.4321E-03,            0.,NA,NA,"",   874.955E+03,   959.046E+03,   959.046E+03
C:/temp/Job-1.odb,Step-1,Increment      1: Step Time =    1.000,"P-1-1",          8227,   175.536E-03,   183.017E-03,            0.,NA,NA,"",   1.00296E+06,   1.00218E+06,   1.00218E+06
C:/temp/Job-1.odb,Step-1,Increment      1: Step Time =    1.000,"P-1-1",          8228,   17.0867E-03,   35.2702E-03,            0.,NA,NA,"",   975.049E+03,   1.04504E+06,   1.04504E+06
C:/temp/Job-1.odb,Step-1,Increment      1: Step Time =    1.000,"P-1-1",          8229,   182.250E-03,   135.923E-03,            0.,NA,NA,"",   996.746E+03,   1.00388E+06,   1.00388E+06
C:/temp/Job-1.odb,Step-1,Increment      1: Step Time =    1.000,"P-1-1",          8230,   183.330E-03,   84.0128E-03,            0.,NA,NA,"",   975.545E+03,   992.979E+03,   992.979E+03
C:/temp/Job-1.odb,Step-1,Increment      1: Step Time =    1.000,"P-1-1",          8231,   136.672E-03,   17.5289E-03,            0.,NA,NA,"",   1.00068E+06,   998.743E+03,   998.743E+03
C:/temp/Job-1.odb,Step-1,Increment      1: Step Time =    1.000,"P-1-1",          8232,   169.349E-03,   16.5403E-03,            0.,NA,NA,"",   1.00384E+06,   1.00258E+06,   1.00258E+06
C:/temp/Job-1.odb,Step-1,Increment      1: Step Time =    1.000,"P-1-1",          8233,   95.7356E-03,   129.665E-03,            0.,NA,NA,"",   1.10327E+06,   1.18775E+06,   1.18775E+06
C:/temp/Job-1.odb,Step-1,Increment      1: Step Time =    1.000,"P-1-1",          8234,   182.459E-03,   169.698E-03,            0.,NA,NA,"",   1.00466E+06,   1.00437E+06,   1.00437E+06
C:/temp/Job-1.odb,Step-1,Increment      1: Step Time =    1.000,"P-1-1",          8235,   16.9224E-03,   31.5967E-03,            0.,NA,NA,"",   992.645E+03,   1.05949E+06,   1.05949E+06
C:/temp/Job-1.odb,Step-1,Increment      1: Step Time =    1.000,"P-1-1",          8236,   73.5688E-03,   183.267E-03,            0.,NA,NA,"",   995.450E+03,   997.073E+03,   997.073E+03
C:/temp/Job-1.odb,Step-1,Increment      1: Step Time =    1.000,"P-1-1",          8237,   60.0215E-03,   181.670E-03,            0.,NA,NA,"",   1.01734E+06,   1.01853E+06,   1.01853E+06
C:/temp/Job-1.odb,Step-1,Increment      1: Step Time =    1.000,"P-1-1",          8238,   16.6213E-03,   73.4309E-03,            0.,NA,NA,"",   841.623E+03,   929.112E+03,   929.112E+03
C:/temp/Job-1.odb,Step-1,Increment      1: Step Time =    1.000,"P-1-1",          8239,   17.1024E-03,   158.814E-03,            0.,NA,NA,"",   949.359E+03,   1.02391E+06,   1.02391E+06
C:/temp/Job-1.odb,Step-1,Increment      1: Step Time =    1.000,"P-1-1",          8240,   182.549E-03,   126.810E-03,            0.,NA,NA,"",   987.405E+03,   999.119E+03,   999.119E+03
C:/temp/Job-1.odb,Step-1,Increment      1: Step Time =    1.000,"P-1-1",          8241,   16.5814E-03,   59.5859E-03,            0.,NA,NA,"",   882.140E+03,   966.109E+03,   966.109E+03
C:/temp/Job-1.odb,Step-1,Increment      1: Step Time =    1.000,"P-1-1",          8242,   126.308E-03,   17.5884E-03,            0.,NA,NA,"",   993.179E+03,   993.198E+03,   993.198E+03
C:/temp/Job-1.odb,Step-1,Increment      1: Step Time =    1.000,"P-1-1",          8243,   181.777E-03,   138.914E-03,            0.,NA,NA,"",   999.561E+03,   1.00518E+06,   1.00518E+06
C:/temp/Job-1.odb,Step-1,Increment      1: Step Time =    1.000,"P-1-1",          8244,   182.609E-03,   41.6972E-03,            0.,NA,NA,"",   1.00561E+06,   1.00633E+06,   1.00633E+06
C:/temp/Job-1.odb,Step-1,Increment      1: Step Time =    1.000,"P-1-1",          8245,   139.062E-03,   16.7452E-03,            0.,NA,NA,"",   1.00028E+06,   998.230E+03,   998.230E+03
C:/temp/Job-1.odb,Step-1,Increment      1: Step Time =    1.000,"P-1-1",          8246,   41.1253E-03,   16.1670E-03,            0.,NA,NA,"",   1.04122E+06,   1.04672E+06,   1.04672E+06
C:/temp/Job-1.odb,Step-1,Increment      1: Step Time =    1.000,"P-1-1",          8247,   158.316E-03,   182.518E-03,            0.,NA,NA,"",   1.00615E+06,   1.00377E+06,   1.00377E+06
C:/temp/Job-1.odb,Step-1,Increment      1: Step Time =    1.000,"P-1-1",          8248,   182.614E-03,   93.4189E-03,            0.,NA,NA,"",   968.091E+03,   988.008E+03,   988.008E+03
C:/temp/Job-1.odb,Step-1,Increment      1: Step Time =    1.000,"P-1-1",          8249,   17.0373E-03,   136.042E-03,            0.,NA,NA,"",   870.287E+03,   954.809E+03,   954.809E+03
C:/temp/Job-1.odb,Step-1,Increment      1: Step Time =    1.000,"P-1-1",          8250,   106.728E-03,   182.838E-03,            0.,NA,NA,"",   977.504E+03,   981.814E+03,   981.814E+03
C:/temp/Job-1.odb,Step-1,Increment      1: Step Time =    1.000,"P-1-1",          8251,   50.6533E-03,   182.874E-03,            0.,NA,NA,"",   1.02741E+06,   1.02992E+06,   1.02992E+06
C:/temp/Job-1.odb,Step-1,Increment      1: Step Time =    1.000,"P-1-1",          8252,   135.260E-03,   183.290E-03,            0.,NA,NA,"",   998.224E+03,   996.618E+03,   996.618E+03
C:/temp/Job-1.odb,Step-1,Increment      1: Step Time =    1.000,"P-1-1",          8253,   80.7249E-03,   182.277E-03,            0.,NA,NA,"",   990.106E+03,   993.245E+03,   993.245E+03
C:/temp/Job-1.odb,Step-1,Increment      1: Step Time =    1.000,"P-1-1",          8254,   183.176E-03,   119.260E-03,            0.,NA,NA,"",   978.901E+03,   994.755E+03,   994.755E+03
C:/temp/Job-1.odb,Step-1,Increment      1: Step Time =    1.000,"P-1-1",          8255,   17.4673E-03,   106.868E-03,            0.,NA,NA,"",   804.934E+03,   894.552E+03,   894.552E+03
C:/temp/Job-1.odb,Step-1,Increment      1: Step Time =    1.000,"P-1-1",          8256,   18.1470E-03,   165.317E-03,            0.,NA,NA,"",   982.477E+03,   1.04929E+06,   1.04929E+06
C:/temp/Job-1.odb,Step-1,Increment      1: Step Time =    1.000,"P-1-1",          8257,   16.6642E-03,   80.0374E-03,            0.,NA,NA,"",   825.212E+03,   913.943E+03,   913.943E+03
C:/temp/Job-1.odb,Step-1,Increment      1: Step Time =    1.000,"P-1-1",          8258,   16.8546E-03,   50.5914E-03,            0.,NA,NA,"",   913.239E+03,   993.347E+03,   993.347E+03
C:/temp/Job-1.odb,Step-1,Increment      1: Step Time =    1.000,"P-1-1",          8259,   92.8609E-03,   128.874E-03,            0.,NA,NA,"",   1.14086E+06,   1.20956E+06,   1.20956E+06
C:/temp/Job-1.odb,Step-1,Increment      1: Step Time =    1.000,"P-1-1",          8260,   93.8181E-03,   16.4620E-03,            0.,NA,NA,"",   975.891E+03,   980.276E+03,   980.276E+03
C:/temp/Job-1.odb,Step-1,Increment      1: Step Time =    1.000,"P-1-1",          8261,   182.773E-03,   150.534E-03,            0.,NA,NA,"",   1.00424E+06,   1.00660E+06,   1.00660E+06
C:/temp/Job-1.odb,Step-1,Increment      1: Step Time =    1.000,"P-1-1",          8262,   64.5283E-03,   17.8877E-03,            0.,NA,NA,"",   1.01054E+06,   1.01160E+06,   1.01160E+06
C:/temp/Job-1.odb,Step-1,Increment      1: Step Time =    1.000,"P-1-1",          8263,   182.739E-03,   64.3882E-03,            0.,NA,NA,"",   995.880E+03,   1.00352E+06,   1.00352E+06
C:/temp/Job-1.odb,Step-1,Increment      1: Step Time =    1.000,"P-1-1",          8264,   148.949E-03,   17.5955E-03,            0.,NA,NA,"",   1.00568E+06,   1.00293E+06,   1.00293E+06
C:/temp/Job-1.odb,Step-1,Increment      1: Step Time =    1.000,"P-1-1",          8265,   119.455E-03,   17.7227E-03,            0.,NA,NA,"",   987.571E+03,   989.313E+03,   989.313E+03
C:/temp/Job-1.odb,Step-1,Increment      1: Step Time =    1.000,"P-1-1",          8266,   183.130E-03,   34.7380E-03,            0.,NA,NA,"",   1.00485E+06,   1.00494E+06,   1.00494E+06
C:/temp/Job-1.odb,Step-1,Increment      1: Step Time =    1.000,"P-1-1",          8267,   34.5915E-03,   17.3039E-03,            0.,NA,NA,"",   1.05571E+06,   1.06668E+06,   1.06668E+06
C:/temp/Job-1.odb,Step-1,Increment      1: Step Time =    1.000,"P-1-1",          8268,   20.5004E-03,   182.092E-03,            0.,NA,NA,"",   1.08062E+06,   1.11361E+06,   1.11361E+06
C:/temp/Job-1.odb,Step-1,Increment      1: Step Time =    1.000,"P-1-1",          8269,   165.738E-03,   183.439E-03,            0.,NA,NA,"",   1.00440E+06,   1.00281E+06,   1.00281E+06
C:/temp/Job-1.odb,Step-1,Increment      1: Step Time =    1.000,"P-1-1",          8270,   177.843E-03,   16.2301E-03,            0.,NA,NA,"",   1.00216E+06,   1.00161E+06,   1.00161E+06
C:/temp/Job-1.odb,Step-1,Increment      1: Step Time =    1.000,"P-1-1",          8271,   182.815E-03,   179.437E-03,            0.,NA,NA,"",   1.00230E+06,   1.00198E+06,   1.00198E+06
C:/temp/Job-1.odb,Step-1,Increment      1: Step Time =    1.000,"P-1-1",          8272,   18.1720E-03,   20.8058E-03,            0.,NA,NA,"",   1.06231E+06,   1.10822E+06,   1.10822E+06
C:/temp/Job-1.odb,Step-1,Increment      1: Step Time =    1.000,"P-1-1",          8273,   110.064E-03,   128.490E-03,            0.,NA,NA,"",   1.18114E+06,   1.22173E+06,   1.22173E+06
C:/temp/Job-1.odb,Step-1,Increment      1: Step Time =    1.000,"P-1-1",          8274,   79.7619E-03,   121.165E-03,            0.,NA,NA,"",   1.24571E+06,   1.18612E+06,   1.18612E+06
C:/temp/Job-1.odb,Step-1,Increment      1: Step Time =    1.000,"P-1-1",          8275,   57.8921E-03,   183.601E-03,            0.,NA,NA,"",   1.01502E+06,   1.01610E+06,   1.01610E+06
C:/temp/Job-1.odb,Step-1,Increment      1: Step Time =    1.000,"P-1-1",          8276,   16.0557E-03,   57.1200E-03,            0.,NA,NA,"",   888.363E+03,   972.351E+03,   972.351E+03
C:/temp/Job-1.odb,Step-1,Increment      1: Step Time =    1.000,"P-1-1",          8277,   142.507E-03,   15.1849E-03,            0.,NA,NA,"",   998.973E+03,   997.032E+03,   997.032E+03
C:/temp/Job-1.odb,Step-1,Increment      1: Step Time =    1.000,"P-1-1",          8278,   183.656E-03,   141.098E-03,            0.,NA,NA,"",   999.076E+03,   1.00491E+06,   1.00491E+06
C:/temp/Job-1.odb,Step-1,Increment      1: Step Time =    1.000,"P-1-1",          8279,   16.8057E-03,   133.164E-03,            0.,NA,NA,"",   860.454E+03,   946.276E+03,   946.276E+03
C:/temp/Job-1.odb,Step-1,Increment      1: Step Time =    1.000,"P-1-1",          8280,   132.626E-03,   183.247E-03,            0.,NA,NA,"",   996.287E+03,   995.082E+03,   995.082E+03
C:/temp/Job-1.odb,Step-1,Increment      1: Step Time =    1.000,"P-1-1",          8281,   183.763E-03,   85.4221E-03,            0.,NA,NA,"",   974.208E+03,   992.590E+03,   992.590E+03
C:/temp/Job-1.odb,Step-1,Increment      1: Step Time =    1.000,"P-1-1",          8282,   67.6005E-03,   17.9079E-03,            0.,NA,NA,"",   1.00660E+06,   1.00785E+06,   1.00785E+06
C:/temp/Job-1.odb,Step-1,Increment      1: Step Time =    1.000,"P-1-1",          8283,   183.333E-03,   67.3103E-03,            0.,NA,NA,"",   992.718E+03,   1.00212E+06,   1.00212E+06
C:/temp/Job-1.odb,Step-1,Increment      1: Step Time =    1.000,"P-1-1",          8284,   28.7094E-03,   184.167E-03,            0.,NA,NA,"",   1.06964E+06,   1.08435E+06,   1.08435E+06
C:/temp/Job-1.odb,Step-1,Increment      1: Step Time =    1.000,"P-1-1",          8285,   172.031E-03,   16.4302E-03,            0.,NA,NA,"",   1.00331E+06,   1.00229E+06,   1.00229E+06
C:/temp/Job-1.odb,Step-1,Increment      1: Step Time =    1.000,"P-1-1",          8286,   15.3429E-03,   30.0649E-03,            0.,NA,NA,"",   994.615E+03,   1.06414E+06,   1.06414E+06
C:/temp/Job-1.odb,Step-1,Increment      1: Step Time =    1.000,"P-1-1",          8287,   185.125E-03,   170.625E-03,            0.,NA,NA,"",   1.00301E+06,   1.00308E+06,   1.00308E+06
C:/temp/Job-1.odb,Step-1,Increment      1: Step Time =    1.000,"P-1-1",          8288,   186.023E-03,   115.962E-03,            0.,NA,NA,"",   975.176E+03,   994.906E+03,   994.906E+03
C:/temp/Job-1.odb,Step-1,Increment      1: Step Time =    1.000,"P-1-1",          8289,   16.0101E-03,   84.4053E-03,            0.,NA,NA,"",   814.779E+03,   904.863E+03,   904.863E+03
C:/temp/Job-1.odb,Step-1,Increment      1: Step Time =    1.000,"P-1-1",          8290,   115.184E-03,   15.3491E-03,            0.,NA,NA,"",   978.126E+03,   980.286E+03,   980.286E+03
C:/temp/Job-1.odb,Step-1,Increment      1: Step Time =    1.000,"P-1-1",          8291,   113.897E-03,   185.255E-03,            0.,NA,NA,"",   975.849E+03,   978.103E+03,   978.103E+03
C:/temp/Job-1.odb,Step-1,Increment      1: Step Time =    1.000,"P-1-1",          8292,   16.0793E-03,   113.223E-03,            0.,NA,NA,"",   810.657E+03,   900.968E+03,   900.968E+03
C:/temp/Job-1.odb,Step-1,Increment      1: Step Time =    1.000,"P-1-1",          8293,   86.2433E-03,   15.3598E-03,            0.,NA,NA,"",   977.819E+03,   980.940E+03,   980.940E+03
C:/temp/Job-1.odb,Step-1,Increment      1: Step Time =    1.000,"P-1-1",          8294,   82.7581E-03,   122.461E-03,            0.,NA,NA,"",   1.27715E+06,   1.23633E+06,   1.23633E+06
C:/temp/Job-1.odb,Step-1,Increment      1: Step Time =    1.000,"P-1-1",          8295,   72.5635E-03,   113.502E-03,            0.,NA,NA,"",   983.031E+03,   941.761E+03,   941.761E+03
C:/temp/Job-1.odb,Step-1,Increment      1: Step Time =    1.000,"P-1-1",          8296,   115.617E-03,   123.512E-03,            0.,NA,NA,"",   1.29400E+06,   1.25836E+06,   1.25836E+06
C:/temp/Job-1.odb,Step-1,Increment      1: Step Time =    1.000,"P-1-1",          8297,   73.2807E-03,   87.1845E-03,            0.,NA,NA,"",   970.818E+03,   925.931E+03,   925.931E+03
C:/temp/Job-1.odb,Step-1,Increment      1: Step Time =    1.000,"P-1-1",          8298,   119.470E-03,   123.884E-03,            0.,NA,NA,"",   1.27096E+06,   1.21164E+06,   1.21164E+06
C:/temp/Job-1.odb,Step-1,Increment      1: Step Time =    1.000,"P-1-1",          8299,   46.3859E-03,   183.332E-03,            0.,NA,NA,"",   1.03306E+06,   1.03671E+06,   1.03671E+06
C:/temp/Job-1.odb,Step-1,Increment      1: Step Time =    1.000,"P-1-1",          8300,   16.5825E-03,   46.9575E-03,            0.,NA,NA,"",   925.451E+03,   1.00434E+06,   1.00434E+06
C:/temp/Job-1.odb,Step-1,Increment      1: Step Time =    1.000,"P-1-1",          8301,   183.787E-03,   153.842E-03,            0.,NA,NA,"",   1.00392E+06,   1.00592E+06,   1.00592E+06
C:/temp/Job-1.odb,Step-1,Increment      1: Step Time =    1.000,"P-1-1",          8302,   153.669E-03,   15.1357E-03,            0.,NA,NA,"",   1.00282E+06,   1.00077E+06,   1.00077E+06
C:/temp/Job-1.odb,Step-1,Increment      1: Step Time =    1.000,"P-1-1",          8303,   76.7374E-03,   184.792E-03,            0.,NA,NA,"",   986.763E+03,   988.548E+03,   988.548E+03
C:/temp/Job-1.odb,Step-1,Increment      1: Step Time =    1.000,"P-1-1",          8304,   16.1236E-03,   76.2703E-03,            0.,NA,NA,"",   832.768E+03,   921.447E+03,   921.447E+03
C:/temp/Job-1.odb,Step-1,Increment      1: Step Time =    1.000,"P-1-1",          8305,   184.461E-03,   122.923E-03,            0.,NA,NA,"",   982.190E+03,   997.310E+03,   997.310E+03
C:/temp/Job-1.odb,Step-1,Increment      1: Step Time =    1.000,"P-1-1",          8306,   15.4022E-03,   161.718E-03,            0.,NA,NA,"",   954.208E+03,   1.03085E+06,   1.03085E+06
C:/temp/Job-1.odb,Step-1,Increment      1: Step Time =    1.000,"P-1-1",          8307,   122.603E-03,   16.6241E-03,            0.,NA,NA,"",   987.562E+03,   988.408E+03,   988.408E+03
C:/temp/Job-1.odb,Step-1,Increment      1: Step Time =    1.000,"P-1-1",          8308,   183.300E-03,   38.3955E-03,            0.,NA,NA,"",   1.00499E+06,   1.00548E+06,   1.00548E+06
C:/temp/Job-1.odb,Step-1,Increment      1: Step Time =    1.000,"P-1-1",          8309,   37.4422E-03,   16.5528E-03,            0.,NA,NA,"",   1.04927E+06,   1.05741E+06,   1.05741E+06
C:/temp/Job-1.odb,Step-1,Increment      1: Step Time =    1.000,"P-1-1",          8310,   161.897E-03,   183.230E-03,            0.,NA,NA,"",   1.00517E+06,   1.00321E+06,   1.00321E+06
C:/temp/Job-1.odb,Step-1,Increment      1: Step Time =    1.000,"P-1-1",          8311,   79.1600E-03,   119.693E-03,            0.,NA,NA,"",   1.23287E+06,   1.16418E+06,   1.16418E+06
C:/temp/Job-1.odb,Step-1,Increment      1: Step Time =    1.000,"P-1-1",          8312,   74.5854E-03,   116.924E-03,            0.,NA,NA,"",   1.10701E+06,   1.04791E+06,   1.04791E+06
C:/temp/Job-1.odb,Step-1,Increment      1: Step Time =    1.000,"P-1-1",          8313,   85.2909E-03,   81.0834E-03,            0.,NA,NA,"",   1.34029E+06,   1.28859E+06,   1.28859E+06
C:/temp/Job-1.odb,Step-1,Increment      1: Step Time =    1.000,"P-1-1",          8314,   18.0535E-03,   26.1756E-03,            0.,NA,NA,"",   1.02726E+06,   1.08359E+06,   1.08359E+06
C:/temp/Job-1.odb,Step-1,Increment      1: Step Time =    1.000,"P-1-1",          8315,   182.718E-03,   175.039E-03,            0.,NA,NA,"",   1.00336E+06,   1.00301E+06,   1.00301E+06
C:/temp/Job-1.odb,Step-1,Increment      1: Step Time =    1.000,"P-1-1",          8316,   117.427E-03,   17.8793E-03,            0.,NA,NA,"",   986.372E+03,   988.708E+03,   988.708E+03
C:/temp/Job-1.odb,Step-1,Increment      1: Step Time =    1.000,"P-1-1",          8317,   182.972E-03,   117.583E-03,            0.,NA,NA,"",   977.146E+03,   993.626E+03,   993.626E+03
C:/temp/Job-1.odb,Step-1,Increment      1: Step Time =    1.000,"P-1-1",          8318,   173.320E-03,   17.6904E-03,            0.,NA,NA,"",   1.00375E+06,   1.00272E+06,   1.00272E+06
C:/temp/Job-1.odb,Step-1,Increment      1: Step Time =    1.000,"P-1-1",          8319,   16.9641E-03,   81.3878E-03,            0.,NA,NA,"",   822.843E+03,   911.489E+03,   911.489E+03
C:/temp/Job-1.odb,Step-1,Increment      1: Step Time =    1.000,"P-1-1",          8320,   82.3375E-03,   182.441E-03,            0.,NA,NA,"",   987.590E+03,   990.892E+03,   990.892E+03
C:/temp/Job-1.odb,Step-1,Increment      1: Step Time =    1.000,"P-1-1",          8321,   25.3210E-03,   181.667E-03,            0.,NA,NA,"",   1.07204E+06,   1.09598E+06,   1.09598E+06
C:/temp/Job-1.odb,Step-1,Increment      1: Step Time =    1.000,"P-1-1",          8322,   143.753E-03,   16.7533E-03,            0.,NA,NA,"",   1.00259E+06,   1.00021E+06,   1.00021E+06
C:/temp/Job-1.odb,Step-1,Increment      1: Step Time =    1.000,"P-1-1",          8323,   182.386E-03,   144.529E-03,            0.,NA,NA,"",   1.00237E+06,   1.00628E+06,   1.00628E+06
C:/temp/Job-1.odb,Step-1,Increment      1: Step Time =    1.000,"P-1-1",          8324,   89.4177E-03,   17.0231E-03,            0.,NA,NA,"",   980.015E+03,   984.264E+03,   984.264E+03
C:/temp/Job-1.odb,Step-1,Increment      1: Step Time =    1.000,"P-1-1",          8325,   18.5532E-03,   55.4801E-03,            0.,NA,NA,"",   902.895E+03,   982.092E+03,   982.092E+03
C:/temp/Job-1.odb,Step-1,Increment      1: Step Time =    1.000,"P-1-1",          8326,   16.6381E-03,   110.567E-03,            0.,NA,NA,"",   807.774E+03,   897.803E+03,   897.803E+03
C:/temp/Job-1.odb,Step-1,Increment      1: Step Time =    1.000,"P-1-1",          8327,   55.5570E-03,   181.460E-03,            0.,NA,NA,"",   1.02382E+06,   1.02566E+06,   1.02566E+06
C:/temp/Job-1.odb,Step-1,Increment      1: Step Time =    1.000,"P-1-1",          8328,   111.502E-03,   181.785E-03,            0.,NA,NA,"",   982.624E+03,   986.431E+03,   986.431E+03
C:/temp/Job-1.odb,Step-1,Increment      1: Step Time =    1.000,"P-1-1",          8329,   182.232E-03,   88.6456E-03,            0.,NA,NA,"",   971.094E+03,   989.437E+03,   989.437E+03
C:/temp/Job-1.odb,Step-1,Increment      1: Step Time =    1.000,"P-1-1",          8330,   115.320E-03,   125.353E-03,            0.,NA,NA,"",   1.26636E+06,   1.24427E+06,   1.24427E+06
C:/temp/Job-1.odb,Step-1,Increment      1: Step Time =    1.000,"P-1-1",          8331,   124.180E-03,   118.827E-03,            0.,NA,NA,"",   1.19794E+06,   1.10904E+06,   1.10904E+06
C:/temp/Job-1.odb,Step-1,Increment      1: Step Time =    1.000,"P-1-1",          8332,   101.337E-03,   19.3883E-03,            0.,NA,NA,"",   981.394E+03,   987.423E+03,   987.423E+03
C:/temp/Job-1.odb,Step-1,Increment      1: Step Time =    1.000,"P-1-1",          8333,   18.8296E-03,   18.6476E-03,            0.,NA,NA,"",   1.07756E+06,   1.11656E+06,   1.11656E+06
C:/temp/Job-1.odb,Step-1,Increment      1: Step Time =    1.000,"P-1-1",          8334,   17.8228E-03,   98.9539E-03,            0.,NA,NA,"",   802.421E+03,   891.931E+03,   891.931E+03
C:/temp/Job-1.odb,Step-1,Increment      1: Step Time =    1.000,"P-1-1",          8335,   181.735E-03,   180.877E-03,            0.,NA,NA,"",   1.00219E+06,   1.00182E+06,   1.00182E+06
C:/temp/Job-1.odb,Step-1,Increment      1: Step Time =    1.000,"P-1-1",          8336,   181.305E-03,   101.608E-03,            0.,NA,NA,"",   965.489E+03,   985.050E+03,   985.050E+03
C:/temp/Job-1.odb,Step-1,Increment      1: Step Time =    1.000,"P-1-1",          8337,   98.5957E-03,   181.081E-03,            0.,NA,NA,"",   980.576E+03,   986.452E+03,   986.452E+03
C:/temp/Job-1.odb,Step-1,Increment      1: Step Time =    1.000,"P-1-1",          8338,   180.322E-03,   17.6060E-03,            0.,NA,NA,"",   1.00212E+06,   1.00168E+06,   1.00168E+06
C:/temp/Job-1.odb,Step-1,Increment      1: Step Time =    1.000,"P-1-1",          8339,   19.1137E-03,   182.614E-03,            0.,NA,NA,"",   1.08509E+06,   1.12031E+06,   1.12031E+06
C:/temp/Job-1.odb,Step-1,Increment      1: Step Time =    1.000,"P-1-1",          8340,   95.3128E-03,   17.5748E-03,            0.,NA,NA,"",   978.178E+03,   983.223E+03,   983.223E+03
C:/temp/Job-1.odb,Step-1,Increment      1: Step Time =    1.000,"P-1-1",          8341,   18.1700E-03,   105.611E-03,            0.,NA,NA,"",   804.941E+03,   894.026E+03,   894.026E+03
C:/temp/Job-1.odb,Step-1,Increment      1: Step Time =    1.000,"P-1-1",          8342,   105.019E-03,   182.245E-03,            0.,NA,NA,"",   978.221E+03,   983.032E+03,   983.032E+03
C:/temp/Job-1.odb,Step-1,Increment      1: Step Time =    1.000,"P-1-1",          8343,   181.962E-03,   96.1452E-03,            0.,NA,NA,"",   966.553E+03,   986.434E+03,   986.434E+03
C:/temp/Job-1.odb,Step-1,Increment      1: Step Time =    1.000,"P-1-1",          8344,   79.4821E-03,   79.7750E-03,            0.,NA,NA,"",   1.24140E+06,   1.17567E+06,   1.17567E+06
C:/temp/Job-1.odb,Step-1,Increment      1: Step Time =    1.000,"P-1-1",          8345,   48.4213E-03,   17.6720E-03,            0.,NA,NA,"",   1.03200E+06,   1.03536E+06,   1.03536E+06
C:/temp/Job-1.odb,Step-1,Increment      1: Step Time =    1.000,"P-1-1",          8346,   17.8966E-03,   151.882E-03,            0.,NA,NA,"",   926.439E+03,   1.00323E+06,   1.00323E+06
C:/temp/Job-1.odb,Step-1,Increment      1: Step Time =    1.000,"P-1-1",          8347,   183.571E-03,   47.3113E-03,            0.,NA,NA,"",   1.00388E+06,   1.00606E+06,   1.00606E+06
C:/temp/Job-1.odb,Step-1,Increment      1: Step Time =    1.000,"P-1-1",          8348,   152.511E-03,   183.601E-03,            0.,NA,NA,"",   1.00434E+06,   1.00197E+06,   1.00197E+06
C:/temp/Job-1.odb,Step-1,Increment      1: Step Time =    1.000,"P-1-1",          8349,   77.4055E-03,   82.5114E-03,            0.,NA,NA,"",   1.17268E+06,   1.09912E+06,   1.09912E+06
C:/temp/Job-1.odb,Step-1,Increment      1: Step Time =    1.000,"P-1-1",          8350,   182.492E-03,   132.978E-03,            0.,NA,NA,"",   993.764E+03,   1.00245E+06,   1.00245E+06
C:/temp/Job-1.odb,Step-1,Increment      1: Step Time =    1.000,"P-1-1",          8351,   133.201E-03,   18.4579E-03,            0.,NA,NA,"",   1.00057E+06,   999.028E+03,   999.028E+03
C:/temp/Job-1.odb,Step-1,Increment      1: Step Time =    1.000,"P-1-1",          8352,   66.8527E-03,   182.422E-03,            0.,NA,NA,"",   1.00661E+06,   1.00776E+06,   1.00776E+06
C:/temp/Job-1.odb,Step-1,Increment      1: Step Time =    1.000,"P-1-1",          8353,   17.5907E-03,   66.0724E-03,            0.,NA,NA,"",   865.840E+03,   950.083E+03,   950.083E+03
C:/temp/Job-1.odb,Step-1,Increment      1: Step Time =    1.000,"P-1-1",          8354,   170.558E-03,   182.143E-03,            0.,NA,NA,"",   1.00453E+06,   1.00320E+06,   1.00320E+06
C:/temp/Job-1.odb,Step-1,Increment      1: Step Time =    1.000,"P-1-1",          8355,   29.3500E-03,   17.8608E-03,            0.,NA,NA,"",   1.06575E+06,   1.08299E+06,   1.08299E+06
C:/temp/Job-1.odb,Step-1,Increment      1: Step Time =    1.000,"P-1-1",          8356,   182.166E-03,   30.2326E-03,            0.,NA,NA,"",   1.00477E+06,   1.00443E+06,   1.00443E+06
C:/temp/Job-1.odb,Step-1,Increment      1: Step Time =    1.000,"P-1-1",          8357,   17.2744E-03,   170.868E-03,            0.,NA,NA,"",   1.00808E+06,   1.07081E+06,   1.07081E+06
C:/temp/Job-1.odb,Step-1,Increment      1: Step Time =    1.000,"P-1-1",          8358,   183.389E-03,   59.5169E-03,            0.,NA,NA,"",   998.823E+03,   1.00482E+06,   1.00482E+06
C:/temp/Job-1.odb,Step-1,Increment      1: Step Time =    1.000,"P-1-1",          8359,   59.2202E-03,   18.1139E-03,            0.,NA,NA,"",   1.01823E+06,   1.01951E+06,   1.01951E+06
C:/temp/Job-1.odb,Step-1,Increment      1: Step Time =    1.000,"P-1-1",          8360,   140.581E-03,   182.769E-03,            0.,NA,NA,"",   1.00225E+06,   999.955E+03,   999.955E+03
C:/temp/Job-1.odb,Step-1,Increment      1: Step Time =    1.000,"P-1-1",          8361,   17.9174E-03,   140.855E-03,            0.,NA,NA,"",   888.939E+03,   970.476E+03,   970.476E+03
C:/temp/Job-1.odb,Step-1,Increment      1: Step Time =    1.000,"P-1-1",          8362,   124.612E-03,   116.108E-03,            0.,NA,NA,"",   1.14778E+06,   1.05426E+06,   1.05426E+06
C:/temp/Job-1.odb,Step-1,Increment      1: Step Time =    1.000,"P-1-1",          8363,   182.293E-03,   68.5806E-03,            0.,NA,NA,"",   992.461E+03,   1.00172E+06,   1.00172E+06
C:/temp/Job-1.odb,Step-1,Increment      1: Step Time =    1.000,"P-1-1",          8364,   69.2751E-03,   18.0458E-03,            0.,NA,NA,"",   1.00472E+06,   1.00611E+06,   1.00611E+06
C:/temp/Job-1.odb,Step-1,Increment      1: Step Time =    1.000,"P-1-1",          8365,   131.250E-03,   181.208E-03,            0.,NA,NA,"",   1.00003E+06,   998.841E+03,   998.841E+03
C:/temp/Job-1.odb,Step-1,Increment      1: Step Time =    1.000,"P-1-1",          8366,   17.2553E-03,   131.242E-03,            0.,NA,NA,"",   856.181E+03,   941.873E+03,   941.873E+03
C:/temp/Job-1.odb,Step-1,Increment      1: Step Time =    1.000,"P-1-1",          8367,   82.0644E-03,   123.379E-03,            0.,NA,NA,"",   1.26404E+06,   1.22561E+06,   1.22561E+06
C:/temp/Job-1.odb,Step-1,Increment      1: Step Time =    1.000,"P-1-1",          8368,   111.846E-03,   128.774E-03,            0.,NA,NA,"",   1.19480E+06,   1.21792E+06,   1.21792E+06
C:/temp/Job-1.odb,Step-1,Increment      1: Step Time =    1.000,"P-1-1",          8369,   83.6814E-03,   127.399E-03,            0.,NA,NA,"",   1.22561E+06,   1.21737E+06,   1.21737E+06
C:/temp/Job-1.odb,Step-1,Increment      1: Step Time =    1.000,"P-1-1",          8370,   103.837E-03,   130.381E-03,            0.,NA,NA,"",   1.09322E+06,   1.17545E+06,   1.17545E+06
C:/temp/Job-1.odb,Step-1,Increment      1: Step Time =    1.000,"P-1-1",          8371,   131.344E-03,   106.909E-03,            0.,NA,NA,"",   782.826E+03,   771.327E+03,   771.327E+03
C:/temp/Job-1.odb,Step-1,Increment      1: Step Time =    1.000,"P-1-1",          8372,   74.0133E-03,   82.8101E-03,            0.,NA,NA,"",   1.09809E+06,   1.04281E+06,   1.04281E+06
C:/temp/Job-1.odb,Step-1,Increment      1: Step Time =    1.000,"P-1-1",          8373,   18.9342E-03,   40.5215E-03,            0.,NA,NA,"",   959.774E+03,   1.02966E+06,   1.02966E+06
C:/temp/Job-1.odb,Step-1,Increment      1: Step Time =    1.000,"P-1-1",          8374,   181.126E-03,   159.814E-03,            0.,NA,NA,"",   1.00703E+06,   1.00709E+06,   1.00709E+06
C:/temp/Job-1.odb,Step-1,Increment      1: Step Time =    1.000,"P-1-1",          8375,   160.724E-03,   17.4891E-03,            0.,NA,NA,"",   1.00588E+06,   1.00370E+06,   1.00370E+06
C:/temp/Job-1.odb,Step-1,Increment      1: Step Time =    1.000,"P-1-1",          8376,   181.586E-03,   74.5864E-03,            0.,NA,NA,"",   986.391E+03,   998.068E+03,   998.068E+03
C:/temp/Job-1.odb,Step-1,Increment      1: Step Time =    1.000,"P-1-1",          8377,   76.5692E-03,   17.8692E-03,            0.,NA,NA,"",   995.357E+03,   997.695E+03,   997.695E+03
C:/temp/Job-1.odb,Step-1,Increment      1: Step Time =    1.000,"P-1-1",          8378,   157.045E-03,   17.8932E-03,            0.,NA,NA,"",   1.00662E+06,   1.00407E+06,   1.00407E+06
C:/temp/Job-1.odb,Step-1,Increment      1: Step Time =    1.000,"P-1-1",          8379,   181.732E-03,   157.622E-03,            0.,NA,NA,"",   1.00645E+06,   1.00698E+06,   1.00698E+06
C:/temp/Job-1.odb,Step-1,Increment      1: Step Time =    1.000,"P-1-1",          8380,   18.5240E-03,   42.6295E-03,            0.,NA,NA,"",   949.149E+03,   1.02164E+06,   1.02164E+06
C:/temp/Job-1.odb,Step-1,Increment      1: Step Time =    1.000,"P-1-1",          8381,   39.7419E-03,   181.610E-03,            0.,NA,NA,"",   1.04667E+06,   1.05474E+06,   1.05474E+06
C:/temp/Job-1.odb,Step-1,Increment      1: Step Time =    1.000,"P-1-1",          8382,   124.564E-03,   181.269E-03,            0.,NA,NA,"",   994.477E+03,   994.967E+03,   994.967E+03
C:/temp/Job-1.odb,Step-1,Increment      1: Step Time =    1.000,"P-1-1",          8383,   18.4711E-03,   125.066E-03,            0.,NA,NA,"",   842.762E+03,   928.259E+03,   928.259E+03
C:/temp/Job-1.odb,Step-1,Increment      1: Step Time =    1.000,"P-1-1",          8384,   42.4475E-03,   181.735E-03,            0.,NA,NA,"",   1.04217E+06,   1.04843E+06,   1.04843E+06
C:/temp/Job-1.odb,Step-1,Increment      1: Step Time =    1.000,"P-1-1",          8385,   130.687E-03,   110.774E-03,            0.,NA,NA,"",   903.648E+03,   865.284E+03,   865.284E+03
C:/temp/Job-1.odb,Step-1,Increment      1: Step Time =    1.000,"P-1-1",          8386,   129.273E-03,   99.8987E-03,            0.,NA,NA,"",   607.354E+03,   623.083E+03,   623.083E+03
C:/temp/Job-1.odb,Step-1,Increment      1: Step Time =    1.000,"P-1-1",          8387,   131.421E-03,   103.798E-03,            0.,NA,NA,"",   700.029E+03,   706.981E+03,   706.981E+03
C:/temp/Job-1.odb,Step-1,Increment      1: Step Time =    1.000,"P-1-1",          8388,   176.835E-03,   182.423E-03,            0.,NA,NA,"",   1.00288E+06,   1.00218E+06,   1.00218E+06
C:/temp/Job-1.odb,Step-1,Increment      1: Step Time =    1.000,"P-1-1",          8389,   18.4822E-03,   23.3394E-03,            0.,NA,NA,"",   1.04663E+06,   1.09669E+06,   1.09669E+06
C:/temp/Job-1.odb,Step-1,Increment      1: Step Time =    1.000,"P-1-1",          8390,   23.0565E-03,   17.6773E-03,            0.,NA,NA,"",   1.07736E+06,   1.10449E+06,   1.10449E+06
C:/temp/Job-1.odb,Step-1,Increment      1: Step Time =    1.000,"P-1-1",          8391,   180.835E-03,   177.679E-03,            0.,NA,NA,"",   1.00339E+06,   1.00286E+06,   1.00286E+06
C:/temp/Job-1.odb,Step-1,Increment      1: Step Time =    1.000,"P-1-1",          8392,   176.553E-03,   17.4677E-03,            0.,NA,NA,"",   1.00289E+06,   1.00217E+06,   1.00217E+06
C:/temp/Job-1.odb,Step-1,Increment      1: Step Time =    1.000,"P-1-1",          8393,   181.961E-03,   22.3158E-03,            0.,NA,NA,"",   1.00295E+06,   1.00254E+06,   1.00254E+06
C:/temp/Job-1.odb,Step-1,Increment      1: Step Time =    1.000,"P-1-1",          8394,   22.1195E-03,   181.487E-03,            0.,NA,NA,"",   1.07553E+06,   1.10621E+06,   1.10621E+06
C:/temp/Job-1.odb,Step-1,Increment      1: Step Time =    1.000,"P-1-1",          8395,   16.5691E-03,   177.996E-03,            0.,NA,NA,"",   1.05117E+06,   1.10437E+06,   1.10437E+06
C:/temp/Job-1.odb,Step-1,Increment      1: Step Time =    1.000,"P-1-1",          8396,   92.0337E-03,   17.8075E-03,            0.,NA,NA,"",   980.169E+03,   985.065E+03,   985.065E+03
C:/temp/Job-1.odb,Step-1,Increment      1: Step Time =    1.000,"P-1-1",          8397,   109.264E-03,   18.1101E-03,            0.,NA,NA,"",   980.915E+03,   985.168E+03,   985.168E+03
C:/temp/Job-1.odb,Step-1,Increment      1: Step Time =    1.000,"P-1-1",          8398,   17.0058E-03,   108.189E-03,            0.,NA,NA,"",   805.465E+03,   895.428E+03,   895.428E+03
C:/temp/Job-1.odb,Step-1,Increment      1: Step Time =    1.000,"P-1-1",          8399,   108.103E-03,   182.263E-03,            0.,NA,NA,"",   979.494E+03,   983.841E+03,   983.841E+03
C:/temp/Job-1.odb,Step-1,Increment      1: Step Time =    1.000,"P-1-1",          8400,   17.2202E-03,   91.8005E-03,            0.,NA,NA,"",   805.876E+03,   895.603E+03,   895.603E+03
C:/temp/Job-1.odb,Step-1,Increment      1: Step Time =    1.000,"P-1-1",          8401,   181.307E-03,   107.957E-03,            0.,NA,NA,"",   968.129E+03,   986.717E+03,   986.717E+03
C:/temp/Job-1.odb,Step-1,Increment      1: Step Time =    1.000,"P-1-1",          8402,   92.4552E-03,   180.977E-03,            0.,NA,NA,"",   983.092E+03,   988.708E+03,   988.708E+03
C:/temp/Job-1.odb,Step-1,Increment      1: Step Time =    1.000,"P-1-1",          8403,   147.351E-03,   17.4395E-03,            0.,NA,NA,"",   1.00503E+06,   1.00233E+06,   1.00233E+06
C:/temp/Job-1.odb,Step-1,Increment      1: Step Time =    1.000,"P-1-1",          8404,   181.136E-03,   148.004E-03,            0.,NA,NA,"",   1.00545E+06,   1.00763E+06,   1.00763E+06
C:/temp/Job-1.odb,Step-1,Increment      1: Step Time =    1.000,"P-1-1",          8405,   69.9282E-03,   102.745E-03,            0.,NA,NA,"",   614.591E+03,   650.541E+03,   650.541E+03
C:/temp/Job-1.odb,Step-1,Increment      1: Step Time =    1.000,"P-1-1",          8406,   181.444E-03,   90.5014E-03,            0.,NA,NA,"",   969.289E+03,   987.614E+03,   987.614E+03
C:/temp/Job-1.odb,Step-1,Increment      1: Step Time =    1.000,"P-1-1",          8407,   17.0907E-03,   52.0105E-03,            0.,NA,NA,"",   908.936E+03,   989.373E+03,   989.373E+03
C:/temp/Job-1.odb,Step-1,Increment      1: Step Time =    1.000,"P-1-1",          8408,   182.090E-03,   52.2252E-03,            0.,NA,NA,"",   1.00420E+06,   1.00693E+06,   1.00693E+06
C:/temp/Job-1.odb,Step-1,Increment      1: Step Time =    1.000,"P-1-1",          8409,   52.1506E-03,   182.754E-03,            0.,NA,NA,"",   1.02535E+06,   1.02753E+06,   1.02753E+06
C:/temp/Job-1.odb,Step-1,Increment      1: Step Time =    1.000,"P-1-1",          8410,   51.8921E-03,   18.3076E-03,            0.,NA,NA,"",   1.02854E+06,   1.03112E+06,   1.03112E+06
C:/temp/Job-1.odb,Step-1,Increment      1: Step Time =    1.000,"P-1-1",          8411,   146.753E-03,   182.262E-03,            0.,NA,NA,"",   1.00544E+06,   1.00268E+06,   1.00268E+06
C:/temp/Job-1.odb,Step-1,Increment      1: Step Time =    1.000,"P-1-1",          8412,   182.351E-03,   65.7317E-03,            0.,NA,NA,"",   995.144E+03,   1.00309E+06,   1.00309E+06
C:/temp/Job-1.odb,Step-1,Increment      1: Step Time =    1.000,"P-1-1",          8413,   17.3414E-03,   147.952E-03,            0.,NA,NA,"",   910.301E+03,   990.060E+03,   990.060E+03
C:/temp/Job-1.odb,Step-1,Increment      1: Step Time =    1.000,"P-1-1",          8414,   65.9246E-03,   19.5905E-03,            0.,NA,NA,"",   1.01384E+06,   1.01527E+06,   1.01527E+06
C:/temp/Job-1.odb,Step-1,Increment      1: Step Time =    1.000,"P-1-1",          8415,   134.022E-03,   182.670E-03,            0.,NA,NA,"",   998.622E+03,   997.113E+03,   997.113E+03
C:/temp/Job-1.odb,Step-1,Increment      1: Step Time =    1.000,"P-1-1",          8416,   18.6168E-03,   134.421E-03,            0.,NA,NA,"",   870.836E+03,   953.465E+03,   953.465E+03
C:/temp/Job-1.odb,Step-1,Increment      1: Step Time =    1.000,"P-1-1",          8417,   42.7243E-03,   17.5326E-03,            0.,NA,NA,"",   1.04057E+06,   1.04620E+06,   1.04620E+06
C:/temp/Job-1.odb,Step-1,Increment      1: Step Time =    1.000,"P-1-1",          8418,   127.957E-03,   18.8639E-03,            0.,NA,NA,"",   997.695E+03,   997.287E+03,   997.287E+03
C:/temp/Job-1.odb,Step-1,Increment      1: Step Time =    1.000,"P-1-1",          8419,   17.3985E-03,   157.364E-03,            0.,NA,NA,"",   945.235E+03,   1.01999E+06,   1.01999E+06
C:/temp/Job-1.odb,Step-1,Increment      1: Step Time =    1.000,"P-1-1",          8420,   180.952E-03,   127.248E-03,            0.,NA,NA,"",   988.945E+03,   999.234E+03,   999.234E+03
C:/temp/Job-1.odb,Step-1,Increment      1: Step Time =    1.000,"P-1-1",          8421,   17.6963E-03,   72.6442E-03,            0.,NA,NA,"",   846.833E+03,   932.751E+03,   932.751E+03
C:/temp/Job-1.odb,Step-1,Increment      1: Step Time =    1.000,"P-1-1",          8422,   71.9771E-03,   107.668E-03,            0.,NA,NA,"",   759.983E+03,   755.706E+03,   755.706E+03
C:/temp/Job-1.odb,Step-1,Increment      1: Step Time =    1.000,"P-1-1",          8423,   97.5896E-03,   129.840E-03,            0.,NA,NA,"",   1.08916E+06,   1.17965E+06,   1.17965E+06
C:/temp/Job-1.odb,Step-1,Increment      1: Step Time =    1.000,"P-1-1",          8424,   159.720E-03,   182.100E-03,            0.,NA,NA,"",   1.00652E+06,   1.00416E+06,   1.00416E+06
C:/temp/Job-1.odb,Step-1,Increment      1: Step Time =    1.000,"P-1-1",          8425,   39.9799E-03,   18.0415E-03,            0.,NA,NA,"",   1.04593E+06,   1.05357E+06,   1.05357E+06
C:/temp/Job-1.odb,Step-1,Increment      1: Step Time =    1.000,"P-1-1",          8426,   182.298E-03,   40.3532E-03,            0.,NA,NA,"",   1.00593E+06,   1.00636E+06,   1.00636E+06
C:/temp/Job-1.odb,Step-1,Increment      1: Step Time =    1.000,"P-1-1",          8427,   124.761E-03,   18.0011E-03,            0.,NA,NA,"",   992.814E+03,   993.231E+03,   993.231E+03
C:/temp/Job-1.odb,Step-1,Increment      1: Step Time =    1.000,"P-1-1",          8428,   182.054E-03,   125.337E-03,            0.,NA,NA,"",   986.106E+03,   998.165E+03,   998.165E+03
C:/temp/Job-1.odb,Step-1,Increment      1: Step Time =    1.000,"P-1-1",          8429,   18.5583E-03,   159.048E-03,            0.,NA,NA,"",   956.345E+03,   1.02742E+06,   1.02742E+06
C:/temp/Job-1.odb,Step-1,Increment      1: Step Time =    1.000,"P-1-1",          8430,   18.3335E-03,   74.2388E-03,            0.,NA,NA,"",   844.038E+03,   929.627E+03,   929.627E+03
C:/temp/Job-1.odb,Step-1,Increment      1: Step Time =    1.000,"P-1-1",          8431,   75.1128E-03,   183.177E-03,            0.,NA,NA,"",   993.760E+03,   995.643E+03,   995.643E+03
C:/temp/Job-1.odb,Step-1,Increment      1: Step Time =    1.000,"P-1-1",          8432,   88.9286E-03,   129.520E-03,            0.,NA,NA,"",   1.17108E+06,   1.20918E+06,   1.20918E+06
C:/temp/Job-1.odb,Step-1,Increment      1: Step Time =    1.000,"P-1-1",          8433,   167.262E-03,   181.646E-03,            0.,NA,NA,"",   1.00567E+06,   1.00393E+06,   1.00393E+06
C:/temp/Job-1.odb,Step-1,Increment      1: Step Time =    1.000,"P-1-1",          8434,   33.5522E-03,   18.0783E-03,            0.,NA,NA,"",   1.05758E+06,   1.07042E+06,   1.07042E+06
C:/temp/Job-1.odb,Step-1,Increment      1: Step Time =    1.000,"P-1-1",          8435,   181.354E-03,   33.3766E-03,            0.,NA,NA,"",   1.00600E+06,   1.00559E+06,   1.00559E+06
C:/temp/Job-1.odb,Step-1,Increment      1: Step Time =    1.000,"P-1-1",          8436,   63.1325E-03,   18.0668E-03,            0.,NA,NA,"",   1.01294E+06,   1.01399E+06,   1.01399E+06
C:/temp/Job-1.odb,Step-1,Increment      1: Step Time =    1.000,"P-1-1",          8437,   17.8816E-03,   166.827E-03,            0.,NA,NA,"",   988.457E+03,   1.05450E+06,   1.05450E+06
C:/temp/Job-1.odb,Step-1,Increment      1: Step Time =    1.000,"P-1-1",          8438,   136.736E-03,   182.306E-03,            0.,NA,NA,"",   1.00105E+06,   999.085E+03,   999.085E+03
C:/temp/Job-1.odb,Step-1,Increment      1: Step Time =    1.000,"P-1-1",          8439,   164.045E-03,   182.004E-03,            0.,NA,NA,"",   1.00609E+06,   1.00407E+06,   1.00407E+06
C:/temp/Job-1.odb,Step-1,Increment      1: Step Time =    1.000,"P-1-1",          8440,   34.9936E-03,   19.0034E-03,            0.,NA,NA,"",   1.05473E+06,   1.06723E+06,   1.06723E+06
C:/temp/Job-1.odb,Step-1,Increment      1: Step Time =    1.000,"P-1-1",          8441,   181.733E-03,   36.5820E-03,            0.,NA,NA,"",   1.00616E+06,   1.00606E+06,   1.00606E+06
C:/temp/Job-1.odb,Step-1,Increment      1: Step Time =    1.000,"P-1-1",          8442,   150.414E-03,   17.9509E-03,            0.,NA,NA,"",   1.00654E+06,   1.00370E+06,   1.00370E+06
C:/temp/Job-1.odb,Step-1,Increment      1: Step Time =    1.000,"P-1-1",          8443,   182.625E-03,   151.520E-03,            0.,NA,NA,"",   1.00464E+06,   1.00670E+06,   1.00670E+06
C:/temp/Job-1.odb,Step-1,Increment      1: Step Time =    1.000,"P-1-1",          8444,   120.072E-03,   18.6095E-03,            0.,NA,NA,"",   990.253E+03,   992.027E+03,   992.027E+03
C:/temp/Job-1.odb,Step-1,Increment      1: Step Time =    1.000,"P-1-1",          8445,   17.9144E-03,   48.9929E-03,            0.,NA,NA,"",   923.534E+03,   1.00071E+06,   1.00071E+06
C:/temp/Job-1.odb,Step-1,Increment      1: Step Time =    1.000,"P-1-1",          8446,   18.3431E-03,   163.772E-03,            0.,NA,NA,"",   976.031E+03,   1.04379E+06,   1.04379E+06
C:/temp/Job-1.odb,Step-1,Increment      1: Step Time =    1.000,"P-1-1",          8447,   49.0463E-03,   181.788E-03,            0.,NA,NA,"",   1.03226E+06,   1.03564E+06,   1.03564E+06
C:/temp/Job-1.odb,Step-1,Increment      1: Step Time =    1.000,"P-1-1",          8448,   17.8953E-03,   78.3606E-03,            0.,NA,NA,"",   832.222E+03,   919.281E+03,   919.281E+03
C:/temp/Job-1.odb,Step-1,Increment      1: Step Time =    1.000,"P-1-1",          8449,   181.688E-03,   120.753E-03,            0.,NA,NA,"",   980.884E+03,   994.868E+03,   994.868E+03
C:/temp/Job-1.odb,Step-1,Increment      1: Step Time =    1.000,"P-1-1",          8450,   79.2056E-03,   181.631E-03,            0.,NA,NA,"",   993.424E+03,   996.417E+03,   996.417E+03
C:/temp/Job-1.odb,Step-1,Increment      1: Step Time =    1.000,"P-1-1",          8451,   17.2779E-03,   36.4790E-03,            0.,NA,NA,"",   970.688E+03,   1.04118E+06,   1.04118E+06
C:/temp/Job-1.odb,Step-1,Increment      1: Step Time =    1.000,"P-1-1",          8452,   135.222E-03,   18.0868E-03,            0.,NA,NA,"",   1.00107E+06,   999.251E+03,   999.251E+03
C:/temp/Job-1.odb,Step-1,Increment      1: Step Time =    1.000,"P-1-1",          8453,   181.627E-03,   134.785E-03,            0.,NA,NA,"",   996.343E+03,   1.00359E+06,   1.00359E+06
C:/temp/Job-1.odb,Step-1,Increment      1: Step Time =    1.000,"P-1-1",          8454,   182.200E-03,   163.573E-03,            0.,NA,NA,"",   1.00572E+06,   1.00576E+06,   1.00576E+06
C:/temp/Job-1.odb,Step-1,Increment      1: Step Time =    1.000,"P-1-1",          8455,   17.3271E-03,   64.9717E-03,            0.,NA,NA,"",   868.125E+03,   952.467E+03,   952.467E+03
C:/temp/Job-1.odb,Step-1,Increment      1: Step Time =    1.000,"P-1-1",          8456,   181.965E-03,   78.6921E-03,            0.,NA,NA,"",   981.472E+03,   995.417E+03,   995.417E+03
C:/temp/Job-1.odb,Step-1,Increment      1: Step Time =    1.000,"P-1-1",          8457,   66.2090E-03,   181.051E-03,            0.,NA,NA,"",   1.01160E+06,   1.01295E+06,   1.01295E+06
C:/temp/Job-1.odb,Step-1,Increment      1: Step Time =    1.000,"P-1-1",          8458,   162.900E-03,   17.7415E-03,            0.,NA,NA,"",   1.00590E+06,   1.00385E+06,   1.00385E+06
C:/temp/Job-1.odb,Step-1,Increment      1: Step Time =    1.000,"P-1-1",          8459,   35.4253E-03,   182.341E-03,            0.,NA,NA,"",   1.05348E+06,   1.06421E+06,   1.06421E+06
C:/temp/Job-1.odb,Step-1,Increment      1: Step Time =    1.000,"P-1-1",          8460,   79.1593E-03,   17.7991E-03,            0.,NA,NA,"",   992.315E+03,   995.133E+03,   995.133E+03
C:/temp/Job-1.odb,Step-1,Increment      1: Step Time =    1.000,"P-1-1",          8461,   120.914E-03,   181.961E-03,            0.,NA,NA,"",   989.672E+03,   991.119E+03,   991.119E+03
C:/temp/Job-1.odb,Step-1,Increment      1: Step Time =    1.000,"P-1-1",          8462,   17.6762E-03,   120.812E-03,            0.,NA,NA,"",   829.614E+03,   917.105E+03,   917.105E+03
C:/temp/Job-1.odb,Step-1,Increment      1: Step Time =    1.000,"P-1-1",          8463,   173.762E-03,   182.107E-03,            0.,NA,NA,"",   1.00381E+06,   1.00279E+06,   1.00279E+06
C:/temp/Job-1.odb,Step-1,Increment      1: Step Time =    1.000,"P-1-1",          8464,   18.1417E-03,   32.6728E-03,            0.,NA,NA,"",   991.801E+03,   1.05648E+06,   1.05648E+06
C:/temp/Job-1.odb,Step-1,Increment      1: Step Time =    1.000,"P-1-1",          8465,   24.9121E-03,   16.7593E-03,            0.,NA,NA,"",   1.07762E+06,   1.09957E+06,   1.09957E+06
C:/temp/Job-1.odb,Step-1,Increment      1: Step Time =    1.000,"P-1-1",          8466,   138.498E-03,   18.4279E-03,            0.,NA,NA,"",   1.00365E+06,   1.00129E+06,   1.00129E+06
C:/temp/Job-1.odb,Step-1,Increment      1: Step Time =    1.000,"P-1-1",          8467,   181.187E-03,   167.046E-03,            0.,NA,NA,"",   1.00600E+06,   1.00555E+06,   1.00555E+06
C:/temp/Job-1.odb,Step-1,Increment      1: Step Time =    1.000,"P-1-1",          8468,   181.001E-03,   137.419E-03,            0.,NA,NA,"",   999.290E+03,   1.00496E+06,   1.00496E+06
C:/temp/Job-1.odb,Step-1,Increment      1: Step Time =    1.000,"P-1-1",          8469,   182.559E-03,   82.9634E-03,            0.,NA,NA,"",   976.604E+03,   992.963E+03,   992.963E+03
C:/temp/Job-1.odb,Step-1,Increment      1: Step Time =    1.000,"P-1-1",          8470,   167.995E-03,   17.9287E-03,            0.,NA,NA,"",   1.00511E+06,   1.00351E+06,   1.00351E+06
C:/temp/Job-1.odb,Step-1,Increment      1: Step Time =    1.000,"P-1-1",          8471,   17.7519E-03,   61.0348E-03,            0.,NA,NA,"",   881.771E+03,   964.263E+03,   964.263E+03
C:/temp/Job-1.odb,Step-1,Increment      1: Step Time =    1.000,"P-1-1",          8472,   62.1894E-03,   182.366E-03,            0.,NA,NA,"",   1.01285E+06,   1.01387E+06,   1.01387E+06
C:/temp/Job-1.odb,Step-1,Increment      1: Step Time =    1.000,"P-1-1",          8473,   182.719E-03,   25.6387E-03,            0.,NA,NA,"",   1.00350E+06,   1.00315E+06,   1.00315E+06
C:/temp/Job-1.odb,Step-1,Increment      1: Step Time =    1.000,"P-1-1",          8474,   82.1945E-03,   16.9226E-03,            0.,NA,NA,"",   985.963E+03,   989.029E+03,   989.029E+03
C:/temp/Job-1.odb,Step-1,Increment      1: Step Time =    1.000,"P-1-1",          8475,   32.5546E-03,   182.994E-03,            0.,NA,NA,"",   1.05934E+06,   1.07174E+06,   1.07174E+06
C:/temp/Job-1.odb,Step-1,Increment      1: Step Time =    1.000,"P-1-1",          8476,   16.9022E-03,   175.365E-03,            0.,NA,NA,"",   1.03436E+06,   1.09136E+06,   1.09136E+06
C:/temp/Job-1.odb,Step-1,Increment      1: Step Time =    1.000,"P-1-1",          8477,   118.505E-03,   182.347E-03,            0.,NA,NA,"",   986.511E+03,   988.535E+03,   988.535E+03
C:/temp/Job-1.odb,Step-1,Increment      1: Step Time =    1.000,"P-1-1",          8478,   111.094E-03,   17.2717E-03,            0.,NA,NA,"",   980.064E+03,   983.689E+03,   983.689E+03
C:/temp/Job-1.odb,Step-1,Increment      1: Step Time =    1.000,"P-1-1",          8479,   18.2833E-03,   117.486E-03,            0.,NA,NA,"",   823.477E+03,   910.904E+03,   910.904E+03
C:/temp/Job-1.odb,Step-1,Increment      1: Step Time =    1.000,"P-1-1",          8480,   18.5643E-03,   88.8679E-03,            0.,NA,NA,"",   811.986E+03,   900.153E+03,   900.153E+03
C:/temp/Job-1.odb,Step-1,Increment      1: Step Time =    1.000,"P-1-1",          8481,   182.650E-03,   111.740E-03,            0.,NA,NA,"",   971.625E+03,   990.182E+03,   990.182E+03
C:/temp/Job-1.odb,Step-1,Increment      1: Step Time =    1.000,"P-1-1",          8482,   88.4805E-03,   182.151E-03,            0.,NA,NA,"",   982.653E+03,   987.176E+03,   987.176E+03
C:/temp/Job-1.odb,Step-1,Increment      1: Step Time =    1.000,"P-1-1",          8483,   181.879E-03,   55.1770E-03,            0.,NA,NA,"",   1.00318E+06,   1.00669E+06,   1.00669E+06
C:/temp/Job-1.odb,Step-1,Increment      1: Step Time =    1.000,"P-1-1",          8484,   54.3679E-03,   17.4866E-03,            0.,NA,NA,"",   1.02317E+06,   1.02494E+06,   1.02494E+06
C:/temp/Job-1.odb,Step-1,Increment      1: Step Time =    1.000,"P-1-1",          8485,   144.777E-03,   181.818E-03,            0.,NA,NA,"",   1.00567E+06,   1.00286E+06,   1.00286E+06
C:/temp/Job-1.odb,Step-1,Increment      1: Step Time =    1.000,"P-1-1",          8486,   17.4591E-03,   144.937E-03,            0.,NA,NA,"",   900.329E+03,   981.249E+03,   981.249E+03
C:/temp/Job-1.odb,Step-1,Increment      1: Step Time =    1.000,"P-1-1",          8487,   92.0222E-03,   129.836E-03,            0.,NA,NA,"",   1.13702E+06,   1.19821E+06,   1.19821E+06
C:/temp/Job-1.odb,Step-1,Increment      1: Step Time =    1.000,"P-1-1",          8488,   109.785E-03,   130.064E-03,            0.,NA,NA,"",   1.15553E+06,   1.19889E+06,   1.19889E+06
C:/temp/Job-1.odb,Step-1,Increment      1: Step Time =    1.000,"P-1-1",          8489,   98.3669E-03,   18.3474E-03,            0.,NA,NA,"",   979.242E+03,   984.757E+03,   984.757E+03
C:/temp/Job-1.odb,Step-1,Increment      1: Step Time =    1.000,"P-1-1",          8490,   18.6711E-03,   102.455E-03,            0.,NA,NA,"",   803.869E+03,   892.660E+03,   892.660E+03
C:/temp/Job-1.odb,Step-1,Increment      1: Step Time =    1.000,"P-1-1",          8491,   101.600E-03,   182.623E-03,            0.,NA,NA,"",   976.748E+03,   981.594E+03,   981.594E+03
C:/temp/Job-1.odb,Step-1,Increment      1: Step Time =    1.000,"P-1-1",          8492,   183.005E-03,   99.0866E-03,            0.,NA,NA,"",   966.742E+03,   987.610E+03,   987.610E+03
C:/temp/Job-1.odb,Step-1,Increment      1: Step Time =    1.000,"P-1-1",          8493,   181.624E-03,   72.4462E-03,            0.,NA,NA,"",   988.923E+03,   999.530E+03,   999.530E+03
C:/temp/Job-1.odb,Step-1,Increment      1: Step Time =    1.000,"P-1-1",          8494,   72.9369E-03,   18.0408E-03,            0.,NA,NA,"",   1.00016E+06,   1.00204E+06,   1.00204E+06
C:/temp/Job-1.odb,Step-1,Increment      1: Step Time =    1.000,"P-1-1",          8495,   127.478E-03,   181.038E-03,            0.,NA,NA,"",   997.459E+03,   997.160E+03,   997.160E+03
C:/temp/Job-1.odb,Step-1,Increment      1: Step Time =    1.000,"P-1-1",          8496,   17.7177E-03,   128.625E-03,            0.,NA,NA,"",   850.725E+03,   936.181E+03,   936.181E+03
C:/temp/Job-1.odb,Step-1,Increment      1: Step Time =    1.000,"P-1-1",          8497,   179.136E-03,   182.044E-03,            0.,NA,NA,"",   1.00253E+06,   1.00199E+06,   1.00199E+06
C:/temp/Job-1.odb,Step-1,Increment      1: Step Time =    1.000,"P-1-1",          8498,   155.098E-03,   18.6605E-03,            0.,NA,NA,"",   1.00775E+06,   1.00490E+06,   1.00490E+06
C:/temp/Job-1.odb,Step-1,Increment      1: Step Time =    1.000,"P-1-1",          8499,   182.060E-03,   155.504E-03,            0.,NA,NA,"",   1.00593E+06,   1.00695E+06,   1.00695E+06
C:/temp/Job-1.odb,Step-1,Increment      1: Step Time =    1.000,"P-1-1",          8500,   18.1685E-03,   45.6899E-03,            0.,NA,NA,"",   935.383E+03,   1.01073E+06,   1.01073E+06
C:/temp/Job-1.odb,Step-1,Increment      1: Step Time =    1.000,"P-1-1",          8501,   45.0687E-03,   181.878E-03,            0.,NA,NA,"",   1.03782E+06,   1.04273E+06,   1.04273E+06
C:/temp/Job-1.odb,Step-1,Increment      1: Step Time =    1.000,"P-1-1",          8502,   181.951E-03,   20.5634E-03,            0.,NA,NA,"",   1.00257E+06,   1.00217E+06,   1.00217E+06
C:/temp/Job-1.odb,Step-1,Increment      1: Step Time =    1.000,"P-1-1",          8503,   16.6103E-03,   180.696E-03,            0.,NA,NA,"",   1.07098E+06,   1.11833E+06,   1.11833E+06
C:/temp/Job-1.odb,Step-1,Increment      1: Step Time =    1.000,"P-1-1",          8504,   106.247E-03,   17.9151E-03,            0.,NA,NA,"",   979.094E+03,   983.784E+03,   983.784E+03
C:/temp/Job-1.odb,Step-1,Increment      1: Step Time =    1.000,"P-1-1",          8505,   18.1224E-03,   94.1573E-03,            0.,NA,NA,"",   805.073E+03,   894.170E+03,   894.170E+03
C:/temp/Job-1.odb,Step-1,Increment      1: Step Time =    1.000,"P-1-1",          8506,   182.110E-03,   105.936E-03,            0.,NA,NA,"",   967.337E+03,   986.957E+03,   986.957E+03
C:/temp/Job-1.odb,Step-1,Increment      1: Step Time =    1.000,"P-1-1",          8507,   94.3892E-03,   181.821E-03,            0.,NA,NA,"",   980.083E+03,   985.438E+03,   985.438E+03
C:/temp/Job-1.odb,Step-1,Increment      1: Step Time =    1.000,"P-1-1",          8508,   182.577E-03,   49.7650E-03,            0.,NA,NA,"",   1.00432E+06,   1.00668E+06,   1.00668E+06
C:/temp/Job-1.odb,Step-1,Increment      1: Step Time =    1.000,"P-1-1",          8509,   49.9428E-03,   17.7466E-03,            0.,NA,NA,"",   1.02994E+06,   1.03286E+06,   1.03286E+06
C:/temp/Job-1.odb,Step-1,Increment      1: Step Time =    1.000,"P-1-1",          8510,   149.749E-03,   182.057E-03,            0.,NA,NA,"",   1.00644E+06,   1.00359E+06,   1.00359E+06
C:/temp/Job-1.odb,Step-1,Increment      1: Step Time =    1.000,"P-1-1",          8511,   17.5827E-03,   150.509E-03,            0.,NA,NA,"",   920.162E+03,   998.321E+03,   998.321E+03
C:/temp/Job-1.odb,Step-1,Increment      1: Step Time =    1.000,"P-1-1",          8512,   17.6474E-03,   29.2682E-03,            0.,NA,NA,"",   1.00851E+06,   1.07042E+06,   1.07042E+06
C:/temp/Job-1.odb,Step-1,Increment      1: Step Time =    1.000,"P-1-1",          8513,   181.916E-03,   170.735E-03,            0.,NA,NA,"",   1.00471E+06,   1.00431E+06,   1.00431E+06
C:/temp/Job-1.odb,Step-1,Increment      1: Step Time =    1.000,"P-1-1",          8514,   182.416E-03,   85.1772E-03,            0.,NA,NA,"",   974.421E+03,   991.654E+03,   991.654E+03
C:/temp/Job-1.odb,Step-1,Increment      1: Step Time =    1.000,"P-1-1",          8515,   140.625E-03,   16.8999E-03,            0.,NA,NA,"",   1.00138E+06,   999.158E+03,   999.158E+03
C:/temp/Job-1.odb,Step-1,Increment      1: Step Time =    1.000,"P-1-1",          8516,   170.678E-03,   17.8804E-03,            0.,NA,NA,"",   1.00451E+06,   1.00319E+06,   1.00319E+06
C:/temp/Job-1.odb,Step-1,Increment      1: Step Time =    1.000,"P-1-1",          8517,   181.366E-03,   139.943E-03,            0.,NA,NA,"",   1.00075E+06,   1.00572E+06,   1.00572E+06
C:/temp/Job-1.odb,Step-1,Increment      1: Step Time =    1.000,"P-1-1",          8518,   17.7871E-03,   58.1588E-03,            0.,NA,NA,"",   891.542E+03,   972.994E+03,   972.994E+03
C:/temp/Job-1.odb,Step-1,Increment      1: Step Time =    1.000,"P-1-1",          8519,   58.9336E-03,   182.267E-03,            0.,NA,NA,"",   1.01716E+06,   1.01831E+06,   1.01831E+06
C:/temp/Job-1.odb,Step-1,Increment      1: Step Time =    1.000,"P-1-1",          8520,   29.8342E-03,   182.072E-03,            0.,NA,NA,"",   1.06494E+06,   1.08148E+06,   1.08148E+06
C:/temp/Job-1.odb,Step-1,Increment      1: Step Time =    1.000,"P-1-1",          8521,   86.1486E-03,   18.1016E-03,            0.,NA,NA,"",   985.480E+03,   989.699E+03,   989.699E+03
C:/temp/Job-1.odb,Step-1,Increment      1: Step Time =    1.000,"P-1-1",          8522,   114.271E-03,   16.5499E-03,            0.,NA,NA,"",   980.361E+03,   983.007E+03,   983.007E+03
C:/temp/Job-1.odb,Step-1,Increment      1: Step Time =    1.000,"P-1-1",          8523,   114.407E-03,   182.282E-03,            0.,NA,NA,"",   983.520E+03,   986.514E+03,   986.514E+03
C:/temp/Job-1.odb,Step-1,Increment      1: Step Time =    1.000,"P-1-1",          8524,   18.0379E-03,   114.163E-03,            0.,NA,NA,"",   815.997E+03,   904.312E+03,   904.312E+03
C:/temp/Job-1.odb,Step-1,Increment      1: Step Time =    1.000,"P-1-1",          8525,   182.549E-03,   113.994E-03,            0.,NA,NA,"",   973.507E+03,   991.198E+03,   991.198E+03
C:/temp/Job-1.odb,Step-1,Increment      1: Step Time =    1.000,"P-1-1",          8526,   18.8502E-03,   83.9323E-03,            0.,NA,NA,"",   821.393E+03,   908.563E+03,   908.563E+03
C:/temp/Job-1.odb,Step-1,Increment      1: Step Time =    1.000,"P-1-1",          8527,   85.5505E-03,   182.626E-03,            0.,NA,NA,"",   983.965E+03,   987.782E+03,   987.782E+03
C:/temp/Job-1.odb,Step-1,Increment      1: Step Time =    1.000,"P-1-1",          8528,   93.7966E-03,   129.735E-03,            0.,NA,NA,"",   1.12078E+06,   1.19442E+06,   1.19442E+06
C:/temp/Job-1.odb,Step-1,Increment      1: Step Time =    1.000,"P-1-1",          8529,   129.386E-03,   114.197E-03,            0.,NA,NA,"",   1.02021E+06,   958.240E+03,   958.240E+03
C:/temp/Job-1.odb,Step-1,Increment      1: Step Time =    1.000,"P-1-1",          8530,   114.183E-03,   129.409E-03,            0.,NA,NA,"",   1.20245E+06,   1.20738E+06,   1.20738E+06
C:/temp/Job-1.odb,Step-1,Increment      1: Step Time =    1.000,"P-1-1",          8531,   85.3870E-03,   128.835E-03,            0.,NA,NA,"",   1.20373E+06,   1.21251E+06,   1.21251E+06
C:/temp/Job-1.odb,Step-1,Increment      1: Step Time =    1.000,"P-1-1",          8532,   86.8930E-03,   82.4645E-03,            0.,NA,NA,"",   1.37288E+06,   1.32676E+06,   1.32676E+06
C:/temp/Job-1.odb,Step-1,Increment      1: Step Time =    1.000,"P-1-1",          8533,   70.3769E-03,   110.223E-03,            0.,NA,NA,"",   848.217E+03,   838.614E+03,   838.614E+03
C:/temp/Job-1.odb,Step-1,Increment      1: Step Time =    1.000,"P-1-1",          8534,   82.0927E-03,   126.035E-03,            0.,NA,NA,"",   1.23729E+06,   1.21374E+06,   1.21374E+06
C:/temp/Job-1.odb,Step-1,Increment      1: Step Time =    1.000,"P-1-1",          8535,   100.868E-03,   129.635E-03,            0.,NA,NA,"",   1.08514E+06,   1.17900E+06,   1.17900E+06
C:/temp/Job-1.odb,Step-1,Increment      1: Step Time =    1.000,"P-1-1",          8536,   73.7390E-03,   84.9885E-03,            0.,NA,NA,"",   1.04660E+06,   992.937E+03,   992.937E+03
C:/temp/Job-1.odb,Step-1,Increment      1: Step Time =    1.000,"P-1-1",          8537,   75.7985E-03,   119.345E-03,            0.,NA,NA,"",   1.16269E+06,   1.10195E+06,   1.10195E+06
C:/temp/Job-1.odb,Step-1,Increment      1: Step Time =    1.000,"P-1-1",          8538,   130.510E-03,   113.192E-03,            0.,NA,NA,"",   980.373E+03,   928.694E+03,   928.694E+03
C:/temp/Job-1.odb,Step-1,Increment      1: Step Time =    1.000,"P-1-1",          8539,   71.1604E-03,   113.271E-03,            0.,NA,NA,"",   953.911E+03,   924.030E+03,   924.030E+03
C:/temp/Job-1.odb,Step-1,Increment      1: Step Time =    1.000,"P-1-1",          8540,   118.499E-03,   125.429E-03,            0.,NA,NA,"",   1.26018E+06,   1.21513E+06,   1.21513E+06
C:/temp/Job-1.odb,Step-1,Increment      1: Step Time =    1.000,"P-1-1",          8541,   16.9911E-03,   160.391E-03,            0.,NA,NA,"",   955.205E+03,   1.02904E+06,   1.02904E+06
C:/temp/Job-1.odb,Step-1,Increment      1: Step Time =    1.000,"P-1-1",          8542,   17.7936E-03,   75.3845E-03,            0.,NA,NA,"",   839.442E+03,   925.973E+03,   925.973E+03
C:/temp/Job-1.odb,Step-1,Increment      1: Step Time =    1.000,"P-1-1",          8543,   46.3681E-03,   181.938E-03,            0.,NA,NA,"",   1.03578E+06,   1.04011E+06,   1.04011E+06
C:/temp/Job-1.odb,Step-1,Increment      1: Step Time =    1.000,"P-1-1",          8544,   38.3185E-03,   17.3464E-03,            0.,NA,NA,"",   1.04817E+06,   1.05637E+06,   1.05637E+06
C:/temp/Job-1.odb,Step-1,Increment      1: Step Time =    1.000,"P-1-1",          8545,   182.274E-03,   153.846E-03,            0.,NA,NA,"",   1.00545E+06,   1.00688E+06,   1.00688E+06
C:/temp/Job-1.odb,Step-1,Increment      1: Step Time =    1.000,"P-1-1",          8546,   153.794E-03,   18.0451E-03,            0.,NA,NA,"",   1.00691E+06,   1.00414E+06,   1.00414E+06
C:/temp/Job-1.odb,Step-1,Increment      1: Step Time =    1.000,"P-1-1",          8547,   72.8053E-03,   83.4934E-03,            0.,NA,NA,"",   1.06278E+06,   1.01476E+06,   1.01476E+06
C:/temp/Job-1.odb,Step-1,Increment      1: Step Time =    1.000,"P-1-1",          8548,   121.090E-03,   122.766E-03,            0.,NA,NA,"",   1.25908E+06,   1.18736E+06,   1.18736E+06
C:/temp/Job-1.odb,Step-1,Increment      1: Step Time =    1.000,"P-1-1",          8549,   19.0436E-03,   28.6500E-03,            0.,NA,NA,"",   1.01675E+06,   1.07411E+06,   1.07411E+06
C:/temp/Job-1.odb,Step-1,Increment      1: Step Time =    1.000,"P-1-1",          8550,   181.272E-03,   171.700E-03,            0.,NA,NA,"",   1.00488E+06,   1.00436E+06,   1.00436E+06
C:/temp/Job-1.odb,Step-1,Increment      1: Step Time =    1.000,"P-1-1",          8551,   172.127E-03,   19.1347E-03,            0.,NA,NA,"",   1.00495E+06,   1.00363E+06,   1.00363E+06
C:/temp/Job-1.odb,Step-1,Increment      1: Step Time =    1.000,"P-1-1",          8552,   116.266E-03,   17.9483E-03,            0.,NA,NA,"",   985.528E+03,   988.138E+03,   988.138E+03
C:/temp/Job-1.odb,Step-1,Increment      1: Step Time =    1.000,"P-1-1",          8553,   28.1210E-03,   181.001E-03,            0.,NA,NA,"",   1.06612E+06,   1.08675E+06,   1.08675E+06
C:/temp/Job-1.odb,Step-1,Increment      1: Step Time =    1.000,"P-1-1",          8554,   142.316E-03,   18.6013E-03,            0.,NA,NA,"",   1.00554E+06,   1.00278E+06,   1.00278E+06
C:/temp/Job-1.odb,Step-1,Increment      1: Step Time =    1.000,"P-1-1",          8555,   88.5858E-03,   18.4614E-03,            0.,NA,NA,"",   984.559E+03,   989.448E+03,   989.448E+03
C:/temp/Job-1.odb,Step-1,Increment      1: Step Time =    1.000,"P-1-1",          8556,   181.557E-03,   142.948E-03,            0.,NA,NA,"",   1.00251E+06,   1.00647E+06,   1.00647E+06
C:/temp/Job-1.odb,Step-1,Increment      1: Step Time =    1.000,"P-1-1",          8557,   182.747E-03,   115.870E-03,            0.,NA,NA,"",   975.385E+03,   992.441E+03,   992.441E+03
C:/temp/Job-1.odb,Step-1,Increment      1: Step Time =    1.000,"P-1-1",          8558,   18.9474E-03,   82.4822E-03,            0.,NA,NA,"",   824.696E+03,   911.426E+03,   911.426E+03
C:/temp/Job-1.odb,Step-1,Increment      1: Step Time =    1.000,"P-1-1",          8559,   83.9708E-03,   182.590E-03,            0.,NA,NA,"",   985.542E+03,   989.089E+03,   989.089E+03
C:/temp/Job-1.odb,Step-1,Increment      1: Step Time =    1.000,"P-1-1",          8560,   18.9065E-03,   57.6616E-03,            0.,NA,NA,"",   897.130E+03,   976.528E+03,   976.528E+03
C:/temp/Job-1.odb,Step-1,Increment      1: Step Time =    1.000,"P-1-1",          8561,   19.3894E-03,   113.480E-03,            0.,NA,NA,"",   817.515E+03,   904.508E+03,   904.508E+03
C:/temp/Job-1.odb,Step-1,Increment      1: Step Time =    1.000,"P-1-1",          8562,   181.558E-03,   87.2354E-03,            0.,NA,NA,"",   972.225E+03,   989.564E+03,   989.564E+03
C:/temp/Job-1.odb,Step-1,Increment      1: Step Time =    1.000,"P-1-1",          8563,   58.5392E-03,   180.791E-03,            0.,NA,NA,"",   1.02207E+06,   1.02365E+06,   1.02365E+06
C:/temp/Job-1.odb,Step-1,Increment      1: Step Time =    1.000,"P-1-1",          8564,   113.044E-03,   181.966E-03,            0.,NA,NA,"",   983.162E+03,   986.592E+03,   986.592E+03
C:/temp/Job-1.odb,Step-1,Increment      1: Step Time =    1.000,"P-1-1",          8565,   102.682E-03,   19.3573E-03,            0.,NA,NA,"",   981.428E+03,   987.317E+03,   987.317E+03
C:/temp/Job-1.odb,Step-1,Increment      1: Step Time =    1.000,"P-1-1",          8566,   96.9214E-03,   18.6504E-03,            0.,NA,NA,"",   980.273E+03,   985.933E+03,   985.933E+03
C:/temp/Job-1.odb,Step-1,Increment      1: Step Time =    1.000,"P-1-1",          8567,   180.815E-03,   102.801E-03,            0.,NA,NA,"",   965.351E+03,   984.522E+03,   984.522E+03
C:/temp/Job-1.odb,Step-1,Increment      1: Step Time =    1.000,"P-1-1",          8568,   97.4552E-03,   180.614E-03,            0.,NA,NA,"",   981.746E+03,   987.860E+03,   987.860E+03
C:/temp/Job-1.odb,Step-1,Increment      1: Step Time =    1.000,"P-1-1",          8569,   18.9882E-03,   104.438E-03,            0.,NA,NA,"",   805.355E+03,   893.768E+03,   893.768E+03
C:/temp/Job-1.odb,Step-1,Increment      1: Step Time =    1.000,"P-1-1",          8570,   169.896E-03,   181.371E-03,            0.,NA,NA,"",   1.00517E+06,   1.00369E+06,   1.00369E+06
C:/temp/Job-1.odb,Step-1,Increment      1: Step Time =    1.000,"P-1-1",          8571,   103.196E-03,   181.772E-03,            0.,NA,NA,"",   979.008E+03,   984.177E+03,   984.177E+03
C:/temp/Job-1.odb,Step-1,Increment      1: Step Time =    1.000,"P-1-1",          8572,   30.9962E-03,   18.3008E-03,            0.,NA,NA,"",   1.06232E+06,   1.07832E+06,   1.07832E+06
C:/temp/Job-1.odb,Step-1,Increment      1: Step Time =    1.000,"P-1-1",          8573,   181.736E-03,   97.4684E-03,            0.,NA,NA,"",    966.16E+03,   985.998E+03,   985.998E+03
C:/temp/Job-1.odb,Step-1,Increment      1: Step Time =    1.000,"P-1-1",          8574,   180.708E-03,   30.6430E-03,            0.,NA,NA,"",   1.00578E+06,   1.00518E+06,   1.00518E+06
C:/temp/Job-1.odb,Step-1,Increment      1: Step Time =    1.000,"P-1-1",          8575,   181.918E-03,   61.1727E-03,            0.,NA,NA,"",   999.412E+03,   1.00510E+06,   1.00510E+06
C:/temp/Job-1.odb,Step-1,Increment      1: Step Time =    1.000,"P-1-1",          8576,   60.6734E-03,   18.1553E-03,            0.,NA,NA,"",   1.01631E+06,   1.01745E+06,   1.01745E+06
C:/temp/Job-1.odb,Step-1,Increment      1: Step Time =    1.000,"P-1-1",          8577,   17.9289E-03,   169.948E-03,            0.,NA,NA,"",   1.00557E+06,   1.06763E+06,   1.06763E+06
C:/temp/Job-1.odb,Step-1,Increment      1: Step Time =    1.000,"P-1-1",          8578,   139.702E-03,   181.837E-03,            0.,NA,NA,"",   1.00370E+06,   1.00127E+06,   1.00127E+06
C:/temp/Job-1.odb,Step-1,Increment      1: Step Time =    1.000,"P-1-1",          8579,   19.0711E-03,   139.126E-03,            0.,NA,NA,"",   887.439E+03,   967.734E+03,   967.734E+03
C:/temp/Job-1.odb,Step-1,Increment      1: Step Time =    1.000,"P-1-1",          8580,   76.3337E-03,   81.1321E-03,            0.,NA,NA,"",   1.16932E+06,   1.10528E+06,   1.10528E+06
C:/temp/Job-1.odb,Step-1,Increment      1: Step Time =    1.000,"P-1-1",          8581,   181.955E-03,   70.4181E-03,            0.,NA,NA,"",   990.880E+03,   1.00077E+06,   1.00077E+06
C:/temp/Job-1.odb,Step-1,Increment      1: Step Time =    1.000,"P-1-1",          8582,   70.9952E-03,   18.0294E-03,            0.,NA,NA,"",   1.00259E+06,   1.00419E+06,   1.00419E+06
C:/temp/Job-1.odb,Step-1,Increment      1: Step Time =    1.000,"P-1-1",          8583,   74.3178E-03,   118.144E-03,            0.,NA,NA,"",   1.12172E+06,   1.06559E+06,   1.06559E+06
C:/temp/Job-1.odb,Step-1,Increment      1: Step Time =    1.000,"P-1-1",          8584,   123.617E-03,   117.701E-03,            0.,NA,NA,"",   1.19405E+06,   1.09931E+06,   1.09931E+06
C:/temp/Job-1.odb,Step-1,Increment      1: Step Time =    1.000,"P-1-1",          8585,   129.335E-03,   181.206E-03,            0.,NA,NA,"",   998.520E+03,   997.775E+03,   997.775E+03
C:/temp/Job-1.odb,Step-1,Increment      1: Step Time =    1.000,"P-1-1",          8586,   18.0083E-03,   130.253E-03,            0.,NA,NA,"",   856.134E+03,   940.907E+03,   940.907E+03
C:/temp/Job-1.odb,Step-1,Increment      1: Step Time =    1.000,"P-1-1",          8587,   125.959E-03,   117.433E-03,            0.,NA,NA,"",   1.14594E+06,   1.06152E+06,   1.06152E+06
C:/temp/Job-1.odb,Step-1,Increment      1: Step Time =    1.000,"P-1-1",          8588,   113.062E-03,   129.996E-03,            0.,NA,NA,"",   1.18729E+06,   1.20236E+06,   1.20236E+06
C:/temp/Job-1.odb,Step-1,Increment      1: Step Time =    1.000,"P-1-1",          8589,   181.090E-03,   158.580E-03,            0.,NA,NA,"",   1.00707E+06,   1.00727E+06,   1.00727E+06
C:/temp/Job-1.odb,Step-1,Increment      1: Step Time =    1.000,"P-1-1",          8590,   18.6676E-03,   41.7304E-03,            0.,NA,NA,"",   953.475E+03,   1.02501E+06,   1.02501E+06
C:/temp/Job-1.odb,Step-1,Increment      1: Step Time =    1.000,"P-1-1",          8591,   41.1068E-03,   181.678E-03,            0.,NA,NA,"",   1.04445E+06,   1.05151E+06,   1.05151E+06
C:/temp/Job-1.odb,Step-1,Increment      1: Step Time =    1.000,"P-1-1",          8592,   18.2826E-03,   24.9476E-03,            0.,NA,NA,"",   1.03565E+06,   1.08938E+06,   1.08938E+06
C:/temp/Job-1.odb,Step-1,Increment      1: Step Time =    1.000,"P-1-1",          8593,   181.275E-03,   176.123E-03,            0.,NA,NA,"",   1.00367E+06,   1.00316E+06,   1.00316E+06
C:/temp/Job-1.odb,Step-1,Increment      1: Step Time =    1.000,"P-1-1",          8594,   24.0126E-03,   180.329E-03,            0.,NA,NA,"",   1.06884E+06,   1.09806E+06,   1.09806E+06
C:/temp/Job-1.odb,Step-1,Increment      1: Step Time =    1.000,"P-1-1",          8595,   90.5498E-03,   18.5607E-03,            0.,NA,NA,"",   983.205E+03,   988.302E+03,   988.302E+03
C:/temp/Job-1.odb,Step-1,Increment      1: Step Time =    1.000,"P-1-1",          8596,   144.986E-03,   18.6354E-03,            0.,NA,NA,"",   1.00681E+06,   1.00384E+06,   1.00384E+06
C:/temp/Job-1.odb,Step-1,Increment      1: Step Time =    1.000,"P-1-1",          8597,   180.914E-03,   146.723E-03,            0.,NA,NA,"",   1.00521E+06,   1.00761E+06,   1.00761E+06
C:/temp/Job-1.odb,Step-1,Increment      1: Step Time =    1.000,"P-1-1",          8598,   17.9146E-03,   109.714E-03,            0.,NA,NA,"",   808.786E+03,   897.806E+03,   897.806E+03
C:/temp/Job-1.odb,Step-1,Increment      1: Step Time =    1.000,"P-1-1",          8599,   109.745E-03,   181.520E-03,            0.,NA,NA,"",   982.235E+03,   986.585E+03,   986.585E+03
C:/temp/Job-1.odb,Step-1,Increment      1: Step Time =    1.000,"P-1-1",          8600,   181.866E-03,   67.1940E-03,            0.,NA,NA,"",   994.332E+03,   1.00255E+06,   1.00255E+06
C:/temp/Job-1.odb,Step-1,Increment      1: Step Time =    1.000,"P-1-1",          8601,   67.4627E-03,   19.6759E-03,            0.,NA,NA,"",   1.01210E+06,   1.01361E+06,   1.01361E+06
C:/temp/Job-1.odb,Step-1,Increment      1: Step Time =    1.000,"P-1-1",          8602,   18.4959E-03,   53.9167E-03,            0.,NA,NA,"",   907.936E+03,   986.562E+03,   986.562E+03
C:/temp/Job-1.odb,Step-1,Increment      1: Step Time =    1.000,"P-1-1",          8603,   53.8985E-03,   181.182E-03,            0.,NA,NA,"",   1.02668E+06,   1.02892E+06,   1.02892E+06
C:/temp/Job-1.odb,Step-1,Increment      1: Step Time =    1.000,"P-1-1",          8604,   180.789E-03,   89.1219E-03,            0.,NA,NA,"",   970.145E+03,   987.577E+03,   987.577E+03
C:/temp/Job-1.odb,Step-1,Increment      1: Step Time =    1.000,"P-1-1",          8605,   133.210E-03,   181.385E-03,            0.,NA,NA,"",   1.00100E+06,   999.432E+03,   999.432E+03
C:/temp/Job-1.odb,Step-1,Increment      1: Step Time =    1.000,"P-1-1",          8606,   18.4914E-03,   132.622E-03,            0.,NA,NA,"",   864.560E+03,   948.018E+03,   948.018E+03
C:/temp/Job-1.odb,Step-1,Increment      1: Step Time =    1.000,"P-1-1",          8607,   44.1223E-03,   17.1735E-03,            0.,NA,NA,"",   1.03759E+06,   1.04241E+06,   1.04241E+06
C:/temp/Job-1.odb,Step-1,Increment      1: Step Time =    1.000,"P-1-1",          8608,   129.297E-03,   18.7303E-03,            0.,NA,NA,"",   998.503E+03,   997.787E+03,   997.787E+03
C:/temp/Job-1.odb,Step-1,Increment      1: Step Time =    1.000,"P-1-1",          8609,   181.402E-03,   128.631E-03,            0.,NA,NA,"",   990.316E+03,   1.00019E+06,   1.00019E+06
C:/temp/Job-1.odb,Step-1,Increment      1: Step Time =    1.000,"P-1-1",          8610,   17.5092E-03,   71.5963E-03,            0.,NA,NA,"",   849.116E+03,   935.015E+03,   935.015E+03
C:/temp/Job-1.odb,Step-1,Increment      1: Step Time =    1.000,"P-1-1",          8611,   17.9207E-03,   156.284E-03,            0.,NA,NA,"",   943.157E+03,   1.01743E+06,   1.01743E+06
C:/temp/Job-1.odb,Step-1,Increment      1: Step Time =    1.000,"P-1-1",          8612,   41.3226E-03,   17.8047E-03,            0.,NA,NA,"",   1.04338E+06,   1.04998E+06,   1.04998E+06
C:/temp/Job-1.odb,Step-1,Increment      1: Step Time =    1.000,"P-1-1",          8613,   180.839E-03,   40.6566E-03,            0.,NA,NA,"",   1.00733E+06,   1.00733E+06,   1.00733E+06
C:/temp/Job-1.odb,Step-1,Increment      1: Step Time =    1.000,"P-1-1",          8614,   159.256E-03,   180.633E-03,            0.,NA,NA,"",   1.00832E+06,   1.00557E+06,   1.00557E+06
C:/temp/Job-1.odb,Step-1,Increment      1: Step Time =    1.000,"P-1-1",          8615,   126.569E-03,   19.1709E-03,            0.,NA,NA,"",   997.199E+03,   997.145E+03,   997.145E+03
C:/temp/Job-1.odb,Step-1,Increment      1: Step Time =    1.000,"P-1-1",          8616,   165.648E-03,   181.734E-03,            0.,NA,NA,"",   1.00592E+06,   1.00403E+06,   1.00403E+06
C:/temp/Job-1.odb,Step-1,Increment      1: Step Time =    1.000,"P-1-1",          8617,   33.7364E-03,   19.3031E-03,            0.,NA,NA,"",   1.05689E+06,   1.07089E+06,   1.07089E+06
C:/temp/Job-1.odb,Step-1,Increment      1: Step Time =    1.000,"P-1-1",          8618,   180.551E-03,   125.883E-03,            0.,NA,NA,"",   987.599E+03,   998.227E+03,   998.227E+03
C:/temp/Job-1.odb,Step-1,Increment      1: Step Time =    1.000,"P-1-1",          8619,   181.207E-03,   34.9600E-03,            0.,NA,NA,"",   1.00640E+06,   1.00604E+06,   1.00604E+06
C:/temp/Job-1.odb,Step-1,Increment      1: Step Time =    1.000,"P-1-1",          8620,   19.1336E-03,   73.0127E-03,            0.,NA,NA,"",   849.976E+03,   934.143E+03,   934.143E+03
C:/temp/Job-1.odb,Step-1,Increment      1: Step Time =    1.000,"P-1-1",          8621,   181.284E-03,   64.0273E-03,            0.,NA,NA,"",   997.768E+03,   1.00424E+06,   1.00424E+06
C:/temp/Job-1.odb,Step-1,Increment      1: Step Time =    1.000,"P-1-1",          8622,   64.4423E-03,   19.6007E-03,            0.,NA,NA,"",   1.01568E+06,   1.01701E+06,   1.01701E+06
C:/temp/Job-1.odb,Step-1,Increment      1: Step Time =    1.000,"P-1-1",          8623,   73.5779E-03,   181.803E-03,            0.,NA,NA,"",   999.867E+03,   1.00183E+06,   1.00183E+06
C:/temp/Job-1.odb,Step-1,Increment      1: Step Time =    1.000,"P-1-1",          8624,   19.6178E-03,   165.667E-03,            0.,NA,NA,"",   989.532E+03,   1.05238E+06,   1.05238E+06
C:/temp/Job-1.odb,Step-1,Increment      1: Step Time =    1.000,"P-1-1",          8625,   135.191E-03,   181.482E-03,            0.,NA,NA,"",   1.00203E+06,   1.00013E+06,   1.00013E+06
C:/temp/Job-1.odb,Step-1,Increment      1: Step Time =    1.000,"P-1-1",          8626,   18.6850E-03,   136.024E-03,            0.,NA,NA,"",   876.070E+03,   958.076E+03,   958.076E+03
C:/temp/Job-1.odb,Step-1,Increment      1: Step Time =    1.000,"P-1-1",          8627,   148.712E-03,   19.1782E-03,            0.,NA,NA,"",   1.00838E+06,   1.00518E+06,   1.00518E+06
C:/temp/Job-1.odb,Step-1,Increment      1: Step Time =    1.000,"P-1-1",          8628,   181.290E-03,   149.344E-03,            0.,NA,NA,"",   1.00564E+06,   1.00758E+06,   1.00758E+06
C:/temp/Job-1.odb,Step-1,Increment      1: Step Time =    1.000,"P-1-1",          8629,   18.2737E-03,   33.8746E-03,            0.,NA,NA,"",   986.538E+03,   1.05223E+06,   1.05223E+06
C:/temp/Job-1.odb,Step-1,Increment      1: Step Time =    1.000,"P-1-1",          8630,   118.642E-03,   18.3886E-03,            0.,NA,NA,"",   988.410E+03,   990.460E+03,   990.460E+03
C:/temp/Job-1.odb,Step-1,Increment      1: Step Time =    1.000,"P-1-1",          8631,   180.922E-03,   165.613E-03,            0.,NA,NA,"",   1.00649E+06,   1.00604E+06,   1.00604E+06
C:/temp/Job-1.odb,Step-1,Increment      1: Step Time =    1.000,"P-1-1",          8632,   175.102E-03,   181.699E-03,            0.,NA,NA,"",   1.00372E+06,   1.00278E+06,   1.00278E+06
C:/temp/Job-1.odb,Step-1,Increment      1: Step Time =    1.000,"P-1-1",          8633,   181.810E-03,   81.7084E-03,            0.,NA,NA,"",   977.983E+03,   993.232E+03,   993.232E+03
C:/temp/Job-1.odb,Step-1,Increment      1: Step Time =    1.000,"P-1-1",          8634,   161.937E-03,   18.7062E-03,            0.,NA,NA,"",   1.00706E+06,   1.00472E+06,   1.00472E+06
C:/temp/Job-1.odb,Step-1,Increment      1: Step Time =    1.000,"P-1-1",          8635,   137.272E-03,   18.9076E-03,            0.,NA,NA,"",   1.00406E+06,   1.00176E+06,   1.00176E+06
C:/temp/Job-1.odb,Step-1,Increment      1: Step Time =    1.000,"P-1-1",          8636,   181.443E-03,   136.484E-03,            0.,NA,NA,"",   997.975E+03,   1.00437E+06,   1.00437E+06
C:/temp/Job-1.odb,Step-1,Increment      1: Step Time =    1.000,"P-1-1",          8637,   181.626E-03,   119.258E-03,            0.,NA,NA,"",   979.229E+03,   993.859E+03,   993.859E+03
C:/temp/Job-1.odb,Step-1,Increment      1: Step Time =    1.000,"P-1-1",          8638,   18.4537E-03,   50.2911E-03,            0.,NA,NA,"",   920.876E+03,   997.786E+03,   997.786E+03
C:/temp/Job-1.odb,Step-1,Increment      1: Step Time =    1.000,"P-1-1",          8639,   18.0956E-03,   79.7789E-03,            0.,NA,NA,"",   829.174E+03,   916.282E+03,   916.282E+03
C:/temp/Job-1.odb,Step-1,Increment      1: Step Time =    1.000,"P-1-1",          8640,   80.5822E-03,   18.2084E-03,            0.,NA,NA,"",   991.762E+03,   994.926E+03,   994.926E+03
C:/temp/Job-1.odb,Step-1,Increment      1: Step Time =    1.000,"P-1-1",          8641,   50.4774E-03,   181.416E-03,            0.,NA,NA,"",   1.03097E+06,   1.03402E+06,   1.03402E+06
C:/temp/Job-1.odb,Step-1,Increment      1: Step Time =    1.000,"P-1-1",          8642,   81.0638E-03,   180.768E-03,            0.,NA,NA,"",   993.816E+03,   997.450E+03,   997.450E+03
C:/temp/Job-1.odb,Step-1,Increment      1: Step Time =    1.000,"P-1-1",          8643,   18.6931E-03,   62.5983E-03,            0.,NA,NA,"",   880.686E+03,   962.199E+03,   962.199E+03
C:/temp/Job-1.odb,Step-1,Increment      1: Step Time =    1.000,"P-1-1",          8644,   63.2298E-03,   180.747E-03,            0.,NA,NA,"",   1.01615E+06,   1.01743E+06,   1.01743E+06
C:/temp/Job-1.odb,Step-1,Increment      1: Step Time =    1.000,"P-1-1",          8645,   34.0763E-03,   181.904E-03,            0.,NA,NA,"",   1.05616E+06,   1.06854E+06,   1.06854E+06
C:/temp/Job-1.odb,Step-1,Increment      1: Step Time =    1.000,"P-1-1",          8646,   181.941E-03,   24.0427E-03,            0.,NA,NA,"",   1.00343E+06,   1.00300E+06,   1.00300E+06
C:/temp/Job-1.odb,Step-1,Increment      1: Step Time =    1.000,"P-1-1",          8647,   19.3533E-03,   119.383E-03,            0.,NA,NA,"",   830.103E+03,   915.999E+03,   915.999E+03
C:/temp/Job-1.odb,Step-1,Increment      1: Step Time =    1.000,"P-1-1",          8648,   165.510E-03,   17.9433E-03,            0.,NA,NA,"",   1.00570E+06,   1.00385E+06,   1.00385E+06
C:/temp/Job-1.odb,Step-1,Increment      1: Step Time =    1.000,"P-1-1",          8649,   17.9705E-03,   175.005E-03,            0.,NA,NA,"",   1.03504E+06,   1.08977E+06,   1.08977E+06
C:/temp/Job-1.odb,Step-1,Increment      1: Step Time =    1.000,"P-1-1",          8650,   85.1499E-03,   79.7181E-03,            0.,NA,NA,"",   1.32488E+06,   1.28400E+06,   1.28400E+06
C:/temp/Job-1.odb,Step-1,Increment      1: Step Time =    1.000,"P-1-1",          8651,   110.488E-03,   18.6644E-03,            0.,NA,NA,"",   982.932E+03,   987.231E+03,   987.231E+03
C:/temp/Job-1.odb,Step-1,Increment      1: Step Time =    1.000,"P-1-1",          8652,   181.308E-03,   53.9548E-03,            0.,NA,NA,"",   1.00442E+06,   1.00725E+06,   1.00725E+06
C:/temp/Job-1.odb,Step-1,Increment      1: Step Time =    1.000,"P-1-1",          8653,   53.0754E-03,   17.8714E-03,            0.,NA,NA,"",   1.02590E+06,   1.02805E+06,   1.02805E+06
C:/temp/Job-1.odb,Step-1,Increment      1: Step Time =    1.000,"P-1-1",          8654,   180.439E-03,   109.796E-03,            0.,NA,NA,"",   969.019E+03,   986.504E+03,   986.504E+03
C:/temp/Job-1.odb,Step-1,Increment      1: Step Time =    1.000,"P-1-1",          8655,   18.6800E-03,   90.3087E-03,            0.,NA,NA,"",   810.027E+03,   898.301E+03,   898.301E+03
C:/temp/Job-1.odb,Step-1,Increment      1: Step Time =    1.000,"P-1-1",          8656,   90.7436E-03,   180.116E-03,            0.,NA,NA,"",   986.194E+03,   992.051E+03,   992.051E+03
C:/temp/Job-1.odb,Step-1,Increment      1: Step Time =    1.000,"P-1-1",          8657,   145.943E-03,   180.940E-03,            0.,NA,NA,"",   1.00764E+06,   1.00454E+06,   1.00454E+06
C:/temp/Job-1.odb,Step-1,Increment      1: Step Time =    1.000,"P-1-1",          8658,   16.7955E-03,   146.040E-03,            0.,NA,NA,"",   901.467E+03,   983.113E+03,   983.113E+03
C:/temp/Job-1.odb,Step-1,Increment      1: Step Time =    1.000,"P-1-1",          8659,   178.093E-03,   182.028E-03,            0.,NA,NA,"",   1.00273E+06,   1.00211E+06,   1.00211E+06
C:/temp/Job-1.odb,Step-1,Increment      1: Step Time =    1.000,"P-1-1",          8660,   21.4384E-03,   18.0262E-03,            0.,NA,NA,"",   1.07834E+06,   1.10926E+06,   1.10926E+06
C:/temp/Job-1.odb,Step-1,Increment      1: Step Time =    1.000,"P-1-1",          8661,   99.9282E-03,   19.5294E-03,            0.,NA,NA,"",   981.743E+03,   987.897E+03,   987.897E+03
C:/temp/Job-1.odb,Step-1,Increment      1: Step Time =    1.000,"P-1-1",          8662,   181.391E-03,   21.4408E-03,            0.,NA,NA,"",   1.00293E+06,   1.00248E+06,   1.00248E+06
C:/temp/Job-1.odb,Step-1,Increment      1: Step Time =    1.000,"P-1-1",          8663,   18.3374E-03,   100.295E-03,            0.,NA,NA,"",   802.979E+03,   892.112E+03,   892.112E+03
C:/temp/Job-1.odb,Step-1,Increment      1: Step Time =    1.000,"P-1-1",          8664,   18.0486E-03,   179.260E-03,            0.,NA,NA,"",   1.06267E+06,   1.10874E+06,   1.10874E+06
C:/temp/Job-1.odb,Step-1,Increment      1: Step Time =    1.000,"P-1-1",          8665,   99.9667E-03,   181.179E-03,            0.,NA,NA,"",   980.252E+03,   985.970E+03,   985.970E+03
C:/temp/Job-1.odb,Step-1,Increment      1: Step Time =    1.000,"P-1-1",          8666,   181.517E-03,   100.266E-03,            0.,NA,NA,"",   965.702E+03,   985.462E+03,   985.462E+03
C:/temp/Job-1.odb,Step-1,Increment      1: Step Time =    1.000,"P-1-1",          8667,   125.681E-03,   180.592E-03,            0.,NA,NA,"",   996.953E+03,   997.162E+03,   997.162E+03
C:/temp/Job-1.odb,Step-1,Increment      1: Step Time =    1.000,"P-1-1",          8668,   17.8857E-03,   126.623E-03,            0.,NA,NA,"",   845.793E+03,   931.552E+03,   931.552E+03
C:/temp/Job-1.odb,Step-1,Increment      1: Step Time =    1.000,"P-1-1",          8669,   156.401E-03,   19.2690E-03,            0.,NA,NA,"",   1.00851E+06,   1.00557E+06,   1.00557E+06
C:/temp/Job-1.odb,Step-1,Increment      1: Step Time =    1.000,"P-1-1",          8670,   180.708E-03,   156.721E-03,            0.,NA,NA,"",   1.00751E+06,   1.00779E+06,   1.00779E+06
C:/temp/Job-1.odb,Step-1,Increment      1: Step Time =    1.000,"P-1-1",          8671,   18.4327E-03,   44.0023E-03,            0.,NA,NA,"",   943.735E+03,   1.01723E+06,   1.01723E+06
C:/temp/Job-1.odb,Step-1,Increment      1: Step Time =    1.000,"P-1-1",          8672,   107.412E-03,   18.6731E-03,            0.,NA,NA,"",   981.277E+03,   986.128E+03,   986.128E+03
C:/temp/Job-1.odb,Step-1,Increment      1: Step Time =    1.000,"P-1-1",          8673,   43.7625E-03,   181.801E-03,            0.,NA,NA,"",   1.03995E+06,   1.04551E+06,   1.04551E+06
C:/temp/Job-1.odb,Step-1,Increment      1: Step Time =    1.000,"P-1-1",          8674,   181.585E-03,   50.9803E-03,            0.,NA,NA,"",   1.00523E+06,   1.00737E+06,   1.00737E+06
C:/temp/Job-1.odb,Step-1,Increment      1: Step Time =    1.000,"P-1-1",          8675,   50.8615E-03,   18.9277E-03,            0.,NA,NA,"",   1.03120E+06,   1.03430E+06,   1.03430E+06
C:/temp/Job-1.odb,Step-1,Increment      1: Step Time =    1.000,"P-1-1",          8676,   18.9861E-03,   92.6948E-03,            0.,NA,NA,"",   807.696E+03,   895.917E+03,   895.917E+03
C:/temp/Job-1.odb,Step-1,Increment      1: Step Time =    1.000,"P-1-1",          8677,   180.702E-03,   106.738E-03,            0.,NA,NA,"",   966.897E+03,   985.347E+03,   985.347E+03
C:/temp/Job-1.odb,Step-1,Increment      1: Step Time =    1.000,"P-1-1",          8678,   147.872E-03,   181.526E-03,            0.,NA,NA,"",   1.00699E+06,   1.00401E+06,   1.00401E+06
C:/temp/Job-1.odb,Step-1,Increment      1: Step Time =    1.000,"P-1-1",          8679,   93.6600E-03,   180.335E-03,            0.,NA,NA,"",   983.906E+03,   990.005E+03,   990.005E+03
C:/temp/Job-1.odb,Step-1,Increment      1: Step Time =    1.000,"P-1-1",          8680,   18.8307E-03,   148.930E-03,            0.,NA,NA,"",   919.977E+03,   996.376E+03,   996.376E+03
C:/temp/Job-1.odb,Step-1,Increment      1: Step Time =    1.000,"P-1-1",          8681,   111.245E-03,   130.399E-03,            0.,NA,NA,"",   1.16631E+06,   1.19712E+06,   1.19712E+06
C:/temp/Job-1.odb,Step-1,Increment      1: Step Time =    1.000,"P-1-1",          8682,   18.0565E-03,   30.4109E-03,            0.,NA,NA,"",   1.00337E+06,   1.06575E+06,   1.06575E+06
C:/temp/Job-1.odb,Step-1,Increment      1: Step Time =    1.000,"P-1-1",          8683,   181.256E-03,   168.390E-03,            0.,NA,NA,"",   1.00563E+06,   1.00516E+06,   1.00516E+06
C:/temp/Job-1.odb,Step-1,Increment      1: Step Time =    1.000,"P-1-1",          8684,   169.315E-03,   17.9340E-03,            0.,NA,NA,"",   1.00483E+06,   1.00337E+06,   1.00337E+06
C:/temp/Job-1.odb,Step-1,Increment      1: Step Time =    1.000,"P-1-1",          8685,   181.391E-03,   83.7165E-03,            0.,NA,NA,"",   975.849E+03,   991.638E+03,   991.638E+03
C:/temp/Job-1.odb,Step-1,Increment      1: Step Time =    1.000,"P-1-1",          8686,   139.784E-03,   18.0240E-03,            0.,NA,NA,"",   1.00331E+06,   1.00091E+06,   1.00091E+06
C:/temp/Job-1.odb,Step-1,Increment      1: Step Time =    1.000,"P-1-1",          8687,   180.428E-03,   138.434E-03,            0.,NA,NA,"",   1.00086E+06,   1.00572E+06,   1.00572E+06
C:/temp/Job-1.odb,Step-1,Increment      1: Step Time =    1.000,"P-1-1",          8688,   84.7964E-03,   19.4190E-03,            0.,NA,NA,"",   990.516E+03,   995.121E+03,   995.121E+03
C:/temp/Job-1.odb,Step-1,Increment      1: Step Time =    1.000,"P-1-1",          8689,   112.908E-03,   17.0084E-03,            0.,NA,NA,"",    980.57E+03,   983.701E+03,   983.701E+03
C:/temp/Job-1.odb,Step-1,Increment      1: Step Time =    1.000,"P-1-1",          8690,   31.2852E-03,   181.663E-03,            0.,NA,NA,"",   1.06167E+06,   1.07704E+06,   1.07704E+06
C:/temp/Job-1.odb,Step-1,Increment      1: Step Time =    1.000,"P-1-1",          8691,   18.4390E-03,   59.6387E-03,            0.,NA,NA,"",   888.891E+03,   969.826E+03,   969.826E+03
C:/temp/Job-1.odb,Step-1,Increment      1: Step Time =    1.000,"P-1-1",          8692,   60.8297E-03,   181.113E-03,            0.,NA,NA,"",   1.01819E+06,   1.01949E+06,   1.01949E+06
C:/temp/Job-1.odb,Step-1,Increment      1: Step Time =    1.000,"P-1-1",          8693,   181.502E-03,   112.473E-03,            0.,NA,NA,"",   971.853E+03,   989.281E+03,   989.281E+03
C:/temp/Job-1.odb,Step-1,Increment      1: Step Time =    1.000,"P-1-1",          8694,   116.485E-03,   181.386E-03,            0.,NA,NA,"",   986.972E+03,   989.734E+03,   989.734E+03
C:/temp/Job-1.odb,Step-1,Increment      1: Step Time =    1.000,"P-1-1",          8695,   18.6344E-03,   87.2183E-03,            0.,NA,NA,"",   814.918E+03,   902.755E+03,   902.755E+03
C:/temp/Job-1.odb,Step-1,Increment      1: Step Time =    1.000,"P-1-1",          8696,   18.7782E-03,   115.776E-03,            0.,NA,NA,"",   820.783E+03,   908.002E+03,   908.002E+03
C:/temp/Job-1.odb,Step-1,Increment      1: Step Time =    1.000,"P-1-1",          8697,   87.0390E-03,   182.398E-03,            0.,NA,NA,"",   983.159E+03,   987.274E+03,   987.274E+03
C:/temp/Job-1.odb,Step-1,Increment      1: Step Time =    1.000,"P-1-1",          8698,   130.665E-03,   100.358E-03,            0.,NA,NA,"",   638.788E+03,   655.143E+03,   655.143E+03
C:/temp/Job-1.odb,Step-1,Increment      1: Step Time =    1.000,"P-1-1",          8699,   128.266E-03,   99.2738E-03,            0.,NA,NA,"",   584.217E+03,   598.868E+03,   598.868E+03
C:/temp/Job-1.odb,Step-1,Increment      1: Step Time =    1.000,"P-1-1",          8700,   71.2276E-03,   117.194E-03,            0.,NA,NA,"",   1.04825E+06,   1.01019E+06,   1.01019E+06
C:/temp/Job-1.odb,Step-1,Increment      1: Step Time =    1.000,"P-1-1",          8701,   128.470E-03,   115.440E-03,            0.,NA,NA,"",   1.06438E+06,   993.617E+03,   993.617E+03
C:/temp/Job-1.odb,Step-1,Increment      1: Step Time =    1.000,"P-1-1",          8702,   122.023E-03,   89.1503E-03,            0.,NA,NA,"",   1.02793E+06,   911.324E+03,   911.324E+03
C:/temp/Job-1.odb,Step-1,Increment      1: Step Time =    1.000,"P-1-1",          8703,   115.451E-03,   128.831E-03,            0.,NA,NA,"",   1.21776E+06,   1.21025E+06,   1.21025E+06
C:/temp/Job-1.odb,Step-1,Increment      1: Step Time =    1.000,"P-1-1",          8704,   87.3282E-03,   130.076E-03,            0.,NA,NA,"",   1.17646E+06,   1.20283E+06,   1.20283E+06
C:/temp/Job-1.odb,Step-1,Increment      1: Step Time =    1.000,"P-1-1",          8705,   70.0807E-03,   107.846E-03,            0.,NA,NA,"",   764.569E+03,   770.843E+03,   770.843E+03
C:/temp/Job-1.odb,Step-1,Increment      1: Step Time =    1.000,"P-1-1",          8706,   132.826E-03,   113.713E-03,            0.,NA,NA,"",   975.150E+03,   933.088E+03,   933.088E+03
C:/temp/Job-1.odb,Step-1,Increment      1: Step Time =    1.000,"P-1-1",          8707,   71.2598E-03,   86.1492E-03,            0.,NA,NA,"",   971.344E+03,   938.272E+03,   938.272E+03
C:/temp/Job-1.odb,Step-1,Increment      1: Step Time =    1.000,"P-1-1",          8708,   70.4978E-03,   104.818E-03,            0.,NA,NA,"",   659.499E+03,   683.691E+03,   683.691E+03
C:/temp/Job-1.odb,Step-1,Increment      1: Step Time =    1.000,"P-1-1",          8709,   83.8918E-03,   79.6403E-03,            0.,NA,NA,"",   1.31018E+06,   1.26001E+06,   1.26001E+06
C:/temp/Job-1.odb,Step-1,Increment      1: Step Time =    1.000,"P-1-1",          8710,   77.3401E-03,   80.1216E-03,            0.,NA,NA,"",   1.19875E+06,   1.13503E+06,   1.13503E+06
C:/temp/Job-1.odb,Step-1,Increment      1: Step Time =    1.000,"P-1-1",          8711,   80.6503E-03,   126.139E-03,            0.,NA,NA,"",   1.22794E+06,   1.19930E+06,   1.19930E+06
C:/temp/Job-1.odb,Step-1,Increment      1: Step Time =    1.000,"P-1-1",          8712,   80.5364E-03,   122.791E-03,            0.,NA,NA,"",   1.25126E+06,   1.20390E+06,   1.20390E+06
C:/temp/Job-1.odb,Step-1,Increment      1: Step Time =    1.000,"P-1-1",          8713,   97.4672E-03,   131.620E-03,            0.,NA,NA,"",   1.07501E+06,   1.15820E+06,   1.15820E+06
C:/temp/Job-1.odb,Step-1,Increment      1: Step Time =    1.000,"P-1-1",          8714,   77.6213E-03,   120.373E-03,            0.,NA,NA,"",   1.20637E+06,   1.14399E+06,   1.14399E+06
C:/temp/Job-1.odb,Step-1,Increment      1: Step Time =    1.000,"P-1-1",          8715,   70.1452E-03,   111.529E-03,            0.,NA,NA,"",   886.856E+03,   872.241E+03,   872.241E+03
C:/temp/Job-1.odb,Step-1,Increment      1: Step Time =    1.000,"P-1-1",          8716,   80.5084E-03,   124.626E-03,            0.,NA,NA,"",   1.23865E+06,   1.20170E+06,   1.20170E+06
C:/temp/Job-1.odb,Step-1,Increment      1: Step Time =    1.000,"P-1-1",          8717,   74.4652E-03,   119.333E-03,            0.,NA,NA,"",   1.13742E+06,   1.08342E+06,   1.08342E+06
C:/temp/Job-1.odb,Step-1,Increment      1: Step Time =    1.000,"P-1-1",          8718,   123.606E-03,   90.6395E-03,            0.,NA,NA,"",   911.026E+03,   821.740E+03,   821.740E+03
C:/temp/Job-1.odb,Step-1,Increment      1: Step Time =    1.000,"P-1-1",          8719,   132.929E-03,   104.112E-03,            0.,NA,NA,"",   728.537E+03,   735.694E+03,   735.694E+03
C:/temp/Job-1.odb,Step-1,Increment      1: Step Time =    1.000,"P-1-1",          8720,   70.3134E-03,   109.270E-03,            0.,NA,NA,"",   817.219E+03,   812.646E+03,   812.646E+03
C:/temp/Job-1.odb,Step-1,Increment      1: Step Time =    1.000,"P-1-1",          8721,   67.9383E-03,   103.566E-03,            0.,NA,NA,"",   661.328E+03,   698.077E+03,   698.077E+03
C:/temp/Job-1.odb,Step-1,Increment      1: Step Time =    1.000,"P-1-1",          8722,   70.6174E-03,   114.928E-03,            0.,NA,NA,"",   989.037E+03,   958.552E+03,   958.552E+03
C:/temp/Job-1.odb,Step-1,Increment      1: Step Time =    1.000,"P-1-1",          8723,   132.068E-03,   110.165E-03,            0.,NA,NA,"",   880.736E+03,   852.489E+03,   852.489E+03
C:/temp/Job-1.odb,Step-1,Increment      1: Step Time =    1.000,"P-1-1",          8724,   181.736E-03,   183.012E-03,            0.,NA,NA,"",   1.00169E+06,   1.00137E+06,   1.00137E+06
C:/temp/Job-1.odb,Step-1,Increment      1: Step Time =    1.000,"P-1-1",          8725,   18.3813E-03,   16.8858E-03,            0.,NA,NA,"",   1.08822E+06,   1.12434E+06,   1.12434E+06
C:/temp/Job-1.odb,Step-1,Increment      1: Step Time =    1.000,"P-1-1",          8726,   181.876E-03,   19.0162E-03,            0.,NA,NA,"",   1.00215E+06,   1.00178E+06,   1.00178E+06
C:/temp/Job-1.odb,Step-1,Increment      1: Step Time =    1.000,"P-1-1",          8727,   17.5430E-03,   182.042E-03,            0.,NA,NA,"",   1.08210E+06,   1.12298E+06,   1.12298E+06
C:/temp/Job-1.odb,Step-1,Increment      1: Step Time =    1.000,"P-1-1",          8728,   104.346E-03,   18.3620E-03,            0.,NA,NA,"",   979.614E+03,   984.841E+03,   984.841E+03
C:/temp/Job-1.odb,Step-1,Increment      1: Step Time =    1.000,"P-1-1",          8729,   17.9697E-03,   95.9168E-03,            0.,NA,NA,"",   803.547E+03,   892.874E+03,   892.874E+03
C:/temp/Job-1.odb,Step-1,Increment      1: Step Time =    1.000,"P-1-1",          8730,   181.106E-03,   104.768E-03,            0.,NA,NA,"",   966.200E+03,   985.336E+03,   985.336E+03
C:/temp/Job-1.odb,Step-1,Increment      1: Step Time =    1.000,"P-1-1",          8731,   95.5592E-03,   180.824E-03,            0.,NA,NA,"",   981.869E+03,   987.776E+03,   987.776E+03
C:/temp/Job-1.odb,Step-1,Increment      1: Step Time =    1.000,"P-1-1",          8732,   88.2462E-03,   82.1176E-03,            0.,NA,NA,"",   1.38618E+06,   1.36506E+06,   1.36506E+06
C:/temp/Job-1.odb,Step-1,Increment      1: Step Time =    1.000,"P-1-1",          8733,   168.758E-03,   181.574E-03,            0.,NA,NA,"",   1.00536E+06,   1.00377E+06,   1.00377E+06
C:/temp/Job-1.odb,Step-1,Increment      1: Step Time =    1.000,"P-1-1",          8734,   181.648E-03,   62.6270E-03,            0.,NA,NA,"",   998.563E+03,   1.00468E+06,   1.00468E+06
C:/temp/Job-1.odb,Step-1,Increment      1: Step Time =    1.000,"P-1-1",          8735,   60.8570E-03,   17.2953E-03,            0.,NA,NA,"",   1.01383E+06,   1.01486E+06,   1.01486E+06
C:/temp/Job-1.odb,Step-1,Increment      1: Step Time =    1.000,"P-1-1",          8736,   32.3266E-03,   17.6617E-03,            0.,NA,NA,"",   1.06022E+06,   1.07368E+06,   1.07368E+06
C:/temp/Job-1.odb,Step-1,Increment      1: Step Time =    1.000,"P-1-1",          8737,   137.972E-03,   182.615E-03,            0.,NA,NA,"",   1.00109E+06,   999.042E+03,   999.042E+03
C:/temp/Job-1.odb,Step-1,Increment      1: Step Time =    1.000,"P-1-1",          8738,   181.096E-03,   31.9853E-03,            0.,NA,NA,"",   1.00582E+06,   1.00533E+06,   1.00533E+06
C:/temp/Job-1.odb,Step-1,Increment      1: Step Time =    1.000,"P-1-1",          8739,   17.4017E-03,   168.146E-03,            0.,NA,NA,"",   993.558E+03,   1.05931E+06,   1.05931E+06
C:/temp/Job-1.odb,Step-1,Increment      1: Step Time =    1.000,"P-1-1",          8740,   73.1298E-03,   81.4346E-03,            0.,NA,NA,"",   1.10531E+06,   1.05600E+06,   1.05600E+06
C:/temp/Job-1.odb,Step-1,Increment      1: Step Time =    1.000,"P-1-1",          8741,   92.7457E-03,   130.906E-03,            0.,NA,NA,"",   1.11826E+06,   1.18234E+06,   1.18234E+06
C:/temp/Job-1.odb,Step-1,Increment      1: Step Time =    1.000,"P-1-1",          8742,   132.996E-03,   106.831E-03,            0.,NA,NA,"",   791.054E+03,   784.878E+03,   784.878E+03
C:/temp/Job-1.odb,Step-1,Increment      1: Step Time =    1.000,"P-1-1",          8743,   104.146E-03,   132.418E-03,            0.,NA,NA,"",   1.07914E+06,   1.15336E+06,   1.15336E+06
C:/temp/Job-1.odb,Step-1,Increment      1: Step Time =    1.000,"P-1-1",          8744,   18.2346E-03,   142.220E-03,            0.,NA,NA,"",   894.492E+03,   975.005E+03,   975.005E+03
C:/temp/Job-1.odb,Step-1,Increment      1: Step Time =    1.000,"P-1-1",          8745,   18.0252E-03,   171.736E-03,            0.,NA,NA,"",   1.01517E+06,   1.07473E+06,   1.07473E+06
C:/temp/Job-1.odb,Step-1,Increment      1: Step Time =    1.000,"P-1-1",          8746,   141.627E-03,   182.007E-03,            0.,NA,NA,"",   1.00413E+06,   1.00157E+06,   1.00157E+06
C:/temp/Job-1.odb,Step-1,Increment      1: Step Time =    1.000,"P-1-1",          8747,   57.4305E-03,   18.2680E-03,            0.,NA,NA,"",   1.02117E+06,   1.02268E+06,   1.02268E+06
C:/temp/Job-1.odb,Step-1,Increment      1: Step Time =    1.000,"P-1-1",          8748,   181.625E-03,   58.2480E-03,            0.,NA,NA,"",   1.00178E+06,   1.00617E+06,   1.00617E+06
C:/temp/Job-1.odb,Step-1,Increment      1: Step Time =    1.000,"P-1-1",          8749,   181.745E-03,   28.5277E-03,            0.,NA,NA,"",   1.00464E+06,   1.00419E+06,   1.00419E+06
C:/temp/Job-1.odb,Step-1,Increment      1: Step Time =    1.000,"P-1-1",          8750,   27.6226E-03,   17.8274E-03,            0.,NA,NA,"",   1.06926E+06,   1.08846E+06,   1.08846E+06
C:/temp/Job-1.odb,Step-1,Increment      1: Step Time =    1.000,"P-1-1",          8751,   171.804E-03,   180.961E-03,            0.,NA,NA,"",   1.00493E+06,   1.00360E+06,   1.00360E+06
C:/temp/Job-1.odb,Step-1,Increment      1: Step Time =    1.000,"P-1-1",          8752,   100.555E-03,   131.391E-03,            0.,NA,NA,"",   1.07152E+06,   1.15830E+06,   1.15830E+06
C:/temp/Job-1.odb,Step-1,Increment      1: Step Time =    1.000,"P-1-1",          8753,   89.3533E-03,   131.105E-03,            0.,NA,NA,"",   1.14703E+06,   1.18931E+06,   1.18931E+06
C:/temp/Job-1.odb,Step-1,Increment      1: Step Time =    1.000,"P-1-1",          8754,   116.624E-03,   124.405E-03,            0.,NA,NA,"",   1.27970E+06,   1.24089E+06,   1.24089E+06
C:/temp/Job-1.odb,Step-1,Increment      1: Step Time =    1.000,"P-1-1",          8755,   67.3888E-03,   180.155E-03,            0.,NA,NA,"",   1.01278E+06,   1.01436E+06,   1.01436E+06
C:/temp/Job-1.odb,Step-1,Increment      1: Step Time =    1.000,"P-1-1",          8756,   18.8006E-03,   65.8742E-03,            0.,NA,NA,"",   870.159E+03,   952.652E+03,   952.652E+03
C:/temp/Job-1.odb,Step-1,Increment      1: Step Time =    1.000,"P-1-1",          8757,   181.034E-03,   133.449E-03,            0.,NA,NA,"",   995.738E+03,   1.00312E+06,   1.00312E+06
C:/temp/Job-1.odb,Step-1,Increment      1: Step Time =    1.000,"P-1-1",          8758,   133.088E-03,   20.5396E-03,            0.,NA,NA,"",   1.00529E+06,   1.00346E+06,   1.00346E+06
C:/temp/Job-1.odb,Step-1,Increment      1: Step Time =    1.000,"P-1-1",          8759,   19.3108E-03,   151.543E-03,            0.,NA,NA,"",   931.113E+03,   1.00519E+06,   1.00519E+06
C:/temp/Job-1.odb,Step-1,Increment      1: Step Time =    1.000,"P-1-1",          8760,   152.695E-03,   181.573E-03,            0.,NA,NA,"",   1.00744E+06,   1.00453E+06,   1.00453E+06
C:/temp/Job-1.odb,Step-1,Increment      1: Step Time =    1.000,"P-1-1",          8761,   48.3298E-03,   18.9658E-03,            0.,NA,NA,"",   1.03461E+06,   1.03855E+06,   1.03855E+06
C:/temp/Job-1.odb,Step-1,Increment      1: Step Time =    1.000,"P-1-1",          8762,   181.458E-03,   47.3034E-03,            0.,NA,NA,"",   1.00624E+06,   1.00751E+06,   1.00751E+06
C:/temp/Job-1.odb,Step-1,Increment      1: Step Time =    1.000,"P-1-1",          8763,   73.3649E-03,   119.603E-03,            0.,NA,NA,"",   1.12110E+06,   1.07280E+06,   1.07280E+06
C:/temp/Job-1.odb,Step-1,Increment      1: Step Time =    1.000,"P-1-1",          8764,   125.727E-03,   118.702E-03,            0.,NA,NA,"",   1.17042E+06,   1.08685E+06,   1.08685E+06
C:/temp/Job-1.odb,Step-1,Increment      1: Step Time =    1.000,"P-1-1",          8765,   115.982E-03,   126.684E-03,            0.,NA,NA,"",   1.24791E+06,   1.22705E+06,   1.22705E+06
C:/temp/Job-1.odb,Step-1,Increment      1: Step Time =    1.000,"P-1-1",          8766,   108.351E-03,   129.784E-03,            0.,NA,NA,"",   1.14355E+06,   1.19934E+06,   1.19934E+06
C:/temp/Job-1.odb,Step-1,Increment      1: Step Time =    1.000,"P-1-1",          8767,   107.823E-03,   131.631E-03,            0.,NA,NA,"",   1.11762E+06,   1.17433E+06,   1.17433E+06
C:/temp/Job-1.odb,Step-1,Increment      1: Step Time =    1.000,"P-1-1",          8768,   87.8735E-03,   80.6066E-03,            0.,NA,NA,"",   1.35929E+06,   1.34535E+06,   1.34535E+06
C:/temp/Job-1.odb,Step-1,Increment      1: Step Time =    1.000,"P-1-1",          8769,   84.0020E-03,   78.4353E-03,            0.,NA,NA,"",   1.30043E+06,   1.26054E+06,   1.26054E+06
C:/temp/Job-1.odb,Step-1,Increment      1: Step Time =    1.000,"P-1-1",          8770,   132.185E-03,   100.767E-03,            0.,NA,NA,"",   672.915E+03,   688.878E+03,   688.878E+03
C:/temp/Job-1.odb,Step-1,Increment      1: Step Time =    1.000,"P-1-1",          8771,   129.735E-03,   98.5159E-03,            0.,NA,NA,"",   632.725E+03,   646.185E+03,   646.185E+03
C:/temp/Job-1.odb,Step-1,Increment      1: Step Time =    1.000,"P-1-1",          8772,   76.5995E-03,   122.474E-03,            0.,NA,NA,"",   1.19581E+06,   1.14511E+06,   1.14511E+06
C:/temp/Job-1.odb,Step-1,Increment      1: Step Time =    1.000,"P-1-1",          8773,   183.243E-03,   44.2814E-03,            0.,NA,NA,"",   1.00475E+06,   1.00614E+06,   1.00614E+06
C:/temp/Job-1.odb,Step-1,Increment      1: Step Time =    1.000,"P-1-1",          8774,   45.5239E-03,   16.7813E-03,            0.,NA,NA,"",   1.03460E+06,   1.03863E+06,   1.03863E+06
C:/temp/Job-1.odb,Step-1,Increment      1: Step Time =    1.000,"P-1-1",          8775,   130.546E-03,   17.3876E-03,            0.,NA,NA,"",   996.083E+03,   995.221E+03,   995.221E+03
C:/temp/Job-1.odb,Step-1,Increment      1: Step Time =    1.000,"P-1-1",          8776,   155.641E-03,   183.264E-03,            0.,NA,NA,"",   1.00516E+06,   1.00282E+06,   1.00282E+06
C:/temp/Job-1.odb,Step-1,Increment      1: Step Time =    1.000,"P-1-1",          8777,   183.250E-03,   129.729E-03,            0.,NA,NA,"",   989.939E+03,   1.00073E+06,   1.00073E+06
C:/temp/Job-1.odb,Step-1,Increment      1: Step Time =    1.000,"P-1-1",          8778,   17.3987E-03,   70.3764E-03,            0.,NA,NA,"",   852.490E+03,   938.210E+03,   938.210E+03
C:/temp/Job-1.odb,Step-1,Increment      1: Step Time =    1.000,"P-1-1",          8779,   16.6567E-03,   155.607E-03,            0.,NA,NA,"",   935.114E+03,   1.01238E+06,   1.01238E+06
C:/temp/Job-1.odb,Step-1,Increment      1: Step Time =    1.000,"P-1-1",          8780,   70.5176E-03,   183.378E-03,            0.,NA,NA,"",   999.041E+03,   1.00033E+06,   1.00033E+06
C:/temp/Job-1.odb,Step-1,Increment      1: Step Time =    1.000,"P-1-1",          8781,   76.0937E-03,   181.751E-03,            0.,NA,NA,"",   997.058E+03,   999.517E+03,   999.517E+03
C:/temp/Job-1.odb,Step-1,Increment      1: Step Time =    1.000,"P-1-1",          8782,   19.0308E-03,   75.9861E-03,            0.,NA,NA,"",   841.508E+03,   926.604E+03,   926.604E+03
C:/temp/Job-1.odb,Step-1,Increment      1: Step Time =    1.000,"P-1-1",          8783,   18.5250E-03,   160.618E-03,            0.,NA,NA,"",   962.729E+03,   1.03272E+06,   1.03272E+06
C:/temp/Job-1.odb,Step-1,Increment      1: Step Time =    1.000,"P-1-1",          8784,   181.315E-03,   123.808E-03,            0.,NA,NA,"",   984.645E+03,   996.946E+03,   996.946E+03
C:/temp/Job-1.odb,Step-1,Increment      1: Step Time =    1.000,"P-1-1",          8785,   123.248E-03,   18.5604E-03,            0.,NA,NA,"",   992.856E+03,   993.713E+03,   993.713E+03
C:/temp/Job-1.odb,Step-1,Increment      1: Step Time =    1.000,"P-1-1",          8786,   181.945E-03,   39.0871E-03,            0.,NA,NA,"",   1.00615E+06,   1.00635E+06,   1.00635E+06
C:/temp/Job-1.odb,Step-1,Increment      1: Step Time =    1.000,"P-1-1",          8787,   37.4295E-03,   18.2985E-03,            0.,NA,NA,"",   1.05084E+06,   1.06046E+06,   1.06046E+06
C:/temp/Job-1.odb,Step-1,Increment      1: Step Time =    1.000,"P-1-1",          8788,   161.080E-03,   181.584E-03,            0.,NA,NA,"",   1.00693E+06,   1.00457E+06,   1.00457E+06
C:/temp/Job-1.odb,Step-1,Increment      1: Step Time =    1.000,"P-1-1",          8789,   127.672E-03,   116.666E-03,            0.,NA,NA,"",   1.10453E+06,   1.02796E+06,   1.02796E+06
C:/temp/Job-1.odb,Step-1,Increment      1: Step Time =    1.000,"P-1-1",          8790,   130.577E-03,   115.489E-03,            0.,NA,NA,"",   1.03680E+06,   978.458E+03,   978.458E+03
C:/temp/Job-1.odb,Step-1,Increment      1: Step Time =    1.000,"P-1-1",          8791,   72.3777E-03,   80.1377E-03,            0.,NA,NA,"",   1.10995E+06,   1.06570E+06,   1.06570E+06
C:/temp/Job-1.odb,Step-1,Increment      1: Step Time =    1.000,"P-1-1",          8792,   76.1410E-03,   78.8962E-03,            0.,NA,NA,"",   1.18438E+06,   1.12920E+06,   1.12920E+06
C:/temp/Job-1.odb,Step-1,Increment      1: Step Time =    1.000,"P-1-1",          8793,   20.4763E-03,   151.281E-03,            0.,NA,NA,"",   935.012E+03,   1.00694E+06,   1.00694E+06
C:/temp/Job-1.odb,Step-1,Increment      1: Step Time =    1.000,"P-1-1",          8794,   151.806E-03,   180.408E-03,            0.,NA,NA,"",   1.00927E+06,   1.00600E+06,   1.00600E+06
C:/temp/Job-1.odb,Step-1,Increment      1: Step Time =    1.000,"P-1-1",          8795,   48.2914E-03,   19.9059E-03,            0.,NA,NA,"",   1.03634E+06,   1.04074E+06,   1.04074E+06
C:/temp/Job-1.odb,Step-1,Increment      1: Step Time =    1.000,"P-1-1",          8796,   180.359E-03,   48.3681E-03,            0.,NA,NA,"",   1.00738E+06,   1.00834E+06,   1.00834E+06
C:/temp/Job-1.odb,Step-1,Increment      1: Step Time =    1.000,"P-1-1",          8797,   46.4272E-03,   180.574E-03,            0.,NA,NA,"",   1.03797E+06,   1.04296E+06,   1.04296E+06
C:/temp/Job-1.odb,Step-1,Increment      1: Step Time =    1.000,"P-1-1",          8798,   17.4811E-03,   47.0082E-03,            0.,NA,NA,"",   928.707E+03,   1.00593E+06,   1.00593E+06
C:/temp/Job-1.odb,Step-1,Increment      1: Step Time =    1.000,"P-1-1",          8799,   180.761E-03,   153.526E-03,            0.,NA,NA,"",   1.00714E+06,   1.00796E+06,   1.00796E+06
C:/temp/Job-1.odb,Step-1,Increment      1: Step Time =    1.000,"P-1-1",          8800,   153.163E-03,   19.3000E-03,            0.,NA,NA,"",   1.00874E+06,   1.00561E+06,   1.00561E+06
C:/temp/Job-1.odb,Step-1,Increment      1: Step Time =    1.000,"P-1-1",          8801,   36.9379E-03,   17.4195E-03,            0.,NA,NA,"",   1.05113E+06,   1.06032E+06,   1.06032E+06
C:/temp/Job-1.odb,Step-1,Increment      1: Step Time =    1.000,"P-1-1",          8802,   152.460E-03,   17.3349E-03,            0.,NA,NA,"",   1.00572E+06,   1.00310E+06,   1.00310E+06
C:/temp/Job-1.odb,Step-1,Increment      1: Step Time =    1.000,"P-1-1",          8803,   182.393E-03,   152.492E-03,            0.,NA,NA,"",   1.00505E+06,   1.00682E+06,   1.00682E+06
C:/temp/Job-1.odb,Step-1,Increment      1: Step Time =    1.000,"P-1-1",          8804,   121.220E-03,   17.8351E-03,            0.,NA,NA,"",   989.373E+03,   990.666E+03,   990.666E+03
C:/temp/Job-1.odb,Step-1,Increment      1: Step Time =    1.000,"P-1-1",          8805,   183.023E-03,   122.406E-03,            0.,NA,NA,"",   982.360E+03,   996.566E+03,   996.566E+03
C:/temp/Job-1.odb,Step-1,Increment      1: Step Time =    1.000,"P-1-1",          8806,   17.5701E-03,   47.9496E-03,            0.,NA,NA,"",   926.267E+03,   1.00349E+06,   1.00349E+06
C:/temp/Job-1.odb,Step-1,Increment      1: Step Time =    1.000,"P-1-1",          8807,   16.9069E-03,   161.965E-03,            0.,NA,NA,"",   961.583E+03,   1.03454E+06,   1.03454E+06
C:/temp/Job-1.odb,Step-1,Increment      1: Step Time =    1.000,"P-1-1",          8808,   17.4101E-03,   76.5357E-03,            0.,NA,NA,"",   835.225E+03,   922.535E+03,   922.535E+03
C:/temp/Job-1.odb,Step-1,Increment      1: Step Time =    1.000,"P-1-1",          8809,   47.6802E-03,   181.933E-03,            0.,NA,NA,"",   1.03390E+06,   1.03770E+06,   1.03770E+06
C:/temp/Job-1.odb,Step-1,Increment      1: Step Time =    1.000,"P-1-1",          8810,   76.8882E-03,   182.836E-03,            0.,NA,NA,"",   992.934E+03,   995.239E+03,   995.239E+03
C:/temp/Job-1.odb,Step-1,Increment      1: Step Time =    1.000,"P-1-1",          8811,   89.9423E-03,   132.636E-03,            0.,NA,NA,"",   1.12559E+06,   1.17126E+06,   1.17126E+06
C:/temp/Job-1.odb,Step-1,Increment      1: Step Time =    1.000,"P-1-1",          8812,   78.6496E-03,   123.350E-03,            0.,NA,NA,"",   1.22543E+06,   1.17805E+06,   1.17805E+06
C:/temp/Job-1.odb,Step-1,Increment      1: Step Time =    1.000,"P-1-1",          8813,   66.4543E-03,   178.993E-03,            0.,NA,NA,"",   1.01723E+06,   1.01894E+06,   1.01894E+06
C:/temp/Job-1.odb,Step-1,Increment      1: Step Time =    1.000,"P-1-1",          8814,   19.8941E-03,   67.2177E-03,            0.,NA,NA,"",   869.629E+03,   951.061E+03,   951.061E+03
C:/temp/Job-1.odb,Step-1,Increment      1: Step Time =    1.000,"P-1-1",          8815,   179.624E-03,   134.039E-03,            0.,NA,NA,"",   997.823E+03,   1.00391E+06,   1.00391E+06
C:/temp/Job-1.odb,Step-1,Increment      1: Step Time =    1.000,"P-1-1",          8816,   134.070E-03,   21.6238E-03,            0.,NA,NA,"",   1.00845E+06,   1.00620E+06,   1.00620E+06
C:/temp/Job-1.odb,Step-1,Increment      1: Step Time =    1.000,"P-1-1",          8817,   79.1813E-03,   126.390E-03,            0.,NA,NA,"",   1.21588E+06,   1.18431E+06,   1.18431E+06
C:/temp/Job-1.odb,Step-1,Increment      1: Step Time =    1.000,"P-1-1",          8818,   69.7014E-03,   112.982E-03,            0.,NA,NA,"",   926.138E+03,   907.807E+03,   907.807E+03
C:/temp/Job-1.odb,Step-1,Increment      1: Step Time =    1.000,"P-1-1",          8819,   71.5833E-03,   84.1285E-03,            0.,NA,NA,"",   1.02913E+06,   989.189E+03,   989.189E+03
C:/temp/Job-1.odb,Step-1,Increment      1: Step Time =    1.000,"P-1-1",          8820,   74.2581E-03,   80.7195E-03,            0.,NA,NA,"",   1.13509E+06,   1.08132E+06,   1.08132E+06
C:/temp/Job-1.odb,Step-1,Increment      1: Step Time =    1.000,"P-1-1",          8821,   70.3366E-03,   84.7780E-03,            0.,NA,NA,"",   994.552E+03,   963.880E+03,   963.880E+03
C:/temp/Job-1.odb,Step-1,Increment      1: Step Time =    1.000,"P-1-1",          8822,   69.0181E-03,   110.029E-03,            0.,NA,NA,"",   836.242E+03,   835.518E+03,   835.518E+03
C:/temp/Job-1.odb,Step-1,Increment      1: Step Time =    1.000,"P-1-1",          8823,   126.646E-03,   97.9773E-03,            0.,NA,NA,"",   565.434E+03,   572.805E+03,   572.805E+03
C:/temp/Job-1.odb,Step-1,Increment      1: Step Time =    1.000,"P-1-1",          8824,   19.7191E-03,   142.041E-03,            0.,NA,NA,"",   899.535E+03,   977.580E+03,   977.580E+03
C:/temp/Job-1.odb,Step-1,Increment      1: Step Time =    1.000,"P-1-1",          8825,   142.080E-03,   179.998E-03,            0.,NA,NA,"",   1.00849E+06,   1.00535E+06,   1.00535E+06
C:/temp/Job-1.odb,Step-1,Increment      1: Step Time =    1.000,"P-1-1",          8826,   57.3383E-03,   19.7671E-03,            0.,NA,NA,"",   1.02490E+06,   1.02673E+06,   1.02673E+06
C:/temp/Job-1.odb,Step-1,Increment      1: Step Time =    1.000,"P-1-1",          8827,   180.210E-03,   58.5389E-03,            0.,NA,NA,"",   1.00330E+06,   1.00692E+06,   1.00692E+06
C:/temp/Job-1.odb,Step-1,Increment      1: Step Time =    1.000,"P-1-1",          8828,   19.7888E-03,   171.844E-03,            0.,NA,NA,"",   1.02120E+06,   1.07576E+06,   1.07576E+06
C:/temp/Job-1.odb,Step-1,Increment      1: Step Time =    1.000,"P-1-1",          8829,   180.437E-03,   27.4982E-03,            0.,NA,NA,"",   1.00515E+06,   1.00447E+06,   1.00447E+06
C:/temp/Job-1.odb,Step-1,Increment      1: Step Time =    1.000,"P-1-1",          8830,   172.061E-03,   179.320E-03,            0.,NA,NA,"",   1.00589E+06,   1.00440E+06,   1.00440E+06
C:/temp/Job-1.odb,Step-1,Increment      1: Step Time =    1.000,"P-1-1",          8831,   68.5027E-03,   105.411E-03,            0.,NA,NA,"",   696.358E+03,   723.769E+03,   723.769E+03
C:/temp/Job-1.odb,Step-1,Increment      1: Step Time =    1.000,"P-1-1",          8832,   66.6818E-03,   103.177E-03,            0.,NA,NA,"",   671.482E+03,   711.512E+03,   711.512E+03
C:/temp/Job-1.odb,Step-1,Increment      1: Step Time =    1.000,"P-1-1",          8833,   93.6523E-03,   132.025E-03,            0.,NA,NA,"",   1.09925E+06,   1.16683E+06,   1.16683E+06
C:/temp/Job-1.odb,Step-1,Increment      1: Step Time =    1.000,"P-1-1",          8834,   132.929E-03,   111.612E-03,            0.,NA,NA,"",   917.947E+03,   886.023E+03,   886.023E+03
C:/temp/Job-1.odb,Step-1,Increment      1: Step Time =    1.000,"P-1-1",          8835,   83.7104E-03,   129.091E-03,            0.,NA,NA,"",   1.20500E+06,   1.20357E+06,   1.20357E+06
C:/temp/Job-1.odb,Step-1,Increment      1: Step Time =    1.000,"P-1-1",          8836,   90.7822E-03,   130.478E-03,            0.,NA,NA,"",   1.14086E+06,   1.19343E+06,   1.19343E+06
C:/temp/Job-1.odb,Step-1,Increment      1: Step Time =    1.000,"P-1-1",          8837,   98.1492E-03,   132.300E-03,            0.,NA,NA,"",   1.06786E+06,   1.14999E+06,   1.14999E+06
C:/temp/Job-1.odb,Step-1,Increment      1: Step Time =    1.000,"P-1-1",          8838,   132.166E-03,   19.4026E-03,            0.,NA,NA,"",   1.00194E+06,   1.00046E+06,   1.00046E+06
C:/temp/Job-1.odb,Step-1,Increment      1: Step Time =    1.000,"P-1-1",          8839,   182.004E-03,   131.520E-03,            0.,NA,NA,"",   992.828E+03,   1.00183E+06,   1.00183E+06
C:/temp/Job-1.odb,Step-1,Increment      1: Step Time =    1.000,"P-1-1",          8840,   68.6309E-03,   181.543E-03,            0.,NA,NA,"",   1.00701E+06,   1.00844E+06,   1.00844E+06
C:/temp/Job-1.odb,Step-1,Increment      1: Step Time =    1.000,"P-1-1",          8841,   17.9431E-03,   68.3959E-03,            0.,NA,NA,"",   859.872E+03,   944.416E+03,   944.416E+03
C:/temp/Job-1.odb,Step-1,Increment      1: Step Time =    1.000,"P-1-1",          8842,   47.0732E-03,   17.8729E-03,            0.,NA,NA,"",   1.03432E+06,   1.03824E+06,   1.03824E+06
C:/temp/Job-1.odb,Step-1,Increment      1: Step Time =    1.000,"P-1-1",          8843,   182.581E-03,   46.2559E-03,            0.,NA,NA,"",   1.00512E+06,   1.00667E+06,   1.00667E+06
C:/temp/Job-1.odb,Step-1,Increment      1: Step Time =    1.000,"P-1-1",          8844,   18.3632E-03,   153.295E-03,            0.,NA,NA,"",   933.278E+03,   1.00846E+06,   1.00846E+06
C:/temp/Job-1.odb,Step-1,Increment      1: Step Time =    1.000,"P-1-1",          8845,   153.644E-03,   182.659E-03,            0.,NA,NA,"",   1.00584E+06,   1.00326E+06,   1.00326E+06
C:/temp/Job-1.odb,Step-1,Increment      1: Step Time =    1.000,"P-1-1",          8846,   102.112E-03,   133.464E-03,            0.,NA,NA,"",   1.06233E+06,   1.13911E+06,   1.13911E+06
C:/temp/Job-1.odb,Step-1,Increment      1: Step Time =    1.000,"P-1-1",          8847,   133.200E-03,   108.357E-03,            0.,NA,NA,"",   832.665E+03,   818.646E+03,   818.646E+03
C:/temp/Job-1.odb,Step-1,Increment      1: Step Time =    1.000,"P-1-1",          8848,   121.995E-03,   86.4867E-03,            0.,NA,NA,"",   1.14109E+06,   1.02400E+06,   1.02400E+06
C:/temp/Job-1.odb,Step-1,Increment      1: Step Time =    1.000,"P-1-1",          8849,   80.9604E-03,   80.3572E-03,            0.,NA,NA,"",   1.26821E+06,   1.19902E+06,   1.19902E+06
C:/temp/Job-1.odb,Step-1,Increment      1: Step Time =    1.000,"P-1-1",          8850,   123.332E-03,   92.7117E-03,            0.,NA,NA,"",   788.507E+03,   715.360E+03,   715.360E+03
C:/temp/Job-1.odb,Step-1,Increment      1: Step Time =    1.000,"P-1-1",          8851,   19.4163E-03,   122.116E-03,            0.,NA,NA,"",   837.207E+03,   922.340E+03,   922.340E+03
C:/temp/Job-1.odb,Step-1,Increment      1: Step Time =    1.000,"P-1-1",          8852,   122.273E-03,   181.783E-03,            0.,NA,NA,"",   991.278E+03,   992.338E+03,   992.338E+03
C:/temp/Job-1.odb,Step-1,Increment      1: Step Time =    1.000,"P-1-1",          8853,   37.0805E-03,   181.325E-03,            0.,NA,NA,"",   1.05103E+06,   1.06127E+06,   1.06127E+06
C:/temp/Job-1.odb,Step-1,Increment      1: Step Time =    1.000,"P-1-1",          8854,   77.9112E-03,   18.9073E-03,            0.,NA,NA,"",    996.73E+03,   999.676E+03,   999.676E+03
C:/temp/Job-1.odb,Step-1,Increment      1: Step Time =    1.000,"P-1-1",          8855,   22.1604E-03,   133.221E-03,            0.,NA,NA,"",   879.243E+03,   956.769E+03,   956.769E+03
C:/temp/Job-1.odb,Step-1,Increment      1: Step Time =    1.000,"P-1-1",          8856,   133.501E-03,   179.293E-03,            0.,NA,NA,"",   1.00602E+06,   1.00405E+06,   1.00405E+06
C:/temp/Job-1.odb,Step-1,Increment      1: Step Time =    1.000,"P-1-1",          8857,   67.2356E-03,   21.3856E-03,            0.,NA,NA,"",   1.01716E+06,   1.01896E+06,   1.01896E+06
C:/temp/Job-1.odb,Step-1,Increment      1: Step Time =    1.000,"P-1-1",          8858,   179.842E-03,   66.7699E-03,            0.,NA,NA,"",   996.806E+03,   1.00338E+06,   1.00338E+06
C:/temp/Job-1.odb,Step-1,Increment      1: Step Time =    1.000,"P-1-1",          8859,   180.821E-03,   77.7705E-03,            0.,NA,NA,"",   982.975E+03,   995.608E+03,   995.608E+03
C:/temp/Job-1.odb,Step-1,Increment      1: Step Time =    1.000,"P-1-1",          8860,   181.229E-03,   162.506E-03,            0.,NA,NA,"",   1.00667E+06,   1.00653E+06,   1.00653E+06
C:/temp/Job-1.odb,Step-1,Increment      1: Step Time =    1.000,"P-1-1",          8861,   18.8962E-03,   36.9461E-03,            0.,NA,NA,"",   975.196E+03,   1.04226E+06,   1.04226E+06
C:/temp/Job-1.odb,Step-1,Increment      1: Step Time =    1.000,"P-1-1",          8862,   86.3632E-03,   79.5326E-03,            0.,NA,NA,"",   1.33157E+06,   1.30502E+06,   1.30502E+06
C:/temp/Job-1.odb,Step-1,Increment      1: Step Time =    1.000,"P-1-1",          8863,   181.029E-03,   93.5976E-03,            0.,NA,NA,"",   967.044E+03,   985.850E+03,   985.850E+03
C:/temp/Job-1.odb,Step-1,Increment      1: Step Time =    1.000,"P-1-1",          8864,   106.020E-03,   132.802E-03,            0.,NA,NA,"",   1.09038E+06,   1.15492E+06,   1.15492E+06
C:/temp/Job-1.odb,Step-1,Increment      1: Step Time =    1.000,"P-1-1",          8865,   134.341E-03,   104.917E-03,            0.,NA,NA,"",   762.059E+03,   767.060E+03,   767.060E+03
C:/temp/Job-1.odb,Step-1,Increment      1: Step Time =    1.000,"P-1-1",          8866,   106.253E-03,   181.637E-03,            0.,NA,NA,"",   980.051E+03,   984.997E+03,   984.997E+03
C:/temp/Job-1.odb,Step-1,Increment      1: Step Time =    1.000,"P-1-1",          8867,   19.5133E-03,   106.347E-03,            0.,NA,NA,"",   807.710E+03,   895.479E+03,   895.479E+03
C:/temp/Job-1.odb,Step-1,Increment      1: Step Time =    1.000,"P-1-1",          8868,   93.8001E-03,   17.8264E-03,            0.,NA,NA,"",   979.394E+03,   984.491E+03,   984.491E+03
C:/temp/Job-1.odb,Step-1,Increment      1: Step Time =    1.000,"P-1-1",          8869,   19.8360E-03,   180.466E-03,            0.,NA,NA,"",   1.07120E+06,   1.10951E+06,   1.10951E+06
C:/temp/Job-1.odb,Step-1,Increment      1: Step Time =    1.000,"P-1-1",          8870,   72.1005E-03,   181.774E-03,            0.,NA,NA,"",   1.00175E+06,   1.00352E+06,   1.00352E+06
C:/temp/Job-1.odb,Step-1,Increment      1: Step Time =    1.000,"P-1-1",          8871,   178.515E-03,   18.1025E-03,            0.,NA,NA,"",   1.00271E+06,   1.00211E+06,   1.00211E+06
C:/temp/Job-1.odb,Step-1,Increment      1: Step Time =    1.000,"P-1-1",          8872,   18.8837E-03,   70.4732E-03,            0.,NA,NA,"",   857.077E+03,   940.683E+03,   940.683E+03
C:/temp/Job-1.odb,Step-1,Increment      1: Step Time =    1.000,"P-1-1",          8873,   180.107E-03,   128.906E-03,            0.,NA,NA,"",   991.590E+03,   1.00042E+06,   1.00042E+06
C:/temp/Job-1.odb,Step-1,Increment      1: Step Time =    1.000,"P-1-1",          8874,   129.424E-03,   20.1332E-03,            0.,NA,NA,"",   1.00178E+06,   1.00094E+06,   1.00094E+06
C:/temp/Job-1.odb,Step-1,Increment      1: Step Time =    1.000,"P-1-1",          8875,   156.546E-03,   181.347E-03,            0.,NA,NA,"",   1.00778E+06,   1.00500E+06,   1.00500E+06
C:/temp/Job-1.odb,Step-1,Increment      1: Step Time =    1.000,"P-1-1",          8876,   181.303E-03,   43.3657E-03,            0.,NA,NA,"",   1.00687E+06,   1.00737E+06,   1.00737E+06
C:/temp/Job-1.odb,Step-1,Increment      1: Step Time =    1.000,"P-1-1",          8877,   44.3791E-03,   18.7554E-03,            0.,NA,NA,"",   1.03977E+06,   1.04538E+06,   1.04538E+06
C:/temp/Job-1.odb,Step-1,Increment      1: Step Time =    1.000,"P-1-1",          8878,   69.7101E-03,   106.043E-03,            0.,NA,NA,"",   705.071E+03,   724.749E+03,   724.749E+03
C:/temp/Job-1.odb,Step-1,Increment      1: Step Time =    1.000,"P-1-1",          8879,   19.4459E-03,   19.9983E-03,            0.,NA,NA,"",   1.06909E+06,   1.10912E+06,   1.10912E+06
C:/temp/Job-1.odb,Step-1,Increment      1: Step Time =    1.000,"P-1-1",          8880,   94.7777E-03,   132.950E-03,            0.,NA,NA,"",   1.08263E+06,   1.15300E+06,   1.15300E+06
C:/temp/Job-1.odb,Step-1,Increment      1: Step Time =    1.000,"P-1-1",          8881,   133.567E-03,   115.014E-03,            0.,NA,NA,"",   998.018E+03,   955.078E+03,   955.078E+03
C:/temp/Job-1.odb,Step-1,Increment      1: Step Time =    1.000,"P-1-1",          8882,   75.1834E-03,   19.8024E-03,            0.,NA,NA,"",   1.00240E+06,   1.00509E+06,   1.00509E+06
C:/temp/Job-1.odb,Step-1,Increment      1: Step Time =    1.000,"P-1-1",          8883,   180.322E-03,   73.4398E-03,            0.,NA,NA,"",   988.613E+03,   998.739E+03,   998.739E+03
C:/temp/Job-1.odb,Step-1,Increment      1: Step Time =    1.000,"P-1-1",          8884,   180.088E-03,   99.9482E-03,            0.,NA,NA,"",   964.500E+03,   983.281E+03,   983.281E+03
C:/temp/Job-1.odb,Step-1,Increment      1: Step Time =    1.000,"P-1-1",          8885,   100.060E-03,   179.809E-03,            0.,NA,NA,"",   983.364E+03,   989.901E+03,   989.901E+03
C:/temp/Job-1.odb,Step-1,Increment      1: Step Time =    1.000,"P-1-1",          8886,   100.008E-03,   20.9276E-03,            0.,NA,NA,"",   984.801E+03,   991.777E+03,   991.777E+03
C:/temp/Job-1.odb,Step-1,Increment      1: Step Time =    1.000,"P-1-1",          8887,   133.314E-03,   102.747E-03,            0.,NA,NA,"",   711.984E+03,   723.983E+03,   723.983E+03
C:/temp/Job-1.odb,Step-1,Increment      1: Step Time =    1.000,"P-1-1",          8888,   20.3573E-03,   136.012E-03,            0.,NA,NA,"",   882.005E+03,   961.372E+03,   961.372E+03
C:/temp/Job-1.odb,Step-1,Increment      1: Step Time =    1.000,"P-1-1",          8889,   135.540E-03,   179.438E-03,            0.,NA,NA,"",   1.00690E+06,   1.00454E+06,   1.00454E+06
C:/temp/Job-1.odb,Step-1,Increment      1: Step Time =    1.000,"P-1-1",          8890,   64.2377E-03,   21.2960E-03,            0.,NA,NA,"",   1.02052E+06,   1.02215E+06,   1.02215E+06
C:/temp/Job-1.odb,Step-1,Increment      1: Step Time =    1.000,"P-1-1",          8891,   179.784E-03,   63.7489E-03,            0.,NA,NA,"",   999.791E+03,   1.00505E+06,   1.00505E+06
C:/temp/Job-1.odb,Step-1,Increment      1: Step Time =    1.000,"P-1-1",          8892,   110.997E-03,   131.807E-03,            0.,NA,NA,"",   1.14656E+06,   1.18079E+06,   1.18079E+06
C:/temp/Job-1.odb,Step-1,Increment      1: Step Time =    1.000,"P-1-1",          8893,   86.0373E-03,   132.413E-03,            0.,NA,NA,"",   1.15708E+06,   1.17837E+06,   1.17837E+06
C:/temp/Job-1.odb,Step-1,Increment      1: Step Time =    1.000,"P-1-1",          8894,   19.8783E-03,   129.939E-03,            0.,NA,NA,"",   860.975E+03,   943.184E+03,   943.184E+03
C:/temp/Job-1.odb,Step-1,Increment      1: Step Time =    1.000,"P-1-1",          8895,   129.589E-03,   179.263E-03,            0.,NA,NA,"",   1.00344E+06,   1.00246E+06,   1.00246E+06
C:/temp/Job-1.odb,Step-1,Increment      1: Step Time =    1.000,"P-1-1",          8896,   179.957E-03,   69.8923E-03,            0.,NA,NA,"",   993.271E+03,   1.00133E+06,   1.00133E+06
C:/temp/Job-1.odb,Step-1,Increment      1: Step Time =    1.000,"P-1-1",          8897,   70.7371E-03,   20.0016E-03,            0.,NA,NA,"",   1.00863E+06,   1.01056E+06,   1.01056E+06
C:/temp/Job-1.odb,Step-1,Increment      1: Step Time =    1.000,"P-1-1",          8898,   180.317E-03,   97.1935E-03,            0.,NA,NA,"",   965.146E+03,   983.981E+03,   983.981E+03
C:/temp/Job-1.odb,Step-1,Increment      1: Step Time =    1.000,"P-1-1",          8899,   102.827E-03,   180.439E-03,            0.,NA,NA,"",   981.938E+03,   987.843E+03,   987.843E+03
C:/temp/Job-1.odb,Step-1,Increment      1: Step Time =    1.000,"P-1-1",          8900,   19.8538E-03,   103.323E-03,            0.,NA,NA,"",   806.009E+03,   893.667E+03,   893.667E+03
C:/temp/Job-1.odb,Step-1,Increment      1: Step Time =    1.000,"P-1-1",          8901,   97.0923E-03,   20.0321E-03,            0.,NA,NA,"",   983.328E+03,   989.784E+03,   989.784E+03
C:/temp/Job-1.odb,Step-1,Increment      1: Step Time =    1.000,"P-1-1",          8902,   95.8558E-03,   178.714E-03,            0.,NA,NA,"",   986.477E+03,   993.547E+03,   993.547E+03
C:/temp/Job-1.odb,Step-1,Increment      1: Step Time =    1.000,"P-1-1",          8903,   19.8316E-03,   97.7439E-03,            0.,NA,NA,"",   805.524E+03,   893.240E+03,   893.240E+03
C:/temp/Job-1.odb,Step-1,Increment      1: Step Time =    1.000,"P-1-1",          8904,   178.979E-03,   104.588E-03,            0.,NA,NA,"",   964.477E+03,   982.250E+03,   982.250E+03
C:/temp/Job-1.odb,Step-1,Increment      1: Step Time =    1.000,"P-1-1",          8905,   104.462E-03,   20.7195E-03,            0.,NA,NA,"",   984.624E+03,   991.011E+03,   991.011E+03
C:/temp/Job-1.odb,Step-1,Increment      1: Step Time =    1.000,"P-1-1",          8906,   137.561E-03,   179.209E-03,            0.,NA,NA,"",   1.00852E+06,   1.00575E+06,   1.00575E+06
C:/temp/Job-1.odb,Step-1,Increment      1: Step Time =    1.000,"P-1-1",          8907,   20.6124E-03,   138.968E-03,            0.,NA,NA,"",   892.597E+03,   970.375E+03,   970.375E+03
C:/temp/Job-1.odb,Step-1,Increment      1: Step Time =    1.000,"P-1-1",          8908,   180.385E-03,   61.0666E-03,            0.,NA,NA,"",   1.00137E+06,   1.00595E+06,   1.00595E+06
C:/temp/Job-1.odb,Step-1,Increment      1: Step Time =    1.000,"P-1-1",          8909,   61.3583E-03,   20.8908E-03,            0.,NA,NA,"",   1.02291E+06,   1.02455E+06,   1.02455E+06
C:/temp/Job-1.odb,Step-1,Increment      1: Step Time =    1.000,"P-1-1",          8910,   168.856E-03,   180.146E-03,            0.,NA,NA,"",   1.00639E+06,   1.00461E+06,   1.00461E+06
C:/temp/Job-1.odb,Step-1,Increment      1: Step Time =    1.000,"P-1-1",          8911,   29.2009E-03,   19.1581E-03,            0.,NA,NA,"",   1.06418E+06,   1.08371E+06,   1.08371E+06
C:/temp/Job-1.odb,Step-1,Increment      1: Step Time =    1.000,"P-1-1",          8912,   19.7476E-03,   169.820E-03,            0.,NA,NA,"",   1.01073E+06,   1.06813E+06,   1.06813E+06
C:/temp/Job-1.odb,Step-1,Increment      1: Step Time =    1.000,"P-1-1",          8913,   179.239E-03,   31.0622E-03,            0.,NA,NA,"",   1.00695E+06,   1.00604E+06,   1.00604E+06
C:/temp/Job-1.odb,Step-1,Increment      1: Step Time =    1.000,"P-1-1",          8914,   20.1721E-03,   148.617E-03,            0.,NA,NA,"",   923.955E+03,   998.045E+03,   998.045E+03
C:/temp/Job-1.odb,Step-1,Increment      1: Step Time =    1.000,"P-1-1",          8915,   148.387E-03,   179.957E-03,            0.,NA,NA,"",   1.00981E+06,   1.00637E+06,   1.00637E+06
C:/temp/Job-1.odb,Step-1,Increment      1: Step Time =    1.000,"P-1-1",          8916,   50.2058E-03,   19.8861E-03,            0.,NA,NA,"",   1.03402E+06,   1.03765E+06,   1.03765E+06
C:/temp/Job-1.odb,Step-1,Increment      1: Step Time =    1.000,"P-1-1",          8917,   180.121E-03,   51.4667E-03,            0.,NA,NA,"",   1.00687E+06,   1.00839E+06,   1.00839E+06
C:/temp/Job-1.odb,Step-1,Increment      1: Step Time =    1.000,"P-1-1",          8918,   93.0622E-03,   178.959E-03,            0.,NA,NA,"",   987.297E+03,   994.108E+03,   994.108E+03
C:/temp/Job-1.odb,Step-1,Increment      1: Step Time =    1.000,"P-1-1",          8919,   179.449E-03,   107.400E-03,            0.,NA,NA,"",   966.477E+03,   983.943E+03,   983.943E+03
C:/temp/Job-1.odb,Step-1,Increment      1: Step Time =    1.000,"P-1-1",          8920,   106.697E-03,   20.0109E-03,            0.,NA,NA,"",   983.953E+03,   989.592E+03,   989.592E+03
C:/temp/Job-1.odb,Step-1,Increment      1: Step Time =    1.000,"P-1-1",          8921,   18.9663E-03,   177.486E-03,            0.,NA,NA,"",   1.05273E+06,   1.09992E+06,   1.09992E+06
C:/temp/Job-1.odb,Step-1,Increment      1: Step Time =    1.000,"P-1-1",          8922,   180.277E-03,   21.4579E-03,            0.,NA,NA,"",   1.00330E+06,   1.00274E+06,   1.00274E+06
C:/temp/Job-1.odb,Step-1,Increment      1: Step Time =    1.000,"P-1-1",          8923,   20.8996E-03,   119.520E-03,            0.,NA,NA,"",   833.922E+03,   917.962E+03,   917.962E+03
C:/temp/Job-1.odb,Step-1,Increment      1: Step Time =    1.000,"P-1-1",          8924,   119.428E-03,   180.672E-03,            0.,NA,NA,"",   991.404E+03,   993.451E+03,   993.451E+03
C:/temp/Job-1.odb,Step-1,Increment      1: Step Time =    1.000,"P-1-1",          8925,   21.4550E-03,   19.7895E-03,            0.,NA,NA,"",   1.07056E+06,   1.10503E+06,   1.10503E+06
C:/temp/Job-1.odb,Step-1,Increment      1: Step Time =    1.000,"P-1-1",          8926,   34.5491E-03,   180.408E-03,            0.,NA,NA,"",   1.05502E+06,   1.06859E+06,   1.06859E+06
C:/temp/Job-1.odb,Step-1,Increment      1: Step Time =    1.000,"P-1-1",          8927,   178.066E-03,   180.350E-03,            0.,NA,NA,"",   1.00340E+06,   1.00269E+06,   1.00269E+06
C:/temp/Job-1.odb,Step-1,Increment      1: Step Time =    1.000,"P-1-1",          8928,   80.0936E-03,   19.6458E-03,            0.,NA,NA,"",   996.117E+03,   999.596E+03,   999.596E+03
C:/temp/Job-1.odb,Step-1,Increment      1: Step Time =    1.000,"P-1-1",          8929,   62.9790E-03,   179.378E-03,            0.,NA,NA,"",   1.02033E+06,   1.02185E+06,   1.02185E+06
C:/temp/Job-1.odb,Step-1,Increment      1: Step Time =    1.000,"P-1-1",          8930,   19.9666E-03,   63.8106E-03,            0.,NA,NA,"",   881.411E+03,    961.22E+03,    961.22E+03
C:/temp/Job-1.odb,Step-1,Increment      1: Step Time =    1.000,"P-1-1",          8931,   179.825E-03,   80.9905E-03,            0.,NA,NA,"",   979.076E+03,   992.472E+03,   992.472E+03
C:/temp/Job-1.odb,Step-1,Increment      1: Step Time =    1.000,"P-1-1",          8932,   179.244E-03,   165.883E-03,            0.,NA,NA,"",   1.00781E+06,   1.00692E+06,   1.00692E+06
C:/temp/Job-1.odb,Step-1,Increment      1: Step Time =    1.000,"P-1-1",          8933,   178.995E-03,   137.515E-03,            0.,NA,NA,"",   1.00180E+06,   1.00605E+06,   1.00605E+06
C:/temp/Job-1.odb,Step-1,Increment      1: Step Time =    1.000,"P-1-1",          8934,   136.895E-03,   20.7536E-03,            0.,NA,NA,"",   1.00798E+06,   1.00533E+06,   1.00533E+06
C:/temp/Job-1.odb,Step-1,Increment      1: Step Time =    1.000,"P-1-1",          8935,   19.8669E-03,   34.8554E-03,            0.,NA,NA,"",   988.012E+03,   1.05075E+06,   1.05075E+06
C:/temp/Job-1.odb,Step-1,Increment      1: Step Time =    1.000,"P-1-1",          8936,   43.8643E-03,   180.218E-03,            0.,NA,NA,"",   1.04198E+06,   1.04849E+06,   1.04849E+06
C:/temp/Job-1.odb,Step-1,Increment      1: Step Time =    1.000,"P-1-1",          8937,   20.1817E-03,   44.0004E-03,            0.,NA,NA,"",   950.951E+03,   1.02076E+06,   1.02076E+06
C:/temp/Job-1.odb,Step-1,Increment      1: Step Time =    1.000,"P-1-1",          8938,   179.611E-03,   155.741E-03,            0.,NA,NA,"",   1.00871E+06,   1.00868E+06,   1.00868E+06
C:/temp/Job-1.odb,Step-1,Increment      1: Step Time =    1.000,"P-1-1",          8939,   155.730E-03,   20.6022E-03,            0.,NA,NA,"",   1.01046E+06,   1.00712E+06,   1.00712E+06
C:/temp/Job-1.odb,Step-1,Increment      1: Step Time =    1.000,"P-1-1",          8940,   179.522E-03,   34.1875E-03,            0.,NA,NA,"",   1.00752E+06,   1.00672E+06,   1.00672E+06
C:/temp/Job-1.odb,Step-1,Increment      1: Step Time =    1.000,"P-1-1",          8941,   33.9153E-03,   20.7394E-03,            0.,NA,NA,"",   1.05549E+06,   1.07118E+06,   1.07118E+06
C:/temp/Job-1.odb,Step-1,Increment      1: Step Time =    1.000,"P-1-1",          8942,   165.539E-03,   179.675E-03,            0.,NA,NA,"",   1.00786E+06,   1.00558E+06,   1.00558E+06
C:/temp/Job-1.odb,Step-1,Increment      1: Step Time =    1.000,"P-1-1",          8943,   20.9713E-03,   127.190E-03,            0.,NA,NA,"",   856.109E+03,   937.615E+03,   937.615E+03
C:/temp/Job-1.odb,Step-1,Increment      1: Step Time =    1.000,"P-1-1",          8944,   126.086E-03,   178.695E-03,            0.,NA,NA,"",   1.00203E+06,   1.00210E+06,   1.00210E+06
C:/temp/Job-1.odb,Step-1,Increment      1: Step Time =    1.000,"P-1-1",          8945,   73.7096E-03,   180.283E-03,            0.,NA,NA,"",   1.00418E+06,   1.00651E+06,   1.00651E+06
C:/temp/Job-1.odb,Step-1,Increment      1: Step Time =    1.000,"P-1-1",          8946,   20.0515E-03,   73.9333E-03,            0.,NA,NA,"",   849.920E+03,   933.121E+03,   933.121E+03
C:/temp/Job-1.odb,Step-1,Increment      1: Step Time =    1.000,"P-1-1",          8947,   19.8768E-03,   159.225E-03,            0.,NA,NA,"",   962.288E+03,   1.03023E+06,   1.03023E+06
C:/temp/Job-1.odb,Step-1,Increment      1: Step Time =    1.000,"P-1-1",          8948,   179.121E-03,   126.204E-03,            0.,NA,NA,"",   988.953E+03,   998.307E+03,   998.307E+03
C:/temp/Job-1.odb,Step-1,Increment      1: Step Time =    1.000,"P-1-1",          8949,   126.899E-03,   20.6621E-03,            0.,NA,NA,"",   1.00101E+06,   1.00085E+06,   1.00085E+06
C:/temp/Job-1.odb,Step-1,Increment      1: Step Time =    1.000,"P-1-1",          8950,   179.419E-03,   40.9214E-03,            0.,NA,NA,"",   1.00879E+06,   1.00833E+06,   1.00833E+06
C:/temp/Job-1.odb,Step-1,Increment      1: Step Time =    1.000,"P-1-1",          8951,   41.4847E-03,   19.4878E-03,            0.,NA,NA,"",   1.04493E+06,   1.05273E+06,   1.05273E+06
C:/temp/Job-1.odb,Step-1,Increment      1: Step Time =    1.000,"P-1-1",          8952,   158.797E-03,   179.204E-03,            0.,NA,NA,"",   1.01014E+06,   1.00701E+06,   1.00701E+06
C:/temp/Job-1.odb,Step-1,Increment      1: Step Time =    1.000,"P-1-1",          8953,   86.9545E-03,   180.972E-03,            0.,NA,NA,"",   987.137E+03,   991.834E+03,   991.834E+03
C:/temp/Job-1.odb,Step-1,Increment      1: Step Time =    1.000,"P-1-1",          8954,   179.997E-03,   113.031E-03,            0.,NA,NA,"",   972.004E+03,   988.148E+03,   988.148E+03
C:/temp/Job-1.odb,Step-1,Increment      1: Step Time =    1.000,"P-1-1",          8955,   20.9709E-03,   86.8808E-03,            0.,NA,NA,"",   819.933E+03,   905.315E+03,   905.315E+03
C:/temp/Job-1.odb,Step-1,Increment      1: Step Time =    1.000,"P-1-1",          8956,   112.944E-03,   19.8080E-03,            0.,NA,NA,"",   987.196E+03,   991.278E+03,   991.278E+03
C:/temp/Job-1.odb,Step-1,Increment      1: Step Time =    1.000,"P-1-1",          8957,   20.5143E-03,   116.764E-03,            0.,NA,NA,"",   826.603E+03,   911.727E+03,   911.727E+03
C:/temp/Job-1.odb,Step-1,Increment      1: Step Time =    1.000,"P-1-1",          8958,   116.454E-03,   179.508E-03,            0.,NA,NA,"",   991.539E+03,   994.856E+03,   994.856E+03
C:/temp/Job-1.odb,Step-1,Increment      1: Step Time =    1.000,"P-1-1",          8959,   84.7034E-03,   20.7470E-03,            0.,NA,NA,"",   994.067E+03,   999.251E+03,   999.251E+03
C:/temp/Job-1.odb,Step-1,Increment      1: Step Time =    1.000,"P-1-1",          8960,   31.1258E-03,   180.021E-03,            0.,NA,NA,"",   1.06011E+06,   1.07801E+06,   1.07801E+06
C:/temp/Job-1.odb,Step-1,Increment      1: Step Time =    1.000,"P-1-1",          8961,   169.251E-03,   19.3803E-03,            0.,NA,NA,"",   1.00589E+06,   1.00422E+06,   1.00422E+06
C:/temp/Job-1.odb,Step-1,Increment      1: Step Time =    1.000,"P-1-1",          8962,   180.085E-03,   84.3799E-03,            0.,NA,NA,"",   974.975E+03,   990.083E+03,   990.083E+03
C:/temp/Job-1.odb,Step-1,Increment      1: Step Time =    1.000,"P-1-1",          8963,   60.8835E-03,   179.703E-03,            0.,NA,NA,"",   1.02205E+06,   1.02364E+06,   1.02364E+06
C:/temp/Job-1.odb,Step-1,Increment      1: Step Time =    1.000,"P-1-1",          8964,   20.1312E-03,   60.9659E-03,            0.,NA,NA,"",   890.673E+03,   969.311E+03,   969.311E+03
C:/temp/Job-1.odb,Step-1,Increment      1: Step Time =    1.000,"P-1-1",          8965,   179.642E-03,   168.924E-03,            0.,NA,NA,"",   1.00663E+06,   1.00581E+06,   1.00581E+06
C:/temp/Job-1.odb,Step-1,Increment      1: Step Time =    1.000,"P-1-1",          8966,   122.648E-03,   123.106E-03,            0.,NA,NA,"",   1.23940E+06,   1.16749E+06,   1.16749E+06
C:/temp/Job-1.odb,Step-1,Increment      1: Step Time =    1.000,"P-1-1",          8967,   179.958E-03,   139.762E-03,            0.,NA,NA,"",   1.00246E+06,   1.00651E+06,   1.00651E+06
C:/temp/Job-1.odb,Step-1,Increment      1: Step Time =    1.000,"P-1-1",          8968,   139.241E-03,   20.7114E-03,            0.,NA,NA,"",   1.00883E+06,   1.00584E+06,   1.00584E+06
C:/temp/Job-1.odb,Step-1,Increment      1: Step Time =    1.000,"P-1-1",          8969,   19.8817E-03,   31.7171E-03,            0.,NA,NA,"",   1.00243E+06,   1.06180E+06,   1.06180E+06
C:/temp/Job-1.odb,Step-1,Increment      1: Step Time =    1.000,"P-1-1",          8970,   113.536E-03,   131.106E-03,            0.,NA,NA,"",   1.17805E+06,   1.19123E+06,   1.19123E+06
C:/temp/Job-1.odb,Step-1,Increment      1: Step Time =    1.000,"P-1-1",          8971,   163.304E-03,   19.6162E-03,            0.,NA,NA,"",   1.00767E+06,   1.00530E+06,   1.00530E+06
C:/temp/Job-1.odb,Step-1,Increment      1: Step Time =    1.000,"P-1-1",          8972,   68.9680E-03,   107.218E-03,            0.,NA,NA,"",   746.146E+03,   761.707E+03,   761.707E+03
C:/temp/Job-1.odb,Step-1,Increment      1: Step Time =    1.000,"P-1-1",          8973,   57.8710E-03,   179.863E-03,            0.,NA,NA,"",   1.02506E+06,   1.02689E+06,   1.02689E+06
C:/temp/Job-1.odb,Step-1,Increment      1: Step Time =    1.000,"P-1-1",          8974,   20.6905E-03,   57.5459E-03,            0.,NA,NA,"",   904.769E+03,   980.864E+03,   980.864E+03
C:/temp/Job-1.odb,Step-1,Increment      1: Step Time =    1.000,"P-1-1",          8975,   179.379E-03,   86.3663E-03,            0.,NA,NA,"",   972.453E+03,   987.862E+03,   987.862E+03
C:/temp/Job-1.odb,Step-1,Increment      1: Step Time =    1.000,"P-1-1",          8976,   70.9878E-03,   87.7349E-03,            0.,NA,NA,"",   919.582E+03,   894.243E+03,   894.243E+03
C:/temp/Job-1.odb,Step-1,Increment      1: Step Time =    1.000,"P-1-1",          8977,   84.1229E-03,   180.872E-03,            0.,NA,NA,"",   990.115E+03,   994.373E+03,   994.373E+03
C:/temp/Job-1.odb,Step-1,Increment      1: Step Time =    1.000,"P-1-1",          8978,   181.070E-03,   116.089E-03,            0.,NA,NA,"",   975.529E+03,   991.199E+03,   991.199E+03
C:/temp/Job-1.odb,Step-1,Increment      1: Step Time =    1.000,"P-1-1",          8979,   180.145E-03,   141.834E-03,            0.,NA,NA,"",   1.00361E+06,   1.00707E+06,   1.00707E+06
C:/temp/Job-1.odb,Step-1,Increment      1: Step Time =    1.000,"P-1-1",          8980,   141.855E-03,   20.6735E-03,            0.,NA,NA,"",   1.00976E+06,   1.00646E+06,   1.00646E+06
C:/temp/Job-1.odb,Step-1,Increment      1: Step Time =    1.000,"P-1-1",          8981,   19.9688E-03,   83.0816E-03,            0.,NA,NA,"",   825.650E+03,   911.351E+03,   911.351E+03
C:/temp/Job-1.odb,Step-1,Increment      1: Step Time =    1.000,"P-1-1",          8982,   120.335E-03,   125.589E-03,            0.,NA,NA,"",   1.25022E+06,   1.19740E+06,   1.19740E+06
C:/temp/Job-1.odb,Step-1,Increment      1: Step Time =    1.000,"P-1-1",          8983,   113.559E-03,   180.177E-03,            0.,NA,NA,"",   987.711E+03,   991.666E+03,   991.666E+03
C:/temp/Job-1.odb,Step-1,Increment      1: Step Time =    1.000,"P-1-1",          8984,   20.6150E-03,   112.802E-03,            0.,NA,NA,"",   818.757E+03,   904.534E+03,   904.534E+03
C:/temp/Job-1.odb,Step-1,Increment      1: Step Time =    1.000,"P-1-1",          8985,   116.168E-03,   19.4240E-03,            0.,NA,NA,"",   989.015E+03,   992.094E+03,   992.094E+03
C:/temp/Job-1.odb,Step-1,Increment      1: Step Time =    1.000,"P-1-1",          8986,   27.7952E-03,   179.482E-03,            0.,NA,NA,"",   1.06283E+06,   1.08650E+06,   1.08650E+06
C:/temp/Job-1.odb,Step-1,Increment      1: Step Time =    1.000,"P-1-1",          8987,   87.2047E-03,   19.4761E-03,            0.,NA,NA,"",   988.246E+03,   993.356E+03,   993.356E+03
C:/temp/Job-1.odb,Step-1,Increment      1: Step Time =    1.000,"P-1-1",          8988,   171.990E-03,   20.3441E-03,            0.,NA,NA,"",   1.00569E+06,   1.00423E+06,   1.00423E+06
C:/temp/Job-1.odb,Step-1,Increment      1: Step Time =    1.000,"P-1-1",          8989,   180.329E-03,   172.550E-03,            0.,NA,NA,"",   1.00516E+06,   1.00448E+06,   1.00448E+06
C:/temp/Job-1.odb,Step-1,Increment      1: Step Time =    1.000,"P-1-1",          8990,   54.2655E-03,   179.471E-03,            0.,NA,NA,"",   1.03024E+06,   1.03290E+06,   1.03290E+06
C:/temp/Job-1.odb,Step-1,Increment      1: Step Time =    1.000,"P-1-1",          8991,   179.387E-03,   89.6317E-03,            0.,NA,NA,"",   968.943E+03,   985.558E+03,   985.558E+03
C:/temp/Job-1.odb,Step-1,Increment      1: Step Time =    1.000,"P-1-1",          8992,   20.2983E-03,   54.4225E-03,            0.,NA,NA,"",   913.908E+03,   989.247E+03,   989.247E+03
C:/temp/Job-1.odb,Step-1,Increment      1: Step Time =    1.000,"P-1-1",          8993,   154.928E-03,   181.533E-03,            0.,NA,NA,"",   1.00758E+06,   1.00475E+06,   1.00475E+06
C:/temp/Job-1.odb,Step-1,Increment      1: Step Time =    1.000,"P-1-1",          8994,   45.7552E-03,   18.2534E-03,            0.,NA,NA,"",   1.03692E+06,   1.04158E+06,   1.04158E+06
C:/temp/Job-1.odb,Step-1,Increment      1: Step Time =    1.000,"P-1-1",          8995,   181.428E-03,   44.9904E-03,            0.,NA,NA,"",   1.00661E+06,   1.00743E+06,   1.00743E+06
C:/temp/Job-1.odb,Step-1,Increment      1: Step Time =    1.000,"P-1-1",          8996,   130.476E-03,   18.6794E-03,            0.,NA,NA,"",   999.067E+03,   998.089E+03,   998.089E+03
C:/temp/Job-1.odb,Step-1,Increment      1: Step Time =    1.000,"P-1-1",          8997,   181.621E-03,   130.063E-03,            0.,NA,NA,"",   991.681E+03,   1.00109E+06,   1.00109E+06
C:/temp/Job-1.odb,Step-1,Increment      1: Step Time =    1.000,"P-1-1",          8998,   18.8513E-03,   154.947E-03,            0.,NA,NA,"",   941.221E+03,   1.01462E+06,   1.01462E+06
C:/temp/Job-1.odb,Step-1,Increment      1: Step Time =    1.000,"P-1-1",          8999,   18.8997E-03,   69.4819E-03,            0.,NA,NA,"",   860.027E+03,   943.375E+03,   943.375E+03
C:/temp/Job-1.odb,Step-1,Increment      1: Step Time =    1.000,"P-1-1",          9000,   70.5049E-03,   181.712E-03,            0.,NA,NA,"",   1.00399E+06,   1.00558E+06,   1.00558E+06
C:/temp/Job-1.odb,Step-1,Increment      1: Step Time =    1.000,"P-1-1",          9001,   129.673E-03,   116.568E-03,            0.,NA,NA,"",   1.07061E+06,   1.00555E+06,   1.00555E+06
C:/temp/Job-1.odb,Step-1,Increment      1: Step Time =    1.000,"P-1-1",          9002,   132.532E-03,   115.741E-03,            0.,NA,NA,"",   1.02081E+06,   971.392E+03,   971.392E+03
C:/temp/Job-1.odb,Step-1,Increment      1: Step Time =    1.000,"P-1-1",          9003,   156.414E-03,   179.884E-03,            0.,NA,NA,"",   1.00981E+06,   1.00663E+06,   1.00663E+06
C:/temp/Job-1.odb,Step-1,Increment      1: Step Time =    1.000,"P-1-1",          9004,   44.8317E-03,   20.2744E-03,            0.,NA,NA,"",   1.04120E+06,   1.04743E+06,   1.04743E+06
C:/temp/Job-1.odb,Step-1,Increment      1: Step Time =    1.000,"P-1-1",          9005,   179.739E-03,   43.4007E-03,            0.,NA,NA,"",   1.00855E+06,   1.00847E+06,   1.00847E+06
C:/temp/Job-1.odb,Step-1,Increment      1: Step Time =    1.000,"P-1-1",          9006,   129.333E-03,   21.1952E-03,            0.,NA,NA,"",   1.00413E+06,   1.00318E+06,   1.00318E+06
C:/temp/Job-1.odb,Step-1,Increment      1: Step Time =    1.000,"P-1-1",          9007,   179.694E-03,   130.300E-03,            0.,NA,NA,"",   993.546E+03,   1.00142E+06,   1.00142E+06
C:/temp/Job-1.odb,Step-1,Increment      1: Step Time =    1.000,"P-1-1",          9008,   20.0099E-03,   156.295E-03,            0.,NA,NA,"",   951.472E+03,   1.02135E+06,   1.02135E+06
C:/temp/Job-1.odb,Step-1,Increment      1: Step Time =    1.000,"P-1-1",          9009,   20.4636E-03,   71.4464E-03,            0.,NA,NA,"",   858.859E+03,   940.677E+03,   940.677E+03
C:/temp/Job-1.odb,Step-1,Increment      1: Step Time =    1.000,"P-1-1",          9010,   70.8017E-03,   180.086E-03,            0.,NA,NA,"",   1.00852E+06,   1.01045E+06,   1.01045E+06
C:/temp/Job-1.odb,Step-1,Increment      1: Step Time =    1.000,"P-1-1",          9011,   152.556E-03,   20.6155E-03,            0.,NA,NA,"",   1.01079E+06,   1.00726E+06,   1.00726E+06
C:/temp/Job-1.odb,Step-1,Increment      1: Step Time =    1.000,"P-1-1",          9012,   179.359E-03,   153.186E-03,            0.,NA,NA,"",   1.00879E+06,   1.00902E+06,   1.00902E+06
C:/temp/Job-1.odb,Step-1,Increment      1: Step Time =    1.000,"P-1-1",          9013,   20.0795E-03,   46.9685E-03,            0.,NA,NA,"",   938.960E+03,   1.01094E+06,   1.01094E+06
C:/temp/Job-1.odb,Step-1,Increment      1: Step Time =    1.000,"P-1-1",          9014,   47.7606E-03,   179.561E-03,            0.,NA,NA,"",   1.03784E+06,   1.04269E+06,   1.04269E+06
C:/temp/Job-1.odb,Step-1,Increment      1: Step Time =    1.000,"P-1-1",          9015,   161.824E-03,   179.551E-03,            0.,NA,NA,"",   1.00897E+06,   1.00624E+06,   1.00624E+06
C:/temp/Job-1.odb,Step-1,Increment      1: Step Time =    1.000,"P-1-1",          9016,   38.3100E-03,   19.5740E-03,            0.,NA,NA,"",   1.04979E+06,   1.05984E+06,   1.05984E+06
C:/temp/Job-1.odb,Step-1,Increment      1: Step Time =    1.000,"P-1-1",          9017,   180.239E-03,   38.1097E-03,            0.,NA,NA,"",   1.00765E+06,   1.00722E+06,   1.00722E+06
C:/temp/Job-1.odb,Step-1,Increment      1: Step Time =    1.000,"P-1-1",          9018,   123.716E-03,   20.2582E-03,            0.,NA,NA,"",   997.337E+03,   998.166E+03,   998.166E+03
C:/temp/Job-1.odb,Step-1,Increment      1: Step Time =    1.000,"P-1-1",          9019,   20.2991E-03,   162.434E-03,            0.,NA,NA,"",   978.079E+03,   1.04216E+06,   1.04216E+06
C:/temp/Job-1.odb,Step-1,Increment      1: Step Time =    1.000,"P-1-1",          9020,   179.956E-03,   123.079E-03,            0.,NA,NA,"",   984.445E+03,   995.988E+03,   995.988E+03
C:/temp/Job-1.odb,Step-1,Increment      1: Step Time =    1.000,"P-1-1",          9021,   20.0408E-03,   76.5629E-03,            0.,NA,NA,"",   842.933E+03,   926.840E+03,   926.840E+03
C:/temp/Job-1.odb,Step-1,Increment      1: Step Time =    1.000,"P-1-1",          9022,   76.7585E-03,   179.108E-03,            0.,NA,NA,"",   1.00357E+06,   1.00677E+06,   1.00677E+06
C:/temp/Job-1.odb,Step-1,Increment      1: Step Time =    1.000,"P-1-1",          9023,   77.7577E-03,   126.796E-03,            0.,NA,NA,"",   1.20243E+06,   1.16986E+06,   1.16986E+06
C:/temp/Job-1.odb,Step-1,Increment      1: Step Time =    1.000,"P-1-1",          9024,   71.3543E-03,   119.528E-03,            0.,NA,NA,"",   1.08684E+06,   1.04794E+06,   1.04794E+06
C:/temp/Job-1.odb,Step-1,Increment      1: Step Time =    1.000,"P-1-1",          9025,   121.292E-03,   94.0633E-03,            0.,NA,NA,"",   708.308E+03,   619.178E+03,   619.178E+03
C:/temp/Job-1.odb,Step-1,Increment      1: Step Time =    1.000,"P-1-1",          9026,   74.2743E-03,   120.398E-03,            0.,NA,NA,"",   1.14557E+06,   1.09479E+06,   1.09479E+06
C:/temp/Job-1.odb,Step-1,Increment      1: Step Time =    1.000,"P-1-1",          9027,   117.257E-03,   125.966E-03,            0.,NA,NA,"",   1.25668E+06,   1.22254E+06,   1.22254E+06
C:/temp/Job-1.odb,Step-1,Increment      1: Step Time =    1.000,"P-1-1",          9028,   76.9609E-03,   123.936E-03,            0.,NA,NA,"",   1.20289E+06,   1.15773E+06,   1.15773E+06
C:/temp/Job-1.odb,Step-1,Increment      1: Step Time =    1.000,"P-1-1",          9029,   179.547E-03,   50.2211E-03,            0.,NA,NA,"",   1.00801E+06,   1.00893E+06,   1.00893E+06
C:/temp/Job-1.odb,Step-1,Increment      1: Step Time =    1.000,"P-1-1",          9030,   48.9256E-03,   20.2730E-03,            0.,NA,NA,"",   1.03619E+06,   1.04046E+06,   1.04046E+06
C:/temp/Job-1.odb,Step-1,Increment      1: Step Time =    1.000,"P-1-1",          9031,   151.139E-03,   178.794E-03,            0.,NA,NA,"",   1.01184E+06,   1.00809E+06,   1.00809E+06
C:/temp/Job-1.odb,Step-1,Increment      1: Step Time =    1.000,"P-1-1",          9032,   20.8811E-03,   150.086E-03,            0.,NA,NA,"",   932.015E+03,   1.00392E+06,   1.00392E+06
C:/temp/Job-1.odb,Step-1,Increment      1: Step Time =    1.000,"P-1-1",          9033,   122.189E-03,   180.304E-03,            0.,NA,NA,"",    994.77E+03,   996.040E+03,   996.040E+03
C:/temp/Job-1.odb,Step-1,Increment      1: Step Time =    1.000,"P-1-1",          9034,   20.9530E-03,   121.996E-03,            0.,NA,NA,"",   840.794E+03,   924.055E+03,   924.055E+03
C:/temp/Job-1.odb,Step-1,Increment      1: Step Time =    1.000,"P-1-1",          9035,   135.077E-03,   22.6323E-03,            0.,NA,NA,"",   1.01139E+06,   1.00868E+06,   1.00868E+06
C:/temp/Job-1.odb,Step-1,Increment      1: Step Time =    1.000,"P-1-1",          9036,   178.215E-03,   134.549E-03,            0.,NA,NA,"",   999.956E+03,   1.00477E+06,   1.00477E+06
C:/temp/Job-1.odb,Step-1,Increment      1: Step Time =    1.000,"P-1-1",          9037,   78.2375E-03,   19.8672E-03,            0.,NA,NA,"",   998.823E+03,   1.00212E+06,   1.00212E+06
C:/temp/Job-1.odb,Step-1,Increment      1: Step Time =    1.000,"P-1-1",          9038,   179.605E-03,   76.7568E-03,            0.,NA,NA,"",   984.766E+03,   995.952E+03,   995.952E+03
C:/temp/Job-1.odb,Step-1,Increment      1: Step Time =    1.000,"P-1-1",          9039,   21.2329E-03,   65.8156E-03,            0.,NA,NA,"",   879.028E+03,   957.745E+03,   957.745E+03
C:/temp/Job-1.odb,Step-1,Increment      1: Step Time =    1.000,"P-1-1",          9040,   64.0655E-03,   179.183E-03,            0.,NA,NA,"",   1.01956E+06,   1.02112E+06,   1.02112E+06
C:/temp/Job-1.odb,Step-1,Increment      1: Step Time =    1.000,"P-1-1",          9041,   180.009E-03,   162.745E-03,            0.,NA,NA,"",   1.00769E+06,   1.00719E+06,   1.00719E+06
C:/temp/Job-1.odb,Step-1,Increment      1: Step Time =    1.000,"P-1-1",          9042,   20.3358E-03,   38.1391E-03,            0.,NA,NA,"",   975.469E+03,   1.04017E+06,   1.04017E+06
C:/temp/Job-1.odb,Step-1,Increment      1: Step Time =    1.000,"P-1-1",          9043,   88.3238E-03,   133.411E-03,            0.,NA,NA,"",   1.13123E+06,   1.16714E+06,   1.16714E+06
C:/temp/Job-1.odb,Step-1,Increment      1: Step Time =    1.000,"P-1-1",          9044,   80.8064E-03,   127.517E-03,            0.,NA,NA,"",   1.21675E+06,   1.19484E+06,   1.19484E+06
C:/temp/Job-1.odb,Step-1,Increment      1: Step Time =    1.000,"P-1-1",          9045,   27.9551E-03,   19.7343E-03,            0.,NA,NA,"",   1.06459E+06,   1.08668E+06,   1.08668E+06
C:/temp/Job-1.odb,Step-1,Increment      1: Step Time =    1.000,"P-1-1",          9046,   178.841E-03,   29.6899E-03,            0.,NA,NA,"",   1.00678E+06,   1.00580E+06,   1.00580E+06
C:/temp/Job-1.odb,Step-1,Increment      1: Step Time =    1.000,"P-1-1",          9047,   180.408E-03,   59.7978E-03,            0.,NA,NA,"",   1.00229E+06,   1.00643E+06,   1.00643E+06
C:/temp/Job-1.odb,Step-1,Increment      1: Step Time =    1.000,"P-1-1",          9048,   170.605E-03,   179.047E-03,            0.,NA,NA,"",   1.00657E+06,   1.00486E+06,   1.00486E+06
C:/temp/Job-1.odb,Step-1,Increment      1: Step Time =    1.000,"P-1-1",          9049,   59.5127E-03,   21.7713E-03,            0.,NA,NA,"",   1.02741E+06,   1.02933E+06,   1.02933E+06
C:/temp/Job-1.odb,Step-1,Increment      1: Step Time =    1.000,"P-1-1",          9050,   140.551E-03,   178.894E-03,            0.,NA,NA,"",   1.01049E+06,   1.00720E+06,   1.00720E+06
C:/temp/Job-1.odb,Step-1,Increment      1: Step Time =    1.000,"P-1-1",          9051,   20.8934E-03,   140.447E-03,            0.,NA,NA,"",   898.614E+03,   975.238E+03,   975.238E+03
C:/temp/Job-1.odb,Step-1,Increment      1: Step Time =    1.000,"P-1-1",          9052,   20.7021E-03,   170.910E-03,            0.,NA,NA,"",   1.01914E+06,   1.07255E+06,   1.07255E+06
C:/temp/Job-1.odb,Step-1,Increment      1: Step Time =    1.000,"P-1-1",          9053,   120.347E-03,   90.5660E-03,            0.,NA,NA,"",   976.194E+03,   841.953E+03,   841.953E+03
C:/temp/Job-1.odb,Step-1,Increment      1: Step Time =    1.000,"P-1-1",          9054,   69.4941E-03,   83.3251E-03,            0.,NA,NA,"",   1.01276E+06,   984.943E+03,   984.943E+03
C:/temp/Job-1.odb,Step-1,Increment      1: Step Time =    1.000,"P-1-1",          9055,   81.2977E-03,   78.8189E-03,            0.,NA,NA,"",   1.27052E+06,   1.21387E+06,   1.21387E+06
C:/temp/Job-1.odb,Step-1,Increment      1: Step Time =    1.000,"P-1-1",          9056,   75.0840E-03,   77.7614E-03,            0.,NA,NA,"",   1.17150E+06,   1.12302E+06,   1.12302E+06
C:/temp/Job-1.odb,Step-1,Increment      1: Step Time =    1.000,"P-1-1",          9057,   129.929E-03,   97.3563E-03,            0.,NA,NA,"",   651.640E+03,   661.908E+03,   661.908E+03
C:/temp/Job-1.odb,Step-1,Increment      1: Step Time =    1.000,"P-1-1",          9058,   103.658E-03,   133.972E-03,            0.,NA,NA,"",   1.06678E+06,   1.13813E+06,   1.13813E+06
C:/temp/Job-1.odb,Step-1,Increment      1: Step Time =    1.000,"P-1-1",          9059,   67.1080E-03,   107.895E-03,            0.,NA,NA,"",   771.267E+03,   790.570E+03,   790.570E+03
C:/temp/Job-1.odb,Step-1,Increment      1: Step Time =    1.000,"P-1-1",          9060,   134.589E-03,   106.709E-03,            0.,NA,NA,"",   800.497E+03,   798.124E+03,   798.124E+03
C:/temp/Job-1.odb,Step-1,Increment      1: Step Time =    1.000,"P-1-1",          9061,   73.7931E-03,   20.4875E-03,            0.,NA,NA,"",   1.00604E+06,   1.00859E+06,   1.00859E+06
C:/temp/Job-1.odb,Step-1,Increment      1: Step Time =    1.000,"P-1-1",          9062,   178.940E-03,   72.0882E-03,            0.,NA,NA,"",   991.462E+03,   999.796E+03,   999.796E+03
C:/temp/Job-1.odb,Step-1,Increment      1: Step Time =    1.000,"P-1-1",          9063,   20.6973E-03,   178.386E-03,            0.,NA,NA,"",   1.06020E+06,   1.10076E+06,   1.10076E+06
C:/temp/Job-1.odb,Step-1,Increment      1: Step Time =    1.000,"P-1-1",          9064,   178.669E-03,   19.8942E-03,            0.,NA,NA,"",   1.00332E+06,   1.00264E+06,   1.00264E+06
C:/temp/Job-1.odb,Step-1,Increment      1: Step Time =    1.000,"P-1-1",          9065,   71.1522E-03,   80.6345E-03,            0.,NA,NA,"",   1.08372E+06,   1.04496E+06,   1.04496E+06
C:/temp/Job-1.odb,Step-1,Increment      1: Step Time =    1.000,"P-1-1",          9066,   179.260E-03,   92.7054E-03,            0.,NA,NA,"",   966.338E+03,   983.717E+03,   983.717E+03
C:/temp/Job-1.odb,Step-1,Increment      1: Step Time =    1.000,"P-1-1",          9067,   20.7909E-03,   107.043E-03,            0.,NA,NA,"",   810.371E+03,   896.840E+03,   896.840E+03
C:/temp/Job-1.odb,Step-1,Increment      1: Step Time =    1.000,"P-1-1",          9068,   105.718E-03,   180.463E-03,            0.,NA,NA,"",   982.532E+03,   988.186E+03,   988.186E+03
C:/temp/Job-1.odb,Step-1,Increment      1: Step Time =    1.000,"P-1-1",          9069,   93.9447E-03,   19.3160E-03,            0.,NA,NA,"",   982.913E+03,   988.804E+03,   988.804E+03
C:/temp/Job-1.odb,Step-1,Increment      1: Step Time =    1.000,"P-1-1",          9070,   179.395E-03,   178.969E-03,            0.,NA,NA,"",   1.00351E+06,   1.00286E+06,   1.00286E+06
C:/temp/Job-1.odb,Step-1,Increment      1: Step Time =    1.000,"P-1-1",          9071,   20.4645E-03,   20.9724E-03,            0.,NA,NA,"",   1.06339E+06,   1.10306E+06,   1.10306E+06
C:/temp/Job-1.odb,Step-1,Increment      1: Step Time =    1.000,"P-1-1",          9072,   84.2935E-03,   77.4827E-03,            0.,NA,NA,"",   1.29146E+06,   1.26061E+06,   1.26061E+06
C:/temp/Job-1.odb,Step-1,Increment      1: Step Time =    1.000,"P-1-1",          9073,   97.8711E-03,   133.292E-03,            0.,NA,NA,"",   1.06358E+06,   1.14209E+06,   1.14209E+06
C:/temp/Job-1.odb,Step-1,Increment      1: Step Time =    1.000,"P-1-1",          9074,   134.373E-03,   112.939E-03,            0.,NA,NA,"",   946.046E+03,   913.858E+03,   913.858E+03
C:/temp/Job-1.odb,Step-1,Increment      1: Step Time =    1.000,"P-1-1",          9075,   97.2907E-03,   21.3730E-03,            0.,NA,NA,"",   986.171E+03,   993.442E+03,   993.442E+03
C:/temp/Job-1.odb,Step-1,Increment      1: Step Time =    1.000,"P-1-1",          9076,   20.7332E-03,   102.271E-03,            0.,NA,NA,"",   806.814E+03,   893.679E+03,   893.679E+03
C:/temp/Job-1.odb,Step-1,Increment      1: Step Time =    1.000,"P-1-1",          9077,   102.548E-03,   179.108E-03,            0.,NA,NA,"",   984.842E+03,   991.544E+03,   991.544E+03
C:/temp/Job-1.odb,Step-1,Increment      1: Step Time =    1.000,"P-1-1",          9078,   178.876E-03,   98.4486E-03,            0.,NA,NA,"",   963.559E+03,   981.545E+03,   981.545E+03
C:/temp/Job-1.odb,Step-1,Increment      1: Step Time =    1.000,"P-1-1",          9079,   179.373E-03,   65.2854E-03,            0.,NA,NA,"",   998.927E+03,   1.00445E+06,   1.00445E+06
C:/temp/Job-1.odb,Step-1,Increment      1: Step Time =    1.000,"P-1-1",          9080,   134.571E-03,   178.359E-03,            0.,NA,NA,"",   1.00882E+06,   1.00644E+06,   1.00644E+06
C:/temp/Job-1.odb,Step-1,Increment      1: Step Time =    1.000,"P-1-1",          9081,   22.0551E-03,   134.630E-03,            0.,NA,NA,"",   883.560E+03,   960.684E+03,   960.684E+03
C:/temp/Job-1.odb,Step-1,Increment      1: Step Time =    1.000,"P-1-1",          9082,   70.2015E-03,   86.8004E-03,            0.,NA,NA,"",   935.812E+03,   912.656E+03,   912.656E+03
C:/temp/Job-1.odb,Step-1,Increment      1: Step Time =    1.000,"P-1-1",          9083,   134.810E-03,   103.275E-03,            0.,NA,NA,"",   741.981E+03,   752.917E+03,   752.917E+03
C:/temp/Job-1.odb,Step-1,Increment      1: Step Time =    1.000,"P-1-1",          9084,   178.644E-03,   67.3385E-03,            0.,NA,NA,"",   997.458E+03,   1.00339E+06,   1.00339E+06
C:/temp/Job-1.odb,Step-1,Increment      1: Step Time =    1.000,"P-1-1",          9085,   68.7766E-03,   21.6768E-03,            0.,NA,NA,"",   1.01601E+06,   1.01799E+06,   1.01799E+06
C:/temp/Job-1.odb,Step-1,Increment      1: Step Time =    1.000,"P-1-1",          9086,   132.613E-03,   178.133E-03,            0.,NA,NA,"",   1.00819E+06,   1.00624E+06,   1.00624E+06
C:/temp/Job-1.odb,Step-1,Increment      1: Step Time =    1.000,"P-1-1",          9087,   20.7507E-03,   131.660E-03,            0.,NA,NA,"",   869.018E+03,   949.434E+03,   949.434E+03
C:/temp/Job-1.odb,Step-1,Increment      1: Step Time =    1.000,"P-1-1",          9088,   66.9550E-03,   101.878E-03,            0.,NA,NA,"",   651.441E+03,   693.942E+03,   693.942E+03
C:/temp/Job-1.odb,Step-1,Increment      1: Step Time =    1.000,"P-1-1",          9089,   20.7173E-03,   28.8313E-03,            0.,NA,NA,"",   1.02036E+06,   1.07355E+06,   1.07355E+06
C:/temp/Job-1.odb,Step-1,Increment      1: Step Time =    1.000,"P-1-1",          9090,   179.479E-03,   171.539E-03,            0.,NA,NA,"",   1.00592E+06,   1.00509E+06,   1.00509E+06
C:/temp/Job-1.odb,Step-1,Increment      1: Step Time =    1.000,"P-1-1",          9091,   170.790E-03,   20.4279E-03,            0.,NA,NA,"",   1.00616E+06,   1.00453E+06,   1.00453E+06
C:/temp/Job-1.odb,Step-1,Increment      1: Step Time =    1.000,"P-1-1",          9092,   86.0207E-03,   20.9316E-03,            0.,NA,NA,"",   992.964E+03,   998.522E+03,   998.522E+03
C:/temp/Job-1.odb,Step-1,Increment      1: Step Time =    1.000,"P-1-1",          9093,   29.1892E-03,   178.969E-03,            0.,NA,NA,"",   1.06021E+06,   1.08246E+06,   1.08246E+06
C:/temp/Job-1.odb,Step-1,Increment      1: Step Time =    1.000,"P-1-1",          9094,   115.337E-03,   20.7807E-03,            0.,NA,NA,"",   991.240E+03,   994.960E+03,   994.960E+03
C:/temp/Job-1.odb,Step-1,Increment      1: Step Time =    1.000,"P-1-1",          9095,   21.3335E-03,   56.3287E-03,            0.,NA,NA,"",   911.635E+03,   985.929E+03,   985.929E+03
C:/temp/Job-1.odb,Step-1,Increment      1: Step Time =    1.000,"P-1-1",          9096,   178.644E-03,   88.3002E-03,            0.,NA,NA,"",   969.868E+03,   985.522E+03,   985.522E+03
C:/temp/Job-1.odb,Step-1,Increment      1: Step Time =    1.000,"P-1-1",          9097,   55.9018E-03,   178.140E-03,            0.,NA,NA,"",   1.03151E+06,   1.03417E+06,   1.03417E+06
C:/temp/Job-1.odb,Step-1,Increment      1: Step Time =    1.000,"P-1-1",          9098,   140.339E-03,   21.2024E-03,            0.,NA,NA,"",   1.01039E+06,   1.00713E+06,   1.00713E+06
C:/temp/Job-1.odb,Step-1,Increment      1: Step Time =    1.000,"P-1-1",          9099,   22.3166E-03,   114.518E-03,            0.,NA,NA,"",   825.042E+03,   908.756E+03,   908.756E+03
C:/temp/Job-1.odb,Step-1,Increment      1: Step Time =    1.000,"P-1-1",          9100,   115.034E-03,   179.541E-03,            0.,NA,NA,"",   990.183E+03,   993.932E+03,   993.932E+03
C:/temp/Job-1.odb,Step-1,Increment      1: Step Time =    1.000,"P-1-1",          9101,   179.010E-03,   140.874E-03,            0.,NA,NA,"",   1.00456E+06,   1.00755E+06,   1.00755E+06
C:/temp/Job-1.odb,Step-1,Increment      1: Step Time =    1.000,"P-1-1",          9102,   21.1072E-03,   85.1610E-03,            0.,NA,NA,"",   823.631E+03,   908.514E+03,   908.514E+03
C:/temp/Job-1.odb,Step-1,Increment      1: Step Time =    1.000,"P-1-1",          9103,   178.867E-03,   114.954E-03,            0.,NA,NA,"",   973.797E+03,   988.317E+03,   988.317E+03
C:/temp/Job-1.odb,Step-1,Increment      1: Step Time =    1.000,"P-1-1",          9104,   85.7382E-03,   179.524E-03,            0.,NA,NA,"",   992.077E+03,   997.225E+03,   997.225E+03
C:/temp/Job-1.odb,Step-1,Increment      1: Step Time =    1.000,"P-1-1",          9105,   178.641E-03,   85.0102E-03,            0.,NA,NA,"",    973.87E+03,   988.207E+03,   988.207E+03
C:/temp/Job-1.odb,Step-1,Increment      1: Step Time =    1.000,"P-1-1",          9106,   21.9812E-03,   58.3187E-03,            0.,NA,NA,"",   907.280E+03,   981.386E+03,   981.386E+03
C:/temp/Job-1.odb,Step-1,Increment      1: Step Time =    1.000,"P-1-1",          9107,   58.7639E-03,   179.254E-03,            0.,NA,NA,"",   1.02572E+06,   1.02757E+06,   1.02757E+06
C:/temp/Job-1.odb,Step-1,Increment      1: Step Time =    1.000,"P-1-1",          9108,   178.689E-03,   70.4180E-03,            0.,NA,NA,"",   993.891E+03,   1.00120E+06,   1.00120E+06
C:/temp/Job-1.odb,Step-1,Increment      1: Step Time =    1.000,"P-1-1",          9109,   72.2113E-03,   21.8852E-03,            0.,NA,NA,"",   1.01214E+06,   1.01469E+06,   1.01469E+06
C:/temp/Job-1.odb,Step-1,Increment      1: Step Time =    1.000,"P-1-1",          9110,   128.913E-03,   177.699E-03,            0.,NA,NA,"",   1.00656E+06,   1.00565E+06,   1.00565E+06
C:/temp/Job-1.odb,Step-1,Increment      1: Step Time =    1.000,"P-1-1",          9111,   21.7008E-03,   128.313E-03,            0.,NA,NA,"",   861.709E+03,   941.870E+03,   941.870E+03
C:/temp/Job-1.odb,Step-1,Increment      1: Step Time =    1.000,"P-1-1",          9112,   101.349E-03,   22.2644E-03,            0.,NA,NA,"",   987.450E+03,   995.144E+03,   995.144E+03
C:/temp/Job-1.odb,Step-1,Increment      1: Step Time =    1.000,"P-1-1",          9113,   21.4659E-03,   99.5577E-03,            0.,NA,NA,"",   807.383E+03,   893.611E+03,   893.611E+03
C:/temp/Job-1.odb,Step-1,Increment      1: Step Time =    1.000,"P-1-1",          9114,   83.5781E-03,   131.102E-03,            0.,NA,NA,"",   1.18164E+06,   1.18595E+06,   1.18595E+06
C:/temp/Job-1.odb,Step-1,Increment      1: Step Time =    1.000,"P-1-1",          9115,   178.520E-03,   100.863E-03,            0.,NA,NA,"",   962.938E+03,   980.757E+03,   980.757E+03
C:/temp/Job-1.odb,Step-1,Increment      1: Step Time =    1.000,"P-1-1",          9116,   99.1601E-03,   178.546E-03,            0.,NA,NA,"",   985.984E+03,   993.342E+03,   993.342E+03
C:/temp/Job-1.odb,Step-1,Increment      1: Step Time =    1.000,"P-1-1",          9117,   124.929E-03,   177.865E-03,            0.,NA,NA,"",   1.00285E+06,   1.00333E+06,   1.00333E+06
C:/temp/Job-1.odb,Step-1,Increment      1: Step Time =    1.000,"P-1-1",          9118,   21.3763E-03,   124.424E-03,            0.,NA,NA,"",   848.919E+03,   930.859E+03,   930.859E+03
C:/temp/Job-1.odb,Step-1,Increment      1: Step Time =    1.000,"P-1-1",          9119,   156.998E-03,   21.2604E-03,            0.,NA,NA,"",   1.01115E+06,   1.00773E+06,   1.00773E+06
C:/temp/Job-1.odb,Step-1,Increment      1: Step Time =    1.000,"P-1-1",          9120,   178.357E-03,   156.632E-03,            0.,NA,NA,"",   1.01012E+06,   1.00948E+06,   1.00948E+06
C:/temp/Job-1.odb,Step-1,Increment      1: Step Time =    1.000,"P-1-1",          9121,   22.0102E-03,   44.0356E-03,            0.,NA,NA,"",   958.083E+03,   1.02385E+06,   1.02385E+06
C:/temp/Job-1.odb,Step-1,Increment      1: Step Time =    1.000,"P-1-1",          9122,   44.0513E-03,   178.572E-03,            0.,NA,NA,"",   1.04348E+06,   1.05098E+06,   1.05098E+06
C:/temp/Job-1.odb,Step-1,Increment      1: Step Time =    1.000,"P-1-1",          9123,   43.3145E-03,   21.2553E-03,            0.,NA,NA,"",   1.04411E+06,   1.05197E+06,   1.05197E+06
C:/temp/Job-1.odb,Step-1,Increment      1: Step Time =    1.000,"P-1-1",          9124,   178.311E-03,   42.3038E-03,            0.,NA,NA,"",   1.01017E+06,   1.00939E+06,   1.00939E+06
C:/temp/Job-1.odb,Step-1,Increment      1: Step Time =    1.000,"P-1-1",          9125,   157.185E-03,   178.232E-03,            0.,NA,NA,"",   1.01183E+06,   1.00828E+06,   1.00828E+06
C:/temp/Job-1.odb,Step-1,Increment      1: Step Time =    1.000,"P-1-1",          9126,   127.331E-03,   22.0620E-03,            0.,NA,NA,"",   1.00478E+06,   1.00443E+06,   1.00443E+06
C:/temp/Job-1.odb,Step-1,Increment      1: Step Time =    1.000,"P-1-1",          9127,   177.647E-03,   127.205E-03,            0.,NA,NA,"",   991.250E+03,   999.008E+03,   999.008E+03
C:/temp/Job-1.odb,Step-1,Increment      1: Step Time =    1.000,"P-1-1",          9128,   73.4091E-03,   116.457E-03,            0.,NA,NA,"",   1.07303E+06,   1.02126E+06,   1.02126E+06
C:/temp/Job-1.odb,Step-1,Increment      1: Step Time =    1.000,"P-1-1",          9129,   21.1043E-03,   157.604E-03,            0.,NA,NA,"",   961.255E+03,   1.02772E+06,   1.02772E+06
C:/temp/Job-1.odb,Step-1,Increment      1: Step Time =    1.000,"P-1-1",          9130,   112.266E-03,   132.285E-03,            0.,NA,NA,"",   1.15484E+06,   1.17947E+06,   1.17947E+06
C:/temp/Job-1.odb,Step-1,Increment      1: Step Time =    1.000,"P-1-1",          9131,   39.9745E-03,   21.2131E-03,            0.,NA,NA,"",   1.04811E+06,   1.05835E+06,   1.05835E+06
C:/temp/Job-1.odb,Step-1,Increment      1: Step Time =    1.000,"P-1-1",          9132,   160.009E-03,   178.715E-03,            0.,NA,NA,"",   1.01047E+06,   1.00734E+06,   1.00734E+06
C:/temp/Job-1.odb,Step-1,Increment      1: Step Time =    1.000,"P-1-1",          9133,   179.060E-03,   39.6793E-03,            0.,NA,NA,"",   1.00901E+06,   1.00833E+06,   1.00833E+06
C:/temp/Job-1.odb,Step-1,Increment      1: Step Time =    1.000,"P-1-1",          9134,   22.0840E-03,   72.2115E-03,            0.,NA,NA,"",   861.281E+03,   941.088E+03,   941.088E+03
C:/temp/Job-1.odb,Step-1,Increment      1: Step Time =    1.000,"P-1-1",          9135,   72.4751E-03,   178.689E-03,            0.,NA,NA,"",   1.01046E+06,   1.01294E+06,   1.01294E+06
C:/temp/Job-1.odb,Step-1,Increment      1: Step Time =    1.000,"P-1-1",          9136,   124.323E-03,   21.8037E-03,            0.,NA,NA,"",   1.00159E+06,   1.00231E+06,   1.00231E+06
C:/temp/Job-1.odb,Step-1,Increment      1: Step Time =    1.000,"P-1-1",          9137,   178.711E-03,   124.987E-03,            0.,NA,NA,"",   987.554E+03,   997.285E+03,   997.285E+03
C:/temp/Job-1.odb,Step-1,Increment      1: Step Time =    1.000,"P-1-1",          9138,   21.3014E-03,   160.451E-03,            0.,NA,NA,"",   973.437E+03,   1.03701E+06,   1.03701E+06
C:/temp/Job-1.odb,Step-1,Increment      1: Step Time =    1.000,"P-1-1",          9139,   21.4600E-03,   74.8478E-03,            0.,NA,NA,"",   851.001E+03,   932.673E+03,   932.673E+03
C:/temp/Job-1.odb,Step-1,Increment      1: Step Time =    1.000,"P-1-1",          9140,   75.3144E-03,   178.861E-03,            0.,NA,NA,"",   1.00609E+06,   1.00909E+06,   1.00909E+06
C:/temp/Job-1.odb,Step-1,Increment      1: Step Time =    1.000,"P-1-1",          9141,   177.053E-03,   178.897E-03,            0.,NA,NA,"",   1.00435E+06,   1.00344E+06,   1.00344E+06
C:/temp/Job-1.odb,Step-1,Increment      1: Step Time =    1.000,"P-1-1",          9142,   22.4733E-03,   20.9578E-03,            0.,NA,NA,"",   1.06438E+06,   1.09928E+06,   1.09928E+06
C:/temp/Job-1.odb,Step-1,Increment      1: Step Time =    1.000,"P-1-1",          9143,   162.394E-03,   20.8770E-03,            0.,NA,NA,"",   1.00928E+06,   1.00652E+06,   1.00652E+06
C:/temp/Job-1.odb,Step-1,Increment      1: Step Time =    1.000,"P-1-1",          9144,   86.0745E-03,   78.3316E-03,            0.,NA,NA,"",   1.30983E+06,   1.28900E+06,   1.28900E+06
C:/temp/Job-1.odb,Step-1,Increment      1: Step Time =    1.000,"P-1-1",          9145,   155.059E-03,   21.9124E-03,            0.,NA,NA,"",   1.01249E+06,   1.00873E+06,   1.00873E+06
C:/temp/Job-1.odb,Step-1,Increment      1: Step Time =    1.000,"P-1-1",          9146,   178.855E-03,   154.554E-03,            0.,NA,NA,"",   1.00958E+06,   1.00937E+06,   1.00937E+06
C:/temp/Job-1.odb,Step-1,Increment      1: Step Time =    1.000,"P-1-1",          9147,   21.5355E-03,   46.1365E-03,            0.,NA,NA,"",   948.676E+03,   1.01678E+06,   1.01678E+06
C:/temp/Job-1.odb,Step-1,Increment      1: Step Time =    1.000,"P-1-1",          9148,   178.963E-03,   23.1291E-03,            0.,NA,NA,"",   1.00443E+06,   1.00364E+06,   1.00364E+06
C:/temp/Job-1.odb,Step-1,Increment      1: Step Time =    1.000,"P-1-1",          9149,   45.4006E-03,   178.878E-03,            0.,NA,NA,"",   1.04162E+06,   1.04808E+06,   1.04808E+06
C:/temp/Job-1.odb,Step-1,Increment      1: Step Time =    1.000,"P-1-1",          9150,   73.4386E-03,   79.5362E-03,            0.,NA,NA,"",   1.13364E+06,   1.08573E+06,   1.08573E+06
C:/temp/Job-1.odb,Step-1,Increment      1: Step Time =    1.000,"P-1-1",          9151,   20.1780E-03,   176.981E-03,            0.,NA,NA,"",   1.05157E+06,   1.09627E+06,   1.09627E+06
C:/temp/Job-1.odb,Step-1,Increment      1: Step Time =    1.000,"P-1-1",          9152,   166.520E-03,   177.964E-03,            0.,NA,NA,"",   1.00909E+06,   1.00662E+06,   1.00662E+06
C:/temp/Job-1.odb,Step-1,Increment      1: Step Time =    1.000,"P-1-1",          9153,   32.5813E-03,   20.8949E-03,            0.,NA,NA,"",   1.05679E+06,   1.07433E+06,   1.07433E+06
C:/temp/Job-1.odb,Step-1,Increment      1: Step Time =    1.000,"P-1-1",          9154,   107.987E-03,   20.6850E-03,            0.,NA,NA,"",   986.008E+03,   991.752E+03,   991.752E+03
C:/temp/Job-1.odb,Step-1,Increment      1: Step Time =    1.000,"P-1-1",          9155,   164.431E-03,   178.185E-03,            0.,NA,NA,"",   1.00968E+06,   1.00696E+06,   1.00696E+06
C:/temp/Job-1.odb,Step-1,Increment      1: Step Time =    1.000,"P-1-1",          9156,   178.087E-03,   33.0993E-03,            0.,NA,NA,"",   1.00843E+06,   1.00724E+06,   1.00724E+06
C:/temp/Job-1.odb,Step-1,Increment      1: Step Time =    1.000,"P-1-1",          9157,   35.5075E-03,   21.9203E-03,            0.,NA,NA,"",   1.05262E+06,   1.06791E+06,   1.06791E+06
C:/temp/Job-1.odb,Step-1,Increment      1: Step Time =    1.000,"P-1-1",          9158,   20.4653E-03,   91.6438E-03,            0.,NA,NA,"",   811.288E+03,   897.954E+03,   897.954E+03
C:/temp/Job-1.odb,Step-1,Increment      1: Step Time =    1.000,"P-1-1",          9159,   178.285E-03,   107.945E-03,            0.,NA,NA,"",   966.049E+03,   982.642E+03,   982.642E+03
C:/temp/Job-1.odb,Step-1,Increment      1: Step Time =    1.000,"P-1-1",          9160,   178.749E-03,   35.3247E-03,            0.,NA,NA,"",   1.00841E+06,   1.00745E+06,   1.00745E+06
C:/temp/Job-1.odb,Step-1,Increment      1: Step Time =    1.000,"P-1-1",          9161,   92.5158E-03,   177.633E-03,            0.,NA,NA,"",   990.519E+03,   998.026E+03,   998.026E+03
C:/temp/Job-1.odb,Step-1,Increment      1: Step Time =    1.000,"P-1-1",          9162,   20.7661E-03,   167.077E-03,            0.,NA,NA,"",   1.00040E+06,   1.05850E+06,   1.05850E+06
C:/temp/Job-1.odb,Step-1,Increment      1: Step Time =    1.000,"P-1-1",          9163,   179.369E-03,   53.2995E-03,            0.,NA,NA,"",   1.00717E+06,   1.00872E+06,   1.00872E+06
C:/temp/Job-1.odb,Step-1,Increment      1: Step Time =    1.000,"P-1-1",          9164,   52.4379E-03,   20.7007E-03,            0.,NA,NA,"",   1.03281E+06,   1.03607E+06,   1.03607E+06
C:/temp/Job-1.odb,Step-1,Increment      1: Step Time =    1.000,"P-1-1",          9165,   21.3826E-03,   164.619E-03,            0.,NA,NA,"",   991.255E+03,   1.05078E+06,   1.05078E+06
C:/temp/Job-1.odb,Step-1,Increment      1: Step Time =    1.000,"P-1-1",          9166,   147.879E-03,   178.431E-03,            0.,NA,NA,"",   1.01264E+06,   1.00872E+06,   1.00872E+06
C:/temp/Job-1.odb,Step-1,Increment      1: Step Time =    1.000,"P-1-1",          9167,   19.9281E-03,   147.475E-03,            0.,NA,NA,"",   918.962E+03,   994.110E+03,   994.110E+03
C:/temp/Job-1.odb,Step-1,Increment      1: Step Time =    1.000,"P-1-1",          9168,   21.2951E-03,   35.4526E-03,            0.,NA,NA,"",   990.860E+03,   1.05039E+06,   1.05039E+06
C:/temp/Job-1.odb,Step-1,Increment      1: Step Time =    1.000,"P-1-1",          9169,   20.7072E-03,   33.1197E-03,            0.,NA,NA,"",   999.009E+03,   1.05768E+06,   1.05768E+06
C:/temp/Job-1.odb,Step-1,Increment      1: Step Time =    1.000,"P-1-1",          9170,   178.904E-03,   164.439E-03,            0.,NA,NA,"",   1.00842E+06,   1.00748E+06,   1.00748E+06
C:/temp/Job-1.odb,Step-1,Increment      1: Step Time =    1.000,"P-1-1",          9171,   178.916E-03,   79.7919E-03,            0.,NA,NA,"",   980.937E+03,   993.058E+03,   993.058E+03
C:/temp/Job-1.odb,Step-1,Increment      1: Step Time =    1.000,"P-1-1",          9172,   138.508E-03,   21.2041E-03,            0.,NA,NA,"",   1.00955E+06,   1.00653E+06,   1.00653E+06
C:/temp/Job-1.odb,Step-1,Increment      1: Step Time =    1.000,"P-1-1",          9173,   177.890E-03,   167.498E-03,            0.,NA,NA,"",   1.00842E+06,   1.00719E+06,   1.00719E+06
C:/temp/Job-1.odb,Step-1,Increment      1: Step Time =    1.000,"P-1-1",          9174,   178.497E-03,   138.992E-03,            0.,NA,NA,"",   1.00379E+06,   1.00708E+06,   1.00708E+06
C:/temp/Job-1.odb,Step-1,Increment      1: Step Time =    1.000,"P-1-1",          9175,   178.604E-03,   81.7485E-03,            0.,NA,NA,"",   978.127E+03,   990.968E+03,   990.968E+03
C:/temp/Job-1.odb,Step-1,Increment      1: Step Time =    1.000,"P-1-1",          9176,   79.2010E-03,   20.7075E-03,            0.,NA,NA,"",   1.00011E+06,   1.00384E+06,   1.00384E+06
C:/temp/Job-1.odb,Step-1,Increment      1: Step Time =    1.000,"P-1-1",          9177,   35.5030E-03,   179.135E-03,            0.,NA,NA,"",   1.05340E+06,   1.06737E+06,   1.06737E+06
C:/temp/Job-1.odb,Step-1,Increment      1: Step Time =    1.000,"P-1-1",          9178,   21.6724E-03,   62.9925E-03,            0.,NA,NA,"",   889.617E+03,   966.539E+03,   966.539E+03
C:/temp/Job-1.odb,Step-1,Increment      1: Step Time =    1.000,"P-1-1",          9179,   167.583E-03,   20.6335E-03,            0.,NA,NA,"",   1.00743E+06,   1.00535E+06,   1.00535E+06
C:/temp/Job-1.odb,Step-1,Increment      1: Step Time =    1.000,"P-1-1",          9180,   105.990E-03,   21.4277E-03,            0.,NA,NA,"",   986.711E+03,   993.239E+03,   993.239E+03
C:/temp/Job-1.odb,Step-1,Increment      1: Step Time =    1.000,"P-1-1",          9181,   61.8970E-03,   179.559E-03,            0.,NA,NA,"",   1.02113E+06,   1.02266E+06,   1.02266E+06
C:/temp/Job-1.odb,Step-1,Increment      1: Step Time =    1.000,"P-1-1",          9182,   81.6064E-03,   20.6871E-03,            0.,NA,NA,"",   997.274E+03,   1.00152E+06,   1.00152E+06
C:/temp/Job-1.odb,Step-1,Increment      1: Step Time =    1.000,"P-1-1",          9183,   120.609E-03,   179.080E-03,            0.,NA,NA,"",   996.182E+03,   998.117E+03,   998.117E+03
C:/temp/Job-1.odb,Step-1,Increment      1: Step Time =    1.000,"P-1-1",          9184,   20.8905E-03,   120.745E-03,            0.,NA,NA,"",   837.230E+03,   920.919E+03,   920.919E+03
C:/temp/Job-1.odb,Step-1,Increment      1: Step Time =    1.000,"P-1-1",          9185,   32.9938E-03,   179.543E-03,            0.,NA,NA,"",   1.05678E+06,   1.07302E+06,   1.07302E+06
C:/temp/Job-1.odb,Step-1,Increment      1: Step Time =    1.000,"P-1-1",          9186,   20.9162E-03,   95.2919E-03,            0.,NA,NA,"",   808.349E+03,   894.920E+03,   894.920E+03
C:/temp/Job-1.odb,Step-1,Increment      1: Step Time =    1.000,"P-1-1",          9187,   177.942E-03,   105.355E-03,            0.,NA,NA,"",   963.802E+03,   980.802E+03,   980.802E+03
C:/temp/Job-1.odb,Step-1,Increment      1: Step Time =    1.000,"P-1-1",          9188,   95.2621E-03,   177.550E-03,            0.,NA,NA,"",   989.166E+03,   996.954E+03,   996.954E+03
C:/temp/Job-1.odb,Step-1,Increment      1: Step Time =    1.000,"P-1-1",          9189,   117.883E-03,   179.381E-03,            0.,NA,NA,"",   993.046E+03,   995.856E+03,   995.856E+03
C:/temp/Job-1.odb,Step-1,Increment      1: Step Time =    1.000,"P-1-1",          9190,   22.1284E-03,   117.805E-03,            0.,NA,NA,"",   832.708E+03,   915.719E+03,   915.719E+03
C:/temp/Job-1.odb,Step-1,Increment      1: Step Time =    1.000,"P-1-1",          9191,   127.372E-03,   96.2031E-03,            0.,NA,NA,"",   636.782E+03,   634.319E+03,   634.319E+03
C:/temp/Job-1.odb,Step-1,Increment      1: Step Time =    1.000,"P-1-1",          9192,   112.370E-03,   21.0758E-03,            0.,NA,NA,"",   989.586E+03,   994.332E+03,   994.332E+03
C:/temp/Job-1.odb,Step-1,Increment      1: Step Time =    1.000,"P-1-1",          9193,   179.496E-03,   111.622E-03,            0.,NA,NA,"",   970.214E+03,   986.494E+03,   986.494E+03
C:/temp/Job-1.odb,Step-1,Increment      1: Step Time =    1.000,"P-1-1",          9194,   21.6340E-03,   88.1928E-03,            0.,NA,NA,"",   818.524E+03,   903.513E+03,   903.513E+03
C:/temp/Job-1.odb,Step-1,Increment      1: Step Time =    1.000,"P-1-1",          9195,   88.1791E-03,   179.544E-03,            0.,NA,NA,"",   989.749E+03,   995.387E+03,   995.387E+03
C:/temp/Job-1.odb,Step-1,Increment      1: Step Time =    1.000,"P-1-1",          9196,   114.891E-03,   132.407E-03,            0.,NA,NA,"",   1.17159E+06,   1.17783E+06,   1.17783E+06
C:/temp/Job-1.odb,Step-1,Increment      1: Step Time =    1.000,"P-1-1",          9197,   20.9250E-03,   27.4296E-03,            0.,NA,NA,"",   1.02840E+06,   1.07871E+06,   1.07871E+06
C:/temp/Job-1.odb,Step-1,Increment      1: Step Time =    1.000,"P-1-1",          9198,   179.310E-03,   173.484E-03,            0.,NA,NA,"",   1.00537E+06,   1.00454E+06,   1.00454E+06
C:/temp/Job-1.odb,Step-1,Increment      1: Step Time =    1.000,"P-1-1",          9199,   173.318E-03,   20.7445E-03,            0.,NA,NA,"",   1.00549E+06,   1.00415E+06,   1.00415E+06
C:/temp/Job-1.odb,Step-1,Increment      1: Step Time =    1.000,"P-1-1",          9200,   117.578E-03,   21.6244E-03,            0.,NA,NA,"",   994.949E+03,   998.172E+03,   998.172E+03
C:/temp/Job-1.odb,Step-1,Increment      1: Step Time =    1.000,"P-1-1",          9201,   26.0902E-03,   178.496E-03,            0.,NA,NA,"",   1.06089E+06,   1.08936E+06,   1.08936E+06
C:/temp/Job-1.odb,Step-1,Increment      1: Step Time =    1.000,"P-1-1",          9202,   88.5236E-03,   20.1238E-03,            0.,NA,NA,"",   988.522E+03,   994.138E+03,   994.138E+03
C:/temp/Job-1.odb,Step-1,Increment      1: Step Time =    1.000,"P-1-1",          9203,   143.924E-03,   21.7639E-03,            0.,NA,NA,"",   1.01247E+06,   1.00868E+06,   1.00868E+06
C:/temp/Job-1.odb,Step-1,Increment      1: Step Time =    1.000,"P-1-1",          9204,   178.796E-03,   144.441E-03,            0.,NA,NA,"",   1.00689E+06,   1.00869E+06,   1.00869E+06
C:/temp/Job-1.odb,Step-1,Increment      1: Step Time =    1.000,"P-1-1",          9205,   178.526E-03,   118.171E-03,            0.,NA,NA,"",   978.070E+03,   990.902E+03,   990.902E+03
C:/temp/Job-1.odb,Step-1,Increment      1: Step Time =    1.000,"P-1-1",          9206,   20.9230E-03,   82.7582E-03,            0.,NA,NA,"",   828.442E+03,   913.018E+03,   913.018E+03
C:/temp/Job-1.odb,Step-1,Increment      1: Step Time =    1.000,"P-1-1",          9207,   83.3543E-03,   178.999E-03,            0.,NA,NA,"",   996.180E+03,   1.00115E+06,   1.00115E+06
C:/temp/Job-1.odb,Step-1,Increment      1: Step Time =    1.000,"P-1-1",          9208,   21.7232E-03,   111.490E-03,            0.,NA,NA,"",   818.376E+03,   903.240E+03,   903.240E+03
C:/temp/Job-1.odb,Step-1,Increment      1: Step Time =    1.000,"P-1-1",          9209,   95.9548E-03,   21.7503E-03,            0.,NA,NA,"",   987.424E+03,   994.867E+03,   994.867E+03
C:/temp/Job-1.odb,Step-1,Increment      1: Step Time =    1.000,"P-1-1",          9210,   21.0438E-03,   104.137E-03,            0.,NA,NA,"",   808.214E+03,   894.702E+03,   894.702E+03
C:/temp/Job-1.odb,Step-1,Increment      1: Step Time =    1.000,"P-1-1",          9211,   103.964E-03,   178.369E-03,            0.,NA,NA,"",   986.638E+03,   993.605E+03,   993.605E+03
C:/temp/Job-1.odb,Step-1,Increment      1: Step Time =    1.000,"P-1-1",          9212,   178.922E-03,   97.1231E-03,            0.,NA,NA,"",   963.925E+03,   981.835E+03,   981.835E+03
C:/temp/Job-1.odb,Step-1,Increment      1: Step Time =    1.000,"P-1-1",          9213,   121.560E-03,   126.375E-03,            0.,NA,NA,"",   1.23659E+06,   1.18414E+06,   1.18414E+06
C:/temp/Job-1.odb,Step-1,Increment      1: Step Time =    1.000,"P-1-1",          9214,   119.327E-03,   126.720E-03,            0.,NA,NA,"",   1.24316E+06,   1.20155E+06,   1.20155E+06
C:/temp/Job-1.odb,Step-1,Increment      1: Step Time =    1.000,"P-1-1",          9215,   178.683E-03,   62.0753E-03,            0.,NA,NA,"",   1.00257E+06,   1.00641E+06,   1.00641E+06
C:/temp/Job-1.odb,Step-1,Increment      1: Step Time =    1.000,"P-1-1",          9216,   62.7359E-03,   21.2376E-03,            0.,NA,NA,"",   1.02202E+06,   1.02364E+06,   1.02364E+06
C:/temp/Job-1.odb,Step-1,Increment      1: Step Time =    1.000,"P-1-1",          9217,   20.8839E-03,   53.1145E-03,            0.,NA,NA,"",   920.768E+03,   994.272E+03,   994.272E+03
C:/temp/Job-1.odb,Step-1,Increment      1: Step Time =    1.000,"P-1-1",          9218,   178.724E-03,   91.4377E-03,            0.,NA,NA,"",   967.014E+03,   983.723E+03,   983.723E+03
C:/temp/Job-1.odb,Step-1,Increment      1: Step Time =    1.000,"P-1-1",          9219,   53.0100E-03,   179.022E-03,            0.,NA,NA,"",   1.03280E+06,   1.03596E+06,   1.03596E+06
C:/temp/Job-1.odb,Step-1,Increment      1: Step Time =    1.000,"P-1-1",          9220,   136.489E-03,   178.301E-03,            0.,NA,NA,"",   1.00990E+06,   1.00712E+06,   1.00712E+06
C:/temp/Job-1.odb,Step-1,Increment      1: Step Time =    1.000,"P-1-1",          9221,   20.4384E-03,   137.501E-03,            0.,NA,NA,"",   887.197E+03,   965.833E+03,   965.833E+03
C:/temp/Job-1.odb,Step-1,Increment      1: Step Time =    1.000,"P-1-1",          9222,   164.440E-03,   20.6777E-03,            0.,NA,NA,"",   1.00843E+06,   1.00597E+06,   1.00597E+06
C:/temp/Job-1.odb,Step-1,Increment      1: Step Time =    1.000,"P-1-1",          9223,   67.7548E-03,   109.642E-03,            0.,NA,NA,"",   820.355E+03,   828.039E+03,   828.039E+03
C:/temp/Job-1.odb,Step-1,Increment      1: Step Time =    1.000,"P-1-1",          9224,   109.776E-03,   133.104E-03,            0.,NA,NA,"",   1.12258E+06,   1.16507E+06,   1.16507E+06
C:/temp/Job-1.odb,Step-1,Increment      1: Step Time =    1.000,"P-1-1",          9225,   84.3474E-03,   132.902E-03,            0.,NA,NA,"",   1.15988E+06,   1.17267E+06,   1.17267E+06
C:/temp/Job-1.odb,Step-1,Increment      1: Step Time =    1.000,"P-1-1",          9226,   122.650E-03,   124.988E-03,            0.,NA,NA,"",   1.23490E+06,   1.17270E+06,   1.17270E+06
C:/temp/Job-1.odb,Step-1,Increment      1: Step Time =    1.000,"P-1-1",          9227,   77.7736E-03,   181.100E-03,            0.,NA,NA,"",   996.768E+03,   999.668E+03,   999.668E+03
C:/temp/Job-1.odb,Step-1,Increment      1: Step Time =    1.000,"P-1-1",          9228,   47.6356E-03,   180.708E-03,            0.,NA,NA,"",   1.03612E+06,   1.04050E+06,   1.04050E+06
C:/temp/Job-1.odb,Step-1,Increment      1: Step Time =    1.000,"P-1-1",          9229,   18.5035E-03,   77.0787E-03,            0.,NA,NA,"",   837.106E+03,   923.125E+03,   923.125E+03
C:/temp/Job-1.odb,Step-1,Increment      1: Step Time =    1.000,"P-1-1",          9230,   18.5141E-03,   162.212E-03,            0.,NA,NA,"",   969.545E+03,   1.03834E+06,   1.03834E+06
C:/temp/Job-1.odb,Step-1,Increment      1: Step Time =    1.000,"P-1-1",          9231,   181.570E-03,   122.192E-03,            0.,NA,NA,"",   982.578E+03,   995.813E+03,   995.813E+03
C:/temp/Job-1.odb,Step-1,Increment      1: Step Time =    1.000,"P-1-1",          9232,   18.4491E-03,   47.6902E-03,            0.,NA,NA,"",   930.437E+03,   1.00585E+06,   1.00585E+06
C:/temp/Job-1.odb,Step-1,Increment      1: Step Time =    1.000,"P-1-1",          9233,   121.817E-03,   19.2775E-03,            0.,NA,NA,"",   993.141E+03,   994.439E+03,   994.439E+03
C:/temp/Job-1.odb,Step-1,Increment      1: Step Time =    1.000,"P-1-1",          9234,   181.053E-03,   152.199E-03,            0.,NA,NA,"",   1.00653E+06,   1.00776E+06,   1.00776E+06
C:/temp/Job-1.odb,Step-1,Increment      1: Step Time =    1.000,"P-1-1",          9235,   151.821E-03,   18.6070E-03,            0.,NA,NA,"",   1.00764E+06,   1.00466E+06,   1.00466E+06
C:/temp/Job-1.odb,Step-1,Increment      1: Step Time =    1.000,"P-1-1",          9236,   181.781E-03,   37.9550E-03,            0.,NA,NA,"",   1.00618E+06,   1.00622E+06,   1.00622E+06
C:/temp/Job-1.odb,Step-1,Increment      1: Step Time =    1.000,"P-1-1",          9237,   36.2592E-03,   18.7504E-03,            0.,NA,NA,"",   1.05286E+06,   1.06388E+06,   1.06388E+06
C:/temp/Job-1.odb,Step-1,Increment      1: Step Time =    1.000,"P-1-1",          9238,   162.793E-03,   182.024E-03,            0.,NA,NA,"",   1.00623E+06,   1.00411E+06,   1.00411E+06
C:/temp/Job-1.odb,Step-1,Increment      1: Step Time =    1.000,"P-1-1",          9239,   82.1500E-03,   129.003E-03,            0.,NA,NA,"",   1.20549E+06,   1.19544E+06,   1.19544E+06
C:/temp/Job-1.odb,Step-1,Increment      1: Step Time =    1.000,"P-1-1",          9240,   133.733E-03,   101.253E-03,            0.,NA,NA,"",   705.169E+03,   720.292E+03,   720.292E+03
C:/temp/Job-1.odb,Step-1,Increment      1: Step Time =    1.000,"P-1-1",          9241,   70.6349E-03,   88.7413E-03,            0.,NA,NA,"",   883.108E+03,   865.435E+03,   865.435E+03
C:/temp/Job-1.odb,Step-1,Increment      1: Step Time =    1.000,"P-1-1",          9242,   124.761E-03,   86.1782E-03,            0.,NA,NA,"",   1.08363E+06,   990.448E+03,   990.448E+03
C:/temp/Job-1.odb,Step-1,Increment      1: Step Time =    1.000,"P-1-1",          9243,   91.0934E-03,   80.5402E-03,            0.,NA,NA,"",   1.36740E+06,   1.41110E+06,   1.41110E+06
C:/temp/Job-1.odb,Step-1,Increment      1: Step Time =    1.000,"P-1-1",          9244,   132.051E-03,   21.6376E-03,            0.,NA,NA,"",   1.00723E+06,   1.00547E+06,   1.00547E+06
C:/temp/Job-1.odb,Step-1,Increment      1: Step Time =    1.000,"P-1-1",          9245,   178.980E-03,   132.627E-03,            0.,NA,NA,"",   996.994E+03,   1.00321E+06,   1.00321E+06
C:/temp/Job-1.odb,Step-1,Increment      1: Step Time =    1.000,"P-1-1",          9246,   20.2261E-03,   68.4239E-03,            0.,NA,NA,"",   866.802E+03,   948.155E+03,   948.155E+03
C:/temp/Job-1.odb,Step-1,Increment      1: Step Time =    1.000,"P-1-1",          9247,   68.9201E-03,   178.050E-03,            0.,NA,NA,"",   1.01649E+06,   1.01853E+06,   1.01853E+06
C:/temp/Job-1.odb,Step-1,Increment      1: Step Time =    1.000,"P-1-1",          9248,   132.409E-03,   17.1960E-03,            0.,NA,NA,"",   997.248E+03,   996.038E+03,   996.038E+03
C:/temp/Job-1.odb,Step-1,Increment      1: Step Time =    1.000,"P-1-1",          9249,   16.9727E-03,   67.6189E-03,            0.,NA,NA,"",   859.310E+03,   944.827E+03,   944.827E+03
C:/temp/Job-1.odb,Step-1,Increment      1: Step Time =    1.000,"P-1-1",          9250,   184.733E-03,   46.5258E-03,            0.,NA,NA,"",   1.00289E+06,   1.00533E+06,   1.00533E+06
C:/temp/Job-1.odb,Step-1,Increment      1: Step Time =    1.000,"P-1-1",          9251,   153.314E-03,   184.764E-03,            0.,NA,NA,"",   1.00285E+06,   1.00078E+06,   1.00078E+06
C:/temp/Job-1.odb,Step-1,Increment      1: Step Time =    1.000,"P-1-1",          9252,   16.8361E-03,   153.630E-03,            0.,NA,NA,"",   928.608E+03,   1.00666E+06,   1.00666E+06
C:/temp/Job-1.odb,Step-1,Increment      1: Step Time =    1.000,"P-1-1",          9253,   74.5352E-03,   122.283E-03,            0.,NA,NA,"",   1.16496E+06,   1.11802E+06,   1.11802E+06
C:/temp/Job-1.odb,Step-1,Increment      1: Step Time =    1.000,"P-1-1",          9254,   25.8312E-03,   20.3252E-03,            0.,NA,NA,"",   1.06498E+06,   1.09182E+06,   1.09182E+06
C:/temp/Job-1.odb,Step-1,Increment      1: Step Time =    1.000,"P-1-1",          9255,   70.6644E-03,   82.6501E-03,            0.,NA,NA,"",   1.04359E+06,   1.00782E+06,   1.00782E+06
C:/temp/Job-1.odb,Step-1,Increment      1: Step Time =    1.000,"P-1-1",          9256,   179.277E-03,   26.8922E-03,            0.,NA,NA,"",   1.00557E+06,   1.00471E+06,   1.00471E+06
C:/temp/Job-1.odb,Step-1,Increment      1: Step Time =    1.000,"P-1-1",          9257,   20.6852E-03,   172.937E-03,            0.,NA,NA,"",   1.02950E+06,   1.08004E+06,   1.08004E+06
C:/temp/Job-1.odb,Step-1,Increment      1: Step Time =    1.000,"P-1-1",          9258,   179.876E-03,   57.3357E-03,            0.,NA,NA,"",   1.00447E+06,   1.00749E+06,   1.00749E+06
C:/temp/Job-1.odb,Step-1,Increment      1: Step Time =    1.000,"P-1-1",          9259,   57.0482E-03,   21.2228E-03,            0.,NA,NA,"",   1.02872E+06,   1.03097E+06,   1.03097E+06
C:/temp/Job-1.odb,Step-1,Increment      1: Step Time =    1.000,"P-1-1",          9260,   123.859E-03,   120.336E-03,            0.,NA,NA,"",   1.21490E+06,   1.13182E+06,   1.13182E+06
C:/temp/Job-1.odb,Step-1,Increment      1: Step Time =    1.000,"P-1-1",          9261,   143.656E-03,   177.832E-03,            0.,NA,NA,"",   1.01346E+06,   1.00953E+06,   1.00953E+06
C:/temp/Job-1.odb,Step-1,Increment      1: Step Time =    1.000,"P-1-1",          9262,   19.9261E-03,   143.414E-03,            0.,NA,NA,"",   904.759E+03,   981.898E+03,   981.898E+03
C:/temp/Job-1.odb,Step-1,Increment      1: Step Time =    1.000,"P-1-1",          9263,   68.2376E-03,   112.634E-03,            0.,NA,NA,"",   902.375E+03,   894.436E+03,   894.436E+03
C:/temp/Job-1.odb,Step-1,Increment      1: Step Time =    1.000,"P-1-1",          9264,   90.5565E-03,   134.111E-03,            0.,NA,NA,"",   1.10776E+06,   1.15550E+06,   1.15550E+06
C:/temp/Job-1.odb,Step-1,Increment      1: Step Time =    1.000,"P-1-1",          9265,   107.254E-03,   134.097E-03,            0.,NA,NA,"",   1.09166E+06,   1.14692E+06,   1.14692E+06
C:/temp/Job-1.odb,Step-1,Increment      1: Step Time =    1.000,"P-1-1",          9266,   132.680E-03,   99.1187E-03,            0.,NA,NA,"",   683.853E+03,   699.371E+03,   699.371E+03
C:/temp/Job-1.odb,Step-1,Increment      1: Step Time =    1.000,"P-1-1",          9267,   126.954E-03,   119.191E-03,            0.,NA,NA,"",   1.15720E+06,   1.07921E+06,   1.07921E+06
C:/temp/Job-1.odb,Step-1,Increment      1: Step Time =    1.000,"P-1-1",          9268,   99.1890E-03,   133.390E-03,            0.,NA,NA,"",   1.05985E+06,   1.13931E+06,   1.13931E+06
C:/temp/Job-1.odb,Step-1,Increment      1: Step Time =    1.000,"P-1-1",          9269,   133.475E-03,   109.792E-03,            0.,NA,NA,"",   870.444E+03,   849.715E+03,   849.715E+03
C:/temp/Job-1.odb,Step-1,Increment      1: Step Time =    1.000,"P-1-1",          9270,   128.832E-03,   117.663E-03,            0.,NA,NA,"",   1.10333E+06,   1.03294E+06,   1.03294E+06
C:/temp/Job-1.odb,Step-1,Increment      1: Step Time =    1.000,"P-1-1",          9271,   17.0361E-03,   172.453E-03,            0.,NA,NA,"",   1.01591E+06,   1.07738E+06,   1.07738E+06
C:/temp/Job-1.odb,Step-1,Increment      1: Step Time =    1.000,"P-1-1",          9272,   17.1040E-03,   143.768E-03,            0.,NA,NA,"",   895.181E+03,   977.076E+03,   977.076E+03
C:/temp/Job-1.odb,Step-1,Increment      1: Step Time =    1.000,"P-1-1",          9273,   143.619E-03,   182.621E-03,            0.,NA,NA,"",   1.00375E+06,   1.00120E+06,   1.00120E+06
C:/temp/Job-1.odb,Step-1,Increment      1: Step Time =    1.000,"P-1-1",          9274,   55.7552E-03,   17.1140E-03,            0.,NA,NA,"",   1.02024E+06,   1.02170E+06,   1.02170E+06
C:/temp/Job-1.odb,Step-1,Increment      1: Step Time =    1.000,"P-1-1",          9275,   182.439E-03,   56.4272E-03,            0.,NA,NA,"",   1.00187E+06,   1.00610E+06,   1.00610E+06
C:/temp/Job-1.odb,Step-1,Increment      1: Step Time =    1.000,"P-1-1",          9276,   182.330E-03,   26.9220E-03,            0.,NA,NA,"",   1.00398E+06,   1.00358E+06,   1.00358E+06
C:/temp/Job-1.odb,Step-1,Increment      1: Step Time =    1.000,"P-1-1",          9277,   172.461E-03,   182.456E-03,            0.,NA,NA,"",   1.00388E+06,   1.00278E+06,   1.00278E+06
C:/temp/Job-1.odb,Step-1,Increment      1: Step Time =    1.000,"P-1-1",          9278,   125.929E-03,   95.4685E-03,            0.,NA,NA,"",   642.419E+03,   626.268E+03,   626.268E+03
C:/temp/Job-1.odb,Step-1,Increment      1: Step Time =    1.000,"P-1-1",          9279,   123.683E-03,   126.655E-03,            0.,NA,NA,"",   1.21886E+06,   1.16292E+06,   1.16292E+06
C:/temp/Job-1.odb,Step-1,Increment      1: Step Time =    1.000,"P-1-1",          9280,   68.6562E-03,   88.7730E-03,            0.,NA,NA,"",   865.313E+03,   861.775E+03,   861.775E+03
C:/temp/Job-1.odb,Step-1,Increment      1: Step Time =    1.000,"P-1-1",          9281,   70.2160E-03,   118.681E-03,            0.,NA,NA,"",   1.05834E+06,   1.02496E+06,   1.02496E+06
C:/temp/Job-1.odb,Step-1,Increment      1: Step Time =    1.000,"P-1-1",          9282,   134.951E-03,   109.816E-03,            0.,NA,NA,"",   870.341E+03,   854.443E+03,   854.443E+03
C:/temp/Job-1.odb,Step-1,Increment      1: Step Time =    1.000,"P-1-1",          9283,   179.475E-03,   47.5052E-03,            0.,NA,NA,"",   1.00868E+06,   1.00904E+06,   1.00904E+06
C:/temp/Job-1.odb,Step-1,Increment      1: Step Time =    1.000,"P-1-1",          9284,   47.6078E-03,   20.3485E-03,            0.,NA,NA,"",   1.03794E+06,   1.04283E+06,   1.04283E+06
C:/temp/Job-1.odb,Step-1,Increment      1: Step Time =    1.000,"P-1-1",          9285,   152.699E-03,   178.840E-03,            0.,NA,NA,"",   1.01158E+06,   1.00792E+06,   1.00792E+06
C:/temp/Job-1.odb,Step-1,Increment      1: Step Time =    1.000,"P-1-1",          9286,   21.1612E-03,   152.214E-03,            0.,NA,NA,"",   940.608E+03,   1.01080E+06,   1.01080E+06
C:/temp/Job-1.odb,Step-1,Increment      1: Step Time =    1.000,"P-1-1",          9287,   73.4316E-03,   121.470E-03,            0.,NA,NA,"",   1.14255E+06,   1.09677E+06,   1.09677E+06
C:/temp/Job-1.odb,Step-1,Increment      1: Step Time =    1.000,"P-1-1",          9288,   89.0585E-03,   134.810E-03,            0.,NA,NA,"",   1.11345E+06,   1.15305E+06,   1.15305E+06
C:/temp/Job-1.odb,Step-1,Increment      1: Step Time =    1.000,"P-1-1",          9289,   106.533E-03,   135.401E-03,            0.,NA,NA,"",   1.07780E+06,   1.13451E+06,   1.13451E+06
C:/temp/Job-1.odb,Step-1,Increment      1: Step Time =    1.000,"P-1-1",          9290,   80.7918E-03,   128.823E-03,            0.,NA,NA,"",   1.20444E+06,   1.18774E+06,   1.18774E+06
C:/temp/Job-1.odb,Step-1,Increment      1: Step Time =    1.000,"P-1-1",          9291,   100.047E-03,   22.2596E-03,            0.,NA,NA,"",   987.548E+03,   995.338E+03,   995.338E+03
C:/temp/Job-1.odb,Step-1,Increment      1: Step Time =    1.000,"P-1-1",          9292,   21.6319E-03,   101.264E-03,            0.,NA,NA,"",   807.714E+03,   893.767E+03,   893.767E+03
C:/temp/Job-1.odb,Step-1,Increment      1: Step Time =    1.000,"P-1-1",          9293,   100.100E-03,   178.626E-03,            0.,NA,NA,"",   985.735E+03,   992.957E+03,   992.957E+03
C:/temp/Job-1.odb,Step-1,Increment      1: Step Time =    1.000,"P-1-1",          9294,   178.734E-03,   99.6941E-03,            0.,NA,NA,"",   963.209E+03,   981.155E+03,   981.155E+03
C:/temp/Job-1.odb,Step-1,Increment      1: Step Time =    1.000,"P-1-1",          9295,   177.959E-03,   66.1428E-03,            0.,NA,NA,"",   999.573E+03,   1.00445E+06,   1.00445E+06
C:/temp/Job-1.odb,Step-1,Increment      1: Step Time =    1.000,"P-1-1",          9296,   66.8817E-03,   22.9808E-03,            0.,NA,NA,"",   1.02174E+06,   1.02381E+06,   1.02381E+06
C:/temp/Job-1.odb,Step-1,Increment      1: Step Time =    1.000,"P-1-1",          9297,   129.922E-03,   118.840E-03,            0.,NA,NA,"",   1.10520E+06,   1.03993E+06,   1.03993E+06
C:/temp/Job-1.odb,Step-1,Increment      1: Step Time =    1.000,"P-1-1",          9298,   133.708E-03,   177.258E-03,            0.,NA,NA,"",   1.01094E+06,   1.00854E+06,   1.00854E+06
C:/temp/Job-1.odb,Step-1,Increment      1: Step Time =    1.000,"P-1-1",          9299,   23.7835E-03,   133.347E-03,            0.,NA,NA,"",   885.453E+03,   960.280E+03,   960.280E+03
C:/temp/Job-1.odb,Step-1,Increment      1: Step Time =    1.000,"P-1-1",          9300,   171.407E-03,   21.3190E-03,            0.,NA,NA,"",   1.00654E+06,   1.00487E+06,   1.00487E+06
C:/temp/Job-1.odb,Step-1,Increment      1: Step Time =    1.000,"P-1-1",          9301,   100.419E-03,   134.971E-03,            0.,NA,NA,"",   1.05240E+06,   1.12592E+06,   1.12592E+06
C:/temp/Job-1.odb,Step-1,Increment      1: Step Time =    1.000,"P-1-1",          9302,   87.4554E-03,   20.9912E-03,            0.,NA,NA,"",   991.646E+03,   997.513E+03,   997.513E+03
C:/temp/Job-1.odb,Step-1,Increment      1: Step Time =    1.000,"P-1-1",          9303,   116.392E-03,   21.3047E-03,            0.,NA,NA,"",   993.183E+03,   996.688E+03,   996.688E+03
C:/temp/Job-1.odb,Step-1,Increment      1: Step Time =    1.000,"P-1-1",          9304,   27.3370E-03,   177.961E-03,            0.,NA,NA,"",   1.05846E+06,   1.08554E+06,   1.08554E+06
C:/temp/Job-1.odb,Step-1,Increment      1: Step Time =    1.000,"P-1-1",          9305,   142.431E-03,   22.2733E-03,            0.,NA,NA,"",   1.01329E+06,   1.00946E+06,   1.00946E+06
C:/temp/Job-1.odb,Step-1,Increment      1: Step Time =    1.000,"P-1-1",          9306,   69.6309E-03,   81.0126E-03,            0.,NA,NA,"",   1.05458E+06,   1.02373E+06,   1.02373E+06
C:/temp/Job-1.odb,Step-1,Increment      1: Step Time =    1.000,"P-1-1",          9307,   178.236E-03,   141.807E-03,            0.,NA,NA,"",   1.00623E+06,   1.00840E+06,   1.00840E+06
C:/temp/Job-1.odb,Step-1,Increment      1: Step Time =    1.000,"P-1-1",          9308,   177.872E-03,   86.9772E-03,            0.,NA,NA,"",   971.097E+03,   985.723E+03,   985.723E+03
C:/temp/Job-1.odb,Step-1,Increment      1: Step Time =    1.000,"P-1-1",          9309,   178.142E-03,   69.1237E-03,            0.,NA,NA,"",   995.888E+03,   1.00226E+06,   1.00226E+06
C:/temp/Job-1.odb,Step-1,Increment      1: Step Time =    1.000,"P-1-1",          9310,   70.4543E-03,   22.1425E-03,            0.,NA,NA,"",   1.01519E+06,   1.01753E+06,   1.01753E+06
C:/temp/Job-1.odb,Step-1,Increment      1: Step Time =    1.000,"P-1-1",          9311,   21.8630E-03,   55.1005E-03,            0.,NA,NA,"",   918.009E+03,   990.670E+03,   990.670E+03
C:/temp/Job-1.odb,Step-1,Increment      1: Step Time =    1.000,"P-1-1",          9312,   178.014E-03,   116.876E-03,            0.,NA,NA,"",   976.275E+03,   989.360E+03,   989.360E+03
C:/temp/Job-1.odb,Step-1,Increment      1: Step Time =    1.000,"P-1-1",          9313,   54.6857E-03,   177.928E-03,            0.,NA,NA,"",   1.03320E+06,   1.03627E+06,   1.03627E+06
C:/temp/Job-1.odb,Step-1,Increment      1: Step Time =    1.000,"P-1-1",          9314,   22.3316E-03,   83.7450E-03,            0.,NA,NA,"",   829.246E+03,   912.471E+03,   912.471E+03
C:/temp/Job-1.odb,Step-1,Increment      1: Step Time =    1.000,"P-1-1",          9315,   178.067E-03,   90.1956E-03,            0.,NA,NA,"",   967.614E+03,   983.544E+03,   983.544E+03
C:/temp/Job-1.odb,Step-1,Increment      1: Step Time =    1.000,"P-1-1",          9316,   21.9657E-03,   112.662E-03,            0.,NA,NA,"",   820.835E+03,   905.255E+03,   905.255E+03
C:/temp/Job-1.odb,Step-1,Increment      1: Step Time =    1.000,"P-1-1",          9317,   113.284E-03,   178.428E-03,            0.,NA,NA,"",   991.362E+03,   995.999E+03,   995.999E+03
C:/temp/Job-1.odb,Step-1,Increment      1: Step Time =    1.000,"P-1-1",          9318,   83.8987E-03,   178.072E-03,            0.,NA,NA,"",   997.826E+03,   1.00337E+06,   1.00337E+06
C:/temp/Job-1.odb,Step-1,Increment      1: Step Time =    1.000,"P-1-1",          9319,   22.7422E-03,   57.0333E-03,            0.,NA,NA,"",   914.735E+03,   986.755E+03,   986.755E+03
C:/temp/Job-1.odb,Step-1,Increment      1: Step Time =    1.000,"P-1-1",          9320,   57.2200E-03,   178.542E-03,            0.,NA,NA,"",   1.02883E+06,   1.03104E+06,   1.03104E+06
C:/temp/Job-1.odb,Step-1,Increment      1: Step Time =    1.000,"P-1-1",          9321,   130.435E-03,   177.852E-03,            0.,NA,NA,"",   1.00738E+06,   1.00600E+06,   1.00600E+06
C:/temp/Job-1.odb,Step-1,Increment      1: Step Time =    1.000,"P-1-1",          9322,   21.0710E-03,   130.484E-03,            0.,NA,NA,"",   866.361E+03,   946.687E+03,   946.687E+03
C:/temp/Job-1.odb,Step-1,Increment      1: Step Time =    1.000,"P-1-1",          9323,   159.006E-03,   20.5950E-03,            0.,NA,NA,"",   1.00984E+06,   1.00678E+06,   1.00678E+06
C:/temp/Job-1.odb,Step-1,Increment      1: Step Time =    1.000,"P-1-1",          9324,   175.397E-03,   179.579E-03,            0.,NA,NA,"",   1.00457E+06,   1.00351E+06,   1.00351E+06
C:/temp/Job-1.odb,Step-1,Increment      1: Step Time =    1.000,"P-1-1",          9325,   177.600E-03,   158.658E-03,            0.,NA,NA,"",   1.01087E+06,   1.00974E+06,   1.00974E+06
C:/temp/Job-1.odb,Step-1,Increment      1: Step Time =    1.000,"P-1-1",          9326,   23.5044E-03,   20.1029E-03,            0.,NA,NA,"",   1.06765E+06,   1.09860E+06,   1.09860E+06
C:/temp/Job-1.odb,Step-1,Increment      1: Step Time =    1.000,"P-1-1",          9327,   21.7782E-03,   42.0055E-03,            0.,NA,NA,"",   965.100E+03,   1.02980E+06,   1.02980E+06
C:/temp/Job-1.odb,Step-1,Increment      1: Step Time =    1.000,"P-1-1",          9328,   42.6340E-03,   178.378E-03,            0.,NA,NA,"",   1.04519E+06,   1.05376E+06,   1.05376E+06
C:/temp/Job-1.odb,Step-1,Increment      1: Step Time =    1.000,"P-1-1",          9329,   179.187E-03,   24.2642E-03,            0.,NA,NA,"",   1.00473E+06,   1.00393E+06,   1.00393E+06
C:/temp/Job-1.odb,Step-1,Increment      1: Step Time =    1.000,"P-1-1",          9330,   163.659E-03,   21.7602E-03,            0.,NA,NA,"",   1.00978E+06,   1.00700E+06,   1.00700E+06
C:/temp/Job-1.odb,Step-1,Increment      1: Step Time =    1.000,"P-1-1",          9331,   19.5452E-03,   175.682E-03,            0.,NA,NA,"",   1.04225E+06,   1.09124E+06,   1.09124E+06
C:/temp/Job-1.odb,Step-1,Increment      1: Step Time =    1.000,"P-1-1",          9332,   165.480E-03,   177.140E-03,            0.,NA,NA,"",   1.01021E+06,   1.00745E+06,   1.00745E+06
C:/temp/Job-1.odb,Step-1,Increment      1: Step Time =    1.000,"P-1-1",          9333,   34.0506E-03,   22.1776E-03,            0.,NA,NA,"",   1.05352E+06,   1.07090E+06,   1.07090E+06
C:/temp/Job-1.odb,Step-1,Increment      1: Step Time =    1.000,"P-1-1",          9334,   177.359E-03,   34.6106E-03,            0.,NA,NA,"",   1.00953E+06,   1.00814E+06,   1.00814E+06
C:/temp/Job-1.odb,Step-1,Increment      1: Step Time =    1.000,"P-1-1",          9335,   36.6993E-03,   20.1278E-03,            0.,NA,NA,"",   1.05217E+06,   1.06430E+06,   1.06430E+06
C:/temp/Job-1.odb,Step-1,Increment      1: Step Time =    1.000,"P-1-1",          9336,   163.159E-03,   178.928E-03,            0.,NA,NA,"",   1.00929E+06,   1.00658E+06,   1.00658E+06
C:/temp/Job-1.odb,Step-1,Increment      1: Step Time =    1.000,"P-1-1",          9337,   178.675E-03,   52.0790E-03,            0.,NA,NA,"",   1.00856E+06,   1.00942E+06,   1.00942E+06
C:/temp/Job-1.odb,Step-1,Increment      1: Step Time =    1.000,"P-1-1",          9338,   178.781E-03,   55.0853E-03,            0.,NA,NA,"",   1.00715E+06,   1.00882E+06,   1.00882E+06
C:/temp/Job-1.odb,Step-1,Increment      1: Step Time =    1.000,"P-1-1",          9339,   53.5739E-03,   20.2769E-03,            0.,NA,NA,"",   1.03075E+06,   1.03349E+06,   1.03349E+06
C:/temp/Job-1.odb,Step-1,Increment      1: Step Time =    1.000,"P-1-1",          9340,   51.0510E-03,   20.9088E-03,            0.,NA,NA,"",   1.03479E+06,   1.03856E+06,   1.03856E+06
C:/temp/Job-1.odb,Step-1,Increment      1: Step Time =    1.000,"P-1-1",          9341,   20.2917E-03,   90.3613E-03,            0.,NA,NA,"",   812.912E+03,   899.538E+03,   899.538E+03
C:/temp/Job-1.odb,Step-1,Increment      1: Step Time =    1.000,"P-1-1",          9342,   178.699E-03,   109.052E-03,            0.,NA,NA,"",   967.211E+03,   983.760E+03,   983.760E+03
C:/temp/Job-1.odb,Step-1,Increment      1: Step Time =    1.000,"P-1-1",          9343,   21.0830E-03,   165.963E-03,            0.,NA,NA,"",   996.379E+03,   1.05511E+06,   1.05511E+06
C:/temp/Job-1.odb,Step-1,Increment      1: Step Time =    1.000,"P-1-1",          9344,   90.2988E-03,   178.830E-03,            0.,NA,NA,"",   989.557E+03,   996.020E+03,   996.020E+03
C:/temp/Job-1.odb,Step-1,Increment      1: Step Time =    1.000,"P-1-1",          9345,   21.7025E-03,   31.0084E-03,            0.,NA,NA,"",   1.01271E+06,   1.06620E+06,   1.06620E+06
C:/temp/Job-1.odb,Step-1,Increment      1: Step Time =    1.000,"P-1-1",          9346,   21.4792E-03,   163.413E-03,            0.,NA,NA,"",   986.809E+03,   1.04714E+06,   1.04714E+06
C:/temp/Job-1.odb,Step-1,Increment      1: Step Time =    1.000,"P-1-1",          9347,   149.731E-03,   177.871E-03,            0.,NA,NA,"",   1.01353E+06,   1.00946E+06,   1.00946E+06
C:/temp/Job-1.odb,Step-1,Increment      1: Step Time =    1.000,"P-1-1",          9348,   146.049E-03,   178.803E-03,            0.,NA,NA,"",   1.01186E+06,   1.00810E+06,   1.00810E+06
C:/temp/Job-1.odb,Step-1,Increment      1: Step Time =    1.000,"P-1-1",          9349,   177.920E-03,   168.936E-03,            0.,NA,NA,"",   1.00792E+06,   1.00671E+06,   1.00671E+06
C:/temp/Job-1.odb,Step-1,Increment      1: Step Time =    1.000,"P-1-1",          9350,   177.704E-03,   166.105E-03,            0.,NA,NA,"",   1.00902E+06,   1.00773E+06,   1.00773E+06
C:/temp/Job-1.odb,Step-1,Increment      1: Step Time =    1.000,"P-1-1",          9351,   21.0784E-03,   34.4149E-03,            0.,NA,NA,"",   994.343E+03,   1.05342E+06,   1.05342E+06
C:/temp/Job-1.odb,Step-1,Increment      1: Step Time =    1.000,"P-1-1",          9352,   22.0509E-03,   149.162E-03,            0.,NA,NA,"",   933.526E+03,   1.00349E+06,   1.00349E+06
C:/temp/Job-1.odb,Step-1,Increment      1: Step Time =    1.000,"P-1-1",          9353,   18.7386E-03,   146.104E-03,            0.,NA,NA,"",   909.261E+03,   987.410E+03,   987.410E+03
C:/temp/Job-1.odb,Step-1,Increment      1: Step Time =    1.000,"P-1-1",          9354,   22.1976E-03,   177.842E-03,            0.,NA,NA,"",   1.05831E+06,   1.09594E+06,   1.09594E+06
C:/temp/Job-1.odb,Step-1,Increment      1: Step Time =    1.000,"P-1-1",          9355,   177.866E-03,   80.5583E-03,            0.,NA,NA,"",   979.899E+03,   991.612E+03,   991.612E+03
C:/temp/Job-1.odb,Step-1,Increment      1: Step Time =    1.000,"P-1-1",          9356,   169.215E-03,   21.0419E-03,            0.,NA,NA,"",   1.00715E+06,   1.00524E+06,   1.00524E+06
C:/temp/Job-1.odb,Step-1,Increment      1: Step Time =    1.000,"P-1-1",          9357,   166.274E-03,   20.2468E-03,            0.,NA,NA,"",   1.00752E+06,   1.00534E+06,   1.00534E+06
C:/temp/Job-1.odb,Step-1,Increment      1: Step Time =    1.000,"P-1-1",          9358,   139.227E-03,   22.1597E-03,            0.,NA,NA,"",   1.01206E+06,   1.00870E+06,   1.00870E+06
C:/temp/Job-1.odb,Step-1,Increment      1: Step Time =    1.000,"P-1-1",          9359,   177.800E-03,   140.162E-03,            0.,NA,NA,"",   1.00561E+06,   1.00803E+06,   1.00803E+06
C:/temp/Job-1.odb,Step-1,Increment      1: Step Time =    1.000,"P-1-1",          9360,   80.2211E-03,   21.7217E-03,            0.,NA,NA,"",   1.00185E+06,   1.00620E+06,   1.00620E+06
C:/temp/Job-1.odb,Step-1,Increment      1: Step Time =    1.000,"P-1-1",          9361,   107.369E-03,   22.0582E-03,            0.,NA,NA,"",   988.587E+03,   995.178E+03,   995.178E+03
C:/temp/Job-1.odb,Step-1,Increment      1: Step Time =    1.000,"P-1-1",          9362,   34.5037E-03,   178.066E-03,            0.,NA,NA,"",   1.05351E+06,   1.06984E+06,   1.06984E+06
C:/temp/Job-1.odb,Step-1,Increment      1: Step Time =    1.000,"P-1-1",          9363,   113.565E-03,   132.474E-03,            0.,NA,NA,"",   1.16334E+06,   1.17855E+06,   1.17855E+06
C:/temp/Job-1.odb,Step-1,Increment      1: Step Time =    1.000,"P-1-1",          9364,   20.8130E-03,   64.9468E-03,            0.,NA,NA,"",   880.683E+03,   959.601E+03,   959.601E+03
C:/temp/Job-1.odb,Step-1,Increment      1: Step Time =    1.000,"P-1-1",          9365,   178.664E-03,   21.6202E-03,            0.,NA,NA,"",   1.00393E+06,   1.00319E+06,   1.00319E+06
C:/temp/Job-1.odb,Step-1,Increment      1: Step Time =    1.000,"P-1-1",          9366,   63.9871E-03,   177.962E-03,            0.,NA,NA,"",   1.02290E+06,   1.02470E+06,   1.02470E+06
C:/temp/Job-1.odb,Step-1,Increment      1: Step Time =    1.000,"P-1-1",          9367,   177.766E-03,   106.961E-03,            0.,NA,NA,"",   964.715E+03,   981.231E+03,   981.231E+03
C:/temp/Job-1.odb,Step-1,Increment      1: Step Time =    1.000,"P-1-1",          9368,   119.265E-03,   179.215E-03,            0.,NA,NA,"",   994.638E+03,   996.988E+03,   996.988E+03
C:/temp/Job-1.odb,Step-1,Increment      1: Step Time =    1.000,"P-1-1",          9369,   22.3486E-03,   119.396E-03,            0.,NA,NA,"",   837.379E+03,   919.620E+03,   919.620E+03
C:/temp/Job-1.odb,Step-1,Increment      1: Step Time =    1.000,"P-1-1",          9370,   93.6200E-03,   176.983E-03,            0.,NA,NA,"",   991.174E+03,   999.230E+03,   999.230E+03
C:/temp/Job-1.odb,Step-1,Increment      1: Step Time =    1.000,"P-1-1",          9371,   113.589E-03,   21.5750E-03,            0.,NA,NA,"",   991.587E+03,   996.152E+03,   996.152E+03
C:/temp/Job-1.odb,Step-1,Increment      1: Step Time =    1.000,"P-1-1",          9372,   21.2684E-03,   26.0515E-03,            0.,NA,NA,"",   1.03662E+06,   1.08372E+06,   1.08372E+06
C:/temp/Job-1.odb,Step-1,Increment      1: Step Time =    1.000,"P-1-1",          9373,   178.550E-03,   174.650E-03,            0.,NA,NA,"",   1.00538E+06,   1.00446E+06,   1.00446E+06
C:/temp/Job-1.odb,Step-1,Increment      1: Step Time =    1.000,"P-1-1",          9374,   178.246E-03,   113.465E-03,            0.,NA,NA,"",   971.841E+03,   986.581E+03,   986.581E+03
C:/temp/Job-1.odb,Step-1,Increment      1: Step Time =    1.000,"P-1-1",          9375,   174.794E-03,   21.3572E-03,            0.,NA,NA,"",   1.00527E+06,   1.00405E+06,   1.00405E+06
C:/temp/Job-1.odb,Step-1,Increment      1: Step Time =    1.000,"P-1-1",          9376,   21.6240E-03,   86.1048E-03,            0.,NA,NA,"",   822.658E+03,   907.215E+03,   907.215E+03
C:/temp/Job-1.odb,Step-1,Increment      1: Step Time =    1.000,"P-1-1",          9377,   86.9992E-03,   179.541E-03,            0.,NA,NA,"",   990.742E+03,   996.131E+03,   996.131E+03
C:/temp/Job-1.odb,Step-1,Increment      1: Step Time =    1.000,"P-1-1",          9378,   80.4129E-03,   76.6698E-03,            0.,NA,NA,"",   1.24869E+06,   1.20386E+06,   1.20386E+06
C:/temp/Job-1.odb,Step-1,Increment      1: Step Time =    1.000,"P-1-1",          9379,   24.9839E-03,   178.960E-03,            0.,NA,NA,"",   1.06314E+06,   1.09290E+06,   1.09290E+06
C:/temp/Job-1.odb,Step-1,Increment      1: Step Time =    1.000,"P-1-1",          9380,   119.283E-03,   20.4071E-03,            0.,NA,NA,"",   993.645E+03,   995.972E+03,   995.972E+03
C:/temp/Job-1.odb,Step-1,Increment      1: Step Time =    1.000,"P-1-1",          9381,   89.9734E-03,   20.5374E-03,            0.,NA,NA,"",   988.216E+03,   994.178E+03,   994.178E+03
C:/temp/Job-1.odb,Step-1,Increment      1: Step Time =    1.000,"P-1-1",          9382,   144.962E-03,   19.8376E-03,            0.,NA,NA,"",   1.00884E+06,   1.00556E+06,   1.00556E+06
C:/temp/Job-1.odb,Step-1,Increment      1: Step Time =    1.000,"P-1-1",          9383,   179.303E-03,   145.629E-03,            0.,NA,NA,"",   1.00679E+06,   1.00858E+06,   1.00858E+06
C:/temp/Job-1.odb,Step-1,Increment      1: Step Time =    1.000,"P-1-1",          9384,   178.757E-03,   119.435E-03,            0.,NA,NA,"",   979.817E+03,   992.213E+03,   992.213E+03
C:/temp/Job-1.odb,Step-1,Increment      1: Step Time =    1.000,"P-1-1",          9385,   21.6273E-03,   81.2496E-03,            0.,NA,NA,"",   834.015E+03,   917.378E+03,   917.378E+03
C:/temp/Job-1.odb,Step-1,Increment      1: Step Time =    1.000,"P-1-1",          9386,   20.1784E-03,   111.388E-03,            0.,NA,NA,"",   815.400E+03,   901.908E+03,   901.908E+03
C:/temp/Job-1.odb,Step-1,Increment      1: Step Time =    1.000,"P-1-1",          9387,   81.4318E-03,   178.801E-03,            0.,NA,NA,"",   998.719E+03,   1.00321E+06,   1.00321E+06
C:/temp/Job-1.odb,Step-1,Increment      1: Step Time =    1.000,"P-1-1",          9388,   178.297E-03,   177.911E-03,            0.,NA,NA,"",   1.00428E+06,   1.00346E+06,   1.00346E+06
C:/temp/Job-1.odb,Step-1,Increment      1: Step Time =    1.000,"P-1-1",          9389,   22.0746E-03,   23.6023E-03,            0.,NA,NA,"",   1.05039E+06,   1.09124E+06,   1.09124E+06
C:/temp/Job-1.odb,Step-1,Increment      1: Step Time =    1.000,"P-1-1",          9390,   116.224E-03,   132.395E-03,            0.,NA,NA,"",   1.17676E+06,   1.17519E+06,   1.17519E+06
C:/temp/Job-1.odb,Step-1,Increment      1: Step Time =    1.000,"P-1-1",          9391,   179.041E-03,   60.8959E-03,            0.,NA,NA,"",   1.00316E+06,   1.00679E+06,   1.00679E+06
C:/temp/Job-1.odb,Step-1,Increment      1: Step Time =    1.000,"P-1-1",          9392,   60.8236E-03,   22.3988E-03,            0.,NA,NA,"",   1.02741E+06,   1.02932E+06,   1.02932E+06
C:/temp/Job-1.odb,Step-1,Increment      1: Step Time =    1.000,"P-1-1",          9393,   20.6784E-03,   50.8411E-03,            0.,NA,NA,"",   928.345E+03,   1.00094E+06,   1.00094E+06
C:/temp/Job-1.odb,Step-1,Increment      1: Step Time =    1.000,"P-1-1",          9394,   139.340E-03,   178.620E-03,            0.,NA,NA,"",   1.01045E+06,   1.00726E+06,   1.00726E+06
C:/temp/Job-1.odb,Step-1,Increment      1: Step Time =    1.000,"P-1-1",          9395,   50.9967E-03,   179.408E-03,            0.,NA,NA,"",   1.03443E+06,   1.03810E+06,   1.03810E+06
C:/temp/Job-1.odb,Step-1,Increment      1: Step Time =    1.000,"P-1-1",          9396,   22.0949E-03,   138.884E-03,            0.,NA,NA,"",   897.942E+03,   973.239E+03,   973.239E+03
C:/temp/Job-1.odb,Step-1,Increment      1: Step Time =    1.000,"P-1-1",          9397,   131.271E-03,   96.7431E-03,            0.,NA,NA,"",   687.740E+03,   696.276E+03,   696.276E+03
C:/temp/Job-1.odb,Step-1,Increment      1: Step Time =    1.000,"P-1-1",          9398,   110.832E-03,   132.908E-03,            0.,NA,NA,"",   1.13424E+06,   1.16981E+06,   1.16981E+06
C:/temp/Job-1.odb,Step-1,Increment      1: Step Time =    1.000,"P-1-1",          9399,   86.5323E-03,   134.460E-03,            0.,NA,NA,"",   1.13376E+06,   1.16026E+06,   1.16026E+06
C:/temp/Job-1.odb,Step-1,Increment      1: Step Time =    1.000,"P-1-1",          9400,   125.310E-03,   121.428E-03,            0.,NA,NA,"",   1.19934E+06,   1.12318E+06,   1.12318E+06
C:/temp/Job-1.odb,Step-1,Increment      1: Step Time =    1.000,"P-1-1",          9401,   87.1265E-03,   77.8285E-03,            0.,NA,NA,"",   1.30353E+06,   1.29787E+06,   1.29787E+06
C:/temp/Job-1.odb,Step-1,Increment      1: Step Time =    1.000,"P-1-1",          9402,   134.224E-03,   23.8507E-03,            0.,NA,NA,"",   1.01390E+06,   1.01113E+06,   1.01113E+06
C:/temp/Job-1.odb,Step-1,Increment      1: Step Time =    1.000,"P-1-1",          9403,   177.631E-03,   133.299E-03,            0.,NA,NA,"",   999.322E+03,   1.00418E+06,   1.00418E+06
C:/temp/Job-1.odb,Step-1,Increment      1: Step Time =    1.000,"P-1-1",          9404,   21.5410E-03,   67.0557E-03,            0.,NA,NA,"",   876.023E+03,   954.753E+03,   954.753E+03
C:/temp/Job-1.odb,Step-1,Increment      1: Step Time =    1.000,"P-1-1",          9405,   67.3633E-03,   177.918E-03,            0.,NA,NA,"",   1.01882E+06,   1.02073E+06,   1.02073E+06
C:/temp/Job-1.odb,Step-1,Increment      1: Step Time =    1.000,"P-1-1",          9406,   74.3706E-03,   78.7640E-03,            0.,NA,NA,"",   1.15407E+06,   1.10488E+06,   1.10488E+06
C:/temp/Job-1.odb,Step-1,Increment      1: Step Time =    1.000,"P-1-1",          9407,   85.5974E-03,   77.3548E-03,            0.,NA,NA,"",   1.29282E+06,   1.27363E+06,   1.27363E+06
C:/temp/Job-1.odb,Step-1,Increment      1: Step Time =    1.000,"P-1-1",          9408,   173.598E-03,   179.392E-03,            0.,NA,NA,"",   1.00528E+06,   1.00400E+06,   1.00400E+06
C:/temp/Job-1.odb,Step-1,Increment      1: Step Time =    1.000,"P-1-1",          9409,   172.254E-03,   177.901E-03,            0.,NA,NA,"",   1.00670E+06,   1.00508E+06,   1.00508E+06
C:/temp/Job-1.odb,Step-1,Increment      1: Step Time =    1.000,"P-1-1",          9410,   24.4467E-03,   18.8521E-03,            0.,NA,NA,"",   1.07118E+06,   1.09793E+06,   1.09793E+06
C:/temp/Job-1.odb,Step-1,Increment      1: Step Time =    1.000,"P-1-1",          9411,   27.6016E-03,   21.0100E-03,            0.,NA,NA,"",   1.06158E+06,   1.08641E+06,   1.08641E+06
C:/temp/Job-1.odb,Step-1,Increment      1: Step Time =    1.000,"P-1-1",          9412,   179.755E-03,   25.7468E-03,            0.,NA,NA,"",   1.00497E+06,   1.00421E+06,   1.00421E+06
C:/temp/Job-1.odb,Step-1,Increment      1: Step Time =    1.000,"P-1-1",          9413,   178.476E-03,   28.1507E-03,            0.,NA,NA,"",   1.00641E+06,   1.00540E+06,   1.00540E+06
C:/temp/Job-1.odb,Step-1,Increment      1: Step Time =    1.000,"P-1-1",          9414,   69.0295E-03,   100.319E-03,            0.,NA,NA,"",   607.692E+03,   649.431E+03,   649.431E+03
C:/temp/Job-1.odb,Step-1,Increment      1: Step Time =    1.000,"P-1-1",          9415,   21.5920E-03,   172.030E-03,            0.,NA,NA,"",   1.02711E+06,   1.07663E+06,   1.07663E+06
C:/temp/Job-1.odb,Step-1,Increment      1: Step Time =    1.000,"P-1-1",          9416,   19.7386E-03,   173.784E-03,            0.,NA,NA,"",   1.03187E+06,   1.08356E+06,   1.08356E+06
C:/temp/Job-1.odb,Step-1,Increment      1: Step Time =    1.000,"P-1-1",          9417,   179.402E-03,   56.2066E-03,            0.,NA,NA,"",   1.00579E+06,   1.00814E+06,   1.00814E+06
C:/temp/Job-1.odb,Step-1,Increment      1: Step Time =    1.000,"P-1-1",          9418,   178.869E-03,   58.7721E-03,            0.,NA,NA,"",   1.00489E+06,   1.00770E+06,   1.00770E+06
C:/temp/Job-1.odb,Step-1,Increment      1: Step Time =    1.000,"P-1-1",          9419,   57.8850E-03,   22.7034E-03,            0.,NA,NA,"",   1.03097E+06,   1.03340E+06,   1.03340E+06
C:/temp/Job-1.odb,Step-1,Increment      1: Step Time =    1.000,"P-1-1",          9420,   54.7625E-03,   19.9331E-03,            0.,NA,NA,"",   1.02863E+06,   1.03097E+06,   1.03097E+06
C:/temp/Job-1.odb,Step-1,Increment      1: Step Time =    1.000,"P-1-1",          9421,   144.261E-03,   178.790E-03,            0.,NA,NA,"",   1.01155E+06,   1.00788E+06,   1.00788E+06
C:/temp/Job-1.odb,Step-1,Increment      1: Step Time =    1.000,"P-1-1",          9422,   142.717E-03,   178.243E-03,            0.,NA,NA,"",   1.01241E+06,   1.00868E+06,   1.00868E+06
C:/temp/Job-1.odb,Step-1,Increment      1: Step Time =    1.000,"P-1-1",          9423,   20.0049E-03,   144.766E-03,            0.,NA,NA,"",   909.753E+03,   986.108E+03,   986.108E+03
C:/temp/Job-1.odb,Step-1,Increment      1: Step Time =    1.000,"P-1-1",          9424,   21.2685E-03,   141.892E-03,            0.,NA,NA,"",   905.032E+03,   980.365E+03,   980.365E+03
C:/temp/Job-1.odb,Step-1,Increment      1: Step Time =    1.000,"P-1-1",          9425,   126.117E-03,   84.8959E-03,            0.,NA,NA,"",   1.09504E+06,   1.01054E+06,   1.01054E+06
C:/temp/Job-1.odb,Step-1,Increment      1: Step Time =    1.000,"P-1-1",          9426,   133.247E-03,   97.3959E-03,            0.,NA,NA,"",   710.227E+03,   722.358E+03,   722.358E+03
C:/temp/Job-1.odb,Step-1,Increment      1: Step Time =    1.000,"P-1-1",          9427,   84.9856E-03,   77.8101E-03,            0.,NA,NA,"",   1.29836E+06,   1.27052E+06,   1.27052E+06
C:/temp/Job-1.odb,Step-1,Increment      1: Step Time =    1.000,"P-1-1",          9428,   72.7790E-03,   78.4149E-03,            0.,NA,NA,"",   1.13345E+06,   1.09029E+06,   1.09029E+06
C:/temp/Job-1.odb,Step-1,Increment      1: Step Time =    1.000,"P-1-1",          9429,   73.6246E-03,   123.524E-03,            0.,NA,NA,"",   1.15498E+06,   1.11417E+06,   1.11417E+06
C:/temp/Job-1.odb,Step-1,Increment      1: Step Time =    1.000,"P-1-1",          9430,   72.1799E-03,   89.1783E-03,            0.,NA,NA,"",   885.853E+03,   859.060E+03,   859.060E+03
C:/temp/Job-1.odb,Step-1,Increment      1: Step Time =    1.000,"P-1-1",          9431,   81.7258E-03,   77.3188E-03,            0.,NA,NA,"",   1.26744E+06,   1.22293E+06,   1.22293E+06
C:/temp/Job-1.odb,Step-1,Increment      1: Step Time =    1.000,"P-1-1",          9432,   93.9515E-03,   134.251E-03,            0.,NA,NA,"",   1.07974E+06,   1.14370E+06,   1.14370E+06
C:/temp/Job-1.odb,Step-1,Increment      1: Step Time =    1.000,"P-1-1",          9433,   100.620E-03,   133.316E-03,            0.,NA,NA,"",   1.05991E+06,   1.13920E+06,   1.13920E+06
C:/temp/Job-1.odb,Step-1,Increment      1: Step Time =    1.000,"P-1-1",          9434,   126.202E-03,   120.092E-03,            0.,NA,NA,"",   1.17760E+06,   1.09962E+06,   1.09962E+06
C:/temp/Job-1.odb,Step-1,Increment      1: Step Time =    1.000,"P-1-1",          9435,   67.2787E-03,   110.924E-03,            0.,NA,NA,"",   852.939E+03,   857.069E+03,   857.069E+03
C:/temp/Job-1.odb,Step-1,Increment      1: Step Time =    1.000,"P-1-1",          9436,   65.2858E-03,   100.755E-03,            0.,NA,NA,"",   673.189E+03,   718.086E+03,   718.086E+03
C:/temp/Job-1.odb,Step-1,Increment      1: Step Time =    1.000,"P-1-1",          9437,   66.4819E-03,   109.185E-03,            0.,NA,NA,"",   805.884E+03,   821.374E+03,   821.374E+03
C:/temp/Job-1.odb,Step-1,Increment      1: Step Time =    1.000,"P-1-1",          9438,   67.5757E-03,   82.6630E-03,            0.,NA,NA,"",   1.00108E+06,   982.543E+03,   982.543E+03
C:/temp/Job-1.odb,Step-1,Increment      1: Step Time =    1.000,"P-1-1",          9439,   136.354E-03,   103.672E-03,            0.,NA,NA,"",   767.331E+03,   777.543E+03,   777.543E+03
C:/temp/Job-1.odb,Step-1,Increment      1: Step Time =    1.000,"P-1-1",          9440,   82.2340E-03,   132.509E-03,            0.,NA,NA,"",   1.16980E+06,   1.17152E+06,   1.17152E+06
C:/temp/Job-1.odb,Step-1,Increment      1: Step Time =    1.000,"P-1-1",          9441,   67.7070E-03,   114.029E-03,            0.,NA,NA,"",   932.022E+03,   921.864E+03,   921.864E+03
C:/temp/Job-1.odb,Step-1,Increment      1: Step Time =    1.000,"P-1-1",          9442,   126.257E-03,   87.3393E-03,            0.,NA,NA,"",   1.01940E+06,   940.400E+03,   940.400E+03
C:/temp/Job-1.odb,Step-1,Increment      1: Step Time =    1.000,"P-1-1",          9443,   70.7068E-03,   79.2950E-03,            0.,NA,NA,"",   1.09213E+06,   1.05661E+06,   1.05661E+06
C:/temp/Job-1.odb,Step-1,Increment      1: Step Time =    1.000,"P-1-1",          9444,   66.5708E-03,   106.103E-03,            0.,NA,NA,"",   728.403E+03,   757.916E+03,   757.916E+03
C:/temp/Job-1.odb,Step-1,Increment      1: Step Time =    1.000,"P-1-1",          9445,   77.3525E-03,   125.356E-03,            0.,NA,NA,"",   1.20473E+06,   1.16557E+06,   1.16557E+06
C:/temp/Job-1.odb,Step-1,Increment      1: Step Time =    1.000,"P-1-1",          9446,   151.962E-03,   21.9558E-03,            0.,NA,NA,"",   1.01303E+06,   1.00908E+06,   1.00908E+06
C:/temp/Job-1.odb,Step-1,Increment      1: Step Time =    1.000,"P-1-1",          9447,   178.300E-03,   151.660E-03,            0.,NA,NA,"",   1.01002E+06,   1.00994E+06,   1.00994E+06
C:/temp/Job-1.odb,Step-1,Increment      1: Step Time =    1.000,"P-1-1",          9448,   21.3725E-03,   48.5465E-03,            0.,NA,NA,"",   938.990E+03,   1.00900E+06,   1.00900E+06
C:/temp/Job-1.odb,Step-1,Increment      1: Step Time =    1.000,"P-1-1",          9449,   48.8775E-03,   177.569E-03,            0.,NA,NA,"",   1.03978E+06,   1.04511E+06,   1.04511E+06
C:/temp/Job-1.odb,Step-1,Increment      1: Step Time =    1.000,"P-1-1",          9450,   97.3893E-03,   134.778E-03,            0.,NA,NA,"",   1.05781E+06,   1.13045E+06,   1.13045E+06
C:/temp/Job-1.odb,Step-1,Increment      1: Step Time =    1.000,"P-1-1",          9451,   122.116E-03,   21.0803E-03,            0.,NA,NA,"",   997.874E+03,   999.299E+03,   999.299E+03
C:/temp/Job-1.odb,Step-1,Increment      1: Step Time =    1.000,"P-1-1",          9452,   178.877E-03,   121.751E-03,            0.,NA,NA,"",   982.989E+03,   994.332E+03,   994.332E+03
C:/temp/Job-1.odb,Step-1,Increment      1: Step Time =    1.000,"P-1-1",          9453,   20.9740E-03,   78.5927E-03,            0.,NA,NA,"",   839.246E+03,   922.643E+03,   922.643E+03
C:/temp/Job-1.odb,Step-1,Increment      1: Step Time =    1.000,"P-1-1",          9454,   78.3579E-03,   177.733E-03,            0.,NA,NA,"",   1.00520E+06,   1.00921E+06,   1.00921E+06
C:/temp/Job-1.odb,Step-1,Increment      1: Step Time =    1.000,"P-1-1",          9455,   136.304E-03,   113.170E-03,            0.,NA,NA,"",   943.655E+03,   917.385E+03,   917.385E+03
C:/temp/Job-1.odb,Step-1,Increment      1: Step Time =    1.000,"P-1-1",          9456,   124.893E-03,   118.319E-03,            0.,NA,NA,"",   1.17940E+06,   1.09176E+06,   1.09176E+06
C:/temp/Job-1.odb,Step-1,Increment      1: Step Time =    1.000,"P-1-1",          9457,   154.328E-03,   177.825E-03,            0.,NA,NA,"",   1.01299E+06,   1.00911E+06,   1.00911E+06
C:/temp/Job-1.odb,Step-1,Increment      1: Step Time =    1.000,"P-1-1",          9458,   45.5712E-03,   21.4710E-03,            0.,NA,NA,"",   1.04206E+06,   1.04864E+06,   1.04864E+06
C:/temp/Job-1.odb,Step-1,Increment      1: Step Time =    1.000,"P-1-1",          9459,   178.171E-03,   44.3634E-03,            0.,NA,NA,"",   1.01049E+06,   1.00982E+06,   1.00982E+06
C:/temp/Job-1.odb,Step-1,Increment      1: Step Time =    1.000,"P-1-1",          9460,   130.109E-03,   21.8288E-03,            0.,NA,NA,"",   1.00630E+06,   1.00508E+06,   1.00508E+06
C:/temp/Job-1.odb,Step-1,Increment      1: Step Time =    1.000,"P-1-1",          9461,   178.195E-03,   131.326E-03,            0.,NA,NA,"",   996.354E+03,   1.00252E+06,   1.00252E+06
C:/temp/Job-1.odb,Step-1,Increment      1: Step Time =    1.000,"P-1-1",          9462,   21.7993E-03,   153.422E-03,            0.,NA,NA,"",   947.549E+03,   1.01555E+06,   1.01555E+06
C:/temp/Job-1.odb,Step-1,Increment      1: Step Time =    1.000,"P-1-1",          9463,   69.8959E-03,   178.302E-03,            0.,NA,NA,"",   1.01475E+06,   1.01691E+06,   1.01691E+06
C:/temp/Job-1.odb,Step-1,Increment      1: Step Time =    1.000,"P-1-1",          9464,   132.749E-03,   117.690E-03,            0.,NA,NA,"",   1.05278E+06,   1.00082E+06,   1.00082E+06
C:/temp/Job-1.odb,Step-1,Increment      1: Step Time =    1.000,"P-1-1",          9465,   136.202E-03,   106.732E-03,            0.,NA,NA,"",   812.358E+03,   812.395E+03,   812.395E+03
C:/temp/Job-1.odb,Step-1,Increment      1: Step Time =    1.000,"P-1-1",          9466,   103.199E-03,   135.577E-03,            0.,NA,NA,"",   1.05664E+06,   1.12430E+06,   1.12430E+06
C:/temp/Job-1.odb,Step-1,Increment      1: Step Time =    1.000,"P-1-1",          9467,   108.464E-03,   133.361E-03,            0.,NA,NA,"",   1.10687E+06,   1.15718E+06,   1.15718E+06
C:/temp/Job-1.odb,Step-1,Increment      1: Step Time =    1.000,"P-1-1",          9468,   133.471E-03,   116.760E-03,            0.,NA,NA,"",   1.02993E+06,   982.532E+03,   982.532E+03
C:/temp/Job-1.odb,Step-1,Increment      1: Step Time =    1.000,"P-1-1",          9469,   119.262E-03,   127.880E-03,            0.,NA,NA,"",   1.23207E+06,   1.19638E+06,   1.19638E+06
C:/temp/Job-1.odb,Step-1,Increment      1: Step Time =    1.000,"P-1-1",          9470,   21.6558E-03,   169.962E-03,            0.,NA,NA,"",   1.01728E+06,   1.06958E+06,   1.06958E+06
C:/temp/Job-1.odb,Step-1,Increment      1: Step Time =    1.000,"P-1-1",          9471,   177.500E-03,   30.0407E-03,            0.,NA,NA,"",   1.00783E+06,   1.00654E+06,   1.00654E+06
C:/temp/Job-1.odb,Step-1,Increment      1: Step Time =    1.000,"P-1-1",          9472,   29.1553E-03,   20.0636E-03,            0.,NA,NA,"",   1.06220E+06,   1.08314E+06,   1.08314E+06
C:/temp/Job-1.odb,Step-1,Increment      1: Step Time =    1.000,"P-1-1",          9473,   76.4023E-03,   127.239E-03,            0.,NA,NA,"",   1.18867E+06,   1.15683E+06,   1.15683E+06
C:/temp/Job-1.odb,Step-1,Increment      1: Step Time =    1.000,"P-1-1",          9474,   169.174E-03,   178.762E-03,            0.,NA,NA,"",   1.00732E+06,   1.00537E+06,   1.00537E+06
C:/temp/Job-1.odb,Step-1,Increment      1: Step Time =    1.000,"P-1-1",          9475,   133.738E-03,   110.936E-03,            0.,NA,NA,"",   898.998E+03,   873.544E+03,   873.544E+03
C:/temp/Job-1.odb,Step-1,Increment      1: Step Time =    1.000,"P-1-1",          9476,   135.738E-03,   100.370E-03,            0.,NA,NA,"",   735.700E+03,   751.049E+03,   751.049E+03
C:/temp/Job-1.odb,Step-1,Increment      1: Step Time =    1.000,"P-1-1",          9477,   71.1116E-03,   178.564E-03,            0.,NA,NA,"",   1.01256E+06,   1.01486E+06,   1.01486E+06
C:/temp/Job-1.odb,Step-1,Increment      1: Step Time =    1.000,"P-1-1",          9478,   21.8219E-03,   71.1812E-03,            0.,NA,NA,"",   863.673E+03,   943.499E+03,   943.499E+03
C:/temp/Job-1.odb,Step-1,Increment      1: Step Time =    1.000,"P-1-1",          9479,   22.1651E-03,   156.567E-03,            0.,NA,NA,"",   961.442E+03,   1.02633E+06,   1.02633E+06
C:/temp/Job-1.odb,Step-1,Increment      1: Step Time =    1.000,"P-1-1",          9480,   178.241E-03,   129.141E-03,            0.,NA,NA,"",   993.514E+03,   1.00075E+06,   1.00075E+06
C:/temp/Job-1.odb,Step-1,Increment      1: Step Time =    1.000,"P-1-1",          9481,   128.442E-03,   21.5853E-03,            0.,NA,NA,"",   1.00443E+06,   1.00371E+06,   1.00371E+06
C:/temp/Job-1.odb,Step-1,Increment      1: Step Time =    1.000,"P-1-1",          9482,   70.3040E-03,   120.824E-03,            0.,NA,NA,"",   1.08681E+06,   1.05331E+06,   1.05331E+06
C:/temp/Job-1.odb,Step-1,Increment      1: Step Time =    1.000,"P-1-1",          9483,   178.274E-03,   43.3485E-03,            0.,NA,NA,"",   1.01028E+06,   1.00957E+06,   1.00957E+06
C:/temp/Job-1.odb,Step-1,Increment      1: Step Time =    1.000,"P-1-1",          9484,   155.498E-03,   178.274E-03,            0.,NA,NA,"",   1.01215E+06,   1.00848E+06,   1.00848E+06
C:/temp/Job-1.odb,Step-1,Increment      1: Step Time =    1.000,"P-1-1",          9485,   44.6277E-03,   22.4566E-03,            0.,NA,NA,"",   1.04378E+06,   1.05158E+06,   1.05158E+06
C:/temp/Job-1.odb,Step-1,Increment      1: Step Time =    1.000,"P-1-1",          9486,   76.9886E-03,   177.524E-03,            0.,NA,NA,"",   1.00743E+06,   1.01116E+06,   1.01116E+06
C:/temp/Job-1.odb,Step-1,Increment      1: Step Time =    1.000,"P-1-1",          9487,   21.8089E-03,   161.744E-03,            0.,NA,NA,"",   980.391E+03,   1.04170E+06,   1.04170E+06
C:/temp/Job-1.odb,Step-1,Increment      1: Step Time =    1.000,"P-1-1",          9488,   178.539E-03,   123.880E-03,            0.,NA,NA,"",   986.140E+03,   996.317E+03,   996.317E+03
C:/temp/Job-1.odb,Step-1,Increment      1: Step Time =    1.000,"P-1-1",          9489,   123.089E-03,   22.5414E-03,            0.,NA,NA,"",   1.00224E+06,   1.00347E+06,   1.00347E+06
C:/temp/Job-1.odb,Step-1,Increment      1: Step Time =    1.000,"P-1-1",          9490,   178.628E-03,   38.3844E-03,            0.,NA,NA,"",   1.00925E+06,   1.00834E+06,   1.00834E+06
C:/temp/Job-1.odb,Step-1,Increment      1: Step Time =    1.000,"P-1-1",          9491,   162.463E-03,   177.546E-03,            0.,NA,NA,"",   1.01107E+06,   1.00795E+06,   1.00795E+06
C:/temp/Job-1.odb,Step-1,Increment      1: Step Time =    1.000,"P-1-1",          9492,   38.4568E-03,   21.3163E-03,            0.,NA,NA,"",   1.04984E+06,   1.06150E+06,   1.06150E+06
C:/temp/Job-1.odb,Step-1,Increment      1: Step Time =    1.000,"P-1-1",          9493,   82.8825E-03,   133.527E-03,            0.,NA,NA,"",   1.16021E+06,   1.16675E+06,   1.16675E+06
C:/temp/Job-1.odb,Step-1,Increment      1: Step Time =    1.000,"P-1-1",          9494,   47.0953E-03,   177.945E-03,            0.,NA,NA,"",   1.04097E+06,   1.04700E+06,   1.04700E+06
C:/temp/Job-1.odb,Step-1,Increment      1: Step Time =    1.000,"P-1-1",          9495,   22.4710E-03,   47.3585E-03,            0.,NA,NA,"",   947.845E+03,   1.01483E+06,   1.01483E+06
C:/temp/Job-1.odb,Step-1,Increment      1: Step Time =    1.000,"P-1-1",          9496,   178.058E-03,   152.804E-03,            0.,NA,NA,"",   1.01048E+06,   1.01011E+06,   1.01011E+06
C:/temp/Job-1.odb,Step-1,Increment      1: Step Time =    1.000,"P-1-1",          9497,   153.181E-03,   22.5831E-03,            0.,NA,NA,"",   1.01389E+06,   1.00980E+06,   1.00980E+06
C:/temp/Job-1.odb,Step-1,Increment      1: Step Time =    1.000,"P-1-1",          9498,   80.8867E-03,   75.1552E-03,            0.,NA,NA,"",   1.24144E+06,   1.20682E+06,   1.20682E+06
C:/temp/Job-1.odb,Step-1,Increment      1: Step Time =    1.000,"P-1-1",          9499,   125.005E-03,   126.121E-03,            0.,NA,NA,"",   1.20946E+06,   1.15004E+06,   1.15004E+06
C:/temp/Job-1.odb,Step-1,Increment      1: Step Time =    1.000,"P-1-1",          9500,   93.4763E-03,   135.676E-03,            0.,NA,NA,"",   1.07479E+06,   1.13373E+06,   1.13373E+06
C:/temp/Job-1.odb,Step-1,Increment      1: Step Time =    1.000,"P-1-1",          9501,   67.5853E-03,   89.4825E-03,            0.,NA,NA,"",   843.591E+03,   848.358E+03,   848.358E+03
C:/temp/Job-1.odb,Step-1,Increment      1: Step Time =    1.000,"P-1-1",          9502,   69.9126E-03,   90.0262E-03,            0.,NA,NA,"",   836.643E+03,   831.135E+03,   831.135E+03
C:/temp/Job-1.odb,Step-1,Increment      1: Step Time =    1.000,"P-1-1",          9503,   84.8419E-03,   76.7088E-03,            0.,NA,NA,"",   1.28161E+06,   1.26042E+06,   1.26042E+06
C:/temp/Job-1.odb,Step-1,Increment      1: Step Time =    1.000,"P-1-1",          9504,   79.7778E-03,   128.665E-03,            0.,NA,NA,"",   1.20226E+06,   1.18168E+06,   1.18168E+06
C:/temp/Job-1.odb,Step-1,Increment      1: Step Time =    1.000,"P-1-1",          9505,   122.612E-03,   127.496E-03,            0.,NA,NA,"",   1.22242E+06,   1.17203E+06,   1.17203E+06
C:/temp/Job-1.odb,Step-1,Increment      1: Step Time =    1.000,"P-1-1",          9506,   71.2936E-03,   177.198E-03,            0.,NA,NA,"",   1.01586E+06,   1.01851E+06,   1.01851E+06
C:/temp/Job-1.odb,Step-1,Increment      1: Step Time =    1.000,"P-1-1",          9507,   21.5644E-03,   69.8620E-03,            0.,NA,NA,"",   866.632E+03,   946.475E+03,   946.475E+03
C:/temp/Job-1.odb,Step-1,Increment      1: Step Time =    1.000,"P-1-1",          9508,   177.151E-03,   130.206E-03,            0.,NA,NA,"",   995.959E+03,   1.00185E+06,   1.00185E+06
C:/temp/Job-1.odb,Step-1,Increment      1: Step Time =    1.000,"P-1-1",          9509,   129.056E-03,   22.7698E-03,            0.,NA,NA,"",   1.00779E+06,   1.00678E+06,   1.00678E+06
C:/temp/Job-1.odb,Step-1,Increment      1: Step Time =    1.000,"P-1-1",          9510,   174.660E-03,   180.695E-03,            0.,NA,NA,"",   1.00426E+06,   1.00322E+06,   1.00322E+06
C:/temp/Job-1.odb,Step-1,Increment      1: Step Time =    1.000,"P-1-1",          9511,   23.2605E-03,   155.798E-03,            0.,NA,NA,"",   962.909E+03,   1.02589E+06,   1.02589E+06
C:/temp/Job-1.odb,Step-1,Increment      1: Step Time =    1.000,"P-1-1",          9512,   180.255E-03,   24.5789E-03,            0.,NA,NA,"",   1.00439E+06,   1.00371E+06,   1.00371E+06
C:/temp/Job-1.odb,Step-1,Increment      1: Step Time =    1.000,"P-1-1",          9513,   156.288E-03,   176.788E-03,            0.,NA,NA,"",   1.01410E+06,   1.01007E+06,   1.01007E+06
C:/temp/Job-1.odb,Step-1,Increment      1: Step Time =    1.000,"P-1-1",          9514,   136.397E-03,   108.339E-03,            0.,NA,NA,"",   843.932E+03,   837.716E+03,   837.716E+03
C:/temp/Job-1.odb,Step-1,Increment      1: Step Time =    1.000,"P-1-1",          9515,   43.9610E-03,   23.8272E-03,            0.,NA,NA,"",   1.04526E+06,   1.05442E+06,   1.05442E+06
C:/temp/Job-1.odb,Step-1,Increment      1: Step Time =    1.000,"P-1-1",          9516,   176.665E-03,   43.2906E-03,            0.,NA,NA,"",   1.01216E+06,   1.01077E+06,   1.01077E+06
C:/temp/Job-1.odb,Step-1,Increment      1: Step Time =    1.000,"P-1-1",          9517,   104.611E-03,   136.138E-03,            0.,NA,NA,"",   1.06105E+06,   1.12347E+06,   1.12347E+06
C:/temp/Job-1.odb,Step-1,Increment      1: Step Time =    1.000,"P-1-1",          9518,   18.8338E-03,   174.539E-03,            0.,NA,NA,"",   1.03414E+06,   1.08717E+06,   1.08717E+06
C:/temp/Job-1.odb,Step-1,Increment      1: Step Time =    1.000,"P-1-1",          9519,   159.801E-03,   19.1555E-03,            0.,NA,NA,"",   1.00793E+06,   1.00529E+06,   1.00529E+06
C:/temp/Job-1.odb,Step-1,Increment      1: Step Time =    1.000,"P-1-1",          9520,   179.574E-03,   159.845E-03,            0.,NA,NA,"",   1.00861E+06,   1.00812E+06,   1.00812E+06
C:/temp/Job-1.odb,Step-1,Increment      1: Step Time =    1.000,"P-1-1",          9521,   19.7457E-03,   25.4910E-03,            0.,NA,NA,"",   1.03655E+06,   1.08680E+06,   1.08680E+06
C:/temp/Job-1.odb,Step-1,Increment      1: Step Time =    1.000,"P-1-1",          9522,   179.901E-03,   175.488E-03,            0.,NA,NA,"",   1.00441E+06,   1.00372E+06,   1.00372E+06
C:/temp/Job-1.odb,Step-1,Increment      1: Step Time =    1.000,"P-1-1",          9523,   20.4455E-03,   41.1849E-03,            0.,NA,NA,"",   963.286E+03,   1.03020E+06,   1.03020E+06
C:/temp/Job-1.odb,Step-1,Increment      1: Step Time =    1.000,"P-1-1",          9524,   166.936E-03,   21.9014E-03,            0.,NA,NA,"",   1.00875E+06,   1.00637E+06,   1.00637E+06
C:/temp/Job-1.odb,Step-1,Increment      1: Step Time =    1.000,"P-1-1",          9525,   109.881E-03,   19.9714E-03,            0.,NA,NA,"",   985.500E+03,   990.473E+03,   990.473E+03
C:/temp/Job-1.odb,Step-1,Increment      1: Step Time =    1.000,"P-1-1",          9526,   175.369E-03,   19.8317E-03,            0.,NA,NA,"",   1.00428E+06,   1.00327E+06,   1.00327E+06
C:/temp/Job-1.odb,Step-1,Increment      1: Step Time =    1.000,"P-1-1",          9527,   41.1983E-03,   180.076E-03,            0.,NA,NA,"",   1.04571E+06,   1.05397E+06,   1.05397E+06
C:/temp/Job-1.odb,Step-1,Increment      1: Step Time =    1.000,"P-1-1",          9528,   69.2275E-03,   120.027E-03,            0.,NA,NA,"",   1.06267E+06,   1.03386E+06,   1.03386E+06
C:/temp/Job-1.odb,Step-1,Increment      1: Step Time =    1.000,"P-1-1",          9529,   24.1484E-03,   179.304E-03,            0.,NA,NA,"",   1.06430E+06,   1.09514E+06,   1.09514E+06
C:/temp/Job-1.odb,Step-1,Increment      1: Step Time =    1.000,"P-1-1",          9530,   119.001E-03,   19.1413E-03,            0.,NA,NA,"",   990.530E+03,   992.680E+03,   992.680E+03
C:/temp/Job-1.odb,Step-1,Increment      1: Step Time =    1.000,"P-1-1",          9531,   146.417E-03,   20.4818E-03,            0.,NA,NA,"",   1.01036E+06,   1.00683E+06,   1.00683E+06
C:/temp/Job-1.odb,Step-1,Increment      1: Step Time =    1.000,"P-1-1",          9532,   91.1254E-03,   20.1350E-03,            0.,NA,NA,"",   986.422E+03,   992.374E+03,   992.374E+03
C:/temp/Job-1.odb,Step-1,Increment      1: Step Time =    1.000,"P-1-1",          9533,   179.571E-03,   146.835E-03,            0.,NA,NA,"",   1.00694E+06,   1.00857E+06,   1.00857E+06
C:/temp/Job-1.odb,Step-1,Increment      1: Step Time =    1.000,"P-1-1",          9534,   180.244E-03,   120.660E-03,            0.,NA,NA,"",   981.141E+03,   994.092E+03,   994.092E+03
C:/temp/Job-1.odb,Step-1,Increment      1: Step Time =    1.000,"P-1-1",          9535,   98.8922E-03,   136.389E-03,            0.,NA,NA,"",   1.04801E+06,   1.11702E+06,   1.11702E+06
C:/temp/Job-1.odb,Step-1,Increment      1: Step Time =    1.000,"P-1-1",          9536,   19.7907E-03,   80.7147E-03,            0.,NA,NA,"",   830.916E+03,   916.285E+03,   916.285E+03
C:/temp/Job-1.odb,Step-1,Increment      1: Step Time =    1.000,"P-1-1",          9537,   19.5995E-03,   109.311E-03,            0.,NA,NA,"",   811.257E+03,   898.637E+03,   898.637E+03
C:/temp/Job-1.odb,Step-1,Increment      1: Step Time =    1.000,"P-1-1",          9538,   79.9225E-03,   179.664E-03,            0.,NA,NA,"",   998.024E+03,   1.00183E+06,   1.00183E+06
C:/temp/Job-1.odb,Step-1,Increment      1: Step Time =    1.000,"P-1-1",          9539,   110.619E-03,   180.067E-03,            0.,NA,NA,"",   985.808E+03,   990.565E+03,   990.565E+03
C:/temp/Job-1.odb,Step-1,Increment      1: Step Time =    1.000,"P-1-1",          9540,   19.9225E-03,   49.4990E-03,            0.,NA,NA,"",   929.479E+03,   1.00310E+06,   1.00310E+06
C:/temp/Job-1.odb,Step-1,Increment      1: Step Time =    1.000,"P-1-1",          9541,   49.9499E-03,   180.193E-03,            0.,NA,NA,"",   1.03405E+06,   1.03774E+06,   1.03774E+06
C:/temp/Job-1.odb,Step-1,Increment      1: Step Time =    1.000,"P-1-1",          9542,   72.4630E-03,   122.607E-03,            0.,NA,NA,"",   1.13473E+06,   1.09478E+06,   1.09478E+06
C:/temp/Job-1.odb,Step-1,Increment      1: Step Time =    1.000,"P-1-1",          9543,   77.2663E-03,   175.911E-03,            0.,NA,NA,"",   1.01139E+06,   1.01574E+06,   1.01574E+06
C:/temp/Job-1.odb,Step-1,Increment      1: Step Time =    1.000,"P-1-1",          9544,   23.0675E-03,   161.133E-03,            0.,NA,NA,"",   982.404E+03,   1.04146E+06,   1.04146E+06
C:/temp/Job-1.odb,Step-1,Increment      1: Step Time =    1.000,"P-1-1",          9545,   23.1985E-03,   76.3933E-03,            0.,NA,NA,"",   851.277E+03,   931.124E+03,   931.124E+03
C:/temp/Job-1.odb,Step-1,Increment      1: Step Time =    1.000,"P-1-1",          9546,   177.454E-03,   122.588E-03,            0.,NA,NA,"",   984.564E+03,   994.594E+03,   994.594E+03
C:/temp/Job-1.odb,Step-1,Increment      1: Step Time =    1.000,"P-1-1",          9547,   122.107E-03,   23.2591E-03,            0.,NA,NA,"",   1.00294E+06,   1.00458E+06,   1.00458E+06
C:/temp/Job-1.odb,Step-1,Increment      1: Step Time =    1.000,"P-1-1",          9548,   161.825E-03,   176.195E-03,            0.,NA,NA,"",   1.01286E+06,   1.00933E+06,   1.00933E+06
C:/temp/Job-1.odb,Step-1,Increment      1: Step Time =    1.000,"P-1-1",          9549,   176.471E-03,   37.8677E-03,            0.,NA,NA,"",   1.01142E+06,   1.00973E+06,   1.00973E+06
C:/temp/Job-1.odb,Step-1,Increment      1: Step Time =    1.000,"P-1-1",          9550,   38.5358E-03,   22.8908E-03,            0.,NA,NA,"",   1.04939E+06,   1.06249E+06,   1.06249E+06
C:/temp/Job-1.odb,Step-1,Increment      1: Step Time =    1.000,"P-1-1",          9551,   116.349E-03,   130.547E-03,            0.,NA,NA,"",   1.19877E+06,   1.19092E+06,   1.19092E+06
C:/temp/Job-1.odb,Step-1,Increment      1: Step Time =    1.000,"P-1-1",          9552,   175.116E-03,   177.962E-03,            0.,NA,NA,"",   1.00548E+06,   1.00427E+06,   1.00427E+06
C:/temp/Job-1.odb,Step-1,Increment      1: Step Time =    1.000,"P-1-1",          9553,   24.8783E-03,   21.8884E-03,            0.,NA,NA,"",   1.06011E+06,   1.09131E+06,   1.09131E+06
C:/temp/Job-1.odb,Step-1,Increment      1: Step Time =    1.000,"P-1-1",          9554,   178.379E-03,   26.3437E-03,            0.,NA,NA,"",   1.00583E+06,   1.00485E+06,   1.00485E+06
C:/temp/Job-1.odb,Step-1,Increment      1: Step Time =    1.000,"P-1-1",          9555,   21.6225E-03,   174.125E-03,            0.,NA,NA,"",   1.03797E+06,   1.08404E+06,   1.08404E+06
C:/temp/Job-1.odb,Step-1,Increment      1: Step Time =    1.000,"P-1-1",          9556,   177.609E-03,   55.7499E-03,            0.,NA,NA,"",   1.00838E+06,   1.00951E+06,   1.00951E+06
C:/temp/Job-1.odb,Step-1,Increment      1: Step Time =    1.000,"P-1-1",          9557,   55.6226E-03,   22.1418E-03,            0.,NA,NA,"",   1.03251E+06,   1.03527E+06,   1.03527E+06
C:/temp/Job-1.odb,Step-1,Increment      1: Step Time =    1.000,"P-1-1",          9558,   144.370E-03,   177.460E-03,            0.,NA,NA,"",   1.01435E+06,   1.01025E+06,   1.01025E+06
C:/temp/Job-1.odb,Step-1,Increment      1: Step Time =    1.000,"P-1-1",          9559,   21.3744E-03,   144.800E-03,            0.,NA,NA,"",   915.629E+03,   989.328E+03,   989.328E+03
C:/temp/Job-1.odb,Step-1,Increment      1: Step Time =    1.000,"P-1-1",          9560,   24.4324E-03,   47.5437E-03,            0.,NA,NA,"",   954.713E+03,   1.01776E+06,   1.01776E+06
C:/temp/Job-1.odb,Step-1,Increment      1: Step Time =    1.000,"P-1-1",          9561,   176.765E-03,   152.614E-03,            0.,NA,NA,"",   1.01213E+06,   1.01117E+06,   1.01117E+06
C:/temp/Job-1.odb,Step-1,Increment      1: Step Time =    1.000,"P-1-1",          9562,   73.5642E-03,   125.736E-03,            0.,NA,NA,"",   1.16023E+06,   1.12516E+06,   1.12516E+06
C:/temp/Job-1.odb,Step-1,Increment      1: Step Time =    1.000,"P-1-1",          9563,   134.894E-03,   98.2431E-03,            0.,NA,NA,"",   729.121E+03,   743.217E+03,   743.217E+03
C:/temp/Job-1.odb,Step-1,Increment      1: Step Time =    1.000,"P-1-1",          9564,   135.047E-03,   116.182E-03,            0.,NA,NA,"",   1.00953E+06,   969.088E+03,   969.088E+03
C:/temp/Job-1.odb,Step-1,Increment      1: Step Time =    1.000,"P-1-1",          9565,   129.642E-03,   95.5516E-03,            0.,NA,NA,"",   691.706E+03,   691.360E+03,   691.360E+03
C:/temp/Job-1.odb,Step-1,Increment      1: Step Time =    1.000,"P-1-1",          9566,   80.9901E-03,   131.929E-03,            0.,NA,NA,"",   1.17680E+06,   1.17211E+06,   1.17211E+06
C:/temp/Job-1.odb,Step-1,Increment      1: Step Time =    1.000,"P-1-1",          9567,   72.3642E-03,   77.2870E-03,            0.,NA,NA,"",   1.13327E+06,   1.09425E+06,   1.09425E+06
C:/temp/Job-1.odb,Step-1,Increment      1: Step Time =    1.000,"P-1-1",          9568,   65.9159E-03,   110.502E-03,            0.,NA,NA,"",   837.709E+03,   849.697E+03,   849.697E+03
C:/temp/Job-1.odb,Step-1,Increment      1: Step Time =    1.000,"P-1-1",          9569,   23.5267E-03,   170.263E-03,            0.,NA,NA,"",   1.02319E+06,   1.07045E+06,   1.07045E+06
C:/temp/Job-1.odb,Step-1,Increment      1: Step Time =    1.000,"P-1-1",          9570,   66.8030E-03,   112.247E-03,            0.,NA,NA,"",   882.724E+03,   883.795E+03,   883.795E+03
C:/temp/Job-1.odb,Step-1,Increment      1: Step Time =    1.000,"P-1-1",          9571,   68.4710E-03,   115.941E-03,            0.,NA,NA,"",   982.894E+03,   962.959E+03,   962.959E+03
C:/temp/Job-1.odb,Step-1,Increment      1: Step Time =    1.000,"P-1-1",          9572,   150.761E-03,   21.3658E-03,            0.,NA,NA,"",   1.01215E+06,   1.00833E+06,   1.00833E+06
C:/temp/Job-1.odb,Step-1,Increment      1: Step Time =    1.000,"P-1-1",          9573,   178.439E-03,   150.482E-03,            0.,NA,NA,"",   1.00958E+06,   1.00980E+06,   1.00980E+06
C:/temp/Job-1.odb,Step-1,Increment      1: Step Time =    1.000,"P-1-1",          9574,   176.222E-03,   30.3262E-03,            0.,NA,NA,"",   1.00890E+06,   1.00731E+06,   1.00731E+06
C:/temp/Job-1.odb,Step-1,Increment      1: Step Time =    1.000,"P-1-1",          9575,   31.0397E-03,   22.2627E-03,            0.,NA,NA,"",   1.05586E+06,   1.07723E+06,   1.07723E+06
C:/temp/Job-1.odb,Step-1,Increment      1: Step Time =    1.000,"P-1-1",          9576,   21.8990E-03,   49.9800E-03,            0.,NA,NA,"",   936.317E+03,   1.00606E+06,   1.00606E+06
C:/temp/Job-1.odb,Step-1,Increment      1: Step Time =    1.000,"P-1-1",          9577,   168.332E-03,   177.004E-03,            0.,NA,NA,"",   1.00908E+06,   1.00673E+06,   1.00673E+06
C:/temp/Job-1.odb,Step-1,Increment      1: Step Time =    1.000,"P-1-1",          9578,   49.9625E-03,   178.384E-03,            0.,NA,NA,"",   1.03748E+06,   1.04196E+06,   1.04196E+06
C:/temp/Job-1.odb,Step-1,Increment      1: Step Time =    1.000,"P-1-1",          9579,   120.551E-03,   20.9003E-03,            0.,NA,NA,"",   995.909E+03,   997.876E+03,   997.876E+03
C:/temp/Job-1.odb,Step-1,Increment      1: Step Time =    1.000,"P-1-1",          9580,   178.809E-03,   120.635E-03,            0.,NA,NA,"",   981.424E+03,   993.309E+03,   993.309E+03
C:/temp/Job-1.odb,Step-1,Increment      1: Step Time =    1.000,"P-1-1",          9581,   21.0040E-03,   80.2501E-03,            0.,NA,NA,"",   835.106E+03,   918.944E+03,   918.944E+03
C:/temp/Job-1.odb,Step-1,Increment      1: Step Time =    1.000,"P-1-1",          9582,   79.6921E-03,   177.712E-03,            0.,NA,NA,"",   1.00378E+06,   1.00826E+06,   1.00826E+06
C:/temp/Job-1.odb,Step-1,Increment      1: Step Time =    1.000,"P-1-1",          9583,   75.7953E-03,   125.971E-03,            0.,NA,NA,"",   1.18652E+06,   1.14989E+06,   1.14989E+06
C:/temp/Job-1.odb,Step-1,Increment      1: Step Time =    1.000,"P-1-1",          9584,   63.7334E-03,   101.050E-03,            0.,NA,NA,"",   694.863E+03,   740.796E+03,   740.796E+03
C:/temp/Job-1.odb,Step-1,Increment      1: Step Time =    1.000,"P-1-1",          9585,   76.9000E-03,   77.8720E-03,            0.,NA,NA,"",   1.20240E+06,   1.14915E+06,   1.14915E+06
C:/temp/Job-1.odb,Step-1,Increment      1: Step Time =    1.000,"P-1-1",          9586,   131.957E-03,   118.770E-03,            0.,NA,NA,"",   1.07848E+06,   1.02192E+06,   1.02192E+06
C:/temp/Job-1.odb,Step-1,Increment      1: Step Time =    1.000,"P-1-1",          9587,   68.0256E-03,   80.2138E-03,            0.,NA,NA,"",   1.04364E+06,   1.02035E+06,   1.02035E+06
C:/temp/Job-1.odb,Step-1,Increment      1: Step Time =    1.000,"P-1-1",          9588,   73.6544E-03,   21.9658E-03,            0.,NA,NA,"",   1.01043E+06,   1.01321E+06,   1.01321E+06
C:/temp/Job-1.odb,Step-1,Increment      1: Step Time =    1.000,"P-1-1",          9589,   65.8662E-03,   107.371E-03,            0.,NA,NA,"",   761.834E+03,   787.745E+03,   787.745E+03
C:/temp/Job-1.odb,Step-1,Increment      1: Step Time =    1.000,"P-1-1",          9590,   128.950E-03,   119.879E-03,            0.,NA,NA,"",   1.13294E+06,   1.06364E+06,   1.06364E+06
C:/temp/Job-1.odb,Step-1,Increment      1: Step Time =    1.000,"P-1-1",          9591,   21.7083E-03,   167.894E-03,            0.,NA,NA,"",   1.00718E+06,   1.06213E+06,   1.06213E+06
C:/temp/Job-1.odb,Step-1,Increment      1: Step Time =    1.000,"P-1-1",          9592,   131.109E-03,   120.002E-03,            0.,NA,NA,"",   1.10545E+06,   1.04485E+06,   1.04485E+06
C:/temp/Job-1.odb,Step-1,Increment      1: Step Time =    1.000,"P-1-1",          9593,   177.808E-03,   31.4645E-03,            0.,NA,NA,"",   1.00813E+06,   1.00688E+06,   1.00688E+06
C:/temp/Job-1.odb,Step-1,Increment      1: Step Time =    1.000,"P-1-1",          9594,   31.3344E-03,   20.9329E-03,            0.,NA,NA,"",   1.05816E+06,   1.07718E+06,   1.07718E+06
C:/temp/Job-1.odb,Step-1,Increment      1: Step Time =    1.000,"P-1-1",          9595,   73.6985E-03,   76.7598E-03,            0.,NA,NA,"",   1.15499E+06,   1.11288E+06,   1.11288E+06
C:/temp/Job-1.odb,Step-1,Increment      1: Step Time =    1.000,"P-1-1",          9596,   83.0742E-03,   134.950E-03,            0.,NA,NA,"",   1.14744E+06,   1.15767E+06,   1.15767E+06
C:/temp/Job-1.odb,Step-1,Increment      1: Step Time =    1.000,"P-1-1",          9597,   167.798E-03,   178.447E-03,            0.,NA,NA,"",   1.00814E+06,   1.00594E+06,   1.00594E+06
C:/temp/Job-1.odb,Step-1,Increment      1: Step Time =    1.000,"P-1-1",          9598,   70.3366E-03,   78.0994E-03,            0.,NA,NA,"",   1.09917E+06,   1.06618E+06,   1.06618E+06
C:/temp/Job-1.odb,Step-1,Increment      1: Step Time =    1.000,"P-1-1",          9599,   78.0705E-03,   128.432E-03,            0.,NA,NA,"",   1.19525E+06,    1.1696E+06,    1.1696E+06
C:/temp/Job-1.odb,Step-1,Increment      1: Step Time =    1.000,"P-1-1",          9600,   125.159E-03,   83.7625E-03,            0.,NA,NA,"",   1.13932E+06,   1.04855E+06,   1.04855E+06
C:/temp/Job-1.odb,Step-1,Increment      1: Step Time =    1.000,"P-1-1",          9601,   128.811E-03,   93.4613E-03,            0.,NA,NA,"",   755.841E+03,   737.159E+03,   737.159E+03
C:/temp/Job-1.odb,Step-1,Increment      1: Step Time =    1.000,"P-1-1",          9602,   89.8302E-03,   177.685E-03,            0.,NA,NA,"",   992.759E+03,   999.756E+03,   999.756E+03
C:/temp/Job-1.odb,Step-1,Increment      1: Step Time =    1.000,"P-1-1",          9603,   21.6028E-03,   89.1522E-03,            0.,NA,NA,"",   817.005E+03,   902.203E+03,   902.203E+03
C:/temp/Job-1.odb,Step-1,Increment      1: Step Time =    1.000,"P-1-1",          9604,   177.715E-03,   110.634E-03,            0.,NA,NA,"",   967.967E+03,   983.381E+03,   983.381E+03
C:/temp/Job-1.odb,Step-1,Increment      1: Step Time =    1.000,"P-1-1",          9605,   111.123E-03,   20.5376E-03,            0.,NA,NA,"",   987.519E+03,   992.418E+03,   992.418E+03
C:/temp/Job-1.odb,Step-1,Increment      1: Step Time =    1.000,"P-1-1",          9606,   22.0155E-03,   136.066E-03,            0.,NA,NA,"",   888.198E+03,   964.817E+03,   964.817E+03
C:/temp/Job-1.odb,Step-1,Increment      1: Step Time =    1.000,"P-1-1",          9607,   135.542E-03,   177.387E-03,            0.,NA,NA,"",   1.01148E+06,   1.00868E+06,   1.00868E+06
C:/temp/Job-1.odb,Step-1,Increment      1: Step Time =    1.000,"P-1-1",          9608,   136.451E-03,   111.575E-03,            0.,NA,NA,"",   909.928E+03,   890.307E+03,   890.307E+03
C:/temp/Job-1.odb,Step-1,Increment      1: Step Time =    1.000,"P-1-1",          9609,   64.1137E-03,   23.0122E-03,            0.,NA,NA,"",   1.02498E+06,   1.02690E+06,   1.02690E+06
C:/temp/Job-1.odb,Step-1,Increment      1: Step Time =    1.000,"P-1-1",          9610,   177.454E-03,   137.406E-03,            0.,NA,NA,"",   1.00374E+06,   1.00687E+06,   1.00687E+06
C:/temp/Job-1.odb,Step-1,Increment      1: Step Time =    1.000,"P-1-1",          9611,   178.206E-03,   63.3947E-03,            0.,NA,NA,"",   1.00202E+06,   1.00599E+06,   1.00599E+06
C:/temp/Job-1.odb,Step-1,Increment      1: Step Time =    1.000,"P-1-1",          9612,   136.896E-03,   22.5844E-03,            0.,NA,NA,"",   1.01217E+06,   1.00908E+06,   1.00908E+06
C:/temp/Job-1.odb,Step-1,Increment      1: Step Time =    1.000,"P-1-1",          9613,   71.3666E-03,   121.700E-03,            0.,NA,NA,"",   1.11157E+06,   1.07405E+06,   1.07405E+06
C:/temp/Job-1.odb,Step-1,Increment      1: Step Time =    1.000,"P-1-1",          9614,   136.710E-03,   102.277E-03,            0.,NA,NA,"",   757.972E+03,   771.241E+03,   771.241E+03
C:/temp/Job-1.odb,Step-1,Increment      1: Step Time =    1.000,"P-1-1",          9615,   101.471E-03,   136.752E-03,            0.,NA,NA,"",   1.04765E+06,   1.11458E+06,   1.11458E+06
C:/temp/Job-1.odb,Step-1,Increment      1: Step Time =    1.000,"P-1-1",          9616,   136.397E-03,   114.792E-03,            0.,NA,NA,"",   974.186E+03,   942.668E+03,   942.668E+03
C:/temp/Job-1.odb,Step-1,Increment      1: Step Time =    1.000,"P-1-1",          9617,   160.288E-03,   21.3492E-03,            0.,NA,NA,"",   1.01044E+06,   1.00732E+06,   1.00732E+06
C:/temp/Job-1.odb,Step-1,Increment      1: Step Time =    1.000,"P-1-1",          9618,   94.6157E-03,   136.186E-03,            0.,NA,NA,"",   1.06473E+06,   1.12659E+06,   1.12659E+06
C:/temp/Job-1.odb,Step-1,Increment      1: Step Time =    1.000,"P-1-1",          9619,   165.665E-03,   21.3509E-03,            0.,NA,NA,"",   1.00871E+06,   1.00626E+06,   1.00626E+06
C:/temp/Job-1.odb,Step-1,Increment      1: Step Time =    1.000,"P-1-1",          9620,   118.425E-03,   128.424E-03,            0.,NA,NA,"",   1.22706E+06,   1.19772E+06,   1.19772E+06
C:/temp/Job-1.odb,Step-1,Increment      1: Step Time =    1.000,"P-1-1",          9621,   137.694E-03,   105.317E-03,            0.,NA,NA,"",    803.65E+03,   809.704E+03,   809.704E+03
C:/temp/Job-1.odb,Step-1,Increment      1: Step Time =    1.000,"P-1-1",          9622,   22.4260E-03,   121.940E-03,            0.,NA,NA,"",   844.447E+03,   925.857E+03,   925.857E+03
C:/temp/Job-1.odb,Step-1,Increment      1: Step Time =    1.000,"P-1-1",          9623,   121.985E-03,   178.882E-03,            0.,NA,NA,"",   997.924E+03,   999.419E+03,   999.419E+03
C:/temp/Job-1.odb,Step-1,Increment      1: Step Time =    1.000,"P-1-1",          9624,   36.9685E-03,   178.215E-03,            0.,NA,NA,"",   1.05124E+06,   1.06480E+06,   1.06480E+06
C:/temp/Job-1.odb,Step-1,Increment      1: Step Time =    1.000,"P-1-1",          9625,   78.2579E-03,   21.6250E-03,            0.,NA,NA,"",   1.00383E+06,   1.00776E+06,   1.00776E+06
C:/temp/Job-1.odb,Step-1,Increment      1: Step Time =    1.000,"P-1-1",          9626,   116.056E-03,   133.701E-03,            0.,NA,NA,"",   1.16383E+06,   1.16590E+06,   1.16590E+06
C:/temp/Job-1.odb,Step-1,Increment      1: Step Time =    1.000,"P-1-1",          9627,   21.2534E-03,   146.227E-03,            0.,NA,NA,"",   920.356E+03,   993.543E+03,   993.543E+03
C:/temp/Job-1.odb,Step-1,Increment      1: Step Time =    1.000,"P-1-1",          9628,   178.770E-03,   77.8159E-03,            0.,NA,NA,"",   983.655E+03,   994.716E+03,   994.716E+03
C:/temp/Job-1.odb,Step-1,Increment      1: Step Time =    1.000,"P-1-1",          9629,   145.092E-03,   177.918E-03,            0.,NA,NA,"",   1.01344E+06,   1.00944E+06,   1.00944E+06
C:/temp/Job-1.odb,Step-1,Increment      1: Step Time =    1.000,"P-1-1",          9630,   127.400E-03,   85.9092E-03,            0.,NA,NA,"",   1.04662E+06,   972.208E+03,   972.208E+03
C:/temp/Job-1.odb,Step-1,Increment      1: Step Time =    1.000,"P-1-1",          9631,   89.9737E-03,   76.5041E-03,            0.,NA,NA,"",   1.26939E+06,   1.30754E+06,   1.30754E+06
C:/temp/Job-1.odb,Step-1,Increment      1: Step Time =    1.000,"P-1-1",          9632,   178.497E-03,   162.981E-03,            0.,NA,NA,"",   1.00911E+06,   1.00811E+06,   1.00811E+06
C:/temp/Job-1.odb,Step-1,Increment      1: Step Time =    1.000,"P-1-1",          9633,   21.7583E-03,   37.2916E-03,            0.,NA,NA,"",   984.388E+03,   1.04492E+06,   1.04492E+06
C:/temp/Job-1.odb,Step-1,Increment      1: Step Time =    1.000,"P-1-1",          9634,   91.4174E-03,   178.248E-03,            0.,NA,NA,"",   989.970E+03,   996.972E+03,   996.972E+03
C:/temp/Job-1.odb,Step-1,Increment      1: Step Time =    1.000,"P-1-1",          9635,   54.1025E-03,   22.3876E-03,            0.,NA,NA,"",   1.03417E+06,   1.03739E+06,   1.03739E+06
C:/temp/Job-1.odb,Step-1,Increment      1: Step Time =    1.000,"P-1-1",          9636,   176.893E-03,   54.6796E-03,            0.,NA,NA,"",   1.00996E+06,   1.01036E+06,   1.01036E+06
C:/temp/Job-1.odb,Step-1,Increment      1: Step Time =    1.000,"P-1-1",          9637,   177.415E-03,   109.412E-03,            0.,NA,NA,"",   966.486E+03,   982.136E+03,   982.136E+03
C:/temp/Job-1.odb,Step-1,Increment      1: Step Time =    1.000,"P-1-1",          9638,   21.8086E-03,   90.3209E-03,            0.,NA,NA,"",   815.675E+03,   900.754E+03,   900.754E+03
C:/temp/Job-1.odb,Step-1,Increment      1: Step Time =    1.000,"P-1-1",          9639,   22.2905E-03,   126.714E-03,            0.,NA,NA,"",   858.198E+03,   938.106E+03,   938.106E+03
C:/temp/Job-1.odb,Step-1,Increment      1: Step Time =    1.000,"P-1-1",          9640,   96.3094E-03,   176.819E-03,            0.,NA,NA,"",   990.289E+03,   998.578E+03,   998.578E+03
C:/temp/Job-1.odb,Step-1,Increment      1: Step Time =    1.000,"P-1-1",          9641,   127.365E-03,   177.581E-03,            0.,NA,NA,"",   1.00556E+06,   1.00516E+06,   1.00516E+06
C:/temp/Job-1.odb,Step-1,Increment      1: Step Time =    1.000,"P-1-1",          9642,   51.8446E-03,   178.209E-03,            0.,NA,NA,"",   1.03568E+06,   1.03945E+06,   1.03945E+06
C:/temp/Job-1.odb,Step-1,Increment      1: Step Time =    1.000,"P-1-1",          9643,   178.427E-03,   94.3728E-03,            0.,NA,NA,"",   964.579E+03,   981.795E+03,   981.795E+03
C:/temp/Job-1.odb,Step-1,Increment      1: Step Time =    1.000,"P-1-1",          9644,   177.015E-03,   104.462E-03,            0.,NA,NA,"",   962.402E+03,   979.012E+03,   979.012E+03
C:/temp/Job-1.odb,Step-1,Increment      1: Step Time =    1.000,"P-1-1",          9645,   22.8860E-03,   51.0163E-03,            0.,NA,NA,"",   936.604E+03,   1.00501E+06,   1.00501E+06
C:/temp/Job-1.odb,Step-1,Increment      1: Step Time =    1.000,"P-1-1",          9646,   21.9601E-03,   96.2421E-03,            0.,NA,NA,"",   809.076E+03,   894.765E+03,   894.765E+03
C:/temp/Job-1.odb,Step-1,Increment      1: Step Time =    1.000,"P-1-1",          9647,   109.275E-03,   21.2958E-03,            0.,NA,NA,"",   988.008E+03,   993.740E+03,   993.740E+03
C:/temp/Job-1.odb,Step-1,Increment      1: Step Time =    1.000,"P-1-1",          9648,   104.106E-03,   22.5331E-03,            0.,NA,NA,"",   988.352E+03,   995.887E+03,   995.887E+03
C:/temp/Job-1.odb,Step-1,Increment      1: Step Time =    1.000,"P-1-1",          9649,   20.5951E-03,   174.982E-03,            0.,NA,NA,"",   1.04065E+06,   1.08792E+06,   1.08792E+06
C:/temp/Job-1.odb,Step-1,Increment      1: Step Time =    1.000,"P-1-1",          9650,   59.6454E-03,   178.706E-03,            0.,NA,NA,"",   1.02588E+06,   1.02773E+06,   1.02773E+06
C:/temp/Job-1.odb,Step-1,Increment      1: Step Time =    1.000,"P-1-1",          9651,   178.335E-03,   25.1245E-03,            0.,NA,NA,"",   1.00542E+06,   1.00448E+06,   1.00448E+06
C:/temp/Job-1.odb,Step-1,Increment      1: Step Time =    1.000,"P-1-1",          9652,   22.6659E-03,   60.3720E-03,            0.,NA,NA,"",   902.547E+03,   976.498E+03,   976.498E+03
C:/temp/Job-1.odb,Step-1,Increment      1: Step Time =    1.000,"P-1-1",          9653,   116.414E-03,   177.778E-03,            0.,NA,NA,"",   995.426E+03,   999.196E+03,   999.196E+03
C:/temp/Job-1.odb,Step-1,Increment      1: Step Time =    1.000,"P-1-1",          9654,   22.8424E-03,   116.422E-03,            0.,NA,NA,"",   830.585E+03,   913.159E+03,   913.159E+03
C:/temp/Job-1.odb,Step-1,Increment      1: Step Time =    1.000,"P-1-1",          9655,   30.6576E-03,   178.407E-03,            0.,NA,NA,"",   1.05760E+06,   1.07849E+06,   1.07849E+06
C:/temp/Job-1.odb,Step-1,Increment      1: Step Time =    1.000,"P-1-1",          9656,   84.6552E-03,   21.8874E-03,            0.,NA,NA,"",   996.757E+03,   1.00233E+06,   1.00233E+06
C:/temp/Job-1.odb,Step-1,Increment      1: Step Time =    1.000,"P-1-1",          9657,   21.1177E-03,   179.883E-03,            0.,NA,NA,"",   1.06806E+06,   1.10427E+06,   1.10427E+06
C:/temp/Job-1.odb,Step-1,Increment      1: Step Time =    1.000,"P-1-1",          9658,   23.4237E-03,   21.8764E-03,            0.,NA,NA,"",   1.05998E+06,   1.09467E+06,   1.09467E+06
C:/temp/Job-1.odb,Step-1,Increment      1: Step Time =    1.000,"P-1-1",          9659,   19.5033E-03,   22.0290E-03,            0.,NA,NA,"",   1.05640E+06,   1.10081E+06,   1.10081E+06
C:/temp/Job-1.odb,Step-1,Increment      1: Step Time =    1.000,"P-1-1",          9660,   176.390E-03,   177.661E-03,            0.,NA,NA,"",   1.00514E+06,   1.00406E+06,   1.00406E+06
C:/temp/Job-1.odb,Step-1,Increment      1: Step Time =    1.000,"P-1-1",          9661,   80.9230E-03,   177.167E-03,            0.,NA,NA,"",   1.00334E+06,   1.00829E+06,   1.00829E+06
C:/temp/Job-1.odb,Step-1,Increment      1: Step Time =    1.000,"P-1-1",          9662,   181.368E-03,   179.034E-03,            0.,NA,NA,"",   1.00283E+06,   1.00238E+06,   1.00238E+06
C:/temp/Job-1.odb,Step-1,Increment      1: Step Time =    1.000,"P-1-1",          9663,   111.801E-03,   178.503E-03,            0.,NA,NA,"",   990.066E+03,   995.175E+03,   995.175E+03
C:/temp/Job-1.odb,Step-1,Increment      1: Step Time =    1.000,"P-1-1",          9664,   22.0312E-03,   110.413E-03,            0.,NA,NA,"",   816.990E+03,   901.764E+03,   901.764E+03
C:/temp/Job-1.odb,Step-1,Increment      1: Step Time =    1.000,"P-1-1",          9665,   22.7862E-03,   80.5504E-03,            0.,NA,NA,"",   838.479E+03,   920.216E+03,   920.216E+03
C:/temp/Job-1.odb,Step-1,Increment      1: Step Time =    1.000,"P-1-1",          9666,   177.367E-03,   118.500E-03,            0.,NA,NA,"",   978.545E+03,   990.449E+03,   990.449E+03
C:/temp/Job-1.odb,Step-1,Increment      1: Step Time =    1.000,"P-1-1",          9667,   177.846E-03,   145.936E-03,            0.,NA,NA,"",   1.00893E+06,   1.00975E+06,   1.00975E+06
C:/temp/Job-1.odb,Step-1,Increment      1: Step Time =    1.000,"P-1-1",          9668,   145.550E-03,   21.4889E-03,            0.,NA,NA,"",   1.01202E+06,   1.00823E+06,   1.00823E+06
C:/temp/Job-1.odb,Step-1,Increment      1: Step Time =    1.000,"P-1-1",          9669,   177.879E-03,   172.243E-03,            0.,NA,NA,"",   1.00667E+06,   1.00555E+06,   1.00555E+06
C:/temp/Job-1.odb,Step-1,Increment      1: Step Time =    1.000,"P-1-1",          9670,   118.815E-03,   21.9029E-03,            0.,NA,NA,"",   996.713E+03,   999.508E+03,   999.508E+03
C:/temp/Job-1.odb,Step-1,Increment      1: Step Time =    1.000,"P-1-1",          9671,   90.0614E-03,   21.8974E-03,            0.,NA,NA,"",   991.403E+03,   998.189E+03,   998.189E+03
C:/temp/Job-1.odb,Step-1,Increment      1: Step Time =    1.000,"P-1-1",          9672,   25.4738E-03,   177.122E-03,            0.,NA,NA,"",   1.05573E+06,   1.08781E+06,   1.08781E+06
C:/temp/Job-1.odb,Step-1,Increment      1: Step Time =    1.000,"P-1-1",          9673,   22.4485E-03,   27.8694E-03,            0.,NA,NA,"",   1.02996E+06,   1.07691E+06,   1.07691E+06
C:/temp/Job-1.odb,Step-1,Increment      1: Step Time =    1.000,"P-1-1",          9674,   173.804E-03,   22.9020E-03,            0.,NA,NA,"",   1.00653E+06,   1.00503E+06,   1.00503E+06
C:/temp/Job-1.odb,Step-1,Increment      1: Step Time =    1.000,"P-1-1",          9675,   74.0733E-03,   176.921E-03,            0.,NA,NA,"",   1.01311E+06,   1.01632E+06,   1.01632E+06
C:/temp/Job-1.odb,Step-1,Increment      1: Step Time =    1.000,"P-1-1",          9676,   22.5563E-03,   73.4074E-03,            0.,NA,NA,"",   858.883E+03,   938.545E+03,   938.545E+03
C:/temp/Job-1.odb,Step-1,Increment      1: Step Time =    1.000,"P-1-1",          9677,   21.9790E-03,   159.150E-03,            0.,NA,NA,"",   970.709E+03,   1.03390E+06,   1.03390E+06
C:/temp/Job-1.odb,Step-1,Increment      1: Step Time =    1.000,"P-1-1",          9678,   126.137E-03,   22.6508E-03,            0.,NA,NA,"",   1.00523E+06,   1.00529E+06,   1.00529E+06
C:/temp/Job-1.odb,Step-1,Increment      1: Step Time =    1.000,"P-1-1",          9679,   158.950E-03,   175.965E-03,            0.,NA,NA,"",   1.01440E+06,   1.01041E+06,   1.01041E+06
C:/temp/Job-1.odb,Step-1,Increment      1: Step Time =    1.000,"P-1-1",          9680,   110.315E-03,   134.424E-03,            0.,NA,NA,"",   1.11375E+06,   1.15241E+06,   1.15241E+06
C:/temp/Job-1.odb,Step-1,Increment      1: Step Time =    1.000,"P-1-1",          9681,   176.290E-03,   40.6613E-03,            0.,NA,NA,"",   1.01224E+06,   1.01056E+06,   1.01056E+06
C:/temp/Job-1.odb,Step-1,Increment      1: Step Time =    1.000,"P-1-1",          9682,   41.3468E-03,   22.8294E-03,            0.,NA,NA,"",   1.04707E+06,   1.05752E+06,   1.05752E+06
C:/temp/Job-1.odb,Step-1,Increment      1: Step Time =    1.000,"P-1-1",          9683,   85.8396E-03,   136.400E-03,            0.,NA,NA,"",   1.12220E+06,   1.14642E+06,   1.14642E+06
C:/temp/Job-1.odb,Step-1,Increment      1: Step Time =    1.000,"P-1-1",          9684,   22.4045E-03,   34.2748E-03,            0.,NA,NA,"",   999.727E+03,   1.05537E+06,   1.05537E+06
C:/temp/Job-1.odb,Step-1,Increment      1: Step Time =    1.000,"P-1-1",          9685,   176.285E-03,   166.321E-03,            0.,NA,NA,"",   1.01019E+06,   1.00850E+06,   1.00850E+06
C:/temp/Job-1.odb,Step-1,Increment      1: Step Time =    1.000,"P-1-1",          9686,   66.8939E-03,   84.2090E-03,            0.,NA,NA,"",   960.480E+03,   949.716E+03,   949.716E+03
C:/temp/Job-1.odb,Step-1,Increment      1: Step Time =    1.000,"P-1-1",          9687,   57.6361E-03,   176.904E-03,            0.,NA,NA,"",   1.03231E+06,   1.03487E+06,   1.03487E+06
C:/temp/Job-1.odb,Step-1,Increment      1: Step Time =    1.000,"P-1-1",          9688,   24.9425E-03,   56.3892E-03,            0.,NA,NA,"",   925.432E+03,   993.019E+03,   993.019E+03
C:/temp/Job-1.odb,Step-1,Increment      1: Step Time =    1.000,"P-1-1",          9689,   176.331E-03,   87.6708E-03,            0.,NA,NA,"",   969.266E+03,   983.186E+03,   983.186E+03
C:/temp/Job-1.odb,Step-1,Increment      1: Step Time =    1.000,"P-1-1",          9690,   86.0177E-03,   176.616E-03,            0.,NA,NA,"",   998.821E+03,   1.00552E+06,   1.00552E+06
C:/temp/Job-1.odb,Step-1,Increment      1: Step Time =    1.000,"P-1-1",          9691,   22.9945E-03,   86.3463E-03,            0.,NA,NA,"",   824.555E+03,   907.729E+03,   907.729E+03
C:/temp/Job-1.odb,Step-1,Increment      1: Step Time =    1.000,"P-1-1",          9692,   176.122E-03,   113.910E-03,            0.,NA,NA,"",   971.342E+03,   984.469E+03,   984.469E+03
C:/temp/Job-1.odb,Step-1,Increment      1: Step Time =    1.000,"P-1-1",          9693,   114.226E-03,   23.3163E-03,            0.,NA,NA,"",   995.829E+03,   1.00080E+06,   1.00080E+06
C:/temp/Job-1.odb,Step-1,Increment      1: Step Time =    1.000,"P-1-1",          9694,   176.624E-03,   139.560E-03,            0.,NA,NA,"",   1.00664E+06,   1.00848E+06,   1.00848E+06
C:/temp/Job-1.odb,Step-1,Increment      1: Step Time =    1.000,"P-1-1",          9695,   139.634E-03,   23.4875E-03,            0.,NA,NA,"",   1.01522E+06,   1.01141E+06,   1.01141E+06
C:/temp/Job-1.odb,Step-1,Increment      1: Step Time =    1.000,"P-1-1",          9696,   169.311E-03,   23.2836E-03,            0.,NA,NA,"",   1.00884E+06,   1.00661E+06,   1.00661E+06
C:/temp/Job-1.odb,Step-1,Increment      1: Step Time =    1.000,"P-1-1",          9697,   23.6731E-03,   31.1251E-03,            0.,NA,NA,"",   1.01790E+06,   1.06657E+06,   1.06657E+06
C:/temp/Job-1.odb,Step-1,Increment      1: Step Time =    1.000,"P-1-1",          9698,   176.377E-03,   168.915E-03,            0.,NA,NA,"",   1.00906E+06,   1.00749E+06,   1.00749E+06
C:/temp/Job-1.odb,Step-1,Increment      1: Step Time =    1.000,"P-1-1",          9699,   136.373E-03,   99.0650E-03,            0.,NA,NA,"",   746.880E+03,   761.678E+03,   761.678E+03
C:/temp/Job-1.odb,Step-1,Increment      1: Step Time =    1.000,"P-1-1",          9700,   22.9370E-03,   141.594E-03,            0.,NA,NA,"",   910.255E+03,   982.736E+03,   982.736E+03
C:/temp/Job-1.odb,Step-1,Increment      1: Step Time =    1.000,"P-1-1",          9701,   143.340E-03,   176.740E-03,            0.,NA,NA,"",   1.01559E+06,   1.01135E+06,   1.01135E+06
C:/temp/Job-1.odb,Step-1,Increment      1: Step Time =    1.000,"P-1-1",          9702,   67.5335E-03,   81.0989E-03,            0.,NA,NA,"",   1.02507E+06,   1.00456E+06,   1.00456E+06
C:/temp/Job-1.odb,Step-1,Increment      1: Step Time =    1.000,"P-1-1",          9703,   59.0150E-03,   24.3205E-03,            0.,NA,NA,"",   1.03369E+06,   1.03635E+06,   1.03635E+06
C:/temp/Job-1.odb,Step-1,Increment      1: Step Time =    1.000,"P-1-1",          9704,   177.348E-03,   57.6304E-03,            0.,NA,NA,"",   1.00772E+06,   1.00917E+06,   1.00917E+06
C:/temp/Job-1.odb,Step-1,Increment      1: Step Time =    1.000,"P-1-1",          9705,   176.466E-03,   27.4987E-03,            0.,NA,NA,"",   1.00737E+06,   1.00600E+06,   1.00600E+06
C:/temp/Job-1.odb,Step-1,Increment      1: Step Time =    1.000,"P-1-1",          9706,   27.2914E-03,   22.3727E-03,            0.,NA,NA,"",   1.05754E+06,   1.08526E+06,   1.08526E+06
C:/temp/Job-1.odb,Step-1,Increment      1: Step Time =    1.000,"P-1-1",          9707,   172.406E-03,   176.528E-03,            0.,NA,NA,"",   1.00748E+06,   1.00572E+06,   1.00572E+06
C:/temp/Job-1.odb,Step-1,Increment      1: Step Time =    1.000,"P-1-1",          9708,   107.837E-03,   136.001E-03,            0.,NA,NA,"",   1.08452E+06,   1.13401E+06,   1.13401E+06
C:/temp/Job-1.odb,Step-1,Increment      1: Step Time =    1.000,"P-1-1",          9709,   125.621E-03,   122.843E-03,            0.,NA,NA,"",   1.20049E+06,   1.12944E+06,   1.12944E+06
C:/temp/Job-1.odb,Step-1,Increment      1: Step Time =    1.000,"P-1-1",          9710,   87.3926E-03,   75.7279E-03,            0.,NA,NA,"",   1.26813E+06,   1.27723E+06,   1.27723E+06
C:/temp/Job-1.odb,Step-1,Increment      1: Step Time =    1.000,"P-1-1",          9711,   69.8570E-03,   116.520E-03,            0.,NA,NA,"",   1.01355E+06,   984.350E+03,   984.350E+03
C:/temp/Job-1.odb,Step-1,Increment      1: Step Time =    1.000,"P-1-1",          9712,   67.2467E-03,   175.784E-03,            0.,NA,NA,"",   1.02461E+06,   1.02691E+06,   1.02691E+06
C:/temp/Job-1.odb,Step-1,Increment      1: Step Time =    1.000,"P-1-1",          9713,   23.2198E-03,   66.7478E-03,            0.,NA,NA,"",   882.896E+03,   958.829E+03,   958.829E+03
C:/temp/Job-1.odb,Step-1,Increment      1: Step Time =    1.000,"P-1-1",          9714,   175.733E-03,   133.010E-03,            0.,NA,NA,"",   1.00115E+06,   1.00467E+06,   1.00467E+06
C:/temp/Job-1.odb,Step-1,Increment      1: Step Time =    1.000,"P-1-1",          9715,   132.137E-03,   23.9998E-03,            0.,NA,NA,"",   1.01296E+06,   1.01079E+06,   1.01079E+06
C:/temp/Job-1.odb,Step-1,Increment      1: Step Time =    1.000,"P-1-1",          9716,   164.178E-03,   23.7728E-03,            0.,NA,NA,"",   1.01166E+06,   1.00853E+06,   1.00853E+06
C:/temp/Job-1.odb,Step-1,Increment      1: Step Time =    1.000,"P-1-1",          9717,   23.8909E-03,   119.460E-03,            0.,NA,NA,"",   841.059E+03,   921.424E+03,   921.424E+03
C:/temp/Job-1.odb,Step-1,Increment      1: Step Time =    1.000,"P-1-1",          9718,   119.178E-03,   177.660E-03,            0.,NA,NA,"",   998.188E+03,   1.00086E+06,   1.00086E+06
C:/temp/Job-1.odb,Step-1,Increment      1: Step Time =    1.000,"P-1-1",          9719,   34.9127E-03,   175.648E-03,            0.,NA,NA,"",   1.05020E+06,   1.06896E+06,   1.06896E+06
C:/temp/Job-1.odb,Step-1,Increment      1: Step Time =    1.000,"P-1-1",          9720,   80.7451E-03,   23.1347E-03,            0.,NA,NA,"",   1.00448E+06,   1.00951E+06,   1.00951E+06
C:/temp/Job-1.odb,Step-1,Increment      1: Step Time =    1.000,"P-1-1",          9721,   176.792E-03,   81.2543E-03,            0.,NA,NA,"",   978.862E+03,   990.101E+03,   990.101E+03
C:/temp/Job-1.odb,Step-1,Increment      1: Step Time =    1.000,"P-1-1",          9722,   93.1301E-03,   175.715E-03,            0.,NA,NA,"",   994.137E+03,   1.00296E+06,   1.00296E+06
C:/temp/Job-1.odb,Step-1,Increment      1: Step Time =    1.000,"P-1-1",          9723,   176.134E-03,   107.056E-03,            0.,NA,NA,"",   963.285E+03,   978.882E+03,   978.882E+03
C:/temp/Job-1.odb,Step-1,Increment      1: Step Time =    1.000,"P-1-1",          9724,   23.8864E-03,   92.5463E-03,            0.,NA,NA,"",   815.533E+03,   898.757E+03,   898.757E+03
C:/temp/Job-1.odb,Step-1,Increment      1: Step Time =    1.000,"P-1-1",          9725,   106.821E-03,   23.4784E-03,            0.,NA,NA,"",   991.187E+03,   998.676E+03,   998.676E+03
C:/temp/Job-1.odb,Step-1,Increment      1: Step Time =    1.000,"P-1-1",          9726,   98.6359E-03,   177.287E-03,            0.,NA,NA,"",   988.614E+03,   996.773E+03,   996.773E+03
C:/temp/Job-1.odb,Step-1,Increment      1: Step Time =    1.000,"P-1-1",          9727,   22.5212E-03,   100.234E-03,            0.,NA,NA,"",   808.721E+03,   893.944E+03,   893.944E+03
C:/temp/Job-1.odb,Step-1,Increment      1: Step Time =    1.000,"P-1-1",          9728,   100.017E-03,   23.5206E-03,            0.,NA,NA,"",   990.035E+03,   998.583E+03,   998.583E+03
C:/temp/Job-1.odb,Step-1,Increment      1: Step Time =    1.000,"P-1-1",          9729,   177.009E-03,   101.723E-03,            0.,NA,NA,"",   961.413E+03,   978.342E+03,   978.342E+03
C:/temp/Job-1.odb,Step-1,Increment      1: Step Time =    1.000,"P-1-1",          9730,   113.568E-03,   134.035E-03,            0.,NA,NA,"",   1.14628E+06,   1.16341E+06,   1.16341E+06
C:/temp/Job-1.odb,Step-1,Increment      1: Step Time =    1.000,"P-1-1",          9731,   23.4092E-03,   178.697E-03,            0.,NA,NA,"",   1.06171E+06,   1.09507E+06,   1.09507E+06
C:/temp/Job-1.odb,Step-1,Increment      1: Step Time =    1.000,"P-1-1",          9732,   23.2629E-03,   164.890E-03,            0.,NA,NA,"",   999.056E+03,   1.05367E+06,   1.05367E+06
C:/temp/Job-1.odb,Step-1,Increment      1: Step Time =    1.000,"P-1-1",          9733,   176.608E-03,   22.0421E-03,            0.,NA,NA,"",   1.00492E+06,   1.00389E+06,   1.00389E+06
C:/temp/Job-1.odb,Step-1,Increment      1: Step Time =    1.000,"P-1-1",          9734,   175.854E-03,   34.0854E-03,            0.,NA,NA,"",   1.01074E+06,   1.00891E+06,   1.00891E+06
C:/temp/Job-1.odb,Step-1,Increment      1: Step Time =    1.000,"P-1-1",          9735,   35.6922E-03,   23.3859E-03,            0.,NA,NA,"",   1.05089E+06,   1.06763E+06,   1.06763E+06
C:/temp/Job-1.odb,Step-1,Increment      1: Step Time =    1.000,"P-1-1",          9736,   54.6546E-03,   176.383E-03,            0.,NA,NA,"",   1.03625E+06,   1.03979E+06,   1.03979E+06
C:/temp/Job-1.odb,Step-1,Increment      1: Step Time =    1.000,"P-1-1",          9737,   164.647E-03,   176.132E-03,            0.,NA,NA,"",   1.01159E+06,   1.00850E+06,   1.00850E+06
C:/temp/Job-1.odb,Step-1,Increment      1: Step Time =    1.000,"P-1-1",          9738,   176.046E-03,   89.6926E-03,            0.,NA,NA,"",   966.539E+03,   981.077E+03,   981.077E+03
C:/temp/Job-1.odb,Step-1,Increment      1: Step Time =    1.000,"P-1-1",          9739,   23.8845E-03,   54.5603E-03,            0.,NA,NA,"",   927.778E+03,   996.356E+03,   996.356E+03
C:/temp/Job-1.odb,Step-1,Increment      1: Step Time =    1.000,"P-1-1",          9740,   21.6689E-03,   24.7539E-03,            0.,NA,NA,"",   1.04421E+06,   1.08805E+06,   1.08805E+06
C:/temp/Job-1.odb,Step-1,Increment      1: Step Time =    1.000,"P-1-1",          9741,   177.923E-03,   175.863E-03,            0.,NA,NA,"",   1.00524E+06,   1.00427E+06,   1.00427E+06
C:/temp/Job-1.odb,Step-1,Increment      1: Step Time =    1.000,"P-1-1",          9742,   89.6886E-03,   136.168E-03,            0.,NA,NA,"",   1.09881E+06,   1.14098E+06,   1.14098E+06
C:/temp/Job-1.odb,Step-1,Increment      1: Step Time =    1.000,"P-1-1",          9743,   68.2054E-03,   23.3983E-03,            0.,NA,NA,"",   1.02129E+06,   1.02354E+06,   1.02354E+06
C:/temp/Job-1.odb,Step-1,Increment      1: Step Time =    1.000,"P-1-1",          9744,   177.485E-03,   67.9547E-03,            0.,NA,NA,"",   997.912E+03,   1.00326E+06,   1.00326E+06
C:/temp/Job-1.odb,Step-1,Increment      1: Step Time =    1.000,"P-1-1",          9745,   82.9320E-03,   176.550E-03,            0.,NA,NA,"",   1.00240E+06,   1.00823E+06,   1.00823E+06
C:/temp/Job-1.odb,Step-1,Increment      1: Step Time =    1.000,"P-1-1",          9746,   113.377E-03,   177.074E-03,            0.,NA,NA,"",   994.440E+03,   999.610E+03,   999.610E+03
C:/temp/Job-1.odb,Step-1,Increment      1: Step Time =    1.000,"P-1-1",          9747,   23.1158E-03,   113.453E-03,            0.,NA,NA,"",   824.299E+03,   907.358E+03,   907.358E+03
C:/temp/Job-1.odb,Step-1,Increment      1: Step Time =    1.000,"P-1-1",          9748,   23.3077E-03,   83.3791E-03,            0.,NA,NA,"",   832.234E+03,   914.211E+03,   914.211E+03
C:/temp/Job-1.odb,Step-1,Increment      1: Step Time =    1.000,"P-1-1",          9749,   175.974E-03,   116.402E-03,            0.,NA,NA,"",   975.074E+03,   986.943E+03,   986.943E+03
C:/temp/Job-1.odb,Step-1,Increment      1: Step Time =    1.000,"P-1-1",          9750,   177.673E-03,   142.553E-03,            0.,NA,NA,"",   1.00743E+06,   1.00903E+06,   1.00903E+06
C:/temp/Job-1.odb,Step-1,Increment      1: Step Time =    1.000,"P-1-1",          9751,   142.925E-03,   23.8223E-03,            0.,NA,NA,"",   1.01672E+06,   1.01233E+06,   1.01233E+06
C:/temp/Job-1.odb,Step-1,Increment      1: Step Time =    1.000,"P-1-1",          9752,   87.1286E-03,   22.5214E-03,            0.,NA,NA,"",   995.557E+03,   1.00197E+06,   1.00197E+06
C:/temp/Job-1.odb,Step-1,Increment      1: Step Time =    1.000,"P-1-1",          9753,   171.450E-03,   23.2026E-03,            0.,NA,NA,"",   1.00777E+06,   1.00589E+06,   1.00589E+06
C:/temp/Job-1.odb,Step-1,Increment      1: Step Time =    1.000,"P-1-1",          9754,   23.4164E-03,   140.249E-03,            0.,NA,NA,"",   907.550E+03,   979.873E+03,   979.873E+03
C:/temp/Job-1.odb,Step-1,Increment      1: Step Time =    1.000,"P-1-1",          9755,   139.671E-03,   177.454E-03,            0.,NA,NA,"",   1.01321E+06,   1.00965E+06,   1.00965E+06
C:/temp/Job-1.odb,Step-1,Increment      1: Step Time =    1.000,"P-1-1",          9756,   60.6714E-03,   24.8096E-03,            0.,NA,NA,"",   1.03319E+06,   1.03564E+06,   1.03564E+06
C:/temp/Job-1.odb,Step-1,Increment      1: Step Time =    1.000,"P-1-1",          9757,   176.540E-03,   60.1930E-03,            0.,NA,NA,"",   1.00713E+06,   1.00874E+06,   1.00874E+06
C:/temp/Job-1.odb,Step-1,Increment      1: Step Time =    1.000,"P-1-1",          9758,   126.596E-03,   121.159E-03,            0.,NA,NA,"",   1.17964E+06,   1.10511E+06,   1.10511E+06
C:/temp/Job-1.odb,Step-1,Increment      1: Step Time =    1.000,"P-1-1",          9759,   17.6428E-03,   146.024E-03,            0.,NA,NA,"",   904.609E+03,   984.840E+03,   984.840E+03
C:/temp/Job-1.odb,Step-1,Increment      1: Step Time =    1.000,"P-1-1",          9760,   145.067E-03,   179.796E-03,            0.,NA,NA,"",   1.00969E+06,   1.00628E+06,   1.00628E+06
C:/temp/Job-1.odb,Step-1,Increment      1: Step Time =    1.000,"P-1-1",          9761,   53.3745E-03,   19.1011E-03,            0.,NA,NA,"",   1.02853E+06,   1.03099E+06,   1.03099E+06
C:/temp/Job-1.odb,Step-1,Increment      1: Step Time =    1.000,"P-1-1",          9762,   180.017E-03,   54.4990E-03,            0.,NA,NA,"",   1.00582E+06,   1.00806E+06,   1.00806E+06
C:/temp/Job-1.odb,Step-1,Increment      1: Step Time =    1.000,"P-1-1",          9763,   166.167E-03,   23.1017E-03,            0.,NA,NA,"",   1.01014E+06,   1.00743E+06,   1.00743E+06
C:/temp/Job-1.odb,Step-1,Increment      1: Step Time =    1.000,"P-1-1",          9764,   91.3837E-03,   21.7933E-03,            0.,NA,NA,"",   990.027E+03,   996.984E+03,   996.984E+03
C:/temp/Job-1.odb,Step-1,Increment      1: Step Time =    1.000,"P-1-1",          9765,   71.4393E-03,   123.754E-03,            0.,NA,NA,"",   1.12705E+06,   1.09242E+06,   1.09242E+06
C:/temp/Job-1.odb,Step-1,Increment      1: Step Time =    1.000,"P-1-1",          9766,   147.272E-03,   22.0883E-03,            0.,NA,NA,"",   1.01352E+06,   1.00946E+06,   1.00946E+06
C:/temp/Job-1.odb,Step-1,Increment      1: Step Time =    1.000,"P-1-1",          9767,   178.268E-03,   147.008E-03,            0.,NA,NA,"",   1.00882E+06,   1.00963E+06,   1.00963E+06
C:/temp/Job-1.odb,Step-1,Increment      1: Step Time =    1.000,"P-1-1",          9768,   21.3729E-03,   108.788E-03,            0.,NA,NA,"",   813.379E+03,   899.060E+03,   899.060E+03
C:/temp/Job-1.odb,Step-1,Increment      1: Step Time =    1.000,"P-1-1",          9769,   110.074E-03,   178.611E-03,            0.,NA,NA,"",   988.535E+03,   994.072E+03,   994.072E+03
C:/temp/Job-1.odb,Step-1,Increment      1: Step Time =    1.000,"P-1-1",          9770,   127.029E-03,   122.501E-03,            0.,NA,NA,"",   1.18151E+06,   1.11148E+06,   1.11148E+06
C:/temp/Job-1.odb,Step-1,Increment      1: Step Time =    1.000,"P-1-1",          9771,   89.4417E-03,   176.726E-03,            0.,NA,NA,"",   995.032E+03,   1.00245E+06,   1.00245E+06
C:/temp/Job-1.odb,Step-1,Increment      1: Step Time =    1.000,"P-1-1",          9772,   176.405E-03,   110.740E-03,            0.,NA,NA,"",   967.199E+03,   981.794E+03,   981.794E+03
C:/temp/Job-1.odb,Step-1,Increment      1: Step Time =    1.000,"P-1-1",          9773,   22.8475E-03,   89.9387E-03,            0.,NA,NA,"",   817.711E+03,   901.691E+03,   901.691E+03
C:/temp/Job-1.odb,Step-1,Increment      1: Step Time =    1.000,"P-1-1",          9774,   175.175E-03,   23.6441E-03,            0.,NA,NA,"",   1.00636E+06,   1.00499E+06,   1.00499E+06
C:/temp/Job-1.odb,Step-1,Increment      1: Step Time =    1.000,"P-1-1",          9775,   117.544E-03,   132.844E-03,            0.,NA,NA,"",   1.17850E+06,   1.17014E+06,   1.17014E+06
C:/temp/Job-1.odb,Step-1,Increment      1: Step Time =    1.000,"P-1-1",          9776,   174.988E-03,   176.508E-03,            0.,NA,NA,"",   1.00628E+06,   1.00493E+06,   1.00493E+06
C:/temp/Job-1.odb,Step-1,Increment      1: Step Time =    1.000,"P-1-1",          9777,   24.3141E-03,   22.7109E-03,            0.,NA,NA,"",   1.05657E+06,   1.09052E+06,   1.09052E+06
C:/temp/Job-1.odb,Step-1,Increment      1: Step Time =    1.000,"P-1-1",          9778,   177.005E-03,   25.7049E-03,            0.,NA,NA,"",   1.00631E+06,   1.00512E+06,   1.00512E+06
C:/temp/Job-1.odb,Step-1,Increment      1: Step Time =    1.000,"P-1-1",          9779,   89.8445E-03,   23.4162E-03,            0.,NA,NA,"",   994.921E+03,   1.00248E+06,   1.00248E+06
C:/temp/Job-1.odb,Step-1,Increment      1: Step Time =    1.000,"P-1-1",          9780,   24.7055E-03,   175.791E-03,            0.,NA,NA,"",   1.04979E+06,   1.08569E+06,   1.08569E+06
C:/temp/Job-1.odb,Step-1,Increment      1: Step Time =    1.000,"P-1-1",          9781,   176.531E-03,   56.4958E-03,            0.,NA,NA,"",   1.00954E+06,   1.01015E+06,   1.01015E+06
C:/temp/Job-1.odb,Step-1,Increment      1: Step Time =    1.000,"P-1-1",          9782,   55.2235E-03,   23.8286E-03,            0.,NA,NA,"",   1.03606E+06,   1.03942E+06,   1.03942E+06
C:/temp/Job-1.odb,Step-1,Increment      1: Step Time =    1.000,"P-1-1",          9783,   118.296E-03,   23.2349E-03,            0.,NA,NA,"",   999.360E+03,   1.00266E+06,   1.00266E+06
C:/temp/Job-1.odb,Step-1,Increment      1: Step Time =    1.000,"P-1-1",          9784,   23.8289E-03,   174.279E-03,            0.,NA,NA,"",   1.04226E+06,   1.08261E+06,   1.08261E+06
C:/temp/Job-1.odb,Step-1,Increment      1: Step Time =    1.000,"P-1-1",          9785,   145.601E-03,   176.558E-03,            0.,NA,NA,"",   1.01608E+06,   1.01163E+06,   1.01163E+06
C:/temp/Job-1.odb,Step-1,Increment      1: Step Time =    1.000,"P-1-1",          9786,   22.7228E-03,   145.010E-03,            0.,NA,NA,"",   921.934E+03,   992.987E+03,   992.987E+03
C:/temp/Job-1.odb,Step-1,Increment      1: Step Time =    1.000,"P-1-1",          9787,   145.604E-03,   23.2677E-03,            0.,NA,NA,"",   1.01570E+06,   1.01132E+06,   1.01132E+06
C:/temp/Job-1.odb,Step-1,Increment      1: Step Time =    1.000,"P-1-1",          9788,   176.361E-03,   146.447E-03,            0.,NA,NA,"",   1.01120E+06,   1.01101E+06,   1.01101E+06
C:/temp/Job-1.odb,Step-1,Increment      1: Step Time =    1.000,"P-1-1",          9789,   23.9383E-03,   79.7641E-03,            0.,NA,NA,"",   843.368E+03,   923.374E+03,   923.374E+03
C:/temp/Job-1.odb,Step-1,Increment      1: Step Time =    1.000,"P-1-1",          9790,   22.5322E-03,   109.356E-03,            0.,NA,NA,"",   816.085E+03,   900.489E+03,   900.489E+03
C:/temp/Job-1.odb,Step-1,Increment      1: Step Time =    1.000,"P-1-1",          9791,   175.818E-03,   118.258E-03,            0.,NA,NA,"",   978.217E+03,   989.046E+03,   989.046E+03
C:/temp/Job-1.odb,Step-1,Increment      1: Step Time =    1.000,"P-1-1",          9792,   110.493E-03,   176.668E-03,            0.,NA,NA,"",   993.084E+03,   999.436E+03,   999.436E+03
C:/temp/Job-1.odb,Step-1,Increment      1: Step Time =    1.000,"P-1-1",          9793,   80.4930E-03,   175.326E-03,            0.,NA,NA,"",   1.00861E+06,   1.01418E+06,   1.01418E+06
C:/temp/Job-1.odb,Step-1,Increment      1: Step Time =    1.000,"P-1-1",          9794,   109.985E-03,   23.2114E-03,            0.,NA,NA,"",   992.411E+03,   998.871E+03,   998.871E+03
C:/temp/Job-1.odb,Step-1,Increment      1: Step Time =    1.000,"P-1-1",          9795,   23.7681E-03,   50.1390E-03,            0.,NA,NA,"",   943.477E+03,   1.00949E+06,   1.00949E+06
C:/temp/Job-1.odb,Step-1,Increment      1: Step Time =    1.000,"P-1-1",          9796,   51.4030E-03,   176.139E-03,            0.,NA,NA,"",   1.03961E+06,   1.04437E+06,   1.04437E+06
C:/temp/Job-1.odb,Step-1,Increment      1: Step Time =    1.000,"P-1-1",          9797,   117.085E-03,   134.683E-03,            0.,NA,NA,"",   1.15916E+06,   1.15761E+06,   1.15761E+06
C:/temp/Job-1.odb,Step-1,Increment      1: Step Time =    1.000,"P-1-1",          9798,   70.3722E-03,   175.590E-03,            0.,NA,NA,"",   1.02113E+06,   1.02393E+06,   1.02393E+06
C:/temp/Job-1.odb,Step-1,Increment      1: Step Time =    1.000,"P-1-1",          9799,   23.2886E-03,   69.9135E-03,            0.,NA,NA,"",   872.372E+03,   949.552E+03,   949.552E+03
C:/temp/Job-1.odb,Step-1,Increment      1: Step Time =    1.000,"P-1-1",          9800,   176.069E-03,   129.222E-03,            0.,NA,NA,"",   995.616E+03,   1.00114E+06,   1.00114E+06
C:/temp/Job-1.odb,Step-1,Increment      1: Step Time =    1.000,"P-1-1",          9801,   129.796E-03,   24.2659E-03,            0.,NA,NA,"",   1.01189E+06,   1.01051E+06,   1.01051E+06
C:/temp/Job-1.odb,Step-1,Increment      1: Step Time =    1.000,"P-1-1",          9802,   177.809E-03,   73.5875E-03,            0.,NA,NA,"",   990.217E+03,   998.420E+03,   998.420E+03
C:/temp/Job-1.odb,Step-1,Increment      1: Step Time =    1.000,"P-1-1",          9803,   75.0562E-03,   22.0622E-03,            0.,NA,NA,"",   1.00884E+06,   1.01203E+06,   1.01203E+06
C:/temp/Job-1.odb,Step-1,Increment      1: Step Time =    1.000,"P-1-1",          9804,   176.286E-03,   72.7077E-03,            0.,NA,NA,"",   992.754E+03,   999.328E+03,   999.328E+03
C:/temp/Job-1.odb,Step-1,Increment      1: Step Time =    1.000,"P-1-1",          9805,   73.6723E-03,   23.5235E-03,            0.,NA,NA,"",   1.01480E+06,   1.01798E+06,   1.01798E+06
C:/temp/Job-1.odb,Step-1,Increment      1: Step Time =    1.000,"P-1-1",          9806,   80.3444E-03,   130.074E-03,            0.,NA,NA,"",   1.19283E+06,   1.17938E+06,   1.17938E+06
C:/temp/Job-1.odb,Step-1,Increment      1: Step Time =    1.000,"P-1-1",          9807,   125.983E-03,   124.293E-03,            0.,NA,NA,"",   1.19890E+06,   1.13304E+06,   1.13304E+06
C:/temp/Job-1.odb,Step-1,Increment      1: Step Time =    1.000,"P-1-1",          9808,   121.684E-03,   128.413E-03,            0.,NA,NA,"",   1.22099E+06,   1.17750E+06,   1.17750E+06
C:/temp/Job-1.odb,Step-1,Increment      1: Step Time =    1.000,"P-1-1",          9809,   175.697E-03,   42.3301E-03,            0.,NA,NA,"",   1.01330E+06,   1.01142E+06,   1.01142E+06
C:/temp/Job-1.odb,Step-1,Increment      1: Step Time =    1.000,"P-1-1",          9810,   42.2300E-03,   24.6088E-03,            0.,NA,NA,"",   1.04674E+06,   1.05795E+06,   1.05795E+06
C:/temp/Job-1.odb,Step-1,Increment      1: Step Time =    1.000,"P-1-1",          9811,   157.494E-03,   174.935E-03,            0.,NA,NA,"",   1.01635E+06,   1.01190E+06,   1.01190E+06
C:/temp/Job-1.odb,Step-1,Increment      1: Step Time =    1.000,"P-1-1",          9812,   24.0151E-03,   156.894E-03,            0.,NA,NA,"",   969.993E+03,   1.03054E+06,   1.03054E+06
C:/temp/Job-1.odb,Step-1,Increment      1: Step Time =    1.000,"P-1-1",          9813,   24.3545E-03,   116.921E-03,            0.,NA,NA,"",   835.178E+03,   915.765E+03,   915.765E+03
C:/temp/Job-1.odb,Step-1,Increment      1: Step Time =    1.000,"P-1-1",          9814,   175.710E-03,   39.6268E-03,            0.,NA,NA,"",   1.01272E+06,   1.01077E+06,   1.01077E+06
C:/temp/Job-1.odb,Step-1,Increment      1: Step Time =    1.000,"P-1-1",          9815,   38.6335E-03,   24.4280E-03,            0.,NA,NA,"",   1.04851E+06,   1.06294E+06,   1.06294E+06
C:/temp/Job-1.odb,Step-1,Increment      1: Step Time =    1.000,"P-1-1",          9816,   124.194E-03,   25.3939E-03,            0.,NA,NA,"",   1.01003E+06,   1.01094E+06,   1.01094E+06
C:/temp/Job-1.odb,Step-1,Increment      1: Step Time =    1.000,"P-1-1",          9817,   83.5851E-03,   22.3166E-03,            0.,NA,NA,"",   998.890E+03,   1.00428E+06,   1.00428E+06
C:/temp/Job-1.odb,Step-1,Increment      1: Step Time =    1.000,"P-1-1",          9818,   175.810E-03,   123.359E-03,            0.,NA,NA,"",   986.505E+03,   994.786E+03,   994.786E+03
C:/temp/Job-1.odb,Step-1,Increment      1: Step Time =    1.000,"P-1-1",          9819,   160.096E-03,   175.447E-03,            0.,NA,NA,"",   1.01451E+06,   1.01055E+06,   1.01055E+06
C:/temp/Job-1.odb,Step-1,Increment      1: Step Time =    1.000,"P-1-1",          9820,   31.4214E-03,   176.154E-03,            0.,NA,NA,"",   1.05232E+06,   1.07538E+06,   1.07538E+06
C:/temp/Job-1.odb,Step-1,Increment      1: Step Time =    1.000,"P-1-1",          9821,   24.8704E-03,   75.8041E-03,            0.,NA,NA,"",   857.972E+03,   935.179E+03,   935.179E+03
C:/temp/Job-1.odb,Step-1,Increment      1: Step Time =    1.000,"P-1-1",          9822,   24.2158E-03,   160.369E-03,            0.,NA,NA,"",   983.802E+03,   1.04083E+06,   1.04083E+06
C:/temp/Job-1.odb,Step-1,Increment      1: Step Time =    1.000,"P-1-1",          9823,   75.9537E-03,   175.637E-03,            0.,NA,NA,"",   1.01392E+06,   1.01797E+06,   1.01797E+06
C:/temp/Job-1.odb,Step-1,Increment      1: Step Time =    1.000,"P-1-1",          9824,   106.039E-03,   136.860E-03,            0.,NA,NA,"",   1.06649E+06,   1.12245E+06,   1.12245E+06
C:/temp/Job-1.odb,Step-1,Increment      1: Step Time =    1.000,"P-1-1",          9825,   100.178E-03,   136.528E-03,            0.,NA,NA,"",   1.04686E+06,   1.11554E+06,   1.11554E+06
C:/temp/Job-1.odb,Step-1,Increment      1: Step Time =    1.000,"P-1-1",          9826,   60.2721E-03,   177.395E-03,            0.,NA,NA,"",   1.02839E+06,   1.03044E+06,   1.03044E+06
C:/temp/Job-1.odb,Step-1,Increment      1: Step Time =    1.000,"P-1-1",          9827,   24.2086E-03,   61.0499E-03,            0.,NA,NA,"",   906.093E+03,   977.606E+03,   977.606E+03
C:/temp/Job-1.odb,Step-1,Increment      1: Step Time =    1.000,"P-1-1",          9828,   176.442E-03,   84.2647E-03,            0.,NA,NA,"",   974.135E+03,   986.640E+03,   986.640E+03
C:/temp/Job-1.odb,Step-1,Increment      1: Step Time =    1.000,"P-1-1",          9829,   153.737E-03,   24.5366E-03,            0.,NA,NA,"",   1.01690E+06,   1.01223E+06,   1.01223E+06
C:/temp/Job-1.odb,Step-1,Increment      1: Step Time =    1.000,"P-1-1",          9830,   174.994E-03,   153.095E-03,            0.,NA,NA,"",   1.01456E+06,   1.01264E+06,   1.01264E+06
C:/temp/Job-1.odb,Step-1,Increment      1: Step Time =    1.000,"P-1-1",          9831,   24.7763E-03,   45.8044E-03,            0.,NA,NA,"",   962.792E+03,   1.02372E+06,   1.02372E+06
C:/temp/Job-1.odb,Step-1,Increment      1: Step Time =    1.000,"P-1-1",          9832,   46.5138E-03,   175.767E-03,            0.,NA,NA,"",   1.04378E+06,   1.05139E+06,   1.05139E+06
C:/temp/Job-1.odb,Step-1,Increment      1: Step Time =    1.000,"P-1-1",          9833,   127.918E-03,   88.3225E-03,            0.,NA,NA,"",   962.146E+03,   900.159E+03,   900.159E+03
C:/temp/Job-1.odb,Step-1,Increment      1: Step Time =    1.000,"P-1-1",          9834,   66.8306E-03,   88.2814E-03,            0.,NA,NA,"",   872.237E+03,   874.793E+03,   874.793E+03
C:/temp/Job-1.odb,Step-1,Increment      1: Step Time =    1.000,"P-1-1",          9835,   136.550E-03,   109.958E-03,            0.,NA,NA,"",   875.961E+03,   863.346E+03,   863.346E+03
C:/temp/Job-1.odb,Step-1,Increment      1: Step Time =    1.000,"P-1-1",          9836,   127.309E-03,   83.6907E-03,            0.,NA,NA,"",   1.10126E+06,   1.02385E+06,   1.02385E+06
C:/temp/Job-1.odb,Step-1,Increment      1: Step Time =    1.000,"P-1-1",          9837,   28.8940E-03,   23.0113E-03,            0.,NA,NA,"",   1.05511E+06,   1.08101E+06,   1.08101E+06
C:/temp/Job-1.odb,Step-1,Increment      1: Step Time =    1.000,"P-1-1",          9838,   175.767E-03,   29.1779E-03,            0.,NA,NA,"",   1.00866E+06,   1.00704E+06,   1.00704E+06
C:/temp/Job-1.odb,Step-1,Increment      1: Step Time =    1.000,"P-1-1",          9839,   169.950E-03,   175.979E-03,            0.,NA,NA,"",   1.00917E+06,   1.00692E+06,   1.00692E+06
C:/temp/Job-1.odb,Step-1,Increment      1: Step Time =    1.000,"P-1-1",          9840,   176.030E-03,   103.716E-03,            0.,NA,NA,"",   960.956E+03,   977.149E+03,   977.149E+03
C:/temp/Job-1.odb,Step-1,Increment      1: Step Time =    1.000,"P-1-1",          9841,   97.2257E-03,   175.932E-03,            0.,NA,NA,"",   991.683E+03,   1.00064E+06,   1.00064E+06
C:/temp/Job-1.odb,Step-1,Increment      1: Step Time =    1.000,"P-1-1",          9842,   22.7660E-03,   97.4267E-03,            0.,NA,NA,"",   809.556E+03,   894.509E+03,   894.509E+03
C:/temp/Job-1.odb,Step-1,Increment      1: Step Time =    1.000,"P-1-1",          9843,   103.753E-03,   24.1011E-03,            0.,NA,NA,"",   991.309E+03,   999.892E+03,   999.892E+03
C:/temp/Job-1.odb,Step-1,Increment      1: Step Time =    1.000,"P-1-1",          9844,   24.1946E-03,   171.481E-03,            0.,NA,NA,"",   1.03010E+06,   1.07401E+06,   1.07401E+06
C:/temp/Job-1.odb,Step-1,Increment      1: Step Time =    1.000,"P-1-1",          9845,   87.3730E-03,   73.3602E-03,            0.,NA,NA,"",   1.22579E+06,   1.24383E+06,   1.24383E+06
C:/temp/Job-1.odb,Step-1,Increment      1: Step Time =    1.000,"P-1-1",          9846,   179.092E-03,   110.286E-03,            0.,NA,NA,"",   968.541E+03,   984.976E+03,   984.976E+03
C:/temp/Job-1.odb,Step-1,Increment      1: Step Time =    1.000,"P-1-1",          9847,   20.1879E-03,   89.0533E-03,            0.,NA,NA,"",   814.799E+03,   901.351E+03,   901.351E+03
C:/temp/Job-1.odb,Step-1,Increment      1: Step Time =    1.000,"P-1-1",          9848,   89.1836E-03,   179.334E-03,            0.,NA,NA,"",   989.359E+03,   995.338E+03,   995.338E+03
C:/temp/Job-1.odb,Step-1,Increment      1: Step Time =    1.000,"P-1-1",          9849,   132.485E-03,   120.911E-03,            0.,NA,NA,"",   1.10149E+06,   1.04557E+06,   1.04557E+06
C:/temp/Job-1.odb,Step-1,Increment      1: Step Time =    1.000,"P-1-1",          9850,   130.090E-03,   121.471E-03,            0.,NA,NA,"",   1.13440E+06,   1.07091E+06,   1.07091E+06
C:/temp/Job-1.odb,Step-1,Increment      1: Step Time =    1.000,"P-1-1",          9851,   64.2871E-03,   24.6014E-03,            0.,NA,NA,"",   1.02911E+06,   1.03135E+06,   1.03135E+06
C:/temp/Job-1.odb,Step-1,Increment      1: Step Time =    1.000,"P-1-1",          9852,   176.813E-03,   63.8655E-03,            0.,NA,NA,"",   1.00337E+06,   1.00648E+06,   1.00648E+06
C:/temp/Job-1.odb,Step-1,Increment      1: Step Time =    1.000,"P-1-1",          9853,   135.528E-03,   175.817E-03,            0.,NA,NA,"",   1.01534E+06,   1.01214E+06,   1.01214E+06
C:/temp/Job-1.odb,Step-1,Increment      1: Step Time =    1.000,"P-1-1",          9854,   23.6365E-03,   136.180E-03,            0.,NA,NA,"",   894.558E+03,   968.388E+03,   968.388E+03
C:/temp/Job-1.odb,Step-1,Increment      1: Step Time =    1.000,"P-1-1",          9855,   132.122E-03,   94.9425E-03,            0.,NA,NA,"",   739.650E+03,   740.597E+03,   740.597E+03
C:/temp/Job-1.odb,Step-1,Increment      1: Step Time =    1.000,"P-1-1",          9856,   160.797E-03,   23.4481E-03,            0.,NA,NA,"",   1.01280E+06,   1.00923E+06,   1.00923E+06
C:/temp/Job-1.odb,Step-1,Increment      1: Step Time =    1.000,"P-1-1",          9857,   165.528E-03,   18.9468E-03,            0.,NA,NA,"",   1.00656E+06,   1.00454E+06,   1.00454E+06
C:/temp/Job-1.odb,Step-1,Increment      1: Step Time =    1.000,"P-1-1",          9858,   102.779E-03,   137.089E-03,            0.,NA,NA,"",   1.04981E+06,   1.11387E+06,   1.11387E+06
C:/temp/Job-1.odb,Step-1,Increment      1: Step Time =    1.000,"P-1-1",          9859,   97.7051E-03,   136.366E-03,            0.,NA,NA,"",   1.05004E+06,   1.11833E+06,   1.11833E+06
C:/temp/Job-1.odb,Step-1,Increment      1: Step Time =    1.000,"P-1-1",          9860,   137.911E-03,   113.423E-03,            0.,NA,NA,"",   943.135E+03,   920.946E+03,   920.946E+03
C:/temp/Job-1.odb,Step-1,Increment      1: Step Time =    1.000,"P-1-1",          9861,   119.230E-03,   129.276E-03,            0.,NA,NA,"",   1.21787E+06,   1.18859E+06,   1.18859E+06
C:/temp/Job-1.odb,Step-1,Increment      1: Step Time =    1.000,"P-1-1",          9862,   128.825E-03,   96.7667E-03,            0.,NA,NA,"",   642.451E+03,   648.437E+03,   648.437E+03
C:/temp/Job-1.odb,Step-1,Increment      1: Step Time =    1.000,"P-1-1",          9863,   23.8753E-03,   121.996E-03,            0.,NA,NA,"",   848.376E+03,   927.876E+03,   927.876E+03
C:/temp/Job-1.odb,Step-1,Increment      1: Step Time =    1.000,"P-1-1",          9864,   122.915E-03,   177.165E-03,            0.,NA,NA,"",   1.00276E+06,   1.00404E+06,   1.00404E+06
C:/temp/Job-1.odb,Step-1,Increment      1: Step Time =    1.000,"P-1-1",          9865,   126.215E-03,   176.486E-03,            0.,NA,NA,"",   1.00725E+06,   1.00726E+06,   1.00726E+06
C:/temp/Job-1.odb,Step-1,Increment      1: Step Time =    1.000,"P-1-1",          9866,   23.1089E-03,   125.241E-03,            0.,NA,NA,"",   856.207E+03,   935.568E+03,   935.568E+03
C:/temp/Job-1.odb,Step-1,Increment      1: Step Time =    1.000,"P-1-1",          9867,   177.114E-03,   94.6569E-03,            0.,NA,NA,"",   963.129E+03,   979.604E+03,   979.604E+03
C:/temp/Job-1.odb,Step-1,Increment      1: Step Time =    1.000,"P-1-1",          9868,   77.7516E-03,   22.7565E-03,            0.,NA,NA,"",   1.00723E+06,   1.01135E+06,   1.01135E+06
C:/temp/Job-1.odb,Step-1,Increment      1: Step Time =    1.000,"P-1-1",          9869,   37.0553E-03,   175.695E-03,            0.,NA,NA,"",   1.04934E+06,   1.06541E+06,   1.06541E+06
C:/temp/Job-1.odb,Step-1,Increment      1: Step Time =    1.000,"P-1-1",          9870,   177.521E-03,   76.9876E-03,            0.,NA,NA,"",   985.377E+03,   995.060E+03,   995.060E+03
C:/temp/Job-1.odb,Step-1,Increment      1: Step Time =    1.000,"P-1-1",          9871,   176.360E-03,   161.730E-03,            0.,NA,NA,"",   1.01160E+06,   1.00991E+06,   1.00991E+06
C:/temp/Job-1.odb,Step-1,Increment      1: Step Time =    1.000,"P-1-1",          9872,   23.8067E-03,   37.5763E-03,            0.,NA,NA,"",   990.545E+03,   1.04662E+06,   1.04662E+06
C:/temp/Job-1.odb,Step-1,Increment      1: Step Time =    1.000,"P-1-1",          9873,   66.0538E-03,   104.350E-03,            0.,NA,NA,"",   697.236E+03,   734.605E+03,   734.605E+03
C:/temp/Job-1.odb,Step-1,Increment      1: Step Time =    1.000,"P-1-1",          9874,   175.924E-03,   127.391E-03,            0.,NA,NA,"",   993.001E+03,   999.248E+03,   999.248E+03
C:/temp/Job-1.odb,Step-1,Increment      1: Step Time =    1.000,"P-1-1",          9875,   126.745E-03,   24.0903E-03,            0.,NA,NA,"",   1.00918E+06,   1.00898E+06,   1.00898E+06
C:/temp/Job-1.odb,Step-1,Increment      1: Step Time =    1.000,"P-1-1",          9876,   175.036E-03,   41.3197E-03,            0.,NA,NA,"",   1.01397E+06,   1.01176E+06,   1.01176E+06
C:/temp/Job-1.odb,Step-1,Increment      1: Step Time =    1.000,"P-1-1",          9877,   73.3260E-03,   175.975E-03,            0.,NA,NA,"",   1.01657E+06,   1.01988E+06,   1.01988E+06
C:/temp/Job-1.odb,Step-1,Increment      1: Step Time =    1.000,"P-1-1",          9878,   23.8986E-03,   73.0172E-03,            0.,NA,NA,"",   864.138E+03,   941.683E+03,   941.683E+03
C:/temp/Job-1.odb,Step-1,Increment      1: Step Time =    1.000,"P-1-1",          9879,   41.0784E-03,   24.2710E-03,            0.,NA,NA,"",   1.04738E+06,   1.05926E+06,   1.05926E+06
C:/temp/Job-1.odb,Step-1,Increment      1: Step Time =    1.000,"P-1-1",          9880,   137.742E-03,   106.769E-03,            0.,NA,NA,"",   824.211E+03,   825.849E+03,   825.849E+03
C:/temp/Job-1.odb,Step-1,Increment      1: Step Time =    1.000,"P-1-1",          9881,   158.495E-03,   174.668E-03,            0.,NA,NA,"",   1.01625E+06,   1.01185E+06,   1.01185E+06
C:/temp/Job-1.odb,Step-1,Increment      1: Step Time =    1.000,"P-1-1",          9882,   137.167E-03,   100.977E-03,            0.,NA,NA,"",   757.752E+03,   772.346E+03,   772.346E+03
C:/temp/Job-1.odb,Step-1,Increment      1: Step Time =    1.000,"P-1-1",          9883,   174.677E-03,   88.6383E-03,            0.,NA,NA,"",   966.659E+03,   979.975E+03,   979.975E+03
C:/temp/Job-1.odb,Step-1,Increment      1: Step Time =    1.000,"P-1-1",          9884,   25.7651E-03,   54.7917E-03,            0.,NA,NA,"",   934.398E+03,   999.455E+03,   999.455E+03
C:/temp/Job-1.odb,Step-1,Increment      1: Step Time =    1.000,"P-1-1",          9885,   68.9723E-03,   77.2488E-03,            0.,NA,NA,"",   1.09098E+06,   1.06316E+06,   1.06316E+06
C:/temp/Job-1.odb,Step-1,Increment      1: Step Time =    1.000,"P-1-1",          9886,   56.6148E-03,   175.034E-03,            0.,NA,NA,"",   1.03723E+06,   1.04058E+06,   1.04058E+06
C:/temp/Job-1.odb,Step-1,Increment      1: Step Time =    1.000,"P-1-1",          9887,   176.173E-03,   137.443E-03,            0.,NA,NA,"",   1.00551E+06,   1.00767E+06,   1.00767E+06
C:/temp/Job-1.odb,Step-1,Increment      1: Step Time =    1.000,"P-1-1",          9888,   136.962E-03,   24.1024E-03,            0.,NA,NA,"",   1.01578E+06,   1.01229E+06,   1.01229E+06
C:/temp/Job-1.odb,Step-1,Increment      1: Step Time =    1.000,"P-1-1",          9889,   63.7359E-03,   102.645E-03,            0.,NA,NA,"",   703.192E+03,   747.460E+03,   747.460E+03
C:/temp/Job-1.odb,Step-1,Increment      1: Step Time =    1.000,"P-1-1",          9890,   175.861E-03,   171.832E-03,            0.,NA,NA,"",   1.00817E+06,   1.00663E+06,   1.00663E+06
C:/temp/Job-1.odb,Step-1,Increment      1: Step Time =    1.000,"P-1-1",          9891,   23.9210E-03,   28.2091E-03,            0.,NA,NA,"",   1.03138E+06,   1.07539E+06,   1.07539E+06
C:/temp/Job-1.odb,Step-1,Increment      1: Step Time =    1.000,"P-1-1",          9892,   23.7992E-03,   32.6778E-03,            0.,NA,NA,"",   1.01130E+06,   1.06177E+06,   1.06177E+06
C:/temp/Job-1.odb,Step-1,Increment      1: Step Time =    1.000,"P-1-1",          9893,   175.098E-03,   167.579E-03,            0.,NA,NA,"",   1.01066E+06,   1.00870E+06,   1.00870E+06
C:/temp/Job-1.odb,Step-1,Increment      1: Step Time =    1.000,"P-1-1",          9894,   109.203E-03,   136.002E-03,            0.,NA,NA,"",   1.09395E+06,   1.13675E+06,   1.13675E+06
C:/temp/Job-1.odb,Step-1,Increment      1: Step Time =    1.000,"P-1-1",          9895,   84.0137E-03,   75.4690E-03,            0.,NA,NA,"",   1.26259E+06,   1.24374E+06,   1.24374E+06
C:/temp/Job-1.odb,Step-1,Increment      1: Step Time =    1.000,"P-1-1",          9896,   67.0911E-03,   115.417E-03,            0.,NA,NA,"",   956.367E+03,   945.284E+03,   945.284E+03
C:/temp/Job-1.odb,Step-1,Increment      1: Step Time =    1.000,"P-1-1",          9897,   81.2659E-03,   73.6233E-03,            0.,NA,NA,"",   1.22962E+06,   1.20463E+06,   1.20463E+06
C:/temp/Job-1.odb,Step-1,Increment      1: Step Time =    1.000,"P-1-1",          9898,   129.484E-03,   92.4298E-03,            0.,NA,NA,"",   793.515E+03,   770.505E+03,   770.505E+03
C:/temp/Job-1.odb,Step-1,Increment      1: Step Time =    1.000,"P-1-1",          9899,   77.1659E-03,   75.5377E-03,            0.,NA,NA,"",   1.20502E+06,   1.16164E+06,   1.16164E+06
C:/temp/Job-1.odb,Step-1,Increment      1: Step Time =    1.000,"P-1-1",          9900,   133.336E-03,   25.1590E-03,            0.,NA,NA,"",   1.01649E+06,   1.01372E+06,   1.01372E+06
C:/temp/Job-1.odb,Step-1,Increment      1: Step Time =    1.000,"P-1-1",          9901,   67.3276E-03,   85.4640E-03,            0.,NA,NA,"",   937.877E+03,   928.650E+03,   928.650E+03
C:/temp/Job-1.odb,Step-1,Increment      1: Step Time =    1.000,"P-1-1",          9902,   66.3313E-03,   82.9179E-03,            0.,NA,NA,"",   981.861E+03,   970.201E+03,   970.201E+03
C:/temp/Job-1.odb,Step-1,Increment      1: Step Time =    1.000,"P-1-1",          9903,   175.536E-03,   135.371E-03,            0.,NA,NA,"",   1.00426E+06,   1.00667E+06,   1.00667E+06
C:/temp/Job-1.odb,Step-1,Increment      1: Step Time =    1.000,"P-1-1",          9904,   84.6128E-03,   136.212E-03,            0.,NA,NA,"",   1.13001E+06,   1.14898E+06,   1.14898E+06
C:/temp/Job-1.odb,Step-1,Increment      1: Step Time =    1.000,"P-1-1",          9905,   25.1635E-03,   65.9539E-03,            0.,NA,NA,"",   892.462E+03,   964.895E+03,   964.895E+03
C:/temp/Job-1.odb,Step-1,Increment      1: Step Time =    1.000,"P-1-1",          9906,   65.4471E-03,   176.069E-03,            0.,NA,NA,"",   1.02595E+06,   1.02811E+06,   1.02811E+06
C:/temp/Job-1.odb,Step-1,Increment      1: Step Time =    1.000,"P-1-1",          9907,   170.333E-03,   24.0887E-03,            0.,NA,NA,"",   1.00898E+06,   1.00679E+06,   1.00679E+06
C:/temp/Job-1.odb,Step-1,Increment      1: Step Time =    1.000,"P-1-1",          9908,   86.6681E-03,   23.5982E-03,            0.,NA,NA,"",   998.677E+03,   1.00557E+06,   1.00557E+06
C:/temp/Job-1.odb,Step-1,Increment      1: Step Time =    1.000,"P-1-1",          9909,   28.0670E-03,   175.795E-03,            0.,NA,NA,"",   1.05124E+06,   1.08055E+06,   1.08055E+06
C:/temp/Job-1.odb,Step-1,Increment      1: Step Time =    1.000,"P-1-1",          9910,   115.410E-03,   23.7216E-03,            0.,NA,NA,"",   997.756E+03,   1.00239E+06,   1.00239E+06
C:/temp/Job-1.odb,Step-1,Increment      1: Step Time =    1.000,"P-1-1",          9911,   141.539E-03,   24.4513E-03,            0.,NA,NA,"",   1.01785E+06,   1.01342E+06,   1.01342E+06
C:/temp/Job-1.odb,Step-1,Increment      1: Step Time =    1.000,"P-1-1",          9912,   174.948E-03,   141.640E-03,            0.,NA,NA,"",   1.01061E+06,   1.01065E+06,   1.01065E+06
C:/temp/Job-1.odb,Step-1,Increment      1: Step Time =    1.000,"P-1-1",          9913,   174.874E-03,   115.384E-03,            0.,NA,NA,"",   973.064E+03,   984.637E+03,   984.637E+03
C:/temp/Job-1.odb,Step-1,Increment      1: Step Time =    1.000,"P-1-1",          9914,   23.9092E-03,   84.5068E-03,            0.,NA,NA,"",   830.759E+03,   912.334E+03,   912.334E+03
C:/temp/Job-1.odb,Step-1,Increment      1: Step Time =    1.000,"P-1-1",          9915,   24.6528E-03,   113.295E-03,            0.,NA,NA,"",   826.749E+03,   908.085E+03,   908.085E+03
C:/temp/Job-1.odb,Step-1,Increment      1: Step Time =    1.000,"P-1-1",          9916,   113.778E-03,   175.466E-03,            0.,NA,NA,"",   998.040E+03,   1.00367E+06,   1.00367E+06
C:/temp/Job-1.odb,Step-1,Increment      1: Step Time =    1.000,"P-1-1",          9917,   84.5800E-03,   176.454E-03,            0.,NA,NA,"",   1.00077E+06,   1.00719E+06,   1.00719E+06
C:/temp/Job-1.odb,Step-1,Increment      1: Step Time =    1.000,"P-1-1",          9918,   175.603E-03,   67.5395E-03,            0.,NA,NA,"",   1.00058E+06,   1.00427E+06,   1.00427E+06
C:/temp/Job-1.odb,Step-1,Increment      1: Step Time =    1.000,"P-1-1",          9919,   67.5912E-03,   24.9675E-03,            0.,NA,NA,"",   1.02619E+06,   1.02868E+06,   1.02868E+06
C:/temp/Job-1.odb,Step-1,Increment      1: Step Time =    1.000,"P-1-1",          9920,   174.179E-03,   25.2499E-03,            0.,NA,NA,"",   1.00770E+06,   1.00605E+06,   1.00605E+06
C:/temp/Job-1.odb,Step-1,Increment      1: Step Time =    1.000,"P-1-1",          9921,   166.304E-03,   175.940E-03,            0.,NA,NA,"",   1.01102E+06,   1.00814E+06,   1.00814E+06
C:/temp/Job-1.odb,Step-1,Increment      1: Step Time =    1.000,"P-1-1",          9922,   164.119E-03,   174.941E-03,            0.,NA,NA,"",   1.01311E+06,   1.00966E+06,   1.00966E+06
C:/temp/Job-1.odb,Step-1,Increment      1: Step Time =    1.000,"P-1-1",          9923,   34.3977E-03,   25.1227E-03,            0.,NA,NA,"",   1.04907E+06,   1.06950E+06,   1.06950E+06
C:/temp/Job-1.odb,Step-1,Increment      1: Step Time =    1.000,"P-1-1",          9924,   176.531E-03,   175.227E-03,            0.,NA,NA,"",   1.00619E+06,   1.00497E+06,   1.00497E+06
C:/temp/Job-1.odb,Step-1,Increment      1: Step Time =    1.000,"P-1-1",          9925,   35.8820E-03,   24.8770E-03,            0.,NA,NA,"",   1.04907E+06,   1.06726E+06,   1.06726E+06
C:/temp/Job-1.odb,Step-1,Increment      1: Step Time =    1.000,"P-1-1",          9926,   174.729E-03,   32.5853E-03,            0.,NA,NA,"",   1.01111E+06,   1.00902E+06,   1.00902E+06
C:/temp/Job-1.odb,Step-1,Increment      1: Step Time =    1.000,"P-1-1",          9927,   175.328E-03,   35.2237E-03,            0.,NA,NA,"",   1.01168E+06,   1.00965E+06,   1.00965E+06
C:/temp/Job-1.odb,Step-1,Increment      1: Step Time =    1.000,"P-1-1",          9928,   23.0987E-03,   25.1676E-03,            0.,NA,NA,"",   1.04397E+06,   1.08508E+06,   1.08508E+06
C:/temp/Job-1.odb,Step-1,Increment      1: Step Time =    1.000,"P-1-1",          9929,   26.0218E-03,   175.084E-03,            0.,NA,NA,"",   1.04781E+06,   1.08221E+06,   1.08221E+06
C:/temp/Job-1.odb,Step-1,Increment      1: Step Time =    1.000,"P-1-1",          9930,   87.8995E-03,   24.2554E-03,            0.,NA,NA,"",   998.689E+03,   1.00629E+06,   1.00629E+06
C:/temp/Job-1.odb,Step-1,Increment      1: Step Time =    1.000,"P-1-1",          9931,   116.594E-03,   24.1055E-03,            0.,NA,NA,"",   999.704E+03,   1.00396E+06,   1.00396E+06
C:/temp/Job-1.odb,Step-1,Increment      1: Step Time =    1.000,"P-1-1",          9932,   144.651E-03,   24.8616E-03,            0.,NA,NA,"",   1.01915E+06,   1.01426E+06,   1.01426E+06
C:/temp/Job-1.odb,Step-1,Increment      1: Step Time =    1.000,"P-1-1",          9933,   175.624E-03,   143.670E-03,            0.,NA,NA,"",   1.01100E+06,   1.01094E+06,   1.01094E+06
C:/temp/Job-1.odb,Step-1,Increment      1: Step Time =    1.000,"P-1-1",          9934,   24.9117E-03,   166.099E-03,            0.,NA,NA,"",   1.00901E+06,   1.05837E+06,   1.05837E+06
C:/temp/Job-1.odb,Step-1,Increment      1: Step Time =    1.000,"P-1-1",          9935,   24.6300E-03,   163.721E-03,            0.,NA,NA,"",   998.689E+03,   1.05137E+06,   1.05137E+06
C:/temp/Job-1.odb,Step-1,Increment      1: Step Time =    1.000,"P-1-1",          9936,   174.956E-03,   117.427E-03,            0.,NA,NA,"",   976.607E+03,   987.193E+03,   987.193E+03
C:/temp/Job-1.odb,Step-1,Increment      1: Step Time =    1.000,"P-1-1",          9937,   23.7619E-03,   29.6324E-03,            0.,NA,NA,"",   1.02470E+06,   1.07117E+06,   1.07117E+06
C:/temp/Job-1.odb,Step-1,Increment      1: Step Time =    1.000,"P-1-1",          9938,   24.3444E-03,   82.7045E-03,            0.,NA,NA,"",   836.023E+03,   916.556E+03,   916.556E+03
C:/temp/Job-1.odb,Step-1,Increment      1: Step Time =    1.000,"P-1-1",          9939,   24.1098E-03,   112.389E-03,            0.,NA,NA,"",   823.973E+03,   906.140E+03,   906.140E+03
C:/temp/Job-1.odb,Step-1,Increment      1: Step Time =    1.000,"P-1-1",          9940,   112.282E-03,   175.231E-03,            0.,NA,NA,"",   997.319E+03,   1.00373E+06,   1.00373E+06
C:/temp/Job-1.odb,Step-1,Increment      1: Step Time =    1.000,"P-1-1",          9941,   82.0005E-03,   175.222E-03,            0.,NA,NA,"",   1.00681E+06,   1.01290E+06,   1.01290E+06
C:/temp/Job-1.odb,Step-1,Increment      1: Step Time =    1.000,"P-1-1",          9942,   176.469E-03,   59.2281E-03,            0.,NA,NA,"",   1.00792E+06,   1.00921E+06,   1.00921E+06
C:/temp/Job-1.odb,Step-1,Increment      1: Step Time =    1.000,"P-1-1",          9943,   59.2961E-03,   25.2642E-03,            0.,NA,NA,"",   1.03561E+06,   1.03845E+06,   1.03845E+06
C:/temp/Job-1.odb,Step-1,Increment      1: Step Time =    1.000,"P-1-1",          9944,   176.172E-03,   170.345E-03,            0.,NA,NA,"",   1.00860E+06,   1.00705E+06,   1.00705E+06
C:/temp/Job-1.odb,Step-1,Increment      1: Step Time =    1.000,"P-1-1",          9945,   108.138E-03,   24.0322E-03,            0.,NA,NA,"",   992.936E+03,   1.00039E+06,   1.00039E+06
C:/temp/Job-1.odb,Step-1,Increment      1: Step Time =    1.000,"P-1-1",          9946,   141.467E-03,   175.773E-03,            0.,NA,NA,"",   1.01721E+06,   1.01289E+06,   1.01289E+06
C:/temp/Job-1.odb,Step-1,Increment      1: Step Time =    1.000,"P-1-1",          9947,   24.8694E-03,   91.6986E-03,            0.,NA,NA,"",   817.867E+03,   900.025E+03,   900.025E+03
C:/temp/Job-1.odb,Step-1,Increment      1: Step Time =    1.000,"P-1-1",          9948,   175.630E-03,   108.341E-03,            0.,NA,NA,"",   964.084E+03,   979.043E+03,   979.043E+03
C:/temp/Job-1.odb,Step-1,Increment      1: Step Time =    1.000,"P-1-1",          9949,   105.040E-03,   24.4672E-03,            0.,NA,NA,"",   992.400E+03,   1.00093E+06,   1.00093E+06
C:/temp/Job-1.odb,Step-1,Increment      1: Step Time =    1.000,"P-1-1",          9950,   24.5736E-03,   141.706E-03,            0.,NA,NA,"",   917.216E+03,   986.645E+03,   986.645E+03
C:/temp/Job-1.odb,Step-1,Increment      1: Step Time =    1.000,"P-1-1",          9951,   92.6952E-03,   174.469E-03,            0.,NA,NA,"",   996.907E+03,   1.00649E+06,   1.00649E+06
C:/temp/Job-1.odb,Step-1,Increment      1: Step Time =    1.000,"P-1-1",          9952,   112.158E-03,   135.708E-03,            0.,NA,NA,"",   1.11859E+06,   1.14598E+06,   1.14598E+06
C:/temp/Job-1.odb,Step-1,Increment      1: Step Time =    1.000,"P-1-1",          9953,   24.9788E-03,   95.1303E-03,            0.,NA,NA,"",   814.061E+03,   896.528E+03,   896.528E+03
C:/temp/Job-1.odb,Step-1,Increment      1: Step Time =    1.000,"P-1-1",          9954,   175.807E-03,   101.420E-03,            0.,NA,NA,"",   959.727E+03,   975.995E+03,   975.995E+03
C:/temp/Job-1.odb,Step-1,Increment      1: Step Time =    1.000,"P-1-1",          9955,   173.951E-03,   105.283E-03,            0.,NA,NA,"",   959.298E+03,   974.150E+03,   974.150E+03
C:/temp/Job-1.odb,Step-1,Increment      1: Step Time =    1.000,"P-1-1",          9956,   99.2811E-03,   176.634E-03,            0.,NA,NA,"",   989.834E+03,   998.397E+03,   998.397E+03
C:/temp/Job-1.odb,Step-1,Increment      1: Step Time =    1.000,"P-1-1",          9957,   22.4807E-03,   40.7751E-03,            0.,NA,NA,"",   972.519E+03,   1.03452E+06,   1.03452E+06
C:/temp/Job-1.odb,Step-1,Increment      1: Step Time =    1.000,"P-1-1",          9958,   95.4543E-03,   174.490E-03,            0.,NA,NA,"",   995.078E+03,   1.00497E+06,   1.00497E+06
C:/temp/Job-1.odb,Step-1,Increment      1: Step Time =    1.000,"P-1-1",          9959,   177.963E-03,   160.082E-03,            0.,NA,NA,"",   1.01027E+06,   1.00920E+06,   1.00920E+06
C:/temp/Job-1.odb,Step-1,Increment      1: Step Time =    1.000,"P-1-1",          9960,   24.4929E-03,   100.005E-03,            0.,NA,NA,"",   811.152E+03,   894.408E+03,   894.408E+03
C:/temp/Job-1.odb,Step-1,Increment      1: Step Time =    1.000,"P-1-1",          9961,   39.8657E-03,   178.598E-03,            0.,NA,NA,"",   1.04826E+06,   1.05877E+06,   1.05877E+06
C:/temp/Job-1.odb,Step-1,Increment      1: Step Time =    1.000,"P-1-1",          9962,   176.356E-03,   80.3384E-03,            0.,NA,NA,"",   980.284E+03,   990.771E+03,   990.771E+03
C:/temp/Job-1.odb,Step-1,Increment      1: Step Time =    1.000,"P-1-1",          9963,   175.523E-03,   81.6441E-03,            0.,NA,NA,"",   978.129E+03,   988.693E+03,   988.693E+03
C:/temp/Job-1.odb,Step-1,Increment      1: Step Time =    1.000,"P-1-1",          9964,   99.8123E-03,   24.7280E-03,            0.,NA,NA,"",   992.275E+03,   1.00157E+06,   1.00157E+06
C:/temp/Job-1.odb,Step-1,Increment      1: Step Time =    1.000,"P-1-1",          9965,   74.3582E-03,   126.935E-03,            0.,NA,NA,"",   1.16984E+06,   1.13697E+06,   1.13697E+06
C:/temp/Job-1.odb,Step-1,Increment      1: Step Time =    1.000,"P-1-1",          9966,   79.1716E-03,   23.5415E-03,            0.,NA,NA,"",   1.00747E+06,   1.01217E+06,   1.01217E+06
C:/temp/Job-1.odb,Step-1,Increment      1: Step Time =    1.000,"P-1-1",          9967,   81.1480E-03,   24.6464E-03,            0.,NA,NA,"",   1.00768E+06,   1.01341E+06,   1.01341E+06
C:/temp/Job-1.odb,Step-1,Increment      1: Step Time =    1.000,"P-1-1",          9968,   36.0930E-03,   174.515E-03,            0.,NA,NA,"",   1.04832E+06,   1.06684E+06,   1.06684E+06
C:/temp/Job-1.odb,Step-1,Increment      1: Step Time =    1.000,"P-1-1",          9969,   34.0403E-03,   174.401E-03,            0.,NA,NA,"",   1.04841E+06,   1.06986E+06,   1.06986E+06
C:/temp/Job-1.odb,Step-1,Increment      1: Step Time =    1.000,"P-1-1",          9970,   115.477E-03,   135.503E-03,            0.,NA,NA,"",   1.14393E+06,   1.15221E+06,   1.15221E+06
C:/temp/Job-1.odb,Step-1,Increment      1: Step Time =    1.000,"P-1-1",          9971,   121.531E-03,   176.652E-03,            0.,NA,NA,"",   1.00265E+06,   1.00452E+06,   1.00452E+06
C:/temp/Job-1.odb,Step-1,Increment      1: Step Time =    1.000,"P-1-1",          9972,   23.8826E-03,   120.760E-03,            0.,NA,NA,"",   844.737E+03,   924.670E+03,   924.670E+03
C:/temp/Job-1.odb,Step-1,Increment      1: Step Time =    1.000,"P-1-1",          9973,   25.4944E-03,   118.418E-03,            0.,NA,NA,"",   841.835E+03,   920.503E+03,   920.503E+03
C:/temp/Job-1.odb,Step-1,Increment      1: Step Time =    1.000,"P-1-1",          9974,   85.9789E-03,   74.3470E-03,            0.,NA,NA,"",   1.24773E+06,   1.24932E+06,   1.24932E+06
C:/temp/Job-1.odb,Step-1,Increment      1: Step Time =    1.000,"P-1-1",          9975,   25.1095E-03,   53.0971E-03,            0.,NA,NA,"",   937.442E+03,   1.00289E+06,   1.00289E+06
C:/temp/Job-1.odb,Step-1,Increment      1: Step Time =    1.000,"P-1-1",          9976,   176.154E-03,   92.3334E-03,            0.,NA,NA,"",   963.779E+03,   979.195E+03,   979.195E+03
C:/temp/Job-1.odb,Step-1,Increment      1: Step Time =    1.000,"P-1-1",          9977,   53.2912E-03,   175.568E-03,            0.,NA,NA,"",   1.03898E+06,   1.04322E+06,   1.04322E+06
C:/temp/Job-1.odb,Step-1,Increment      1: Step Time =    1.000,"P-1-1",          9978,   162.100E-03,   24.2626E-03,            0.,NA,NA,"",   1.01321E+06,   1.00962E+06,   1.00962E+06
C:/temp/Job-1.odb,Step-1,Increment      1: Step Time =    1.000,"P-1-1",          9979,   131.145E-03,   25.2379E-03,            0.,NA,NA,"",   1.01539E+06,   1.01333E+06,   1.01333E+06
C:/temp/Job-1.odb,Step-1,Increment      1: Step Time =    1.000,"P-1-1",          9980,   174.773E-03,   132.084E-03,            0.,NA,NA,"",   1.00100E+06,   1.00422E+06,   1.00422E+06
C:/temp/Job-1.odb,Step-1,Increment      1: Step Time =    1.000,"P-1-1",          9981,   23.2657E-03,   68.4176E-03,            0.,NA,NA,"",   877.181E+03,   953.814E+03,   953.814E+03
C:/temp/Job-1.odb,Step-1,Increment      1: Step Time =    1.000,"P-1-1",          9982,   76.8483E-03,   20.6045E-03,            0.,NA,NA,"",   1.00252E+06,   1.00581E+06,   1.00581E+06
C:/temp/Job-1.odb,Step-1,Increment      1: Step Time =    1.000,"P-1-1",          9983,   69.1325E-03,   175.133E-03,            0.,NA,NA,"",   1.02396E+06,   1.02664E+06,   1.02664E+06
C:/temp/Job-1.odb,Step-1,Increment      1: Step Time =    1.000,"P-1-1",          9984,   38.5100E-03,   178.597E-03,            0.,NA,NA,"",   1.04973E+06,   1.06144E+06,   1.06144E+06
C:/temp/Job-1.odb,Step-1,Increment      1: Step Time =    1.000,"P-1-1",          9985,   178.269E-03,   75.8121E-03,            0.,NA,NA,"",   986.704E+03,   996.388E+03,   996.388E+03
C:/temp/Job-1.odb,Step-1,Increment      1: Step Time =    1.000,"P-1-1",          9986,   178.172E-03,   161.521E-03,            0.,NA,NA,"",   1.00976E+06,   1.00870E+06,   1.00870E+06
C:/temp/Job-1.odb,Step-1,Increment      1: Step Time =    1.000,"P-1-1",          9987,   21.7096E-03,   38.7771E-03,            0.,NA,NA,"",   977.898E+03,   1.03988E+06,   1.03988E+06
C:/temp/Job-1.odb,Step-1,Increment      1: Step Time =    1.000,"P-1-1",          9988,   86.8853E-03,   137.009E-03,            0.,NA,NA,"",   1.11160E+06,   1.14092E+06,   1.14092E+06
C:/temp/Job-1.odb,Step-1,Increment      1: Step Time =    1.000,"P-1-1",          9989,   165.455E-03,   24.3767E-03,            0.,NA,NA,"",   1.01161E+06,   1.00856E+06,   1.00856E+06
C:/temp/Job-1.odb,Step-1,Increment      1: Step Time =    1.000,"P-1-1",          9990,   70.8700E-03,   76.8180E-03,            0.,NA,NA,"",   1.11533E+06,   1.08205E+06,   1.08205E+06
C:/temp/Job-1.odb,Step-1,Increment      1: Step Time =    1.000,"P-1-1",          9991,   73.2470E-03,   74.3953E-03,            0.,NA,NA,"",   1.15724E+06,   1.12222E+06,   1.12222E+06
C:/temp/Job-1.odb,Step-1,Increment      1: Step Time =    1.000,"P-1-1",          9992,   123.455E-03,   83.1969E-03,            0.,NA,NA,"",   1.18579E+06,   1.08755E+06,   1.08755E+06
C:/temp/Job-1.odb,Step-1,Increment      1: Step Time =    1.000,"P-1-1",          9993,   175.553E-03,   86.2641E-03,            0.,NA,NA,"",   970.869E+03,   983.690E+03,   983.690E+03
C:/temp/Job-1.odb,Step-1,Increment      1: Step Time =    1.000,"P-1-1",          9994,   25.5609E-03,   58.5014E-03,            0.,NA,NA,"",   920.425E+03,   988.088E+03,   988.088E+03
C:/temp/Job-1.odb,Step-1,Increment      1: Step Time =    1.000,"P-1-1",          9995,   58.0987E-03,   175.286E-03,            0.,NA,NA,"",   1.03537E+06,   1.03825E+06,   1.03825E+06
C:/temp/Job-1.odb,Step-1,Increment      1: Step Time =    1.000,"P-1-1",          9996,   66.6622E-03,   99.0581E-03,            0.,NA,NA,"",   652.216E+03,   695.820E+03,   695.820E+03
C:/temp/Job-1.odb,Step-1,Increment      1: Step Time =    1.000,"P-1-1",          9997,   23.9462E-03,   35.9248E-03,            0.,NA,NA,"",   997.751E+03,   1.05178E+06,   1.05178E+06
C:/temp/Job-1.odb,Step-1,Increment      1: Step Time =    1.000,"P-1-1",          9998,   175.472E-03,   163.742E-03,            0.,NA,NA,"",   1.01188E+06,   1.00989E+06,   1.00989E+06
C:/temp/Job-1.odb,Step-1,Increment      1: Step Time =    1.000,"P-1-1",          9999,   173.683E-03,   175.521E-03,            0.,NA,NA,"",   1.00745E+06,   1.00580E+06,   1.00580E+06
C:/temp/Job-1.odb,Step-1,Increment      1: Step Time =    1.000,"P-1-1",         10000,   26.8089E-03,   23.6745E-03,            0.,NA,NA,"",   1.05259E+06,   1.08346E+06,   1.08346E+06
C:/temp/Job-1.odb,Step-1,Increment      1: Step Time =    1.000,"P-1-1",         10001,   175.899E-03,   26.3416E-03,            0.,NA,NA,"",   1.00719E+06,   1.00577E+06,   1.00577E+06
C:/temp/Job-1.odb,Step-1,Increment      1: Step Time =    1.000,"P-1-1",         10002,   175.349E-03,   57.2050E-03,            0.,NA,NA,"",   1.01086E+06,   1.01085E+06,   1.01085E+06
C:/temp/Job-1.odb,Step-1,Increment      1: Step Time =    1.000,"P-1-1",         10003,   56.0749E-03,   24.8151E-03,            0.,NA,NA,"",   1.03740E+06,   1.04083E+06,   1.04083E+06
C:/temp/Job-1.odb,Step-1,Increment      1: Step Time =    1.000,"P-1-1",         10004,   24.0264E-03,   173.012E-03,            0.,NA,NA,"",   1.03680E+06,   1.07878E+06,   1.07878E+06
C:/temp/Job-1.odb,Step-1,Increment      1: Step Time =    1.000,"P-1-1",         10005,   178.814E-03,   95.7492E-03,            0.,NA,NA,"",   964.232E+03,   981.898E+03,   981.898E+03
C:/temp/Job-1.odb,Step-1,Increment      1: Step Time =    1.000,"P-1-1",         10006,   168.296E-03,   24.4632E-03,            0.,NA,NA,"",   1.01034E+06,   1.00774E+06,   1.00774E+06
C:/temp/Job-1.odb,Step-1,Increment      1: Step Time =    1.000,"P-1-1",         10007,   144.104E-03,   175.670E-03,            0.,NA,NA,"",   1.01767E+06,   1.01304E+06,   1.01304E+06
C:/temp/Job-1.odb,Step-1,Increment      1: Step Time =    1.000,"P-1-1",         10008,   138.057E-03,   23.6272E-03,            0.,NA,NA,"",   1.01501E+06,   1.01144E+06,   1.01144E+06
C:/temp/Job-1.odb,Step-1,Increment      1: Step Time =    1.000,"P-1-1",         10009,   176.318E-03,   138.252E-03,            0.,NA,NA,"",   1.00596E+06,   1.00800E+06,   1.00800E+06
C:/temp/Job-1.odb,Step-1,Increment      1: Step Time =    1.000,"P-1-1",         10010,   23.3084E-03,   143.499E-03,            0.,NA,NA,"",   918.951E+03,   989.648E+03,   989.648E+03
C:/temp/Job-1.odb,Step-1,Increment      1: Step Time =    1.000,"P-1-1",         10011,   112.502E-03,   24.2090E-03,            0.,NA,NA,"",   996.310E+03,   1.00231E+06,   1.00231E+06
C:/temp/Job-1.odb,Step-1,Increment      1: Step Time =    1.000,"P-1-1",         10012,   176.197E-03,   112.103E-03,            0.,NA,NA,"",   968.866E+03,   982.839E+03,   982.839E+03
C:/temp/Job-1.odb,Step-1,Increment      1: Step Time =    1.000,"P-1-1",         10013,   23.8029E-03,   87.6402E-03,            0.,NA,NA,"",   823.415E+03,   905.921E+03,   905.921E+03
C:/temp/Job-1.odb,Step-1,Increment      1: Step Time =    1.000,"P-1-1",         10014,   87.4928E-03,   175.382E-03,            0.,NA,NA,"",   999.938E+03,   1.00770E+06,   1.00770E+06
C:/temp/Job-1.odb,Step-1,Increment      1: Step Time =    1.000,"P-1-1",         10015,   176.131E-03,   61.2546E-03,            0.,NA,NA,"",   1.00682E+06,   1.00847E+06,   1.00847E+06
C:/temp/Job-1.odb,Step-1,Increment      1: Step Time =    1.000,"P-1-1",         10016,   61.6294E-03,   25.4165E-03,            0.,NA,NA,"",   1.03343E+06,   1.03590E+06,   1.03590E+06
C:/temp/Job-1.odb,Step-1,Increment      1: Step Time =    1.000,"P-1-1",         10017,   138.819E-03,   177.142E-03,            0.,NA,NA,"",   1.01359E+06,   1.01007E+06,   1.01007E+06
C:/temp/Job-1.odb,Step-1,Increment      1: Step Time =    1.000,"P-1-1",         10018,   23.5141E-03,   138.951E-03,            0.,NA,NA,"",   903.661E+03,   976.389E+03,   976.389E+03
C:/temp/Job-1.odb,Step-1,Increment      1: Step Time =    1.000,"P-1-1",         10019,   91.1808E-03,   137.162E-03,            0.,NA,NA,"",   1.08167E+06,   1.12928E+06,   1.12928E+06
C:/temp/Job-1.odb,Step-1,Increment      1: Step Time =    1.000,"P-1-1",         10020,   81.5142E-03,   135.052E-03,            0.,NA,NA,"",   1.15031E+06,   1.15453E+06,   1.15453E+06
C:/temp/Job-1.odb,Step-1,Increment      1: Step Time =    1.000,"P-1-1",         10021,   136.336E-03,   118.410E-03,            0.,NA,NA,"",   1.03408E+06,   993.565E+03,   993.565E+03
C:/temp/Job-1.odb,Step-1,Increment      1: Step Time =    1.000,"P-1-1",         10022,   180.611E-03,   92.2969E-03,            0.,NA,NA,"",   967.576E+03,   985.788E+03,   985.788E+03
C:/temp/Job-1.odb,Step-1,Increment      1: Step Time =    1.000,"P-1-1",         10023,   90.0690E-03,   79.7852E-03,            0.,NA,NA,"",   1.34584E+06,   1.37315E+06,   1.37315E+06
C:/temp/Job-1.odb,Step-1,Increment      1: Step Time =    1.000,"P-1-1",         10024,   64.5966E-03,   106.817E-03,            0.,NA,NA,"",   755.744E+03,   787.304E+03,   787.304E+03
C:/temp/Job-1.odb,Step-1,Increment      1: Step Time =    1.000,"P-1-1",         10025,   72.2757E-03,   126.722E-03,            0.,NA,NA,"",   1.14711E+06,   1.11658E+06,   1.11658E+06
C:/temp/Job-1.odb,Step-1,Increment      1: Step Time =    1.000,"P-1-1",         10026,   68.3063E-03,   79.1568E-03,            0.,NA,NA,"",   1.06160E+06,   1.03623E+06,   1.03623E+06
C:/temp/Job-1.odb,Step-1,Increment      1: Step Time =    1.000,"P-1-1",         10027,   179.866E-03,   149.364E-03,            0.,NA,NA,"",   1.00742E+06,   1.00862E+06,   1.00862E+06
C:/temp/Job-1.odb,Step-1,Increment      1: Step Time =    1.000,"P-1-1",         10028,   149.610E-03,   20.8772E-03,            0.,NA,NA,"",   1.01138E+06,   1.00769E+06,   1.00769E+06
C:/temp/Job-1.odb,Step-1,Increment      1: Step Time =    1.000,"P-1-1",         10029,   129.757E-03,   85.2668E-03,            0.,NA,NA,"",   1.03051E+06,   969.413E+03,   969.413E+03
C:/temp/Job-1.odb,Step-1,Increment      1: Step Time =    1.000,"P-1-1",         10030,   64.8895E-03,   113.171E-03,            0.,NA,NA,"",   891.961E+03,   898.355E+03,   898.355E+03
C:/temp/Job-1.odb,Step-1,Increment      1: Step Time =    1.000,"P-1-1",         10031,   138.170E-03,   102.706E-03,            0.,NA,NA,"",   780.070E+03,   792.353E+03,   792.353E+03
C:/temp/Job-1.odb,Step-1,Increment      1: Step Time =    1.000,"P-1-1",         10032,   90.9746E-03,   74.9534E-03,            0.,NA,NA,"",   1.22402E+06,   1.27836E+06,   1.27836E+06
C:/temp/Job-1.odb,Step-1,Increment      1: Step Time =    1.000,"P-1-1",         10033,   64.5598E-03,   110.044E-03,            0.,NA,NA,"",   824.757E+03,   843.829E+03,   843.829E+03
C:/temp/Job-1.odb,Step-1,Increment      1: Step Time =    1.000,"P-1-1",         10034,   93.2327E-03,   136.986E-03,            0.,NA,NA,"",   1.06957E+06,   1.12482E+06,   1.12482E+06
C:/temp/Job-1.odb,Step-1,Increment      1: Step Time =    1.000,"P-1-1",         10035,   66.7950E-03,   79.5560E-03,            0.,NA,NA,"",   1.03667E+06,   1.01863E+06,   1.01863E+06
C:/temp/Job-1.odb,Step-1,Increment      1: Step Time =    1.000,"P-1-1",         10036,   66.4148E-03,   91.0654E-03,            0.,NA,NA,"",   799.537E+03,   816.580E+03,   816.580E+03
C:/temp/Job-1.odb,Step-1,Increment      1: Step Time =    1.000,"P-1-1",         10037,   70.3739E-03,   92.6594E-03,            0.,NA,NA,"",   743.810E+03,   752.702E+03,   752.702E+03
C:/temp/Job-1.odb,Step-1,Increment      1: Step Time =    1.000,"P-1-1",         10038,   136.499E-03,   116.482E-03,            0.,NA,NA,"",   1.00369E+06,   967.657E+03,   967.657E+03
C:/temp/Job-1.odb,Step-1,Increment      1: Step Time =    1.000,"P-1-1",         10039,   125.566E-03,   127.493E-03,            0.,NA,NA,"",   1.20112E+06,   1.14673E+06,   1.14673E+06
C:/temp/Job-1.odb,Step-1,Increment      1: Step Time =    1.000,"P-1-1",         10040,   178.467E-03,   149.308E-03,            0.,NA,NA,"",   1.00919E+06,   1.00967E+06,   1.00967E+06
C:/temp/Job-1.odb,Step-1,Increment      1: Step Time =    1.000,"P-1-1",         10041,   149.126E-03,   22.1393E-03,            0.,NA,NA,"",   1.01351E+06,   1.00944E+06,   1.00944E+06
C:/temp/Job-1.odb,Step-1,Increment      1: Step Time =    1.000,"P-1-1",         10042,   133.303E-03,   122.994E-03,            0.,NA,NA,"",   1.11057E+06,   1.05790E+06,   1.05790E+06
C:/temp/Job-1.odb,Step-1,Increment      1: Step Time =    1.000,"P-1-1",         10043,   110.634E-03,   135.855E-03,            0.,NA,NA,"",   1.10580E+06,   1.14149E+06,   1.14149E+06
C:/temp/Job-1.odb,Step-1,Increment      1: Step Time =    1.000,"P-1-1",         10044,   67.7060E-03,   117.333E-03,            0.,NA,NA,"",   1.00097E+06,   982.184E+03,   982.184E+03
C:/temp/Job-1.odb,Step-1,Increment      1: Step Time =    1.000,"P-1-1",         10045,   129.696E-03,   89.1213E-03,            0.,NA,NA,"",   917.139E+03,   871.830E+03,   871.830E+03
C:/temp/Job-1.odb,Step-1,Increment      1: Step Time =    1.000,"P-1-1",         10046,   65.1012E-03,   116.249E-03,            0.,NA,NA,"",   953.329E+03,   949.773E+03,   949.773E+03
C:/temp/Job-1.odb,Step-1,Increment      1: Step Time =    1.000,"P-1-1",         10047,   128.287E-03,   82.5651E-03,            0.,NA,NA,"",   1.10708E+06,   1.03461E+06,   1.03461E+06
C:/temp/Job-1.odb,Step-1,Increment      1: Step Time =    1.000,"P-1-1",         10048,   64.8551E-03,   103.722E-03,            0.,NA,NA,"",   699.875E+03,   740.911E+03,   740.911E+03
C:/temp/Job-1.odb,Step-1,Increment      1: Step Time =    1.000,"P-1-1",         10049,   126.413E-03,   82.7261E-03,            0.,NA,NA,"",   1.13476E+06,   1.05243E+06,   1.05243E+06
C:/temp/Job-1.odb,Step-1,Increment      1: Step Time =    1.000,"P-1-1",         10050,   70.3630E-03,   122.897E-03,            0.,NA,NA,"",   1.10735E+06,   1.07509E+06,   1.07509E+06
C:/temp/Job-1.odb,Step-1,Increment      1: Step Time =    1.000,"P-1-1",         10051,   177.491E-03,   119.501E-03,            0.,NA,NA,"",   979.989E+03,   991.502E+03,   991.502E+03
C:/temp/Job-1.odb,Step-1,Increment      1: Step Time =    1.000,"P-1-1",         10052,   21.9990E-03,   79.5180E-03,            0.,NA,NA,"",   839.359E+03,   921.758E+03,   921.758E+03
C:/temp/Job-1.odb,Step-1,Increment      1: Step Time =    1.000,"P-1-1",         10053,   79.5094E-03,   176.375E-03,            0.,NA,NA,"",   1.00723E+06,   1.01211E+06,   1.01211E+06
C:/temp/Job-1.odb,Step-1,Increment      1: Step Time =    1.000,"P-1-1",         10054,   22.7027E-03,   49.2211E-03,            0.,NA,NA,"",   942.293E+03,   1.00993E+06,   1.00993E+06
C:/temp/Job-1.odb,Step-1,Increment      1: Step Time =    1.000,"P-1-1",         10055,   49.5731E-03,   176.568E-03,            0.,NA,NA,"",   1.04062E+06,   1.04610E+06,   1.04610E+06
C:/temp/Job-1.odb,Step-1,Increment      1: Step Time =    1.000,"P-1-1",         10056,   71.4433E-03,   125.675E-03,            0.,NA,NA,"",   1.13571E+06,   1.10481E+06,   1.10481E+06
C:/temp/Job-1.odb,Step-1,Increment      1: Step Time =    1.000,"P-1-1",         10057,   139.616E-03,   103.083E-03,            0.,NA,NA,"",   799.719E+03,   811.149E+03,   811.149E+03
C:/temp/Job-1.odb,Step-1,Increment      1: Step Time =    1.000,"P-1-1",         10058,   174.867E-03,   71.7315E-03,            0.,NA,NA,"",   995.397E+03,   1.00037E+06,   1.00037E+06
C:/temp/Job-1.odb,Step-1,Increment      1: Step Time =    1.000,"P-1-1",         10059,   72.1670E-03,   25.0061E-03,            0.,NA,NA,"",   1.02053E+06,   1.02382E+06,   1.02382E+06
C:/temp/Job-1.odb,Step-1,Increment      1: Step Time =    1.000,"P-1-1",         10060,   124.241E-03,   129.777E-03,            0.,NA,NA,"",   1.19798E+06,   1.15363E+06,   1.15363E+06
C:/temp/Job-1.odb,Step-1,Increment      1: Step Time =    1.000,"P-1-1",         10061,   175.203E-03,   44.3211E-03,            0.,NA,NA,"",   1.01423E+06,   1.01220E+06,   1.01220E+06
C:/temp/Job-1.odb,Step-1,Increment      1: Step Time =    1.000,"P-1-1",         10062,   44.5935E-03,   26.0324E-03,            0.,NA,NA,"",   1.04583E+06,   1.05598E+06,   1.05598E+06
C:/temp/Job-1.odb,Step-1,Increment      1: Step Time =    1.000,"P-1-1",         10063,   174.394E-03,   40.2971E-03,            0.,NA,NA,"",   1.01448E+06,   1.01200E+06,   1.01200E+06
C:/temp/Job-1.odb,Step-1,Increment      1: Step Time =    1.000,"P-1-1",         10064,   175.589E-03,   36.8994E-03,            0.,NA,NA,"",   1.01196E+06,   1.01000E+06,   1.01000E+06
C:/temp/Job-1.odb,Step-1,Increment      1: Step Time =    1.000,"P-1-1",         10065,   37.3135E-03,   24.6564E-03,            0.,NA,NA,"",   1.04887E+06,   1.06505E+06,   1.06505E+06
C:/temp/Job-1.odb,Step-1,Increment      1: Step Time =    1.000,"P-1-1",         10066,   39.8539E-03,   24.1848E-03,            0.,NA,NA,"",   1.04801E+06,   1.06096E+06,   1.06096E+06
C:/temp/Job-1.odb,Step-1,Increment      1: Step Time =    1.000,"P-1-1",         10067,   122.093E-03,   24.6920E-03,            0.,NA,NA,"",   1.00627E+06,   1.00808E+06,   1.00808E+06
C:/temp/Job-1.odb,Step-1,Increment      1: Step Time =    1.000,"P-1-1",         10068,   125.497E-03,   24.7523E-03,            0.,NA,NA,"",   1.00967E+06,   1.00996E+06,   1.00996E+06
C:/temp/Job-1.odb,Step-1,Increment      1: Step Time =    1.000,"P-1-1",         10069,   156.327E-03,   174.947E-03,            0.,NA,NA,"",   1.01682E+06,   1.01223E+06,   1.01223E+06
C:/temp/Job-1.odb,Step-1,Increment      1: Step Time =    1.000,"P-1-1",         10070,   159.523E-03,   174.141E-03,            0.,NA,NA,"",   1.01643E+06,   1.01203E+06,   1.01203E+06
C:/temp/Job-1.odb,Step-1,Increment      1: Step Time =    1.000,"P-1-1",         10071,   162.388E-03,   174.268E-03,            0.,NA,NA,"",   1.01479E+06,   1.01089E+06,   1.01089E+06
C:/temp/Job-1.odb,Step-1,Increment      1: Step Time =    1.000,"P-1-1",         10072,   176.215E-03,   122.025E-03,            0.,NA,NA,"",   984.088E+03,   993.416E+03,   993.416E+03
C:/temp/Job-1.odb,Step-1,Increment      1: Step Time =    1.000,"P-1-1",         10073,   175.547E-03,   124.777E-03,            0.,NA,NA,"",   989.129E+03,   996.402E+03,   996.402E+03
C:/temp/Job-1.odb,Step-1,Increment      1: Step Time =    1.000,"P-1-1",         10074,   25.1923E-03,   156.305E-03,            0.,NA,NA,"",   971.847E+03,   1.03049E+06,   1.03049E+06
C:/temp/Job-1.odb,Step-1,Increment      1: Step Time =    1.000,"P-1-1",         10075,   152.559E-03,   23.9171E-03,            0.,NA,NA,"",   1.01624E+06,   1.01168E+06,   1.01168E+06
C:/temp/Job-1.odb,Step-1,Increment      1: Step Time =    1.000,"P-1-1",         10076,   155.602E-03,   23.8710E-03,            0.,NA,NA,"",   1.01529E+06,   1.01099E+06,   1.01099E+06
C:/temp/Job-1.odb,Step-1,Increment      1: Step Time =    1.000,"P-1-1",         10077,   175.522E-03,   152.162E-03,            0.,NA,NA,"",   1.01373E+06,   1.01219E+06,   1.01219E+06
C:/temp/Job-1.odb,Step-1,Increment      1: Step Time =    1.000,"P-1-1",         10078,   175.247E-03,   154.930E-03,            0.,NA,NA,"",   1.01416E+06,   1.01223E+06,   1.01223E+06
C:/temp/Job-1.odb,Step-1,Increment      1: Step Time =    1.000,"P-1-1",         10079,   24.3636E-03,   74.4338E-03,            0.,NA,NA,"",   860.932E+03,   938.351E+03,   938.351E+03
C:/temp/Job-1.odb,Step-1,Increment      1: Step Time =    1.000,"P-1-1",         10080,   25.6177E-03,   77.0665E-03,            0.,NA,NA,"",   855.728E+03,   932.500E+03,   932.500E+03
C:/temp/Job-1.odb,Step-1,Increment      1: Step Time =    1.000,"P-1-1",         10081,   23.7895E-03,   162.395E-03,            0.,NA,NA,"",   990.467E+03,   1.04654E+06,   1.04654E+06
C:/temp/Job-1.odb,Step-1,Increment      1: Step Time =    1.000,"P-1-1",         10082,   23.4275E-03,   159.262E-03,            0.,NA,NA,"",   976.622E+03,   1.03643E+06,   1.03643E+06
C:/temp/Job-1.odb,Step-1,Increment      1: Step Time =    1.000,"P-1-1",         10083,   77.6241E-03,   174.334E-03,            0.,NA,NA,"",   1.01512E+06,   1.02013E+06,   1.02013E+06
C:/temp/Job-1.odb,Step-1,Increment      1: Step Time =    1.000,"P-1-1",         10084,   74.7098E-03,   175.304E-03,            0.,NA,NA,"",   1.01645E+06,   1.02025E+06,   1.02025E+06
C:/temp/Job-1.odb,Step-1,Increment      1: Step Time =    1.000,"P-1-1",         10085,   25.0460E-03,   48.4211E-03,            0.,NA,NA,"",   953.938E+03,   1.01636E+06,   1.01636E+06
C:/temp/Job-1.odb,Step-1,Increment      1: Step Time =    1.000,"P-1-1",         10086,   24.0465E-03,   44.5063E-03,            0.,NA,NA,"",   964.741E+03,   1.02622E+06,   1.02622E+06
C:/temp/Job-1.odb,Step-1,Increment      1: Step Time =    1.000,"P-1-1",         10087,   48.4950E-03,   175.883E-03,            0.,NA,NA,"",   1.04238E+06,   1.04882E+06,   1.04882E+06
C:/temp/Job-1.odb,Step-1,Increment      1: Step Time =    1.000,"P-1-1",         10088,   45.0102E-03,   175.442E-03,            0.,NA,NA,"",   1.04514E+06,   1.05413E+06,   1.05413E+06
C:/temp/Job-1.odb,Step-1,Increment      1: Step Time =    1.000,"P-1-1",         10089,   30.6794E-03,   23.9819E-03,            0.,NA,NA,"",   1.05201E+06,   1.07645E+06,   1.07645E+06
C:/temp/Job-1.odb,Step-1,Increment      1: Step Time =    1.000,"P-1-1",         10090,   175.204E-03,   30.5516E-03,            0.,NA,NA,"",   1.00973E+06,   1.00790E+06,   1.00790E+06
C:/temp/Job-1.odb,Step-1,Increment      1: Step Time =    1.000,"P-1-1",         10091,   24.6240E-03,   169.670E-03,            0.,NA,NA,"",   1.02328E+06,   1.06881E+06,   1.06881E+06
C:/temp/Job-1.odb,Step-1,Increment      1: Step Time =    1.000,"P-1-1",         10092,   93.1699E-03,   138.101E-03,            0.,NA,NA,"",   1.06460E+06,   1.11751E+06,   1.11751E+06
C:/temp/Job-1.odb,Step-1,Increment      1: Step Time =    1.000,"P-1-1",         10093,   133.189E-03,   119.678E-03,            0.,NA,NA,"",   1.07901E+06,   1.02630E+06,   1.02630E+06
C:/temp/Job-1.odb,Step-1,Increment      1: Step Time =    1.000,"P-1-1",         10094,   127.277E-03,   175.170E-03,            0.,NA,NA,"",   1.01141E+06,   1.01091E+06,   1.01091E+06
C:/temp/Job-1.odb,Step-1,Increment      1: Step Time =    1.000,"P-1-1",         10095,   24.1631E-03,   127.196E-03,            0.,NA,NA,"",   865.341E+03,   942.438E+03,   942.438E+03
C:/temp/Job-1.odb,Step-1,Increment      1: Step Time =    1.000,"P-1-1",         10096,   127.619E-03,   25.5922E-03,            0.,NA,NA,"",   1.01349E+06,   1.01283E+06,   1.01283E+06
C:/temp/Job-1.odb,Step-1,Increment      1: Step Time =    1.000,"P-1-1",         10097,   175.048E-03,   128.282E-03,            0.,NA,NA,"",   995.104E+03,   1.00029E+06,   1.00029E+06
C:/temp/Job-1.odb,Step-1,Increment      1: Step Time =    1.000,"P-1-1",         10098,   25.0953E-03,   71.3222E-03,            0.,NA,NA,"",   873.575E+03,   948.546E+03,   948.546E+03
C:/temp/Job-1.odb,Step-1,Increment      1: Step Time =    1.000,"P-1-1",         10099,   71.5098E-03,   175.976E-03,            0.,NA,NA,"",   1.01873E+06,   1.02170E+06,   1.02170E+06
C:/temp/Job-1.odb,Step-1,Increment      1: Step Time =    1.000,"P-1-1",         10100,   24.1490E-03,   26.8700E-03,            0.,NA,NA,"",   1.03774E+06,   1.07915E+06,   1.07915E+06
C:/temp/Job-1.odb,Step-1,Increment      1: Step Time =    1.000,"P-1-1",         10101,   135.411E-03,   24.7193E-03,            0.,NA,NA,"",   1.01652E+06,   1.01323E+06,   1.01323E+06
C:/temp/Job-1.odb,Step-1,Increment      1: Step Time =    1.000,"P-1-1",         10102,   176.015E-03,   136.444E-03,            0.,NA,NA,"",   1.00487E+06,   1.00720E+06,   1.00720E+06
C:/temp/Job-1.odb,Step-1,Increment      1: Step Time =    1.000,"P-1-1",         10103,   176.239E-03,   176.519E-03,            0.,NA,NA,"",   1.00575E+06,   1.00457E+06,   1.00457E+06
C:/temp/Job-1.odb,Step-1,Increment      1: Step Time =    1.000,"P-1-1",         10104,   24.9353E-03,   24.3853E-03,            0.,NA,NA,"",   1.04925E+06,   1.08488E+06,   1.08488E+06
C:/temp/Job-1.odb,Step-1,Increment      1: Step Time =    1.000,"P-1-1",         10105,   24.4698E-03,   64.1735E-03,            0.,NA,NA,"",   896.097E+03,   968.681E+03,   968.681E+03
C:/temp/Job-1.odb,Step-1,Increment      1: Step Time =    1.000,"P-1-1",         10106,   63.9497E-03,   176.735E-03,            0.,NA,NA,"",   1.02590E+06,   1.02793E+06,   1.02793E+06
C:/temp/Job-1.odb,Step-1,Increment      1: Step Time =    1.000,"P-1-1",         10107,   175.620E-03,   69.1240E-03,            0.,NA,NA,"",   998.372E+03,   1.00281E+06,   1.00281E+06
C:/temp/Job-1.odb,Step-1,Increment      1: Step Time =    1.000,"P-1-1",         10108,   68.9652E-03,   25.4810E-03,            0.,NA,NA,"",   1.02580E+06,   1.02855E+06,   1.02855E+06
C:/temp/Job-1.odb,Step-1,Increment      1: Step Time =    1.000,"P-1-1",         10109,   118.905E-03,   133.180E-03,            0.,NA,NA,"",   1.17833E+06,   1.16390E+06,   1.16390E+06
C:/temp/Job-1.odb,Step-1,Increment      1: Step Time =    1.000,"P-1-1",         10110,   25.4211E-03,   31.1726E-03,            0.,NA,NA,"",   1.02185E+06,   1.06660E+06,   1.06660E+06
C:/temp/Job-1.odb,Step-1,Increment      1: Step Time =    1.000,"P-1-1",         10111,   174.938E-03,   168.748E-03,            0.,NA,NA,"",   1.01024E+06,   1.00832E+06,   1.00832E+06
C:/temp/Job-1.odb,Step-1,Increment      1: Step Time =    1.000,"P-1-1",         10112,   174.984E-03,   60.6916E-03,            0.,NA,NA,"",   1.00890E+06,   1.00956E+06,   1.00956E+06
C:/temp/Job-1.odb,Step-1,Increment      1: Step Time =    1.000,"P-1-1",         10113,   109.435E-03,   24.5869E-03,            0.,NA,NA,"",   994.786E+03,   1.00214E+06,   1.00214E+06
C:/temp/Job-1.odb,Step-1,Increment      1: Step Time =    1.000,"P-1-1",         10114,   106.329E-03,   24.9152E-03,            0.,NA,NA,"",   993.742E+03,   1.00222E+06,   1.00222E+06
C:/temp/Job-1.odb,Step-1,Increment      1: Step Time =    1.000,"P-1-1",         10115,   102.129E-03,   25.2410E-03,            0.,NA,NA,"",   993.106E+03,   1.00273E+06,   1.00273E+06
C:/temp/Job-1.odb,Step-1,Increment      1: Step Time =    1.000,"P-1-1",         10116,   175.380E-03,   80.3590E-03,            0.,NA,NA,"",   980.434E+03,   990.248E+03,   990.248E+03
C:/temp/Job-1.odb,Step-1,Increment      1: Step Time =    1.000,"P-1-1",         10117,   23.9343E-03,   90.5086E-03,            0.,NA,NA,"",   818.640E+03,   901.468E+03,   901.468E+03
C:/temp/Job-1.odb,Step-1,Increment      1: Step Time =    1.000,"P-1-1",         10118,   139.452E-03,   174.449E-03,            0.,NA,NA,"",   1.01986E+06,   1.01542E+06,   1.01542E+06
C:/temp/Job-1.odb,Step-1,Increment      1: Step Time =    1.000,"P-1-1",         10119,   79.6754E-03,   25.0462E-03,            0.,NA,NA,"",   1.01058E+06,   1.01596E+06,   1.01596E+06
C:/temp/Job-1.odb,Step-1,Increment      1: Step Time =    1.000,"P-1-1",         10120,   175.469E-03,   102.325E-03,            0.,NA,NA,"",   959.672E+03,   975.716E+03,   975.716E+03
C:/temp/Job-1.odb,Step-1,Increment      1: Step Time =    1.000,"P-1-1",         10121,   24.7125E-03,   98.1771E-03,            0.,NA,NA,"",   811.663E+03,   894.686E+03,   894.686E+03
C:/temp/Job-1.odb,Step-1,Increment      1: Step Time =    1.000,"P-1-1",         10122,   24.8189E-03,   93.9625E-03,            0.,NA,NA,"",   815.068E+03,   897.589E+03,   897.589E+03
C:/temp/Job-1.odb,Step-1,Increment      1: Step Time =    1.000,"P-1-1",         10123,   90.1287E-03,   175.622E-03,            0.,NA,NA,"",   996.764E+03,   1.00499E+06,   1.00499E+06
C:/temp/Job-1.odb,Step-1,Increment      1: Step Time =    1.000,"P-1-1",         10124,   174.228E-03,   107.346E-03,            0.,NA,NA,"",    961.46E+03,   975.907E+03,   975.907E+03
C:/temp/Job-1.odb,Step-1,Increment      1: Step Time =    1.000,"P-1-1",         10125,   24.8002E-03,   140.506E-03,            0.,NA,NA,"",   913.607E+03,   983.413E+03,   983.413E+03
C:/temp/Job-1.odb,Step-1,Increment      1: Step Time =    1.000,"P-1-1",         10126,   98.7137E-03,   175.820E-03,            0.,NA,NA,"",   991.510E+03,   1.00059E+06,   1.00059E+06
C:/temp/Job-1.odb,Step-1,Increment      1: Step Time =    1.000,"P-1-1",         10127,   93.8740E-03,   173.861E-03,            0.,NA,NA,"",   997.179E+03,   1.00735E+06,   1.00735E+06
C:/temp/Job-1.odb,Step-1,Increment      1: Step Time =    1.000,"P-1-1",         10128,   35.1430E-03,   173.323E-03,            0.,NA,NA,"",   1.04655E+06,   1.06770E+06,   1.06770E+06
C:/temp/Job-1.odb,Step-1,Increment      1: Step Time =    1.000,"P-1-1",         10129,   119.099E-03,   175.740E-03,            0.,NA,NA,"",   1.00232E+06,   1.00542E+06,   1.00542E+06
C:/temp/Job-1.odb,Step-1,Increment      1: Step Time =    1.000,"P-1-1",         10130,   25.3914E-03,   119.620E-03,            0.,NA,NA,"",   844.906E+03,   923.302E+03,   923.302E+03
C:/temp/Job-1.odb,Step-1,Increment      1: Step Time =    1.000,"P-1-1",         10131,   163.458E-03,   25.0951E-03,            0.,NA,NA,"",   1.01347E+06,   1.00991E+06,   1.00991E+06
C:/temp/Job-1.odb,Step-1,Increment      1: Step Time =    1.000,"P-1-1",         10132,   175.385E-03,   93.7914E-03,            0.,NA,NA,"",   961.897E+03,   977.238E+03,   977.238E+03
C:/temp/Job-1.odb,Step-1,Increment      1: Step Time =    1.000,"P-1-1",         10133,   174.261E-03,   90.4448E-03,            0.,NA,NA,"",   963.935E+03,   977.719E+03,   977.719E+03
C:/temp/Job-1.odb,Step-1,Increment      1: Step Time =    1.000,"P-1-1",         10134,   53.8606E-03,   174.158E-03,            0.,NA,NA,"",   1.04074E+06,   1.04524E+06,   1.04524E+06
C:/temp/Job-1.odb,Step-1,Increment      1: Step Time =    1.000,"P-1-1",         10135,   128.446E-03,   122.035E-03,            0.,NA,NA,"",   1.16049E+06,   1.09271E+06,   1.09271E+06
C:/temp/Job-1.odb,Step-1,Increment      1: Step Time =    1.000,"P-1-1",         10136,   113.814E-03,   135.689E-03,            0.,NA,NA,"",   1.13135E+06,   1.14919E+06,   1.14919E+06
C:/temp/Job-1.odb,Step-1,Increment      1: Step Time =    1.000,"P-1-1",         10137,   24.8932E-03,   67.1651E-03,            0.,NA,NA,"",   887.460E+03,   960.826E+03,   960.826E+03
C:/temp/Job-1.odb,Step-1,Increment      1: Step Time =    1.000,"P-1-1",         10138,   67.9273E-03,   174.458E-03,            0.,NA,NA,"",   1.02715E+06,   1.02975E+06,   1.02975E+06
C:/temp/Job-1.odb,Step-1,Increment      1: Step Time =    1.000,"P-1-1",         10139,   106.343E-03,   179.058E-03,            0.,NA,NA,"",   985.980E+03,   992.263E+03,   992.263E+03
C:/temp/Job-1.odb,Step-1,Increment      1: Step Time =    1.000,"P-1-1",         10140,   21.9943E-03,   107.707E-03,            0.,NA,NA,"",   812.938E+03,   898.137E+03,   898.137E+03
C:/temp/Job-1.odb,Step-1,Increment      1: Step Time =    1.000,"P-1-1",         10141,   138.093E-03,   116.619E-03,            0.,NA,NA,"",   996.197E+03,   965.003E+03,   965.003E+03
C:/temp/Job-1.odb,Step-1,Increment      1: Step Time =    1.000,"P-1-1",         10142,   66.8689E-03,   86.8560E-03,            0.,NA,NA,"",   903.260E+03,   900.530E+03,   900.530E+03
C:/temp/Job-1.odb,Step-1,Increment      1: Step Time =    1.000,"P-1-1",         10143,   92.7819E-03,   21.3362E-03,            0.,NA,NA,"",   988.202E+03,   995.139E+03,   995.139E+03
C:/temp/Job-1.odb,Step-1,Increment      1: Step Time =    1.000,"P-1-1",         10144,   90.1172E-03,   137.532E-03,            0.,NA,NA,"",   1.08683E+06,   1.12994E+06,   1.12994E+06
C:/temp/Job-1.odb,Step-1,Increment      1: Step Time =    1.000,"P-1-1",         10145,   172.501E-03,   175.010E-03,            0.,NA,NA,"",   1.00834E+06,   1.00644E+06,   1.00644E+06
C:/temp/Job-1.odb,Step-1,Increment      1: Step Time =    1.000,"P-1-1",         10146,   28.1839E-03,   24.2782E-03,            0.,NA,NA,"",   1.05097E+06,   1.08015E+06,   1.08015E+06
C:/temp/Job-1.odb,Step-1,Increment      1: Step Time =    1.000,"P-1-1",         10147,   175.273E-03,   28.0021E-03,            0.,NA,NA,"",   1.00841E+06,   1.00676E+06,   1.00676E+06
C:/temp/Job-1.odb,Step-1,Increment      1: Step Time =    1.000,"P-1-1",         10148,   174.594E-03,   165.437E-03,            0.,NA,NA,"",   1.01207E+06,   1.00985E+06,   1.00985E+06
C:/temp/Job-1.odb,Step-1,Increment      1: Step Time =    1.000,"P-1-1",         10149,   23.9404E-03,   34.2797E-03,            0.,NA,NA,"",   1.00462E+06,   1.05677E+06,   1.05677E+06
C:/temp/Job-1.odb,Step-1,Increment      1: Step Time =    1.000,"P-1-1",         10150,   169.377E-03,   25.1913E-03,            0.,NA,NA,"",   1.01032E+06,   1.00780E+06,   1.00780E+06
C:/temp/Job-1.odb,Step-1,Increment      1: Step Time =    1.000,"P-1-1",         10151,   24.8592E-03,   172.613E-03,            0.,NA,NA,"",   1.03650E+06,   1.07729E+06,   1.07729E+06
C:/temp/Job-1.odb,Step-1,Increment      1: Step Time =    1.000,"P-1-1",         10152,   175.980E-03,   58.2222E-03,            0.,NA,NA,"",   1.00931E+06,   1.00998E+06,   1.00998E+06
C:/temp/Job-1.odb,Step-1,Increment      1: Step Time =    1.000,"P-1-1",         10153,   57.2963E-03,   24.8146E-03,            0.,NA,NA,"",   1.03643E+06,   1.03963E+06,   1.03963E+06
C:/temp/Job-1.odb,Step-1,Increment      1: Step Time =    1.000,"P-1-1",         10154,   139.991E-03,   25.3317E-03,            0.,NA,NA,"",   1.01957E+06,   1.01510E+06,   1.01510E+06
C:/temp/Job-1.odb,Step-1,Increment      1: Step Time =    1.000,"P-1-1",         10155,   174.678E-03,   139.677E-03,            0.,NA,NA,"",   1.00949E+06,   1.00990E+06,   1.00990E+06
C:/temp/Job-1.odb,Step-1,Increment      1: Step Time =    1.000,"P-1-1",         10156,   113.719E-03,   24.6249E-03,            0.,NA,NA,"",   998.206E+03,   1.00388E+06,   1.00388E+06
C:/temp/Job-1.odb,Step-1,Increment      1: Step Time =    1.000,"P-1-1",         10157,   143.034E-03,   175.344E-03,            0.,NA,NA,"",   1.01830E+06,   1.01367E+06,   1.01367E+06
C:/temp/Job-1.odb,Step-1,Increment      1: Step Time =    1.000,"P-1-1",         10158,   174.063E-03,   113.197E-03,            0.,NA,NA,"",   969.077E+03,   981.188E+03,   981.188E+03
C:/temp/Job-1.odb,Step-1,Increment      1: Step Time =    1.000,"P-1-1",         10159,   24.5703E-03,   85.7670E-03,            0.,NA,NA,"",   829.039E+03,   910.183E+03,   910.183E+03
C:/temp/Job-1.odb,Step-1,Increment      1: Step Time =    1.000,"P-1-1",         10160,   86.2798E-03,   175.263E-03,            0.,NA,NA,"",   1.00148E+06,   1.00897E+06,   1.00897E+06
C:/temp/Job-1.odb,Step-1,Increment      1: Step Time =    1.000,"P-1-1",         10161,   66.2210E-03,   89.7258E-03,            0.,NA,NA,"",   830.408E+03,   842.578E+03,   842.578E+03
C:/temp/Job-1.odb,Step-1,Increment      1: Step Time =    1.000,"P-1-1",         10162,   130.874E-03,   92.7316E-03,            0.,NA,NA,"",   789.898E+03,   774.237E+03,   774.237E+03
C:/temp/Job-1.odb,Step-1,Increment      1: Step Time =    1.000,"P-1-1",         10163,   83.1545E-03,   136.656E-03,            0.,NA,NA,"",   1.13267E+06,   1.14623E+06,   1.14623E+06
C:/temp/Job-1.odb,Step-1,Increment      1: Step Time =    1.000,"P-1-1",         10164,   65.0377E-03,   79.9207E-03,            0.,NA,NA,"",   1.01411E+06,   1.00343E+06,   1.00343E+06
C:/temp/Job-1.odb,Step-1,Increment      1: Step Time =    1.000,"P-1-1",         10165,   135.081E-03,   119.446E-03,            0.,NA,NA,"",   1.05798E+06,   1.01198E+06,   1.01198E+06
C:/temp/Job-1.odb,Step-1,Increment      1: Step Time =    1.000,"P-1-1",         10166,   75.5109E-03,   74.3043E-03,            0.,NA,NA,"",   1.18356E+06,   1.14595E+06,   1.14595E+06
C:/temp/Job-1.odb,Step-1,Increment      1: Step Time =    1.000,"P-1-1",         10167,   77.7785E-03,   73.8583E-03,            0.,NA,NA,"",   1.20600E+06,   1.17064E+06,   1.17064E+06
C:/temp/Job-1.odb,Step-1,Increment      1: Step Time =    1.000,"P-1-1",         10168,   71.1728E-03,   74.5239E-03,            0.,NA,NA,"",   1.13274E+06,   1.10188E+06,   1.10188E+06
C:/temp/Job-1.odb,Step-1,Increment      1: Step Time =    1.000,"P-1-1",         10169,   66.1113E-03,   97.6586E-03,            0.,NA,NA,"",   670.053E+03,   712.388E+03,   712.388E+03
C:/temp/Job-1.odb,Step-1,Increment      1: Step Time =    1.000,"P-1-1",         10170,   66.6060E-03,   77.0466E-03,            0.,NA,NA,"",   1.06273E+06,   1.04407E+06,   1.04407E+06
C:/temp/Job-1.odb,Step-1,Increment      1: Step Time =    1.000,"P-1-1",         10171,   122.517E-03,   129.467E-03,            0.,NA,NA,"",   1.20901E+06,   1.16729E+06,   1.16729E+06
C:/temp/Job-1.odb,Step-1,Increment      1: Step Time =    1.000,"P-1-1",         10172,   130.914E-03,   91.2315E-03,            0.,NA,NA,"",   841.215E+03,   816.256E+03,   816.256E+03
C:/temp/Job-1.odb,Step-1,Increment      1: Step Time =    1.000,"P-1-1",         10173,   89.7205E-03,   73.6836E-03,            0.,NA,NA,"",   1.21433E+06,   1.25562E+06,   1.25562E+06
C:/temp/Job-1.odb,Step-1,Increment      1: Step Time =    1.000,"P-1-1",         10174,   64.9755E-03,   83.1049E-03,            0.,NA,NA,"",   964.428E+03,   959.569E+03,   959.569E+03
C:/temp/Job-1.odb,Step-1,Increment      1: Step Time =    1.000,"P-1-1",         10175,   70.6261E-03,   99.1363E-03,            0.,NA,NA,"",   576.532E+03,   615.968E+03,   615.968E+03
C:/temp/Job-1.odb,Step-1,Increment      1: Step Time =    1.000,"P-1-1",         10176,   126.424E-03,   125.792E-03,            0.,NA,NA,"",   1.19599E+06,   1.13520E+06,   1.13520E+06
C:/temp/Job-1.odb,Step-1,Increment      1: Step Time =    1.000,"P-1-1",         10177,   67.8079E-03,   77.3523E-03,            0.,NA,NA,"",   1.07403E+06,   1.05066E+06,   1.05066E+06
C:/temp/Job-1.odb,Step-1,Increment      1: Step Time =    1.000,"P-1-1",         10178,   125.115E-03,   129.128E-03,            0.,NA,NA,"",   1.19641E+06,   1.14803E+06,   1.14803E+06
C:/temp/Job-1.odb,Step-1,Increment      1: Step Time =    1.000,"P-1-1",         10179,   176.294E-03,   96.0751E-03,            0.,NA,NA,"",   961.520E+03,   977.752E+03,   977.752E+03
C:/temp/Job-1.odb,Step-1,Increment      1: Step Time =    1.000,"P-1-1",         10180,   66.1085E-03,   92.3008E-03,            0.,NA,NA,"",   769.221E+03,   792.925E+03,   792.925E+03
C:/temp/Job-1.odb,Step-1,Increment      1: Step Time =    1.000,"P-1-1",         10181,   63.8870E-03,   108.167E-03,            0.,NA,NA,"",   785.830E+03,   814.191E+03,   814.191E+03
C:/temp/Job-1.odb,Step-1,Increment      1: Step Time =    1.000,"P-1-1",         10182,   122.603E-03,   82.3839E-03,            0.,NA,NA,"",   1.21171E+06,   1.11366E+06,   1.11366E+06
C:/temp/Job-1.odb,Step-1,Increment      1: Step Time =    1.000,"P-1-1",         10183,   63.9770E-03,   111.422E-03,            0.,NA,NA,"",   852.954E+03,   868.920E+03,   868.920E+03
C:/temp/Job-1.odb,Step-1,Increment      1: Step Time =    1.000,"P-1-1",         10184,   130.516E-03,   83.8398E-03,            0.,NA,NA,"",   1.05295E+06,   992.881E+03,   992.881E+03
C:/temp/Job-1.odb,Step-1,Increment      1: Step Time =    1.000,"P-1-1",         10185,   71.0462E-03,   127.396E-03,            0.,NA,NA,"",   1.13438E+06,   1.10760E+06,   1.10760E+06
C:/temp/Job-1.odb,Step-1,Increment      1: Step Time =    1.000,"P-1-1",         10186,   64.3888E-03,   114.484E-03,            0.,NA,NA,"",   914.418E+03,   918.937E+03,   918.937E+03
C:/temp/Job-1.odb,Step-1,Increment      1: Step Time =    1.000,"P-1-1",         10187,   130.560E-03,   87.4554E-03,            0.,NA,NA,"",   963.967E+03,   914.902E+03,   914.902E+03
C:/temp/Job-1.odb,Step-1,Increment      1: Step Time =    1.000,"P-1-1",         10188,   64.0626E-03,   104.899E-03,            0.,NA,NA,"",   725.084E+03,   764.104E+03,   764.104E+03
C:/temp/Job-1.odb,Step-1,Increment      1: Step Time =    1.000,"P-1-1",         10189,   19.5278E-03,   39.2872E-03,            0.,NA,NA,"",   967.438E+03,   1.03499E+06,   1.03499E+06
C:/temp/Job-1.odb,Step-1,Increment      1: Step Time =    1.000,"P-1-1",         10190,   181.506E-03,   161.286E-03,            0.,NA,NA,"",   1.00654E+06,   1.00658E+06,   1.00658E+06
C:/temp/Job-1.odb,Step-1,Increment      1: Step Time =    1.000,"P-1-1",         10191,   96.4715E-03,   137.524E-03,            0.,NA,NA,"",   1.05020E+06,   1.11373E+06,   1.11373E+06
C:/temp/Job-1.odb,Step-1,Increment      1: Step Time =    1.000,"P-1-1",         10192,   180.540E-03,   75.6532E-03,            0.,NA,NA,"",   985.705E+03,   997.095E+03,   997.095E+03
C:/temp/Job-1.odb,Step-1,Increment      1: Step Time =    1.000,"P-1-1",         10193,   38.3843E-03,   181.499E-03,            0.,NA,NA,"",   1.04890E+06,   1.05803E+06,   1.05803E+06
C:/temp/Job-1.odb,Step-1,Increment      1: Step Time =    1.000,"P-1-1",         10194,   76.8672E-03,   19.1288E-03,            0.,NA,NA,"",   998.590E+03,   1.00141E+06,   1.00141E+06
C:/temp/Job-1.odb,Step-1,Increment      1: Step Time =    1.000,"P-1-1",         10195,   177.591E-03,   97.1405E-03,            0.,NA,NA,"",   962.465E+03,   979.577E+03,   979.577E+03
C:/temp/Job-1.odb,Step-1,Increment      1: Step Time =    1.000,"P-1-1",         10196,   103.601E-03,   138.919E-03,            0.,NA,NA,"",   1.04681E+06,   1.10448E+06,   1.10448E+06
C:/temp/Job-1.odb,Step-1,Increment      1: Step Time =    1.000,"P-1-1",         10197,   167.341E-03,   23.6914E-03,            0.,NA,NA,"",   1.01024E+06,   1.00759E+06,   1.00759E+06
C:/temp/Job-1.odb,Step-1,Increment      1: Step Time =    1.000,"P-1-1",         10198,   67.7221E-03,   92.8035E-03,            0.,NA,NA,"",   746.284E+03,   767.608E+03,   767.608E+03
C:/temp/Job-1.odb,Step-1,Increment      1: Step Time =    1.000,"P-1-1",         10199,   138.409E-03,   110.104E-03,            0.,NA,NA,"",   883.641E+03,   874.240E+03,   874.240E+03
C:/temp/Job-1.odb,Step-1,Increment      1: Step Time =    1.000,"P-1-1",         10200,   167.723E-03,   175.469E-03,            0.,NA,NA,"",   1.01065E+06,   1.00795E+06,   1.00795E+06
C:/temp/Job-1.odb,Step-1,Increment      1: Step Time =    1.000,"P-1-1",         10201,   32.5815E-03,   23.8388E-03,            0.,NA,NA,"",   1.05163E+06,   1.07303E+06,   1.07303E+06
C:/temp/Job-1.odb,Step-1,Increment      1: Step Time =    1.000,"P-1-1",         10202,   174.995E-03,   31.4834E-03,            0.,NA,NA,"",   1.01034E+06,   1.00839E+06,   1.00839E+06
C:/temp/Job-1.odb,Step-1,Increment      1: Step Time =    1.000,"P-1-1",         10203,   24.1727E-03,   167.850E-03,            0.,NA,NA,"",   1.01438E+06,   1.06335E+06,   1.06335E+06
C:/temp/Job-1.odb,Step-1,Increment      1: Step Time =    1.000,"P-1-1",         10204,   90.5977E-03,   25.5824E-03,            0.,NA,NA,"",   998.711E+03,   1.00785E+06,   1.00785E+06
C:/temp/Job-1.odb,Step-1,Increment      1: Step Time =    1.000,"P-1-1",         10205,   175.230E-03,   74.0738E-03,            0.,NA,NA,"",   991.314E+03,   997.772E+03,   997.772E+03
C:/temp/Job-1.odb,Step-1,Increment      1: Step Time =    1.000,"P-1-1",         10206,   75.1961E-03,   24.7738E-03,            0.,NA,NA,"",   1.01587E+06,   1.01985E+06,   1.01985E+06
C:/temp/Job-1.odb,Step-1,Increment      1: Step Time =    1.000,"P-1-1",         10207,   147.469E-03,   24.6179E-03,            0.,NA,NA,"",   1.01823E+06,   1.01335E+06,   1.01335E+06
C:/temp/Job-1.odb,Step-1,Increment      1: Step Time =    1.000,"P-1-1",         10208,   175.887E-03,   147.812E-03,            0.,NA,NA,"",   1.01243E+06,   1.01167E+06,   1.01167E+06
C:/temp/Job-1.odb,Step-1,Increment      1: Step Time =    1.000,"P-1-1",         10209,   24.2230E-03,   108.999E-03,            0.,NA,NA,"",   818.120E+03,   900.802E+03,   900.802E+03
C:/temp/Job-1.odb,Step-1,Increment      1: Step Time =    1.000,"P-1-1",         10210,   109.050E-03,   176.292E-03,            0.,NA,NA,"",   992.821E+03,   999.794E+03,   999.794E+03
C:/temp/Job-1.odb,Step-1,Increment      1: Step Time =    1.000,"P-1-1",         10211,   119.287E-03,   131.889E-03,            0.,NA,NA,"",   1.19145E+06,   1.17144E+06,   1.17144E+06
C:/temp/Job-1.odb,Step-1,Increment      1: Step Time =    1.000,"P-1-1",         10212,   139.005E-03,   100.372E-03,            0.,NA,NA,"",   780.049E+03,   794.327E+03,   794.327E+03
C:/temp/Job-1.odb,Step-1,Increment      1: Step Time =    1.000,"P-1-1",         10213,   119.018E-03,   135.944E-03,            0.,NA,NA,"",   1.15618E+06,   1.14782E+06,   1.14782E+06
C:/temp/Job-1.odb,Step-1,Increment      1: Step Time =    1.000,"P-1-1",         10214,   176.094E-03,   53.5971E-03,            0.,NA,NA,"",   1.01162E+06,   1.01126E+06,   1.01126E+06
C:/temp/Job-1.odb,Step-1,Increment      1: Step Time =    1.000,"P-1-1",         10215,   53.9488E-03,   23.5606E-03,            0.,NA,NA,"",   1.03676E+06,   1.04044E+06,   1.04044E+06
C:/temp/Job-1.odb,Step-1,Increment      1: Step Time =    1.000,"P-1-1",         10216,   146.611E-03,   175.580E-03,            0.,NA,NA,"",   1.01796E+06,   1.01315E+06,   1.01315E+06
C:/temp/Job-1.odb,Step-1,Increment      1: Step Time =    1.000,"P-1-1",         10217,   23.3760E-03,   146.360E-03,            0.,NA,NA,"",   929.062E+03,   998.182E+03,   998.182E+03
C:/temp/Job-1.odb,Step-1,Increment      1: Step Time =    1.000,"P-1-1",         10218,   139.499E-03,   112.278E-03,            0.,NA,NA,"",   921.247E+03,   906.647E+03,   906.647E+03
C:/temp/Job-1.odb,Step-1,Increment      1: Step Time =    1.000,"P-1-1",         10219,   25.3533E-03,   173.795E-03,            0.,NA,NA,"",   1.04227E+06,   1.07997E+06,   1.07997E+06
C:/temp/Job-1.odb,Step-1,Increment      1: Step Time =    1.000,"P-1-1",         10220,   99.9162E-03,   138.033E-03,            0.,NA,NA,"",   1.04252E+06,   1.10663E+06,   1.10663E+06
C:/temp/Job-1.odb,Step-1,Increment      1: Step Time =    1.000,"P-1-1",         10221,   175.452E-03,   25.3784E-03,            0.,NA,NA,"",   1.00702E+06,   1.00559E+06,   1.00559E+06
C:/temp/Job-1.odb,Step-1,Increment      1: Step Time =    1.000,"P-1-1",         10222,   139.155E-03,   106.715E-03,            0.,NA,NA,"",   833.630E+03,   836.618E+03,   836.618E+03
C:/temp/Job-1.odb,Step-1,Increment      1: Step Time =    1.000,"P-1-1",         10223,   166.620E-03,   19.1080E-03,            0.,NA,NA,"",   1.00641E+06,   1.00448E+06,   1.00448E+06
C:/temp/Job-1.odb,Step-1,Increment      1: Step Time =    1.000,"P-1-1",         10224,   24.6480E-03,   144.775E-03,            0.,NA,NA,"",    928.99E+03,   996.410E+03,   996.410E+03
C:/temp/Job-1.odb,Step-1,Increment      1: Step Time =    1.000,"P-1-1",         10225,   144.793E-03,   175.133E-03,            0.,NA,NA,"",   1.01882E+06,   1.01396E+06,   1.01396E+06
C:/temp/Job-1.odb,Step-1,Increment      1: Step Time =    1.000,"P-1-1",         10226,   54.5503E-03,   25.1219E-03,            0.,NA,NA,"",   1.03915E+06,   1.04311E+06,   1.04311E+06
C:/temp/Job-1.odb,Step-1,Increment      1: Step Time =    1.000,"P-1-1",         10227,   175.794E-03,   55.4492E-03,            0.,NA,NA,"",   1.01125E+06,   1.01109E+06,   1.01109E+06
C:/temp/Job-1.odb,Step-1,Increment      1: Step Time =    1.000,"P-1-1",         10228,   137.871E-03,   103.980E-03,            0.,NA,NA,"",   788.615E+03,   798.320E+03,   798.320E+03
C:/temp/Job-1.odb,Step-1,Increment      1: Step Time =    1.000,"P-1-1",         10229,   26.2585E-03,   24.8634E-03,            0.,NA,NA,"",   1.04793E+06,   1.08178E+06,   1.08178E+06
C:/temp/Job-1.odb,Step-1,Increment      1: Step Time =    1.000,"P-1-1",         10230,   174.845E-03,   174.856E-03,            0.,NA,NA,"",   1.00725E+06,   1.00572E+06,   1.00572E+06
C:/temp/Job-1.odb,Step-1,Increment      1: Step Time =    1.000,"P-1-1",         10231,   106.721E-03,   139.055E-03,            0.,NA,NA,"",   1.06115E+06,   1.11012E+06,   1.11012E+06
C:/temp/Job-1.odb,Step-1,Increment      1: Step Time =    1.000,"P-1-1",         10232,   117.752E-03,   136.564E-03,            0.,NA,NA,"",   1.14587E+06,   1.14441E+06,   1.14441E+06
C:/temp/Job-1.odb,Step-1,Increment      1: Step Time =    1.000,"P-1-1",         10233,   86.3962E-03,   71.9875E-03,            0.,NA,NA,"",   1.20992E+06,   1.22361E+06,   1.22361E+06
C:/temp/Job-1.odb,Step-1,Increment      1: Step Time =    1.000,"P-1-1",         10234,   50.8227E-03,   174.217E-03,            0.,NA,NA,"",   1.04253E+06,   1.04843E+06,   1.04843E+06
C:/temp/Job-1.odb,Step-1,Increment      1: Step Time =    1.000,"P-1-1",         10235,   24.9610E-03,   51.0422E-03,            0.,NA,NA,"",   944.654E+03,   1.00896E+06,   1.00896E+06
C:/temp/Job-1.odb,Step-1,Increment      1: Step Time =    1.000,"P-1-1",         10236,   86.3080E-03,   138.291E-03,            0.,NA,NA,"",   1.10602E+06,   1.13269E+06,   1.13269E+06
C:/temp/Job-1.odb,Step-1,Increment      1: Step Time =    1.000,"P-1-1",         10237,   80.8377E-03,   173.244E-03,            0.,NA,NA,"",   1.01323E+06,   1.01977E+06,   1.01977E+06
C:/temp/Job-1.odb,Step-1,Increment      1: Step Time =    1.000,"P-1-1",         10238,   110.840E-03,   174.970E-03,            0.,NA,NA,"",   996.769E+03,   1.00385E+06,   1.00385E+06
C:/temp/Job-1.odb,Step-1,Increment      1: Step Time =    1.000,"P-1-1",         10239,   24.2853E-03,   111.236E-03,            0.,NA,NA,"",   822.112E+03,   904.214E+03,   904.214E+03
C:/temp/Job-1.odb,Step-1,Increment      1: Step Time =    1.000,"P-1-1",         10240,   25.8991E-03,   80.1472E-03,            0.,NA,NA,"",   846.881E+03,   924.490E+03,   924.490E+03
C:/temp/Job-1.odb,Step-1,Increment      1: Step Time =    1.000,"P-1-1",         10241,   174.197E-03,   118.492E-03,            0.,NA,NA,"",   978.359E+03,   987.866E+03,   987.866E+03
C:/temp/Job-1.odb,Step-1,Increment      1: Step Time =    1.000,"P-1-1",         10242,   174.774E-03,   146.340E-03,            0.,NA,NA,"",   1.01364E+06,   1.01242E+06,   1.01242E+06
C:/temp/Job-1.odb,Step-1,Increment      1: Step Time =    1.000,"P-1-1",         10243,   145.939E-03,   24.8369E-03,            0.,NA,NA,"",   1.01896E+06,   1.01402E+06,   1.01402E+06
C:/temp/Job-1.odb,Step-1,Increment      1: Step Time =    1.000,"P-1-1",         10244,   41.0225E-03,   176.854E-03,            0.,NA,NA,"",   1.04755E+06,   1.05863E+06,   1.05863E+06
C:/temp/Job-1.odb,Step-1,Increment      1: Step Time =    1.000,"P-1-1",         10245,   176.052E-03,   159.117E-03,            0.,NA,NA,"",   1.01255E+06,   1.01079E+06,   1.01079E+06
C:/temp/Job-1.odb,Step-1,Increment      1: Step Time =    1.000,"P-1-1",         10246,   23.4349E-03,   41.5904E-03,            0.,NA,NA,"",   973.431E+03,   1.03394E+06,   1.03394E+06
C:/temp/Job-1.odb,Step-1,Increment      1: Step Time =    1.000,"P-1-1",         10247,   118.887E-03,   24.9087E-03,            0.,NA,NA,"",   1.00372E+06,   1.00713E+06,   1.00713E+06
C:/temp/Job-1.odb,Step-1,Increment      1: Step Time =    1.000,"P-1-1",         10248,   89.6785E-03,   26.9591E-03,            0.,NA,NA,"",   1.00254E+06,   1.01243E+06,   1.01243E+06
C:/temp/Job-1.odb,Step-1,Increment      1: Step Time =    1.000,"P-1-1",         10249,   79.1124E-03,   129.480E-03,            0.,NA,NA,"",   1.19388E+06,   1.17463E+06,   1.17463E+06
C:/temp/Job-1.odb,Step-1,Increment      1: Step Time =    1.000,"P-1-1",         10250,   70.6437E-03,   126.484E-03,            0.,NA,NA,"",   1.12913E+06,   1.10135E+06,   1.10135E+06
C:/temp/Job-1.odb,Step-1,Increment      1: Step Time =    1.000,"P-1-1",         10251,   25.7786E-03,   25.9964E-03,            0.,NA,NA,"",   1.04352E+06,   1.08002E+06,   1.08002E+06
C:/temp/Job-1.odb,Step-1,Increment      1: Step Time =    1.000,"P-1-1",         10252,   173.897E-03,   172.888E-03,            0.,NA,NA,"",   1.00889E+06,   1.00702E+06,   1.00702E+06
C:/temp/Job-1.odb,Step-1,Increment      1: Step Time =    1.000,"P-1-1",         10253,   77.1497E-03,   129.903E-03,            0.,NA,NA,"",   1.18190E+06,   1.15990E+06,   1.15990E+06
C:/temp/Job-1.odb,Step-1,Increment      1: Step Time =    1.000,"P-1-1",         10254,   175.062E-03,   136.727E-03,            0.,NA,NA,"",   1.00629E+06,   1.00788E+06,   1.00788E+06
C:/temp/Job-1.odb,Step-1,Increment      1: Step Time =    1.000,"P-1-1",         10255,   88.7171E-03,   175.437E-03,            0.,NA,NA,"",   998.595E+03,   1.00663E+06,   1.00663E+06
C:/temp/Job-1.odb,Step-1,Increment      1: Step Time =    1.000,"P-1-1",         10256,   25.4183E-03,   88.8067E-03,            0.,NA,NA,"",   823.703E+03,   904.660E+03,   904.660E+03
C:/temp/Job-1.odb,Step-1,Increment      1: Step Time =    1.000,"P-1-1",         10257,   110.722E-03,   25.1179E-03,            0.,NA,NA,"",   996.735E+03,   1.00388E+06,   1.00388E+06
C:/temp/Job-1.odb,Step-1,Increment      1: Step Time =    1.000,"P-1-1",         10258,   73.5466E-03,   174.930E-03,            0.,NA,NA,"",   1.01890E+06,   1.02248E+06,   1.02248E+06
C:/temp/Job-1.odb,Step-1,Increment      1: Step Time =    1.000,"P-1-1",         10259,   25.3892E-03,   72.7251E-03,            0.,NA,NA,"",   869.492E+03,   944.720E+03,   944.720E+03
C:/temp/Job-1.odb,Step-1,Increment      1: Step Time =    1.000,"P-1-1",         10260,   24.3974E-03,   158.226E-03,            0.,NA,NA,"",   976.253E+03,   1.03489E+06,   1.03489E+06
C:/temp/Job-1.odb,Step-1,Increment      1: Step Time =    1.000,"P-1-1",         10261,   175.144E-03,   126.265E-03,            0.,NA,NA,"",   991.875E+03,   998.078E+03,   998.078E+03
C:/temp/Job-1.odb,Step-1,Increment      1: Step Time =    1.000,"P-1-1",         10262,   126.073E-03,   26.2196E-03,            0.,NA,NA,"",   1.01372E+06,   1.01374E+06,   1.01374E+06
C:/temp/Job-1.odb,Step-1,Increment      1: Step Time =    1.000,"P-1-1",         10263,   158.871E-03,   172.919E-03,            0.,NA,NA,"",   1.01854E+06,   1.01366E+06,   1.01366E+06
C:/temp/Job-1.odb,Step-1,Increment      1: Step Time =    1.000,"P-1-1",         10264,   40.7716E-03,   25.5285E-03,            0.,NA,NA,"",   1.04738E+06,   1.06067E+06,   1.06067E+06
C:/temp/Job-1.odb,Step-1,Increment      1: Step Time =    1.000,"P-1-1",         10265,   173.183E-03,   40.9543E-03,            0.,NA,NA,"",   1.01620E+06,   1.01320E+06,   1.01320E+06
C:/temp/Job-1.odb,Step-1,Increment      1: Step Time =    1.000,"P-1-1",         10266,   131.493E-03,   89.7179E-03,            0.,NA,NA,"",   887.419E+03,   855.600E+03,   855.600E+03
C:/temp/Job-1.odb,Step-1,Increment      1: Step Time =    1.000,"P-1-1",         10267,   126.735E-03,   80.7886E-03,            0.,NA,NA,"",   1.15708E+06,   1.07899E+06,   1.07899E+06
C:/temp/Job-1.odb,Step-1,Increment      1: Step Time =    1.000,"P-1-1",         10268,   69.8311E-03,   97.7100E-03,            0.,NA,NA,"",   612.061E+03,   649.370E+03,   649.370E+03
C:/temp/Job-1.odb,Step-1,Increment      1: Step Time =    1.000,"P-1-1",         10269,   91.9193E-03,   73.9922E-03,            0.,NA,NA,"",   1.19416E+06,   1.25874E+06,   1.25874E+06
C:/temp/Job-1.odb,Step-1,Increment      1: Step Time =    1.000,"P-1-1",         10270,   177.073E-03,   149.212E-03,            0.,NA,NA,"",   1.01107E+06,   1.01079E+06,   1.01079E+06
C:/temp/Job-1.odb,Step-1,Increment      1: Step Time =    1.000,"P-1-1",         10271,   150.192E-03,   22.6836E-03,            0.,NA,NA,"",   1.01447E+06,   1.01023E+06,   1.01023E+06
C:/temp/Job-1.odb,Step-1,Increment      1: Step Time =    1.000,"P-1-1",         10272,   120.212E-03,   133.508E-03,            0.,NA,NA,"",   1.17692E+06,   1.15767E+06,   1.15767E+06
C:/temp/Job-1.odb,Step-1,Increment      1: Step Time =    1.000,"P-1-1",         10273,   131.444E-03,   123.547E-03,            0.,NA,NA,"",   1.13504E+06,   1.07748E+06,   1.07748E+06
C:/temp/Job-1.odb,Step-1,Increment      1: Step Time =    1.000,"P-1-1",         10274,   175.692E-03,   70.3783E-03,            0.,NA,NA,"",   996.645E+03,   1.00168E+06,   1.00168E+06
C:/temp/Job-1.odb,Step-1,Increment      1: Step Time =    1.000,"P-1-1",         10275,   173.866E-03,   72.9768E-03,            0.,NA,NA,"",   994.121E+03,   998.953E+03,   998.953E+03
C:/temp/Job-1.odb,Step-1,Increment      1: Step Time =    1.000,"P-1-1",         10276,   73.8075E-03,   25.4122E-03,            0.,NA,NA,"",   1.01948E+06,   1.02325E+06,   1.02325E+06
C:/temp/Job-1.odb,Step-1,Increment      1: Step Time =    1.000,"P-1-1",         10277,   70.7645E-03,   24.5583E-03,            0.,NA,NA,"",   1.02100E+06,   1.02387E+06,   1.02387E+06
C:/temp/Job-1.odb,Step-1,Increment      1: Step Time =    1.000,"P-1-1",         10278,   139.940E-03,   101.919E-03,            0.,NA,NA,"",   795.814E+03,   808.764E+03,   808.764E+03
C:/temp/Job-1.odb,Step-1,Increment      1: Step Time =    1.000,"P-1-1",         10279,   127.843E-03,   125.522E-03,            0.,NA,NA,"",   1.18084E+06,   1.12044E+06,   1.12044E+06
C:/temp/Job-1.odb,Step-1,Increment      1: Step Time =    1.000,"P-1-1",         10280,   156.300E-03,   22.5727E-03,            0.,NA,NA,"",   1.01317E+06,   1.00932E+06,   1.00932E+06
C:/temp/Job-1.odb,Step-1,Increment      1: Step Time =    1.000,"P-1-1",         10281,   177.432E-03,   155.364E-03,            0.,NA,NA,"",   1.01127E+06,   1.01035E+06,   1.01035E+06
C:/temp/Job-1.odb,Step-1,Increment      1: Step Time =    1.000,"P-1-1",         10282,   22.8194E-03,   45.2705E-03,            0.,NA,NA,"",   957.202E+03,   1.02187E+06,   1.02187E+06
C:/temp/Job-1.odb,Step-1,Increment      1: Step Time =    1.000,"P-1-1",         10283,   44.4035E-03,   176.914E-03,            0.,NA,NA,"",   1.04446E+06,   1.05281E+06,   1.05281E+06
C:/temp/Job-1.odb,Step-1,Increment      1: Step Time =    1.000,"P-1-1",         10284,   117.856E-03,   139.007E-03,            0.,NA,NA,"",   1.12672E+06,   1.12876E+06,   1.12876E+06
C:/temp/Job-1.odb,Step-1,Increment      1: Step Time =    1.000,"P-1-1",         10285,   125.240E-03,   175.342E-03,            0.,NA,NA,"",   1.00908E+06,   1.00950E+06,   1.00950E+06
C:/temp/Job-1.odb,Step-1,Increment      1: Step Time =    1.000,"P-1-1",         10286,   23.6759E-03,   129.060E-03,            0.,NA,NA,"",   870.268E+03,   947.311E+03,   947.311E+03
C:/temp/Job-1.odb,Step-1,Increment      1: Step Time =    1.000,"P-1-1",         10287,   24.5454E-03,   124.803E-03,            0.,NA,NA,"",   859.004E+03,   936.405E+03,   936.405E+03
C:/temp/Job-1.odb,Step-1,Increment      1: Step Time =    1.000,"P-1-1",         10288,   95.7799E-03,   138.973E-03,            0.,NA,NA,"",   1.04868E+06,   1.10701E+06,   1.10701E+06
C:/temp/Job-1.odb,Step-1,Increment      1: Step Time =    1.000,"P-1-1",         10289,   85.8255E-03,   139.362E-03,            0.,NA,NA,"",   1.10195E+06,   1.12714E+06,   1.12714E+06
C:/temp/Job-1.odb,Step-1,Increment      1: Step Time =    1.000,"P-1-1",         10290,   23.1094E-03,   63.6177E-03,            0.,NA,NA,"",   893.043E+03,   967.720E+03,   967.720E+03
C:/temp/Job-1.odb,Step-1,Increment      1: Step Time =    1.000,"P-1-1",         10291,   62.7859E-03,   177.983E-03,            0.,NA,NA,"",   1.02425E+06,   1.02603E+06,   1.02603E+06
C:/temp/Job-1.odb,Step-1,Increment      1: Step Time =    1.000,"P-1-1",         10292,   93.1839E-03,   22.9076E-03,            0.,NA,NA,"",   991.238E+03,   999.089E+03,   999.089E+03
C:/temp/Job-1.odb,Step-1,Increment      1: Step Time =    1.000,"P-1-1",         10293,   22.6716E-03,   106.674E-03,            0.,NA,NA,"",   812.729E+03,   897.380E+03,   897.380E+03
C:/temp/Job-1.odb,Step-1,Increment      1: Step Time =    1.000,"P-1-1",         10294,   106.059E-03,   177.450E-03,            0.,NA,NA,"",   988.990E+03,   996.130E+03,   996.130E+03
C:/temp/Job-1.odb,Step-1,Increment      1: Step Time =    1.000,"P-1-1",         10295,   80.9318E-03,   171.419E-03,            0.,NA,NA,"",   1.01719E+06,   1.02458E+06,   1.02458E+06
C:/temp/Job-1.odb,Step-1,Increment      1: Step Time =    1.000,"P-1-1",         10296,   109.821E-03,   172.981E-03,            0.,NA,NA,"",   999.827E+03,   1.00836E+06,   1.00836E+06
C:/temp/Job-1.odb,Step-1,Increment      1: Step Time =    1.000,"P-1-1",         10297,   128.800E-03,   123.597E-03,            0.,NA,NA,"",   1.16414E+06,   1.10054E+06,   1.10054E+06
C:/temp/Job-1.odb,Step-1,Increment      1: Step Time =    1.000,"P-1-1",         10298,   25.8849E-03,   108.998E-03,            0.,NA,NA,"",   820.343E+03,   901.276E+03,   901.276E+03
C:/temp/Job-1.odb,Step-1,Increment      1: Step Time =    1.000,"P-1-1",         10299,   27.1192E-03,   79.4463E-03,            0.,NA,NA,"",   852.040E+03,   927.709E+03,   927.709E+03
C:/temp/Job-1.odb,Step-1,Increment      1: Step Time =    1.000,"P-1-1",         10300,   173.954E-03,   119.652E-03,            0.,NA,NA,"",   980.344E+03,   989.176E+03,   989.176E+03
C:/temp/Job-1.odb,Step-1,Increment      1: Step Time =    1.000,"P-1-1",         10301,   173.416E-03,   146.246E-03,            0.,NA,NA,"",   1.01580E+06,   1.01368E+06,   1.01368E+06
C:/temp/Job-1.odb,Step-1,Increment      1: Step Time =    1.000,"P-1-1",         10302,   51.3665E-03,   172.933E-03,            0.,NA,NA,"",   1.04375E+06,   1.04991E+06,   1.04991E+06
C:/temp/Job-1.odb,Step-1,Increment      1: Step Time =    1.000,"P-1-1",         10303,   145.886E-03,   26.7214E-03,            0.,NA,NA,"",   1.02275E+06,   1.01714E+06,   1.01714E+06
C:/temp/Job-1.odb,Step-1,Increment      1: Step Time =    1.000,"P-1-1",         10304,   26.9269E-03,   50.4990E-03,            0.,NA,NA,"",   954.263E+03,   1.01423E+06,   1.01423E+06
C:/temp/Job-1.odb,Step-1,Increment      1: Step Time =    1.000,"P-1-1",         10305,   119.315E-03,   26.5729E-03,            0.,NA,NA,"",   1.00812E+06,   1.01163E+06,   1.01163E+06
C:/temp/Job-1.odb,Step-1,Increment      1: Step Time =    1.000,"P-1-1",         10306,   90.7604E-03,   27.5352E-03,            0.,NA,NA,"",   1.00262E+06,   1.01316E+06,   1.01316E+06
C:/temp/Job-1.odb,Step-1,Increment      1: Step Time =    1.000,"P-1-1",         10307,   79.7620E-03,   136.482E-03,            0.,NA,NA,"",   1.14165E+06,   1.14300E+06,   1.14300E+06
C:/temp/Job-1.odb,Step-1,Increment      1: Step Time =    1.000,"P-1-1",         10308,   87.4906E-03,   71.0531E-03,            0.,NA,NA,"",   1.19039E+06,   1.21522E+06,   1.21522E+06
C:/temp/Job-1.odb,Step-1,Increment      1: Step Time =    1.000,"P-1-1",         10309,   176.376E-03,   97.1713E-03,            0.,NA,NA,"",   960.976E+03,   977.420E+03,   977.420E+03
C:/temp/Job-1.odb,Step-1,Increment      1: Step Time =    1.000,"P-1-1",         10310,   71.7833E-03,   73.3928E-03,            0.,NA,NA,"",   1.14186E+06,   1.11203E+06,   1.11203E+06
C:/temp/Job-1.odb,Step-1,Increment      1: Step Time =    1.000,"P-1-1",         10311,   26.5495E-03,   145.576E-03,            0.,NA,NA,"",   938.300E+03,   1.00182E+06,   1.00182E+06
C:/temp/Job-1.odb,Step-1,Increment      1: Step Time =    1.000,"P-1-1",         10312,   144.671E-03,   173.239E-03,            0.,NA,NA,"",   1.02303E+06,   1.01746E+06,   1.01746E+06
C:/temp/Job-1.odb,Step-1,Increment      1: Step Time =    1.000,"P-1-1",         10313,   55.4436E-03,   26.8462E-03,            0.,NA,NA,"",   1.04118E+06,   1.04540E+06,   1.04540E+06
C:/temp/Job-1.odb,Step-1,Increment      1: Step Time =    1.000,"P-1-1",         10314,   173.960E-03,   55.3063E-03,            0.,NA,NA,"",   1.01416E+06,   1.01273E+06,   1.01273E+06
C:/temp/Job-1.odb,Step-1,Increment      1: Step Time =    1.000,"P-1-1",         10315,   74.0165E-03,   73.2010E-03,            0.,NA,NA,"",   1.16617E+06,   1.13339E+06,   1.13339E+06
C:/temp/Job-1.odb,Step-1,Increment      1: Step Time =    1.000,"P-1-1",         10316,   67.9992E-03,   75.6080E-03,            0.,NA,NA,"",   1.09041E+06,   1.06715E+06,   1.06715E+06
C:/temp/Job-1.odb,Step-1,Increment      1: Step Time =    1.000,"P-1-1",         10317,   69.8234E-03,   127.811E-03,            0.,NA,NA,"",   1.12251E+06,   1.09902E+06,   1.09902E+06
C:/temp/Job-1.odb,Step-1,Increment      1: Step Time =    1.000,"P-1-1",         10318,   64.7150E-03,   98.1316E-03,            0.,NA,NA,"",   684.424E+03,   728.891E+03,   728.891E+03
C:/temp/Job-1.odb,Step-1,Increment      1: Step Time =    1.000,"P-1-1",         10319,   63.4644E-03,   112.793E-03,            0.,NA,NA,"",   878.209E+03,   891.347E+03,   891.347E+03
C:/temp/Job-1.odb,Step-1,Increment      1: Step Time =    1.000,"P-1-1",         10320,   63.2051E-03,   109.565E-03,            0.,NA,NA,"",   814.536E+03,   839.779E+03,   839.779E+03
C:/temp/Job-1.odb,Step-1,Increment      1: Step Time =    1.000,"P-1-1",         10321,   92.7305E-03,   25.1510E-03,            0.,NA,NA,"",   996.084E+03,   1.00532E+06,   1.00532E+06
C:/temp/Job-1.odb,Step-1,Increment      1: Step Time =    1.000,"P-1-1",         10322,   175.975E-03,   76.3198E-03,            0.,NA,NA,"",   987.150E+03,   995.343E+03,   995.343E+03
C:/temp/Job-1.odb,Step-1,Increment      1: Step Time =    1.000,"P-1-1",         10323,   76.0698E-03,   24.3854E-03,            0.,NA,NA,"",   1.01377E+06,   1.01791E+06,   1.01791E+06
C:/temp/Job-1.odb,Step-1,Increment      1: Step Time =    1.000,"P-1-1",         10324,   148.959E-03,   25.1402E-03,            0.,NA,NA,"",   1.01919E+06,   1.01409E+06,   1.01409E+06
C:/temp/Job-1.odb,Step-1,Increment      1: Step Time =    1.000,"P-1-1",         10325,   175.547E-03,   149.133E-03,            0.,NA,NA,"",   1.01330E+06,   1.01212E+06,   1.01212E+06
C:/temp/Job-1.odb,Step-1,Increment      1: Step Time =    1.000,"P-1-1",         10326,   23.8187E-03,   107.390E-03,            0.,NA,NA,"",   815.159E+03,   898.547E+03,   898.547E+03
C:/temp/Job-1.odb,Step-1,Increment      1: Step Time =    1.000,"P-1-1",         10327,   107.345E-03,   176.073E-03,            0.,NA,NA,"",   992.215E+03,   999.792E+03,   999.792E+03
C:/temp/Job-1.odb,Step-1,Increment      1: Step Time =    1.000,"P-1-1",         10328,   175.198E-03,   52.5270E-03,            0.,NA,NA,"",   1.01337E+06,   1.01225E+06,   1.01225E+06
C:/temp/Job-1.odb,Step-1,Increment      1: Step Time =    1.000,"P-1-1",         10329,   51.7263E-03,   23.7530E-03,            0.,NA,NA,"",   1.03912E+06,   1.04372E+06,   1.04372E+06
C:/temp/Job-1.odb,Step-1,Increment      1: Step Time =    1.000,"P-1-1",         10330,   148.721E-03,   175.846E-03,            0.,NA,NA,"",   1.01732E+06,   1.01257E+06,   1.01257E+06
C:/temp/Job-1.odb,Step-1,Increment      1: Step Time =    1.000,"P-1-1",         10331,   23.9418E-03,   149.289E-03,            0.,NA,NA,"",   941.143E+03,   1.00747E+06,   1.00747E+06
C:/temp/Job-1.odb,Step-1,Increment      1: Step Time =    1.000,"P-1-1",         10332,   119.842E-03,   135.535E-03,            0.,NA,NA,"",   1.16113E+06,   1.14862E+06,   1.14862E+06
C:/temp/Job-1.odb,Step-1,Increment      1: Step Time =    1.000,"P-1-1",         10333,   132.781E-03,   93.0228E-03,            0.,NA,NA,"",   796.598E+03,   788.472E+03,   788.472E+03
C:/temp/Job-1.odb,Step-1,Increment      1: Step Time =    1.000,"P-1-1",         10334,   94.0663E-03,   77.2077E-03,            0.,NA,NA,"",   1.24738E+06,   1.33959E+06,   1.33959E+06
C:/temp/Job-1.odb,Step-1,Increment      1: Step Time =    1.000,"P-1-1",         10335,   63.3055E-03,   106.234E-03,            0.,NA,NA,"",    752.82E+03,   789.134E+03,   789.134E+03
C:/temp/Job-1.odb,Step-1,Increment      1: Step Time =    1.000,"P-1-1",         10336,   68.2975E-03,   123.276E-03,            0.,NA,NA,"",   1.08370E+06,   1.05933E+06,   1.05933E+06
C:/temp/Job-1.odb,Step-1,Increment      1: Step Time =    1.000,"P-1-1",         10337,   74.0221E-03,   129.125E-03,            0.,NA,NA,"",   1.16325E+06,   1.13677E+06,   1.13677E+06
C:/temp/Job-1.odb,Step-1,Increment      1: Step Time =    1.000,"P-1-1",         10338,   140.508E-03,   113.681E-03,            0.,NA,NA,"",   942.228E+03,   925.605E+03,   925.605E+03
C:/temp/Job-1.odb,Step-1,Increment      1: Step Time =    1.000,"P-1-1",         10339,   104.794E-03,   139.503E-03,            0.,NA,NA,"",   1.04975E+06,   1.10333E+06,   1.10333E+06
C:/temp/Job-1.odb,Step-1,Increment      1: Step Time =    1.000,"P-1-1",         10340,   125.890E-03,   130.060E-03,            0.,NA,NA,"",   1.18773E+06,   1.14197E+06,   1.14197E+06
C:/temp/Job-1.odb,Step-1,Increment      1: Step Time =    1.000,"P-1-1",         10341,   69.1421E-03,   93.9001E-03,            0.,NA,NA,"",   710.551E+03,   732.515E+03,   732.515E+03
C:/temp/Job-1.odb,Step-1,Increment      1: Step Time =    1.000,"P-1-1",         10342,   64.7968E-03,   77.9628E-03,            0.,NA,NA,"",   1.03413E+06,   1.02264E+06,   1.02264E+06
C:/temp/Job-1.odb,Step-1,Increment      1: Step Time =    1.000,"P-1-1",         10343,   98.4163E-03,   139.337E-03,            0.,NA,NA,"",   1.04041E+06,   1.10061E+06,   1.10061E+06
C:/temp/Job-1.odb,Step-1,Increment      1: Step Time =    1.000,"P-1-1",         10344,   50.2284E-03,   175.430E-03,            0.,NA,NA,"",   1.04153E+06,   1.04720E+06,   1.04720E+06
C:/temp/Job-1.odb,Step-1,Increment      1: Step Time =    1.000,"P-1-1",         10345,   24.5068E-03,   49.2280E-03,            0.,NA,NA,"",   949.408E+03,   1.01336E+06,   1.01336E+06
C:/temp/Job-1.odb,Step-1,Increment      1: Step Time =    1.000,"P-1-1",         10346,   110.755E-03,   137.275E-03,            0.,NA,NA,"",   1.09763E+06,   1.13172E+06,   1.13172E+06
C:/temp/Job-1.odb,Step-1,Increment      1: Step Time =    1.000,"P-1-1",         10347,   40.3930E-03,   175.421E-03,            0.,NA,NA,"",   1.04757E+06,   1.06049E+06,   1.06049E+06
C:/temp/Job-1.odb,Step-1,Increment      1: Step Time =    1.000,"P-1-1",         10348,   24.5283E-03,   41.1188E-03,            0.,NA,NA,"",   978.704E+03,   1.03657E+06,   1.03657E+06
C:/temp/Job-1.odb,Step-1,Increment      1: Step Time =    1.000,"P-1-1",         10349,   131.238E-03,   85.8184E-03,            0.,NA,NA,"",   999.918E+03,   948.646E+03,   948.646E+03
C:/temp/Job-1.odb,Step-1,Increment      1: Step Time =    1.000,"P-1-1",         10350,   139.456E-03,   108.041E-03,            0.,NA,NA,"",   854.684E+03,   853.856E+03,   853.856E+03
C:/temp/Job-1.odb,Step-1,Increment      1: Step Time =    1.000,"P-1-1",         10351,   78.9950E-03,   174.676E-03,            0.,NA,NA,"",   1.01234E+06,   1.01770E+06,   1.01770E+06
C:/temp/Job-1.odb,Step-1,Increment      1: Step Time =    1.000,"P-1-1",         10352,   175.810E-03,   120.067E-03,            0.,NA,NA,"",   980.955E+03,   990.981E+03,   990.981E+03
C:/temp/Job-1.odb,Step-1,Increment      1: Step Time =    1.000,"P-1-1",         10353,   25.1189E-03,   78.9898E-03,            0.,NA,NA,"",   848.469E+03,   926.659E+03,   926.659E+03
C:/temp/Job-1.odb,Step-1,Increment      1: Step Time =    1.000,"P-1-1",         10354,   100.877E-03,   139.644E-03,            0.,NA,NA,"",   1.03918E+06,   1.09840E+06,   1.09840E+06
C:/temp/Job-1.odb,Step-1,Increment      1: Step Time =    1.000,"P-1-1",         10355,   119.472E-03,   23.6454E-03,            0.,NA,NA,"",   1.00148E+06,   1.00434E+06,   1.00434E+06
C:/temp/Job-1.odb,Step-1,Increment      1: Step Time =    1.000,"P-1-1",         10356,   139.886E-03,   111.119E-03,            0.,NA,NA,"",   903.987E+03,   893.740E+03,   893.740E+03
C:/temp/Job-1.odb,Step-1,Increment      1: Step Time =    1.000,"P-1-1",         10357,   107.850E-03,   140.130E-03,            0.,NA,NA,"",   1.06361E+06,   1.10691E+06,   1.10691E+06
C:/temp/Job-1.odb,Step-1,Increment      1: Step Time =    1.000,"P-1-1",         10358,   62.8053E-03,   104.217E-03,            0.,NA,NA,"",   728.309E+03,   770.746E+03,   770.746E+03
C:/temp/Job-1.odb,Step-1,Increment      1: Step Time =    1.000,"P-1-1",         10359,   123.841E-03,   81.4608E-03,            0.,NA,NA,"",   1.20217E+06,   1.11198E+06,   1.11198E+06
C:/temp/Job-1.odb,Step-1,Increment      1: Step Time =    1.000,"P-1-1",         10360,   121.400E-03,   83.7464E-03,            0.,NA,NA,"",   1.22234E+06,   1.11283E+06,   1.11283E+06
C:/temp/Job-1.odb,Step-1,Increment      1: Step Time =    1.000,"P-1-1",         10361,   160.031E-03,   24.6999E-03,            0.,NA,NA,"",   1.01468E+06,   1.01068E+06,   1.01068E+06
C:/temp/Job-1.odb,Step-1,Increment      1: Step Time =    1.000,"P-1-1",         10362,   166.603E-03,   24.6307E-03,            0.,NA,NA,"",   1.01136E+06,   1.00843E+06,   1.00843E+06
C:/temp/Job-1.odb,Step-1,Increment      1: Step Time =    1.000,"P-1-1",         10363,   64.3114E-03,   81.3655E-03,            0.,NA,NA,"",   986.657E+03,   980.970E+03,   980.970E+03
C:/temp/Job-1.odb,Step-1,Increment      1: Step Time =    1.000,"P-1-1",         10364,   131.138E-03,   82.4721E-03,            0.,NA,NA,"",   1.07092E+06,   1.01178E+06,   1.01178E+06
C:/temp/Job-1.odb,Step-1,Increment      1: Step Time =    1.000,"P-1-1",         10365,   140.147E-03,   105.574E-03,            0.,NA,NA,"",   827.289E+03,   833.824E+03,   833.824E+03
C:/temp/Job-1.odb,Step-1,Increment      1: Step Time =    1.000,"P-1-1",         10366,   25.2810E-03,   122.180E-03,            0.,NA,NA,"",   852.545E+03,   930.056E+03,   930.056E+03
C:/temp/Job-1.odb,Step-1,Increment      1: Step Time =    1.000,"P-1-1",         10367,   25.7472E-03,   117.259E-03,            0.,NA,NA,"",   839.332E+03,   918.010E+03,   918.010E+03
C:/temp/Job-1.odb,Step-1,Increment      1: Step Time =    1.000,"P-1-1",         10368,   121.324E-03,   175.204E-03,            0.,NA,NA,"",   1.00572E+06,   1.00791E+06,   1.00791E+06
C:/temp/Job-1.odb,Step-1,Increment      1: Step Time =    1.000,"P-1-1",         10369,   116.754E-03,   176.011E-03,            0.,NA,NA,"",   999.404E+03,   1.00349E+06,   1.00349E+06
C:/temp/Job-1.odb,Step-1,Increment      1: Step Time =    1.000,"P-1-1",         10370,   38.3563E-03,   174.513E-03,            0.,NA,NA,"",   1.04776E+06,   1.06358E+06,   1.06358E+06
C:/temp/Job-1.odb,Step-1,Increment      1: Step Time =    1.000,"P-1-1",         10371,   32.0769E-03,   174.026E-03,            0.,NA,NA,"",   1.04741E+06,   1.07223E+06,   1.07223E+06
C:/temp/Job-1.odb,Step-1,Increment      1: Step Time =    1.000,"P-1-1",         10372,   76.8738E-03,   24.9323E-03,            0.,NA,NA,"",   1.01405E+06,   1.01856E+06,   1.01856E+06
C:/temp/Job-1.odb,Step-1,Increment      1: Step Time =    1.000,"P-1-1",         10373,   82.6527E-03,   24.2907E-03,            0.,NA,NA,"",   1.00493E+06,   1.01103E+06,   1.01103E+06
C:/temp/Job-1.odb,Step-1,Increment      1: Step Time =    1.000,"P-1-1",         10374,   175.609E-03,   77.7370E-03,            0.,NA,NA,"",   985.034E+03,   993.631E+03,   993.631E+03
C:/temp/Job-1.odb,Step-1,Increment      1: Step Time =    1.000,"P-1-1",         10375,   175.856E-03,   82.9533E-03,            0.,NA,NA,"",   976.033E+03,   987.495E+03,   987.495E+03
C:/temp/Job-1.odb,Step-1,Increment      1: Step Time =    1.000,"P-1-1",         10376,   96.8789E-03,   174.037E-03,            0.,NA,NA,"",   995.192E+03,   1.00544E+06,   1.00544E+06
C:/temp/Job-1.odb,Step-1,Increment      1: Step Time =    1.000,"P-1-1",         10377,   174.355E-03,   103.413E-03,            0.,NA,NA,"",   958.760E+03,   974.147E+03,   974.147E+03
C:/temp/Job-1.odb,Step-1,Increment      1: Step Time =    1.000,"P-1-1",         10378,   25.4763E-03,   96.4523E-03,            0.,NA,NA,"",   813.514E+03,   895.629E+03,   895.629E+03
C:/temp/Job-1.odb,Step-1,Increment      1: Step Time =    1.000,"P-1-1",         10379,   64.2694E-03,   175.492E-03,            0.,NA,NA,"",   1.02866E+06,   1.03091E+06,   1.03091E+06
C:/temp/Job-1.odb,Step-1,Increment      1: Step Time =    1.000,"P-1-1",         10380,   72.1565E-03,   129.251E-03,            0.,NA,NA,"",   1.14616E+06,   1.12156E+06,   1.12156E+06
C:/temp/Job-1.odb,Step-1,Increment      1: Step Time =    1.000,"P-1-1",         10381,   25.6982E-03,   64.7890E-03,            0.,NA,NA,"",   898.276E+03,   969.184E+03,   969.184E+03
C:/temp/Job-1.odb,Step-1,Increment      1: Step Time =    1.000,"P-1-1",         10382,   103.385E-03,   25.5621E-03,            0.,NA,NA,"",   993.885E+03,   1.00352E+06,   1.00352E+06
C:/temp/Job-1.odb,Step-1,Increment      1: Step Time =    1.000,"P-1-1",         10383,   45.3682E-03,   174.237E-03,            0.,NA,NA,"",   1.04541E+06,   1.05487E+06,   1.05487E+06
C:/temp/Job-1.odb,Step-1,Increment      1: Step Time =    1.000,"P-1-1",         10384,   69.7210E-03,   173.769E-03,            0.,NA,NA,"",   1.02685E+06,   1.02990E+06,   1.02990E+06
C:/temp/Job-1.odb,Step-1,Increment      1: Step Time =    1.000,"P-1-1",         10385,   25.9358E-03,   45.2619E-03,            0.,NA,NA,"",   968.918E+03,   1.02711E+06,   1.02711E+06
C:/temp/Job-1.odb,Step-1,Increment      1: Step Time =    1.000,"P-1-1",         10386,   25.7619E-03,   164.782E-03,            0.,NA,NA,"",   1.00592E+06,   1.05506E+06,   1.05506E+06
C:/temp/Job-1.odb,Step-1,Increment      1: Step Time =    1.000,"P-1-1",         10387,   105.222E-03,   179.032E-03,            0.,NA,NA,"",   985.548E+03,   992.003E+03,   992.003E+03
C:/temp/Job-1.odb,Step-1,Increment      1: Step Time =    1.000,"P-1-1",         10388,   174.222E-03,   153.921E-03,            0.,NA,NA,"",   1.01565E+06,   1.01326E+06,   1.01326E+06
C:/temp/Job-1.odb,Step-1,Increment      1: Step Time =    1.000,"P-1-1",         10389,   154.930E-03,   25.1471E-03,            0.,NA,NA,"",   1.01751E+06,   1.01274E+06,   1.01274E+06
C:/temp/Job-1.odb,Step-1,Increment      1: Step Time =    1.000,"P-1-1",         10390,   21.4794E-03,   105.961E-03,            0.,NA,NA,"",   810.300E+03,   896.213E+03,   896.213E+03
C:/temp/Job-1.odb,Step-1,Increment      1: Step Time =    1.000,"P-1-1",         10391,   173.036E-03,   139.403E-03,            0.,NA,NA,"",   1.01192E+06,   1.01108E+06,   1.01108E+06
C:/temp/Job-1.odb,Step-1,Increment      1: Step Time =    1.000,"P-1-1",         10392,   139.299E-03,   26.9602E-03,            0.,NA,NA,"",   1.02325E+06,   1.01835E+06,   1.01835E+06
C:/temp/Job-1.odb,Step-1,Increment      1: Step Time =    1.000,"P-1-1",         10393,   174.863E-03,   162.487E-03,            0.,NA,NA,"",   1.01298E+06,   1.01075E+06,   1.01075E+06
C:/temp/Job-1.odb,Step-1,Increment      1: Step Time =    1.000,"P-1-1",         10394,   85.4284E-03,   172.395E-03,            0.,NA,NA,"",   1.00880E+06,   1.01755E+06,   1.01755E+06
C:/temp/Job-1.odb,Step-1,Increment      1: Step Time =    1.000,"P-1-1",         10395,   102.707E-03,   22.3534E-03,            0.,NA,NA,"",   987.676E+03,   995.285E+03,   995.285E+03
C:/temp/Job-1.odb,Step-1,Increment      1: Step Time =    1.000,"P-1-1",         10396,   25.7571E-03,   37.5546E-03,            0.,NA,NA,"",   996.883E+03,   1.04855E+06,   1.04855E+06
C:/temp/Job-1.odb,Step-1,Increment      1: Step Time =    1.000,"P-1-1",         10397,   26.7131E-03,   86.0824E-03,            0.,NA,NA,"",   832.193E+03,   910.828E+03,   910.828E+03
C:/temp/Job-1.odb,Step-1,Increment      1: Step Time =    1.000,"P-1-1",         10398,   83.8492E-03,   174.273E-03,            0.,NA,NA,"",   1.00655E+06,   1.01367E+06,   1.01367E+06
C:/temp/Job-1.odb,Step-1,Increment      1: Step Time =    1.000,"P-1-1",         10399,   172.333E-03,   112.833E-03,            0.,NA,NA,"",   967.142E+03,   978.429E+03,   978.429E+03
C:/temp/Job-1.odb,Step-1,Increment      1: Step Time =    1.000,"P-1-1",         10400,   172.964E-03,   33.3775E-03,            0.,NA,NA,"",   1.01310E+06,   1.01044E+06,   1.01044E+06
C:/temp/Job-1.odb,Step-1,Increment      1: Step Time =    1.000,"P-1-1",         10401,   169.743E-03,   27.0209E-03,            0.,NA,NA,"",   1.01144E+06,   1.00874E+06,   1.00874E+06
C:/temp/Job-1.odb,Step-1,Increment      1: Step Time =    1.000,"P-1-1",         10402,   34.6442E-03,   26.5885E-03,            0.,NA,NA,"",   1.04662E+06,   1.06845E+06,   1.06845E+06
C:/temp/Job-1.odb,Step-1,Increment      1: Step Time =    1.000,"P-1-1",         10403,   113.244E-03,   25.9931E-03,            0.,NA,NA,"",   1.00062E+06,   1.00706E+06,   1.00706E+06
C:/temp/Job-1.odb,Step-1,Increment      1: Step Time =    1.000,"P-1-1",         10404,   18.8770E-03,   107.505E-03,            0.,NA,NA,"",   807.876E+03,   896.137E+03,   896.137E+03
C:/temp/Job-1.odb,Step-1,Increment      1: Step Time =    1.000,"P-1-1",         10405,   165.399E-03,   174.442E-03,            0.,NA,NA,"",   1.01283E+06,   1.00952E+06,   1.00952E+06
C:/temp/Job-1.odb,Step-1,Increment      1: Step Time =    1.000,"P-1-1",         10406,   25.0855E-03,   83.8413E-03,            0.,NA,NA,"",   834.655E+03,   914.612E+03,   914.612E+03
C:/temp/Job-1.odb,Step-1,Increment      1: Step Time =    1.000,"P-1-1",         10407,   21.6135E-03,   97.9533E-03,            0.,NA,NA,"",   807.834E+03,   893.932E+03,   893.932E+03
C:/temp/Job-1.odb,Step-1,Increment      1: Step Time =    1.000,"P-1-1",         10408,   107.515E-03,   180.969E-03,            0.,NA,NA,"",   982.247E+03,   987.283E+03,   987.283E+03
C:/temp/Job-1.odb,Step-1,Increment      1: Step Time =    1.000,"P-1-1",         10409,   173.881E-03,   116.677E-03,            0.,NA,NA,"",   974.959E+03,   985.242E+03,   985.242E+03
C:/temp/Job-1.odb,Step-1,Increment      1: Step Time =    1.000,"P-1-1",         10410,   178.017E-03,   103.418E-03,            0.,NA,NA,"",   963.080E+03,   980.445E+03,   980.445E+03
C:/temp/Job-1.odb,Step-1,Increment      1: Step Time =    1.000,"P-1-1",         10411,   112.576E-03,   173.644E-03,            0.,NA,NA,"",   1.00080E+06,   1.00777E+06,   1.00777E+06
C:/temp/Job-1.odb,Step-1,Increment      1: Step Time =    1.000,"P-1-1",         10412,   25.7623E-03,   113.354E-03,            0.,NA,NA,"",   828.761E+03,   908.836E+03,   908.836E+03
C:/temp/Job-1.odb,Step-1,Increment      1: Step Time =    1.000,"P-1-1",         10413,   97.0514E-03,   177.911E-03,            0.,NA,NA,"",   987.689E+03,   995.343E+03,   995.343E+03
C:/temp/Job-1.odb,Step-1,Increment      1: Step Time =    1.000,"P-1-1",         10414,   27.3664E-03,   143.208E-03,            0.,NA,NA,"",   933.346E+03,   996.649E+03,   996.649E+03
C:/temp/Job-1.odb,Step-1,Increment      1: Step Time =    1.000,"P-1-1",         10415,   94.2242E-03,   20.8300E-03,            0.,NA,NA,"",   986.291E+03,   993.059E+03,   993.059E+03
C:/temp/Job-1.odb,Step-1,Increment      1: Step Time =    1.000,"P-1-1",         10416,   142.635E-03,   173.128E-03,            0.,NA,NA,"",   1.02342E+06,   1.01800E+06,   1.01800E+06
C:/temp/Job-1.odb,Step-1,Increment      1: Step Time =    1.000,"P-1-1",         10417,   174.186E-03,   142.724E-03,            0.,NA,NA,"",   1.01264E+06,   1.01181E+06,   1.01181E+06
C:/temp/Job-1.odb,Step-1,Increment      1: Step Time =    1.000,"P-1-1",         10418,   142.994E-03,   26.9230E-03,            0.,NA,NA,"",   1.02357E+06,   1.01808E+06,   1.01808E+06
C:/temp/Job-1.odb,Step-1,Increment      1: Step Time =    1.000,"P-1-1",         10419,   58.2930E-03,   26.3527E-03,            0.,NA,NA,"",   1.03850E+06,   1.04178E+06,   1.04178E+06
C:/temp/Job-1.odb,Step-1,Increment      1: Step Time =    1.000,"P-1-1",         10420,   173.910E-03,   57.8773E-03,            0.,NA,NA,"",   1.01268E+06,   1.01180E+06,   1.01180E+06
C:/temp/Job-1.odb,Step-1,Increment      1: Step Time =    1.000,"P-1-1",         10421,   116.083E-03,   25.3521E-03,            0.,NA,NA,"",   1.00196E+06,   1.00685E+06,   1.00685E+06
C:/temp/Job-1.odb,Step-1,Increment      1: Step Time =    1.000,"P-1-1",         10422,   25.7486E-03,   172.010E-03,            0.,NA,NA,"",   1.03547E+06,   1.07519E+06,   1.07519E+06
C:/temp/Job-1.odb,Step-1,Increment      1: Step Time =    1.000,"P-1-1",         10423,   139.562E-03,   99.3321E-03,            0.,NA,NA,"",   787.217E+03,   801.209E+03,   801.209E+03
C:/temp/Job-1.odb,Step-1,Increment      1: Step Time =    1.000,"P-1-1",         10424,   87.2104E-03,   25.5296E-03,            0.,NA,NA,"",   1.00214E+06,   1.01029E+06,   1.01029E+06
C:/temp/Job-1.odb,Step-1,Increment      1: Step Time =    1.000,"P-1-1",         10425,   27.3481E-03,   174.288E-03,            0.,NA,NA,"",   1.04580E+06,   1.07879E+06,   1.07879E+06
C:/temp/Job-1.odb,Step-1,Increment      1: Step Time =    1.000,"P-1-1",         10426,   174.038E-03,   28.4721E-03,            0.,NA,NA,"",   1.00948E+06,   1.00753E+06,   1.00753E+06
C:/temp/Job-1.odb,Step-1,Increment      1: Step Time =    1.000,"P-1-1",         10427,   28.5293E-03,   26.1045E-03,            0.,NA,NA,"",   1.04521E+06,   1.07652E+06,   1.07652E+06
C:/temp/Job-1.odb,Step-1,Increment      1: Step Time =    1.000,"P-1-1",         10428,   171.508E-03,   173.822E-03,            0.,NA,NA,"",   1.00979E+06,   1.00755E+06,   1.00755E+06
C:/temp/Job-1.odb,Step-1,Increment      1: Step Time =    1.000,"P-1-1",         10429,   173.243E-03,   26.3034E-03,            0.,NA,NA,"",   1.00879E+06,   1.00687E+06,   1.00687E+06
C:/temp/Job-1.odb,Step-1,Increment      1: Step Time =    1.000,"P-1-1",         10430,   140.002E-03,   118.311E-03,            0.,NA,NA,"",   1.00907E+06,   979.822E+03,   979.822E+03
C:/temp/Job-1.odb,Step-1,Increment      1: Step Time =    1.000,"P-1-1",         10431,   130.110E-03,   123.343E-03,            0.,NA,NA,"",   1.14796E+06,   1.08702E+06,   1.08702E+06
C:/temp/Job-1.odb,Step-1,Increment      1: Step Time =    1.000,"P-1-1",         10432,   64.2056E-03,   85.5261E-03,            0.,NA,NA,"",   915.707E+03,   920.444E+03,   920.444E+03
C:/temp/Job-1.odb,Step-1,Increment      1: Step Time =    1.000,"P-1-1",         10433,   63.9034E-03,   78.8673E-03,            0.,NA,NA,"",   1.01442E+06,   1.00719E+06,   1.00719E+06
C:/temp/Job-1.odb,Step-1,Increment      1: Step Time =    1.000,"P-1-1",         10434,   90.8288E-03,   72.6328E-03,            0.,NA,NA,"",   1.18381E+06,   1.23757E+06,   1.23757E+06
C:/temp/Job-1.odb,Step-1,Increment      1: Step Time =    1.000,"P-1-1",         10435,   92.7687E-03,   139.395E-03,            0.,NA,NA,"",   1.06169E+06,   1.11128E+06,   1.11128E+06
C:/temp/Job-1.odb,Step-1,Increment      1: Step Time =    1.000,"P-1-1",         10436,   63.8226E-03,   115.772E-03,            0.,NA,NA,"",   934.047E+03,     937.4E+03,     937.4E+03
C:/temp/Job-1.odb,Step-1,Increment      1: Step Time =    1.000,"P-1-1",         10437,   169.010E-03,   173.804E-03,            0.,NA,NA,"",   1.01131E+06,   1.00857E+06,   1.00857E+06
C:/temp/Job-1.odb,Step-1,Increment      1: Step Time =    1.000,"P-1-1",         10438,   31.4191E-03,   25.7906E-03,            0.,NA,NA,"",   1.04751E+06,   1.07333E+06,   1.07333E+06
C:/temp/Job-1.odb,Step-1,Increment      1: Step Time =    1.000,"P-1-1",         10439,   172.628E-03,   30.5862E-03,            0.,NA,NA,"",   1.01172E+06,   1.00925E+06,   1.00925E+06
C:/temp/Job-1.odb,Step-1,Increment      1: Step Time =    1.000,"P-1-1",         10440,   27.4789E-03,   168.797E-03,            0.,NA,NA,"",   1.02609E+06,   1.06637E+06,   1.06637E+06
C:/temp/Job-1.odb,Step-1,Increment      1: Step Time =    1.000,"P-1-1",         10441,   82.2172E-03,   139.632E-03,            0.,NA,NA,"",   1.11533E+06,   1.12859E+06,   1.12859E+06
C:/temp/Job-1.odb,Step-1,Increment      1: Step Time =    1.000,"P-1-1",         10442,   76.2562E-03,   72.9371E-03,            0.,NA,NA,"",   1.18846E+06,   1.15552E+06,   1.15552E+06
C:/temp/Job-1.odb,Step-1,Increment      1: Step Time =    1.000,"P-1-1",         10443,   66.9041E-03,   118.644E-03,            0.,NA,NA,"",   1.01344E+06,   996.555E+03,   996.555E+03
C:/temp/Job-1.odb,Step-1,Increment      1: Step Time =    1.000,"P-1-1",         10444,   90.3832E-03,   138.891E-03,            0.,NA,NA,"",   1.07742E+06,   1.12027E+06,   1.12027E+06
C:/temp/Job-1.odb,Step-1,Increment      1: Step Time =    1.000,"P-1-1",         10445,   64.4237E-03,   117.522E-03,            0.,NA,NA,"",   969.049E+03,   965.554E+03,   965.554E+03
C:/temp/Job-1.odb,Step-1,Increment      1: Step Time =    1.000,"P-1-1",         10446,   28.0315E-03,   139.773E-03,            0.,NA,NA,"",   923.810E+03,   987.856E+03,   987.856E+03
C:/temp/Job-1.odb,Step-1,Increment      1: Step Time =    1.000,"P-1-1",         10447,   140.487E-03,   173.298E-03,            0.,NA,NA,"",   1.02280E+06,   1.01778E+06,   1.01778E+06
C:/temp/Job-1.odb,Step-1,Increment      1: Step Time =    1.000,"P-1-1",         10448,   60.2810E-03,   26.7169E-03,            0.,NA,NA,"",   1.03759E+06,   1.04049E+06,   1.04049E+06
C:/temp/Job-1.odb,Step-1,Increment      1: Step Time =    1.000,"P-1-1",         10449,   173.125E-03,   60.9445E-03,            0.,NA,NA,"",   1.01153E+06,   1.01083E+06,   1.01083E+06
C:/temp/Job-1.odb,Step-1,Increment      1: Step Time =    1.000,"P-1-1",         10450,   162.563E-03,   26.3813E-03,            0.,NA,NA,"",   1.01537E+06,   1.01135E+06,   1.01135E+06
C:/temp/Job-1.odb,Step-1,Increment      1: Step Time =    1.000,"P-1-1",         10451,   173.383E-03,   165.909E-03,            0.,NA,NA,"",   1.01307E+06,   1.01050E+06,   1.01050E+06
C:/temp/Job-1.odb,Step-1,Increment      1: Step Time =    1.000,"P-1-1",         10452,   25.6248E-03,   34.2712E-03,            0.,NA,NA,"",   1.00977E+06,   1.05801E+06,   1.05801E+06
C:/temp/Job-1.odb,Step-1,Increment      1: Step Time =    1.000,"P-1-1",         10453,   26.8388E-03,   119.737E-03,            0.,NA,NA,"",   848.604E+03,   925.029E+03,   925.029E+03
C:/temp/Job-1.odb,Step-1,Increment      1: Step Time =    1.000,"P-1-1",         10454,   119.307E-03,   173.160E-03,            0.,NA,NA,"",   1.00867E+06,   1.01224E+06,   1.01224E+06
C:/temp/Job-1.odb,Step-1,Increment      1: Step Time =    1.000,"P-1-1",         10455,   34.2203E-03,   172.203E-03,            0.,NA,NA,"",   1.04427E+06,   1.06809E+06,   1.06809E+06
C:/temp/Job-1.odb,Step-1,Increment      1: Step Time =    1.000,"P-1-1",         10456,   80.0475E-03,   26.3904E-03,            0.,NA,NA,"",   1.01342E+06,   1.01944E+06,   1.01944E+06
C:/temp/Job-1.odb,Step-1,Increment      1: Step Time =    1.000,"P-1-1",         10457,   114.006E-03,   137.431E-03,            0.,NA,NA,"",   1.11841E+06,   1.13667E+06,   1.13667E+06
C:/temp/Job-1.odb,Step-1,Increment      1: Step Time =    1.000,"P-1-1",         10458,   174.244E-03,   80.4056E-03,            0.,NA,NA,"",   980.584E+03,   989.572E+03,   989.572E+03
C:/temp/Job-1.odb,Step-1,Increment      1: Step Time =    1.000,"P-1-1",         10459,   66.7055E-03,   173.694E-03,            0.,NA,NA,"",   1.03046E+06,   1.03307E+06,   1.03307E+06
C:/temp/Job-1.odb,Step-1,Increment      1: Step Time =    1.000,"P-1-1",         10460,   26.3440E-03,   66.2446E-03,            0.,NA,NA,"",   895.666E+03,   966.191E+03,   966.191E+03
C:/temp/Job-1.odb,Step-1,Increment      1: Step Time =    1.000,"P-1-1",         10461,   65.1467E-03,   89.8293E-03,            0.,NA,NA,"",   825.229E+03,   842.122E+03,   842.122E+03
C:/temp/Job-1.odb,Step-1,Increment      1: Step Time =    1.000,"P-1-1",         10462,   93.4488E-03,   172.640E-03,            0.,NA,NA,"",   999.704E+03,   1.01069E+06,   1.01069E+06
C:/temp/Job-1.odb,Step-1,Increment      1: Step Time =    1.000,"P-1-1",         10463,   172.580E-03,   106.341E-03,            0.,NA,NA,"",   958.252E+03,   972.167E+03,   972.167E+03
C:/temp/Job-1.odb,Step-1,Increment      1: Step Time =    1.000,"P-1-1",         10464,   26.1076E-03,   93.7358E-03,            0.,NA,NA,"",   816.758E+03,   897.952E+03,   897.952E+03
C:/temp/Job-1.odb,Step-1,Increment      1: Step Time =    1.000,"P-1-1",         10465,   107.068E-03,   26.8122E-03,            0.,NA,NA,"",   997.650E+03,   1.00710E+06,   1.00710E+06
C:/temp/Job-1.odb,Step-1,Increment      1: Step Time =    1.000,"P-1-1",         10466,   130.011E-03,   82.0569E-03,            0.,NA,NA,"",   1.09117E+06,   1.02677E+06,   1.02677E+06
C:/temp/Job-1.odb,Step-1,Increment      1: Step Time =    1.000,"P-1-1",         10467,   175.046E-03,   95.3025E-03,            0.,NA,NA,"",   960.463E+03,   975.949E+03,   975.949E+03
C:/temp/Job-1.odb,Step-1,Increment      1: Step Time =    1.000,"P-1-1",         10468,   65.3754E-03,   87.1962E-03,            0.,NA,NA,"",   886.948E+03,   892.155E+03,   892.155E+03
C:/temp/Job-1.odb,Step-1,Increment      1: Step Time =    1.000,"P-1-1",         10469,   173.352E-03,   169.432E-03,            0.,NA,NA,"",   1.01117E+06,   1.00887E+06,   1.00887E+06
C:/temp/Job-1.odb,Step-1,Increment      1: Step Time =    1.000,"P-1-1",         10470,   27.1282E-03,   31.1061E-03,            0.,NA,NA,"",   1.02576E+06,   1.06672E+06,   1.06672E+06
C:/temp/Job-1.odb,Step-1,Increment      1: Step Time =    1.000,"P-1-1",         10471,   85.3270E-03,   137.833E-03,            0.,NA,NA,"",   1.11399E+06,   1.13684E+06,   1.13684E+06
C:/temp/Job-1.odb,Step-1,Increment      1: Step Time =    1.000,"P-1-1",         10472,   25.1295E-03,   62.9547E-03,            0.,NA,NA,"",   902.865E+03,   973.724E+03,   973.724E+03
C:/temp/Job-1.odb,Step-1,Increment      1: Step Time =    1.000,"P-1-1",         10473,   62.6920E-03,   176.540E-03,            0.,NA,NA,"",   1.02775E+06,   1.02982E+06,   1.02982E+06
C:/temp/Job-1.odb,Step-1,Increment      1: Step Time =    1.000,"P-1-1",         10474,   136.973E-03,   120.292E-03,            0.,NA,NA,"",   1.05313E+06,   1.01207E+06,   1.01207E+06
C:/temp/Job-1.odb,Step-1,Increment      1: Step Time =    1.000,"P-1-1",         10475,   26.7381E-03,   63.7430E-03,            0.,NA,NA,"",   906.001E+03,   974.481E+03,   974.481E+03
C:/temp/Job-1.odb,Step-1,Increment      1: Step Time =    1.000,"P-1-1",         10476,   78.1095E-03,   136.622E-03,            0.,NA,NA,"",   1.14087E+06,   1.13855E+06,   1.13855E+06
C:/temp/Job-1.odb,Step-1,Increment      1: Step Time =    1.000,"P-1-1",         10477,   63.4898E-03,   173.631E-03,            0.,NA,NA,"",   1.03395E+06,   1.03656E+06,   1.03656E+06
C:/temp/Job-1.odb,Step-1,Increment      1: Step Time =    1.000,"P-1-1",         10478,   156.828E-03,   24.5444E-03,            0.,NA,NA,"",   1.01582E+06,   1.01145E+06,   1.01145E+06
C:/temp/Job-1.odb,Step-1,Increment      1: Step Time =    1.000,"P-1-1",         10479,   174.032E-03,   155.659E-03,            0.,NA,NA,"",   1.01573E+06,   1.01317E+06,   1.01317E+06
C:/temp/Job-1.odb,Step-1,Increment      1: Step Time =    1.000,"P-1-1",         10480,   138.548E-03,   120.049E-03,            0.,NA,NA,"",   1.03875E+06,   1.00254E+06,   1.00254E+06
C:/temp/Job-1.odb,Step-1,Increment      1: Step Time =    1.000,"P-1-1",         10481,   25.3735E-03,   43.9816E-03,            0.,NA,NA,"",   971.508E+03,   1.02981E+06,   1.02981E+06
C:/temp/Job-1.odb,Step-1,Increment      1: Step Time =    1.000,"P-1-1",         10482,   26.7174E-03,   69.9427E-03,            0.,NA,NA,"",   883.554E+03,   955.358E+03,   955.358E+03
C:/temp/Job-1.odb,Step-1,Increment      1: Step Time =    1.000,"P-1-1",         10483,   70.3265E-03,   172.499E-03,            0.,NA,NA,"",   1.02923E+06,   1.03264E+06,   1.03264E+06
C:/temp/Job-1.odb,Step-1,Increment      1: Step Time =    1.000,"P-1-1",         10484,   43.7202E-03,   174.761E-03,            0.,NA,NA,"",   1.04599E+06,   1.05641E+06,   1.05641E+06
C:/temp/Job-1.odb,Step-1,Increment      1: Step Time =    1.000,"P-1-1",         10485,   79.7721E-03,   137.997E-03,            0.,NA,NA,"",   1.13150E+06,   1.13554E+06,   1.13554E+06
C:/temp/Job-1.odb,Step-1,Increment      1: Step Time =    1.000,"P-1-1",         10486,   156.136E-03,   25.8253E-03,            0.,NA,NA,"",   1.01800E+06,   1.01316E+06,   1.01316E+06
C:/temp/Job-1.odb,Step-1,Increment      1: Step Time =    1.000,"P-1-1",         10487,   173.256E-03,   154.640E-03,            0.,NA,NA,"",   1.01692E+06,   1.01401E+06,   1.01401E+06
C:/temp/Job-1.odb,Step-1,Increment      1: Step Time =    1.000,"P-1-1",         10488,   27.1337E-03,   44.8379E-03,            0.,NA,NA,"",   974.635E+03,   1.03003E+06,   1.03003E+06
C:/temp/Job-1.odb,Step-1,Increment      1: Step Time =    1.000,"P-1-1",         10489,   44.5640E-03,   173.515E-03,            0.,NA,NA,"",   1.04576E+06,   1.05630E+06,   1.05630E+06
C:/temp/Job-1.odb,Step-1,Increment      1: Step Time =    1.000,"P-1-1",         10490,   126.990E-03,   129.087E-03,            0.,NA,NA,"",   1.18576E+06,   1.13580E+06,   1.13580E+06
C:/temp/Job-1.odb,Step-1,Increment      1: Step Time =    1.000,"P-1-1",         10491,   134.086E-03,   93.9634E-03,            0.,NA,NA,"",   783.186E+03,   782.750E+03,   782.750E+03
C:/temp/Job-1.odb,Step-1,Increment      1: Step Time =    1.000,"P-1-1",         10492,   126.268E-03,   131.451E-03,            0.,NA,NA,"",   1.17994E+06,   1.13805E+06,   1.13805E+06
C:/temp/Job-1.odb,Step-1,Increment      1: Step Time =    1.000,"P-1-1",         10493,   133.110E-03,   90.5394E-03,            0.,NA,NA,"",   862.294E+03,   841.709E+03,   841.709E+03
C:/temp/Job-1.odb,Step-1,Increment      1: Step Time =    1.000,"P-1-1",         10494,   167.045E-03,   25.7038E-03,            0.,NA,NA,"",   1.01204E+06,   1.00901E+06,   1.00901E+06
C:/temp/Job-1.odb,Step-1,Increment      1: Step Time =    1.000,"P-1-1",         10495,   77.3931E-03,   132.075E-03,            0.,NA,NA,"",   1.16940E+06,   1.15465E+06,   1.15465E+06
C:/temp/Job-1.odb,Step-1,Increment      1: Step Time =    1.000,"P-1-1",         10496,   130.465E-03,   80.8020E-03,            0.,NA,NA,"",   1.10482E+06,   1.04182E+06,   1.04182E+06
C:/temp/Job-1.odb,Step-1,Increment      1: Step Time =    1.000,"P-1-1",         10497,   90.8872E-03,   70.2526E-03,            0.,NA,NA,"",   1.14870E+06,   1.20190E+06,   1.20190E+06
C:/temp/Job-1.odb,Step-1,Increment      1: Step Time =    1.000,"P-1-1",         10498,   120.578E-03,   130.808E-03,            0.,NA,NA,"",   1.20215E+06,   1.17275E+06,   1.17275E+06
C:/temp/Job-1.odb,Step-1,Increment      1: Step Time =    1.000,"P-1-1",         10499,   132.643E-03,   124.236E-03,            0.,NA,NA,"",   1.12648E+06,   1.07257E+06,   1.07257E+06
C:/temp/Job-1.odb,Step-1,Increment      1: Step Time =    1.000,"P-1-1",         10500,   173.600E-03,   70.8456E-03,            0.,NA,NA,"",   998.032E+03,   1.00156E+06,   1.00156E+06
C:/temp/Job-1.odb,Step-1,Increment      1: Step Time =    1.000,"P-1-1",         10501,   71.6980E-03,   26.4990E-03,            0.,NA,NA,"",   1.02486E+06,   1.02837E+06,   1.02837E+06
C:/temp/Job-1.odb,Step-1,Increment      1: Step Time =    1.000,"P-1-1",         10502,   75.5809E-03,   70.5771E-03,            0.,NA,NA,"",   1.17414E+06,   1.14891E+06,   1.14891E+06
C:/temp/Job-1.odb,Step-1,Increment      1: Step Time =    1.000,"P-1-1",         10503,   144.592E-03,   27.5642E-03,            0.,NA,NA,"",   1.02475E+06,   1.01890E+06,   1.01890E+06
C:/temp/Job-1.odb,Step-1,Increment      1: Step Time =    1.000,"P-1-1",         10504,   171.965E-03,   144.162E-03,            0.,NA,NA,"",   1.01721E+06,   1.01446E+06,   1.01446E+06
C:/temp/Job-1.odb,Step-1,Increment      1: Step Time =    1.000,"P-1-1",         10505,   118.721E-03,   27.7209E-03,            0.,NA,NA,"",   1.00999E+06,   1.01411E+06,   1.01411E+06
C:/temp/Job-1.odb,Step-1,Increment      1: Step Time =    1.000,"P-1-1",         10506,   115.487E-03,   139.494E-03,            0.,NA,NA,"",   1.11198E+06,   1.12446E+06,   1.12446E+06
C:/temp/Job-1.odb,Step-1,Increment      1: Step Time =    1.000,"P-1-1",         10507,   171.261E-03,   118.350E-03,            0.,NA,NA,"",   977.787E+03,   985.425E+03,   985.425E+03
C:/temp/Job-1.odb,Step-1,Increment      1: Step Time =    1.000,"P-1-1",         10508,   27.8193E-03,   80.5959E-03,            0.,NA,NA,"",   850.066E+03,   925.254E+03,   925.254E+03
C:/temp/Job-1.odb,Step-1,Increment      1: Step Time =    1.000,"P-1-1",         10509,   26.4792E-03,   110.223E-03,            0.,NA,NA,"",   823.255E+03,   903.329E+03,   903.329E+03
C:/temp/Job-1.odb,Step-1,Increment      1: Step Time =    1.000,"P-1-1",         10510,   81.0170E-03,   169.794E-03,            0.,NA,NA,"",   1.02081E+06,   1.02898E+06,   1.02898E+06
C:/temp/Job-1.odb,Step-1,Increment      1: Step Time =    1.000,"P-1-1",         10511,   111.585E-03,   171.906E-03,            0.,NA,NA,"",   1.00331E+06,   1.01162E+06,   1.01162E+06
C:/temp/Job-1.odb,Step-1,Increment      1: Step Time =    1.000,"P-1-1",         10512,   88.1996E-03,   139.256E-03,            0.,NA,NA,"",   1.08913E+06,   1.12370E+06,   1.12370E+06
C:/temp/Job-1.odb,Step-1,Increment      1: Step Time =    1.000,"P-1-1",         10513,   28.0430E-03,   51.9808E-03,            0.,NA,NA,"",   953.760E+03,   1.01228E+06,   1.01228E+06
C:/temp/Job-1.odb,Step-1,Increment      1: Step Time =    1.000,"P-1-1",         10514,   51.8636E-03,   171.613E-03,            0.,NA,NA,"",   1.04498E+06,   1.05141E+06,   1.05141E+06
C:/temp/Job-1.odb,Step-1,Increment      1: Step Time =    1.000,"P-1-1",         10515,   68.9397E-03,   96.2561E-03,            0.,NA,NA,"",   653.587E+03,   687.488E+03,   687.488E+03
C:/temp/Job-1.odb,Step-1,Increment      1: Step Time =    1.000,"P-1-1",         10516,   141.018E-03,   103.400E-03,            0.,NA,NA,"",   815.911E+03,   826.775E+03,   826.775E+03
C:/temp/Job-1.odb,Step-1,Increment      1: Step Time =    1.000,"P-1-1",         10517,   119.893E-03,   134.630E-03,            0.,NA,NA,"",   1.16704E+06,   1.15221E+06,   1.15221E+06
C:/temp/Job-1.odb,Step-1,Increment      1: Step Time =    1.000,"P-1-1",         10518,   71.2246E-03,   129.941E-03,            0.,NA,NA,"",   1.13967E+06,   1.11716E+06,   1.11716E+06
C:/temp/Job-1.odb,Step-1,Increment      1: Step Time =    1.000,"P-1-1",         10519,   69.6340E-03,   73.9486E-03,            0.,NA,NA,"",   1.11736E+06,   1.09122E+06,   1.09122E+06
C:/temp/Job-1.odb,Step-1,Increment      1: Step Time =    1.000,"P-1-1",         10520,   70.2281E-03,   72.5822E-03,            0.,NA,NA,"",   1.12665E+06,   1.10158E+06,   1.10158E+06
C:/temp/Job-1.odb,Step-1,Increment      1: Step Time =    1.000,"P-1-1",         10521,   105.892E-03,   140.292E-03,            0.,NA,NA,"",   1.05230E+06,   1.10134E+06,   1.10134E+06
C:/temp/Job-1.odb,Step-1,Increment      1: Step Time =    1.000,"P-1-1",         10522,   76.0596E-03,   129.121E-03,            0.,NA,NA,"",   1.17942E+06,   1.15335E+06,   1.15335E+06
C:/temp/Job-1.odb,Step-1,Increment      1: Step Time =    1.000,"P-1-1",         10523,   68.2766E-03,   125.344E-03,            0.,NA,NA,"",   1.09783E+06,   1.07487E+06,   1.07487E+06
C:/temp/Job-1.odb,Step-1,Increment      1: Step Time =    1.000,"P-1-1",         10524,   25.7442E-03,   39.1927E-03,            0.,NA,NA,"",   990.701E+03,   1.04393E+06,   1.04393E+06
C:/temp/Job-1.odb,Step-1,Increment      1: Step Time =    1.000,"P-1-1",         10525,   39.1306E-03,   175.970E-03,            0.,NA,NA,"",   1.04847E+06,   1.06212E+06,   1.06212E+06
C:/temp/Job-1.odb,Step-1,Increment      1: Step Time =    1.000,"P-1-1",         10526,   96.8867E-03,   140.667E-03,            0.,NA,NA,"",   1.04036E+06,   1.09598E+06,   1.09598E+06
C:/temp/Job-1.odb,Step-1,Increment      1: Step Time =    1.000,"P-1-1",         10527,   110.691E-03,   138.700E-03,            0.,NA,NA,"",   1.08844E+06,   1.12222E+06,   1.12222E+06
C:/temp/Job-1.odb,Step-1,Increment      1: Step Time =    1.000,"P-1-1",         10528,   99.6631E-03,   139.469E-03,            0.,NA,NA,"",   1.03921E+06,   1.09927E+06,   1.09927E+06
C:/temp/Job-1.odb,Step-1,Increment      1: Step Time =    1.000,"P-1-1",         10529,   105.997E-03,   175.239E-03,            0.,NA,NA,"",   993.272E+03,   1.00179E+06,   1.00179E+06
C:/temp/Job-1.odb,Step-1,Increment      1: Step Time =    1.000,"P-1-1",         10530,   23.3977E-03,   105.669E-03,            0.,NA,NA,"",   812.687E+03,   896.739E+03,   896.739E+03
C:/temp/Job-1.odb,Step-1,Increment      1: Step Time =    1.000,"P-1-1",         10531,   140.836E-03,   112.713E-03,            0.,NA,NA,"",   928.986E+03,   915.539E+03,   915.539E+03
C:/temp/Job-1.odb,Step-1,Increment      1: Step Time =    1.000,"P-1-1",         10532,   140.452E-03,   106.536E-03,            0.,NA,NA,"",   840.007E+03,   844.446E+03,   844.446E+03
C:/temp/Job-1.odb,Step-1,Increment      1: Step Time =    1.000,"P-1-1",         10533,   115.673E-03,   173.960E-03,            0.,NA,NA,"",   1.00310E+06,   1.00841E+06,   1.00841E+06
C:/temp/Job-1.odb,Step-1,Increment      1: Step Time =    1.000,"P-1-1",         10534,   26.2687E-03,   116.166E-03,            0.,NA,NA,"",   837.159E+03,   915.658E+03,   915.658E+03
C:/temp/Job-1.odb,Step-1,Increment      1: Step Time =    1.000,"P-1-1",         10535,   83.0528E-03,   26.0454E-03,            0.,NA,NA,"",   1.00846E+06,   1.01551E+06,   1.01551E+06
C:/temp/Job-1.odb,Step-1,Increment      1: Step Time =    1.000,"P-1-1",         10536,   30.3151E-03,   173.108E-03,            0.,NA,NA,"",   1.04397E+06,   1.07301E+06,   1.07301E+06
C:/temp/Job-1.odb,Step-1,Increment      1: Step Time =    1.000,"P-1-1",         10537,   94.5099E-03,   25.2637E-03,            0.,NA,NA,"",   995.323E+03,   1.00502E+06,   1.00502E+06
C:/temp/Job-1.odb,Step-1,Increment      1: Step Time =    1.000,"P-1-1",         10538,   174.109E-03,   83.4157E-03,            0.,NA,NA,"",   974.881E+03,   985.368E+03,   985.368E+03
C:/temp/Job-1.odb,Step-1,Increment      1: Step Time =    1.000,"P-1-1",         10539,   96.2972E-03,   172.605E-03,            0.,NA,NA,"",   998.012E+03,   1.00936E+06,   1.00936E+06
C:/temp/Job-1.odb,Step-1,Increment      1: Step Time =    1.000,"P-1-1",         10540,   172.571E-03,   102.543E-03,            0.,NA,NA,"",   955.505E+03,   970.140E+03,   970.140E+03
C:/temp/Job-1.odb,Step-1,Increment      1: Step Time =    1.000,"P-1-1",         10541,   26.9227E-03,   96.0638E-03,            0.,NA,NA,"",   815.396E+03,   895.971E+03,   895.971E+03
C:/temp/Job-1.odb,Step-1,Increment      1: Step Time =    1.000,"P-1-1",         10542,   104.219E-03,   27.3856E-03,            0.,NA,NA,"",   997.289E+03,   1.00796E+06,   1.00796E+06
C:/temp/Job-1.odb,Step-1,Increment      1: Step Time =    1.000,"P-1-1",         10543,   142.170E-03,   27.7355E-03,            0.,NA,NA,"",   1.02533E+06,   1.01965E+06,   1.01965E+06
C:/temp/Job-1.odb,Step-1,Increment      1: Step Time =    1.000,"P-1-1",         10544,   172.787E-03,   141.992E-03,            0.,NA,NA,"",   1.01454E+06,   1.01280E+06,   1.01280E+06
C:/temp/Job-1.odb,Step-1,Increment      1: Step Time =    1.000,"P-1-1",         10545,   83.8676E-03,   172.311E-03,            0.,NA,NA,"",   1.01108E+06,   1.01920E+06,   1.01920E+06
C:/temp/Job-1.odb,Step-1,Increment      1: Step Time =    1.000,"P-1-1",         10546,   172.649E-03,   116.002E-03,            0.,NA,NA,"",   973.230E+03,   983.095E+03,   983.095E+03
C:/temp/Job-1.odb,Step-1,Increment      1: Step Time =    1.000,"P-1-1",         10547,   26.9965E-03,   84.1782E-03,            0.,NA,NA,"",   837.606E+03,   915.273E+03,   915.273E+03
C:/temp/Job-1.odb,Step-1,Increment      1: Step Time =    1.000,"P-1-1",         10548,   115.615E-03,   26.6157E-03,            0.,NA,NA,"",   1.00425E+06,   1.00981E+06,   1.00981E+06
C:/temp/Job-1.odb,Step-1,Increment      1: Step Time =    1.000,"P-1-1",         10549,   139.335E-03,   104.271E-03,            0.,NA,NA,"",   806.848E+03,   816.074E+03,   816.074E+03
C:/temp/Job-1.odb,Step-1,Increment      1: Step Time =    1.000,"P-1-1",         10550,   172.481E-03,   27.6421E-03,            0.,NA,NA,"",   1.01019E+06,   1.00796E+06,   1.00796E+06
C:/temp/Job-1.odb,Step-1,Increment      1: Step Time =    1.000,"P-1-1",         10551,   27.8363E-03,   37.5002E-03,            0.,NA,NA,"",   1.00365E+06,   1.05061E+06,   1.05061E+06
C:/temp/Job-1.odb,Step-1,Increment      1: Step Time =    1.000,"P-1-1",         10552,   173.493E-03,   163.071E-03,            0.,NA,NA,"",   1.01423E+06,   1.01153E+06,   1.01153E+06
C:/temp/Job-1.odb,Step-1,Increment      1: Step Time =    1.000,"P-1-1",         10553,   72.9332E-03,   130.223E-03,            0.,NA,NA,"",   1.15196E+06,   1.12886E+06,   1.12886E+06
C:/temp/Job-1.odb,Step-1,Increment      1: Step Time =    1.000,"P-1-1",         10554,   139.792E-03,   116.646E-03,            0.,NA,NA,"",   988.058E+03,   961.773E+03,   961.773E+03
C:/temp/Job-1.odb,Step-1,Increment      1: Step Time =    1.000,"P-1-1",         10555,   63.3699E-03,   98.4972E-03,            0.,NA,NA,"",   699.488E+03,   745.440E+03,   745.440E+03
C:/temp/Job-1.odb,Step-1,Increment      1: Step Time =    1.000,"P-1-1",         10556,   128.367E-03,   80.7849E-03,            0.,NA,NA,"",   1.13329E+06,   1.06135E+06,   1.06135E+06
C:/temp/Job-1.odb,Step-1,Increment      1: Step Time =    1.000,"P-1-1",         10557,   26.6959E-03,   122.343E-03,            0.,NA,NA,"",   856.629E+03,   932.179E+03,   932.179E+03
C:/temp/Job-1.odb,Step-1,Increment      1: Step Time =    1.000,"P-1-1",         10558,   121.409E-03,   173.340E-03,            0.,NA,NA,"",   1.01043E+06,   1.01285E+06,   1.01285E+06
C:/temp/Job-1.odb,Step-1,Increment      1: Step Time =    1.000,"P-1-1",         10559,   38.0362E-03,   172.277E-03,            0.,NA,NA,"",   1.04558E+06,   1.06395E+06,   1.06395E+06
C:/temp/Job-1.odb,Step-1,Increment      1: Step Time =    1.000,"P-1-1",         10560,   73.7633E-03,   173.532E-03,            0.,NA,NA,"",   1.02218E+06,   1.02615E+06,   1.02615E+06
C:/temp/Job-1.odb,Step-1,Increment      1: Step Time =    1.000,"P-1-1",         10561,   26.4236E-03,   158.813E-03,            0.,NA,NA,"",   985.568E+03,   1.03922E+06,   1.03922E+06
C:/temp/Job-1.odb,Step-1,Increment      1: Step Time =    1.000,"P-1-1",         10562,   26.8583E-03,   72.5613E-03,            0.,NA,NA,"",   874.947E+03,   947.710E+03,   947.710E+03
C:/temp/Job-1.odb,Step-1,Increment      1: Step Time =    1.000,"P-1-1",         10563,   77.0418E-03,   26.6918E-03,            0.,NA,NA,"",   1.01832E+06,   1.02349E+06,   1.02349E+06
C:/temp/Job-1.odb,Step-1,Increment      1: Step Time =    1.000,"P-1-1",         10564,   173.791E-03,   125.595E-03,            0.,NA,NA,"",   991.662E+03,   997.130E+03,   997.130E+03
C:/temp/Job-1.odb,Step-1,Increment      1: Step Time =    1.000,"P-1-1",         10565,   158.260E-03,   171.872E-03,            0.,NA,NA,"",   1.02024E+06,   1.01498E+06,   1.01498E+06
C:/temp/Job-1.odb,Step-1,Increment      1: Step Time =    1.000,"P-1-1",         10566,   174.043E-03,   77.5839E-03,            0.,NA,NA,"",   985.664E+03,   993.096E+03,   993.096E+03
C:/temp/Job-1.odb,Step-1,Increment      1: Step Time =    1.000,"P-1-1",         10567,   126.459E-03,   27.7563E-03,            0.,NA,NA,"",   1.01792E+06,   1.01764E+06,   1.01764E+06
C:/temp/Job-1.odb,Step-1,Increment      1: Step Time =    1.000,"P-1-1",         10568,   40.3545E-03,   26.6945E-03,            0.,NA,NA,"",   1.04673E+06,   1.06143E+06,   1.06143E+06
C:/temp/Job-1.odb,Step-1,Increment      1: Step Time =    1.000,"P-1-1",         10569,   172.236E-03,   41.5534E-03,            0.,NA,NA,"",   1.01750E+06,   1.01409E+06,   1.01409E+06
C:/temp/Job-1.odb,Step-1,Increment      1: Step Time =    1.000,"P-1-1",         10570,   140.282E-03,   100.845E-03,            0.,NA,NA,"",   795.246E+03,   808.962E+03,   808.962E+03
C:/temp/Job-1.odb,Step-1,Increment      1: Step Time =    1.000,"P-1-1",         10571,   138.414E-03,   98.6704E-03,            0.,NA,NA,"",   775.176E+03,   789.133E+03,   789.133E+03
C:/temp/Job-1.odb,Step-1,Increment      1: Step Time =    1.000,"P-1-1",         10572,   94.6000E-03,   139.236E-03,            0.,NA,NA,"",   1.05330E+06,   1.10788E+06,   1.10788E+06
C:/temp/Job-1.odb,Step-1,Increment      1: Step Time =    1.000,"P-1-1",         10573,   27.6034E-03,   164.262E-03,            0.,NA,NA,"",   1.00929E+06,   1.05501E+06,   1.05501E+06
C:/temp/Job-1.odb,Step-1,Increment      1: Step Time =    1.000,"P-1-1",         10574,   171.249E-03,   34.2193E-03,            0.,NA,NA,"",   1.01523E+06,   1.01197E+06,   1.01197E+06
C:/temp/Job-1.odb,Step-1,Increment      1: Step Time =    1.000,"P-1-1",         10575,   34.8850E-03,   27.9619E-03,            0.,NA,NA,"",   1.04397E+06,   1.06708E+06,   1.06708E+06
C:/temp/Job-1.odb,Step-1,Increment      1: Step Time =    1.000,"P-1-1",         10576,   165.023E-03,   173.090E-03,            0.,NA,NA,"",   1.01438E+06,   1.01072E+06,   1.01072E+06
C:/temp/Job-1.odb,Step-1,Increment      1: Step Time =    1.000,"P-1-1",         10577,   27.5470E-03,   111.799E-03,            0.,NA,NA,"",   828.290E+03,   906.679E+03,   906.679E+03
C:/temp/Job-1.odb,Step-1,Increment      1: Step Time =    1.000,"P-1-1",         10578,   112.758E-03,   172.126E-03,            0.,NA,NA,"",   1.00401E+06,   1.01158E+06,   1.01158E+06
C:/temp/Job-1.odb,Step-1,Increment      1: Step Time =    1.000,"P-1-1",         10579,   27.4846E-03,   172.107E-03,            0.,NA,NA,"",   1.03802E+06,   1.07409E+06,   1.07409E+06
C:/temp/Job-1.odb,Step-1,Increment      1: Step Time =    1.000,"P-1-1",         10580,   87.7031E-03,   27.6032E-03,            0.,NA,NA,"",   1.00604E+06,   1.01558E+06,   1.01558E+06
C:/temp/Job-1.odb,Step-1,Increment      1: Step Time =    1.000,"P-1-1",         10581,   172.117E-03,   55.5271E-03,            0.,NA,NA,"",   1.01699E+06,   1.01434E+06,   1.01434E+06
C:/temp/Job-1.odb,Step-1,Increment      1: Step Time =    1.000,"P-1-1",         10582,   56.4224E-03,   27.9788E-03,            0.,NA,NA,"",   1.04234E+06,   1.04658E+06,   1.04658E+06
C:/temp/Job-1.odb,Step-1,Increment      1: Step Time =    1.000,"P-1-1",         10583,   143.636E-03,   172.016E-03,            0.,NA,NA,"",   1.02577E+06,   1.01983E+06,   1.01983E+06
C:/temp/Job-1.odb,Step-1,Increment      1: Step Time =    1.000,"P-1-1",         10584,   27.9479E-03,   145.130E-03,            0.,NA,NA,"",   942.830E+03,   1.00376E+06,   1.00376E+06
C:/temp/Job-1.odb,Step-1,Increment      1: Step Time =    1.000,"P-1-1",         10585,   62.9407E-03,   79.8532E-03,            0.,NA,NA,"",   993.048E+03,   990.886E+03,   990.886E+03
C:/temp/Job-1.odb,Step-1,Increment      1: Step Time =    1.000,"P-1-1",         10586,   62.8345E-03,   84.5437E-03,            0.,NA,NA,"",   922.204E+03,   930.138E+03,   930.138E+03
C:/temp/Job-1.odb,Step-1,Increment      1: Step Time =    1.000,"P-1-1",         10587,   85.4913E-03,   70.7641E-03,            0.,NA,NA,"",   1.19606E+06,   1.20699E+06,   1.20699E+06
C:/temp/Job-1.odb,Step-1,Increment      1: Step Time =    1.000,"P-1-1",         10588,   89.7132E-03,   71.2016E-03,            0.,NA,NA,"",   1.17396E+06,   1.21756E+06,   1.21756E+06
C:/temp/Job-1.odb,Step-1,Increment      1: Step Time =    1.000,"P-1-1",         10589,   170.785E-03,   27.5936E-03,            0.,NA,NA,"",   1.01122E+06,   1.00865E+06,   1.00865E+06
C:/temp/Job-1.odb,Step-1,Increment      1: Step Time =    1.000,"P-1-1",         10590,   140.337E-03,   27.8367E-03,            0.,NA,NA,"",   1.02524E+06,   1.01985E+06,   1.01985E+06
C:/temp/Job-1.odb,Step-1,Increment      1: Step Time =    1.000,"P-1-1",         10591,   171.616E-03,   140.315E-03,            0.,NA,NA,"",   1.01509E+06,   1.01289E+06,   1.01289E+06
C:/temp/Job-1.odb,Step-1,Increment      1: Step Time =    1.000,"P-1-1",         10592,   173.611E-03,   136.908E-03,            0.,NA,NA,"",   1.00856E+06,   1.00895E+06,   1.00895E+06
C:/temp/Job-1.odb,Step-1,Increment      1: Step Time =    1.000,"P-1-1",         10593,   170.568E-03,   172.645E-03,            0.,NA,NA,"",   1.01122E+06,   1.00863E+06,   1.00863E+06
C:/temp/Job-1.odb,Step-1,Increment      1: Step Time =    1.000,"P-1-1",         10594,   136.498E-03,   26.5163E-03,            0.,NA,NA,"",   1.02120E+06,   1.01712E+06,   1.01712E+06
C:/temp/Job-1.odb,Step-1,Increment      1: Step Time =    1.000,"P-1-1",         10595,   30.2013E-03,   26.3425E-03,            0.,NA,NA,"",   1.04602E+06,   1.07450E+06,   1.07450E+06
C:/temp/Job-1.odb,Step-1,Increment      1: Step Time =    1.000,"P-1-1",         10596,   172.715E-03,   28.8771E-03,            0.,NA,NA,"",   1.01068E+06,   1.00840E+06,   1.00840E+06
C:/temp/Job-1.odb,Step-1,Increment      1: Step Time =    1.000,"P-1-1",         10597,   27.2384E-03,   32.6215E-03,            0.,NA,NA,"",   1.02022E+06,   1.06289E+06,   1.06289E+06
C:/temp/Job-1.odb,Step-1,Increment      1: Step Time =    1.000,"P-1-1",         10598,   114.450E-03,   26.3145E-03,            0.,NA,NA,"",   1.00241E+06,   1.00843E+06,   1.00843E+06
C:/temp/Job-1.odb,Step-1,Increment      1: Step Time =    1.000,"P-1-1",         10599,   172.485E-03,   167.316E-03,            0.,NA,NA,"",   1.01312E+06,   1.01040E+06,   1.01040E+06
C:/temp/Job-1.odb,Step-1,Increment      1: Step Time =    1.000,"P-1-1",         10600,   172.053E-03,   60.0806E-03,            0.,NA,NA,"",   1.01406E+06,   1.01229E+06,   1.01229E+06
C:/temp/Job-1.odb,Step-1,Increment      1: Step Time =    1.000,"P-1-1",         10601,   58.4965E-03,   27.8377E-03,            0.,NA,NA,"",   1.04100E+06,   1.04460E+06,   1.04460E+06
C:/temp/Job-1.odb,Step-1,Increment      1: Step Time =    1.000,"P-1-1",         10602,   28.1288E-03,   170.816E-03,            0.,NA,NA,"",   1.03452E+06,   1.07090E+06,   1.07090E+06
C:/temp/Job-1.odb,Step-1,Increment      1: Step Time =    1.000,"P-1-1",         10603,   171.980E-03,   114.148E-03,            0.,NA,NA,"",   969.267E+03,   979.702E+03,   979.702E+03
C:/temp/Job-1.odb,Step-1,Increment      1: Step Time =    1.000,"P-1-1",         10604,   27.8101E-03,   85.1756E-03,            0.,NA,NA,"",   836.476E+03,   913.485E+03,   913.485E+03
C:/temp/Job-1.odb,Step-1,Increment      1: Step Time =    1.000,"P-1-1",         10605,   84.9370E-03,   171.581E-03,            0.,NA,NA,"",   1.01114E+06,   1.02018E+06,   1.02018E+06
C:/temp/Job-1.odb,Step-1,Increment      1: Step Time =    1.000,"P-1-1",         10606,   141.475E-03,   172.022E-03,            0.,NA,NA,"",   1.02579E+06,   1.02014E+06,   1.02014E+06
C:/temp/Job-1.odb,Step-1,Increment      1: Step Time =    1.000,"P-1-1",         10607,   27.7875E-03,   141.395E-03,            0.,NA,NA,"",   928.674E+03,   992.196E+03,   992.196E+03
C:/temp/Job-1.odb,Step-1,Increment      1: Step Time =    1.000,"P-1-1",         10608,   27.3470E-03,   65.0917E-03,            0.,NA,NA,"",   903.371E+03,   971.513E+03,   971.513E+03
C:/temp/Job-1.odb,Step-1,Increment      1: Step Time =    1.000,"P-1-1",         10609,   65.4350E-03,   172.933E-03,            0.,NA,NA,"",   1.03361E+06,   1.03631E+06,   1.03631E+06
C:/temp/Job-1.odb,Step-1,Increment      1: Step Time =    1.000,"P-1-1",         10610,   108.316E-03,   27.3687E-03,            0.,NA,NA,"",   999.379E+03,   1.00865E+06,   1.00865E+06
C:/temp/Job-1.odb,Step-1,Increment      1: Step Time =    1.000,"P-1-1",         10611,   105.427E-03,   27.7450E-03,            0.,NA,NA,"",   998.306E+03,   1.00892E+06,   1.00892E+06
C:/temp/Job-1.odb,Step-1,Increment      1: Step Time =    1.000,"P-1-1",         10612,   26.8449E-03,   92.2023E-03,            0.,NA,NA,"",   819.700E+03,   899.920E+03,   899.920E+03
C:/temp/Job-1.odb,Step-1,Increment      1: Step Time =    1.000,"P-1-1",         10613,   172.296E-03,   107.975E-03,            0.,NA,NA,"",   959.810E+03,   973.101E+03,   973.101E+03
C:/temp/Job-1.odb,Step-1,Increment      1: Step Time =    1.000,"P-1-1",         10614,   27.7562E-03,   94.4438E-03,            0.,NA,NA,"",   817.725E+03,   897.199E+03,   897.199E+03
C:/temp/Job-1.odb,Step-1,Increment      1: Step Time =    1.000,"P-1-1",         10615,   171.799E-03,   104.626E-03,            0.,NA,NA,"",   955.477E+03,   969.449E+03,   969.449E+03
C:/temp/Job-1.odb,Step-1,Increment      1: Step Time =    1.000,"P-1-1",         10616,   26.7528E-03,   68.4679E-03,            0.,NA,NA,"",   889.306E+03,   960.198E+03,   960.198E+03
C:/temp/Job-1.odb,Step-1,Increment      1: Step Time =    1.000,"P-1-1",         10617,   91.9754E-03,   172.071E-03,            0.,NA,NA,"",   1.00212E+06,   1.01317E+06,   1.01317E+06
C:/temp/Job-1.odb,Step-1,Increment      1: Step Time =    1.000,"P-1-1",         10618,   69.2643E-03,   171.818E-03,            0.,NA,NA,"",   1.03205E+06,   1.03537E+06,   1.03537E+06
C:/temp/Job-1.odb,Step-1,Increment      1: Step Time =    1.000,"P-1-1",         10619,   94.5937E-03,   171.966E-03,            0.,NA,NA,"",   1.00006E+06,   1.01172E+06,   1.01172E+06
C:/temp/Job-1.odb,Step-1,Increment      1: Step Time =    1.000,"P-1-1",         10620,   172.849E-03,   79.3290E-03,            0.,NA,NA,"",   982.567E+03,   990.139E+03,   990.139E+03
C:/temp/Job-1.odb,Step-1,Increment      1: Step Time =    1.000,"P-1-1",         10621,   172.588E-03,   81.3636E-03,            0.,NA,NA,"",   978.609E+03,   987.101E+03,   987.101E+03
C:/temp/Job-1.odb,Step-1,Increment      1: Step Time =    1.000,"P-1-1",         10622,   78.8423E-03,   26.8297E-03,            0.,NA,NA,"",   1.01619E+06,   1.02191E+06,   1.02191E+06
C:/temp/Job-1.odb,Step-1,Increment      1: Step Time =    1.000,"P-1-1",         10623,   81.4513E-03,   27.5174E-03,            0.,NA,NA,"",   1.01413E+06,   1.02116E+06,   1.02116E+06
C:/temp/Job-1.odb,Step-1,Increment      1: Step Time =    1.000,"P-1-1",         10624,   32.6080E-03,   172.253E-03,            0.,NA,NA,"",   1.04377E+06,   1.06978E+06,   1.06978E+06
C:/temp/Job-1.odb,Step-1,Increment      1: Step Time =    1.000,"P-1-1",         10625,   36.1179E-03,   172.215E-03,            0.,NA,NA,"",   1.04505E+06,   1.06602E+06,   1.06602E+06
C:/temp/Job-1.odb,Step-1,Increment      1: Step Time =    1.000,"P-1-1",         10626,   27.5519E-03,   35.7865E-03,            0.,NA,NA,"",   1.00928E+06,   1.05502E+06,   1.05502E+06
C:/temp/Job-1.odb,Step-1,Increment      1: Step Time =    1.000,"P-1-1",         10627,   120.643E-03,   172.340E-03,            0.,NA,NA,"",   1.01199E+06,   1.01495E+06,   1.01495E+06
C:/temp/Job-1.odb,Step-1,Increment      1: Step Time =    1.000,"P-1-1",         10628,   172.824E-03,   164.764E-03,            0.,NA,NA,"",   1.01416E+06,   1.01133E+06,   1.01133E+06
C:/temp/Job-1.odb,Step-1,Increment      1: Step Time =    1.000,"P-1-1",         10629,   26.7676E-03,   121.009E-03,            0.,NA,NA,"",   852.529E+03,   928.519E+03,   928.519E+03
C:/temp/Job-1.odb,Step-1,Increment      1: Step Time =    1.000,"P-1-1",         10630,   28.2324E-03,   119.764E-03,            0.,NA,NA,"",   852.268E+03,   926.684E+03,   926.684E+03
C:/temp/Job-1.odb,Step-1,Increment      1: Step Time =    1.000,"P-1-1",         10631,   172.936E-03,   94.8923E-03,            0.,NA,NA,"",   957.551E+03,   971.896E+03,   971.896E+03
C:/temp/Job-1.odb,Step-1,Increment      1: Step Time =    1.000,"P-1-1",         10632,   64.9411E-03,   119.302E-03,            0.,NA,NA,"",   1.00124E+06,   992.288E+03,   992.288E+03
C:/temp/Job-1.odb,Step-1,Increment      1: Step Time =    1.000,"P-1-1",         10633,   161.589E-03,   27.5850E-03,            0.,NA,NA,"",   1.01732E+06,   1.01283E+06,   1.01283E+06
C:/temp/Job-1.odb,Step-1,Increment      1: Step Time =    1.000,"P-1-1",         10634,   163.838E-03,   27.3226E-03,            0.,NA,NA,"",   1.01559E+06,   1.01160E+06,   1.01160E+06
C:/temp/Job-1.odb,Step-1,Increment      1: Step Time =    1.000,"P-1-1",         10635,   168.201E-03,   172.146E-03,            0.,NA,NA,"",   1.01325E+06,   1.01005E+06,   1.01005E+06
C:/temp/Job-1.odb,Step-1,Increment      1: Step Time =    1.000,"P-1-1",         10636,   31.8405E-03,   27.3540E-03,            0.,NA,NA,"",   1.04357E+06,   1.07079E+06,   1.07079E+06
C:/temp/Job-1.odb,Step-1,Increment      1: Step Time =    1.000,"P-1-1",         10637,   171.660E-03,   31.6903E-03,            0.,NA,NA,"",   1.01329E+06,   1.01042E+06,   1.01042E+06
C:/temp/Job-1.odb,Step-1,Increment      1: Step Time =    1.000,"P-1-1",         10638,   61.4024E-03,   103.654E-03,            0.,NA,NA,"",   734.805E+03,   779.860E+03,   779.860E+03
C:/temp/Job-1.odb,Step-1,Increment      1: Step Time =    1.000,"P-1-1",         10639,   70.1322E-03,   129.291E-03,            0.,NA,NA,"",   1.12965E+06,   1.10755E+06,   1.10755E+06
C:/temp/Job-1.odb,Step-1,Increment      1: Step Time =    1.000,"P-1-1",         10640,   27.9458E-03,   167.441E-03,            0.,NA,NA,"",   1.02219E+06,   1.06323E+06,   1.06323E+06
C:/temp/Job-1.odb,Step-1,Increment      1: Step Time =    1.000,"P-1-1",         10641,   69.3933E-03,   126.316E-03,            0.,NA,NA,"",   1.11518E+06,   1.09018E+06,   1.09018E+06
C:/temp/Job-1.odb,Step-1,Increment      1: Step Time =    1.000,"P-1-1",         10642,   83.3764E-03,   140.087E-03,            0.,NA,NA,"",   1.10835E+06,   1.12543E+06,   1.12543E+06
C:/temp/Job-1.odb,Step-1,Increment      1: Step Time =    1.000,"P-1-1",         10643,   62.3164E-03,   101.069E-03,            0.,NA,NA,"",   711.786E+03,   758.801E+03,   758.801E+03
C:/temp/Job-1.odb,Step-1,Increment      1: Step Time =    1.000,"P-1-1",         10644,   176.110E-03,   99.3439E-03,            0.,NA,NA,"",   960.341E+03,   976.808E+03,   976.808E+03
C:/temp/Job-1.odb,Step-1,Increment      1: Step Time =    1.000,"P-1-1",         10645,   172.300E-03,   61.9575E-03,            0.,NA,NA,"",   1.01187E+06,   1.01082E+06,   1.01082E+06
C:/temp/Job-1.odb,Step-1,Increment      1: Step Time =    1.000,"P-1-1",         10646,   61.5043E-03,   28.2547E-03,            0.,NA,NA,"",   1.03965E+06,   1.04270E+06,   1.04270E+06
C:/temp/Job-1.odb,Step-1,Increment      1: Step Time =    1.000,"P-1-1",         10647,   64.1737E-03,   96.8522E-03,            0.,NA,NA,"",   701.452E+03,   744.396E+03,   744.396E+03
C:/temp/Job-1.odb,Step-1,Increment      1: Step Time =    1.000,"P-1-1",         10648,   138.309E-03,   173.379E-03,            0.,NA,NA,"",   1.02216E+06,   1.01759E+06,   1.01759E+06
C:/temp/Job-1.odb,Step-1,Increment      1: Step Time =    1.000,"P-1-1",         10649,   28.1705E-03,   138.251E-03,            0.,NA,NA,"",   918.658E+03,   983.446E+03,   983.446E+03
C:/temp/Job-1.odb,Step-1,Increment      1: Step Time =    1.000,"P-1-1",         10650,   81.2304E-03,   138.018E-03,            0.,NA,NA,"",   1.12860E+06,   1.13700E+06,   1.13700E+06
C:/temp/Job-1.odb,Step-1,Increment      1: Step Time =    1.000,"P-1-1",         10651,   89.9745E-03,   173.969E-03,            0.,NA,NA,"",   1.00039E+06,   1.00963E+06,   1.00963E+06
C:/temp/Job-1.odb,Step-1,Increment      1: Step Time =    1.000,"P-1-1",         10652,   26.5465E-03,   89.8726E-03,            0.,NA,NA,"",   823.287E+03,   903.287E+03,   903.287E+03
C:/temp/Job-1.odb,Step-1,Increment      1: Step Time =    1.000,"P-1-1",         10653,   173.671E-03,   110.055E-03,            0.,NA,NA,"",   963.699E+03,   976.903E+03,   976.903E+03
C:/temp/Job-1.odb,Step-1,Increment      1: Step Time =    1.000,"P-1-1",         10654,   91.8009E-03,   139.893E-03,            0.,NA,NA,"",   1.06484E+06,   1.11101E+06,   1.11101E+06
C:/temp/Job-1.odb,Step-1,Increment      1: Step Time =    1.000,"P-1-1",         10655,   110.188E-03,   26.5282E-03,            0.,NA,NA,"",   999.052E+03,   1.00718E+06,   1.00718E+06
C:/temp/Job-1.odb,Step-1,Increment      1: Step Time =    1.000,"P-1-1",         10656,   174.052E-03,   129.225E-03,            0.,NA,NA,"",   997.578E+03,   1.00150E+06,   1.00150E+06
C:/temp/Job-1.odb,Step-1,Increment      1: Step Time =    1.000,"P-1-1",         10657,   26.9872E-03,   29.6887E-03,            0.,NA,NA,"",   1.03087E+06,   1.07028E+06,   1.07028E+06
C:/temp/Job-1.odb,Step-1,Increment      1: Step Time =    1.000,"P-1-1",         10658,   129.171E-03,   25.9202E-03,            0.,NA,NA,"",   1.01574E+06,   1.01435E+06,   1.01435E+06
C:/temp/Job-1.odb,Step-1,Increment      1: Step Time =    1.000,"P-1-1",         10659,   172.879E-03,   170.340E-03,            0.,NA,NA,"",   1.01101E+06,   1.00869E+06,   1.00869E+06
C:/temp/Job-1.odb,Step-1,Increment      1: Step Time =    1.000,"P-1-1",         10660,   23.8265E-03,   123.123E-03,            0.,NA,NA,"",   851.605E+03,   930.783E+03,   930.783E+03
C:/temp/Job-1.odb,Step-1,Increment      1: Step Time =    1.000,"P-1-1",         10661,   123.238E-03,   175.244E-03,            0.,NA,NA,"",   1.00743E+06,   1.00878E+06,   1.00878E+06
C:/temp/Job-1.odb,Step-1,Increment      1: Step Time =    1.000,"P-1-1",         10662,   67.5366E-03,   97.0530E-03,            0.,NA,NA,"",   658.415E+03,   697.569E+03,   697.569E+03
C:/temp/Job-1.odb,Step-1,Increment      1: Step Time =    1.000,"P-1-1",         10663,   172.647E-03,   173.104E-03,            0.,NA,NA,"",   1.00957E+06,   1.00747E+06,   1.00747E+06
C:/temp/Job-1.odb,Step-1,Increment      1: Step Time =    1.000,"P-1-1",         10664,   26.9353E-03,   26.4248E-03,            0.,NA,NA,"",   1.04258E+06,   1.07767E+06,   1.07767E+06
C:/temp/Job-1.odb,Step-1,Increment      1: Step Time =    1.000,"P-1-1",         10665,   167.873E-03,   27.5201E-03,            0.,NA,NA,"",   1.01314E+06,   1.00994E+06,   1.00994E+06
C:/temp/Job-1.odb,Step-1,Increment      1: Step Time =    1.000,"P-1-1",         10666,   137.808E-03,   27.9329E-03,            0.,NA,NA,"",   1.02510E+06,   1.02019E+06,   1.02019E+06
C:/temp/Job-1.odb,Step-1,Increment      1: Step Time =    1.000,"P-1-1",         10667,   172.812E-03,   137.842E-03,            0.,NA,NA,"",   1.01066E+06,   1.01015E+06,   1.01015E+06
C:/temp/Job-1.odb,Step-1,Increment      1: Step Time =    1.000,"P-1-1",         10668,   111.515E-03,   27.0411E-03,            0.,NA,NA,"",   1.00112E+06,   1.00891E+06,   1.00891E+06
C:/temp/Job-1.odb,Step-1,Increment      1: Step Time =    1.000,"P-1-1",         10669,   170.953E-03,   111.253E-03,            0.,NA,NA,"",   963.158E+03,   974.385E+03,   974.385E+03
C:/temp/Job-1.odb,Step-1,Increment      1: Step Time =    1.000,"P-1-1",         10670,   27.2568E-03,   87.9825E-03,            0.,NA,NA,"",   828.339E+03,   906.999E+03,   906.999E+03
C:/temp/Job-1.odb,Step-1,Increment      1: Step Time =    1.000,"P-1-1",         10671,   86.6503E-03,   172.914E-03,            0.,NA,NA,"",   1.00637E+06,   1.01523E+06,   1.01523E+06
C:/temp/Job-1.odb,Step-1,Increment      1: Step Time =    1.000,"P-1-1",         10672,   158.781E-03,   23.9567E-03,            0.,NA,NA,"",   1.01425E+06,   1.01028E+06,   1.01028E+06
C:/temp/Job-1.odb,Step-1,Increment      1: Step Time =    1.000,"P-1-1",         10673,   129.193E-03,   125.206E-03,            0.,NA,NA,"",   1.16563E+06,   1.10647E+06,   1.10647E+06
C:/temp/Job-1.odb,Step-1,Increment      1: Step Time =    1.000,"P-1-1",         10674,   174.920E-03,   84.8116E-03,            0.,NA,NA,"",   972.712E+03,   984.448E+03,   984.448E+03
C:/temp/Job-1.odb,Step-1,Increment      1: Step Time =    1.000,"P-1-1",         10675,   115.270E-03,   175.751E-03,            0.,NA,NA,"",   998.802E+03,   1.00362E+06,   1.00362E+06
C:/temp/Job-1.odb,Step-1,Increment      1: Step Time =    1.000,"P-1-1",         10676,   24.8816E-03,   115.734E-03,            0.,NA,NA,"",   833.068E+03,   913.412E+03,   913.412E+03
C:/temp/Job-1.odb,Step-1,Increment      1: Step Time =    1.000,"P-1-1",         10677,   84.3670E-03,   23.8600E-03,            0.,NA,NA,"",   1.00187E+06,   1.00831E+06,   1.00831E+06
C:/temp/Job-1.odb,Step-1,Increment      1: Step Time =    1.000,"P-1-1",         10678,   29.4116E-03,   175.133E-03,            0.,NA,NA,"",   1.04956E+06,   1.07737E+06,   1.07737E+06
C:/temp/Job-1.odb,Step-1,Increment      1: Step Time =    1.000,"P-1-1",         10679,   64.1931E-03,   88.8187E-03,            0.,NA,NA,"",   845.560E+03,   861.762E+03,   861.762E+03
C:/temp/Job-1.odb,Step-1,Increment      1: Step Time =    1.000,"P-1-1",         10680,   64.0020E-03,   76.7705E-03,            0.,NA,NA,"",   1.03635E+06,   1.02736E+06,   1.02736E+06
C:/temp/Job-1.odb,Step-1,Increment      1: Step Time =    1.000,"P-1-1",         10681,   171.990E-03,   53.6988E-03,            0.,NA,NA,"",   1.01807E+06,   1.01503E+06,   1.01503E+06
C:/temp/Job-1.odb,Step-1,Increment      1: Step Time =    1.000,"P-1-1",         10682,   53.2643E-03,   27.4914E-03,            0.,NA,NA,"",   1.04323E+06,   1.04863E+06,   1.04863E+06
C:/temp/Job-1.odb,Step-1,Increment      1: Step Time =    1.000,"P-1-1",         10683,   146.669E-03,   171.732E-03,            0.,NA,NA,"",   1.02581E+06,   1.01956E+06,   1.01956E+06
C:/temp/Job-1.odb,Step-1,Increment      1: Step Time =    1.000,"P-1-1",         10684,   26.8003E-03,   147.403E-03,            0.,NA,NA,"",   946.125E+03,   1.00776E+06,   1.00776E+06
C:/temp/Job-1.odb,Step-1,Increment      1: Step Time =    1.000,"P-1-1",         10685,   132.767E-03,   86.1619E-03,            0.,NA,NA,"",   977.273E+03,   934.717E+03,   934.717E+03
C:/temp/Job-1.odb,Step-1,Increment      1: Step Time =    1.000,"P-1-1",         10686,   158.263E-03,   21.9450E-03,            0.,NA,NA,"",   1.01177E+06,   1.00828E+06,   1.00828E+06
C:/temp/Job-1.odb,Step-1,Increment      1: Step Time =    1.000,"P-1-1",         10687,   32.1533E-03,   177.740E-03,            0.,NA,NA,"",   1.05503E+06,   1.07485E+06,   1.07485E+06
C:/temp/Job-1.odb,Step-1,Increment      1: Step Time =    1.000,"P-1-1",         10688,   83.2959E-03,   20.7386E-03,            0.,NA,NA,"",   995.420E+03,   1.00012E+06,   1.00012E+06
C:/temp/Job-1.odb,Step-1,Increment      1: Step Time =    1.000,"P-1-1",         10689,   177.935E-03,   83.6766E-03,            0.,NA,NA,"",   975.452E+03,   988.707E+03,   988.707E+03
C:/temp/Job-1.odb,Step-1,Increment      1: Step Time =    1.000,"P-1-1",         10690,   61.2660E-03,   107.078E-03,            0.,NA,NA,"",   777.164E+03,   814.816E+03,   814.816E+03
C:/temp/Job-1.odb,Step-1,Increment      1: Step Time =    1.000,"P-1-1",         10691,   61.8697E-03,   109.071E-03,            0.,NA,NA,"",   807.024E+03,   837.540E+03,   837.540E+03
C:/temp/Job-1.odb,Step-1,Increment      1: Step Time =    1.000,"P-1-1",         10692,   66.1039E-03,   119.871E-03,            0.,NA,NA,"",   1.02172E+06,   1.00704E+06,   1.00704E+06
C:/temp/Job-1.odb,Step-1,Increment      1: Step Time =    1.000,"P-1-1",         10693,   103.100E-03,   177.181E-03,            0.,NA,NA,"",   988.854E+03,   996.714E+03,   996.714E+03
C:/temp/Job-1.odb,Step-1,Increment      1: Step Time =    1.000,"P-1-1",         10694,   23.0740E-03,   148.481E-03,            0.,NA,NA,"",   934.445E+03,   1.00301E+06,   1.00301E+06
C:/temp/Job-1.odb,Step-1,Increment      1: Step Time =    1.000,"P-1-1",         10695,   148.516E-03,   177.265E-03,            0.,NA,NA,"",   1.01478E+06,   1.01049E+06,   1.01049E+06
C:/temp/Job-1.odb,Step-1,Increment      1: Step Time =    1.000,"P-1-1",         10696,   21.8788E-03,   103.092E-03,            0.,NA,NA,"",   808.742E+03,   894.492E+03,   894.492E+03
C:/temp/Job-1.odb,Step-1,Increment      1: Step Time =    1.000,"P-1-1",         10697,   51.3575E-03,   22.4496E-03,            0.,NA,NA,"",   1.03733E+06,   1.04157E+06,   1.04157E+06
C:/temp/Job-1.odb,Step-1,Increment      1: Step Time =    1.000,"P-1-1",         10698,   176.478E-03,   51.6131E-03,            0.,NA,NA,"",   1.01171E+06,   1.01123E+06,   1.01123E+06
C:/temp/Job-1.odb,Step-1,Increment      1: Step Time =    1.000,"P-1-1",         10699,   96.2958E-03,   23.0519E-03,            0.,NA,NA,"",   989.883E+03,   998.197E+03,   998.197E+03
C:/temp/Job-1.odb,Step-1,Increment      1: Step Time =    1.000,"P-1-1",         10700,   25.9602E-03,   125.049E-03,            0.,NA,NA,"",   863.732E+03,   939.023E+03,   939.023E+03
C:/temp/Job-1.odb,Step-1,Increment      1: Step Time =    1.000,"P-1-1",         10701,   126.330E-03,   174.114E-03,            0.,NA,NA,"",   1.01318E+06,   1.01304E+06,   1.01304E+06
C:/temp/Job-1.odb,Step-1,Increment      1: Step Time =    1.000,"P-1-1",         10702,   128.239E-03,   127.135E-03,            0.,NA,NA,"",   1.17923E+06,   1.12356E+06,   1.12356E+06
C:/temp/Job-1.odb,Step-1,Increment      1: Step Time =    1.000,"P-1-1",         10703,   93.0250E-03,   77.8471E-03,            0.,NA,NA,"",   1.27483E+06,   1.35634E+06,   1.35634E+06
C:/temp/Job-1.odb,Step-1,Increment      1: Step Time =    1.000,"P-1-1",         10704,   119.558E-03,   83.6114E-03,            0.,NA,NA,"",   1.27229E+06,   1.15716E+06,   1.15716E+06
C:/temp/Job-1.odb,Step-1,Increment      1: Step Time =    1.000,"P-1-1",         10705,   63.2784E-03,   91.3236E-03,            0.,NA,NA,"",   797.206E+03,   825.338E+03,   825.338E+03
C:/temp/Job-1.odb,Step-1,Increment      1: Step Time =    1.000,"P-1-1",         10706,   61.9790E-03,   112.480E-03,            0.,NA,NA,"",   867.777E+03,   887.065E+03,   887.065E+03
C:/temp/Job-1.odb,Step-1,Increment      1: Step Time =    1.000,"P-1-1",         10707,   175.292E-03,   97.1422E-03,            0.,NA,NA,"",   959.626E+03,   975.477E+03,   975.477E+03
C:/temp/Job-1.odb,Step-1,Increment      1: Step Time =    1.000,"P-1-1",         10708,   93.0577E-03,   73.1432E-03,            0.,NA,NA,"",   1.16774E+06,   1.24090E+06,   1.24090E+06
C:/temp/Job-1.odb,Step-1,Increment      1: Step Time =    1.000,"P-1-1",         10709,   68.0950E-03,   119.301E-03,            0.,NA,NA,"",   1.03804E+06,   1.01478E+06,   1.01478E+06
C:/temp/Job-1.odb,Step-1,Increment      1: Step Time =    1.000,"P-1-1",         10710,   175.957E-03,   150.328E-03,            0.,NA,NA,"",   1.01290E+06,   1.01181E+06,   1.01181E+06
C:/temp/Job-1.odb,Step-1,Increment      1: Step Time =    1.000,"P-1-1",         10711,   150.752E-03,   24.5419E-03,            0.,NA,NA,"",   1.01783E+06,   1.01296E+06,   1.01296E+06
C:/temp/Job-1.odb,Step-1,Increment      1: Step Time =    1.000,"P-1-1",         10712,   63.7077E-03,   86.9170E-03,            0.,NA,NA,"",   883.921E+03,   895.307E+03,   895.307E+03
C:/temp/Job-1.odb,Step-1,Increment      1: Step Time =    1.000,"P-1-1",         10713,   71.3386E-03,   96.8503E-03,            0.,NA,NA,"",   602.904E+03,   633.259E+03,   633.259E+03
C:/temp/Job-1.odb,Step-1,Increment      1: Step Time =    1.000,"P-1-1",         10714,   132.451E-03,   82.8479E-03,            0.,NA,NA,"",   1.04992E+06,   997.041E+03,   997.041E+03
C:/temp/Job-1.odb,Step-1,Increment      1: Step Time =    1.000,"P-1-1",         10715,   62.9662E-03,   77.6152E-03,            0.,NA,NA,"",   1.01780E+06,   1.01323E+06,   1.01323E+06
C:/temp/Job-1.odb,Step-1,Increment      1: Step Time =    1.000,"P-1-1",         10716,   139.923E-03,   109.328E-03,            0.,NA,NA,"",   876.175E+03,   871.792E+03,   871.792E+03
C:/temp/Job-1.odb,Step-1,Increment      1: Step Time =    1.000,"P-1-1",         10717,   67.3035E-03,   122.455E-03,            0.,NA,NA,"",   1.06442E+06,   1.04354E+06,   1.04354E+06
C:/temp/Job-1.odb,Step-1,Increment      1: Step Time =    1.000,"P-1-1",         10718,   172.674E-03,   74.1089E-03,            0.,NA,NA,"",   993.067E+03,   997.521E+03,   997.521E+03
C:/temp/Job-1.odb,Step-1,Increment      1: Step Time =    1.000,"P-1-1",         10719,   41.6146E-03,   174.727E-03,            0.,NA,NA,"",   1.04687E+06,   1.05921E+06,   1.05921E+06
C:/temp/Job-1.odb,Step-1,Increment      1: Step Time =    1.000,"P-1-1",         10720,   175.476E-03,   157.923E-03,            0.,NA,NA,"",   1.01348E+06,   1.01151E+06,   1.01151E+06
C:/temp/Job-1.odb,Step-1,Increment      1: Step Time =    1.000,"P-1-1",         10721,   103.157E-03,   140.175E-03,            0.,NA,NA,"",   1.04198E+06,   1.09743E+06,   1.09743E+06
C:/temp/Job-1.odb,Step-1,Increment      1: Step Time =    1.000,"P-1-1",         10722,   23.9060E-03,   150.970E-03,            0.,NA,NA,"",   947.560E+03,   1.01277E+06,   1.01277E+06
C:/temp/Job-1.odb,Step-1,Increment      1: Step Time =    1.000,"P-1-1",         10723,   150.738E-03,   174.975E-03,            0.,NA,NA,"",   1.01859E+06,   1.01358E+06,   1.01358E+06
C:/temp/Job-1.odb,Step-1,Increment      1: Step Time =    1.000,"P-1-1",         10724,   49.8962E-03,   23.0510E-03,            0.,NA,NA,"",   1.03982E+06,   1.04502E+06,   1.04502E+06
C:/temp/Job-1.odb,Step-1,Increment      1: Step Time =    1.000,"P-1-1",         10725,   175.480E-03,   50.4012E-03,            0.,NA,NA,"",   1.01350E+06,   1.01222E+06,   1.01222E+06
C:/temp/Job-1.odb,Step-1,Increment      1: Step Time =    1.000,"P-1-1",         10726,   174.405E-03,   96.3541E-03,            0.,NA,NA,"",   959.144E+03,   974.463E+03,   974.463E+03
C:/temp/Job-1.odb,Step-1,Increment      1: Step Time =    1.000,"P-1-1",         10727,   174.671E-03,   100.310E-03,            0.,NA,NA,"",   958.338E+03,    974.07E+03,    974.07E+03
C:/temp/Job-1.odb,Step-1,Increment      1: Step Time =    1.000,"P-1-1",         10728,   166.721E-03,   27.0427E-03,            0.,NA,NA,"",   1.01359E+06,   1.01021E+06,   1.01021E+06
C:/temp/Job-1.odb,Step-1,Increment      1: Step Time =    1.000,"P-1-1",         10729,   62.2142E-03,   99.8782E-03,            0.,NA,NA,"",   709.743E+03,   757.175E+03,   757.175E+03
C:/temp/Job-1.odb,Step-1,Increment      1: Step Time =    1.000,"P-1-1",         10730,   26.5034E-03,   126.468E-03,            0.,NA,NA,"",   869.880E+03,   943.829E+03,   943.829E+03
C:/temp/Job-1.odb,Step-1,Increment      1: Step Time =    1.000,"P-1-1",         10731,   127.448E-03,   172.840E-03,            0.,NA,NA,"",   1.01736E+06,   1.01660E+06,   1.01660E+06
C:/temp/Job-1.odb,Step-1,Increment      1: Step Time =    1.000,"P-1-1",         10732,   60.8053E-03,   100.074E-03,            0.,NA,NA,"",   724.684E+03,   773.145E+03,   773.145E+03
C:/temp/Job-1.odb,Step-1,Increment      1: Step Time =    1.000,"P-1-1",         10733,   122.233E-03,   131.357E-03,            0.,NA,NA,"",   1.19490E+06,   1.16119E+06,   1.16119E+06
C:/temp/Job-1.odb,Step-1,Increment      1: Step Time =    1.000,"P-1-1",         10734,   86.4955E-03,   70.0593E-03,            0.,NA,NA,"",   1.18190E+06,   1.20139E+06,   1.20139E+06
C:/temp/Job-1.odb,Step-1,Increment      1: Step Time =    1.000,"P-1-1",         10735,   84.3903E-03,   71.4543E-03,            0.,NA,NA,"",   1.20827E+06,   1.20997E+06,   1.20997E+06
C:/temp/Job-1.odb,Step-1,Increment      1: Step Time =    1.000,"P-1-1",         10736,   67.2176E-03,   120.541E-03,            0.,NA,NA,"",   1.04331E+06,   1.02325E+06,   1.02325E+06
C:/temp/Job-1.odb,Step-1,Increment      1: Step Time =    1.000,"P-1-1",         10737,   172.895E-03,   68.9712E-03,            0.,NA,NA,"",   1.00173E+06,   1.00383E+06,   1.00383E+06
C:/temp/Job-1.odb,Step-1,Increment      1: Step Time =    1.000,"P-1-1",         10738,   71.1921E-03,   28.0114E-03,            0.,NA,NA,"",   1.02939E+06,   1.03310E+06,   1.03310E+06
C:/temp/Job-1.odb,Step-1,Increment      1: Step Time =    1.000,"P-1-1",         10739,   93.6428E-03,   25.7793E-03,            0.,NA,NA,"",   996.719E+03,   1.00658E+06,   1.00658E+06
C:/temp/Job-1.odb,Step-1,Increment      1: Step Time =    1.000,"P-1-1",         10740,   25.3009E-03,   105.487E-03,            0.,NA,NA,"",   814.917E+03,   897.074E+03,   897.074E+03
C:/temp/Job-1.odb,Step-1,Increment      1: Step Time =    1.000,"P-1-1",         10741,   106.748E-03,   173.755E-03,            0.,NA,NA,"",   996.355E+03,   1.00553E+06,   1.00553E+06
C:/temp/Job-1.odb,Step-1,Increment      1: Step Time =    1.000,"P-1-1",         10742,   175.127E-03,   150.752E-03,            0.,NA,NA,"",   1.01415E+06,   1.01255E+06,   1.01255E+06
C:/temp/Job-1.odb,Step-1,Increment      1: Step Time =    1.000,"P-1-1",         10743,   150.188E-03,   25.6560E-03,            0.,NA,NA,"",   1.01991E+06,   1.01465E+06,   1.01465E+06
C:/temp/Job-1.odb,Step-1,Increment      1: Step Time =    1.000,"P-1-1",         10744,   96.6773E-03,   24.3936E-03,            0.,NA,NA,"",   992.399E+03,   1.00164E+06,   1.00164E+06
C:/temp/Job-1.odb,Step-1,Increment      1: Step Time =    1.000,"P-1-1",         10745,   24.1560E-03,   104.679E-03,            0.,NA,NA,"",   812.780E+03,   896.179E+03,   896.179E+03
C:/temp/Job-1.odb,Step-1,Increment      1: Step Time =    1.000,"P-1-1",         10746,   104.038E-03,   175.979E-03,            0.,NA,NA,"",   991.259E+03,   999.722E+03,   999.722E+03
C:/temp/Job-1.odb,Step-1,Increment      1: Step Time =    1.000,"P-1-1",         10747,   64.2297E-03,   120.550E-03,            0.,NA,NA,"",   1.01049E+06,   1.00272E+06,   1.00272E+06
C:/temp/Job-1.odb,Step-1,Increment      1: Step Time =    1.000,"P-1-1",         10748,   24.9925E-03,   69.9196E-03,            0.,NA,NA,"",   878.041E+03,   952.573E+03,   952.573E+03
C:/temp/Job-1.odb,Step-1,Increment      1: Step Time =    1.000,"P-1-1",         10749,   70.9017E-03,   174.322E-03,            0.,NA,NA,"",   1.02395E+06,   1.02714E+06,   1.02714E+06
C:/temp/Job-1.odb,Step-1,Increment      1: Step Time =    1.000,"P-1-1",         10750,   155.452E-03,   27.0643E-03,            0.,NA,NA,"",   1.02013E+06,   1.01482E+06,   1.01482E+06
C:/temp/Job-1.odb,Step-1,Increment      1: Step Time =    1.000,"P-1-1",         10751,   172.424E-03,   153.738E-03,            0.,NA,NA,"",   1.01830E+06,   1.01496E+06,   1.01496E+06
C:/temp/Job-1.odb,Step-1,Increment      1: Step Time =    1.000,"P-1-1",         10752,   27.5499E-03,   45.9153E-03,            0.,NA,NA,"",   972.459E+03,   1.02785E+06,   1.02785E+06
C:/temp/Job-1.odb,Step-1,Increment      1: Step Time =    1.000,"P-1-1",         10753,   45.5307E-03,   172.536E-03,            0.,NA,NA,"",   1.04571E+06,   1.05622E+06,   1.05622E+06
C:/temp/Job-1.odb,Step-1,Increment      1: Step Time =    1.000,"P-1-1",         10754,   102.861E-03,   141.428E-03,            0.,NA,NA,"",   1.03858E+06,   1.09153E+06,   1.09153E+06
C:/temp/Job-1.odb,Step-1,Increment      1: Step Time =    1.000,"P-1-1",         10755,   130.955E-03,   126.095E-03,            0.,NA,NA,"",   1.15218E+06,   1.09717E+06,   1.09717E+06
C:/temp/Job-1.odb,Step-1,Increment      1: Step Time =    1.000,"P-1-1",         10756,   123.987E-03,   133.535E-03,            0.,NA,NA,"",   1.17530E+06,   1.14404E+06,   1.14404E+06
C:/temp/Job-1.odb,Step-1,Increment      1: Step Time =    1.000,"P-1-1",         10757,   78.7534E-03,   132.881E-03,            0.,NA,NA,"",   1.16749E+06,   1.15818E+06,   1.15818E+06
C:/temp/Job-1.odb,Step-1,Increment      1: Step Time =    1.000,"P-1-1",         10758,   72.7804E-03,   95.8784E-03,            0.,NA,NA,"",   609.021E+03,   628.195E+03,   628.195E+03
C:/temp/Job-1.odb,Step-1,Increment      1: Step Time =    1.000,"P-1-1",         10759,   146.367E-03,   28.6175E-03,            0.,NA,NA,"",   1.02669E+06,   1.02030E+06,   1.02030E+06
C:/temp/Job-1.odb,Step-1,Increment      1: Step Time =    1.000,"P-1-1",         10760,   119.727E-03,   28.1673E-03,            0.,NA,NA,"",   1.01200E+06,   1.01561E+06,   1.01561E+06
C:/temp/Job-1.odb,Step-1,Increment      1: Step Time =    1.000,"P-1-1",         10761,   90.6644E-03,   28.8149E-03,            0.,NA,NA,"",   1.00484E+06,   1.01611E+06,   1.01611E+06
C:/temp/Job-1.odb,Step-1,Increment      1: Step Time =    1.000,"P-1-1",         10762,   171.953E-03,   145.277E-03,            0.,NA,NA,"",   1.01773E+06,   1.01480E+06,   1.01480E+06
C:/temp/Job-1.odb,Step-1,Increment      1: Step Time =    1.000,"P-1-1",         10763,   172.190E-03,   119.529E-03,            0.,NA,NA,"",   980.153E+03,   987.840E+03,   987.840E+03
C:/temp/Job-1.odb,Step-1,Increment      1: Step Time =    1.000,"P-1-1",         10764,   28.3945E-03,   78.8047E-03,            0.,NA,NA,"",   857.350E+03,   930.931E+03,   930.931E+03
C:/temp/Job-1.odb,Step-1,Increment      1: Step Time =    1.000,"P-1-1",         10765,   28.1808E-03,   50.8065E-03,            0.,NA,NA,"",   957.936E+03,   1.01557E+06,   1.01557E+06
C:/temp/Job-1.odb,Step-1,Increment      1: Step Time =    1.000,"P-1-1",         10766,   27.8546E-03,   109.289E-03,            0.,NA,NA,"",   823.558E+03,   902.278E+03,   902.278E+03
C:/temp/Job-1.odb,Step-1,Increment      1: Step Time =    1.000,"P-1-1",         10767,   79.7114E-03,   169.716E-03,            0.,NA,NA,"",   1.02303E+06,   1.03054E+06,   1.03054E+06
C:/temp/Job-1.odb,Step-1,Increment      1: Step Time =    1.000,"P-1-1",         10768,   110.277E-03,   171.423E-03,            0.,NA,NA,"",   1.00304E+06,   1.01221E+06,   1.01221E+06
C:/temp/Job-1.odb,Step-1,Increment      1: Step Time =    1.000,"P-1-1",         10769,   53.0977E-03,   172.192E-03,            0.,NA,NA,"",   1.04384E+06,   1.04939E+06,   1.04939E+06
C:/temp/Job-1.odb,Step-1,Increment      1: Step Time =    1.000,"P-1-1",         10770,   50.6142E-03,   171.059E-03,            0.,NA,NA,"",   1.04576E+06,   1.05321E+06,   1.05321E+06
C:/temp/Job-1.odb,Step-1,Increment      1: Step Time =    1.000,"P-1-1",         10771,   86.4594E-03,   140.493E-03,            0.,NA,NA,"",   1.09219E+06,   1.11993E+06,   1.11993E+06
C:/temp/Job-1.odb,Step-1,Increment      1: Step Time =    1.000,"P-1-1",         10772,   117.057E-03,   140.356E-03,            0.,NA,NA,"",   1.11432E+06,   1.12105E+06,   1.12105E+06
C:/temp/Job-1.odb,Step-1,Increment      1: Step Time =    1.000,"P-1-1",         10773,   174.716E-03,   159.602E-03,            0.,NA,NA,"",   1.01407E+06,   1.01174E+06,   1.01174E+06
C:/temp/Job-1.odb,Step-1,Increment      1: Step Time =    1.000,"P-1-1",         10774,   141.315E-03,   109.020E-03,            0.,NA,NA,"",   875.760E+03,   874.255E+03,   874.255E+03
C:/temp/Job-1.odb,Step-1,Increment      1: Step Time =    1.000,"P-1-1",         10775,   26.0173E-03,   40.7979E-03,            0.,NA,NA,"",   985.243E+03,   1.03956E+06,   1.03956E+06
C:/temp/Job-1.odb,Step-1,Increment      1: Step Time =    1.000,"P-1-1",         10776,   40.7448E-03,   173.431E-03,            0.,NA,NA,"",   1.04672E+06,   1.06100E+06,   1.06100E+06
C:/temp/Job-1.odb,Step-1,Increment      1: Step Time =    1.000,"P-1-1",         10777,   112.172E-03,   138.855E-03,            0.,NA,NA,"",   1.09710E+06,   1.12406E+06,   1.12406E+06
C:/temp/Job-1.odb,Step-1,Increment      1: Step Time =    1.000,"P-1-1",         10778,   108.799E-03,   139.146E-03,            0.,NA,NA,"",   1.07395E+06,   1.11502E+06,   1.11502E+06
C:/temp/Job-1.odb,Step-1,Increment      1: Step Time =    1.000,"P-1-1",         10779,   66.2669E-03,   123.547E-03,            0.,NA,NA,"",   1.06197E+06,   1.04502E+06,   1.04502E+06
C:/temp/Job-1.odb,Step-1,Increment      1: Step Time =    1.000,"P-1-1",         10780,   172.231E-03,   35.6091E-03,            0.,NA,NA,"",   1.01498E+06,   1.01191E+06,   1.01191E+06
C:/temp/Job-1.odb,Step-1,Increment      1: Step Time =    1.000,"P-1-1",         10781,   36.2061E-03,   27.7733E-03,            0.,NA,NA,"",   1.04513E+06,   1.06602E+06,   1.06602E+06
C:/temp/Job-1.odb,Step-1,Increment      1: Step Time =    1.000,"P-1-1",         10782,   27.4859E-03,   163.108E-03,            0.,NA,NA,"",   1.00503E+06,   1.05207E+06,   1.05207E+06
C:/temp/Job-1.odb,Step-1,Increment      1: Step Time =    1.000,"P-1-1",         10783,   67.7507E-03,   73.5653E-03,            0.,NA,NA,"",   1.09915E+06,   1.07846E+06,   1.07846E+06
C:/temp/Job-1.odb,Step-1,Increment      1: Step Time =    1.000,"P-1-1",         10784,   137.331E-03,   121.958E-03,            0.,NA,NA,"",   1.06637E+06,   1.02516E+06,   1.02516E+06
C:/temp/Job-1.odb,Step-1,Increment      1: Step Time =    1.000,"P-1-1",         10785,   136.542E-03,   27.9344E-03,            0.,NA,NA,"",   1.02480E+06,   1.02024E+06,   1.02024E+06
C:/temp/Job-1.odb,Step-1,Increment      1: Step Time =    1.000,"P-1-1",         10786,   171.850E-03,   137.009E-03,            0.,NA,NA,"",   1.01134E+06,   1.01029E+06,   1.01029E+06
C:/temp/Job-1.odb,Step-1,Increment      1: Step Time =    1.000,"P-1-1",         10787,   28.7715E-03,   30.9389E-03,            0.,NA,NA,"",   1.02936E+06,   1.06670E+06,   1.06670E+06
C:/temp/Job-1.odb,Step-1,Increment      1: Step Time =    1.000,"P-1-1",         10788,   172.244E-03,   168.667E-03,            0.,NA,NA,"",   1.01253E+06,   1.00988E+06,   1.00988E+06
C:/temp/Job-1.odb,Step-1,Increment      1: Step Time =    1.000,"P-1-1",         10789,   171.845E-03,   58.2862E-03,            0.,NA,NA,"",   1.01572E+06,   1.01342E+06,   1.01342E+06
C:/temp/Job-1.odb,Step-1,Increment      1: Step Time =    1.000,"P-1-1",         10790,   57.4121E-03,   28.9459E-03,            0.,NA,NA,"",   1.04344E+06,   1.04765E+06,   1.04765E+06
C:/temp/Job-1.odb,Step-1,Increment      1: Step Time =    1.000,"P-1-1",         10791,   74.1907E-03,   69.5965E-03,            0.,NA,NA,"",   1.16058E+06,   1.13787E+06,   1.13787E+06
C:/temp/Job-1.odb,Step-1,Increment      1: Step Time =    1.000,"P-1-1",         10792,   134.583E-03,   123.865E-03,            0.,NA,NA,"",   1.10551E+06,   1.05641E+06,   1.05641E+06
C:/temp/Job-1.odb,Step-1,Increment      1: Step Time =    1.000,"P-1-1",         10793,   142.471E-03,   170.525E-03,            0.,NA,NA,"",   1.02925E+06,   1.02285E+06,   1.02285E+06
C:/temp/Job-1.odb,Step-1,Increment      1: Step Time =    1.000,"P-1-1",         10794,   29.2948E-03,   143.292E-03,            0.,NA,NA,"",   941.738E+03,   1.00108E+06,   1.00108E+06
C:/temp/Job-1.odb,Step-1,Increment      1: Step Time =    1.000,"P-1-1",         10795,   76.5285E-03,   137.174E-03,            0.,NA,NA,"",   1.13722E+06,   1.13273E+06,   1.13273E+06
C:/temp/Job-1.odb,Step-1,Increment      1: Step Time =    1.000,"P-1-1",         10796,   109.633E-03,   27.9294E-03,            0.,NA,NA,"",   1.00123E+06,   1.01039E+06,   1.01039E+06
C:/temp/Job-1.odb,Step-1,Increment      1: Step Time =    1.000,"P-1-1",         10797,   172.409E-03,   82.7530E-03,            0.,NA,NA,"",   975.888E+03,   984.974E+03,   984.974E+03
C:/temp/Job-1.odb,Step-1,Increment      1: Step Time =    1.000,"P-1-1",         10798,   82.6510E-03,   27.6085E-03,            0.,NA,NA,"",   1.01273E+06,   1.02034E+06,   1.02034E+06
C:/temp/Job-1.odb,Step-1,Increment      1: Step Time =    1.000,"P-1-1",         10799,   173.201E-03,   109.203E-03,            0.,NA,NA,"",   961.928E+03,   975.229E+03,   975.229E+03
C:/temp/Job-1.odb,Step-1,Increment      1: Step Time =    1.000,"P-1-1",         10800,   172.262E-03,   166.320E-03,            0.,NA,NA,"",   1.01385E+06,   1.01098E+06,   1.01098E+06
C:/temp/Job-1.odb,Step-1,Increment      1: Step Time =    1.000,"P-1-1",         10801,   27.2350E-03,   90.5958E-03,            0.,NA,NA,"",   823.050E+03,   902.491E+03,   902.491E+03
C:/temp/Job-1.odb,Step-1,Increment      1: Step Time =    1.000,"P-1-1",         10802,   27.3732E-03,   34.1836E-03,            0.,NA,NA,"",   1.01475E+06,   1.05905E+06,   1.05905E+06
C:/temp/Job-1.odb,Step-1,Increment      1: Step Time =    1.000,"P-1-1",         10803,   89.8633E-03,   172.496E-03,            0.,NA,NA,"",   1.00331E+06,   1.01351E+06,   1.01351E+06
C:/temp/Job-1.odb,Step-1,Increment      1: Step Time =    1.000,"P-1-1",         10804,   31.3545E-03,   171.535E-03,            0.,NA,NA,"",   1.04069E+06,   1.06996E+06,   1.06996E+06
C:/temp/Job-1.odb,Step-1,Increment      1: Step Time =    1.000,"P-1-1",         10805,   33.2916E-03,   171.390E-03,            0.,NA,NA,"",   1.04223E+06,   1.06825E+06,   1.06825E+06
C:/temp/Job-1.odb,Step-1,Increment      1: Step Time =    1.000,"P-1-1",         10806,   120.150E-03,   171.154E-03,            0.,NA,NA,"",   1.01418E+06,   1.01762E+06,   1.01762E+06
C:/temp/Job-1.odb,Step-1,Increment      1: Step Time =    1.000,"P-1-1",         10807,   172.512E-03,   91.9122E-03,            0.,NA,NA,"",   960.004E+03,   973.371E+03,   973.371E+03
C:/temp/Job-1.odb,Step-1,Increment      1: Step Time =    1.000,"P-1-1",         10808,   137.156E-03,   97.8980E-03,            0.,NA,NA,"",   763.098E+03,   776.463E+03,   776.463E+03
C:/temp/Job-1.odb,Step-1,Increment      1: Step Time =    1.000,"P-1-1",         10809,   162.790E-03,   28.5570E-03,            0.,NA,NA,"",   1.01764E+06,   1.01314E+06,   1.01314E+06
C:/temp/Job-1.odb,Step-1,Increment      1: Step Time =    1.000,"P-1-1",         10810,   30.4847E-03,   27.7630E-03,            0.,NA,NA,"",   1.04202E+06,   1.07187E+06,   1.07187E+06
C:/temp/Job-1.odb,Step-1,Increment      1: Step Time =    1.000,"P-1-1",         10811,   169.752E-03,   171.290E-03,            0.,NA,NA,"",   1.01275E+06,   1.00979E+06,   1.00979E+06
C:/temp/Job-1.odb,Step-1,Increment      1: Step Time =    1.000,"P-1-1",         10812,   170.740E-03,   30.4170E-03,            0.,NA,NA,"",   1.01322E+06,   1.01026E+06,   1.01026E+06
C:/temp/Job-1.odb,Step-1,Increment      1: Step Time =    1.000,"P-1-1",         10813,   28.7008E-03,   169.449E-03,            0.,NA,NA,"",   1.03062E+06,   1.06759E+06,   1.06759E+06
C:/temp/Job-1.odb,Step-1,Increment      1: Step Time =    1.000,"P-1-1",         10814,   61.1409E-03,   176.435E-03,            0.,NA,NA,"",   1.02961E+06,   1.03179E+06,   1.03179E+06
C:/temp/Job-1.odb,Step-1,Increment      1: Step Time =    1.000,"P-1-1",         10815,   25.6972E-03,   61.7058E-03,            0.,NA,NA,"",   909.632E+03,   978.752E+03,   978.752E+03
C:/temp/Job-1.odb,Step-1,Increment      1: Step Time =    1.000,"P-1-1",         10816,   171.177E-03,   61.0120E-03,            0.,NA,NA,"",   1.01459E+06,   1.01240E+06,   1.01240E+06
C:/temp/Job-1.odb,Step-1,Increment      1: Step Time =    1.000,"P-1-1",         10817,   172.550E-03,   63.9661E-03,            0.,NA,NA,"",   1.00919E+06,   1.00903E+06,   1.00903E+06
C:/temp/Job-1.odb,Step-1,Increment      1: Step Time =    1.000,"P-1-1",         10818,   64.2177E-03,   28.6110E-03,            0.,NA,NA,"",   1.03821E+06,   1.04117E+06,   1.04117E+06
C:/temp/Job-1.odb,Step-1,Increment      1: Step Time =    1.000,"P-1-1",         10819,   59.8020E-03,   28.6199E-03,            0.,NA,NA,"",   1.04159E+06,   1.04507E+06,   1.04507E+06
C:/temp/Job-1.odb,Step-1,Increment      1: Step Time =    1.000,"P-1-1",         10820,   84.8865E-03,   139.251E-03,            0.,NA,NA,"",   1.10683E+06,   1.12909E+06,   1.12909E+06
C:/temp/Job-1.odb,Step-1,Increment      1: Step Time =    1.000,"P-1-1",         10821,   136.156E-03,   172.819E-03,            0.,NA,NA,"",   1.02282E+06,   1.01863E+06,   1.01863E+06
C:/temp/Job-1.odb,Step-1,Increment      1: Step Time =    1.000,"P-1-1",         10822,   140.289E-03,   171.167E-03,            0.,NA,NA,"",   1.02781E+06,   1.02203E+06,   1.02203E+06
C:/temp/Job-1.odb,Step-1,Increment      1: Step Time =    1.000,"P-1-1",         10823,   29.5656E-03,   140.018E-03,            0.,NA,NA,"",   930.764E+03,   991.787E+03,   991.787E+03
C:/temp/Job-1.odb,Step-1,Increment      1: Step Time =    1.000,"P-1-1",         10824,   28.1432E-03,   136.854E-03,            0.,NA,NA,"",   913.763E+03,   979.256E+03,   979.256E+03
C:/temp/Job-1.odb,Step-1,Increment      1: Step Time =    1.000,"P-1-1",         10825,   68.4886E-03,   129.211E-03,            0.,NA,NA,"",   1.11412E+06,   1.09499E+06,   1.09499E+06
C:/temp/Job-1.odb,Step-1,Increment      1: Step Time =    1.000,"P-1-1",         10826,   82.8131E-03,   141.003E-03,            0.,NA,NA,"",   1.10479E+06,   1.12091E+06,   1.12091E+06
C:/temp/Job-1.odb,Step-1,Increment      1: Step Time =    1.000,"P-1-1",         10827,   172.455E-03,   110.212E-03,            0.,NA,NA,"",   962.844E+03,   975.375E+03,   975.375E+03
C:/temp/Job-1.odb,Step-1,Increment      1: Step Time =    1.000,"P-1-1",         10828,   26.8430E-03,   89.0371E-03,            0.,NA,NA,"",   825.385E+03,   904.842E+03,   904.842E+03
C:/temp/Job-1.odb,Step-1,Increment      1: Step Time =    1.000,"P-1-1",         10829,   88.7801E-03,   172.564E-03,            0.,NA,NA,"",   1.00431E+06,   1.01416E+06,   1.01416E+06
C:/temp/Job-1.odb,Step-1,Increment      1: Step Time =    1.000,"P-1-1",         10830,   172.078E-03,   171.877E-03,            0.,NA,NA,"",   1.01071E+06,   1.00835E+06,   1.00835E+06
C:/temp/Job-1.odb,Step-1,Increment      1: Step Time =    1.000,"P-1-1",         10831,   27.9143E-03,   27.1539E-03,            0.,NA,NA,"",   1.04086E+06,   1.07514E+06,   1.07514E+06
C:/temp/Job-1.odb,Step-1,Increment      1: Step Time =    1.000,"P-1-1",         10832,   128.862E-03,   27.3145E-03,            0.,NA,NA,"",   1.01886E+06,   1.01744E+06,   1.01744E+06
C:/temp/Job-1.odb,Step-1,Increment      1: Step Time =    1.000,"P-1-1",         10833,   172.950E-03,   130.123E-03,            0.,NA,NA,"",   1.00021E+06,   1.00282E+06,   1.00282E+06
C:/temp/Job-1.odb,Step-1,Increment      1: Step Time =    1.000,"P-1-1",         10834,   168.925E-03,   28.1944E-03,            0.,NA,NA,"",   1.01298E+06,   1.00990E+06,   1.00990E+06
C:/temp/Job-1.odb,Step-1,Increment      1: Step Time =    1.000,"P-1-1",         10835,   138.788E-03,   27.9969E-03,            0.,NA,NA,"",   1.02540E+06,   1.02026E+06,   1.02026E+06
C:/temp/Job-1.odb,Step-1,Increment      1: Step Time =    1.000,"P-1-1",         10836,   171.787E-03,   138.896E-03,            0.,NA,NA,"",    1.0133E+06,   1.01169E+06,   1.01169E+06
C:/temp/Job-1.odb,Step-1,Increment      1: Step Time =    1.000,"P-1-1",         10837,   112.822E-03,   27.4493E-03,            0.,NA,NA,"",   1.00318E+06,   1.01045E+06,   1.01045E+06
C:/temp/Job-1.odb,Step-1,Increment      1: Step Time =    1.000,"P-1-1",         10838,   170.754E-03,   112.608E-03,            0.,NA,NA,"",   965.515E+03,   976.011E+03,   976.011E+03
C:/temp/Job-1.odb,Step-1,Increment      1: Step Time =    1.000,"P-1-1",         10839,   175.457E-03,   173.309E-03,            0.,NA,NA,"",   1.00775E+06,   1.00621E+06,   1.00621E+06
C:/temp/Job-1.odb,Step-1,Increment      1: Step Time =    1.000,"P-1-1",         10840,   28.7164E-03,   86.0831E-03,            0.,NA,NA,"",   835.635E+03,   911.930E+03,   911.930E+03
C:/temp/Job-1.odb,Step-1,Increment      1: Step Time =    1.000,"P-1-1",         10841,   24.4876E-03,   25.5904E-03,            0.,NA,NA,"",   1.04385E+06,   1.08243E+06,   1.08243E+06
C:/temp/Job-1.odb,Step-1,Increment      1: Step Time =    1.000,"P-1-1",         10842,   85.8775E-03,   170.838E-03,            0.,NA,NA,"",   1.01116E+06,   1.02096E+06,   1.02096E+06
C:/temp/Job-1.odb,Step-1,Increment      1: Step Time =    1.000,"P-1-1",         10843,   133.718E-03,   125.110E-03,            0.,NA,NA,"",   1.12157E+06,   1.07083E+06,   1.07083E+06
C:/temp/Job-1.odb,Step-1,Increment      1: Step Time =    1.000,"P-1-1",         10844,   171.058E-03,   54.8207E-03,            0.,NA,NA,"",   1.01920E+06,   1.01566E+06,   1.01566E+06
C:/temp/Job-1.odb,Step-1,Increment      1: Step Time =    1.000,"P-1-1",         10845,   173.025E-03,   52.5955E-03,            0.,NA,NA,"",   1.01677E+06,   1.01427E+06,   1.01427E+06
C:/temp/Job-1.odb,Step-1,Increment      1: Step Time =    1.000,"P-1-1",         10846,   54.3197E-03,   28.3475E-03,            0.,NA,NA,"",   1.04391E+06,   1.04913E+06,   1.04913E+06
C:/temp/Job-1.odb,Step-1,Increment      1: Step Time =    1.000,"P-1-1",         10847,   148.263E-03,   173.674E-03,            0.,NA,NA,"",   1.02154E+06,   1.01601E+06,   1.01601E+06
C:/temp/Job-1.odb,Step-1,Increment      1: Step Time =    1.000,"P-1-1",         10848,   144.761E-03,   171.212E-03,            0.,NA,NA,"",   1.02740E+06,   1.02103E+06,   1.02103E+06
C:/temp/Job-1.odb,Step-1,Increment      1: Step Time =    1.000,"P-1-1",         10849,   62.4831E-03,   90.7553E-03,            0.,NA,NA,"",   807.633E+03,   836.227E+03,   836.227E+03
C:/temp/Job-1.odb,Step-1,Increment      1: Step Time =    1.000,"P-1-1",         10850,   28.3895E-03,   146.693E-03,            0.,NA,NA,"",   950.111E+03,   1.00903E+06,   1.00903E+06
C:/temp/Job-1.odb,Step-1,Increment      1: Step Time =    1.000,"P-1-1",         10851,   25.8442E-03,   148.921E-03,            0.,NA,NA,"",   947.803E+03,   1.01042E+06,   1.01042E+06
C:/temp/Job-1.odb,Step-1,Increment      1: Step Time =    1.000,"P-1-1",         10852,   131.869E-03,   79.8654E-03,            0.,NA,NA,"",   1.10018E+06,   1.04242E+06,   1.04242E+06
C:/temp/Job-1.odb,Step-1,Increment      1: Step Time =    1.000,"P-1-1",         10853,   64.3594E-03,   74.6231E-03,            0.,NA,NA,"",   1.05678E+06,   1.04594E+06,   1.04594E+06
C:/temp/Job-1.odb,Step-1,Increment      1: Step Time =    1.000,"P-1-1",         10854,   135.316E-03,   93.3238E-03,            0.,NA,NA,"",   802.888E+03,   801.874E+03,   801.874E+03
C:/temp/Job-1.odb,Step-1,Increment      1: Step Time =    1.000,"P-1-1",         10855,   63.8614E-03,   93.4155E-03,            0.,NA,NA,"",   756.248E+03,   790.009E+03,   790.009E+03
C:/temp/Job-1.odb,Step-1,Increment      1: Step Time =    1.000,"P-1-1",         10856,   84.4990E-03,   170.798E-03,            0.,NA,NA,"",   1.01322E+06,   1.02241E+06,   1.02241E+06
C:/temp/Job-1.odb,Step-1,Increment      1: Step Time =    1.000,"P-1-1",         10857,   28.8686E-03,   84.4008E-03,            0.,NA,NA,"",   840.475E+03,   915.907E+03,   915.907E+03
C:/temp/Job-1.odb,Step-1,Increment      1: Step Time =    1.000,"P-1-1",         10858,   171.363E-03,   115.417E-03,            0.,NA,NA,"",   971.407E+03,   980.787E+03,   980.787E+03
C:/temp/Job-1.odb,Step-1,Increment      1: Step Time =    1.000,"P-1-1",         10859,   61.0377E-03,   77.1987E-03,            0.,NA,NA,"",   1.00407E+06,   1.00596E+06,   1.00596E+06
C:/temp/Job-1.odb,Step-1,Increment      1: Step Time =    1.000,"P-1-1",         10860,   140.325E-03,   98.3861E-03,            0.,NA,NA,"",   798.023E+03,   811.286E+03,   811.286E+03
C:/temp/Job-1.odb,Step-1,Increment      1: Step Time =    1.000,"P-1-1",         10861,   128.426E-03,   128.737E-03,            0.,NA,NA,"",   1.17543E+06,   1.12426E+06,   1.12426E+06
C:/temp/Job-1.odb,Step-1,Increment      1: Step Time =    1.000,"P-1-1",         10862,   142.283E-03,   103.548E-03,            0.,NA,NA,"",   827.709E+03,   838.357E+03,   838.357E+03
C:/temp/Job-1.odb,Step-1,Increment      1: Step Time =    1.000,"P-1-1",         10863,   171.538E-03,   72.7344E-03,            0.,NA,NA,"",   996.664E+03,   999.479E+03,   999.479E+03
C:/temp/Job-1.odb,Step-1,Increment      1: Step Time =    1.000,"P-1-1",         10864,   72.5314E-03,   28.5127E-03,            0.,NA,NA,"",   1.02889E+06,   1.03312E+06,   1.03312E+06
C:/temp/Job-1.odb,Step-1,Increment      1: Step Time =    1.000,"P-1-1",         10865,   67.1192E-03,   126.476E-03,            0.,NA,NA,"",   1.09143E+06,   1.07279E+06,   1.07279E+06
C:/temp/Job-1.odb,Step-1,Increment      1: Step Time =    1.000,"P-1-1",         10866,   129.637E-03,   80.7417E-03,            0.,NA,NA,"",   1.11672E+06,   1.05022E+06,   1.05022E+06
C:/temp/Job-1.odb,Step-1,Increment      1: Step Time =    1.000,"P-1-1",         10867,   92.0681E-03,   69.3316E-03,            0.,NA,NA,"",   1.12640E+06,   1.18698E+06,   1.18698E+06
C:/temp/Job-1.odb,Step-1,Increment      1: Step Time =    1.000,"P-1-1",         10868,   129.800E-03,   128.626E-03,            0.,NA,NA,"",   1.16486E+06,   1.11414E+06,   1.11414E+06
C:/temp/Job-1.odb,Step-1,Increment      1: Step Time =    1.000,"P-1-1",         10869,   61.3605E-03,   83.1846E-03,            0.,NA,NA,"",   932.894E+03,   943.462E+03,   943.462E+03
C:/temp/Job-1.odb,Step-1,Increment      1: Step Time =    1.000,"P-1-1",         10870,   75.4792E-03,   28.6435E-03,            0.,NA,NA,"",   1.02535E+06,   1.03054E+06,   1.03054E+06
C:/temp/Job-1.odb,Step-1,Increment      1: Step Time =    1.000,"P-1-1",         10871,   114.185E-03,   172.141E-03,            0.,NA,NA,"",   1.00534E+06,   1.01210E+06,   1.01210E+06
C:/temp/Job-1.odb,Step-1,Increment      1: Step Time =    1.000,"P-1-1",         10872,   27.1626E-03,   113.536E-03,            0.,NA,NA,"",   831.840E+03,   910.147E+03,   910.147E+03
C:/temp/Job-1.odb,Step-1,Increment      1: Step Time =    1.000,"P-1-1",         10873,   86.4788E-03,   26.8072E-03,            0.,NA,NA,"",   1.00579E+06,   1.01443E+06,   1.01443E+06
C:/temp/Job-1.odb,Step-1,Increment      1: Step Time =    1.000,"P-1-1",         10874,   166.581E-03,   172.710E-03,            0.,NA,NA,"",   1.01381E+06,   1.01038E+06,   1.01038E+06
C:/temp/Job-1.odb,Step-1,Increment      1: Step Time =    1.000,"P-1-1",         10875,   27.0643E-03,   165.507E-03,            0.,NA,NA,"",   1.01270E+06,   1.05799E+06,   1.05799E+06
C:/temp/Job-1.odb,Step-1,Increment      1: Step Time =    1.000,"P-1-1",         10876,   33.2197E-03,   26.9201E-03,            0.,NA,NA,"",   1.04533E+06,   1.06978E+06,   1.06978E+06
C:/temp/Job-1.odb,Step-1,Increment      1: Step Time =    1.000,"P-1-1",         10877,   171.561E-03,   33.0965E-03,            0.,NA,NA,"",   1.01430E+06,   1.01124E+06,   1.01124E+06
C:/temp/Job-1.odb,Step-1,Increment      1: Step Time =    1.000,"P-1-1",         10878,   171.598E-03,   83.8575E-03,            0.,NA,NA,"",   973.296E+03,   982.405E+03,   982.405E+03
C:/temp/Job-1.odb,Step-1,Increment      1: Step Time =    1.000,"P-1-1",         10879,   85.7136E-03,   28.0092E-03,            0.,NA,NA,"",   1.00941E+06,   1.01846E+06,   1.01846E+06
C:/temp/Job-1.odb,Step-1,Increment      1: Step Time =    1.000,"P-1-1",         10880,   30.2814E-03,   171.720E-03,            0.,NA,NA,"",   1.03996E+06,   1.07107E+06,   1.07107E+06
C:/temp/Job-1.odb,Step-1,Increment      1: Step Time =    1.000,"P-1-1",         10881,   115.733E-03,   172.174E-03,            0.,NA,NA,"",   1.00695E+06,   1.01285E+06,   1.01285E+06
C:/temp/Job-1.odb,Step-1,Increment      1: Step Time =    1.000,"P-1-1",         10882,   28.0503E-03,   115.397E-03,            0.,NA,NA,"",   838.266E+03,   914.843E+03,   914.843E+03
C:/temp/Job-1.odb,Step-1,Increment      1: Step Time =    1.000,"P-1-1",         10883,   69.7485E-03,   130.780E-03,            0.,NA,NA,"",   1.12628E+06,   1.10742E+06,   1.10742E+06
C:/temp/Job-1.odb,Step-1,Increment      1: Step Time =    1.000,"P-1-1",         10884,   61.1764E-03,   110.577E-03,            0.,NA,NA,"",   832.788E+03,   860.521E+03,   860.521E+03
C:/temp/Job-1.odb,Step-1,Increment      1: Step Time =    1.000,"P-1-1",         10885,   97.7884E-03,   23.9390E-03,            0.,NA,NA,"",   991.253E+03,   1.00022E+06,   1.00022E+06
C:/temp/Job-1.odb,Step-1,Increment      1: Step Time =    1.000,"P-1-1",         10886,   23.8550E-03,   102.869E-03,            0.,NA,NA,"",   811.188E+03,   895.020E+03,   895.020E+03
C:/temp/Job-1.odb,Step-1,Increment      1: Step Time =    1.000,"P-1-1",         10887,   101.433E-03,   177.013E-03,            0.,NA,NA,"",   988.974E+03,   997.153E+03,   997.153E+03
C:/temp/Job-1.odb,Step-1,Increment      1: Step Time =    1.000,"P-1-1",         10888,   123.387E-03,   178.503E-03,            0.,NA,NA,"",   1.00008E+06,   1.00110E+06,   1.00110E+06
C:/temp/Job-1.odb,Step-1,Increment      1: Step Time =    1.000,"P-1-1",         10889,   22.4899E-03,   123.089E-03,            0.,NA,NA,"",   847.865E+03,   928.822E+03,   928.822E+03
C:/temp/Job-1.odb,Step-1,Increment      1: Step Time =    1.000,"P-1-1",         10890,   89.8775E-03,   68.7762E-03,            0.,NA,NA,"",   1.14086E+06,   1.18628E+06,   1.18628E+06
C:/temp/Job-1.odb,Step-1,Increment      1: Step Time =    1.000,"P-1-1",         10891,   61.6190E-03,   113.908E-03,            0.,NA,NA,"",   890.178E+03,   906.518E+03,   906.518E+03
C:/temp/Job-1.odb,Step-1,Increment      1: Step Time =    1.000,"P-1-1",         10892,   60.5417E-03,   108.558E-03,            0.,NA,NA,"",   801.655E+03,   836.711E+03,   836.711E+03
C:/temp/Job-1.odb,Step-1,Increment      1: Step Time =    1.000,"P-1-1",         10893,   172.464E-03,   42.5030E-03,            0.,NA,NA,"",   1.01741E+06,   1.01411E+06,   1.01411E+06
C:/temp/Job-1.odb,Step-1,Increment      1: Step Time =    1.000,"P-1-1",         10894,   127.939E-03,   28.4547E-03,            0.,NA,NA,"",   1.02106E+06,   1.01994E+06,   1.01994E+06
C:/temp/Job-1.odb,Step-1,Increment      1: Step Time =    1.000,"P-1-1",         10895,   171.428E-03,   128.191E-03,            0.,NA,NA,"",   998.557E+03,   1.00081E+06,   1.00081E+06
C:/temp/Job-1.odb,Step-1,Increment      1: Step Time =    1.000,"P-1-1",         10896,   157.056E-03,   172.005E-03,            0.,NA,NA,"",   1.02068E+06,   1.01529E+06,   1.01529E+06
C:/temp/Job-1.odb,Step-1,Increment      1: Step Time =    1.000,"P-1-1",         10897,   28.2707E-03,   71.4393E-03,            0.,NA,NA,"",   883.137E+03,   953.229E+03,   953.229E+03
C:/temp/Job-1.odb,Step-1,Increment      1: Step Time =    1.000,"P-1-1",         10898,   72.7073E-03,   171.904E-03,            0.,NA,NA,"",   1.02765E+06,   1.03176E+06,   1.03176E+06
C:/temp/Job-1.odb,Step-1,Increment      1: Step Time =    1.000,"P-1-1",         10899,   27.5506E-03,   158.422E-03,            0.,NA,NA,"",   988.186E+03,   1.03972E+06,   1.03972E+06
C:/temp/Job-1.odb,Step-1,Increment      1: Step Time =    1.000,"P-1-1",         10900,   60.8055E-03,   79.2704E-03,            0.,NA,NA,"",   981.358E+03,   986.358E+03,   986.358E+03
C:/temp/Job-1.odb,Step-1,Increment      1: Step Time =    1.000,"P-1-1",         10901,   173.973E-03,   86.8420E-03,            0.,NA,NA,"",   968.996E+03,   981.079E+03,   981.079E+03
C:/temp/Job-1.odb,Step-1,Increment      1: Step Time =    1.000,"P-1-1",         10902,   60.6596E-03,   105.063E-03,            0.,NA,NA,"",   754.873E+03,   798.193E+03,   798.193E+03
C:/temp/Job-1.odb,Step-1,Increment      1: Step Time =    1.000,"P-1-1",         10903,   67.9951E-03,   127.384E-03,            0.,NA,NA,"",   1.10431E+06,   1.08425E+06,   1.08425E+06
C:/temp/Job-1.odb,Step-1,Increment      1: Step Time =    1.000,"P-1-1",         10904,   133.341E-03,   84.6375E-03,            0.,NA,NA,"",   1.00718E+06,   962.105E+03,   962.105E+03
C:/temp/Job-1.odb,Step-1,Increment      1: Step Time =    1.000,"P-1-1",         10905,   60.5844E-03,   101.809E-03,            0.,NA,NA,"",   731.453E+03,   779.328E+03,   779.328E+03
C:/temp/Job-1.odb,Step-1,Increment      1: Step Time =    1.000,"P-1-1",         10906,   133.874E-03,   87.4735E-03,            0.,NA,NA,"",   939.737E+03,   907.145E+03,   907.145E+03
C:/temp/Job-1.odb,Step-1,Increment      1: Step Time =    1.000,"P-1-1",         10907,   171.652E-03,   39.0626E-03,            0.,NA,NA,"",   1.01728E+06,   1.01376E+06,   1.01376E+06
C:/temp/Job-1.odb,Step-1,Increment      1: Step Time =    1.000,"P-1-1",         10908,   125.165E-03,   28.2583E-03,            0.,NA,NA,"",   1.01790E+06,   1.01832E+06,   1.01832E+06
C:/temp/Job-1.odb,Step-1,Increment      1: Step Time =    1.000,"P-1-1",         10909,   38.8572E-03,   27.8691E-03,            0.,NA,NA,"",   1.04553E+06,   1.06314E+06,   1.06314E+06
C:/temp/Job-1.odb,Step-1,Increment      1: Step Time =    1.000,"P-1-1",         10910,   172.715E-03,   124.123E-03,            0.,NA,NA,"",   989.683E+03,   995.113E+03,   995.113E+03
C:/temp/Job-1.odb,Step-1,Increment      1: Step Time =    1.000,"P-1-1",         10911,   161.091E-03,   171.630E-03,            0.,NA,NA,"",   1.01867E+06,   1.01386E+06,   1.01386E+06
C:/temp/Job-1.odb,Step-1,Increment      1: Step Time =    1.000,"P-1-1",         10912,   28.7072E-03,   75.4024E-03,            0.,NA,NA,"",   870.063E+03,   941.577E+03,   941.577E+03
C:/temp/Job-1.odb,Step-1,Increment      1: Step Time =    1.000,"P-1-1",         10913,   75.2560E-03,   172.194E-03,            0.,NA,NA,"",   1.02358E+06,   1.02842E+06,   1.02842E+06
C:/temp/Job-1.odb,Step-1,Increment      1: Step Time =    1.000,"P-1-1",         10914,   27.3512E-03,   159.850E-03,            0.,NA,NA,"",   992.842E+03,   1.04332E+06,   1.04332E+06
C:/temp/Job-1.odb,Step-1,Increment      1: Step Time =    1.000,"P-1-1",         10915,   119.758E-03,   82.1012E-03,            0.,NA,NA,"",   1.27336E+06,   1.17145E+06,   1.17145E+06
C:/temp/Job-1.odb,Step-1,Increment      1: Step Time =    1.000,"P-1-1",         10916,   141.511E-03,   116.608E-03,            0.,NA,NA,"",   981.491E+03,   959.452E+03,   959.452E+03
C:/temp/Job-1.odb,Step-1,Increment      1: Step Time =    1.000,"P-1-1",         10917,   93.8862E-03,   140.426E-03,            0.,NA,NA,"",   1.05281E+06,   1.10345E+06,   1.10345E+06
C:/temp/Job-1.odb,Step-1,Increment      1: Step Time =    1.000,"P-1-1",         10918,   141.628E-03,   101.110E-03,            0.,NA,NA,"",   810.642E+03,   823.748E+03,   823.748E+03
C:/temp/Job-1.odb,Step-1,Increment      1: Step Time =    1.000,"P-1-1",         10919,   62.1509E-03,   173.074E-03,            0.,NA,NA,"",   1.03644E+06,   1.03923E+06,   1.03923E+06
C:/temp/Job-1.odb,Step-1,Increment      1: Step Time =    1.000,"P-1-1",         10920,   94.0848E-03,   74.6506E-03,            0.,NA,NA,"",   1.18305E+06,   1.26868E+06,   1.26868E+06
C:/temp/Job-1.odb,Step-1,Increment      1: Step Time =    1.000,"P-1-1",         10921,   157.349E-03,   26.5142E-03,            0.,NA,NA,"",   1.01831E+06,   1.01344E+06,   1.01344E+06
C:/temp/Job-1.odb,Step-1,Increment      1: Step Time =    1.000,"P-1-1",         10922,   172.137E-03,   157.881E-03,            0.,NA,NA,"",   1.01783E+06,   1.01437E+06,   1.01437E+06
C:/temp/Job-1.odb,Step-1,Increment      1: Step Time =    1.000,"P-1-1",         10923,   76.1547E-03,   131.145E-03,            0.,NA,NA,"",   1.16979E+06,   1.15028E+06,   1.15028E+06
C:/temp/Job-1.odb,Step-1,Increment      1: Step Time =    1.000,"P-1-1",         10924,   28.1023E-03,   43.3878E-03,            0.,NA,NA,"",   983.422E+03,   1.03549E+06,   1.03549E+06
C:/temp/Job-1.odb,Step-1,Increment      1: Step Time =    1.000,"P-1-1",         10925,   43.6298E-03,   172.588E-03,            0.,NA,NA,"",   1.04605E+06,   1.05807E+06,   1.05807E+06
C:/temp/Job-1.odb,Step-1,Increment      1: Step Time =    1.000,"P-1-1",         10926,   73.9121E-03,   131.277E-03,            0.,NA,NA,"",   1.15657E+06,   1.13576E+06,   1.13576E+06
C:/temp/Job-1.odb,Step-1,Increment      1: Step Time =    1.000,"P-1-1",         10927,   93.1201E-03,   70.7383E-03,            0.,NA,NA,"",   1.13262E+06,   1.20234E+06,   1.20234E+06
C:/temp/Job-1.odb,Step-1,Increment      1: Step Time =    1.000,"P-1-1",         10928,   78.5092E-03,   139.658E-03,            0.,NA,NA,"",   1.12285E+06,   1.12631E+06,   1.12631E+06
C:/temp/Job-1.odb,Step-1,Increment      1: Step Time =    1.000,"P-1-1",         10929,   122.048E-03,   133.264E-03,            0.,NA,NA,"",   1.18006E+06,   1.15334E+06,   1.15334E+06
C:/temp/Job-1.odb,Step-1,Increment      1: Step Time =    1.000,"P-1-1",         10930,   142.114E-03,   107.347E-03,            0.,NA,NA,"",   860.443E+03,   863.724E+03,   863.724E+03
C:/temp/Job-1.odb,Step-1,Increment      1: Step Time =    1.000,"P-1-1",         10931,   132.911E-03,   81.4503E-03,            0.,NA,NA,"",   1.06708E+06,   1.01422E+06,   1.01422E+06
C:/temp/Job-1.odb,Step-1,Increment      1: Step Time =    1.000,"P-1-1",         10932,   120.918E-03,   134.956E-03,            0.,NA,NA,"",   1.16682E+06,   1.14853E+06,   1.14853E+06
C:/temp/Job-1.odb,Step-1,Increment      1: Step Time =    1.000,"P-1-1",         10933,   90.6293E-03,   140.263E-03,            0.,NA,NA,"",   1.06969E+06,   1.11177E+06,   1.11177E+06
C:/temp/Job-1.odb,Step-1,Increment      1: Step Time =    1.000,"P-1-1",         10934,   106.885E-03,   141.242E-03,            0.,NA,NA,"",   1.05418E+06,   1.09872E+06,   1.09872E+06
C:/temp/Job-1.odb,Step-1,Increment      1: Step Time =    1.000,"P-1-1",         10935,   127.225E-03,   132.932E-03,            0.,NA,NA,"",   1.16874E+06,   1.13004E+06,   1.13004E+06
C:/temp/Job-1.odb,Step-1,Increment      1: Step Time =    1.000,"P-1-1",         10936,   79.7978E-03,   139.417E-03,            0.,NA,NA,"",   1.12229E+06,   1.12855E+06,   1.12855E+06
C:/temp/Job-1.odb,Step-1,Increment      1: Step Time =    1.000,"P-1-1",         10937,   135.364E-03,   89.9380E-03,            0.,NA,NA,"",   878.302E+03,   862.096E+03,   862.096E+03
C:/temp/Job-1.odb,Step-1,Increment      1: Step Time =    1.000,"P-1-1",         10938,   140.260E-03,   119.963E-03,            0.,NA,NA,"",   1.02704E+06,   995.537E+03,   995.537E+03
C:/temp/Job-1.odb,Step-1,Increment      1: Step Time =    1.000,"P-1-1",         10939,   96.7845E-03,   142.144E-03,            0.,NA,NA,"",   1.03764E+06,   1.08966E+06,   1.08966E+06
C:/temp/Job-1.odb,Step-1,Increment      1: Step Time =    1.000,"P-1-1",         10940,   61.2503E-03,   87.0140E-03,            0.,NA,NA,"",   871.398E+03,   892.201E+03,   892.201E+03
C:/temp/Job-1.odb,Step-1,Increment      1: Step Time =    1.000,"P-1-1",         10941,   142.043E-03,   113.210E-03,            0.,NA,NA,"",   935.367E+03,   923.007E+03,   923.007E+03
C:/temp/Job-1.odb,Step-1,Increment      1: Step Time =    1.000,"P-1-1",         10942,   99.4501E-03,   140.836E-03,            0.,NA,NA,"",   1.03631E+06,   1.09290E+06,   1.09290E+06
C:/temp/Job-1.odb,Step-1,Increment      1: Step Time =    1.000,"P-1-1",         10943,   29.1995E-03,   171.489E-03,            0.,NA,NA,"",   1.03784E+06,   1.07138E+06,   1.07138E+06
C:/temp/Job-1.odb,Step-1,Increment      1: Step Time =    1.000,"P-1-1",         10944,   64.1275E-03,   172.199E-03,            0.,NA,NA,"",   1.03656E+06,   1.03941E+06,   1.03941E+06
C:/temp/Job-1.odb,Step-1,Increment      1: Step Time =    1.000,"P-1-1",         10945,   28.4248E-03,   63.7371E-03,            0.,NA,NA,"",   912.917E+03,   978.251E+03,   978.251E+03
C:/temp/Job-1.odb,Step-1,Increment      1: Step Time =    1.000,"P-1-1",         10946,   70.0772E-03,   170.524E-03,            0.,NA,NA,"",   1.03414E+06,   1.03789E+06,   1.03789E+06
C:/temp/Job-1.odb,Step-1,Increment      1: Step Time =    1.000,"P-1-1",         10947,   170.526E-03,   116.693E-03,            0.,NA,NA,"",   973.760E+03,   981.908E+03,   981.908E+03
C:/temp/Job-1.odb,Step-1,Increment      1: Step Time =    1.000,"P-1-1",         10948,   29.9186E-03,   83.7225E-03,            0.,NA,NA,"",   844.536E+03,   918.315E+03,   918.315E+03
C:/temp/Job-1.odb,Step-1,Increment      1: Step Time =    1.000,"P-1-1",         10949,   83.6185E-03,   169.600E-03,            0.,NA,NA,"",   1.01723E+06,   1.02665E+06,   1.02665E+06
C:/temp/Job-1.odb,Step-1,Increment      1: Step Time =    1.000,"P-1-1",         10950,   76.3230E-03,   133.432E-03,            0.,NA,NA,"",   1.15767E+06,   1.14466E+06,   1.14466E+06
C:/temp/Job-1.odb,Step-1,Increment      1: Step Time =    1.000,"P-1-1",         10951,   132.816E-03,   126.305E-03,            0.,NA,NA,"",   1.13593E+06,   1.08437E+06,   1.08437E+06
C:/temp/Job-1.odb,Step-1,Increment      1: Step Time =    1.000,"P-1-1",         10952,   170.383E-03,   33.0357E-03,            0.,NA,NA,"",   1.01523E+06,   1.01187E+06,   1.01187E+06
C:/temp/Job-1.odb,Step-1,Increment      1: Step Time =    1.000,"P-1-1",         10953,   33.5626E-03,   28.3117E-03,            0.,NA,NA,"",   1.04242E+06,   1.06798E+06,   1.06798E+06
C:/temp/Job-1.odb,Step-1,Increment      1: Step Time =    1.000,"P-1-1",         10954,   166.033E-03,   171.198E-03,            0.,NA,NA,"",   1.01560E+06,   1.01175E+06,   1.01175E+06
C:/temp/Job-1.odb,Step-1,Increment      1: Step Time =    1.000,"P-1-1",         10955,   87.0562E-03,   29.0789E-03,            0.,NA,NA,"",   1.00975E+06,   1.01998E+06,   1.01998E+06
C:/temp/Job-1.odb,Step-1,Increment      1: Step Time =    1.000,"P-1-1",         10956,   28.3660E-03,   166.027E-03,            0.,NA,NA,"",   1.01829E+06,   1.06002E+06,   1.06002E+06
C:/temp/Job-1.odb,Step-1,Increment      1: Step Time =    1.000,"P-1-1",         10957,   28.5094E-03,   114.024E-03,            0.,NA,NA,"",   835.277E+03,   911.858E+03,   911.858E+03
C:/temp/Job-1.odb,Step-1,Increment      1: Step Time =    1.000,"P-1-1",         10958,   114.140E-03,   170.519E-03,            0.,NA,NA,"",   1.00873E+06,   1.01621E+06,   1.01621E+06
C:/temp/Job-1.odb,Step-1,Increment      1: Step Time =    1.000,"P-1-1",         10959,   65.3974E-03,   122.688E-03,            0.,NA,NA,"",   1.04432E+06,   1.03072E+06,   1.03072E+06
C:/temp/Job-1.odb,Step-1,Increment      1: Step Time =    1.000,"P-1-1",         10960,   172.555E-03,   136.037E-03,            0.,NA,NA,"",   1.00919E+06,   1.00902E+06,   1.00902E+06
C:/temp/Job-1.odb,Step-1,Increment      1: Step Time =    1.000,"P-1-1",         10961,   135.206E-03,   28.2021E-03,            0.,NA,NA,"",   1.02503E+06,   1.02080E+06,   1.02080E+06
C:/temp/Job-1.odb,Step-1,Increment      1: Step Time =    1.000,"P-1-1",         10962,   113.821E-03,   139.065E-03,            0.,NA,NA,"",   1.10593E+06,   1.12532E+06,   1.12532E+06
C:/temp/Job-1.odb,Step-1,Increment      1: Step Time =    1.000,"P-1-1",         10963,   39.8964E-03,   172.336E-03,            0.,NA,NA,"",   1.04598E+06,   1.06220E+06,   1.06220E+06
C:/temp/Job-1.odb,Step-1,Increment      1: Step Time =    1.000,"P-1-1",         10964,   27.5505E-03,   40.6882E-03,            0.,NA,NA,"",   991.312E+03,   1.04209E+06,   1.04209E+06
C:/temp/Job-1.odb,Step-1,Increment      1: Step Time =    1.000,"P-1-1",         10965,   173.425E-03,   160.173E-03,            0.,NA,NA,"",   1.01546E+06,   1.01261E+06,   1.01261E+06
C:/temp/Job-1.odb,Step-1,Increment      1: Step Time =    1.000,"P-1-1",         10966,   119.970E-03,   136.984E-03,            0.,NA,NA,"",   1.15011E+06,   1.14043E+06,   1.14043E+06
C:/temp/Job-1.odb,Step-1,Increment      1: Step Time =    1.000,"P-1-1",         10967,   65.9043E-03,   74.0910E-03,            0.,NA,NA,"",   1.07622E+06,   1.06064E+06,   1.06064E+06
C:/temp/Job-1.odb,Step-1,Increment      1: Step Time =    1.000,"P-1-1",         10968,   139.105E-03,   95.9325E-03,            0.,NA,NA,"",   801.893E+03,   811.572E+03,   811.572E+03
C:/temp/Job-1.odb,Step-1,Increment      1: Step Time =    1.000,"P-1-1",         10969,   142.223E-03,   98.5125E-03,            0.,NA,NA,"",   816.982E+03,   829.783E+03,   829.783E+03
C:/temp/Job-1.odb,Step-1,Increment      1: Step Time =    1.000,"P-1-1",         10970,   67.6809E-03,   71.4776E-03,            0.,NA,NA,"",   1.10518E+06,   1.08689E+06,   1.08689E+06
C:/temp/Job-1.odb,Step-1,Increment      1: Step Time =    1.000,"P-1-1",         10971,   122.169E-03,   136.458E-03,            0.,NA,NA,"",   1.15752E+06,   1.13876E+06,   1.13876E+06
C:/temp/Job-1.odb,Step-1,Increment      1: Step Time =    1.000,"P-1-1",         10972,   24.6870E-03,   148.273E-03,            0.,NA,NA,"",   940.469E+03,   1.00588E+06,   1.00588E+06
C:/temp/Job-1.odb,Step-1,Increment      1: Step Time =    1.000,"P-1-1",         10973,   149.442E-03,   174.372E-03,            0.,NA,NA,"",   1.02000E+06,   1.01474E+06,   1.01474E+06
C:/temp/Job-1.odb,Step-1,Increment      1: Step Time =    1.000,"P-1-1",         10974,   52.2504E-03,   24.8325E-03,            0.,NA,NA,"",   1.04035E+06,   1.04516E+06,   1.04516E+06
C:/temp/Job-1.odb,Step-1,Increment      1: Step Time =    1.000,"P-1-1",         10975,   174.175E-03,   51.4848E-03,            0.,NA,NA,"",   1.01528E+06,   1.01334E+06,   1.01334E+06
C:/temp/Job-1.odb,Step-1,Increment      1: Step Time =    1.000,"P-1-1",         10976,   86.7839E-03,   68.3161E-03,            0.,NA,NA,"",   1.16157E+06,   1.18578E+06,   1.18578E+06
C:/temp/Job-1.odb,Step-1,Increment      1: Step Time =    1.000,"P-1-1",         10977,   102.231E-03,   174.410E-03,            0.,NA,NA,"",   993.772E+03,   1.00363E+06,   1.00363E+06
C:/temp/Job-1.odb,Step-1,Increment      1: Step Time =    1.000,"P-1-1",         10978,   24.9495E-03,   103.691E-03,            0.,NA,NA,"",   812.994E+03,   895.680E+03,   895.680E+03
C:/temp/Job-1.odb,Step-1,Increment      1: Step Time =    1.000,"P-1-1",         10979,   171.745E-03,   95.9639E-03,            0.,NA,NA,"",   954.876E+03,   968.933E+03,   968.933E+03
C:/temp/Job-1.odb,Step-1,Increment      1: Step Time =    1.000,"P-1-1",         10980,   175.057E-03,   98.1086E-03,            0.,NA,NA,"",   958.758E+03,   974.604E+03,   974.604E+03
C:/temp/Job-1.odb,Step-1,Increment      1: Step Time =    1.000,"P-1-1",         10981,   98.2696E-03,   25.1255E-03,            0.,NA,NA,"",   993.300E+03,   1.00298E+06,   1.00298E+06
C:/temp/Job-1.odb,Step-1,Increment      1: Step Time =    1.000,"P-1-1",         10982,   71.6926E-03,   94.2578E-03,            0.,NA,NA,"",   681.673E+03,   694.330E+03,   694.330E+03
C:/temp/Job-1.odb,Step-1,Increment      1: Step Time =    1.000,"P-1-1",         10983,   128.642E-03,   171.582E-03,            0.,NA,NA,"",   1.02157E+06,   1.02005E+06,   1.02005E+06
C:/temp/Job-1.odb,Step-1,Increment      1: Step Time =    1.000,"P-1-1",         10984,   125.362E-03,   173.071E-03,            0.,NA,NA,"",   1.01488E+06,   1.01519E+06,   1.01519E+06
C:/temp/Job-1.odb,Step-1,Increment      1: Step Time =    1.000,"P-1-1",         10985,   27.4599E-03,   128.875E-03,            0.,NA,NA,"",   882.066E+03,   953.185E+03,   953.185E+03
C:/temp/Job-1.odb,Step-1,Increment      1: Step Time =    1.000,"P-1-1",         10986,   151.944E-03,   25.2504E-03,            0.,NA,NA,"",   1.01870E+06,   1.01366E+06,   1.01366E+06
C:/temp/Job-1.odb,Step-1,Increment      1: Step Time =    1.000,"P-1-1",         10987,   175.924E-03,   151.239E-03,            0.,NA,NA,"",   1.01307E+06,   1.01185E+06,   1.01185E+06
C:/temp/Job-1.odb,Step-1,Increment      1: Step Time =    1.000,"P-1-1",         10988,   63.0849E-03,   120.049E-03,            0.,NA,NA,"",   993.404E+03,   990.960E+03,   990.960E+03
C:/temp/Job-1.odb,Step-1,Increment      1: Step Time =    1.000,"P-1-1",         10989,   153.812E-03,   27.4241E-03,            0.,NA,NA,"",   1.02149E+06,   1.01588E+06,   1.01588E+06
C:/temp/Job-1.odb,Step-1,Increment      1: Step Time =    1.000,"P-1-1",         10990,   156.695E-03,   27.8128E-03,            0.,NA,NA,"",   1.02052E+06,   1.01516E+06,   1.01516E+06
C:/temp/Job-1.odb,Step-1,Increment      1: Step Time =    1.000,"P-1-1",         10991,   172.349E-03,   152.468E-03,            0.,NA,NA,"",   1.01856E+06,   1.01519E+06,   1.01519E+06
C:/temp/Job-1.odb,Step-1,Increment      1: Step Time =    1.000,"P-1-1",         10992,   172.147E-03,   155.203E-03,            0.,NA,NA,"",   1.01841E+06,   1.01493E+06,   1.01493E+06
C:/temp/Job-1.odb,Step-1,Increment      1: Step Time =    1.000,"P-1-1",         10993,   28.3792E-03,   44.6279E-03,            0.,NA,NA,"",   980.123E+03,   1.03263E+06,   1.03263E+06
C:/temp/Job-1.odb,Step-1,Increment      1: Step Time =    1.000,"P-1-1",         10994,   27.3937E-03,   47.4750E-03,            0.,NA,NA,"",   966.736E+03,   1.02348E+06,   1.02348E+06
C:/temp/Job-1.odb,Step-1,Increment      1: Step Time =    1.000,"P-1-1",         10995,   47.3655E-03,   172.425E-03,            0.,NA,NA,"",   1.04555E+06,   1.05459E+06,   1.05459E+06
C:/temp/Job-1.odb,Step-1,Increment      1: Step Time =    1.000,"P-1-1",         10996,   44.5881E-03,   171.514E-03,            0.,NA,NA,"",   1.04592E+06,   1.05787E+06,   1.05787E+06
C:/temp/Job-1.odb,Step-1,Increment      1: Step Time =    1.000,"P-1-1",         10997,   104.162E-03,   142.329E-03,            0.,NA,NA,"",   1.04031E+06,   1.08926E+06,   1.08926E+06
C:/temp/Job-1.odb,Step-1,Increment      1: Step Time =    1.000,"P-1-1",         10998,   63.5136E-03,   169.953E-03,            0.,NA,NA,"",   1.04185E+06,   1.04512E+06,   1.04512E+06
C:/temp/Job-1.odb,Step-1,Increment      1: Step Time =    1.000,"P-1-1",         10999,   29.8275E-03,   63.5150E-03,            0.,NA,NA,"",   919.120E+03,   981.685E+03,   981.685E+03
C:/temp/Job-1.odb,Step-1,Increment      1: Step Time =    1.000,"P-1-1",         11000,   125.998E-03,   133.771E-03,            0.,NA,NA,"",   1.16925E+06,   1.13442E+06,   1.13442E+06
C:/temp/Job-1.odb,Step-1,Increment      1: Step Time =    1.000,"P-1-1",         11001,   28.6033E-03,   53.1071E-03,            0.,NA,NA,"",   951.978E+03,   1.01025E+06,   1.01025E+06
C:/temp/Job-1.odb,Step-1,Increment      1: Step Time =    1.000,"P-1-1",         11002,   53.5972E-03,   170.820E-03,            0.,NA,NA,"",   1.04533E+06,   1.05113E+06,   1.05113E+06
C:/temp/Job-1.odb,Step-1,Increment      1: Step Time =    1.000,"P-1-1",         11003,   172.271E-03,   37.3408E-03,            0.,NA,NA,"",   1.01576E+06,   1.01259E+06,   1.01259E+06
C:/temp/Job-1.odb,Step-1,Increment      1: Step Time =    1.000,"P-1-1",         11004,   37.5070E-03,   26.2170E-03,            0.,NA,NA,"",   1.04729E+06,   1.06490E+06,   1.06490E+06
C:/temp/Job-1.odb,Step-1,Increment      1: Step Time =    1.000,"P-1-1",         11005,   163.025E-03,   172.329E-03,            0.,NA,NA,"",   1.01654E+06,   1.01230E+06,   1.01230E+06
C:/temp/Job-1.odb,Step-1,Increment      1: Step Time =    1.000,"P-1-1",         11006,   26.8710E-03,   161.943E-03,            0.,NA,NA,"",   999.045E+03,   1.04846E+06,   1.04846E+06
C:/temp/Job-1.odb,Step-1,Increment      1: Step Time =    1.000,"P-1-1",         11007,   110.197E-03,   140.257E-03,            0.,NA,NA,"",   1.07693E+06,   1.11125E+06,   1.11125E+06
C:/temp/Job-1.odb,Step-1,Increment      1: Step Time =    1.000,"P-1-1",         11008,   142.647E-03,   108.650E-03,            0.,NA,NA,"",   877.183E+03,   877.752E+03,   877.752E+03
C:/temp/Job-1.odb,Step-1,Increment      1: Step Time =    1.000,"P-1-1",         11009,   166.404E-03,   28.0062E-03,            0.,NA,NA,"",   1.01454E+06,   1.01095E+06,   1.01095E+06
C:/temp/Job-1.odb,Step-1,Increment      1: Step Time =    1.000,"P-1-1",         11010,   137.864E-03,   123.449E-03,            0.,NA,NA,"",   1.07540E+06,   1.03459E+06,   1.03459E+06
C:/temp/Job-1.odb,Step-1,Increment      1: Step Time =    1.000,"P-1-1",         11011,   172.709E-03,   90.3884E-03,            0.,NA,NA,"",   962.361E+03,   975.281E+03,   975.281E+03
C:/temp/Job-1.odb,Step-1,Increment      1: Step Time =    1.000,"P-1-1",         11012,   172.093E-03,   93.3125E-03,            0.,NA,NA,"",   957.978E+03,   971.583E+03,   971.583E+03
C:/temp/Job-1.odb,Step-1,Increment      1: Step Time =    1.000,"P-1-1",         11013,   64.2116E-03,   27.5906E-03,            0.,NA,NA,"",   1.03603E+06,   1.03885E+06,   1.03885E+06
C:/temp/Job-1.odb,Step-1,Increment      1: Step Time =    1.000,"P-1-1",         11014,   26.3012E-03,   60.4666E-03,            0.,NA,NA,"",   916.412E+03,   983.784E+03,   983.784E+03
C:/temp/Job-1.odb,Step-1,Increment      1: Step Time =    1.000,"P-1-1",         11015,   60.1195E-03,   174.104E-03,            0.,NA,NA,"",   1.03597E+06,   1.03874E+06,   1.03874E+06
C:/temp/Job-1.odb,Step-1,Increment      1: Step Time =    1.000,"P-1-1",         11016,   76.9161E-03,   138.581E-03,            0.,NA,NA,"",   1.12978E+06,   1.12840E+06,   1.12840E+06
C:/temp/Job-1.odb,Step-1,Increment      1: Step Time =    1.000,"P-1-1",         11017,   135.375E-03,   174.757E-03,            0.,NA,NA,"",   1.01765E+06,   1.01425E+06,   1.01425E+06
C:/temp/Job-1.odb,Step-1,Increment      1: Step Time =    1.000,"P-1-1",         11018,   26.7629E-03,   136.536E-03,            0.,NA,NA,"",   907.553E+03,   975.730E+03,   975.730E+03
C:/temp/Job-1.odb,Step-1,Increment      1: Step Time =    1.000,"P-1-1",         11019,   171.880E-03,   51.7625E-03,            0.,NA,NA,"",   1.01885E+06,   1.01551E+06,   1.01551E+06
C:/temp/Job-1.odb,Step-1,Increment      1: Step Time =    1.000,"P-1-1",         11020,   51.3534E-03,   27.5105E-03,            0.,NA,NA,"",   1.04403E+06,   1.05036E+06,   1.05036E+06
C:/temp/Job-1.odb,Step-1,Increment      1: Step Time =    1.000,"P-1-1",         11021,   148.599E-03,   172.325E-03,            0.,NA,NA,"",   1.02411E+06,   1.01807E+06,   1.01807E+06
C:/temp/Job-1.odb,Step-1,Increment      1: Step Time =    1.000,"P-1-1",         11022,   27.9682E-03,   148.797E-03,            0.,NA,NA,"",   956.105E+03,   1.01428E+06,   1.01428E+06
C:/temp/Job-1.odb,Step-1,Increment      1: Step Time =    1.000,"P-1-1",         11023,   70.9587E-03,   169.245E-03,            0.,NA,NA,"",   1.03633E+06,   1.04055E+06,   1.04055E+06
C:/temp/Job-1.odb,Step-1,Increment      1: Step Time =    1.000,"P-1-1",         11024,   30.0830E-03,   70.5406E-03,            0.,NA,NA,"",   893.108E+03,   959.475E+03,   959.475E+03
C:/temp/Job-1.odb,Step-1,Increment      1: Step Time =    1.000,"P-1-1",         11025,   171.858E-03,   117.276E-03,            0.,NA,NA,"",   975.681E+03,   984.284E+03,   984.284E+03
C:/temp/Job-1.odb,Step-1,Increment      1: Step Time =    1.000,"P-1-1",         11026,   28.1115E-03,   83.4185E-03,            0.,NA,NA,"",   841.956E+03,   917.938E+03,   917.938E+03
C:/temp/Job-1.odb,Step-1,Increment      1: Step Time =    1.000,"P-1-1",         11027,   83.5221E-03,   170.985E-03,            0.,NA,NA,"",   1.01416E+06,   1.02280E+06,   1.02280E+06
C:/temp/Job-1.odb,Step-1,Increment      1: Step Time =    1.000,"P-1-1",         11028,   73.8021E-03,   29.0440E-03,            0.,NA,NA,"",   1.02839E+06,   1.03311E+06,   1.03311E+06
C:/temp/Job-1.odb,Step-1,Increment      1: Step Time =    1.000,"P-1-1",         11029,   170.286E-03,   73.5712E-03,            0.,NA,NA,"",   996.131E+03,   998.368E+03,   998.368E+03
C:/temp/Job-1.odb,Step-1,Increment      1: Step Time =    1.000,"P-1-1",         11030,   128.819E-03,   130.209E-03,            0.,NA,NA,"",   1.16988E+06,   1.12265E+06,   1.12265E+06
C:/temp/Job-1.odb,Step-1,Increment      1: Step Time =    1.000,"P-1-1",         11031,   63.1734E-03,   75.4380E-03,            0.,NA,NA,"",   1.03892E+06,   1.03238E+06,   1.03238E+06
C:/temp/Job-1.odb,Step-1,Increment      1: Step Time =    1.000,"P-1-1",         11032,   83.0986E-03,   72.3198E-03,            0.,NA,NA,"",   1.22084E+06,   1.21120E+06,   1.21120E+06
C:/temp/Job-1.odb,Step-1,Increment      1: Step Time =    1.000,"P-1-1",         11033,   131.126E-03,   129.085E-03,            0.,NA,NA,"",   1.15478E+06,   1.10583E+06,   1.10583E+06
C:/temp/Job-1.odb,Step-1,Increment      1: Step Time =    1.000,"P-1-1",         11034,   165.640E-03,   27.0439E-03,            0.,NA,NA,"",   1.01418E+06,   1.01061E+06,   1.01061E+06
C:/temp/Job-1.odb,Step-1,Increment      1: Step Time =    1.000,"P-1-1",         11035,   136.781E-03,   90.3525E-03,            0.,NA,NA,"",   870.949E+03,    860.05E+03,    860.05E+03
C:/temp/Job-1.odb,Step-1,Increment      1: Step Time =    1.000,"P-1-1",         11036,   171.006E-03,   129.897E-03,            0.,NA,NA,"",   1.00206E+06,   1.00318E+06,   1.00318E+06
C:/temp/Job-1.odb,Step-1,Increment      1: Step Time =    1.000,"P-1-1",         11037,   129.077E-03,   28.6711E-03,            0.,NA,NA,"",   1.02230E+06,   1.02061E+06,   1.02061E+06
C:/temp/Job-1.odb,Step-1,Increment      1: Step Time =    1.000,"P-1-1",         11038,   141.998E-03,   119.976E-03,            0.,NA,NA,"",   1.01795E+06,   990.681E+03,   990.681E+03
C:/temp/Job-1.odb,Step-1,Increment      1: Step Time =    1.000,"P-1-1",         11039,   171.685E-03,   85.9632E-03,            0.,NA,NA,"",   968.706E+03,   979.072E+03,   979.072E+03
C:/temp/Job-1.odb,Step-1,Increment      1: Step Time =    1.000,"P-1-1",         11040,   99.0097E-03,   24.4760E-03,            0.,NA,NA,"",   991.964E+03,   1.00118E+06,   1.00118E+06
C:/temp/Job-1.odb,Step-1,Increment      1: Step Time =    1.000,"P-1-1",         11041,   24.7408E-03,   101.841E-03,            0.,NA,NA,"",   811.768E+03,   894.757E+03,   894.757E+03
C:/temp/Job-1.odb,Step-1,Increment      1: Step Time =    1.000,"P-1-1",         11042,   100.388E-03,   176.253E-03,            0.,NA,NA,"",   990.454E+03,   999.211E+03,   999.211E+03
C:/temp/Job-1.odb,Step-1,Increment      1: Step Time =    1.000,"P-1-1",         11043,   62.3609E-03,   92.2673E-03,            0.,NA,NA,"",   783.663E+03,    816.99E+03,    816.99E+03
C:/temp/Job-1.odb,Step-1,Increment      1: Step Time =    1.000,"P-1-1",         11044,   136.391E-03,   91.6209E-03,            0.,NA,NA,"",   846.335E+03,   839.731E+03,   839.731E+03
C:/temp/Job-1.odb,Step-1,Increment      1: Step Time =    1.000,"P-1-1",         11045,   65.7504E-03,   93.4554E-03,            0.,NA,NA,"",   742.869E+03,   772.702E+03,   772.702E+03
C:/temp/Job-1.odb,Step-1,Increment      1: Step Time =    1.000,"P-1-1",         11046,   135.636E-03,   122.457E-03,            0.,NA,NA,"",   1.08437E+06,   1.03820E+06,   1.03820E+06
C:/temp/Job-1.odb,Step-1,Increment      1: Step Time =    1.000,"P-1-1",         11047,   172.932E-03,   43.6177E-03,            0.,NA,NA,"",   1.01710E+06,   1.01399E+06,   1.01399E+06
C:/temp/Job-1.odb,Step-1,Increment      1: Step Time =    1.000,"P-1-1",         11048,   171.010E-03,   41.0707E-03,            0.,NA,NA,"",   1.01889E+06,   1.01498E+06,   1.01498E+06
C:/temp/Job-1.odb,Step-1,Increment      1: Step Time =    1.000,"P-1-1",         11049,   43.7001E-03,   27.2817E-03,            0.,NA,NA,"",   1.04610E+06,   1.05794E+06,   1.05794E+06
C:/temp/Job-1.odb,Step-1,Increment      1: Step Time =    1.000,"P-1-1",         11050,   40.4183E-03,   28.2954E-03,            0.,NA,NA,"",   1.04557E+06,   1.06161E+06,   1.06161E+06
C:/temp/Job-1.odb,Step-1,Increment      1: Step Time =    1.000,"P-1-1",         11051,   126.999E-03,   29.3935E-03,            0.,NA,NA,"",   1.02256E+06,   1.02182E+06,   1.02182E+06
C:/temp/Job-1.odb,Step-1,Increment      1: Step Time =    1.000,"P-1-1",         11052,   107.180E-03,   172.205E-03,            0.,NA,NA,"",   999.451E+03,   1.00945E+06,   1.00945E+06
C:/temp/Job-1.odb,Step-1,Increment      1: Step Time =    1.000,"P-1-1",         11053,   171.550E-03,   126.691E-03,            0.,NA,NA,"",   995.343E+03,   998.566E+03,   998.566E+03
C:/temp/Job-1.odb,Step-1,Increment      1: Step Time =    1.000,"P-1-1",         11054,   26.4840E-03,   106.324E-03,            0.,NA,NA,"",   817.182E+03,   898.022E+03,   898.022E+03
C:/temp/Job-1.odb,Step-1,Increment      1: Step Time =    1.000,"P-1-1",         11055,   93.7209E-03,   26.9850E-03,            0.,NA,NA,"",   998.598E+03,   1.00931E+06,   1.00931E+06
C:/temp/Job-1.odb,Step-1,Increment      1: Step Time =    1.000,"P-1-1",         11056,   155.326E-03,   173.135E-03,            0.,NA,NA,"",   1.01991E+06,   1.01465E+06,   1.01465E+06
C:/temp/Job-1.odb,Step-1,Increment      1: Step Time =    1.000,"P-1-1",         11057,   158.939E-03,   170.697E-03,            0.,NA,NA,"",   1.02135E+06,   1.01586E+06,   1.01586E+06
C:/temp/Job-1.odb,Step-1,Increment      1: Step Time =    1.000,"P-1-1",         11058,   28.9664E-03,   73.4911E-03,            0.,NA,NA,"",   878.153E+03,   948.173E+03,   948.173E+03
C:/temp/Job-1.odb,Step-1,Increment      1: Step Time =    1.000,"P-1-1",         11059,   27.1479E-03,   157.017E-03,            0.,NA,NA,"",   981.864E+03,   1.03548E+06,   1.03548E+06
C:/temp/Job-1.odb,Step-1,Increment      1: Step Time =    1.000,"P-1-1",         11060,   28.5873E-03,   159.683E-03,            0.,NA,NA,"",   996.123E+03,   1.04433E+06,   1.04433E+06
C:/temp/Job-1.odb,Step-1,Increment      1: Step Time =    1.000,"P-1-1",         11061,   73.9408E-03,   171.975E-03,            0.,NA,NA,"",   1.02592E+06,   1.03037E+06,   1.03037E+06
C:/temp/Job-1.odb,Step-1,Increment      1: Step Time =    1.000,"P-1-1",         11062,   66.8622E-03,   128.743E-03,            0.,NA,NA,"",   1.09751E+06,   1.08144E+06,   1.08144E+06
C:/temp/Job-1.odb,Step-1,Increment      1: Step Time =    1.000,"P-1-1",         11063,   61.9061E-03,   116.450E-03,            0.,NA,NA,"",   932.931E+03,   941.911E+03,   941.911E+03
C:/temp/Job-1.odb,Step-1,Increment      1: Step Time =    1.000,"P-1-1",         11064,   60.4993E-03,   112.200E-03,            0.,NA,NA,"",   858.776E+03,   883.633E+03,   883.633E+03
C:/temp/Job-1.odb,Step-1,Increment      1: Step Time =    1.000,"P-1-1",         11065,   123.478E-03,   27.4024E-03,            0.,NA,NA,"",   1.01418E+06,   1.01553E+06,   1.01553E+06
C:/temp/Job-1.odb,Step-1,Increment      1: Step Time =    1.000,"P-1-1",         11066,   172.695E-03,   122.787E-03,            0.,NA,NA,"",   987.055E+03,   993.193E+03,   993.193E+03
C:/temp/Job-1.odb,Step-1,Increment      1: Step Time =    1.000,"P-1-1",         11067,   27.0752E-03,   76.3903E-03,            0.,NA,NA,"",   862.111E+03,   936.465E+03,   936.465E+03
C:/temp/Job-1.odb,Step-1,Increment      1: Step Time =    1.000,"P-1-1",         11068,   76.5869E-03,   172.458E-03,            0.,NA,NA,"",   1.02107E+06,   1.02631E+06,   1.02631E+06
C:/temp/Job-1.odb,Step-1,Increment      1: Step Time =    1.000,"P-1-1",         11069,   59.8290E-03,   110.095E-03,            0.,NA,NA,"",   825.717E+03,   858.175E+03,   858.175E+03
C:/temp/Job-1.odb,Step-1,Increment      1: Step Time =    1.000,"P-1-1",         11070,   116.262E-03,   28.2857E-03,            0.,NA,NA,"",   1.00869E+06,   1.01435E+06,   1.01435E+06
C:/temp/Job-1.odb,Step-1,Increment      1: Step Time =    1.000,"P-1-1",         11071,   158.562E-03,   27.1110E-03,            0.,NA,NA,"",   1.01855E+06,   1.01367E+06,   1.01367E+06
C:/temp/Job-1.odb,Step-1,Increment      1: Step Time =    1.000,"P-1-1",         11072,   27.7712E-03,   61.1348E-03,            0.,NA,NA,"",   919.712E+03,   984.773E+03,   984.773E+03
C:/temp/Job-1.odb,Step-1,Increment      1: Step Time =    1.000,"P-1-1",         11073,   60.8133E-03,   172.516E-03,            0.,NA,NA,"",   1.03870E+06,   1.04174E+06,   1.04174E+06
C:/temp/Job-1.odb,Step-1,Increment      1: Step Time =    1.000,"P-1-1",         11074,   171.306E-03,   141.565E-03,            0.,NA,NA,"",   1.01659E+06,   1.01389E+06,   1.01389E+06
C:/temp/Job-1.odb,Step-1,Increment      1: Step Time =    1.000,"P-1-1",         11075,   141.380E-03,   28.7585E-03,            0.,NA,NA,"",   1.02753E+06,   1.02159E+06,   1.02159E+06
C:/temp/Job-1.odb,Step-1,Increment      1: Step Time =    1.000,"P-1-1",         11076,   139.198E-03,   123.086E-03,            0.,NA,NA,"",   1.06316E+06,   1.02577E+06,   1.02577E+06
C:/temp/Job-1.odb,Step-1,Increment      1: Step Time =    1.000,"P-1-1",         11077,   77.2291E-03,   139.946E-03,            0.,NA,NA,"",   1.12202E+06,   1.12327E+06,   1.12327E+06
C:/temp/Job-1.odb,Step-1,Increment      1: Step Time =    1.000,"P-1-1",         11078,   89.0363E-03,   67.2136E-03,            0.,NA,NA,"",   1.13223E+06,   1.17180E+06,   1.17180E+06
C:/temp/Job-1.odb,Step-1,Increment      1: Step Time =    1.000,"P-1-1",         11079,   59.9188E-03,   103.054E-03,            0.,NA,NA,"",   743.406E+03,   790.684E+03,   790.684E+03
C:/temp/Job-1.odb,Step-1,Increment      1: Step Time =    1.000,"P-1-1",         11080,   128.759E-03,   78.9403E-03,            0.,NA,NA,"",   1.14759E+06,   1.07941E+06,   1.07941E+06
C:/temp/Job-1.odb,Step-1,Increment      1: Step Time =    1.000,"P-1-1",         11081,   90.9066E-03,   141.638E-03,            0.,NA,NA,"",   1.06278E+06,   1.10387E+06,   1.10387E+06
C:/temp/Job-1.odb,Step-1,Increment      1: Step Time =    1.000,"P-1-1",         11082,   95.4333E-03,   142.242E-03,            0.,NA,NA,"",   1.04139E+06,   1.09146E+06,   1.09146E+06
C:/temp/Job-1.odb,Step-1,Increment      1: Step Time =    1.000,"P-1-1",         11083,   98.0786E-03,   142.101E-03,            0.,NA,NA,"",   1.03525E+06,   1.08840E+06,   1.08840E+06
C:/temp/Job-1.odb,Step-1,Increment      1: Step Time =    1.000,"P-1-1",         11084,   133.911E-03,   83.1902E-03,            0.,NA,NA,"",   1.02961E+06,   983.340E+03,   983.340E+03
C:/temp/Job-1.odb,Step-1,Increment      1: Step Time =    1.000,"P-1-1",         11085,   143.143E-03,   115.094E-03,            0.,NA,NA,"",   958.854E+03,   943.711E+03,   943.711E+03
C:/temp/Job-1.odb,Step-1,Increment      1: Step Time =    1.000,"P-1-1",         11086,   69.2774E-03,   132.037E-03,            0.,NA,NA,"",   1.12248E+06,   1.10614E+06,   1.10614E+06
C:/temp/Job-1.odb,Step-1,Increment      1: Step Time =    1.000,"P-1-1",         11087,   128.513E-03,   132.243E-03,            0.,NA,NA,"",   1.16570E+06,   1.12413E+06,   1.12413E+06
C:/temp/Job-1.odb,Step-1,Increment      1: Step Time =    1.000,"P-1-1",         11088,   134.196E-03,   86.3545E-03,            0.,NA,NA,"",   960.970E+03,   925.806E+03,   925.806E+03
C:/temp/Job-1.odb,Step-1,Increment      1: Step Time =    1.000,"P-1-1",         11089,   108.407E-03,   143.083E-03,            0.,NA,NA,"",   1.05582E+06,   1.09309E+06,   1.09309E+06
C:/temp/Job-1.odb,Step-1,Increment      1: Step Time =    1.000,"P-1-1",         11090,   174.818E-03,   101.210E-03,            0.,NA,NA,"",   958.431E+03,   974.218E+03,   974.218E+03
C:/temp/Job-1.odb,Step-1,Increment      1: Step Time =    1.000,"P-1-1",         11091,   59.9339E-03,   77.9448E-03,            0.,NA,NA,"",   988.106E+03,   994.358E+03,   994.358E+03
C:/temp/Job-1.odb,Step-1,Increment      1: Step Time =    1.000,"P-1-1",         11092,   75.0586E-03,   132.334E-03,            0.,NA,NA,"",   1.15850E+06,   1.14110E+06,   1.14110E+06
C:/temp/Job-1.odb,Step-1,Increment      1: Step Time =    1.000,"P-1-1",         11093,   92.6208E-03,   142.740E-03,            0.,NA,NA,"",   1.05108E+06,   1.09495E+06,   1.09495E+06
C:/temp/Job-1.odb,Step-1,Increment      1: Step Time =    1.000,"P-1-1",         11094,   72.6751E-03,   132.409E-03,            0.,NA,NA,"",   1.14526E+06,   1.12723E+06,   1.12723E+06
C:/temp/Job-1.odb,Step-1,Increment      1: Step Time =    1.000,"P-1-1",         11095,   142.590E-03,   102.579E-03,            0.,NA,NA,"",   825.533E+03,   837.231E+03,   837.231E+03
C:/temp/Job-1.odb,Step-1,Increment      1: Step Time =    1.000,"P-1-1",         11096,   133.954E-03,   89.2271E-03,            0.,NA,NA,"",   895.538E+03,   871.375E+03,   871.375E+03
C:/temp/Job-1.odb,Step-1,Increment      1: Step Time =    1.000,"P-1-1",         11097,   142.281E-03,   104.585E-03,            0.,NA,NA,"",   835.870E+03,   844.869E+03,   844.869E+03
C:/temp/Job-1.odb,Step-1,Increment      1: Step Time =    1.000,"P-1-1",         11098,   29.1203E-03,   34.0055E-03,            0.,NA,NA,"",   1.01943E+06,   1.05992E+06,   1.05992E+06
C:/temp/Job-1.odb,Step-1,Increment      1: Step Time =    1.000,"P-1-1",         11099,   170.605E-03,   166.040E-03,            0.,NA,NA,"",   1.01560E+06,   1.01219E+06,   1.01219E+06
C:/temp/Job-1.odb,Step-1,Increment      1: Step Time =    1.000,"P-1-1",         11100,   29.2874E-03,   136.719E-03,            0.,NA,NA,"",   917.646E+03,   981.170E+03,   981.170E+03
C:/temp/Job-1.odb,Step-1,Increment      1: Step Time =    1.000,"P-1-1",         11101,   143.380E-03,   118.291E-03,            0.,NA,NA,"",   994.888E+03,   973.438E+03,   973.438E+03
C:/temp/Job-1.odb,Step-1,Increment      1: Step Time =    1.000,"P-1-1",         11102,   137.358E-03,   172.032E-03,            0.,NA,NA,"",   1.02514E+06,   1.02035E+06,   1.02035E+06
C:/temp/Job-1.odb,Step-1,Increment      1: Step Time =    1.000,"P-1-1",         11103,   63.2447E-03,   29.3601E-03,            0.,NA,NA,"",   1.04059E+06,   1.04372E+06,   1.04372E+06
C:/temp/Job-1.odb,Step-1,Increment      1: Step Time =    1.000,"P-1-1",         11104,   171.400E-03,   62.9151E-03,            0.,NA,NA,"",   1.01223E+06,   1.01078E+06,   1.01078E+06
C:/temp/Job-1.odb,Step-1,Increment      1: Step Time =    1.000,"P-1-1",         11105,   100.468E-03,   142.238E-03,            0.,NA,NA,"",   1.03377E+06,   1.08678E+06,   1.08678E+06
C:/temp/Job-1.odb,Step-1,Increment      1: Step Time =    1.000,"P-1-1",         11106,   142.254E-03,   111.827E-03,            0.,NA,NA,"",   917.058E+03,   908.603E+03,   908.603E+03
C:/temp/Job-1.odb,Step-1,Increment      1: Step Time =    1.000,"P-1-1",         11107,   159.524E-03,   27.7677E-03,            0.,NA,NA,"",   1.01888E+06,   1.01396E+06,   1.01396E+06
C:/temp/Job-1.odb,Step-1,Increment      1: Step Time =    1.000,"P-1-1",         11108,   59.9293E-03,   85.9405E-03,            0.,NA,NA,"",   886.038E+03,   907.635E+03,   907.635E+03
C:/temp/Job-1.odb,Step-1,Increment      1: Step Time =    1.000,"P-1-1",         11109,   63.0072E-03,   97.3390E-03,            0.,NA,NA,"",   710.584E+03,   755.527E+03,   755.527E+03
C:/temp/Job-1.odb,Step-1,Increment      1: Step Time =    1.000,"P-1-1",         11110,   28.0670E-03,   122.359E-03,            0.,NA,NA,"",   860.785E+03,   934.287E+03,   934.287E+03
C:/temp/Job-1.odb,Step-1,Increment      1: Step Time =    1.000,"P-1-1",         11111,   27.8373E-03,   116.857E-03,            0.,NA,NA,"",   842.117E+03,   918.444E+03,   918.444E+03
C:/temp/Job-1.odb,Step-1,Increment      1: Step Time =    1.000,"P-1-1",         11112,   121.737E-03,   171.626E-03,            0.,NA,NA,"",   1.01468E+06,   1.01712E+06,   1.01712E+06
C:/temp/Job-1.odb,Step-1,Increment      1: Step Time =    1.000,"P-1-1",         11113,   117.289E-03,   172.078E-03,            0.,NA,NA,"",   1.00893E+06,   1.01395E+06,   1.01395E+06
C:/temp/Job-1.odb,Step-1,Increment      1: Step Time =    1.000,"P-1-1",         11114,   170.885E-03,   142.803E-03,            0.,NA,NA,"",   1.01816E+06,   1.01490E+06,   1.01490E+06
C:/temp/Job-1.odb,Step-1,Increment      1: Step Time =    1.000,"P-1-1",         11115,   143.250E-03,   28.6528E-03,            0.,NA,NA,"",   1.02722E+06,   1.02107E+06,   1.02107E+06
C:/temp/Job-1.odb,Step-1,Increment      1: Step Time =    1.000,"P-1-1",         11116,   118.000E-03,   28.9069E-03,            0.,NA,NA,"",   1.01171E+06,   1.01657E+06,   1.01657E+06
C:/temp/Job-1.odb,Step-1,Increment      1: Step Time =    1.000,"P-1-1",         11117,   37.0535E-03,   171.161E-03,            0.,NA,NA,"",   1.04389E+06,   1.06465E+06,   1.06465E+06
C:/temp/Job-1.odb,Step-1,Increment      1: Step Time =    1.000,"P-1-1",         11118,   59.5941E-03,   79.9761E-03,            0.,NA,NA,"",   964.162E+03,   974.239E+03,   974.239E+03
C:/temp/Job-1.odb,Step-1,Increment      1: Step Time =    1.000,"P-1-1",         11119,   59.5653E-03,   175.739E-03,            0.,NA,NA,"",   1.03303E+06,   1.03553E+06,   1.03553E+06
C:/temp/Job-1.odb,Step-1,Increment      1: Step Time =    1.000,"P-1-1",         11120,   80.3852E-03,   28.8720E-03,            0.,NA,NA,"",   1.01870E+06,   1.02600E+06,   1.02600E+06
C:/temp/Job-1.odb,Step-1,Increment      1: Step Time =    1.000,"P-1-1",         11121,   142.898E-03,   99.7357E-03,            0.,NA,NA,"",   821.845E+03,   834.783E+03,   834.783E+03
C:/temp/Job-1.odb,Step-1,Increment      1: Step Time =    1.000,"P-1-1",         11122,   24.8519E-03,   59.7746E-03,            0.,NA,NA,"",   913.110E+03,   982.791E+03,   982.791E+03
C:/temp/Job-1.odb,Step-1,Increment      1: Step Time =    1.000,"P-1-1",         11123,   171.673E-03,   79.9654E-03,            0.,NA,NA,"",   981.405E+03,   988.427E+03,   988.427E+03
C:/temp/Job-1.odb,Step-1,Increment      1: Step Time =    1.000,"P-1-1",         11124,   92.9679E-03,   171.472E-03,            0.,NA,NA,"",   1.00225E+06,   1.01397E+06,   1.01397E+06
C:/temp/Job-1.odb,Step-1,Increment      1: Step Time =    1.000,"P-1-1",         11125,   170.735E-03,   106.599E-03,            0.,NA,NA,"",   955.665E+03,   968.664E+03,   968.664E+03
C:/temp/Job-1.odb,Step-1,Increment      1: Step Time =    1.000,"P-1-1",         11126,   27.4238E-03,   93.3237E-03,            0.,NA,NA,"",   818.794E+03,   898.558E+03,   898.558E+03
C:/temp/Job-1.odb,Step-1,Increment      1: Step Time =    1.000,"P-1-1",         11127,   131.982E-03,   78.7832E-03,            0.,NA,NA,"",   1.11010E+06,   1.05294E+06,   1.05294E+06
C:/temp/Job-1.odb,Step-1,Increment      1: Step Time =    1.000,"P-1-1",         11128,   66.1390E-03,   171.618E-03,            0.,NA,NA,"",   1.03593E+06,   1.03890E+06,   1.03890E+06
C:/temp/Job-1.odb,Step-1,Increment      1: Step Time =    1.000,"P-1-1",         11129,   28.8077E-03,   66.3345E-03,            0.,NA,NA,"",   904.498E+03,   970.658E+03,   970.658E+03
C:/temp/Job-1.odb,Step-1,Increment      1: Step Time =    1.000,"P-1-1",         11130,   106.480E-03,   28.1622E-03,            0.,NA,NA,"",   999.563E+03,   1.01010E+06,   1.01010E+06
C:/temp/Job-1.odb,Step-1,Increment      1: Step Time =    1.000,"P-1-1",         11131,   172.193E-03,   163.640E-03,            0.,NA,NA,"",   1.01536E+06,   1.01224E+06,   1.01224E+06
C:/temp/Job-1.odb,Step-1,Increment      1: Step Time =    1.000,"P-1-1",         11132,   94.2200E-03,   72.1619E-03,            0.,NA,NA,"",   1.14020E+06,   1.22081E+06,   1.22081E+06
C:/temp/Job-1.odb,Step-1,Increment      1: Step Time =    1.000,"P-1-1",         11133,   60.2195E-03,   76.0187E-03,            0.,NA,NA,"",   1.00790E+06,   1.01125E+06,   1.01125E+06
C:/temp/Job-1.odb,Step-1,Increment      1: Step Time =    1.000,"P-1-1",         11134,   22.0615E-03,   61.6546E-03,            0.,NA,NA,"",   895.778E+03,   971.352E+03,   971.352E+03
C:/temp/Job-1.odb,Step-1,Increment      1: Step Time =    1.000,"P-1-1",         11135,   60.6343E-03,   178.442E-03,            0.,NA,NA,"",   1.02563E+06,   1.02750E+06,   1.02750E+06
C:/temp/Job-1.odb,Step-1,Increment      1: Step Time =    1.000,"P-1-1",         11136,   93.2243E-03,   68.3890E-03,            0.,NA,NA,"",   1.10631E+06,   1.17229E+06,   1.17229E+06
C:/temp/Job-1.odb,Step-1,Increment      1: Step Time =    1.000,"P-1-1",         11137,   120.101E-03,   80.5815E-03,            0.,NA,NA,"",   1.27476E+06,   1.18402E+06,   1.18402E+06
C:/temp/Job-1.odb,Step-1,Increment      1: Step Time =    1.000,"P-1-1",         11138,   119.232E-03,   84.9662E-03,            0.,NA,NA,"",   1.25724E+06,   1.13206E+06,   1.13206E+06
C:/temp/Job-1.odb,Step-1,Increment      1: Step Time =    1.000,"P-1-1",         11139,   119.359E-03,   86.9134E-03,            0.,NA,NA,"",   1.19861E+06,   1.06009E+06,   1.06009E+06
C:/temp/Job-1.odb,Step-1,Increment      1: Step Time =    1.000,"P-1-1",         11140,   135.761E-03,   96.9371E-03,            0.,NA,NA,"",   753.657E+03,   765.139E+03,   765.139E+03
C:/temp/Job-1.odb,Step-1,Increment      1: Step Time =    1.000,"P-1-1",         11141,   175.874E-03,   48.2776E-03,            0.,NA,NA,"",   1.01316E+06,   1.01187E+06,   1.01187E+06
C:/temp/Job-1.odb,Step-1,Increment      1: Step Time =    1.000,"P-1-1",         11142,   48.4587E-03,   22.7151E-03,            0.,NA,NA,"",   1.04074E+06,   1.04645E+06,   1.04645E+06
C:/temp/Job-1.odb,Step-1,Increment      1: Step Time =    1.000,"P-1-1",         11143,   30.3757E-03,   170.711E-03,            0.,NA,NA,"",   1.03707E+06,   1.06935E+06,   1.06935E+06
C:/temp/Job-1.odb,Step-1,Increment      1: Step Time =    1.000,"P-1-1",         11144,   152.062E-03,   175.484E-03,            0.,NA,NA,"",   1.01737E+06,   1.01259E+06,   1.01259E+06
C:/temp/Job-1.odb,Step-1,Increment      1: Step Time =    1.000,"P-1-1",         11145,   24.8172E-03,   152.320E-03,            0.,NA,NA,"",   955.729E+03,   1.01815E+06,   1.01815E+06
C:/temp/Job-1.odb,Step-1,Increment      1: Step Time =    1.000,"P-1-1",         11146,   60.0547E-03,   88.6170E-03,            0.,NA,NA,"",   845.864E+03,   874.303E+03,   874.303E+03
C:/temp/Job-1.odb,Step-1,Increment      1: Step Time =    1.000,"P-1-1",         11147,   59.1989E-03,   100.711E-03,            0.,NA,NA,"",   741.043E+03,   790.429E+03,   790.429E+03
C:/temp/Job-1.odb,Step-1,Increment      1: Step Time =    1.000,"P-1-1",         11148,   61.3640E-03,   89.8372E-03,            0.,NA,NA,"",   825.943E+03,   854.583E+03,   854.583E+03
C:/temp/Job-1.odb,Step-1,Increment      1: Step Time =    1.000,"P-1-1",         11149,   94.2684E-03,   69.7424E-03,            0.,NA,NA,"",   1.10991E+06,   1.18480E+06,   1.18480E+06
C:/temp/Job-1.odb,Step-1,Increment      1: Step Time =    1.000,"P-1-1",         11150,   29.7625E-03,   146.478E-03,            0.,NA,NA,"",   954.663E+03,   1.01103E+06,   1.01103E+06
C:/temp/Job-1.odb,Step-1,Increment      1: Step Time =    1.000,"P-1-1",         11151,   145.237E-03,   169.271E-03,            0.,NA,NA,"",   1.03140E+06,   1.02421E+06,   1.02421E+06
C:/temp/Job-1.odb,Step-1,Increment      1: Step Time =    1.000,"P-1-1",         11152,   53.2054E-03,   29.6659E-03,            0.,NA,NA,"",   1.04583E+06,   1.05207E+06,   1.05207E+06
C:/temp/Job-1.odb,Step-1,Increment      1: Step Time =    1.000,"P-1-1",         11153,   169.926E-03,   54.1191E-03,            0.,NA,NA,"",   1.02146E+06,   1.01705E+06,   1.01705E+06
C:/temp/Job-1.odb,Step-1,Increment      1: Step Time =    1.000,"P-1-1",         11154,   75.9687E-03,   135.783E-03,            0.,NA,NA,"",   1.14326E+06,   1.13525E+06,   1.13525E+06
C:/temp/Job-1.odb,Step-1,Increment      1: Step Time =    1.000,"P-1-1",         11155,   65.0430E-03,   126.531E-03,            0.,NA,NA,"",   1.07141E+06,   1.05869E+06,   1.05869E+06
C:/temp/Job-1.odb,Step-1,Increment      1: Step Time =    1.000,"P-1-1",         11156,   83.6129E-03,   70.1390E-03,            0.,NA,NA,"",   1.19458E+06,   1.19566E+06,   1.19566E+06
C:/temp/Job-1.odb,Step-1,Increment      1: Step Time =    1.000,"P-1-1",         11157,   59.9232E-03,   106.523E-03,            0.,NA,NA,"",   776.371E+03,   817.624E+03,   817.624E+03
C:/temp/Job-1.odb,Step-1,Increment      1: Step Time =    1.000,"P-1-1",         11158,   86.5637E-03,   169.280E-03,            0.,NA,NA,"",   1.01337E+06,   1.02448E+06,   1.02448E+06
C:/temp/Job-1.odb,Step-1,Increment      1: Step Time =    1.000,"P-1-1",         11159,   29.6512E-03,   86.9347E-03,            0.,NA,NA,"",   834.715E+03,   910.240E+03,   910.240E+03
C:/temp/Job-1.odb,Step-1,Increment      1: Step Time =    1.000,"P-1-1",         11160,   169.062E-03,   112.603E-03,            0.,NA,NA,"",   963.902E+03,   973.464E+03,   973.464E+03
C:/temp/Job-1.odb,Step-1,Increment      1: Step Time =    1.000,"P-1-1",         11161,   86.6146E-03,   142.321E-03,            0.,NA,NA,"",   1.08162E+06,   1.10949E+06,   1.10949E+06
C:/temp/Job-1.odb,Step-1,Increment      1: Step Time =    1.000,"P-1-1",         11162,   113.916E-03,   29.1802E-03,            0.,NA,NA,"",   1.00782E+06,   1.01534E+06,   1.01534E+06
C:/temp/Job-1.odb,Step-1,Increment      1: Step Time =    1.000,"P-1-1",         11163,   170.227E-03,   138.849E-03,            0.,NA,NA,"",   1.01608E+06,   1.01315E+06,   1.01315E+06
C:/temp/Job-1.odb,Step-1,Increment      1: Step Time =    1.000,"P-1-1",         11164,   139.341E-03,   29.1589E-03,            0.,NA,NA,"",   1.02818E+06,   1.02253E+06,   1.02253E+06
C:/temp/Job-1.odb,Step-1,Increment      1: Step Time =    1.000,"P-1-1",         11165,   83.2146E-03,   141.949E-03,            0.,NA,NA,"",   1.09822E+06,   1.11583E+06,   1.11583E+06
C:/temp/Job-1.odb,Step-1,Increment      1: Step Time =    1.000,"P-1-1",         11166,   168.679E-03,   30.0718E-03,            0.,NA,NA,"",   1.01464E+06,   1.01120E+06,   1.01120E+06
C:/temp/Job-1.odb,Step-1,Increment      1: Step Time =    1.000,"P-1-1",         11167,   149.754E-03,   26.5101E-03,            0.,NA,NA,"",   1.02138E+06,   1.01583E+06,   1.01583E+06
C:/temp/Job-1.odb,Step-1,Increment      1: Step Time =    1.000,"P-1-1",         11168,   173.714E-03,   149.297E-03,            0.,NA,NA,"",   1.01601E+06,   1.01375E+06,   1.01375E+06
C:/temp/Job-1.odb,Step-1,Increment      1: Step Time =    1.000,"P-1-1",         11169,   161.693E-03,   29.6949E-03,            0.,NA,NA,"",   1.01978E+06,   1.01476E+06,   1.01476E+06
C:/temp/Job-1.odb,Step-1,Increment      1: Step Time =    1.000,"P-1-1",         11170,   169.987E-03,   169.011E-03,            0.,NA,NA,"",   1.01427E+06,   1.01104E+06,   1.01104E+06
C:/temp/Job-1.odb,Step-1,Increment      1: Step Time =    1.000,"P-1-1",         11171,   30.3274E-03,   30.9034E-03,            0.,NA,NA,"",   1.03244E+06,   1.06661E+06,   1.06661E+06
C:/temp/Job-1.odb,Step-1,Increment      1: Step Time =    1.000,"P-1-1",         11172,   133.232E-03,   80.1188E-03,            0.,NA,NA,"",   1.08187E+06,   1.02902E+06,   1.02902E+06
C:/temp/Job-1.odb,Step-1,Increment      1: Step Time =    1.000,"P-1-1",         11173,   70.7606E-03,   29.5198E-03,            0.,NA,NA,"",   1.03365E+06,   1.03758E+06,   1.03758E+06
C:/temp/Job-1.odb,Step-1,Increment      1: Step Time =    1.000,"P-1-1",         11174,   171.573E-03,   70.4786E-03,            0.,NA,NA,"",   1.00084E+06,   1.00257E+06,   1.00257E+06
C:/temp/Job-1.odb,Step-1,Increment      1: Step Time =    1.000,"P-1-1",         11175,   29.6121E-03,   119.798E-03,            0.,NA,NA,"",   855.726E+03,   928.180E+03,   928.180E+03
C:/temp/Job-1.odb,Step-1,Increment      1: Step Time =    1.000,"P-1-1",         11176,   119.916E-03,   169.816E-03,            0.,NA,NA,"",   1.01694E+06,   1.02076E+06,   1.02076E+06
C:/temp/Job-1.odb,Step-1,Increment      1: Step Time =    1.000,"P-1-1",         11177,   33.7792E-03,   169.753E-03,            0.,NA,NA,"",   1.03869E+06,   1.06601E+06,   1.06601E+06
C:/temp/Job-1.odb,Step-1,Increment      1: Step Time =    1.000,"P-1-1",         11178,   170.416E-03,   82.7488E-03,            0.,NA,NA,"",   975.491E+03,   983.146E+03,   983.146E+03
C:/temp/Job-1.odb,Step-1,Increment      1: Step Time =    1.000,"P-1-1",         11179,   83.7833E-03,   28.1902E-03,            0.,NA,NA,"",   1.01234E+06,   1.02072E+06,   1.02072E+06
C:/temp/Job-1.odb,Step-1,Increment      1: Step Time =    1.000,"P-1-1",         11180,   170.606E-03,   136.371E-03,            0.,NA,NA,"",   1.01252E+06,   1.01068E+06,   1.01068E+06
C:/temp/Job-1.odb,Step-1,Increment      1: Step Time =    1.000,"P-1-1",         11181,   135.664E-03,   29.5563E-03,            0.,NA,NA,"",   1.02857E+06,   1.02376E+06,   1.02376E+06
C:/temp/Job-1.odb,Step-1,Increment      1: Step Time =    1.000,"P-1-1",         11182,   28.1208E-03,   89.7303E-03,            0.,NA,NA,"",   825.871E+03,   904.066E+03,   904.066E+03
C:/temp/Job-1.odb,Step-1,Increment      1: Step Time =    1.000,"P-1-1",         11183,   110.474E-03,   29.8456E-03,            0.,NA,NA,"",   1.00562E+06,   1.01556E+06,   1.01556E+06
C:/temp/Job-1.odb,Step-1,Increment      1: Step Time =    1.000,"P-1-1",         11184,   171.209E-03,   109.681E-03,            0.,NA,NA,"",   960.764E+03,   972.879E+03,   972.879E+03
C:/temp/Job-1.odb,Step-1,Increment      1: Step Time =    1.000,"P-1-1",         11185,   89.8632E-03,   171.098E-03,            0.,NA,NA,"",   1.00587E+06,   1.01699E+06,   1.01699E+06
C:/temp/Job-1.odb,Step-1,Increment      1: Step Time =    1.000,"P-1-1",         11186,   79.8221E-03,   134.933E-03,            0.,NA,NA,"",   1.15223E+06,   1.15093E+06,   1.15093E+06
C:/temp/Job-1.odb,Step-1,Increment      1: Step Time =    1.000,"P-1-1",         11187,   66.7438E-03,   130.444E-03,            0.,NA,NA,"",   1.10060E+06,   1.08633E+06,   1.08633E+06
C:/temp/Job-1.odb,Step-1,Increment      1: Step Time =    1.000,"P-1-1",         11188,   170.471E-03,   93.1603E-03,            0.,NA,NA,"",   955.694E+03,   968.507E+03,   968.507E+03
C:/temp/Job-1.odb,Step-1,Increment      1: Step Time =    1.000,"P-1-1",         11189,   129.657E-03,   131.504E-03,            0.,NA,NA,"",   1.16205E+06,   1.11807E+06,   1.11807E+06
C:/temp/Job-1.odb,Step-1,Increment      1: Step Time =    1.000,"P-1-1",         11190,   125.353E-03,   170.847E-03,            0.,NA,NA,"",   1.02042E+06,   1.02066E+06,   1.02066E+06
C:/temp/Job-1.odb,Step-1,Increment      1: Step Time =    1.000,"P-1-1",         11191,   27.9115E-03,   125.181E-03,            0.,NA,NA,"",   869.891E+03,   942.215E+03,   942.215E+03
C:/temp/Job-1.odb,Step-1,Increment      1: Step Time =    1.000,"P-1-1",         11192,   171.503E-03,   49.7821E-03,            0.,NA,NA,"",   1.01971E+06,   1.01600E+06,   1.01600E+06
C:/temp/Job-1.odb,Step-1,Increment      1: Step Time =    1.000,"P-1-1",         11193,   49.8842E-03,   27.2040E-03,            0.,NA,NA,"",   1.04443E+06,   1.05143E+06,   1.05143E+06
C:/temp/Job-1.odb,Step-1,Increment      1: Step Time =    1.000,"P-1-1",         11194,   150.498E-03,   171.645E-03,            0.,NA,NA,"",   1.02480E+06,   1.01856E+06,   1.01856E+06
C:/temp/Job-1.odb,Step-1,Increment      1: Step Time =    1.000,"P-1-1",         11195,   28.8277E-03,   149.979E-03,            0.,NA,NA,"",   963.833E+03,   1.01935E+06,   1.01935E+06
C:/temp/Job-1.odb,Step-1,Increment      1: Step Time =    1.000,"P-1-1",         11196,   171.474E-03,   64.8878E-03,            0.,NA,NA,"",   1.00962E+06,   1.00892E+06,   1.00892E+06
C:/temp/Job-1.odb,Step-1,Increment      1: Step Time =    1.000,"P-1-1",         11197,   65.1037E-03,   28.9636E-03,            0.,NA,NA,"",   1.03827E+06,   1.04129E+06,   1.04129E+06
C:/temp/Job-1.odb,Step-1,Increment      1: Step Time =    1.000,"P-1-1",         11198,   170.602E-03,   51.0055E-03,            0.,NA,NA,"",   1.02107E+06,   1.01687E+06,   1.01687E+06
C:/temp/Job-1.odb,Step-1,Increment      1: Step Time =    1.000,"P-1-1",         11199,   51.0784E-03,   29.5878E-03,            0.,NA,NA,"",   1.04616E+06,   1.05354E+06,   1.05354E+06
C:/temp/Job-1.odb,Step-1,Increment      1: Step Time =    1.000,"P-1-1",         11200,   149.428E-03,   171.096E-03,            0.,NA,NA,"",   1.02625E+06,   1.01975E+06,   1.01975E+06
C:/temp/Job-1.odb,Step-1,Increment      1: Step Time =    1.000,"P-1-1",         11201,   29.8434E-03,   149.430E-03,            0.,NA,NA,"",   965.702E+03,   1.01966E+06,   1.01966E+06
C:/temp/Job-1.odb,Step-1,Increment      1: Step Time =    1.000,"P-1-1",         11202,   63.2483E-03,   72.7879E-03,            0.,NA,NA,"",   1.05809E+06,   1.05066E+06,   1.05066E+06
C:/temp/Job-1.odb,Step-1,Increment      1: Step Time =    1.000,"P-1-1",         11203,   28.4943E-03,   135.775E-03,            0.,NA,NA,"",   911.105E+03,   976.624E+03,   976.624E+03
C:/temp/Job-1.odb,Step-1,Increment      1: Step Time =    1.000,"P-1-1",         11204,   166.517E-03,   29.6391E-03,            0.,NA,NA,"",   1.01592E+06,   1.01204E+06,   1.01204E+06
C:/temp/Job-1.odb,Step-1,Increment      1: Step Time =    1.000,"P-1-1",         11205,   62.0916E-03,   74.0939E-03,            0.,NA,NA,"",   1.03819E+06,   1.03472E+06,   1.03472E+06
C:/temp/Job-1.odb,Step-1,Increment      1: Step Time =    1.000,"P-1-1",         11206,   170.429E-03,   63.8331E-03,            0.,NA,NA,"",   1.01264E+06,   1.01071E+06,   1.01071E+06
C:/temp/Job-1.odb,Step-1,Increment      1: Step Time =    1.000,"P-1-1",         11207,   63.0974E-03,   30.7692E-03,            0.,NA,NA,"",   1.04368E+06,   1.04710E+06,   1.04710E+06
C:/temp/Job-1.odb,Step-1,Increment      1: Step Time =    1.000,"P-1-1",         11208,   136.616E-03,   170.647E-03,            0.,NA,NA,"",   1.02843E+06,   1.02337E+06,   1.02337E+06
C:/temp/Job-1.odb,Step-1,Increment      1: Step Time =    1.000,"P-1-1",         11209,   28.4508E-03,   55.0029E-03,            0.,NA,NA,"",    944.34E+03,   1.00427E+06,   1.00427E+06
C:/temp/Job-1.odb,Step-1,Increment      1: Step Time =    1.000,"P-1-1",         11210,   30.3064E-03,   135.988E-03,            0.,NA,NA,"",   918.991E+03,   981.134E+03,   981.134E+03
C:/temp/Job-1.odb,Step-1,Increment      1: Step Time =    1.000,"P-1-1",         11211,   54.7945E-03,   171.396E-03,            0.,NA,NA,"",   1.04419E+06,   1.04922E+06,   1.04922E+06
C:/temp/Job-1.odb,Step-1,Increment      1: Step Time =    1.000,"P-1-1",         11212,   124.380E-03,   172.130E-03,            0.,NA,NA,"",   1.01626E+06,   1.01713E+06,   1.01713E+06
C:/temp/Job-1.odb,Step-1,Increment      1: Step Time =    1.000,"P-1-1",         11213,   26.7302E-03,   123.930E-03,            0.,NA,NA,"",   862.052E+03,   936.797E+03,   936.797E+03
C:/temp/Job-1.odb,Step-1,Increment      1: Step Time =    1.000,"P-1-1",         11214,   29.5883E-03,   54.0996E-03,            0.,NA,NA,"",   952.168E+03,   1.00927E+06,   1.00927E+06
C:/temp/Job-1.odb,Step-1,Increment      1: Step Time =    1.000,"P-1-1",         11215,   54.1327E-03,   169.426E-03,            0.,NA,NA,"",   1.04678E+06,   1.05282E+06,   1.05282E+06
C:/temp/Job-1.odb,Step-1,Increment      1: Step Time =    1.000,"P-1-1",         11216,   110.663E-03,   141.830E-03,            0.,NA,NA,"",   1.07230E+06,   1.10342E+06,   1.10342E+06
C:/temp/Job-1.odb,Step-1,Increment      1: Step Time =    1.000,"P-1-1",         11217,   142.507E-03,   29.7112E-03,            0.,NA,NA,"",   1.02965E+06,   1.02316E+06,   1.02316E+06
C:/temp/Job-1.odb,Step-1,Increment      1: Step Time =    1.000,"P-1-1",         11218,   169.562E-03,   142.431E-03,            0.,NA,NA,"",   1.02019E+06,   1.01603E+06,   1.01603E+06
C:/temp/Job-1.odb,Step-1,Increment      1: Step Time =    1.000,"P-1-1",         11219,   116.699E-03,   29.3898E-03,            0.,NA,NA,"",   1.01135E+06,   1.01707E+06,   1.01707E+06
C:/temp/Job-1.odb,Step-1,Increment      1: Step Time =    1.000,"P-1-1",         11220,   136.647E-03,   124.025E-03,            0.,NA,NA,"",   1.08879E+06,   1.04500E+06,   1.04500E+06
C:/temp/Job-1.odb,Step-1,Increment      1: Step Time =    1.000,"P-1-1",         11221,   65.1705E-03,   124.508E-03,            0.,NA,NA,"",   1.05847E+06,   1.04533E+06,   1.04533E+06
C:/temp/Job-1.odb,Step-1,Increment      1: Step Time =    1.000,"P-1-1",         11222,   169.238E-03,   129.351E-03,            0.,NA,NA,"",   1.00301E+06,   1.00293E+06,   1.00293E+06
C:/temp/Job-1.odb,Step-1,Increment      1: Step Time =    1.000,"P-1-1",         11223,   129.646E-03,   30.6908E-03,            0.,NA,NA,"",   1.02812E+06,   1.02572E+06,   1.02572E+06
C:/temp/Job-1.odb,Step-1,Increment      1: Step Time =    1.000,"P-1-1",         11224,   169.529E-03,   113.976E-03,            0.,NA,NA,"",   967.265E+03,   976.369E+03,   976.369E+03
C:/temp/Job-1.odb,Step-1,Increment      1: Step Time =    1.000,"P-1-1",         11225,   31.2698E-03,   85.6260E-03,            0.,NA,NA,"",   841.122E+03,   913.944E+03,   913.944E+03
C:/temp/Job-1.odb,Step-1,Increment      1: Step Time =    1.000,"P-1-1",         11226,   85.1109E-03,   168.012E-03,            0.,NA,NA,"",   1.01820E+06,   1.02931E+06,   1.02931E+06
C:/temp/Job-1.odb,Step-1,Increment      1: Step Time =    1.000,"P-1-1",         11227,   134.774E-03,   126.081E-03,            0.,NA,NA,"",   1.11761E+06,   1.06972E+06,   1.06972E+06
C:/temp/Job-1.odb,Step-1,Increment      1: Step Time =    1.000,"P-1-1",         11228,   75.5249E-03,   139.149E-03,            0.,NA,NA,"",   1.12627E+06,   1.12340E+06,   1.12340E+06
C:/temp/Job-1.odb,Step-1,Increment      1: Step Time =    1.000,"P-1-1",         11229,   169.464E-03,   70.2438E-03,            0.,NA,NA,"",   1.00382E+06,   1.00363E+06,   1.00363E+06
C:/temp/Job-1.odb,Step-1,Increment      1: Step Time =    1.000,"P-1-1",         11230,   70.4816E-03,   31.0171E-03,            0.,NA,NA,"",   1.03751E+06,   1.04165E+06,   1.04165E+06
C:/temp/Job-1.odb,Step-1,Increment      1: Step Time =    1.000,"P-1-1",         11231,   61.8213E-03,   119.653E-03,            0.,NA,NA,"",   975.848E+03,   979.009E+03,   979.009E+03
C:/temp/Job-1.odb,Step-1,Increment      1: Step Time =    1.000,"P-1-1",         11232,   139.561E-03,   124.430E-03,            0.,NA,NA,"",   1.07107E+06,   1.03383E+06,   1.03383E+06
C:/temp/Job-1.odb,Step-1,Increment      1: Step Time =    1.000,"P-1-1",         11233,   122.906E-03,   134.362E-03,            0.,NA,NA,"",   1.17125E+06,   1.14515E+06,   1.14515E+06
C:/temp/Job-1.odb,Step-1,Increment      1: Step Time =    1.000,"P-1-1",         11234,   69.2408E-03,   70.1267E-03,            0.,NA,NA,"",   1.12135E+06,   1.10187E+06,   1.10187E+06
C:/temp/Job-1.odb,Step-1,Increment      1: Step Time =    1.000,"P-1-1",         11235,   171.939E-03,   97.4740E-03,            0.,NA,NA,"",   954.277E+03,   968.582E+03,   968.582E+03
C:/temp/Job-1.odb,Step-1,Increment      1: Step Time =    1.000,"P-1-1",         11236,   129.571E-03,   172.907E-03,            0.,NA,NA,"",   1.01891E+06,   1.01715E+06,   1.01715E+06
C:/temp/Job-1.odb,Step-1,Increment      1: Step Time =    1.000,"P-1-1",         11237,   154.626E-03,   28.2476E-03,            0.,NA,NA,"",   1.02222E+06,   1.01646E+06,   1.01646E+06
C:/temp/Job-1.odb,Step-1,Increment      1: Step Time =    1.000,"P-1-1",         11238,   171.514E-03,   152.981E-03,            0.,NA,NA,"",   1.01958E+06,   1.01582E+06,   1.01582E+06
C:/temp/Job-1.odb,Step-1,Increment      1: Step Time =    1.000,"P-1-1",         11239,   28.2602E-03,   46.6890E-03,            0.,NA,NA,"",   972.559E+03,   1.02703E+06,   1.02703E+06
C:/temp/Job-1.odb,Step-1,Increment      1: Step Time =    1.000,"P-1-1",         11240,   46.4973E-03,   171.425E-03,            0.,NA,NA,"",   1.04587E+06,   1.05624E+06,   1.05624E+06
C:/temp/Job-1.odb,Step-1,Increment      1: Step Time =    1.000,"P-1-1",         11241,   31.4634E-03,   64.8036E-03,            0.,NA,NA,"",   920.416E+03,   980.834E+03,   980.834E+03
C:/temp/Job-1.odb,Step-1,Increment      1: Step Time =    1.000,"P-1-1",         11242,   64.4303E-03,   168.616E-03,            0.,NA,NA,"",   1.04402E+06,   1.04747E+06,   1.04747E+06
C:/temp/Job-1.odb,Step-1,Increment      1: Step Time =    1.000,"P-1-1",         11243,   143.633E-03,   27.7445E-03,            0.,NA,NA,"",   1.02542E+06,   1.01954E+06,   1.01954E+06
C:/temp/Job-1.odb,Step-1,Increment      1: Step Time =    1.000,"P-1-1",         11244,   116.694E-03,   26.9322E-03,            0.,NA,NA,"",   1.00614E+06,   1.01120E+06,   1.01120E+06
C:/temp/Job-1.odb,Step-1,Increment      1: Step Time =    1.000,"P-1-1",         11245,   172.219E-03,   143.157E-03,            0.,NA,NA,"",   1.01618E+06,   1.01381E+06,   1.01381E+06
C:/temp/Job-1.odb,Step-1,Increment      1: Step Time =    1.000,"P-1-1",         11246,   102.890E-03,   142.882E-03,            0.,NA,NA,"",   1.03597E+06,   1.08551E+06,   1.08551E+06
C:/temp/Job-1.odb,Step-1,Increment      1: Step Time =    1.000,"P-1-1",         11247,   59.5523E-03,   171.898E-03,            0.,NA,NA,"",   1.04088E+06,   1.04428E+06,   1.04428E+06
C:/temp/Job-1.odb,Step-1,Increment      1: Step Time =    1.000,"P-1-1",         11248,   28.3222E-03,   59.9819E-03,            0.,NA,NA,"",   926.087E+03,   989.400E+03,   989.400E+03
C:/temp/Job-1.odb,Step-1,Increment      1: Step Time =    1.000,"P-1-1",         11249,   171.147E-03,   90.2991E-03,            0.,NA,NA,"",   960.641E+03,   972.642E+03,   972.642E+03
C:/temp/Job-1.odb,Step-1,Increment      1: Step Time =    1.000,"P-1-1",         11250,   172.662E-03,   95.8542E-03,            0.,NA,NA,"",   956.273E+03,   970.673E+03,   970.673E+03
C:/temp/Job-1.odb,Step-1,Increment      1: Step Time =    1.000,"P-1-1",         11251,   30.3379E-03,   69.2019E-03,            0.,NA,NA,"",   899.231E+03,   964.372E+03,   964.372E+03
C:/temp/Job-1.odb,Step-1,Increment      1: Step Time =    1.000,"P-1-1",         11252,   143.208E-03,   110.079E-03,            0.,NA,NA,"",   896.342E+03,   893.817E+03,   893.817E+03
C:/temp/Job-1.odb,Step-1,Increment      1: Step Time =    1.000,"P-1-1",         11253,   129.744E-03,   27.6287E-03,            0.,NA,NA,"",   1.02032E+06,   1.01841E+06,   1.01841E+06
C:/temp/Job-1.odb,Step-1,Increment      1: Step Time =    1.000,"P-1-1",         11254,   171.739E-03,   130.980E-03,            0.,NA,NA,"",   1.00302E+06,   1.00425E+06,   1.00425E+06
C:/temp/Job-1.odb,Step-1,Increment      1: Step Time =    1.000,"P-1-1",         11255,   131.649E-03,   127.461E-03,            0.,NA,NA,"",   1.14944E+06,   1.09792E+06,   1.09792E+06
C:/temp/Job-1.odb,Step-1,Increment      1: Step Time =    1.000,"P-1-1",         11256,   96.5207E-03,   72.4606E-03,            0.,NA,NA,"",   1.12182E+06,   1.21793E+06,   1.21793E+06
C:/temp/Job-1.odb,Step-1,Increment      1: Step Time =    1.000,"P-1-1",         11257,   94.3536E-03,   67.4044E-03,            0.,NA,NA,"",   1.08835E+06,   1.15783E+06,   1.15783E+06
C:/temp/Job-1.odb,Step-1,Increment      1: Step Time =    1.000,"P-1-1",         11258,   123.882E-03,   28.7387E-03,            0.,NA,NA,"",   1.01778E+06,   1.01895E+06,   1.01895E+06
C:/temp/Job-1.odb,Step-1,Increment      1: Step Time =    1.000,"P-1-1",         11259,   171.139E-03,   122.977E-03,            0.,NA,NA,"",   988.085E+03,   992.936E+03,   992.936E+03
C:/temp/Job-1.odb,Step-1,Increment      1: Step Time =    1.000,"P-1-1",         11260,   29.2294E-03,   76.9680E-03,            0.,NA,NA,"",   865.833E+03,   937.340E+03,   937.340E+03
C:/temp/Job-1.odb,Step-1,Increment      1: Step Time =    1.000,"P-1-1",         11261,   76.8416E-03,   170.875E-03,            0.,NA,NA,"",   1.02452E+06,   1.03034E+06,   1.03034E+06
C:/temp/Job-1.odb,Step-1,Increment      1: Step Time =    1.000,"P-1-1",         11262,   114.203E-03,   168.888E-03,            0.,NA,NA,"",   1.01213E+06,   1.02030E+06,   1.02030E+06
C:/temp/Job-1.odb,Step-1,Increment      1: Step Time =    1.000,"P-1-1",         11263,   30.4111E-03,   113.574E-03,            0.,NA,NA,"",   837.576E+03,    911.82E+03,    911.82E+03
C:/temp/Job-1.odb,Step-1,Increment      1: Step Time =    1.000,"P-1-1",         11264,   30.2975E-03,   165.809E-03,            0.,NA,NA,"",   1.02158E+06,   1.05994E+06,   1.05994E+06
C:/temp/Job-1.odb,Step-1,Increment      1: Step Time =    1.000,"P-1-1",         11265,   85.6448E-03,   30.1079E-03,            0.,NA,NA,"",   1.01388E+06,   1.02407E+06,   1.02407E+06
C:/temp/Job-1.odb,Step-1,Increment      1: Step Time =    1.000,"P-1-1",         11266,   165.581E-03,   169.782E-03,            0.,NA,NA,"",   1.01731E+06,   1.01306E+06,   1.01306E+06
C:/temp/Job-1.odb,Step-1,Increment      1: Step Time =    1.000,"P-1-1",         11267,   33.9634E-03,   29.5932E-03,            0.,NA,NA,"",   1.03995E+06,   1.06638E+06,   1.06638E+06
C:/temp/Job-1.odb,Step-1,Increment      1: Step Time =    1.000,"P-1-1",         11268,   169.604E-03,   33.9835E-03,            0.,NA,NA,"",   1.01664E+06,   1.01290E+06,   1.01290E+06
C:/temp/Job-1.odb,Step-1,Increment      1: Step Time =    1.000,"P-1-1",         11269,   99.2533E-03,   143.356E-03,            0.,NA,NA,"",   1.03210E+06,   1.08280E+06,   1.08280E+06
C:/temp/Job-1.odb,Step-1,Increment      1: Step Time =    1.000,"P-1-1",         11270,   143.415E-03,   113.521E-03,            0.,NA,NA,"",   939.896E+03,   928.833E+03,   928.833E+03
C:/temp/Job-1.odb,Step-1,Increment      1: Step Time =    1.000,"P-1-1",         11271,   68.1400E-03,   131.830E-03,            0.,NA,NA,"",   1.11400E+06,   1.09884E+06,   1.09884E+06
C:/temp/Job-1.odb,Step-1,Increment      1: Step Time =    1.000,"P-1-1",         11272,   64.5071E-03,   91.9532E-03,            0.,NA,NA,"",   784.459E+03,   811.140E+03,   811.140E+03
C:/temp/Job-1.odb,Step-1,Increment      1: Step Time =    1.000,"P-1-1",         11273,   94.0526E-03,   142.398E-03,            0.,NA,NA,"",   1.04600E+06,   1.09336E+06,   1.09336E+06
C:/temp/Job-1.odb,Step-1,Increment      1: Step Time =    1.000,"P-1-1",         11274,   73.8569E-03,   133.471E-03,            0.,NA,NA,"",   1.14807E+06,   1.13268E+06,   1.13268E+06
C:/temp/Job-1.odb,Step-1,Increment      1: Step Time =    1.000,"P-1-1",         11275,   143.177E-03,   116.674E-03,            0.,NA,NA,"",   977.231E+03,   958.655E+03,   958.655E+03
C:/temp/Job-1.odb,Step-1,Increment      1: Step Time =    1.000,"P-1-1",         11276,   101.594E-03,   142.477E-03,            0.,NA,NA,"",   1.03448E+06,   1.08610E+06,   1.08610E+06
C:/temp/Job-1.odb,Step-1,Increment      1: Step Time =    1.000,"P-1-1",         11277,   136.727E-03,   92.8524E-03,            0.,NA,NA,"",   824.215E+03,   823.029E+03,   823.029E+03
C:/temp/Job-1.odb,Step-1,Increment      1: Step Time =    1.000,"P-1-1",         11278,   143.557E-03,   103.468E-03,            0.,NA,NA,"",   838.121E+03,   848.696E+03,   848.696E+03
C:/temp/Job-1.odb,Step-1,Increment      1: Step Time =    1.000,"P-1-1",         11279,   143.351E-03,   106.883E-03,            0.,NA,NA,"",   862.773E+03,   867.662E+03,   867.662E+03
C:/temp/Job-1.odb,Step-1,Increment      1: Step Time =    1.000,"P-1-1",         11280,   141.723E-03,   110.506E-03,            0.,NA,NA,"",   898.471E+03,   892.807E+03,   892.807E+03
C:/temp/Job-1.odb,Step-1,Increment      1: Step Time =    1.000,"P-1-1",         11281,   136.152E-03,   88.6024E-03,            0.,NA,NA,"",    909.31E+03,   889.136E+03,   889.136E+03
C:/temp/Job-1.odb,Step-1,Increment      1: Step Time =    1.000,"P-1-1",         11282,   117.138E-03,   170.335E-03,            0.,NA,NA,"",   1.01258E+06,   1.01822E+06,   1.01822E+06
C:/temp/Job-1.odb,Step-1,Increment      1: Step Time =    1.000,"P-1-1",         11283,   29.7848E-03,   116.720E-03,            0.,NA,NA,"",   845.412E+03,   919.212E+03,   919.212E+03
C:/temp/Job-1.odb,Step-1,Increment      1: Step Time =    1.000,"P-1-1",         11284,   92.3147E-03,   170.388E-03,            0.,NA,NA,"",   1.00473E+06,   1.01702E+06,   1.01702E+06
C:/temp/Job-1.odb,Step-1,Increment      1: Step Time =    1.000,"P-1-1",         11285,   169.155E-03,   106.922E-03,            0.,NA,NA,"",   953.539E+03,   965.746E+03,   965.746E+03
C:/temp/Job-1.odb,Step-1,Increment      1: Step Time =    1.000,"P-1-1",         11286,   29.1023E-03,   92.9304E-03,            0.,NA,NA,"",   821.172E+03,   899.070E+03,   899.070E+03
C:/temp/Job-1.odb,Step-1,Increment      1: Step Time =    1.000,"P-1-1",         11287,   106.994E-03,   30.1992E-03,            0.,NA,NA,"",   1.00347E+06,   1.01522E+06,   1.01522E+06
C:/temp/Job-1.odb,Step-1,Increment      1: Step Time =    1.000,"P-1-1",         11288,   65.6657E-03,   169.500E-03,            0.,NA,NA,"",   1.04116E+06,   1.04447E+06,   1.04447E+06
C:/temp/Job-1.odb,Step-1,Increment      1: Step Time =    1.000,"P-1-1",         11289,   30.2383E-03,   66.3299E-03,            0.,NA,NA,"",   910.018E+03,   973.610E+03,   973.610E+03
C:/temp/Job-1.odb,Step-1,Increment      1: Step Time =    1.000,"P-1-1",         11290,   66.7798E-03,   132.024E-03,            0.,NA,NA,"",   1.10387E+06,   1.09108E+06,   1.09108E+06
C:/temp/Job-1.odb,Step-1,Increment      1: Step Time =    1.000,"P-1-1",         11291,   143.340E-03,   101.275E-03,            0.,NA,NA,"",   827.966E+03,   840.386E+03,   840.386E+03
C:/temp/Job-1.odb,Step-1,Increment      1: Step Time =    1.000,"P-1-1",         11292,   120.189E-03,   138.967E-03,            0.,NA,NA,"",   1.13467E+06,   1.12808E+06,   1.12808E+06
C:/temp/Job-1.odb,Step-1,Increment      1: Step Time =    1.000,"P-1-1",         11293,   30.5402E-03,   32.3201E-03,            0.,NA,NA,"",   1.02823E+06,   1.06379E+06,   1.06379E+06
C:/temp/Job-1.odb,Step-1,Increment      1: Step Time =    1.000,"P-1-1",         11294,   59.1337E-03,   87.0457E-03,            0.,NA,NA,"",   866.814E+03,   893.711E+03,   893.711E+03
C:/temp/Job-1.odb,Step-1,Increment      1: Step Time =    1.000,"P-1-1",         11295,   168.837E-03,   167.831E-03,            0.,NA,NA,"",   1.01615E+06,   1.01243E+06,   1.01243E+06
C:/temp/Job-1.odb,Step-1,Increment      1: Step Time =    1.000,"P-1-1",         11296,   58.7570E-03,   78.6116E-03,            0.,NA,NA,"",   972.645E+03,   983.546E+03,   983.546E+03
C:/temp/Job-1.odb,Step-1,Increment      1: Step Time =    1.000,"P-1-1",         11297,   59.1534E-03,   76.6983E-03,            0.,NA,NA,"",   993.846E+03,   1.00120E+06,   1.00120E+06
C:/temp/Job-1.odb,Step-1,Increment      1: Step Time =    1.000,"P-1-1",         11298,   29.5196E-03,   122.630E-03,            0.,NA,NA,"",   865.506E+03,   936.732E+03,   936.732E+03
C:/temp/Job-1.odb,Step-1,Increment      1: Step Time =    1.000,"P-1-1",         11299,   122.418E-03,   170.751E-03,            0.,NA,NA,"",   1.01751E+06,   1.01962E+06,   1.01962E+06
C:/temp/Job-1.odb,Step-1,Increment      1: Step Time =    1.000,"P-1-1",         11300,   28.6847E-03,   162.738E-03,            0.,NA,NA,"",   1.00664E+06,   1.05179E+06,   1.05179E+06
C:/temp/Job-1.odb,Step-1,Increment      1: Step Time =    1.000,"P-1-1",         11301,   37.0767E-03,   168.981E-03,            0.,NA,NA,"",   1.04028E+06,   1.06330E+06,   1.06330E+06
C:/temp/Job-1.odb,Step-1,Increment      1: Step Time =    1.000,"P-1-1",         11302,   159.427E-03,   29.7327E-03,            0.,NA,NA,"",   1.02149E+06,   1.01599E+06,   1.01599E+06
C:/temp/Job-1.odb,Step-1,Increment      1: Step Time =    1.000,"P-1-1",         11303,   163.412E-03,   170.499E-03,            0.,NA,NA,"",   1.01828E+06,   1.01368E+06,   1.01368E+06
C:/temp/Job-1.odb,Step-1,Increment      1: Step Time =    1.000,"P-1-1",         11304,   37.5277E-03,   27.7242E-03,            0.,NA,NA,"",   1.04549E+06,   1.06462E+06,   1.06462E+06
C:/temp/Job-1.odb,Step-1,Increment      1: Step Time =    1.000,"P-1-1",         11305,   170.413E-03,   37.1130E-03,            0.,NA,NA,"",   1.01766E+06,   1.01386E+06,   1.01386E+06
C:/temp/Job-1.odb,Step-1,Increment      1: Step Time =    1.000,"P-1-1",         11306,   80.5864E-03,   29.8081E-03,            0.,NA,NA,"",   1.02040E+06,   1.02815E+06,   1.02815E+06
C:/temp/Job-1.odb,Step-1,Increment      1: Step Time =    1.000,"P-1-1",         11307,   169.419E-03,   79.5055E-03,            0.,NA,NA,"",   982.792E+03,   987.811E+03,   987.811E+03
C:/temp/Job-1.odb,Step-1,Increment      1: Step Time =    1.000,"P-1-1",         11308,   28.5590E-03,   156.597E-03,            0.,NA,NA,"",   985.160E+03,   1.03621E+06,   1.03621E+06
C:/temp/Job-1.odb,Step-1,Increment      1: Step Time =    1.000,"P-1-1",         11309,   57.3485E-03,   100.334E-03,            0.,NA,NA,"",   755.793E+03,   806.683E+03,   806.683E+03
C:/temp/Job-1.odb,Step-1,Increment      1: Step Time =    1.000,"P-1-1",         11310,   155.641E-03,   171.577E-03,            0.,NA,NA,"",   1.02225E+06,   1.01650E+06,   1.01650E+06
C:/temp/Job-1.odb,Step-1,Increment      1: Step Time =    1.000,"P-1-1",         11311,   42.6689E-03,   28.4084E-03,            0.,NA,NA,"",   1.04584E+06,   1.05960E+06,   1.05960E+06
C:/temp/Job-1.odb,Step-1,Increment      1: Step Time =    1.000,"P-1-1",         11312,   171.235E-03,   44.2717E-03,            0.,NA,NA,"",   1.01958E+06,   1.01566E+06,   1.01566E+06
C:/temp/Job-1.odb,Step-1,Increment      1: Step Time =    1.000,"P-1-1",         11313,   89.7700E-03,   169.964E-03,            0.,NA,NA,"",   1.00820E+06,   1.02014E+06,   1.02014E+06
C:/temp/Job-1.odb,Step-1,Increment      1: Step Time =    1.000,"P-1-1",         11314,   30.2152E-03,   89.8059E-03,            0.,NA,NA,"",   828.452E+03,   904.159E+03,   904.159E+03
C:/temp/Job-1.odb,Step-1,Increment      1: Step Time =    1.000,"P-1-1",         11315,   168.246E-03,   110.672E-03,            0.,NA,NA,"",   958.724E+03,   968.901E+03,   968.901E+03
C:/temp/Job-1.odb,Step-1,Increment      1: Step Time =    1.000,"P-1-1",         11316,   29.6409E-03,   36.8445E-03,            0.,NA,NA,"",   1.01118E+06,   1.05369E+06,   1.05369E+06
C:/temp/Job-1.odb,Step-1,Increment      1: Step Time =    1.000,"P-1-1",         11317,   61.8447E-03,   97.6695E-03,            0.,NA,NA,"",   721.355E+03,   767.769E+03,   767.769E+03
C:/temp/Job-1.odb,Step-1,Increment      1: Step Time =    1.000,"P-1-1",         11318,   170.232E-03,   163.117E-03,            0.,NA,NA,"",   1.01780E+06,   1.01393E+06,   1.01393E+06
C:/temp/Job-1.odb,Step-1,Increment      1: Step Time =    1.000,"P-1-1",         11319,   109.782E-03,   30.8197E-03,            0.,NA,NA,"",   1.00679E+06,   1.01764E+06,   1.01764E+06
C:/temp/Job-1.odb,Step-1,Increment      1: Step Time =    1.000,"P-1-1",         11320,   171.472E-03,   159.573E-03,            0.,NA,NA,"",   1.01809E+06,   1.01441E+06,   1.01441E+06
C:/temp/Job-1.odb,Step-1,Increment      1: Step Time =    1.000,"P-1-1",         11321,   27.8011E-03,   42.0759E-03,            0.,NA,NA,"",   987.045E+03,   1.03860E+06,   1.03860E+06
C:/temp/Job-1.odb,Step-1,Increment      1: Step Time =    1.000,"P-1-1",         11322,   60.7057E-03,   115.647E-03,            0.,NA,NA,"",   913.726E+03,   928.654E+03,   928.654E+03
C:/temp/Job-1.odb,Step-1,Increment      1: Step Time =    1.000,"P-1-1",         11323,   41.7287E-03,   172.553E-03,            0.,NA,NA,"",   1.04623E+06,   1.06022E+06,   1.06022E+06
C:/temp/Job-1.odb,Step-1,Increment      1: Step Time =    1.000,"P-1-1",         11324,   135.954E-03,   94.7125E-03,            0.,NA,NA,"",   784.294E+03,   789.553E+03,   789.553E+03
C:/temp/Job-1.odb,Step-1,Increment      1: Step Time =    1.000,"P-1-1",         11325,   81.5949E-03,   142.414E-03,            0.,NA,NA,"",   1.10099E+06,   1.11452E+06,   1.11452E+06
C:/temp/Job-1.odb,Step-1,Increment      1: Step Time =    1.000,"P-1-1",         11326,   74.5804E-03,   136.651E-03,            0.,NA,NA,"",   1.13577E+06,   1.12760E+06,   1.12760E+06
C:/temp/Job-1.odb,Step-1,Increment      1: Step Time =    1.000,"P-1-1",         11327,   92.2522E-03,   67.0417E-03,            0.,NA,NA,"",   1.10291E+06,   1.16128E+06,   1.16128E+06
C:/temp/Job-1.odb,Step-1,Increment      1: Step Time =    1.000,"P-1-1",         11328,   133.461E-03,   77.6135E-03,            0.,NA,NA,"",   1.10510E+06,   1.05291E+06,   1.05291E+06
C:/temp/Job-1.odb,Step-1,Increment      1: Step Time =    1.000,"P-1-1",         11329,   136.224E-03,   30.6349E-03,            0.,NA,NA,"",   1.03125E+06,   1.02588E+06,   1.02588E+06
C:/temp/Job-1.odb,Step-1,Increment      1: Step Time =    1.000,"P-1-1",         11330,   127.285E-03,   78.9632E-03,            0.,NA,NA,"",   1.16621E+06,   1.09384E+06,   1.09384E+06
C:/temp/Job-1.odb,Step-1,Increment      1: Step Time =    1.000,"P-1-1",         11331,   32.9847E-03,   167.951E-03,            0.,NA,NA,"",   1.03288E+06,   1.06368E+06,   1.06368E+06
C:/temp/Job-1.odb,Step-1,Increment      1: Step Time =    1.000,"P-1-1",         11332,   35.0400E-03,   168.650E-03,            0.,NA,NA,"",   1.03745E+06,   1.06393E+06,   1.06393E+06
C:/temp/Job-1.odb,Step-1,Increment      1: Step Time =    1.000,"P-1-1",         11333,   121.130E-03,   168.330E-03,            0.,NA,NA,"",   1.02202E+06,   1.02515E+06,   1.02515E+06
C:/temp/Job-1.odb,Step-1,Increment      1: Step Time =    1.000,"P-1-1",         11334,   118.466E-03,   168.563E-03,            0.,NA,NA,"",   1.01808E+06,   1.02324E+06,   1.02324E+06
C:/temp/Job-1.odb,Step-1,Increment      1: Step Time =    1.000,"P-1-1",         11335,   31.0908E-03,   118.523E-03,            0.,NA,NA,"",   854.359E+03,   925.486E+03,   925.486E+03
C:/temp/Job-1.odb,Step-1,Increment      1: Step Time =    1.000,"P-1-1",         11336,   30.9007E-03,   119.851E-03,            0.,NA,NA,"",   858.778E+03,   929.397E+03,   929.397E+03
C:/temp/Job-1.odb,Step-1,Increment      1: Step Time =    1.000,"P-1-1",         11337,   83.1261E-03,   29.1624E-03,            0.,NA,NA,"",   1.01550E+06,   1.02409E+06,   1.02409E+06
C:/temp/Job-1.odb,Step-1,Increment      1: Step Time =    1.000,"P-1-1",         11338,   168.629E-03,   81.8893E-03,            0.,NA,NA,"",   976.845E+03,   982.837E+03,   982.837E+03
C:/temp/Job-1.odb,Step-1,Increment      1: Step Time =    1.000,"P-1-1",         11339,   147.787E-03,   28.2141E-03,            0.,NA,NA,"",   1.02537E+06,   1.01913E+06,   1.01913E+06
C:/temp/Job-1.odb,Step-1,Increment      1: Step Time =    1.000,"P-1-1",         11340,   173.104E-03,   148.129E-03,            0.,NA,NA,"",   1.01691E+06,   1.01433E+06,   1.01433E+06
C:/temp/Job-1.odb,Step-1,Increment      1: Step Time =    1.000,"P-1-1",         11341,   59.2645E-03,   97.5129E-03,            0.,NA,NA,"",   745.131E+03,   793.659E+03,   793.659E+03
C:/temp/Job-1.odb,Step-1,Increment      1: Step Time =    1.000,"P-1-1",         11342,   160.606E-03,   30.7406E-03,            0.,NA,NA,"",   1.02192E+06,   1.01637E+06,   1.01637E+06
C:/temp/Job-1.odb,Step-1,Increment      1: Step Time =    1.000,"P-1-1",         11343,   162.880E-03,   30.7573E-03,            0.,NA,NA,"",   1.02010E+06,   1.01506E+06,   1.01506E+06
C:/temp/Job-1.odb,Step-1,Increment      1: Step Time =    1.000,"P-1-1",         11344,   169.438E-03,   31.1084E-03,            0.,NA,NA,"",   1.01486E+06,   1.01145E+06,   1.01145E+06
C:/temp/Job-1.odb,Step-1,Increment      1: Step Time =    1.000,"P-1-1",         11345,   168.586E-03,   141.066E-03,            0.,NA,NA,"",   1.02125E+06,   1.01644E+06,   1.01644E+06
C:/temp/Job-1.odb,Step-1,Increment      1: Step Time =    1.000,"P-1-1",         11346,   115.548E-03,   30.0370E-03,            0.,NA,NA,"",   1.01152E+06,   1.01819E+06,   1.01819E+06
C:/temp/Job-1.odb,Step-1,Increment      1: Step Time =    1.000,"P-1-1",         11347,   69.3585E-03,   29.1298E-03,            0.,NA,NA,"",   1.03429E+06,   1.03779E+06,   1.03779E+06
C:/temp/Job-1.odb,Step-1,Increment      1: Step Time =    1.000,"P-1-1",         11348,   171.855E-03,   69.3152E-03,            0.,NA,NA,"",   1.00252E+06,   1.00391E+06,   1.00391E+06
C:/temp/Job-1.odb,Step-1,Increment      1: Step Time =    1.000,"P-1-1",         11349,   30.6356E-03,   29.4190E-03,            0.,NA,NA,"",   1.03720E+06,   1.06891E+06,   1.06891E+06
C:/temp/Job-1.odb,Step-1,Increment      1: Step Time =    1.000,"P-1-1",         11350,   168.835E-03,   169.941E-03,            0.,NA,NA,"",   1.01453E+06,   1.01114E+06,   1.01114E+06
C:/temp/Job-1.odb,Step-1,Increment      1: Step Time =    1.000,"P-1-1",         11351,   169.061E-03,   55.3349E-03,            0.,NA,NA,"",   1.02248E+06,   1.01759E+06,   1.01759E+06
C:/temp/Job-1.odb,Step-1,Increment      1: Step Time =    1.000,"P-1-1",         11352,   54.2703E-03,   30.8553E-03,            0.,NA,NA,"",   1.04704E+06,   1.05311E+06,   1.05311E+06
C:/temp/Job-1.odb,Step-1,Increment      1: Step Time =    1.000,"P-1-1",         11353,   167.426E-03,   30.8142E-03,            0.,NA,NA,"",   1.01633E+06,   1.01243E+06,   1.01243E+06
C:/temp/Job-1.odb,Step-1,Increment      1: Step Time =    1.000,"P-1-1",         11354,   144.726E-03,   167.956E-03,            0.,NA,NA,"",   1.03443E+06,   1.02670E+06,   1.02670E+06
C:/temp/Job-1.odb,Step-1,Increment      1: Step Time =    1.000,"P-1-1",         11355,   31.2378E-03,   144.881E-03,            0.,NA,NA,"",   954.721E+03,   1.00928E+06,   1.00928E+06
C:/temp/Job-1.odb,Step-1,Increment      1: Step Time =    1.000,"P-1-1",         11356,   137.737E-03,   30.4342E-03,            0.,NA,NA,"",   1.03104E+06,   1.02533E+06,   1.02533E+06
C:/temp/Job-1.odb,Step-1,Increment      1: Step Time =    1.000,"P-1-1",         11357,   168.859E-03,   138.678E-03,            0.,NA,NA,"",   1.01831E+06,   1.01431E+06,   1.01431E+06
C:/temp/Job-1.odb,Step-1,Increment      1: Step Time =    1.000,"P-1-1",         11358,   85.1304E-03,   142.700E-03,            0.,NA,NA,"",   1.08656E+06,   1.10999E+06,   1.10999E+06
C:/temp/Job-1.odb,Step-1,Increment      1: Step Time =    1.000,"P-1-1",         11359,   112.018E-03,   30.8838E-03,            0.,NA,NA,"",   1.00912E+06,   1.01866E+06,   1.01866E+06
C:/temp/Job-1.odb,Step-1,Increment      1: Step Time =    1.000,"P-1-1",         11360,   172.423E-03,   87.3541E-03,            0.,NA,NA,"",   967.041E+03,   978.457E+03,   978.457E+03
C:/temp/Job-1.odb,Step-1,Increment      1: Step Time =    1.000,"P-1-1",         11361,   167.726E-03,   111.770E-03,            0.,NA,NA,"",   960.456E+03,   969.743E+03,   969.743E+03
C:/temp/Job-1.odb,Step-1,Increment      1: Step Time =    1.000,"P-1-1",         11362,   30.4436E-03,   87.8474E-03,            0.,NA,NA,"",   833.491E+03,   908.269E+03,   908.269E+03
C:/temp/Job-1.odb,Step-1,Increment      1: Step Time =    1.000,"P-1-1",         11363,   87.9128E-03,   169.428E-03,            0.,NA,NA,"",   1.01146E+06,   1.02298E+06,   1.02298E+06
C:/temp/Job-1.odb,Step-1,Increment      1: Step Time =    1.000,"P-1-1",         11364,   173.375E-03,   100.566E-03,            0.,NA,NA,"",   956.355E+03,   971.463E+03,   971.463E+03
C:/temp/Job-1.odb,Step-1,Increment      1: Step Time =    1.000,"P-1-1",         11365,   82.5744E-03,   70.7683E-03,            0.,NA,NA,"",   1.20262E+06,   1.19605E+06,   1.19605E+06
C:/temp/Job-1.odb,Step-1,Increment      1: Step Time =    1.000,"P-1-1",         11366,   172.822E-03,   161.915E-03,            0.,NA,NA,"",   1.01546E+06,   1.01246E+06,   1.01246E+06
C:/temp/Job-1.odb,Step-1,Increment      1: Step Time =    1.000,"P-1-1",         11367,   169.656E-03,   52.2035E-03,            0.,NA,NA,"",   1.02250E+06,   1.01775E+06,   1.01775E+06
C:/temp/Job-1.odb,Step-1,Increment      1: Step Time =    1.000,"P-1-1",         11368,   51.9740E-03,   30.7447E-03,            0.,NA,NA,"",   1.04704E+06,   1.05440E+06,   1.05440E+06
C:/temp/Job-1.odb,Step-1,Increment      1: Step Time =    1.000,"P-1-1",         11369,   30.3573E-03,   159.911E-03,            0.,NA,NA,"",   1.00222E+06,   1.04662E+06,   1.04662E+06
C:/temp/Job-1.odb,Step-1,Increment      1: Step Time =    1.000,"P-1-1",         11370,   28.8454E-03,   39.3980E-03,            0.,NA,NA,"",   1.00061E+06,   1.04710E+06,   1.04710E+06
C:/temp/Job-1.odb,Step-1,Increment      1: Step Time =    1.000,"P-1-1",         11371,   74.0568E-03,   170.345E-03,            0.,NA,NA,"",   1.02961E+06,   1.03455E+06,   1.03455E+06
C:/temp/Job-1.odb,Step-1,Increment      1: Step Time =    1.000,"P-1-1",         11372,   30.8672E-03,   73.8762E-03,            0.,NA,NA,"",   882.585E+03,   949.714E+03,   949.714E+03
C:/temp/Job-1.odb,Step-1,Increment      1: Step Time =    1.000,"P-1-1",         11373,   158.827E-03,   169.054E-03,            0.,NA,NA,"",   1.02375E+06,   1.01771E+06,   1.01771E+06
C:/temp/Job-1.odb,Step-1,Increment      1: Step Time =    1.000,"P-1-1",         11374,   38.9625E-03,   171.281E-03,            0.,NA,NA,"",   1.04466E+06,   1.06294E+06,   1.06294E+06
C:/temp/Job-1.odb,Step-1,Increment      1: Step Time =    1.000,"P-1-1",         11375,   88.0750E-03,   142.136E-03,            0.,NA,NA,"",   1.07524E+06,   1.10774E+06,   1.10774E+06
C:/temp/Job-1.odb,Step-1,Increment      1: Step Time =    1.000,"P-1-1",         11376,   147.385E-03,   168.185E-03,            0.,NA,NA,"",   1.03285E+06,   1.02511E+06,   1.02511E+06
C:/temp/Job-1.odb,Step-1,Increment      1: Step Time =    1.000,"P-1-1",         11377,   113.514E-03,   140.555E-03,            0.,NA,NA,"",   1.09483E+06,   1.11567E+06,   1.11567E+06
C:/temp/Job-1.odb,Step-1,Increment      1: Step Time =    1.000,"P-1-1",         11378,   31.0010E-03,   148.166E-03,            0.,NA,NA,"",   965.334E+03,   1.01815E+06,   1.01815E+06
C:/temp/Job-1.odb,Step-1,Increment      1: Step Time =    1.000,"P-1-1",         11379,   170.531E-03,   126.045E-03,            0.,NA,NA,"",   994.924E+03,   997.651E+03,   997.651E+03
C:/temp/Job-1.odb,Step-1,Increment      1: Step Time =    1.000,"P-1-1",         11380,   39.6659E-03,   29.8546E-03,            0.,NA,NA,"",   1.04380E+06,   1.06223E+06,   1.06223E+06
C:/temp/Job-1.odb,Step-1,Increment      1: Step Time =    1.000,"P-1-1",         11381,   126.802E-03,   31.0353E-03,            0.,NA,NA,"",   1.02672E+06,   1.02591E+06,   1.02591E+06
C:/temp/Job-1.odb,Step-1,Increment      1: Step Time =    1.000,"P-1-1",         11382,   169.292E-03,   41.3868E-03,            0.,NA,NA,"",   1.02128E+06,   1.01661E+06,   1.01661E+06
C:/temp/Job-1.odb,Step-1,Increment      1: Step Time =    1.000,"P-1-1",         11383,   169.752E-03,   164.968E-03,            0.,NA,NA,"",   1.01719E+06,   1.01337E+06,   1.01337E+06
C:/temp/Job-1.odb,Step-1,Increment      1: Step Time =    1.000,"P-1-1",         11384,   31.1605E-03,   35.2152E-03,            0.,NA,NA,"",   1.02027E+06,   1.05797E+06,   1.05797E+06
C:/temp/Job-1.odb,Step-1,Increment      1: Step Time =    1.000,"P-1-1",         11385,   103.097E-03,   173.614E-03,            0.,NA,NA,"",   995.263E+03,   1.00541E+06,   1.00541E+06
C:/temp/Job-1.odb,Step-1,Increment      1: Step Time =    1.000,"P-1-1",         11386,   26.8210E-03,   103.568E-03,            0.,NA,NA,"",   814.928E+03,   895.714E+03,   895.714E+03
C:/temp/Job-1.odb,Step-1,Increment      1: Step Time =    1.000,"P-1-1",         11387,   165.210E-03,   28.3531E-03,            0.,NA,NA,"",   1.01559E+06,   1.01170E+06,   1.01170E+06
C:/temp/Job-1.odb,Step-1,Increment      1: Step Time =    1.000,"P-1-1",         11388,   76.1890E-03,   27.6779E-03,            0.,NA,NA,"",   1.02198E+06,   1.02723E+06,   1.02723E+06
C:/temp/Job-1.odb,Step-1,Increment      1: Step Time =    1.000,"P-1-1",         11389,   171.976E-03,   76.4542E-03,            0.,NA,NA,"",   988.793E+03,   994.003E+03,   994.003E+03
C:/temp/Job-1.odb,Step-1,Increment      1: Step Time =    1.000,"P-1-1",         11390,   64.0582E-03,   125.447E-03,            0.,NA,NA,"",   1.05466E+06,   1.04499E+06,   1.04499E+06
C:/temp/Job-1.odb,Step-1,Increment      1: Step Time =    1.000,"P-1-1",         11391,   57.8059E-03,   103.916E-03,            0.,NA,NA,"",   764.887E+03,   813.163E+03,   813.163E+03
C:/temp/Job-1.odb,Step-1,Increment      1: Step Time =    1.000,"P-1-1",         11392,   95.7756E-03,   171.268E-03,            0.,NA,NA,"",   1.00050E+06,   1.01284E+06,   1.01284E+06
C:/temp/Job-1.odb,Step-1,Increment      1: Step Time =    1.000,"P-1-1",         11393,   171.166E-03,   103.114E-03,            0.,NA,NA,"",   953.334E+03,   967.307E+03,   967.307E+03
C:/temp/Job-1.odb,Step-1,Increment      1: Step Time =    1.000,"P-1-1",         11394,   28.3066E-03,   95.5863E-03,            0.,NA,NA,"",   817.023E+03,   896.136E+03,   896.136E+03
C:/temp/Job-1.odb,Step-1,Increment      1: Step Time =    1.000,"P-1-1",         11395,   96.4991E-03,   69.9862E-03,            0.,NA,NA,"",   1.09345E+06,   1.17999E+06,   1.17999E+06
C:/temp/Job-1.odb,Step-1,Increment      1: Step Time =    1.000,"P-1-1",         11396,   103.798E-03,   28.7997E-03,            0.,NA,NA,"",   999.524E+03,   1.01137E+06,   1.01137E+06
C:/temp/Job-1.odb,Step-1,Increment      1: Step Time =    1.000,"P-1-1",         11397,   95.8837E-03,   27.5001E-03,            0.,NA,NA,"",   998.298E+03,   1.00971E+06,   1.00971E+06
C:/temp/Job-1.odb,Step-1,Increment      1: Step Time =    1.000,"P-1-1",         11398,   78.3915E-03,   143.131E-03,            0.,NA,NA,"",   1.10486E+06,   1.11187E+06,   1.11187E+06
C:/temp/Job-1.odb,Step-1,Increment      1: Step Time =    1.000,"P-1-1",         11399,   27.1724E-03,   105.353E-03,            0.,NA,NA,"",   816.876E+03,   897.118E+03,   897.118E+03
C:/temp/Job-1.odb,Step-1,Increment      1: Step Time =    1.000,"P-1-1",         11400,   104.015E-03,   173.028E-03,            0.,NA,NA,"",   996.650E+03,   1.00705E+06,   1.00705E+06
C:/temp/Job-1.odb,Step-1,Increment      1: Step Time =    1.000,"P-1-1",         11401,   56.8818E-03,   173.554E-03,            0.,NA,NA,"",   1.03976E+06,   1.04346E+06,   1.04346E+06
C:/temp/Job-1.odb,Step-1,Increment      1: Step Time =    1.000,"P-1-1",         11402,   26.3580E-03,   57.2250E-03,            0.,NA,NA,"",   928.144E+03,   993.515E+03,   993.515E+03
C:/temp/Job-1.odb,Step-1,Increment      1: Step Time =    1.000,"P-1-1",         11403,   118.541E-03,   80.4339E-03,            0.,NA,NA,"",   1.30014E+06,   1.21359E+06,   1.21359E+06
C:/temp/Job-1.odb,Step-1,Increment      1: Step Time =    1.000,"P-1-1",         11404,   66.9614E-03,   93.9134E-03,            0.,NA,NA,"",   724.358E+03,   753.038E+03,   753.038E+03
C:/temp/Job-1.odb,Step-1,Increment      1: Step Time =    1.000,"P-1-1",         11405,   64.0048E-03,   127.487E-03,            0.,NA,NA,"",   1.06655E+06,   1.05714E+06,   1.05714E+06
C:/temp/Job-1.odb,Step-1,Increment      1: Step Time =    1.000,"P-1-1",         11406,   85.0482E-03,   67.6567E-03,            0.,NA,NA,"",   1.16317E+06,   1.17852E+06,   1.17852E+06
C:/temp/Job-1.odb,Step-1,Increment      1: Step Time =    1.000,"P-1-1",         11407,   171.220E-03,   88.9782E-03,            0.,NA,NA,"",   962.984E+03,   974.434E+03,   974.434E+03
C:/temp/Job-1.odb,Step-1,Increment      1: Step Time =    1.000,"P-1-1",         11408,   26.6458E-03,   99.4361E-03,            0.,NA,NA,"",   813.403E+03,   894.566E+03,   894.566E+03
C:/temp/Job-1.odb,Step-1,Increment      1: Step Time =    1.000,"P-1-1",         11409,   98.8655E-03,   174.088E-03,            0.,NA,NA,"",   994.578E+03,   1.00486E+06,   1.00486E+06
C:/temp/Job-1.odb,Step-1,Increment      1: Step Time =    1.000,"P-1-1",         11410,   100.479E-03,   26.2390E-03,            0.,NA,NA,"",   995.006E+03,   1.00544E+06,   1.00544E+06
C:/temp/Job-1.odb,Step-1,Increment      1: Step Time =    1.000,"P-1-1",         11411,   58.4724E-03,   109.555E-03,            0.,NA,NA,"",   819.829E+03,   856.605E+03,   856.605E+03
C:/temp/Job-1.odb,Step-1,Increment      1: Step Time =    1.000,"P-1-1",         11412,   135.498E-03,   86.8158E-03,            0.,NA,NA,"",   947.649E+03,   918.608E+03,   918.608E+03
C:/temp/Job-1.odb,Step-1,Increment      1: Step Time =    1.000,"P-1-1",         11413,   92.3321E-03,   28.7517E-03,            0.,NA,NA,"",   1.00323E+06,   1.01495E+06,   1.01495E+06
C:/temp/Job-1.odb,Step-1,Increment      1: Step Time =    1.000,"P-1-1",         11414,   108.450E-03,   172.543E-03,            0.,NA,NA,"",   999.670E+03,   1.00900E+06,   1.00900E+06
C:/temp/Job-1.odb,Step-1,Increment      1: Step Time =    1.000,"P-1-1",         11415,   170.729E-03,   86.6764E-03,            0.,NA,NA,"",   966.755E+03,   976.914E+03,   976.914E+03
C:/temp/Job-1.odb,Step-1,Increment      1: Step Time =    1.000,"P-1-1",         11416,   143.420E-03,   97.7989E-03,            0.,NA,NA,"",   830.402E+03,   842.386E+03,   842.386E+03
C:/temp/Job-1.odb,Step-1,Increment      1: Step Time =    1.000,"P-1-1",         11417,   24.6567E-03,   153.551E-03,            0.,NA,NA,"",   959.733E+03,   1.02151E+06,   1.02151E+06
C:/temp/Job-1.odb,Step-1,Increment      1: Step Time =    1.000,"P-1-1",         11418,   172.379E-03,   134.061E-03,            0.,NA,NA,"",   1.00694E+06,   1.00735E+06,   1.00735E+06
C:/temp/Job-1.odb,Step-1,Increment      1: Step Time =    1.000,"P-1-1",         11419,   23.1484E-03,   152.752E-03,            0.,NA,NA,"",   950.760E+03,   1.01627E+06,   1.01627E+06
C:/temp/Job-1.odb,Step-1,Increment      1: Step Time =    1.000,"P-1-1",         11420,   58.3227E-03,   113.368E-03,            0.,NA,NA,"",   870.864E+03,   899.026E+03,   899.026E+03
C:/temp/Job-1.odb,Step-1,Increment      1: Step Time =    1.000,"P-1-1",         11421,   133.960E-03,   28.9083E-03,            0.,NA,NA,"",   1.02610E+06,   1.02213E+06,   1.02213E+06
C:/temp/Job-1.odb,Step-1,Increment      1: Step Time =    1.000,"P-1-1",         11422,   152.992E-03,   177.410E-03,            0.,NA,NA,"",   1.01388E+06,   1.00979E+06,   1.00979E+06
C:/temp/Job-1.odb,Step-1,Increment      1: Step Time =    1.000,"P-1-1",         11423,   47.3269E-03,   22.2247E-03,            0.,NA,NA,"",   1.04125E+06,   1.04730E+06,   1.04730E+06
C:/temp/Job-1.odb,Step-1,Increment      1: Step Time =    1.000,"P-1-1",         11424,   176.910E-03,   46.5583E-03,            0.,NA,NA,"",   1.01185E+06,   1.01090E+06,   1.01090E+06
C:/temp/Job-1.odb,Step-1,Increment      1: Step Time =    1.000,"P-1-1",         11425,   60.2488E-03,   91.4061E-03,            0.,NA,NA,"",   804.545E+03,   839.858E+03,   839.858E+03
C:/temp/Job-1.odb,Step-1,Increment      1: Step Time =    1.000,"P-1-1",         11426,   59.8524E-03,   83.1068E-03,            0.,NA,NA,"",   925.662E+03,   941.169E+03,   941.169E+03
C:/temp/Job-1.odb,Step-1,Increment      1: Step Time =    1.000,"P-1-1",         11427,   123.367E-03,   137.653E-03,            0.,NA,NA,"",   1.14931E+06,   1.12990E+06,   1.12990E+06
C:/temp/Job-1.odb,Step-1,Increment      1: Step Time =    1.000,"P-1-1",         11428,   49.0759E-03,   24.1796E-03,            0.,NA,NA,"",   1.04177E+06,   1.04789E+06,   1.04789E+06
C:/temp/Job-1.odb,Step-1,Increment      1: Step Time =    1.000,"P-1-1",         11429,   135.515E-03,   83.5592E-03,            0.,NA,NA,"",   1.00966E+06,   970.486E+03,   970.486E+03
C:/temp/Job-1.odb,Step-1,Increment      1: Step Time =    1.000,"P-1-1",         11430,   60.0290E-03,   89.9090E-03,            0.,NA,NA,"",   826.703E+03,   858.570E+03,   858.570E+03
C:/temp/Job-1.odb,Step-1,Increment      1: Step Time =    1.000,"P-1-1",         11431,   138.133E-03,   95.0019E-03,            0.,NA,NA,"",   802.167E+03,   809.405E+03,   809.405E+03
C:/temp/Job-1.odb,Step-1,Increment      1: Step Time =    1.000,"P-1-1",         11432,   87.9261E-03,   67.8733E-03,            0.,NA,NA,"",   1.14783E+06,   1.18003E+06,   1.18003E+06
C:/temp/Job-1.odb,Step-1,Increment      1: Step Time =    1.000,"P-1-1",         11433,   66.2035E-03,   70.7600E-03,            0.,NA,NA,"",   1.09259E+06,   1.07855E+06,   1.07855E+06
C:/temp/Job-1.odb,Step-1,Increment      1: Step Time =    1.000,"P-1-1",         11434,   65.1773E-03,   72.5235E-03,            0.,NA,NA,"",   1.07862E+06,   1.06555E+06,   1.06555E+06
C:/temp/Job-1.odb,Step-1,Increment      1: Step Time =    1.000,"P-1-1",         11435,   142.452E-03,   96.5571E-03,            0.,NA,NA,"",   827.537E+03,   838.462E+03,   838.462E+03
C:/temp/Job-1.odb,Step-1,Increment      1: Step Time =    1.000,"P-1-1",         11436,   150.352E-03,   27.4085E-03,            0.,NA,NA,"",   1.02274E+06,   1.01691E+06,   1.01691E+06
C:/temp/Job-1.odb,Step-1,Increment      1: Step Time =    1.000,"P-1-1",         11437,   172.937E-03,   149.830E-03,            0.,NA,NA,"",   1.01728E+06,   1.01450E+06,   1.01450E+06
C:/temp/Job-1.odb,Step-1,Increment      1: Step Time =    1.000,"P-1-1",         11438,   134.670E-03,   80.3320E-03,            0.,NA,NA,"",   1.06478E+06,   1.01720E+06,   1.01720E+06
C:/temp/Job-1.odb,Step-1,Increment      1: Step Time =    1.000,"P-1-1",         11439,   57.8343E-03,   107.469E-03,            0.,NA,NA,"",   796.188E+03,   838.681E+03,   838.681E+03
C:/temp/Job-1.odb,Step-1,Increment      1: Step Time =    1.000,"P-1-1",         11440,   73.5833E-03,   30.3576E-03,            0.,NA,NA,"",   1.03197E+06,   1.03693E+06,   1.03693E+06
C:/temp/Job-1.odb,Step-1,Increment      1: Step Time =    1.000,"P-1-1",         11441,   168.948E-03,   74.2880E-03,            0.,NA,NA,"",   995.695E+03,   997.236E+03,   997.236E+03
C:/temp/Job-1.odb,Step-1,Increment      1: Step Time =    1.000,"P-1-1",         11442,   168.185E-03,   116.921E-03,            0.,NA,NA,"",   973.313E+03,   979.829E+03,   979.829E+03
C:/temp/Job-1.odb,Step-1,Increment      1: Step Time =    1.000,"P-1-1",         11443,   126.786E-03,   134.973E-03,            0.,NA,NA,"",   1.16052E+06,   1.12756E+06,   1.12756E+06
C:/temp/Job-1.odb,Step-1,Increment      1: Step Time =    1.000,"P-1-1",         11444,   30.2961E-03,   82.1051E-03,            0.,NA,NA,"",   850.600E+03,   923.122E+03,   923.122E+03
C:/temp/Job-1.odb,Step-1,Increment      1: Step Time =    1.000,"P-1-1",         11445,   82.3575E-03,   168.204E-03,            0.,NA,NA,"",   1.02221E+06,   1.03174E+06,   1.03174E+06
C:/temp/Job-1.odb,Step-1,Increment      1: Step Time =    1.000,"P-1-1",         11446,   107.059E-03,   143.446E-03,            0.,NA,NA,"",   1.04851E+06,   1.08900E+06,   1.08900E+06
C:/temp/Job-1.odb,Step-1,Increment      1: Step Time =    1.000,"P-1-1",         11447,   44.5505E-03,   169.448E-03,            0.,NA,NA,"",   1.04547E+06,   1.05891E+06,   1.05891E+06
C:/temp/Job-1.odb,Step-1,Increment      1: Step Time =    1.000,"P-1-1",         11448,   143.689E-03,   119.962E-03,            0.,NA,NA,"",   1.01062E+06,   986.965E+03,   986.965E+03
C:/temp/Job-1.odb,Step-1,Increment      1: Step Time =    1.000,"P-1-1",         11449,   29.7108E-03,   44.5708E-03,            0.,NA,NA,"",   985.257E+03,   1.03494E+06,   1.03494E+06
C:/temp/Job-1.odb,Step-1,Increment      1: Step Time =    1.000,"P-1-1",         11450,   169.082E-03,   154.586E-03,            0.,NA,NA,"",   1.02321E+06,   1.01809E+06,   1.01809E+06
C:/temp/Job-1.odb,Step-1,Increment      1: Step Time =    1.000,"P-1-1",         11451,   157.130E-03,   29.9555E-03,            0.,NA,NA,"",   1.02350E+06,   1.01749E+06,   1.01749E+06
C:/temp/Job-1.odb,Step-1,Increment      1: Step Time =    1.000,"P-1-1",         11452,   30.9340E-03,   143.326E-03,            0.,NA,NA,"",   948.221E+03,   1.00436E+06,   1.00436E+06
C:/temp/Job-1.odb,Step-1,Increment      1: Step Time =    1.000,"P-1-1",         11453,   142.373E-03,   168.718E-03,            0.,NA,NA,"",   1.03340E+06,   1.02625E+06,   1.02625E+06
C:/temp/Job-1.odb,Step-1,Increment      1: Step Time =    1.000,"P-1-1",         11454,   134.410E-03,   120.422E-03,            0.,NA,NA,"",   1.07633E+06,   1.02715E+06,   1.02715E+06
C:/temp/Job-1.odb,Step-1,Increment      1: Step Time =    1.000,"P-1-1",         11455,   64.2642E-03,   123.434E-03,            0.,NA,NA,"",   1.03995E+06,   1.03025E+06,   1.03025E+06
C:/temp/Job-1.odb,Step-1,Increment      1: Step Time =    1.000,"P-1-1",         11456,   169.332E-03,   86.3228E-03,            0.,NA,NA,"",   966.261E+03,   975.447E+03,   975.447E+03
C:/temp/Job-1.odb,Step-1,Increment      1: Step Time =    1.000,"P-1-1",         11457,   137.989E-03,   92.3754E-03,            0.,NA,NA,"",   842.258E+03,   840.741E+03,   840.741E+03
C:/temp/Job-1.odb,Step-1,Increment      1: Step Time =    1.000,"P-1-1",         11458,   136.620E-03,   125.986E-03,            0.,NA,NA,"",   1.10185E+06,   1.05808E+06,   1.05808E+06
C:/temp/Job-1.odb,Step-1,Increment      1: Step Time =    1.000,"P-1-1",         11459,   40.8196E-03,   171.446E-03,            0.,NA,NA,"",   1.04541E+06,   1.06135E+06,   1.06135E+06
C:/temp/Job-1.odb,Step-1,Increment      1: Step Time =    1.000,"P-1-1",         11460,   28.9754E-03,   40.6634E-03,            0.,NA,NA,"",   996.434E+03,   1.04400E+06,   1.04400E+06
C:/temp/Job-1.odb,Step-1,Increment      1: Step Time =    1.000,"P-1-1",         11461,   172.137E-03,   160.748E-03,            0.,NA,NA,"",   1.01677E+06,   1.01343E+06,   1.01343E+06
C:/temp/Job-1.odb,Step-1,Increment      1: Step Time =    1.000,"P-1-1",         11462,   139.975E-03,   125.657E-03,            0.,NA,NA,"",   1.07614E+06,   1.03952E+06,   1.03952E+06
C:/temp/Job-1.odb,Step-1,Increment      1: Step Time =    1.000,"P-1-1",         11463,   74.2128E-03,   139.860E-03,            0.,NA,NA,"",   1.12149E+06,   1.11809E+06,   1.11809E+06
C:/temp/Job-1.odb,Step-1,Increment      1: Step Time =    1.000,"P-1-1",         11464,   136.814E-03,   87.3183E-03,            0.,NA,NA,"",   935.409E+03,   912.016E+03,   912.016E+03
C:/temp/Job-1.odb,Step-1,Increment      1: Step Time =    1.000,"P-1-1",         11465,   152.534E-03,   27.6104E-03,            0.,NA,NA,"",   1.02235E+06,   1.01656E+06,   1.01656E+06
C:/temp/Job-1.odb,Step-1,Increment      1: Step Time =    1.000,"P-1-1",         11466,   172.402E-03,   151.452E-03,            0.,NA,NA,"",   1.01841E+06,   1.01514E+06,   1.01514E+06
C:/temp/Job-1.odb,Step-1,Increment      1: Step Time =    1.000,"P-1-1",         11467,   28.3688E-03,   48.2727E-03,            0.,NA,NA,"",   966.949E+03,   1.02262E+06,   1.02262E+06
C:/temp/Job-1.odb,Step-1,Increment      1: Step Time =    1.000,"P-1-1",         11468,   49.0128E-03,   171.848E-03,            0.,NA,NA,"",   1.04555E+06,   1.05376E+06,   1.05376E+06
C:/temp/Job-1.odb,Step-1,Increment      1: Step Time =    1.000,"P-1-1",         11469,   61.1725E-03,   117.705E-03,            0.,NA,NA,"",   945.875E+03,   954.643E+03,   954.643E+03
C:/temp/Job-1.odb,Step-1,Increment      1: Step Time =    1.000,"P-1-1",         11470,   153.513E-03,   29.2362E-03,            0.,NA,NA,"",   1.02458E+06,   1.01831E+06,   1.01831E+06
C:/temp/Job-1.odb,Step-1,Increment      1: Step Time =    1.000,"P-1-1",         11471,   170.867E-03,   151.892E-03,            0.,NA,NA,"",   1.02071E+06,   1.01658E+06,   1.01658E+06
C:/temp/Job-1.odb,Step-1,Increment      1: Step Time =    1.000,"P-1-1",         11472,   29.6366E-03,   47.4393E-03,            0.,NA,NA,"",   974.860E+03,   1.02720E+06,   1.02720E+06
C:/temp/Job-1.odb,Step-1,Increment      1: Step Time =    1.000,"P-1-1",         11473,   70.9531E-03,   71.1523E-03,            0.,NA,NA,"",   1.13598E+06,   1.11211E+06,   1.11211E+06
C:/temp/Job-1.odb,Step-1,Increment      1: Step Time =    1.000,"P-1-1",         11474,   58.4409E-03,   115.810E-03,            0.,NA,NA,"",   904.498E+03,   926.586E+03,   926.586E+03
C:/temp/Job-1.odb,Step-1,Increment      1: Step Time =    1.000,"P-1-1",         11475,   47.7426E-03,   170.255E-03,            0.,NA,NA,"",   1.04618E+06,   1.05616E+06,   1.05616E+06
C:/temp/Job-1.odb,Step-1,Increment      1: Step Time =    1.000,"P-1-1",         11476,   131.733E-03,   131.360E-03,            0.,NA,NA,"",   1.15032E+06,   1.10605E+06,   1.10605E+06
C:/temp/Job-1.odb,Step-1,Increment      1: Step Time =    1.000,"P-1-1",         11477,   153.392E-03,   175.908E-03,            0.,NA,NA,"",   1.01630E+06,   1.01175E+06,   1.01175E+06
C:/temp/Job-1.odb,Step-1,Increment      1: Step Time =    1.000,"P-1-1",         11478,   29.7748E-03,   60.5569E-03,            0.,NA,NA,"",   929.913E+03,   990.788E+03,   990.788E+03
C:/temp/Job-1.odb,Step-1,Increment      1: Step Time =    1.000,"P-1-1",         11479,   60.1814E-03,   170.515E-03,            0.,NA,NA,"",   1.04311E+06,   1.04672E+06,   1.04672E+06
C:/temp/Job-1.odb,Step-1,Increment      1: Step Time =    1.000,"P-1-1",         11480,   46.5112E-03,   25.1847E-03,            0.,NA,NA,"",   1.04429E+06,   1.05251E+06,   1.05251E+06
C:/temp/Job-1.odb,Step-1,Increment      1: Step Time =    1.000,"P-1-1",         11481,   176.216E-03,   45.7357E-03,            0.,NA,NA,"",   1.01293E+06,   1.01150E+06,   1.01150E+06
C:/temp/Job-1.odb,Step-1,Increment      1: Step Time =    1.000,"P-1-1",         11482,   121.812E-03,   26.8851E-03,            0.,NA,NA,"",   1.01120E+06,   1.01341E+06,   1.01341E+06
C:/temp/Job-1.odb,Step-1,Increment      1: Step Time =    1.000,"P-1-1",         11483,   172.558E-03,   121.274E-03,            0.,NA,NA,"",   983.945E+03,   990.804E+03,   990.804E+03
C:/temp/Job-1.odb,Step-1,Increment      1: Step Time =    1.000,"P-1-1",         11484,   27.7617E-03,   77.5763E-03,            0.,NA,NA,"",   859.924E+03,   933.847E+03,   933.847E+03
C:/temp/Job-1.odb,Step-1,Increment      1: Step Time =    1.000,"P-1-1",         11485,   78.1926E-03,   171.124E-03,            0.,NA,NA,"",   1.02196E+06,   1.02824E+06,   1.02824E+06
C:/temp/Job-1.odb,Step-1,Increment      1: Step Time =    1.000,"P-1-1",         11486,   122.915E-03,   30.4748E-03,            0.,NA,NA,"",   1.02099E+06,   1.02284E+06,   1.02284E+06
C:/temp/Job-1.odb,Step-1,Increment      1: Step Time =    1.000,"P-1-1",         11487,   169.692E-03,   123.363E-03,            0.,NA,NA,"",   989.557E+03,   993.082E+03,   993.082E+03
C:/temp/Job-1.odb,Step-1,Increment      1: Step Time =    1.000,"P-1-1",         11488,   30.7897E-03,   76.7128E-03,            0.,NA,NA,"",   871.016E+03,   940.093E+03,   940.093E+03
C:/temp/Job-1.odb,Step-1,Increment      1: Step Time =    1.000,"P-1-1",         11489,   77.1089E-03,   169.285E-03,            0.,NA,NA,"",   1.02780E+06,   1.03422E+06,   1.03422E+06
C:/temp/Job-1.odb,Step-1,Increment      1: Step Time =    1.000,"P-1-1",         11490,   28.8798E-03,   58.8523E-03,            0.,NA,NA,"",   932.345E+03,   993.893E+03,   993.893E+03
C:/temp/Job-1.odb,Step-1,Increment      1: Step Time =    1.000,"P-1-1",         11491,   57.6143E-03,   171.856E-03,            0.,NA,NA,"",   1.04220E+06,   1.04616E+06,   1.04616E+06
C:/temp/Job-1.odb,Step-1,Increment      1: Step Time =    1.000,"P-1-1",         11492,   172.332E-03,   45.0780E-03,            0.,NA,NA,"",   1.01819E+06,   1.01481E+06,   1.01481E+06
C:/temp/Job-1.odb,Step-1,Increment      1: Step Time =    1.000,"P-1-1",         11493,   44.7015E-03,   28.2892E-03,            0.,NA,NA,"",   1.04601E+06,   1.05770E+06,   1.05770E+06
C:/temp/Job-1.odb,Step-1,Increment      1: Step Time =    1.000,"P-1-1",         11494,   169.262E-03,   91.3855E-03,            0.,NA,NA,"",   956.438E+03,   968.011E+03,   968.011E+03
C:/temp/Job-1.odb,Step-1,Increment      1: Step Time =    1.000,"P-1-1",         11495,   154.091E-03,   172.852E-03,            0.,NA,NA,"",   1.02099E+06,   1.01549E+06,   1.01549E+06
C:/temp/Job-1.odb,Step-1,Increment      1: Step Time =    1.000,"P-1-1",         11496,   27.8967E-03,   154.677E-03,            0.,NA,NA,"",   976.034E+03,   1.03006E+06,   1.03006E+06
C:/temp/Job-1.odb,Step-1,Increment      1: Step Time =    1.000,"P-1-1",         11497,   169.399E-03,   44.0524E-03,            0.,NA,NA,"",   1.02227E+06,   1.01742E+06,   1.01742E+06
C:/temp/Job-1.odb,Step-1,Increment      1: Step Time =    1.000,"P-1-1",         11498,   42.6744E-03,   30.3760E-03,            0.,NA,NA,"",   1.04471E+06,   1.06006E+06,   1.06006E+06
C:/temp/Job-1.odb,Step-1,Increment      1: Step Time =    1.000,"P-1-1",         11499,   155.861E-03,   169.915E-03,            0.,NA,NA,"",   1.02469E+06,   1.01840E+06,   1.01840E+06
C:/temp/Job-1.odb,Step-1,Increment      1: Step Time =    1.000,"P-1-1",         11500,   29.9678E-03,   156.211E-03,            0.,NA,NA,"",   988.644E+03,   1.03713E+06,   1.03713E+06
C:/temp/Job-1.odb,Step-1,Increment      1: Step Time =    1.000,"P-1-1",         11501,   129.441E-03,   133.772E-03,            0.,NA,NA,"",   1.15634E+06,   1.11789E+06,   1.11789E+06
C:/temp/Job-1.odb,Step-1,Increment      1: Step Time =    1.000,"P-1-1",         11502,   62.0076E-03,   31.0923E-03,            0.,NA,NA,"",   1.04494E+06,   1.04853E+06,   1.04853E+06
C:/temp/Job-1.odb,Step-1,Increment      1: Step Time =    1.000,"P-1-1",         11503,   169.378E-03,   62.8322E-03,            0.,NA,NA,"",   1.01564E+06,   1.01252E+06,   1.01252E+06
C:/temp/Job-1.odb,Step-1,Increment      1: Step Time =    1.000,"P-1-1",         11504,   137.827E-03,   169.923E-03,            0.,NA,NA,"",   1.03046E+06,   1.02478E+06,   1.02478E+06
C:/temp/Job-1.odb,Step-1,Increment      1: Step Time =    1.000,"P-1-1",         11505,   31.1525E-03,   137.086E-03,            0.,NA,NA,"",   926.450E+03,   986.228E+03,   986.228E+03
C:/temp/Job-1.odb,Step-1,Increment      1: Step Time =    1.000,"P-1-1",         11506,   31.2826E-03,   52.0383E-03,            0.,NA,NA,"",   965.944E+03,   1.01812E+06,   1.01812E+06
C:/temp/Job-1.odb,Step-1,Increment      1: Step Time =    1.000,"P-1-1",         11507,   52.8553E-03,   168.859E-03,            0.,NA,NA,"",   1.04739E+06,   1.05437E+06,   1.05437E+06
C:/temp/Job-1.odb,Step-1,Increment      1: Step Time =    1.000,"P-1-1",         11508,   57.6494E-03,   82.9595E-03,            0.,NA,NA,"",   915.949E+03,   937.959E+03,   937.959E+03
C:/temp/Job-1.odb,Step-1,Increment      1: Step Time =    1.000,"P-1-1",         11509,   113.199E-03,   141.881E-03,            0.,NA,NA,"",   1.08582E+06,   1.10794E+06,   1.10794E+06
C:/temp/Job-1.odb,Step-1,Increment      1: Step Time =    1.000,"P-1-1",         11510,   128.933E-03,   31.7062E-03,            0.,NA,NA,"",   1.03026E+06,   1.02801E+06,   1.02801E+06
C:/temp/Job-1.odb,Step-1,Increment      1: Step Time =    1.000,"P-1-1",         11511,   169.738E-03,   127.735E-03,            0.,NA,NA,"",   999.428E+03,   1.00053E+06,   1.00053E+06
C:/temp/Job-1.odb,Step-1,Increment      1: Step Time =    1.000,"P-1-1",         11512,   167.070E-03,   115.634E-03,            0.,NA,NA,"",   969.291E+03,   975.948E+03,   975.948E+03
C:/temp/Job-1.odb,Step-1,Increment      1: Step Time =    1.000,"P-1-1",         11513,   30.9747E-03,   83.0969E-03,            0.,NA,NA,"",   848.670E+03,   920.746E+03,   920.746E+03
C:/temp/Job-1.odb,Step-1,Increment      1: Step Time =    1.000,"P-1-1",         11514,   83.6914E-03,   168.088E-03,            0.,NA,NA,"",   1.02030E+06,   1.03059E+06,   1.03059E+06
C:/temp/Job-1.odb,Step-1,Increment      1: Step Time =    1.000,"P-1-1",         11515,   71.9022E-03,   31.2785E-03,            0.,NA,NA,"",   1.03640E+06,   1.04098E+06,   1.04098E+06
C:/temp/Job-1.odb,Step-1,Increment      1: Step Time =    1.000,"P-1-1",         11516,   168.154E-03,   72.9322E-03,            0.,NA,NA,"",   999.610E+03,   999.716E+03,   999.716E+03
C:/temp/Job-1.odb,Step-1,Increment      1: Step Time =    1.000,"P-1-1",         11517,   76.2825E-03,   141.620E-03,            0.,NA,NA,"",   1.11421E+06,   1.11597E+06,   1.11597E+06
C:/temp/Job-1.odb,Step-1,Increment      1: Step Time =    1.000,"P-1-1",         11518,   140.619E-03,   122.924E-03,            0.,NA,NA,"",   1.05302E+06,   1.01901E+06,   1.01901E+06
C:/temp/Job-1.odb,Step-1,Increment      1: Step Time =    1.000,"P-1-1",         11519,   130.823E-03,   171.993E-03,            0.,NA,NA,"",   1.02199E+06,   1.01952E+06,   1.01952E+06
C:/temp/Job-1.odb,Step-1,Increment      1: Step Time =    1.000,"P-1-1",         11520,   28.6746E-03,   130.607E-03,            0.,NA,NA,"",   892.490E+03,   960.753E+03,   960.753E+03
C:/temp/Job-1.odb,Step-1,Increment      1: Step Time =    1.000,"P-1-1",         11521,   31.3268E-03,   63.4205E-03,            0.,NA,NA,"",    925.11E+03,   984.934E+03,   984.934E+03
C:/temp/Job-1.odb,Step-1,Increment      1: Step Time =    1.000,"P-1-1",         11522,   63.2695E-03,   167.621E-03,            0.,NA,NA,"",   1.04674E+06,   1.05041E+06,   1.05041E+06
C:/temp/Job-1.odb,Step-1,Increment      1: Step Time =    1.000,"P-1-1",         11523,   30.3560E-03,   67.7840E-03,            0.,NA,NA,"",   904.820E+03,   969.078E+03,   969.078E+03
C:/temp/Job-1.odb,Step-1,Increment      1: Step Time =    1.000,"P-1-1",         11524,   31.7528E-03,   70.9646E-03,            0.,NA,NA,"",   897.121E+03,   961.002E+03,   961.002E+03
C:/temp/Job-1.odb,Step-1,Increment      1: Step Time =    1.000,"P-1-1",         11525,   67.6972E-03,   169.028E-03,            0.,NA,NA,"",   1.04038E+06,   1.04394E+06,   1.04394E+06
C:/temp/Job-1.odb,Step-1,Increment      1: Step Time =    1.000,"P-1-1",         11526,   71.6365E-03,   167.803E-03,            0.,NA,NA,"",   1.03891E+06,   1.04358E+06,   1.04358E+06
C:/temp/Job-1.odb,Step-1,Increment      1: Step Time =    1.000,"P-1-1",         11527,   67.5437E-03,   70.3623E-03,            0.,NA,NA,"",   1.10557E+06,   1.08889E+06,   1.08889E+06
C:/temp/Job-1.odb,Step-1,Increment      1: Step Time =    1.000,"P-1-1",         11528,   133.079E-03,   128.516E-03,            0.,NA,NA,"",   1.13905E+06,   1.09121E+06,   1.09121E+06
C:/temp/Job-1.odb,Step-1,Increment      1: Step Time =    1.000,"P-1-1",         11529,   168.813E-03,   32.8643E-03,            0.,NA,NA,"",   1.01676E+06,   1.01290E+06,   1.01290E+06
C:/temp/Job-1.odb,Step-1,Increment      1: Step Time =    1.000,"P-1-1",         11530,   32.7516E-03,   30.1069E-03,            0.,NA,NA,"",   1.03749E+06,   1.06648E+06,   1.06648E+06
C:/temp/Job-1.odb,Step-1,Increment      1: Step Time =    1.000,"P-1-1",         11531,   166.820E-03,   169.347E-03,            0.,NA,NA,"",   1.01669E+06,   1.01267E+06,   1.01267E+06
C:/temp/Job-1.odb,Step-1,Increment      1: Step Time =    1.000,"P-1-1",         11532,   83.7990E-03,   29.9886E-03,            0.,NA,NA,"",   1.01624E+06,   1.02555E+06,   1.02555E+06
C:/temp/Job-1.odb,Step-1,Increment      1: Step Time =    1.000,"P-1-1",         11533,   30.9975E-03,   167.189E-03,            0.,NA,NA,"",   1.02730E+06,   1.06259E+06,   1.06259E+06
C:/temp/Job-1.odb,Step-1,Increment      1: Step Time =    1.000,"P-1-1",         11534,   114.327E-03,   167.348E-03,            0.,NA,NA,"",   1.01546E+06,   1.02425E+06,   1.02425E+06
C:/temp/Job-1.odb,Step-1,Increment      1: Step Time =    1.000,"P-1-1",         11535,   31.2236E-03,   114.360E-03,            0.,NA,NA,"",   840.966E+03,   913.892E+03,   913.892E+03
C:/temp/Job-1.odb,Step-1,Increment      1: Step Time =    1.000,"P-1-1",         11536,   86.1411E-03,   67.1791E-03,            0.,NA,NA,"",   1.15291E+06,   1.17525E+06,   1.17525E+06
C:/temp/Job-1.odb,Step-1,Increment      1: Step Time =    1.000,"P-1-1",         11537,   63.3963E-03,   70.9300E-03,            0.,NA,NA,"",   1.06904E+06,   1.06160E+06,   1.06160E+06
C:/temp/Job-1.odb,Step-1,Increment      1: Step Time =    1.000,"P-1-1",         11538,   68.4365E-03,   132.907E-03,            0.,NA,NA,"",   1.11637E+06,   1.10227E+06,   1.10227E+06
C:/temp/Job-1.odb,Step-1,Increment      1: Step Time =    1.000,"P-1-1",         11539,   108.531E-03,   30.6837E-03,            0.,NA,NA,"",   1.00545E+06,   1.01681E+06,   1.01681E+06
C:/temp/Job-1.odb,Step-1,Increment      1: Step Time =    1.000,"P-1-1",         11540,   169.454E-03,   108.304E-03,            0.,NA,NA,"",   956.134E+03,   967.963E+03,   967.963E+03
C:/temp/Job-1.odb,Step-1,Increment      1: Step Time =    1.000,"P-1-1",         11541,   30.2837E-03,   91.8724E-03,            0.,NA,NA,"",   824.354E+03,   900.589E+03,   900.589E+03
C:/temp/Job-1.odb,Step-1,Increment      1: Step Time =    1.000,"P-1-1",         11542,   91.1939E-03,   169.509E-03,            0.,NA,NA,"",   1.00729E+06,   1.01999E+06,   1.01999E+06
C:/temp/Job-1.odb,Step-1,Increment      1: Step Time =    1.000,"P-1-1",         11543,   169.172E-03,   37.5058E-03,            0.,NA,NA,"",   1.01931E+06,   1.01500E+06,   1.01500E+06
C:/temp/Job-1.odb,Step-1,Increment      1: Step Time =    1.000,"P-1-1",         11544,   65.3087E-03,   132.230E-03,            0.,NA,NA,"",   1.09331E+06,   1.08323E+06,   1.08323E+06
C:/temp/Job-1.odb,Step-1,Increment      1: Step Time =    1.000,"P-1-1",         11545,   37.4370E-03,   29.1162E-03,            0.,NA,NA,"",   1.04356E+06,   1.06420E+06,   1.06420E+06
C:/temp/Job-1.odb,Step-1,Increment      1: Step Time =    1.000,"P-1-1",         11546,   81.4500E-03,   29.8462E-03,            0.,NA,NA,"",   1.01933E+06,   1.02741E+06,   1.02741E+06
C:/temp/Job-1.odb,Step-1,Increment      1: Step Time =    1.000,"P-1-1",         11547,   29.9362E-03,   162.124E-03,            0.,NA,NA,"",   1.00814E+06,   1.05132E+06,   1.05132E+06
C:/temp/Job-1.odb,Step-1,Increment      1: Step Time =    1.000,"P-1-1",         11548,   168.851E-03,   80.7347E-03,            0.,NA,NA,"",   979.638E+03,   985.070E+03,   985.070E+03
C:/temp/Job-1.odb,Step-1,Increment      1: Step Time =    1.000,"P-1-1",         11549,   168.961E-03,   163.798E-03,            0.,NA,NA,"",   1.01880E+06,   1.01456E+06,   1.01456E+06
C:/temp/Job-1.odb,Step-1,Increment      1: Step Time =    1.000,"P-1-1",         11550,   31.2715E-03,   36.6274E-03,            0.,NA,NA,"",   1.01616E+06,   1.05512E+06,   1.05512E+06
C:/temp/Job-1.odb,Step-1,Increment      1: Step Time =    1.000,"P-1-1",         11551,   133.545E-03,   31.1209E-03,            0.,NA,NA,"",   1.03170E+06,   1.02721E+06,   1.02721E+06
C:/temp/Job-1.odb,Step-1,Increment      1: Step Time =    1.000,"P-1-1",         11552,   169.542E-03,   134.192E-03,            0.,NA,NA,"",   1.01127E+06,   1.00931E+06,   1.00931E+06
C:/temp/Job-1.odb,Step-1,Increment      1: Step Time =    1.000,"P-1-1",         11553,   29.0577E-03,   151.762E-03,            0.,NA,NA,"",   969.981E+03,   1.02405E+06,   1.02405E+06
C:/temp/Job-1.odb,Step-1,Increment      1: Step Time =    1.000,"P-1-1",         11554,   151.667E-03,   172.154E-03,            0.,NA,NA,"",   1.02337E+06,   1.01739E+06,   1.01739E+06
C:/temp/Job-1.odb,Step-1,Increment      1: Step Time =    1.000,"P-1-1",         11555,   58.6329E-03,   92.9156E-03,            0.,NA,NA,"",   788.319E+03,   830.360E+03,   830.360E+03
C:/temp/Job-1.odb,Step-1,Increment      1: Step Time =    1.000,"P-1-1",         11556,   149.739E-03,   29.2491E-03,            0.,NA,NA,"",   1.02666E+06,   1.02005E+06,   1.02005E+06
C:/temp/Job-1.odb,Step-1,Increment      1: Step Time =    1.000,"P-1-1",         11557,   117.081E-03,   168.723E-03,            0.,NA,NA,"",   1.01602E+06,   1.02217E+06,   1.02217E+06
C:/temp/Job-1.odb,Step-1,Increment      1: Step Time =    1.000,"P-1-1",         11558,   171.634E-03,   148.897E-03,            0.,NA,NA,"",   1.01930E+06,   1.01578E+06,   1.01578E+06
C:/temp/Job-1.odb,Step-1,Increment      1: Step Time =    1.000,"P-1-1",         11559,   47.8580E-03,   28.3549E-03,            0.,NA,NA,"",   1.04572E+06,   1.05477E+06,   1.05477E+06
C:/temp/Job-1.odb,Step-1,Increment      1: Step Time =    1.000,"P-1-1",         11560,   31.4634E-03,   117.210E-03,            0.,NA,NA,"",   850.711E+03,   921.929E+03,   921.929E+03
C:/temp/Job-1.odb,Step-1,Increment      1: Step Time =    1.000,"P-1-1",         11561,   172.181E-03,   48.5552E-03,            0.,NA,NA,"",   1.01873E+06,   1.01535E+06,   1.01535E+06
C:/temp/Job-1.odb,Step-1,Increment      1: Step Time =    1.000,"P-1-1",         11562,   165.216E-03,   30.7815E-03,            0.,NA,NA,"",   1.01807E+06,   1.01364E+06,   1.01364E+06
C:/temp/Job-1.odb,Step-1,Increment      1: Step Time =    1.000,"P-1-1",         11563,   161.745E-03,   31.7668E-03,            0.,NA,NA,"",   1.02218E+06,   1.01661E+06,   1.01661E+06
C:/temp/Job-1.odb,Step-1,Increment      1: Step Time =    1.000,"P-1-1",         11564,   168.239E-03,   31.7917E-03,            0.,NA,NA,"",   1.01658E+06,   1.01269E+06,   1.01269E+06
C:/temp/Job-1.odb,Step-1,Increment      1: Step Time =    1.000,"P-1-1",         11565,   169.535E-03,   57.1938E-03,            0.,NA,NA,"",   1.02059E+06,   1.01629E+06,   1.01629E+06
C:/temp/Job-1.odb,Step-1,Increment      1: Step Time =    1.000,"P-1-1",         11566,   55.5048E-03,   30.9501E-03,            0.,NA,NA,"",   1.04698E+06,   1.05242E+06,   1.05242E+06
C:/temp/Job-1.odb,Step-1,Increment      1: Step Time =    1.000,"P-1-1",         11567,   138.926E-03,   31.0427E-03,            0.,NA,NA,"",   1.03292E+06,   1.02659E+06,   1.02659E+06
C:/temp/Job-1.odb,Step-1,Increment      1: Step Time =    1.000,"P-1-1",         11568,   167.581E-03,   139.773E-03,            0.,NA,NA,"",   1.02158E+06,   1.01635E+06,   1.01635E+06
C:/temp/Job-1.odb,Step-1,Increment      1: Step Time =    1.000,"P-1-1",         11569,   114.218E-03,   31.0116E-03,            0.,NA,NA,"",   1.01193E+06,   1.01998E+06,   1.01998E+06
C:/temp/Job-1.odb,Step-1,Increment      1: Step Time =    1.000,"P-1-1",         11570,   28.3539E-03,   133.815E-03,            0.,NA,NA,"",   903.341E+03,   970.257E+03,   970.257E+03
C:/temp/Job-1.odb,Step-1,Increment      1: Step Time =    1.000,"P-1-1",         11571,   134.138E-03,   171.998E-03,            0.,NA,NA,"",   1.02395E+06,   1.02017E+06,   1.02017E+06
C:/temp/Job-1.odb,Step-1,Increment      1: Step Time =    1.000,"P-1-1",         11572,   166.973E-03,   112.689E-03,            0.,NA,NA,"",   961.828E+03,   970.231E+03,   970.231E+03
C:/temp/Job-1.odb,Step-1,Increment      1: Step Time =    1.000,"P-1-1",         11573,   167.961E-03,   168.722E-03,            0.,NA,NA,"",   1.01633E+06,   1.01248E+06,   1.01248E+06
C:/temp/Job-1.odb,Step-1,Increment      1: Step Time =    1.000,"P-1-1",         11574,   31.6005E-03,   86.8082E-03,            0.,NA,NA,"",   838.133E+03,   911.057E+03,   911.057E+03
C:/temp/Job-1.odb,Step-1,Increment      1: Step Time =    1.000,"P-1-1",         11575,   31.5118E-03,   30.6406E-03,            0.,NA,NA,"",   1.03493E+06,   1.06647E+06,   1.06647E+06
C:/temp/Job-1.odb,Step-1,Increment      1: Step Time =    1.000,"P-1-1",         11576,   86.5264E-03,   167.864E-03,            0.,NA,NA,"",   1.01618E+06,   1.02808E+06,   1.02808E+06
C:/temp/Job-1.odb,Step-1,Increment      1: Step Time =    1.000,"P-1-1",         11577,   83.6556E-03,   143.297E-03,            0.,NA,NA,"",   1.08987E+06,   1.10912E+06,   1.10912E+06
C:/temp/Job-1.odb,Step-1,Increment      1: Step Time =    1.000,"P-1-1",         11578,   172.476E-03,   66.0600E-03,            0.,NA,NA,"",   1.00657E+06,   1.00713E+06,   1.00713E+06
C:/temp/Job-1.odb,Step-1,Increment      1: Step Time =    1.000,"P-1-1",         11579,   66.2068E-03,   29.4671E-03,            0.,NA,NA,"",   1.03843E+06,   1.04160E+06,   1.04160E+06
C:/temp/Job-1.odb,Step-1,Increment      1: Step Time =    1.000,"P-1-1",         11580,   109.521E-03,   142.428E-03,            0.,NA,NA,"",   1.06390E+06,   1.09839E+06,   1.09839E+06
C:/temp/Job-1.odb,Step-1,Increment      1: Step Time =    1.000,"P-1-1",         11581,   171.996E-03,   101.108E-03,            0.,NA,NA,"",   954.146E+03,   968.646E+03,   968.646E+03
C:/temp/Job-1.odb,Step-1,Increment      1: Step Time =    1.000,"P-1-1",         11582,   168.723E-03,   53.4127E-03,            0.,NA,NA,"",   1.02384E+06,   1.01853E+06,   1.01853E+06
C:/temp/Job-1.odb,Step-1,Increment      1: Step Time =    1.000,"P-1-1",         11583,   52.8082E-03,   31.9822E-03,            0.,NA,NA,"",   1.04805E+06,   1.05544E+06,   1.05544E+06
C:/temp/Job-1.odb,Step-1,Increment      1: Step Time =    1.000,"P-1-1",         11584,   145.846E-03,   167.482E-03,            0.,NA,NA,"",   1.03506E+06,   1.02704E+06,   1.02704E+06
C:/temp/Job-1.odb,Step-1,Increment      1: Step Time =    1.000,"P-1-1",         11585,   31.6810E-03,   146.682E-03,            0.,NA,NA,"",   962.812E+03,   1.01529E+06,   1.01529E+06
C:/temp/Job-1.odb,Step-1,Increment      1: Step Time =    1.000,"P-1-1",         11586,   89.5102E-03,   141.932E-03,            0.,NA,NA,"",   1.06865E+06,   1.10560E+06,   1.10560E+06
C:/temp/Job-1.odb,Step-1,Increment      1: Step Time =    1.000,"P-1-1",         11587,   86.8596E-03,   143.968E-03,            0.,NA,NA,"",   1.07305E+06,   1.10101E+06,   1.10101E+06
C:/temp/Job-1.odb,Step-1,Increment      1: Step Time =    1.000,"P-1-1",         11588,   114.440E-03,   142.405E-03,            0.,NA,NA,"",   1.08949E+06,   1.10713E+06,   1.10713E+06
C:/temp/Job-1.odb,Step-1,Increment      1: Step Time =    1.000,"P-1-1",         11589,   172.592E-03,   132.032E-03,            0.,NA,NA,"",   1.00360E+06,   1.00507E+06,   1.00507E+06
C:/temp/Job-1.odb,Step-1,Increment      1: Step Time =    1.000,"P-1-1",         11590,   132.044E-03,   28.5266E-03,            0.,NA,NA,"",   1.02410E+06,   1.02104E+06,   1.02104E+06
C:/temp/Job-1.odb,Step-1,Increment      1: Step Time =    1.000,"P-1-1",         11591,   168.619E-03,   165.783E-03,            0.,NA,NA,"",   1.01780E+06,   1.01372E+06,   1.01372E+06
C:/temp/Job-1.odb,Step-1,Increment      1: Step Time =    1.000,"P-1-1",         11592,   30.8583E-03,   33.7704E-03,            0.,NA,NA,"",   1.02417E+06,   1.06080E+06,   1.06080E+06
C:/temp/Job-1.odb,Step-1,Increment      1: Step Time =    1.000,"P-1-1",         11593,   55.9097E-03,   171.959E-03,            0.,NA,NA,"",   1.04281E+06,   1.04723E+06,   1.04723E+06
C:/temp/Job-1.odb,Step-1,Increment      1: Step Time =    1.000,"P-1-1",         11594,   28.5616E-03,   56.9888E-03,            0.,NA,NA,"",   937.572E+03,   998.550E+03,   998.550E+03
C:/temp/Job-1.odb,Step-1,Increment      1: Step Time =    1.000,"P-1-1",         11595,   60.0742E-03,   94.6957E-03,            0.,NA,NA,"",   760.663E+03,   804.411E+03,   804.411E+03
C:/temp/Job-1.odb,Step-1,Increment      1: Step Time =    1.000,"P-1-1",         11596,   57.8135E-03,   97.2607E-03,            0.,NA,NA,"",   756.815E+03,   806.332E+03,   806.332E+03
C:/temp/Job-1.odb,Step-1,Increment      1: Step Time =    1.000,"P-1-1",         11597,   76.4537E-03,   29.6676E-03,            0.,NA,NA,"",   1.02616E+06,   1.03207E+06,   1.03207E+06
C:/temp/Job-1.odb,Step-1,Increment      1: Step Time =    1.000,"P-1-1",         11598,   170.331E-03,   77.1704E-03,            0.,NA,NA,"",   988.032E+03,   992.370E+03,   992.370E+03
C:/temp/Job-1.odb,Step-1,Increment      1: Step Time =    1.000,"P-1-1",         11599,   94.3120E-03,   28.8034E-03,            0.,NA,NA,"",   1.00149E+06,   1.01368E+06,   1.01368E+06
C:/temp/Job-1.odb,Step-1,Increment      1: Step Time =    1.000,"P-1-1",         11600,   27.7463E-03,   107.203E-03,            0.,NA,NA,"",   819.817E+03,   899.133E+03,   899.133E+03
C:/temp/Job-1.odb,Step-1,Increment      1: Step Time =    1.000,"P-1-1",         11601,   63.0263E-03,   126.402E-03,            0.,NA,NA,"",   1.05122E+06,   1.04457E+06,   1.04457E+06
C:/temp/Job-1.odb,Step-1,Increment      1: Step Time =    1.000,"P-1-1",         11602,   80.2178E-03,   143.410E-03,            0.,NA,NA,"",   1.09939E+06,   1.11036E+06,   1.11036E+06
C:/temp/Job-1.odb,Step-1,Increment      1: Step Time =    1.000,"P-1-1",         11603,   77.8023E-03,   142.183E-03,            0.,NA,NA,"",   1.11015E+06,   1.11532E+06,   1.11532E+06
C:/temp/Job-1.odb,Step-1,Increment      1: Step Time =    1.000,"P-1-1",         11604,   100.135E-03,   27.4574E-03,            0.,NA,NA,"",   997.088E+03,   1.00841E+06,   1.00841E+06
C:/temp/Job-1.odb,Step-1,Increment      1: Step Time =    1.000,"P-1-1",         11605,   29.0819E-03,   100.001E-03,            0.,NA,NA,"",   815.496E+03,   894.098E+03,   894.098E+03
C:/temp/Job-1.odb,Step-1,Increment      1: Step Time =    1.000,"P-1-1",         11606,   99.1667E-03,   172.303E-03,            0.,NA,NA,"",   997.492E+03,   1.00910E+06,   1.00910E+06
C:/temp/Job-1.odb,Step-1,Increment      1: Step Time =    1.000,"P-1-1",         11607,   134.856E-03,   77.4943E-03,            0.,NA,NA,"",   1.09235E+06,   1.04404E+06,   1.04404E+06
C:/temp/Job-1.odb,Step-1,Increment      1: Step Time =    1.000,"P-1-1",         11608,   96.9861E-03,   170.579E-03,            0.,NA,NA,"",   1.00097E+06,   1.01396E+06,   1.01396E+06
C:/temp/Job-1.odb,Step-1,Increment      1: Step Time =    1.000,"P-1-1",         11609,   169.729E-03,   103.632E-03,            0.,NA,NA,"",   951.032E+03,   964.366E+03,   964.366E+03
C:/temp/Job-1.odb,Step-1,Increment      1: Step Time =    1.000,"P-1-1",         11610,   28.9589E-03,   96.7807E-03,            0.,NA,NA,"",   816.708E+03,   895.301E+03,   895.301E+03
C:/temp/Job-1.odb,Step-1,Increment      1: Step Time =    1.000,"P-1-1",         11611,   103.004E-03,   30.1342E-03,            0.,NA,NA,"",   1.00141E+06,   1.01443E+06,   1.01443E+06
C:/temp/Job-1.odb,Step-1,Increment      1: Step Time =    1.000,"P-1-1",         11612,   65.0499E-03,   128.800E-03,            0.,NA,NA,"",   1.08162E+06,   1.06992E+06,   1.06992E+06
C:/temp/Job-1.odb,Step-1,Increment      1: Step Time =    1.000,"P-1-1",         11613,   29.2362E-03,   126.092E-03,            0.,NA,NA,"",   877.117E+03,   947.023E+03,   947.023E+03
C:/temp/Job-1.odb,Step-1,Increment      1: Step Time =    1.000,"P-1-1",         11614,   126.335E-03,   169.429E-03,            0.,NA,NA,"",   1.02505E+06,   1.02456E+06,   1.02456E+06
C:/temp/Job-1.odb,Step-1,Increment      1: Step Time =    1.000,"P-1-1",         11615,   122.362E-03,   138.760E-03,            0.,NA,NA,"",   1.14105E+06,   1.12686E+06,   1.12686E+06
C:/temp/Job-1.odb,Step-1,Increment      1: Step Time =    1.000,"P-1-1",         11616,   123.624E-03,   135.554E-03,            0.,NA,NA,"",   1.16296E+06,   1.13786E+06,   1.13786E+06
C:/temp/Job-1.odb,Step-1,Increment      1: Step Time =    1.000,"P-1-1",         11617,   156.141E-03,   31.2537E-03,            0.,NA,NA,"",   1.02618E+06,   1.01955E+06,   1.01955E+06
C:/temp/Job-1.odb,Step-1,Increment      1: Step Time =    1.000,"P-1-1",         11618,   168.446E-03,   153.360E-03,            0.,NA,NA,"",   1.02451E+06,   1.01899E+06,   1.01899E+06
C:/temp/Job-1.odb,Step-1,Increment      1: Step Time =    1.000,"P-1-1",         11619,   29.8187E-03,   45.9304E-03,            0.,NA,NA,"",   981.051E+03,   1.03167E+06,   1.03167E+06
C:/temp/Job-1.odb,Step-1,Increment      1: Step Time =    1.000,"P-1-1",         11620,   45.4101E-03,   168.336E-03,            0.,NA,NA,"",   1.04549E+06,   1.05883E+06,   1.05883E+06
C:/temp/Job-1.odb,Step-1,Increment      1: Step Time =    1.000,"P-1-1",         11621,   96.4945E-03,   67.6096E-03,            0.,NA,NA,"",   1.07469E+06,   1.15296E+06,   1.15296E+06
C:/temp/Job-1.odb,Step-1,Increment      1: Step Time =    1.000,"P-1-1",         11622,   125.363E-03,   78.7354E-03,            0.,NA,NA,"",   1.19820E+06,   1.12128E+06,   1.12128E+06
C:/temp/Job-1.odb,Step-1,Increment      1: Step Time =    1.000,"P-1-1",         11623,   27.1557E-03,   152.150E-03,            0.,NA,NA,"",   964.299E+03,   1.02189E+06,   1.02189E+06
C:/temp/Job-1.odb,Step-1,Increment      1: Step Time =    1.000,"P-1-1",         11624,   60.7571E-03,   93.1244E-03,            0.,NA,NA,"",   776.739E+03,   815.694E+03,   815.694E+03
C:/temp/Job-1.odb,Step-1,Increment      1: Step Time =    1.000,"P-1-1",         11625,   145.256E-03,   119.790E-03,            0.,NA,NA,"",   1.00407E+06,   983.760E+03,   983.760E+03
C:/temp/Job-1.odb,Step-1,Increment      1: Step Time =    1.000,"P-1-1",         11626,   142.821E-03,   94.4559E-03,            0.,NA,NA,"",   846.673E+03,   854.141E+03,   854.141E+03
C:/temp/Job-1.odb,Step-1,Increment      1: Step Time =    1.000,"P-1-1",         11627,   116.968E-03,   80.4687E-03,            0.,NA,NA,"",   1.32437E+06,   1.24616E+06,   1.24616E+06
C:/temp/Job-1.odb,Step-1,Increment      1: Step Time =    1.000,"P-1-1",         11628,   167.597E-03,   74.8906E-03,            0.,NA,NA,"",   995.387E+03,   996.152E+03,   996.152E+03
C:/temp/Job-1.odb,Step-1,Increment      1: Step Time =    1.000,"P-1-1",         11629,   74.6614E-03,   32.1770E-03,            0.,NA,NA,"",   1.03499E+06,   1.04078E+06,   1.04078E+06
C:/temp/Job-1.odb,Step-1,Increment      1: Step Time =    1.000,"P-1-1",         11630,   126.756E-03,   77.2494E-03,            0.,NA,NA,"",   1.18481E+06,   1.11499E+06,   1.11499E+06
C:/temp/Job-1.odb,Step-1,Increment      1: Step Time =    1.000,"P-1-1",         11631,   80.8541E-03,   70.4941E-03,            0.,NA,NA,"",   1.19928E+06,   1.18602E+06,   1.18602E+06
C:/temp/Job-1.odb,Step-1,Increment      1: Step Time =    1.000,"P-1-1",         11632,   120.399E-03,   78.9156E-03,            0.,NA,NA,"",   1.27044E+06,   1.19016E+06,   1.19016E+06
C:/temp/Job-1.odb,Step-1,Increment      1: Step Time =    1.000,"P-1-1",         11633,   168.054E-03,   119.214E-03,            0.,NA,NA,"",   979.673E+03,   984.528E+03,   984.528E+03
C:/temp/Job-1.odb,Step-1,Increment      1: Step Time =    1.000,"P-1-1",         11634,   30.7910E-03,   80.5346E-03,            0.,NA,NA,"",   857.058E+03,   928.146E+03,   928.146E+03
C:/temp/Job-1.odb,Step-1,Increment      1: Step Time =    1.000,"P-1-1",         11635,   81.1408E-03,   167.238E-03,            0.,NA,NA,"",   1.02625E+06,   1.03551E+06,   1.03551E+06
C:/temp/Job-1.odb,Step-1,Increment      1: Step Time =    1.000,"P-1-1",         11636,   158.382E-03,   30.8754E-03,            0.,NA,NA,"",   1.02384E+06,   1.01778E+06,   1.01778E+06
C:/temp/Job-1.odb,Step-1,Increment      1: Step Time =    1.000,"P-1-1",         11637,   168.900E-03,   157.646E-03,            0.,NA,NA,"",   1.02236E+06,   1.01738E+06,   1.01738E+06
C:/temp/Job-1.odb,Step-1,Increment      1: Step Time =    1.000,"P-1-1",         11638,   30.9022E-03,   43.1414E-03,            0.,NA,NA,"",   994.072E+03,   1.04009E+06,   1.04009E+06
C:/temp/Job-1.odb,Step-1,Increment      1: Step Time =    1.000,"P-1-1",         11639,   43.5573E-03,   168.490E-03,            0.,NA,NA,"",   1.04451E+06,   1.05971E+06,   1.05971E+06
C:/temp/Job-1.odb,Step-1,Increment      1: Step Time =    1.000,"P-1-1",         11640,   70.3989E-03,   132.744E-03,            0.,NA,NA,"",   1.12941E+06,   1.11318E+06,   1.11318E+06
C:/temp/Job-1.odb,Step-1,Increment      1: Step Time =    1.000,"P-1-1",         11641,   31.1697E-03,   170.338E-03,            0.,NA,NA,"",   1.03720E+06,   1.06848E+06,   1.06848E+06
C:/temp/Job-1.odb,Step-1,Increment      1: Step Time =    1.000,"P-1-1",         11642,   124.510E-03,   136.685E-03,            0.,NA,NA,"",   1.15533E+06,   1.13088E+06,   1.13088E+06
C:/temp/Job-1.odb,Step-1,Increment      1: Step Time =    1.000,"P-1-1",         11643,   56.9161E-03,   101.895E-03,            0.,NA,NA,"",   761.317E+03,   812.071E+03,   812.071E+03
C:/temp/Job-1.odb,Step-1,Increment      1: Step Time =    1.000,"P-1-1",         11644,   79.4008E-03,   29.1936E-03,            0.,NA,NA,"",   1.02085E+06,   1.02777E+06,   1.02777E+06
C:/temp/Job-1.odb,Step-1,Increment      1: Step Time =    1.000,"P-1-1",         11645,   142.207E-03,   121.607E-03,            0.,NA,NA,"",   1.03255E+06,   1.00347E+06,   1.00347E+06
C:/temp/Job-1.odb,Step-1,Increment      1: Step Time =    1.000,"P-1-1",         11646,   98.0745E-03,   143.392E-03,            0.,NA,NA,"",   1.03311E+06,   1.08328E+06,   1.08328E+06
C:/temp/Job-1.odb,Step-1,Increment      1: Step Time =    1.000,"P-1-1",         11647,   142.148E-03,   167.327E-03,            0.,NA,NA,"",   1.03681E+06,   1.02906E+06,   1.02906E+06
C:/temp/Job-1.odb,Step-1,Increment      1: Step Time =    1.000,"P-1-1",         11648,   32.3514E-03,   140.689E-03,            0.,NA,NA,"",   944.481E+03,   999.692E+03,   999.692E+03
C:/temp/Job-1.odb,Step-1,Increment      1: Step Time =    1.000,"P-1-1",         11649,   97.6593E-03,   71.2450E-03,            0.,NA,NA,"",   1.09882E+06,   1.19432E+06,   1.19432E+06
C:/temp/Job-1.odb,Step-1,Increment      1: Step Time =    1.000,"P-1-1",         11650,   93.3744E-03,   66.1175E-03,            0.,NA,NA,"",   1.08680E+06,   1.14897E+06,   1.14897E+06
C:/temp/Job-1.odb,Step-1,Increment      1: Step Time =    1.000,"P-1-1",         11651,   171.212E-03,   133.000E-03,            0.,NA,NA,"",   1.00692E+06,   1.00685E+06,   1.00685E+06
C:/temp/Job-1.odb,Step-1,Increment      1: Step Time =    1.000,"P-1-1",         11652,   132.768E-03,   29.8162E-03,            0.,NA,NA,"",   1.02778E+06,   1.02406E+06,   1.02406E+06
C:/temp/Job-1.odb,Step-1,Increment      1: Step Time =    1.000,"P-1-1",         11653,   133.261E-03,   27.5291E-03,            0.,NA,NA,"",   1.02234E+06,   1.01903E+06,   1.01903E+06
C:/temp/Job-1.odb,Step-1,Increment      1: Step Time =    1.000,"P-1-1",         11654,   173.628E-03,   133.062E-03,            0.,NA,NA,"",   1.00382E+06,   1.00566E+06,   1.00566E+06
C:/temp/Job-1.odb,Step-1,Increment      1: Step Time =    1.000,"P-1-1",         11655,   97.4821E-03,   171.870E-03,            0.,NA,NA,"",   998.626E+03,   1.01060E+06,   1.01060E+06
C:/temp/Job-1.odb,Step-1,Increment      1: Step Time =    1.000,"P-1-1",         11656,   27.5264E-03,   97.3596E-03,            0.,NA,NA,"",   815.086E+03,   895.193E+03,   895.193E+03
C:/temp/Job-1.odb,Step-1,Increment      1: Step Time =    1.000,"P-1-1",         11657,   102.541E-03,   28.1611E-03,            0.,NA,NA,"",   998.208E+03,   1.00987E+06,   1.00987E+06
C:/temp/Job-1.odb,Step-1,Increment      1: Step Time =    1.000,"P-1-1",         11658,   91.1520E-03,   143.089E-03,            0.,NA,NA,"",   1.05656E+06,   1.09648E+06,   1.09648E+06
C:/temp/Job-1.odb,Step-1,Increment      1: Step Time =    1.000,"P-1-1",         11659,   135.948E-03,   82.0520E-03,            0.,NA,NA,"",   1.03018E+06,   989.439E+03,   989.439E+03
C:/temp/Job-1.odb,Step-1,Increment      1: Step Time =    1.000,"P-1-1",         11660,   171.018E-03,   87.7237E-03,            0.,NA,NA,"",   965.060E+03,   975.832E+03,   975.832E+03
C:/temp/Job-1.odb,Step-1,Increment      1: Step Time =    1.000,"P-1-1",         11661,   173.391E-03,   67.5031E-03,            0.,NA,NA,"",   1.00329E+06,   1.00520E+06,   1.00520E+06
C:/temp/Job-1.odb,Step-1,Increment      1: Step Time =    1.000,"P-1-1",         11662,   68.0098E-03,   28.5914E-03,            0.,NA,NA,"",   1.03456E+06,   1.03775E+06,   1.03775E+06
C:/temp/Job-1.odb,Step-1,Increment      1: Step Time =    1.000,"P-1-1",         11663,   61.1593E-03,   121.436E-03,            0.,NA,NA,"",   991.683E+03,   994.443E+03,   994.443E+03
C:/temp/Job-1.odb,Step-1,Increment      1: Step Time =    1.000,"P-1-1",         11664,   66.7370E-03,   95.7313E-03,            0.,NA,NA,"",   689.743E+03,   726.158E+03,   726.158E+03
C:/temp/Job-1.odb,Step-1,Increment      1: Step Time =    1.000,"P-1-1",         11665,   57.7240E-03,   111.112E-03,            0.,NA,NA,"",   840.626E+03,   875.388E+03,   875.388E+03
C:/temp/Job-1.odb,Step-1,Increment      1: Step Time =    1.000,"P-1-1",         11666,   73.5330E-03,   137.275E-03,            0.,NA,NA,"",   1.13092E+06,   1.12286E+06,   1.12286E+06
C:/temp/Job-1.odb,Step-1,Increment      1: Step Time =    1.000,"P-1-1",         11667,   57.1445E-03,   105.423E-03,            0.,NA,NA,"",   779.519E+03,   826.519E+03,   826.519E+03
C:/temp/Job-1.odb,Step-1,Increment      1: Step Time =    1.000,"P-1-1",         11668,   57.1065E-03,   108.983E-03,            0.,NA,NA,"",   815.193E+03,   855.825E+03,   855.825E+03
C:/temp/Job-1.odb,Step-1,Increment      1: Step Time =    1.000,"P-1-1",         11669,   169.422E-03,   42.7016E-03,            0.,NA,NA,"",   1.02163E+06,   1.01691E+06,   1.01691E+06
C:/temp/Job-1.odb,Step-1,Increment      1: Step Time =    1.000,"P-1-1",         11670,   40.8313E-03,   30.5923E-03,            0.,NA,NA,"",   1.04377E+06,   1.06133E+06,   1.06133E+06
C:/temp/Job-1.odb,Step-1,Increment      1: Step Time =    1.000,"P-1-1",         11671,   157.480E-03,   168.720E-03,            0.,NA,NA,"",   1.02526E+06,   1.01885E+06,   1.01885E+06
C:/temp/Job-1.odb,Step-1,Increment      1: Step Time =    1.000,"P-1-1",         11672,   31.3308E-03,   72.3914E-03,            0.,NA,NA,"",   890.033E+03,   955.539E+03,   955.539E+03
C:/temp/Job-1.odb,Step-1,Increment      1: Step Time =    1.000,"P-1-1",         11673,   30.6955E-03,   157.663E-03,            0.,NA,NA,"",   995.943E+03,   1.04170E+06,   1.04170E+06
C:/temp/Job-1.odb,Step-1,Increment      1: Step Time =    1.000,"P-1-1",         11674,   73.0016E-03,   168.318E-03,            0.,NA,NA,"",   1.03599E+06,   1.04105E+06,   1.04105E+06
C:/temp/Job-1.odb,Step-1,Increment      1: Step Time =    1.000,"P-1-1",         11675,   77.8476E-03,   27.5715E-03,            0.,NA,NA,"",   1.01923E+06,   1.02490E+06,   1.02490E+06
C:/temp/Job-1.odb,Step-1,Increment      1: Step Time =    1.000,"P-1-1",         11676,   57.2953E-03,   114.892E-03,            0.,NA,NA,"",   887.841E+03,   915.254E+03,   915.254E+03
C:/temp/Job-1.odb,Step-1,Increment      1: Step Time =    1.000,"P-1-1",         11677,   172.442E-03,   77.9490E-03,            0.,NA,NA,"",   985.545E+03,   991.990E+03,   991.990E+03
C:/temp/Job-1.odb,Step-1,Increment      1: Step Time =    1.000,"P-1-1",         11678,   144.752E-03,   116.721E-03,            0.,NA,NA,"",   974.326E+03,   958.650E+03,   958.650E+03
C:/temp/Job-1.odb,Step-1,Increment      1: Step Time =    1.000,"P-1-1",         11679,   134.835E-03,   78.9285E-03,            0.,NA,NA,"",   1.07928E+06,   1.03125E+06,   1.03125E+06
C:/temp/Job-1.odb,Step-1,Increment      1: Step Time =    1.000,"P-1-1",         11680,   121.437E-03,   139.897E-03,            0.,NA,NA,"",   1.13157E+06,   1.12233E+06,   1.12233E+06
C:/temp/Job-1.odb,Step-1,Increment      1: Step Time =    1.000,"P-1-1",         11681,   139.960E-03,   92.5930E-03,            0.,NA,NA,"",   850.316E+03,   851.569E+03,   851.569E+03
C:/temp/Job-1.odb,Step-1,Increment      1: Step Time =    1.000,"P-1-1",         11682,   127.522E-03,   136.119E-03,            0.,NA,NA,"",   1.15260E+06,   1.12145E+06,   1.12145E+06
C:/temp/Job-1.odb,Step-1,Increment      1: Step Time =    1.000,"P-1-1",         11683,   57.5571E-03,   98.7787E-03,            0.,NA,NA,"",   754.305E+03,   804.836E+03,   804.836E+03
C:/temp/Job-1.odb,Step-1,Increment      1: Step Time =    1.000,"P-1-1",         11684,   168.241E-03,   39.0122E-03,            0.,NA,NA,"",   1.02140E+06,   1.01653E+06,   1.01653E+06
C:/temp/Job-1.odb,Step-1,Increment      1: Step Time =    1.000,"P-1-1",         11685,   37.6412E-03,   30.5019E-03,            0.,NA,NA,"",   1.04142E+06,   1.06324E+06,   1.06324E+06
C:/temp/Job-1.odb,Step-1,Increment      1: Step Time =    1.000,"P-1-1",         11686,   125.568E-03,   31.1572E-03,            0.,NA,NA,"",   1.02574E+06,   1.02575E+06,   1.02575E+06
C:/temp/Job-1.odb,Step-1,Increment      1: Step Time =    1.000,"P-1-1",         11687,   168.604E-03,   125.145E-03,            0.,NA,NA,"",   994.481E+03,   996.120E+03,   996.120E+03
C:/temp/Job-1.odb,Step-1,Increment      1: Step Time =    1.000,"P-1-1",         11688,   161.302E-03,   168.414E-03,            0.,NA,NA,"",   1.02216E+06,   1.01658E+06,   1.01658E+06
C:/temp/Job-1.odb,Step-1,Increment      1: Step Time =    1.000,"P-1-1",         11689,   32.3408E-03,   75.5033E-03,            0.,NA,NA,"",   880.615E+03,   946.353E+03,   946.353E+03
C:/temp/Job-1.odb,Step-1,Increment      1: Step Time =    1.000,"P-1-1",         11690,   31.1821E-03,   161.351E-03,            0.,NA,NA,"",   1.00933E+06,   1.05064E+06,   1.05064E+06
C:/temp/Job-1.odb,Step-1,Increment      1: Step Time =    1.000,"P-1-1",         11691,   75.7791E-03,   169.000E-03,            0.,NA,NA,"",   1.03043E+06,   1.03640E+06,   1.03640E+06
C:/temp/Job-1.odb,Step-1,Increment      1: Step Time =    1.000,"P-1-1",         11692,   28.7393E-03,   101.882E-03,            0.,NA,NA,"",   815.702E+03,   894.588E+03,   894.588E+03
C:/temp/Job-1.odb,Step-1,Increment      1: Step Time =    1.000,"P-1-1",         11693,   98.4521E-03,   27.3279E-03,            0.,NA,NA,"",   997.121E+03,   1.00846E+06,   1.00846E+06
C:/temp/Job-1.odb,Step-1,Increment      1: Step Time =    1.000,"P-1-1",         11694,   100.821E-03,   172.474E-03,            0.,NA,NA,"",   997.008E+03,   1.00845E+06,   1.00845E+06
C:/temp/Job-1.odb,Step-1,Increment      1: Step Time =    1.000,"P-1-1",         11695,   136.197E-03,   85.5279E-03,            0.,NA,NA,"",   967.822E+03,   937.197E+03,   937.197E+03
C:/temp/Job-1.odb,Step-1,Increment      1: Step Time =    1.000,"P-1-1",         11696,   57.4906E-03,   79.2083E-03,            0.,NA,NA,"",   957.913E+03,   973.671E+03,   973.671E+03
C:/temp/Job-1.odb,Step-1,Increment      1: Step Time =    1.000,"P-1-1",         11697,   57.3381E-03,   76.0599E-03,            0.,NA,NA,"",   985.840E+03,   998.152E+03,   998.152E+03
C:/temp/Job-1.odb,Step-1,Increment      1: Step Time =    1.000,"P-1-1",         11698,   119.289E-03,   140.101E-03,            0.,NA,NA,"",   1.12431E+06,   1.12240E+06,   1.12240E+06
C:/temp/Job-1.odb,Step-1,Increment      1: Step Time =    1.000,"P-1-1",         11699,   57.9106E-03,   86.3904E-03,            0.,NA,NA,"",   874.061E+03,   902.401E+03,   902.401E+03
C:/temp/Job-1.odb,Step-1,Increment      1: Step Time =    1.000,"P-1-1",         11700,   97.5984E-03,   68.8263E-03,            0.,NA,NA,"",   1.07734E+06,   1.16292E+06,   1.16292E+06
C:/temp/Job-1.odb,Step-1,Increment      1: Step Time =    1.000,"P-1-1",         11701,   110.836E-03,   169.993E-03,            0.,NA,NA,"",   1.00625E+06,   1.01597E+06,   1.01597E+06
C:/temp/Job-1.odb,Step-1,Increment      1: Step Time =    1.000,"P-1-1",         11702,   30.2223E-03,   109.258E-03,            0.,NA,NA,"",   826.256E+03,   902.273E+03,   902.273E+03
C:/temp/Job-1.odb,Step-1,Increment      1: Step Time =    1.000,"P-1-1",         11703,   90.6007E-03,   30.2793E-03,            0.,NA,NA,"",   1.00752E+06,   1.01979E+06,   1.01979E+06
C:/temp/Job-1.odb,Step-1,Increment      1: Step Time =    1.000,"P-1-1",         11704,   170.430E-03,   145.385E-03,            0.,NA,NA,"",   1.02042E+06,   1.01639E+06,   1.01639E+06
C:/temp/Job-1.odb,Step-1,Increment      1: Step Time =    1.000,"P-1-1",         11705,   146.955E-03,   30.1557E-03,            0.,NA,NA,"",   1.02970E+06,   1.02267E+06,   1.02267E+06
C:/temp/Job-1.odb,Step-1,Increment      1: Step Time =    1.000,"P-1-1",         11706,   144.711E-03,   104.415E-03,            0.,NA,NA,"",   853.304E+03,   862.619E+03,   862.619E+03
C:/temp/Job-1.odb,Step-1,Increment      1: Step Time =    1.000,"P-1-1",         11707,   169.838E-03,   35.1542E-03,            0.,NA,NA,"",   1.01729E+06,   1.01346E+06,   1.01346E+06
C:/temp/Job-1.odb,Step-1,Increment      1: Step Time =    1.000,"P-1-1",         11708,   35.3098E-03,   30.1697E-03,            0.,NA,NA,"",   1.03987E+06,   1.06483E+06,   1.06483E+06
C:/temp/Job-1.odb,Step-1,Increment      1: Step Time =    1.000,"P-1-1",         11709,   166.280E-03,   168.058E-03,            0.,NA,NA,"",   1.01831E+06,   1.01390E+06,   1.01390E+06
C:/temp/Job-1.odb,Step-1,Increment      1: Step Time =    1.000,"P-1-1",         11710,   87.6008E-03,   30.7728E-03,            0.,NA,NA,"",   1.01229E+06,   1.02381E+06,   1.02381E+06
C:/temp/Job-1.odb,Step-1,Increment      1: Step Time =    1.000,"P-1-1",         11711,   30.2108E-03,   111.553E-03,            0.,NA,NA,"",   831.523E+03,   906.850E+03,   906.850E+03
C:/temp/Job-1.odb,Step-1,Increment      1: Step Time =    1.000,"P-1-1",         11712,   112.714E-03,   168.801E-03,            0.,NA,NA,"",   1.01055E+06,   1.01980E+06,   1.01980E+06
C:/temp/Job-1.odb,Step-1,Increment      1: Step Time =    1.000,"P-1-1",         11713,   143.621E-03,   30.6475E-03,            0.,NA,NA,"",   1.03164E+06,   1.02462E+06,   1.02462E+06
C:/temp/Job-1.odb,Step-1,Increment      1: Step Time =    1.000,"P-1-1",         11714,   168.814E-03,   143.619E-03,            0.,NA,NA,"",   1.02236E+06,   1.01742E+06,   1.01742E+06
C:/temp/Job-1.odb,Step-1,Increment      1: Step Time =    1.000,"P-1-1",         11715,   30.8257E-03,   55.0637E-03,            0.,NA,NA,"",   953.467E+03,   1.00885E+06,   1.00885E+06
C:/temp/Job-1.odb,Step-1,Increment      1: Step Time =    1.000,"P-1-1",         11716,   54.6831E-03,   168.009E-03,            0.,NA,NA,"",   1.04825E+06,   1.05449E+06,   1.05449E+06
C:/temp/Job-1.odb,Step-1,Increment      1: Step Time =    1.000,"P-1-1",         11717,   144.911E-03,   100.475E-03,            0.,NA,NA,"",   840.965E+03,   853.259E+03,   853.259E+03
C:/temp/Job-1.odb,Step-1,Increment      1: Step Time =    1.000,"P-1-1",         11718,   169.288E-03,   50.2901E-03,            0.,NA,NA,"",   1.02340E+06,   1.01832E+06,   1.01832E+06
C:/temp/Job-1.odb,Step-1,Increment      1: Step Time =    1.000,"P-1-1",         11719,   49.8127E-03,   30.5550E-03,            0.,NA,NA,"",   1.04683E+06,   1.05562E+06,   1.05562E+06
C:/temp/Job-1.odb,Step-1,Increment      1: Step Time =    1.000,"P-1-1",         11720,   168.394E-03,   65.6505E-03,            0.,NA,NA,"",   1.01340E+06,   1.01036E+06,   1.01036E+06
C:/temp/Job-1.odb,Step-1,Increment      1: Step Time =    1.000,"P-1-1",         11721,   63.9582E-03,   30.9928E-03,            0.,NA,NA,"",   1.04337E+06,   1.04673E+06,   1.04673E+06
C:/temp/Job-1.odb,Step-1,Increment      1: Step Time =    1.000,"P-1-1",         11722,   149.792E-03,   169.736E-03,            0.,NA,NA,"",   1.02858E+06,   1.02157E+06,   1.02157E+06
C:/temp/Job-1.odb,Step-1,Increment      1: Step Time =    1.000,"P-1-1",         11723,   31.4157E-03,   149.945E-03,            0.,NA,NA,"",   972.279E+03,   1.02321E+06,   1.02321E+06
C:/temp/Job-1.odb,Step-1,Increment      1: Step Time =    1.000,"P-1-1",         11724,   103.354E-03,   171.953E-03,            0.,NA,NA,"",   998.243E+03,   1.00958E+06,   1.00958E+06
C:/temp/Job-1.odb,Step-1,Increment      1: Step Time =    1.000,"P-1-1",         11725,   28.5342E-03,   103.580E-03,            0.,NA,NA,"",   816.612E+03,   895.544E+03,   895.544E+03
C:/temp/Job-1.odb,Step-1,Increment      1: Step Time =    1.000,"P-1-1",         11726,   97.0553E-03,   28.4939E-03,            0.,NA,NA,"",   999.435E+03,   1.01175E+06,   1.01175E+06
C:/temp/Job-1.odb,Step-1,Increment      1: Step Time =    1.000,"P-1-1",         11727,   31.3816E-03,   135.132E-03,            0.,NA,NA,"",   919.850E+03,   980.509E+03,   980.509E+03
C:/temp/Job-1.odb,Step-1,Increment      1: Step Time =    1.000,"P-1-1",         11728,   144.601E-03,   109.449E-03,            0.,NA,NA,"",   894.633E+03,   894.776E+03,   894.776E+03
C:/temp/Job-1.odb,Step-1,Increment      1: Step Time =    1.000,"P-1-1",         11729,   60.3997E-03,   73.0619E-03,            0.,NA,NA,"",   1.03098E+06,   1.03207E+06,   1.03207E+06
C:/temp/Job-1.odb,Step-1,Increment      1: Step Time =    1.000,"P-1-1",         11730,   174.191E-03,   69.6667E-03,            0.,NA,NA,"",   999.170E+03,   1.00268E+06,   1.00268E+06
C:/temp/Job-1.odb,Step-1,Increment      1: Step Time =    1.000,"P-1-1",         11731,   70.3069E-03,   26.0049E-03,            0.,NA,NA,"",   1.02538E+06,   1.02844E+06,   1.02844E+06
C:/temp/Job-1.odb,Step-1,Increment      1: Step Time =    1.000,"P-1-1",         11732,   73.7243E-03,   135.595E-03,            0.,NA,NA,"",   1.13806E+06,   1.12723E+06,   1.12723E+06
C:/temp/Job-1.odb,Step-1,Increment      1: Step Time =    1.000,"P-1-1",         11733,   94.2123E-03,   144.202E-03,            0.,NA,NA,"",   1.04113E+06,   1.08550E+06,   1.08550E+06
C:/temp/Job-1.odb,Step-1,Increment      1: Step Time =    1.000,"P-1-1",         11734,   145.155E-03,   112.631E-03,            0.,NA,NA,"",   930.953E+03,   924.386E+03,   924.386E+03
C:/temp/Job-1.odb,Step-1,Increment      1: Step Time =    1.000,"P-1-1",         11735,   102.256E-03,   144.029E-03,            0.,NA,NA,"",   1.03282E+06,   1.08068E+06,   1.08068E+06
C:/temp/Job-1.odb,Step-1,Increment      1: Step Time =    1.000,"P-1-1",         11736,   99.2823E-03,   144.489E-03,            0.,NA,NA,"",   1.03052E+06,   1.07871E+06,   1.07871E+06
C:/temp/Job-1.odb,Step-1,Increment      1: Step Time =    1.000,"P-1-1",         11737,   60.3493E-03,   74.3966E-03,            0.,NA,NA,"",   1.02203E+06,   1.02364E+06,   1.02364E+06
C:/temp/Job-1.odb,Step-1,Increment      1: Step Time =    1.000,"P-1-1",         11738,   130.597E-03,   31.7468E-03,            0.,NA,NA,"",   1.03141E+06,   1.02824E+06,   1.02824E+06
C:/temp/Job-1.odb,Step-1,Increment      1: Step Time =    1.000,"P-1-1",         11739,   168.364E-03,   131.002E-03,            0.,NA,NA,"",   1.00756E+06,   1.00587E+06,   1.00587E+06
C:/temp/Job-1.odb,Step-1,Increment      1: Step Time =    1.000,"P-1-1",         11740,   32.1738E-03,   149.067E-03,            0.,NA,NA,"",   972.456E+03,   1.02236E+06,   1.02236E+06
C:/temp/Job-1.odb,Step-1,Increment      1: Step Time =    1.000,"P-1-1",         11741,   144.605E-03,   106.284E-03,            0.,NA,NA,"",   864.977E+03,   871.473E+03,   871.473E+03
C:/temp/Job-1.odb,Step-1,Increment      1: Step Time =    1.000,"P-1-1",         11742,   148.945E-03,   168.659E-03,            0.,NA,NA,"",   1.03110E+06,   1.02360E+06,   1.02360E+06
C:/temp/Job-1.odb,Step-1,Increment      1: Step Time =    1.000,"P-1-1",         11743,   50.8031E-03,   31.6884E-03,            0.,NA,NA,"",   1.04760E+06,   1.05618E+06,   1.05618E+06
C:/temp/Job-1.odb,Step-1,Increment      1: Step Time =    1.000,"P-1-1",         11744,   168.390E-03,   51.4745E-03,            0.,NA,NA,"",   1.02486E+06,   1.01924E+06,   1.01924E+06
C:/temp/Job-1.odb,Step-1,Increment      1: Step Time =    1.000,"P-1-1",         11745,   117.103E-03,   30.3392E-03,            0.,NA,NA,"",   1.01381E+06,   1.01967E+06,   1.01967E+06
C:/temp/Job-1.odb,Step-1,Increment      1: Step Time =    1.000,"P-1-1",         11746,   168.359E-03,   142.250E-03,            0.,NA,NA,"",   1.02244E+06,   1.01731E+06,   1.01731E+06
C:/temp/Job-1.odb,Step-1,Increment      1: Step Time =    1.000,"P-1-1",         11747,   142.594E-03,   31.7447E-03,            0.,NA,NA,"",   1.03431E+06,   1.02694E+06,   1.02694E+06
C:/temp/Job-1.odb,Step-1,Increment      1: Step Time =    1.000,"P-1-1",         11748,   168.889E-03,   94.8209E-03,            0.,NA,NA,"",   950.898E+03,   963.561E+03,   963.561E+03
C:/temp/Job-1.odb,Step-1,Increment      1: Step Time =    1.000,"P-1-1",         11749,   166.304E-03,   31.8042E-03,            0.,NA,NA,"",   1.01802E+06,   1.01368E+06,   1.01368E+06
C:/temp/Job-1.odb,Step-1,Increment      1: Step Time =    1.000,"P-1-1",         11750,   169.772E-03,   90.0755E-03,            0.,NA,NA,"",   959.387E+03,   970.626E+03,   970.626E+03
C:/temp/Job-1.odb,Step-1,Increment      1: Step Time =    1.000,"P-1-1",         11751,   82.6989E-03,   73.9926E-03,            0.,NA,NA,"",   1.23970E+06,   1.21965E+06,   1.21965E+06
C:/temp/Job-1.odb,Step-1,Increment      1: Step Time =    1.000,"P-1-1",         11752,   58.4565E-03,   89.7861E-03,            0.,NA,NA,"",   829.042E+03,   864.115E+03,   864.115E+03
C:/temp/Job-1.odb,Step-1,Increment      1: Step Time =    1.000,"P-1-1",         11753,   70.2658E-03,   134.961E-03,            0.,NA,NA,"",   1.12462E+06,   1.11224E+06,   1.11224E+06
C:/temp/Job-1.odb,Step-1,Increment      1: Step Time =    1.000,"P-1-1",         11754,   111.161E-03,   143.086E-03,            0.,NA,NA,"",   1.06977E+06,   1.09809E+06,   1.09809E+06
C:/temp/Job-1.odb,Step-1,Increment      1: Step Time =    1.000,"P-1-1",         11755,   79.8625E-03,   30.7011E-03,            0.,NA,NA,"",   1.02342E+06,   1.03119E+06,   1.03119E+06
C:/temp/Job-1.odb,Step-1,Increment      1: Step Time =    1.000,"P-1-1",         11756,   167.678E-03,   80.0027E-03,            0.,NA,NA,"",   981.938E+03,   986.029E+03,   986.029E+03
C:/temp/Job-1.odb,Step-1,Increment      1: Step Time =    1.000,"P-1-1",         11757,   31.7337E-03,   168.547E-03,            0.,NA,NA,"",   1.03268E+06,   1.06506E+06,   1.06506E+06
C:/temp/Job-1.odb,Step-1,Increment      1: Step Time =    1.000,"P-1-1",         11758,   169.532E-03,   161.923E-03,            0.,NA,NA,"",   1.01932E+06,   1.01505E+06,   1.01505E+06
C:/temp/Job-1.odb,Step-1,Increment      1: Step Time =    1.000,"P-1-1",         11759,   31.3597E-03,   37.9832E-03,            0.,NA,NA,"",   1.01186E+06,   1.05219E+06,   1.05219E+06
C:/temp/Job-1.odb,Step-1,Increment      1: Step Time =    1.000,"P-1-1",         11760,   30.7593E-03,   115.401E-03,            0.,NA,NA,"",   843.165E+03,   916.257E+03,   916.257E+03
C:/temp/Job-1.odb,Step-1,Increment      1: Step Time =    1.000,"P-1-1",         11761,   115.671E-03,   168.844E-03,            0.,NA,NA,"",   1.01404E+06,   1.02116E+06,   1.02116E+06
C:/temp/Job-1.odb,Step-1,Increment      1: Step Time =    1.000,"P-1-1",         11762,   167.112E-03,   83.1275E-03,            0.,NA,NA,"",   973.032E+03,   978.778E+03,   978.778E+03
C:/temp/Job-1.odb,Step-1,Increment      1: Step Time =    1.000,"P-1-1",         11763,   82.3804E-03,   29.6817E-03,            0.,NA,NA,"",   1.01771E+06,   1.02620E+06,   1.02620E+06
C:/temp/Job-1.odb,Step-1,Increment      1: Step Time =    1.000,"P-1-1",         11764,   91.3364E-03,   144.592E-03,            0.,NA,NA,"",   1.05097E+06,   1.08944E+06,   1.08944E+06
C:/temp/Job-1.odb,Step-1,Increment      1: Step Time =    1.000,"P-1-1",         11765,   66.5093E-03,   168.227E-03,            0.,NA,NA,"",   1.04326E+06,   1.04681E+06,   1.04681E+06
C:/temp/Job-1.odb,Step-1,Increment      1: Step Time =    1.000,"P-1-1",         11766,   31.6782E-03,   66.2385E-03,            0.,NA,NA,"",   915.716E+03,   976.682E+03,   976.682E+03
C:/temp/Job-1.odb,Step-1,Increment      1: Step Time =    1.000,"P-1-1",         11767,   141.989E-03,   93.1740E-03,            0.,NA,NA,"",   854.960E+03,   859.203E+03,   859.203E+03
C:/temp/Job-1.odb,Step-1,Increment      1: Step Time =    1.000,"P-1-1",         11768,   119.072E-03,   77.0613E-03,            0.,NA,NA,"",   1.27767E+06,   1.21466E+06,   1.21466E+06
C:/temp/Job-1.odb,Step-1,Increment      1: Step Time =    1.000,"P-1-1",         11769,   122.631E-03,   140.790E-03,            0.,NA,NA,"",   1.12835E+06,   1.11698E+06,   1.11698E+06
C:/temp/Job-1.odb,Step-1,Increment      1: Step Time =    1.000,"P-1-1",         11770,   167.936E-03,   85.2241E-03,            0.,NA,NA,"",   967.906E+03,   975.556E+03,   975.556E+03
C:/temp/Job-1.odb,Step-1,Increment      1: Step Time =    1.000,"P-1-1",         11771,   81.5788E-03,   72.2299E-03,            0.,NA,NA,"",   1.21692E+06,   1.19983E+06,   1.19983E+06
C:/temp/Job-1.odb,Step-1,Increment      1: Step Time =    1.000,"P-1-1",         11772,   72.6467E-03,   136.656E-03,            0.,NA,NA,"",   1.13033E+06,   1.12087E+06,   1.12087E+06
C:/temp/Job-1.odb,Step-1,Increment      1: Step Time =    1.000,"P-1-1",         11773,   138.955E-03,   126.091E-03,            0.,NA,NA,"",   1.08578E+06,   1.04694E+06,   1.04694E+06
C:/temp/Job-1.odb,Step-1,Increment      1: Step Time =    1.000,"P-1-1",         11774,   73.4425E-03,   138.547E-03,            0.,NA,NA,"",   1.12557E+06,   1.11944E+06,   1.11944E+06
C:/temp/Job-1.odb,Step-1,Increment      1: Step Time =    1.000,"P-1-1",         11775,   139.038E-03,   91.6229E-03,            0.,NA,NA,"",   859.549E+03,    856.88E+03,    856.88E+03
C:/temp/Job-1.odb,Step-1,Increment      1: Step Time =    1.000,"P-1-1",         11776,   132.401E-03,   129.901E-03,            0.,NA,NA,"",   1.14584E+06,   1.09933E+06,   1.09933E+06
C:/temp/Job-1.odb,Step-1,Increment      1: Step Time =    1.000,"P-1-1",         11777,   98.7559E-03,   70.0045E-03,            0.,NA,NA,"",   1.08266E+06,   1.17497E+06,   1.17497E+06
C:/temp/Job-1.odb,Step-1,Increment      1: Step Time =    1.000,"P-1-1",         11778,   168.517E-03,   93.0595E-03,            0.,NA,NA,"",   952.423E+03,   964.356E+03,   964.356E+03
C:/temp/Job-1.odb,Step-1,Increment      1: Step Time =    1.000,"P-1-1",         11779,   71.8572E-03,   69.8263E-03,            0.,NA,NA,"",   1.14324E+06,   1.12103E+06,   1.12103E+06
C:/temp/Job-1.odb,Step-1,Increment      1: Step Time =    1.000,"P-1-1",         11780,   89.4366E-03,   65.1126E-03,            0.,NA,NA,"",   1.11023E+06,   1.15171E+06,   1.15171E+06
C:/temp/Job-1.odb,Step-1,Increment      1: Step Time =    1.000,"P-1-1",         11781,   60.3473E-03,   30.2244E-03,            0.,NA,NA,"",   1.04425E+06,   1.04797E+06,   1.04797E+06
C:/temp/Job-1.odb,Step-1,Increment      1: Step Time =    1.000,"P-1-1",         11782,   63.3970E-03,   31.7149E-03,            0.,NA,NA,"",   1.04549E+06,   1.04905E+06,   1.04905E+06
C:/temp/Job-1.odb,Step-1,Increment      1: Step Time =    1.000,"P-1-1",         11783,   169.184E-03,   60.9210E-03,            0.,NA,NA,"",   1.01803E+06,   1.01425E+06,   1.01425E+06
C:/temp/Job-1.odb,Step-1,Increment      1: Step Time =    1.000,"P-1-1",         11784,   168.424E-03,   63.7456E-03,            0.,NA,NA,"",   1.01616E+06,   1.01250E+06,   1.01250E+06
C:/temp/Job-1.odb,Step-1,Increment      1: Step Time =    1.000,"P-1-1",         11785,   139.318E-03,   170.565E-03,            0.,NA,NA,"",   1.02912E+06,   1.02331E+06,   1.02331E+06
C:/temp/Job-1.odb,Step-1,Increment      1: Step Time =    1.000,"P-1-1",         11786,   135.961E-03,   169.283E-03,            0.,NA,NA,"",   1.03164E+06,   1.02631E+06,   1.02631E+06
C:/temp/Job-1.odb,Step-1,Increment      1: Step Time =    1.000,"P-1-1",         11787,   32.2325E-03,   136.195E-03,            0.,NA,NA,"",   927.360E+03,   985.648E+03,   985.648E+03
C:/temp/Job-1.odb,Step-1,Increment      1: Step Time =    1.000,"P-1-1",         11788,   31.4469E-03,   139.030E-03,            0.,NA,NA,"",   934.774E+03,   992.770E+03,   992.770E+03
C:/temp/Job-1.odb,Step-1,Increment      1: Step Time =    1.000,"P-1-1",         11789,   29.2957E-03,   51.0151E-03,            0.,NA,NA,"",   961.393E+03,   1.01690E+06,   1.01690E+06
C:/temp/Job-1.odb,Step-1,Increment      1: Step Time =    1.000,"P-1-1",         11790,   51.0744E-03,   169.711E-03,            0.,NA,NA,"",   1.04669E+06,   1.05444E+06,   1.05444E+06
C:/temp/Job-1.odb,Step-1,Increment      1: Step Time =    1.000,"P-1-1",         11791,   166.569E-03,   142.098E-03,            0.,NA,NA,"",   1.02563E+06,   1.01915E+06,   1.01915E+06
C:/temp/Job-1.odb,Step-1,Increment      1: Step Time =    1.000,"P-1-1",         11792,   141.567E-03,   32.7489E-03,            0.,NA,NA,"",   1.03687E+06,   1.02922E+06,   1.02922E+06
C:/temp/Job-1.odb,Step-1,Increment      1: Step Time =    1.000,"P-1-1",         11793,   129.678E-03,   32.5702E-03,            0.,NA,NA,"",   1.03283E+06,   1.03000E+06,   1.03000E+06
C:/temp/Job-1.odb,Step-1,Increment      1: Step Time =    1.000,"P-1-1",         11794,   167.985E-03,   129.590E-03,            0.,NA,NA,"",   1.00527E+06,   1.00391E+06,   1.00391E+06
C:/temp/Job-1.odb,Step-1,Increment      1: Step Time =    1.000,"P-1-1",         11795,   117.556E-03,   32.8348E-03,            0.,NA,NA,"",   1.01993E+06,   1.02616E+06,   1.02616E+06
C:/temp/Job-1.odb,Step-1,Increment      1: Step Time =    1.000,"P-1-1",         11796,   86.6569E-03,   64.9440E-03,            0.,NA,NA,"",   1.12840E+06,   1.15545E+06,   1.15545E+06
C:/temp/Job-1.odb,Step-1,Increment      1: Step Time =    1.000,"P-1-1",         11797,   71.7020E-03,   32.5911E-03,            0.,NA,NA,"",   1.03984E+06,   1.04458E+06,   1.04458E+06
C:/temp/Job-1.odb,Step-1,Increment      1: Step Time =    1.000,"P-1-1",         11798,   167.552E-03,   69.7716E-03,            0.,NA,NA,"",   1.00725E+06,   1.00519E+06,   1.00519E+06
C:/temp/Job-1.odb,Step-1,Increment      1: Step Time =    1.000,"P-1-1",         11799,   167.829E-03,   34.8095E-03,            0.,NA,NA,"",   1.01911E+06,   1.01467E+06,   1.01467E+06
C:/temp/Job-1.odb,Step-1,Increment      1: Step Time =    1.000,"P-1-1",         11800,   33.3637E-03,   31.4463E-03,            0.,NA,NA,"",   1.03495E+06,   1.06433E+06,   1.06433E+06
C:/temp/Job-1.odb,Step-1,Increment      1: Step Time =    1.000,"P-1-1",         11801,   167.232E-03,   167.818E-03,            0.,NA,NA,"",   1.01765E+06,   1.01347E+06,   1.01347E+06
C:/temp/Job-1.odb,Step-1,Increment      1: Step Time =    1.000,"P-1-1",         11802,   86.2183E-03,   31.3911E-03,            0.,NA,NA,"",   1.01552E+06,   1.02675E+06,   1.02675E+06
C:/temp/Job-1.odb,Step-1,Increment      1: Step Time =    1.000,"P-1-1",         11803,   31.4448E-03,   165.008E-03,            0.,NA,NA,"",   1.02155E+06,   1.05855E+06,   1.05855E+06
C:/temp/Job-1.odb,Step-1,Increment      1: Step Time =    1.000,"P-1-1",         11804,   112.946E-03,   167.240E-03,            0.,NA,NA,"",   1.01390E+06,   1.02380E+06,   1.02380E+06
C:/temp/Job-1.odb,Step-1,Increment      1: Step Time =    1.000,"P-1-1",         11805,   31.4118E-03,   112.657E-03,            0.,NA,NA,"",   836.215E+03,   909.634E+03,   909.634E+03
C:/temp/Job-1.odb,Step-1,Increment      1: Step Time =    1.000,"P-1-1",         11806,   167.647E-03,   107.245E-03,            0.,NA,NA,"",   951.463E+03,   962.930E+03,   962.930E+03
C:/temp/Job-1.odb,Step-1,Increment      1: Step Time =    1.000,"P-1-1",         11807,   31.5408E-03,   92.9181E-03,            0.,NA,NA,"",   823.538E+03,   898.619E+03,   898.619E+03
C:/temp/Job-1.odb,Step-1,Increment      1: Step Time =    1.000,"P-1-1",         11808,   92.5061E-03,   168.385E-03,            0.,NA,NA,"",   1.00788E+06,   1.02178E+06,   1.02178E+06
C:/temp/Job-1.odb,Step-1,Increment      1: Step Time =    1.000,"P-1-1",         11809,   170.741E-03,   48.0194E-03,            0.,NA,NA,"",   1.02097E+06,   1.01674E+06,   1.01674E+06
C:/temp/Job-1.odb,Step-1,Increment      1: Step Time =    1.000,"P-1-1",         11810,   47.2966E-03,   30.0986E-03,            0.,NA,NA,"",   1.04627E+06,   1.05685E+06,   1.05685E+06
C:/temp/Job-1.odb,Step-1,Increment      1: Step Time =    1.000,"P-1-1",         11811,   152.053E-03,   170.860E-03,            0.,NA,NA,"",   1.02553E+06,   1.01909E+06,   1.01909E+06
C:/temp/Job-1.odb,Step-1,Increment      1: Step Time =    1.000,"P-1-1",         11812,   30.2695E-03,   152.176E-03,            0.,NA,NA,"",   975.947E+03,   1.02732E+06,   1.02732E+06
C:/temp/Job-1.odb,Step-1,Increment      1: Step Time =    1.000,"P-1-1",         11813,   63.8793E-03,   132.235E-03,            0.,NA,NA,"",   1.08273E+06,   1.07544E+06,   1.07544E+06
C:/temp/Job-1.odb,Step-1,Increment      1: Step Time =    1.000,"P-1-1",         11814,   67.4029E-03,   30.1178E-03,            0.,NA,NA,"",   1.03866E+06,   1.04206E+06,   1.04206E+06
C:/temp/Job-1.odb,Step-1,Increment      1: Step Time =    1.000,"P-1-1",         11815,   171.160E-03,   68.5820E-03,            0.,NA,NA,"",   1.00452E+06,   1.00506E+06,   1.00506E+06
C:/temp/Job-1.odb,Step-1,Increment      1: Step Time =    1.000,"P-1-1",         11816,   171.430E-03,   99.7206E-03,            0.,NA,NA,"",   952.930E+03,   967.204E+03,   967.204E+03
C:/temp/Job-1.odb,Step-1,Increment      1: Step Time =    1.000,"P-1-1",         11817,   133.434E-03,   170.565E-03,            0.,NA,NA,"",   1.02733E+06,   1.02339E+06,   1.02339E+06
C:/temp/Job-1.odb,Step-1,Increment      1: Step Time =    1.000,"P-1-1",         11818,   29.5298E-03,   133.029E-03,            0.,NA,NA,"",   904.534E+03,   969.901E+03,   969.901E+03
C:/temp/Job-1.odb,Step-1,Increment      1: Step Time =    1.000,"P-1-1",         11819,   142.132E-03,   123.030E-03,            0.,NA,NA,"",   1.04538E+06,   1.01464E+06,   1.01464E+06
C:/temp/Job-1.odb,Step-1,Increment      1: Step Time =    1.000,"P-1-1",         11820,   115.714E-03,   143.115E-03,            0.,NA,NA,"",   1.09173E+06,   1.10512E+06,   1.10512E+06
C:/temp/Job-1.odb,Step-1,Increment      1: Step Time =    1.000,"P-1-1",         11821,   29.6096E-03,   57.8369E-03,            0.,NA,NA,"",   938.653E+03,   998.218E+03,   998.218E+03
C:/temp/Job-1.odb,Step-1,Increment      1: Step Time =    1.000,"P-1-1",         11822,   56.5642E-03,   170.786E-03,            0.,NA,NA,"",   1.04443E+06,   1.04901E+06,   1.04901E+06
C:/temp/Job-1.odb,Step-1,Increment      1: Step Time =    1.000,"P-1-1",         11823,   33.9460E-03,   149.188E-03,            0.,NA,NA,"",   980.399E+03,   1.02635E+06,   1.02635E+06
C:/temp/Job-1.odb,Step-1,Increment      1: Step Time =    1.000,"P-1-1",         11824,   149.737E-03,   167.738E-03,            0.,NA,NA,"",   1.03260E+06,   1.02472E+06,   1.02472E+06
C:/temp/Job-1.odb,Step-1,Increment      1: Step Time =    1.000,"P-1-1",         11825,   104.454E-03,   31.3627E-03,            0.,NA,NA,"",   1.00385E+06,   1.01752E+06,   1.01752E+06
C:/temp/Job-1.odb,Step-1,Increment      1: Step Time =    1.000,"P-1-1",         11826,   168.276E-03,   104.096E-03,            0.,NA,NA,"",   948.533E+03,   961.246E+03,   961.246E+03
C:/temp/Job-1.odb,Step-1,Increment      1: Step Time =    1.000,"P-1-1",         11827,   30.4152E-03,   96.0999E-03,            0.,NA,NA,"",    818.38E+03,   895.369E+03,   895.369E+03
C:/temp/Job-1.odb,Step-1,Increment      1: Step Time =    1.000,"P-1-1",         11828,   96.4796E-03,   169.205E-03,            0.,NA,NA,"",   1.00334E+06,   1.01741E+06,   1.01741E+06
C:/temp/Job-1.odb,Step-1,Increment      1: Step Time =    1.000,"P-1-1",         11829,   50.5408E-03,   33.5968E-03,            0.,NA,NA,"",   1.04823E+06,   1.05789E+06,   1.05789E+06
C:/temp/Job-1.odb,Step-1,Increment      1: Step Time =    1.000,"P-1-1",         11830,   166.176E-03,   51.9196E-03,            0.,NA,NA,"",   1.02888E+06,   1.02177E+06,   1.02177E+06
C:/temp/Job-1.odb,Step-1,Increment      1: Step Time =    1.000,"P-1-1",         11831,   125.022E-03,   168.651E-03,            0.,NA,NA,"",   1.02575E+06,   1.02609E+06,   1.02609E+06
C:/temp/Job-1.odb,Step-1,Increment      1: Step Time =    1.000,"P-1-1",         11832,   30.3012E-03,   124.712E-03,            0.,NA,NA,"",   875.058E+03,   944.079E+03,   944.079E+03
C:/temp/Job-1.odb,Step-1,Increment      1: Step Time =    1.000,"P-1-1",         11833,   157.423E-03,   32.0983E-03,            0.,NA,NA,"",   1.02639E+06,   1.01972E+06,   1.01972E+06
C:/temp/Job-1.odb,Step-1,Increment      1: Step Time =    1.000,"P-1-1",         11834,   168.294E-03,   156.373E-03,            0.,NA,NA,"",   1.02381E+06,   1.01841E+06,   1.01841E+06
C:/temp/Job-1.odb,Step-1,Increment      1: Step Time =    1.000,"P-1-1",         11835,   31.1291E-03,   44.4986E-03,            0.,NA,NA,"",   990.311E+03,   1.03709E+06,   1.03709E+06
C:/temp/Job-1.odb,Step-1,Increment      1: Step Time =    1.000,"P-1-1",         11836,   44.3805E-03,   167.446E-03,            0.,NA,NA,"",   1.04446E+06,   1.05946E+06,   1.05946E+06
C:/temp/Job-1.odb,Step-1,Increment      1: Step Time =    1.000,"P-1-1",         11837,   97.1108E-03,   144.886E-03,            0.,NA,NA,"",   1.03232E+06,   1.07879E+06,   1.07879E+06
C:/temp/Job-1.odb,Step-1,Increment      1: Step Time =    1.000,"P-1-1",         11838,   76.6431E-03,   31.7220E-03,            0.,NA,NA,"",   1.03106E+06,   1.03762E+06,   1.03762E+06
C:/temp/Job-1.odb,Step-1,Increment      1: Step Time =    1.000,"P-1-1",         11839,   168.218E-03,   76.3142E-03,            0.,NA,NA,"",   991.320E+03,   993.451E+03,   993.451E+03
C:/temp/Job-1.odb,Step-1,Increment      1: Step Time =    1.000,"P-1-1",         11840,   146.551E-03,   118.173E-03,            0.,NA,NA,"",   984.950E+03,   969.711E+03,   969.711E+03
C:/temp/Job-1.odb,Step-1,Increment      1: Step Time =    1.000,"P-1-1",         11841,   57.8895E-03,   74.4153E-03,            0.,NA,NA,"",   1.00240E+06,   1.01177E+06,   1.01177E+06
C:/temp/Job-1.odb,Step-1,Increment      1: Step Time =    1.000,"P-1-1",         11842,   170.362E-03,   120.038E-03,            0.,NA,NA,"",   981.641E+03,   987.628E+03,   987.628E+03
C:/temp/Job-1.odb,Step-1,Increment      1: Step Time =    1.000,"P-1-1",         11843,   29.0164E-03,   79.9824E-03,            0.,NA,NA,"",   854.879E+03,   928.145E+03,   928.145E+03
C:/temp/Job-1.odb,Step-1,Increment      1: Step Time =    1.000,"P-1-1",         11844,   81.1247E-03,   168.360E-03,            0.,NA,NA,"",   1.02400E+06,   1.03283E+06,   1.03283E+06
C:/temp/Job-1.odb,Step-1,Increment      1: Step Time =    1.000,"P-1-1",         11845,   169.522E-03,   158.895E-03,            0.,NA,NA,"",   1.02094E+06,   1.01635E+06,   1.01635E+06
C:/temp/Job-1.odb,Step-1,Increment      1: Step Time =    1.000,"P-1-1",         11846,   60.8101E-03,   96.4645E-03,            0.,NA,NA,"",   738.821E+03,   784.785E+03,   784.785E+03
C:/temp/Job-1.odb,Step-1,Increment      1: Step Time =    1.000,"P-1-1",         11847,   30.6213E-03,   41.8480E-03,            0.,NA,NA,"",   997.482E+03,   1.04284E+06,   1.04284E+06
C:/temp/Job-1.odb,Step-1,Increment      1: Step Time =    1.000,"P-1-1",         11848,   60.6261E-03,   119.055E-03,            0.,NA,NA,"",   958.916E+03,   967.501E+03,   967.501E+03
C:/temp/Job-1.odb,Step-1,Increment      1: Step Time =    1.000,"P-1-1",         11849,   42.6715E-03,   169.515E-03,            0.,NA,NA,"",   1.04471E+06,   1.06011E+06,   1.06011E+06
C:/temp/Job-1.odb,Step-1,Increment      1: Step Time =    1.000,"P-1-1",         11850,   125.646E-03,   135.793E-03,            0.,NA,NA,"",   1.15892E+06,   1.12991E+06,   1.12991E+06
C:/temp/Job-1.odb,Step-1,Increment      1: Step Time =    1.000,"P-1-1",         11851,   143.197E-03,   166.976E-03,            0.,NA,NA,"",   1.03727E+06,   1.02921E+06,   1.02921E+06
C:/temp/Job-1.odb,Step-1,Increment      1: Step Time =    1.000,"P-1-1",         11852,   32.2634E-03,   141.913E-03,            0.,NA,NA,"",   948.204E+03,   1.00286E+06,   1.00286E+06
C:/temp/Job-1.odb,Step-1,Increment      1: Step Time =    1.000,"P-1-1",         11853,   100.165E-03,   171.539E-03,            0.,NA,NA,"",   998.556E+03,   1.01079E+06,   1.01079E+06
C:/temp/Job-1.odb,Step-1,Increment      1: Step Time =    1.000,"P-1-1",         11854,   30.4467E-03,   99.3527E-03,            0.,NA,NA,"",   816.505E+03,   893.622E+03,   893.622E+03
C:/temp/Job-1.odb,Step-1,Increment      1: Step Time =    1.000,"P-1-1",         11855,   66.7260E-03,   28.0757E-03,            0.,NA,NA,"",   1.03471E+06,   1.03769E+06,   1.03769E+06
C:/temp/Job-1.odb,Step-1,Increment      1: Step Time =    1.000,"P-1-1",         11856,   99.0074E-03,   28.8429E-03,            0.,NA,NA,"",   999.457E+03,   1.01204E+06,   1.01204E+06
C:/temp/Job-1.odb,Step-1,Increment      1: Step Time =    1.000,"P-1-1",         11857,   138.730E-03,   89.8482E-03,            0.,NA,NA,"",   884.943E+03,   876.061E+03,   876.061E+03
C:/temp/Job-1.odb,Step-1,Increment      1: Step Time =    1.000,"P-1-1",         11858,   91.8764E-03,   31.7546E-03,            0.,NA,NA,"",   1.00874E+06,   1.02265E+06,   1.02265E+06
C:/temp/Job-1.odb,Step-1,Increment      1: Step Time =    1.000,"P-1-1",         11859,   148.788E-03,   30.9924E-03,            0.,NA,NA,"",   1.03045E+06,   1.02311E+06,   1.02311E+06
C:/temp/Job-1.odb,Step-1,Increment      1: Step Time =    1.000,"P-1-1",         11860,   168.842E-03,   146.865E-03,            0.,NA,NA,"",   1.02377E+06,   1.01850E+06,   1.01850E+06
C:/temp/Job-1.odb,Step-1,Increment      1: Step Time =    1.000,"P-1-1",         11861,   62.0521E-03,   123.044E-03,            0.,NA,NA,"",   1.01594E+06,   1.01397E+06,   1.01397E+06
C:/temp/Job-1.odb,Step-1,Increment      1: Step Time =    1.000,"P-1-1",         11862,   31.4323E-03,   108.083E-03,            0.,NA,NA,"",   825.132E+03,   900.074E+03,   900.074E+03
C:/temp/Job-1.odb,Step-1,Increment      1: Step Time =    1.000,"P-1-1",         11863,   109.377E-03,   169.466E-03,            0.,NA,NA,"",   1.00579E+06,   1.01669E+06,   1.01669E+06
C:/temp/Job-1.odb,Step-1,Increment      1: Step Time =    1.000,"P-1-1",         11864,   120.596E-03,   141.048E-03,            0.,NA,NA,"",   1.12211E+06,   1.11719E+06,   1.11719E+06
C:/temp/Job-1.odb,Step-1,Increment      1: Step Time =    1.000,"P-1-1",         11865,   167.776E-03,   41.4860E-03,            0.,NA,NA,"",   1.02340E+06,   1.01803E+06,   1.01803E+06
C:/temp/Job-1.odb,Step-1,Increment      1: Step Time =    1.000,"P-1-1",         11866,   129.418E-03,   135.072E-03,            0.,NA,NA,"",   1.15162E+06,   1.11596E+06,   1.11596E+06
C:/temp/Job-1.odb,Step-1,Increment      1: Step Time =    1.000,"P-1-1",         11867,   40.1743E-03,   31.8355E-03,            0.,NA,NA,"",   1.04178E+06,   1.06123E+06,   1.06123E+06
C:/temp/Job-1.odb,Step-1,Increment      1: Step Time =    1.000,"P-1-1",         11868,   126.705E-03,   32.3931E-03,            0.,NA,NA,"",   1.03039E+06,   1.02942E+06,   1.02942E+06
C:/temp/Job-1.odb,Step-1,Increment      1: Step Time =    1.000,"P-1-1",         11869,   168.897E-03,   126.648E-03,            0.,NA,NA,"",   997.840E+03,   998.816E+03,   998.816E+03
C:/temp/Job-1.odb,Step-1,Increment      1: Step Time =    1.000,"P-1-1",         11870,   159.738E-03,   167.531E-03,            0.,NA,NA,"",   1.02493E+06,   1.01864E+06,   1.01864E+06
C:/temp/Job-1.odb,Step-1,Increment      1: Step Time =    1.000,"P-1-1",         11871,   31.3097E-03,   60.7641E-03,            0.,NA,NA,"",   935.007E+03,   993.128E+03,   993.128E+03
C:/temp/Job-1.odb,Step-1,Increment      1: Step Time =    1.000,"P-1-1",         11872,   59.1750E-03,   170.222E-03,            0.,NA,NA,"",   1.04420E+06,   1.04807E+06,   1.04807E+06
C:/temp/Job-1.odb,Step-1,Increment      1: Step Time =    1.000,"P-1-1",         11873,   32.5505E-03,   74.1942E-03,            0.,NA,NA,"",   886.461E+03,   951.018E+03,   951.018E+03
C:/temp/Job-1.odb,Step-1,Increment      1: Step Time =    1.000,"P-1-1",         11874,   31.5939E-03,   159.090E-03,            0.,NA,NA,"",   1.00333E+06,   1.04600E+06,   1.04600E+06
C:/temp/Job-1.odb,Step-1,Increment      1: Step Time =    1.000,"P-1-1",         11875,   74.4203E-03,   168.643E-03,            0.,NA,NA,"",   1.03323E+06,   1.03872E+06,   1.03872E+06
C:/temp/Job-1.odb,Step-1,Increment      1: Step Time =    1.000,"P-1-1",         11876,   56.9230E-03,   112.647E-03,            0.,NA,NA,"",   859.104E+03,   892.326E+03,   892.326E+03
C:/temp/Job-1.odb,Step-1,Increment      1: Step Time =    1.000,"P-1-1",         11877,   56.3538E-03,   110.489E-03,            0.,NA,NA,"",   833.388E+03,   872.329E+03,   872.329E+03
C:/temp/Job-1.odb,Step-1,Increment      1: Step Time =    1.000,"P-1-1",         11878,   56.4549E-03,   106.917E-03,            0.,NA,NA,"",   795.620E+03,   841.129E+03,   841.129E+03
C:/temp/Job-1.odb,Step-1,Increment      1: Step Time =    1.000,"P-1-1",         11879,   63.4428E-03,   129.453E-03,            0.,NA,NA,"",   1.06990E+06,   1.06255E+06,   1.06255E+06
C:/temp/Job-1.odb,Step-1,Increment      1: Step Time =    1.000,"P-1-1",         11880,   55.7234E-03,   99.9990E-03,            0.,NA,NA,"",   766.857E+03,   819.076E+03,   819.076E+03
C:/temp/Job-1.odb,Step-1,Increment      1: Step Time =    1.000,"P-1-1",         11881,   170.003E-03,   36.1816E-03,            0.,NA,NA,"",   1.01756E+06,   1.01372E+06,   1.01372E+06
C:/temp/Job-1.odb,Step-1,Increment      1: Step Time =    1.000,"P-1-1",         11882,   36.2251E-03,   30.4311E-03,            0.,NA,NA,"",   1.04034E+06,   1.06411E+06,   1.06411E+06
C:/temp/Job-1.odb,Step-1,Increment      1: Step Time =    1.000,"P-1-1",         11883,   165.073E-03,   168.361E-03,            0.,NA,NA,"",   1.01907E+06,   1.01440E+06,   1.01440E+06
C:/temp/Job-1.odb,Step-1,Increment      1: Step Time =    1.000,"P-1-1",         11884,   90.5928E-03,   31.7092E-03,            0.,NA,NA,"",   1.01009E+06,   1.02352E+06,   1.02352E+06
C:/temp/Job-1.odb,Step-1,Increment      1: Step Time =    1.000,"P-1-1",         11885,   30.6180E-03,   163.590E-03,            0.,NA,NA,"",   1.01498E+06,   1.05516E+06,   1.05516E+06
C:/temp/Job-1.odb,Step-1,Increment      1: Step Time =    1.000,"P-1-1",         11886,   145.715E-03,   30.8503E-03,            0.,NA,NA,"",   1.03156E+06,   1.02428E+06,   1.02428E+06
C:/temp/Job-1.odb,Step-1,Increment      1: Step Time =    1.000,"P-1-1",         11887,   168.809E-03,   145.312E-03,            0.,NA,NA,"",   1.02328E+06,   1.01812E+06,   1.01812E+06
C:/temp/Job-1.odb,Step-1,Increment      1: Step Time =    1.000,"P-1-1",         11888,   93.5239E-03,   63.9102E-03,            0.,NA,NA,"",   1.07240E+06,   1.13061E+06,   1.13061E+06
C:/temp/Job-1.odb,Step-1,Increment      1: Step Time =    1.000,"P-1-1",         11889,   111.284E-03,   168.483E-03,            0.,NA,NA,"",   1.00959E+06,   1.01989E+06,   1.01989E+06
C:/temp/Job-1.odb,Step-1,Increment      1: Step Time =    1.000,"P-1-1",         11890,   31.4287E-03,   110.429E-03,            0.,NA,NA,"",   830.305E+03,   904.550E+03,   904.550E+03
C:/temp/Job-1.odb,Step-1,Increment      1: Step Time =    1.000,"P-1-1",         11891,   136.215E-03,   80.5140E-03,            0.,NA,NA,"",   1.04919E+06,   1.00691E+06,   1.00691E+06
C:/temp/Job-1.odb,Step-1,Increment      1: Step Time =    1.000,"P-1-1",         11892,   118.717E-03,   30.5411E-03,            0.,NA,NA,"",   1.01621E+06,   1.02098E+06,   1.02098E+06
C:/temp/Job-1.odb,Step-1,Increment      1: Step Time =    1.000,"P-1-1",         11893,   168.838E-03,   48.4352E-03,            0.,NA,NA,"",   1.02420E+06,   1.01882E+06,   1.01882E+06
C:/temp/Job-1.odb,Step-1,Increment      1: Step Time =    1.000,"P-1-1",         11894,   48.0260E-03,   31.1493E-03,            0.,NA,NA,"",   1.04665E+06,   1.05711E+06,   1.05711E+06
C:/temp/Job-1.odb,Step-1,Increment      1: Step Time =    1.000,"P-1-1",         11895,   30.7290E-03,   57.0611E-03,            0.,NA,NA,"",   945.854E+03,   1.00279E+06,   1.00279E+06
C:/temp/Job-1.odb,Step-1,Increment      1: Step Time =    1.000,"P-1-1",         11896,   31.7272E-03,   53.9346E-03,            0.,NA,NA,"",   961.112E+03,   1.01384E+06,   1.01384E+06
C:/temp/Job-1.odb,Step-1,Increment      1: Step Time =    1.000,"P-1-1",         11897,   66.4902E-03,   31.5572E-03,            0.,NA,NA,"",   1.04286E+06,   1.04640E+06,   1.04640E+06
C:/temp/Job-1.odb,Step-1,Increment      1: Step Time =    1.000,"P-1-1",         11898,   169.408E-03,   66.5795E-03,            0.,NA,NA,"",   1.01021E+06,   1.00842E+06,   1.00842E+06
C:/temp/Job-1.odb,Step-1,Increment      1: Step Time =    1.000,"P-1-1",         11899,   56.0113E-03,   168.667E-03,            0.,NA,NA,"",   1.04739E+06,   1.05280E+06,   1.05280E+06
C:/temp/Job-1.odb,Step-1,Increment      1: Step Time =    1.000,"P-1-1",         11900,   53.3477E-03,   167.445E-03,            0.,NA,NA,"",   1.04864E+06,   1.05585E+06,   1.05585E+06
C:/temp/Job-1.odb,Step-1,Increment      1: Step Time =    1.000,"P-1-1",         11901,   151.669E-03,   169.074E-03,            0.,NA,NA,"",   1.02870E+06,   1.02157E+06,   1.02157E+06
C:/temp/Job-1.odb,Step-1,Increment      1: Step Time =    1.000,"P-1-1",         11902,   30.5920E-03,   150.756E-03,            0.,NA,NA,"",   972.328E+03,   1.02419E+06,   1.02419E+06
C:/temp/Job-1.odb,Step-1,Increment      1: Step Time =    1.000,"P-1-1",         11903,   134.124E-03,   168.535E-03,            0.,NA,NA,"",   1.03294E+06,   1.02806E+06,   1.02806E+06
C:/temp/Job-1.odb,Step-1,Increment      1: Step Time =    1.000,"P-1-1",         11904,   30.4594E-03,   134.063E-03,            0.,NA,NA,"",   911.990E+03,   975.121E+03,   975.121E+03
C:/temp/Job-1.odb,Step-1,Increment      1: Step Time =    1.000,"P-1-1",         11905,   173.927E-03,   47.3584E-03,            0.,NA,NA,"",   1.01611E+06,   1.01363E+06,   1.01363E+06
C:/temp/Job-1.odb,Step-1,Increment      1: Step Time =    1.000,"P-1-1",         11906,   47.6583E-03,   26.9166E-03,            0.,NA,NA,"",   1.04489E+06,   1.05327E+06,   1.05327E+06
C:/temp/Job-1.odb,Step-1,Increment      1: Step Time =    1.000,"P-1-1",         11907,   152.485E-03,   174.000E-03,            0.,NA,NA,"",   1.01977E+06,   1.01452E+06,   1.01452E+06
C:/temp/Job-1.odb,Step-1,Increment      1: Step Time =    1.000,"P-1-1",         11908,   28.4809E-03,   153.013E-03,            0.,NA,NA,"",   972.244E+03,   1.02645E+06,   1.02645E+06
C:/temp/Job-1.odb,Step-1,Increment      1: Step Time =    1.000,"P-1-1",         11909,   152.874E-03,   172.542E-03,            0.,NA,NA,"",   1.02211E+06,   1.01637E+06,   1.01637E+06
C:/temp/Job-1.odb,Step-1,Increment      1: Step Time =    1.000,"P-1-1",         11910,   46.6719E-03,   28.7724E-03,            0.,NA,NA,"",   1.04592E+06,   1.05623E+06,   1.05623E+06
C:/temp/Job-1.odb,Step-1,Increment      1: Step Time =    1.000,"P-1-1",         11911,   172.289E-03,   46.0781E-03,            0.,NA,NA,"",   1.01830E+06,   1.01494E+06,   1.01494E+06
C:/temp/Job-1.odb,Step-1,Increment      1: Step Time =    1.000,"P-1-1",         11912,   59.8311E-03,   70.6266E-03,            0.,NA,NA,"",   1.04047E+06,   1.04241E+06,   1.04241E+06
C:/temp/Job-1.odb,Step-1,Increment      1: Step Time =    1.000,"P-1-1",         11913,   168.731E-03,   88.1911E-03,            0.,NA,NA,"",   961.616E+03,   971.449E+03,   971.449E+03
C:/temp/Job-1.odb,Step-1,Increment      1: Step Time =    1.000,"P-1-1",         11914,   137.418E-03,   84.1552E-03,            0.,NA,NA,"",   987.375E+03,   956.380E+03,   956.380E+03
C:/temp/Job-1.odb,Step-1,Increment      1: Step Time =    1.000,"P-1-1",         11915,   126.091E-03,   79.7552E-03,            0.,NA,NA,"",   1.17790E+06,   1.10025E+06,   1.10025E+06
C:/temp/Job-1.odb,Step-1,Increment      1: Step Time =    1.000,"P-1-1",         11916,   127.454E-03,   75.1632E-03,            0.,NA,NA,"",   1.18335E+06,   1.12073E+06,   1.12073E+06
C:/temp/Job-1.odb,Step-1,Increment      1: Step Time =    1.000,"P-1-1",         11917,   131.618E-03,   30.7603E-03,            0.,NA,NA,"",   1.02962E+06,   1.02616E+06,   1.02616E+06
C:/temp/Job-1.odb,Step-1,Increment      1: Step Time =    1.000,"P-1-1",         11918,   168.870E-03,   132.489E-03,            0.,NA,NA,"",   1.00954E+06,   1.00764E+06,   1.00764E+06
C:/temp/Job-1.odb,Step-1,Increment      1: Step Time =    1.000,"P-1-1",         11919,   145.971E-03,   114.097E-03,            0.,NA,NA,"",   946.038E+03,   937.582E+03,   937.582E+03
C:/temp/Job-1.odb,Step-1,Increment      1: Step Time =    1.000,"P-1-1",         11920,   107.079E-03,   170.334E-03,            0.,NA,NA,"",   1.00255E+06,   1.01384E+06,   1.01384E+06
C:/temp/Job-1.odb,Step-1,Increment      1: Step Time =    1.000,"P-1-1",         11921,   30.1518E-03,   106.677E-03,            0.,NA,NA,"",   821.482E+03,   898.255E+03,   898.255E+03
C:/temp/Job-1.odb,Step-1,Increment      1: Step Time =    1.000,"P-1-1",         11922,   92.8599E-03,   145.919E-03,            0.,NA,NA,"",   1.04198E+06,   1.08137E+06,   1.08137E+06
C:/temp/Job-1.odb,Step-1,Increment      1: Step Time =    1.000,"P-1-1",         11923,   98.3274E-03,   145.374E-03,            0.,NA,NA,"",   1.02996E+06,   1.07620E+06,   1.07620E+06
C:/temp/Job-1.odb,Step-1,Increment      1: Step Time =    1.000,"P-1-1",         11924,   93.8228E-03,   30.8535E-03,            0.,NA,NA,"",   1.00542E+06,   1.01918E+06,   1.01918E+06
C:/temp/Job-1.odb,Step-1,Increment      1: Step Time =    1.000,"P-1-1",         11925,   145.291E-03,   107.514E-03,            0.,NA,NA,"",   879.333E+03,   883.824E+03,   883.824E+03
C:/temp/Job-1.odb,Step-1,Increment      1: Step Time =    1.000,"P-1-1",         11926,   100.523E-03,   144.553E-03,            0.,NA,NA,"",   1.03066E+06,   1.07849E+06,   1.07849E+06
C:/temp/Job-1.odb,Step-1,Increment      1: Step Time =    1.000,"P-1-1",         11927,   64.7175E-03,   69.7578E-03,            0.,NA,NA,"",    1.0833E+06,   1.07332E+06,   1.07332E+06
C:/temp/Job-1.odb,Step-1,Increment      1: Step Time =    1.000,"P-1-1",         11928,   170.578E-03,   95.9288E-03,            0.,NA,NA,"",   952.845E+03,   966.432E+03,   966.432E+03
C:/temp/Job-1.odb,Step-1,Increment      1: Step Time =    1.000,"P-1-1",         11929,   146.137E-03,   111.780E-03,            0.,NA,NA,"",   922.824E+03,   919.182E+03,   919.182E+03
C:/temp/Job-1.odb,Step-1,Increment      1: Step Time =    1.000,"P-1-1",         11930,   103.574E-03,   146.573E-03,            0.,NA,NA,"",   1.03136E+06,   1.07269E+06,   1.07269E+06
C:/temp/Job-1.odb,Step-1,Increment      1: Step Time =    1.000,"P-1-1",         11931,   168.792E-03,   77.8284E-03,            0.,NA,NA,"",   987.198E+03,   990.719E+03,   990.719E+03
C:/temp/Job-1.odb,Step-1,Increment      1: Step Time =    1.000,"P-1-1",         11932,   77.9450E-03,   30.7644E-03,            0.,NA,NA,"",   1.02664E+06,   1.03348E+06,   1.03348E+06
C:/temp/Job-1.odb,Step-1,Increment      1: Step Time =    1.000,"P-1-1",         11933,   61.8678E-03,   70.2265E-03,            0.,NA,NA,"",   1.05921E+06,   1.05560E+06,   1.05560E+06
C:/temp/Job-1.odb,Step-1,Increment      1: Step Time =    1.000,"P-1-1",         11934,   67.0870E-03,   133.510E-03,            0.,NA,NA,"",   1.10727E+06,   1.09561E+06,   1.09561E+06
C:/temp/Job-1.odb,Step-1,Increment      1: Step Time =    1.000,"P-1-1",         11935,   136.437E-03,   76.0743E-03,            0.,NA,NA,"",   1.09050E+06,   1.04606E+06,   1.04606E+06
C:/temp/Job-1.odb,Step-1,Increment      1: Step Time =    1.000,"P-1-1",         11936,   138.539E-03,   87.6190E-03,            0.,NA,NA,"",   924.524E+03,   907.308E+03,   907.308E+03
C:/temp/Job-1.odb,Step-1,Increment      1: Step Time =    1.000,"P-1-1",         11937,   55.9832E-03,   31.8865E-03,            0.,NA,NA,"",   1.04802E+06,   1.05352E+06,   1.05352E+06
C:/temp/Job-1.odb,Step-1,Increment      1: Step Time =    1.000,"P-1-1",         11938,   168.273E-03,   56.6215E-03,            0.,NA,NA,"",   1.02323E+06,   1.01791E+06,   1.01791E+06
C:/temp/Job-1.odb,Step-1,Increment      1: Step Time =    1.000,"P-1-1",         11939,   56.7764E-03,   77.8439E-03,            0.,NA,NA,"",   966.545E+03,   982.541E+03,   982.541E+03
C:/temp/Job-1.odb,Step-1,Increment      1: Step Time =    1.000,"P-1-1",         11940,   89.2957E-03,   168.806E-03,            0.,NA,NA,"",   1.01079E+06,   1.02336E+06,   1.02336E+06
C:/temp/Job-1.odb,Step-1,Increment      1: Step Time =    1.000,"P-1-1",         11941,   31.3903E-03,   88.8726E-03,            0.,NA,NA,"",   832.116E+03,   906.120E+03,   906.120E+03
C:/temp/Job-1.odb,Step-1,Increment      1: Step Time =    1.000,"P-1-1",         11942,   167.130E-03,   110.063E-03,            0.,NA,NA,"",   955.673E+03,   965.588E+03,   965.588E+03
C:/temp/Job-1.odb,Step-1,Increment      1: Step Time =    1.000,"P-1-1",         11943,   56.7737E-03,   74.8827E-03,            0.,NA,NA,"",   991.154E+03,   1.00392E+06,   1.00392E+06
C:/temp/Job-1.odb,Step-1,Increment      1: Step Time =    1.000,"P-1-1",         11944,   145.854E-03,   105.498E-03,            0.,NA,NA,"",   867.680E+03,   875.666E+03,   875.666E+03
C:/temp/Job-1.odb,Step-1,Increment      1: Step Time =    1.000,"P-1-1",         11945,   110.256E-03,   31.8326E-03,            0.,NA,NA,"",   1.00888E+06,   1.02006E+06,   1.02006E+06
C:/temp/Job-1.odb,Step-1,Increment      1: Step Time =    1.000,"P-1-1",         11946,   145.704E-03,   101.723E-03,            0.,NA,NA,"",   849.214E+03,   860.896E+03,   860.896E+03
C:/temp/Job-1.odb,Step-1,Increment      1: Step Time =    1.000,"P-1-1",         11947,   168.915E-03,   137.372E-03,            0.,NA,NA,"",   1.01668E+06,   1.01311E+06,   1.01311E+06
C:/temp/Job-1.odb,Step-1,Increment      1: Step Time =    1.000,"P-1-1",         11948,   137.029E-03,   31.4332E-03,            0.,NA,NA,"",   1.03343E+06,   1.02752E+06,   1.02752E+06
C:/temp/Job-1.odb,Step-1,Increment      1: Step Time =    1.000,"P-1-1",         11949,   27.6695E-03,   58.0881E-03,            0.,NA,NA,"",   930.257E+03,   993.635E+03,   993.635E+03
C:/temp/Job-1.odb,Step-1,Increment      1: Step Time =    1.000,"P-1-1",         11950,   56.8259E-03,   172.436E-03,            0.,NA,NA,"",   1.04153E+06,   1.04554E+06,   1.04554E+06
C:/temp/Job-1.odb,Step-1,Increment      1: Step Time =    1.000,"P-1-1",         11951,   57.0339E-03,   85.6314E-03,            0.,NA,NA,"",   880.134E+03,   909.238E+03,   909.238E+03
C:/temp/Job-1.odb,Step-1,Increment      1: Step Time =    1.000,"P-1-1",         11952,   25.5747E-03,   130.361E-03,            0.,NA,NA,"",   881.163E+03,   954.621E+03,   954.621E+03
C:/temp/Job-1.odb,Step-1,Increment      1: Step Time =    1.000,"P-1-1",         11953,   129.250E-03,   175.070E-03,            0.,NA,NA,"",   1.01334E+06,   1.01202E+06,   1.01202E+06
C:/temp/Job-1.odb,Step-1,Increment      1: Step Time =    1.000,"P-1-1",         11954,   56.7721E-03,   87.6800E-03,            0.,NA,NA,"",   855.157E+03,   889.208E+03,   889.208E+03
C:/temp/Job-1.odb,Step-1,Increment      1: Step Time =    1.000,"P-1-1",         11955,   80.2714E-03,   71.6947E-03,            0.,NA,NA,"",   1.20838E+06,   1.18797E+06,   1.18797E+06
C:/temp/Job-1.odb,Step-1,Increment      1: Step Time =    1.000,"P-1-1",         11956,   159.567E-03,   31.7920E-03,            0.,NA,NA,"",   1.02411E+06,   1.01802E+06,   1.01802E+06
C:/temp/Job-1.odb,Step-1,Increment      1: Step Time =    1.000,"P-1-1",         11957,   145.602E-03,   98.4603E-03,            0.,NA,NA,"",   847.661E+03,   859.531E+03,   859.531E+03
C:/temp/Job-1.odb,Step-1,Increment      1: Step Time =    1.000,"P-1-1",         11958,   56.8850E-03,   81.2174E-03,            0.,NA,NA,"",   932.462E+03,   953.442E+03,   953.442E+03
C:/temp/Job-1.odb,Step-1,Increment      1: Step Time =    1.000,"P-1-1",         11959,   174.876E-03,   134.121E-03,            0.,NA,NA,"",   1.00358E+06,   1.00599E+06,   1.00599E+06
C:/temp/Job-1.odb,Step-1,Increment      1: Step Time =    1.000,"P-1-1",         11960,   132.316E-03,   26.3331E-03,            0.,NA,NA,"",   1.01880E+06,   1.01611E+06,   1.01611E+06
C:/temp/Job-1.odb,Step-1,Increment      1: Step Time =    1.000,"P-1-1",         11961,   32.4084E-03,   118.918E-03,            0.,NA,NA,"",   858.875E+03,   927.933E+03,   927.933E+03
C:/temp/Job-1.odb,Step-1,Increment      1: Step Time =    1.000,"P-1-1",         11962,   119.878E-03,   166.952E-03,            0.,NA,NA,"",   1.02378E+06,   1.02813E+06,   1.02813E+06
C:/temp/Job-1.odb,Step-1,Increment      1: Step Time =    1.000,"P-1-1",         11963,   120.795E-03,   77.2379E-03,            0.,NA,NA,"",   1.26136E+06,   1.19126E+06,   1.19126E+06
C:/temp/Job-1.odb,Step-1,Increment      1: Step Time =    1.000,"P-1-1",         11964,   97.5647E-03,   66.4944E-03,            0.,NA,NA,"",   1.06296E+06,   1.14006E+06,   1.14006E+06
C:/temp/Job-1.odb,Step-1,Increment      1: Step Time =    1.000,"P-1-1",         11965,   28.4309E-03,   70.1806E-03,            0.,NA,NA,"",   888.621E+03,   957.684E+03,   957.684E+03
C:/temp/Job-1.odb,Step-1,Increment      1: Step Time =    1.000,"P-1-1",         11966,   71.7491E-03,   172.054E-03,            0.,NA,NA,"",   1.02853E+06,   1.03241E+06,   1.03241E+06
C:/temp/Job-1.odb,Step-1,Increment      1: Step Time =    1.000,"P-1-1",         11967,   145.463E-03,   121.128E-03,            0.,NA,NA,"",   1.01402E+06,   992.345E+03,   992.345E+03
C:/temp/Job-1.odb,Step-1,Increment      1: Step Time =    1.000,"P-1-1",         11968,   79.7710E-03,   69.6371E-03,            0.,NA,NA,"",   1.18920E+06,   1.17513E+06,   1.17513E+06
C:/temp/Job-1.odb,Step-1,Increment      1: Step Time =    1.000,"P-1-1",         11969,   31.2600E-03,   155.629E-03,            0.,NA,NA,"",   991.084E+03,   1.03744E+06,   1.03744E+06
C:/temp/Job-1.odb,Step-1,Increment      1: Step Time =    1.000,"P-1-1",         11970,   156.058E-03,   168.180E-03,            0.,NA,NA,"",   1.02709E+06,   1.02025E+06,   1.02025E+06
C:/temp/Job-1.odb,Step-1,Increment      1: Step Time =    1.000,"P-1-1",         11971,   42.8338E-03,   32.2621E-03,            0.,NA,NA,"",   1.04340E+06,   1.06007E+06,   1.06007E+06
C:/temp/Job-1.odb,Step-1,Increment      1: Step Time =    1.000,"P-1-1",         11972,   167.854E-03,   43.8396E-03,            0.,NA,NA,"",   1.02460E+06,   1.01895E+06,   1.01895E+06
C:/temp/Job-1.odb,Step-1,Increment      1: Step Time =    1.000,"P-1-1",         11973,   86.5948E-03,   166.367E-03,            0.,NA,NA,"",   1.01907E+06,   1.03199E+06,   1.03199E+06
C:/temp/Job-1.odb,Step-1,Increment      1: Step Time =    1.000,"P-1-1",         11974,   33.0271E-03,   86.0659E-03,            0.,NA,NA,"",   842.563E+03,   913.347E+03,   913.347E+03
C:/temp/Job-1.odb,Step-1,Increment      1: Step Time =    1.000,"P-1-1",         11975,   166.016E-03,   113.155E-03,            0.,NA,NA,"",   961.761E+03,   969.411E+03,   969.411E+03
C:/temp/Job-1.odb,Step-1,Increment      1: Step Time =    1.000,"P-1-1",         11976,   61.0049E-03,   126.607E-03,            0.,NA,NA,"",   1.03508E+06,   1.03430E+06,   1.03430E+06
C:/temp/Job-1.odb,Step-1,Increment      1: Step Time =    1.000,"P-1-1",         11977,   77.4197E-03,   167.655E-03,            0.,NA,NA,"",   1.03122E+06,   1.03828E+06,   1.03828E+06
C:/temp/Job-1.odb,Step-1,Increment      1: Step Time =    1.000,"P-1-1",         11978,   32.3036E-03,   76.7419E-03,            0.,NA,NA,"",   875.388E+03,   942.036E+03,   942.036E+03
C:/temp/Job-1.odb,Step-1,Increment      1: Step Time =    1.000,"P-1-1",         11979,   168.296E-03,   123.787E-03,            0.,NA,NA,"",   991.335E+03,   993.516E+03,   993.516E+03
C:/temp/Job-1.odb,Step-1,Increment      1: Step Time =    1.000,"P-1-1",         11980,   123.033E-03,   31.7700E-03,            0.,NA,NA,"",   1.02436E+06,   1.02616E+06,   1.02616E+06
C:/temp/Job-1.odb,Step-1,Increment      1: Step Time =    1.000,"P-1-1",         11981,   127.216E-03,   167.860E-03,            0.,NA,NA,"",   1.03000E+06,   1.02877E+06,   1.02877E+06
C:/temp/Job-1.odb,Step-1,Increment      1: Step Time =    1.000,"P-1-1",         11982,   30.6728E-03,   127.002E-03,            0.,NA,NA,"",   885.290E+03,   952.328E+03,   952.328E+03
C:/temp/Job-1.odb,Step-1,Increment      1: Step Time =    1.000,"P-1-1",         11983,   56.2381E-03,   116.258E-03,            0.,NA,NA,"",   901.271E+03,   928.522E+03,   928.522E+03
C:/temp/Job-1.odb,Step-1,Increment      1: Step Time =    1.000,"P-1-1",         11984,   80.7719E-03,   144.601E-03,            0.,NA,NA,"",   1.09256E+06,   1.10537E+06,   1.10537E+06
C:/temp/Job-1.odb,Step-1,Increment      1: Step Time =    1.000,"P-1-1",         11985,   168.591E-03,   89.3652E-03,            0.,NA,NA,"",   959.186E+03,   969.572E+03,   969.572E+03
C:/temp/Job-1.odb,Step-1,Increment      1: Step Time =    1.000,"P-1-1",         11986,   56.3631E-03,   103.422E-03,            0.,NA,NA,"",   770.755E+03,   820.917E+03,   820.917E+03
C:/temp/Job-1.odb,Step-1,Increment      1: Step Time =    1.000,"P-1-1",         11987,   121.734E-03,   80.9752E-03,            0.,NA,NA,"",   1.24455E+06,   1.15074E+06,   1.15074E+06
C:/temp/Job-1.odb,Step-1,Increment      1: Step Time =    1.000,"P-1-1",         11988,   152.117E-03,   30.4757E-03,            0.,NA,NA,"",   1.02765E+06,   1.02075E+06,   1.02075E+06
C:/temp/Job-1.odb,Step-1,Increment      1: Step Time =    1.000,"P-1-1",         11989,   170.059E-03,   150.397E-03,            0.,NA,NA,"",   1.02215E+06,   1.01753E+06,   1.01753E+06
C:/temp/Job-1.odb,Step-1,Increment      1: Step Time =    1.000,"P-1-1",         11990,   30.0220E-03,   48.8754E-03,            0.,NA,NA,"",   971.242E+03,   1.02394E+06,   1.02394E+06
C:/temp/Job-1.odb,Step-1,Increment      1: Step Time =    1.000,"P-1-1",         11991,   56.8184E-03,   91.2485E-03,            0.,NA,NA,"",   812.588E+03,   854.221E+03,   854.221E+03
C:/temp/Job-1.odb,Step-1,Increment      1: Step Time =    1.000,"P-1-1",         11992,   132.848E-03,   172.686E-03,            0.,NA,NA,"",   1.02148E+06,   1.01835E+06,   1.01835E+06
C:/temp/Job-1.odb,Step-1,Increment      1: Step Time =    1.000,"P-1-1",         11993,   27.2924E-03,   132.357E-03,            0.,NA,NA,"",   894.108E+03,   963.747E+03,   963.747E+03
C:/temp/Job-1.odb,Step-1,Increment      1: Step Time =    1.000,"P-1-1",         11994,   98.6613E-03,   67.6508E-03,            0.,NA,NA,"",   1.06606E+06,   1.14889E+06,   1.14889E+06
C:/temp/Job-1.odb,Step-1,Increment      1: Step Time =    1.000,"P-1-1",         11995,   57.1168E-03,   117.061E-03,            0.,NA,NA,"",   914.416E+03,   937.707E+03,   937.707E+03
C:/temp/Job-1.odb,Step-1,Increment      1: Step Time =    1.000,"P-1-1",         11996,   121.763E-03,   30.7804E-03,            0.,NA,NA,"",   1.02038E+06,   1.02300E+06,   1.02300E+06
C:/temp/Job-1.odb,Step-1,Increment      1: Step Time =    1.000,"P-1-1",         11997,   34.2586E-03,   147.279E-03,            0.,NA,NA,"",   975.171E+03,   1.02198E+06,   1.02198E+06
C:/temp/Job-1.odb,Step-1,Increment      1: Step Time =    1.000,"P-1-1",         11998,   169.329E-03,   122.000E-03,            0.,NA,NA,"",   986.455E+03,   990.516E+03,   990.516E+03
C:/temp/Job-1.odb,Step-1,Increment      1: Step Time =    1.000,"P-1-1",         11999,   169.062E-03,   45.3836E-03,            0.,NA,NA,"",   1.02323E+06,   1.01811E+06,   1.01811E+06
C:/temp/Job-1.odb,Step-1,Increment      1: Step Time =    1.000,"P-1-1",         12000,   45.2435E-03,   31.7484E-03,            0.,NA,NA,"",   1.04539E+06,   1.05891E+06,   1.05891E+06
C:/temp/Job-1.odb,Step-1,Increment      1: Step Time =    1.000,"P-1-1",         12001,   145.438E-03,   166.231E-03,            0.,NA,NA,"",   1.03801E+06,   1.02942E+06,   1.02942E+06
C:/temp/Job-1.odb,Step-1,Increment      1: Step Time =    1.000,"P-1-1",         12002,   31.0188E-03,   77.9507E-03,            0.,NA,NA,"",   867.011E+03,   936.422E+03,   936.422E+03
C:/temp/Job-1.odb,Step-1,Increment      1: Step Time =    1.000,"P-1-1",         12003,   78.6586E-03,   167.945E-03,            0.,NA,NA,"",   1.02863E+06,   1.03626E+06,   1.03626E+06
C:/temp/Job-1.odb,Step-1,Increment      1: Step Time =    1.000,"P-1-1",         12004,   154.520E-03,   169.655E-03,            0.,NA,NA,"",   1.02595E+06,   1.01938E+06,   1.01938E+06
C:/temp/Job-1.odb,Step-1,Increment      1: Step Time =    1.000,"P-1-1",         12005,   30.6253E-03,   154.736E-03,            0.,NA,NA,"",   986.267E+03,   1.03457E+06,   1.03457E+06
C:/temp/Job-1.odb,Step-1,Increment      1: Step Time =    1.000,"P-1-1",         12006,   53.4726E-03,   33.4235E-03,            0.,NA,NA,"",   1.04927E+06,   1.05673E+06,   1.05673E+06
C:/temp/Job-1.odb,Step-1,Increment      1: Step Time =    1.000,"P-1-1",         12007,   166.553E-03,   53.9405E-03,            0.,NA,NA,"",   1.02771E+06,   1.02089E+06,   1.02089E+06
C:/temp/Job-1.odb,Step-1,Increment      1: Step Time =    1.000,"P-1-1",         12008,   32.5286E-03,   33.3971E-03,            0.,NA,NA,"",   1.02864E+06,   1.06167E+06,   1.06167E+06
C:/temp/Job-1.odb,Step-1,Increment      1: Step Time =    1.000,"P-1-1",         12009,   113.857E-03,   32.8712E-03,            0.,NA,NA,"",   1.01513E+06,   1.02438E+06,   1.02438E+06
C:/temp/Job-1.odb,Step-1,Increment      1: Step Time =    1.000,"P-1-1",         12010,   166.549E-03,   139.994E-03,            0.,NA,NA,"",   1.02377E+06,   1.01765E+06,   1.01765E+06
C:/temp/Job-1.odb,Step-1,Increment      1: Step Time =    1.000,"P-1-1",         12011,   139.681E-03,   32.4996E-03,            0.,NA,NA,"",   1.03660E+06,   1.02945E+06,   1.02945E+06
C:/temp/Job-1.odb,Step-1,Increment      1: Step Time =    1.000,"P-1-1",         12012,   47.2849E-03,   167.934E-03,            0.,NA,NA,"",   1.04631E+06,   1.05806E+06,   1.05806E+06
C:/temp/Job-1.odb,Step-1,Increment      1: Step Time =    1.000,"P-1-1",         12013,   170.235E-03,   148.665E-03,            0.,NA,NA,"",   1.02167E+06,   1.01724E+06,   1.01724E+06
C:/temp/Job-1.odb,Step-1,Increment      1: Step Time =    1.000,"P-1-1",         12014,   150.232E-03,   30.6775E-03,            0.,NA,NA,"",   1.02915E+06,   1.02200E+06,   1.02200E+06
C:/temp/Job-1.odb,Step-1,Increment      1: Step Time =    1.000,"P-1-1",         12015,   31.9262E-03,   162.786E-03,            0.,NA,NA,"",   1.01582E+06,   1.05420E+06,   1.05420E+06
C:/temp/Job-1.odb,Step-1,Increment      1: Step Time =    1.000,"P-1-1",         12016,   163.874E-03,   168.753E-03,            0.,NA,NA,"",   1.01966E+06,   1.01479E+06,   1.01479E+06
C:/temp/Job-1.odb,Step-1,Increment      1: Step Time =    1.000,"P-1-1",         12017,   31.3745E-03,   47.4120E-03,            0.,NA,NA,"",   981.630E+03,   1.03029E+06,   1.03029E+06
C:/temp/Job-1.odb,Step-1,Increment      1: Step Time =    1.000,"P-1-1",         12018,   37.1882E-03,   31.9405E-03,            0.,NA,NA,"",   1.03841E+06,   1.06234E+06,   1.06234E+06
C:/temp/Job-1.odb,Step-1,Increment      1: Step Time =    1.000,"P-1-1",         12019,   167.604E-03,   36.4449E-03,            0.,NA,NA,"",   1.02058E+06,   1.01580E+06,   1.01580E+06
C:/temp/Job-1.odb,Step-1,Increment      1: Step Time =    1.000,"P-1-1",         12020,   168.937E-03,   151.550E-03,            0.,NA,NA,"",   1.02405E+06,   1.01872E+06,   1.01872E+06
C:/temp/Job-1.odb,Step-1,Increment      1: Step Time =    1.000,"P-1-1",         12021,   153.822E-03,   31.6306E-03,            0.,NA,NA,"",   1.02845E+06,   1.02132E+06,   1.02132E+06
C:/temp/Job-1.odb,Step-1,Increment      1: Step Time =    1.000,"P-1-1",         12022,   162.814E-03,   32.9385E-03,            0.,NA,NA,"",   1.02251E+06,   1.01692E+06,   1.01692E+06
C:/temp/Job-1.odb,Step-1,Increment      1: Step Time =    1.000,"P-1-1",         12023,   32.6835E-03,   38.0562E-03,            0.,NA,NA,"",   1.01513E+06,   1.05292E+06,   1.05292E+06
C:/temp/Job-1.odb,Step-1,Increment      1: Step Time =    1.000,"P-1-1",         12024,   168.235E-03,   162.548E-03,            0.,NA,NA,"",   1.02048E+06,    1.0158E+06,    1.0158E+06
C:/temp/Job-1.odb,Step-1,Increment      1: Step Time =    1.000,"P-1-1",         12025,   54.3197E-03,   172.760E-03,            0.,NA,NA,"",   1.04247E+06,   1.04727E+06,   1.04727E+06
C:/temp/Job-1.odb,Step-1,Increment      1: Step Time =    1.000,"P-1-1",         12026,   27.3083E-03,   53.7991E-03,            0.,NA,NA,"",   944.256E+03,   1.00556E+06,   1.00556E+06
C:/temp/Job-1.odb,Step-1,Increment      1: Step Time =    1.000,"P-1-1",         12027,   135.854E-03,   127.037E-03,            0.,NA,NA,"",   1.11294E+06,   1.06797E+06,   1.06797E+06
C:/temp/Job-1.odb,Step-1,Increment      1: Step Time =    1.000,"P-1-1",         12028,   120.230E-03,   27.0584E-03,            0.,NA,NA,"",   1.01017E+06,   1.01325E+06,   1.01325E+06
C:/temp/Job-1.odb,Step-1,Increment      1: Step Time =    1.000,"P-1-1",         12029,   67.3493E-03,   67.3490E-03,            0.,NA,NA,"",   1.10784E+06,   1.09520E+06,   1.09520E+06
C:/temp/Job-1.odb,Step-1,Increment      1: Step Time =    1.000,"P-1-1",         12030,   140.470E-03,   126.759E-03,            0.,NA,NA,"",   1.07988E+06,   1.04392E+06,   1.04392E+06
C:/temp/Job-1.odb,Step-1,Increment      1: Step Time =    1.000,"P-1-1",         12031,   79.5612E-03,   171.322E-03,            0.,NA,NA,"",   1.01945E+06,   1.02625E+06,   1.02625E+06
C:/temp/Job-1.odb,Step-1,Increment      1: Step Time =    1.000,"P-1-1",         12032,   73.1661E-03,   140.742E-03,            0.,NA,NA,"",   1.11667E+06,   1.11328E+06,   1.11328E+06
C:/temp/Job-1.odb,Step-1,Increment      1: Step Time =    1.000,"P-1-1",         12033,   132.462E-03,   133.573E-03,            0.,NA,NA,"",   1.14278E+06,   1.10315E+06,   1.10315E+06
C:/temp/Job-1.odb,Step-1,Increment      1: Step Time =    1.000,"P-1-1",         12034,   102.853E-03,   170.850E-03,            0.,NA,NA,"",   999.831E+03,   1.01207E+06,   1.01207E+06
C:/temp/Job-1.odb,Step-1,Increment      1: Step Time =    1.000,"P-1-1",         12035,   30.5800E-03,   102.568E-03,            0.,NA,NA,"",   817.344E+03,   894.317E+03,   894.317E+03
C:/temp/Job-1.odb,Step-1,Increment      1: Step Time =    1.000,"P-1-1",         12036,   97.4499E-03,   30.5689E-03,            0.,NA,NA,"",   1.00240E+06,   1.01640E+06,   1.01640E+06
C:/temp/Job-1.odb,Step-1,Increment      1: Step Time =    1.000,"P-1-1",         12037,   87.1214E-03,   145.539E-03,            0.,NA,NA,"",   1.06589E+06,   1.09372E+06,   1.09372E+06
C:/temp/Job-1.odb,Step-1,Increment      1: Step Time =    1.000,"P-1-1",         12038,   50.1611E-03,   172.355E-03,            0.,NA,NA,"",   1.04485E+06,   1.05200E+06,   1.05200E+06
C:/temp/Job-1.odb,Step-1,Increment      1: Step Time =    1.000,"P-1-1",         12039,   83.7088E-03,   166.529E-03,            0.,NA,NA,"",   1.02345E+06,   1.03462E+06,   1.03462E+06
C:/temp/Job-1.odb,Step-1,Increment      1: Step Time =    1.000,"P-1-1",         12040,   32.7201E-03,   83.4169E-03,            0.,NA,NA,"",   850.878E+03,   920.748E+03,   920.748E+03
C:/temp/Job-1.odb,Step-1,Increment      1: Step Time =    1.000,"P-1-1",         12041,   165.374E-03,   116.505E-03,            0.,NA,NA,"",   970.974E+03,   975.905E+03,   975.905E+03
C:/temp/Job-1.odb,Step-1,Increment      1: Step Time =    1.000,"P-1-1",         12042,   27.5004E-03,   49.2492E-03,            0.,NA,NA,"",   960.699E+03,   1.01869E+06,   1.01869E+06
C:/temp/Job-1.odb,Step-1,Increment      1: Step Time =    1.000,"P-1-1",         12043,   56.8630E-03,   92.8107E-03,            0.,NA,NA,"",   796.013E+03,   840.521E+03,   840.521E+03
C:/temp/Job-1.odb,Step-1,Increment      1: Step Time =    1.000,"P-1-1",         12044,   101.407E-03,   27.6572E-03,            0.,NA,NA,"",   997.413E+03,   1.00885E+06,   1.00885E+06
C:/temp/Job-1.odb,Step-1,Increment      1: Step Time =    1.000,"P-1-1",         12045,   28.2125E-03,   98.6985E-03,            0.,NA,NA,"",   815.034E+03,   894.492E+03,   894.492E+03
C:/temp/Job-1.odb,Step-1,Increment      1: Step Time =    1.000,"P-1-1",         12046,   98.6008E-03,   171.205E-03,            0.,NA,NA,"",   999.304E+03,   1.01178E+06,   1.01178E+06
C:/temp/Job-1.odb,Step-1,Increment      1: Step Time =    1.000,"P-1-1",         12047,   107.498E-03,   33.7643E-03,            0.,NA,NA,"",   1.00957E+06,   1.02375E+06,   1.02375E+06
C:/temp/Job-1.odb,Step-1,Increment      1: Step Time =    1.000,"P-1-1",         12048,   32.8859E-03,   93.8281E-03,            0.,NA,NA,"",   822.904E+03,   896.637E+03,   896.637E+03
C:/temp/Job-1.odb,Step-1,Increment      1: Step Time =    1.000,"P-1-1",         12049,   166.187E-03,   107.446E-03,            0.,NA,NA,"",   949.298E+03,   960.105E+03,   960.105E+03
C:/temp/Job-1.odb,Step-1,Increment      1: Step Time =    1.000,"P-1-1",         12050,   93.7698E-03,   167.313E-03,            0.,NA,NA,"",   1.00833E+06,   1.02348E+06,   1.02348E+06
C:/temp/Job-1.odb,Step-1,Increment      1: Step Time =    1.000,"P-1-1",         12051,   75.1072E-03,   142.016E-03,            0.,NA,NA,"",   1.11265E+06,   1.11310E+06,   1.11310E+06
C:/temp/Job-1.odb,Step-1,Increment      1: Step Time =    1.000,"P-1-1",         12052,   141.371E-03,   91.6175E-03,            0.,NA,NA,"",   869.729E+03,   869.531E+03,   869.531E+03
C:/temp/Job-1.odb,Step-1,Increment      1: Step Time =    1.000,"P-1-1",         12053,   122.997E-03,   142.684E-03,            0.,NA,NA,"",   1.11789E+06,   1.10829E+06,   1.10829E+06
C:/temp/Job-1.odb,Step-1,Increment      1: Step Time =    1.000,"P-1-1",         12054,   77.1739E-03,   143.954E-03,            0.,NA,NA,"",   1.10237E+06,   1.10809E+06,   1.10809E+06
C:/temp/Job-1.odb,Step-1,Increment      1: Step Time =    1.000,"P-1-1",         12055,   169.047E-03,   58.7377E-03,            0.,NA,NA,"",   1.02025E+06,   1.01590E+06,   1.01590E+06
C:/temp/Job-1.odb,Step-1,Increment      1: Step Time =    1.000,"P-1-1",         12056,   57.1147E-03,   30.9606E-03,            0.,NA,NA,"",   1.04660E+06,   1.05143E+06,   1.05143E+06
C:/temp/Job-1.odb,Step-1,Increment      1: Step Time =    1.000,"P-1-1",         12057,   123.265E-03,   80.3463E-03,            0.,NA,NA,"",   1.22033E+06,   1.13315E+06,   1.13315E+06
C:/temp/Job-1.odb,Step-1,Increment      1: Step Time =    1.000,"P-1-1",         12058,   79.8933E-03,   168.220E-03,            0.,NA,NA,"",   1.02613E+06,   1.03431E+06,   1.03431E+06
C:/temp/Job-1.odb,Step-1,Increment      1: Step Time =    1.000,"P-1-1",         12059,   30.2201E-03,   79.4716E-03,            0.,NA,NA,"",   859.515E+03,   930.832E+03,   930.832E+03
C:/temp/Job-1.odb,Step-1,Increment      1: Step Time =    1.000,"P-1-1",         12060,   168.819E-03,   120.608E-03,            0.,NA,NA,"",   983.135E+03,   987.671E+03,   987.671E+03
C:/temp/Job-1.odb,Step-1,Increment      1: Step Time =    1.000,"P-1-1",         12061,   110.791E-03,   33.0825E-03,            0.,NA,NA,"",   1.01168E+06,   1.02320E+06,   1.02320E+06
C:/temp/Job-1.odb,Step-1,Increment      1: Step Time =    1.000,"P-1-1",         12062,   165.966E-03,   109.574E-03,            0.,NA,NA,"",   952.574E+03,   962.302E+03,   962.302E+03
C:/temp/Job-1.odb,Step-1,Increment      1: Step Time =    1.000,"P-1-1",         12063,   32.4030E-03,   89.8961E-03,            0.,NA,NA,"",   830.693E+03,   903.844E+03,   903.844E+03
C:/temp/Job-1.odb,Step-1,Increment      1: Step Time =    1.000,"P-1-1",         12064,   89.6280E-03,   166.568E-03,            0.,NA,NA,"",   1.01419E+06,   1.02848E+06,   1.02848E+06
C:/temp/Job-1.odb,Step-1,Increment      1: Step Time =    1.000,"P-1-1",         12065,   166.183E-03,   57.2408E-03,            0.,NA,NA,"",   1.02696E+06,   1.02006E+06,   1.02006E+06
C:/temp/Job-1.odb,Step-1,Increment      1: Step Time =    1.000,"P-1-1",         12066,   56.6201E-03,   32.9597E-03,            0.,NA,NA,"",   1.04936E+06,   1.05490E+06,   1.05490E+06
C:/temp/Job-1.odb,Step-1,Increment      1: Step Time =    1.000,"P-1-1",         12067,   165.700E-03,   82.6892E-03,            0.,NA,NA,"",   973.751E+03,   978.268E+03,   978.268E+03
C:/temp/Job-1.odb,Step-1,Increment      1: Step Time =    1.000,"P-1-1",         12068,   83.4010E-03,   32.0086E-03,            0.,NA,NA,"",   1.02092E+06,   1.03110E+06,   1.03110E+06
C:/temp/Job-1.odb,Step-1,Increment      1: Step Time =    1.000,"P-1-1",         12069,   136.955E-03,   127.902E-03,            0.,NA,NA,"",   1.10820E+06,   1.06594E+06,   1.06594E+06
C:/temp/Job-1.odb,Step-1,Increment      1: Step Time =    1.000,"P-1-1",         12070,   170.001E-03,   100.379E-03,            0.,NA,NA,"",   950.220E+03,   963.984E+03,   963.984E+03
C:/temp/Job-1.odb,Step-1,Increment      1: Step Time =    1.000,"P-1-1",         12071,   125.020E-03,   80.6232E-03,            0.,NA,NA,"",   1.18983E+06,   1.10586E+06,   1.10586E+06
C:/temp/Job-1.odb,Step-1,Increment      1: Step Time =    1.000,"P-1-1",         12072,   63.7910E-03,   130.806E-03,            0.,NA,NA,"",   1.07766E+06,   1.06998E+06,   1.06998E+06
C:/temp/Job-1.odb,Step-1,Increment      1: Step Time =    1.000,"P-1-1",         12073,   62.0857E-03,   129.942E-03,            0.,NA,NA,"",   1.06096E+06,   1.05708E+06,   1.05708E+06
C:/temp/Job-1.odb,Step-1,Increment      1: Step Time =    1.000,"P-1-1",         12074,   119.391E-03,   75.3790E-03,            0.,NA,NA,"",   1.26295E+06,   1.20910E+06,   1.20910E+06
C:/temp/Job-1.odb,Step-1,Increment      1: Step Time =    1.000,"P-1-1",         12075,   88.9250E-03,   64.0226E-03,            0.,NA,NA,"",   1.10634E+06,   1.14498E+06,   1.14498E+06
C:/temp/Job-1.odb,Step-1,Increment      1: Step Time =    1.000,"P-1-1",         12076,   68.8384E-03,   136.457E-03,            0.,NA,NA,"",   1.11422E+06,   1.10484E+06,   1.10484E+06
C:/temp/Job-1.odb,Step-1,Increment      1: Step Time =    1.000,"P-1-1",         12077,   30.6506E-03,   132.181E-03,            0.,NA,NA,"",   905.174E+03,   969.102E+03,   969.102E+03
C:/temp/Job-1.odb,Step-1,Increment      1: Step Time =    1.000,"P-1-1",         12078,   132.802E-03,   169.101E-03,            0.,NA,NA,"",   1.03085E+06,   1.02673E+06,   1.02673E+06
C:/temp/Job-1.odb,Step-1,Increment      1: Step Time =    1.000,"P-1-1",         12079,   64.2622E-03,   68.7449E-03,            0.,NA,NA,"",   1.08320E+06,   1.07463E+06,   1.07463E+06
C:/temp/Job-1.odb,Step-1,Increment      1: Step Time =    1.000,"P-1-1",         12080,   30.5633E-03,   169.210E-03,            0.,NA,NA,"",   1.03282E+06,   1.06657E+06,   1.06657E+06
C:/temp/Job-1.odb,Step-1,Increment      1: Step Time =    1.000,"P-1-1",         12081,   67.7692E-03,   32.1300E-03,            0.,NA,NA,"",   1.04299E+06,   1.04674E+06,   1.04674E+06
C:/temp/Job-1.odb,Step-1,Increment      1: Step Time =    1.000,"P-1-1",         12082,   169.444E-03,   68.3942E-03,            0.,NA,NA,"",   1.00726E+06,   1.00620E+06,   1.00620E+06
C:/temp/Job-1.odb,Step-1,Increment      1: Step Time =    1.000,"P-1-1",         12083,   82.7587E-03,   30.6986E-03,            0.,NA,NA,"",   1.01932E+06,   1.02851E+06,   1.02851E+06
C:/temp/Job-1.odb,Step-1,Increment      1: Step Time =    1.000,"P-1-1",         12084,   32.8793E-03,   47.1836E-03,            0.,NA,NA,"",   987.665E+03,   1.03309E+06,   1.03309E+06
C:/temp/Job-1.odb,Step-1,Increment      1: Step Time =    1.000,"P-1-1",         12085,   47.9292E-03,   166.605E-03,            0.,NA,NA,"",   1.04658E+06,   1.05848E+06,   1.05848E+06
C:/temp/Job-1.odb,Step-1,Increment      1: Step Time =    1.000,"P-1-1",         12086,   167.872E-03,   152.305E-03,            0.,NA,NA,"",   1.02565E+06,   1.01975E+06,   1.01975E+06
C:/temp/Job-1.odb,Step-1,Increment      1: Step Time =    1.000,"P-1-1",         12087,   153.033E-03,   33.0534E-03,            0.,NA,NA,"",   1.03141E+06,   1.02361E+06,   1.02361E+06
C:/temp/Job-1.odb,Step-1,Increment      1: Step Time =    1.000,"P-1-1",         12088,   54.9322E-03,   102.984E-03,            0.,NA,NA,"",   776.721E+03,   828.548E+03,   828.548E+03
C:/temp/Job-1.odb,Step-1,Increment      1: Step Time =    1.000,"P-1-1",         12089,   141.951E-03,   124.268E-03,            0.,NA,NA,"",   1.05614E+06,   1.02394E+06,   1.02394E+06
C:/temp/Job-1.odb,Step-1,Increment      1: Step Time =    1.000,"P-1-1",         12090,   167.909E-03,   87.4401E-03,            0.,NA,NA,"",   962.249E+03,   971.281E+03,   971.281E+03
C:/temp/Job-1.odb,Step-1,Increment      1: Step Time =    1.000,"P-1-1",         12091,   123.521E-03,   139.730E-03,            0.,NA,NA,"",   1.13596E+06,   1.12040E+06,   1.12040E+06
C:/temp/Job-1.odb,Step-1,Increment      1: Step Time =    1.000,"P-1-1",         12092,   60.4273E-03,   69.3465E-03,            0.,NA,NA,"",   1.05126E+06,   1.05134E+06,   1.05134E+06
C:/temp/Job-1.odb,Step-1,Increment      1: Step Time =    1.000,"P-1-1",         12093,   143.150E-03,   92.7295E-03,            0.,NA,NA,"",   866.394E+03,   870.195E+03,   870.195E+03
C:/temp/Job-1.odb,Step-1,Increment      1: Step Time =    1.000,"P-1-1",         12094,   139.647E-03,   127.188E-03,            0.,NA,NA,"",   1.08736E+06,   1.04979E+06,   1.04979E+06
C:/temp/Job-1.odb,Step-1,Increment      1: Step Time =    1.000,"P-1-1",         12095,   72.3803E-03,   139.732E-03,            0.,NA,NA,"",   1.11864E+06,   1.11354E+06,   1.11354E+06
C:/temp/Job-1.odb,Step-1,Increment      1: Step Time =    1.000,"P-1-1",         12096,   60.8309E-03,   31.6424E-03,            0.,NA,NA,"",   1.04646E+06,   1.05037E+06,   1.05037E+06
C:/temp/Job-1.odb,Step-1,Increment      1: Step Time =    1.000,"P-1-1",         12097,   168.328E-03,   61.8783E-03,            0.,NA,NA,"",   1.01858E+06,   1.01433E+06,   1.01433E+06
C:/temp/Job-1.odb,Step-1,Increment      1: Step Time =    1.000,"P-1-1",         12098,   139.241E-03,   169.235E-03,            0.,NA,NA,"",   1.03222E+06,   1.02592E+06,   1.02592E+06
C:/temp/Job-1.odb,Step-1,Increment      1: Step Time =    1.000,"P-1-1",         12099,   32.1549E-03,   137.940E-03,            0.,NA,NA,"",   933.448E+03,   990.868E+03,   990.868E+03
C:/temp/Job-1.odb,Step-1,Increment      1: Step Time =    1.000,"P-1-1",         12100,   140.485E-03,   33.6644E-03,            0.,NA,NA,"",   1.03933E+06,   1.03146E+06,   1.03146E+06
C:/temp/Job-1.odb,Step-1,Increment      1: Step Time =    1.000,"P-1-1",         12101,   165.416E-03,   140.651E-03,            0.,NA,NA,"",   1.02678E+06,   1.01955E+06,   1.01955E+06
C:/temp/Job-1.odb,Step-1,Increment      1: Step Time =    1.000,"P-1-1",         12102,   115.459E-03,   33.4304E-03,            0.,NA,NA,"",   1.01841E+06,   1.02656E+06,   1.02656E+06
C:/temp/Job-1.odb,Step-1,Increment      1: Step Time =    1.000,"P-1-1",         12103,   106.464E-03,   31.7817E-03,            0.,NA,NA,"",   1.00566E+06,   1.01882E+06,   1.01882E+06
C:/temp/Job-1.odb,Step-1,Increment      1: Step Time =    1.000,"P-1-1",         12104,   168.768E-03,   105.506E-03,            0.,NA,NA,"",   950.976E+03,   963.488E+03,   963.488E+03
C:/temp/Job-1.odb,Step-1,Increment      1: Step Time =    1.000,"P-1-1",         12105,   30.6393E-03,   93.9918E-03,            0.,NA,NA,"",   821.065E+03,   897.429E+03,   897.429E+03
C:/temp/Job-1.odb,Step-1,Increment      1: Step Time =    1.000,"P-1-1",         12106,   94.5507E-03,   168.570E-03,            0.,NA,NA,"",   1.00568E+06,   1.02003E+06,   1.02003E+06
C:/temp/Job-1.odb,Step-1,Increment      1: Step Time =    1.000,"P-1-1",         12107,   132.116E-03,   171.238E-03,            0.,NA,NA,"",   1.02477E+06,   1.02157E+06,   1.02157E+06
C:/temp/Job-1.odb,Step-1,Increment      1: Step Time =    1.000,"P-1-1",         12108,   28.8153E-03,   131.906E-03,            0.,NA,NA,"",   897.746E+03,   964.934E+03,   964.934E+03
C:/temp/Job-1.odb,Step-1,Increment      1: Step Time =    1.000,"P-1-1",         12109,   167.357E-03,   33.3911E-03,            0.,NA,NA,"",   1.01839E+06,   1.01406E+06,   1.01406E+06
C:/temp/Job-1.odb,Step-1,Increment      1: Step Time =    1.000,"P-1-1",         12110,   101.893E-03,   31.0904E-03,            0.,NA,NA,"",   1.00275E+06,   1.01688E+06,   1.01688E+06
C:/temp/Job-1.odb,Step-1,Increment      1: Step Time =    1.000,"P-1-1",         12111,   116.379E-03,   141.772E-03,            0.,NA,NA,"",   1.10221E+06,   1.11270E+06,   1.11270E+06
C:/temp/Job-1.odb,Step-1,Increment      1: Step Time =    1.000,"P-1-1",         12112,   169.153E-03,   102.232E-03,            0.,NA,NA,"",   948.973E+03,   962.325E+03,   962.325E+03
C:/temp/Job-1.odb,Step-1,Increment      1: Step Time =    1.000,"P-1-1",         12113,   30.9933E-03,   97.3753E-03,            0.,NA,NA,"",   817.761E+03,   894.211E+03,   894.211E+03
C:/temp/Job-1.odb,Step-1,Increment      1: Step Time =    1.000,"P-1-1",         12114,   97.8513E-03,   168.589E-03,            0.,NA,NA,"",   1.00363E+06,   1.01832E+06,   1.01832E+06
C:/temp/Job-1.odb,Step-1,Increment      1: Step Time =    1.000,"P-1-1",         12115,   63.6532E-03,   133.616E-03,            0.,NA,NA,"",   1.08336E+06,   1.07737E+06,   1.07737E+06
C:/temp/Job-1.odb,Step-1,Increment      1: Step Time =    1.000,"P-1-1",         12116,   73.3236E-03,   70.8870E-03,            0.,NA,NA,"",   1.15699E+06,   1.13111E+06,   1.13111E+06
C:/temp/Job-1.odb,Step-1,Increment      1: Step Time =    1.000,"P-1-1",         12117,   70.4522E-03,   68.7400E-03,            0.,NA,NA,"",   1.13145E+06,   1.11268E+06,   1.11268E+06
C:/temp/Job-1.odb,Step-1,Increment      1: Step Time =    1.000,"P-1-1",         12118,   77.6658E-03,   165.877E-03,            0.,NA,NA,"",   1.03524E+06,   1.04301E+06,   1.04301E+06
C:/temp/Job-1.odb,Step-1,Increment      1: Step Time =    1.000,"P-1-1",         12119,   33.6912E-03,   76.9671E-03,            0.,NA,NA,"",   878.738E+03,   943.238E+03,   943.238E+03
C:/temp/Job-1.odb,Step-1,Increment      1: Step Time =    1.000,"P-1-1",         12120,   166.638E-03,   122.937E-03,            0.,NA,NA,"",   990.132E+03,   991.450E+03,   991.450E+03
C:/temp/Job-1.odb,Step-1,Increment      1: Step Time =    1.000,"P-1-1",         12121,   123.108E-03,   33.1210E-03,            0.,NA,NA,"",   1.02789E+06,   1.02965E+06,   1.02965E+06
C:/temp/Job-1.odb,Step-1,Increment      1: Step Time =    1.000,"P-1-1",         12122,   130.318E-03,   135.718E-03,            0.,NA,NA,"",   1.14656E+06,   1.11161E+06,   1.11161E+06
C:/temp/Job-1.odb,Step-1,Increment      1: Step Time =    1.000,"P-1-1",         12123,   59.7661E-03,   120.368E-03,            0.,NA,NA,"",   968.594E+03,   977.801E+03,   977.801E+03
C:/temp/Job-1.odb,Step-1,Increment      1: Step Time =    1.000,"P-1-1",         12124,   120.129E-03,   29.6493E-03,            0.,NA,NA,"",   1.01601E+06,   1.01958E+06,   1.01958E+06
C:/temp/Job-1.odb,Step-1,Increment      1: Step Time =    1.000,"P-1-1",         12125,   59.7067E-03,   122.632E-03,            0.,NA,NA,"",    992.44E+03,   998.701E+03,   998.701E+03
C:/temp/Job-1.odb,Step-1,Increment      1: Step Time =    1.000,"P-1-1",         12126,   170.763E-03,   96.9518E-03,            0.,NA,NA,"",   952.433E+03,   966.240E+03,   966.240E+03
C:/temp/Job-1.odb,Step-1,Increment      1: Step Time =    1.000,"P-1-1",         12127,   136.905E-03,   30.0904E-03,            0.,NA,NA,"",   1.03008E+06,   1.02471E+06,   1.02471E+06
C:/temp/Job-1.odb,Step-1,Increment      1: Step Time =    1.000,"P-1-1",         12128,   170.253E-03,   137.615E-03,            0.,NA,NA,"",   1.01453E+06,   1.01204E+06,   1.01204E+06
C:/temp/Job-1.odb,Step-1,Increment      1: Step Time =    1.000,"P-1-1",         12129,   95.9236E-03,   145.472E-03,            0.,NA,NA,"",   1.03387E+06,   1.07823E+06,   1.07823E+06
C:/temp/Job-1.odb,Step-1,Increment      1: Step Time =    1.000,"P-1-1",         12130,   147.712E-03,   116.512E-03,            0.,NA,NA,"",   968.581E+03,   957.864E+03,   957.864E+03
C:/temp/Job-1.odb,Step-1,Increment      1: Step Time =    1.000,"P-1-1",         12131,   94.4346E-03,   146.244E-03,            0.,NA,NA,"",   1.03649E+06,   1.07767E+06,   1.07767E+06
C:/temp/Job-1.odb,Step-1,Increment      1: Step Time =    1.000,"P-1-1",         12132,   100.089E-03,   145.893E-03,            0.,NA,NA,"",   1.02904E+06,   1.07401E+06,   1.07401E+06
C:/temp/Job-1.odb,Step-1,Increment      1: Step Time =    1.000,"P-1-1",         12133,   101.979E-03,   146.726E-03,            0.,NA,NA,"",   1.02852E+06,   1.07121E+06,   1.07121E+06
C:/temp/Job-1.odb,Step-1,Increment      1: Step Time =    1.000,"P-1-1",         12134,   146.590E-03,   106.873E-03,            0.,NA,NA,"",   881.077E+03,   887.117E+03,   887.117E+03
C:/temp/Job-1.odb,Step-1,Increment      1: Step Time =    1.000,"P-1-1",         12135,   104.575E-03,   145.553E-03,            0.,NA,NA,"",   1.03531E+06,   1.07704E+06,   1.07704E+06
C:/temp/Job-1.odb,Step-1,Increment      1: Step Time =    1.000,"P-1-1",         12136,   145.986E-03,   113.177E-03,            0.,NA,NA,"",   937.527E+03,   930.790E+03,   930.790E+03
C:/temp/Job-1.odb,Step-1,Increment      1: Step Time =    1.000,"P-1-1",         12137,   33.2183E-03,   161.989E-03,            0.,NA,NA,"",   1.01670E+06,   1.05341E+06,   1.05341E+06
C:/temp/Job-1.odb,Step-1,Increment      1: Step Time =    1.000,"P-1-1",         12138,   163.017E-03,   167.230E-03,            0.,NA,NA,"",   1.02206E+06,   1.01659E+06,   1.01659E+06
C:/temp/Job-1.odb,Step-1,Increment      1: Step Time =    1.000,"P-1-1",         12139,   37.8386E-03,   33.5892E-03,            0.,NA,NA,"",   1.03645E+06,   1.06098E+06,   1.06098E+06
C:/temp/Job-1.odb,Step-1,Increment      1: Step Time =    1.000,"P-1-1",         12140,   166.162E-03,   38.1058E-03,            0.,NA,NA,"",   1.02339E+06,   1.01784E+06,   1.01784E+06
C:/temp/Job-1.odb,Step-1,Increment      1: Step Time =    1.000,"P-1-1",         12141,   141.145E-03,   168.574E-03,            0.,NA,NA,"",   1.03390E+06,   1.02689E+06,   1.02689E+06
C:/temp/Job-1.odb,Step-1,Increment      1: Step Time =    1.000,"P-1-1",         12142,   32.6820E-03,   139.520E-03,            0.,NA,NA,"",   941.885E+03,   997.095E+03,   997.095E+03
C:/temp/Job-1.odb,Step-1,Increment      1: Step Time =    1.000,"P-1-1",         12143,   66.2784E-03,   135.602E-03,            0.,NA,NA,"",   1.10177E+06,   1.09353E+06,   1.09353E+06
C:/temp/Job-1.odb,Step-1,Increment      1: Step Time =    1.000,"P-1-1",         12144,   167.318E-03,   135.905E-03,            0.,NA,NA,"",   1.01754E+06,   1.01309E+06,   1.01309E+06
C:/temp/Job-1.odb,Step-1,Increment      1: Step Time =    1.000,"P-1-1",         12145,   136.183E-03,   32.3429E-03,            0.,NA,NA,"",   1.03583E+06,   1.02978E+06,   1.02978E+06
C:/temp/Job-1.odb,Step-1,Increment      1: Step Time =    1.000,"P-1-1",         12146,   132.305E-03,   174.792E-03,            0.,NA,NA,"",   1.01599E+06,   1.01352E+06,   1.01352E+06
C:/temp/Job-1.odb,Step-1,Increment      1: Step Time =    1.000,"P-1-1",         12147,   25.5049E-03,   131.998E-03,            0.,NA,NA,"",   886.559E+03,   959.321E+03,   959.321E+03
C:/temp/Job-1.odb,Step-1,Increment      1: Step Time =    1.000,"P-1-1",         12148,   56.1422E-03,   76.5267E-03,            0.,NA,NA,"",   973.792E+03,   990.058E+03,   990.058E+03
C:/temp/Job-1.odb,Step-1,Increment      1: Step Time =    1.000,"P-1-1",         12149,   146.342E-03,   99.8315E-03,            0.,NA,NA,"",   852.184E+03,   864.201E+03,   864.201E+03
C:/temp/Job-1.odb,Step-1,Increment      1: Step Time =    1.000,"P-1-1",         12150,   34.2973E-03,   118.350E-03,            0.,NA,NA,"",   861.143E+03,   927.638E+03,   927.638E+03
C:/temp/Job-1.odb,Step-1,Increment      1: Step Time =    1.000,"P-1-1",         12151,   55.8558E-03,   83.0535E-03,            0.,NA,NA,"",   907.574E+03,   934.887E+03,   934.887E+03
C:/temp/Job-1.odb,Step-1,Increment      1: Step Time =    1.000,"P-1-1",         12152,   144.769E-03,   97.0532E-03,            0.,NA,NA,"",   844.775E+03,   855.865E+03,   855.865E+03
C:/temp/Job-1.odb,Step-1,Increment      1: Step Time =    1.000,"P-1-1",         12153,   136.410E-03,   77.5171E-03,            0.,NA,NA,"",   1.07924E+06,   1.03509E+06,   1.03509E+06
C:/temp/Job-1.odb,Step-1,Increment      1: Step Time =    1.000,"P-1-1",         12154,   146.893E-03,   119.799E-03,            0.,NA,NA,"",   998.268E+03,   981.024E+03,   981.024E+03
C:/temp/Job-1.odb,Step-1,Increment      1: Step Time =    1.000,"P-1-1",         12155,   145.885E-03,   123.130E-03,            0.,NA,NA,"",   1.02852E+06,   1.00509E+06,   1.00509E+06
C:/temp/Job-1.odb,Step-1,Increment      1: Step Time =    1.000,"P-1-1",         12156,   56.1540E-03,   79.7255E-03,            0.,NA,NA,"",   944.623E+03,   965.119E+03,   965.119E+03
C:/temp/Job-1.odb,Step-1,Increment      1: Step Time =    1.000,"P-1-1",         12157,   56.7482E-03,   89.5683E-03,            0.,NA,NA,"",   831.729E+03,   870.008E+03,   870.008E+03
C:/temp/Job-1.odb,Step-1,Increment      1: Step Time =    1.000,"P-1-1",         12158,   97.6291E-03,   64.2309E-03,            0.,NA,NA,"",   1.05254E+06,   1.12244E+06,   1.12244E+06
C:/temp/Job-1.odb,Step-1,Increment      1: Step Time =    1.000,"P-1-1",         12159,   128.559E-03,   135.580E-03,            0.,NA,NA,"",   1.15235E+06,   1.11853E+06,   1.11853E+06
C:/temp/Job-1.odb,Step-1,Increment      1: Step Time =    1.000,"P-1-1",         12160,   66.2426E-03,   166.175E-03,            0.,NA,NA,"",   1.04776E+06,   1.05157E+06,   1.05157E+06
C:/temp/Job-1.odb,Step-1,Increment      1: Step Time =    1.000,"P-1-1",         12161,   33.4120E-03,   67.3972E-03,            0.,NA,NA,"",   917.520E+03,   976.163E+03,   976.163E+03
C:/temp/Job-1.odb,Step-1,Increment      1: Step Time =    1.000,"P-1-1",         12162,   159.657E-03,   33.6689E-03,            0.,NA,NA,"",   1.02652E+06,   1.01985E+06,   1.01985E+06
C:/temp/Job-1.odb,Step-1,Increment      1: Step Time =    1.000,"P-1-1",         12163,   90.4890E-03,   64.3520E-03,            0.,NA,NA,"",   1.09709E+06,   1.14334E+06,   1.14334E+06
C:/temp/Job-1.odb,Step-1,Increment      1: Step Time =    1.000,"P-1-1",         12164,   118.474E-03,   165.502E-03,            0.,NA,NA,"",   1.02517E+06,   1.03106E+06,   1.03106E+06
C:/temp/Job-1.odb,Step-1,Increment      1: Step Time =    1.000,"P-1-1",         12165,   136.637E-03,   74.7804E-03,            0.,NA,NA,"",   1.09769E+06,   1.05370E+06,   1.05370E+06
C:/temp/Job-1.odb,Step-1,Increment      1: Step Time =    1.000,"P-1-1",         12166,   128.956E-03,   168.624E-03,            0.,NA,NA,"",   1.02946E+06,   1.02724E+06,   1.02724E+06
C:/temp/Job-1.odb,Step-1,Increment      1: Step Time =    1.000,"P-1-1",         12167,   125.763E-03,   167.199E-03,            0.,NA,NA,"",   1.03030E+06,   1.03000E+06,   1.03000E+06
C:/temp/Job-1.odb,Step-1,Increment      1: Step Time =    1.000,"P-1-1",         12168,   29.6577E-03,   128.187E-03,            0.,NA,NA,"",   887.067E+03,   954.893E+03,   954.893E+03
C:/temp/Job-1.odb,Step-1,Increment      1: Step Time =    1.000,"P-1-1",         12169,   31.6608E-03,   125.617E-03,            0.,NA,NA,"",   882.902E+03,   949.121E+03,   949.121E+03
C:/temp/Job-1.odb,Step-1,Increment      1: Step Time =    1.000,"P-1-1",         12170,   101.000E-03,   69.8247E-03,            0.,NA,NA,"",   1.08130E+06,   1.17246E+06,   1.17246E+06
C:/temp/Job-1.odb,Step-1,Increment      1: Step Time =    1.000,"P-1-1",         12171,   165.214E-03,   53.1938E-03,            0.,NA,NA,"",   1.03051E+06,   1.02272E+06,   1.02272E+06
C:/temp/Job-1.odb,Step-1,Increment      1: Step Time =    1.000,"P-1-1",         12172,   52.1796E-03,   34.3279E-03,            0.,NA,NA,"",   1.04929E+06,   1.05797E+06,   1.05797E+06
C:/temp/Job-1.odb,Step-1,Increment      1: Step Time =    1.000,"P-1-1",         12173,   147.772E-03,   165.506E-03,            0.,NA,NA,"",   1.03808E+06,   1.02914E+06,   1.02914E+06
C:/temp/Job-1.odb,Step-1,Increment      1: Step Time =    1.000,"P-1-1",         12174,   35.0685E-03,   148.510E-03,            0.,NA,NA,"",   982.395E+03,   1.02671E+06,   1.02671E+06
C:/temp/Job-1.odb,Step-1,Increment      1: Step Time =    1.000,"P-1-1",         12175,   56.2473E-03,   96.9050E-03,            0.,NA,NA,"",   768.994E+03,   819.559E+03,   819.559E+03
C:/temp/Job-1.odb,Step-1,Increment      1: Step Time =    1.000,"P-1-1",         12176,   133.525E-03,   174.062E-03,            0.,NA,NA,"",   1.01843E+06,   1.01540E+06,   1.01540E+06
C:/temp/Job-1.odb,Step-1,Increment      1: Step Time =    1.000,"P-1-1",         12177,   26.5499E-03,   133.559E-03,            0.,NA,NA,"",   895.867E+03,   966.082E+03,   966.082E+03
C:/temp/Job-1.odb,Step-1,Increment      1: Step Time =    1.000,"P-1-1",         12178,   80.6997E-03,   68.4397E-03,            0.,NA,NA,"",   1.17973E+06,   1.17279E+06,   1.17279E+06
C:/temp/Job-1.odb,Step-1,Increment      1: Step Time =    1.000,"P-1-1",         12179,   79.0164E-03,   70.9553E-03,            0.,NA,NA,"",   1.19685E+06,   1.17570E+06,   1.17570E+06
C:/temp/Job-1.odb,Step-1,Increment      1: Step Time =    1.000,"P-1-1",         12180,   71.4896E-03,   135.848E-03,            0.,NA,NA,"",   1.12816E+06,   1.11708E+06,   1.11708E+06
C:/temp/Job-1.odb,Step-1,Increment      1: Step Time =    1.000,"P-1-1",         12181,   169.620E-03,   47.2736E-03,            0.,NA,NA,"",   1.02278E+06,   1.01788E+06,   1.01788E+06
C:/temp/Job-1.odb,Step-1,Increment      1: Step Time =    1.000,"P-1-1",         12182,   120.781E-03,   30.0466E-03,            0.,NA,NA,"",   1.01748E+06,   1.02064E+06,   1.02064E+06
C:/temp/Job-1.odb,Step-1,Increment      1: Step Time =    1.000,"P-1-1",         12183,   47.0677E-03,   32.1092E-03,            0.,NA,NA,"",   1.04620E+06,   1.05812E+06,   1.05812E+06
C:/temp/Job-1.odb,Step-1,Increment      1: Step Time =    1.000,"P-1-1",         12184,   153.293E-03,   169.603E-03,            0.,NA,NA,"",   1.02682E+06,   1.02007E+06,   1.02007E+06
C:/temp/Job-1.odb,Step-1,Increment      1: Step Time =    1.000,"P-1-1",         12185,   31.0510E-03,   153.847E-03,            0.,NA,NA,"",   984.836E+03,   1.03312E+06,   1.03312E+06
C:/temp/Job-1.odb,Step-1,Increment      1: Step Time =    1.000,"P-1-1",         12186,   85.7534E-03,   145.906E-03,            0.,NA,NA,"",   1.07001E+06,   1.09444E+06,   1.09444E+06
C:/temp/Job-1.odb,Step-1,Increment      1: Step Time =    1.000,"P-1-1",         12187,   34.0438E-03,   32.7249E-03,            0.,NA,NA,"",   1.03271E+06,   1.06237E+06,   1.06237E+06
C:/temp/Job-1.odb,Step-1,Increment      1: Step Time =    1.000,"P-1-1",         12188,   34.0955E-03,   37.0822E-03,            0.,NA,NA,"",   1.02184E+06,   1.05588E+06,   1.05588E+06
C:/temp/Job-1.odb,Step-1,Increment      1: Step Time =    1.000,"P-1-1",         12189,   166.266E-03,   161.779E-03,            0.,NA,NA,"",   1.02349E+06,   1.01792E+06,   1.01792E+06
C:/temp/Job-1.odb,Step-1,Increment      1: Step Time =    1.000,"P-1-1",         12190,   129.243E-03,   75.4944E-03,            0.,NA,NA,"",   1.16330E+06,   1.10239E+06,   1.10239E+06
C:/temp/Job-1.odb,Step-1,Increment      1: Step Time =    1.000,"P-1-1",         12191,   164.972E-03,   114.724E-03,            0.,NA,NA,"",   965.021E+03,   971.026E+03,   971.026E+03
C:/temp/Job-1.odb,Step-1,Increment      1: Step Time =    1.000,"P-1-1",         12192,   34.2209E-03,   85.2758E-03,            0.,NA,NA,"",   846.966E+03,   915.799E+03,   915.799E+03
C:/temp/Job-1.odb,Step-1,Increment      1: Step Time =    1.000,"P-1-1",         12193,   85.2174E-03,   164.952E-03,            0.,NA,NA,"",   1.02410E+06,    1.0371E+06,    1.0371E+06
C:/temp/Job-1.odb,Step-1,Increment      1: Step Time =    1.000,"P-1-1",         12194,   163.711E-03,   34.4097E-03,            0.,NA,NA,"",   1.02316E+06,   1.01747E+06,   1.01747E+06
C:/temp/Job-1.odb,Step-1,Increment      1: Step Time =    1.000,"P-1-1",         12195,   160.503E-03,   34.4028E-03,            0.,NA,NA,"",   1.02674E+06,   1.02004E+06,   1.02004E+06
C:/temp/Job-1.odb,Step-1,Increment      1: Step Time =    1.000,"P-1-1",         12196,   57.8802E-03,   118.161E-03,            0.,NA,NA,"",   930.184E+03,   949.299E+03,   949.299E+03
C:/temp/Job-1.odb,Step-1,Increment      1: Step Time =    1.000,"P-1-1",         12197,   174.636E-03,   66.4123E-03,            0.,NA,NA,"",   1.00322E+06,   1.00569E+06,   1.00569E+06
C:/temp/Job-1.odb,Step-1,Increment      1: Step Time =    1.000,"P-1-1",         12198,   65.7535E-03,   26.2125E-03,            0.,NA,NA,"",   1.03144E+06,   1.03402E+06,   1.03402E+06
C:/temp/Job-1.odb,Step-1,Increment      1: Step Time =    1.000,"P-1-1",         12199,   139.903E-03,   90.7447E-03,            0.,NA,NA,"",   875.889E+03,   871.568E+03,   871.568E+03
C:/temp/Job-1.odb,Step-1,Increment      1: Step Time =    1.000,"P-1-1",         12200,   138.524E-03,   33.3948E-03,            0.,NA,NA,"",   1.03878E+06,   1.03156E+06,   1.03156E+06
C:/temp/Job-1.odb,Step-1,Increment      1: Step Time =    1.000,"P-1-1",         12201,   48.4696E-03,   168.649E-03,            0.,NA,NA,"",   1.04673E+06,   1.05702E+06,   1.05702E+06
C:/temp/Job-1.odb,Step-1,Increment      1: Step Time =    1.000,"P-1-1",         12202,   166.167E-03,   138.830E-03,            0.,NA,NA,"",   1.02322E+06,   1.01706E+06,   1.01706E+06
C:/temp/Job-1.odb,Step-1,Increment      1: Step Time =    1.000,"P-1-1",         12203,   34.7289E-03,   34.0239E-03,            0.,NA,NA,"",   1.03079E+06,   1.06053E+06,   1.06053E+06
C:/temp/Job-1.odb,Step-1,Increment      1: Step Time =    1.000,"P-1-1",         12204,   166.297E-03,   165.374E-03,            0.,NA,NA,"",   1.02055E+06,   1.01565E+06,   1.01565E+06
C:/temp/Job-1.odb,Step-1,Increment      1: Step Time =    1.000,"P-1-1",         12205,   57.4351E-03,   169.540E-03,            0.,NA,NA,"",   1.04596E+06,   1.05054E+06,   1.05054E+06
C:/temp/Job-1.odb,Step-1,Increment      1: Step Time =    1.000,"P-1-1",         12206,   30.3176E-03,   58.4929E-03,            0.,NA,NA,"",   939.378E+03,   997.965E+03,   997.965E+03
C:/temp/Job-1.odb,Step-1,Increment      1: Step Time =    1.000,"P-1-1",         12207,   112.309E-03,   33.8333E-03,            0.,NA,NA,"",   1.01506E+06,   1.02592E+06,   1.02592E+06
C:/temp/Job-1.odb,Step-1,Increment      1: Step Time =    1.000,"P-1-1",         12208,   119.833E-03,   142.251E-03,            0.,NA,NA,"",   1.11280E+06,   1.11168E+06,   1.11168E+06
C:/temp/Job-1.odb,Step-1,Increment      1: Step Time =    1.000,"P-1-1",         12209,   169.285E-03,   96.2624E-03,            0.,NA,NA,"",   950.276E+03,   963.432E+03,   963.432E+03
C:/temp/Job-1.odb,Step-1,Increment      1: Step Time =    1.000,"P-1-1",         12210,   133.014E-03,   132.132E-03,            0.,NA,NA,"",   1.14163E+06,   1.09954E+06,   1.09954E+06
C:/temp/Job-1.odb,Step-1,Increment      1: Step Time =    1.000,"P-1-1",         12211,   165.695E-03,   55.2481E-03,            0.,NA,NA,"",   1.02895E+06,   1.02154E+06,   1.02154E+06
C:/temp/Job-1.odb,Step-1,Increment      1: Step Time =    1.000,"P-1-1",         12212,   55.4243E-03,   33.8625E-03,            0.,NA,NA,"",   1.05022E+06,   1.05662E+06,   1.05662E+06
C:/temp/Job-1.odb,Step-1,Increment      1: Step Time =    1.000,"P-1-1",         12213,   145.095E-03,   164.964E-03,            0.,NA,NA,"",   1.04091E+06,   1.03174E+06,   1.03174E+06
C:/temp/Job-1.odb,Step-1,Increment      1: Step Time =    1.000,"P-1-1",         12214,   34.4953E-03,   143.797E-03,            0.,NA,NA,"",   964.148E+03,   1.01297E+06,   1.01297E+06
C:/temp/Job-1.odb,Step-1,Increment      1: Step Time =    1.000,"P-1-1",         12215,   68.1497E-03,   66.5476E-03,            0.,NA,NA,"",   1.11325E+06,   1.10049E+06,   1.10049E+06
C:/temp/Job-1.odb,Step-1,Increment      1: Step Time =    1.000,"P-1-1",         12216,   141.475E-03,   126.421E-03,            0.,NA,NA,"",   1.07218E+06,   1.03809E+06,   1.03809E+06
C:/temp/Job-1.odb,Step-1,Increment      1: Step Time =    1.000,"P-1-1",         12217,   81.2387E-03,   145.886E-03,            0.,NA,NA,"",   1.08568E+06,   1.09994E+06,   1.09994E+06
C:/temp/Job-1.odb,Step-1,Increment      1: Step Time =    1.000,"P-1-1",         12218,   56.7088E-03,   95.4651E-03,            0.,NA,NA,"",   774.616E+03,   823.351E+03,   823.351E+03
C:/temp/Job-1.odb,Step-1,Increment      1: Step Time =    1.000,"P-1-1",         12219,   132.060E-03,   135.019E-03,            0.,NA,NA,"",   1.14180E+06,   1.10491E+06,   1.10491E+06
C:/temp/Job-1.odb,Step-1,Increment      1: Step Time =    1.000,"P-1-1",         12220,   79.3672E-03,   145.316E-03,            0.,NA,NA,"",   1.09260E+06,   1.10294E+06,   1.10294E+06
C:/temp/Job-1.odb,Step-1,Increment      1: Step Time =    1.000,"P-1-1",         12221,   90.5060E-03,   168.036E-03,            0.,NA,NA,"",   1.01046E+06,   1.02416E+06,   1.02416E+06
C:/temp/Job-1.odb,Step-1,Increment      1: Step Time =    1.000,"P-1-1",         12222,   31.3241E-03,   90.8706E-03,            0.,NA,NA,"",   827.401E+03,   902.125E+03,   902.125E+03
C:/temp/Job-1.odb,Step-1,Increment      1: Step Time =    1.000,"P-1-1",         12223,   168.618E-03,   109.706E-03,            0.,NA,NA,"",   957.401E+03,    968.22E+03,    968.22E+03
C:/temp/Job-1.odb,Step-1,Increment      1: Step Time =    1.000,"P-1-1",         12224,   51.5658E-03,   168.323E-03,            0.,NA,NA,"",   1.04770E+06,   1.05572E+06,   1.05572E+06
C:/temp/Job-1.odb,Step-1,Increment      1: Step Time =    1.000,"P-1-1",         12225,   31.8010E-03,   50.8095E-03,            0.,NA,NA,"",   972.068E+03,   1.02230E+06,   1.02230E+06
C:/temp/Job-1.odb,Step-1,Increment      1: Step Time =    1.000,"P-1-1",         12226,   28.9068E-03,   38.3563E-03,            0.,NA,NA,"",   1.00406E+06,   1.04951E+06,   1.04951E+06
C:/temp/Job-1.odb,Step-1,Increment      1: Step Time =    1.000,"P-1-1",         12227,   171.523E-03,   162.499E-03,            0.,NA,NA,"",   1.01667E+06,   1.01322E+06,   1.01322E+06
C:/temp/Job-1.odb,Step-1,Increment      1: Step Time =    1.000,"P-1-1",         12228,   166.074E-03,   112.147E-03,            0.,NA,NA,"",   959.328E+03,   967.620E+03,   967.620E+03
C:/temp/Job-1.odb,Step-1,Increment      1: Step Time =    1.000,"P-1-1",         12229,   34.7728E-03,   88.1462E-03,            0.,NA,NA,"",   838.207E+03,   907.726E+03,   907.726E+03
C:/temp/Job-1.odb,Step-1,Increment      1: Step Time =    1.000,"P-1-1",         12230,   88.0289E-03,   166.341E-03,            0.,NA,NA,"",   1.01691E+06,   1.03060E+06,   1.03060E+06
C:/temp/Job-1.odb,Step-1,Increment      1: Step Time =    1.000,"P-1-1",         12231,   88.5016E-03,   145.197E-03,            0.,NA,NA,"",   1.06127E+06,   1.09263E+06,   1.09263E+06
C:/temp/Job-1.odb,Step-1,Increment      1: Step Time =    1.000,"P-1-1",         12232,   166.918E-03,   73.5411E-03,            0.,NA,NA,"",   999.473E+03,   998.860E+03,   998.860E+03
C:/temp/Job-1.odb,Step-1,Increment      1: Step Time =    1.000,"P-1-1",         12233,   73.2906E-03,   31.6749E-03,            0.,NA,NA,"",   1.03557E+06,   1.04070E+06,   1.04070E+06
C:/temp/Job-1.odb,Step-1,Increment      1: Step Time =    1.000,"P-1-1",         12234,   117.334E-03,   76.9408E-03,            0.,NA,NA,"",   1.29009E+06,   1.23755E+06,   1.23755E+06
C:/temp/Job-1.odb,Step-1,Increment      1: Step Time =    1.000,"P-1-1",         12235,   110.961E-03,   145.175E-03,            0.,NA,NA,"",   1.06063E+06,   1.08827E+06,   1.08827E+06
C:/temp/Job-1.odb,Step-1,Increment      1: Step Time =    1.000,"P-1-1",         12236,   95.5231E-03,   31.2191E-03,            0.,NA,NA,"",   1.00454E+06,   1.01888E+06,   1.01888E+06
C:/temp/Job-1.odb,Step-1,Increment      1: Step Time =    1.000,"P-1-1",         12237,   30.9307E-03,   104.180E-03,            0.,NA,NA,"",   818.980E+03,   895.436E+03,   895.436E+03
C:/temp/Job-1.odb,Step-1,Increment      1: Step Time =    1.000,"P-1-1",         12238,   104.390E-03,   170.154E-03,            0.,NA,NA,"",   1.00124E+06,   1.01366E+06,   1.01366E+06
C:/temp/Job-1.odb,Step-1,Increment      1: Step Time =    1.000,"P-1-1",         12239,   41.7345E-03,   168.513E-03,            0.,NA,NA,"",   1.04329E+06,   1.06062E+06,   1.06062E+06
C:/temp/Job-1.odb,Step-1,Increment      1: Step Time =    1.000,"P-1-1",         12240,   64.7317E-03,   67.1544E-03,            0.,NA,NA,"",   1.09025E+06,   1.08173E+06,   1.08173E+06
C:/temp/Job-1.odb,Step-1,Increment      1: Step Time =    1.000,"P-1-1",         12241,   32.0478E-03,   41.6336E-03,            0.,NA,NA,"",   1.00263E+06,   1.04495E+06,   1.04495E+06
C:/temp/Job-1.odb,Step-1,Increment      1: Step Time =    1.000,"P-1-1",         12242,   168.204E-03,   159.418E-03,            0.,NA,NA,"",   1.02246E+06,   1.01735E+06,   1.01735E+06
C:/temp/Job-1.odb,Step-1,Increment      1: Step Time =    1.000,"P-1-1",         12243,   31.0614E-03,   121.235E-03,            0.,NA,NA,"",   864.362E+03,   934.003E+03,   934.003E+03
C:/temp/Job-1.odb,Step-1,Increment      1: Step Time =    1.000,"P-1-1",         12244,   122.178E-03,   168.308E-03,            0.,NA,NA,"",   1.02338E+06,   1.02579E+06,   1.02579E+06
C:/temp/Job-1.odb,Step-1,Increment      1: Step Time =    1.000,"P-1-1",         12245,   34.1907E-03,   167.170E-03,            0.,NA,NA,"",   1.03285E+06,   1.06235E+06,   1.06235E+06
C:/temp/Job-1.odb,Step-1,Increment      1: Step Time =    1.000,"P-1-1",         12246,   57.7844E-03,   72.5679E-03,            0.,NA,NA,"",   1.01426E+06,   1.02245E+06,   1.02245E+06
C:/temp/Job-1.odb,Step-1,Increment      1: Step Time =    1.000,"P-1-1",         12247,   60.2713E-03,   127.834E-03,            0.,NA,NA,"",   1.03643E+06,   1.03749E+06,   1.03749E+06
C:/temp/Job-1.odb,Step-1,Increment      1: Step Time =    1.000,"P-1-1",         12248,   165.945E-03,   49.9261E-03,            0.,NA,NA,"",   1.02926E+06,   1.02209E+06,   1.02209E+06
C:/temp/Job-1.odb,Step-1,Increment      1: Step Time =    1.000,"P-1-1",         12249,   49.7433E-03,   34.0521E-03,            0.,NA,NA,"",   1.04787E+06,   1.05840E+06,   1.05840E+06
C:/temp/Job-1.odb,Step-1,Increment      1: Step Time =    1.000,"P-1-1",         12250,   129.708E-03,   129.791E-03,            0.,NA,NA,"",   1.16497E+06,   1.11687E+06,   1.11687E+06
C:/temp/Job-1.odb,Step-1,Increment      1: Step Time =    1.000,"P-1-1",         12251,   150.166E-03,   166.475E-03,            0.,NA,NA,"",   1.03459E+06,   1.02622E+06,   1.02622E+06
C:/temp/Job-1.odb,Step-1,Increment      1: Step Time =    1.000,"P-1-1",         12252,   122.430E-03,   77.5548E-03,            0.,NA,NA,"",   1.24288E+06,   1.16845E+06,   1.16845E+06
C:/temp/Job-1.odb,Step-1,Increment      1: Step Time =    1.000,"P-1-1",         12253,   34.6206E-03,   150.121E-03,            0.,NA,NA,"",   985.614E+03,   1.02966E+06,   1.02966E+06
C:/temp/Job-1.odb,Step-1,Increment      1: Step Time =    1.000,"P-1-1",         12254,   164.534E-03,   118.069E-03,            0.,NA,NA,"",   975.948E+03,   979.082E+03,   979.082E+03
C:/temp/Job-1.odb,Step-1,Increment      1: Step Time =    1.000,"P-1-1",         12255,   32.9641E-03,   81.9040E-03,            0.,NA,NA,"",   857.206E+03,   925.818E+03,   925.818E+03
C:/temp/Job-1.odb,Step-1,Increment      1: Step Time =    1.000,"P-1-1",         12256,   82.5796E-03,   164.922E-03,            0.,NA,NA,"",   1.02900E+06,   1.04023E+06,   1.04023E+06
C:/temp/Job-1.odb,Step-1,Increment      1: Step Time =    1.000,"P-1-1",         12257,   54.9899E-03,   109.865E-03,            0.,NA,NA,"",   827.907E+03,   870.520E+03,   870.520E+03
C:/temp/Job-1.odb,Step-1,Increment      1: Step Time =    1.000,"P-1-1",         12258,   85.3693E-03,   64.7615E-03,            0.,NA,NA,"",   1.13400E+06,   1.15498E+06,   1.15498E+06
C:/temp/Job-1.odb,Step-1,Increment      1: Step Time =    1.000,"P-1-1",         12259,   74.9566E-03,   166.791E-03,            0.,NA,NA,"",   1.03689E+06,   1.04306E+06,   1.04306E+06
C:/temp/Job-1.odb,Step-1,Increment      1: Step Time =    1.000,"P-1-1",         12260,   32.9628E-03,   158.237E-03,            0.,NA,NA,"",   1.00498E+06,   1.04563E+06,   1.04563E+06
C:/temp/Job-1.odb,Step-1,Increment      1: Step Time =    1.000,"P-1-1",         12261,   34.0316E-03,   74.6198E-03,            0.,NA,NA,"",   889.587E+03,   951.919E+03,   951.919E+03
C:/temp/Job-1.odb,Step-1,Increment      1: Step Time =    1.000,"P-1-1",         12262,   139.827E-03,   85.4235E-03,            0.,NA,NA,"",   958.294E+03,   937.294E+03,   937.294E+03
C:/temp/Job-1.odb,Step-1,Increment      1: Step Time =    1.000,"P-1-1",         12263,   159.865E-03,   165.765E-03,            0.,NA,NA,"",   1.02723E+06,   1.02039E+06,   1.02039E+06
C:/temp/Job-1.odb,Step-1,Increment      1: Step Time =    1.000,"P-1-1",         12264,   113.833E-03,   143.659E-03,            0.,NA,NA,"",   1.08020E+06,   1.09992E+06,   1.09992E+06
C:/temp/Job-1.odb,Step-1,Increment      1: Step Time =    1.000,"P-1-1",         12265,   39.6729E-03,   33.1178E-03,            0.,NA,NA,"",   1.03943E+06,   1.06081E+06,   1.06081E+06
C:/temp/Job-1.odb,Step-1,Increment      1: Step Time =    1.000,"P-1-1",         12266,   166.330E-03,   41.3271E-03,            0.,NA,NA,"",   1.02553E+06,   1.01947E+06,   1.01947E+06
C:/temp/Job-1.odb,Step-1,Increment      1: Step Time =    1.000,"P-1-1",         12267,   54.2546E-03,   99.8258E-03,            0.,NA,NA,"",   775.242E+03,   828.665E+03,   828.665E+03
C:/temp/Job-1.odb,Step-1,Increment      1: Step Time =    1.000,"P-1-1",         12268,   167.401E-03,   126.747E-03,            0.,NA,NA,"",   999.492E+03,   999.153E+03,   999.153E+03
C:/temp/Job-1.odb,Step-1,Increment      1: Step Time =    1.000,"P-1-1",         12269,   126.683E-03,   33.5922E-03,            0.,NA,NA,"",   1.03359E+06,   1.03247E+06,   1.03247E+06
C:/temp/Job-1.odb,Step-1,Increment      1: Step Time =    1.000,"P-1-1",         12270,   99.6816E-03,   66.4769E-03,            0.,NA,NA,"",   1.05842E+06,   1.13747E+06,   1.13747E+06
C:/temp/Job-1.odb,Step-1,Increment      1: Step Time =    1.000,"P-1-1",         12271,   139.690E-03,   88.8900E-03,            0.,NA,NA,"",   901.613E+03,   891.494E+03,   891.494E+03
C:/temp/Job-1.odb,Step-1,Increment      1: Step Time =    1.000,"P-1-1",         12272,   53.7882E-03,   166.024E-03,            0.,NA,NA,"",   1.04983E+06,   1.05728E+06,   1.05728E+06
C:/temp/Job-1.odb,Step-1,Increment      1: Step Time =    1.000,"P-1-1",         12273,   33.7959E-03,   53.2952E-03,            0.,NA,NA,"",   971.514E+03,   1.01967E+06,   1.01967E+06
C:/temp/Job-1.odb,Step-1,Increment      1: Step Time =    1.000,"P-1-1",         12274,   137.850E-03,   80.6414E-03,            0.,NA,NA,"",   1.03571E+06,   998.572E+03,   998.572E+03
C:/temp/Job-1.odb,Step-1,Increment      1: Step Time =    1.000,"P-1-1",         12275,   31.2365E-03,   62.0639E-03,            0.,NA,NA,"",   929.860E+03,    988.96E+03,    988.96E+03
C:/temp/Job-1.odb,Step-1,Increment      1: Step Time =    1.000,"P-1-1",         12276,   61.9833E-03,   168.955E-03,            0.,NA,NA,"",   1.04487E+06,   1.04848E+06,   1.04848E+06
C:/temp/Job-1.odb,Step-1,Increment      1: Step Time =    1.000,"P-1-1",         12277,   54.7343E-03,   113.396E-03,            0.,NA,NA,"",   864.862E+03,   901.389E+03,   901.389E+03
C:/temp/Job-1.odb,Step-1,Increment      1: Step Time =    1.000,"P-1-1",         12278,   32.0510E-03,   115.825E-03,            0.,NA,NA,"",   847.053E+03,   918.203E+03,   918.203E+03
C:/temp/Job-1.odb,Step-1,Increment      1: Step Time =    1.000,"P-1-1",         12279,   117.072E-03,   167.166E-03,            0.,NA,NA,"",   1.01943E+06,   1.02605E+06,   1.02605E+06
C:/temp/Job-1.odb,Step-1,Increment      1: Step Time =    1.000,"P-1-1",         12280,   98.7689E-03,   31.1273E-03,            0.,NA,NA,"",   1.00279E+06,   1.01726E+06,   1.01726E+06
C:/temp/Job-1.odb,Step-1,Increment      1: Step Time =    1.000,"P-1-1",         12281,   31.8801E-03,   102.153E-03,            0.,NA,NA,"",   817.855E+03,   893.426E+03,   893.426E+03
C:/temp/Job-1.odb,Step-1,Increment      1: Step Time =    1.000,"P-1-1",         12282,   101.289E-03,   168.694E-03,            0.,NA,NA,"",   1.00296E+06,   1.01734E+06,   1.01734E+06
C:/temp/Job-1.odb,Step-1,Increment      1: Step Time =    1.000,"P-1-1",         12283,   167.186E-03,   132.819E-03,            0.,NA,NA,"",   1.01285E+06,   1.00933E+06,   1.00933E+06
C:/temp/Job-1.odb,Step-1,Increment      1: Step Time =    1.000,"P-1-1",         12284,   132.462E-03,   32.1010E-03,            0.,NA,NA,"",   1.03368E+06,   1.02941E+06,   1.02941E+06
C:/temp/Job-1.odb,Step-1,Increment      1: Step Time =    1.000,"P-1-1",         12285,   31.6363E-03,   40.4738E-03,            0.,NA,NA,"",   1.00519E+06,   1.04717E+06,   1.04717E+06
C:/temp/Job-1.odb,Step-1,Increment      1: Step Time =    1.000,"P-1-1",         12286,   168.855E-03,   160.683E-03,            0.,NA,NA,"",   1.02088E+06,   1.01620E+06,   1.01620E+06
C:/temp/Job-1.odb,Step-1,Increment      1: Step Time =    1.000,"P-1-1",         12287,   55.9473E-03,   85.9537E-03,            0.,NA,NA,"",   875.110E+03,   907.353E+03,   907.353E+03
C:/temp/Job-1.odb,Step-1,Increment      1: Step Time =    1.000,"P-1-1",         12288,   77.4385E-03,   32.6075E-03,            0.,NA,NA,"",   1.03177E+06,   1.03893E+06,   1.03893E+06
C:/temp/Job-1.odb,Step-1,Increment      1: Step Time =    1.000,"P-1-1",         12289,   166.780E-03,   76.7869E-03,            0.,NA,NA,"",   991.004E+03,   992.271E+03,   992.271E+03
C:/temp/Job-1.odb,Step-1,Increment      1: Step Time =    1.000,"P-1-1",         12290,   87.9723E-03,   64.0003E-03,            0.,NA,NA,"",   1.11130E+06,   1.14572E+06,   1.14572E+06
C:/temp/Job-1.odb,Step-1,Increment      1: Step Time =    1.000,"P-1-1",         12291,   55.0733E-03,   106.368E-03,            0.,NA,NA,"",   796.116E+03,   844.247E+03,   844.247E+03
C:/temp/Job-1.odb,Step-1,Increment      1: Step Time =    1.000,"P-1-1",         12292,   126.593E-03,   138.863E-03,            0.,NA,NA,"",   1.14073E+06,   1.11680E+06,   1.11680E+06
C:/temp/Job-1.odb,Step-1,Increment      1: Step Time =    1.000,"P-1-1",         12293,   166.939E-03,   90.1047E-03,            0.,NA,NA,"",   954.838E+03,   964.831E+03,   964.831E+03
C:/temp/Job-1.odb,Step-1,Increment      1: Step Time =    1.000,"P-1-1",         12294,   139.484E-03,   83.8580E-03,            0.,NA,NA,"",   982.975E+03,   957.011E+03,   957.011E+03
C:/temp/Job-1.odb,Step-1,Increment      1: Step Time =    1.000,"P-1-1",         12295,   90.6363E-03,   33.0621E-03,            0.,NA,NA,"",   1.01204E+06,   1.02672E+06,   1.02672E+06
C:/temp/Job-1.odb,Step-1,Increment      1: Step Time =    1.000,"P-1-1",         12296,   32.6630E-03,   109.308E-03,            0.,NA,NA,"",   829.005E+03,   902.180E+03,   902.180E+03
C:/temp/Job-1.odb,Step-1,Increment      1: Step Time =    1.000,"P-1-1",         12297,   109.937E-03,   168.058E-03,            0.,NA,NA,"",   1.00893E+06,   1.02043E+06,   1.02043E+06
C:/temp/Job-1.odb,Step-1,Increment      1: Step Time =    1.000,"P-1-1",         12298,   147.561E-03,   31.4669E-03,            0.,NA,NA,"",   1.03205E+06,   1.02447E+06,   1.02447E+06
C:/temp/Job-1.odb,Step-1,Increment      1: Step Time =    1.000,"P-1-1",         12299,   167.135E-03,   145.355E-03,            0.,NA,NA,"",   1.02636E+06,   1.02001E+06,   1.02001E+06
C:/temp/Job-1.odb,Step-1,Increment      1: Step Time =    1.000,"P-1-1",         12300,   55.2371E-03,   92.8452E-03,            0.,NA,NA,"",   801.636E+03,   848.398E+03,   848.398E+03
C:/temp/Job-1.odb,Step-1,Increment      1: Step Time =    1.000,"P-1-1",         12301,   45.1267E-03,   166.387E-03,            0.,NA,NA,"",   1.04446E+06,   1.05934E+06,   1.05934E+06
C:/temp/Job-1.odb,Step-1,Increment      1: Step Time =    1.000,"P-1-1",         12302,   32.6423E-03,   44.3660E-03,            0.,NA,NA,"",   995.819E+03,   1.03943E+06,   1.03943E+06
C:/temp/Job-1.odb,Step-1,Increment      1: Step Time =    1.000,"P-1-1",         12303,   166.347E-03,   155.579E-03,            0.,NA,NA,"",   1.02714E+06,   1.02067E+06,   1.02067E+06
C:/temp/Job-1.odb,Step-1,Increment      1: Step Time =    1.000,"P-1-1",         12304,   156.583E-03,   33.3363E-03,            0.,NA,NA,"",   1.02899E+06,   1.02170E+06,   1.02170E+06
C:/temp/Job-1.odb,Step-1,Increment      1: Step Time =    1.000,"P-1-1",         12305,   33.5563E-03,   112.763E-03,            0.,NA,NA,"",   839.403E+03,   909.947E+03,   909.947E+03
C:/temp/Job-1.odb,Step-1,Increment      1: Step Time =    1.000,"P-1-1",         12306,   113.155E-03,   165.850E-03,            0.,NA,NA,"",   1.01684E+06,   1.02725E+06,   1.02725E+06
C:/temp/Job-1.odb,Step-1,Increment      1: Step Time =    1.000,"P-1-1",         12307,   33.4273E-03,   165.681E-03,            0.,NA,NA,"",   1.02758E+06,   1.06012E+06,   1.06012E+06
C:/temp/Job-1.odb,Step-1,Increment      1: Step Time =    1.000,"P-1-1",         12308,   86.6564E-03,   32.8654E-03,            0.,NA,NA,"",   1.01755E+06,   1.02993E+06,   1.02993E+06
C:/temp/Job-1.odb,Step-1,Increment      1: Step Time =    1.000,"P-1-1",         12309,   91.4536E-03,   146.049E-03,            0.,NA,NA,"",   1.04659E+06,   1.08354E+06,   1.08354E+06
C:/temp/Job-1.odb,Step-1,Increment      1: Step Time =    1.000,"P-1-1",         12310,   145.490E-03,   103.575E-03,            0.,NA,NA,"",   854.715E+03,   864.961E+03,   864.961E+03
C:/temp/Job-1.odb,Step-1,Increment      1: Step Time =    1.000,"P-1-1",         12311,   166.565E-03,   129.830E-03,            0.,NA,NA,"",   1.00761E+06,   1.00495E+06,   1.00495E+06
C:/temp/Job-1.odb,Step-1,Increment      1: Step Time =    1.000,"P-1-1",         12312,   56.3461E-03,   73.7358E-03,            0.,NA,NA,"",   996.982E+03,   1.00979E+06,   1.00979E+06
C:/temp/Job-1.odb,Step-1,Increment      1: Step Time =    1.000,"P-1-1",         12313,   130.199E-03,   33.6861E-03,            0.,NA,NA,"",   1.03634E+06,   1.03288E+06,   1.03288E+06
C:/temp/Job-1.odb,Step-1,Increment      1: Step Time =    1.000,"P-1-1",         12314,   96.7196E-03,   146.830E-03,            0.,NA,NA,"",   1.03044E+06,   1.07290E+06,   1.07290E+06
C:/temp/Job-1.odb,Step-1,Increment      1: Step Time =    1.000,"P-1-1",         12315,   33.3979E-03,   135.402E-03,            0.,NA,NA,"",   928.666E+03,   985.380E+03,   985.380E+03
C:/temp/Job-1.odb,Step-1,Increment      1: Step Time =    1.000,"P-1-1",         12316,   136.520E-03,   167.307E-03,            0.,NA,NA,"",   1.03682E+06,   1.03051E+06,   1.03051E+06
C:/temp/Job-1.odb,Step-1,Increment      1: Step Time =    1.000,"P-1-1",         12317,   71.5081E-03,   33.7759E-03,            0.,NA,NA,"",   1.04284E+06,   1.04770E+06,   1.04770E+06
C:/temp/Job-1.odb,Step-1,Increment      1: Step Time =    1.000,"P-1-1",         12318,   166.505E-03,   70.4194E-03,            0.,NA,NA,"",   1.00733E+06,   1.00467E+06,   1.00467E+06
C:/temp/Job-1.odb,Step-1,Increment      1: Step Time =    1.000,"P-1-1",         12319,   166.499E-03,   63.5925E-03,            0.,NA,NA,"",   1.01997E+06,   1.01454E+06,   1.01454E+06
C:/temp/Job-1.odb,Step-1,Increment      1: Step Time =    1.000,"P-1-1",         12320,   64.0746E-03,   32.3628E-03,            0.,NA,NA,"",   1.04627E+06,   1.04988E+06,   1.04988E+06
C:/temp/Job-1.odb,Step-1,Increment      1: Step Time =    1.000,"P-1-1",         12321,   166.856E-03,   94.0325E-03,            0.,NA,NA,"",   947.717E+03,   959.389E+03,   959.389E+03
C:/temp/Job-1.odb,Step-1,Increment      1: Step Time =    1.000,"P-1-1",         12322,   168.709E-03,   148.354E-03,            0.,NA,NA,"",   1.02427E+06,   1.01886E+06,   1.01886E+06
C:/temp/Job-1.odb,Step-1,Increment      1: Step Time =    1.000,"P-1-1",         12323,   149.101E-03,   32.2794E-03,            0.,NA,NA,"",   1.03272E+06,   1.02488E+06,   1.02488E+06
C:/temp/Job-1.odb,Step-1,Increment      1: Step Time =    1.000,"P-1-1",         12324,   145.967E-03,   108.774E-03,            0.,NA,NA,"",   893.542E+03,   895.984E+03,   895.984E+03
C:/temp/Job-1.odb,Step-1,Increment      1: Step Time =    1.000,"P-1-1",         12325,   40.8245E-03,   169.453E-03,            0.,NA,NA,"",   1.04363E+06,   1.06128E+06,   1.06128E+06
C:/temp/Job-1.odb,Step-1,Increment      1: Step Time =    1.000,"P-1-1",         12326,   38.9805E-03,   169.263E-03,            0.,NA,NA,"",   1.04225E+06,   1.06237E+06,   1.06237E+06
C:/temp/Job-1.odb,Step-1,Increment      1: Step Time =    1.000,"P-1-1",         12327,   31.5302E-03,   152.628E-03,            0.,NA,NA,"",   982.311E+03,   1.03070E+06,   1.03070E+06
C:/temp/Job-1.odb,Step-1,Increment      1: Step Time =    1.000,"P-1-1",         12328,   152.848E-03,   167.833E-03,            0.,NA,NA,"",   1.03015E+06,   1.02266E+06,   1.02266E+06
C:/temp/Job-1.odb,Step-1,Increment      1: Step Time =    1.000,"P-1-1",         12329,   131.531E-03,   136.389E-03,            0.,NA,NA,"",   1.13994E+06,   1.10585E+06,   1.10585E+06
C:/temp/Job-1.odb,Step-1,Increment      1: Step Time =    1.000,"P-1-1",         12330,   48.0480E-03,   32.9387E-03,            0.,NA,NA,"",   1.04672E+06,   1.05824E+06,   1.05824E+06
C:/temp/Job-1.odb,Step-1,Increment      1: Step Time =    1.000,"P-1-1",         12331,   167.667E-03,   47.7545E-03,            0.,NA,NA,"",   1.02604E+06,   1.02001E+06,   1.02001E+06
C:/temp/Job-1.odb,Step-1,Increment      1: Step Time =    1.000,"P-1-1",         12332,   57.5190E-03,   120.379E-03,            0.,NA,NA,"",   953.611E+03,   969.888E+03,   969.888E+03
C:/temp/Job-1.odb,Step-1,Increment      1: Step Time =    1.000,"P-1-1",         12333,   167.864E-03,   96.9810E-03,            0.,NA,NA,"",   947.119E+03,   959.896E+03,   959.896E+03
C:/temp/Job-1.odb,Step-1,Increment      1: Step Time =    1.000,"P-1-1",         12334,   60.9620E-03,   67.9086E-03,            0.,NA,NA,"",   1.06085E+06,   1.05969E+06,   1.05969E+06
C:/temp/Job-1.odb,Step-1,Increment      1: Step Time =    1.000,"P-1-1",         12335,   166.893E-03,   159.936E-03,            0.,NA,NA,"",   1.02394E+06,   1.01833E+06,   1.01833E+06
C:/temp/Job-1.odb,Step-1,Increment      1: Step Time =    1.000,"P-1-1",         12336,   129.411E-03,   137.027E-03,            0.,NA,NA,"",   1.14407E+06,   1.11268E+06,   1.11268E+06
C:/temp/Job-1.odb,Step-1,Increment      1: Step Time =    1.000,"P-1-1",         12337,   33.6079E-03,   41.0319E-03,            0.,NA,NA,"",   1.00907E+06,   1.04788E+06,   1.04788E+06
C:/temp/Job-1.odb,Step-1,Increment      1: Step Time =    1.000,"P-1-1",         12338,   41.7263E-03,   166.585E-03,            0.,NA,NA,"",   1.04119E+06,   1.06014E+06,   1.06014E+06
C:/temp/Job-1.odb,Step-1,Increment      1: Step Time =    1.000,"P-1-1",         12339,   130.816E-03,   168.068E-03,            0.,NA,NA,"",   1.03238E+06,   1.02894E+06,   1.02894E+06
C:/temp/Job-1.odb,Step-1,Increment      1: Step Time =    1.000,"P-1-1",         12340,   29.9690E-03,   129.759E-03,            0.,NA,NA,"",   894.278E+03,   960.721E+03,   960.721E+03
C:/temp/Job-1.odb,Step-1,Increment      1: Step Time =    1.000,"P-1-1",         12341,   150.238E-03,   33.0909E-03,            0.,NA,NA,"",   1.03378E+06,   1.02560E+06,   1.02560E+06
C:/temp/Job-1.odb,Step-1,Increment      1: Step Time =    1.000,"P-1-1",         12342,   167.042E-03,   149.404E-03,            0.,NA,NA,"",   1.02737E+06,   1.02085E+06,   1.02085E+06
C:/temp/Job-1.odb,Step-1,Increment      1: Step Time =    1.000,"P-1-1",         12343,   169.412E-03,   99.1664E-03,            0.,NA,NA,"",   949.356E+03,   962.891E+03,   962.891E+03
C:/temp/Job-1.odb,Step-1,Increment      1: Step Time =    1.000,"P-1-1",         12344,   66.9296E-03,   136.996E-03,            0.,NA,NA,"",   1.10408E+06,   1.09668E+06,   1.09668E+06
C:/temp/Job-1.odb,Step-1,Increment      1: Step Time =    1.000,"P-1-1",         12345,   143.100E-03,   124.807E-03,            0.,NA,NA,"",   1.05343E+06,   1.02319E+06,   1.02319E+06
C:/temp/Job-1.odb,Step-1,Increment      1: Step Time =    1.000,"P-1-1",         12346,   168.030E-03,   59.9483E-03,            0.,NA,NA,"",   1.02110E+06,   1.01614E+06,   1.01614E+06
C:/temp/Job-1.odb,Step-1,Increment      1: Step Time =    1.000,"P-1-1",         12347,   59.0154E-03,   31.0767E-03,            0.,NA,NA,"",   1.04614E+06,   1.05036E+06,   1.05036E+06
C:/temp/Job-1.odb,Step-1,Increment      1: Step Time =    1.000,"P-1-1",         12348,   30.8210E-03,   50.4067E-03,            0.,NA,NA,"",   969.384E+03,   1.02141E+06,   1.02141E+06
C:/temp/Job-1.odb,Step-1,Increment      1: Step Time =    1.000,"P-1-1",         12349,   49.7649E-03,   169.189E-03,            0.,NA,NA,"",   1.04687E+06,   1.05582E+06,   1.05582E+06
C:/temp/Job-1.odb,Step-1,Increment      1: Step Time =    1.000,"P-1-1",         12350,   57.4994E-03,   122.551E-03,            0.,NA,NA,"",   975.710E+03,   988.883E+03,   988.883E+03
C:/temp/Job-1.odb,Step-1,Increment      1: Step Time =    1.000,"P-1-1",         12351,   168.568E-03,   67.4035E-03,            0.,NA,NA,"",   1.01025E+06,   1.00803E+06,   1.00803E+06
C:/temp/Job-1.odb,Step-1,Increment      1: Step Time =    1.000,"P-1-1",         12352,   67.2531E-03,   33.1695E-03,            0.,NA,NA,"",   1.04578E+06,   1.04962E+06,   1.04962E+06
C:/temp/Job-1.odb,Step-1,Increment      1: Step Time =    1.000,"P-1-1",         12353,   167.227E-03,   61.0225E-03,            0.,NA,NA,"",   1.02147E+06,   1.01611E+06,   1.01611E+06
C:/temp/Job-1.odb,Step-1,Increment      1: Step Time =    1.000,"P-1-1",         12354,   60.2084E-03,   33.6870E-03,            0.,NA,NA,"",   1.05010E+06,   1.05453E+06,   1.05453E+06
C:/temp/Job-1.odb,Step-1,Increment      1: Step Time =    1.000,"P-1-1",         12355,   33.6408E-03,   49.9800E-03,            0.,NA,NA,"",   981.715E+03,   1.02776E+06,   1.02776E+06
C:/temp/Job-1.odb,Step-1,Increment      1: Step Time =    1.000,"P-1-1",         12356,   50.7852E-03,   166.412E-03,            0.,NA,NA,"",   1.04835E+06,   1.05779E+06,   1.05779E+06
C:/temp/Job-1.odb,Step-1,Increment      1: Step Time =    1.000,"P-1-1",         12357,   138.263E-03,   167.923E-03,            0.,NA,NA,"",   1.03542E+06,   1.02882E+06,   1.02882E+06
C:/temp/Job-1.odb,Step-1,Increment      1: Step Time =    1.000,"P-1-1",         12358,   56.7212E-03,   167.084E-03,            0.,NA,NA,"",   1.04920E+06,   1.05471E+06,   1.05471E+06
C:/temp/Job-1.odb,Step-1,Increment      1: Step Time =    1.000,"P-1-1",         12359,   33.4538E-03,   138.407E-03,            0.,NA,NA,"",   940.495E+03,   995.107E+03,   995.107E+03
C:/temp/Job-1.odb,Step-1,Increment      1: Step Time =    1.000,"P-1-1",         12360,   109.469E-03,   33.8060E-03,            0.,NA,NA,"",   1.01146E+06,   1.02445E+06,   1.02445E+06
C:/temp/Job-1.odb,Step-1,Increment      1: Step Time =    1.000,"P-1-1",         12361,   166.319E-03,   108.576E-03,            0.,NA,NA,"",   951.167E+03,   961.564E+03,   961.564E+03
C:/temp/Job-1.odb,Step-1,Increment      1: Step Time =    1.000,"P-1-1",         12362,   34.3835E-03,   91.6934E-03,            0.,NA,NA,"",   828.151E+03,   899.639E+03,   899.639E+03
C:/temp/Job-1.odb,Step-1,Increment      1: Step Time =    1.000,"P-1-1",         12363,   91.1457E-03,   165.960E-03,            0.,NA,NA,"",   1.01321E+06,   1.02889E+06,   1.02889E+06
C:/temp/Job-1.odb,Step-1,Increment      1: Step Time =    1.000,"P-1-1",         12364,   76.6324E-03,   142.837E-03,            0.,NA,NA,"",   1.10803E+06,   1.11184E+06,   1.11184E+06
C:/temp/Job-1.odb,Step-1,Increment      1: Step Time =    1.000,"P-1-1",         12365,   121.145E-03,   143.099E-03,            0.,NA,NA,"",   1.11146E+06,   1.10748E+06,   1.10748E+06
C:/temp/Job-1.odb,Step-1,Increment      1: Step Time =    1.000,"P-1-1",         12366,   165.454E-03,   33.3146E-03,            0.,NA,NA,"",   1.02020E+06,   1.01531E+06,   1.01531E+06
C:/temp/Job-1.odb,Step-1,Increment      1: Step Time =    1.000,"P-1-1",         12367,   81.6727E-03,   32.4350E-03,            0.,NA,NA,"",   1.02464E+06,   1.03407E+06,   1.03407E+06
C:/temp/Job-1.odb,Step-1,Increment      1: Step Time =    1.000,"P-1-1",         12368,   164.505E-03,   81.2752E-03,            0.,NA,NA,"",   978.074E+03,   980.695E+03,   980.695E+03
C:/temp/Job-1.odb,Step-1,Increment      1: Step Time =    1.000,"P-1-1",         12369,   134.319E-03,   129.420E-03,            0.,NA,NA,"",   1.13143E+06,   1.08644E+06,   1.08644E+06
C:/temp/Job-1.odb,Step-1,Increment      1: Step Time =    1.000,"P-1-1",         12370,   137.795E-03,   126.698E-03,            0.,NA,NA,"",   1.09706E+06,   1.05589E+06,   1.05589E+06
C:/temp/Job-1.odb,Step-1,Increment      1: Step Time =    1.000,"P-1-1",         12371,   144.195E-03,   93.5235E-03,            0.,NA,NA,"",   864.255E+03,   870.188E+03,   870.188E+03
C:/temp/Job-1.odb,Step-1,Increment      1: Step Time =    1.000,"P-1-1",         12372,   125.568E-03,   139.772E-03,            0.,NA,NA,"",   1.13621E+06,   1.11609E+06,   1.11609E+06
C:/temp/Job-1.odb,Step-1,Increment      1: Step Time =    1.000,"P-1-1",         12373,   70.5674E-03,   137.183E-03,            0.,NA,NA,"",   1.12061E+06,   1.11161E+06,   1.11161E+06
C:/temp/Job-1.odb,Step-1,Increment      1: Step Time =    1.000,"P-1-1",         12374,   31.5979E-03,   133.142E-03,            0.,NA,NA,"",   912.647E+03,   974.251E+03,   974.251E+03
C:/temp/Job-1.odb,Step-1,Increment      1: Step Time =    1.000,"P-1-1",         12375,   133.654E-03,   167.173E-03,            0.,NA,NA,"",   1.03624E+06,   1.03109E+06,   1.03109E+06
C:/temp/Job-1.odb,Step-1,Increment      1: Step Time =    1.000,"P-1-1",         12376,   154.479E-03,   34.2099E-03,            0.,NA,NA,"",   1.03199E+06,   1.02401E+06,   1.02401E+06
C:/temp/Job-1.odb,Step-1,Increment      1: Step Time =    1.000,"P-1-1",         12377,   165.756E-03,   154.255E-03,            0.,NA,NA,"",   1.02865E+06,   1.02171E+06,   1.02171E+06
C:/temp/Job-1.odb,Step-1,Increment      1: Step Time =    1.000,"P-1-1",         12378,   32.7971E-03,   45.8073E-03,            0.,NA,NA,"",   991.683E+03,   1.03623E+06,   1.03623E+06
C:/temp/Job-1.odb,Step-1,Increment      1: Step Time =    1.000,"P-1-1",         12379,   46.8152E-03,   165.903E-03,            0.,NA,NA,"",   1.04559E+06,   1.05902E+06,   1.05902E+06
C:/temp/Job-1.odb,Step-1,Increment      1: Step Time =    1.000,"P-1-1",         12380,   147.622E-03,   102.385E-03,            0.,NA,NA,"",   864.749E+03,   875.755E+03,   875.755E+03
C:/temp/Job-1.odb,Step-1,Increment      1: Step Time =    1.000,"P-1-1",         12381,   141.368E-03,   34.7825E-03,            0.,NA,NA,"",   1.04186E+06,   1.03328E+06,   1.03328E+06
C:/temp/Job-1.odb,Step-1,Increment      1: Step Time =    1.000,"P-1-1",         12382,   164.908E-03,   142.716E-03,            0.,NA,NA,"",   1.02948E+06,   1.02159E+06,   1.02159E+06
C:/temp/Job-1.odb,Step-1,Increment      1: Step Time =    1.000,"P-1-1",         12383,   117.055E-03,   34.0519E-03,            0.,NA,NA,"",   1.02205E+06,   1.02901E+06,   1.02901E+06
C:/temp/Job-1.odb,Step-1,Increment      1: Step Time =    1.000,"P-1-1",         12384,   134.316E-03,   132.833E-03,            0.,NA,NA,"",   1.13334E+06,   1.09325E+06,   1.09325E+06
C:/temp/Job-1.odb,Step-1,Increment      1: Step Time =    1.000,"P-1-1",         12385,   102.696E-03,   32.2830E-03,            0.,NA,NA,"",   1.00452E+06,   1.01952E+06,   1.01952E+06
C:/temp/Job-1.odb,Step-1,Increment      1: Step Time =    1.000,"P-1-1",         12386,   58.5799E-03,   69.7266E-03,            0.,NA,NA,"",   1.03494E+06,   1.04004E+06,   1.04004E+06
C:/temp/Job-1.odb,Step-1,Increment      1: Step Time =    1.000,"P-1-1",         12387,   167.722E-03,   102.711E-03,            0.,NA,NA,"",   946.217E+03,   959.034E+03,   959.034E+03
C:/temp/Job-1.odb,Step-1,Increment      1: Step Time =    1.000,"P-1-1",         12388,   97.3442E-03,   167.110E-03,            0.,NA,NA,"",   1.00605E+06,   1.02208E+06,   1.02208E+06
C:/temp/Job-1.odb,Step-1,Increment      1: Step Time =    1.000,"P-1-1",         12389,   90.3554E-03,   147.797E-03,            0.,NA,NA,"",   1.04611E+06,   1.07896E+06,   1.07896E+06
C:/temp/Job-1.odb,Step-1,Increment      1: Step Time =    1.000,"P-1-1",         12390,   53.6276E-03,   92.8008E-03,            0.,NA,NA,"",   806.705E+03,   855.567E+03,   855.567E+03
C:/temp/Job-1.odb,Step-1,Increment      1: Step Time =    1.000,"P-1-1",         12391,   135.345E-03,   31.4062E-03,            0.,NA,NA,"",   1.03314E+06,   1.02778E+06,   1.02778E+06
C:/temp/Job-1.odb,Step-1,Increment      1: Step Time =    1.000,"P-1-1",         12392,   169.107E-03,   135.930E-03,            0.,NA,NA,"",   1.01448E+06,   1.01153E+06,   1.01153E+06
C:/temp/Job-1.odb,Step-1,Increment      1: Step Time =    1.000,"P-1-1",         12393,   59.1229E-03,   124.387E-03,            0.,NA,NA,"",   1.00265E+06,   1.00926E+06,   1.00926E+06
C:/temp/Job-1.odb,Step-1,Increment      1: Step Time =    1.000,"P-1-1",         12394,   33.4787E-03,   116.332E-03,            0.,NA,NA,"",   851.647E+03,   920.544E+03,   920.544E+03
C:/temp/Job-1.odb,Step-1,Increment      1: Step Time =    1.000,"P-1-1",         12395,   72.8116E-03,   68.5441E-03,            0.,NA,NA,"",   1.14816E+06,   1.12823E+06,   1.12823E+06
C:/temp/Job-1.odb,Step-1,Increment      1: Step Time =    1.000,"P-1-1",         12396,   117.053E-03,   165.611E-03,            0.,NA,NA,"",   1.02289E+06,   1.03002E+06,   1.03002E+06
C:/temp/Job-1.odb,Step-1,Increment      1: Step Time =    1.000,"P-1-1",         12397,   129.970E-03,   170.454E-03,            0.,NA,NA,"",   1.02533E+06,   1.02295E+06,   1.02295E+06
C:/temp/Job-1.odb,Step-1,Increment      1: Step Time =    1.000,"P-1-1",         12398,   147.985E-03,   109.385E-03,            0.,NA,NA,"",   905.998E+03,   908.479E+03,   908.479E+03
C:/temp/Job-1.odb,Step-1,Increment      1: Step Time =    1.000,"P-1-1",         12399,   134.113E-03,   175.336E-03,            0.,NA,NA,"",   1.01577E+06,   1.01285E+06,   1.01285E+06
C:/temp/Job-1.odb,Step-1,Increment      1: Step Time =    1.000,"P-1-1",         12400,   25.3178E-03,   134.896E-03,            0.,NA,NA,"",   896.280E+03,   967.873E+03,   967.873E+03
C:/temp/Job-1.odb,Step-1,Increment      1: Step Time =    1.000,"P-1-1",         12401,   165.597E-03,   160.439E-03,            0.,NA,NA,"",   1.02537E+06,   1.01928E+06,   1.01928E+06
C:/temp/Job-1.odb,Step-1,Increment      1: Step Time =    1.000,"P-1-1",         12402,   33.8904E-03,   39.4898E-03,            0.,NA,NA,"",   1.01434E+06,   1.05113E+06,   1.05113E+06
C:/temp/Job-1.odb,Step-1,Increment      1: Step Time =    1.000,"P-1-1",         12403,   64.2935E-03,   26.2013E-03,            0.,NA,NA,"",   1.03285E+06,   1.03541E+06,   1.03541E+06
C:/temp/Job-1.odb,Step-1,Increment      1: Step Time =    1.000,"P-1-1",         12404,   175.064E-03,   64.0123E-03,            0.,NA,NA,"",   1.00548E+06,   1.00735E+06,   1.00735E+06
C:/temp/Job-1.odb,Step-1,Increment      1: Step Time =    1.000,"P-1-1",         12405,   117.959E-03,   73.5407E-03,            0.,NA,NA,"",   1.25150E+06,   1.21547E+06,   1.21547E+06
C:/temp/Job-1.odb,Step-1,Increment      1: Step Time =    1.000,"P-1-1",         12406,   84.0415E-03,   144.796E-03,            0.,NA,NA,"",   1.08120E+06,   1.10171E+06,   1.10171E+06
C:/temp/Job-1.odb,Step-1,Increment      1: Step Time =    1.000,"P-1-1",         12407,   55.1566E-03,   73.9750E-03,            0.,NA,NA,"",   987.234E+03,   1.00357E+06,   1.00357E+06
C:/temp/Job-1.odb,Step-1,Increment      1: Step Time =    1.000,"P-1-1",         12408,   54.3751E-03,   86.1081E-03,            0.,NA,NA,"",   869.985E+03,   906.180E+03,   906.180E+03
C:/temp/Job-1.odb,Step-1,Increment      1: Step Time =    1.000,"P-1-1",         12409,   139.315E-03,   34.5950E-03,            0.,NA,NA,"",   1.04179E+06,   1.03378E+06,   1.03378E+06
C:/temp/Job-1.odb,Step-1,Increment      1: Step Time =    1.000,"P-1-1",         12410,   164.755E-03,   139.186E-03,            0.,NA,NA,"",   1.02669E+06,   1.01914E+06,   1.01914E+06
C:/temp/Job-1.odb,Step-1,Increment      1: Step Time =    1.000,"P-1-1",         12411,   113.321E-03,   34.6576E-03,            0.,NA,NA,"",   1.01783E+06,   1.02846E+06,   1.02846E+06
C:/temp/Job-1.odb,Step-1,Increment      1: Step Time =    1.000,"P-1-1",         12412,   164.377E-03,   54.5654E-03,            0.,NA,NA,"",   1.03190E+06,   1.02347E+06,   1.02347E+06
C:/temp/Job-1.odb,Step-1,Increment      1: Step Time =    1.000,"P-1-1",         12413,   54.1353E-03,   34.7717E-03,            0.,NA,NA,"",   1.05053E+06,   1.05799E+06,   1.05799E+06
C:/temp/Job-1.odb,Step-1,Increment      1: Step Time =    1.000,"P-1-1",         12414,   146.270E-03,   164.669E-03,            0.,NA,NA,"",   1.04099E+06,   1.03160E+06,   1.03160E+06
C:/temp/Job-1.odb,Step-1,Increment      1: Step Time =    1.000,"P-1-1",         12415,   143.932E-03,   165.233E-03,            0.,NA,NA,"",   1.04083E+06,   1.03189E+06,   1.03189E+06
C:/temp/Job-1.odb,Step-1,Increment      1: Step Time =    1.000,"P-1-1",         12416,   35.6347E-03,   146.672E-03,            0.,NA,NA,"",   978.398E+03,   1.02298E+06,   1.02298E+06
C:/temp/Job-1.odb,Step-1,Increment      1: Step Time =    1.000,"P-1-1",         12417,   33.6176E-03,   141.955E-03,            0.,NA,NA,"",   954.167E+03,   1.00605E+06,   1.00605E+06
C:/temp/Job-1.odb,Step-1,Increment      1: Step Time =    1.000,"P-1-1",         12418,   133.334E-03,   33.4619E-03,            0.,NA,NA,"",   1.03782E+06,   1.03262E+06,   1.03262E+06
C:/temp/Job-1.odb,Step-1,Increment      1: Step Time =    1.000,"P-1-1",         12419,   165.577E-03,   132.912E-03,            0.,NA,NA,"",   1.01572E+06,   1.01073E+06,   1.01073E+06
C:/temp/Job-1.odb,Step-1,Increment      1: Step Time =    1.000,"P-1-1",         12420,   69.2043E-03,   67.6359E-03,            0.,NA,NA,"",   1.12143E+06,   1.10585E+06,   1.10585E+06
C:/temp/Job-1.odb,Step-1,Increment      1: Step Time =    1.000,"P-1-1",         12421,   67.1401E-03,   65.5698E-03,            0.,NA,NA,"",   1.10659E+06,   1.09611E+06,   1.09611E+06
C:/temp/Job-1.odb,Step-1,Increment      1: Step Time =    1.000,"P-1-1",         12422,   79.8635E-03,   146.490E-03,            0.,NA,NA,"",   1.08663E+06,   1.09838E+06,   1.09838E+06
C:/temp/Job-1.odb,Step-1,Increment      1: Step Time =    1.000,"P-1-1",         12423,   164.745E-03,   113.221E-03,            0.,NA,NA,"",   960.363E+03,   967.319E+03,   967.319E+03
C:/temp/Job-1.odb,Step-1,Increment      1: Step Time =    1.000,"P-1-1",         12424,   35.0416E-03,   86.2693E-03,            0.,NA,NA,"",   844.868E+03,   913.134E+03,   913.134E+03
C:/temp/Job-1.odb,Step-1,Increment      1: Step Time =    1.000,"P-1-1",         12425,   96.6595E-03,   149.017E-03,            0.,NA,NA,"",   1.02772E+06,   1.06602E+06,   1.06602E+06
C:/temp/Job-1.odb,Step-1,Increment      1: Step Time =    1.000,"P-1-1",         12426,   86.6649E-03,   164.819E-03,            0.,NA,NA,"",   1.02184E+06,   1.03583E+06,   1.03583E+06
C:/temp/Job-1.odb,Step-1,Increment      1: Step Time =    1.000,"P-1-1",         12427,   96.9692E-03,   31.8364E-03,            0.,NA,NA,"",   1.00458E+06,   1.01961E+06,   1.01961E+06
C:/temp/Job-1.odb,Step-1,Increment      1: Step Time =    1.000,"P-1-1",         12428,   32.3404E-03,   103.674E-03,            0.,NA,NA,"",   819.354E+03,   894.215E+03,   894.215E+03
C:/temp/Job-1.odb,Step-1,Increment      1: Step Time =    1.000,"P-1-1",         12429,   103.360E-03,   168.816E-03,            0.,NA,NA,"",   1.00317E+06,   1.01698E+06,   1.01698E+06
C:/temp/Job-1.odb,Step-1,Increment      1: Step Time =    1.000,"P-1-1",         12430,   133.764E-03,   73.5757E-03,            0.,NA,NA,"",   1.12710E+06,   1.07783E+06,   1.07783E+06
C:/temp/Job-1.odb,Step-1,Increment      1: Step Time =    1.000,"P-1-1",         12431,   89.4700E-03,   62.9719E-03,            0.,NA,NA,"",   1.09579E+06,   1.13592E+06,   1.13592E+06
C:/temp/Job-1.odb,Step-1,Increment      1: Step Time =    1.000,"P-1-1",         12432,   79.5013E-03,   67.4253E-03,            0.,NA,NA,"",   1.17000E+06,   1.16223E+06,   1.16223E+06
C:/temp/Job-1.odb,Step-1,Increment      1: Step Time =    1.000,"P-1-1",         12433,   166.844E-03,   48.8352E-03,            0.,NA,NA,"",   1.02759E+06,   1.02102E+06,   1.02102E+06
C:/temp/Job-1.odb,Step-1,Increment      1: Step Time =    1.000,"P-1-1",         12434,   164.949E-03,   51.0768E-03,            0.,NA,NA,"",   1.03119E+06,   1.02330E+06,   1.02330E+06
C:/temp/Job-1.odb,Step-1,Increment      1: Step Time =    1.000,"P-1-1",         12435,   49.0030E-03,   33.5795E-03,            0.,NA,NA,"",   1.04734E+06,   1.05832E+06,   1.05832E+06
C:/temp/Job-1.odb,Step-1,Increment      1: Step Time =    1.000,"P-1-1",         12436,   50.9232E-03,   34.8454E-03,            0.,NA,NA,"",   1.04874E+06,   1.05865E+06,   1.05865E+06
C:/temp/Job-1.odb,Step-1,Increment      1: Step Time =    1.000,"P-1-1",         12437,   149.156E-03,   165.349E-03,            0.,NA,NA,"",   1.03728E+06,   1.02836E+06,   1.02836E+06
C:/temp/Job-1.odb,Step-1,Increment      1: Step Time =    1.000,"P-1-1",         12438,   151.311E-03,   167.150E-03,            0.,NA,NA,"",   1.03259E+06,   1.02460E+06,   1.02460E+06
C:/temp/Job-1.odb,Step-1,Increment      1: Step Time =    1.000,"P-1-1",         12439,   35.6598E-03,   149.672E-03,            0.,NA,NA,"",   987.879E+03,   1.03036E+06,   1.03036E+06
C:/temp/Job-1.odb,Step-1,Increment      1: Step Time =    1.000,"P-1-1",         12440,   34.4990E-03,   152.592E-03,            0.,NA,NA,"",   993.141E+03,   1.03540E+06,   1.03540E+06
C:/temp/Job-1.odb,Step-1,Increment      1: Step Time =    1.000,"P-1-1",         12441,   164.902E-03,   119.932E-03,            0.,NA,NA,"",   981.912E+03,   983.915E+03,   983.915E+03
C:/temp/Job-1.odb,Step-1,Increment      1: Step Time =    1.000,"P-1-1",         12442,   163.379E-03,   116.222E-03,            0.,NA,NA,"",   969.019E+03,   972.849E+03,   972.849E+03
C:/temp/Job-1.odb,Step-1,Increment      1: Step Time =    1.000,"P-1-1",         12443,   34.5472E-03,   83.5096E-03,            0.,NA,NA,"",   853.784E+03,   921.209E+03,   921.209E+03
C:/temp/Job-1.odb,Step-1,Increment      1: Step Time =    1.000,"P-1-1",         12444,   33.6156E-03,   80.5858E-03,            0.,NA,NA,"",   863.259E+03,   930.357E+03,   930.357E+03
C:/temp/Job-1.odb,Step-1,Increment      1: Step Time =    1.000,"P-1-1",         12445,   80.8277E-03,   165.688E-03,            0.,NA,NA,"",   1.03029E+06,   1.04005E+06,   1.04005E+06
C:/temp/Job-1.odb,Step-1,Increment      1: Step Time =    1.000,"P-1-1",         12446,   83.8836E-03,   163.668E-03,            0.,NA,NA,"",   1.02920E+06,   1.04203E+06,   1.04203E+06
C:/temp/Job-1.odb,Step-1,Increment      1: Step Time =    1.000,"P-1-1",         12447,   57.9584E-03,   70.6710E-03,            0.,NA,NA,"",   1.02668E+06,   1.03343E+06,   1.03343E+06
C:/temp/Job-1.odb,Step-1,Increment      1: Step Time =    1.000,"P-1-1",         12448,   59.1139E-03,   127.220E-03,            0.,NA,NA,"",   1.02354E+06,   1.02805E+06,   1.02805E+06
C:/temp/Job-1.odb,Step-1,Increment      1: Step Time =    1.000,"P-1-1",         12449,   61.1956E-03,   167.242E-03,            0.,NA,NA,"",   1.04836E+06,   1.05240E+06,   1.05240E+06
C:/temp/Job-1.odb,Step-1,Increment      1: Step Time =    1.000,"P-1-1",         12450,   32.8135E-03,   60.7882E-03,            0.,NA,NA,"",   940.928E+03,   996.154E+03,   996.154E+03
C:/temp/Job-1.odb,Step-1,Increment      1: Step Time =    1.000,"P-1-1",         12451,   165.489E-03,   145.501E-03,            0.,NA,NA,"",   1.02961E+06,   1.02204E+06,   1.02204E+06
C:/temp/Job-1.odb,Step-1,Increment      1: Step Time =    1.000,"P-1-1",         12452,   147.622E-03,   33.5529E-03,            0.,NA,NA,"",   1.03599E+06,   1.02755E+06,   1.02755E+06
C:/temp/Job-1.odb,Step-1,Increment      1: Step Time =    1.000,"P-1-1",         12453,   113.099E-03,   144.834E-03,            0.,NA,NA,"",   1.07147E+06,   1.09313E+06,   1.09313E+06
C:/temp/Job-1.odb,Step-1,Increment      1: Step Time =    1.000,"P-1-1",         12454,   33.1758E-03,   121.899E-03,            0.,NA,NA,"",   872.452E+03,   938.521E+03,   938.521E+03
C:/temp/Job-1.odb,Step-1,Increment      1: Step Time =    1.000,"P-1-1",         12455,   122.608E-03,   167.289E-03,            0.,NA,NA,"",   1.02632E+06,   1.02845E+06,   1.02845E+06
C:/temp/Job-1.odb,Step-1,Increment      1: Step Time =    1.000,"P-1-1",         12456,   117.755E-03,   142.648E-03,            0.,NA,NA,"",   1.10331E+06,   1.10935E+06,   1.10935E+06
C:/temp/Job-1.odb,Step-1,Increment      1: Step Time =    1.000,"P-1-1",         12457,   109.250E-03,   166.265E-03,            0.,NA,NA,"",   1.01121E+06,   1.02435E+06,   1.02435E+06
C:/temp/Job-1.odb,Step-1,Increment      1: Step Time =    1.000,"P-1-1",         12458,   33.7792E-03,   108.191E-03,            0.,NA,NA,"",   827.381E+03,   899.473E+03,   899.473E+03
C:/temp/Job-1.odb,Step-1,Increment      1: Step Time =    1.000,"P-1-1",         12459,   91.5273E-03,   34.3176E-03,            0.,NA,NA,"",   1.01305E+06,   1.02880E+06,   1.02880E+06
C:/temp/Job-1.odb,Step-1,Increment      1: Step Time =    1.000,"P-1-1",         12460,   99.1402E-03,   29.9656E-03,            0.,NA,NA,"",   1.00110E+06,   1.01462E+06,   1.01462E+06
C:/temp/Job-1.odb,Step-1,Increment      1: Step Time =    1.000,"P-1-1",         12461,   115.698E-03,   165.781E-03,            0.,NA,NA,"",   1.02056E+06,   1.02884E+06,   1.02884E+06
C:/temp/Job-1.odb,Step-1,Increment      1: Step Time =    1.000,"P-1-1",         12462,   31.6972E-03,   98.6899E-03,            0.,NA,NA,"",   817.401E+03,   893.153E+03,   893.153E+03
C:/temp/Job-1.odb,Step-1,Increment      1: Step Time =    1.000,"P-1-1",         12463,   34.0753E-03,   114.878E-03,            0.,NA,NA,"",   847.587E+03,   916.391E+03,   916.391E+03
C:/temp/Job-1.odb,Step-1,Increment      1: Step Time =    1.000,"P-1-1",         12464,   99.8785E-03,   169.581E-03,            0.,NA,NA,"",   1.00149E+06,   1.01526E+06,   1.01526E+06
C:/temp/Job-1.odb,Step-1,Increment      1: Step Time =    1.000,"P-1-1",         12465,   96.5472E-03,   65.3115E-03,            0.,NA,NA,"",   1.06143E+06,   1.13258E+06,   1.13258E+06
C:/temp/Job-1.odb,Step-1,Increment      1: Step Time =    1.000,"P-1-1",         12466,   99.5917E-03,   64.3086E-03,            0.,NA,NA,"",   1.04927E+06,   1.12088E+06,   1.12088E+06
C:/temp/Job-1.odb,Step-1,Increment      1: Step Time =    1.000,"P-1-1",         12467,   140.297E-03,   86.9366E-03,            0.,NA,NA,"",   934.283E+03,   918.824E+03,   918.824E+03
C:/temp/Job-1.odb,Step-1,Increment      1: Step Time =    1.000,"P-1-1",         12468,   123.994E-03,   78.2354E-03,            0.,NA,NA,"",   1.21978E+06,   1.14209E+06,   1.14209E+06
C:/temp/Job-1.odb,Step-1,Increment      1: Step Time =    1.000,"P-1-1",         12469,   84.1543E-03,   64.8781E-03,            0.,NA,NA,"",   1.14071E+06,   1.15610E+06,   1.15610E+06
C:/temp/Job-1.odb,Step-1,Increment      1: Step Time =    1.000,"P-1-1",         12470,   86.7411E-03,   63.6464E-03,            0.,NA,NA,"",   1.11667E+06,   1.14510E+06,   1.14510E+06
C:/temp/Job-1.odb,Step-1,Increment      1: Step Time =    1.000,"P-1-1",         12471,   63.2910E-03,   33.7089E-03,            0.,NA,NA,"",   1.04914E+06,   1.05298E+06,   1.05298E+06
C:/temp/Job-1.odb,Step-1,Increment      1: Step Time =    1.000,"P-1-1",         12472,   165.760E-03,   62.5822E-03,            0.,NA,NA,"",   1.02274E+06,   1.01640E+06,   1.01640E+06
C:/temp/Job-1.odb,Step-1,Increment      1: Step Time =    1.000,"P-1-1",         12473,   77.0879E-03,   33.5987E-03,            0.,NA,NA,"",   1.03447E+06,   1.04171E+06,   1.04171E+06
C:/temp/Job-1.odb,Step-1,Increment      1: Step Time =    1.000,"P-1-1",         12474,   165.309E-03,   77.1423E-03,            0.,NA,NA,"",   990.861E+03,   991.176E+03,   991.176E+03
C:/temp/Job-1.odb,Step-1,Increment      1: Step Time =    1.000,"P-1-1",         12475,   30.3596E-03,   40.5954E-03,            0.,NA,NA,"",   1.00097E+06,   1.04558E+06,   1.04558E+06
C:/temp/Job-1.odb,Step-1,Increment      1: Step Time =    1.000,"P-1-1",         12476,   137.593E-03,   166.711E-03,            0.,NA,NA,"",   1.03846E+06,   1.03154E+06,   1.03154E+06
C:/temp/Job-1.odb,Step-1,Increment      1: Step Time =    1.000,"P-1-1",         12477,   34.1868E-03,   136.563E-03,            0.,NA,NA,"",   936.256E+03,   990.744E+03,   990.744E+03
C:/temp/Job-1.odb,Step-1,Increment      1: Step Time =    1.000,"P-1-1",         12478,   34.4304E-03,   51.9310E-03,            0.,NA,NA,"",   978.370E+03,   1.02432E+06,   1.02432E+06
C:/temp/Job-1.odb,Step-1,Increment      1: Step Time =    1.000,"P-1-1",         12479,   52.4614E-03,   165.511E-03,            0.,NA,NA,"",   1.04956E+06,   1.05811E+06,   1.05811E+06
C:/temp/Job-1.odb,Step-1,Increment      1: Step Time =    1.000,"P-1-1",         12480,   165.675E-03,   69.2296E-03,            0.,NA,NA,"",   1.01122E+06,   1.00723E+06,   1.00723E+06
C:/temp/Job-1.odb,Step-1,Increment      1: Step Time =    1.000,"P-1-1",         12481,   71.0519E-03,   34.6975E-03,            0.,NA,NA,"",   1.04531E+06,   1.05016E+06,   1.05016E+06
C:/temp/Job-1.odb,Step-1,Increment      1: Step Time =    1.000,"P-1-1",         12482,   170.168E-03,   160.124E-03,            0.,NA,NA,"",   1.01950E+06,   1.01531E+06,   1.01531E+06
C:/temp/Job-1.odb,Step-1,Increment      1: Step Time =    1.000,"P-1-1",         12483,   130.872E-03,   75.8056E-03,            0.,NA,NA,"",   1.14371E+06,   1.08589E+06,   1.08589E+06
C:/temp/Job-1.odb,Step-1,Increment      1: Step Time =    1.000,"P-1-1",         12484,   147.030E-03,   97.8460E-03,            0.,NA,NA,"",   859.716E+03,   871.053E+03,   871.053E+03
C:/temp/Job-1.odb,Step-1,Increment      1: Step Time =    1.000,"P-1-1",         12485,   119.676E-03,   73.7405E-03,            0.,NA,NA,"",   1.24762E+06,   1.20151E+06,   1.20151E+06
C:/temp/Job-1.odb,Step-1,Increment      1: Step Time =    1.000,"P-1-1",         12486,   129.917E-03,   73.7100E-03,            0.,NA,NA,"",   1.16260E+06,   1.10649E+06,   1.10649E+06
C:/temp/Job-1.odb,Step-1,Increment      1: Step Time =    1.000,"P-1-1",         12487,   73.7700E-03,   142.015E-03,            0.,NA,NA,"",   1.11215E+06,   1.11102E+06,   1.11102E+06
C:/temp/Job-1.odb,Step-1,Increment      1: Step Time =    1.000,"P-1-1",         12488,   157.733E-03,   34.2009E-03,            0.,NA,NA,"",   1.02892E+06,   1.02164E+06,   1.02164E+06
C:/temp/Job-1.odb,Step-1,Increment      1: Step Time =    1.000,"P-1-1",         12489,   165.639E-03,   157.375E-03,            0.,NA,NA,"",   1.02729E+06,   1.02072E+06,   1.02072E+06
C:/temp/Job-1.odb,Step-1,Increment      1: Step Time =    1.000,"P-1-1",         12490,   33.9474E-03,   42.6572E-03,            0.,NA,NA,"",   1.00525E+06,   1.04481E+06,   1.04481E+06
C:/temp/Job-1.odb,Step-1,Increment      1: Step Time =    1.000,"P-1-1",         12491,   43.3767E-03,   164.579E-03,            0.,NA,NA,"",   1.04103E+06,   1.05928E+06,   1.05928E+06
C:/temp/Job-1.odb,Step-1,Increment      1: Step Time =    1.000,"P-1-1",         12492,   124.603E-03,   34.1013E-03,            0.,NA,NA,"",   1.03243E+06,   1.03288E+06,   1.03288E+06
C:/temp/Job-1.odb,Step-1,Increment      1: Step Time =    1.000,"P-1-1",         12493,   165.426E-03,   124.439E-03,            0.,NA,NA,"",   995.267E+03,   994.636E+03,   994.636E+03
C:/temp/Job-1.odb,Step-1,Increment      1: Step Time =    1.000,"P-1-1",         12494,   35.1005E-03,   76.0575E-03,            0.,NA,NA,"",   886.817E+03,   948.318E+03,   948.318E+03
C:/temp/Job-1.odb,Step-1,Increment      1: Step Time =    1.000,"P-1-1",         12495,   76.2421E-03,   166.181E-03,            0.,NA,NA,"",   1.03656E+06,   1.04345E+06,   1.04345E+06
C:/temp/Job-1.odb,Step-1,Increment      1: Step Time =    1.000,"P-1-1",         12496,   164.584E-03,   39.8933E-03,            0.,NA,NA,"",   1.02696E+06,   1.02040E+06,   1.02040E+06
C:/temp/Job-1.odb,Step-1,Increment      1: Step Time =    1.000,"P-1-1",         12497,   161.647E-03,   165.396E-03,            0.,NA,NA,"",   1.02556E+06,   1.01919E+06,   1.01919E+06
C:/temp/Job-1.odb,Step-1,Increment      1: Step Time =    1.000,"P-1-1",         12498,   165.868E-03,   90.7899E-03,            0.,NA,NA,"",   952.015E+03,   961.860E+03,   961.860E+03
C:/temp/Job-1.odb,Step-1,Increment      1: Step Time =    1.000,"P-1-1",         12499,   33.7964E-03,   159.714E-03,            0.,NA,NA,"",   1.01174E+06,   1.04951E+06,   1.04951E+06
C:/temp/Job-1.odb,Step-1,Increment      1: Step Time =    1.000,"P-1-1",         12500,   54.6920E-03,   96.4067E-03,            0.,NA,NA,"",   780.357E+03,   831.948E+03,   831.948E+03
C:/temp/Job-1.odb,Step-1,Increment      1: Step Time =    1.000,"P-1-1",         12501,   128.793E-03,   33.1502E-03,            0.,NA,NA,"",   1.03361E+06,   1.03118E+06,   1.03118E+06
C:/temp/Job-1.odb,Step-1,Increment      1: Step Time =    1.000,"P-1-1",         12502,   166.275E-03,   128.411E-03,            0.,NA,NA,"",   1.00488E+06,   1.00267E+06,   1.00267E+06
C:/temp/Job-1.odb,Step-1,Increment      1: Step Time =    1.000,"P-1-1",         12503,   100.825E-03,   67.5064E-03,            0.,NA,NA,"",   1.06449E+06,   1.14689E+06,   1.14689E+06
C:/temp/Job-1.odb,Step-1,Increment      1: Step Time =    1.000,"P-1-1",         12504,   54.5843E-03,   83.1094E-03,            0.,NA,NA,"",   902.805E+03,   933.238E+03,   933.238E+03
C:/temp/Job-1.odb,Step-1,Increment      1: Step Time =    1.000,"P-1-1",         12505,   164.671E-03,   88.5562E-03,            0.,NA,NA,"",   955.103E+03,   963.216E+03,   963.216E+03
C:/temp/Job-1.odb,Step-1,Increment      1: Step Time =    1.000,"P-1-1",         12506,   72.0256E-03,   35.3194E-03,            0.,NA,NA,"",   1.04575E+06,   1.05103E+06,   1.05103E+06
C:/temp/Job-1.odb,Step-1,Increment      1: Step Time =    1.000,"P-1-1",         12507,   164.385E-03,   71.6449E-03,            0.,NA,NA,"",   1.00744E+06,   1.00351E+06,   1.00351E+06
C:/temp/Job-1.odb,Step-1,Increment      1: Step Time =    1.000,"P-1-1",         12508,   119.940E-03,   165.500E-03,            0.,NA,NA,"",   1.02737E+06,   1.03193E+06,   1.03193E+06
C:/temp/Job-1.odb,Step-1,Increment      1: Step Time =    1.000,"P-1-1",         12509,   65.6361E-03,   34.0685E-03,            0.,NA,NA,"",   1.04849E+06,   1.05234E+06,   1.05234E+06
C:/temp/Job-1.odb,Step-1,Increment      1: Step Time =    1.000,"P-1-1",         12510,   166.332E-03,   65.4648E-03,            0.,NA,NA,"",   1.01734E+06,   1.01239E+06,   1.01239E+06
C:/temp/Job-1.odb,Step-1,Increment      1: Step Time =    1.000,"P-1-1",         12511,   168.442E-03,   149.711E-03,            0.,NA,NA,"",   1.02495E+06,   1.01931E+06,   1.01931E+06
C:/temp/Job-1.odb,Step-1,Increment      1: Step Time =    1.000,"P-1-1",         12512,   150.309E-03,   32.0511E-03,            0.,NA,NA,"",   1.03172E+06,   1.02400E+06,   1.02400E+06
C:/temp/Job-1.odb,Step-1,Increment      1: Step Time =    1.000,"P-1-1",         12513,   34.6987E-03,   55.2424E-03,            0.,NA,NA,"",   968.378E+03,   1.01617E+06,   1.01617E+06
C:/temp/Job-1.odb,Step-1,Increment      1: Step Time =    1.000,"P-1-1",         12514,   135.923E-03,   165.958E-03,            0.,NA,NA,"",   1.04018E+06,   1.03353E+06,   1.03353E+06
C:/temp/Job-1.odb,Step-1,Increment      1: Step Time =    1.000,"P-1-1",         12515,   34.5958E-03,   134.634E-03,            0.,NA,NA,"",   930.421E+03,   985.378E+03,   985.378E+03
C:/temp/Job-1.odb,Step-1,Increment      1: Step Time =    1.000,"P-1-1",         12516,   105.431E-03,   146.731E-03,            0.,NA,NA,"",   1.03548E+06,   1.07390E+06,   1.07390E+06
C:/temp/Job-1.odb,Step-1,Increment      1: Step Time =    1.000,"P-1-1",         12517,   25.3003E-03,   133.453E-03,            0.,NA,NA,"",   891.403E+03,   963.597E+03,   963.597E+03
C:/temp/Job-1.odb,Step-1,Increment      1: Step Time =    1.000,"P-1-1",         12518,   132.973E-03,   176.076E-03,            0.,NA,NA,"",   1.01334E+06,   1.01091E+06,   1.01091E+06
C:/temp/Job-1.odb,Step-1,Increment      1: Step Time =    1.000,"P-1-1",         12519,   88.4861E-03,   33.8435E-03,            0.,NA,NA,"",   1.01654E+06,   1.03057E+06,   1.03057E+06
C:/temp/Job-1.odb,Step-1,Increment      1: Step Time =    1.000,"P-1-1",         12520,   33.9408E-03,   163.439E-03,            0.,NA,NA,"",   1.02249E+06,   1.05642E+06,   1.05642E+06
C:/temp/Job-1.odb,Step-1,Increment      1: Step Time =    1.000,"P-1-1",         12521,   111.849E-03,   165.560E-03,            0.,NA,NA,"",   1.01561E+06,   1.02722E+06,   1.02722E+06
C:/temp/Job-1.odb,Step-1,Increment      1: Step Time =    1.000,"P-1-1",         12522,   34.4073E-03,   111.804E-03,            0.,NA,NA,"",   837.571E+03,   907.535E+03,   907.535E+03
C:/temp/Job-1.odb,Step-1,Increment      1: Step Time =    1.000,"P-1-1",         12523,   54.2156E-03,   111.301E-03,            0.,NA,NA,"",   842.753E+03,   884.187E+03,   884.187E+03
C:/temp/Job-1.odb,Step-1,Increment      1: Step Time =    1.000,"P-1-1",         12524,   54.0079E-03,   101.239E-03,            0.,NA,NA,"",   777.060E+03,   830.491E+03,   830.491E+03
C:/temp/Job-1.odb,Step-1,Increment      1: Step Time =    1.000,"P-1-1",         12525,   127.619E-03,   139.896E-03,            0.,NA,NA,"",   1.13429E+06,   1.11078E+06,   1.11078E+06
C:/temp/Job-1.odb,Step-1,Increment      1: Step Time =    1.000,"P-1-1",         12526,   54.3483E-03,   104.406E-03,            0.,NA,NA,"",   786.316E+03,   837.523E+03,   837.523E+03
C:/temp/Job-1.odb,Step-1,Increment      1: Step Time =    1.000,"P-1-1",         12527,   53.8717E-03,   114.782E-03,            0.,NA,NA,"",   878.055E+03,   913.917E+03,   913.917E+03
C:/temp/Job-1.odb,Step-1,Increment      1: Step Time =    1.000,"P-1-1",         12528,   166.385E-03,   42.6114E-03,            0.,NA,NA,"",   1.02621E+06,   1.01999E+06,   1.01999E+06
C:/temp/Job-1.odb,Step-1,Increment      1: Step Time =    1.000,"P-1-1",         12529,   42.4021E-03,   33.9192E-03,            0.,NA,NA,"",   1.04151E+06,   1.05996E+06,   1.05996E+06
C:/temp/Job-1.odb,Step-1,Increment      1: Step Time =    1.000,"P-1-1",         12530,   158.053E-03,   165.374E-03,            0.,NA,NA,"",   1.02925E+06,   1.02190E+06,   1.02190E+06
C:/temp/Job-1.odb,Step-1,Increment      1: Step Time =    1.000,"P-1-1",         12531,   34.5249E-03,   73.4359E-03,            0.,NA,NA,"",   896.324E+03,   956.949E+03,   956.949E+03
C:/temp/Job-1.odb,Step-1,Increment      1: Step Time =    1.000,"P-1-1",         12532,   53.9882E-03,   98.1682E-03,            0.,NA,NA,"",   778.526E+03,   831.815E+03,   831.815E+03
C:/temp/Job-1.odb,Step-1,Increment      1: Step Time =    1.000,"P-1-1",         12533,   34.3430E-03,   157.385E-03,            0.,NA,NA,"",   1.00661E+06,   1.04535E+06,   1.04535E+06
C:/temp/Job-1.odb,Step-1,Increment      1: Step Time =    1.000,"P-1-1",         12534,   73.5844E-03,   165.104E-03,            0.,NA,NA,"",   1.04279E+06,   1.04872E+06,   1.04872E+06
C:/temp/Job-1.odb,Step-1,Increment      1: Step Time =    1.000,"P-1-1",         12535,   34.6515E-03,   164.892E-03,            0.,NA,NA,"",   1.02791E+06,   1.05904E+06,   1.05904E+06
C:/temp/Job-1.odb,Step-1,Increment      1: Step Time =    1.000,"P-1-1",         12536,   36.0325E-03,   33.3292E-03,            0.,NA,NA,"",   1.03442E+06,   1.06137E+06,   1.06137E+06
C:/temp/Job-1.odb,Step-1,Increment      1: Step Time =    1.000,"P-1-1",         12537,   164.558E-03,   165.513E-03,            0.,NA,NA,"",   1.02231E+06,   1.01687E+06,   1.01687E+06
C:/temp/Job-1.odb,Step-1,Increment      1: Step Time =    1.000,"P-1-1",         12538,   36.1836E-03,   167.700E-03,            0.,NA,NA,"",   1.03680E+06,   1.06246E+06,   1.06246E+06
C:/temp/Job-1.odb,Step-1,Increment      1: Step Time =    1.000,"P-1-1",         12539,   139.458E-03,   82.2713E-03,            0.,NA,NA,"",   1.00494E+06,   975.283E+03,   975.283E+03
C:/temp/Job-1.odb,Step-1,Increment      1: Step Time =    1.000,"P-1-1",         12540,   62.5823E-03,   132.241E-03,            0.,NA,NA,"",   1.07269E+06,   1.06830E+06,   1.06830E+06
C:/temp/Job-1.odb,Step-1,Increment      1: Step Time =    1.000,"P-1-1",         12541,   137.979E-03,   79.0857E-03,            0.,NA,NA,"",   1.05219E+06,   1.01346E+06,   1.01346E+06
C:/temp/Job-1.odb,Step-1,Increment      1: Step Time =    1.000,"P-1-1",         12542,   34.3898E-03,   65.7084E-03,            0.,NA,NA,"",   928.069E+03,   983.758E+03,   983.758E+03
C:/temp/Job-1.odb,Step-1,Increment      1: Step Time =    1.000,"P-1-1",         12543,   65.2175E-03,   165.295E-03,            0.,NA,NA,"",   1.05013E+06,   1.05402E+06,   1.05402E+06
C:/temp/Job-1.odb,Step-1,Increment      1: Step Time =    1.000,"P-1-1",         12544,   108.009E-03,   168.814E-03,            0.,NA,NA,"",   1.00583E+06,   1.01786E+06,   1.01786E+06
C:/temp/Job-1.odb,Step-1,Increment      1: Step Time =    1.000,"P-1-1",         12545,   112.352E-03,   145.998E-03,            0.,NA,NA,"",   1.06367E+06,   1.08686E+06,   1.08686E+06
C:/temp/Job-1.odb,Step-1,Increment      1: Step Time =    1.000,"P-1-1",         12546,   130.587E-03,   35.1145E-03,            0.,NA,NA,"",   1.04073E+06,   1.03652E+06,   1.03652E+06
C:/temp/Job-1.odb,Step-1,Increment      1: Step Time =    1.000,"P-1-1",         12547,   165.045E-03,   130.118E-03,            0.,NA,NA,"",   1.01058E+06,   1.00637E+06,   1.00637E+06
C:/temp/Job-1.odb,Step-1,Increment      1: Step Time =    1.000,"P-1-1",         12548,   77.7232E-03,   70.0890E-03,            0.,NA,NA,"",   1.18456E+06,   1.16365E+06,   1.16365E+06
C:/temp/Job-1.odb,Step-1,Increment      1: Step Time =    1.000,"P-1-1",         12549,   99.2310E-03,   147.980E-03,            0.,NA,NA,"",   1.02659E+06,   1.06746E+06,   1.06746E+06
C:/temp/Job-1.odb,Step-1,Increment      1: Step Time =    1.000,"P-1-1",         12550,   117.121E-03,   78.6973E-03,            0.,NA,NA,"",   1.30876E+06,   1.24498E+06,   1.24498E+06
C:/temp/Job-1.odb,Step-1,Increment      1: Step Time =    1.000,"P-1-1",         12551,   93.0340E-03,   32.0412E-03,            0.,NA,NA,"",   1.00803E+06,   1.02244E+06,   1.02244E+06
C:/temp/Job-1.odb,Step-1,Increment      1: Step Time =    1.000,"P-1-1",         12552,   31.3945E-03,   59.4883E-03,            0.,NA,NA,"",   940.137E+03,   997.241E+03,   997.241E+03
C:/temp/Job-1.odb,Step-1,Increment      1: Step Time =    1.000,"P-1-1",         12553,   58.9194E-03,   169.175E-03,            0.,NA,NA,"",   1.04585E+06,   1.04998E+06,   1.04998E+06
C:/temp/Job-1.odb,Step-1,Increment      1: Step Time =    1.000,"P-1-1",         12554,   164.568E-03,   36.5324E-03,            0.,NA,NA,"",   1.02394E+06,   1.01813E+06,   1.01813E+06
C:/temp/Job-1.odb,Step-1,Increment      1: Step Time =    1.000,"P-1-1",         12555,   165.515E-03,   94.7303E-03,            0.,NA,NA,"",   943.694E+03,   955.181E+03,   955.181E+03
C:/temp/Job-1.odb,Step-1,Increment      1: Step Time =    1.000,"P-1-1",         12556,   121.751E-03,   33.3365E-03,            0.,NA,NA,"",   1.02674E+06,   1.02955E+06,   1.02955E+06
C:/temp/Job-1.odb,Step-1,Increment      1: Step Time =    1.000,"P-1-1",         12557,   166.242E-03,   121.829E-03,            0.,NA,NA,"",   986.985E+03,   988.754E+03,   988.754E+03
C:/temp/Job-1.odb,Step-1,Increment      1: Step Time =    1.000,"P-1-1",         12558,   34.9681E-03,   78.3903E-03,            0.,NA,NA,"",   876.310E+03,   939.676E+03,   939.676E+03
C:/temp/Job-1.odb,Step-1,Increment      1: Step Time =    1.000,"P-1-1",         12559,   78.4952E-03,   164.364E-03,            0.,NA,NA,"",   1.03725E+06,   1.04601E+06,   1.04601E+06
C:/temp/Job-1.odb,Step-1,Increment      1: Step Time =    1.000,"P-1-1",         12560,   166.843E-03,   86.5107E-03,            0.,NA,NA,"",   963.390E+03,   971.278E+03,   971.278E+03
C:/temp/Job-1.odb,Step-1,Increment      1: Step Time =    1.000,"P-1-1",         12561,   108.368E-03,   146.101E-03,            0.,NA,NA,"",   1.04657E+06,   1.08014E+06,   1.08014E+06
C:/temp/Job-1.odb,Step-1,Increment      1: Step Time =    1.000,"P-1-1",         12562,   56.8989E-03,   94.2433E-03,            0.,NA,NA,"",   783.304E+03,   830.088E+03,   830.088E+03
C:/temp/Job-1.odb,Step-1,Increment      1: Step Time =    1.000,"P-1-1",         12563,   100.645E-03,   65.3054E-03,            0.,NA,NA,"",   1.05337E+06,   1.12816E+06,   1.12816E+06
C:/temp/Job-1.odb,Step-1,Increment      1: Step Time =    1.000,"P-1-1",         12564,   33.9737E-03,   125.223E-03,            0.,NA,NA,"",   888.731E+03,   951.267E+03,   951.267E+03
C:/temp/Job-1.odb,Step-1,Increment      1: Step Time =    1.000,"P-1-1",         12565,   126.325E-03,   165.676E-03,            0.,NA,NA,"",   1.03493E+06,   1.03397E+06,   1.03397E+06
C:/temp/Job-1.odb,Step-1,Increment      1: Step Time =    1.000,"P-1-1",         12566,   33.9669E-03,   68.8013E-03,            0.,NA,NA,"",   914.239E+03,   972.641E+03,   972.641E+03
C:/temp/Job-1.odb,Step-1,Increment      1: Step Time =    1.000,"P-1-1",         12567,   68.0982E-03,   165.807E-03,            0.,NA,NA,"",   1.04713E+06,   1.05121E+06,   1.05121E+06
C:/temp/Job-1.odb,Step-1,Increment      1: Step Time =    1.000,"P-1-1",         12568,   141.212E-03,   83.6629E-03,            0.,NA,NA,"",   979.096E+03,   957.033E+03,   957.033E+03
C:/temp/Job-1.odb,Step-1,Increment      1: Step Time =    1.000,"P-1-1",         12569,   60.2935E-03,   129.683E-03,            0.,NA,NA,"",   1.04630E+06,   1.04688E+06,   1.04688E+06
C:/temp/Job-1.odb,Step-1,Increment      1: Step Time =    1.000,"P-1-1",         12570,   148.419E-03,   100.694E-03,            0.,NA,NA,"",   867.210E+03,   878.771E+03,   878.771E+03
C:/temp/Job-1.odb,Step-1,Increment      1: Step Time =    1.000,"P-1-1",         12571,   64.2983E-03,   166.427E-03,            0.,NA,NA,"",   1.04842E+06,   1.05219E+06,   1.05219E+06
C:/temp/Job-1.odb,Step-1,Increment      1: Step Time =    1.000,"P-1-1",         12572,   32.8817E-03,   63.4411E-03,            0.,NA,NA,"",   931.168E+03,   988.072E+03,   988.072E+03
C:/temp/Job-1.odb,Step-1,Increment      1: Step Time =    1.000,"P-1-1",         12573,   54.7471E-03,   80.1669E-03,            0.,NA,NA,"",   932.543E+03,   957.598E+03,   957.598E+03
C:/temp/Job-1.odb,Step-1,Increment      1: Step Time =    1.000,"P-1-1",         12574,   54.8664E-03,   76.9241E-03,            0.,NA,NA,"",   962.713E+03,   982.921E+03,   982.921E+03
C:/temp/Job-1.odb,Step-1,Increment      1: Step Time =    1.000,"P-1-1",         12575,   165.378E-03,   58.5269E-03,            0.,NA,NA,"",   1.02766E+06,   1.02027E+06,   1.02027E+06
C:/temp/Job-1.odb,Step-1,Increment      1: Step Time =    1.000,"P-1-1",         12576,   148.491E-03,   119.552E-03,            0.,NA,NA,"",   992.774E+03,   978.361E+03,   978.361E+03
C:/temp/Job-1.odb,Step-1,Increment      1: Step Time =    1.000,"P-1-1",         12577,   147.890E-03,   106.247E-03,            0.,NA,NA,"",   883.759E+03,   891.004E+03,   891.004E+03
C:/temp/Job-1.odb,Step-1,Increment      1: Step Time =    1.000,"P-1-1",         12578,   60.8727E-03,   130.606E-03,            0.,NA,NA,"",   1.05452E+06,   1.05354E+06,   1.05354E+06
C:/temp/Job-1.odb,Step-1,Increment      1: Step Time =    1.000,"P-1-1",         12579,   103.112E-03,   148.555E-03,            0.,NA,NA,"",   1.02784E+06,   1.06625E+06,   1.06625E+06
C:/temp/Job-1.odb,Step-1,Increment      1: Step Time =    1.000,"P-1-1",         12580,   115.818E-03,   75.0043E-03,            0.,NA,NA,"",   1.27306E+06,   1.24424E+06,   1.24424E+06
C:/temp/Job-1.odb,Step-1,Increment      1: Step Time =    1.000,"P-1-1",         12581,   55.0086E-03,   89.5444E-03,            0.,NA,NA,"",   833.527E+03,   874.974E+03,   874.974E+03
C:/temp/Job-1.odb,Step-1,Increment      1: Step Time =    1.000,"P-1-1",         12582,   141.777E-03,   89.8730E-03,            0.,NA,NA,"",   892.831E+03,   888.372E+03,   888.372E+03
C:/temp/Job-1.odb,Step-1,Increment      1: Step Time =    1.000,"P-1-1",         12583,   93.3820E-03,   147.802E-03,            0.,NA,NA,"",   1.03657E+06,   1.07395E+06,   1.07395E+06
C:/temp/Job-1.odb,Step-1,Increment      1: Step Time =    1.000,"P-1-1",         12584,   77.6293E-03,   145.986E-03,            0.,NA,NA,"",   1.09295E+06,   1.10075E+06,   1.10075E+06
C:/temp/Job-1.odb,Step-1,Increment      1: Step Time =    1.000,"P-1-1",         12585,   56.1781E-03,   35.1548E-03,            0.,NA,NA,"",   1.05172E+06,   1.05810E+06,   1.05810E+06
C:/temp/Job-1.odb,Step-1,Increment      1: Step Time =    1.000,"P-1-1",         12586,   164.869E-03,   56.5620E-03,            0.,NA,NA,"",   1.03002E+06,   1.02203E+06,   1.02203E+06
C:/temp/Job-1.odb,Step-1,Increment      1: Step Time =    1.000,"P-1-1",         12587,   31.9662E-03,   80.0400E-03,            0.,NA,NA,"",   861.608E+03,   930.767E+03,   930.767E+03
C:/temp/Job-1.odb,Step-1,Increment      1: Step Time =    1.000,"P-1-1",         12588,   80.2146E-03,   166.852E-03,            0.,NA,NA,"",   1.02846E+06,   1.03738E+06,   1.03738E+06
C:/temp/Job-1.odb,Step-1,Increment      1: Step Time =    1.000,"P-1-1",         12589,   166.778E-03,   120.043E-03,            0.,NA,NA,"",   981.879E+03,   985.263E+03,   985.263E+03
C:/temp/Job-1.odb,Step-1,Increment      1: Step Time =    1.000,"P-1-1",         12590,   89.5928E-03,   164.754E-03,            0.,NA,NA,"",   1.01728E+06,   1.03299E+06,   1.03299E+06
C:/temp/Job-1.odb,Step-1,Increment      1: Step Time =    1.000,"P-1-1",         12591,   34.4468E-03,   89.9531E-03,            0.,NA,NA,"",   832.369E+03,   903.125E+03,   903.125E+03
C:/temp/Job-1.odb,Step-1,Increment      1: Step Time =    1.000,"P-1-1",         12592,   165.246E-03,   110.622E-03,            0.,NA,NA,"",   954.247E+03,   963.076E+03,   963.076E+03
C:/temp/Job-1.odb,Step-1,Increment      1: Step Time =    1.000,"P-1-1",         12593,   106.016E-03,   34.6899E-03,            0.,NA,NA,"",   1.00967E+06,   1.02546E+06,   1.02546E+06
C:/temp/Job-1.odb,Step-1,Increment      1: Step Time =    1.000,"P-1-1",         12594,   149.095E-03,   116.232E-03,            0.,NA,NA,"",   965.500E+03,   957.001E+03,   957.001E+03
C:/temp/Job-1.odb,Step-1,Increment      1: Step Time =    1.000,"P-1-1",         12595,   165.920E-03,   106.206E-03,            0.,NA,NA,"",   946.361E+03,   957.601E+03,   957.601E+03
C:/temp/Job-1.odb,Step-1,Increment      1: Step Time =    1.000,"P-1-1",         12596,   34.3919E-03,   94.3743E-03,            0.,NA,NA,"",   822.503E+03,   894.762E+03,   894.762E+03
C:/temp/Job-1.odb,Step-1,Increment      1: Step Time =    1.000,"P-1-1",         12597,   95.1005E-03,   165.960E-03,            0.,NA,NA,"",   1.00911E+06,   1.02590E+06,   1.02590E+06
C:/temp/Job-1.odb,Step-1,Increment      1: Step Time =    1.000,"P-1-1",         12598,   111.311E-03,   34.2600E-03,            0.,NA,NA,"",   1.01466E+06,   1.02651E+06,   1.02651E+06
C:/temp/Job-1.odb,Step-1,Increment      1: Step Time =    1.000,"P-1-1",         12599,   165.250E-03,   83.8479E-03,            0.,NA,NA,"",   970.105E+03,   975.132E+03,   975.132E+03
C:/temp/Job-1.odb,Step-1,Increment      1: Step Time =    1.000,"P-1-1",         12600,   65.6649E-03,   65.9372E-03,            0.,NA,NA,"",   1.09690E+06,   1.08815E+06,   1.08815E+06
C:/temp/Job-1.odb,Step-1,Increment      1: Step Time =    1.000,"P-1-1",         12601,   71.3286E-03,   139.069E-03,            0.,NA,NA,"",   1.11786E+06,   1.11151E+06,   1.11151E+06
C:/temp/Job-1.odb,Step-1,Increment      1: Step Time =    1.000,"P-1-1",         12602,   139.725E-03,   128.797E-03,            0.,NA,NA,"",   1.09343E+06,   1.05641E+06,   1.05641E+06
C:/temp/Job-1.odb,Step-1,Increment      1: Step Time =    1.000,"P-1-1",         12603,   123.979E-03,   143.205E-03,            0.,NA,NA,"",   1.11657E+06,   1.10548E+06,   1.10548E+06
C:/temp/Job-1.odb,Step-1,Increment      1: Step Time =    1.000,"P-1-1",         12604,   146.393E-03,   104.473E-03,            0.,NA,NA,"",   864.361E+03,   873.765E+03,   873.765E+03
C:/temp/Job-1.odb,Step-1,Increment      1: Step Time =    1.000,"P-1-1",         12605,   147.183E-03,   113.936E-03,            0.,NA,NA,"",   945.576E+03,   938.766E+03,   938.766E+03
C:/temp/Job-1.odb,Step-1,Increment      1: Step Time =    1.000,"P-1-1",         12606,   143.263E-03,   90.3144E-03,            0.,NA,NA,"",   891.647E+03,   890.063E+03,   890.063E+03
C:/temp/Job-1.odb,Step-1,Increment      1: Step Time =    1.000,"P-1-1",         12607,   119.922E-03,   164.177E-03,            0.,NA,NA,"",   1.03075E+06,   1.03548E+06,   1.03548E+06
C:/temp/Job-1.odb,Step-1,Increment      1: Step Time =    1.000,"P-1-1",         12608,   107.324E-03,   146.933E-03,            0.,NA,NA,"",   1.04094E+06,   1.07558E+06,   1.07558E+06
C:/temp/Job-1.odb,Step-1,Increment      1: Step Time =    1.000,"P-1-1",         12609,   106.255E-03,   147.903E-03,            0.,NA,NA,"",   1.03567E+06,   1.07090E+06,   1.07090E+06
C:/temp/Job-1.odb,Step-1,Increment      1: Step Time =    1.000,"P-1-1",         12610,   96.8987E-03,   165.567E-03,            0.,NA,NA,"",   1.00833E+06,   1.02577E+06,   1.02577E+06
C:/temp/Job-1.odb,Step-1,Increment      1: Step Time =    1.000,"P-1-1",         12611,   166.303E-03,   103.172E-03,            0.,NA,NA,"",   943.377E+03,   955.662E+03,   955.662E+03
C:/temp/Job-1.odb,Step-1,Increment      1: Step Time =    1.000,"P-1-1",         12612,   34.0489E-03,   95.6187E-03,            0.,NA,NA,"",   820.887E+03,   893.734E+03,   893.734E+03
C:/temp/Job-1.odb,Step-1,Increment      1: Step Time =    1.000,"P-1-1",         12613,   104.792E-03,   34.8560E-03,            0.,NA,NA,"",   1.00907E+06,   1.02559E+06,   1.02559E+06
C:/temp/Job-1.odb,Step-1,Increment      1: Step Time =    1.000,"P-1-1",         12614,   119.921E-03,   72.1311E-03,            0.,NA,NA,"",   1.23093E+06,   1.19176E+06,   1.19176E+06
C:/temp/Job-1.odb,Step-1,Increment      1: Step Time =    1.000,"P-1-1",         12615,   96.6757E-03,   63.0661E-03,            0.,NA,NA,"",   1.05158E+06,   1.11661E+06,   1.11661E+06
C:/temp/Job-1.odb,Step-1,Increment      1: Step Time =    1.000,"P-1-1",         12616,   62.9023E-03,   26.4373E-03,            0.,NA,NA,"",   1.03460E+06,   1.03723E+06,   1.03723E+06
C:/temp/Job-1.odb,Step-1,Increment      1: Step Time =    1.000,"P-1-1",         12617,   95.5754E-03,   64.1139E-03,            0.,NA,NA,"",   1.06084E+06,   1.12615E+06,   1.12615E+06
C:/temp/Job-1.odb,Step-1,Increment      1: Step Time =    1.000,"P-1-1",         12618,   142.973E-03,   89.1420E-03,            0.,NA,NA,"",   906.182E+03,   901.065E+03,   901.065E+03
C:/temp/Job-1.odb,Step-1,Increment      1: Step Time =    1.000,"P-1-1",         12619,   146.228E-03,   96.3282E-03,            0.,NA,NA,"",   859.255E+03,   869.494E+03,   869.494E+03
C:/temp/Job-1.odb,Step-1,Increment      1: Step Time =    1.000,"P-1-1",         12620,   148.489E-03,   97.3254E-03,            0.,NA,NA,"",   870.808E+03,   881.670E+03,   881.670E+03
C:/temp/Job-1.odb,Step-1,Increment      1: Step Time =    1.000,"P-1-1",         12621,   88.9083E-03,   61.3904E-03,            0.,NA,NA,"",   1.08893E+06,   1.12574E+06,   1.12574E+06
C:/temp/Job-1.odb,Step-1,Increment      1: Step Time =    1.000,"P-1-1",         12622,   131.943E-03,   138.070E-03,            0.,NA,NA,"",   1.13282E+06,   1.10166E+06,   1.10166E+06
C:/temp/Job-1.odb,Step-1,Increment      1: Step Time =    1.000,"P-1-1",         12623,   77.2827E-03,   67.6874E-03,            0.,NA,NA,"",   1.16735E+06,   1.15309E+06,   1.15309E+06
C:/temp/Job-1.odb,Step-1,Increment      1: Step Time =    1.000,"P-1-1",         12624,   80.4417E-03,   66.4567E-03,            0.,NA,NA,"",   1.16201E+06,   1.15952E+06,   1.15952E+06
C:/temp/Job-1.odb,Step-1,Increment      1: Step Time =    1.000,"P-1-1",         12625,   142.773E-03,   83.5716E-03,            0.,NA,NA,"",   975.768E+03,   956.851E+03,   956.851E+03
C:/temp/Job-1.odb,Step-1,Increment      1: Step Time =    1.000,"P-1-1",         12626,   30.8874E-03,   129.191E-03,            0.,NA,NA,"",   894.998E+03,   960.258E+03,   960.258E+03
C:/temp/Job-1.odb,Step-1,Increment      1: Step Time =    1.000,"P-1-1",         12627,   56.4831E-03,   119.234E-03,            0.,NA,NA,"",   935.004E+03,   956.375E+03,   956.375E+03
C:/temp/Job-1.odb,Step-1,Increment      1: Step Time =    1.000,"P-1-1",         12628,   106.834E-03,   167.755E-03,            0.,NA,NA,"",   1.00670E+06,   1.02001E+06,   1.02001E+06
C:/temp/Job-1.odb,Step-1,Increment      1: Step Time =    1.000,"P-1-1",         12629,   93.7674E-03,   33.4490E-03,            0.,NA,NA,"",   1.00931E+06,   1.02516E+06,   1.02516E+06
C:/temp/Job-1.odb,Step-1,Increment      1: Step Time =    1.000,"P-1-1",         12630,   33.9107E-03,   106.092E-03,            0.,NA,NA,"",   823.234E+03,   895.953E+03,   895.953E+03
C:/temp/Job-1.odb,Step-1,Increment      1: Step Time =    1.000,"P-1-1",         12631,   133.438E-03,   135.689E-03,            0.,NA,NA,"",   1.13435E+06,   1.09850E+06,   1.09850E+06
C:/temp/Job-1.odb,Step-1,Increment      1: Step Time =    1.000,"P-1-1",         12632,   169.893E-03,   97.4612E-03,            0.,NA,NA,"",   950.825E+03,   964.378E+03,   964.378E+03
C:/temp/Job-1.odb,Step-1,Increment      1: Step Time =    1.000,"P-1-1",         12633,   113.556E-03,   146.725E-03,            0.,NA,NA,"",   1.06595E+06,   1.08552E+06,   1.08552E+06
C:/temp/Job-1.odb,Step-1,Increment      1: Step Time =    1.000,"P-1-1",         12634,   39.9292E-03,   168.392E-03,            0.,NA,NA,"",   1.04183E+06,   1.06150E+06,   1.06150E+06
C:/temp/Job-1.odb,Step-1,Increment      1: Step Time =    1.000,"P-1-1",         12635,   63.2288E-03,   67.4269E-03,            0.,NA,NA,"",   1.07940E+06,   1.07351E+06,   1.07351E+06
C:/temp/Job-1.odb,Step-1,Increment      1: Step Time =    1.000,"P-1-1",         12636,   170.724E-03,   57.6262E-03,            0.,NA,NA,"",   1.01811E+06,   1.01482E+06,   1.01482E+06
C:/temp/Job-1.odb,Step-1,Increment      1: Step Time =    1.000,"P-1-1",         12637,   56.3140E-03,   30.0035E-03,            0.,NA,NA,"",   1.04557E+06,   1.05047E+06,   1.05047E+06
C:/temp/Job-1.odb,Step-1,Increment      1: Step Time =    1.000,"P-1-1",         12638,   67.1415E-03,   138.471E-03,            0.,NA,NA,"",   1.10361E+06,   1.09747E+06,   1.09747E+06
C:/temp/Job-1.odb,Step-1,Increment      1: Step Time =    1.000,"P-1-1",         12639,   57.5025E-03,   69.2192E-03,            0.,NA,NA,"",   1.03040E+06,   1.03783E+06,   1.03783E+06
C:/temp/Job-1.odb,Step-1,Increment      1: Step Time =    1.000,"P-1-1",         12640,   64.9034E-03,   136.431E-03,            0.,NA,NA,"",   1.09360E+06,   1.08774E+06,   1.08774E+06
C:/temp/Job-1.odb,Step-1,Increment      1: Step Time =    1.000,"P-1-1",         12641,   72.7287E-03,   66.3926E-03,            0.,NA,NA,"",   1.14096E+06,   1.12578E+06,   1.12578E+06
C:/temp/Job-1.odb,Step-1,Increment      1: Step Time =    1.000,"P-1-1",         12642,   36.5621E-03,   165.526E-03,            0.,NA,NA,"",   1.03280E+06,   1.06003E+06,   1.06003E+06
C:/temp/Job-1.odb,Step-1,Increment      1: Step Time =    1.000,"P-1-1",         12643,   119.107E-03,   143.539E-03,            0.,NA,NA,"",   1.10332E+06,   1.10565E+06,   1.10565E+06
C:/temp/Job-1.odb,Step-1,Increment      1: Step Time =    1.000,"P-1-1",         12644,   33.7009E-03,   133.407E-03,            0.,NA,NA,"",   922.010E+03,   979.472E+03,   979.472E+03
C:/temp/Job-1.odb,Step-1,Increment      1: Step Time =    1.000,"P-1-1",         12645,   133.393E-03,   165.772E-03,            0.,NA,NA,"",   1.03982E+06,   1.03424E+06,   1.03424E+06
C:/temp/Job-1.odb,Step-1,Increment      1: Step Time =    1.000,"P-1-1",         12646,   122.501E-03,   143.860E-03,            0.,NA,NA,"",   1.11039E+06,   1.10370E+06,   1.10370E+06
C:/temp/Job-1.odb,Step-1,Increment      1: Step Time =    1.000,"P-1-1",         12647,   83.6876E-03,   33.7523E-03,            0.,NA,NA,"",   1.02405E+06,   1.03529E+06,   1.03529E+06
C:/temp/Job-1.odb,Step-1,Increment      1: Step Time =    1.000,"P-1-1",         12648,   164.471E-03,   82.3977E-03,            0.,NA,NA,"",   974.290E+03,   977.745E+03,   977.745E+03
C:/temp/Job-1.odb,Step-1,Increment      1: Step Time =    1.000,"P-1-1",         12649,   137.303E-03,   129.889E-03,            0.,NA,NA,"",   1.11217E+06,   1.07179E+06,   1.07179E+06
C:/temp/Job-1.odb,Step-1,Increment      1: Step Time =    1.000,"P-1-1",         12650,   153.147E-03,   35.2048E-03,            0.,NA,NA,"",   1.03509E+06,   1.02640E+06,   1.02640E+06
C:/temp/Job-1.odb,Step-1,Increment      1: Step Time =    1.000,"P-1-1",         12651,   165.236E-03,   152.836E-03,            0.,NA,NA,"",   1.02994E+06,   1.02257E+06,   1.02257E+06
C:/temp/Job-1.odb,Step-1,Increment      1: Step Time =    1.000,"P-1-1",         12652,   125.621E-03,   141.682E-03,            0.,NA,NA,"",   1.12573E+06,   1.10891E+06,   1.10891E+06
C:/temp/Job-1.odb,Step-1,Increment      1: Step Time =    1.000,"P-1-1",         12653,   34.4993E-03,   47.2090E-03,            0.,NA,NA,"",   993.463E+03,   1.03570E+06,   1.03570E+06
C:/temp/Job-1.odb,Step-1,Increment      1: Step Time =    1.000,"P-1-1",         12654,   105.659E-03,   168.859E-03,            0.,NA,NA,"",   1.00410E+06,   1.01714E+06,   1.01714E+06
C:/temp/Job-1.odb,Step-1,Increment      1: Step Time =    1.000,"P-1-1",         12655,   48.4938E-03,   165.342E-03,            0.,NA,NA,"",   1.04686E+06,   1.05892E+06,   1.05892E+06
C:/temp/Job-1.odb,Step-1,Increment      1: Step Time =    1.000,"P-1-1",         12656,   31.7017E-03,   105.773E-03,            0.,NA,NA,"",   821.487E+03,   896.681E+03,   896.681E+03
C:/temp/Job-1.odb,Step-1,Increment      1: Step Time =    1.000,"P-1-1",         12657,   94.0209E-03,   32.2728E-03,            0.,NA,NA,"",   1.00736E+06,   1.02231E+06,   1.02231E+06
C:/temp/Job-1.odb,Step-1,Increment      1: Step Time =    1.000,"P-1-1",         12658,   110.204E-03,   36.7697E-03,            0.,NA,NA,"",   1.01740E+06,   1.03191E+06,   1.03191E+06
C:/temp/Job-1.odb,Step-1,Increment      1: Step Time =    1.000,"P-1-1",         12659,   148.959E-03,   102.091E-03,            0.,NA,NA,"",   872.576E+03,   883.644E+03,   883.644E+03
C:/temp/Job-1.odb,Step-1,Increment      1: Step Time =    1.000,"P-1-1",         12660,   90.7059E-03,   149.246E-03,            0.,NA,NA,"",   1.04163E+06,   1.07332E+06,   1.07332E+06
C:/temp/Job-1.odb,Step-1,Increment      1: Step Time =    1.000,"P-1-1",         12661,   89.8921E-03,   163.149E-03,            0.,NA,NA,"",   1.01958E+06,   1.03677E+06,   1.03677E+06
C:/temp/Job-1.odb,Step-1,Increment      1: Step Time =    1.000,"P-1-1",         12662,   36.3600E-03,   90.2489E-03,            0.,NA,NA,"",   833.019E+03,   901.613E+03,   901.613E+03
C:/temp/Job-1.odb,Step-1,Increment      1: Step Time =    1.000,"P-1-1",         12663,   163.722E-03,   109.793E-03,            0.,NA,NA,"",   949.320E+03,   958.032E+03,   958.032E+03
C:/temp/Job-1.odb,Step-1,Increment      1: Step Time =    1.000,"P-1-1",         12664,   148.644E-03,   107.490E-03,            0.,NA,NA,"",   894.894E+03,   900.651E+03,   900.651E+03
C:/temp/Job-1.odb,Step-1,Increment      1: Step Time =    1.000,"P-1-1",         12665,   84.3813E-03,   146.317E-03,            0.,NA,NA,"",   1.07357E+06,   1.09477E+06,   1.09477E+06
C:/temp/Job-1.odb,Step-1,Increment      1: Step Time =    1.000,"P-1-1",         12666,   101.789E-03,   66.2184E-03,            0.,NA,NA,"",   1.05979E+06,   1.13631E+06,   1.13631E+06
C:/temp/Job-1.odb,Step-1,Increment      1: Step Time =    1.000,"P-1-1",         12667,   76.4053E-03,   69.1721E-03,            0.,NA,NA,"",   1.17258E+06,   1.15249E+06,   1.15249E+06
C:/temp/Job-1.odb,Step-1,Increment      1: Step Time =    1.000,"P-1-1",         12668,   134.384E-03,   34.7506E-03,            0.,NA,NA,"",   1.04163E+06,   1.03540E+06,   1.03540E+06
C:/temp/Job-1.odb,Step-1,Increment      1: Step Time =    1.000,"P-1-1",         12669,   165.480E-03,   134.443E-03,            0.,NA,NA,"",   1.01863E+06,   1.01297E+06,   1.01297E+06
C:/temp/Job-1.odb,Step-1,Increment      1: Step Time =    1.000,"P-1-1",         12670,   53.4674E-03,   91.2105E-03,            0.,NA,NA,"",   820.037E+03,    866.81E+03,    866.81E+03
C:/temp/Job-1.odb,Step-1,Increment      1: Step Time =    1.000,"P-1-1",         12671,   70.0524E-03,   138.586E-03,            0.,NA,NA,"",   1.11495E+06,   1.10785E+06,   1.10785E+06
C:/temp/Job-1.odb,Step-1,Increment      1: Step Time =    1.000,"P-1-1",         12672,   164.808E-03,   49.0307E-03,            0.,NA,NA,"",   1.03119E+06,   1.02338E+06,   1.02338E+06
C:/temp/Job-1.odb,Step-1,Increment      1: Step Time =    1.000,"P-1-1",         12673,   48.5286E-03,   34.7279E-03,            0.,NA,NA,"",   1.04696E+06,   1.05892E+06,   1.05892E+06
C:/temp/Job-1.odb,Step-1,Increment      1: Step Time =    1.000,"P-1-1",         12674,   151.339E-03,   165.660E-03,            0.,NA,NA,"",   1.03525E+06,   1.02664E+06,   1.02664E+06
C:/temp/Job-1.odb,Step-1,Increment      1: Step Time =    1.000,"P-1-1",         12675,   76.5980E-03,   147.529E-03,            0.,NA,NA,"",   1.08836E+06,   1.09542E+06,   1.09542E+06
C:/temp/Job-1.odb,Step-1,Increment      1: Step Time =    1.000,"P-1-1",         12676,   34.7789E-03,   151.477E-03,            0.,NA,NA,"",   990.742E+03,   1.03328E+06,   1.03328E+06
C:/temp/Job-1.odb,Step-1,Increment      1: Step Time =    1.000,"P-1-1",         12677,   68.8734E-03,   65.6274E-03,            0.,NA,NA,"",   1.11755E+06,   1.10506E+06,   1.10506E+06
C:/temp/Job-1.odb,Step-1,Increment      1: Step Time =    1.000,"P-1-1",         12678,   34.2719E-03,   60.7514E-03,            0.,NA,NA,"",   946.843E+03,   999.278E+03,   999.278E+03
C:/temp/Job-1.odb,Step-1,Increment      1: Step Time =    1.000,"P-1-1",         12679,   60.4850E-03,   165.976E-03,            0.,NA,NA,"",   1.05063E+06,   1.05504E+06,   1.05504E+06
C:/temp/Job-1.odb,Step-1,Increment      1: Step Time =    1.000,"P-1-1",         12680,   149.258E-03,   33.6493E-03,            0.,NA,NA,"",   1.03532E+06,   1.02687E+06,   1.02687E+06
C:/temp/Job-1.odb,Step-1,Increment      1: Step Time =    1.000,"P-1-1",         12681,   165.588E-03,   146.864E-03,            0.,NA,NA,"",   1.02984E+06,   1.02230E+06,   1.02230E+06
C:/temp/Job-1.odb,Step-1,Increment      1: Step Time =    1.000,"P-1-1",         12682,   57.1236E-03,   71.3414E-03,            0.,NA,NA,"",   1.01726E+06,   1.02660E+06,   1.02660E+06
C:/temp/Job-1.odb,Step-1,Increment      1: Step Time =    1.000,"P-1-1",         12683,   121.608E-03,   165.361E-03,            0.,NA,NA,"",   1.03006E+06,   1.03308E+06,   1.03308E+06
C:/temp/Job-1.odb,Step-1,Increment      1: Step Time =    1.000,"P-1-1",         12684,   92.5352E-03,   34.4508E-03,            0.,NA,NA,"",   1.01220E+06,   1.02831E+06,   1.02831E+06
C:/temp/Job-1.odb,Step-1,Increment      1: Step Time =    1.000,"P-1-1",         12685,   34.8974E-03,   120.745E-03,            0.,NA,NA,"",   872.500E+03,   936.473E+03,   936.473E+03
C:/temp/Job-1.odb,Step-1,Increment      1: Step Time =    1.000,"P-1-1",         12686,   107.788E-03,   165.577E-03,            0.,NA,NA,"",   1.01080E+06,   1.02521E+06,   1.02521E+06
C:/temp/Job-1.odb,Step-1,Increment      1: Step Time =    1.000,"P-1-1",         12687,   34.9203E-03,   107.282E-03,            0.,NA,NA,"",   825.870E+03,   897.090E+03,   897.090E+03
C:/temp/Job-1.odb,Step-1,Increment      1: Step Time =    1.000,"P-1-1",         12688,   114.423E-03,   164.904E-03,            0.,NA,NA,"",   1.02049E+06,   1.03023E+06,   1.03023E+06
C:/temp/Job-1.odb,Step-1,Increment      1: Step Time =    1.000,"P-1-1",         12689,   165.909E-03,   79.9725E-03,            0.,NA,NA,"",   982.198E+03,   984.906E+03,   984.906E+03
C:/temp/Job-1.odb,Step-1,Increment      1: Step Time =    1.000,"P-1-1",         12690,   34.8249E-03,   113.518E-03,            0.,NA,NA,"",   843.923E+03,   912.500E+03,   912.500E+03
C:/temp/Job-1.odb,Step-1,Increment      1: Step Time =    1.000,"P-1-1",         12691,   80.0512E-03,   32.5156E-03,            0.,NA,NA,"",   1.02752E+06,   1.03609E+06,   1.03609E+06
C:/temp/Job-1.odb,Step-1,Increment      1: Step Time =    1.000,"P-1-1",         12692,   78.4377E-03,   34.0405E-03,            0.,NA,NA,"",   1.03342E+06,   1.04165E+06,   1.04165E+06
C:/temp/Job-1.odb,Step-1,Increment      1: Step Time =    1.000,"P-1-1",         12693,   64.5718E-03,   35.3959E-03,            0.,NA,NA,"",   1.05188E+06,   1.05584E+06,   1.05584E+06
C:/temp/Job-1.odb,Step-1,Increment      1: Step Time =    1.000,"P-1-1",         12694,   165.403E-03,   64.3112E-03,            0.,NA,NA,"",   1.02087E+06,   1.01472E+06,   1.01472E+06
C:/temp/Job-1.odb,Step-1,Increment      1: Step Time =    1.000,"P-1-1",         12695,   165.660E-03,   78.5317E-03,            0.,NA,NA,"",   986.532E+03,   988.086E+03,   988.086E+03
C:/temp/Job-1.odb,Step-1,Increment      1: Step Time =    1.000,"P-1-1",         12696,   71.4441E-03,   36.3796E-03,            0.,NA,NA,"",   1.04880E+06,   1.05402E+06,   1.05402E+06
C:/temp/Job-1.odb,Step-1,Increment      1: Step Time =    1.000,"P-1-1",         12697,   164.627E-03,   69.9010E-03,            0.,NA,NA,"",   1.01139E+06,   1.00674E+06,   1.00674E+06
C:/temp/Job-1.odb,Step-1,Increment      1: Step Time =    1.000,"P-1-1",         12698,   137.020E-03,   165.380E-03,            0.,NA,NA,"",   1.04181E+06,   1.03450E+06,   1.03450E+06
C:/temp/Job-1.odb,Step-1,Increment      1: Step Time =    1.000,"P-1-1",         12699,   35.4276E-03,   135.868E-03,            0.,NA,NA,"",   938.796E+03,   991.283E+03,   991.283E+03
C:/temp/Job-1.odb,Step-1,Increment      1: Step Time =    1.000,"P-1-1",         12700,   87.1692E-03,   34.4140E-03,            0.,NA,NA,"",   1.01956E+06,   1.03326E+06,   1.03326E+06
C:/temp/Job-1.odb,Step-1,Increment      1: Step Time =    1.000,"P-1-1",         12701,   37.8891E-03,   35.5091E-03,            0.,NA,NA,"",   1.03268E+06,   1.05889E+06,   1.05889E+06
C:/temp/Job-1.odb,Step-1,Increment      1: Step Time =    1.000,"P-1-1",         12702,   83.9096E-03,   63.2381E-03,            0.,NA,NA,"",   1.12830E+06,   1.14464E+06,   1.14464E+06
C:/temp/Job-1.odb,Step-1,Increment      1: Step Time =    1.000,"P-1-1",         12703,   163.046E-03,   165.610E-03,            0.,NA,NA,"",   1.02394E+06,   1.01802E+06,   1.01802E+06
C:/temp/Job-1.odb,Step-1,Increment      1: Step Time =    1.000,"P-1-1",         12704,   164.797E-03,   93.7393E-03,            0.,NA,NA,"",   943.934E+03,   954.824E+03,   954.824E+03
C:/temp/Job-1.odb,Step-1,Increment      1: Step Time =    1.000,"P-1-1",         12705,   34.5513E-03,   161.195E-03,            0.,NA,NA,"",   1.01779E+06,   1.05279E+06,   1.05279E+06
C:/temp/Job-1.odb,Step-1,Increment      1: Step Time =    1.000,"P-1-1",         12706,   129.010E-03,   35.4503E-03,            0.,NA,NA,"",   1.04038E+06,   1.03718E+06,   1.03718E+06
C:/temp/Job-1.odb,Step-1,Increment      1: Step Time =    1.000,"P-1-1",         12707,   164.723E-03,   128.726E-03,            0.,NA,NA,"",   1.00774E+06,   1.00395E+06,   1.00395E+06
C:/temp/Job-1.odb,Step-1,Increment      1: Step Time =    1.000,"P-1-1",         12708,   168.116E-03,   99.6238E-03,            0.,NA,NA,"",   946.380E+03,   959.510E+03,   959.510E+03
C:/temp/Job-1.odb,Step-1,Increment      1: Step Time =    1.000,"P-1-1",         12709,   73.6717E-03,   34.7492E-03,            0.,NA,NA,"",   1.04230E+06,   1.04819E+06,   1.04819E+06
C:/temp/Job-1.odb,Step-1,Increment      1: Step Time =    1.000,"P-1-1",         12710,   165.038E-03,   72.8155E-03,            0.,NA,NA,"",   1.00361E+06,   1.00090E+06,   1.00090E+06
C:/temp/Job-1.odb,Step-1,Increment      1: Step Time =    1.000,"P-1-1",         12711,   164.688E-03,   90.2289E-03,            0.,NA,NA,"",   950.889E+03,   959.997E+03,   959.997E+03
C:/temp/Job-1.odb,Step-1,Increment      1: Step Time =    1.000,"P-1-1",         12712,   68.1977E-03,   34.1806E-03,            0.,NA,NA,"",   1.04687E+06,   1.05095E+06,   1.05095E+06
C:/temp/Job-1.odb,Step-1,Increment      1: Step Time =    1.000,"P-1-1",         12713,   166.018E-03,   67.3923E-03,            0.,NA,NA,"",   1.01440E+06,   1.00991E+06,   1.00991E+06
C:/temp/Job-1.odb,Step-1,Increment      1: Step Time =    1.000,"P-1-1",         12714,   35.2144E-03,   53.8738E-03,            0.,NA,NA,"",   975.201E+03,   1.02096E+06,   1.02096E+06
C:/temp/Job-1.odb,Step-1,Increment      1: Step Time =    1.000,"P-1-1",         12715,   54.1370E-03,   164.598E-03,            0.,NA,NA,"",   1.05096E+06,   1.05864E+06,   1.05864E+06
C:/temp/Job-1.odb,Step-1,Increment      1: Step Time =    1.000,"P-1-1",         12716,   71.9849E-03,   142.497E-03,            0.,NA,NA,"",   1.10794E+06,   1.10592E+06,   1.10592E+06
C:/temp/Job-1.odb,Step-1,Increment      1: Step Time =    1.000,"P-1-1",         12717,   90.4018E-03,   34.3894E-03,            0.,NA,NA,"",   1.01440E+06,   1.03004E+06,   1.03004E+06
C:/temp/Job-1.odb,Step-1,Increment      1: Step Time =    1.000,"P-1-1",         12718,   133.005E-03,   74.8853E-03,            0.,NA,NA,"",   1.12767E+06,   1.07566E+06,   1.07566E+06
C:/temp/Job-1.odb,Step-1,Increment      1: Step Time =    1.000,"P-1-1",         12719,   110.337E-03,   166.697E-03,            0.,NA,NA,"",   1.01173E+06,   1.02378E+06,   1.02378E+06
C:/temp/Job-1.odb,Step-1,Increment      1: Step Time =    1.000,"P-1-1",         12720,   34.0766E-03,   110.485E-03,            0.,NA,NA,"",   833.337E+03,   904.293E+03,   904.293E+03
C:/temp/Job-1.odb,Step-1,Increment      1: Step Time =    1.000,"P-1-1",         12721,   83.9142E-03,   68.1610E-03,            0.,NA,NA,"",   1.17201E+06,   1.18019E+06,   1.18019E+06
C:/temp/Job-1.odb,Step-1,Increment      1: Step Time =    1.000,"P-1-1",         12722,   128.934E-03,   138.883E-03,            0.,NA,NA,"",   1.13700E+06,   1.10991E+06,   1.10991E+06
C:/temp/Job-1.odb,Step-1,Increment      1: Step Time =    1.000,"P-1-1",         12723,   164.711E-03,   41.4291E-03,            0.,NA,NA,"",   1.02789E+06,   1.02110E+06,   1.02110E+06
C:/temp/Job-1.odb,Step-1,Increment      1: Step Time =    1.000,"P-1-1",         12724,   166.486E-03,   43.7304E-03,            0.,NA,NA,"",   1.02669E+06,   1.02035E+06,   1.02035E+06
C:/temp/Job-1.odb,Step-1,Increment      1: Step Time =    1.000,"P-1-1",         12725,   41.0788E-03,   33.6301E-03,            0.,NA,NA,"",   1.04050E+06,   1.06028E+06,   1.06028E+06
C:/temp/Job-1.odb,Step-1,Increment      1: Step Time =    1.000,"P-1-1",         12726,   43.9235E-03,   33.4392E-03,            0.,NA,NA,"",   1.04342E+06,   1.05961E+06,   1.05961E+06
C:/temp/Job-1.odb,Step-1,Increment      1: Step Time =    1.000,"P-1-1",         12727,   156.549E-03,   166.170E-03,            0.,NA,NA,"",   1.02959E+06,   1.02215E+06,   1.02215E+06
C:/temp/Job-1.odb,Step-1,Increment      1: Step Time =    1.000,"P-1-1",         12728,   160.450E-03,   164.798E-03,            0.,NA,NA,"",   1.02751E+06,   1.02062E+06,   1.02062E+06
C:/temp/Job-1.odb,Step-1,Increment      1: Step Time =    1.000,"P-1-1",         12729,   33.5635E-03,   71.1720E-03,            0.,NA,NA,"",   902.739E+03,   963.539E+03,   963.539E+03
C:/temp/Job-1.odb,Step-1,Increment      1: Step Time =    1.000,"P-1-1",         12730,   35.7822E-03,   74.2079E-03,            0.,NA,NA,"",   897.046E+03,   956.049E+03,   956.049E+03
C:/temp/Job-1.odb,Step-1,Increment      1: Step Time =    1.000,"P-1-1",         12731,   33.6506E-03,   155.776E-03,            0.,NA,NA,"",   999.492E+03,   1.04099E+06,   1.04099E+06
C:/temp/Job-1.odb,Step-1,Increment      1: Step Time =    1.000,"P-1-1",         12732,   35.2108E-03,   158.882E-03,            0.,NA,NA,"",   1.01319E+06,   1.04911E+06,   1.04911E+06
C:/temp/Job-1.odb,Step-1,Increment      1: Step Time =    1.000,"P-1-1",         12733,   74.7917E-03,   165.001E-03,            0.,NA,NA,"",   1.04128E+06,   1.04781E+06,   1.04781E+06
C:/temp/Job-1.odb,Step-1,Increment      1: Step Time =    1.000,"P-1-1",         12734,   70.9223E-03,   165.873E-03,            0.,NA,NA,"",   1.04422E+06,   1.04894E+06,   1.04894E+06
C:/temp/Job-1.odb,Step-1,Increment      1: Step Time =    1.000,"P-1-1",         12735,   37.0109E-03,   32.9378E-03,            0.,NA,NA,"",   1.03644E+06,   1.06161E+06,   1.06161E+06
C:/temp/Job-1.odb,Step-1,Increment      1: Step Time =    1.000,"P-1-1",         12736,   34.7971E-03,   66.9264E-03,            0.,NA,NA,"",   924.939E+03,   980.594E+03,   980.594E+03
C:/temp/Job-1.odb,Step-1,Increment      1: Step Time =    1.000,"P-1-1",         12737,   67.0648E-03,   165.024E-03,            0.,NA,NA,"",   1.04958E+06,   1.05359E+06,   1.05359E+06
C:/temp/Job-1.odb,Step-1,Increment      1: Step Time =    1.000,"P-1-1",         12738,   132.057E-03,   34.4975E-03,            0.,NA,NA,"",   1.03980E+06,   1.03493E+06,   1.03493E+06
C:/temp/Job-1.odb,Step-1,Increment      1: Step Time =    1.000,"P-1-1",         12739,   165.466E-03,   131.461E-03,            0.,NA,NA,"",   1.01314E+06,   1.00860E+06,   1.00860E+06
C:/temp/Job-1.odb,Step-1,Increment      1: Step Time =    1.000,"P-1-1",         12740,   55.0946E-03,   115.541E-03,            0.,NA,NA,"",   889.308E+03,   920.806E+03,   920.806E+03
C:/temp/Job-1.odb,Step-1,Increment      1: Step Time =    1.000,"P-1-1",         12741,   53.4163E-03,   112.701E-03,            0.,NA,NA,"",   856.310E+03,   896.826E+03,   896.826E+03
C:/temp/Job-1.odb,Step-1,Increment      1: Step Time =    1.000,"P-1-1",         12742,   164.139E-03,   38.2041E-03,            0.,NA,NA,"",   1.02605E+06,   1.01969E+06,   1.01969E+06
C:/temp/Job-1.odb,Step-1,Increment      1: Step Time =    1.000,"P-1-1",         12743,   123.251E-03,   34.5493E-03,            0.,NA,NA,"",   1.03189E+06,   1.03349E+06,   1.03349E+06
C:/temp/Job-1.odb,Step-1,Increment      1: Step Time =    1.000,"P-1-1",         12744,   120.356E-03,   33.3393E-03,            0.,NA,NA,"",   1.02497E+06,   1.02895E+06,   1.02895E+06
C:/temp/Job-1.odb,Step-1,Increment      1: Step Time =    1.000,"P-1-1",         12745,   165.387E-03,   123.254E-03,            0.,NA,NA,"",   991.957E+03,   991.981E+03,   991.981E+03
C:/temp/Job-1.odb,Step-1,Increment      1: Step Time =    1.000,"P-1-1",         12746,   35.0971E-03,   77.2326E-03,            0.,NA,NA,"",   881.719E+03,   944.136E+03,   944.136E+03
C:/temp/Job-1.odb,Step-1,Increment      1: Step Time =    1.000,"P-1-1",         12747,   76.9509E-03,   164.716E-03,            0.,NA,NA,"",   1.03889E+06,   1.04666E+06,   1.04666E+06
C:/temp/Job-1.odb,Step-1,Increment      1: Step Time =    1.000,"P-1-1",         12748,   52.9705E-03,   103.901E-03,            0.,NA,NA,"",   789.927E+03,   842.952E+03,   842.952E+03
C:/temp/Job-1.odb,Step-1,Increment      1: Step Time =    1.000,"P-1-1",         12749,   53.1525E-03,   99.9447E-03,            0.,NA,NA,"",   780.794E+03,   835.104E+03,   835.104E+03
C:/temp/Job-1.odb,Step-1,Increment      1: Step Time =    1.000,"P-1-1",         12750,   52.8644E-03,   110.653E-03,            0.,NA,NA,"",   837.055E+03,   881.964E+03,   881.964E+03
C:/temp/Job-1.odb,Step-1,Increment      1: Step Time =    1.000,"P-1-1",         12751,   34.4252E-03,   62.1303E-03,            0.,NA,NA,"",   942.352E+03,   995.441E+03,   995.441E+03
C:/temp/Job-1.odb,Step-1,Increment      1: Step Time =    1.000,"P-1-1",         12752,   63.3096E-03,   165.382E-03,            0.,NA,NA,"",   1.05080E+06,   1.05475E+06,   1.05475E+06
C:/temp/Job-1.odb,Step-1,Increment      1: Step Time =    1.000,"P-1-1",         12753,   110.628E-03,   146.675E-03,            0.,NA,NA,"",   1.05396E+06,   1.08136E+06,   1.08136E+06
C:/temp/Job-1.odb,Step-1,Increment      1: Step Time =    1.000,"P-1-1",         12754,   37.2836E-03,   166.850E-03,            0.,NA,NA,"",   1.03656E+06,   1.06136E+06,   1.06136E+06
C:/temp/Job-1.odb,Step-1,Increment      1: Step Time =    1.000,"P-1-1",         12755,   99.3322E-03,   168.045E-03,            0.,NA,NA,"",   1.00404E+06,   1.01924E+06,   1.01924E+06
C:/temp/Job-1.odb,Step-1,Increment      1: Step Time =    1.000,"P-1-1",         12756,   32.9280E-03,   99.9838E-03,            0.,NA,NA,"",   817.627E+03,   892.136E+03,   892.136E+03
C:/temp/Job-1.odb,Step-1,Increment      1: Step Time =    1.000,"P-1-1",         12757,   64.3915E-03,   64.3190E-03,            0.,NA,NA,"",   1.09019E+06,   1.08451E+06,   1.08451E+06
C:/temp/Job-1.odb,Step-1,Increment      1: Step Time =    1.000,"P-1-1",         12758,   100.055E-03,   31.4802E-03,            0.,NA,NA,"",   1.00318E+06,   1.01793E+06,   1.01793E+06
C:/temp/Job-1.odb,Step-1,Increment      1: Step Time =    1.000,"P-1-1",         12759,   139.555E-03,   80.6755E-03,            0.,NA,NA,"",   1.02441E+06,   992.020E+03,   992.020E+03
C:/temp/Job-1.odb,Step-1,Increment      1: Step Time =    1.000,"P-1-1",         12760,   138.063E-03,   77.5901E-03,            0.,NA,NA,"",   1.06581E+06,   1.02610E+06,   1.02610E+06
C:/temp/Job-1.odb,Step-1,Increment      1: Step Time =    1.000,"P-1-1",         12761,   32.6497E-03,   57.9693E-03,            0.,NA,NA,"",   950.276E+03,   1.00406E+06,   1.00406E+06
C:/temp/Job-1.odb,Step-1,Increment      1: Step Time =    1.000,"P-1-1",         12762,   56.7870E-03,   165.271E-03,            0.,NA,NA,"",   1.05137E+06,   1.05731E+06,   1.05731E+06
C:/temp/Job-1.odb,Step-1,Increment      1: Step Time =    1.000,"P-1-1",         12763,   165.981E-03,   60.3898E-03,            0.,NA,NA,"",   1.02465E+06,   1.01807E+06,   1.01807E+06
C:/temp/Job-1.odb,Step-1,Increment      1: Step Time =    1.000,"P-1-1",         12764,   59.0815E-03,   34.3618E-03,            0.,NA,NA,"",   1.05125E+06,   1.05614E+06,   1.05614E+06
C:/temp/Job-1.odb,Step-1,Increment      1: Step Time =    1.000,"P-1-1",         12765,   98.6642E-03,   149.377E-03,            0.,NA,NA,"",   1.02523E+06,   1.06349E+06,   1.06349E+06
C:/temp/Job-1.odb,Step-1,Increment      1: Step Time =    1.000,"P-1-1",         12766,   128.771E-03,   71.6859E-03,            0.,NA,NA,"",   1.17368E+06,   1.12166E+06,   1.12166E+06
C:/temp/Job-1.odb,Step-1,Increment      1: Step Time =    1.000,"P-1-1",         12767,   101.711E-03,   149.036E-03,            0.,NA,NA,"",   1.02581E+06,   1.06448E+06,   1.06448E+06
C:/temp/Job-1.odb,Step-1,Increment      1: Step Time =    1.000,"P-1-1",         12768,   148.745E-03,   114.893E-03,            0.,NA,NA,"",   954.549E+03,   947.835E+03,   947.835E+03
C:/temp/Job-1.odb,Step-1,Increment      1: Step Time =    1.000,"P-1-1",         12769,   149.501E-03,   117.645E-03,            0.,NA,NA,"",   976.470E+03,   966.270E+03,   966.270E+03
C:/temp/Job-1.odb,Step-1,Increment      1: Step Time =    1.000,"P-1-1",         12770,   61.3388E-03,   131.481E-03,            0.,NA,NA,"",   1.06048E+06,   1.05868E+06,   1.05868E+06
C:/temp/Job-1.odb,Step-1,Increment      1: Step Time =    1.000,"P-1-1",         12771,   120.479E-03,   144.361E-03,            0.,NA,NA,"",   1.10299E+06,   1.10212E+06,   1.10212E+06
C:/temp/Job-1.odb,Step-1,Increment      1: Step Time =    1.000,"P-1-1",         12772,   79.6160E-03,   165.047E-03,            0.,NA,NA,"",   1.03378E+06,   1.04306E+06,   1.04306E+06
C:/temp/Job-1.odb,Step-1,Increment      1: Step Time =    1.000,"P-1-1",         12773,   33.2964E-03,   79.4066E-03,            0.,NA,NA,"",   867.234E+03,   934.055E+03,   934.055E+03
C:/temp/Job-1.odb,Step-1,Increment      1: Step Time =    1.000,"P-1-1",         12774,   165.672E-03,   120.821E-03,            0.,NA,NA,"",   984.275E+03,   986.308E+03,   986.308E+03
C:/temp/Job-1.odb,Step-1,Increment      1: Step Time =    1.000,"P-1-1",         12775,   54.3621E-03,   75.5638E-03,            0.,NA,NA,"",   969.938E+03,   990.165E+03,   990.165E+03
C:/temp/Job-1.odb,Step-1,Increment      1: Step Time =    1.000,"P-1-1",         12776,   94.2515E-03,   149.142E-03,            0.,NA,NA,"",   1.03207E+06,   1.06840E+06,   1.06840E+06
C:/temp/Job-1.odb,Step-1,Increment      1: Step Time =    1.000,"P-1-1",         12777,   81.3840E-03,   164.463E-03,            0.,NA,NA,"",   1.03203E+06,   1.04262E+06,   1.04262E+06
C:/temp/Job-1.odb,Step-1,Increment      1: Step Time =    1.000,"P-1-1",         12778,   163.854E-03,   119.341E-03,            0.,NA,NA,"",   980.096E+03,   981.774E+03,   981.774E+03
C:/temp/Job-1.odb,Step-1,Increment      1: Step Time =    1.000,"P-1-1",         12779,   124.425E-03,   166.578E-03,            0.,NA,NA,"",   1.03041E+06,   1.03104E+06,   1.03104E+06
C:/temp/Job-1.odb,Step-1,Increment      1: Step Time =    1.000,"P-1-1",         12780,   34.8980E-03,   124.107E-03,            0.,NA,NA,"",   886.864E+03,   948.595E+03,   948.595E+03
C:/temp/Job-1.odb,Step-1,Increment      1: Step Time =    1.000,"P-1-1",         12781,   149.038E-03,   121.205E-03,            0.,NA,NA,"",   1.00389E+06,   988.112E+03,   988.112E+03
C:/temp/Job-1.odb,Step-1,Increment      1: Step Time =    1.000,"P-1-1",         12782,   141.798E-03,   86.4981E-03,            0.,NA,NA,"",   940.186E+03,   926.399E+03,   926.399E+03
C:/temp/Job-1.odb,Step-1,Increment      1: Step Time =    1.000,"P-1-1",         12783,   106.973E-03,   34.6782E-03,            0.,NA,NA,"",   1.01045E+06,   1.02563E+06,   1.02563E+06
C:/temp/Job-1.odb,Step-1,Increment      1: Step Time =    1.000,"P-1-1",         12784,   105.096E-03,   148.928E-03,            0.,NA,NA,"",   1.03102E+06,   1.06649E+06,   1.06649E+06
C:/temp/Job-1.odb,Step-1,Increment      1: Step Time =    1.000,"P-1-1",         12785,   164.604E-03,   106.503E-03,            0.,NA,NA,"",   943.882E+03,   954.566E+03,   954.566E+03
C:/temp/Job-1.odb,Step-1,Increment      1: Step Time =    1.000,"P-1-1",         12786,   34.8723E-03,   93.3774E-03,            0.,NA,NA,"",   824.693E+03,   896.110E+03,   896.110E+03
C:/temp/Job-1.odb,Step-1,Increment      1: Step Time =    1.000,"P-1-1",         12787,   93.6024E-03,   165.199E-03,            0.,NA,NA,"",   1.01155E+06,   1.02858E+06,   1.02858E+06
C:/temp/Job-1.odb,Step-1,Increment      1: Step Time =    1.000,"P-1-1",         12788,   165.665E-03,   85.6520E-03,            0.,NA,NA,"",   964.900E+03,   971.495E+03,   971.495E+03
C:/temp/Job-1.odb,Step-1,Increment      1: Step Time =    1.000,"P-1-1",         12789,   138.022E-03,   128.837E-03,            0.,NA,NA,"",   1.10434E+06,   1.06444E+06,   1.06444E+06
C:/temp/Job-1.odb,Step-1,Increment      1: Step Time =    1.000,"P-1-1",         12790,   134.871E-03,   131.500E-03,            0.,NA,NA,"",   1.13007E+06,   1.08848E+06,   1.08848E+06
C:/temp/Job-1.odb,Step-1,Increment      1: Step Time =    1.000,"P-1-1",         12791,   124.742E-03,   142.538E-03,            0.,NA,NA,"",   1.12063E+06,   1.10708E+06,   1.10708E+06
C:/temp/Job-1.odb,Step-1,Increment      1: Step Time =    1.000,"P-1-1",         12792,   83.0084E-03,   146.769E-03,            0.,NA,NA,"",   1.07656E+06,   1.09471E+06,   1.09471E+06
C:/temp/Job-1.odb,Step-1,Increment      1: Step Time =    1.000,"P-1-1",         12793,   73.9629E-03,   143.622E-03,            0.,NA,NA,"",   1.10535E+06,   1.10622E+06,   1.10622E+06
C:/temp/Job-1.odb,Step-1,Increment      1: Step Time =    1.000,"P-1-1",         12794,   149.272E-03,   105.233E-03,            0.,NA,NA,"",   885.486E+03,   894.064E+03,   894.064E+03
C:/temp/Job-1.odb,Step-1,Increment      1: Step Time =    1.000,"P-1-1",         12795,   113.195E-03,   36.4535E-03,            0.,NA,NA,"",   1.02129E+06,   1.03297E+06,   1.03297E+06
C:/temp/Job-1.odb,Step-1,Increment      1: Step Time =    1.000,"P-1-1",         12796,   162.876E-03,   139.617E-03,            0.,NA,NA,"",   1.03125E+06,   1.02199E+06,   1.02199E+06
C:/temp/Job-1.odb,Step-1,Increment      1: Step Time =    1.000,"P-1-1",         12797,   139.152E-03,   36.7688E-03,            0.,NA,NA,"",   1.04753E+06,   1.03842E+06,   1.03842E+06
C:/temp/Job-1.odb,Step-1,Increment      1: Step Time =    1.000,"P-1-1",         12798,   54.0766E-03,   78.7198E-03,            0.,NA,NA,"",   942.724E+03,   967.458E+03,   967.458E+03
C:/temp/Job-1.odb,Step-1,Increment      1: Step Time =    1.000,"P-1-1",         12799,   128.047E-03,   164.442E-03,            0.,NA,NA,"",   1.04023E+06,   1.03761E+06,   1.03761E+06
C:/temp/Job-1.odb,Step-1,Increment      1: Step Time =    1.000,"P-1-1",         12800,   34.4807E-03,   127.234E-03,            0.,NA,NA,"",   899.603E+03,   959.795E+03,   959.795E+03
C:/temp/Job-1.odb,Step-1,Increment      1: Step Time =    1.000,"P-1-1",         12801,   121.506E-03,   73.8367E-03,            0.,NA,NA,"",   1.23722E+06,   1.18415E+06,   1.18415E+06
C:/temp/Job-1.odb,Step-1,Increment      1: Step Time =    1.000,"P-1-1",         12802,   116.278E-03,   73.2422E-03,            0.,NA,NA,"",   1.24815E+06,   1.22555E+06,   1.22555E+06
C:/temp/Job-1.odb,Step-1,Increment      1: Step Time =    1.000,"P-1-1",         12803,   147.923E-03,   112.358E-03,            0.,NA,NA,"",   931.672E+03,   928.585E+03,   928.585E+03
C:/temp/Job-1.odb,Step-1,Increment      1: Step Time =    1.000,"P-1-1",         12804,   35.0586E-03,   142.078E-03,            0.,NA,NA,"",   960.768E+03,   1.00951E+06,   1.00951E+06
C:/temp/Job-1.odb,Step-1,Increment      1: Step Time =    1.000,"P-1-1",         12805,   144.826E-03,   90.1781E-03,            0.,NA,NA,"",   899.205E+03,   898.551E+03,   898.551E+03
C:/temp/Job-1.odb,Step-1,Increment      1: Step Time =    1.000,"P-1-1",         12806,   143.627E-03,   163.756E-03,            0.,NA,NA,"",   1.04429E+06,   1.03464E+06,   1.03464E+06
C:/temp/Job-1.odb,Step-1,Increment      1: Step Time =    1.000,"P-1-1",         12807,   38.0146E-03,   170.173E-03,            0.,NA,NA,"",   1.04294E+06,   1.06343E+06,   1.06343E+06
C:/temp/Job-1.odb,Step-1,Increment      1: Step Time =    1.000,"P-1-1",         12808,   100.472E-03,   63.5053E-03,            0.,NA,NA,"",   1.04651E+06,   1.11561E+06,   1.11561E+06
C:/temp/Job-1.odb,Step-1,Increment      1: Step Time =    1.000,"P-1-1",         12809,   167.216E-03,   46.0801E-03,            0.,NA,NA,"",   1.02633E+06,   1.02017E+06,   1.02017E+06
C:/temp/Job-1.odb,Step-1,Increment      1: Step Time =    1.000,"P-1-1",         12810,   47.3203E-03,   34.1540E-03,            0.,NA,NA,"",   1.04603E+06,   1.05890E+06,   1.05890E+06
C:/temp/Job-1.odb,Step-1,Increment      1: Step Time =    1.000,"P-1-1",         12811,   153.079E-03,   165.895E-03,            0.,NA,NA,"",   1.03342E+06,   1.02515E+06,   1.02515E+06
C:/temp/Job-1.odb,Step-1,Increment      1: Step Time =    1.000,"P-1-1",         12812,   32.8037E-03,   153.344E-03,            0.,NA,NA,"",   989.372E+03,   1.03449E+06,   1.03449E+06
C:/temp/Job-1.odb,Step-1,Increment      1: Step Time =    1.000,"P-1-1",         12813,   149.215E-03,   98.8253E-03,            0.,NA,NA,"",   872.729E+03,   884.104E+03,   884.104E+03
C:/temp/Job-1.odb,Step-1,Increment      1: Step Time =    1.000,"P-1-1",         12814,   53.1041E-03,   87.9751E-03,            0.,NA,NA,"",   849.522E+03,   891.806E+03,   891.806E+03
C:/temp/Job-1.odb,Step-1,Increment      1: Step Time =    1.000,"P-1-1",         12815,   53.2078E-03,   95.8588E-03,            0.,NA,NA,"",   789.858E+03,   842.455E+03,   842.455E+03
C:/temp/Job-1.odb,Step-1,Increment      1: Step Time =    1.000,"P-1-1",         12816,   165.281E-03,   136.204E-03,            0.,NA,NA,"",   1.02184E+06,   1.01546E+06,   1.01546E+06
C:/temp/Job-1.odb,Step-1,Increment      1: Step Time =    1.000,"P-1-1",         12817,   136.950E-03,   34.2720E-03,            0.,NA,NA,"",   1.04082E+06,   1.03375E+06,   1.03375E+06
C:/temp/Job-1.odb,Step-1,Increment      1: Step Time =    1.000,"P-1-1",         12818,   131.123E-03,   175.573E-03,            0.,NA,NA,"",   1.01332E+06,   1.01139E+06,   1.01139E+06
C:/temp/Job-1.odb,Step-1,Increment      1: Step Time =    1.000,"P-1-1",         12819,   23.9251E-03,   130.472E-03,            0.,NA,NA,"",   875.846E+03,   951.871E+03,   951.871E+03
C:/temp/Job-1.odb,Step-1,Increment      1: Step Time =    1.000,"P-1-1",         12820,   145.285E-03,   92.0531E-03,            0.,NA,NA,"",   883.601E+03,   887.090E+03,   887.090E+03
C:/temp/Job-1.odb,Step-1,Increment      1: Step Time =    1.000,"P-1-1",         12821,   53.9244E-03,   84.2276E-03,            0.,NA,NA,"",   889.638E+03,   923.389E+03,   923.389E+03
C:/temp/Job-1.odb,Step-1,Increment      1: Step Time =    1.000,"P-1-1",         12822,   165.658E-03,   163.716E-03,            0.,NA,NA,"",   1.02272E+06,   1.01727E+06,   1.01727E+06
C:/temp/Job-1.odb,Step-1,Increment      1: Step Time =    1.000,"P-1-1",         12823,   34.6471E-03,   35.9740E-03,            0.,NA,NA,"",   1.02551E+06,   1.05752E+06,   1.05752E+06
C:/temp/Job-1.odb,Step-1,Increment      1: Step Time =    1.000,"P-1-1",         12824,   162.091E-03,   34.7255E-03,            0.,NA,NA,"",   1.02537E+06,   1.01906E+06,   1.01906E+06
C:/temp/Job-1.odb,Step-1,Increment      1: Step Time =    1.000,"P-1-1",         12825,   25.1206E-03,   137.775E-03,            0.,NA,NA,"",   905.702E+03,   976.160E+03,   976.160E+03
C:/temp/Job-1.odb,Step-1,Increment      1: Step Time =    1.000,"P-1-1",         12826,   136.398E-03,   176.230E-03,            0.,NA,NA,"",   1.01457E+06,   1.01130E+06,   1.01130E+06
C:/temp/Job-1.odb,Step-1,Increment      1: Step Time =    1.000,"P-1-1",         12827,   54.8547E-03,   72.6759E-03,            0.,NA,NA,"",   993.625E+03,   1.00979E+06,   1.00979E+06
C:/temp/Job-1.odb,Step-1,Increment      1: Step Time =    1.000,"P-1-1",         12828,   141.285E-03,   129.234E-03,            0.,NA,NA,"",   1.08646E+06,   1.05191E+06,   1.05191E+06
C:/temp/Job-1.odb,Step-1,Increment      1: Step Time =    1.000,"P-1-1",         12829,   70.8003E-03,   140.256E-03,            0.,NA,NA,"",   1.11248E+06,   1.10760E+06,   1.10760E+06
C:/temp/Job-1.odb,Step-1,Increment      1: Step Time =    1.000,"P-1-1",         12830,   89.0417E-03,   148.183E-03,            0.,NA,NA,"",   1.04993E+06,   1.07987E+06,   1.07987E+06
C:/temp/Job-1.odb,Step-1,Increment      1: Step Time =    1.000,"P-1-1",         12831,   135.180E-03,   134.785E-03,            0.,NA,NA,"",   1.12736E+06,   1.09065E+06,   1.09065E+06
C:/temp/Job-1.odb,Step-1,Increment      1: Step Time =    1.000,"P-1-1",         12832,   35.3227E-03,   40.9393E-03,            0.,NA,NA,"",   1.01425E+06,   1.04968E+06,   1.04968E+06
C:/temp/Job-1.odb,Step-1,Increment      1: Step Time =    1.000,"P-1-1",         12833,   141.496E-03,   166.053E-03,            0.,NA,NA,"",   1.04011E+06,   1.03186E+06,   1.03186E+06
C:/temp/Job-1.odb,Step-1,Increment      1: Step Time =    1.000,"P-1-1",         12834,   34.3466E-03,   139.491E-03,            0.,NA,NA,"",   948.460E+03,   1.00052E+06,   1.00052E+06
C:/temp/Job-1.odb,Step-1,Increment      1: Step Time =    1.000,"P-1-1",         12835,   164.945E-03,   159.174E-03,            0.,NA,NA,"",   1.02715E+06,   1.02056E+06,   1.02056E+06
C:/temp/Job-1.odb,Step-1,Increment      1: Step Time =    1.000,"P-1-1",         12836,   57.9016E-03,   126.736E-03,            0.,NA,NA,"",   1.01091E+06,   1.01911E+06,   1.01911E+06
C:/temp/Job-1.odb,Step-1,Increment      1: Step Time =    1.000,"P-1-1",         12837,   115.590E-03,   76.8595E-03,            0.,NA,NA,"",   1.29861E+06,   1.26013E+06,   1.26013E+06
C:/temp/Job-1.odb,Step-1,Increment      1: Step Time =    1.000,"P-1-1",         12838,   32.5492E-03,   98.0177E-03,            0.,NA,NA,"",   818.014E+03,   892.826E+03,   892.826E+03
C:/temp/Job-1.odb,Step-1,Increment      1: Step Time =    1.000,"P-1-1",         12839,   100.640E-03,   30.1119E-03,            0.,NA,NA,"",   1.00120E+06,   1.01462E+06,   1.01462E+06
C:/temp/Job-1.odb,Step-1,Increment      1: Step Time =    1.000,"P-1-1",         12840,   102.432E-03,   166.803E-03,            0.,NA,NA,"",   1.00579E+06,   1.02152E+06,   1.02152E+06
C:/temp/Job-1.odb,Step-1,Increment      1: Step Time =    1.000,"P-1-1",         12841,   33.6865E-03,   103.307E-03,            0.,NA,NA,"",   819.420E+03,   892.840E+03,   892.840E+03
C:/temp/Job-1.odb,Step-1,Increment      1: Step Time =    1.000,"P-1-1",         12842,   96.5216E-03,   33.1298E-03,            0.,NA,NA,"",   1.00684E+06,   1.02293E+06,   1.02293E+06
C:/temp/Job-1.odb,Step-1,Increment      1: Step Time =    1.000,"P-1-1",         12843,   53.6935E-03,   105.821E-03,            0.,NA,NA,"",   797.353E+03,   847.804E+03,   847.804E+03
C:/temp/Job-1.odb,Step-1,Increment      1: Step Time =    1.000,"P-1-1",         12844,   36.9941E-03,   149.485E-03,            0.,NA,NA,"",   992.531E+03,   1.03241E+06,   1.03241E+06
C:/temp/Job-1.odb,Step-1,Increment      1: Step Time =    1.000,"P-1-1",         12845,   148.672E-03,   163.823E-03,            0.,NA,NA,"",   1.04078E+06,   1.03110E+06,   1.03110E+06
C:/temp/Job-1.odb,Step-1,Increment      1: Step Time =    1.000,"P-1-1",         12846,   51.0731E-03,   36.3432E-03,            0.,NA,NA,"",   1.04911E+06,   1.05955E+06,   1.05955E+06
C:/temp/Job-1.odb,Step-1,Increment      1: Step Time =    1.000,"P-1-1",         12847,   162.833E-03,   51.0096E-03,            0.,NA,NA,"",   1.03533E+06,   1.02603E+06,   1.02603E+06
C:/temp/Job-1.odb,Step-1,Increment      1: Step Time =    1.000,"P-1-1",         12848,   168.552E-03,   69.1101E-03,            0.,NA,NA,"",   1.00724E+06,   1.00571E+06,   1.00571E+06
C:/temp/Job-1.odb,Step-1,Increment      1: Step Time =    1.000,"P-1-1",         12849,   69.3700E-03,   32.6063E-03,            0.,NA,NA,"",   1.04246E+06,   1.04655E+06,   1.04655E+06
C:/temp/Job-1.odb,Step-1,Increment      1: Step Time =    1.000,"P-1-1",         12850,   75.8760E-03,   145.120E-03,            0.,NA,NA,"",   1.09860E+06,   1.10316E+06,   1.10316E+06
C:/temp/Job-1.odb,Step-1,Increment      1: Step Time =    1.000,"P-1-1",         12851,   34.3079E-03,   48.6631E-03,            0.,NA,NA,"",   988.180E+03,   1.03206E+06,   1.03206E+06
C:/temp/Job-1.odb,Step-1,Increment      1: Step Time =    1.000,"P-1-1",         12852,   49.6026E-03,   165.916E-03,            0.,NA,NA,"",   1.04773E+06,   1.05842E+06,   1.05842E+06
C:/temp/Job-1.odb,Step-1,Increment      1: Step Time =    1.000,"P-1-1",         12853,   66.5764E-03,   63.6225E-03,            0.,NA,NA,"",   1.10256E+06,   1.09478E+06,   1.09478E+06
C:/temp/Job-1.odb,Step-1,Increment      1: Step Time =    1.000,"P-1-1",         12854,   80.3533E-03,   147.753E-03,            0.,NA,NA,"",   1.08035E+06,   1.09336E+06,   1.09336E+06
C:/temp/Job-1.odb,Step-1,Increment      1: Step Time =    1.000,"P-1-1",         12855,   86.6581E-03,   163.216E-03,            0.,NA,NA,"",   1.02496E+06,   1.04004E+06,   1.04004E+06
C:/temp/Job-1.odb,Step-1,Increment      1: Step Time =    1.000,"P-1-1",         12856,   36.8458E-03,   86.2844E-03,            0.,NA,NA,"",   847.319E+03,   913.085E+03,   913.085E+03
C:/temp/Job-1.odb,Step-1,Increment      1: Step Time =    1.000,"P-1-1",         12857,   163.283E-03,   113.147E-03,            0.,NA,NA,"",   958.575E+03,   964.765E+03,   964.765E+03
C:/temp/Job-1.odb,Step-1,Increment      1: Step Time =    1.000,"P-1-1",         12858,   150.251E-03,   34.5116E-03,            0.,NA,NA,"",   1.03638E+06,   1.02759E+06,   1.02759E+06
C:/temp/Job-1.odb,Step-1,Increment      1: Step Time =    1.000,"P-1-1",         12859,   166.467E-03,   151.519E-03,            0.,NA,NA,"",   1.02797E+06,   1.02127E+06,   1.02127E+06
C:/temp/Job-1.odb,Step-1,Increment      1: Step Time =    1.000,"P-1-1",         12860,   51.1901E-03,   165.015E-03,            0.,NA,NA,"",   1.04896E+06,   1.05871E+06,   1.05871E+06
C:/temp/Job-1.odb,Step-1,Increment      1: Step Time =    1.000,"P-1-1",         12861,   35.0863E-03,   50.5912E-03,            0.,NA,NA,"",   985.214E+03,   1.02884E+06,   1.02884E+06
C:/temp/Job-1.odb,Step-1,Increment      1: Step Time =    1.000,"P-1-1",         12862,   87.3925E-03,   147.078E-03,            0.,NA,NA,"",   1.05954E+06,   1.08703E+06,   1.08703E+06
C:/temp/Job-1.odb,Step-1,Increment      1: Step Time =    1.000,"P-1-1",         12863,   165.528E-03,   61.5370E-03,            0.,NA,NA,"",   1.02429E+06,   1.01758E+06,   1.01758E+06
C:/temp/Job-1.odb,Step-1,Increment      1: Step Time =    1.000,"P-1-1",         12864,   60.7806E-03,   35.0805E-03,            0.,NA,NA,"",   1.05224E+06,   1.05674E+06,   1.05674E+06
C:/temp/Job-1.odb,Step-1,Increment      1: Step Time =    1.000,"P-1-1",         12865,   165.677E-03,   125.724E-03,            0.,NA,NA,"",   998.653E+03,   997.395E+03,   997.395E+03
C:/temp/Job-1.odb,Step-1,Increment      1: Step Time =    1.000,"P-1-1",         12866,   83.4604E-03,   162.399E-03,            0.,NA,NA,"",   1.03260E+06,   1.04576E+06,   1.04576E+06
C:/temp/Job-1.odb,Step-1,Increment      1: Step Time =    1.000,"P-1-1",         12867,   37.2441E-03,   84.6664E-03,            0.,NA,NA,"",   854.114E+03,   918.279E+03,   918.279E+03
C:/temp/Job-1.odb,Step-1,Increment      1: Step Time =    1.000,"P-1-1",         12868,   161.772E-03,   116.044E-03,            0.,NA,NA,"",   967.443E+03,   970.356E+03,   970.356E+03
C:/temp/Job-1.odb,Step-1,Increment      1: Step Time =    1.000,"P-1-1",         12869,   57.1908E-03,   124.757E-03,            0.,NA,NA,"",   991.233E+03,   1.00317E+06,   1.00317E+06
C:/temp/Job-1.odb,Step-1,Increment      1: Step Time =    1.000,"P-1-1",         12870,   166.134E-03,   97.2381E-03,            0.,NA,NA,"",   943.168E+03,   955.430E+03,   955.430E+03
C:/temp/Job-1.odb,Step-1,Increment      1: Step Time =    1.000,"P-1-1",         12871,   101.491E-03,   64.0523E-03,            0.,NA,NA,"",   1.04993E+06,   1.11976E+06,   1.11976E+06
C:/temp/Job-1.odb,Step-1,Increment      1: Step Time =    1.000,"P-1-1",         12872,   34.8554E-03,   137.750E-03,            0.,NA,NA,"",   943.780E+03,   996.100E+03,   996.100E+03
C:/temp/Job-1.odb,Step-1,Increment      1: Step Time =    1.000,"P-1-1",         12873,   138.629E-03,   166.153E-03,            0.,NA,NA,"",   1.03997E+06,   1.03249E+06,   1.03249E+06
C:/temp/Job-1.odb,Step-1,Increment      1: Step Time =    1.000,"P-1-1",         12874,   52.4882E-03,   97.2310E-03,            0.,NA,NA,"",   788.047E+03,   842.241E+03,   842.241E+03
C:/temp/Job-1.odb,Step-1,Increment      1: Step Time =    1.000,"P-1-1",         12875,   85.2234E-03,   33.3777E-03,            0.,NA,NA,"",   1.02069E+06,   1.03260E+06,   1.03260E+06
C:/temp/Job-1.odb,Step-1,Increment      1: Step Time =    1.000,"P-1-1",         12876,   59.3741E-03,   67.2028E-03,            0.,NA,NA,"",   1.05183E+06,   1.05444E+06,   1.05444E+06
C:/temp/Job-1.odb,Step-1,Increment      1: Step Time =    1.000,"P-1-1",         12877,   56.3993E-03,   121.573E-03,            0.,NA,NA,"",   958.987E+03,   976.740E+03,   976.740E+03
C:/temp/Job-1.odb,Step-1,Increment      1: Step Time =    1.000,"P-1-1",         12878,   41.5965E-03,   164.702E-03,            0.,NA,NA,"",   1.03876E+06,   1.05931E+06,   1.05931E+06
C:/temp/Job-1.odb,Step-1,Increment      1: Step Time =    1.000,"P-1-1",         12879,   141.763E-03,   125.147E-03,            0.,NA,NA,"",   1.06276E+06,   1.02969E+06,   1.02969E+06
C:/temp/Job-1.odb,Step-1,Increment      1: Step Time =    1.000,"P-1-1",         12880,   44.8492E-03,   164.816E-03,            0.,NA,NA,"",   1.04312E+06,   1.05933E+06,   1.05933E+06
C:/temp/Job-1.odb,Step-1,Increment      1: Step Time =    1.000,"P-1-1",         12881,   116.616E-03,   35.4533E-03,            0.,NA,NA,"",   1.02465E+06,   1.03245E+06,   1.03245E+06
C:/temp/Job-1.odb,Step-1,Increment      1: Step Time =    1.000,"P-1-1",         12882,   137.422E-03,   125.315E-03,            0.,NA,NA,"",   1.09185E+06,   1.04977E+06,   1.04977E+06
C:/temp/Job-1.odb,Step-1,Increment      1: Step Time =    1.000,"P-1-1",         12883,   34.2149E-03,   44.1987E-03,            0.,NA,NA,"",   1.00156E+06,   1.04190E+06,   1.04190E+06
C:/temp/Job-1.odb,Step-1,Increment      1: Step Time =    1.000,"P-1-1",         12884,   162.718E-03,   142.215E-03,            0.,NA,NA,"",   1.03384E+06,   1.02419E+06,   1.02419E+06
C:/temp/Job-1.odb,Step-1,Increment      1: Step Time =    1.000,"P-1-1",         12885,   141.238E-03,   36.8701E-03,            0.,NA,NA,"",   1.04710E+06,   1.03745E+06,   1.03745E+06
C:/temp/Job-1.odb,Step-1,Increment      1: Step Time =    1.000,"P-1-1",         12886,   55.5015E-03,   122.891E-03,            0.,NA,NA,"",   965.104E+03,   983.852E+03,   983.852E+03
C:/temp/Job-1.odb,Step-1,Increment      1: Step Time =    1.000,"P-1-1",         12887,   37.1049E-03,   119.431E-03,            0.,NA,NA,"",   872.018E+03,   933.480E+03,   933.480E+03
C:/temp/Job-1.odb,Step-1,Increment      1: Step Time =    1.000,"P-1-1",         12888,   83.3377E-03,   148.238E-03,            0.,NA,NA,"",   1.06992E+06,   1.08863E+06,   1.08863E+06
C:/temp/Job-1.odb,Step-1,Increment      1: Step Time =    1.000,"P-1-1",         12889,   57.1125E-03,   67.9953E-03,            0.,NA,NA,"",   1.03306E+06,   1.04116E+06,   1.04116E+06
C:/temp/Job-1.odb,Step-1,Increment      1: Step Time =    1.000,"P-1-1",         12890,   120.532E-03,   32.0248E-03,            0.,NA,NA,"",   1.02194E+06,   1.02559E+06,   1.02559E+06
C:/temp/Job-1.odb,Step-1,Increment      1: Step Time =    1.000,"P-1-1",         12891,   112.881E-03,   147.966E-03,            0.,NA,NA,"",   1.05894E+06,   1.07978E+06,   1.07978E+06
C:/temp/Job-1.odb,Step-1,Increment      1: Step Time =    1.000,"P-1-1",         12892,   142.433E-03,   125.856E-03,            0.,NA,NA,"",   1.06343E+06,   1.03131E+06,   1.03131E+06
C:/temp/Job-1.odb,Step-1,Increment      1: Step Time =    1.000,"P-1-1",         12893,   142.357E-03,   164.043E-03,            0.,NA,NA,"",   1.04445E+06,   1.03506E+06,   1.03506E+06
C:/temp/Job-1.odb,Step-1,Increment      1: Step Time =    1.000,"P-1-1",         12894,   34.7914E-03,   140.683E-03,            0.,NA,NA,"",   954.552E+03,   1.00489E+06,   1.00489E+06
C:/temp/Job-1.odb,Step-1,Increment      1: Step Time =    1.000,"P-1-1",         12895,   163.669E-03,   48.0373E-03,            0.,NA,NA,"",   1.03303E+06,   1.02463E+06,   1.02463E+06
C:/temp/Job-1.odb,Step-1,Increment      1: Step Time =    1.000,"P-1-1",         12896,   48.1885E-03,   36.0810E-03,            0.,NA,NA,"",   1.04643E+06,   1.05940E+06,   1.05940E+06
C:/temp/Job-1.odb,Step-1,Increment      1: Step Time =    1.000,"P-1-1",         12897,   152.665E-03,   162.834E-03,            0.,NA,NA,"",   1.03880E+06,   1.02921E+06,   1.02921E+06
C:/temp/Job-1.odb,Step-1,Increment      1: Step Time =    1.000,"P-1-1",         12898,   35.7270E-03,   152.789E-03,            0.,NA,NA,"",   997.721E+03,   1.03762E+06,   1.03762E+06
C:/temp/Job-1.odb,Step-1,Increment      1: Step Time =    1.000,"P-1-1",         12899,   55.9991E-03,   71.5575E-03,            0.,NA,NA,"",   1.00848E+06,   1.02067E+06,   1.02067E+06
C:/temp/Job-1.odb,Step-1,Increment      1: Step Time =    1.000,"P-1-1",         12900,   142.126E-03,   162.532E-03,            0.,NA,NA,"",   1.04813E+06,   1.03798E+06,   1.03798E+06
C:/temp/Job-1.odb,Step-1,Increment      1: Step Time =    1.000,"P-1-1",         12901,   36.3914E-03,   141.417E-03,            0.,NA,NA,"",   963.667E+03,   1.01036E+06,   1.01036E+06
C:/temp/Job-1.odb,Step-1,Increment      1: Step Time =    1.000,"P-1-1",         12902,   164.331E-03,   131.650E-03,            0.,NA,NA,"",   1.01539E+06,   1.00977E+06,   1.00977E+06
C:/temp/Job-1.odb,Step-1,Increment      1: Step Time =    1.000,"P-1-1",         12903,   132.894E-03,   36.3234E-03,            0.,NA,NA,"",   1.04552E+06,   1.03940E+06,   1.03940E+06
C:/temp/Job-1.odb,Step-1,Increment      1: Step Time =    1.000,"P-1-1",         12904,   126.521E-03,   142.693E-03,            0.,NA,NA,"",   1.12072E+06,   1.10372E+06,   1.10372E+06
C:/temp/Job-1.odb,Step-1,Increment      1: Step Time =    1.000,"P-1-1",         12905,   162.621E-03,   118.958E-03,            0.,NA,NA,"",   978.905E+03,   979.981E+03,   979.981E+03
C:/temp/Job-1.odb,Step-1,Increment      1: Step Time =    1.000,"P-1-1",         12906,   36.7275E-03,   81.0749E-03,            0.,NA,NA,"",   868.827E+03,   931.303E+03,   931.303E+03
C:/temp/Job-1.odb,Step-1,Increment      1: Step Time =    1.000,"P-1-1",         12907,   80.8037E-03,   162.788E-03,            0.,NA,NA,"",   1.03666E+06,   1.04758E+06,   1.04758E+06
C:/temp/Job-1.odb,Step-1,Increment      1: Step Time =    1.000,"P-1-1",         12908,   34.7358E-03,   109.114E-03,            0.,NA,NA,"",   830.239E+03,   900.937E+03,   900.937E+03
C:/temp/Job-1.odb,Step-1,Increment      1: Step Time =    1.000,"P-1-1",         12909,   109.044E-03,   164.196E-03,            0.,NA,NA,"",   1.01443E+06,   1.02911E+06,   1.02911E+06
C:/temp/Job-1.odb,Step-1,Increment      1: Step Time =    1.000,"P-1-1",         12910,   91.2425E-03,   35.4294E-03,            0.,NA,NA,"",   1.01510E+06,   1.03181E+06,   1.03181E+06
C:/temp/Job-1.odb,Step-1,Increment      1: Step Time =    1.000,"P-1-1",         12911,   69.9131E-03,   66.5940E-03,            0.,NA,NA,"",   1.12571E+06,   1.11097E+06,   1.11097E+06
C:/temp/Job-1.odb,Step-1,Increment      1: Step Time =    1.000,"P-1-1",         12912,   69.6775E-03,   64.7062E-03,            0.,NA,NA,"",   1.12122E+06,   1.10943E+06,   1.10943E+06
C:/temp/Job-1.odb,Step-1,Increment      1: Step Time =    1.000,"P-1-1",         12913,   138.859E-03,   163.454E-03,            0.,NA,NA,"",   1.04686E+06,   1.03797E+06,   1.03797E+06
C:/temp/Job-1.odb,Step-1,Increment      1: Step Time =    1.000,"P-1-1",         12914,   36.8614E-03,   138.436E-03,            0.,NA,NA,"",   954.763E+03,   1.00263E+06,   1.00263E+06
C:/temp/Job-1.odb,Step-1,Increment      1: Step Time =    1.000,"P-1-1",         12915,   146.944E-03,   91.1086E-03,            0.,NA,NA,"",   899.138E+03,   901.851E+03,   901.851E+03
C:/temp/Job-1.odb,Step-1,Increment      1: Step Time =    1.000,"P-1-1",         12916,   165.721E-03,   149.396E-03,            0.,NA,NA,"",   1.02963E+06,   1.02231E+06,   1.02231E+06
C:/temp/Job-1.odb,Step-1,Increment      1: Step Time =    1.000,"P-1-1",         12917,   80.2259E-03,   163.818E-03,            0.,NA,NA,"",   1.03539E+06,   1.04554E+06,   1.04554E+06
C:/temp/Job-1.odb,Step-1,Increment      1: Step Time =    1.000,"P-1-1",         12918,   34.9045E-03,   79.4499E-03,            0.,NA,NA,"",   871.314E+03,   935.531E+03,   935.531E+03
C:/temp/Job-1.odb,Step-1,Increment      1: Step Time =    1.000,"P-1-1",         12919,   164.257E-03,   120.711E-03,            0.,NA,NA,"",   984.581E+03,   985.536E+03,   985.536E+03
C:/temp/Job-1.odb,Step-1,Increment      1: Step Time =    1.000,"P-1-1",         12920,   96.7665E-03,   60.8388E-03,            0.,NA,NA,"",   1.04445E+06,   1.10359E+06,   1.10359E+06
C:/temp/Job-1.odb,Step-1,Increment      1: Step Time =    1.000,"P-1-1",         12921,   164.036E-03,   147.092E-03,            0.,NA,NA,"",   1.03296E+06,   1.02432E+06,   1.02432E+06
C:/temp/Job-1.odb,Step-1,Increment      1: Step Time =    1.000,"P-1-1",         12922,   148.002E-03,   35.1340E-03,            0.,NA,NA,"",   1.03926E+06,   1.03002E+06,   1.03002E+06
C:/temp/Job-1.odb,Step-1,Increment      1: Step Time =    1.000,"P-1-1",         12923,   107.727E-03,   144.910E-03,            0.,NA,NA,"",   1.04703E+06,   1.08373E+06,   1.08373E+06
C:/temp/Job-1.odb,Step-1,Increment      1: Step Time =    1.000,"P-1-1",         12924,   163.846E-03,   61.5095E-03,            0.,NA,NA,"",   1.02778E+06,   1.01959E+06,   1.01959E+06
C:/temp/Job-1.odb,Step-1,Increment      1: Step Time =    1.000,"P-1-1",         12925,   61.5454E-03,   36.6642E-03,            0.,NA,NA,"",   1.05456E+06,   1.05906E+06,   1.05906E+06
C:/temp/Job-1.odb,Step-1,Increment      1: Step Time =    1.000,"P-1-1",         12926,   164.335E-03,   80.0317E-03,            0.,NA,NA,"",   982.140E+03,   983.705E+03,   983.705E+03
C:/temp/Job-1.odb,Step-1,Increment      1: Step Time =    1.000,"P-1-1",         12927,   80.1886E-03,   34.5772E-03,            0.,NA,NA,"",   1.03187E+06,   1.04137E+06,   1.04137E+06
C:/temp/Job-1.odb,Step-1,Increment      1: Step Time =    1.000,"P-1-1",         12928,   164.262E-03,   125.996E-03,            0.,NA,NA,"",   1.00116E+06,   998.425E+03,   998.425E+03
C:/temp/Job-1.odb,Step-1,Increment      1: Step Time =    1.000,"P-1-1",         12929,   125.658E-03,   36.3874E-03,            0.,NA,NA,"",   1.04014E+06,   1.03932E+06,   1.03932E+06
C:/temp/Job-1.odb,Step-1,Increment      1: Step Time =    1.000,"P-1-1",         12930,   123.098E-03,   165.983E-03,            0.,NA,NA,"",   1.03031E+06,   1.03200E+06,   1.03200E+06
C:/temp/Job-1.odb,Step-1,Increment      1: Step Time =    1.000,"P-1-1",         12931,   130.591E-03,   139.043E-03,            0.,NA,NA,"",   1.13302E+06,   1.10449E+06,   1.10449E+06
C:/temp/Job-1.odb,Step-1,Increment      1: Step Time =    1.000,"P-1-1",         12932,   83.7059E-03,   61.4106E-03,            0.,NA,NA,"",   1.11631E+06,   1.13352E+06,   1.13352E+06
C:/temp/Job-1.odb,Step-1,Increment      1: Step Time =    1.000,"P-1-1",         12933,   51.6287E-03,   106.638E-03,            0.,NA,NA,"",   808.890E+03,   860.897E+03,   860.897E+03
C:/temp/Job-1.odb,Step-1,Increment      1: Step Time =    1.000,"P-1-1",         12934,   82.9275E-03,   65.1513E-03,            0.,NA,NA,"",   1.14761E+06,   1.15720E+06,   1.15720E+06
C:/temp/Job-1.odb,Step-1,Increment      1: Step Time =    1.000,"P-1-1",         12935,   114.264E-03,   145.526E-03,            0.,NA,NA,"",   1.07367E+06,   1.09159E+06,   1.09159E+06
C:/temp/Job-1.odb,Step-1,Increment      1: Step Time =    1.000,"P-1-1",         12936,   63.6647E-03,   69.5613E-03,            0.,NA,NA,"",   1.07635E+06,   1.06873E+06,   1.06873E+06
C:/temp/Job-1.odb,Step-1,Increment      1: Step Time =    1.000,"P-1-1",         12937,   61.5281E-03,   66.2965E-03,            0.,NA,NA,"",   1.06961E+06,   1.06766E+06,   1.06766E+06
C:/temp/Job-1.odb,Step-1,Increment      1: Step Time =    1.000,"P-1-1",         12938,   61.4737E-03,   132.344E-03,            0.,NA,NA,"",   1.06415E+06,   1.06233E+06,   1.06233E+06
C:/temp/Job-1.odb,Step-1,Increment      1: Step Time =    1.000,"P-1-1",         12939,   68.4948E-03,   139.826E-03,            0.,NA,NA,"",   1.10642E+06,   1.10116E+06,   1.10116E+06
C:/temp/Job-1.odb,Step-1,Increment      1: Step Time =    1.000,"P-1-1",         12940,   142.848E-03,   84.8881E-03,            0.,NA,NA,"",   960.315E+03,   944.432E+03,   944.432E+03
C:/temp/Job-1.odb,Step-1,Increment      1: Step Time =    1.000,"P-1-1",         12941,   75.9383E-03,   66.8566E-03,            0.,NA,NA,"",   1.15764E+06,   1.14355E+06,   1.14355E+06
C:/temp/Job-1.odb,Step-1,Increment      1: Step Time =    1.000,"P-1-1",         12942,   111.365E-03,   37.5370E-03,            0.,NA,NA,"",   1.02057E+06,   1.03455E+06,   1.03455E+06
C:/temp/Job-1.odb,Step-1,Increment      1: Step Time =    1.000,"P-1-1",         12943,   35.6446E-03,   118.990E-03,            0.,NA,NA,"",   866.696E+03,   930.682E+03,   930.682E+03
C:/temp/Job-1.odb,Step-1,Increment      1: Step Time =    1.000,"P-1-1",         12944,   149.306E-03,   103.546E-03,            0.,NA,NA,"",   878.432E+03,   888.589E+03,   888.589E+03
C:/temp/Job-1.odb,Step-1,Increment      1: Step Time =    1.000,"P-1-1",         12945,   149.328E-03,   108.831E-03,            0.,NA,NA,"",   906.846E+03,   910.881E+03,   910.881E+03
C:/temp/Job-1.odb,Step-1,Increment      1: Step Time =    1.000,"P-1-1",         12946,   79.1976E-03,   148.248E-03,            0.,NA,NA,"",   1.08113E+06,   1.09232E+06,   1.09232E+06
C:/temp/Job-1.odb,Step-1,Increment      1: Step Time =    1.000,"P-1-1",         12947,   40.3466E-03,   163.845E-03,            0.,NA,NA,"",   1.03574E+06,   1.05867E+06,   1.05867E+06
C:/temp/Job-1.odb,Step-1,Increment      1: Step Time =    1.000,"P-1-1",         12948,   33.9574E-03,   123.086E-03,            0.,NA,NA,"",   879.571E+03,   943.616E+03,   943.616E+03
C:/temp/Job-1.odb,Step-1,Increment      1: Step Time =    1.000,"P-1-1",         12949,   77.8963E-03,   35.3885E-03,            0.,NA,NA,"",   1.03746E+06,   1.04581E+06,   1.04581E+06
C:/temp/Job-1.odb,Step-1,Increment      1: Step Time =    1.000,"P-1-1",         12950,   165.041E-03,   162.261E-03,            0.,NA,NA,"",   1.02464E+06,   1.01869E+06,   1.01869E+06
C:/temp/Job-1.odb,Step-1,Increment      1: Step Time =    1.000,"P-1-1",         12951,   34.7926E-03,   38.3785E-03,            0.,NA,NA,"",   1.02020E+06,   1.05410E+06,   1.05410E+06
C:/temp/Job-1.odb,Step-1,Increment      1: Step Time =    1.000,"P-1-1",         12952,   165.777E-03,   87.6341E-03,            0.,NA,NA,"",   959.104E+03,   967.123E+03,   967.123E+03
C:/temp/Job-1.odb,Step-1,Increment      1: Step Time =    1.000,"P-1-1",         12953,   52.1104E-03,   92.7984E-03,            0.,NA,NA,"",   810.946E+03,   861.772E+03,   861.772E+03
C:/temp/Job-1.odb,Step-1,Increment      1: Step Time =    1.000,"P-1-1",         12954,   79.7589E-03,   65.4471E-03,            0.,NA,NA,"",   1.15578E+06,   1.15331E+06,   1.15331E+06
C:/temp/Job-1.odb,Step-1,Increment      1: Step Time =    1.000,"P-1-1",         12955,   120.158E-03,   34.7556E-03,            0.,NA,NA,"",   1.02825E+06,   1.03259E+06,   1.03259E+06
C:/temp/Job-1.odb,Step-1,Increment      1: Step Time =    1.000,"P-1-1",         12956,   119.519E-03,   162.698E-03,            0.,NA,NA,"",   1.03367E+06,   1.03907E+06,   1.03907E+06
C:/temp/Job-1.odb,Step-1,Increment      1: Step Time =    1.000,"P-1-1",         12957,   106.871E-03,   164.213E-03,            0.,NA,NA,"",   1.01212E+06,   1.02824E+06,   1.02824E+06
C:/temp/Job-1.odb,Step-1,Increment      1: Step Time =    1.000,"P-1-1",         12958,   65.1745E-03,   62.7383E-03,            0.,NA,NA,"",   1.09469E+06,   1.08924E+06,   1.08924E+06
C:/temp/Job-1.odb,Step-1,Increment      1: Step Time =    1.000,"P-1-1",         12959,   34.2137E-03,   59.4248E-03,            0.,NA,NA,"",   951.485E+03,   1.00316E+06,   1.00316E+06
C:/temp/Job-1.odb,Step-1,Increment      1: Step Time =    1.000,"P-1-1",         12960,   58.0945E-03,   165.334E-03,            0.,NA,NA,"",   1.05158E+06,   1.05692E+06,   1.05692E+06
C:/temp/Job-1.odb,Step-1,Increment      1: Step Time =    1.000,"P-1-1",         12961,   35.4180E-03,   106.074E-03,            0.,NA,NA,"",   823.827E+03,   894.882E+03,   894.882E+03
C:/temp/Job-1.odb,Step-1,Increment      1: Step Time =    1.000,"P-1-1",         12962,   97.5809E-03,   150.170E-03,            0.,NA,NA,"",   1.02533E+06,   1.06220E+06,   1.06220E+06
C:/temp/Job-1.odb,Step-1,Increment      1: Step Time =    1.000,"P-1-1",         12963,   100.210E-03,   150.472E-03,            0.,NA,NA,"",   1.02377E+06,   1.06028E+06,   1.06028E+06
C:/temp/Job-1.odb,Step-1,Increment      1: Step Time =    1.000,"P-1-1",         12964,   149.642E-03,   113.236E-03,            0.,NA,NA,"",   941.501E+03,   938.478E+03,   938.478E+03
C:/temp/Job-1.odb,Step-1,Increment      1: Step Time =    1.000,"P-1-1",         12965,   94.3276E-03,   34.8332E-03,            0.,NA,NA,"",   1.01069E+06,   1.02809E+06,   1.02809E+06
C:/temp/Job-1.odb,Step-1,Increment      1: Step Time =    1.000,"P-1-1",         12966,   92.5898E-03,   149.905E-03,            0.,NA,NA,"",   1.03505E+06,   1.06848E+06,   1.06848E+06
C:/temp/Job-1.odb,Step-1,Increment      1: Step Time =    1.000,"P-1-1",         12967,   148.298E-03,   123.473E-03,            0.,NA,NA,"",   1.02191E+06,   1.00231E+06,   1.00231E+06
C:/temp/Job-1.odb,Step-1,Increment      1: Step Time =    1.000,"P-1-1",         12968,   150.017E-03,   119.126E-03,            0.,NA,NA,"",   986.937E+03,   975.306E+03,   975.306E+03
C:/temp/Job-1.odb,Step-1,Increment      1: Step Time =    1.000,"P-1-1",         12969,   103.727E-03,   149.930E-03,            0.,NA,NA,"",   1.02708E+06,   1.06264E+06,   1.06264E+06
C:/temp/Job-1.odb,Step-1,Increment      1: Step Time =    1.000,"P-1-1",         12970,   139.050E-03,   129.739E-03,            0.,NA,NA,"",   1.10073E+06,   1.06292E+06,   1.06292E+06
C:/temp/Job-1.odb,Step-1,Increment      1: Step Time =    1.000,"P-1-1",         12971,   134.850E-03,   136.168E-03,            0.,NA,NA,"",   1.12707E+06,   1.09231E+06,   1.09231E+06
C:/temp/Job-1.odb,Step-1,Increment      1: Step Time =    1.000,"P-1-1",         12972,   82.6229E-03,   145.318E-03,            0.,NA,NA,"",   1.08394E+06,   1.10108E+06,   1.10108E+06
C:/temp/Job-1.odb,Step-1,Increment      1: Step Time =    1.000,"P-1-1",         12973,   148.003E-03,   103.542E-03,            0.,NA,NA,"",   871.028E+03,   881.180E+03,   881.180E+03
C:/temp/Job-1.odb,Step-1,Increment      1: Step Time =    1.000,"P-1-1",         12974,   150.011E-03,   106.853E-03,            0.,NA,NA,"",   897.609E+03,   904.489E+03,   904.489E+03
C:/temp/Job-1.odb,Step-1,Increment      1: Step Time =    1.000,"P-1-1",         12975,   145.330E-03,   94.8097E-03,            0.,NA,NA,"",   861.126E+03,   869.460E+03,   869.460E+03
C:/temp/Job-1.odb,Step-1,Increment      1: Step Time =    1.000,"P-1-1",         12976,   124.997E-03,   165.166E-03,            0.,NA,NA,"",   1.03485E+06,   1.03490E+06,   1.03490E+06
C:/temp/Job-1.odb,Step-1,Increment      1: Step Time =    1.000,"P-1-1",         12977,   35.2914E-03,   126.012E-03,            0.,NA,NA,"",   896.945E+03,   956.573E+03,   956.573E+03
C:/temp/Job-1.odb,Step-1,Increment      1: Step Time =    1.000,"P-1-1",         12978,   148.615E-03,   110.651E-03,            0.,NA,NA,"",   918.128E+03,   918.808E+03,   918.808E+03
C:/temp/Job-1.odb,Step-1,Increment      1: Step Time =    1.000,"P-1-1",         12979,   53.4778E-03,   77.2529E-03,            0.,NA,NA,"",   952.414E+03,   976.686E+03,   976.686E+03
C:/temp/Job-1.odb,Step-1,Increment      1: Step Time =    1.000,"P-1-1",         12980,   132.340E-03,   72.7077E-03,            0.,NA,NA,"",   1.14251E+06,   1.09184E+06,   1.09184E+06
C:/temp/Job-1.odb,Step-1,Increment      1: Step Time =    1.000,"P-1-1",         12981,   133.452E-03,   76.5555E-03,            0.,NA,NA,"",   1.11308E+06,   1.06097E+06,   1.06097E+06
C:/temp/Job-1.odb,Step-1,Increment      1: Step Time =    1.000,"P-1-1",         12982,   149.880E-03,   100.309E-03,            0.,NA,NA,"",   876.399E+03,   887.788E+03,   887.788E+03
C:/temp/Job-1.odb,Step-1,Increment      1: Step Time =    1.000,"P-1-1",         12983,   162.677E-03,   37.2106E-03,            0.,NA,NA,"",   1.02703E+06,   1.02035E+06,   1.02035E+06
C:/temp/Job-1.odb,Step-1,Increment      1: Step Time =    1.000,"P-1-1",         12984,   163.884E-03,   162.656E-03,            0.,NA,NA,"",   1.02574E+06,   1.01944E+06,   1.01944E+06
C:/temp/Job-1.odb,Step-1,Increment      1: Step Time =    1.000,"P-1-1",         12985,   35.1698E-03,   37.5531E-03,            0.,NA,NA,"",   1.02295E+06,   1.05548E+06,   1.05548E+06
C:/temp/Job-1.odb,Step-1,Increment      1: Step Time =    1.000,"P-1-1",         12986,   82.7743E-03,   68.7529E-03,            0.,NA,NA,"",   1.18067E+06,   1.18165E+06,   1.18165E+06
C:/temp/Job-1.odb,Step-1,Increment      1: Step Time =    1.000,"P-1-1",         12987,   93.8696E-03,   163.303E-03,            0.,NA,NA,"",   1.01374E+06,   1.03258E+06,   1.03258E+06
C:/temp/Job-1.odb,Step-1,Increment      1: Step Time =    1.000,"P-1-1",         12988,   36.9582E-03,   92.6937E-03,            0.,NA,NA,"",   826.723E+03,   895.533E+03,   895.533E+03
C:/temp/Job-1.odb,Step-1,Increment      1: Step Time =    1.000,"P-1-1",         12989,   163.224E-03,   106.385E-03,            0.,NA,NA,"",   940.359E+03,   950.709E+03,   950.709E+03
C:/temp/Job-1.odb,Step-1,Increment      1: Step Time =    1.000,"P-1-1",         12990,   52.7937E-03,   86.2904E-03,            0.,NA,NA,"",   865.523E+03,   905.557E+03,   905.557E+03
C:/temp/Job-1.odb,Step-1,Increment      1: Step Time =    1.000,"P-1-1",         12991,   53.3222E-03,   80.6038E-03,            0.,NA,NA,"",   921.356E+03,   950.881E+03,   950.881E+03
C:/temp/Job-1.odb,Step-1,Increment      1: Step Time =    1.000,"P-1-1",         12992,   52.7795E-03,   82.6166E-03,            0.,NA,NA,"",   900.879E+03,   934.862E+03,   934.862E+03
C:/temp/Job-1.odb,Step-1,Increment      1: Step Time =    1.000,"P-1-1",         12993,   106.684E-03,   37.0180E-03,            0.,NA,NA,"",   1.01351E+06,   1.03090E+06,   1.03090E+06
C:/temp/Job-1.odb,Step-1,Increment      1: Step Time =    1.000,"P-1-1",         12994,   53.8845E-03,   74.2587E-03,            0.,NA,NA,"",   977.459E+03,   997.468E+03,   997.468E+03
C:/temp/Job-1.odb,Step-1,Increment      1: Step Time =    1.000,"P-1-1",         12995,   142.417E-03,   128.947E-03,            0.,NA,NA,"",   1.07903E+06,   1.04629E+06,   1.04629E+06
C:/temp/Job-1.odb,Step-1,Increment      1: Step Time =    1.000,"P-1-1",         12996,   139.728E-03,   77.6192E-03,            0.,NA,NA,"",   1.05398E+06,   1.01841E+06,   1.01841E+06
C:/temp/Job-1.odb,Step-1,Increment      1: Step Time =    1.000,"P-1-1",         12997,   74.1344E-03,   145.182E-03,            0.,NA,NA,"",   1.09906E+06,   1.10152E+06,   1.10152E+06
C:/temp/Job-1.odb,Step-1,Increment      1: Step Time =    1.000,"P-1-1",         12998,   94.6128E-03,   62.9041E-03,            0.,NA,NA,"",   1.06089E+06,   1.12049E+06,   1.12049E+06
C:/temp/Job-1.odb,Step-1,Increment      1: Step Time =    1.000,"P-1-1",         12999,   37.7324E-03,   164.819E-03,            0.,NA,NA,"",   1.03327E+06,   1.05930E+06,   1.05930E+06
C:/temp/Job-1.odb,Step-1,Increment      1: Step Time =    1.000,"P-1-1",         13000,   135.580E-03,   133.456E-03,            0.,NA,NA,"",   1.12593E+06,   1.08765E+06,   1.08765E+06
C:/temp/Job-1.odb,Step-1,Increment      1: Step Time =    1.000,"P-1-1",         13001,   120.253E-03,   70.4860E-03,            0.,NA,NA,"",   1.21427E+06,   1.18105E+06,   1.18105E+06
C:/temp/Job-1.odb,Step-1,Increment      1: Step Time =    1.000,"P-1-1",         13002,   64.2373E-03,   164.341E-03,            0.,NA,NA,"",   1.05241E+06,   1.05640E+06,   1.05640E+06
C:/temp/Job-1.odb,Step-1,Increment      1: Step Time =    1.000,"P-1-1",         13003,   34.6440E-03,   63.6971E-03,            0.,NA,NA,"",   936.993E+03,   990.750E+03,   990.750E+03
C:/temp/Job-1.odb,Step-1,Increment      1: Step Time =    1.000,"P-1-1",         13004,   113.901E-03,   76.8391E-03,            0.,NA,NA,"",   1.30164E+06,   1.28047E+06,   1.28047E+06
C:/temp/Job-1.odb,Step-1,Increment      1: Step Time =    1.000,"P-1-1",         13005,   51.3315E-03,   96.5567E-03,            0.,NA,NA,"",   795.055E+03,   849.900E+03,   849.900E+03
C:/temp/Job-1.odb,Step-1,Increment      1: Step Time =    1.000,"P-1-1",         13006,   140.191E-03,   37.8652E-03,            0.,NA,NA,"",   1.05000E+06,   1.04003E+06,   1.04003E+06
C:/temp/Job-1.odb,Step-1,Increment      1: Step Time =    1.000,"P-1-1",         13007,   161.675E-03,   141.091E-03,            0.,NA,NA,"",   1.03540E+06,   1.02493E+06,   1.02493E+06
C:/temp/Job-1.odb,Step-1,Increment      1: Step Time =    1.000,"P-1-1",         13008,   127.690E-03,   70.3736E-03,            0.,NA,NA,"",   1.17807E+06,   1.12955E+06,   1.12955E+06
C:/temp/Job-1.odb,Step-1,Increment      1: Step Time =    1.000,"P-1-1",         13009,   163.293E-03,   111.509E-03,            0.,NA,NA,"",   953.651E+03,   961.019E+03,   961.019E+03
C:/temp/Job-1.odb,Step-1,Increment      1: Step Time =    1.000,"P-1-1",         13010,   36.7395E-03,   88.5391E-03,            0.,NA,NA,"",   839.029E+03,   906.240E+03,   906.240E+03
C:/temp/Job-1.odb,Step-1,Increment      1: Step Time =    1.000,"P-1-1",         13011,   88.2369E-03,   163.055E-03,            0.,NA,NA,"",   1.02239E+06,   1.03866E+06,   1.03866E+06
C:/temp/Job-1.odb,Step-1,Increment      1: Step Time =    1.000,"P-1-1",         13012,   114.641E-03,   36.5788E-03,            0.,NA,NA,"",   1.02401E+06,   1.03427E+06,   1.03427E+06
C:/temp/Job-1.odb,Step-1,Increment      1: Step Time =    1.000,"P-1-1",         13013,   142.209E-03,   37.9781E-03,            0.,NA,NA,"",   1.04933E+06,   1.03890E+06,   1.03890E+06
C:/temp/Job-1.odb,Step-1,Increment      1: Step Time =    1.000,"P-1-1",         13014,   161.567E-03,   143.213E-03,            0.,NA,NA,"",   1.03716E+06,   1.02649E+06,   1.02649E+06
C:/temp/Job-1.odb,Step-1,Increment      1: Step Time =    1.000,"P-1-1",         13015,   117.778E-03,   37.3673E-03,            0.,NA,NA,"",   1.03092E+06,   1.03807E+06,   1.03807E+06
C:/temp/Job-1.odb,Step-1,Increment      1: Step Time =    1.000,"P-1-1",         13016,   163.045E-03,   135.762E-03,            0.,NA,NA,"",   1.02566E+06,   1.01734E+06,   1.01734E+06
C:/temp/Job-1.odb,Step-1,Increment      1: Step Time =    1.000,"P-1-1",         13017,   136.946E-03,   36.8030E-03,            0.,NA,NA,"",   1.04783E+06,   1.03947E+06,   1.03947E+06
C:/temp/Job-1.odb,Step-1,Increment      1: Step Time =    1.000,"P-1-1",         13018,   100.306E-03,   62.0501E-03,            0.,NA,NA,"",   1.04269E+06,   1.10738E+06,   1.10738E+06
C:/temp/Job-1.odb,Step-1,Increment      1: Step Time =    1.000,"P-1-1",         13019,   52.9915E-03,   107.230E-03,            0.,NA,NA,"",   809.131E+03,   858.753E+03,   858.753E+03
C:/temp/Job-1.odb,Step-1,Increment      1: Step Time =    1.000,"P-1-1",         13020,   53.0145E-03,   116.089E-03,            0.,NA,NA,"",   889.088E+03,   924.624E+03,   924.624E+03
C:/temp/Job-1.odb,Step-1,Increment      1: Step Time =    1.000,"P-1-1",         13021,   164.341E-03,   96.1669E-03,            0.,NA,NA,"",   939.550E+03,   951.107E+03,   951.107E+03
C:/temp/Job-1.odb,Step-1,Increment      1: Step Time =    1.000,"P-1-1",         13022,   72.4417E-03,   164.945E-03,            0.,NA,NA,"",   1.04465E+06,   1.05005E+06,   1.05005E+06
C:/temp/Job-1.odb,Step-1,Increment      1: Step Time =    1.000,"P-1-1",         13023,   35.6253E-03,   156.249E-03,            0.,NA,NA,"",   1.00712E+06,   1.04445E+06,   1.04445E+06
C:/temp/Job-1.odb,Step-1,Increment      1: Step Time =    1.000,"P-1-1",         13024,   35.2965E-03,   72.2995E-03,            0.,NA,NA,"",   903.977E+03,   962.366E+03,   962.366E+03
C:/temp/Job-1.odb,Step-1,Increment      1: Step Time =    1.000,"P-1-1",         13025,   156.372E-03,   164.064E-03,            0.,NA,NA,"",   1.03282E+06,   1.02458E+06,   1.02458E+06
C:/temp/Job-1.odb,Step-1,Increment      1: Step Time =    1.000,"P-1-1",         13026,   44.0264E-03,   35.2087E-03,            0.,NA,NA,"",   1.04215E+06,   1.05932E+06,   1.05932E+06
C:/temp/Job-1.odb,Step-1,Increment      1: Step Time =    1.000,"P-1-1",         13027,   165.229E-03,   43.9030E-03,            0.,NA,NA,"",   1.02882E+06,   1.02180E+06,   1.02180E+06
C:/temp/Job-1.odb,Step-1,Increment      1: Step Time =    1.000,"P-1-1",         13028,   164.536E-03,   84.8713E-03,            0.,NA,NA,"",   966.443E+03,   971.776E+03,   971.776E+03
C:/temp/Job-1.odb,Step-1,Increment      1: Step Time =    1.000,"P-1-1",         13029,   119.795E-03,   145.720E-03,            0.,NA,NA,"",   1.09388E+06,   1.09596E+06,   1.09596E+06
C:/temp/Job-1.odb,Step-1,Increment      1: Step Time =    1.000,"P-1-1",         13030,   63.0027E-03,   136.471E-03,            0.,NA,NA,"",   1.08271E+06,   1.07964E+06,   1.07964E+06
C:/temp/Job-1.odb,Step-1,Increment      1: Step Time =    1.000,"P-1-1",         13031,   128.439E-03,   141.043E-03,            0.,NA,NA,"",   1.12804E+06,   1.10525E+06,   1.10525E+06
C:/temp/Job-1.odb,Step-1,Increment      1: Step Time =    1.000,"P-1-1",         13032,   165.965E-03,   127.076E-03,            0.,NA,NA,"",   1.00195E+06,   1.00018E+06,   1.00018E+06
C:/temp/Job-1.odb,Step-1,Increment      1: Step Time =    1.000,"P-1-1",         13033,   127.839E-03,   33.7630E-03,            0.,NA,NA,"",   1.03479E+06,   1.03281E+06,   1.03281E+06
C:/temp/Job-1.odb,Step-1,Increment      1: Step Time =    1.000,"P-1-1",         13034,   123.091E-03,   75.8087E-03,            0.,NA,NA,"",   1.23287E+06,   1.16662E+06,   1.16662E+06
C:/temp/Job-1.odb,Step-1,Increment      1: Step Time =    1.000,"P-1-1",         13035,   102.987E-03,   67.1513E-03,            0.,NA,NA,"",   1.06963E+06,   1.14663E+06,   1.14663E+06
C:/temp/Job-1.odb,Step-1,Increment      1: Step Time =    1.000,"P-1-1",         13036,   161.848E-03,   114.661E-03,            0.,NA,NA,"",   962.457E+03,   966.579E+03,   966.579E+03
C:/temp/Job-1.odb,Step-1,Increment      1: Step Time =    1.000,"P-1-1",         13037,   37.7622E-03,   86.7197E-03,            0.,NA,NA,"",   846.737E+03,   911.496E+03,   911.496E+03
C:/temp/Job-1.odb,Step-1,Increment      1: Step Time =    1.000,"P-1-1",         13038,   84.9406E-03,   162.003E-03,            0.,NA,NA,"",   1.03069E+06,   1.04521E+06,   1.04521E+06
C:/temp/Job-1.odb,Step-1,Increment      1: Step Time =    1.000,"P-1-1",         13039,   86.3215E-03,   149.008E-03,            0.,NA,NA,"",   1.05742E+06,   1.08160E+06,   1.08160E+06
C:/temp/Job-1.odb,Step-1,Increment      1: Step Time =    1.000,"P-1-1",         13040,   51.6124E-03,   103.362E-03,            0.,NA,NA,"",    793.53E+03,   848.233E+03,   848.233E+03
C:/temp/Job-1.odb,Step-1,Increment      1: Step Time =    1.000,"P-1-1",         13041,   166.322E-03,   98.6105E-03,            0.,NA,NA,"",   942.775E+03,   955.311E+03,   955.311E+03
C:/temp/Job-1.odb,Step-1,Increment      1: Step Time =    1.000,"P-1-1",         13042,   161.796E-03,   51.7614E-03,            0.,NA,NA,"",   1.03750E+06,   1.02740E+06,   1.02740E+06
C:/temp/Job-1.odb,Step-1,Increment      1: Step Time =    1.000,"P-1-1",         13043,   52.4397E-03,   38.0881E-03,            0.,NA,NA,"",   1.05081E+06,   1.06068E+06,   1.06068E+06
C:/temp/Job-1.odb,Step-1,Increment      1: Step Time =    1.000,"P-1-1",         13044,   148.112E-03,   162.360E-03,            0.,NA,NA,"",   1.04404E+06,   1.03362E+06,   1.03362E+06
C:/temp/Job-1.odb,Step-1,Increment      1: Step Time =    1.000,"P-1-1",         13045,   38.2584E-03,   148.655E-03,            0.,NA,NA,"",   995.059E+03,   1.03301E+06,   1.03301E+06
C:/temp/Job-1.odb,Step-1,Increment      1: Step Time =    1.000,"P-1-1",         13046,   87.6795E-03,   148.601E-03,            0.,NA,NA,"",   1.05379E+06,   1.08077E+06,   1.08077E+06
C:/temp/Job-1.odb,Step-1,Increment      1: Step Time =    1.000,"P-1-1",         13047,   130.648E-03,   166.284E-03,            0.,NA,NA,"",   1.03699E+06,   1.03314E+06,   1.03314E+06
C:/temp/Job-1.odb,Step-1,Increment      1: Step Time =    1.000,"P-1-1",         13048,   33.0429E-03,   129.949E-03,            0.,NA,NA,"",   905.702E+03,   966.614E+03,   966.614E+03
C:/temp/Job-1.odb,Step-1,Increment      1: Step Time =    1.000,"P-1-1",         13049,   81.9980E-03,   148.655E-03,            0.,NA,NA,"",   1.07248E+06,   1.08861E+06,   1.08861E+06
C:/temp/Job-1.odb,Step-1,Increment      1: Step Time =    1.000,"P-1-1",         13050,   66.8841E-03,   163.124E-03,            0.,NA,NA,"",   1.05355E+06,   1.05770E+06,   1.05770E+06
C:/temp/Job-1.odb,Step-1,Increment      1: Step Time =    1.000,"P-1-1",         13051,   36.1508E-03,   67.6726E-03,            0.,NA,NA,"",   927.390E+03,   980.909E+03,   980.909E+03
C:/temp/Job-1.odb,Step-1,Increment      1: Step Time =    1.000,"P-1-1",         13052,   59.8002E-03,   131.432E-03,            0.,NA,NA,"",   1.04952E+06,   1.05125E+06,   1.05125E+06
C:/temp/Job-1.odb,Step-1,Increment      1: Step Time =    1.000,"P-1-1",         13053,   110.251E-03,   34.9312E-03,            0.,NA,NA,"",   1.01442E+06,   1.02760E+06,   1.02760E+06
C:/temp/Job-1.odb,Step-1,Increment      1: Step Time =    1.000,"P-1-1",         13054,   131.487E-03,   74.2404E-03,            0.,NA,NA,"",   1.14550E+06,   1.09113E+06,   1.09113E+06
C:/temp/Job-1.odb,Step-1,Increment      1: Step Time =    1.000,"P-1-1",         13055,   39.3454E-03,   165.454E-03,            0.,NA,NA,"",   1.03699E+06,   1.05992E+06,   1.05992E+06
C:/temp/Job-1.odb,Step-1,Increment      1: Step Time =    1.000,"P-1-1",         13056,   162.740E-03,   49.0540E-03,            0.,NA,NA,"",   1.03515E+06,   1.02602E+06,   1.02602E+06
C:/temp/Job-1.odb,Step-1,Increment      1: Step Time =    1.000,"P-1-1",         13057,   49.5659E-03,   36.3805E-03,            0.,NA,NA,"",   1.04773E+06,   1.05953E+06,   1.05953E+06
C:/temp/Job-1.odb,Step-1,Increment      1: Step Time =    1.000,"P-1-1",         13058,   150.134E-03,   163.483E-03,            0.,NA,NA,"",   1.03996E+06,   1.03030E+06,   1.03030E+06
C:/temp/Job-1.odb,Step-1,Increment      1: Step Time =    1.000,"P-1-1",         13059,   68.6479E-03,   63.6194E-03,            0.,NA,NA,"",   1.11390E+06,   1.10427E+06,   1.10427E+06
C:/temp/Job-1.odb,Step-1,Increment      1: Step Time =    1.000,"P-1-1",         13060,   36.6922E-03,   151.112E-03,            0.,NA,NA,"",   996.430E+03,   1.03568E+06,   1.03568E+06
C:/temp/Job-1.odb,Step-1,Increment      1: Step Time =    1.000,"P-1-1",         13061,   164.674E-03,   86.7029E-03,            0.,NA,NA,"",   960.653E+03,   967.457E+03,   967.457E+03
C:/temp/Job-1.odb,Step-1,Increment      1: Step Time =    1.000,"P-1-1",         13062,   35.4948E-03,   115.514E-03,            0.,NA,NA,"",   852.160E+03,   918.688E+03,   918.688E+03
C:/temp/Job-1.odb,Step-1,Increment      1: Step Time =    1.000,"P-1-1",         13063,   143.720E-03,   87.3972E-03,            0.,NA,NA,"",   929.245E+03,   920.723E+03,   920.723E+03
C:/temp/Job-1.odb,Step-1,Increment      1: Step Time =    1.000,"P-1-1",         13064,   165.022E-03,   156.063E-03,            0.,NA,NA,"",   1.02896E+06,   1.02189E+06,   1.02189E+06
C:/temp/Job-1.odb,Step-1,Increment      1: Step Time =    1.000,"P-1-1",         13065,   155.948E-03,   34.3882E-03,            0.,NA,NA,"",   1.03093E+06,   1.02317E+06,   1.02317E+06
C:/temp/Job-1.odb,Step-1,Increment      1: Step Time =    1.000,"P-1-1",         13066,   138.124E-03,   37.8632E-03,            0.,NA,NA,"",   1.05057E+06,   1.04120E+06,   1.04120E+06
C:/temp/Job-1.odb,Step-1,Increment      1: Step Time =    1.000,"P-1-1",         13067,   162.937E-03,   137.603E-03,            0.,NA,NA,"",   1.02869E+06,   1.01983E+06,   1.01983E+06
C:/temp/Job-1.odb,Step-1,Increment      1: Step Time =    1.000,"P-1-1",         13068,   164.863E-03,   68.1034E-03,            0.,NA,NA,"",   1.01501E+06,   1.00975E+06,   1.00975E+06
C:/temp/Job-1.odb,Step-1,Increment      1: Step Time =    1.000,"P-1-1",         13069,   68.5987E-03,   35.8209E-03,            0.,NA,NA,"",   1.05022E+06,   1.05456E+06,   1.05456E+06
C:/temp/Job-1.odb,Step-1,Increment      1: Step Time =    1.000,"P-1-1",         13070,   35.8174E-03,   133.872E-03,            0.,NA,NA,"",   932.292E+03,   985.419E+03,   985.419E+03
C:/temp/Job-1.odb,Step-1,Increment      1: Step Time =    1.000,"P-1-1",         13071,   55.4765E-03,   164.991E-03,            0.,NA,NA,"",   1.05125E+06,   1.05796E+06,   1.05796E+06
C:/temp/Job-1.odb,Step-1,Increment      1: Step Time =    1.000,"P-1-1",         13072,   134.414E-03,   165.670E-03,            0.,NA,NA,"",   1.04052E+06,   1.03442E+06,   1.03442E+06
C:/temp/Job-1.odb,Step-1,Increment      1: Step Time =    1.000,"P-1-1",         13073,   35.9908E-03,   56.9521E-03,            0.,NA,NA,"",   967.758E+03,   1.01410E+06,   1.01410E+06
C:/temp/Job-1.odb,Step-1,Increment      1: Step Time =    1.000,"P-1-1",         13074,   163.837E-03,   73.3056E-03,            0.,NA,NA,"",   1.00384E+06,   1.00031E+06,   1.00031E+06
C:/temp/Job-1.odb,Step-1,Increment      1: Step Time =    1.000,"P-1-1",         13075,   73.1467E-03,   35.9351E-03,            0.,NA,NA,"",   1.04590E+06,   1.05174E+06,   1.05174E+06
C:/temp/Job-1.odb,Step-1,Increment      1: Step Time =    1.000,"P-1-1",         13076,   165.169E-03,   66.2223E-03,            0.,NA,NA,"",   1.01807E+06,   1.01237E+06,   1.01237E+06
C:/temp/Job-1.odb,Step-1,Increment      1: Step Time =    1.000,"P-1-1",         13077,   66.9684E-03,   34.8545E-03,            0.,NA,NA,"",   1.04938E+06,   1.05339E+06,   1.05339E+06
C:/temp/Job-1.odb,Step-1,Increment      1: Step Time =    1.000,"P-1-1",         13078,   161.568E-03,   117.370E-03,            0.,NA,NA,"",   972.504E+03,   974.141E+03,   974.141E+03
C:/temp/Job-1.odb,Step-1,Increment      1: Step Time =    1.000,"P-1-1",         13079,   37.7805E-03,   82.7020E-03,            0.,NA,NA,"",   863.718E+03,   925.679E+03,   925.679E+03
C:/temp/Job-1.odb,Step-1,Increment      1: Step Time =    1.000,"P-1-1",         13080,   82.1934E-03,   162.197E-03,            0.,NA,NA,"",   1.03557E+06,   1.04777E+06,   1.04777E+06
C:/temp/Job-1.odb,Step-1,Increment      1: Step Time =    1.000,"P-1-1",         13081,   132.088E-03,   166.025E-03,            0.,NA,NA,"",   1.03855E+06,   1.03376E+06,   1.03376E+06
C:/temp/Job-1.odb,Step-1,Increment      1: Step Time =    1.000,"P-1-1",         13082,   33.9710E-03,   131.315E-03,            0.,NA,NA,"",   914.517E+03,   972.922E+03,   972.922E+03
C:/temp/Job-1.odb,Step-1,Increment      1: Step Time =    1.000,"P-1-1",         13083,   87.8113E-03,   61.7349E-03,            0.,NA,NA,"",   1.09799E+06,   1.13070E+06,   1.13070E+06
C:/temp/Job-1.odb,Step-1,Increment      1: Step Time =    1.000,"P-1-1",         13084,   58.4775E-03,   128.418E-03,            0.,NA,NA,"",   1.02587E+06,   1.03156E+06,   1.03156E+06
C:/temp/Job-1.odb,Step-1,Increment      1: Step Time =    1.000,"P-1-1",         13085,   95.9508E-03,   34.3795E-03,            0.,NA,NA,"",   1.00880E+06,   1.02606E+06,   1.02606E+06
C:/temp/Job-1.odb,Step-1,Increment      1: Step Time =    1.000,"P-1-1",         13086,   159.838E-03,   35.0723E-03,            0.,NA,NA,"",   1.02816E+06,   1.02109E+06,   1.02109E+06
C:/temp/Job-1.odb,Step-1,Increment      1: Step Time =    1.000,"P-1-1",         13087,   34.0013E-03,   104.702E-03,            0.,NA,NA,"",   821.202E+03,   894.092E+03,   894.092E+03
C:/temp/Job-1.odb,Step-1,Increment      1: Step Time =    1.000,"P-1-1",         13088,   104.179E-03,   165.482E-03,            0.,NA,NA,"",   1.00815E+06,   1.02472E+06,   1.02472E+06
C:/temp/Job-1.odb,Step-1,Increment      1: Step Time =    1.000,"P-1-1",         13089,   161.942E-03,   108.227E-03,            0.,NA,NA,"",   941.369E+03,   950.399E+03,   950.399E+03
C:/temp/Job-1.odb,Step-1,Increment      1: Step Time =    1.000,"P-1-1",         13090,   37.7718E-03,   91.3742E-03,            0.,NA,NA,"",   830.313E+03,   897.634E+03,   897.634E+03
C:/temp/Job-1.odb,Step-1,Increment      1: Step Time =    1.000,"P-1-1",         13091,   91.7693E-03,   163.546E-03,            0.,NA,NA,"",   1.01607E+06,   1.03383E+06,   1.03383E+06
C:/temp/Job-1.odb,Step-1,Increment      1: Step Time =    1.000,"P-1-1",         13092,   162.969E-03,   90.3567E-03,            0.,NA,NA,"",   947.221E+03,   955.752E+03,   955.752E+03
C:/temp/Job-1.odb,Step-1,Increment      1: Step Time =    1.000,"P-1-1",         13093,   97.9113E-03,   33.8214E-03,            0.,NA,NA,"",   1.00698E+06,   1.02386E+06,   1.02386E+06
C:/temp/Job-1.odb,Step-1,Increment      1: Step Time =    1.000,"P-1-1",         13094,   34.8571E-03,   101.617E-03,            0.,NA,NA,"",   818.408E+03,   890.780E+03,   890.780E+03
C:/temp/Job-1.odb,Step-1,Increment      1: Step Time =    1.000,"P-1-1",         13095,   101.693E-03,   165.591E-03,            0.,NA,NA,"",   1.00731E+06,   1.02424E+06,   1.02424E+06
C:/temp/Job-1.odb,Step-1,Increment      1: Step Time =    1.000,"P-1-1",         13096,   85.5850E-03,   61.3314E-03,            0.,NA,NA,"",   1.10705E+06,   1.13156E+06,   1.13156E+06
C:/temp/Job-1.odb,Step-1,Increment      1: Step Time =    1.000,"P-1-1",         13097,   63.2788E-03,   63.2499E-03,            0.,NA,NA,"",   1.08439E+06,   1.08101E+06,   1.08101E+06
C:/temp/Job-1.odb,Step-1,Increment      1: Step Time =    1.000,"P-1-1",         13098,   109.958E-03,   147.821E-03,            0.,NA,NA,"",   1.04829E+06,   1.07610E+06,   1.07610E+06
C:/temp/Job-1.odb,Step-1,Increment      1: Step Time =    1.000,"P-1-1",         13099,   61.4260E-03,   165.197E-03,            0.,NA,NA,"",   1.05164E+06,   1.05594E+06,   1.05594E+06
C:/temp/Job-1.odb,Step-1,Increment      1: Step Time =    1.000,"P-1-1",         13100,   35.9000E-03,   61.9267E-03,            0.,NA,NA,"",   949.053E+03,   999.195E+03,   999.195E+03
C:/temp/Job-1.odb,Step-1,Increment      1: Step Time =    1.000,"P-1-1",         13101,   75.9801E-03,   149.062E-03,            0.,NA,NA,"",   1.08356E+06,   1.09050E+06,   1.09050E+06
C:/temp/Job-1.odb,Step-1,Increment      1: Step Time =    1.000,"P-1-1",         13102,   123.005E-03,   72.0223E-03,            0.,NA,NA,"",   1.21562E+06,   1.16736E+06,   1.16736E+06
C:/temp/Job-1.odb,Step-1,Increment      1: Step Time =    1.000,"P-1-1",         13103,   141.297E-03,   80.6600E-03,            0.,NA,NA,"",   1.01496E+06,   987.011E+03,   987.011E+03
C:/temp/Job-1.odb,Step-1,Increment      1: Step Time =    1.000,"P-1-1",         13104,   74.6535E-03,   66.0829E-03,            0.,NA,NA,"",   1.14897E+06,   1.13533E+06,   1.13533E+06
C:/temp/Job-1.odb,Step-1,Increment      1: Step Time =    1.000,"P-1-1",         13105,   77.4006E-03,   163.555E-03,            0.,NA,NA,"",   1.04063E+06,   1.04885E+06,   1.04885E+06
C:/temp/Job-1.odb,Step-1,Increment      1: Step Time =    1.000,"P-1-1",         13106,   36.5052E-03,   77.4271E-03,            0.,NA,NA,"",   885.231E+03,   945.308E+03,   945.308E+03
C:/temp/Job-1.odb,Step-1,Increment      1: Step Time =    1.000,"P-1-1",         13107,   164.251E-03,   123.087E-03,            0.,NA,NA,"",   992.145E+03,   991.389E+03,   991.389E+03
C:/temp/Job-1.odb,Step-1,Increment      1: Step Time =    1.000,"P-1-1",         13108,   123.590E-03,   35.9800E-03,            0.,NA,NA,"",   1.03624E+06,   1.03743E+06,   1.03743E+06
C:/temp/Job-1.odb,Step-1,Increment      1: Step Time =    1.000,"P-1-1",         13109,   116.801E-03,   71.5784E-03,            0.,NA,NA,"",   1.22595E+06,   1.20746E+06,   1.20746E+06
C:/temp/Job-1.odb,Step-1,Increment      1: Step Time =    1.000,"P-1-1",         13110,   51.5070E-03,   110.018E-03,            0.,NA,NA,"",   832.669E+03,   880.692E+03,   880.692E+03
C:/temp/Job-1.odb,Step-1,Increment      1: Step Time =    1.000,"P-1-1",         13111,   166.683E-03,   99.9869E-03,            0.,NA,NA,"",   943.085E+03,   955.805E+03,   955.805E+03
C:/temp/Job-1.odb,Step-1,Increment      1: Step Time =    1.000,"P-1-1",         13112,   51.5573E-03,   100.292E-03,            0.,NA,NA,"",   788.678E+03,   844.361E+03,   844.361E+03
C:/temp/Job-1.odb,Step-1,Increment      1: Step Time =    1.000,"P-1-1",         13113,   53.2403E-03,   89.5975E-03,            0.,NA,NA,"",   834.481E+03,   879.069E+03,   879.069E+03
C:/temp/Job-1.odb,Step-1,Increment      1: Step Time =    1.000,"P-1-1",         13114,   74.6076E-03,   163.407E-03,            0.,NA,NA,"",   1.04546E+06,   1.05215E+06,   1.05215E+06
C:/temp/Job-1.odb,Step-1,Increment      1: Step Time =    1.000,"P-1-1",         13115,   37.4664E-03,   159.693E-03,            0.,NA,NA,"",   1.02139E+06,   1.05247E+06,   1.05247E+06
C:/temp/Job-1.odb,Step-1,Increment      1: Step Time =    1.000,"P-1-1",         13116,   37.4868E-03,   74.6038E-03,            0.,NA,NA,"",   901.145E+03,   957.427E+03,   957.427E+03
C:/temp/Job-1.odb,Step-1,Increment      1: Step Time =    1.000,"P-1-1",         13117,   159.325E-03,   163.833E-03,            0.,NA,NA,"",   1.02980E+06,   1.02232E+06,   1.02232E+06
C:/temp/Job-1.odb,Step-1,Increment      1: Step Time =    1.000,"P-1-1",         13118,   40.4899E-03,   35.4903E-03,            0.,NA,NA,"",   1.03691E+06,   1.05920E+06,   1.05920E+06
C:/temp/Job-1.odb,Step-1,Increment      1: Step Time =    1.000,"P-1-1",         13119,   163.131E-03,   41.6965E-03,            0.,NA,NA,"",   1.03034E+06,   1.02280E+06,   1.02280E+06
C:/temp/Job-1.odb,Step-1,Increment      1: Step Time =    1.000,"P-1-1",         13120,   165.410E-03,   144.112E-03,            0.,NA,NA,"",   1.02936E+06,   1.02172E+06,   1.02172E+06
C:/temp/Job-1.odb,Step-1,Increment      1: Step Time =    1.000,"P-1-1",         13121,   144.420E-03,   33.9971E-03,            0.,NA,NA,"",   1.03890E+06,   1.03029E+06,   1.03029E+06
C:/temp/Job-1.odb,Step-1,Increment      1: Step Time =    1.000,"P-1-1",         13122,   118.960E-03,   33.1562E-03,            0.,NA,NA,"",   1.02270E+06,   1.02787E+06,   1.02787E+06
C:/temp/Job-1.odb,Step-1,Increment      1: Step Time =    1.000,"P-1-1",         13123,   113.495E-03,   164.571E-03,            0.,NA,NA,"",   1.01983E+06,   1.03050E+06,   1.03050E+06
C:/temp/Job-1.odb,Step-1,Increment      1: Step Time =    1.000,"P-1-1",         13124,   35.5278E-03,   112.152E-03,            0.,NA,NA,"",   839.949E+03,   908.433E+03,   908.433E+03
C:/temp/Job-1.odb,Step-1,Increment      1: Step Time =    1.000,"P-1-1",         13125,   108.151E-03,   149.974E-03,            0.,NA,NA,"",   1.03730E+06,   1.06650E+06,   1.06650E+06
C:/temp/Job-1.odb,Step-1,Increment      1: Step Time =    1.000,"P-1-1",         13126,   150.010E-03,   96.8848E-03,            0.,NA,NA,"",   881.245E+03,   891.715E+03,   891.715E+03
C:/temp/Job-1.odb,Step-1,Increment      1: Step Time =    1.000,"P-1-1",         13127,   51.3050E-03,   113.385E-03,            0.,NA,NA,"",   860.631E+03,   904.091E+03,   904.091E+03
C:/temp/Job-1.odb,Step-1,Increment      1: Step Time =    1.000,"P-1-1",         13128,   116.980E-03,   164.050E-03,            0.,NA,NA,"",   1.02629E+06,   1.03395E+06,   1.03395E+06
C:/temp/Job-1.odb,Step-1,Increment      1: Step Time =    1.000,"P-1-1",         13129,   36.5804E-03,   161.944E-03,            0.,NA,NA,"",   1.02461E+06,   1.05522E+06,   1.05522E+06
C:/temp/Job-1.odb,Step-1,Increment      1: Step Time =    1.000,"P-1-1",         13130,   92.6547E-03,   60.6851E-03,            0.,NA,NA,"",   1.06265E+06,   1.11208E+06,   1.11208E+06
C:/temp/Job-1.odb,Step-1,Increment      1: Step Time =    1.000,"P-1-1",         13131,   162.833E-03,   162.890E-03,            0.,NA,NA,"",   1.02679E+06,   1.02017E+06,   1.02017E+06
C:/temp/Job-1.odb,Step-1,Increment      1: Step Time =    1.000,"P-1-1",         13132,   36.6498E-03,   36.5365E-03,            0.,NA,NA,"",   1.02788E+06,   1.05718E+06,   1.05718E+06
C:/temp/Job-1.odb,Step-1,Increment      1: Step Time =    1.000,"P-1-1",         13133,   163.097E-03,   128.958E-03,            0.,NA,NA,"",   1.01075E+06,   1.00529E+06,   1.00529E+06
C:/temp/Job-1.odb,Step-1,Increment      1: Step Time =    1.000,"P-1-1",         13134,   129.116E-03,   36.9937E-03,            0.,NA,NA,"",   1.04500E+06,   1.04125E+06,   1.04125E+06
C:/temp/Job-1.odb,Step-1,Increment      1: Step Time =    1.000,"P-1-1",         13135,   103.469E-03,   63.4434E-03,            0.,NA,NA,"",   1.05432E+06,   1.11844E+06,   1.11844E+06
C:/temp/Job-1.odb,Step-1,Increment      1: Step Time =    1.000,"P-1-1",         13136,   162.911E-03,   93.6314E-03,            0.,NA,NA,"",   939.489E+03,   949.798E+03,   949.798E+03
C:/temp/Job-1.odb,Step-1,Increment      1: Step Time =    1.000,"P-1-1",         13137,   114.655E-03,   72.7865E-03,            0.,NA,NA,"",   1.23620E+06,   1.22935E+06,   1.22935E+06
C:/temp/Job-1.odb,Step-1,Increment      1: Step Time =    1.000,"P-1-1",         13138,   149.365E-03,   95.3916E-03,            0.,NA,NA,"",   883.305E+03,   892.551E+03,   892.551E+03
C:/temp/Job-1.odb,Step-1,Increment      1: Step Time =    1.000,"P-1-1",         13139,   53.5972E-03,   94.3624E-03,            0.,NA,NA,"",   796.348E+03,   847.136E+03,   847.136E+03
C:/temp/Job-1.odb,Step-1,Increment      1: Step Time =    1.000,"P-1-1",         13140,   87.8264E-03,   36.0020E-03,            0.,NA,NA,"",   1.02146E+06,   1.03670E+06,   1.03670E+06
C:/temp/Job-1.odb,Step-1,Increment      1: Step Time =    1.000,"P-1-1",         13141,   54.4103E-03,   163.191E-03,            0.,NA,NA,"",   1.05205E+06,   1.05996E+06,   1.05996E+06
C:/temp/Job-1.odb,Step-1,Increment      1: Step Time =    1.000,"P-1-1",         13142,   36.7075E-03,   54.3935E-03,            0.,NA,NA,"",   979.342E+03,   1.02255E+06,   1.02255E+06
C:/temp/Job-1.odb,Step-1,Increment      1: Step Time =    1.000,"P-1-1",         13143,   76.6296E-03,   65.3568E-03,            0.,NA,NA,"",   1.15108E+06,   1.14158E+06,   1.14158E+06
C:/temp/Job-1.odb,Step-1,Increment      1: Step Time =    1.000,"P-1-1",         13144,   65.7858E-03,   140.131E-03,            0.,NA,NA,"",   1.09595E+06,   1.09218E+06,   1.09218E+06
C:/temp/Job-1.odb,Step-1,Increment      1: Step Time =    1.000,"P-1-1",         13145,   37.5139E-03,   136.466E-03,            0.,NA,NA,"",   949.961E+03,   997.889E+03,   997.889E+03
C:/temp/Job-1.odb,Step-1,Increment      1: Step Time =    1.000,"P-1-1",         13146,   137.784E-03,   163.594E-03,            0.,NA,NA,"",   1.04657E+06,   1.03809E+06,   1.03809E+06
C:/temp/Job-1.odb,Step-1,Increment      1: Step Time =    1.000,"P-1-1",         13147,   163.641E-03,   70.5747E-03,            0.,NA,NA,"",   1.01127E+06,   1.00604E+06,   1.00604E+06
C:/temp/Job-1.odb,Step-1,Increment      1: Step Time =    1.000,"P-1-1",         13148,   71.1212E-03,   37.6337E-03,            0.,NA,NA,"",   1.05187E+06,   1.05710E+06,   1.05710E+06
C:/temp/Job-1.odb,Step-1,Increment      1: Step Time =    1.000,"P-1-1",         13149,   117.024E-03,   143.984E-03,            0.,NA,NA,"",   1.09281E+06,   1.10217E+06,   1.10217E+06
C:/temp/Job-1.odb,Step-1,Increment      1: Step Time =    1.000,"P-1-1",         13150,   163.346E-03,   63.8564E-03,            0.,NA,NA,"",   1.02564E+06,   1.01753E+06,   1.01753E+06
C:/temp/Job-1.odb,Step-1,Increment      1: Step Time =    1.000,"P-1-1",         13151,   64.7567E-03,   36.8330E-03,            0.,NA,NA,"",   1.05445E+06,   1.05854E+06,   1.05854E+06
C:/temp/Job-1.odb,Step-1,Increment      1: Step Time =    1.000,"P-1-1",         13152,   103.082E-03,   33.7064E-03,            0.,NA,NA,"",   1.00660E+06,   1.02265E+06,   1.02265E+06
C:/temp/Job-1.odb,Step-1,Increment      1: Step Time =    1.000,"P-1-1",         13153,   105.999E-03,   150.146E-03,            0.,NA,NA,"",   1.03118E+06,   1.06361E+06,   1.06361E+06
C:/temp/Job-1.odb,Step-1,Increment      1: Step Time =    1.000,"P-1-1",         13154,   33.8538E-03,   96.9794E-03,            0.,NA,NA,"",   819.282E+03,   892.581E+03,   892.581E+03
C:/temp/Job-1.odb,Step-1,Increment      1: Step Time =    1.000,"P-1-1",         13155,   165.718E-03,   101.793E-03,            0.,NA,NA,"",   941.024E+03,   953.387E+03,   953.387E+03
C:/temp/Job-1.odb,Step-1,Increment      1: Step Time =    1.000,"P-1-1",         13156,   98.4753E-03,   165.125E-03,            0.,NA,NA,"",   1.00811E+06,   1.02609E+06,   1.02609E+06
C:/temp/Job-1.odb,Step-1,Increment      1: Step Time =    1.000,"P-1-1",         13157,   47.9513E-03,   163.392E-03,            0.,NA,NA,"",   1.04591E+06,   1.05944E+06,   1.05944E+06
C:/temp/Job-1.odb,Step-1,Increment      1: Step Time =    1.000,"P-1-1",         13158,   36.2779E-03,   47.2697E-03,            0.,NA,NA,"",   999.515E+03,   1.03837E+06,   1.03837E+06
C:/temp/Job-1.odb,Step-1,Increment      1: Step Time =    1.000,"P-1-1",         13159,   142.867E-03,   82.1822E-03,            0.,NA,NA,"",   991.151E+03,   969.655E+03,   969.655E+03
C:/temp/Job-1.odb,Step-1,Increment      1: Step Time =    1.000,"P-1-1",         13160,   133.261E-03,   139.089E-03,            0.,NA,NA,"",   1.12559E+06,   1.09554E+06,   1.09554E+06
C:/temp/Job-1.odb,Step-1,Increment      1: Step Time =    1.000,"P-1-1",         13161,   163.796E-03,   153.211E-03,            0.,NA,NA,"",   1.03229E+06,   1.02416E+06,   1.02416E+06
C:/temp/Job-1.odb,Step-1,Increment      1: Step Time =    1.000,"P-1-1",         13162,   152.193E-03,   36.3488E-03,            0.,NA,NA,"",   1.03797E+06,   1.02864E+06,   1.02864E+06
C:/temp/Job-1.odb,Step-1,Increment      1: Step Time =    1.000,"P-1-1",         13163,   36.7992E-03,   40.8471E-03,            0.,NA,NA,"",   1.01861E+06,   1.05119E+06,   1.05119E+06
C:/temp/Job-1.odb,Step-1,Increment      1: Step Time =    1.000,"P-1-1",         13164,   163.591E-03,   159.743E-03,            0.,NA,NA,"",   1.02860E+06,   1.02156E+06,   1.02156E+06
C:/temp/Job-1.odb,Step-1,Increment      1: Step Time =    1.000,"P-1-1",         13165,   84.1794E-03,   35.4408E-03,            0.,NA,NA,"",   1.02676E+06,   1.03924E+06,   1.03924E+06
C:/temp/Job-1.odb,Step-1,Increment      1: Step Time =    1.000,"P-1-1",         13166,   163.524E-03,   82.2788E-03,            0.,NA,NA,"",   974.485E+03,   977.194E+03,   977.194E+03
C:/temp/Job-1.odb,Step-1,Increment      1: Step Time =    1.000,"P-1-1",         13167,   162.199E-03,   146.272E-03,            0.,NA,NA,"",   1.03675E+06,   1.02670E+06,   1.02670E+06
C:/temp/Job-1.odb,Step-1,Increment      1: Step Time =    1.000,"P-1-1",         13168,   146.527E-03,   36.4478E-03,            0.,NA,NA,"",   1.04297E+06,   1.03307E+06,   1.03307E+06
C:/temp/Job-1.odb,Step-1,Increment      1: Step Time =    1.000,"P-1-1",         13169,   37.3161E-03,   61.7055E-03,            0.,NA,NA,"",   955.768E+03,   1.00287E+06,   1.00287E+06
C:/temp/Job-1.odb,Step-1,Increment      1: Step Time =    1.000,"P-1-1",         13170,   60.5692E-03,   164.133E-03,            0.,NA,NA,"",   1.05343E+06,   1.05810E+06,   1.05810E+06
C:/temp/Job-1.odb,Step-1,Increment      1: Step Time =    1.000,"P-1-1",         13171,   163.772E-03,   77.3771E-03,            0.,NA,NA,"",   991.197E+03,   990.352E+03,   990.352E+03
C:/temp/Job-1.odb,Step-1,Increment      1: Step Time =    1.000,"P-1-1",         13172,   77.2776E-03,   36.7273E-03,            0.,NA,NA,"",   1.04174E+06,   1.05004E+06,   1.05004E+06
C:/temp/Job-1.odb,Step-1,Increment      1: Step Time =    1.000,"P-1-1",         13173,   164.012E-03,   66.9955E-03,            0.,NA,NA,"",   1.01876E+06,   1.01228E+06,   1.01228E+06
C:/temp/Job-1.odb,Step-1,Increment      1: Step Time =    1.000,"P-1-1",         13174,   67.5648E-03,   37.4613E-03,            0.,NA,NA,"",   1.05450E+06,   1.05875E+06,   1.05875E+06
C:/temp/Job-1.odb,Step-1,Increment      1: Step Time =    1.000,"P-1-1",         13175,   74.8409E-03,   35.3825E-03,            0.,NA,NA,"",   1.04222E+06,   1.04878E+06,   1.04878E+06
C:/temp/Job-1.odb,Step-1,Increment      1: Step Time =    1.000,"P-1-1",         13176,   164.405E-03,   74.5233E-03,            0.,NA,NA,"",   999.611E+03,   997.344E+03,   997.344E+03
C:/temp/Job-1.odb,Step-1,Increment      1: Step Time =    1.000,"P-1-1",         13177,   148.388E-03,   90.2880E-03,            0.,NA,NA,"",   911.029E+03,   913.041E+03,   913.041E+03
C:/temp/Job-1.odb,Step-1,Increment      1: Step Time =    1.000,"P-1-1",         13178,   98.1825E-03,   163.668E-03,            0.,NA,NA,"",   1.01008E+06,   1.02946E+06,   1.02946E+06
C:/temp/Job-1.odb,Step-1,Increment      1: Step Time =    1.000,"P-1-1",         13179,   164.277E-03,   102.296E-03,            0.,NA,NA,"",   937.672E+03,   949.591E+03,   949.591E+03
C:/temp/Job-1.odb,Step-1,Increment      1: Step Time =    1.000,"P-1-1",         13180,   35.3087E-03,   97.2501E-03,            0.,NA,NA,"",   819.332E+03,   891.108E+03,   891.108E+03
C:/temp/Job-1.odb,Step-1,Increment      1: Step Time =    1.000,"P-1-1",         13181,   103.433E-03,   35.1957E-03,            0.,NA,NA,"",   1.00884E+06,   1.02615E+06,   1.02615E+06
C:/temp/Job-1.odb,Step-1,Increment      1: Step Time =    1.000,"P-1-1",         13182,   58.7024E-03,   132.362E-03,            0.,NA,NA,"",   1.04496E+06,   1.04927E+06,   1.04927E+06
C:/temp/Job-1.odb,Step-1,Increment      1: Step Time =    1.000,"P-1-1",         13183,   163.589E-03,   85.8218E-03,            0.,NA,NA,"",   962.513E+03,   968.033E+03,   968.033E+03
C:/temp/Job-1.odb,Step-1,Increment      1: Step Time =    1.000,"P-1-1",         13184,   74.2642E-03,   36.6134E-03,            0.,NA,NA,"",   1.04600E+06,   1.05248E+06,   1.05248E+06
C:/temp/Job-1.odb,Step-1,Increment      1: Step Time =    1.000,"P-1-1",         13185,   163.174E-03,   74.9193E-03,            0.,NA,NA,"",   999.773E+03,   996.674E+03,   996.674E+03
C:/temp/Job-1.odb,Step-1,Increment      1: Step Time =    1.000,"P-1-1",         13186,   119.853E-03,   36.2061E-03,            0.,NA,NA,"",   1.03129E+06,   1.03612E+06,   1.03612E+06
C:/temp/Job-1.odb,Step-1,Increment      1: Step Time =    1.000,"P-1-1",         13187,   61.3884E-03,   133.371E-03,            0.,NA,NA,"",   1.06775E+06,   1.06595E+06,   1.06595E+06
C:/temp/Job-1.odb,Step-1,Increment      1: Step Time =    1.000,"P-1-1",         13188,   101.490E-03,   34.2142E-03,            0.,NA,NA,"",   1.00689E+06,   1.02381E+06,   1.02381E+06
C:/temp/Job-1.odb,Step-1,Increment      1: Step Time =    1.000,"P-1-1",         13189,   34.9800E-03,   98.6857E-03,            0.,NA,NA,"",   818.349E+03,   890.644E+03,   890.644E+03
C:/temp/Job-1.odb,Step-1,Increment      1: Step Time =    1.000,"P-1-1",         13190,   99.9609E-03,   164.648E-03,            0.,NA,NA,"",   1.00833E+06,   1.02669E+06,   1.02669E+06
C:/temp/Job-1.odb,Step-1,Increment      1: Step Time =    1.000,"P-1-1",         13191,   129.278E-03,   142.093E-03,            0.,NA,NA,"",   1.12208E+06,   1.10004E+06,   1.10004E+06
C:/temp/Job-1.odb,Step-1,Increment      1: Step Time =    1.000,"P-1-1",         13192,   54.2132E-03,   116.917E-03,            0.,NA,NA,"",   901.110E+03,   932.403E+03,   932.403E+03
C:/temp/Job-1.odb,Step-1,Increment      1: Step Time =    1.000,"P-1-1",         13193,   166.454E-03,   44.7346E-03,            0.,NA,NA,"",   1.02722E+06,   1.02073E+06,   1.02073E+06
C:/temp/Job-1.odb,Step-1,Increment      1: Step Time =    1.000,"P-1-1",         13194,   45.5372E-03,   35.1893E-03,            0.,NA,NA,"",   1.04390E+06,   1.05932E+06,   1.05932E+06
C:/temp/Job-1.odb,Step-1,Increment      1: Step Time =    1.000,"P-1-1",         13195,   154.742E-03,   165.951E-03,            0.,NA,NA,"",   1.03169E+06,   1.02377E+06,   1.02377E+06
C:/temp/Job-1.odb,Step-1,Increment      1: Step Time =    1.000,"P-1-1",         13196,   34.9595E-03,   70.1280E-03,            0.,NA,NA,"",   912.447E+03,   969.938E+03,   969.938E+03
C:/temp/Job-1.odb,Step-1,Increment      1: Step Time =    1.000,"P-1-1",         13197,   34.1782E-03,   154.033E-03,            0.,NA,NA,"",   996.228E+03,   1.03804E+06,   1.03804E+06
C:/temp/Job-1.odb,Step-1,Increment      1: Step Time =    1.000,"P-1-1",         13198,   70.4037E-03,   164.131E-03,            0.,NA,NA,"",   1.04862E+06,   1.05346E+06,   1.05346E+06
C:/temp/Job-1.odb,Step-1,Increment      1: Step Time =    1.000,"P-1-1",         13199,   51.7941E-03,   115.341E-03,            0.,NA,NA,"",   879.129E+03,   918.544E+03,   918.544E+03
C:/temp/Job-1.odb,Step-1,Increment      1: Step Time =    1.000,"P-1-1",         13200,   164.200E-03,   44.5536E-03,            0.,NA,NA,"",   1.03072E+06,   1.02309E+06,   1.02309E+06
C:/temp/Job-1.odb,Step-1,Increment      1: Step Time =    1.000,"P-1-1",         13201,   44.1286E-03,   36.8196E-03,            0.,NA,NA,"",   1.04076E+06,   1.05891E+06,   1.05891E+06
C:/temp/Job-1.odb,Step-1,Increment      1: Step Time =    1.000,"P-1-1",         13202,   156.584E-03,   162.450E-03,            0.,NA,NA,"",   1.03496E+06,   1.02616E+06,   1.02616E+06
C:/temp/Job-1.odb,Step-1,Increment      1: Step Time =    1.000,"P-1-1",         13203,   36.3418E-03,   71.2785E-03,            0.,NA,NA,"",   912.275E+03,   968.109E+03,   968.109E+03
C:/temp/Job-1.odb,Step-1,Increment      1: Step Time =    1.000,"P-1-1",         13204,   37.4115E-03,   155.714E-03,            0.,NA,NA,"",   1.01129E+06,   1.04566E+06,   1.04566E+06
C:/temp/Job-1.odb,Step-1,Increment      1: Step Time =    1.000,"P-1-1",         13205,   69.5831E-03,   163.559E-03,            0.,NA,NA,"",   1.05085E+06,   1.05549E+06,   1.05549E+06
C:/temp/Job-1.odb,Step-1,Increment      1: Step Time =    1.000,"P-1-1",         13206,   132.019E-03,   77.5161E-03,            0.,NA,NA,"",   1.11956E+06,   1.06320E+06,   1.06320E+06
C:/temp/Job-1.odb,Step-1,Increment      1: Step Time =    1.000,"P-1-1",         13207,   139.757E-03,   76.1181E-03,            0.,NA,NA,"",   1.06567E+06,   1.02919E+06,   1.02919E+06
C:/temp/Job-1.odb,Step-1,Increment      1: Step Time =    1.000,"P-1-1",         13208,   141.436E-03,   77.6277E-03,            0.,NA,NA,"",   1.04368E+06,   1.01206E+06,   1.01206E+06
C:/temp/Job-1.odb,Step-1,Increment      1: Step Time =    1.000,"P-1-1",         13209,   125.512E-03,   143.561E-03,            0.,NA,NA,"",   1.11594E+06,   1.10210E+06,   1.10210E+06
C:/temp/Job-1.odb,Step-1,Increment      1: Step Time =    1.000,"P-1-1",         13210,   133.518E-03,   162.833E-03,            0.,NA,NA,"",   1.04822E+06,   1.04131E+06,   1.04131E+06
C:/temp/Job-1.odb,Step-1,Increment      1: Step Time =    1.000,"P-1-1",         13211,   37.0521E-03,   133.099E-03,            0.,NA,NA,"",   934.027E+03,   985.348E+03,   985.348E+03
C:/temp/Job-1.odb,Step-1,Increment      1: Step Time =    1.000,"P-1-1",         13212,   115.880E-03,   69.6490E-03,            0.,NA,NA,"",   1.19886E+06,   1.19372E+06,   1.19372E+06
C:/temp/Job-1.odb,Step-1,Increment      1: Step Time =    1.000,"P-1-1",         13213,   37.6858E-03,   118.013E-03,            0.,NA,NA,"",   866.893E+03,   928.502E+03,   928.502E+03
C:/temp/Job-1.odb,Step-1,Increment      1: Step Time =    1.000,"P-1-1",         13214,   53.3412E-03,   121.098E-03,            0.,NA,NA,"",   936.993E+03,   964.140E+03,   964.140E+03
C:/temp/Job-1.odb,Step-1,Increment      1: Step Time =    1.000,"P-1-1",         13215,   56.4492E-03,   123.638E-03,            0.,NA,NA,"",   977.833E+03,   992.888E+03,   992.888E+03
C:/temp/Job-1.odb,Step-1,Increment      1: Step Time =    1.000,"P-1-1",         13216,   56.9507E-03,   69.8832E-03,            0.,NA,NA,"",   1.02447E+06,   1.03333E+06,   1.03333E+06
C:/temp/Job-1.odb,Step-1,Increment      1: Step Time =    1.000,"P-1-1",         13217,   110.998E-03,   148.503E-03,            0.,NA,NA,"",   1.05016E+06,   1.07511E+06,   1.07511E+06
C:/temp/Job-1.odb,Step-1,Increment      1: Step Time =    1.000,"P-1-1",         13218,   142.787E-03,   165.577E-03,            0.,NA,NA,"",   1.04061E+06,   1.03194E+06,   1.03194E+06
C:/temp/Job-1.odb,Step-1,Increment      1: Step Time =    1.000,"P-1-1",         13219,   33.5830E-03,   140.851E-03,            0.,NA,NA,"",   950.116E+03,   1.00275E+06,   1.00275E+06
C:/temp/Job-1.odb,Step-1,Increment      1: Step Time =    1.000,"P-1-1",         13220,   145.233E-03,   126.447E-03,            0.,NA,NA,"",   1.05263E+06,   1.02536E+06,   1.02536E+06
C:/temp/Job-1.odb,Step-1,Increment      1: Step Time =    1.000,"P-1-1",         13221,   143.445E-03,   162.092E-03,            0.,NA,NA,"",   1.04858E+06,   1.03798E+06,   1.03798E+06
C:/temp/Job-1.odb,Step-1,Increment      1: Step Time =    1.000,"P-1-1",         13222,   37.5043E-03,   143.493E-03,            0.,NA,NA,"",   975.439E+03,   1.01859E+06,   1.01859E+06
C:/temp/Job-1.odb,Step-1,Increment      1: Step Time =    1.000,"P-1-1",         13223,   51.3021E-03,   89.6818E-03,            0.,NA,NA,"",   835.327E+03,   883.224E+03,   883.224E+03
C:/temp/Job-1.odb,Step-1,Increment      1: Step Time =    1.000,"P-1-1",         13224,   146.285E-03,   89.6654E-03,            0.,NA,NA,"",   908.813E+03,   908.386E+03,   908.386E+03
C:/temp/Job-1.odb,Step-1,Increment      1: Step Time =    1.000,"P-1-1",         13225,   63.2315E-03,   37.2810E-03,            0.,NA,NA,"",   1.05558E+06,   1.05986E+06,   1.05986E+06
C:/temp/Job-1.odb,Step-1,Increment      1: Step Time =    1.000,"P-1-1",         13226,   162.418E-03,   62.6827E-03,            0.,NA,NA,"",   1.02948E+06,   1.02019E+06,   1.02019E+06
C:/temp/Job-1.odb,Step-1,Increment      1: Step Time =    1.000,"P-1-1",         13227,   124.286E-03,   37.3044E-03,            0.,NA,NA,"",   1.04080E+06,   1.04121E+06,   1.04121E+06
C:/temp/Job-1.odb,Step-1,Increment      1: Step Time =    1.000,"P-1-1",         13228,   163.685E-03,   124.522E-03,            0.,NA,NA,"",   997.058E+03,   994.850E+03,   994.850E+03
C:/temp/Job-1.odb,Step-1,Increment      1: Step Time =    1.000,"P-1-1",         13229,   35.2884E-03,   130.536E-03,            0.,NA,NA,"",   916.169E+03,   972.680E+03,   972.680E+03
C:/temp/Job-1.odb,Step-1,Increment      1: Step Time =    1.000,"P-1-1",         13230,   130.699E-03,   164.597E-03,            0.,NA,NA,"",   1.04184E+06,   1.03741E+06,   1.03741E+06
C:/temp/Job-1.odb,Step-1,Increment      1: Step Time =    1.000,"P-1-1",         13231,   122.646E-03,   164.095E-03,            0.,NA,NA,"",   1.03469E+06,   1.03680E+06,   1.03680E+06
C:/temp/Job-1.odb,Step-1,Increment      1: Step Time =    1.000,"P-1-1",         13232,   130.559E-03,   140.402E-03,            0.,NA,NA,"",   1.12822E+06,   1.10200E+06,   1.10200E+06
C:/temp/Job-1.odb,Step-1,Increment      1: Step Time =    1.000,"P-1-1",         13233,   108.736E-03,   38.8274E-03,            0.,NA,NA,"",   1.01886E+06,   1.03617E+06,   1.03617E+06
C:/temp/Job-1.odb,Step-1,Increment      1: Step Time =    1.000,"P-1-1",         13234,   76.6067E-03,   34.7876E-03,            0.,NA,NA,"",   1.03809E+06,   1.04543E+06,   1.04543E+06
C:/temp/Job-1.odb,Step-1,Increment      1: Step Time =    1.000,"P-1-1",         13235,   163.609E-03,   76.1361E-03,            0.,NA,NA,"",   995.554E+03,   993.598E+03,   993.598E+03
C:/temp/Job-1.odb,Step-1,Increment      1: Step Time =    1.000,"P-1-1",         13236,   42.0708E-03,   161.674E-03,            0.,NA,NA,"",   1.03518E+06,   1.05733E+06,   1.05733E+06
C:/temp/Job-1.odb,Step-1,Increment      1: Step Time =    1.000,"P-1-1",         13237,   35.3239E-03,   122.297E-03,            0.,NA,NA,"",   880.550E+03,   942.825E+03,   942.825E+03
C:/temp/Job-1.odb,Step-1,Increment      1: Step Time =    1.000,"P-1-1",         13238,   50.9731E-03,   104.688E-03,            0.,NA,NA,"",   800.841E+03,   855.337E+03,   855.337E+03
C:/temp/Job-1.odb,Step-1,Increment      1: Step Time =    1.000,"P-1-1",         13239,   120.097E-03,   163.202E-03,            0.,NA,NA,"",   1.03341E+06,   1.03822E+06,   1.03822E+06
C:/temp/Job-1.odb,Step-1,Increment      1: Step Time =    1.000,"P-1-1",         13240,   63.8157E-03,   62.0643E-03,            0.,NA,NA,"",   1.08727E+06,   1.08399E+06,   1.08399E+06
C:/temp/Job-1.odb,Step-1,Increment      1: Step Time =    1.000,"P-1-1",         13241,   149.815E-03,   122.812E-03,            0.,NA,NA,"",   1.01300E+06,   996.393E+03,   996.393E+03
C:/temp/Job-1.odb,Step-1,Increment      1: Step Time =    1.000,"P-1-1",         13242,   147.114E-03,   124.393E-03,            0.,NA,NA,"",   1.03177E+06,   1.00937E+06,   1.00937E+06
C:/temp/Job-1.odb,Step-1,Increment      1: Step Time =    1.000,"P-1-1",         13243,   136.115E-03,   137.896E-03,            0.,NA,NA,"",   1.11878E+06,   1.08672E+06,   1.08672E+06
C:/temp/Job-1.odb,Step-1,Increment      1: Step Time =    1.000,"P-1-1",         13244,   144.211E-03,   83.6466E-03,            0.,NA,NA,"",   971.574E+03,   955.524E+03,   955.524E+03
C:/temp/Job-1.odb,Step-1,Increment      1: Step Time =    1.000,"P-1-1",         13245,   36.8822E-03,   116.087E-03,            0.,NA,NA,"",   856.711E+03,   920.894E+03,   920.894E+03
C:/temp/Job-1.odb,Step-1,Increment      1: Step Time =    1.000,"P-1-1",         13246,   146.989E-03,   93.8138E-03,            0.,NA,NA,"",   878.733E+03,   885.846E+03,   885.846E+03
C:/temp/Job-1.odb,Step-1,Increment      1: Step Time =    1.000,"P-1-1",         13247,   141.998E-03,   127.585E-03,            0.,NA,NA,"",   1.07556E+06,   1.04214E+06,   1.04214E+06
C:/temp/Job-1.odb,Step-1,Increment      1: Step Time =    1.000,"P-1-1",         13248,   112.791E-03,   38.2553E-03,            0.,NA,NA,"",   1.02440E+06,   1.03738E+06,   1.03738E+06
C:/temp/Job-1.odb,Step-1,Increment      1: Step Time =    1.000,"P-1-1",         13249,   141.176E-03,   38.9313E-03,            0.,NA,NA,"",   1.05222E+06,   1.04142E+06,   1.04142E+06
C:/temp/Job-1.odb,Step-1,Increment      1: Step Time =    1.000,"P-1-1",         13250,   160.606E-03,   142.253E-03,            0.,NA,NA,"",   1.03872E+06,   1.02730E+06,   1.02730E+06
C:/temp/Job-1.odb,Step-1,Increment      1: Step Time =    1.000,"P-1-1",         13251,   116.227E-03,   36.9060E-03,            0.,NA,NA,"",   1.02736E+06,   1.03605E+06,   1.03605E+06
C:/temp/Job-1.odb,Step-1,Increment      1: Step Time =    1.000,"P-1-1",         13252,   161.879E-03,   94.3275E-03,            0.,NA,NA,"",   935.620E+03,   945.897E+03,   945.897E+03
C:/temp/Job-1.odb,Step-1,Increment      1: Step Time =    1.000,"P-1-1",         13253,   63.7350E-03,   137.253E-03,            0.,NA,NA,"",   1.08757E+06,   1.08374E+06,   1.08374E+06
C:/temp/Job-1.odb,Step-1,Increment      1: Step Time =    1.000,"P-1-1",         13254,   161.779E-03,   113.149E-03,            0.,NA,NA,"",   956.851E+03,   962.207E+03,   962.207E+03
C:/temp/Job-1.odb,Step-1,Increment      1: Step Time =    1.000,"P-1-1",         13255,   37.3752E-03,   87.7228E-03,            0.,NA,NA,"",   842.566E+03,   908.434E+03,   908.434E+03
C:/temp/Job-1.odb,Step-1,Increment      1: Step Time =    1.000,"P-1-1",         13256,   86.4735E-03,   161.614E-03,            0.,NA,NA,"",   1.02842E+06,   1.04441E+06,   1.04441E+06
C:/temp/Job-1.odb,Step-1,Increment      1: Step Time =    1.000,"P-1-1",         13257,   161.828E-03,   53.4477E-03,            0.,NA,NA,"",   1.03754E+06,   1.02727E+06,   1.02727E+06
C:/temp/Job-1.odb,Step-1,Increment      1: Step Time =    1.000,"P-1-1",         13258,   146.614E-03,   162.733E-03,            0.,NA,NA,"",   1.04457E+06,   1.03427E+06,   1.03427E+06
C:/temp/Job-1.odb,Step-1,Increment      1: Step Time =    1.000,"P-1-1",         13259,   37.6720E-03,   147.392E-03,            0.,NA,NA,"",   988.830E+03,   1.02883E+06,   1.02883E+06
C:/temp/Job-1.odb,Step-1,Increment      1: Step Time =    1.000,"P-1-1",         13260,   80.9224E-03,   150.411E-03,            0.,NA,NA,"",   1.06927E+06,   1.08358E+06,   1.08358E+06
C:/temp/Job-1.odb,Step-1,Increment      1: Step Time =    1.000,"P-1-1",         13261,   161.831E-03,   50.0267E-03,            0.,NA,NA,"",   1.03716E+06,   1.02733E+06,   1.02733E+06
C:/temp/Job-1.odb,Step-1,Increment      1: Step Time =    1.000,"P-1-1",         13262,   50.9385E-03,   38.0754E-03,            0.,NA,NA,"",   1.04912E+06,   1.06033E+06,   1.06033E+06
C:/temp/Job-1.odb,Step-1,Increment      1: Step Time =    1.000,"P-1-1",         13263,   72.0513E-03,   65.4998E-03,            0.,NA,NA,"",   1.13455E+06,   1.12096E+06,   1.12096E+06
C:/temp/Job-1.odb,Step-1,Increment      1: Step Time =    1.000,"P-1-1",         13264,   149.358E-03,   161.991E-03,            0.,NA,NA,"",   1.04353E+06,   1.03305E+06,   1.03305E+06
C:/temp/Job-1.odb,Step-1,Increment      1: Step Time =    1.000,"P-1-1",         13265,   38.1560E-03,   150.234E-03,            0.,NA,NA,"",   999.475E+03,   1.03639E+06,   1.03639E+06
C:/temp/Job-1.odb,Step-1,Increment      1: Step Time =    1.000,"P-1-1",         13266,   162.426E-03,   161.917E-03,            0.,NA,NA,"",   1.02817E+06,   1.02118E+06,   1.02118E+06
C:/temp/Job-1.odb,Step-1,Increment      1: Step Time =    1.000,"P-1-1",         13267,   37.1492E-03,   38.4993E-03,            0.,NA,NA,"",   1.02466E+06,   1.05486E+06,   1.05486E+06
C:/temp/Job-1.odb,Step-1,Increment      1: Step Time =    1.000,"P-1-1",         13268,   67.3747E-03,   62.4931E-03,            0.,NA,NA,"",   1.10586E+06,   1.09854E+06,   1.09854E+06
C:/temp/Job-1.odb,Step-1,Increment      1: Step Time =    1.000,"P-1-1",         13269,   139.193E-03,   38.9001E-03,            0.,NA,NA,"",   1.05302E+06,   1.04272E+06,   1.04272E+06
C:/temp/Job-1.odb,Step-1,Increment      1: Step Time =    1.000,"P-1-1",         13270,   160.950E-03,   138.997E-03,            0.,NA,NA,"",   1.03500E+06,   1.02408E+06,   1.02408E+06
C:/temp/Job-1.odb,Step-1,Increment      1: Step Time =    1.000,"P-1-1",         13271,   57.0311E-03,   163.620E-03,            0.,NA,NA,"",   1.05324E+06,   1.05944E+06,   1.05944E+06
C:/temp/Job-1.odb,Step-1,Increment      1: Step Time =    1.000,"P-1-1",         13272,   37.5121E-03,   57.2500E-03,            0.,NA,NA,"",   973.114E+03,   1.01666E+06,   1.01666E+06
C:/temp/Job-1.odb,Step-1,Increment      1: Step Time =    1.000,"P-1-1",         13273,   160.300E-03,   115.924E-03,            0.,NA,NA,"",   966.105E+03,   968.120E+03,   968.120E+03
C:/temp/Job-1.odb,Step-1,Increment      1: Step Time =    1.000,"P-1-1",         13274,   38.5184E-03,   84.1316E-03,            0.,NA,NA,"",   858.547E+03,   920.446E+03,   920.446E+03
C:/temp/Job-1.odb,Step-1,Increment      1: Step Time =    1.000,"P-1-1",         13275,   83.2941E-03,   160.918E-03,            0.,NA,NA,"",   1.03613E+06,   1.05000E+06,   1.05000E+06
C:/temp/Job-1.odb,Step-1,Increment      1: Step Time =    1.000,"P-1-1",         13276,   97.1421E-03,   35.1189E-03,            0.,NA,NA,"",   1.00911E+06,   1.02714E+06,   1.02714E+06
C:/temp/Job-1.odb,Step-1,Increment      1: Step Time =    1.000,"P-1-1",         13277,   35.1191E-03,   103.110E-03,            0.,NA,NA,"",   819.409E+03,   891.361E+03,   891.361E+03
C:/temp/Job-1.odb,Step-1,Increment      1: Step Time =    1.000,"P-1-1",         13278,   103.982E-03,   164.063E-03,            0.,NA,NA,"",   1.00998E+06,   1.02794E+06,   1.02794E+06
C:/temp/Job-1.odb,Step-1,Increment      1: Step Time =    1.000,"P-1-1",         13279,   56.6569E-03,   126.308E-03,            0.,NA,NA,"",   998.507E+03,   1.01063E+06,   1.01063E+06
C:/temp/Job-1.odb,Step-1,Increment      1: Step Time =    1.000,"P-1-1",         13280,   57.9965E-03,   129.630E-03,            0.,NA,NA,"",   1.02928E+06,   1.03565E+06,   1.03565E+06
C:/temp/Job-1.odb,Step-1,Increment      1: Step Time =    1.000,"P-1-1",         13281,   162.819E-03,   132.273E-03,            0.,NA,NA,"",   1.01985E+06,   1.01240E+06,   1.01240E+06
C:/temp/Job-1.odb,Step-1,Increment      1: Step Time =    1.000,"P-1-1",         13282,   132.469E-03,   38.4427E-03,            0.,NA,NA,"",   1.05161E+06,   1.04474E+06,   1.04474E+06
C:/temp/Job-1.odb,Step-1,Increment      1: Step Time =    1.000,"P-1-1",         13283,   161.745E-03,   109.670E-03,            0.,NA,NA,"",   944.919E+03,   952.961E+03,   952.961E+03
C:/temp/Job-1.odb,Step-1,Increment      1: Step Time =    1.000,"P-1-1",         13284,   90.1115E-03,   161.502E-03,            0.,NA,NA,"",   1.02179E+06,   1.04044E+06,   1.04044E+06
C:/temp/Job-1.odb,Step-1,Increment      1: Step Time =    1.000,"P-1-1",         13285,   37.8649E-03,   89.7137E-03,            0.,NA,NA,"",   835.742E+03,   902.149E+03,   902.149E+03
C:/temp/Job-1.odb,Step-1,Increment      1: Step Time =    1.000,"P-1-1",         13286,   99.7972E-03,   32.8753E-03,            0.,NA,NA,"",   1.00508E+06,   1.02108E+06,   1.02108E+06
C:/temp/Job-1.odb,Step-1,Increment      1: Step Time =    1.000,"P-1-1",         13287,   34.7472E-03,   100.133E-03,            0.,NA,NA,"",   817.995E+03,   890.530E+03,   890.530E+03
C:/temp/Job-1.odb,Step-1,Increment      1: Step Time =    1.000,"P-1-1",         13288,   100.334E-03,   166.079E-03,            0.,NA,NA,"",   1.00652E+06,   1.02347E+06,   1.02347E+06
C:/temp/Job-1.odb,Step-1,Increment      1: Step Time =    1.000,"P-1-1",         13289,   36.5336E-03,   108.630E-03,            0.,NA,NA,"",   830.049E+03,   898.905E+03,   898.905E+03
C:/temp/Job-1.odb,Step-1,Increment      1: Step Time =    1.000,"P-1-1",         13290,   110.063E-03,   162.894E-03,            0.,NA,NA,"",   1.01789E+06,   1.03277E+06,   1.03277E+06
C:/temp/Job-1.odb,Step-1,Increment      1: Step Time =    1.000,"P-1-1",         13291,   90.3867E-03,   36.9454E-03,            0.,NA,NA,"",   1.01876E+06,   1.03640E+06,   1.03640E+06
C:/temp/Job-1.odb,Step-1,Increment      1: Step Time =    1.000,"P-1-1",         13292,   61.6525E-03,   63.5955E-03,            0.,NA,NA,"",   1.07532E+06,   1.07413E+06,   1.07413E+06
C:/temp/Job-1.odb,Step-1,Increment      1: Step Time =    1.000,"P-1-1",         13293,   59.5041E-03,   165.069E-03,            0.,NA,NA,"",   1.05198E+06,   1.05684E+06,   1.05684E+06
C:/temp/Job-1.odb,Step-1,Increment      1: Step Time =    1.000,"P-1-1",         13294,   35.6788E-03,   60.6547E-03,            0.,NA,NA,"",   952.808E+03,   1.00251E+06,   1.00251E+06
C:/temp/Job-1.odb,Step-1,Increment      1: Step Time =    1.000,"P-1-1",         13295,   94.6227E-03,   60.6368E-03,            0.,NA,NA,"",   1.05221E+06,   1.10687E+06,   1.10687E+06
C:/temp/Job-1.odb,Step-1,Increment      1: Step Time =    1.000,"P-1-1",         13296,   77.1440E-03,   149.455E-03,            0.,NA,NA,"",   1.08073E+06,   1.08929E+06,   1.08929E+06
C:/temp/Job-1.odb,Step-1,Increment      1: Step Time =    1.000,"P-1-1",         13297,   74.7313E-03,   148.652E-03,            0.,NA,NA,"",   1.08612E+06,   1.09154E+06,   1.09154E+06
C:/temp/Job-1.odb,Step-1,Increment      1: Step Time =    1.000,"P-1-1",         13298,   99.0070E-03,   60.8152E-03,            0.,NA,NA,"",   1.03977E+06,   1.10086E+06,   1.10086E+06
C:/temp/Job-1.odb,Step-1,Increment      1: Step Time =    1.000,"P-1-1",         13299,   160.175E-03,   36.0021E-03,            0.,NA,NA,"",   1.02861E+06,   1.02144E+06,   1.02144E+06
C:/temp/Job-1.odb,Step-1,Increment      1: Step Time =    1.000,"P-1-1",         13300,   89.4937E-03,   59.6439E-03,            0.,NA,NA,"",   1.07591E+06,   1.11364E+06,   1.11364E+06
C:/temp/Job-1.odb,Step-1,Increment      1: Step Time =    1.000,"P-1-1",         13301,   127.287E-03,   71.4269E-03,            0.,NA,NA,"",   1.18366E+06,    1.1325E+06,    1.1325E+06
C:/temp/Job-1.odb,Step-1,Increment      1: Step Time =    1.000,"P-1-1",         13302,   87.0422E-03,   60.4386E-03,            0.,NA,NA,"",   1.09351E+06,   1.12356E+06,   1.12356E+06
C:/temp/Job-1.odb,Step-1,Increment      1: Step Time =    1.000,"P-1-1",         13303,   81.1153E-03,   64.1476E-03,            0.,NA,NA,"",   1.14405E+06,   1.14876E+06,   1.14876E+06
C:/temp/Job-1.odb,Step-1,Increment      1: Step Time =    1.000,"P-1-1",         13304,   73.5020E-03,   65.3151E-03,            0.,NA,NA,"",   1.14111E+06,   1.12829E+06,   1.12829E+06
C:/temp/Job-1.odb,Step-1,Increment      1: Step Time =    1.000,"P-1-1",         13305,   114.087E-03,   163.458E-03,            0.,NA,NA,"",   1.02304E+06,   1.03380E+06,   1.03380E+06
C:/temp/Job-1.odb,Step-1,Increment      1: Step Time =    1.000,"P-1-1",         13306,   36.9584E-03,   112.674E-03,            0.,NA,NA,"",   843.381E+03,   909.604E+03,   909.604E+03
C:/temp/Job-1.odb,Step-1,Increment      1: Step Time =    1.000,"P-1-1",         13307,   116.934E-03,   162.542E-03,            0.,NA,NA,"",   1.02975E+06,   1.03791E+06,   1.03791E+06
C:/temp/Job-1.odb,Step-1,Increment      1: Step Time =    1.000,"P-1-1",         13308,   151.378E-03,   37.5772E-03,            0.,NA,NA,"",   1.04087E+06,   1.03086E+06,   1.03086E+06
C:/temp/Job-1.odb,Step-1,Increment      1: Step Time =    1.000,"P-1-1",         13309,   163.049E-03,   151.496E-03,            0.,NA,NA,"",   1.03436E+06,   1.02551E+06,   1.02551E+06
C:/temp/Job-1.odb,Step-1,Increment      1: Step Time =    1.000,"P-1-1",         13310,   162.997E-03,   158.468E-03,            0.,NA,NA,"",   1.03051E+06,   1.02292E+06,   1.02292E+06
C:/temp/Job-1.odb,Step-1,Increment      1: Step Time =    1.000,"P-1-1",         13311,   38.0984E-03,   48.9526E-03,            0.,NA,NA,"",   1.00092E+06,   1.03763E+06,   1.03763E+06
C:/temp/Job-1.odb,Step-1,Increment      1: Step Time =    1.000,"P-1-1",         13312,   36.9767E-03,   42.2569E-03,            0.,NA,NA,"",   1.01549E+06,   1.04897E+06,   1.04897E+06
C:/temp/Job-1.odb,Step-1,Increment      1: Step Time =    1.000,"P-1-1",         13313,   162.452E-03,   91.1742E-03,            0.,NA,NA,"",   944.479E+03,   953.244E+03,   953.244E+03
C:/temp/Job-1.odb,Step-1,Increment      1: Step Time =    1.000,"P-1-1",         13314,   48.6705E-03,   162.162E-03,            0.,NA,NA,"",   1.04628E+06,   1.05972E+06,   1.05972E+06
C:/temp/Job-1.odb,Step-1,Increment      1: Step Time =    1.000,"P-1-1",         13315,   148.963E-03,   93.9969E-03,            0.,NA,NA,"",   887.467E+03,   895.288E+03,   895.288E+03
C:/temp/Job-1.odb,Step-1,Increment      1: Step Time =    1.000,"P-1-1",         13316,   77.0415E-03,   63.8092E-03,            0.,NA,NA,"",   1.14328E+06,   1.13777E+06,   1.13777E+06
C:/temp/Job-1.odb,Step-1,Increment      1: Step Time =    1.000,"P-1-1",         13317,   136.514E-03,   135.265E-03,            0.,NA,NA,"",   1.12035E+06,   1.08505E+06,   1.08505E+06
C:/temp/Job-1.odb,Step-1,Increment      1: Step Time =    1.000,"P-1-1",         13318,   57.7485E-03,   66.5115E-03,            0.,NA,NA,"",   1.04352E+06,   1.04971E+06,   1.04971E+06
C:/temp/Job-1.odb,Step-1,Increment      1: Step Time =    1.000,"P-1-1",         13319,   116.229E-03,   145.195E-03,            0.,NA,NA,"",   1.08350E+06,   1.09566E+06,   1.09566E+06
C:/temp/Job-1.odb,Step-1,Increment      1: Step Time =    1.000,"P-1-1",         13320,   142.624E-03,   130.303E-03,            0.,NA,NA,"",   1.08215E+06,   1.05003E+06,   1.05003E+06
C:/temp/Job-1.odb,Step-1,Increment      1: Step Time =    1.000,"P-1-1",         13321,   139.044E-03,   162.057E-03,            0.,NA,NA,"",   1.05023E+06,   1.04056E+06,   1.04056E+06
C:/temp/Job-1.odb,Step-1,Increment      1: Step Time =    1.000,"P-1-1",         13322,   38.2458E-03,   137.830E-03,            0.,NA,NA,"",   958.339E+03,   1.00388E+06,   1.00388E+06
C:/temp/Job-1.odb,Step-1,Increment      1: Step Time =    1.000,"P-1-1",         13323,   68.7702E-03,   38.6313E-03,            0.,NA,NA,"",   1.05630E+06,   1.06085E+06,   1.06085E+06
C:/temp/Job-1.odb,Step-1,Increment      1: Step Time =    1.000,"P-1-1",         13324,   162.722E-03,   69.7057E-03,            0.,NA,NA,"",   1.01522E+06,   1.00864E+06,   1.00864E+06
C:/temp/Job-1.odb,Step-1,Increment      1: Step Time =    1.000,"P-1-1",         13325,   64.5236E-03,   138.984E-03,            0.,NA,NA,"",   1.09087E+06,   1.08741E+06,   1.08741E+06
C:/temp/Job-1.odb,Step-1,Increment      1: Step Time =    1.000,"P-1-1",         13326,   67.2103E-03,   141.306E-03,            0.,NA,NA,"",   1.09930E+06,   1.09583E+06,   1.09583E+06
C:/temp/Job-1.odb,Step-1,Increment      1: Step Time =    1.000,"P-1-1",         13327,   37.1760E-03,   53.0916E-03,            0.,NA,NA,"",   985.338E+03,   1.02669E+06,   1.02669E+06
C:/temp/Job-1.odb,Step-1,Increment      1: Step Time =    1.000,"P-1-1",         13328,   51.8666E-03,   162.311E-03,            0.,NA,NA,"",   1.05017E+06,   1.06037E+06,   1.06037E+06
C:/temp/Job-1.odb,Step-1,Increment      1: Step Time =    1.000,"P-1-1",         13329,   127.007E-03,   69.5565E-03,            0.,NA,NA,"",   1.18008E+06,   1.13416E+06,   1.13416E+06
C:/temp/Job-1.odb,Step-1,Increment      1: Step Time =    1.000,"P-1-1",         13330,   72.1050E-03,   37.8344E-03,            0.,NA,NA,"",   1.05144E+06,   1.05705E+06,   1.05705E+06
C:/temp/Job-1.odb,Step-1,Increment      1: Step Time =    1.000,"P-1-1",         13331,   162.093E-03,   72.4509E-03,            0.,NA,NA,"",   1.00876E+06,   1.00305E+06,   1.00305E+06
C:/temp/Job-1.odb,Step-1,Increment      1: Step Time =    1.000,"P-1-1",         13332,   65.2137E-03,   38.1539E-03,            0.,NA,NA,"",   1.05682E+06,   1.06097E+06,   1.06097E+06
C:/temp/Job-1.odb,Step-1,Increment      1: Step Time =    1.000,"P-1-1",         13333,   162.173E-03,   64.7744E-03,            0.,NA,NA,"",   1.02673E+06,   1.01773E+06,   1.01773E+06
C:/temp/Job-1.odb,Step-1,Increment      1: Step Time =    1.000,"P-1-1",         13334,   37.7698E-03,   56.1387E-03,            0.,NA,NA,"",   977.931E+03,   1.02021E+06,   1.02021E+06
C:/temp/Job-1.odb,Step-1,Increment      1: Step Time =    1.000,"P-1-1",         13335,   134.923E-03,   162.673E-03,            0.,NA,NA,"",   1.04907E+06,   1.04132E+06,   1.04132E+06
C:/temp/Job-1.odb,Step-1,Increment      1: Step Time =    1.000,"P-1-1",         13336,   55.7632E-03,   162.001E-03,            0.,NA,NA,"",   1.05386E+06,   1.06121E+06,   1.06121E+06
C:/temp/Job-1.odb,Step-1,Increment      1: Step Time =    1.000,"P-1-1",         13337,   37.9648E-03,   134.390E-03,            0.,NA,NA,"",   943.243E+03,   991.803E+03,   991.803E+03
C:/temp/Job-1.odb,Step-1,Increment      1: Step Time =    1.000,"P-1-1",         13338,   135.842E-03,   73.0617E-03,            0.,NA,NA,"",   1.11277E+06,   1.06793E+06,   1.06793E+06
C:/temp/Job-1.odb,Step-1,Increment      1: Step Time =    1.000,"P-1-1",         13339,   50.2882E-03,   99.5142E-03,            0.,NA,NA,"",   793.675E+03,   850.450E+03,   850.450E+03
C:/temp/Job-1.odb,Step-1,Increment      1: Step Time =    1.000,"P-1-1",         13340,   108.013E-03,   37.0810E-03,            0.,NA,NA,"",   1.01493E+06,   1.03137E+06,   1.03137E+06
C:/temp/Job-1.odb,Step-1,Increment      1: Step Time =    1.000,"P-1-1",         13341,   130.523E-03,   77.4312E-03,            0.,NA,NA,"",   1.13644E+06,   1.07596E+06,   1.07596E+06
C:/temp/Job-1.odb,Step-1,Increment      1: Step Time =    1.000,"P-1-1",         13342,   121.596E-03,   70.7308E-03,            0.,NA,NA,"",   1.21287E+06,   1.17366E+06,   1.17366E+06
C:/temp/Job-1.odb,Step-1,Increment      1: Step Time =    1.000,"P-1-1",         13343,   82.6066E-03,   35.9348E-03,            0.,NA,NA,"",   1.03071E+06,   1.04235E+06,   1.04235E+06
C:/temp/Job-1.odb,Step-1,Increment      1: Step Time =    1.000,"P-1-1",         13344,   162.102E-03,   81.9498E-03,            0.,NA,NA,"",   975.347E+03,   976.770E+03,   976.770E+03
C:/temp/Job-1.odb,Step-1,Increment      1: Step Time =    1.000,"P-1-1",         13345,   113.130E-03,   72.0294E-03,            0.,NA,NA,"",   1.21623E+06,   1.22593E+06,   1.22593E+06
C:/temp/Job-1.odb,Step-1,Increment      1: Step Time =    1.000,"P-1-1",         13346,   86.3115E-03,   36.5732E-03,            0.,NA,NA,"",   1.02521E+06,   1.03982E+06,   1.03982E+06
C:/temp/Job-1.odb,Step-1,Increment      1: Step Time =    1.000,"P-1-1",         13347,   123.708E-03,   73.7221E-03,            0.,NA,NA,"",   1.21921E+06,   1.16212E+06,   1.16212E+06
C:/temp/Job-1.odb,Step-1,Increment      1: Step Time =    1.000,"P-1-1",         13348,   162.460E-03,   153.834E-03,            0.,NA,NA,"",   1.03451E+06,   1.02569E+06,   1.02569E+06
C:/temp/Job-1.odb,Step-1,Increment      1: Step Time =    1.000,"P-1-1",         13349,   46.6829E-03,   162.671E-03,            0.,NA,NA,"",   1.04388E+06,   1.05925E+06,   1.05925E+06
C:/temp/Job-1.odb,Step-1,Increment      1: Step Time =    1.000,"P-1-1",         13350,   103.239E-03,   69.5070E-03,            0.,NA,NA,"",   1.08793E+06,   1.17250E+06,   1.17250E+06
C:/temp/Job-1.odb,Step-1,Increment      1: Step Time =    1.000,"P-1-1",         13351,   134.599E-03,   139.044E-03,            0.,NA,NA,"",   1.12161E+06,   1.09115E+06,   1.09115E+06
C:/temp/Job-1.odb,Step-1,Increment      1: Step Time =    1.000,"P-1-1",         13352,   88.5267E-03,   37.6187E-03,            0.,NA,NA,"",   1.02326E+06,   1.04014E+06,   1.04014E+06
C:/temp/Job-1.odb,Step-1,Increment      1: Step Time =    1.000,"P-1-1",         13353,   34.4649E-03,   129.272E-03,            0.,NA,NA,"",   907.668E+03,   966.560E+03,   966.560E+03
C:/temp/Job-1.odb,Step-1,Increment      1: Step Time =    1.000,"P-1-1",         13354,   129.354E-03,   164.600E-03,            0.,NA,NA,"",   1.04091E+06,   1.03738E+06,   1.03738E+06
C:/temp/Job-1.odb,Step-1,Increment      1: Step Time =    1.000,"P-1-1",         13355,   37.8284E-03,   75.9605E-03,            0.,NA,NA,"",   896.073E+03,   952.704E+03,   952.704E+03
C:/temp/Job-1.odb,Step-1,Increment      1: Step Time =    1.000,"P-1-1",         13356,   75.9853E-03,   162.887E-03,            0.,NA,NA,"",   1.04451E+06,   1.05215E+06,   1.05215E+06
C:/temp/Job-1.odb,Step-1,Increment      1: Step Time =    1.000,"P-1-1",         13357,   83.4928E-03,   59.5404E-03,            0.,NA,NA,"",   1.10538E+06,   1.12314E+06,   1.12314E+06
C:/temp/Job-1.odb,Step-1,Increment      1: Step Time =    1.000,"P-1-1",         13358,   150.427E-03,   115.876E-03,            0.,NA,NA,"",   962.457E+03,   956.048E+03,   956.048E+03
C:/temp/Job-1.odb,Step-1,Increment      1: Step Time =    1.000,"P-1-1",         13359,   127.515E-03,   37.2019E-03,            0.,NA,NA,"",   1.04412E+06,   1.04163E+06,   1.04163E+06
C:/temp/Job-1.odb,Step-1,Increment      1: Step Time =    1.000,"P-1-1",         13360,   162.993E-03,   127.504E-03,            0.,NA,NA,"",   1.00680E+06,   1.00210E+06,   1.00210E+06
C:/temp/Job-1.odb,Step-1,Increment      1: Step Time =    1.000,"P-1-1",         13361,   122.817E-03,   169.321E-03,            0.,NA,NA,"",   1.02153E+06,   1.02345E+06,   1.02345E+06
C:/temp/Job-1.odb,Step-1,Increment      1: Step Time =    1.000,"P-1-1",         13362,   31.3544E-03,   122.969E-03,            0.,NA,NA,"",   871.617E+03,   939.917E+03,   939.917E+03
C:/temp/Job-1.odb,Step-1,Increment      1: Step Time =    1.000,"P-1-1",         13363,   37.1576E-03,   163.429E-03,            0.,NA,NA,"",   1.02931E+06,   1.05754E+06,   1.05754E+06
C:/temp/Job-1.odb,Step-1,Increment      1: Step Time =    1.000,"P-1-1",         13364,   162.679E-03,   88.6623E-03,            0.,NA,NA,"",   951.824E+03,   959.050E+03,   959.050E+03
C:/temp/Job-1.odb,Step-1,Increment      1: Step Time =    1.000,"P-1-1",         13365,   36.7905E-03,   39.5617E-03,            0.,NA,NA,"",   1.02158E+06,   1.05317E+06,   1.05317E+06
C:/temp/Job-1.odb,Step-1,Increment      1: Step Time =    1.000,"P-1-1",         13366,   38.9462E-03,   36.5507E-03,            0.,NA,NA,"",   1.03237E+06,   1.05794E+06,   1.05794E+06
C:/temp/Job-1.odb,Step-1,Increment      1: Step Time =    1.000,"P-1-1",         13367,   161.668E-03,   162.686E-03,            0.,NA,NA,"",   1.02827E+06,   1.02123E+06,   1.02123E+06
C:/temp/Job-1.odb,Step-1,Increment      1: Step Time =    1.000,"P-1-1",         13368,   121.737E-03,   36.6505E-03,            0.,NA,NA,"",   1.03541E+06,   1.03842E+06,   1.03842E+06
C:/temp/Job-1.odb,Step-1,Increment      1: Step Time =    1.000,"P-1-1",         13369,   163.196E-03,   122.124E-03,            0.,NA,NA,"",   989.696E+03,   988.765E+03,   988.765E+03
C:/temp/Job-1.odb,Step-1,Increment      1: Step Time =    1.000,"P-1-1",         13370,   37.9714E-03,   161.320E-03,            0.,NA,NA,"",   1.02635E+06,   1.05510E+06,   1.05510E+06
C:/temp/Job-1.odb,Step-1,Increment      1: Step Time =    1.000,"P-1-1",         13371,   36.3856E-03,   79.0633E-03,            0.,NA,NA,"",   877.189E+03,   938.729E+03,   938.729E+03
C:/temp/Job-1.odb,Step-1,Increment      1: Step Time =    1.000,"P-1-1",         13372,   78.0531E-03,   162.191E-03,            0.,NA,NA,"",   1.04302E+06,   1.05202E+06,   1.05202E+06
C:/temp/Job-1.odb,Step-1,Increment      1: Step Time =    1.000,"P-1-1",         13373,   130.814E-03,   38.4502E-03,            0.,NA,NA,"",   1.05063E+06,   1.04496E+06,   1.04496E+06
C:/temp/Job-1.odb,Step-1,Increment      1: Step Time =    1.000,"P-1-1",         13374,   161.617E-03,   130.536E-03,            0.,NA,NA,"",   1.01800E+06,   1.01015E+06,   1.01015E+06
C:/temp/Job-1.odb,Step-1,Increment      1: Step Time =    1.000,"P-1-1",         13375,   50.7454E-03,   111.390E-03,            0.,NA,NA,"",   843.769E+03,   891.107E+03,   891.107E+03
C:/temp/Job-1.odb,Step-1,Increment      1: Step Time =    1.000,"P-1-1",         13376,   121.262E-03,   146.450E-03,            0.,NA,NA,"",   1.09427E+06,   1.09313E+06,   1.09313E+06
C:/temp/Job-1.odb,Step-1,Increment      1: Step Time =    1.000,"P-1-1",         13377,   161.586E-03,   40.5336E-03,            0.,NA,NA,"",   1.03158E+06,   1.02366E+06,   1.02366E+06
C:/temp/Job-1.odb,Step-1,Increment      1: Step Time =    1.000,"P-1-1",         13378,   50.8804E-03,   101.495E-03,            0.,NA,NA,"",   792.254E+03,   848.368E+03,   848.368E+03
C:/temp/Job-1.odb,Step-1,Increment      1: Step Time =    1.000,"P-1-1",         13379,   51.3601E-03,   86.4783E-03,            0.,NA,NA,"",   861.690E+03,   904.929E+03,   904.929E+03
C:/temp/Job-1.odb,Step-1,Increment      1: Step Time =    1.000,"P-1-1",         13380,   50.8941E-03,   108.016E-03,            0.,NA,NA,"",   819.125E+03,   870.551E+03,   870.551E+03
C:/temp/Job-1.odb,Step-1,Increment      1: Step Time =    1.000,"P-1-1",         13381,   73.8823E-03,   146.768E-03,            0.,NA,NA,"",   1.09350E+06,   1.09693E+06,   1.09693E+06
C:/temp/Job-1.odb,Step-1,Increment      1: Step Time =    1.000,"P-1-1",         13382,   163.109E-03,   43.3768E-03,            0.,NA,NA,"",   1.03162E+06,   1.02371E+06,   1.02371E+06
C:/temp/Job-1.odb,Step-1,Increment      1: Step Time =    1.000,"P-1-1",         13383,   42.5867E-03,   37.0068E-03,            0.,NA,NA,"",   1.03810E+06,   1.05850E+06,   1.05850E+06
C:/temp/Job-1.odb,Step-1,Increment      1: Step Time =    1.000,"P-1-1",         13384,   157.816E-03,   162.372E-03,            0.,NA,NA,"",   1.03344E+06,   1.02501E+06,   1.02501E+06
C:/temp/Job-1.odb,Step-1,Increment      1: Step Time =    1.000,"P-1-1",         13385,   37.9889E-03,   72.4937E-03,            0.,NA,NA,"",   912.801E+03,   966.474E+03,   966.474E+03
C:/temp/Job-1.odb,Step-1,Increment      1: Step Time =    1.000,"P-1-1",         13386,   38.1851E-03,   157.302E-03,            0.,NA,NA,"",   1.01737E+06,   1.04918E+06,   1.04918E+06
C:/temp/Job-1.odb,Step-1,Increment      1: Step Time =    1.000,"P-1-1",         13387,   73.0544E-03,   162.810E-03,            0.,NA,NA,"",   1.04880E+06,   1.05480E+06,   1.05480E+06
C:/temp/Job-1.odb,Step-1,Increment      1: Step Time =    1.000,"P-1-1",         13388,   50.5355E-03,   114.707E-03,            0.,NA,NA,"",   870.846E+03,   913.814E+03,   913.814E+03
C:/temp/Job-1.odb,Step-1,Increment      1: Step Time =    1.000,"P-1-1",         13389,   103.917E-03,   65.7448E-03,            0.,NA,NA,"",   1.06669E+06,   1.13639E+06,   1.13639E+06
C:/temp/Job-1.odb,Step-1,Increment      1: Step Time =    1.000,"P-1-1",         13390,   37.5920E-03,   65.7014E-03,            0.,NA,NA,"",   941.289E+03,   990.620E+03,   990.620E+03
C:/temp/Job-1.odb,Step-1,Increment      1: Step Time =    1.000,"P-1-1",         13391,   65.9101E-03,   162.323E-03,            0.,NA,NA,"",   1.05567E+06,   1.05980E+06,   1.05980E+06
C:/temp/Job-1.odb,Step-1,Increment      1: Step Time =    1.000,"P-1-1",         13392,   165.167E-03,   100.373E-03,            0.,NA,NA,"",   939.302E+03,   951.625E+03,   951.625E+03
C:/temp/Job-1.odb,Step-1,Increment      1: Step Time =    1.000,"P-1-1",         13393,   104.255E-03,   61.9641E-03,            0.,NA,NA,"",   1.05242E+06,   1.11071E+06,   1.11071E+06
C:/temp/Job-1.odb,Step-1,Increment      1: Step Time =    1.000,"P-1-1",         13394,   141.399E-03,   79.1400E-03,            0.,NA,NA,"",   1.03030E+06,   1.00027E+06,   1.00027E+06
C:/temp/Job-1.odb,Step-1,Increment      1: Step Time =    1.000,"P-1-1",         13395,   117.292E-03,   69.9827E-03,            0.,NA,NA,"",   1.20727E+06,   1.19199E+06,   1.19199E+06
C:/temp/Job-1.odb,Step-1,Increment      1: Step Time =    1.000,"P-1-1",         13396,   162.669E-03,   97.6182E-03,            0.,NA,NA,"",   933.339E+03,   944.864E+03,   944.864E+03
C:/temp/Job-1.odb,Step-1,Increment      1: Step Time =    1.000,"P-1-1",         13397,   50.6915E-03,   95.1636E-03,            0.,NA,NA,"",   802.593E+03,   857.176E+03,   857.176E+03
C:/temp/Job-1.odb,Step-1,Increment      1: Step Time =    1.000,"P-1-1",         13398,   84.9733E-03,   149.367E-03,            0.,NA,NA,"",   1.06082E+06,   1.08232E+06,   1.08232E+06
C:/temp/Job-1.odb,Step-1,Increment      1: Step Time =    1.000,"P-1-1",         13399,   95.6889E-03,   59.6617E-03,            0.,NA,NA,"",   1.04497E+06,   1.09951E+06,   1.09951E+06
C:/temp/Job-1.odb,Step-1,Increment      1: Step Time =    1.000,"P-1-1",         13400,   104.321E-03,   37.8137E-03,            0.,NA,NA,"",   1.01268E+06,   1.03205E+06,   1.03205E+06
C:/temp/Job-1.odb,Step-1,Increment      1: Step Time =    1.000,"P-1-1",         13401,   162.424E-03,   104.924E-03,            0.,NA,NA,"",   935.750E+03,   946.505E+03,   946.505E+03
C:/temp/Job-1.odb,Step-1,Increment      1: Step Time =    1.000,"P-1-1",         13402,   37.6386E-03,   94.8892E-03,            0.,NA,NA,"",   822.117E+03,   890.887E+03,   890.887E+03
C:/temp/Job-1.odb,Step-1,Increment      1: Step Time =    1.000,"P-1-1",         13403,   95.3037E-03,   162.664E-03,            0.,NA,NA,"",   1.01316E+06,   1.03325E+06,   1.03325E+06
C:/temp/Job-1.odb,Step-1,Increment      1: Step Time =    1.000,"P-1-1",         13404,   133.552E-03,   71.3667E-03,            0.,NA,NA,"",   1.13620E+06,   1.08919E+06,   1.08919E+06
C:/temp/Job-1.odb,Step-1,Increment      1: Step Time =    1.000,"P-1-1",         13405,   51.4373E-03,   83.1645E-03,            0.,NA,NA,"",   891.775E+03,   929.562E+03,   929.562E+03
C:/temp/Job-1.odb,Step-1,Increment      1: Step Time =    1.000,"P-1-1",         13406,   36.9791E-03,   68.3388E-03,            0.,NA,NA,"",   928.182E+03,   980.540E+03,   980.540E+03
C:/temp/Job-1.odb,Step-1,Increment      1: Step Time =    1.000,"P-1-1",         13407,   67.6414E-03,   162.038E-03,            0.,NA,NA,"",   1.05543E+06,   1.05973E+06,   1.05973E+06
C:/temp/Job-1.odb,Step-1,Increment      1: Step Time =    1.000,"P-1-1",         13408,   78.3782E-03,   64.2385E-03,            0.,NA,NA,"",   1.14619E+06,   1.14282E+06,   1.14282E+06
C:/temp/Job-1.odb,Step-1,Increment      1: Step Time =    1.000,"P-1-1",         13409,   162.584E-03,   84.8778E-03,            0.,NA,NA,"",   965.080E+03,   969.240E+03,   969.240E+03
C:/temp/Job-1.odb,Step-1,Increment      1: Step Time =    1.000,"P-1-1",         13410,   138.768E-03,   132.434E-03,            0.,NA,NA,"",   1.10750E+06,   1.07121E+06,   1.07121E+06
C:/temp/Job-1.odb,Step-1,Increment      1: Step Time =    1.000,"P-1-1",         13411,   150.831E-03,   103.383E-03,            0.,NA,NA,"",   886.530E+03,   896.746E+03,   896.746E+03
C:/temp/Job-1.odb,Step-1,Increment      1: Step Time =    1.000,"P-1-1",         13412,   164.718E-03,   98.9244E-03,            0.,NA,NA,"",   938.463E+03,   950.608E+03,   950.608E+03
C:/temp/Job-1.odb,Step-1,Increment      1: Step Time =    1.000,"P-1-1",         13413,   140.271E-03,   162.460E-03,            0.,NA,NA,"",   1.04891E+06,   1.03913E+06,   1.03913E+06
C:/temp/Job-1.odb,Step-1,Increment      1: Step Time =    1.000,"P-1-1",         13414,   37.4642E-03,   139.843E-03,            0.,NA,NA,"",   962.436E+03,   1.00817E+06,   1.00817E+06
C:/temp/Job-1.odb,Step-1,Increment      1: Step Time =    1.000,"P-1-1",         13415,   52.6328E-03,   74.6185E-03,            0.,NA,NA,"",   967.221E+03,   990.937E+03,   990.937E+03
C:/temp/Job-1.odb,Step-1,Increment      1: Step Time =    1.000,"P-1-1",         13416,   162.853E-03,   80.2609E-03,            0.,NA,NA,"",   981.436E+03,   982.069E+03,   982.069E+03
C:/temp/Job-1.odb,Step-1,Increment      1: Step Time =    1.000,"P-1-1",         13417,   81.1551E-03,   36.4148E-03,            0.,NA,NA,"",   1.03437E+06,   1.04520E+06,   1.04520E+06
C:/temp/Job-1.odb,Step-1,Increment      1: Step Time =    1.000,"P-1-1",         13418,   118.966E-03,   162.132E-03,            0.,NA,NA,"",   1.03407E+06,   1.04007E+06,   1.04007E+06
C:/temp/Job-1.odb,Step-1,Increment      1: Step Time =    1.000,"P-1-1",         13419,   106.043E-03,   163.002E-03,            0.,NA,NA,"",   1.01306E+06,   1.03070E+06,   1.03070E+06
C:/temp/Job-1.odb,Step-1,Increment      1: Step Time =    1.000,"P-1-1",         13420,   93.5635E-03,   35.4818E-03,            0.,NA,NA,"",   1.01248E+06,   1.03018E+06,   1.03018E+06
C:/temp/Job-1.odb,Step-1,Increment      1: Step Time =    1.000,"P-1-1",         13421,   144.374E-03,   85.7598E-03,            0.,NA,NA,"",   948.905E+03,   937.499E+03,   937.499E+03
C:/temp/Job-1.odb,Step-1,Increment      1: Step Time =    1.000,"P-1-1",         13422,   140.226E-03,   130.599E-03,            0.,NA,NA,"",   1.09607E+06,   1.06046E+06,   1.06046E+06
C:/temp/Job-1.odb,Step-1,Increment      1: Step Time =    1.000,"P-1-1",         13423,   51.2048E-03,   79.5463E-03,            0.,NA,NA,"",   921.740E+03,   954.905E+03,   954.905E+03
C:/temp/Job-1.odb,Step-1,Increment      1: Step Time =    1.000,"P-1-1",         13424,   90.1163E-03,   152.334E-03,            0.,NA,NA,"",   1.03734E+06,   1.06477E+06,   1.06477E+06
C:/temp/Job-1.odb,Step-1,Increment      1: Step Time =    1.000,"P-1-1",         13425,   70.8964E-03,   63.9448E-03,            0.,NA,NA,"",   1.12498E+06,   1.11417E+06,   1.11417E+06
C:/temp/Job-1.odb,Step-1,Increment      1: Step Time =    1.000,"P-1-1",         13426,   36.5852E-03,   126.683E-03,            0.,NA,NA,"",   904.454E+03,   961.307E+03,   961.307E+03
C:/temp/Job-1.odb,Step-1,Increment      1: Step Time =    1.000,"P-1-1",         13427,   125.490E-03,   163.724E-03,            0.,NA,NA,"",   1.03957E+06,   1.03893E+06,   1.03893E+06
C:/temp/Job-1.odb,Step-1,Increment      1: Step Time =    1.000,"P-1-1",         13428,   69.6013E-03,   62.6571E-03,            0.,NA,NA,"",   1.11622E+06,   1.10754E+06,   1.10754E+06
C:/temp/Job-1.odb,Step-1,Increment      1: Step Time =    1.000,"P-1-1",         13429,   151.405E-03,   99.9211E-03,            0.,NA,NA,"",   885.231E+03,   896.476E+03,   896.476E+03
C:/temp/Job-1.odb,Step-1,Increment      1: Step Time =    1.000,"P-1-1",         13430,   151.331E-03,   109.723E-03,            0.,NA,NA,"",   919.199E+03,   922.898E+03,   922.898E+03
C:/temp/Job-1.odb,Step-1,Increment      1: Step Time =    1.000,"P-1-1",         13431,   145.358E-03,   35.2045E-03,            0.,NA,NA,"",   1.04111E+06,   1.03185E+06,   1.03185E+06
C:/temp/Job-1.odb,Step-1,Increment      1: Step Time =    1.000,"P-1-1",         13432,   81.2960E-03,   162.085E-03,            0.,NA,NA,"",   1.03752E+06,   1.04903E+06,   1.04903E+06
C:/temp/Job-1.odb,Step-1,Increment      1: Step Time =    1.000,"P-1-1",         13433,   163.691E-03,   145.550E-03,            0.,NA,NA,"",   1.03335E+06,   1.02441E+06,   1.02441E+06
C:/temp/Job-1.odb,Step-1,Increment      1: Step Time =    1.000,"P-1-1",         13434,   38.5982E-03,   80.5791E-03,            0.,NA,NA,"",   875.914E+03,   934.860E+03,   934.860E+03
C:/temp/Job-1.odb,Step-1,Increment      1: Step Time =    1.000,"P-1-1",         13435,   88.0035E-03,   150.093E-03,            0.,NA,NA,"",   1.04854E+06,   1.07496E+06,   1.07496E+06
C:/temp/Job-1.odb,Step-1,Increment      1: Step Time =    1.000,"P-1-1",         13436,   161.285E-03,   118.692E-03,            0.,NA,NA,"",   977.958E+03,   978.179E+03,   978.179E+03
C:/temp/Job-1.odb,Step-1,Increment      1: Step Time =    1.000,"P-1-1",         13437,   50.7907E-03,   94.0924E-03,            0.,NA,NA,"",   807.089E+03,   860.762E+03,   860.762E+03
C:/temp/Job-1.odb,Step-1,Increment      1: Step Time =    1.000,"P-1-1",         13438,   81.8607E-03,   61.5886E-03,            0.,NA,NA,"",   1.12412E+06,   1.13467E+06,   1.13467E+06
C:/temp/Job-1.odb,Step-1,Increment      1: Step Time =    1.000,"P-1-1",         13439,   150.975E-03,   112.862E-03,            0.,NA,NA,"",   940.292E+03,   939.034E+03,   939.034E+03
C:/temp/Job-1.odb,Step-1,Increment      1: Step Time =    1.000,"P-1-1",         13440,   152.087E-03,   119.997E-03,            0.,NA,NA,"",   989.819E+03,   979.779E+03,   979.779E+03
C:/temp/Job-1.odb,Step-1,Increment      1: Step Time =    1.000,"P-1-1",         13441,   54.7338E-03,   71.2588E-03,            0.,NA,NA,"",   1.00206E+06,   1.01730E+06,   1.01730E+06
C:/temp/Job-1.odb,Step-1,Increment      1: Step Time =    1.000,"P-1-1",         13442,   52.0063E-03,   77.5064E-03,            0.,NA,NA,"",   942.241E+03,   970.717E+03,   970.717E+03
C:/temp/Job-1.odb,Step-1,Increment      1: Step Time =    1.000,"P-1-1",         13443,   36.9101E-03,   152.651E-03,            0.,NA,NA,"",   1.00147E+06,   1.03924E+06,   1.03924E+06
C:/temp/Job-1.odb,Step-1,Increment      1: Step Time =    1.000,"P-1-1",         13444,   151.941E-03,   161.830E-03,            0.,NA,NA,"",   1.04125E+06,   1.03107E+06,   1.03107E+06
C:/temp/Job-1.odb,Step-1,Increment      1: Step Time =    1.000,"P-1-1",         13445,   47.5557E-03,   37.7352E-03,            0.,NA,NA,"",   1.04490E+06,   1.05950E+06,   1.05950E+06
C:/temp/Job-1.odb,Step-1,Increment      1: Step Time =    1.000,"P-1-1",         13446,   162.509E-03,   47.0155E-03,            0.,NA,NA,"",   1.03481E+06,   1.02587E+06,   1.02587E+06
C:/temp/Job-1.odb,Step-1,Increment      1: Step Time =    1.000,"P-1-1",         13447,   96.6249E-03,   151.152E-03,            0.,NA,NA,"",   1.02524E+06,   1.06035E+06,   1.06035E+06
C:/temp/Job-1.odb,Step-1,Increment      1: Step Time =    1.000,"P-1-1",         13448,   149.795E-03,   36.6570E-03,            0.,NA,NA,"",   1.04070E+06,   1.03091E+06,   1.03091E+06
C:/temp/Job-1.odb,Step-1,Increment      1: Step Time =    1.000,"P-1-1",         13449,   36.7151E-03,   120.857E-03,            0.,NA,NA,"",   877.765E+03,   938.629E+03,   938.629E+03
C:/temp/Job-1.odb,Step-1,Increment      1: Step Time =    1.000,"P-1-1",         13450,   151.457E-03,   106.426E-03,            0.,NA,NA,"",   901.697E+03,   909.376E+03,   909.376E+03
C:/temp/Job-1.odb,Step-1,Increment      1: Step Time =    1.000,"P-1-1",         13451,   54.1106E-03,   119.195E-03,            0.,NA,NA,"",   922.876E+03,   950.835E+03,   950.835E+03
C:/temp/Job-1.odb,Step-1,Increment      1: Step Time =    1.000,"P-1-1",         13452,   93.5799E-03,   161.310E-03,            0.,NA,NA,"",   1.01692E+06,   1.03763E+06,   1.03763E+06
C:/temp/Job-1.odb,Step-1,Increment      1: Step Time =    1.000,"P-1-1",         13453,   38.6743E-03,   93.5738E-03,            0.,NA,NA,"",   824.538E+03,   891.740E+03,   891.740E+03
C:/temp/Job-1.odb,Step-1,Increment      1: Step Time =    1.000,"P-1-1",         13454,   161.770E-03,   106.805E-03,            0.,NA,NA,"",   937.699E+03,   947.453E+03,   947.453E+03
C:/temp/Job-1.odb,Step-1,Increment      1: Step Time =    1.000,"P-1-1",         13455,   62.9128E-03,   134.811E-03,            0.,NA,NA,"",   1.08059E+06,   1.07657E+06,   1.07657E+06
C:/temp/Job-1.odb,Step-1,Increment      1: Step Time =    1.000,"P-1-1",         13456,   22.2829E-03,   129.401E-03,            0.,NA,NA,"",   866.904E+03,   945.915E+03,   945.915E+03
C:/temp/Job-1.odb,Step-1,Increment      1: Step Time =    1.000,"P-1-1",         13457,   129.986E-03,   176.272E-03,            0.,NA,NA,"",   1.01082E+06,   1.00938E+06,   1.00938E+06
C:/temp/Job-1.odb,Step-1,Increment      1: Step Time =    1.000,"P-1-1",         13458,   63.5186E-03,   138.767E-03,            0.,NA,NA,"",   1.08591E+06,   1.08347E+06,   1.08347E+06
C:/temp/Job-1.odb,Step-1,Increment      1: Step Time =    1.000,"P-1-1",         13459,   137.356E-03,   139.524E-03,            0.,NA,NA,"",   1.11134E+06,   1.08161E+06,   1.08161E+06
C:/temp/Job-1.odb,Step-1,Increment      1: Step Time =    1.000,"P-1-1",         13460,   150.457E-03,   124.323E-03,            0.,NA,NA,"",   1.02033E+06,   1.00325E+06,   1.00325E+06
C:/temp/Job-1.odb,Step-1,Increment      1: Step Time =    1.000,"P-1-1",         13461,   72.5280E-03,   146.573E-03,            0.,NA,NA,"",   1.09434E+06,   1.09644E+06,   1.09644E+06
C:/temp/Job-1.odb,Step-1,Increment      1: Step Time =    1.000,"P-1-1",         13462,   151.652E-03,   122.314E-03,            0.,NA,NA,"",   1.00512E+06,   991.799E+03,   991.799E+03
C:/temp/Job-1.odb,Step-1,Increment      1: Step Time =    1.000,"P-1-1",         13463,   38.2867E-03,   116.587E-03,            0.,NA,NA,"",   861.671E+03,   923.358E+03,   923.358E+03
C:/temp/Job-1.odb,Step-1,Increment      1: Step Time =    1.000,"P-1-1",         13464,   148.959E-03,   92.9697E-03,            0.,NA,NA,"",   892.142E+03,   898.793E+03,   898.793E+03
C:/temp/Job-1.odb,Step-1,Increment      1: Step Time =    1.000,"P-1-1",         13465,   36.8441E-03,   122.191E-03,            0.,NA,NA,"",   884.023E+03,   943.932E+03,   943.932E+03
C:/temp/Job-1.odb,Step-1,Increment      1: Step Time =    1.000,"P-1-1",         13466,   121.926E-03,   163.594E-03,            0.,NA,NA,"",   1.03484E+06,   1.03762E+06,   1.03762E+06
C:/temp/Job-1.odb,Step-1,Increment      1: Step Time =    1.000,"P-1-1",         13467,   140.772E-03,   131.726E-03,            0.,NA,NA,"",   1.09578E+06,   1.06148E+06,   1.06148E+06
C:/temp/Job-1.odb,Step-1,Increment      1: Step Time =    1.000,"P-1-1",         13468,   143.943E-03,   130.430E-03,            0.,NA,NA,"",   1.07565E+06,   1.04550E+06,   1.04550E+06
C:/temp/Job-1.odb,Step-1,Increment      1: Step Time =    1.000,"P-1-1",         13469,   116.293E-03,   68.2397E-03,            0.,NA,NA,"",   1.18381E+06,   1.18049E+06,   1.18049E+06
C:/temp/Job-1.odb,Step-1,Increment      1: Step Time =    1.000,"P-1-1",         13470,   94.6697E-03,   58.4041E-03,            0.,NA,NA,"",   1.04532E+06,   1.09541E+06,   1.09541E+06
C:/temp/Job-1.odb,Step-1,Increment      1: Step Time =    1.000,"P-1-1",         13471,   136.990E-03,   73.6229E-03,            0.,NA,NA,"",   1.10142E+06,   1.05858E+06,   1.05858E+06
C:/temp/Job-1.odb,Step-1,Increment      1: Step Time =    1.000,"P-1-1",         13472,   142.638E-03,   131.359E-03,            0.,NA,NA,"",   1.08453E+06,   1.05274E+06,   1.05274E+06
C:/temp/Job-1.odb,Step-1,Increment      1: Step Time =    1.000,"P-1-1",         13473,   136.679E-03,   71.9840E-03,            0.,NA,NA,"",   1.11115E+06,   1.06843E+06,   1.06843E+06
C:/temp/Job-1.odb,Step-1,Increment      1: Step Time =    1.000,"P-1-1",         13474,   79.5424E-03,   62.4243E-03,            0.,NA,NA,"",   1.13440E+06,   1.13726E+06,   1.13726E+06
C:/temp/Job-1.odb,Step-1,Increment      1: Step Time =    1.000,"P-1-1",         13475,   40.5707E-03,   93.6562E-03,            0.,NA,NA,"",   824.000E+03,   889.041E+03,   889.041E+03
C:/temp/Job-1.odb,Step-1,Increment      1: Step Time =    1.000,"P-1-1",         13476,   160.523E-03,   107.120E-03,            0.,NA,NA,"",   935.573E+03,   944.736E+03,   944.736E+03
C:/temp/Job-1.odb,Step-1,Increment      1: Step Time =    1.000,"P-1-1",         13477,   93.3365E-03,   159.516E-03,            0.,NA,NA,"",   1.01972E+06,   1.04228E+06,   1.04228E+06
C:/temp/Job-1.odb,Step-1,Increment      1: Step Time =    1.000,"P-1-1",         13478,   163.023E-03,   99.2936E-03,            0.,NA,NA,"",   933.509E+03,   945.319E+03,   945.319E+03
C:/temp/Job-1.odb,Step-1,Increment      1: Step Time =    1.000,"P-1-1",         13479,   147.517E-03,   37.9308E-03,            0.,NA,NA,"",   1.04521E+06,   1.03460E+06,   1.03460E+06
C:/temp/Job-1.odb,Step-1,Increment      1: Step Time =    1.000,"P-1-1",         13480,   162.439E-03,   147.772E-03,            0.,NA,NA,"",   1.03614E+06,   1.02646E+06,   1.02646E+06
C:/temp/Job-1.odb,Step-1,Increment      1: Step Time =    1.000,"P-1-1",         13481,   37.3364E-03,   62.8494E-03,            0.,NA,NA,"",   951.874E+03,   999.594E+03,   999.594E+03
C:/temp/Job-1.odb,Step-1,Increment      1: Step Time =    1.000,"P-1-1",         13482,   62.4198E-03,   162.294E-03,            0.,NA,NA,"",   1.05635E+06,   1.06075E+06,   1.06075E+06
C:/temp/Job-1.odb,Step-1,Increment      1: Step Time =    1.000,"P-1-1",         13483,   78.5028E-03,   37.3815E-03,            0.,NA,NA,"",   1.04125E+06,   1.05054E+06,   1.05054E+06
C:/temp/Job-1.odb,Step-1,Increment      1: Step Time =    1.000,"P-1-1",         13484,   162.420E-03,   78.9139E-03,            0.,NA,NA,"",   986.556E+03,   985.743E+03,   985.743E+03
C:/temp/Job-1.odb,Step-1,Increment      1: Step Time =    1.000,"P-1-1",         13485,   147.096E-03,   87.6187E-03,            0.,NA,NA,"",   930.273E+03,   926.438E+03,   926.438E+03
C:/temp/Job-1.odb,Step-1,Increment      1: Step Time =    1.000,"P-1-1",         13486,   74.1656E-03,   33.4977E-03,            0.,NA,NA,"",   1.03870E+06,   1.04457E+06,   1.04457E+06
C:/temp/Job-1.odb,Step-1,Increment      1: Step Time =    1.000,"P-1-1",         13487,   165.667E-03,   74.0687E-03,            0.,NA,NA,"",   999.455E+03,   998.050E+03,   998.050E+03
C:/temp/Job-1.odb,Step-1,Increment      1: Step Time =    1.000,"P-1-1",         13488,   57.8735E-03,   131.085E-03,            0.,NA,NA,"",   1.03448E+06,   1.04097E+06,   1.04097E+06
C:/temp/Job-1.odb,Step-1,Increment      1: Step Time =    1.000,"P-1-1",         13489,   60.5285E-03,   132.174E-03,            0.,NA,NA,"",   1.05694E+06,   1.05706E+06,   1.05706E+06
C:/temp/Job-1.odb,Step-1,Increment      1: Step Time =    1.000,"P-1-1",         13490,   62.0349E-03,   135.876E-03,            0.,NA,NA,"",   1.07643E+06,   1.07456E+06,   1.07456E+06
C:/temp/Job-1.odb,Step-1,Increment      1: Step Time =    1.000,"P-1-1",         13491,   124.218E-03,   71.0539E-03,            0.,NA,NA,"",   1.20391E+06,   1.15604E+06,   1.15604E+06
C:/temp/Job-1.odb,Step-1,Increment      1: Step Time =    1.000,"P-1-1",         13492,   70.5395E-03,   61.5521E-03,            0.,NA,NA,"",   1.11717E+06,   1.10984E+06,   1.10984E+06
C:/temp/Job-1.odb,Step-1,Increment      1: Step Time =    1.000,"P-1-1",         13493,   113.387E-03,   149.992E-03,            0.,NA,NA,"",   1.05419E+06,   1.07285E+06,   1.07285E+06
C:/temp/Job-1.odb,Step-1,Increment      1: Step Time =    1.000,"P-1-1",         13494,   54.5110E-03,   124.244E-03,            0.,NA,NA,"",   969.858E+03,   989.917E+03,   989.917E+03
C:/temp/Job-1.odb,Step-1,Increment      1: Step Time =    1.000,"P-1-1",         13495,   146.118E-03,   125.412E-03,            0.,NA,NA,"",   1.04226E+06,   1.01727E+06,   1.01727E+06
C:/temp/Job-1.odb,Step-1,Increment      1: Step Time =    1.000,"P-1-1",         13496,   142.661E-03,   160.540E-03,            0.,NA,NA,"",   1.05259E+06,   1.04122E+06,   1.04122E+06
C:/temp/Job-1.odb,Step-1,Increment      1: Step Time =    1.000,"P-1-1",         13497,   37.9636E-03,   141.484E-03,            0.,NA,NA,"",   970.338E+03,   1.01399E+06,   1.01399E+06
C:/temp/Job-1.odb,Step-1,Increment      1: Step Time =    1.000,"P-1-1",         13498,   61.2704E-03,   38.4231E-03,            0.,NA,NA,"",   1.05718E+06,   1.06195E+06,   1.06195E+06
C:/temp/Job-1.odb,Step-1,Increment      1: Step Time =    1.000,"P-1-1",         13499,   161.293E-03,   61.6737E-03,            0.,NA,NA,"",   1.03338E+06,   1.02288E+06,   1.02288E+06
C:/temp/Job-1.odb,Step-1,Increment      1: Step Time =    1.000,"P-1-1",         13500,   125.415E-03,   38.6989E-03,            0.,NA,NA,"",   1.04624E+06,   1.04523E+06,   1.04523E+06
C:/temp/Job-1.odb,Step-1,Increment      1: Step Time =    1.000,"P-1-1",         13501,   162.311E-03,   125.664E-03,            0.,NA,NA,"",   1.00232E+06,   998.087E+03,   998.087E+03
C:/temp/Job-1.odb,Step-1,Increment      1: Step Time =    1.000,"P-1-1",         13502,   40.5899E-03,   162.125E-03,            0.,NA,NA,"",   1.03325E+06,   1.05725E+06,   1.05725E+06
C:/temp/Job-1.odb,Step-1,Increment      1: Step Time =    1.000,"P-1-1",         13503,   43.2921E-03,   162.499E-03,            0.,NA,NA,"",   1.03844E+06,   1.05831E+06,   1.05831E+06
C:/temp/Job-1.odb,Step-1,Increment      1: Step Time =    1.000,"P-1-1",         13504,   119.257E-03,   161.199E-03,            0.,NA,NA,"",   1.03700E+06,   1.04285E+06,   1.04285E+06
C:/temp/Job-1.odb,Step-1,Increment      1: Step Time =    1.000,"P-1-1",         13505,   40.3033E-03,   80.2241E-03,            0.,NA,NA,"",   882.076E+03,   937.840E+03,   937.840E+03
C:/temp/Job-1.odb,Step-1,Increment      1: Step Time =    1.000,"P-1-1",         13506,   80.5139E-03,   160.000E-03,            0.,NA,NA,"",   1.04344E+06,   1.05520E+06,   1.05520E+06
C:/temp/Job-1.odb,Step-1,Increment      1: Step Time =    1.000,"P-1-1",         13507,   159.965E-03,   118.526E-03,            0.,NA,NA,"",   977.142E+03,   976.432E+03,   976.432E+03
C:/temp/Job-1.odb,Step-1,Increment      1: Step Time =    1.000,"P-1-1",         13508,   162.519E-03,   95.8223E-03,            0.,NA,NA,"",   935.225E+03,   946.242E+03,   946.242E+03
C:/temp/Job-1.odb,Step-1,Increment      1: Step Time =    1.000,"P-1-1",         13509,   62.2429E-03,   137.280E-03,            0.,NA,NA,"",   1.07903E+06,   1.07748E+06,   1.07748E+06
C:/temp/Job-1.odb,Step-1,Increment      1: Step Time =    1.000,"P-1-1",         13510,   50.2800E-03,   106.036E-03,            0.,NA,NA,"",   809.116E+03,   863.298E+03,   863.298E+03
C:/temp/Job-1.odb,Step-1,Increment      1: Step Time =    1.000,"P-1-1",         13511,   96.7625E-03,   58.6753E-03,            0.,NA,NA,"",   1.03935E+06,   1.09314E+06,   1.09314E+06
C:/temp/Job-1.odb,Step-1,Increment      1: Step Time =    1.000,"P-1-1",         13512,   39.7763E-03,   153.280E-03,            0.,NA,NA,"",   1.01267E+06,   1.04463E+06,   1.04463E+06
C:/temp/Job-1.odb,Step-1,Increment      1: Step Time =    1.000,"P-1-1",         13513,   151.900E-03,   160.270E-03,            0.,NA,NA,"",   1.04362E+06,   1.03279E+06,   1.03279E+06
C:/temp/Job-1.odb,Step-1,Increment      1: Step Time =    1.000,"P-1-1",         13514,   47.5489E-03,   39.6452E-03,            0.,NA,NA,"",   1.04360E+06,   1.05927E+06,   1.05927E+06
C:/temp/Job-1.odb,Step-1,Increment      1: Step Time =    1.000,"P-1-1",         13515,   160.349E-03,   47.3058E-03,            0.,NA,NA,"",   1.03882E+06,   1.02864E+06,   1.02864E+06
C:/temp/Job-1.odb,Step-1,Increment      1: Step Time =    1.000,"P-1-1",         13516,   160.551E-03,   37.3036E-03,            0.,NA,NA,"",   1.02949E+06,   1.02210E+06,   1.02210E+06
C:/temp/Job-1.odb,Step-1,Increment      1: Step Time =    1.000,"P-1-1",         13517,   144.215E-03,   38.1947E-03,            0.,NA,NA,"",   1.04857E+06,   1.03780E+06,   1.03780E+06
C:/temp/Job-1.odb,Step-1,Increment      1: Step Time =    1.000,"P-1-1",         13518,   162.522E-03,   144.304E-03,            0.,NA,NA,"",   1.03552E+06,   1.02562E+06,   1.02562E+06
C:/temp/Job-1.odb,Step-1,Increment      1: Step Time =    1.000,"P-1-1",         13519,   37.4466E-03,   114.747E-03,            0.,NA,NA,"",   851.862E+03,   916.164E+03,   916.164E+03
C:/temp/Job-1.odb,Step-1,Increment      1: Step Time =    1.000,"P-1-1",         13520,   115.718E-03,   162.520E-03,            0.,NA,NA,"",   1.02773E+06,   1.03723E+06,   1.03723E+06
C:/temp/Job-1.odb,Step-1,Increment      1: Step Time =    1.000,"P-1-1",         13521,   152.856E-03,   38.2780E-03,            0.,NA,NA,"",   1.04030E+06,   1.03030E+06,   1.03030E+06
C:/temp/Job-1.odb,Step-1,Increment      1: Step Time =    1.000,"P-1-1",         13522,   161.772E-03,   152.559E-03,            0.,NA,NA,"",   1.03652E+06,   1.02703E+06,   1.02703E+06
C:/temp/Job-1.odb,Step-1,Increment      1: Step Time =    1.000,"P-1-1",         13523,   163.699E-03,   156.580E-03,            0.,NA,NA,"",   1.03073E+06,   1.02310E+06,   1.02310E+06
C:/temp/Job-1.odb,Step-1,Increment      1: Step Time =    1.000,"P-1-1",         13524,   162.032E-03,   160.540E-03,            0.,NA,NA,"",   1.02995E+06,   1.02249E+06,   1.02249E+06
C:/temp/Job-1.odb,Step-1,Increment      1: Step Time =    1.000,"P-1-1",         13525,   38.1094E-03,   40.6474E-03,            0.,NA,NA,"",   1.02238E+06,   1.05247E+06,   1.05247E+06
C:/temp/Job-1.odb,Step-1,Increment      1: Step Time =    1.000,"P-1-1",         13526,   37.3037E-03,   43.7305E-03,            0.,NA,NA,"",   1.01258E+06,   1.04673E+06,   1.04673E+06
C:/temp/Job-1.odb,Step-1,Increment      1: Step Time =    1.000,"P-1-1",         13527,   36.8025E-03,   50.2682E-03,            0.,NA,NA,"",   992.499E+03,   1.03254E+06,   1.03254E+06
C:/temp/Job-1.odb,Step-1,Increment      1: Step Time =    1.000,"P-1-1",         13528,   38.4090E-03,   47.1296E-03,            0.,NA,NA,"",   1.00715E+06,   1.04184E+06,   1.04184E+06
C:/temp/Job-1.odb,Step-1,Increment      1: Step Time =    1.000,"P-1-1",         13529,   47.3633E-03,   161.332E-03,            0.,NA,NA,"",   1.04400E+06,   1.05933E+06,   1.05933E+06
C:/temp/Job-1.odb,Step-1,Increment      1: Step Time =    1.000,"P-1-1",         13530,   50.0081E-03,   163.179E-03,            0.,NA,NA,"",   1.04806E+06,   1.05967E+06,   1.05967E+06
C:/temp/Job-1.odb,Step-1,Increment      1: Step Time =    1.000,"P-1-1",         13531,   137.840E-03,   135.642E-03,            0.,NA,NA,"",   1.11376E+06,   1.07978E+06,   1.07978E+06
C:/temp/Job-1.odb,Step-1,Increment      1: Step Time =    1.000,"P-1-1",         13532,   151.739E-03,   115.493E-03,            0.,NA,NA,"",   959.852E+03,   955.344E+03,   955.344E+03
C:/temp/Job-1.odb,Step-1,Increment      1: Step Time =    1.000,"P-1-1",         13533,   69.8773E-03,   38.7468E-03,            0.,NA,NA,"",   1.05578E+06,   1.06063E+06,   1.06063E+06
C:/temp/Job-1.odb,Step-1,Increment      1: Step Time =    1.000,"P-1-1",         13534,   161.690E-03,   70.9024E-03,            0.,NA,NA,"",   1.01388E+06,   1.00693E+06,   1.00693E+06
C:/temp/Job-1.odb,Step-1,Increment      1: Step Time =    1.000,"P-1-1",         13535,   74.0752E-03,   64.2254E-03,            0.,NA,NA,"",   1.13851E+06,   1.12821E+06,   1.12821E+06
C:/temp/Job-1.odb,Step-1,Increment      1: Step Time =    1.000,"P-1-1",         13536,   52.9622E-03,   71.5474E-03,            0.,NA,NA,"",   989.204E+03,   1.00925E+06,   1.00925E+06
C:/temp/Job-1.odb,Step-1,Increment      1: Step Time =    1.000,"P-1-1",         13537,   66.7737E-03,   39.0907E-03,            0.,NA,NA,"",   1.05822E+06,   1.06242E+06,   1.06242E+06
C:/temp/Job-1.odb,Step-1,Increment      1: Step Time =    1.000,"P-1-1",         13538,   163.110E-03,   65.8832E-03,            0.,NA,NA,"",   1.02268E+06,   1.01495E+06,   1.01495E+06
C:/temp/Job-1.odb,Step-1,Increment      1: Step Time =    1.000,"P-1-1",         13539,   38.2312E-03,   54.9264E-03,            0.,NA,NA,"",   983.523E+03,   1.02416E+06,   1.02416E+06
C:/temp/Job-1.odb,Step-1,Increment      1: Step Time =    1.000,"P-1-1",         13540,   53.4667E-03,   161.531E-03,            0.,NA,NA,"",   1.05205E+06,   1.06117E+06,   1.06117E+06
C:/temp/Job-1.odb,Step-1,Increment      1: Step Time =    1.000,"P-1-1",         13541,   84.7812E-03,   37.1081E-03,            0.,NA,NA,"",   1.02906E+06,   1.04291E+06,   1.04291E+06
C:/temp/Job-1.odb,Step-1,Increment      1: Step Time =    1.000,"P-1-1",         13542,   86.9426E-03,   38.2118E-03,            0.,NA,NA,"",   1.02717E+06,   1.04331E+06,   1.04331E+06
C:/temp/Job-1.odb,Step-1,Increment      1: Step Time =    1.000,"P-1-1",         13543,   161.735E-03,   83.8004E-03,            0.,NA,NA,"",   968.430E+03,   971.144E+03,   971.144E+03
C:/temp/Job-1.odb,Step-1,Increment      1: Step Time =    1.000,"P-1-1",         13544,   58.2778E-03,   65.1264E-03,            0.,NA,NA,"",   1.05109E+06,   1.05605E+06,   1.05605E+06
C:/temp/Job-1.odb,Step-1,Increment      1: Step Time =    1.000,"P-1-1",         13545,   52.7005E-03,   120.184E-03,            0.,NA,NA,"",   926.567E+03,   956.428E+03,   956.428E+03
C:/temp/Job-1.odb,Step-1,Increment      1: Step Time =    1.000,"P-1-1",         13546,   129.104E-03,   38.6181E-03,            0.,NA,NA,"",   1.04986E+06,   1.04550E+06,   1.04550E+06
C:/temp/Job-1.odb,Step-1,Increment      1: Step Time =    1.000,"P-1-1",         13547,   161.457E-03,   128.981E-03,            0.,NA,NA,"",   1.01402E+06,   1.00683E+06,   1.00683E+06
C:/temp/Job-1.odb,Step-1,Increment      1: Step Time =    1.000,"P-1-1",         13548,   38.4348E-03,   162.863E-03,            0.,NA,NA,"",   1.03070E+06,   1.05729E+06,   1.05729E+06
C:/temp/Job-1.odb,Step-1,Increment      1: Step Time =    1.000,"P-1-1",         13549,   89.1568E-03,   58.2889E-03,            0.,NA,NA,"",   1.07176E+06,   1.10748E+06,   1.10748E+06
C:/temp/Job-1.odb,Step-1,Increment      1: Step Time =    1.000,"P-1-1",         13550,   161.837E-03,   89.7615E-03,            0.,NA,NA,"",   947.011E+03,   954.645E+03,   954.645E+03
C:/temp/Job-1.odb,Step-1,Increment      1: Step Time =    1.000,"P-1-1",         13551,   122.691E-03,   38.1855E-03,            0.,NA,NA,"",   1.04117E+06,   1.04306E+06,   1.04306E+06
C:/temp/Job-1.odb,Step-1,Increment      1: Step Time =    1.000,"P-1-1",         13552,   162.291E-03,   123.514E-03,            0.,NA,NA,"",   995.410E+03,   992.579E+03,   992.579E+03
C:/temp/Job-1.odb,Step-1,Increment      1: Step Time =    1.000,"P-1-1",         13553,   38.0350E-03,   77.4248E-03,            0.,NA,NA,"",   889.689E+03,   947.140E+03,   947.140E+03
C:/temp/Job-1.odb,Step-1,Increment      1: Step Time =    1.000,"P-1-1",         13554,   161.695E-03,   41.6974E-03,            0.,NA,NA,"",   1.03255E+06,   1.02436E+06,   1.02436E+06
C:/temp/Job-1.odb,Step-1,Increment      1: Step Time =    1.000,"P-1-1",         13555,   76.9848E-03,   161.747E-03,            0.,NA,NA,"",   1.04581E+06,   1.05427E+06,   1.05427E+06
C:/temp/Job-1.odb,Step-1,Increment      1: Step Time =    1.000,"P-1-1",         13556,   123.371E-03,   145.823E-03,            0.,NA,NA,"",   1.10169E+06,   1.09524E+06,   1.09524E+06
C:/temp/Job-1.odb,Step-1,Increment      1: Step Time =    1.000,"P-1-1",         13557,   41.0306E-03,   37.3350E-03,            0.,NA,NA,"",   1.03471E+06,   1.05773E+06,   1.05773E+06
C:/temp/Job-1.odb,Step-1,Increment      1: Step Time =    1.000,"P-1-1",         13558,   159.117E-03,   162.272E-03,            0.,NA,NA,"",   1.03190E+06,   1.02387E+06,   1.02387E+06
C:/temp/Job-1.odb,Step-1,Increment      1: Step Time =    1.000,"P-1-1",         13559,   38.7108E-03,   74.2021E-03,            0.,NA,NA,"",   907.199E+03,   960.892E+03,   960.892E+03
C:/temp/Job-1.odb,Step-1,Increment      1: Step Time =    1.000,"P-1-1",         13560,   39.3175E-03,   159.010E-03,            0.,NA,NA,"",   1.02451E+06,   1.05294E+06,   1.05294E+06
C:/temp/Job-1.odb,Step-1,Increment      1: Step Time =    1.000,"P-1-1",         13561,   74.0048E-03,   162.067E-03,            0.,NA,NA,"",   1.04943E+06,   1.05599E+06,   1.05599E+06
C:/temp/Job-1.odb,Step-1,Increment      1: Step Time =    1.000,"P-1-1",         13562,   49.9862E-03,   112.752E-03,            0.,NA,NA,"",   854.262E+03,   900.994E+03,   900.994E+03
C:/temp/Job-1.odb,Step-1,Increment      1: Step Time =    1.000,"P-1-1",         13563,   36.9684E-03,   64.4834E-03,            0.,NA,NA,"",   943.456E+03,   993.193E+03,   993.193E+03
C:/temp/Job-1.odb,Step-1,Increment      1: Step Time =    1.000,"P-1-1",         13564,   65.1037E-03,   163.318E-03,            0.,NA,NA,"",   1.05401E+06,   1.05807E+06,   1.05807E+06
C:/temp/Job-1.odb,Step-1,Increment      1: Step Time =    1.000,"P-1-1",         13565,   104.506E-03,   70.5191E-03,            0.,NA,NA,"",   1.10713E+06,   1.18976E+06,   1.18976E+06
C:/temp/Job-1.odb,Step-1,Increment      1: Step Time =    1.000,"P-1-1",         13566,   49.5219E-03,   100.828E-03,            0.,NA,NA,"",   796.959E+03,   854.409E+03,   854.409E+03
C:/temp/Job-1.odb,Step-1,Increment      1: Step Time =    1.000,"P-1-1",         13567,   50.1421E-03,   109.388E-03,            0.,NA,NA,"",   829.328E+03,   880.177E+03,   880.177E+03
C:/temp/Job-1.odb,Step-1,Increment      1: Step Time =    1.000,"P-1-1",         13568,   103.877E-03,   36.6343E-03,            0.,NA,NA,"",   1.01105E+06,   1.02960E+06,   1.02960E+06
C:/temp/Job-1.odb,Step-1,Increment      1: Step Time =    1.000,"P-1-1",         13569,   105.721E-03,   38.0010E-03,            0.,NA,NA,"",   1.01386E+06,   1.03267E+06,   1.03267E+06
C:/temp/Job-1.odb,Step-1,Increment      1: Step Time =    1.000,"P-1-1",         13570,   162.900E-03,   102.892E-03,            0.,NA,NA,"",   934.425E+03,   945.913E+03,   945.913E+03
C:/temp/Job-1.odb,Step-1,Increment      1: Step Time =    1.000,"P-1-1",         13571,   96.5694E-03,   162.618E-03,            0.,NA,NA,"",   1.01232E+06,   1.03283E+06,   1.03283E+06
C:/temp/Job-1.odb,Step-1,Increment      1: Step Time =    1.000,"P-1-1",         13572,   37.2132E-03,   96.2491E-03,            0.,NA,NA,"",   820.389E+03,   889.997E+03,   889.997E+03
C:/temp/Job-1.odb,Step-1,Increment      1: Step Time =    1.000,"P-1-1",         13573,   119.136E-03,   147.164E-03,            0.,NA,NA,"",   1.08482E+06,   1.08943E+06,   1.08943E+06
C:/temp/Job-1.odb,Step-1,Increment      1: Step Time =    1.000,"P-1-1",         13574,   37.5295E-03,   67.3966E-03,            0.,NA,NA,"",   934.783E+03,   985.217E+03,   985.217E+03
C:/temp/Job-1.odb,Step-1,Increment      1: Step Time =    1.000,"P-1-1",         13575,   66.6293E-03,   161.364E-03,            0.,NA,NA,"",   1.05738E+06,   1.06157E+06,   1.06157E+06
C:/temp/Job-1.odb,Step-1,Increment      1: Step Time =    1.000,"P-1-1",         13576,   49.6482E-03,   96.4070E-03,            0.,NA,NA,"",   801.544E+03,   857.957E+03,   857.957E+03
C:/temp/Job-1.odb,Step-1,Increment      1: Step Time =    1.000,"P-1-1",         13577,   126.559E-03,   72.8881E-03,            0.,NA,NA,"",   1.19281E+06,   1.13704E+06,   1.13704E+06
C:/temp/Job-1.odb,Step-1,Increment      1: Step Time =    1.000,"P-1-1",         13578,   38.8690E-03,   139.271E-03,            0.,NA,NA,"",   966.504E+03,   1.00976E+06,   1.00976E+06
C:/temp/Job-1.odb,Step-1,Increment      1: Step Time =    1.000,"P-1-1",         13579,   95.1197E-03,   37.7007E-03,            0.,NA,NA,"",   1.01390E+06,   1.03439E+06,   1.03439E+06
C:/temp/Job-1.odb,Step-1,Increment      1: Step Time =    1.000,"P-1-1",         13580,   34.9086E-03,   132.603E-03,            0.,NA,NA,"",   923.431E+03,   979.190E+03,   979.190E+03
C:/temp/Job-1.odb,Step-1,Increment      1: Step Time =    1.000,"P-1-1",         13581,   133.491E-03,   164.372E-03,            0.,NA,NA,"",   1.04386E+06,   1.03766E+06,   1.03766E+06
C:/temp/Job-1.odb,Step-1,Increment      1: Step Time =    1.000,"P-1-1",         13582,   36.8470E-03,   104.474E-03,            0.,NA,NA,"",   820.856E+03,   890.679E+03,   890.679E+03
C:/temp/Job-1.odb,Step-1,Increment      1: Step Time =    1.000,"P-1-1",         13583,   105.145E-03,   161.932E-03,            0.,NA,NA,"",   1.01366E+06,   1.03292E+06,   1.03292E+06
C:/temp/Job-1.odb,Step-1,Increment      1: Step Time =    1.000,"P-1-1",         13584,   125.930E-03,   68.4312E-03,            0.,NA,NA,"",   1.18159E+06,   1.14018E+06,   1.14018E+06
C:/temp/Job-1.odb,Step-1,Increment      1: Step Time =    1.000,"P-1-1",         13585,   101.404E-03,   164.198E-03,            0.,NA,NA,"",   1.00896E+06,   1.02737E+06,   1.02737E+06
C:/temp/Job-1.odb,Step-1,Increment      1: Step Time =    1.000,"P-1-1",         13586,   36.2247E-03,   100.191E-03,            0.,NA,NA,"",   817.963E+03,   888.900E+03,   888.900E+03
C:/temp/Job-1.odb,Step-1,Increment      1: Step Time =    1.000,"P-1-1",         13587,   125.486E-03,   145.511E-03,            0.,NA,NA,"",   1.10620E+06,   1.09496E+06,   1.09496E+06
C:/temp/Job-1.odb,Step-1,Increment      1: Step Time =    1.000,"P-1-1",         13588,   99.6152E-03,   34.6290E-03,            0.,NA,NA,"",   1.00744E+06,   1.02508E+06,   1.02508E+06
C:/temp/Job-1.odb,Step-1,Increment      1: Step Time =    1.000,"P-1-1",         13589,   86.5140E-03,   58.7607E-03,            0.,NA,NA,"",   1.08751E+06,   1.11538E+06,   1.11538E+06
C:/temp/Job-1.odb,Step-1,Increment      1: Step Time =    1.000,"P-1-1",         13590,   80.1857E-03,   60.8750E-03,            0.,NA,NA,"",   1.12308E+06,   1.12974E+06,   1.12974E+06
C:/temp/Job-1.odb,Step-1,Increment      1: Step Time =    1.000,"P-1-1",         13591,   56.8913E-03,   129.373E-03,            0.,NA,NA,"",   1.01994E+06,   1.02936E+06,   1.02936E+06
C:/temp/Job-1.odb,Step-1,Increment      1: Step Time =    1.000,"P-1-1",         13592,   91.1399E-03,   153.035E-03,            0.,NA,NA,"",   1.03319E+06,   1.06123E+06,   1.06123E+06
C:/temp/Job-1.odb,Step-1,Increment      1: Step Time =    1.000,"P-1-1",         13593,   67.5096E-03,   142.649E-03,            0.,NA,NA,"",   1.09773E+06,   1.09529E+06,   1.09529E+06
C:/temp/Job-1.odb,Step-1,Increment      1: Step Time =    1.000,"P-1-1",         13594,   88.4250E-03,   151.426E-03,            0.,NA,NA,"",   1.04408E+06,   1.07005E+06,   1.07005E+06
C:/temp/Job-1.odb,Step-1,Increment      1: Step Time =    1.000,"P-1-1",         13595,   132.554E-03,   70.2976E-03,            0.,NA,NA,"",   1.14474E+06,   1.09835E+06,   1.09835E+06
C:/temp/Job-1.odb,Step-1,Increment      1: Step Time =    1.000,"P-1-1",         13596,   102.759E-03,   61.1672E-03,            0.,NA,NA,"",   1.04447E+06,   1.10387E+06,   1.10387E+06
C:/temp/Job-1.odb,Step-1,Increment      1: Step Time =    1.000,"P-1-1",         13597,   152.692E-03,   118.037E-03,            0.,NA,NA,"",   976.827E+03,   969.903E+03,   969.903E+03
C:/temp/Job-1.odb,Step-1,Increment      1: Step Time =    1.000,"P-1-1",         13598,   151.986E-03,   107.881E-03,            0.,NA,NA,"",   910.990E+03,   917.211E+03,   917.211E+03
C:/temp/Job-1.odb,Step-1,Increment      1: Step Time =    1.000,"P-1-1",         13599,   152.955E-03,   121.359E-03,            0.,NA,NA,"",   996.813E+03,   986.246E+03,   986.246E+03
C:/temp/Job-1.odb,Step-1,Increment      1: Step Time =    1.000,"P-1-1",         13600,   153.675E-03,   162.152E-03,            0.,NA,NA,"",   1.03890E+06,   1.02921E+06,   1.02921E+06
C:/temp/Job-1.odb,Step-1,Increment      1: Step Time =    1.000,"P-1-1",         13601,   95.6558E-03,   152.132E-03,            0.,NA,NA,"",   1.02541E+06,   1.05856E+06,   1.05856E+06
C:/temp/Job-1.odb,Step-1,Increment      1: Step Time =    1.000,"P-1-1",         13602,   151.372E-03,   114.194E-03,            0.,NA,NA,"",   950.553E+03,   947.580E+03,   947.580E+03
C:/temp/Job-1.odb,Step-1,Increment      1: Step Time =    1.000,"P-1-1",         13603,   46.6406E-03,   36.6416E-03,            0.,NA,NA,"",   1.04441E+06,   1.05943E+06,   1.05943E+06
C:/temp/Job-1.odb,Step-1,Increment      1: Step Time =    1.000,"P-1-1",         13604,   104.801E-03,   64.2954E-03,            0.,NA,NA,"",   1.06460E+06,   1.12734E+06,   1.12734E+06
C:/temp/Job-1.odb,Step-1,Increment      1: Step Time =    1.000,"P-1-1",         13605,   118.085E-03,   162.395E-03,            0.,NA,NA,"",   1.03209E+06,   1.03901E+06,   1.03901E+06
C:/temp/Job-1.odb,Step-1,Increment      1: Step Time =    1.000,"P-1-1",         13606,   110.174E-03,   149.663E-03,            0.,NA,NA,"",   1.04444E+06,   1.07005E+06,   1.07005E+06
C:/temp/Job-1.odb,Step-1,Increment      1: Step Time =    1.000,"P-1-1",         13607,   88.9334E-03,   152.320E-03,            0.,NA,NA,"",   1.04063E+06,   1.06636E+06,   1.06636E+06
C:/temp/Job-1.odb,Step-1,Increment      1: Step Time =    1.000,"P-1-1",         13608,   152.371E-03,   112.515E-03,            0.,NA,NA,"",   940.184E+03,   940.502E+03,   940.502E+03
C:/temp/Job-1.odb,Step-1,Increment      1: Step Time =    1.000,"P-1-1",         13609,   92.5538E-03,   37.3536E-03,            0.,NA,NA,"",   1.01629E+06,   1.03540E+06,   1.03540E+06
C:/temp/Job-1.odb,Step-1,Increment      1: Step Time =    1.000,"P-1-1",         13610,   107.110E-03,   162.060E-03,            0.,NA,NA,"",   1.01550E+06,   1.03331E+06,   1.03331E+06
C:/temp/Job-1.odb,Step-1,Increment      1: Step Time =    1.000,"P-1-1",         13611,   114.553E-03,   69.1237E-03,            0.,NA,NA,"",   1.18565E+06,   1.19090E+06,   1.19090E+06
C:/temp/Job-1.odb,Step-1,Increment      1: Step Time =    1.000,"P-1-1",         13612,   37.1065E-03,   106.309E-03,            0.,NA,NA,"",   824.397E+03,   893.373E+03,   893.373E+03
C:/temp/Job-1.odb,Step-1,Increment      1: Step Time =    1.000,"P-1-1",         13613,   124.270E-03,   163.236E-03,            0.,NA,NA,"",   1.03943E+06,   1.03989E+06,   1.03989E+06
C:/temp/Job-1.odb,Step-1,Increment      1: Step Time =    1.000,"P-1-1",         13614,   37.3897E-03,   125.344E-03,            0.,NA,NA,"",   900.960E+03,   957.399E+03,   957.399E+03
C:/temp/Job-1.odb,Step-1,Increment      1: Step Time =    1.000,"P-1-1",         13615,   38.5182E-03,   119.881E-03,            0.,NA,NA,"",   877.954E+03,   936.763E+03,   936.763E+03
C:/temp/Job-1.odb,Step-1,Increment      1: Step Time =    1.000,"P-1-1",         13616,   51.5113E-03,   75.6276E-03,            0.,NA,NA,"",   954.007E+03,   981.490E+03,   981.490E+03
C:/temp/Job-1.odb,Step-1,Increment      1: Step Time =    1.000,"P-1-1",         13617,   127.082E-03,   162.681E-03,            0.,NA,NA,"",   1.04443E+06,   1.04208E+06,   1.04208E+06
C:/temp/Job-1.odb,Step-1,Increment      1: Step Time =    1.000,"P-1-1",         13618,   37.8651E-03,   127.223E-03,            0.,NA,NA,"",   911.486E+03,   965.651E+03,   965.651E+03
C:/temp/Job-1.odb,Step-1,Increment      1: Step Time =    1.000,"P-1-1",         13619,   152.059E-03,   101.518E-03,            0.,NA,NA,"",   889.757E+03,   900.737E+03,   900.737E+03
C:/temp/Job-1.odb,Step-1,Increment      1: Step Time =    1.000,"P-1-1",         13620,   55.5723E-03,   66.8415E-03,            0.,NA,NA,"",   1.02796E+06,   1.03928E+06,   1.03928E+06
C:/temp/Job-1.odb,Step-1,Increment      1: Step Time =    1.000,"P-1-1",         13621,   102.225E-03,   70.8611E-03,            0.,NA,NA,"",   1.09504E+06,   1.18810E+06,   1.18810E+06
C:/temp/Job-1.odb,Step-1,Increment      1: Step Time =    1.000,"P-1-1",         13622,   39.0572E-03,   146.919E-03,            0.,NA,NA,"",   992.786E+03,   1.03045E+06,   1.03045E+06
C:/temp/Job-1.odb,Step-1,Increment      1: Step Time =    1.000,"P-1-1",         13623,   146.427E-03,   161.135E-03,            0.,NA,NA,"",   1.04830E+06,   1.03711E+06,   1.03711E+06
C:/temp/Job-1.odb,Step-1,Increment      1: Step Time =    1.000,"P-1-1",         13624,   73.6604E-03,   62.4606E-03,            0.,NA,NA,"",   1.13058E+06,   1.12295E+06,   1.12295E+06
C:/temp/Job-1.odb,Step-1,Increment      1: Step Time =    1.000,"P-1-1",         13625,   160.838E-03,   52.6798E-03,            0.,NA,NA,"",   1.03976E+06,   1.02883E+06,   1.02883E+06
C:/temp/Job-1.odb,Step-1,Increment      1: Step Time =    1.000,"P-1-1",         13626,   83.6117E-03,   149.709E-03,            0.,NA,NA,"",   1.06404E+06,   1.08294E+06,   1.08294E+06
C:/temp/Job-1.odb,Step-1,Increment      1: Step Time =    1.000,"P-1-1",         13627,   49.6758E-03,   93.1721E-03,            0.,NA,NA,"",   814.689E+03,   868.857E+03,   868.857E+03
C:/temp/Job-1.odb,Step-1,Increment      1: Step Time =    1.000,"P-1-1",         13628,   134.851E-03,   70.2269E-03,            0.,NA,NA,"",   1.12855E+06,   1.08487E+06,   1.08487E+06
C:/temp/Job-1.odb,Step-1,Increment      1: Step Time =    1.000,"P-1-1",         13629,   50.4904E-03,   77.9121E-03,            0.,NA,NA,"",   931.750E+03,   964.472E+03,   964.472E+03
C:/temp/Job-1.odb,Step-1,Increment      1: Step Time =    1.000,"P-1-1",         13630,   152.717E-03,   104.710E-03,            0.,NA,NA,"",   900.780E+03,   910.097E+03,   910.097E+03
C:/temp/Job-1.odb,Step-1,Increment      1: Step Time =    1.000,"P-1-1",         13631,   51.9073E-03,   72.9333E-03,            0.,NA,NA,"",   974.508E+03,   998.294E+03,   998.294E+03
C:/temp/Job-1.odb,Step-1,Increment      1: Step Time =    1.000,"P-1-1",         13632,   119.318E-03,   37.6871E-03,            0.,NA,NA,"",   1.03449E+06,   1.03998E+06,   1.03998E+06
C:/temp/Job-1.odb,Step-1,Increment      1: Step Time =    1.000,"P-1-1",         13633,   161.059E-03,   136.000E-03,            0.,NA,NA,"",   1.03048E+06,   1.02021E+06,   1.02021E+06
C:/temp/Job-1.odb,Step-1,Increment      1: Step Time =    1.000,"P-1-1",         13634,   137.207E-03,   39.0058E-03,            0.,NA,NA,"",   1.05381E+06,   1.04413E+06,   1.04413E+06
C:/temp/Job-1.odb,Step-1,Increment      1: Step Time =    1.000,"P-1-1",         13635,   152.213E-03,   97.9407E-03,            0.,NA,NA,"",   891.161E+03,   902.004E+03,   902.004E+03
C:/temp/Job-1.odb,Step-1,Increment      1: Step Time =    1.000,"P-1-1",         13636,   50.5833E-03,   81.6312E-03,            0.,NA,NA,"",   902.208E+03,   939.695E+03,   939.695E+03
C:/temp/Job-1.odb,Step-1,Increment      1: Step Time =    1.000,"P-1-1",         13637,   50.2664E-03,   102.780E-03,            0.,NA,NA,"",   796.997E+03,   853.288E+03,   853.288E+03
C:/temp/Job-1.odb,Step-1,Increment      1: Step Time =    1.000,"P-1-1",         13638,   122.201E-03,   69.2242E-03,            0.,NA,NA,"",   1.19993E+06,   1.16473E+06,   1.16473E+06
C:/temp/Job-1.odb,Step-1,Increment      1: Step Time =    1.000,"P-1-1",         13639,   133.937E-03,   38.8287E-03,            0.,NA,NA,"",   1.05307E+06,   1.04510E+06,   1.04510E+06
C:/temp/Job-1.odb,Step-1,Increment      1: Step Time =    1.000,"P-1-1",         13640,   162.489E-03,   133.586E-03,            0.,NA,NA,"",   1.02344E+06,   1.01512E+06,   1.01512E+06
C:/temp/Job-1.odb,Step-1,Increment      1: Step Time =    1.000,"P-1-1",         13641,   50.0968E-03,   87.6796E-03,            0.,NA,NA,"",   851.273E+03,   898.360E+03,   898.360E+03
C:/temp/Job-1.odb,Step-1,Increment      1: Step Time =    1.000,"P-1-1",         13642,   50.7548E-03,   85.1196E-03,            0.,NA,NA,"",   872.878E+03,   915.127E+03,   915.127E+03
C:/temp/Job-1.odb,Step-1,Increment      1: Step Time =    1.000,"P-1-1",         13643,   67.2648E-03,   60.3616E-03,            0.,NA,NA,"",   1.10240E+06,   1.09735E+06,   1.09735E+06
C:/temp/Job-1.odb,Step-1,Increment      1: Step Time =    1.000,"P-1-1",         13644,   143.195E-03,   77.5848E-03,            0.,NA,NA,"",   1.03483E+06,   1.00701E+06,   1.00701E+06
C:/temp/Job-1.odb,Step-1,Increment      1: Step Time =    1.000,"P-1-1",         13645,   146.485E-03,   85.9611E-03,            0.,NA,NA,"",   946.796E+03,   938.714E+03,   938.714E+03
C:/temp/Job-1.odb,Step-1,Increment      1: Step Time =    1.000,"P-1-1",         13646,   104.237E-03,   162.909E-03,            0.,NA,NA,"",   1.01165E+06,   1.03048E+06,   1.03048E+06
C:/temp/Job-1.odb,Step-1,Increment      1: Step Time =    1.000,"P-1-1",         13647,   36.5877E-03,   102.945E-03,            0.,NA,NA,"",   819.159E+03,   889.565E+03,   889.565E+03
C:/temp/Job-1.odb,Step-1,Increment      1: Step Time =    1.000,"P-1-1",         13648,   96.1988E-03,   36.3843E-03,            0.,NA,NA,"",   1.01127E+06,   1.03050E+06,   1.03050E+06
C:/temp/Job-1.odb,Step-1,Increment      1: Step Time =    1.000,"P-1-1",         13649,   111.934E-03,   162.392E-03,            0.,NA,NA,"",   1.02171E+06,   1.03525E+06,   1.03525E+06
C:/temp/Job-1.odb,Step-1,Increment      1: Step Time =    1.000,"P-1-1",         13650,   37.9763E-03,   110.144E-03,            0.,NA,NA,"",   835.234E+03,   901.604E+03,   901.604E+03
C:/temp/Job-1.odb,Step-1,Increment      1: Step Time =    1.000,"P-1-1",         13651,   90.2990E-03,   159.919E-03,            0.,NA,NA,"",   1.02414E+06,   1.04434E+06,   1.04434E+06
C:/temp/Job-1.odb,Step-1,Increment      1: Step Time =    1.000,"P-1-1",         13652,   39.6264E-03,   90.1732E-03,            0.,NA,NA,"",   835.073E+03,   899.423E+03,   899.423E+03
C:/temp/Job-1.odb,Step-1,Increment      1: Step Time =    1.000,"P-1-1",         13653,   75.4278E-03,   37.3305E-03,            0.,NA,NA,"",   1.04605E+06,   1.05331E+06,   1.05331E+06
C:/temp/Job-1.odb,Step-1,Increment      1: Step Time =    1.000,"P-1-1",         13654,   55.4254E-03,   126.004E-03,            0.,NA,NA,"",   987.994E+03,   1.00381E+06,   1.00381E+06
C:/temp/Job-1.odb,Step-1,Increment      1: Step Time =    1.000,"P-1-1",         13655,   70.6484E-03,   162.790E-03,            0.,NA,NA,"",   1.05139E+06,   1.05641E+06,   1.05641E+06
C:/temp/Job-1.odb,Step-1,Increment      1: Step Time =    1.000,"P-1-1",         13656,   38.8247E-03,   155.107E-03,            0.,NA,NA,"",   1.01413E+06,   1.04640E+06,   1.04640E+06
C:/temp/Job-1.odb,Step-1,Increment      1: Step Time =    1.000,"P-1-1",         13657,   38.6222E-03,   70.9983E-03,            0.,NA,NA,"",   922.580E+03,   973.756E+03,   973.756E+03
C:/temp/Job-1.odb,Step-1,Increment      1: Step Time =    1.000,"P-1-1",         13658,   162.552E-03,   86.7696E-03,            0.,NA,NA,"",   958.075E+03,   963.772E+03,   963.772E+03
C:/temp/Job-1.odb,Step-1,Increment      1: Step Time =    1.000,"P-1-1",         13659,   49.8100E-03,   116.039E-03,            0.,NA,NA,"",   880.566E+03,   922.991E+03,   922.991E+03
C:/temp/Job-1.odb,Step-1,Increment      1: Step Time =    1.000,"P-1-1",         13660,   156.432E-03,   161.188E-03,            0.,NA,NA,"",   1.03692E+06,   1.02760E+06,   1.02760E+06
C:/temp/Job-1.odb,Step-1,Increment      1: Step Time =    1.000,"P-1-1",         13661,   44.3375E-03,   38.2717E-03,            0.,NA,NA,"",   1.03942E+06,   1.05838E+06,   1.05838E+06
C:/temp/Job-1.odb,Step-1,Increment      1: Step Time =    1.000,"P-1-1",         13662,   162.128E-03,   44.8645E-03,            0.,NA,NA,"",   1.03428E+06,   1.02555E+06,   1.02555E+06
C:/temp/Job-1.odb,Step-1,Increment      1: Step Time =    1.000,"P-1-1",         13663,   54.2596E-03,   69.8511E-03,            0.,NA,NA,"",   1.00592E+06,   1.02182E+06,   1.02182E+06
C:/temp/Job-1.odb,Step-1,Increment      1: Step Time =    1.000,"P-1-1",         13664,   139.714E-03,   74.5255E-03,            0.,NA,NA,"",   1.07736E+06,   1.04007E+06,   1.04007E+06
C:/temp/Job-1.odb,Step-1,Increment      1: Step Time =    1.000,"P-1-1",         13665,   78.2047E-03,   151.017E-03,            0.,NA,NA,"",   1.07355E+06,   1.08394E+06,   1.08394E+06
C:/temp/Job-1.odb,Step-1,Increment      1: Step Time =    1.000,"P-1-1",         13666,   153.085E-03,   164.184E-03,            0.,NA,NA,"",   1.03617E+06,   1.02722E+06,   1.02722E+06
C:/temp/Job-1.odb,Step-1,Increment      1: Step Time =    1.000,"P-1-1",         13667,   162.214E-03,   120.282E-03,            0.,NA,NA,"",   983.830E+03,   983.516E+03,   983.516E+03
C:/temp/Job-1.odb,Step-1,Increment      1: Step Time =    1.000,"P-1-1",         13668,   79.8918E-03,   161.883E-03,            0.,NA,NA,"",   1.04039E+06,   1.05093E+06,   1.05093E+06
C:/temp/Job-1.odb,Step-1,Increment      1: Step Time =    1.000,"P-1-1",         13669,   46.9343E-03,   35.5115E-03,            0.,NA,NA,"",   1.04524E+06,   1.05933E+06,   1.05933E+06
C:/temp/Job-1.odb,Step-1,Increment      1: Step Time =    1.000,"P-1-1",         13670,   165.713E-03,   48.0349E-03,            0.,NA,NA,"",   1.02939E+06,   1.02220E+06,   1.02220E+06
C:/temp/Job-1.odb,Step-1,Increment      1: Step Time =    1.000,"P-1-1",         13671,   163.614E-03,   45.8170E-03,            0.,NA,NA,"",   1.03215E+06,   1.02407E+06,   1.02407E+06
C:/temp/Job-1.odb,Step-1,Increment      1: Step Time =    1.000,"P-1-1",         13672,   45.8377E-03,   38.1252E-03,            0.,NA,NA,"",   1.04203E+06,   1.05894E+06,   1.05894E+06
C:/temp/Job-1.odb,Step-1,Increment      1: Step Time =    1.000,"P-1-1",         13673,   155.563E-03,   162.065E-03,            0.,NA,NA,"",   1.03679E+06,   1.02754E+06,   1.02754E+06
C:/temp/Job-1.odb,Step-1,Increment      1: Step Time =    1.000,"P-1-1",         13674,   37.0741E-03,   154.139E-03,            0.,NA,NA,"",   1.00620E+06,   1.04245E+06,   1.04245E+06
C:/temp/Job-1.odb,Step-1,Increment      1: Step Time =    1.000,"P-1-1",         13675,   39.9805E-03,   149.820E-03,            0.,NA,NA,"",   1.00455E+06,   1.03857E+06,   1.03857E+06
C:/temp/Job-1.odb,Step-1,Increment      1: Step Time =    1.000,"P-1-1",         13676,   112.482E-03,   75.4517E-03,            0.,NA,NA,"",   1.27292E+06,   1.27675E+06,   1.27675E+06
C:/temp/Job-1.odb,Step-1,Increment      1: Step Time =    1.000,"P-1-1",         13677,   148.936E-03,   160.542E-03,            0.,NA,NA,"",   1.04675E+06,   1.03549E+06,   1.03549E+06
C:/temp/Job-1.odb,Step-1,Increment      1: Step Time =    1.000,"P-1-1",         13678,   51.0930E-03,   118.309E-03,            0.,NA,NA,"",   903.059E+03,   939.595E+03,   939.595E+03
C:/temp/Job-1.odb,Step-1,Increment      1: Step Time =    1.000,"P-1-1",         13679,   50.8099E-03,   39.8947E-03,            0.,NA,NA,"",   1.04877E+06,   1.06084E+06,   1.06084E+06
C:/temp/Job-1.odb,Step-1,Increment      1: Step Time =    1.000,"P-1-1",         13680,   159.956E-03,   50.1819E-03,            0.,NA,NA,"",   1.04108E+06,   1.03000E+06,   1.03000E+06
C:/temp/Job-1.odb,Step-1,Increment      1: Step Time =    1.000,"P-1-1",         13681,   113.875E-03,   70.5123E-03,            0.,NA,NA,"",   1.19912E+06,   1.20627E+06,   1.20627E+06
C:/temp/Job-1.odb,Step-1,Increment      1: Step Time =    1.000,"P-1-1",         13682,   126.192E-03,   37.3732E-03,            0.,NA,NA,"",   1.04331E+06,   1.04183E+06,   1.04183E+06
C:/temp/Job-1.odb,Step-1,Increment      1: Step Time =    1.000,"P-1-1",         13683,   163.162E-03,   126.383E-03,            0.,NA,NA,"",   1.00350E+06,   999.553E+03,   999.553E+03
C:/temp/Job-1.odb,Step-1,Increment      1: Step Time =    1.000,"P-1-1",         13684,   159.338E-03,   138.676E-03,            0.,NA,NA,"",   1.03863E+06,   1.02621E+06,   1.02621E+06
C:/temp/Job-1.odb,Step-1,Increment      1: Step Time =    1.000,"P-1-1",         13685,   139.219E-03,   40.9372E-03,            0.,NA,NA,"",   1.05828E+06,   1.04675E+06,   1.04675E+06
C:/temp/Job-1.odb,Step-1,Increment      1: Step Time =    1.000,"P-1-1",         13686,   143.070E-03,   76.0333E-03,            0.,NA,NA,"",   1.04730E+06,   1.01778E+06,   1.01778E+06
C:/temp/Job-1.odb,Step-1,Increment      1: Step Time =    1.000,"P-1-1",         13687,   37.0775E-03,   60.1524E-03,            0.,NA,NA,"",   960.726E+03,   1.00722E+06,   1.00722E+06
C:/temp/Job-1.odb,Step-1,Increment      1: Step Time =    1.000,"P-1-1",         13688,   59.7877E-03,   163.062E-03,            0.,NA,NA,"",   1.05486E+06,   1.05995E+06,   1.05995E+06
C:/temp/Job-1.odb,Step-1,Increment      1: Step Time =    1.000,"P-1-1",         13689,   161.473E-03,   85.7568E-03,            0.,NA,NA,"",   960.822E+03,   965.031E+03,   965.031E+03
C:/temp/Job-1.odb,Step-1,Increment      1: Step Time =    1.000,"P-1-1",         13690,   82.9347E-03,   159.686E-03,            0.,NA,NA,"",   1.03954E+06,   1.05367E+06,   1.05367E+06
C:/temp/Job-1.odb,Step-1,Increment      1: Step Time =    1.000,"P-1-1",         13691,   39.9066E-03,   83.6936E-03,            0.,NA,NA,"",   863.057E+03,   922.533E+03,   922.533E+03
C:/temp/Job-1.odb,Step-1,Increment      1: Step Time =    1.000,"P-1-1",         13692,   158.860E-03,   115.818E-03,            0.,NA,NA,"",   964.896E+03,   965.939E+03,   965.939E+03
C:/temp/Job-1.odb,Step-1,Increment      1: Step Time =    1.000,"P-1-1",         13693,   161.501E-03,   80.7253E-03,            0.,NA,NA,"",   979.963E+03,   979.892E+03,   979.892E+03
C:/temp/Job-1.odb,Step-1,Increment      1: Step Time =    1.000,"P-1-1",         13694,   63.9759E-03,   60.6935E-03,            0.,NA,NA,"",   1.08817E+06,   1.08558E+06,   1.08558E+06
C:/temp/Job-1.odb,Step-1,Increment      1: Step Time =    1.000,"P-1-1",         13695,   76.6549E-03,   38.0523E-03,            0.,NA,NA,"",   1.04583E+06,   1.05403E+06,   1.05403E+06
C:/temp/Job-1.odb,Step-1,Increment      1: Step Time =    1.000,"P-1-1",         13696,   162.512E-03,   76.2814E-03,            0.,NA,NA,"",    996.09E+03,   993.327E+03,   993.327E+03
C:/temp/Job-1.odb,Step-1,Increment      1: Step Time =    1.000,"P-1-1",         13697,   161.457E-03,   74.1657E-03,            0.,NA,NA,"",   1.00404E+06,   998.855E+03,   998.855E+03
C:/temp/Job-1.odb,Step-1,Increment      1: Step Time =    1.000,"P-1-1",         13698,   73.6062E-03,   37.8002E-03,            0.,NA,NA,"",   1.04966E+06,   1.05597E+06,   1.05597E+06
C:/temp/Job-1.odb,Step-1,Increment      1: Step Time =    1.000,"P-1-1",         13699,   83.2668E-03,   57.8720E-03,            0.,NA,NA,"",   1.09665E+06,   1.11462E+06,   1.11462E+06
C:/temp/Job-1.odb,Step-1,Increment      1: Step Time =    1.000,"P-1-1",         13700,   60.1036E-03,   64.3822E-03,            0.,NA,NA,"",   1.06453E+06,   1.06588E+06,   1.06588E+06
C:/temp/Job-1.odb,Step-1,Increment      1: Step Time =    1.000,"P-1-1",         13701,   38.8849E-03,   135.727E-03,            0.,NA,NA,"",   952.840E+03,   998.532E+03,   998.532E+03
C:/temp/Job-1.odb,Step-1,Increment      1: Step Time =    1.000,"P-1-1",         13702,   161.463E-03,   131.974E-03,            0.,NA,NA,"",   1.02193E+06,   1.01324E+06,   1.01324E+06
C:/temp/Job-1.odb,Step-1,Increment      1: Step Time =    1.000,"P-1-1",         13703,   136.306E-03,   162.371E-03,            0.,NA,NA,"",   1.04997E+06,   1.04143E+06,   1.04143E+06
C:/temp/Job-1.odb,Step-1,Increment      1: Step Time =    1.000,"P-1-1",         13704,   132.183E-03,   40.1618E-03,            0.,NA,NA,"",   1.05671E+06,   1.04914E+06,   1.04914E+06
C:/temp/Job-1.odb,Step-1,Increment      1: Step Time =    1.000,"P-1-1",         13705,   38.2777E-03,   132.304E-03,            0.,NA,NA,"",   935.650E+03,   985.161E+03,   985.161E+03
C:/temp/Job-1.odb,Step-1,Increment      1: Step Time =    1.000,"P-1-1",         13706,   132.145E-03,   161.444E-03,            0.,NA,NA,"",   1.05178E+06,   1.04506E+06,   1.04506E+06
C:/temp/Job-1.odb,Step-1,Increment      1: Step Time =    1.000,"P-1-1",         13707,   128.375E-03,   142.884E-03,            0.,NA,NA,"",   1.11935E+06,   1.09971E+06,   1.09971E+06
C:/temp/Job-1.odb,Step-1,Increment      1: Step Time =    1.000,"P-1-1",         13708,   161.212E-03,   93.3505E-03,            0.,NA,NA,"",   936.178E+03,   945.787E+03,   945.787E+03
C:/temp/Job-1.odb,Step-1,Increment      1: Step Time =    1.000,"P-1-1",         13709,   161.217E-03,   63.7302E-03,            0.,NA,NA,"",   1.03068E+06,   1.02047E+06,   1.02047E+06
C:/temp/Job-1.odb,Step-1,Increment      1: Step Time =    1.000,"P-1-1",         13710,   64.1274E-03,   38.6446E-03,            0.,NA,NA,"",   1.05794E+06,   1.06217E+06,   1.06217E+06
C:/temp/Job-1.odb,Step-1,Increment      1: Step Time =    1.000,"P-1-1",         13711,   145.168E-03,   85.0739E-03,            0.,NA,NA,"",   955.629E+03,   943.948E+03,   943.948E+03
C:/temp/Job-1.odb,Step-1,Increment      1: Step Time =    1.000,"P-1-1",         13712,   81.1240E-03,   151.725E-03,            0.,NA,NA,"",   1.06461E+06,   1.07914E+06,   1.07914E+06
C:/temp/Job-1.odb,Step-1,Increment      1: Step Time =    1.000,"P-1-1",         13713,   119.178E-03,   68.5901E-03,            0.,NA,NA,"",   1.19549E+06,   1.17480E+06,   1.17480E+06
C:/temp/Job-1.odb,Step-1,Increment      1: Step Time =    1.000,"P-1-1",         13714,   113.599E-03,   39.5960E-03,            0.,NA,NA,"",   1.02873E+06,   1.04150E+06,   1.04150E+06
C:/temp/Job-1.odb,Step-1,Increment      1: Step Time =    1.000,"P-1-1",         13715,   116.995E-03,   161.132E-03,            0.,NA,NA,"",   1.03327E+06,   1.04184E+06,   1.04184E+06
C:/temp/Job-1.odb,Step-1,Increment      1: Step Time =    1.000,"P-1-1",         13716,   92.7394E-03,   57.5459E-03,            0.,NA,NA,"",   1.05107E+06,   1.09559E+06,   1.09559E+06
C:/temp/Job-1.odb,Step-1,Increment      1: Step Time =    1.000,"P-1-1",         13717,   60.5140E-03,   63.0403E-03,            0.,NA,NA,"",   1.06909E+06,   1.07012E+06,   1.07012E+06
C:/temp/Job-1.odb,Step-1,Increment      1: Step Time =    1.000,"P-1-1",         13718,   114.554E-03,   162.233E-03,            0.,NA,NA,"",   1.02636E+06,   1.03720E+06,   1.03720E+06
C:/temp/Job-1.odb,Step-1,Increment      1: Step Time =    1.000,"P-1-1",         13719,   58.7502E-03,   63.7536E-03,            0.,NA,NA,"",   1.05755E+06,   1.06156E+06,   1.06156E+06
C:/temp/Job-1.odb,Step-1,Increment      1: Step Time =    1.000,"P-1-1",         13720,   160.917E-03,   54.5437E-03,            0.,NA,NA,"",   1.03924E+06,   1.02824E+06,   1.02824E+06
C:/temp/Job-1.odb,Step-1,Increment      1: Step Time =    1.000,"P-1-1",         13721,   53.8135E-03,   38.2395E-03,            0.,NA,NA,"",   1.05230E+06,   1.06103E+06,   1.06103E+06
C:/temp/Job-1.odb,Step-1,Increment      1: Step Time =    1.000,"P-1-1",         13722,   145.152E-03,   161.183E-03,            0.,NA,NA,"",   1.04933E+06,   1.03815E+06,   1.03815E+06
C:/temp/Job-1.odb,Step-1,Increment      1: Step Time =    1.000,"P-1-1",         13723,   38.6858E-03,   145.241E-03,            0.,NA,NA,"",   985.896E+03,   1.02547E+06,   1.02547E+06
C:/temp/Job-1.odb,Step-1,Increment      1: Step Time =    1.000,"P-1-1",         13724,   159.537E-03,   53.6404E-03,            0.,NA,NA,"",   1.04260E+06,   1.03063E+06,   1.03063E+06
C:/temp/Job-1.odb,Step-1,Increment      1: Step Time =    1.000,"P-1-1",         13725,   53.8030E-03,   39.8285E-03,            0.,NA,NA,"",   1.05288E+06,   1.06209E+06,   1.06209E+06
C:/temp/Job-1.odb,Step-1,Increment      1: Step Time =    1.000,"P-1-1",         13726,   146.154E-03,   159.729E-03,            0.,NA,NA,"",   1.05143E+06,   1.03947E+06,   1.03947E+06
C:/temp/Job-1.odb,Step-1,Increment      1: Step Time =    1.000,"P-1-1",         13727,   40.4649E-03,   145.342E-03,            0.,NA,NA,"",   993.952E+03,   1.02975E+06,   1.02975E+06
C:/temp/Job-1.odb,Step-1,Increment      1: Step Time =    1.000,"P-1-1",         13728,   90.6613E-03,   40.0406E-03,            0.,NA,NA,"",   1.02313E+06,   1.04366E+06,   1.04366E+06
C:/temp/Job-1.odb,Step-1,Increment      1: Step Time =    1.000,"P-1-1",         13729,   130.800E-03,   163.018E-03,            0.,NA,NA,"",   1.04643E+06,   1.04135E+06,   1.04135E+06
C:/temp/Job-1.odb,Step-1,Increment      1: Step Time =    1.000,"P-1-1",         13730,   36.6058E-03,   129.783E-03,            0.,NA,NA,"",   918.076E+03,   972.637E+03,   972.637E+03
C:/temp/Job-1.odb,Step-1,Increment      1: Step Time =    1.000,"P-1-1",         13731,   161.181E-03,   146.604E-03,            0.,NA,NA,"",   1.03885E+06,   1.02813E+06,   1.02813E+06
C:/temp/Job-1.odb,Step-1,Increment      1: Step Time =    1.000,"P-1-1",         13732,   146.207E-03,   38.5302E-03,            0.,NA,NA,"",   1.04764E+06,   1.03666E+06,   1.03666E+06
C:/temp/Job-1.odb,Step-1,Increment      1: Step Time =    1.000,"P-1-1",         13733,   162.897E-03,   67.8227E-03,            0.,NA,NA,"",   1.01918E+06,   1.01197E+06,   1.01197E+06
C:/temp/Job-1.odb,Step-1,Increment      1: Step Time =    1.000,"P-1-1",         13734,   67.8223E-03,   38.7434E-03,            0.,NA,NA,"",   1.05709E+06,   1.06143E+06,   1.06143E+06
C:/temp/Job-1.odb,Step-1,Increment      1: Step Time =    1.000,"P-1-1",         13735,   138.712E-03,   139.989E-03,            0.,NA,NA,"",   1.10589E+06,   1.07709E+06,   1.07709E+06
C:/temp/Job-1.odb,Step-1,Increment      1: Step Time =    1.000,"P-1-1",         13736,   55.3360E-03,   130.478E-03,            0.,NA,NA,"",   1.01486E+06,   1.02770E+06,   1.02770E+06
C:/temp/Job-1.odb,Step-1,Increment      1: Step Time =    1.000,"P-1-1",         13737,   112.544E-03,   69.7242E-03,            0.,NA,NA,"",   1.17911E+06,   1.19912E+06,   1.19912E+06
C:/temp/Job-1.odb,Step-1,Increment      1: Step Time =    1.000,"P-1-1",         13738,   61.3646E-03,   139.052E-03,            0.,NA,NA,"",   1.07520E+06,   1.07580E+06,   1.07580E+06
C:/temp/Job-1.odb,Step-1,Increment      1: Step Time =    1.000,"P-1-1",         13739,   150.002E-03,   92.4479E-03,            0.,NA,NA,"",   899.971E+03,   906.166E+03,   906.166E+03
C:/temp/Job-1.odb,Step-1,Increment      1: Step Time =    1.000,"P-1-1",         13740,   121.996E-03,   162.547E-03,            0.,NA,NA,"",   1.03780E+06,   1.04053E+06,   1.04053E+06
C:/temp/Job-1.odb,Step-1,Increment      1: Step Time =    1.000,"P-1-1",         13741,   64.3717E-03,   140.202E-03,            0.,NA,NA,"",   1.08995E+06,   1.08737E+06,   1.08737E+06
C:/temp/Job-1.odb,Step-1,Increment      1: Step Time =    1.000,"P-1-1",         13742,   128.436E-03,   144.730E-03,            0.,NA,NA,"",   1.11094E+06,   1.09398E+06,   1.09398E+06
C:/temp/Job-1.odb,Step-1,Increment      1: Step Time =    1.000,"P-1-1",         13743,   135.860E-03,   140.451E-03,            0.,NA,NA,"",   1.11425E+06,   1.08564E+06,   1.08564E+06
C:/temp/Job-1.odb,Step-1,Increment      1: Step Time =    1.000,"P-1-1",         13744,   73.4095E-03,   148.295E-03,            0.,NA,NA,"",   1.08829E+06,   1.09227E+06,   1.09227E+06
C:/temp/Job-1.odb,Step-1,Increment      1: Step Time =    1.000,"P-1-1",         13745,   85.2247E-03,   150.918E-03,            0.,NA,NA,"",   1.05536E+06,   1.07656E+06,   1.07656E+06
C:/temp/Job-1.odb,Step-1,Increment      1: Step Time =    1.000,"P-1-1",         13746,   51.4742E-03,   163.646E-03,            0.,NA,NA,"",   1.04954E+06,   1.05958E+06,   1.05958E+06
C:/temp/Job-1.odb,Step-1,Increment      1: Step Time =    1.000,"P-1-1",         13747,   36.2819E-03,   51.2902E-03,            0.,NA,NA,"",   987.867E+03,   1.02953E+06,   1.02953E+06
C:/temp/Job-1.odb,Step-1,Increment      1: Step Time =    1.000,"P-1-1",         13748,   141.779E-03,   131.945E-03,            0.,NA,NA,"",   1.09059E+06,   1.05784E+06,   1.05784E+06
C:/temp/Job-1.odb,Step-1,Increment      1: Step Time =    1.000,"P-1-1",         13749,   160.153E-03,   92.4264E-03,            0.,NA,NA,"",   935.684E+03,   944.531E+03,   944.531E+03
C:/temp/Job-1.odb,Step-1,Increment      1: Step Time =    1.000,"P-1-1",         13750,   130.218E-03,   143.078E-03,            0.,NA,NA,"",   1.11707E+06,   1.09554E+06,   1.09554E+06
C:/temp/Job-1.odb,Step-1,Increment      1: Step Time =    1.000,"P-1-1",         13751,   112.582E-03,   151.280E-03,            0.,NA,NA,"",   1.04777E+06,   1.06744E+06,   1.06744E+06
C:/temp/Job-1.odb,Step-1,Increment      1: Step Time =    1.000,"P-1-1",         13752,   137.967E-03,   73.9304E-03,            0.,NA,NA,"",   1.09278E+06,   1.05176E+06,   1.05176E+06
C:/temp/Job-1.odb,Step-1,Increment      1: Step Time =    1.000,"P-1-1",         13753,   38.8455E-03,   60.3426E-03,            0.,NA,NA,"",   968.015E+03,   1.01093E+06,   1.01093E+06
C:/temp/Job-1.odb,Step-1,Increment      1: Step Time =    1.000,"P-1-1",         13754,   60.6771E-03,   162.198E-03,            0.,NA,NA,"",   1.05626E+06,   1.06113E+06,   1.06113E+06
C:/temp/Job-1.odb,Step-1,Increment      1: Step Time =    1.000,"P-1-1",         13755,   93.3519E-03,   59.2651E-03,            0.,NA,NA,"",   1.05383E+06,   1.10270E+06,   1.10270E+06
C:/temp/Job-1.odb,Step-1,Increment      1: Step Time =    1.000,"P-1-1",         13756,   56.6148E-03,   131.974E-03,            0.,NA,NA,"",   1.02982E+06,   1.03906E+06,   1.03906E+06
C:/temp/Job-1.odb,Step-1,Increment      1: Step Time =    1.000,"P-1-1",         13757,   60.6667E-03,   135.318E-03,            0.,NA,NA,"",   1.06727E+06,   1.06749E+06,   1.06749E+06
C:/temp/Job-1.odb,Step-1,Increment      1: Step Time =    1.000,"P-1-1",         13758,   148.493E-03,   87.2095E-03,            0.,NA,NA,"",   936.147E+03,   932.904E+03,   932.904E+03
C:/temp/Job-1.odb,Step-1,Increment      1: Step Time =    1.000,"P-1-1",         13759,   114.090E-03,   148.660E-03,            0.,NA,NA,"",   1.06121E+06,   1.07878E+06,   1.07878E+06
C:/temp/Job-1.odb,Step-1,Increment      1: Step Time =    1.000,"P-1-1",         13760,   144.984E-03,   124.362E-03,            0.,NA,NA,"",   1.04084E+06,   1.01458E+06,   1.01458E+06
C:/temp/Job-1.odb,Step-1,Increment      1: Step Time =    1.000,"P-1-1",         13761,   58.8491E-03,   37.6197E-03,            0.,NA,NA,"",   1.05533E+06,   1.06086E+06,   1.06086E+06
C:/temp/Job-1.odb,Step-1,Increment      1: Step Time =    1.000,"P-1-1",         13762,   162.358E-03,   60.4954E-03,            0.,NA,NA,"",   1.03236E+06,   1.02263E+06,   1.02263E+06
C:/temp/Job-1.odb,Step-1,Increment      1: Step Time =    1.000,"P-1-1",         13763,   44.0100E-03,   161.191E-03,            0.,NA,NA,"",   1.03817E+06,   1.05786E+06,   1.05786E+06
C:/temp/Job-1.odb,Step-1,Increment      1: Step Time =    1.000,"P-1-1",         13764,   158.743E-03,   117.101E-03,            0.,NA,NA,"",   970.755E+03,   970.465E+03,   970.465E+03
C:/temp/Job-1.odb,Step-1,Increment      1: Step Time =    1.000,"P-1-1",         13765,   81.8968E-03,   159.897E-03,            0.,NA,NA,"",   1.04123E+06,   1.05423E+06,   1.05423E+06
C:/temp/Job-1.odb,Step-1,Increment      1: Step Time =    1.000,"P-1-1",         13766,   40.7677E-03,   81.7207E-03,            0.,NA,NA,"",   875.213E+03,   931.551E+03,   931.551E+03
C:/temp/Job-1.odb,Step-1,Increment      1: Step Time =    1.000,"P-1-1",         13767,   39.4654E-03,   69.8456E-03,            0.,NA,NA,"",   931.483E+03,   980.142E+03,   980.142E+03
C:/temp/Job-1.odb,Step-1,Increment      1: Step Time =    1.000,"P-1-1",         13768,   69.6271E-03,   161.333E-03,            0.,NA,NA,"",   1.05568E+06,   1.06043E+06,   1.06043E+06
C:/temp/Job-1.odb,Step-1,Increment      1: Step Time =    1.000,"P-1-1",         13769,   40.3545E-03,   132.691E-03,            0.,NA,NA,"",   946.283E+03,   991.315E+03,   991.315E+03
C:/temp/Job-1.odb,Step-1,Increment      1: Step Time =    1.000,"P-1-1",         13770,   160.329E-03,   74.6747E-03,            0.,NA,NA,"",   1.00406E+06,   998.046E+03,   998.046E+03
C:/temp/Job-1.odb,Step-1,Increment      1: Step Time =    1.000,"P-1-1",         13771,   132.080E-03,   159.977E-03,            0.,NA,NA,"",   1.05614E+06,   1.04872E+06,   1.04872E+06
C:/temp/Job-1.odb,Step-1,Increment      1: Step Time =    1.000,"P-1-1",         13772,   158.744E-03,   37.5538E-03,            0.,NA,NA,"",   1.03205E+06,   1.02399E+06,   1.02399E+06
C:/temp/Job-1.odb,Step-1,Increment      1: Step Time =    1.000,"P-1-1",         13773,   161.743E-03,   38.0204E-03,            0.,NA,NA,"",   1.02880E+06,   1.02163E+06,   1.02163E+06
C:/temp/Job-1.odb,Step-1,Increment      1: Step Time =    1.000,"P-1-1",         13774,   74.0210E-03,   39.7936E-03,            0.,NA,NA,"",   1.05392E+06,   1.06066E+06,   1.06066E+06
C:/temp/Job-1.odb,Step-1,Increment      1: Step Time =    1.000,"P-1-1",         13775,   159.611E-03,   48.4312E-03,            0.,NA,NA,"",   1.04088E+06,   1.03001E+06,   1.03001E+06
C:/temp/Job-1.odb,Step-1,Increment      1: Step Time =    1.000,"P-1-1",         13776,   49.1680E-03,   39.8669E-03,            0.,NA,NA,"",   1.04628E+06,   1.06008E+06,   1.06008E+06
C:/temp/Job-1.odb,Step-1,Increment      1: Step Time =    1.000,"P-1-1",         13777,   150.003E-03,   160.406E-03,            0.,NA,NA,"",   1.04588E+06,   1.03469E+06,   1.03469E+06
C:/temp/Job-1.odb,Step-1,Increment      1: Step Time =    1.000,"P-1-1",         13778,   40.8075E-03,   151.382E-03,            0.,NA,NA,"",   1.01167E+06,   1.04298E+06,   1.04298E+06
C:/temp/Job-1.odb,Step-1,Increment      1: Step Time =    1.000,"P-1-1",         13779,   162.370E-03,   157.129E-03,            0.,NA,NA,"",   1.03244E+06,   1.02428E+06,   1.02428E+06
C:/temp/Job-1.odb,Step-1,Increment      1: Step Time =    1.000,"P-1-1",         13780,   38.7283E-03,   43.2918E-03,            0.,NA,NA,"",   1.01771E+06,   1.04899E+06,   1.04899E+06
C:/temp/Job-1.odb,Step-1,Increment      1: Step Time =    1.000,"P-1-1",         13781,   37.9905E-03,   50.4125E-03,            0.,NA,NA,"",   996.006E+03,   1.03412E+06,   1.03412E+06
C:/temp/Job-1.odb,Step-1,Increment      1: Step Time =    1.000,"P-1-1",         13782,   37.8772E-03,   113.626E-03,            0.,NA,NA,"",   848.193E+03,   912.608E+03,   912.608E+03
C:/temp/Job-1.odb,Step-1,Increment      1: Step Time =    1.000,"P-1-1",         13783,   139.628E-03,   132.953E-03,            0.,NA,NA,"",   1.10352E+06,   1.06859E+06,   1.06859E+06
C:/temp/Job-1.odb,Step-1,Increment      1: Step Time =    1.000,"P-1-1",         13784,   105.176E-03,   66.6744E-03,            0.,NA,NA,"",   1.08039E+06,   1.14801E+06,   1.14801E+06
C:/temp/Job-1.odb,Step-1,Increment      1: Step Time =    1.000,"P-1-1",         13785,   103.410E-03,   38.7749E-03,            0.,NA,NA,"",   1.01327E+06,   1.03412E+06,   1.03412E+06
C:/temp/Job-1.odb,Step-1,Increment      1: Step Time =    1.000,"P-1-1",         13786,   161.638E-03,   103.586E-03,            0.,NA,NA,"",   931.406E+03,   942.472E+03,   942.472E+03
C:/temp/Job-1.odb,Step-1,Increment      1: Step Time =    1.000,"P-1-1",         13787,   96.4808E-03,   161.480E-03,            0.,NA,NA,"",   1.01351E+06,   1.03512E+06,   1.03512E+06
C:/temp/Job-1.odb,Step-1,Increment      1: Step Time =    1.000,"P-1-1",         13788,   38.8612E-03,   96.7302E-03,            0.,NA,NA,"",   819.079E+03,   886.910E+03,   886.910E+03
C:/temp/Job-1.odb,Step-1,Increment      1: Step Time =    1.000,"P-1-1",         13789,   149.958E-03,   126.292E-03,            0.,NA,NA,"",   1.03226E+06,   1.01289E+06,   1.01289E+06
C:/temp/Job-1.odb,Step-1,Increment      1: Step Time =    1.000,"P-1-1",         13790,   92.0303E-03,   151.920E-03,            0.,NA,NA,"",   1.03303E+06,   1.06322E+06,   1.06322E+06
C:/temp/Job-1.odb,Step-1,Increment      1: Step Time =    1.000,"P-1-1",         13791,   36.7393E-03,   97.5788E-03,            0.,NA,NA,"",   818.991E+03,   889.281E+03,   889.281E+03
C:/temp/Job-1.odb,Step-1,Increment      1: Step Time =    1.000,"P-1-1",         13792,   97.8972E-03,   162.293E-03,            0.,NA,NA,"",   1.01193E+06,   1.03270E+06,   1.03270E+06
C:/temp/Job-1.odb,Step-1,Increment      1: Step Time =    1.000,"P-1-1",         13793,   102.593E-03,   37.1909E-03,            0.,NA,NA,"",   1.01105E+06,   1.03064E+06,   1.03064E+06
C:/temp/Job-1.odb,Step-1,Increment      1: Step Time =    1.000,"P-1-1",         13794,   152.149E-03,   116.782E-03,            0.,NA,NA,"",   968.544E+03,   962.712E+03,   962.712E+03
C:/temp/Job-1.odb,Step-1,Increment      1: Step Time =    1.000,"P-1-1",         13795,   152.878E-03,   106.163E-03,            0.,NA,NA,"",   906.516E+03,   914.726E+03,   914.726E+03
C:/temp/Job-1.odb,Step-1,Increment      1: Step Time =    1.000,"P-1-1",         13796,   153.359E-03,   119.300E-03,            0.,NA,NA,"",   984.113E+03,   976.353E+03,   976.353E+03
C:/temp/Job-1.odb,Step-1,Increment      1: Step Time =    1.000,"P-1-1",         13797,   80.2720E-03,   59.2702E-03,            0.,NA,NA,"",   1.11377E+06,   1.12262E+06,   1.12262E+06
C:/temp/Job-1.odb,Step-1,Increment      1: Step Time =    1.000,"P-1-1",         13798,   123.268E-03,   67.4418E-03,            0.,NA,NA,"",   1.18414E+06,   1.15166E+06,   1.15166E+06
C:/temp/Job-1.odb,Step-1,Increment      1: Step Time =    1.000,"P-1-1",         13799,   105.008E-03,   60.4465E-03,            0.,NA,NA,"",   1.05057E+06,   1.10350E+06,   1.10350E+06
C:/temp/Job-1.odb,Step-1,Increment      1: Step Time =    1.000,"P-1-1",         13800,   96.4896E-03,   153.265E-03,            0.,NA,NA,"",   1.02288E+06,   1.05478E+06,   1.05478E+06
C:/temp/Job-1.odb,Step-1,Increment      1: Step Time =    1.000,"P-1-1",         13801,   152.757E-03,   113.866E-03,            0.,NA,NA,"",   949.766E+03,   948.407E+03,   948.407E+03
C:/temp/Job-1.odb,Step-1,Increment      1: Step Time =    1.000,"P-1-1",         13802,   89.5004E-03,   153.879E-03,            0.,NA,NA,"",   1.03583E+06,   1.06091E+06,   1.06091E+06
C:/temp/Job-1.odb,Step-1,Increment      1: Step Time =    1.000,"P-1-1",         13803,   123.106E-03,   162.777E-03,            0.,NA,NA,"",   1.03902E+06,   1.04058E+06,   1.04058E+06
C:/temp/Job-1.odb,Step-1,Increment      1: Step Time =    1.000,"P-1-1",         13804,   36.7248E-03,   123.523E-03,            0.,NA,NA,"",   889.576E+03,   948.806E+03,   948.806E+03
C:/temp/Job-1.odb,Step-1,Increment      1: Step Time =    1.000,"P-1-1",         13805,   74.4639E-03,   63.2755E-03,            0.,NA,NA,"",   1.13577E+06,   1.12741E+06,   1.12741E+06
C:/temp/Job-1.odb,Step-1,Increment      1: Step Time =    1.000,"P-1-1",         13806,   49.7820E-03,   76.2085E-03,            0.,NA,NA,"",   940.544E+03,   973.083E+03,   973.083E+03
C:/temp/Job-1.odb,Step-1,Increment      1: Step Time =    1.000,"P-1-1",         13807,   125.911E-03,   162.343E-03,            0.,NA,NA,"",   1.04412E+06,   1.04277E+06,   1.04277E+06
C:/temp/Job-1.odb,Step-1,Increment      1: Step Time =    1.000,"P-1-1",         13808,   144.903E-03,   129.902E-03,            0.,NA,NA,"",   1.06949E+06,   1.04064E+06,   1.04064E+06
C:/temp/Job-1.odb,Step-1,Increment      1: Step Time =    1.000,"P-1-1",         13809,   38.5799E-03,   125.988E-03,            0.,NA,NA,"",   908.458E+03,   962.146E+03,   962.146E+03
C:/temp/Job-1.odb,Step-1,Increment      1: Step Time =    1.000,"P-1-1",         13810,   152.551E-03,   103.158E-03,            0.,NA,NA,"",   895.130E+03,   905.443E+03,   905.443E+03
C:/temp/Job-1.odb,Step-1,Increment      1: Step Time =    1.000,"P-1-1",         13811,   78.9934E-03,   60.5149E-03,            0.,NA,NA,"",   1.12285E+06,   1.12718E+06,   1.12718E+06
C:/temp/Job-1.odb,Step-1,Increment      1: Step Time =    1.000,"P-1-1",         13812,   48.3630E-03,   103.542E-03,            0.,NA,NA,"",   804.894E+03,   862.766E+03,   862.766E+03
C:/temp/Job-1.odb,Step-1,Increment      1: Step Time =    1.000,"P-1-1",         13813,   98.6052E-03,   153.117E-03,            0.,NA,NA,"",   1.02136E+06,   1.05381E+06,   1.05381E+06
C:/temp/Job-1.odb,Step-1,Increment      1: Step Time =    1.000,"P-1-1",         13814,   73.5584E-03,   60.5785E-03,            0.,NA,NA,"",   1.12204E+06,   1.11753E+06,   1.11753E+06
C:/temp/Job-1.odb,Step-1,Increment      1: Step Time =    1.000,"P-1-1",         13815,   50.3870E-03,   73.8126E-03,            0.,NA,NA,"",   959.683E+03,   988.266E+03,   988.266E+03
C:/temp/Job-1.odb,Step-1,Increment      1: Step Time =    1.000,"P-1-1",         13816,   119.001E-03,   39.2414E-03,            0.,NA,NA,"",   1.03801E+06,   1.04418E+06,   1.04418E+06
C:/temp/Job-1.odb,Step-1,Increment      1: Step Time =    1.000,"P-1-1",         13817,   49.7520E-03,   80.0572E-03,            0.,NA,NA,"",   911.993E+03,   949.199E+03,   949.199E+03
C:/temp/Job-1.odb,Step-1,Increment      1: Step Time =    1.000,"P-1-1",         13818,   49.5238E-03,   94.0957E-03,            0.,NA,NA,"",   810.961E+03,   865.984E+03,   865.984E+03
C:/temp/Job-1.odb,Step-1,Increment      1: Step Time =    1.000,"P-1-1",         13819,   39.7507E-03,   120.569E-03,            0.,NA,NA,"",   884.418E+03,   940.537E+03,   940.537E+03
C:/temp/Job-1.odb,Step-1,Increment      1: Step Time =    1.000,"P-1-1",         13820,   152.928E-03,   99.4707E-03,            0.,NA,NA,"",   893.383E+03,   904.519E+03,   904.519E+03
C:/temp/Job-1.odb,Step-1,Increment      1: Step Time =    1.000,"P-1-1",         13821,   151.555E-03,   96.4538E-03,            0.,NA,NA,"",   891.052E+03,   901.188E+03,   901.188E+03
C:/temp/Job-1.odb,Step-1,Increment      1: Step Time =    1.000,"P-1-1",         13822,   49.9934E-03,   83.6958E-03,            0.,NA,NA,"",   883.236E+03,   924.875E+03,   924.875E+03
C:/temp/Job-1.odb,Step-1,Increment      1: Step Time =    1.000,"P-1-1",         13823,   50.2921E-03,   86.6699E-03,            0.,NA,NA,"",   858.959E+03,   904.363E+03,   904.363E+03
C:/temp/Job-1.odb,Step-1,Increment      1: Step Time =    1.000,"P-1-1",         13824,   54.5607E-03,   67.8473E-03,            0.,NA,NA,"",   1.01775E+06,   1.03176E+06,   1.03176E+06
C:/temp/Job-1.odb,Step-1,Increment      1: Step Time =    1.000,"P-1-1",         13825,   81.5171E-03,   38.4155E-03,            0.,NA,NA,"",   1.03815E+06,   1.05008E+06,   1.05008E+06
C:/temp/Job-1.odb,Step-1,Increment      1: Step Time =    1.000,"P-1-1",         13826,   160.237E-03,   81.3308E-03,            0.,NA,NA,"",   977.694E+03,   977.125E+03,   977.125E+03
C:/temp/Job-1.odb,Step-1,Increment      1: Step Time =    1.000,"P-1-1",         13827,   127.601E-03,   67.4863E-03,            0.,NA,NA,"",   1.16864E+06,   1.12849E+06,   1.12849E+06
C:/temp/Job-1.odb,Step-1,Increment      1: Step Time =    1.000,"P-1-1",         13828,   159.362E-03,   135.936E-03,            0.,NA,NA,"",   1.03457E+06,   1.02264E+06,   1.02264E+06
C:/temp/Job-1.odb,Step-1,Increment      1: Step Time =    1.000,"P-1-1",         13829,   136.411E-03,   40.1248E-03,            0.,NA,NA,"",   1.05706E+06,   1.04708E+06,   1.04708E+06
C:/temp/Job-1.odb,Step-1,Increment      1: Step Time =    1.000,"P-1-1",         13830,   111.004E-03,   161.658E-03,            0.,NA,NA,"",   1.02151E+06,   1.03640E+06,   1.03640E+06
C:/temp/Job-1.odb,Step-1,Increment      1: Step Time =    1.000,"P-1-1",         13831,   39.0298E-03,   109.422E-03,            0.,NA,NA,"",   833.477E+03,   898.979E+03,   898.979E+03
C:/temp/Job-1.odb,Step-1,Increment      1: Step Time =    1.000,"P-1-1",         13832,   134.037E-03,   69.2039E-03,            0.,NA,NA,"",   1.13477E+06,   1.09164E+06,   1.09164E+06
C:/temp/Job-1.odb,Step-1,Increment      1: Step Time =    1.000,"P-1-1",         13833,   101.310E-03,   60.3502E-03,            0.,NA,NA,"",   1.03930E+06,   1.09843E+06,   1.09843E+06
C:/temp/Job-1.odb,Step-1,Increment      1: Step Time =    1.000,"P-1-1",         13834,   65.0087E-03,   161.454E-03,            0.,NA,NA,"",   1.05762E+06,   1.06177E+06,   1.06177E+06
C:/temp/Job-1.odb,Step-1,Increment      1: Step Time =    1.000,"P-1-1",         13835,   39.0378E-03,   65.3671E-03,            0.,NA,NA,"",   948.670E+03,   994.960E+03,   994.960E+03
C:/temp/Job-1.odb,Step-1,Increment      1: Step Time =    1.000,"P-1-1",         13836,   112.583E-03,   40.9093E-03,            0.,NA,NA,"",   1.02947E+06,   1.04420E+06,   1.04420E+06
C:/temp/Job-1.odb,Step-1,Increment      1: Step Time =    1.000,"P-1-1",         13837,   116.254E-03,   146.877E-03,            0.,NA,NA,"",   1.07593E+06,   1.08829E+06,   1.08829E+06
C:/temp/Job-1.odb,Step-1,Increment      1: Step Time =    1.000,"P-1-1",         13838,   122.686E-03,   147.143E-03,            0.,NA,NA,"",   1.09413E+06,   1.09038E+06,   1.09038E+06
C:/temp/Job-1.odb,Step-1,Increment      1: Step Time =    1.000,"P-1-1",         13839,   79.7654E-03,   152.087E-03,            0.,NA,NA,"",   1.06672E+06,   1.07928E+06,   1.07928E+06
C:/temp/Job-1.odb,Step-1,Increment      1: Step Time =    1.000,"P-1-1",         13840,   69.3610E-03,   60.4968E-03,            0.,NA,NA,"",   1.11048E+06,   1.10454E+06,   1.10454E+06
C:/temp/Job-1.odb,Step-1,Increment      1: Step Time =    1.000,"P-1-1",         13841,   51.8607E-03,   119.284E-03,            0.,NA,NA,"",   914.797E+03,   947.981E+03,   947.981E+03
C:/temp/Job-1.odb,Step-1,Increment      1: Step Time =    1.000,"P-1-1",         13842,   142.952E-03,   74.5373E-03,            0.,NA,NA,"",   1.05785E+06,   1.02707E+06,   1.02707E+06
C:/temp/Job-1.odb,Step-1,Increment      1: Step Time =    1.000,"P-1-1",         13843,   65.4868E-03,   59.3482E-03,            0.,NA,NA,"",   1.09406E+06,   1.09100E+06,   1.09100E+06
C:/temp/Job-1.odb,Step-1,Increment      1: Step Time =    1.000,"P-1-1",         13844,   37.3900E-03,   58.6155E-03,            0.,NA,NA,"",   967.840E+03,   1.01260E+06,   1.01260E+06
C:/temp/Job-1.odb,Step-1,Increment      1: Step Time =    1.000,"P-1-1",         13845,   59.0143E-03,   162.087E-03,            0.,NA,NA,"",   1.05584E+06,   1.06137E+06,   1.06137E+06
C:/temp/Job-1.odb,Step-1,Increment      1: Step Time =    1.000,"P-1-1",         13846,   159.375E-03,   106.467E-03,            0.,NA,NA,"",   929.923E+03,   939.217E+03,   939.217E+03
C:/temp/Job-1.odb,Step-1,Increment      1: Step Time =    1.000,"P-1-1",         13847,   91.5946E-03,   158.093E-03,            0.,NA,NA,"",   1.02453E+06,   1.04756E+06,   1.04756E+06
C:/temp/Job-1.odb,Step-1,Increment      1: Step Time =    1.000,"P-1-1",         13848,   40.8453E-03,   92.0967E-03,            0.,NA,NA,"",   828.514E+03,   892.486E+03,   892.486E+03
C:/temp/Job-1.odb,Step-1,Increment      1: Step Time =    1.000,"P-1-1",         13849,   140.130E-03,   41.8865E-03,            0.,NA,NA,"",   1.06024E+06,   1.04786E+06,   1.04786E+06
C:/temp/Job-1.odb,Step-1,Increment      1: Step Time =    1.000,"P-1-1",         13850,   159.064E-03,   139.830E-03,            0.,NA,NA,"",   1.04050E+06,   1.02780E+06,   1.02780E+06
C:/temp/Job-1.odb,Step-1,Increment      1: Step Time =    1.000,"P-1-1",         13851,   136.289E-03,   136.575E-03,            0.,NA,NA,"",   1.12017E+06,   1.08643E+06,   1.08643E+06
C:/temp/Job-1.odb,Step-1,Increment      1: Step Time =    1.000,"P-1-1",         13852,   161.956E-03,   77.3534E-03,            0.,NA,NA,"",   992.895E+03,   990.390E+03,   990.390E+03
C:/temp/Job-1.odb,Step-1,Increment      1: Step Time =    1.000,"P-1-1",         13853,   77.9112E-03,   38.7315E-03,            0.,NA,NA,"",   1.04529E+06,   1.05451E+06,   1.05451E+06
C:/temp/Job-1.odb,Step-1,Increment      1: Step Time =    1.000,"P-1-1",         13854,   137.320E-03,   41.0745E-03,            0.,NA,NA,"",   1.05946E+06,   1.04849E+06,   1.04849E+06
C:/temp/Job-1.odb,Step-1,Increment      1: Step Time =    1.000,"P-1-1",         13855,   157.814E-03,   137.359E-03,            0.,NA,NA,"",   1.04069E+06,   1.02702E+06,   1.02702E+06
C:/temp/Job-1.odb,Step-1,Increment      1: Step Time =    1.000,"P-1-1",         13856,   157.561E-03,   114.520E-03,            0.,NA,NA,"",   957.298E+03,   958.879E+03,   958.879E+03
C:/temp/Job-1.odb,Step-1,Increment      1: Step Time =    1.000,"P-1-1",         13857,   40.5889E-03,   85.3750E-03,            0.,NA,NA,"",   856.108E+03,   915.847E+03,   915.847E+03
C:/temp/Job-1.odb,Step-1,Increment      1: Step Time =    1.000,"P-1-1",         13858,   84.1078E-03,   159.179E-03,            0.,NA,NA,"",   1.03804E+06,   1.05350E+06,   1.05350E+06
C:/temp/Job-1.odb,Step-1,Increment      1: Step Time =    1.000,"P-1-1",         13859,   159.518E-03,   110.577E-03,            0.,NA,NA,"",   943.542E+03,   949.892E+03,   949.892E+03
C:/temp/Job-1.odb,Step-1,Increment      1: Step Time =    1.000,"P-1-1",         13860,   40.0789E-03,   88.6523E-03,            0.,NA,NA,"",   841.213E+03,   904.090E+03,   904.090E+03
C:/temp/Job-1.odb,Step-1,Increment      1: Step Time =    1.000,"P-1-1",         13861,   89.1119E-03,   159.913E-03,            0.,NA,NA,"",   1.02614E+06,   1.04554E+06,   1.04554E+06
C:/temp/Job-1.odb,Step-1,Increment      1: Step Time =    1.000,"P-1-1",         13862,   158.446E-03,   52.1231E-03,            0.,NA,NA,"",   1.04472E+06,   1.03230E+06,   1.03230E+06
C:/temp/Job-1.odb,Step-1,Increment      1: Step Time =    1.000,"P-1-1",         13863,   52.4489E-03,   41.5629E-03,            0.,NA,NA,"",   1.05115E+06,   1.06214E+06,   1.06214E+06
C:/temp/Job-1.odb,Step-1,Increment      1: Step Time =    1.000,"P-1-1",         13864,   147.403E-03,   159.525E-03,            0.,NA,NA,"",   1.05057E+06,   1.03857E+06,   1.03857E+06
C:/temp/Job-1.odb,Step-1,Increment      1: Step Time =    1.000,"P-1-1",         13865,   40.4707E-03,   148.022E-03,            0.,NA,NA,"",   1.00123E+06,   1.03559E+06,   1.03559E+06
C:/temp/Job-1.odb,Step-1,Increment      1: Step Time =    1.000,"P-1-1",         13866,   62.1181E-03,   60.4711E-03,            0.,NA,NA,"",   1.07906E+06,   1.07884E+06,   1.07884E+06
C:/temp/Job-1.odb,Step-1,Increment      1: Step Time =    1.000,"P-1-1",         13867,   76.6436E-03,   152.511E-03,            0.,NA,NA,"",   1.07141E+06,   1.08008E+06,   1.08008E+06
C:/temp/Job-1.odb,Step-1,Increment      1: Step Time =    1.000,"P-1-1",         13868,   110.462E-03,   151.605E-03,            0.,NA,NA,"",   1.04062E+06,   1.06386E+06,   1.06386E+06
C:/temp/Job-1.odb,Step-1,Increment      1: Step Time =    1.000,"P-1-1",         13869,   37.4195E-03,   131.052E-03,            0.,NA,NA,"",   926.705E+03,   978.841E+03,   978.841E+03
C:/temp/Job-1.odb,Step-1,Increment      1: Step Time =    1.000,"P-1-1",         13870,   132.133E-03,   162.956E-03,            0.,NA,NA,"",   1.04735E+06,   1.04134E+06,   1.04134E+06
C:/temp/Job-1.odb,Step-1,Increment      1: Step Time =    1.000,"P-1-1",         13871,   90.5532E-03,   38.8125E-03,            0.,NA,NA,"",   1.02153E+06,   1.04096E+06,   1.04096E+06
C:/temp/Job-1.odb,Step-1,Increment      1: Step Time =    1.000,"P-1-1",         13872,   106.792E-03,   70.0527E-03,            0.,NA,NA,"",   1.12531E+06,   1.19177E+06,   1.19177E+06
C:/temp/Job-1.odb,Step-1,Increment      1: Step Time =    1.000,"P-1-1",         13873,   69.5208E-03,   142.564E-03,            0.,NA,NA,"",   1.10306E+06,   1.10036E+06,   1.10036E+06
C:/temp/Job-1.odb,Step-1,Increment      1: Step Time =    1.000,"P-1-1",         13874,   126.158E-03,   70.7260E-03,            0.,NA,NA,"",   1.18982E+06,   1.14099E+06,   1.14099E+06
C:/temp/Job-1.odb,Step-1,Increment      1: Step Time =    1.000,"P-1-1",         13875,   114.711E-03,   40.3098E-03,            0.,NA,NA,"",   1.03229E+06,   1.04427E+06,   1.04427E+06
C:/temp/Job-1.odb,Step-1,Increment      1: Step Time =    1.000,"P-1-1",         13876,   84.6522E-03,   57.5618E-03,            0.,NA,NA,"",   1.08982E+06,   1.11171E+06,   1.11171E+06
C:/temp/Job-1.odb,Step-1,Increment      1: Step Time =    1.000,"P-1-1",         13877,   149.725E-03,   86.9087E-03,            0.,NA,NA,"",   940.741E+03,   938.029E+03,   938.029E+03
C:/temp/Job-1.odb,Step-1,Increment      1: Step Time =    1.000,"P-1-1",         13878,   149.941E-03,   89.5758E-03,            0.,NA,NA,"",   920.164E+03,   922.014E+03,   922.014E+03
C:/temp/Job-1.odb,Step-1,Increment      1: Step Time =    1.000,"P-1-1",         13879,   82.5759E-03,   152.821E-03,            0.,NA,NA,"",   1.05759E+06,   1.07403E+06,   1.07403E+06
C:/temp/Job-1.odb,Step-1,Increment      1: Step Time =    1.000,"P-1-1",         13880,   147.072E-03,   126.539E-03,            0.,NA,NA,"",   1.04425E+06,   1.02020E+06,   1.02020E+06
C:/temp/Job-1.odb,Step-1,Increment      1: Step Time =    1.000,"P-1-1",         13881,   50.6272E-03,   161.661E-03,            0.,NA,NA,"",   1.04875E+06,   1.06036E+06,   1.06036E+06
C:/temp/Job-1.odb,Step-1,Increment      1: Step Time =    1.000,"P-1-1",         13882,   56.8220E-03,   162.053E-03,            0.,NA,NA,"",   1.05462E+06,   1.06128E+06,   1.06128E+06
C:/temp/Job-1.odb,Step-1,Increment      1: Step Time =    1.000,"P-1-1",         13883,   37.6300E-03,   51.7879E-03,            0.,NA,NA,"",   990.972E+03,   1.03055E+06,   1.03055E+06
C:/temp/Job-1.odb,Step-1,Increment      1: Step Time =    1.000,"P-1-1",         13884,   39.0949E-03,   57.0623E-03,            0.,NA,NA,"",   980.254E+03,   1.02058E+06,   1.02058E+06
C:/temp/Job-1.odb,Step-1,Increment      1: Step Time =    1.000,"P-1-1",         13885,   45.3326E-03,   161.986E-03,            0.,NA,NA,"",   1.04130E+06,   1.05874E+06,   1.05874E+06
C:/temp/Job-1.odb,Step-1,Increment      1: Step Time =    1.000,"P-1-1",         13886,   37.7573E-03,   45.3039E-03,            0.,NA,NA,"",   1.00983E+06,   1.04440E+06,   1.04440E+06
C:/temp/Job-1.odb,Step-1,Increment      1: Step Time =    1.000,"P-1-1",         13887,   163.086E-03,   155.217E-03,            0.,NA,NA,"",   1.03255E+06,   1.02436E+06,   1.02436E+06
C:/temp/Job-1.odb,Step-1,Increment      1: Step Time =    1.000,"P-1-1",         13888,   154.924E-03,   37.4412E-03,            0.,NA,NA,"",   1.03673E+06,   1.02754E+06,   1.02754E+06
C:/temp/Job-1.odb,Step-1,Increment      1: Step Time =    1.000,"P-1-1",         13889,   54.9091E-03,   127.360E-03,            0.,NA,NA,"",   993.588E+03,   1.00971E+06,   1.00971E+06
C:/temp/Job-1.odb,Step-1,Increment      1: Step Time =    1.000,"P-1-1",         13890,   161.163E-03,   99.8246E-03,            0.,NA,NA,"",   927.570E+03,   939.072E+03,   939.072E+03
C:/temp/Job-1.odb,Step-1,Increment      1: Step Time =    1.000,"P-1-1",         13891,   97.3298E-03,   37.1793E-03,            0.,NA,NA,"",   1.01166E+06,   1.03183E+06,   1.03183E+06
C:/temp/Job-1.odb,Step-1,Increment      1: Step Time =    1.000,"P-1-1",         13892,   96.7599E-03,   56.6799E-03,            0.,NA,NA,"",   1.03546E+06,   1.08487E+06,   1.08487E+06
C:/temp/Job-1.odb,Step-1,Increment      1: Step Time =    1.000,"P-1-1",         13893,   37.8198E-03,   101.321E-03,            0.,NA,NA,"",   817.798E+03,   887.106E+03,   887.106E+03
C:/temp/Job-1.odb,Step-1,Increment      1: Step Time =    1.000,"P-1-1",         13894,   102.842E-03,   162.198E-03,            0.,NA,NA,"",   1.01187E+06,   1.03197E+06,   1.03197E+06
C:/temp/Job-1.odb,Step-1,Increment      1: Step Time =    1.000,"P-1-1",         13895,   161.777E-03,   149.345E-03,            0.,NA,NA,"",   1.03737E+06,   1.02742E+06,   1.02742E+06
C:/temp/Job-1.odb,Step-1,Increment      1: Step Time =    1.000,"P-1-1",         13896,   66.1125E-03,   143.169E-03,            0.,NA,NA,"",   1.09267E+06,   1.09110E+06,   1.09110E+06
C:/temp/Job-1.odb,Step-1,Increment      1: Step Time =    1.000,"P-1-1",         13897,   149.220E-03,   38.3619E-03,            0.,NA,NA,"",   1.04459E+06,   1.03389E+06,   1.03389E+06
C:/temp/Job-1.odb,Step-1,Increment      1: Step Time =    1.000,"P-1-1",         13898,   51.5097E-03,   70.4375E-03,            0.,NA,NA,"",   986.614E+03,   1.00935E+06,   1.00935E+06
C:/temp/Job-1.odb,Step-1,Increment      1: Step Time =    1.000,"P-1-1",         13899,   160.166E-03,   123.725E-03,            0.,NA,NA,"",   998.566E+03,   993.541E+03,   993.541E+03
C:/temp/Job-1.odb,Step-1,Increment      1: Step Time =    1.000,"P-1-1",         13900,   71.5242E-03,   60.3363E-03,            0.,NA,NA,"",   1.11652E+06,   1.11102E+06,   1.11102E+06
C:/temp/Job-1.odb,Step-1,Increment      1: Step Time =    1.000,"P-1-1",         13901,   40.3513E-03,   138.650E-03,            0.,NA,NA,"",   970.985E+03,   1.01154E+06,   1.01154E+06
C:/temp/Job-1.odb,Step-1,Increment      1: Step Time =    1.000,"P-1-1",         13902,   139.323E-03,   160.288E-03,            0.,NA,NA,"",   1.05509E+06,   1.04426E+06,   1.04426E+06
C:/temp/Job-1.odb,Step-1,Increment      1: Step Time =    1.000,"P-1-1",         13903,   48.7722E-03,   108.751E-03,            0.,NA,NA,"",   826.764E+03,   880.201E+03,   880.201E+03
C:/temp/Job-1.odb,Step-1,Increment      1: Step Time =    1.000,"P-1-1",         13904,   107.031E-03,   63.7554E-03,            0.,NA,NA,"",   1.07668E+06,   1.12944E+06,   1.12944E+06
C:/temp/Job-1.odb,Step-1,Increment      1: Step Time =    1.000,"P-1-1",         13905,   67.1853E-03,   160.473E-03,            0.,NA,NA,"",   1.05889E+06,   1.06313E+06,   1.06313E+06
C:/temp/Job-1.odb,Step-1,Increment      1: Step Time =    1.000,"P-1-1",         13906,   40.4524E-03,   67.1516E-03,            0.,NA,NA,"",   947.296E+03,   992.026E+03,   992.026E+03
C:/temp/Job-1.odb,Step-1,Increment      1: Step Time =    1.000,"P-1-1",         13907,   119.478E-03,   66.9380E-03,            0.,NA,NA,"",   1.18023E+06,   1.16349E+06,   1.16349E+06
C:/temp/Job-1.odb,Step-1,Increment      1: Step Time =    1.000,"P-1-1",         13908,   118.774E-03,   70.2434E-03,            0.,NA,NA,"",   1.21241E+06,   1.18746E+06,   1.18746E+06
C:/temp/Job-1.odb,Step-1,Increment      1: Step Time =    1.000,"P-1-1",         13909,   158.959E-03,   46.5786E-03,            0.,NA,NA,"",   1.04090E+06,   1.03015E+06,   1.03015E+06
C:/temp/Job-1.odb,Step-1,Increment      1: Step Time =    1.000,"P-1-1",         13910,   45.8523E-03,   41.0035E-03,            0.,NA,NA,"",   1.03910E+06,   1.05773E+06,   1.05773E+06
C:/temp/Job-1.odb,Step-1,Increment      1: Step Time =    1.000,"P-1-1",         13911,   154.040E-03,   158.743E-03,            0.,NA,NA,"",   1.04342E+06,   1.03242E+06,   1.03242E+06
C:/temp/Job-1.odb,Step-1,Increment      1: Step Time =    1.000,"P-1-1",         13912,   41.1308E-03,   154.380E-03,            0.,NA,NA,"",   1.01959E+06,   1.04825E+06,   1.04825E+06
C:/temp/Job-1.odb,Step-1,Increment      1: Step Time =    1.000,"P-1-1",         13913,   140.355E-03,   73.4360E-03,            0.,NA,NA,"",   1.07953E+06,   1.04333E+06,   1.04333E+06
C:/temp/Job-1.odb,Step-1,Increment      1: Step Time =    1.000,"P-1-1",         13914,   81.8388E-03,   57.8288E-03,            0.,NA,NA,"",   1.10143E+06,   1.11558E+06,   1.11558E+06
C:/temp/Job-1.odb,Step-1,Increment      1: Step Time =    1.000,"P-1-1",         13915,   127.542E-03,   145.576E-03,            0.,NA,NA,"",   1.10719E+06,   1.09265E+06,   1.09265E+06
C:/temp/Job-1.odb,Step-1,Increment      1: Step Time =    1.000,"P-1-1",         13916,   145.519E-03,   83.9692E-03,            0.,NA,NA,"",   966.116E+03,   952.994E+03,   952.994E+03
C:/temp/Job-1.odb,Step-1,Increment      1: Step Time =    1.000,"P-1-1",         13917,   144.824E-03,   80.9118E-03,            0.,NA,NA,"",   998.078E+03,   978.169E+03,   978.169E+03
C:/temp/Job-1.odb,Step-1,Increment      1: Step Time =    1.000,"P-1-1",         13918,   159.453E-03,   105.060E-03,            0.,NA,NA,"",   927.273E+03,   937.316E+03,   937.316E+03
C:/temp/Job-1.odb,Step-1,Increment      1: Step Time =    1.000,"P-1-1",         13919,   94.9004E-03,   159.067E-03,            0.,NA,NA,"",   1.01824E+06,   1.04200E+06,   1.04200E+06
C:/temp/Job-1.odb,Step-1,Increment      1: Step Time =    1.000,"P-1-1",         13920,   42.1607E-03,   95.1717E-03,            0.,NA,NA,"",   819.215E+03,   883.074E+03,   883.074E+03
C:/temp/Job-1.odb,Step-1,Increment      1: Step Time =    1.000,"P-1-1",         13921,   159.718E-03,   119.915E-03,            0.,NA,NA,"",   983.372E+03,   981.145E+03,   981.145E+03
C:/temp/Job-1.odb,Step-1,Increment      1: Step Time =    1.000,"P-1-1",         13922,   39.9314E-03,   78.7365E-03,            0.,NA,NA,"",   888.681E+03,   943.838E+03,   943.838E+03
C:/temp/Job-1.odb,Step-1,Increment      1: Step Time =    1.000,"P-1-1",         13923,   78.9545E-03,   158.370E-03,            0.,NA,NA,"",   1.05064E+06,   1.06146E+06,   1.06146E+06
C:/temp/Job-1.odb,Step-1,Increment      1: Step Time =    1.000,"P-1-1",         13924,   106.261E-03,   40.2633E-03,            0.,NA,NA,"",   1.01783E+06,   1.03872E+06,   1.03872E+06
C:/temp/Job-1.odb,Step-1,Increment      1: Step Time =    1.000,"P-1-1",         13925,   48.3161E-03,   96.7554E-03,            0.,NA,NA,"",   804.572E+03,   862.533E+03,   862.533E+03
C:/temp/Job-1.odb,Step-1,Increment      1: Step Time =    1.000,"P-1-1",         13926,   90.3646E-03,   58.1138E-03,            0.,NA,NA,"",   1.06500E+06,   1.10389E+06,   1.10389E+06
C:/temp/Job-1.odb,Step-1,Increment      1: Step Time =    1.000,"P-1-1",         13927,   124.700E-03,   146.631E-03,            0.,NA,NA,"",   1.10000E+06,   1.09159E+06,   1.09159E+06
C:/temp/Job-1.odb,Step-1,Increment      1: Step Time =    1.000,"P-1-1",         13928,   83.9719E-03,   39.2764E-03,            0.,NA,NA,"",   1.03515E+06,   1.04966E+06,   1.04966E+06
C:/temp/Job-1.odb,Step-1,Increment      1: Step Time =    1.000,"P-1-1",         13929,   48.6411E-03,   112.135E-03,            0.,NA,NA,"",   848.989E+03,   898.745E+03,   898.745E+03
C:/temp/Job-1.odb,Step-1,Increment      1: Step Time =    1.000,"P-1-1",         13930,   160.291E-03,   40.7085E-03,            0.,NA,NA,"",   1.03360E+06,   1.02510E+06,   1.02510E+06
C:/temp/Job-1.odb,Step-1,Increment      1: Step Time =    1.000,"P-1-1",         13931,   152.998E-03,   123.854E-03,            0.,NA,NA,"",   1.01094E+06,   997.710E+03,   997.710E+03
C:/temp/Job-1.odb,Step-1,Increment      1: Step Time =    1.000,"P-1-1",         13932,   76.7427E-03,   160.081E-03,            0.,NA,NA,"",   1.05016E+06,   1.05878E+06,   1.05878E+06
C:/temp/Job-1.odb,Step-1,Increment      1: Step Time =    1.000,"P-1-1",         13933,   39.6014E-03,   77.2413E-03,            0.,NA,NA,"",   895.222E+03,   949.758E+03,   949.758E+03
C:/temp/Job-1.odb,Step-1,Increment      1: Step Time =    1.000,"P-1-1",         13934,   113.423E-03,   68.2871E-03,            0.,NA,NA,"",   1.16875E+06,   1.18410E+06,   1.18410E+06
C:/temp/Job-1.odb,Step-1,Increment      1: Step Time =    1.000,"P-1-1",         13935,   159.865E-03,   129.236E-03,            0.,NA,NA,"",   1.01789E+06,   1.00888E+06,   1.00888E+06
C:/temp/Job-1.odb,Step-1,Increment      1: Step Time =    1.000,"P-1-1",         13936,   129.044E-03,   40.2806E-03,            0.,NA,NA,"",   1.05495E+06,   1.04989E+06,   1.04989E+06
C:/temp/Job-1.odb,Step-1,Increment      1: Step Time =    1.000,"P-1-1",         13937,   159.727E-03,   83.3357E-03,            0.,NA,NA,"",   969.146E+03,   970.063E+03,   970.063E+03
C:/temp/Job-1.odb,Step-1,Increment      1: Step Time =    1.000,"P-1-1",         13938,   48.0502E-03,   100.199E-03,            0.,NA,NA,"",   801.421E+03,   860.325E+03,   860.325E+03
C:/temp/Job-1.odb,Step-1,Increment      1: Step Time =    1.000,"P-1-1",         13939,   74.2479E-03,   159.981E-03,            0.,NA,NA,"",   1.05431E+06,   1.06129E+06,   1.06129E+06
C:/temp/Job-1.odb,Step-1,Increment      1: Step Time =    1.000,"P-1-1",         13940,   40.1998E-03,   73.9580E-03,            0.,NA,NA,"",   913.984E+03,   964.661E+03,   964.661E+03
C:/temp/Job-1.odb,Step-1,Increment      1: Step Time =    1.000,"P-1-1",         13941,   142.808E-03,   132.763E-03,            0.,NA,NA,"",   1.08735E+06,   1.05635E+06,   1.05635E+06
C:/temp/Job-1.odb,Step-1,Increment      1: Step Time =    1.000,"P-1-1",         13942,   136.911E-03,   70.2048E-03,            0.,NA,NA,"",   1.11473E+06,   1.07384E+06,   1.07384E+06
C:/temp/Job-1.odb,Step-1,Increment      1: Step Time =    1.000,"P-1-1",         13943,   159.389E-03,   160.622E-03,            0.,NA,NA,"",   1.03360E+06,   1.02511E+06,   1.02511E+06
C:/temp/Job-1.odb,Step-1,Increment      1: Step Time =    1.000,"P-1-1",         13944,   40.1857E-03,   141.979E-03,            0.,NA,NA,"",   981.564E+03,   1.02033E+06,   1.02033E+06
C:/temp/Job-1.odb,Step-1,Increment      1: Step Time =    1.000,"P-1-1",         13945,   41.3988E-03,   38.8840E-03,            0.,NA,NA,"",   1.03295E+06,   1.05651E+06,   1.05651E+06
C:/temp/Job-1.odb,Step-1,Increment      1: Step Time =    1.000,"P-1-1",         13946,   160.565E-03,   88.9475E-03,            0.,NA,NA,"",   947.524E+03,   954.004E+03,   954.004E+03
C:/temp/Job-1.odb,Step-1,Increment      1: Step Time =    1.000,"P-1-1",         13947,   147.111E-03,   83.3161E-03,            0.,NA,NA,"",   971.690E+03,   959.612E+03,   959.612E+03
C:/temp/Job-1.odb,Step-1,Increment      1: Step Time =    1.000,"P-1-1",         13948,   49.8493E-03,   90.6216E-03,            0.,NA,NA,"",   829.858E+03,   881.201E+03,   881.201E+03
C:/temp/Job-1.odb,Step-1,Increment      1: Step Time =    1.000,"P-1-1",         13949,   87.5672E-03,   39.9512E-03,            0.,NA,NA,"",   1.02916E+06,   1.04704E+06,   1.04704E+06
C:/temp/Job-1.odb,Step-1,Increment      1: Step Time =    1.000,"P-1-1",         13950,   125.614E-03,   40.4368E-03,            0.,NA,NA,"",   1.05215E+06,   1.05041E+06,   1.05041E+06
C:/temp/Job-1.odb,Step-1,Increment      1: Step Time =    1.000,"P-1-1",         13951,   160.176E-03,   125.726E-03,            0.,NA,NA,"",   1.00542E+06,   999.018E+03,   999.018E+03
C:/temp/Job-1.odb,Step-1,Increment      1: Step Time =    1.000,"P-1-1",         13952,   136.149E-03,   69.2468E-03,            0.,NA,NA,"",   1.12118E+06,   1.08029E+06,   1.08029E+06
C:/temp/Job-1.odb,Step-1,Increment      1: Step Time =    1.000,"P-1-1",         13953,   39.8462E-03,   39.4778E-03,            0.,NA,NA,"",   1.02855E+06,   1.05501E+06,   1.05501E+06
C:/temp/Job-1.odb,Step-1,Increment      1: Step Time =    1.000,"P-1-1",         13954,   54.7881E-03,   160.448E-03,            0.,NA,NA,"",   1.05385E+06,   1.06227E+06,   1.06227E+06
C:/temp/Job-1.odb,Step-1,Increment      1: Step Time =    1.000,"P-1-1",         13955,   160.659E-03,   159.606E-03,            0.,NA,NA,"",   1.03277E+06,   1.02451E+06,   1.02451E+06
C:/temp/Job-1.odb,Step-1,Increment      1: Step Time =    1.000,"P-1-1",         13956,   40.1486E-03,   54.0985E-03,            0.,NA,NA,"",   993.944E+03,   1.03022E+06,   1.03022E+06
C:/temp/Job-1.odb,Step-1,Increment      1: Step Time =    1.000,"P-1-1",         13957,   160.242E-03,   71.6189E-03,            0.,NA,NA,"",   1.01471E+06,   1.00656E+06,   1.00656E+06
C:/temp/Job-1.odb,Step-1,Increment      1: Step Time =    1.000,"P-1-1",         13958,   72.2656E-03,   40.5076E-03,            0.,NA,NA,"",   1.05774E+06,   1.06357E+06,   1.06357E+06
C:/temp/Job-1.odb,Step-1,Increment      1: Step Time =    1.000,"P-1-1",         13959,   48.0971E-03,   159.937E-03,            0.,NA,NA,"",   1.04430E+06,   1.05948E+06,   1.05948E+06
C:/temp/Job-1.odb,Step-1,Increment      1: Step Time =    1.000,"P-1-1",         13960,   40.1613E-03,   48.0805E-03,            0.,NA,NA,"",   1.01072E+06,   1.04282E+06,   1.04282E+06
C:/temp/Job-1.odb,Step-1,Increment      1: Step Time =    1.000,"P-1-1",         13961,   160.502E-03,   153.157E-03,            0.,NA,NA,"",   1.03842E+06,   1.02839E+06,   1.02839E+06
C:/temp/Job-1.odb,Step-1,Increment      1: Step Time =    1.000,"P-1-1",         13962,   152.233E-03,   39.5856E-03,            0.,NA,NA,"",   1.04314E+06,   1.03242E+06,   1.03242E+06
C:/temp/Job-1.odb,Step-1,Increment      1: Step Time =    1.000,"P-1-1",         13963,   119.511E-03,   160.038E-03,            0.,NA,NA,"",   1.04093E+06,   1.04661E+06,   1.04661E+06
C:/temp/Job-1.odb,Step-1,Increment      1: Step Time =    1.000,"P-1-1",         13964,   48.2077E-03,   106.747E-03,            0.,NA,NA,"",   816.997E+03,   873.006E+03,   873.006E+03
C:/temp/Job-1.odb,Step-1,Increment      1: Step Time =    1.000,"P-1-1",         13965,   160.330E-03,   96.0249E-03,            0.,NA,NA,"",   928.288E+03,   938.913E+03,   938.913E+03
C:/temp/Job-1.odb,Step-1,Increment      1: Step Time =    1.000,"P-1-1",         13966,   160.087E-03,   60.7669E-03,            0.,NA,NA,"",   1.03738E+06,   1.02564E+06,   1.02564E+06
C:/temp/Job-1.odb,Step-1,Increment      1: Step Time =    1.000,"P-1-1",         13967,   60.7774E-03,   39.8675E-03,            0.,NA,NA,"",   1.05915E+06,   1.06417E+06,   1.06417E+06
C:/temp/Job-1.odb,Step-1,Increment      1: Step Time =    1.000,"P-1-1",         13968,   153.653E-03,   122.806E-03,            0.,NA,NA,"",   1.00411E+06,   992.752E+03,   992.752E+03
C:/temp/Job-1.odb,Step-1,Increment      1: Step Time =    1.000,"P-1-1",         13969,   50.5019E-03,   71.3924E-03,            0.,NA,NA,"",   975.297E+03,   1.00134E+06,   1.00134E+06
C:/temp/Job-1.odb,Step-1,Increment      1: Step Time =    1.000,"P-1-1",         13970,   162.104E-03,   92.5995E-03,            0.,NA,NA,"",   939.816E+03,   949.309E+03,   949.309E+03
C:/temp/Job-1.odb,Step-1,Increment      1: Step Time =    1.000,"P-1-1",         13971,   153.350E-03,   116.341E-03,            0.,NA,NA,"",   965.891E+03,   961.743E+03,   961.743E+03
C:/temp/Job-1.odb,Step-1,Increment      1: Step Time =    1.000,"P-1-1",         13972,   144.939E-03,   77.3930E-03,            0.,NA,NA,"",   1.02866E+06,   1.00402E+06,   1.00402E+06
C:/temp/Job-1.odb,Step-1,Increment      1: Step Time =    1.000,"P-1-1",         13973,   57.3720E-03,   36.6390E-03,            0.,NA,NA,"",   1.05363E+06,   1.05968E+06,   1.05968E+06
C:/temp/Job-1.odb,Step-1,Increment      1: Step Time =    1.000,"P-1-1",         13974,   162.734E-03,   57.1623E-03,            0.,NA,NA,"",   1.03417E+06,   1.02452E+06,   1.02452E+06
C:/temp/Job-1.odb,Step-1,Increment      1: Step Time =    1.000,"P-1-1",         13975,   38.1908E-03,   123.888E-03,            0.,NA,NA,"",   896.196E+03,   952.489E+03,   952.489E+03
C:/temp/Job-1.odb,Step-1,Increment      1: Step Time =    1.000,"P-1-1",         13976,   37.5687E-03,   99.1416E-03,            0.,NA,NA,"",    817.76E+03,   887.336E+03,   887.336E+03
C:/temp/Job-1.odb,Step-1,Increment      1: Step Time =    1.000,"P-1-1",         13977,   99.2557E-03,   161.828E-03,            0.,NA,NA,"",   1.01193E+06,   1.03316E+06,   1.03316E+06
C:/temp/Job-1.odb,Step-1,Increment      1: Step Time =    1.000,"P-1-1",         13978,   162.110E-03,   101.450E-03,            0.,NA,NA,"",   930.989E+03,   942.575E+03,   942.575E+03
C:/temp/Job-1.odb,Step-1,Increment      1: Step Time =    1.000,"P-1-1",         13979,   101.197E-03,   37.8841E-03,            0.,NA,NA,"",   1.01152E+06,   1.03235E+06,   1.03235E+06
C:/temp/Job-1.odb,Step-1,Increment      1: Step Time =    1.000,"P-1-1",         13980,   156.786E-03,   37.8402E-03,            0.,NA,NA,"",   1.03513E+06,   1.02628E+06,   1.02628E+06
C:/temp/Job-1.odb,Step-1,Increment      1: Step Time =    1.000,"P-1-1",         13981,   44.6834E-03,   159.825E-03,            0.,NA,NA,"",   1.03784E+06,   1.05745E+06,   1.05745E+06
C:/temp/Job-1.odb,Step-1,Increment      1: Step Time =    1.000,"P-1-1",         13982,   72.8868E-03,   149.784E-03,            0.,NA,NA,"",   1.08366E+06,   1.08796E+06,   1.08796E+06
C:/temp/Job-1.odb,Step-1,Increment      1: Step Time =    1.000,"P-1-1",         13983,   40.6472E-03,   43.9582E-03,            0.,NA,NA,"",   1.02187E+06,   1.05018E+06,   1.05018E+06
C:/temp/Job-1.odb,Step-1,Increment      1: Step Time =    1.000,"P-1-1",         13984,   155.805E-03,   39.4662E-03,            0.,NA,NA,"",   1.03857E+06,   1.02883E+06,   1.02883E+06
C:/temp/Job-1.odb,Step-1,Increment      1: Step Time =    1.000,"P-1-1",         13985,   160.382E-03,   156.350E-03,            0.,NA,NA,"",   1.03616E+06,   1.02690E+06,   1.02690E+06
C:/temp/Job-1.odb,Step-1,Increment      1: Step Time =    1.000,"P-1-1",         13986,   39.4020E-03,   50.8049E-03,            0.,NA,NA,"",   1.00053E+06,   1.03608E+06,   1.03608E+06
C:/temp/Job-1.odb,Step-1,Increment      1: Step Time =    1.000,"P-1-1",         13987,   49.4220E-03,   160.773E-03,            0.,NA,NA,"",   1.04686E+06,   1.06011E+06,   1.06011E+06
C:/temp/Job-1.odb,Step-1,Increment      1: Step Time =    1.000,"P-1-1",         13988,   85.3834E-03,   152.477E-03,            0.,NA,NA,"",   1.05070E+06,   1.07128E+06,   1.07128E+06
C:/temp/Job-1.odb,Step-1,Increment      1: Step Time =    1.000,"P-1-1",         13989,   149.488E-03,   85.6974E-03,            0.,NA,NA,"",   949.682E+03,   944.844E+03,   944.844E+03
C:/temp/Job-1.odb,Step-1,Increment      1: Step Time =    1.000,"P-1-1",         13990,   76.4804E-03,   61.7045E-03,            0.,NA,NA,"",   1.13048E+06,   1.12793E+06,   1.12793E+06
C:/temp/Job-1.odb,Step-1,Increment      1: Step Time =    1.000,"P-1-1",         13991,   102.910E-03,   40.3967E-03,            0.,NA,NA,"",   1.01494E+06,   1.03779E+06,   1.03779E+06
C:/temp/Job-1.odb,Step-1,Increment      1: Step Time =    1.000,"P-1-1",         13992,   113.808E-03,   160.627E-03,            0.,NA,NA,"",   1.02841E+06,   1.04086E+06,   1.04086E+06
C:/temp/Job-1.odb,Step-1,Increment      1: Step Time =    1.000,"P-1-1",         13993,   159.551E-03,   103.185E-03,            0.,NA,NA,"",   924.055E+03,   934.905E+03,   934.905E+03
C:/temp/Job-1.odb,Step-1,Increment      1: Step Time =    1.000,"P-1-1",         13994,   96.9087E-03,   159.805E-03,            0.,NA,NA,"",   1.01532E+06,   1.03880E+06,   1.03880E+06
C:/temp/Job-1.odb,Step-1,Increment      1: Step Time =    1.000,"P-1-1",         13995,   40.5898E-03,   96.6383E-03,            0.,NA,NA,"",   817.893E+03,   883.899E+03,   883.899E+03
C:/temp/Job-1.odb,Step-1,Increment      1: Step Time =    1.000,"P-1-1",         13996,   38.2612E-03,   112.058E-03,            0.,NA,NA,"",   842.090E+03,   906.971E+03,   906.971E+03
C:/temp/Job-1.odb,Step-1,Increment      1: Step Time =    1.000,"P-1-1",         13997,   146.117E-03,   127.505E-03,            0.,NA,NA,"",   1.05308E+06,   1.02701E+06,   1.02701E+06
C:/temp/Job-1.odb,Step-1,Increment      1: Step Time =    1.000,"P-1-1",         13998,   39.2787E-03,   113.388E-03,            0.,NA,NA,"",   848.743E+03,   911.382E+03,   911.382E+03
C:/temp/Job-1.odb,Step-1,Increment      1: Step Time =    1.000,"P-1-1",         13999,   147.917E-03,   127.651E-03,            0.,NA,NA,"",   1.04631E+06,   1.02300E+06,   1.02300E+06
C:/temp/Job-1.odb,Step-1,Increment      1: Step Time =    1.000,"P-1-1",         14000,   162.535E-03,   39.0337E-03,            0.,NA,NA,"",   1.02895E+06,   1.02176E+06,   1.02176E+06
C:/temp/Job-1.odb,Step-1,Increment      1: Step Time =    1.000,"P-1-1",         14001,   121.933E-03,   161.007E-03,            0.,NA,NA,"",   1.04214E+06,   1.04487E+06,   1.04487E+06
C:/temp/Job-1.odb,Step-1,Increment      1: Step Time =    1.000,"P-1-1",         14002,   124.034E-03,   147.844E-03,            0.,NA,NA,"",   1.09342E+06,   1.08755E+06,   1.08755E+06
C:/temp/Job-1.odb,Step-1,Increment      1: Step Time =    1.000,"P-1-1",         14003,   49.0572E-03,   89.6807E-03,            0.,NA,NA,"",   836.291E+03,   887.566E+03,   887.566E+03
C:/temp/Job-1.odb,Step-1,Increment      1: Step Time =    1.000,"P-1-1",         14004,   123.445E-03,   149.082E-03,            0.,NA,NA,"",   1.08704E+06,   1.08328E+06,   1.08328E+06
C:/temp/Job-1.odb,Step-1,Increment      1: Step Time =    1.000,"P-1-1",         14005,   38.5401E-03,   63.6686E-03,            0.,NA,NA,"",   953.682E+03,   999.659E+03,   999.659E+03
C:/temp/Job-1.odb,Step-1,Increment      1: Step Time =    1.000,"P-1-1",         14006,   64.1781E-03,   162.370E-03,            0.,NA,NA,"",   1.05608E+06,   1.06022E+06,   1.06022E+06
C:/temp/Job-1.odb,Step-1,Increment      1: Step Time =    1.000,"P-1-1",         14007,   40.3189E-03,   63.6456E-03,            0.,NA,NA,"",   961.782E+03,   1.00410E+06,   1.00410E+06
C:/temp/Job-1.odb,Step-1,Increment      1: Step Time =    1.000,"P-1-1",         14008,   64.1998E-03,   160.507E-03,            0.,NA,NA,"",   1.05939E+06,   1.06360E+06,   1.06360E+06
C:/temp/Job-1.odb,Step-1,Increment      1: Step Time =    1.000,"P-1-1",         14009,   106.687E-03,   61.0714E-03,            0.,NA,NA,"",   1.06204E+06,   1.11099E+06,   1.11099E+06
C:/temp/Job-1.odb,Step-1,Increment      1: Step Time =    1.000,"P-1-1",         14010,   103.525E-03,   59.7012E-03,            0.,NA,NA,"",   1.04291E+06,   1.09732E+06,   1.09732E+06
C:/temp/Job-1.odb,Step-1,Increment      1: Step Time =    1.000,"P-1-1",         14011,   106.454E-03,   67.6239E-03,            0.,NA,NA,"",   1.09819E+06,   1.16167E+06,   1.16167E+06
C:/temp/Job-1.odb,Step-1,Increment      1: Step Time =    1.000,"P-1-1",         14012,   40.6742E-03,   40.8273E-03,            0.,NA,NA,"",   1.02806E+06,   1.05413E+06,   1.05413E+06
C:/temp/Job-1.odb,Step-1,Increment      1: Step Time =    1.000,"P-1-1",         14013,   159.869E-03,   158.347E-03,            0.,NA,NA,"",   1.03514E+06,   1.02621E+06,   1.02621E+06
C:/temp/Job-1.odb,Step-1,Increment      1: Step Time =    1.000,"P-1-1",         14014,   136.762E-03,   67.3748E-03,            0.,NA,NA,"",   1.11912E+06,   1.08100E+06,   1.08100E+06
C:/temp/Job-1.odb,Step-1,Increment      1: Step Time =    1.000,"P-1-1",         14015,   112.211E-03,   67.4078E-03,            0.,NA,NA,"",   1.14960E+06,   1.17467E+06,   1.17467E+06
C:/temp/Job-1.odb,Step-1,Increment      1: Step Time =    1.000,"P-1-1",         14016,   113.535E-03,   161.851E-03,            0.,NA,NA,"",   1.02541E+06,   1.03757E+06,   1.03757E+06
C:/temp/Job-1.odb,Step-1,Increment      1: Step Time =    1.000,"P-1-1",         14017,   145.915E-03,   163.689E-03,            0.,NA,NA,"",   1.04310E+06,   1.03327E+06,   1.03327E+06
C:/temp/Job-1.odb,Step-1,Increment      1: Step Time =    1.000,"P-1-1",         14018,   37.5549E-03,   144.527E-03,            0.,NA,NA,"",   978.676E+03,   1.02101E+06,   1.02101E+06
C:/temp/Job-1.odb,Step-1,Increment      1: Step Time =    1.000,"P-1-1",         14019,   89.7245E-03,   40.7534E-03,            0.,NA,NA,"",   1.02589E+06,   1.04636E+06,   1.04636E+06
C:/temp/Job-1.odb,Step-1,Increment      1: Step Time =    1.000,"P-1-1",         14020,   130.097E-03,   141.332E-03,            0.,NA,NA,"",   1.12451E+06,   1.10036E+06,   1.10036E+06
C:/temp/Job-1.odb,Step-1,Increment      1: Step Time =    1.000,"P-1-1",         14021,   139.280E-03,   137.179E-03,            0.,NA,NA,"",   1.10667E+06,   1.07522E+06,   1.07522E+06
C:/temp/Job-1.odb,Step-1,Increment      1: Step Time =    1.000,"P-1-1",         14022,   79.6864E-03,   64.1082E-03,            0.,NA,NA,"",   1.14625E+06,   1.14624E+06,   1.14624E+06
C:/temp/Job-1.odb,Step-1,Increment      1: Step Time =    1.000,"P-1-1",         14023,   59.3069E-03,   137.511E-03,            0.,NA,NA,"",   1.06295E+06,   1.06621E+06,   1.06621E+06
C:/temp/Job-1.odb,Step-1,Increment      1: Step Time =    1.000,"P-1-1",         14024,   159.390E-03,   93.6465E-03,            0.,NA,NA,"",   930.314E+03,   939.692E+03,   939.692E+03
C:/temp/Job-1.odb,Step-1,Increment      1: Step Time =    1.000,"P-1-1",         14025,   111.624E-03,   152.395E-03,            0.,NA,NA,"",   1.04205E+06,   1.06254E+06,   1.06254E+06
C:/temp/Job-1.odb,Step-1,Increment      1: Step Time =    1.000,"P-1-1",         14026,   71.7558E-03,   145.319E-03,            0.,NA,NA,"",   1.09808E+06,   1.09868E+06,   1.09868E+06
C:/temp/Job-1.odb,Step-1,Increment      1: Step Time =    1.000,"P-1-1",         14027,   155.524E-03,   121.971E-03,            0.,NA,NA,"",   996.626E+03,   988.313E+03,   988.313E+03
C:/temp/Job-1.odb,Step-1,Increment      1: Step Time =    1.000,"P-1-1",         14028,   57.4566E-03,   133.212E-03,            0.,NA,NA,"",   1.03996E+06,   1.04695E+06,   1.04695E+06
C:/temp/Job-1.odb,Step-1,Increment      1: Step Time =    1.000,"P-1-1",         14029,   159.191E-03,   39.1420E-03,            0.,NA,NA,"",   1.03365E+06,   1.02515E+06,   1.02515E+06
C:/temp/Job-1.odb,Step-1,Increment      1: Step Time =    1.000,"P-1-1",         14030,   158.711E-03,   118.362E-03,            0.,NA,NA,"",   976.522E+03,   974.920E+03,   974.920E+03
C:/temp/Job-1.odb,Step-1,Increment      1: Step Time =    1.000,"P-1-1",         14031,   80.5399E-03,   158.519E-03,            0.,NA,NA,"",   1.04689E+06,   1.05921E+06,   1.05921E+06
C:/temp/Job-1.odb,Step-1,Increment      1: Step Time =    1.000,"P-1-1",         14032,   73.4391E-03,   41.0251E-03,            0.,NA,NA,"",   1.05769E+06,   1.06411E+06,   1.06411E+06
C:/temp/Job-1.odb,Step-1,Increment      1: Step Time =    1.000,"P-1-1",         14033,   41.9557E-03,   79.9202E-03,            0.,NA,NA,"",   888.166E+03,   940.781E+03,   940.781E+03
C:/temp/Job-1.odb,Step-1,Increment      1: Step Time =    1.000,"P-1-1",         14034,   39.7729E-03,   71.5146E-03,            0.,NA,NA,"",   924.142E+03,   973.710E+03,   973.710E+03
C:/temp/Job-1.odb,Step-1,Increment      1: Step Time =    1.000,"P-1-1",         14035,   71.0223E-03,   160.587E-03,            0.,NA,NA,"",   1.05628E+06,   1.06156E+06,   1.06156E+06
C:/temp/Job-1.odb,Step-1,Increment      1: Step Time =    1.000,"P-1-1",         14036,   159.758E-03,   73.4283E-03,            0.,NA,NA,"",   1.00944E+06,   1.00192E+06,   1.00192E+06
C:/temp/Job-1.odb,Step-1,Increment      1: Step Time =    1.000,"P-1-1",         14037,   133.056E-03,   158.553E-03,            0.,NA,NA,"",   1.06071E+06,   1.05177E+06,   1.05177E+06
C:/temp/Job-1.odb,Step-1,Increment      1: Step Time =    1.000,"P-1-1",         14038,   41.3288E-03,   133.839E-03,            0.,NA,NA,"",   955.626E+03,   997.761E+03,   997.761E+03
C:/temp/Job-1.odb,Step-1,Increment      1: Step Time =    1.000,"P-1-1",         14039,   140.436E-03,   135.571E-03,            0.,NA,NA,"",   1.10167E+06,   1.06960E+06,   1.06960E+06
C:/temp/Job-1.odb,Step-1,Increment      1: Step Time =    1.000,"P-1-1",         14040,   151.709E-03,   127.106E-03,            0.,NA,NA,"",   1.03061E+06,   1.01312E+06,   1.01312E+06
C:/temp/Job-1.odb,Step-1,Increment      1: Step Time =    1.000,"P-1-1",         14041,   93.1123E-03,   151.033E-03,            0.,NA,NA,"",   1.03184E+06,   1.06437E+06,   1.06437E+06
C:/temp/Job-1.odb,Step-1,Increment      1: Step Time =    1.000,"P-1-1",         14042,   145.173E-03,   131.568E-03,            0.,NA,NA,"",   1.07362E+06,   1.04516E+06,   1.04516E+06
C:/temp/Job-1.odb,Step-1,Increment      1: Step Time =    1.000,"P-1-1",         14043,   61.1110E-03,   61.7635E-03,            0.,NA,NA,"",   1.07352E+06,   1.07411E+06,   1.07411E+06
C:/temp/Job-1.odb,Step-1,Increment      1: Step Time =    1.000,"P-1-1",         14044,   118.619E-03,   40.9047E-03,            0.,NA,NA,"",   1.04165E+06,   1.04858E+06,   1.04858E+06
C:/temp/Job-1.odb,Step-1,Increment      1: Step Time =    1.000,"P-1-1",         14045,   139.900E-03,   72.5209E-03,            0.,NA,NA,"",   1.08664E+06,   1.04954E+06,   1.04954E+06
C:/temp/Job-1.odb,Step-1,Increment      1: Step Time =    1.000,"P-1-1",         14046,   109.087E-03,   161.992E-03,            0.,NA,NA,"",   1.01805E+06,   1.03441E+06,   1.03441E+06
C:/temp/Job-1.odb,Step-1,Increment      1: Step Time =    1.000,"P-1-1",         14047,   114.126E-03,   41.4923E-03,            0.,NA,NA,"",   1.03375E+06,   1.04689E+06,   1.04689E+06
C:/temp/Job-1.odb,Step-1,Increment      1: Step Time =    1.000,"P-1-1",         14048,   111.099E-03,   41.6451E-03,            0.,NA,NA,"",   1.02796E+06,   1.04506E+06,   1.04506E+06
C:/temp/Job-1.odb,Step-1,Increment      1: Step Time =    1.000,"P-1-1",         14049,   117.490E-03,   146.467E-03,            0.,NA,NA,"",   1.08226E+06,   1.09119E+06,   1.09119E+06
C:/temp/Job-1.odb,Step-1,Increment      1: Step Time =    1.000,"P-1-1",         14050,   115.922E-03,   147.964E-03,            0.,NA,NA,"",   1.07064E+06,   1.08384E+06,   1.08384E+06
C:/temp/Job-1.odb,Step-1,Increment      1: Step Time =    1.000,"P-1-1",         14051,   81.3043E-03,   153.022E-03,            0.,NA,NA,"",   1.06015E+06,   1.07473E+06,   1.07473E+06
C:/temp/Job-1.odb,Step-1,Increment      1: Step Time =    1.000,"P-1-1",         14052,   160.434E-03,   145.932E-03,            0.,NA,NA,"",   1.04035E+06,   1.02905E+06,   1.02905E+06
C:/temp/Job-1.odb,Step-1,Increment      1: Step Time =    1.000,"P-1-1",         14053,   145.825E-03,   40.4070E-03,            0.,NA,NA,"",   1.05203E+06,   1.03998E+06,   1.03998E+06
C:/temp/Job-1.odb,Step-1,Increment      1: Step Time =    1.000,"P-1-1",         14054,   63.9726E-03,   59.1242E-03,            0.,NA,NA,"",   1.08764E+06,   1.08600E+06,   1.08600E+06
C:/temp/Job-1.odb,Step-1,Increment      1: Step Time =    1.000,"P-1-1",         14055,   141.109E-03,   40.9185E-03,            0.,NA,NA,"",   1.05715E+06,   1.04519E+06,   1.04519E+06
C:/temp/Job-1.odb,Step-1,Increment      1: Step Time =    1.000,"P-1-1",         14056,   158.661E-03,   142.364E-03,            0.,NA,NA,"",   1.04340E+06,   1.03038E+06,   1.03038E+06
C:/temp/Job-1.odb,Step-1,Increment      1: Step Time =    1.000,"P-1-1",         14057,   77.2526E-03,   40.1554E-03,            0.,NA,NA,"",   1.04994E+06,   1.05899E+06,   1.05899E+06
C:/temp/Job-1.odb,Step-1,Increment      1: Step Time =    1.000,"P-1-1",         14058,   159.542E-03,   76.5133E-03,            0.,NA,NA,"",   998.490E+03,   993.034E+03,   993.034E+03
C:/temp/Job-1.odb,Step-1,Increment      1: Step Time =    1.000,"P-1-1",         14059,   138.264E-03,   41.9945E-03,            0.,NA,NA,"",   1.06166E+06,   1.04972E+06,   1.04972E+06
C:/temp/Job-1.odb,Step-1,Increment      1: Step Time =    1.000,"P-1-1",         14060,   157.896E-03,   138.606E-03,            0.,NA,NA,"",   1.04224E+06,   1.02849E+06,   1.02849E+06
C:/temp/Job-1.odb,Step-1,Increment      1: Step Time =    1.000,"P-1-1",         14061,   158.998E-03,   113.270E-03,            0.,NA,NA,"",   953.798E+03,   957.445E+03,   957.445E+03
C:/temp/Job-1.odb,Step-1,Increment      1: Step Time =    1.000,"P-1-1",         14062,   157.471E-03,   115.669E-03,            0.,NA,NA,"",   963.226E+03,   963.438E+03,   963.438E+03
C:/temp/Job-1.odb,Step-1,Increment      1: Step Time =    1.000,"P-1-1",         14063,   158.197E-03,   50.5193E-03,            0.,NA,NA,"",   1.04483E+06,   1.03259E+06,   1.03259E+06
C:/temp/Job-1.odb,Step-1,Increment      1: Step Time =    1.000,"P-1-1",         14064,   50.8463E-03,   41.7153E-03,            0.,NA,NA,"",   1.04841E+06,   1.06111E+06,   1.06111E+06
C:/temp/Job-1.odb,Step-1,Increment      1: Step Time =    1.000,"P-1-1",         14065,   85.4688E-03,   158.660E-03,            0.,NA,NA,"",   1.03624E+06,   1.05330E+06,   1.05330E+06
C:/temp/Job-1.odb,Step-1,Increment      1: Step Time =    1.000,"P-1-1",         14066,   83.4639E-03,   157.866E-03,            0.,NA,NA,"",   1.04232E+06,   1.05783E+06,   1.05783E+06
C:/temp/Job-1.odb,Step-1,Increment      1: Step Time =    1.000,"P-1-1",         14067,   41.2996E-03,   83.2197E-03,            0.,NA,NA,"",   868.191E+03,   924.985E+03,   924.985E+03
C:/temp/Job-1.odb,Step-1,Increment      1: Step Time =    1.000,"P-1-1",         14068,   135.703E-03,   141.557E-03,            0.,NA,NA,"",   1.11211E+06,   1.08496E+06,   1.08496E+06
C:/temp/Job-1.odb,Step-1,Increment      1: Step Time =    1.000,"P-1-1",         14069,   148.742E-03,   158.866E-03,            0.,NA,NA,"",   1.05011E+06,   1.03796E+06,   1.03796E+06
C:/temp/Job-1.odb,Step-1,Increment      1: Step Time =    1.000,"P-1-1",         14070,   41.6144E-03,   148.886E-03,            0.,NA,NA,"",   1.00775E+06,   1.03940E+06,   1.03940E+06
C:/temp/Job-1.odb,Step-1,Increment      1: Step Time =    1.000,"P-1-1",         14071,   75.1816E-03,   152.075E-03,            0.,NA,NA,"",   1.07464E+06,   1.08169E+06,   1.08169E+06
C:/temp/Job-1.odb,Step-1,Increment      1: Step Time =    1.000,"P-1-1",         14072,   56.3864E-03,   38.1739E-03,            0.,NA,NA,"",   1.05444E+06,   1.06142E+06,   1.06142E+06
C:/temp/Job-1.odb,Step-1,Increment      1: Step Time =    1.000,"P-1-1",         14073,   161.410E-03,   56.4467E-03,            0.,NA,NA,"",   1.03750E+06,   1.02678E+06,   1.02678E+06
C:/temp/Job-1.odb,Step-1,Increment      1: Step Time =    1.000,"P-1-1",         14074,   145.829E-03,   74.0655E-03,            0.,NA,NA,"",   1.04666E+06,   1.02080E+06,   1.02080E+06
C:/temp/Job-1.odb,Step-1,Increment      1: Step Time =    1.000,"P-1-1",         14075,   70.7185E-03,   141.545E-03,            0.,NA,NA,"",   1.10857E+06,   1.10504E+06,   1.10504E+06
C:/temp/Job-1.odb,Step-1,Increment      1: Step Time =    1.000,"P-1-1",         14076,   114.434E-03,   38.9222E-03,            0.,NA,NA,"",   1.02862E+06,   1.04012E+06,   1.04012E+06
C:/temp/Job-1.odb,Step-1,Increment      1: Step Time =    1.000,"P-1-1",         14077,   154.449E-03,   116.225E-03,            0.,NA,NA,"",   965.508E+03,   962.533E+03,   962.533E+03
C:/temp/Job-1.odb,Step-1,Increment      1: Step Time =    1.000,"P-1-1",         14078,   84.1092E-03,   56.3092E-03,            0.,NA,NA,"",   1.08587E+06,   1.10649E+06,   1.10649E+06
C:/temp/Job-1.odb,Step-1,Increment      1: Step Time =    1.000,"P-1-1",         14079,   100.540E-03,   36.2726E-03,            0.,NA,NA,"",   1.00948E+06,   1.02866E+06,   1.02866E+06
C:/temp/Job-1.odb,Step-1,Increment      1: Step Time =    1.000,"P-1-1",         14080,   96.5335E-03,   38.3703E-03,            0.,NA,NA,"",   1.01336E+06,   1.03475E+06,   1.03475E+06
C:/temp/Job-1.odb,Step-1,Increment      1: Step Time =    1.000,"P-1-1",         14081,   104.183E-03,   160.909E-03,            0.,NA,NA,"",   1.01425E+06,   1.03516E+06,   1.03516E+06
C:/temp/Job-1.odb,Step-1,Increment      1: Step Time =    1.000,"P-1-1",         14082,   101.136E-03,   162.706E-03,            0.,NA,NA,"",   1.01078E+06,   1.03081E+06,   1.03081E+06
C:/temp/Job-1.odb,Step-1,Increment      1: Step Time =    1.000,"P-1-1",         14083,   37.5033E-03,   100.148E-03,            0.,NA,NA,"",   817.521E+03,   887.144E+03,   887.144E+03
C:/temp/Job-1.odb,Step-1,Increment      1: Step Time =    1.000,"P-1-1",         14084,   38.0754E-03,   102.667E-03,            0.,NA,NA,"",   818.464E+03,   887.287E+03,   887.287E+03
C:/temp/Job-1.odb,Step-1,Increment      1: Step Time =    1.000,"P-1-1",         14085,   54.0431E-03,   126.887E-03,            0.,NA,NA,"",   985.484E+03,   1.00420E+06,   1.00420E+06
C:/temp/Job-1.odb,Step-1,Increment      1: Step Time =    1.000,"P-1-1",         14086,   159.743E-03,   99.3727E-03,            0.,NA,NA,"",   922.935E+03,   934.249E+03,   934.249E+03
C:/temp/Job-1.odb,Step-1,Increment      1: Step Time =    1.000,"P-1-1",         14087,   68.2324E-03,   143.793E-03,            0.,NA,NA,"",   1.09682E+06,   1.09527E+06,   1.09527E+06
C:/temp/Job-1.odb,Step-1,Increment      1: Step Time =    1.000,"P-1-1",         14088,   51.3740E-03,   68.3153E-03,            0.,NA,NA,"",   996.947E+03,   1.01838E+06,   1.01838E+06
C:/temp/Job-1.odb,Step-1,Increment      1: Step Time =    1.000,"P-1-1",         14089,   159.783E-03,   45.3326E-03,            0.,NA,NA,"",   1.03853E+06,   1.02853E+06,   1.02853E+06
C:/temp/Job-1.odb,Step-1,Increment      1: Step Time =    1.000,"P-1-1",         14090,   158.370E-03,   47.8136E-03,            0.,NA,NA,"",   1.04295E+06,   1.03152E+06,   1.03152E+06
C:/temp/Job-1.odb,Step-1,Increment      1: Step Time =    1.000,"P-1-1",         14091,   44.5143E-03,   39.6209E-03,            0.,NA,NA,"",   1.03811E+06,   1.05772E+06,   1.05772E+06
C:/temp/Job-1.odb,Step-1,Increment      1: Step Time =    1.000,"P-1-1",         14092,   47.2824E-03,   41.3559E-03,            0.,NA,NA,"",   1.04164E+06,   1.05857E+06,   1.05857E+06
C:/temp/Job-1.odb,Step-1,Increment      1: Step Time =    1.000,"P-1-1",         14093,   70.2857E-03,   59.3666E-03,            0.,NA,NA,"",   1.11019E+06,   1.10560E+06,   1.10560E+06
C:/temp/Job-1.odb,Step-1,Increment      1: Step Time =    1.000,"P-1-1",         14094,   155.598E-03,   159.592E-03,            0.,NA,NA,"",   1.03991E+06,   1.02979E+06,   1.02979E+06
C:/temp/Job-1.odb,Step-1,Increment      1: Step Time =    1.000,"P-1-1",         14095,   151.064E-03,   159.674E-03,            0.,NA,NA,"",   1.04569E+06,   1.03437E+06,   1.03437E+06
C:/temp/Job-1.odb,Step-1,Increment      1: Step Time =    1.000,"P-1-1",         14096,   40.5827E-03,   155.449E-03,            0.,NA,NA,"",   1.02033E+06,   1.04916E+06,   1.04916E+06
C:/temp/Job-1.odb,Step-1,Increment      1: Step Time =    1.000,"P-1-1",         14097,   41.2022E-03,   152.941E-03,            0.,NA,NA,"",   1.01664E+06,   1.04619E+06,   1.04619E+06
C:/temp/Job-1.odb,Step-1,Increment      1: Step Time =    1.000,"P-1-1",         14098,   129.719E-03,   68.2214E-03,            0.,NA,NA,"",   1.16070E+06,   1.11771E+06,   1.11771E+06
C:/temp/Job-1.odb,Step-1,Increment      1: Step Time =    1.000,"P-1-1",         14099,   125.929E-03,   147.408E-03,            0.,NA,NA,"",   1.09805E+06,   1.08815E+06,   1.08815E+06
C:/temp/Job-1.odb,Step-1,Increment      1: Step Time =    1.000,"P-1-1",         14100,   158.605E-03,   105.917E-03,            0.,NA,NA,"",   926.601E+03,   936.062E+03,   936.062E+03
C:/temp/Job-1.odb,Step-1,Increment      1: Step Time =    1.000,"P-1-1",         14101,   93.1033E-03,   157.837E-03,            0.,NA,NA,"",   1.02230E+06,   1.04657E+06,   1.04657E+06
C:/temp/Job-1.odb,Step-1,Increment      1: Step Time =    1.000,"P-1-1",         14102,   42.2067E-03,   93.7989E-03,            0.,NA,NA,"",   822.640E+03,   885.854E+03,   885.854E+03
C:/temp/Job-1.odb,Step-1,Increment      1: Step Time =    1.000,"P-1-1",         14103,   159.644E-03,   121.569E-03,            0.,NA,NA,"",   990.279E+03,   986.603E+03,   986.603E+03
C:/temp/Job-1.odb,Step-1,Increment      1: Step Time =    1.000,"P-1-1",         14104,   121.240E-03,   67.1265E-03,            0.,NA,NA,"",   1.18318E+06,   1.15864E+06,   1.15864E+06
C:/temp/Job-1.odb,Step-1,Increment      1: Step Time =    1.000,"P-1-1",         14105,   68.6786E-03,   162.703E-03,            0.,NA,NA,"",   1.05326E+06,   1.05770E+06,   1.05770E+06
C:/temp/Job-1.odb,Step-1,Increment      1: Step Time =    1.000,"P-1-1",         14106,   38.1202E-03,   69.1002E-03,            0.,NA,NA,"",   929.707E+03,   980.324E+03,   980.324E+03
C:/temp/Job-1.odb,Step-1,Increment      1: Step Time =    1.000,"P-1-1",         14107,   152.888E-03,   126.677E-03,            0.,NA,NA,"",   1.02514E+06,   1.00950E+06,   1.00950E+06
C:/temp/Job-1.odb,Step-1,Increment      1: Step Time =    1.000,"P-1-1",         14108,   64.1419E-03,   141.745E-03,            0.,NA,NA,"",   1.08776E+06,   1.08645E+06,   1.08645E+06
C:/temp/Job-1.odb,Step-1,Increment      1: Step Time =    1.000,"P-1-1",         14109,   146.380E-03,   81.5131E-03,            0.,NA,NA,"",   988.948E+03,   972.734E+03,   972.734E+03
C:/temp/Job-1.odb,Step-1,Increment      1: Step Time =    1.000,"P-1-1",         14110,   100.035E-03,   59.4239E-03,            0.,NA,NA,"",   1.03635E+06,   1.09398E+06,   1.09398E+06
C:/temp/Job-1.odb,Step-1,Increment      1: Step Time =    1.000,"P-1-1",         14111,   56.9993E-03,   160.562E-03,            0.,NA,NA,"",   1.05602E+06,   1.06289E+06,   1.06289E+06
C:/temp/Job-1.odb,Step-1,Increment      1: Step Time =    1.000,"P-1-1",         14112,   40.9639E-03,   57.5292E-03,            0.,NA,NA,"",   986.801E+03,   1.02359E+06,   1.02359E+06
C:/temp/Job-1.odb,Step-1,Increment      1: Step Time =    1.000,"P-1-1",         14113,   142.265E-03,   133.661E-03,            0.,NA,NA,"",   1.09088E+06,   1.05972E+06,   1.05972E+06
C:/temp/Job-1.odb,Step-1,Increment      1: Step Time =    1.000,"P-1-1",         14114,   144.449E-03,   132.538E-03,            0.,NA,NA,"",   1.07901E+06,   1.04989E+06,   1.04989E+06
C:/temp/Job-1.odb,Step-1,Increment      1: Step Time =    1.000,"P-1-1",         14115,   48.1952E-03,   70.7017E-03,            0.,NA,NA,"",   966.993E+03,   997.802E+03,   997.802E+03
C:/temp/Job-1.odb,Step-1,Increment      1: Step Time =    1.000,"P-1-1",         14116,   151.941E-03,   93.2036E-03,            0.,NA,NA,"",   904.823E+03,   912.333E+03,   912.333E+03
C:/temp/Job-1.odb,Step-1,Increment      1: Step Time =    1.000,"P-1-1",         14117,   151.620E-03,   40.9517E-03,            0.,NA,NA,"",   1.04621E+06,   1.03471E+06,   1.03471E+06
C:/temp/Job-1.odb,Step-1,Increment      1: Step Time =    1.000,"P-1-1",         14118,   159.906E-03,   151.892E-03,            0.,NA,NA,"",   1.04010E+06,   1.02948E+06,   1.02948E+06
C:/temp/Job-1.odb,Step-1,Increment      1: Step Time =    1.000,"P-1-1",         14119,   41.2505E-03,   49.8663E-03,            0.,NA,NA,"",   1.01011E+06,   1.04141E+06,   1.04141E+06
C:/temp/Job-1.odb,Step-1,Increment      1: Step Time =    1.000,"P-1-1",         14120,   141.262E-03,   159.026E-03,            0.,NA,NA,"",   1.05750E+06,   1.04536E+06,   1.04536E+06
C:/temp/Job-1.odb,Step-1,Increment      1: Step Time =    1.000,"P-1-1",         14121,   40.8746E-03,   140.111E-03,            0.,NA,NA,"",   978.646E+03,   1.01711E+06,   1.01711E+06
C:/temp/Job-1.odb,Step-1,Increment      1: Step Time =    1.000,"P-1-1",         14122,   70.8736E-03,   41.4032E-03,            0.,NA,NA,"",   1.06123E+06,   1.06639E+06,   1.06639E+06
C:/temp/Job-1.odb,Step-1,Increment      1: Step Time =    1.000,"P-1-1",         14123,   159.456E-03,   70.4275E-03,            0.,NA,NA,"",   1.01979E+06,   1.01024E+06,   1.01024E+06
C:/temp/Job-1.odb,Step-1,Increment      1: Step Time =    1.000,"P-1-1",         14124,   138.827E-03,   70.3969E-03,            0.,NA,NA,"",   1.10204E+06,   1.06384E+06,   1.06384E+06
C:/temp/Job-1.odb,Step-1,Increment      1: Step Time =    1.000,"P-1-1",         14125,   153.672E-03,   40.2035E-03,            0.,NA,NA,"",   1.04234E+06,   1.03169E+06,   1.03169E+06
C:/temp/Job-1.odb,Step-1,Increment      1: Step Time =    1.000,"P-1-1",         14126,   159.255E-03,   153.638E-03,            0.,NA,NA,"",   1.04038E+06,   1.02979E+06,   1.02979E+06
C:/temp/Job-1.odb,Step-1,Increment      1: Step Time =    1.000,"P-1-1",         14127,   40.4825E-03,   52.6817E-03,            0.,NA,NA,"",   999.457E+03,   1.03414E+06,   1.03414E+06
C:/temp/Job-1.odb,Step-1,Increment      1: Step Time =    1.000,"P-1-1",         14128,   53.6950E-03,   160.254E-03,            0.,NA,NA,"",   1.05264E+06,   1.06201E+06,   1.06201E+06
C:/temp/Job-1.odb,Step-1,Increment      1: Step Time =    1.000,"P-1-1",         14129,   40.9793E-03,   47.1211E-03,            0.,NA,NA,"",   1.01553E+06,   1.04563E+06,   1.04563E+06
C:/temp/Job-1.odb,Step-1,Increment      1: Step Time =    1.000,"P-1-1",         14130,   41.4397E-03,   56.0223E-03,            0.,NA,NA,"",   993.493E+03,   1.02846E+06,   1.02846E+06
C:/temp/Job-1.odb,Step-1,Increment      1: Step Time =    1.000,"P-1-1",         14131,   56.1331E-03,   159.617E-03,            0.,NA,NA,"",   1.05584E+06,   1.06346E+06,   1.06346E+06
C:/temp/Job-1.odb,Step-1,Increment      1: Step Time =    1.000,"P-1-1",         14132,   46.7254E-03,   159.182E-03,            0.,NA,NA,"",   1.04118E+06,   1.05845E+06,   1.05845E+06
C:/temp/Job-1.odb,Step-1,Increment      1: Step Time =    1.000,"P-1-1",         14133,   153.688E-03,   97.4616E-03,            0.,NA,NA,"",   899.449E+03,   910.081E+03,   910.081E+03
C:/temp/Job-1.odb,Step-1,Increment      1: Step Time =    1.000,"P-1-1",         14134,   114.633E-03,   66.8781E-03,            0.,NA,NA,"",   1.16198E+06,   1.17118E+06,   1.17118E+06
C:/temp/Job-1.odb,Step-1,Increment      1: Step Time =    1.000,"P-1-1",         14135,   59.2464E-03,   41.0826E-03,            0.,NA,NA,"",   1.05951E+06,   1.06527E+06,   1.06527E+06
C:/temp/Job-1.odb,Step-1,Increment      1: Step Time =    1.000,"P-1-1",         14136,   158.873E-03,   59.9482E-03,            0.,NA,NA,"",   1.04126E+06,   1.02836E+06,   1.02836E+06
C:/temp/Job-1.odb,Step-1,Increment      1: Step Time =    1.000,"P-1-1",         14137,   159.735E-03,   90.2311E-03,            0.,NA,NA,"",   941.569E+03,   948.672E+03,   948.672E+03
C:/temp/Job-1.odb,Step-1,Increment      1: Step Time =    1.000,"P-1-1",         14138,   121.076E-03,   159.152E-03,            0.,NA,NA,"",   1.04612E+06,   1.04984E+06,   1.04984E+06
C:/temp/Job-1.odb,Step-1,Increment      1: Step Time =    1.000,"P-1-1",         14139,   158.710E-03,   96.9626E-03,            0.,NA,NA,"",   920.978E+03,   931.724E+03,   931.724E+03
C:/temp/Job-1.odb,Step-1,Increment      1: Step Time =    1.000,"P-1-1",         14140,   82.6468E-03,   39.9792E-03,            0.,NA,NA,"",   1.03955E+06,   1.05316E+06,   1.05316E+06
C:/temp/Job-1.odb,Step-1,Increment      1: Step Time =    1.000,"P-1-1",         14141,   159.012E-03,   81.9924E-03,            0.,NA,NA,"",   974.809E+03,   973.850E+03,   973.850E+03
C:/temp/Job-1.odb,Step-1,Increment      1: Step Time =    1.000,"P-1-1",         14142,   143.823E-03,   160.154E-03,            0.,NA,NA,"",   1.05260E+06,   1.04090E+06,   1.04090E+06
C:/temp/Job-1.odb,Step-1,Increment      1: Step Time =    1.000,"P-1-1",         14143,   41.2712E-03,   142.599E-03,            0.,NA,NA,"",   988.016E+03,   1.02437E+06,   1.02437E+06
C:/temp/Job-1.odb,Step-1,Increment      1: Step Time =    1.000,"P-1-1",         14144,   40.4609E-03,   119.107E-03,            0.,NA,NA,"",   878.874E+03,   934.999E+03,   934.999E+03
C:/temp/Job-1.odb,Step-1,Increment      1: Step Time =    1.000,"P-1-1",         14145,   159.166E-03,   87.8926E-03,            0.,NA,NA,"",   949.162E+03,   954.042E+03,   954.042E+03
C:/temp/Job-1.odb,Step-1,Increment      1: Step Time =    1.000,"P-1-1",         14146,   86.0512E-03,   40.4172E-03,            0.,NA,NA,"",   1.03310E+06,   1.05013E+06,   1.05013E+06
C:/temp/Job-1.odb,Step-1,Increment      1: Step Time =    1.000,"P-1-1",         14147,   123.963E-03,   40.7565E-03,            0.,NA,NA,"",   1.05090E+06,   1.05096E+06,   1.05096E+06
C:/temp/Job-1.odb,Step-1,Increment      1: Step Time =    1.000,"P-1-1",         14148,   159.523E-03,   124.664E-03,            0.,NA,NA,"",   1.00271E+06,   996.388E+03,   996.388E+03
C:/temp/Job-1.odb,Step-1,Increment      1: Step Time =    1.000,"P-1-1",         14149,   61.8695E-03,   40.1786E-03,            0.,NA,NA,"",   1.06009E+06,   1.06482E+06,   1.06482E+06
C:/temp/Job-1.odb,Step-1,Increment      1: Step Time =    1.000,"P-1-1",         14150,   159.109E-03,   61.8633E-03,            0.,NA,NA,"",   1.03849E+06,   1.02595E+06,   1.02595E+06
C:/temp/Job-1.odb,Step-1,Increment      1: Step Time =    1.000,"P-1-1",         14151,   129.482E-03,   145.701E-03,            0.,NA,NA,"",   1.10668E+06,   1.08957E+06,   1.08957E+06
C:/temp/Job-1.odb,Step-1,Increment      1: Step Time =    1.000,"P-1-1",         14152,   49.9436E-03,   118.959E-03,            0.,NA,NA,"",   905.226E+03,   943.263E+03,   943.263E+03
C:/temp/Job-1.odb,Step-1,Increment      1: Step Time =    1.000,"P-1-1",         14153,   145.417E-03,   79.1861E-03,            0.,NA,NA,"",   1.01205E+06,   990.615E+03,   990.615E+03
C:/temp/Job-1.odb,Step-1,Increment      1: Step Time =    1.000,"P-1-1",         14154,   115.366E-03,   149.267E-03,            0.,NA,NA,"",   1.06365E+06,   1.07798E+06,   1.07798E+06
C:/temp/Job-1.odb,Step-1,Increment      1: Step Time =    1.000,"P-1-1",         14155,   110.357E-03,   70.3483E-03,            0.,NA,NA,"",   1.16713E+06,   1.20500E+06,   1.20500E+06
C:/temp/Job-1.odb,Step-1,Increment      1: Step Time =    1.000,"P-1-1",         14156,   77.2885E-03,   60.4295E-03,            0.,NA,NA,"",   1.12349E+06,   1.12443E+06,   1.12443E+06
C:/temp/Job-1.odb,Step-1,Increment      1: Step Time =    1.000,"P-1-1",         14157,   152.653E-03,   109.235E-03,            0.,NA,NA,"",   920.276E+03,   925.131E+03,   925.131E+03
C:/temp/Job-1.odb,Step-1,Increment      1: Step Time =    1.000,"P-1-1",         14158,   93.8438E-03,   152.025E-03,            0.,NA,NA,"",   1.02889E+06,   1.06064E+06,   1.06064E+06
C:/temp/Job-1.odb,Step-1,Increment      1: Step Time =    1.000,"P-1-1",         14159,   99.7840E-03,   153.987E-03,            0.,NA,NA,"",   1.02015E+06,   1.05101E+06,   1.05101E+06
C:/temp/Job-1.odb,Step-1,Increment      1: Step Time =    1.000,"P-1-1",         14160,   37.9316E-03,   129.119E-03,            0.,NA,NA,"",   919.770E+03,   972.413E+03,   972.413E+03
C:/temp/Job-1.odb,Step-1,Increment      1: Step Time =    1.000,"P-1-1",         14161,   40.7123E-03,   75.4499E-03,            0.,NA,NA,"",   908.055E+03,   959.048E+03,   959.048E+03
C:/temp/Job-1.odb,Step-1,Increment      1: Step Time =    1.000,"P-1-1",         14162,   47.7313E-03,   104.790E-03,            0.,NA,NA,"",   810.270E+03,   868.168E+03,   868.168E+03
C:/temp/Job-1.odb,Step-1,Increment      1: Step Time =    1.000,"P-1-1",         14163,   75.3215E-03,   158.910E-03,            0.,NA,NA,"",   1.05564E+06,   1.06336E+06,   1.06336E+06
C:/temp/Job-1.odb,Step-1,Increment      1: Step Time =    1.000,"P-1-1",         14164,   128.456E-03,   161.402E-03,            0.,NA,NA,"",   1.04924E+06,   1.04538E+06,   1.04538E+06
C:/temp/Job-1.odb,Step-1,Increment      1: Step Time =    1.000,"P-1-1",         14165,   108.315E-03,   40.5056E-03,            0.,NA,NA,"",   1.02102E+06,   1.04029E+06,   1.04029E+06
C:/temp/Job-1.odb,Step-1,Increment      1: Step Time =    1.000,"P-1-1",         14166,   127.334E-03,   40.4326E-03,            0.,NA,NA,"",   1.05374E+06,   1.05025E+06,   1.05025E+06
C:/temp/Job-1.odb,Step-1,Increment      1: Step Time =    1.000,"P-1-1",         14167,   34.2310E-03,   58.0287E-03,            0.,NA,NA,"",   956.539E+03,   1.00728E+06,   1.00728E+06
C:/temp/Job-1.odb,Step-1,Increment      1: Step Time =    1.000,"P-1-1",         14168,   159.451E-03,   127.749E-03,            0.,NA,NA,"",   1.01407E+06,   1.00546E+06,   1.00546E+06
C:/temp/Job-1.odb,Step-1,Increment      1: Step Time =    1.000,"P-1-1",         14169,   58.0195E-03,   164.254E-03,            0.,NA,NA,"",   1.05287E+06,   1.05846E+06,   1.05846E+06
C:/temp/Job-1.odb,Step-1,Increment      1: Step Time =    1.000,"P-1-1",         14170,   130.641E-03,   41.7019E-03,            0.,NA,NA,"",   1.06058E+06,   1.05341E+06,   1.05341E+06
C:/temp/Job-1.odb,Step-1,Increment      1: Step Time =    1.000,"P-1-1",         14171,   46.7604E-03,   98.3076E-03,            0.,NA,NA,"",   805.731E+03,   865.760E+03,   865.760E+03
C:/temp/Job-1.odb,Step-1,Increment      1: Step Time =    1.000,"P-1-1",         14172,   158.883E-03,   131.064E-03,            0.,NA,NA,"",   1.02531E+06,   1.01429E+06,   1.01429E+06
C:/temp/Job-1.odb,Step-1,Increment      1: Step Time =    1.000,"P-1-1",         14173,   40.1752E-03,   109.239E-03,            0.,NA,NA,"",   832.979E+03,   897.118E+03,   897.118E+03
C:/temp/Job-1.odb,Step-1,Increment      1: Step Time =    1.000,"P-1-1",         14174,   138.831E-03,   158.711E-03,            0.,NA,NA,"",   1.05960E+06,   1.04791E+06,   1.04791E+06
C:/temp/Job-1.odb,Step-1,Increment      1: Step Time =    1.000,"P-1-1",         14175,   56.6272E-03,   130.665E-03,            0.,NA,NA,"",   1.02439E+06,   1.03400E+06,   1.03400E+06
C:/temp/Job-1.odb,Step-1,Increment      1: Step Time =    1.000,"P-1-1",         14176,   110.203E-03,   158.810E-03,            0.,NA,NA,"",   1.02521E+06,   1.04311E+06,   1.04311E+06
C:/temp/Job-1.odb,Step-1,Increment      1: Step Time =    1.000,"P-1-1",         14177,   41.8783E-03,   138.137E-03,            0.,NA,NA,"",   975.714E+03,   1.01357E+06,   1.01357E+06
C:/temp/Job-1.odb,Step-1,Increment      1: Step Time =    1.000,"P-1-1",         14178,   40.7981E-03,   161.060E-03,            0.,NA,NA,"",   1.03180E+06,   1.05631E+06,   1.05631E+06
C:/temp/Job-1.odb,Step-1,Increment      1: Step Time =    1.000,"P-1-1",         14179,   160.896E-03,   67.6626E-03,            0.,NA,NA,"",   1.02361E+06,   1.01434E+06,   1.01434E+06
C:/temp/Job-1.odb,Step-1,Increment      1: Step Time =    1.000,"P-1-1",         14180,   67.2208E-03,   40.3414E-03,            0.,NA,NA,"",   1.06069E+06,   1.06494E+06,   1.06494E+06
C:/temp/Job-1.odb,Step-1,Increment      1: Step Time =    1.000,"P-1-1",         14181,   158.909E-03,   34.7831E-03,            0.,NA,NA,"",   1.02862E+06,   1.02143E+06,   1.02143E+06
C:/temp/Job-1.odb,Step-1,Increment      1: Step Time =    1.000,"P-1-1",         14182,   48.0097E-03,   110.121E-03,            0.,NA,NA,"",   835.640E+03,   888.676E+03,   888.676E+03
C:/temp/Job-1.odb,Step-1,Increment      1: Step Time =    1.000,"P-1-1",         14183,   78.7728E-03,   57.2743E-03,            0.,NA,NA,"",   1.10605E+06,   1.11343E+06,   1.11343E+06
C:/temp/Job-1.odb,Step-1,Increment      1: Step Time =    1.000,"P-1-1",         14184,   159.990E-03,   42.2450E-03,            0.,NA,NA,"",   1.03565E+06,   1.02656E+06,   1.02656E+06
C:/temp/Job-1.odb,Step-1,Increment      1: Step Time =    1.000,"P-1-1",         14185,   118.286E-03,   159.810E-03,            0.,NA,NA,"",   1.03904E+06,   1.04635E+06,   1.04635E+06
C:/temp/Job-1.odb,Step-1,Increment      1: Step Time =    1.000,"P-1-1",         14186,   104.303E-03,   41.2215E-03,            0.,NA,NA,"",   1.01705E+06,   1.04018E+06,   1.04018E+06
C:/temp/Job-1.odb,Step-1,Increment      1: Step Time =    1.000,"P-1-1",         14187,   57.3983E-03,   63.0583E-03,            0.,NA,NA,"",   1.05106E+06,   1.05773E+06,   1.05773E+06
C:/temp/Job-1.odb,Step-1,Increment      1: Step Time =    1.000,"P-1-1",         14188,   48.1683E-03,   95.2654E-03,            0.,NA,NA,"",   809.707E+03,   867.066E+03,   867.066E+03
C:/temp/Job-1.odb,Step-1,Increment      1: Step Time =    1.000,"P-1-1",         14189,   121.373E-03,   41.4836E-03,            0.,NA,NA,"",   1.04846E+06,   1.05162E+06,   1.05162E+06
C:/temp/Job-1.odb,Step-1,Increment      1: Step Time =    1.000,"P-1-1",         14190,   47.9118E-03,   113.532E-03,            0.,NA,NA,"",   858.443E+03,   907.668E+03,   907.668E+03
C:/temp/Job-1.odb,Step-1,Increment      1: Step Time =    1.000,"P-1-1",         14191,   41.8548E-03,   40.2319E-03,            0.,NA,NA,"",   1.03166E+06,   1.05553E+06,   1.05553E+06
C:/temp/Job-1.odb,Step-1,Increment      1: Step Time =    1.000,"P-1-1",         14192,   158.405E-03,   84.0446E-03,            0.,NA,NA,"",   965.364E+03,   965.948E+03,   965.948E+03
C:/temp/Job-1.odb,Step-1,Increment      1: Step Time =    1.000,"P-1-1",         14193,   158.712E-03,   159.081E-03,            0.,NA,NA,"",   1.03633E+06,   1.02709E+06,   1.02709E+06
C:/temp/Job-1.odb,Step-1,Increment      1: Step Time =    1.000,"P-1-1",         14194,   40.5554E-03,   157.490E-03,            0.,NA,NA,"",   1.02441E+06,   1.05195E+06,   1.05195E+06
C:/temp/Job-1.odb,Step-1,Increment      1: Step Time =    1.000,"P-1-1",         14195,   120.088E-03,   149.308E-03,            0.,NA,NA,"",   1.07823E+06,   1.08155E+06,   1.08155E+06
C:/temp/Job-1.odb,Step-1,Increment      1: Step Time =    1.000,"P-1-1",         14196,   53.4217E-03,   68.6528E-03,            0.,NA,NA,"",   1.00748E+06,   1.02440E+06,   1.02440E+06
C:/temp/Job-1.odb,Step-1,Increment      1: Step Time =    1.000,"P-1-1",         14197,   92.8334E-03,   152.867E-03,            0.,NA,NA,"",   1.02953E+06,   1.05934E+06,   1.05934E+06
C:/temp/Job-1.odb,Step-1,Increment      1: Step Time =    1.000,"P-1-1",         14198,   47.3996E-03,   108.087E-03,            0.,NA,NA,"",   824.779E+03,   880.608E+03,   880.608E+03
C:/temp/Job-1.odb,Step-1,Increment      1: Step Time =    1.000,"P-1-1",         14199,   47.4970E-03,   101.707E-03,            0.,NA,NA,"",   803.991E+03,   863.229E+03,   863.229E+03
C:/temp/Job-1.odb,Step-1,Increment      1: Step Time =    1.000,"P-1-1",         14200,   118.099E-03,   150.199E-03,            0.,NA,NA,"",   1.06885E+06,   1.07685E+06,   1.07685E+06
C:/temp/Job-1.odb,Step-1,Increment      1: Step Time =    1.000,"P-1-1",         14201,   41.9160E-03,   66.3740E-03,            0.,NA,NA,"",   957.703E+03,   998.774E+03,   998.774E+03
C:/temp/Job-1.odb,Step-1,Increment      1: Step Time =    1.000,"P-1-1",         14202,   65.0860E-03,   159.763E-03,            0.,NA,NA,"",   1.06073E+06,   1.06490E+06,   1.06490E+06
C:/temp/Job-1.odb,Step-1,Increment      1: Step Time =    1.000,"P-1-1",         14203,   40.1344E-03,   68.6425E-03,            0.,NA,NA,"",   939.408E+03,   985.943E+03,   985.943E+03
C:/temp/Job-1.odb,Step-1,Increment      1: Step Time =    1.000,"P-1-1",         14204,   68.3641E-03,   159.793E-03,            0.,NA,NA,"",   1.05993E+06,   1.06435E+06,   1.06435E+06
C:/temp/Job-1.odb,Step-1,Increment      1: Step Time =    1.000,"P-1-1",         14205,   93.8558E-03,   39.7268E-03,            0.,NA,NA,"",   1.01761E+06,   1.03955E+06,   1.03955E+06
C:/temp/Job-1.odb,Step-1,Increment      1: Step Time =    1.000,"P-1-1",         14206,   79.8168E-03,   41.3123E-03,            0.,NA,NA,"",   1.04809E+06,   1.05962E+06,   1.05962E+06
C:/temp/Job-1.odb,Step-1,Increment      1: Step Time =    1.000,"P-1-1",         14207,   159.526E-03,   79.9706E-03,            0.,NA,NA,"",   983.758E+03,   981.295E+03,   981.295E+03
C:/temp/Job-1.odb,Step-1,Increment      1: Step Time =    1.000,"P-1-1",         14208,   47.9099E-03,   72.9270E-03,            0.,NA,NA,"",   952.680E+03,   986.162E+03,   986.162E+03
C:/temp/Job-1.odb,Step-1,Increment      1: Step Time =    1.000,"P-1-1",         14209,   41.1167E-03,   121.177E-03,            0.,NA,NA,"",   891.354E+03,   944.592E+03,   944.592E+03
C:/temp/Job-1.odb,Step-1,Increment      1: Step Time =    1.000,"P-1-1",         14210,   130.884E-03,   159.070E-03,            0.,NA,NA,"",   1.05819E+06,   1.05121E+06,   1.05121E+06
C:/temp/Job-1.odb,Step-1,Increment      1: Step Time =    1.000,"P-1-1",         14211,   41.4844E-03,   131.802E-03,            0.,NA,NA,"",   947.513E+03,   990.813E+03,   990.813E+03
C:/temp/Job-1.odb,Step-1,Increment      1: Step Time =    1.000,"P-1-1",         14212,   48.1973E-03,   76.7950E-03,            0.,NA,NA,"",   929.280E+03,   966.113E+03,   966.113E+03
C:/temp/Job-1.odb,Step-1,Increment      1: Step Time =    1.000,"P-1-1",         14213,   108.010E-03,   62.3705E-03,            0.,NA,NA,"",   1.07623E+06,   1.12255E+06,   1.12255E+06
C:/temp/Job-1.odb,Step-1,Increment      1: Step Time =    1.000,"P-1-1",         14214,   146.111E-03,   75.4993E-03,            0.,NA,NA,"",   1.03670E+06,   1.01240E+06,   1.01240E+06
C:/temp/Job-1.odb,Step-1,Increment      1: Step Time =    1.000,"P-1-1",         14215,   48.2679E-03,   93.8822E-03,            0.,NA,NA,"",   814.743E+03,   871.073E+03,   871.073E+03
C:/temp/Job-1.odb,Step-1,Increment      1: Step Time =    1.000,"P-1-1",         14216,   107.399E-03,   66.1645E-03,            0.,NA,NA,"",   1.09514E+06,   1.15046E+06,   1.15046E+06
C:/temp/Job-1.odb,Step-1,Increment      1: Step Time =    1.000,"P-1-1",         14217,   47.6870E-03,   86.8297E-03,            0.,NA,NA,"",   856.781E+03,   906.794E+03,   906.794E+03
C:/temp/Job-1.odb,Step-1,Increment      1: Step Time =    1.000,"P-1-1",         14218,   98.5524E-03,   56.5470E-03,            0.,NA,NA,"",   1.03232E+06,   1.08262E+06,   1.08262E+06
C:/temp/Job-1.odb,Step-1,Increment      1: Step Time =    1.000,"P-1-1",         14219,   93.9058E-03,   57.0455E-03,            0.,NA,NA,"",   1.04488E+06,   1.09105E+06,   1.09105E+06
C:/temp/Job-1.odb,Step-1,Increment      1: Step Time =    1.000,"P-1-1",         14220,   48.5216E-03,   84.2685E-03,            0.,NA,NA,"",   875.442E+03,   920.791E+03,   920.791E+03
C:/temp/Job-1.odb,Step-1,Increment      1: Step Time =    1.000,"P-1-1",         14221,   48.2866E-03,   80.6385E-03,            0.,NA,NA,"",   902.293E+03,   943.456E+03,   943.456E+03
C:/temp/Job-1.odb,Step-1,Increment      1: Step Time =    1.000,"P-1-1",         14222,   158.682E-03,   54.9629E-03,            0.,NA,NA,"",   1.04441E+06,   1.03162E+06,   1.03162E+06
C:/temp/Job-1.odb,Step-1,Increment      1: Step Time =    1.000,"P-1-1",         14223,   55.3304E-03,   41.2712E-03,            0.,NA,NA,"",   1.05531E+06,   1.06365E+06,   1.06365E+06
C:/temp/Job-1.odb,Step-1,Increment      1: Step Time =    1.000,"P-1-1",         14224,   133.327E-03,   68.0596E-03,            0.,NA,NA,"",   1.13934E+06,   1.09737E+06,   1.09737E+06
C:/temp/Job-1.odb,Step-1,Increment      1: Step Time =    1.000,"P-1-1",         14225,   86.1246E-03,   56.7496E-03,            0.,NA,NA,"",   1.07974E+06,   1.10579E+06,   1.10579E+06
C:/temp/Job-1.odb,Step-1,Increment      1: Step Time =    1.000,"P-1-1",         14226,   113.976E-03,   152.345E-03,            0.,NA,NA,"",   1.04900E+06,   1.06534E+06,   1.06534E+06
C:/temp/Job-1.odb,Step-1,Increment      1: Step Time =    1.000,"P-1-1",         14227,   109.644E-03,   152.771E-03,            0.,NA,NA,"",   1.03554E+06,   1.05910E+06,   1.05910E+06
C:/temp/Job-1.odb,Step-1,Increment      1: Step Time =    1.000,"P-1-1",         14228,   53.9209E-03,   130.384E-03,            0.,NA,NA,"",   1.00518E+06,   1.02159E+06,   1.02159E+06
C:/temp/Job-1.odb,Step-1,Increment      1: Step Time =    1.000,"P-1-1",         14229,   40.4823E-03,   126.232E-03,            0.,NA,NA,"",   916.514E+03,   966.433E+03,   966.433E+03
C:/temp/Job-1.odb,Step-1,Increment      1: Step Time =    1.000,"P-1-1",         14230,   125.229E-03,   160.542E-03,            0.,NA,NA,"",   1.04839E+06,   1.04724E+06,   1.04724E+06
C:/temp/Job-1.odb,Step-1,Increment      1: Step Time =    1.000,"P-1-1",         14231,   109.114E-03,   148.868E-03,            0.,NA,NA,"",   1.04275E+06,   1.07132E+06,   1.07132E+06
C:/temp/Job-1.odb,Step-1,Increment      1: Step Time =    1.000,"P-1-1",         14232,   95.7540E-03,   155.364E-03,            0.,NA,NA,"",   1.02147E+06,   1.05001E+06,   1.05001E+06
C:/temp/Job-1.odb,Step-1,Increment      1: Step Time =    1.000,"P-1-1",         14233,   155.496E-03,   106.547E-03,            0.,NA,NA,"",   917.461E+03,   925.867E+03,   925.867E+03
C:/temp/Job-1.odb,Step-1,Increment      1: Step Time =    1.000,"P-1-1",         14234,   160.332E-03,   148.833E-03,            0.,NA,NA,"",   1.04054E+06,   1.02952E+06,   1.02952E+06
C:/temp/Job-1.odb,Step-1,Increment      1: Step Time =    1.000,"P-1-1",         14235,   148.801E-03,   39.8979E-03,            0.,NA,NA,"",   1.04806E+06,   1.03650E+06,   1.03650E+06
C:/temp/Job-1.odb,Step-1,Increment      1: Step Time =    1.000,"P-1-1",         14236,   154.213E-03,   113.592E-03,            0.,NA,NA,"",    949.57E+03,   949.702E+03,   949.702E+03
C:/temp/Job-1.odb,Step-1,Increment      1: Step Time =    1.000,"P-1-1",         14237,   146.246E-03,   129.433E-03,            0.,NA,NA,"",   1.06070E+06,   1.03422E+06,   1.03422E+06
C:/temp/Job-1.odb,Step-1,Increment      1: Step Time =    1.000,"P-1-1",         14238,   38.6971E-03,   130.268E-03,            0.,NA,NA,"",   928.232E+03,   978.470E+03,   978.470E+03
C:/temp/Job-1.odb,Step-1,Increment      1: Step Time =    1.000,"P-1-1",         14239,   129.647E-03,   161.500E-03,            0.,NA,NA,"",   1.05007E+06,   1.04525E+06,   1.04525E+06
C:/temp/Job-1.odb,Step-1,Increment      1: Step Time =    1.000,"P-1-1",         14240,   155.185E-03,   100.419E-03,            0.,NA,NA,"",   904.627E+03,   915.677E+03,   915.677E+03
C:/temp/Job-1.odb,Step-1,Increment      1: Step Time =    1.000,"P-1-1",         14241,   90.7080E-03,   154.502E-03,            0.,NA,NA,"",   1.03174E+06,   1.05775E+06,   1.05775E+06
C:/temp/Job-1.odb,Step-1,Increment      1: Step Time =    1.000,"P-1-1",         14242,   41.9201E-03,   145.572E-03,            0.,NA,NA,"",   1.00085E+06,   1.03358E+06,   1.03358E+06
C:/temp/Job-1.odb,Step-1,Increment      1: Step Time =    1.000,"P-1-1",         14243,   149.106E-03,   91.4466E-03,            0.,NA,NA,"",   905.149E+03,   909.304E+03,   909.304E+03
C:/temp/Job-1.odb,Step-1,Increment      1: Step Time =    1.000,"P-1-1",         14244,   145.993E-03,   158.429E-03,            0.,NA,NA,"",   1.05402E+06,   1.04136E+06,   1.04136E+06
C:/temp/Job-1.odb,Step-1,Increment      1: Step Time =    1.000,"P-1-1",         14245,   54.1621E-03,   43.0913E-03,            0.,NA,NA,"",   1.05399E+06,   1.06378E+06,   1.06378E+06
C:/temp/Job-1.odb,Step-1,Increment      1: Step Time =    1.000,"P-1-1",         14246,   157.924E-03,   53.1747E-03,            0.,NA,NA,"",   1.04624E+06,   1.03319E+06,   1.03319E+06
C:/temp/Job-1.odb,Step-1,Increment      1: Step Time =    1.000,"P-1-1",         14247,   154.614E-03,   102.969E-03,            0.,NA,NA,"",   904.812E+03,   915.226E+03,   915.226E+03
C:/temp/Job-1.odb,Step-1,Increment      1: Step Time =    1.000,"P-1-1",         14248,   155.334E-03,   119.555E-03,            0.,NA,NA,"",   984.106E+03,   978.062E+03,   978.062E+03
C:/temp/Job-1.odb,Step-1,Increment      1: Step Time =    1.000,"P-1-1",         14249,   132.091E-03,   143.258E-03,            0.,NA,NA,"",   1.11423E+06,   1.09116E+06,   1.09116E+06
C:/temp/Job-1.odb,Step-1,Increment      1: Step Time =    1.000,"P-1-1",         14250,   151.625E-03,   90.0048E-03,            0.,NA,NA,"",   922.339E+03,   925.634E+03,   925.634E+03
C:/temp/Job-1.odb,Step-1,Increment      1: Step Time =    1.000,"P-1-1",         14251,   49.7324E-03,   88.7895E-03,            0.,NA,NA,"",   842.686E+03,   891.938E+03,   891.938E+03
C:/temp/Job-1.odb,Step-1,Increment      1: Step Time =    1.000,"P-1-1",         14252,   91.7419E-03,   40.5382E-03,            0.,NA,NA,"",   1.02217E+06,   1.04378E+06,   1.04378E+06
C:/temp/Job-1.odb,Step-1,Increment      1: Step Time =    1.000,"P-1-1",         14253,   41.2516E-03,   90.5341E-03,            0.,NA,NA,"",   834.031E+03,   896.589E+03,   896.589E+03
C:/temp/Job-1.odb,Step-1,Increment      1: Step Time =    1.000,"P-1-1",         14254,   90.1244E-03,   158.267E-03,            0.,NA,NA,"",   1.02695E+06,   1.04860E+06,   1.04860E+06
C:/temp/Job-1.odb,Step-1,Increment      1: Step Time =    1.000,"P-1-1",         14255,   157.574E-03,   108.859E-03,            0.,NA,NA,"",   931.992E+03,   939.159E+03,   939.159E+03
C:/temp/Job-1.odb,Step-1,Increment      1: Step Time =    1.000,"P-1-1",         14256,   61.0851E-03,   140.701E-03,            0.,NA,NA,"",   1.07488E+06,   1.07640E+06,   1.07640E+06
C:/temp/Job-1.odb,Step-1,Increment      1: Step Time =    1.000,"P-1-1",         14257,   55.5057E-03,   132.802E-03,            0.,NA,NA,"",   1.02681E+06,   1.03818E+06,   1.03818E+06
C:/temp/Job-1.odb,Step-1,Increment      1: Step Time =    1.000,"P-1-1",         14258,   139.957E-03,   140.704E-03,            0.,NA,NA,"",   1.10089E+06,   1.07331E+06,   1.07331E+06
C:/temp/Job-1.odb,Step-1,Increment      1: Step Time =    1.000,"P-1-1",         14259,   148.147E-03,   84.2216E-03,            0.,NA,NA,"",   962.588E+03,   953.481E+03,   953.481E+03
C:/temp/Job-1.odb,Step-1,Increment      1: Step Time =    1.000,"P-1-1",         14260,   68.2417E-03,   59.4479E-03,            0.,NA,NA,"",   1.10445E+06,   1.09986E+06,   1.09986E+06
C:/temp/Job-1.odb,Step-1,Increment      1: Step Time =    1.000,"P-1-1",         14261,   60.6784E-03,   160.281E-03,            0.,NA,NA,"",   1.05885E+06,   1.06390E+06,   1.06390E+06
C:/temp/Job-1.odb,Step-1,Increment      1: Step Time =    1.000,"P-1-1",         14262,   40.4862E-03,   60.6294E-03,            0.,NA,NA,"",   973.838E+03,   1.01378E+06,   1.01378E+06
C:/temp/Job-1.odb,Step-1,Increment      1: Step Time =    1.000,"P-1-1",         14263,   59.8122E-03,   61.0358E-03,            0.,NA,NA,"",   1.06763E+06,   1.07036E+06,   1.07036E+06
C:/temp/Job-1.odb,Step-1,Increment      1: Step Time =    1.000,"P-1-1",         14264,   116.701E-03,   149.736E-03,            0.,NA,NA,"",   1.06632E+06,   1.07744E+06,   1.07744E+06
C:/temp/Job-1.odb,Step-1,Increment      1: Step Time =    1.000,"P-1-1",         14265,   39.9992E-03,   129.447E-03,            0.,NA,NA,"",   930.071E+03,   978.269E+03,   978.269E+03
C:/temp/Job-1.odb,Step-1,Increment      1: Step Time =    1.000,"P-1-1",         14266,   129.747E-03,   160.110E-03,            0.,NA,NA,"",   1.05431E+06,   1.04880E+06,   1.04880E+06
C:/temp/Job-1.odb,Step-1,Increment      1: Step Time =    1.000,"P-1-1",         14267,   50.3857E-03,   120.437E-03,            0.,NA,NA,"",   918.652E+03,   953.697E+03,   953.697E+03
C:/temp/Job-1.odb,Step-1,Increment      1: Step Time =    1.000,"P-1-1",         14268,   94.0214E-03,   154.668E-03,            0.,NA,NA,"",   1.02505E+06,   1.05345E+06,   1.05345E+06
C:/temp/Job-1.odb,Step-1,Increment      1: Step Time =    1.000,"P-1-1",         14269,   53.4729E-03,   66.7433E-03,            0.,NA,NA,"",    1.0161E+06,   1.03204E+06,   1.03204E+06
C:/temp/Job-1.odb,Step-1,Increment      1: Step Time =    1.000,"P-1-1",         14270,   48.2248E-03,   118.799E-03,            0.,NA,NA,"",   899.069E+03,   940.753E+03,   940.753E+03
C:/temp/Job-1.odb,Step-1,Increment      1: Step Time =    1.000,"P-1-1",         14271,   100.802E-03,   152.495E-03,            0.,NA,NA,"",   1.02178E+06,   1.05482E+06,   1.05482E+06
C:/temp/Job-1.odb,Step-1,Increment      1: Step Time =    1.000,"P-1-1",         14272,   87.0184E-03,   152.406E-03,            0.,NA,NA,"",   1.04600E+06,   1.06914E+06,   1.06914E+06
C:/temp/Job-1.odb,Step-1,Increment      1: Step Time =    1.000,"P-1-1",         14273,   98.8294E-03,   156.016E-03,            0.,NA,NA,"",   1.01836E+06,   1.04688E+06,   1.04688E+06
C:/temp/Job-1.odb,Step-1,Increment      1: Step Time =    1.000,"P-1-1",         14274,   86.6288E-03,   154.440E-03,            0.,NA,NA,"",   1.04230E+06,   1.06355E+06,   1.06355E+06
C:/temp/Job-1.odb,Step-1,Increment      1: Step Time =    1.000,"P-1-1",         14275,   153.057E-03,   96.0033E-03,            0.,NA,NA,"",   899.854E+03,   909.711E+03,   909.711E+03
C:/temp/Job-1.odb,Step-1,Increment      1: Step Time =    1.000,"P-1-1",         14276,   155.131E-03,   96.9549E-03,            0.,NA,NA,"",   906.945E+03,   917.417E+03,   917.417E+03
C:/temp/Job-1.odb,Step-1,Increment      1: Step Time =    1.000,"P-1-1",         14277,   58.2627E-03,   134.523E-03,            0.,NA,NA,"",   1.04974E+06,   1.05478E+06,   1.05478E+06
C:/temp/Job-1.odb,Step-1,Increment      1: Step Time =    1.000,"P-1-1",         14278,   146.358E-03,   132.648E-03,            0.,NA,NA,"",   1.07104E+06,   1.04431E+06,   1.04431E+06
C:/temp/Job-1.odb,Step-1,Increment      1: Step Time =    1.000,"P-1-1",         14279,   115.367E-03,   65.2402E-03,            0.,NA,NA,"",   1.15028E+06,   1.15761E+06,   1.15761E+06
C:/temp/Job-1.odb,Step-1,Increment      1: Step Time =    1.000,"P-1-1",         14280,   150.569E-03,   86.5402E-03,            0.,NA,NA,"",   944.441E+03,   941.922E+03,   941.922E+03
C:/temp/Job-1.odb,Step-1,Increment      1: Step Time =    1.000,"P-1-1",         14281,   86.6719E-03,   54.8732E-03,            0.,NA,NA,"",   1.06963E+06,   1.09633E+06,   1.09633E+06
C:/temp/Job-1.odb,Step-1,Increment      1: Step Time =    1.000,"P-1-1",         14282,   57.6419E-03,   37.9807E-03,            0.,NA,NA,"",   1.05514E+06,   1.06133E+06,   1.06133E+06
C:/temp/Job-1.odb,Step-1,Increment      1: Step Time =    1.000,"P-1-1",         14283,   161.898E-03,   58.4120E-03,            0.,NA,NA,"",   1.03524E+06,   1.02494E+06,   1.02494E+06
C:/temp/Job-1.odb,Step-1,Increment      1: Step Time =    1.000,"P-1-1",         14284,   102.107E-03,   38.8658E-03,            0.,NA,NA,"",   1.01265E+06,   1.03417E+06,   1.03417E+06
C:/temp/Job-1.odb,Step-1,Increment      1: Step Time =    1.000,"P-1-1",         14285,   160.767E-03,   102.300E-03,            0.,NA,NA,"",   927.179E+03,   938.428E+03,   938.428E+03
C:/temp/Job-1.odb,Step-1,Increment      1: Step Time =    1.000,"P-1-1",         14286,   97.5129E-03,   160.977E-03,            0.,NA,NA,"",   1.01359E+06,   1.03572E+06,   1.03572E+06
C:/temp/Job-1.odb,Step-1,Increment      1: Step Time =    1.000,"P-1-1",         14287,   38.0672E-03,   98.0396E-03,            0.,NA,NA,"",   818.263E+03,   887.224E+03,   887.224E+03
C:/temp/Job-1.odb,Step-1,Increment      1: Step Time =    1.000,"P-1-1",         14288,   149.630E-03,   84.5673E-03,            0.,NA,NA,"",   958.941E+03,   952.423E+03,   952.423E+03
C:/temp/Job-1.odb,Step-1,Increment      1: Step Time =    1.000,"P-1-1",         14289,   156.789E-03,   35.7468E-03,            0.,NA,NA,"",   1.03197E+06,   1.02395E+06,   1.02395E+06
C:/temp/Job-1.odb,Step-1,Increment      1: Step Time =    1.000,"P-1-1",         14290,   71.5061E-03,   149.352E-03,            0.,NA,NA,"",   1.08539E+06,   1.08854E+06,   1.08854E+06
C:/temp/Job-1.odb,Step-1,Increment      1: Step Time =    1.000,"P-1-1",         14291,   62.1571E-03,   62.5452E-03,            0.,NA,NA,"",   1.07903E+06,   1.07766E+06,   1.07766E+06
C:/temp/Job-1.odb,Step-1,Increment      1: Step Time =    1.000,"P-1-1",         14292,   163.065E-03,   53.9653E-03,            0.,NA,NA,"",   1.03478E+06,   1.02540E+06,   1.02540E+06
C:/temp/Job-1.odb,Step-1,Increment      1: Step Time =    1.000,"P-1-1",         14293,   54.0686E-03,   36.7681E-03,            0.,NA,NA,"",   1.05179E+06,   1.05994E+06,   1.05994E+06
C:/temp/Job-1.odb,Step-1,Increment      1: Step Time =    1.000,"P-1-1",         14294,   115.896E-03,   159.872E-03,            0.,NA,NA,"",   1.03421E+06,   1.04457E+06,   1.04457E+06
C:/temp/Job-1.odb,Step-1,Increment      1: Step Time =    1.000,"P-1-1",         14295,   40.9083E-03,   114.101E-03,            0.,NA,NA,"",   854.182E+03,   913.839E+03,   913.839E+03
C:/temp/Job-1.odb,Step-1,Increment      1: Step Time =    1.000,"P-1-1",         14296,   148.476E-03,   81.1033E-03,            0.,NA,NA,"",   987.464E+03,   974.025E+03,   974.025E+03
C:/temp/Job-1.odb,Step-1,Increment      1: Step Time =    1.000,"P-1-1",         14297,   47.2831E-03,   92.2682E-03,            0.,NA,NA,"",   823.611E+03,   879.765E+03,   879.765E+03
C:/temp/Job-1.odb,Step-1,Increment      1: Step Time =    1.000,"P-1-1",         14298,   104.223E-03,   58.3988E-03,            0.,NA,NA,"",   1.04203E+06,   1.09229E+06,   1.09229E+06
C:/temp/Job-1.odb,Step-1,Increment      1: Step Time =    1.000,"P-1-1",         14299,   90.9663E-03,   41.7702E-03,            0.,NA,NA,"",   1.02533E+06,   1.04771E+06,   1.04771E+06
C:/temp/Job-1.odb,Step-1,Increment      1: Step Time =    1.000,"P-1-1",         14300,   92.2233E-03,   56.1863E-03,            0.,NA,NA,"",   1.04931E+06,   1.09070E+06,   1.09070E+06
C:/temp/Job-1.odb,Step-1,Increment      1: Step Time =    1.000,"P-1-1",         14301,   42.9902E-03,   145.842E-03,            0.,NA,NA,"",   1.00535E+06,   1.03615E+06,   1.03615E+06
C:/temp/Job-1.odb,Step-1,Increment      1: Step Time =    1.000,"P-1-1",         14302,   146.365E-03,   157.274E-03,            0.,NA,NA,"",   1.05624E+06,   1.04288E+06,   1.04288E+06
C:/temp/Job-1.odb,Step-1,Increment      1: Step Time =    1.000,"P-1-1",         14303,   153.406E-03,   128.028E-03,            0.,NA,NA,"",   1.02917E+06,   1.01340E+06,   1.01340E+06
C:/temp/Job-1.odb,Step-1,Increment      1: Step Time =    1.000,"P-1-1",         14304,   59.4515E-03,   139.225E-03,            0.,NA,NA,"",   1.06587E+06,   1.06929E+06,   1.06929E+06
C:/temp/Job-1.odb,Step-1,Increment      1: Step Time =    1.000,"P-1-1",         14305,   158.060E-03,   92.7956E-03,            0.,NA,NA,"",   928.366E+03,   936.858E+03,   936.858E+03
C:/temp/Job-1.odb,Step-1,Increment      1: Step Time =    1.000,"P-1-1",         14306,   112.575E-03,   153.226E-03,            0.,NA,NA,"",   1.04259E+06,   1.06102E+06,   1.06102E+06
C:/temp/Job-1.odb,Step-1,Increment      1: Step Time =    1.000,"P-1-1",         14307,   74.5277E-03,   41.6707E-03,            0.,NA,NA,"",   1.05823E+06,   1.06540E+06,   1.06540E+06
C:/temp/Job-1.odb,Step-1,Increment      1: Step Time =    1.000,"P-1-1",         14308,   70.7231E-03,   147.466E-03,            0.,NA,NA,"",   1.09090E+06,   1.09249E+06,   1.09249E+06
C:/temp/Job-1.odb,Step-1,Increment      1: Step Time =    1.000,"P-1-1",         14309,   156.471E-03,   120.453E-03,            0.,NA,NA,"",   987.537E+03,   981.826E+03,   981.826E+03
C:/temp/Job-1.odb,Step-1,Increment      1: Step Time =    1.000,"P-1-1",         14310,   158.906E-03,   73.9621E-03,            0.,NA,NA,"",   1.00924E+06,   1.00117E+06,   1.00117E+06
C:/temp/Job-1.odb,Step-1,Increment      1: Step Time =    1.000,"P-1-1",         14311,   40.9137E-03,   70.8604E-03,            0.,NA,NA,"",   931.603E+03,   978.465E+03,   978.465E+03
C:/temp/Job-1.odb,Step-1,Increment      1: Step Time =    1.000,"P-1-1",         14312,   69.3092E-03,   159.654E-03,            0.,NA,NA,"",   1.05982E+06,   1.06448E+06,   1.06448E+06
C:/temp/Job-1.odb,Step-1,Increment      1: Step Time =    1.000,"P-1-1",         14313,   131.830E-03,   158.341E-03,            0.,NA,NA,"",   1.06088E+06,   1.05273E+06,   1.05273E+06
C:/temp/Job-1.odb,Step-1,Increment      1: Step Time =    1.000,"P-1-1",         14314,   136.165E-03,   160.768E-03,            0.,NA,NA,"",   1.05450E+06,   1.04514E+06,   1.04514E+06
C:/temp/Job-1.odb,Step-1,Increment      1: Step Time =    1.000,"P-1-1",         14315,   40.2095E-03,   134.872E-03,            0.,NA,NA,"",   954.860E+03,   998.569E+03,   998.569E+03
C:/temp/Job-1.odb,Step-1,Increment      1: Step Time =    1.000,"P-1-1",         14316,   42.3186E-03,   132.817E-03,            0.,NA,NA,"",   955.782E+03,   996.596E+03,   996.596E+03
C:/temp/Job-1.odb,Step-1,Increment      1: Step Time =    1.000,"P-1-1",         14317,   147.803E-03,   129.455E-03,            0.,NA,NA,"",   1.05477E+06,   1.03047E+06,   1.03047E+06
C:/temp/Job-1.odb,Step-1,Increment      1: Step Time =    1.000,"P-1-1",         14318,   120.112E-03,   41.1319E-03,            0.,NA,NA,"",   1.04526E+06,   1.05020E+06,   1.05020E+06
C:/temp/Job-1.odb,Step-1,Increment      1: Step Time =    1.000,"P-1-1",         14319,   115.290E-03,   39.2748E-03,            0.,NA,NA,"",   1.03108E+06,   1.04179E+06,   1.04179E+06
C:/temp/Job-1.odb,Step-1,Increment      1: Step Time =    1.000,"P-1-1",         14320,   111.551E-03,   42.4994E-03,            0.,NA,NA,"",   1.03042E+06,   1.04747E+06,   1.04747E+06
C:/temp/Job-1.odb,Step-1,Increment      1: Step Time =    1.000,"P-1-1",         14321,   149.624E-03,   128.131E-03,            0.,NA,NA,"",   1.04188E+06,   1.02091E+06,   1.02091E+06
C:/temp/Job-1.odb,Step-1,Increment      1: Step Time =    1.000,"P-1-1",         14322,   159.496E-03,   143.252E-03,            0.,NA,NA,"",   1.04188E+06,   1.02957E+06,   1.02957E+06
C:/temp/Job-1.odb,Step-1,Increment      1: Step Time =    1.000,"P-1-1",         14323,   75.2695E-03,   40.6309E-03,            0.,NA,NA,"",   1.05434E+06,   1.06199E+06,   1.06199E+06
C:/temp/Job-1.odb,Step-1,Increment      1: Step Time =    1.000,"P-1-1",         14324,   78.5660E-03,   40.7767E-03,            0.,NA,NA,"",   1.04920E+06,   1.05948E+06,   1.05948E+06
C:/temp/Job-1.odb,Step-1,Increment      1: Step Time =    1.000,"P-1-1",         14325,   159.129E-03,   75.0910E-03,            0.,NA,NA,"",   1.00481E+06,   997.746E+03,   997.746E+03
C:/temp/Job-1.odb,Step-1,Increment      1: Step Time =    1.000,"P-1-1",         14326,   160.266E-03,   77.9606E-03,            0.,NA,NA,"",   991.929E+03,   988.316E+03,   988.316E+03
C:/temp/Job-1.odb,Step-1,Increment      1: Step Time =    1.000,"P-1-1",         14327,   157.522E-03,   113.194E-03,            0.,NA,NA,"",   951.694E+03,   954.590E+03,   954.590E+03
C:/temp/Job-1.odb,Step-1,Increment      1: Step Time =    1.000,"P-1-1",         14328,   56.5106E-03,   39.5975E-03,            0.,NA,NA,"",   1.05565E+06,   1.06282E+06,   1.06282E+06
C:/temp/Job-1.odb,Step-1,Increment      1: Step Time =    1.000,"P-1-1",         14329,   160.578E-03,   57.6431E-03,            0.,NA,NA,"",   1.03883E+06,   1.02740E+06,   1.02740E+06
C:/temp/Job-1.odb,Step-1,Increment      1: Step Time =    1.000,"P-1-1",         14330,   84.9686E-03,   157.399E-03,            0.,NA,NA,"",   1.03986E+06,   1.05715E+06,   1.05715E+06
C:/temp/Job-1.odb,Step-1,Increment      1: Step Time =    1.000,"P-1-1",         14331,   42.0853E-03,   85.8503E-03,            0.,NA,NA,"",   855.732E+03,   913.641E+03,   913.641E+03
C:/temp/Job-1.odb,Step-1,Increment      1: Step Time =    1.000,"P-1-1",         14332,   74.2317E-03,   150.187E-03,            0.,NA,NA,"",   1.08154E+06,   1.08712E+06,   1.08712E+06
C:/temp/Job-1.odb,Step-1,Increment      1: Step Time =    1.000,"P-1-1",         14333,   74.7309E-03,   153.443E-03,            0.,NA,NA,"",   1.07104E+06,   1.07803E+06,   1.07803E+06
C:/temp/Job-1.odb,Step-1,Increment      1: Step Time =    1.000,"P-1-1",         14334,   115.814E-03,   38.2292E-03,            0.,NA,NA,"",   1.02956E+06,   1.03915E+06,   1.03915E+06
C:/temp/Job-1.odb,Step-1,Increment      1: Step Time =    1.000,"P-1-1",         14335,   62.5361E-03,   141.156E-03,            0.,NA,NA,"",   1.08126E+06,   1.08125E+06,   1.08125E+06
C:/temp/Job-1.odb,Step-1,Increment      1: Step Time =    1.000,"P-1-1",         14336,   153.011E-03,   41.5445E-03,            0.,NA,NA,"",   1.04521E+06,   1.03381E+06,   1.03381E+06
C:/temp/Job-1.odb,Step-1,Increment      1: Step Time =    1.000,"P-1-1",         14337,   158.647E-03,   152.409E-03,            0.,NA,NA,"",   1.04231E+06,   1.03108E+06,   1.03108E+06
C:/temp/Job-1.odb,Step-1,Increment      1: Step Time =    1.000,"P-1-1",         14338,   41.8005E-03,   48.4197E-03,            0.,NA,NA,"",   1.01525E+06,   1.04472E+06,   1.04472E+06
C:/temp/Job-1.odb,Step-1,Increment      1: Step Time =    1.000,"P-1-1",         14339,   71.9156E-03,   41.8681E-03,            0.,NA,NA,"",   1.06142E+06,   1.06705E+06,   1.06705E+06
C:/temp/Job-1.odb,Step-1,Increment      1: Step Time =    1.000,"P-1-1",         14340,   47.3901E-03,   157.764E-03,            0.,NA,NA,"",   1.04118E+06,   1.05834E+06,   1.05834E+06
C:/temp/Job-1.odb,Step-1,Increment      1: Step Time =    1.000,"P-1-1",         14341,   158.962E-03,   72.3591E-03,            0.,NA,NA,"",   1.01479E+06,   1.00573E+06,   1.00573E+06
C:/temp/Job-1.odb,Step-1,Increment      1: Step Time =    1.000,"P-1-1",         14342,   95.9602E-03,   55.6091E-03,            0.,NA,NA,"",   1.03550E+06,   1.08202E+06,   1.08202E+06
C:/temp/Job-1.odb,Step-1,Increment      1: Step Time =    1.000,"P-1-1",         14343,   51.3409E-03,   160.417E-03,            0.,NA,NA,"",   1.04953E+06,   1.06099E+06,   1.06099E+06
C:/temp/Job-1.odb,Step-1,Increment      1: Step Time =    1.000,"P-1-1",         14344,   41.7742E-03,   54.5442E-03,            0.,NA,NA,"",   999.419E+03,   1.03279E+06,   1.03279E+06
C:/temp/Job-1.odb,Step-1,Increment      1: Step Time =    1.000,"P-1-1",         14345,   152.943E-03,   91.5455E-03,            0.,NA,NA,"",   917.551E+03,   923.449E+03,   923.449E+03
C:/temp/Job-1.odb,Step-1,Increment      1: Step Time =    1.000,"P-1-1",         14346,   55.0184E-03,   159.132E-03,            0.,NA,NA,"",   1.05477E+06,   1.06331E+06,   1.06331E+06
C:/temp/Job-1.odb,Step-1,Increment      1: Step Time =    1.000,"P-1-1",         14347,   57.9363E-03,   40.9678E-03,            0.,NA,NA,"",   1.05820E+06,   1.06464E+06,   1.06464E+06
C:/temp/Job-1.odb,Step-1,Increment      1: Step Time =    1.000,"P-1-1",         14348,   60.5803E-03,   41.3591E-03,            0.,NA,NA,"",   1.06087E+06,   1.06607E+06,   1.06607E+06
C:/temp/Job-1.odb,Step-1,Increment      1: Step Time =    1.000,"P-1-1",         14349,   158.449E-03,   58.0581E-03,            0.,NA,NA,"",   1.04378E+06,   1.03053E+06,   1.03053E+06
C:/temp/Job-1.odb,Step-1,Increment      1: Step Time =    1.000,"P-1-1",         14350,   157.994E-03,   61.0538E-03,            0.,NA,NA,"",   1.04243E+06,   1.02874E+06,   1.02874E+06
C:/temp/Job-1.odb,Step-1,Increment      1: Step Time =    1.000,"P-1-1",         14351,   153.577E-03,   110.667E-03,            0.,NA,NA,"",   930.578E+03,   934.180E+03,   934.180E+03
C:/temp/Job-1.odb,Step-1,Increment      1: Step Time =    1.000,"P-1-1",         14352,   119.808E-03,   158.807E-03,            0.,NA,NA,"",   1.04476E+06,   1.05013E+06,   1.05013E+06
C:/temp/Job-1.odb,Step-1,Increment      1: Step Time =    1.000,"P-1-1",         14353,   142.548E-03,   158.955E-03,            0.,NA,NA,"",   1.05611E+06,   1.04388E+06,   1.04388E+06
C:/temp/Job-1.odb,Step-1,Increment      1: Step Time =    1.000,"P-1-1",         14354,   88.3848E-03,   41.9131E-03,            0.,NA,NA,"",   1.03098E+06,   1.05120E+06,   1.05120E+06
C:/temp/Job-1.odb,Step-1,Increment      1: Step Time =    1.000,"P-1-1",         14355,   41.3006E-03,   141.433E-03,            0.,NA,NA,"",   984.400E+03,   1.02137E+06,   1.02137E+06
C:/temp/Job-1.odb,Step-1,Increment      1: Step Time =    1.000,"P-1-1",         14356,   63.2561E-03,   39.4961E-03,            0.,NA,NA,"",   1.05941E+06,   1.06374E+06,   1.06374E+06
C:/temp/Job-1.odb,Step-1,Increment      1: Step Time =    1.000,"P-1-1",         14357,   159.119E-03,   63.7831E-03,            0.,NA,NA,"",   1.03569E+06,   1.02342E+06,   1.02342E+06
C:/temp/Job-1.odb,Step-1,Increment      1: Step Time =    1.000,"P-1-1",         14358,   160.288E-03,   86.7522E-03,            0.,NA,NA,"",   955.439E+03,   959.856E+03,   959.856E+03
C:/temp/Job-1.odb,Step-1,Increment      1: Step Time =    1.000,"P-1-1",         14359,   158.314E-03,   89.2510E-03,            0.,NA,NA,"",   942.114E+03,   947.769E+03,   947.769E+03
C:/temp/Job-1.odb,Step-1,Increment      1: Step Time =    1.000,"P-1-1",         14360,   39.7002E-03,   117.097E-03,            0.,NA,NA,"",   866.907E+03,   926.016E+03,   926.016E+03
C:/temp/Job-1.odb,Step-1,Increment      1: Step Time =    1.000,"P-1-1",         14361,   132.089E-03,   145.310E-03,            0.,NA,NA,"",   1.10646E+06,   1.08624E+06,   1.08624E+06
C:/temp/Job-1.odb,Step-1,Increment      1: Step Time =    1.000,"P-1-1",         14362,   141.455E-03,   73.3301E-03,            0.,NA,NA,"",   1.07400E+06,   1.03977E+06,   1.03977E+06
C:/temp/Job-1.odb,Step-1,Increment      1: Step Time =    1.000,"P-1-1",         14363,   41.1890E-03,   76.9679E-03,            0.,NA,NA,"",   901.709E+03,   953.094E+03,   953.094E+03
C:/temp/Job-1.odb,Step-1,Increment      1: Step Time =    1.000,"P-1-1",         14364,   77.4238E-03,   158.083E-03,            0.,NA,NA,"",   1.05426E+06,   1.06373E+06,   1.06373E+06
C:/temp/Job-1.odb,Step-1,Increment      1: Step Time =    1.000,"P-1-1",         14365,   129.093E-03,   41.9568E-03,            0.,NA,NA,"",   1.06018E+06,   1.05427E+06,   1.05427E+06
C:/temp/Job-1.odb,Step-1,Increment      1: Step Time =    1.000,"P-1-1",         14366,   158.415E-03,   129.660E-03,            0.,NA,NA,"",   1.02209E+06,   1.01132E+06,   1.01132E+06
C:/temp/Job-1.odb,Step-1,Increment      1: Step Time =    1.000,"P-1-1",         14367,   132.026E-03,   41.6526E-03,            0.,NA,NA,"",   1.06136E+06,   1.05306E+06,   1.05306E+06
C:/temp/Job-1.odb,Step-1,Increment      1: Step Time =    1.000,"P-1-1",         14368,   160.334E-03,   131.744E-03,            0.,NA,NA,"",   1.02361E+06,   1.01396E+06,   1.01396E+06
C:/temp/Job-1.odb,Step-1,Increment      1: Step Time =    1.000,"P-1-1",         14369,   147.099E-03,   80.3008E-03,            0.,NA,NA,"",   997.534E+03,   980.687E+03,   980.687E+03
C:/temp/Job-1.odb,Step-1,Increment      1: Step Time =    1.000,"P-1-1",         14370,   68.6676E-03,   41.3630E-03,            0.,NA,NA,"",   1.06231E+06,   1.06680E+06,   1.06680E+06
C:/temp/Job-1.odb,Step-1,Increment      1: Step Time =    1.000,"P-1-1",         14371,   140.002E-03,   158.720E-03,            0.,NA,NA,"",   1.05883E+06,   1.04682E+06,   1.04682E+06
C:/temp/Job-1.odb,Step-1,Increment      1: Step Time =    1.000,"P-1-1",         14372,   113.159E-03,   159.357E-03,            0.,NA,NA,"",   1.02993E+06,   1.04391E+06,   1.04391E+06
C:/temp/Job-1.odb,Step-1,Increment      1: Step Time =    1.000,"P-1-1",         14373,   159.852E-03,   68.5381E-03,            0.,NA,NA,"",   1.02381E+06,   1.01385E+06,   1.01385E+06
C:/temp/Job-1.odb,Step-1,Increment      1: Step Time =    1.000,"P-1-1",         14374,   41.1751E-03,   159.682E-03,            0.,NA,NA,"",   1.03029E+06,   1.05516E+06,   1.05516E+06
C:/temp/Job-1.odb,Step-1,Increment      1: Step Time =    1.000,"P-1-1",         14375,   83.9178E-03,   152.620E-03,            0.,NA,NA,"",   1.05456E+06,   1.07294E+06,   1.07294E+06
C:/temp/Job-1.odb,Step-1,Increment      1: Step Time =    1.000,"P-1-1",         14376,   42.3844E-03,   139.692E-03,            0.,NA,NA,"",   983.330E+03,   1.01920E+06,   1.01920E+06
C:/temp/Job-1.odb,Step-1,Increment      1: Step Time =    1.000,"P-1-1",         14377,   40.3022E-03,   112.019E-03,            0.,NA,NA,"",   843.748E+03,   905.868E+03,   905.868E+03
C:/temp/Job-1.odb,Step-1,Increment      1: Step Time =    1.000,"P-1-1",         14378,   158.823E-03,   40.9850E-03,            0.,NA,NA,"",   1.03611E+06,   1.02692E+06,   1.02692E+06
C:/temp/Job-1.odb,Step-1,Increment      1: Step Time =    1.000,"P-1-1",         14379,   146.506E-03,   76.9004E-03,            0.,NA,NA,"",   1.02535E+06,   1.00317E+06,   1.00317E+06
C:/temp/Job-1.odb,Step-1,Increment      1: Step Time =    1.000,"P-1-1",         14380,   105.567E-03,   41.2583E-03,            0.,NA,NA,"",   1.01844E+06,   1.04069E+06,   1.04069E+06
C:/temp/Job-1.odb,Step-1,Increment      1: Step Time =    1.000,"P-1-1",         14381,   117.060E-03,   159.804E-03,            0.,NA,NA,"",   1.03669E+06,   1.04559E+06,   1.04559E+06
C:/temp/Job-1.odb,Step-1,Increment      1: Step Time =    1.000,"P-1-1",         14382,   46.9349E-03,   106.058E-03,            0.,NA,NA,"",   816.224E+03,   874.183E+03,   874.183E+03
C:/temp/Job-1.odb,Step-1,Increment      1: Step Time =    1.000,"P-1-1",         14383,   57.8960E-03,   61.6968E-03,            0.,NA,NA,"",   1.05671E+06,   1.06247E+06,   1.06247E+06
C:/temp/Job-1.odb,Step-1,Increment      1: Step Time =    1.000,"P-1-1",         14384,   139.408E-03,   68.6020E-03,            0.,NA,NA,"",   1.10268E+06,   1.06651E+06,   1.06651E+06
C:/temp/Job-1.odb,Step-1,Increment      1: Step Time =    1.000,"P-1-1",         14385,   157.797E-03,   82.6223E-03,            0.,NA,NA,"",   972.048E+03,   970.660E+03,   970.660E+03
C:/temp/Job-1.odb,Step-1,Increment      1: Step Time =    1.000,"P-1-1",         14386,   76.6593E-03,   58.2099E-03,            0.,NA,NA,"",   1.11302E+06,   1.11553E+06,   1.11553E+06
C:/temp/Job-1.odb,Step-1,Increment      1: Step Time =    1.000,"P-1-1",         14387,   46.7760E-03,   96.7836E-03,            0.,NA,NA,"",   808.096E+03,   867.639E+03,   867.639E+03
C:/temp/Job-1.odb,Step-1,Increment      1: Step Time =    1.000,"P-1-1",         14388,   48.5365E-03,   115.514E-03,            0.,NA,NA,"",   873.944E+03,   919.523E+03,   919.523E+03
C:/temp/Job-1.odb,Step-1,Increment      1: Step Time =    1.000,"P-1-1",         14389,   119.552E-03,   150.754E-03,            0.,NA,NA,"",   1.07084E+06,   1.07588E+06,   1.07588E+06
C:/temp/Job-1.odb,Step-1,Increment      1: Step Time =    1.000,"P-1-1",         14390,   41.9029E-03,   67.6143E-03,            0.,NA,NA,"",   952.483E+03,   994.420E+03,   994.420E+03
C:/temp/Job-1.odb,Step-1,Increment      1: Step Time =    1.000,"P-1-1",         14391,   67.3383E-03,   159.501E-03,            0.,NA,NA,"",   1.06082E+06,   1.06507E+06,   1.06507E+06
C:/temp/Job-1.odb,Step-1,Increment      1: Step Time =    1.000,"P-1-1",         14392,   100.968E-03,   57.8608E-03,            0.,NA,NA,"",   1.03411E+06,   1.08739E+06,   1.08739E+06
C:/temp/Job-1.odb,Step-1,Increment      1: Step Time =    1.000,"P-1-1",         14393,   46.6030E-03,   109.461E-03,            0.,NA,NA,"",   832.590E+03,   888.192E+03,   888.192E+03
C:/temp/Job-1.odb,Step-1,Increment      1: Step Time =    1.000,"P-1-1",         14394,   46.4471E-03,   99.8330E-03,            0.,NA,NA,"",   805.486E+03,   865.951E+03,   865.951E+03
C:/temp/Job-1.odb,Step-1,Increment      1: Step Time =    1.000,"P-1-1",         14395,   128.641E-03,   146.826E-03,            0.,NA,NA,"",   1.10189E+06,   1.08735E+06,   1.08735E+06
C:/temp/Job-1.odb,Step-1,Increment      1: Step Time =    1.000,"P-1-1",         14396,   81.5876E-03,   40.9013E-03,            0.,NA,NA,"",   1.04378E+06,   1.05670E+06,   1.05670E+06
C:/temp/Job-1.odb,Step-1,Increment      1: Step Time =    1.000,"P-1-1",         14397,   158.269E-03,   80.6423E-03,            0.,NA,NA,"",   981.310E+03,   978.330E+03,   978.330E+03
C:/temp/Job-1.odb,Step-1,Increment      1: Step Time =    1.000,"P-1-1",         14398,   41.8274E-03,   119.681E-03,            0.,NA,NA,"",   885.326E+03,   938.612E+03,   938.612E+03
C:/temp/Job-1.odb,Step-1,Increment      1: Step Time =    1.000,"P-1-1",         14399,   130.674E-03,   66.1670E-03,            0.,NA,NA,"",   1.15038E+06,   1.11166E+06,   1.11166E+06
C:/temp/Job-1.odb,Step-1,Increment      1: Step Time =    1.000,"P-1-1",         14400,   129.974E-03,   158.763E-03,            0.,NA,NA,"",   1.05850E+06,   1.05211E+06,   1.05211E+06
C:/temp/Job-1.odb,Step-1,Increment      1: Step Time =    1.000,"P-1-1",         14401,   40.7250E-03,   130.661E-03,            0.,NA,NA,"",   938.798E+03,   984.600E+03,   984.600E+03
C:/temp/Job-1.odb,Step-1,Increment      1: Step Time =    1.000,"P-1-1",         14402,   67.1146E-03,   58.2084E-03,            0.,NA,NA,"",   1.09806E+06,   1.09501E+06,   1.09501E+06
C:/temp/Job-1.odb,Step-1,Increment      1: Step Time =    1.000,"P-1-1",         14403,   126.635E-03,   149.215E-03,            0.,NA,NA,"",   1.09098E+06,   1.08164E+06,   1.08164E+06
C:/temp/Job-1.odb,Step-1,Increment      1: Step Time =    1.000,"P-1-1",         14404,   154.480E-03,   114.939E-03,            0.,NA,NA,"",   957.711E+03,   956.364E+03,   956.364E+03
C:/temp/Job-1.odb,Step-1,Increment      1: Step Time =    1.000,"P-1-1",         14405,   159.948E-03,   66.6430E-03,            0.,NA,NA,"",   1.02810E+06,   1.01745E+06,   1.01745E+06
C:/temp/Job-1.odb,Step-1,Increment      1: Step Time =    1.000,"P-1-1",         14406,   66.0979E-03,   40.7614E-03,            0.,NA,NA,"",   1.06174E+06,    1.0659E+06,    1.0659E+06
C:/temp/Job-1.odb,Step-1,Increment      1: Step Time =    1.000,"P-1-1",         14407,   80.3346E-03,   57.5870E-03,            0.,NA,NA,"",   1.10459E+06,   1.11513E+06,   1.11513E+06
C:/temp/Job-1.odb,Step-1,Increment      1: Step Time =    1.000,"P-1-1",         14408,   159.247E-03,   56.8938E-03,            0.,NA,NA,"",   1.04242E+06,   1.02990E+06,   1.02990E+06
C:/temp/Job-1.odb,Step-1,Increment      1: Step Time =    1.000,"P-1-1",         14409,   56.6060E-03,   40.9928E-03,            0.,NA,NA,"",   1.05682E+06,   1.06413E+06,   1.06413E+06
C:/temp/Job-1.odb,Step-1,Increment      1: Step Time =    1.000,"P-1-1",         14410,   115.687E-03,   152.594E-03,            0.,NA,NA,"",   1.05338E+06,   1.06622E+06,   1.06622E+06
C:/temp/Job-1.odb,Step-1,Increment      1: Step Time =    1.000,"P-1-1",         14411,   140.692E-03,   70.8492E-03,            0.,NA,NA,"",   1.08909E+06,   1.05362E+06,   1.05362E+06
C:/temp/Job-1.odb,Step-1,Increment      1: Step Time =    1.000,"P-1-1",         14412,   108.360E-03,   152.030E-03,            0.,NA,NA,"",   1.03369E+06,   1.06013E+06,   1.06013E+06
C:/temp/Job-1.odb,Step-1,Increment      1: Step Time =    1.000,"P-1-1",         14413,   110.791E-03,   153.523E-03,            0.,NA,NA,"",   1.03701E+06,   1.05806E+06,   1.05806E+06
C:/temp/Job-1.odb,Step-1,Increment      1: Step Time =    1.000,"P-1-1",         14414,   46.9111E-03,   71.4024E-03,            0.,NA,NA,"",   956.577E+03,   990.927E+03,   990.927E+03
C:/temp/Job-1.odb,Step-1,Increment      1: Step Time =    1.000,"P-1-1",         14415,   54.1176E-03,   133.246E-03,            0.,NA,NA,"",   1.02020E+06,   1.03451E+06,   1.03451E+06
C:/temp/Job-1.odb,Step-1,Increment      1: Step Time =    1.000,"P-1-1",         14416,   38.4764E-03,   99.6989E-03,            0.,NA,NA,"",   817.248E+03,   885.892E+03,   885.892E+03
C:/temp/Job-1.odb,Step-1,Increment      1: Step Time =    1.000,"P-1-1",         14417,   100.666E-03,   161.284E-03,            0.,NA,NA,"",   1.01246E+06,   1.03414E+06,   1.03414E+06
C:/temp/Job-1.odb,Step-1,Increment      1: Step Time =    1.000,"P-1-1",         14418,   99.9493E-03,   37.9891E-03,            0.,NA,NA,"",   1.01153E+06,   1.03264E+06,   1.03264E+06
C:/temp/Job-1.odb,Step-1,Increment      1: Step Time =    1.000,"P-1-1",         14419,   53.8922E-03,   131.878E-03,            0.,NA,NA,"",   1.01262E+06,   1.02817E+06,   1.02817E+06
C:/temp/Job-1.odb,Step-1,Increment      1: Step Time =    1.000,"P-1-1",         14420,   91.6138E-03,   155.266E-03,            0.,NA,NA,"",   1.02862E+06,   1.05446E+06,   1.05446E+06
C:/temp/Job-1.odb,Step-1,Increment      1: Step Time =    1.000,"P-1-1",         14421,   70.4713E-03,   143.576E-03,            0.,NA,NA,"",   1.10167E+06,   1.10018E+06,   1.10018E+06
C:/temp/Job-1.odb,Step-1,Increment      1: Step Time =    1.000,"P-1-1",         14422,   156.170E-03,   118.433E-03,            0.,NA,NA,"",   977.368E+03,   973.477E+03,   973.477E+03
C:/temp/Job-1.odb,Step-1,Increment      1: Step Time =    1.000,"P-1-1",         14423,   109.979E-03,   67.9944E-03,            0.,NA,NA,"",   1.13563E+06,   1.17652E+06,   1.17652E+06
C:/temp/Job-1.odb,Step-1,Increment      1: Step Time =    1.000,"P-1-1",         14424,   64.6037E-03,   143.424E-03,            0.,NA,NA,"",   1.08747E+06,   1.08691E+06,   1.08691E+06
C:/temp/Job-1.odb,Step-1,Increment      1: Step Time =    1.000,"P-1-1",         14425,   41.4468E-03,   62.2034E-03,            0.,NA,NA,"",   971.853E+03,   1.01105E+06,   1.01105E+06
C:/temp/Job-1.odb,Step-1,Increment      1: Step Time =    1.000,"P-1-1",         14426,   61.6129E-03,   159.280E-03,            0.,NA,NA,"",   1.06072E+06,   1.06550E+06,   1.06550E+06
C:/temp/Job-1.odb,Step-1,Increment      1: Step Time =    1.000,"P-1-1",         14427,   88.6406E-03,   155.170E-03,            0.,NA,NA,"",   1.03589E+06,   1.05896E+06,   1.05896E+06
C:/temp/Job-1.odb,Step-1,Increment      1: Step Time =    1.000,"P-1-1",         14428,   147.325E-03,   41.2111E-03,            0.,NA,NA,"",   1.05222E+06,   1.03980E+06,   1.03980E+06
C:/temp/Job-1.odb,Step-1,Increment      1: Step Time =    1.000,"P-1-1",         14429,   159.710E-03,   146.930E-03,            0.,NA,NA,"",   1.04214E+06,   1.03038E+06,   1.03038E+06
C:/temp/Job-1.odb,Step-1,Increment      1: Step Time =    1.000,"P-1-1",         14430,   41.2375E-03,   42.0551E-03,            0.,NA,NA,"",   1.02724E+06,   1.05323E+06,   1.05323E+06
C:/temp/Job-1.odb,Step-1,Increment      1: Step Time =    1.000,"P-1-1",         14431,   158.922E-03,   156.937E-03,            0.,NA,NA,"",   1.03808E+06,   1.02830E+06,   1.02830E+06
C:/temp/Job-1.odb,Step-1,Increment      1: Step Time =    1.000,"P-1-1",         14432,   157.126E-03,   157.938E-03,            0.,NA,NA,"",   1.03961E+06,   1.02946E+06,   1.02946E+06
C:/temp/Job-1.odb,Step-1,Increment      1: Step Time =    1.000,"P-1-1",         14433,   43.3962E-03,   40.9851E-03,            0.,NA,NA,"",   1.03388E+06,   1.05594E+06,   1.05594E+06
C:/temp/Job-1.odb,Step-1,Increment      1: Step Time =    1.000,"P-1-1",         14434,   154.910E-03,   112.105E-03,            0.,NA,NA,"",   941.483E+03,   944.015E+03,   944.015E+03
C:/temp/Job-1.odb,Step-1,Increment      1: Step Time =    1.000,"P-1-1",         14435,   89.3588E-03,   55.4405E-03,            0.,NA,NA,"",   1.05996E+06,   1.09389E+06,   1.09389E+06
C:/temp/Job-1.odb,Step-1,Increment      1: Step Time =    1.000,"P-1-1",         14436,   93.1169E-03,   41.2562E-03,            0.,NA,NA,"",   1.02097E+06,   1.04420E+06,   1.04420E+06
C:/temp/Job-1.odb,Step-1,Increment      1: Step Time =    1.000,"P-1-1",         14437,   108.345E-03,   64.7200E-03,            0.,NA,NA,"",   1.09273E+06,   1.14084E+06,   1.14084E+06
C:/temp/Job-1.odb,Step-1,Increment      1: Step Time =    1.000,"P-1-1",         14438,   113.202E-03,   65.9532E-03,            0.,NA,NA,"",   1.14238E+06,   1.16216E+06,   1.16216E+06
C:/temp/Job-1.odb,Step-1,Increment      1: Step Time =    1.000,"P-1-1",         14439,   72.7192E-03,   58.9818E-03,            0.,NA,NA,"",   1.11408E+06,   1.11104E+06,   1.11104E+06
C:/temp/Job-1.odb,Step-1,Increment      1: Step Time =    1.000,"P-1-1",         14440,   151.998E-03,   88.7000E-03,            0.,NA,NA,"",   931.855E+03,   933.480E+03,   933.480E+03
C:/temp/Job-1.odb,Step-1,Increment      1: Step Time =    1.000,"P-1-1",         14441,   47.3761E-03,   79.0255E-03,            0.,NA,NA,"",   910.835E+03,   951.934E+03,   951.934E+03
C:/temp/Job-1.odb,Step-1,Increment      1: Step Time =    1.000,"P-1-1",         14442,   141.064E-03,   139.221E-03,            0.,NA,NA,"",   1.09829E+06,   1.06987E+06,   1.06987E+06
C:/temp/Job-1.odb,Step-1,Increment      1: Step Time =    1.000,"P-1-1",         14443,   134.761E-03,   67.1773E-03,            0.,NA,NA,"",   1.13053E+06,   1.09096E+06,   1.09096E+06
C:/temp/Job-1.odb,Step-1,Increment      1: Step Time =    1.000,"P-1-1",         14444,   155.196E-03,   108.035E-03,            0.,NA,NA,"",   921.876E+03,   929.035E+03,   929.035E+03
C:/temp/Job-1.odb,Step-1,Increment      1: Step Time =    1.000,"P-1-1",         14445,   94.3096E-03,   155.952E-03,            0.,NA,NA,"",   1.02280E+06,   1.04993E+06,   1.04993E+06
C:/temp/Job-1.odb,Step-1,Increment      1: Step Time =    1.000,"P-1-1",         14446,   123.964E-03,   159.944E-03,            0.,NA,NA,"",   1.04853E+06,   1.04865E+06,   1.04865E+06
C:/temp/Job-1.odb,Step-1,Increment      1: Step Time =    1.000,"P-1-1",         14447,   47.3861E-03,   75.1627E-03,            0.,NA,NA,"",   936.325E+03,   973.238E+03,   973.238E+03
C:/temp/Job-1.odb,Step-1,Increment      1: Step Time =    1.000,"P-1-1",         14448,   127.157E-03,   159.937E-03,            0.,NA,NA,"",   1.05238E+06,   1.04914E+06,   1.04914E+06
C:/temp/Job-1.odb,Step-1,Increment      1: Step Time =    1.000,"P-1-1",         14449,   155.816E-03,   105.284E-03,            0.,NA,NA,"",   915.184E+03,   924.488E+03,   924.488E+03
C:/temp/Job-1.odb,Step-1,Increment      1: Step Time =    1.000,"P-1-1",         14450,   40.8465E-03,   127.571E-03,            0.,NA,NA,"",   924.751E+03,   972.737E+03,   972.737E+03
C:/temp/Job-1.odb,Step-1,Increment      1: Step Time =    1.000,"P-1-1",         14451,   97.5198E-03,   156.349E-03,            0.,NA,NA,"",   1.01868E+06,   1.04648E+06,   1.04648E+06
C:/temp/Job-1.odb,Step-1,Increment      1: Step Time =    1.000,"P-1-1",         14452,   61.3452E-03,   141.770E-03,            0.,NA,NA,"",   1.07587E+06,   1.07760E+06,   1.07760E+06
C:/temp/Job-1.odb,Step-1,Increment      1: Step Time =    1.000,"P-1-1",         14453,   138.168E-03,   141.217E-03,            0.,NA,NA,"",   1.10546E+06,   1.07795E+06,   1.07795E+06
C:/temp/Job-1.odb,Step-1,Increment      1: Step Time =    1.000,"P-1-1",         14454,   156.133E-03,   101.841E-03,            0.,NA,NA,"",   909.904E+03,   920.761E+03,   920.761E+03
C:/temp/Job-1.odb,Step-1,Increment      1: Step Time =    1.000,"P-1-1",         14455,   66.5886E-03,   59.2958E-03,            0.,NA,NA,"",   1.09825E+06,   1.09444E+06,   1.09444E+06
C:/temp/Job-1.odb,Step-1,Increment      1: Step Time =    1.000,"P-1-1",         14456,   40.4167E-03,   87.0888E-03,            0.,NA,NA,"",   848.077E+03,   909.433E+03,   909.433E+03
C:/temp/Job-1.odb,Step-1,Increment      1: Step Time =    1.000,"P-1-1",         14457,   86.8252E-03,   158.030E-03,            0.,NA,NA,"",   1.03446E+06,   1.05321E+06,   1.05321E+06
C:/temp/Job-1.odb,Step-1,Increment      1: Step Time =    1.000,"P-1-1",         14458,   131.218E-03,   67.5581E-03,            0.,NA,NA,"",   1.15127E+06,   1.10952E+06,   1.10952E+06
C:/temp/Job-1.odb,Step-1,Increment      1: Step Time =    1.000,"P-1-1",         14459,   159.144E-03,   111.932E-03,            0.,NA,NA,"",   948.972E+03,   953.858E+03,   953.858E+03
C:/temp/Job-1.odb,Step-1,Increment      1: Step Time =    1.000,"P-1-1",         14460,   133.085E-03,   144.426E-03,            0.,NA,NA,"",   1.10834E+06,   1.08616E+06,   1.08616E+06
C:/temp/Job-1.odb,Step-1,Increment      1: Step Time =    1.000,"P-1-1",         14461,   47.7604E-03,   82.8231E-03,            0.,NA,NA,"",   884.716E+03,   929.643E+03,   929.643E+03
C:/temp/Job-1.odb,Step-1,Increment      1: Step Time =    1.000,"P-1-1",         14462,   158.224E-03,   141.625E-03,            0.,NA,NA,"",   1.04423E+06,   1.03074E+06,   1.03074E+06
C:/temp/Job-1.odb,Step-1,Increment      1: Step Time =    1.000,"P-1-1",         14463,   141.981E-03,   41.9172E-03,            0.,NA,NA,"",   1.05890E+06,   1.04618E+06,   1.04618E+06
C:/temp/Job-1.odb,Step-1,Increment      1: Step Time =    1.000,"P-1-1",         14464,   60.3719E-03,   59.7035E-03,            0.,NA,NA,"",   1.07114E+06,   1.07353E+06,   1.07353E+06
C:/temp/Job-1.odb,Step-1,Increment      1: Step Time =    1.000,"P-1-1",         14465,   54.1981E-03,   125.746E-03,            0.,NA,NA,"",   979.118E+03,   998.464E+03,   998.464E+03
C:/temp/Job-1.odb,Step-1,Increment      1: Step Time =    1.000,"P-1-1",         14466,   157.745E-03,   135.932E-03,            0.,NA,NA,"",   1.03860E+06,   1.02507E+06,   1.02507E+06
C:/temp/Job-1.odb,Step-1,Increment      1: Step Time =    1.000,"P-1-1",         14467,   136.152E-03,   42.2128E-03,            0.,NA,NA,"",   1.06288E+06,   1.05171E+06,   1.05171E+06
C:/temp/Job-1.odb,Step-1,Increment      1: Step Time =    1.000,"P-1-1",         14468,   155.820E-03,   98.3261E-03,            0.,NA,NA,"",   907.855E+03,   918.802E+03,   918.802E+03
C:/temp/Job-1.odb,Step-1,Increment      1: Step Time =    1.000,"P-1-1",         14469,   115.933E-03,   40.6988E-03,            0.,NA,NA,"",   1.03549E+06,   1.04600E+06,   1.04600E+06
C:/temp/Job-1.odb,Step-1,Increment      1: Step Time =    1.000,"P-1-1",         14470,   108.032E-03,   60.4932E-03,            0.,NA,NA,"",   1.06729E+06,   1.11064E+06,   1.11064E+06
C:/temp/Job-1.odb,Step-1,Increment      1: Step Time =    1.000,"P-1-1",         14471,   42.2995E-03,   59.4997E-03,            0.,NA,NA,"",   985.836E+03,   1.02140E+06,   1.02140E+06
C:/temp/Job-1.odb,Step-1,Increment      1: Step Time =    1.000,"P-1-1",         14472,   59.7253E-03,   159.343E-03,            0.,NA,NA,"",   1.05944E+06,   1.06496E+06,   1.06496E+06
C:/temp/Job-1.odb,Step-1,Increment      1: Step Time =    1.000,"P-1-1",         14473,   46.9242E-03,   84.9887E-03,            0.,NA,NA,"",   866.954E+03,   916.220E+03,   916.220E+03
C:/temp/Job-1.odb,Step-1,Increment      1: Step Time =    1.000,"P-1-1",         14474,   46.8575E-03,   89.0316E-03,            0.,NA,NA,"",   841.257E+03,   895.010E+03,   895.010E+03
C:/temp/Job-1.odb,Step-1,Increment      1: Step Time =    1.000,"P-1-1",         14475,   47.2226E-03,   69.3177E-03,            0.,NA,NA,"",   969.249E+03,   1.00109E+06,   1.00109E+06
C:/temp/Job-1.odb,Step-1,Increment      1: Step Time =    1.000,"P-1-1",         14476,   109.455E-03,   71.8511E-03,            0.,NA,NA,"",   1.17870E+06,   1.22436E+06,   1.22436E+06
C:/temp/Job-1.odb,Step-1,Increment      1: Step Time =    1.000,"P-1-1",         14477,   77.7425E-03,   154.542E-03,            0.,NA,NA,"",   1.06342E+06,   1.07352E+06,   1.07352E+06
C:/temp/Job-1.odb,Step-1,Increment      1: Step Time =    1.000,"P-1-1",         14478,   106.216E-03,   160.991E-03,            0.,NA,NA,"",   1.01608E+06,   1.03555E+06,   1.03555E+06
C:/temp/Job-1.odb,Step-1,Increment      1: Step Time =    1.000,"P-1-1",         14479,   132.010E-03,   140.949E-03,            0.,NA,NA,"",   1.12306E+06,   1.09651E+06,   1.09651E+06
C:/temp/Job-1.odb,Step-1,Increment      1: Step Time =    1.000,"P-1-1",         14480,   136.720E-03,   141.951E-03,            0.,NA,NA,"",   1.10853E+06,   1.08175E+06,   1.08175E+06
C:/temp/Job-1.odb,Step-1,Increment      1: Step Time =    1.000,"P-1-1",         14481,   144.004E-03,   40.2010E-03,            0.,NA,NA,"",   1.05326E+06,   1.04139E+06,   1.04139E+06
C:/temp/Job-1.odb,Step-1,Increment      1: Step Time =    1.000,"P-1-1",         14482,   159.469E-03,   145.099E-03,            0.,NA,NA,"",   1.04244E+06,   1.03031E+06,   1.03031E+06
C:/temp/Job-1.odb,Step-1,Increment      1: Step Time =    1.000,"P-1-1",         14483,   43.3037E-03,   159.064E-03,            0.,NA,NA,"",   1.03393E+06,   1.05603E+06,   1.05603E+06
C:/temp/Job-1.odb,Step-1,Increment      1: Step Time =    1.000,"P-1-1",         14484,   43.7095E-03,   93.9576E-03,            0.,NA,NA,"",   820.907E+03,   882.493E+03,   882.493E+03
C:/temp/Job-1.odb,Step-1,Increment      1: Step Time =    1.000,"P-1-1",         14485,   92.9184E-03,   156.304E-03,            0.,NA,NA,"",   1.02455E+06,   1.05039E+06,   1.05039E+06
C:/temp/Job-1.odb,Step-1,Increment      1: Step Time =    1.000,"P-1-1",         14486,   157.045E-03,   105.991E-03,            0.,NA,NA,"",   921.793E+03,   930.883E+03,   930.883E+03
C:/temp/Job-1.odb,Step-1,Increment      1: Step Time =    1.000,"P-1-1",         14487,   42.7680E-03,   82.8323E-03,            0.,NA,NA,"",   873.355E+03,   927.346E+03,   927.346E+03
C:/temp/Job-1.odb,Step-1,Increment      1: Step Time =    1.000,"P-1-1",         14488,   83.5773E-03,   156.653E-03,            0.,NA,NA,"",   1.04456E+06,   1.06078E+06,   1.06078E+06
C:/temp/Job-1.odb,Step-1,Increment      1: Step Time =    1.000,"P-1-1",         14489,   155.735E-03,   116.513E-03,            0.,NA,NA,"",   967.384E+03,   965.181E+03,   965.181E+03
C:/temp/Job-1.odb,Step-1,Increment      1: Step Time =    1.000,"P-1-1",         14490,   138.055E-03,   66.5466E-03,            0.,NA,NA,"",   1.11276E+06,   1.07672E+06,   1.07672E+06
C:/temp/Job-1.odb,Step-1,Increment      1: Step Time =    1.000,"P-1-1",         14491,   149.637E-03,   81.8467E-03,            0.,NA,NA,"",   979.894E+03,   969.117E+03,   969.117E+03
C:/temp/Job-1.odb,Step-1,Increment      1: Step Time =    1.000,"P-1-1",         14492,   69.6718E-03,   57.3566E-03,            0.,NA,NA,"",   1.10300E+06,   1.10040E+06,   1.10040E+06
C:/temp/Job-1.odb,Step-1,Increment      1: Step Time =    1.000,"P-1-1",         14493,   64.5873E-03,   158.868E-03,            0.,NA,NA,"",   1.06240E+06,   1.06659E+06,   1.06659E+06
C:/temp/Job-1.odb,Step-1,Increment      1: Step Time =    1.000,"P-1-1",         14494,   42.3063E-03,   64.7352E-03,            0.,NA,NA,"",   966.501E+03,   1.00552E+06,   1.00552E+06
C:/temp/Job-1.odb,Step-1,Increment      1: Step Time =    1.000,"P-1-1",         14495,   70.2320E-03,   145.588E-03,            0.,NA,NA,"",   1.09568E+06,   1.09576E+06,   1.09576E+06
C:/temp/Job-1.odb,Step-1,Increment      1: Step Time =    1.000,"P-1-1",         14496,   133.854E-03,   141.773E-03,            0.,NA,NA,"",   1.11608E+06,   1.08971E+06,   1.08971E+06
C:/temp/Job-1.odb,Step-1,Increment      1: Step Time =    1.000,"P-1-1",         14497,   121.554E-03,   149.939E-03,            0.,NA,NA,"",   1.07936E+06,   1.07980E+06,   1.07980E+06
C:/temp/Job-1.odb,Step-1,Increment      1: Step Time =    1.000,"P-1-1",         14498,   157.176E-03,   40.2805E-03,            0.,NA,NA,"",   1.03756E+06,   1.02802E+06,   1.02802E+06
C:/temp/Job-1.odb,Step-1,Increment      1: Step Time =    1.000,"P-1-1",         14499,   84.0271E-03,   54.7812E-03,            0.,NA,NA,"",   1.07953E+06,   1.09959E+06,   1.09959E+06
C:/temp/Job-1.odb,Step-1,Increment      1: Step Time =    1.000,"P-1-1",         14500,   103.378E-03,   159.688E-03,            0.,NA,NA,"",   1.01513E+06,   1.03779E+06,   1.03779E+06
C:/temp/Job-1.odb,Step-1,Increment      1: Step Time =    1.000,"P-1-1",         14501,   40.6100E-03,   102.431E-03,            0.,NA,NA,"",   816.687E+03,   882.850E+03,   882.850E+03
C:/temp/Job-1.odb,Step-1,Increment      1: Step Time =    1.000,"P-1-1",         14502,   96.1348E-03,   39.6708E-03,            0.,NA,NA,"",   1.01516E+06,   1.03787E+06,   1.03787E+06
C:/temp/Job-1.odb,Step-1,Increment      1: Step Time =    1.000,"P-1-1",         14503,   39.6535E-03,   162.449E-03,            0.,NA,NA,"",   1.03217E+06,   1.05725E+06,   1.05725E+06
C:/temp/Job-1.odb,Step-1,Increment      1: Step Time =    1.000,"P-1-1",         14504,   144.949E-03,   159.835E-03,            0.,NA,NA,"",   1.05227E+06,   1.04035E+06,   1.04035E+06
C:/temp/Job-1.odb,Step-1,Increment      1: Step Time =    1.000,"P-1-1",         14505,   40.7801E-03,   143.874E-03,            0.,NA,NA,"",   990.629E+03,   1.02684E+06,   1.02684E+06
C:/temp/Job-1.odb,Step-1,Increment      1: Step Time =    1.000,"P-1-1",         14506,   42.9813E-03,   152.852E-03,            0.,NA,NA,"",   1.02199E+06,   1.04857E+06,   1.04857E+06
C:/temp/Job-1.odb,Step-1,Increment      1: Step Time =    1.000,"P-1-1",         14507,   152.874E-03,   156.605E-03,            0.,NA,NA,"",   1.04801E+06,   1.03577E+06,   1.03577E+06
C:/temp/Job-1.odb,Step-1,Increment      1: Step Time =    1.000,"P-1-1",         14508,   47.6486E-03,   43.5945E-03,            0.,NA,NA,"",   1.04030E+06,   1.05783E+06,   1.05783E+06
C:/temp/Job-1.odb,Step-1,Increment      1: Step Time =    1.000,"P-1-1",         14509,   156.640E-03,   48.5397E-03,            0.,NA,NA,"",   1.04685E+06,   1.03425E+06,   1.03425E+06
C:/temp/Job-1.odb,Step-1,Increment      1: Step Time =    1.000,"P-1-1",         14510,   51.4756E-03,   125.864E-03,            0.,NA,NA,"",   963.632E+03,   989.862E+03,   989.862E+03
C:/temp/Job-1.odb,Step-1,Increment      1: Step Time =    1.000,"P-1-1",         14511,   46.5880E-03,   104.137E-03,            0.,NA,NA,"",   810.780E+03,   870.163E+03,   870.163E+03
C:/temp/Job-1.odb,Step-1,Increment      1: Step Time =    1.000,"P-1-1",         14512,   124.760E-03,   149.719E-03,            0.,NA,NA,"",   1.08616E+06,   1.08058E+06,   1.08058E+06
C:/temp/Job-1.odb,Step-1,Increment      1: Step Time =    1.000,"P-1-1",         14513,   103.214E-03,   42.3177E-03,            0.,NA,NA,"",   1.01732E+06,   1.04255E+06,   1.04255E+06
C:/temp/Job-1.odb,Step-1,Increment      1: Step Time =    1.000,"P-1-1",         14514,   158.886E-03,   123.013E-03,            0.,NA,NA,"",   997.006E+03,   991.362E+03,   991.362E+03
C:/temp/Job-1.odb,Step-1,Increment      1: Step Time =    1.000,"P-1-1",         14515,   42.2137E-03,   96.4732E-03,            0.,NA,NA,"",   816.582E+03,   880.837E+03,   880.837E+03
C:/temp/Job-1.odb,Step-1,Increment      1: Step Time =    1.000,"P-1-1",         14516,   96.4217E-03,   158.421E-03,            0.,NA,NA,"",   1.01735E+06,   1.04231E+06,   1.04231E+06
C:/temp/Job-1.odb,Step-1,Increment      1: Step Time =    1.000,"P-1-1",         14517,   158.498E-03,   104.085E-03,            0.,NA,NA,"",   922.228E+03,   932.559E+03,   932.559E+03
C:/temp/Job-1.odb,Step-1,Increment      1: Step Time =    1.000,"P-1-1",         14518,   55.5556E-03,   63.6463E-03,            0.,NA,NA,"",   1.03878E+06,   1.04922E+06,   1.04922E+06
C:/temp/Job-1.odb,Step-1,Increment      1: Step Time =    1.000,"P-1-1",         14519,   108.318E-03,   159.050E-03,            0.,NA,NA,"",   1.02167E+06,   1.04125E+06,   1.04125E+06
C:/temp/Job-1.odb,Step-1,Increment      1: Step Time =    1.000,"P-1-1",         14520,   40.1248E-03,   108.175E-03,            0.,NA,NA,"",   829.385E+03,   894.075E+03,   894.075E+03
C:/temp/Job-1.odb,Step-1,Increment      1: Step Time =    1.000,"P-1-1",         14521,   106.890E-03,   59.1555E-03,            0.,NA,NA,"",   1.05550E+06,   1.10071E+06,   1.10071E+06
C:/temp/Job-1.odb,Step-1,Increment      1: Step Time =    1.000,"P-1-1",         14522,   156.575E-03,   139.117E-03,            0.,NA,NA,"",   1.04605E+06,   1.03112E+06,   1.03112E+06
C:/temp/Job-1.odb,Step-1,Increment      1: Step Time =    1.000,"P-1-1",         14523,   139.179E-03,   42.8924E-03,            0.,NA,NA,"",   1.06345E+06,   1.05062E+06,   1.05062E+06
C:/temp/Job-1.odb,Step-1,Increment      1: Step Time =    1.000,"P-1-1",         14524,   81.3913E-03,   154.362E-03,            0.,NA,NA,"",   1.05608E+06,   1.07053E+06,   1.07053E+06
C:/temp/Job-1.odb,Step-1,Increment      1: Step Time =    1.000,"P-1-1",         14525,   121.115E-03,   158.167E-03,            0.,NA,NA,"",   1.04908E+06,   1.05258E+06,   1.05258E+06
C:/temp/Job-1.odb,Step-1,Increment      1: Step Time =    1.000,"P-1-1",         14526,   64.0754E-03,   57.5502E-03,            0.,NA,NA,"",   1.08656E+06,   1.08587E+06,   1.08587E+06
C:/temp/Job-1.odb,Step-1,Increment      1: Step Time =    1.000,"P-1-1",         14527,   113.699E-03,   42.8331E-03,            0.,NA,NA,"",   1.03589E+06,   1.05023E+06,   1.05023E+06
C:/temp/Job-1.odb,Step-1,Increment      1: Step Time =    1.000,"P-1-1",         14528,   73.2511E-03,   158.817E-03,            0.,NA,NA,"",   1.05847E+06,   1.06489E+06,   1.06489E+06
C:/temp/Job-1.odb,Step-1,Increment      1: Step Time =    1.000,"P-1-1",         14529,   41.1618E-03,   72.3143E-03,            0.,NA,NA,"",   925.857E+03,   973.302E+03,   973.302E+03
C:/temp/Job-1.odb,Step-1,Increment      1: Step Time =    1.000,"P-1-1",         14530,   83.4182E-03,   41.3813E-03,            0.,NA,NA,"",   1.04103E+06,   1.05597E+06,   1.05597E+06
C:/temp/Job-1.odb,Step-1,Increment      1: Step Time =    1.000,"P-1-1",         14531,   158.735E-03,   94.8487E-03,            0.,NA,NA,"",   925.279E+03,   935.136E+03,   935.136E+03
C:/temp/Job-1.odb,Step-1,Increment      1: Step Time =    1.000,"P-1-1",         14532,   80.8483E-03,   157.044E-03,            0.,NA,NA,"",   1.05015E+06,   1.06324E+06,   1.06324E+06
C:/temp/Job-1.odb,Step-1,Increment      1: Step Time =    1.000,"P-1-1",         14533,   157.154E-03,   119.202E-03,            0.,NA,NA,"",   980.697E+03,   977.007E+03,   977.007E+03
C:/temp/Job-1.odb,Step-1,Increment      1: Step Time =    1.000,"P-1-1",         14534,   50.4123E-03,   159.236E-03,            0.,NA,NA,"",   1.04790E+06,   1.06074E+06,   1.06074E+06
C:/temp/Job-1.odb,Step-1,Increment      1: Step Time =    1.000,"P-1-1",         14535,   40.8252E-03,   51.2597E-03,            0.,NA,NA,"",   1.00484E+06,   1.03789E+06,   1.03789E+06
C:/temp/Job-1.odb,Step-1,Increment      1: Step Time =    1.000,"P-1-1",         14536,   158.196E-03,   124.581E-03,            0.,NA,NA,"",   1.00430E+06,   996.667E+03,   996.667E+03
C:/temp/Job-1.odb,Step-1,Increment      1: Step Time =    1.000,"P-1-1",         14537,   44.5336E-03,   91.4985E-03,            0.,NA,NA,"",   829.333E+03,   888.415E+03,   888.415E+03
C:/temp/Job-1.odb,Step-1,Increment      1: Step Time =    1.000,"P-1-1",         14538,   89.7929E-03,   156.375E-03,            0.,NA,NA,"",   1.03083E+06,   1.05391E+06,   1.05391E+06
C:/temp/Job-1.odb,Step-1,Increment      1: Step Time =    1.000,"P-1-1",         14539,   155.074E-03,   40.8438E-03,            0.,NA,NA,"",   1.04137E+06,   1.03088E+06,   1.03088E+06
C:/temp/Job-1.odb,Step-1,Increment      1: Step Time =    1.000,"P-1-1",         14540,   124.141E-03,   41.9861E-03,            0.,NA,NA,"",   1.05492E+06,   1.05434E+06,   1.05434E+06
C:/temp/Job-1.odb,Step-1,Increment      1: Step Time =    1.000,"P-1-1",         14541,   46.6899E-03,   93.6293E-03,            0.,NA,NA,"",   818.719E+03,   876.664E+03,   876.664E+03
C:/temp/Job-1.odb,Step-1,Increment      1: Step Time =    1.000,"P-1-1",         14542,   152.495E-03,   94.5974E-03,            0.,NA,NA,"",   901.574E+03,   910.426E+03,   910.426E+03
C:/temp/Job-1.odb,Step-1,Increment      1: Step Time =    1.000,"P-1-1",         14543,   76.0373E-03,   59.5685E-03,            0.,NA,NA,"",   1.11956E+06,   1.11948E+06,   1.11948E+06
C:/temp/Job-1.odb,Step-1,Increment      1: Step Time =    1.000,"P-1-1",         14544,   41.3735E-03,   128.770E-03,            0.,NA,NA,"",   932.287E+03,   978.349E+03,   978.349E+03
C:/temp/Job-1.odb,Step-1,Increment      1: Step Time =    1.000,"P-1-1",         14545,   128.790E-03,   158.507E-03,            0.,NA,NA,"",   1.05846E+06,   1.05304E+06,   1.05304E+06
C:/temp/Job-1.odb,Step-1,Increment      1: Step Time =    1.000,"P-1-1",         14546,   42.0032E-03,   87.3652E-03,            0.,NA,NA,"",   848.344E+03,   907.606E+03,   907.606E+03
C:/temp/Job-1.odb,Step-1,Increment      1: Step Time =    1.000,"P-1-1",         14547,   86.2560E-03,   156.732E-03,            0.,NA,NA,"",   1.03839E+06,   1.05744E+06,   1.05744E+06
C:/temp/Job-1.odb,Step-1,Increment      1: Step Time =    1.000,"P-1-1",         14548,   83.9153E-03,   154.015E-03,            0.,NA,NA,"",   1.05080E+06,   1.06872E+06,   1.06872E+06
C:/temp/Job-1.odb,Step-1,Increment      1: Step Time =    1.000,"P-1-1",         14549,   156.391E-03,   111.627E-03,            0.,NA,NA,"",   941.919E+03,   945.892E+03,   945.892E+03
C:/temp/Job-1.odb,Step-1,Increment      1: Step Time =    1.000,"P-1-1",         14550,   157.138E-03,   57.3675E-03,            0.,NA,NA,"",   1.04739E+06,   1.03312E+06,   1.03312E+06
C:/temp/Job-1.odb,Step-1,Increment      1: Step Time =    1.000,"P-1-1",         14551,   57.8042E-03,   42.4094E-03,            0.,NA,NA,"",   1.05911E+06,   1.06587E+06,   1.06587E+06
C:/temp/Job-1.odb,Step-1,Increment      1: Step Time =    1.000,"P-1-1",         14552,   60.7379E-03,   143.202E-03,            0.,NA,NA,"",   1.07337E+06,   1.07632E+06,   1.07632E+06
C:/temp/Job-1.odb,Step-1,Increment      1: Step Time =    1.000,"P-1-1",         14553,   73.3511E-03,   153.117E-03,            0.,NA,NA,"",   1.07349E+06,   1.07928E+06,   1.07928E+06
C:/temp/Job-1.odb,Step-1,Increment      1: Step Time =    1.000,"P-1-1",         14554,   116.008E-03,   44.0280E-03,            0.,NA,NA,"",   1.04453E+06,   1.05594E+06,   1.05594E+06
C:/temp/Job-1.odb,Step-1,Increment      1: Step Time =    1.000,"P-1-1",         14555,   142.987E-03,   41.0514E-03,            0.,NA,NA,"",   1.05601E+06,   1.04372E+06,   1.04372E+06
C:/temp/Job-1.odb,Step-1,Increment      1: Step Time =    1.000,"P-1-1",         14556,   158.389E-03,   144.166E-03,            0.,NA,NA,"",   1.04477E+06,   1.03169E+06,   1.03169E+06
C:/temp/Job-1.odb,Step-1,Increment      1: Step Time =    1.000,"P-1-1",         14557,   73.1260E-03,   154.701E-03,            0.,NA,NA,"",   1.06913E+06,   1.07514E+06,   1.07514E+06
C:/temp/Job-1.odb,Step-1,Increment      1: Step Time =    1.000,"P-1-1",         14558,   152.677E-03,   129.428E-03,            0.,NA,NA,"",   1.03669E+06,   1.01923E+06,   1.01923E+06
C:/temp/Job-1.odb,Step-1,Increment      1: Step Time =    1.000,"P-1-1",         14559,   60.7056E-03,   58.2258E-03,            0.,NA,NA,"",   1.07316E+06,   1.07561E+06,   1.07561E+06
C:/temp/Job-1.odb,Step-1,Increment      1: Step Time =    1.000,"P-1-1",         14560,   109.198E-03,   41.6606E-03,            0.,NA,NA,"",   1.02434E+06,   1.04373E+06,   1.04373E+06
C:/temp/Job-1.odb,Step-1,Increment      1: Step Time =    1.000,"P-1-1",         14561,   78.0442E-03,   42.2249E-03,            0.,NA,NA,"",   1.05389E+06,   1.06396E+06,   1.06396E+06
C:/temp/Job-1.odb,Step-1,Increment      1: Step Time =    1.000,"P-1-1",         14562,   158.742E-03,   78.5504E-03,            0.,NA,NA,"",   990.645E+03,   986.125E+03,   986.125E+03
C:/temp/Job-1.odb,Step-1,Increment      1: Step Time =    1.000,"P-1-1",         14563,   142.781E-03,   42.9143E-03,            0.,NA,NA,"",   1.06052E+06,   1.04708E+06,   1.04708E+06
C:/temp/Job-1.odb,Step-1,Increment      1: Step Time =    1.000,"P-1-1",         14564,   157.180E-03,   142.989E-03,            0.,NA,NA,"",   1.04732E+06,   1.03314E+06,   1.03314E+06
C:/temp/Job-1.odb,Step-1,Increment      1: Step Time =    1.000,"P-1-1",         14565,   150.099E-03,   83.4745E-03,            0.,NA,NA,"",   967.913E+03,   959.982E+03,   959.982E+03
C:/temp/Job-1.odb,Step-1,Increment      1: Step Time =    1.000,"P-1-1",         14566,   110.047E-03,   42.6378E-03,            0.,NA,NA,"",   1.02751E+06,   1.04668E+06,   1.04668E+06
C:/temp/Job-1.odb,Step-1,Increment      1: Step Time =    1.000,"P-1-1",         14567,   92.7495E-03,   54.7088E-03,            0.,NA,NA,"",   1.04418E+06,   1.08429E+06,   1.08429E+06
C:/temp/Job-1.odb,Step-1,Increment      1: Step Time =    1.000,"P-1-1",         14568,   148.489E-03,   132.485E-03,            0.,NA,NA,"",   1.06112E+06,   1.03736E+06,   1.03736E+06
C:/temp/Job-1.odb,Step-1,Increment      1: Step Time =    1.000,"P-1-1",         14569,   116.296E-03,   64.0373E-03,            0.,NA,NA,"",   1.14334E+06,   1.14819E+06,   1.14819E+06
C:/temp/Job-1.odb,Step-1,Increment      1: Step Time =    1.000,"P-1-1",         14570,   137.751E-03,   142.405E-03,            0.,NA,NA,"",   1.10458E+06,   1.07838E+06,   1.07838E+06
C:/temp/Job-1.odb,Step-1,Increment      1: Step Time =    1.000,"P-1-1",         14571,   121.918E-03,   157.691E-03,            0.,NA,NA,"",   1.05217E+06,   1.05460E+06,   1.05460E+06
C:/temp/Job-1.odb,Step-1,Increment      1: Step Time =    1.000,"P-1-1",         14572,   45.5998E-03,   103.082E-03,            0.,NA,NA,"",   810.588E+03,   871.325E+03,   871.325E+03
C:/temp/Job-1.odb,Step-1,Increment      1: Step Time =    1.000,"P-1-1",         14573,   70.1133E-03,   148.842E-03,            0.,NA,NA,"",   1.08658E+06,   1.08875E+06,   1.08875E+06
C:/temp/Job-1.odb,Step-1,Increment      1: Step Time =    1.000,"P-1-1",         14574,   52.4172E-03,   67.5299E-03,            0.,NA,NA,"",   1.00684E+06,   1.02540E+06,   1.02540E+06
C:/temp/Job-1.odb,Step-1,Increment      1: Step Time =    1.000,"P-1-1",         14575,   47.1598E-03,   118.283E-03,            0.,NA,NA,"",   891.607E+03,   936.297E+03,   936.297E+03
C:/temp/Job-1.odb,Step-1,Increment      1: Step Time =    1.000,"P-1-1",         14576,   142.538E-03,   71.5879E-03,            0.,NA,NA,"",   1.07588E+06,   1.04343E+06,   1.04343E+06
C:/temp/Job-1.odb,Step-1,Increment      1: Step Time =    1.000,"P-1-1",         14577,   108.692E-03,   67.0919E-03,            0.,NA,NA,"",   1.11446E+06,   1.16348E+06,   1.16348E+06
C:/temp/Job-1.odb,Step-1,Increment      1: Step Time =    1.000,"P-1-1",         14578,   58.8978E-03,   135.950E-03,            0.,NA,NA,"",   1.05751E+06,   1.06127E+06,   1.06127E+06
C:/temp/Job-1.odb,Step-1,Increment      1: Step Time =    1.000,"P-1-1",         14579,   145.366E-03,   133.516E-03,            0.,NA,NA,"",   1.07718E+06,   1.04943E+06,   1.04943E+06
C:/temp/Job-1.odb,Step-1,Increment      1: Step Time =    1.000,"P-1-1",         14580,   108.538E-03,   73.4290E-03,            0.,NA,NA,"",   1.19379E+06,   1.24884E+06,   1.24884E+06
C:/temp/Job-1.odb,Step-1,Increment      1: Step Time =    1.000,"P-1-1",         14581,   45.1012E-03,   93.9753E-03,            0.,NA,NA,"",   819.210E+03,   879.165E+03,   879.165E+03
C:/temp/Job-1.odb,Step-1,Increment      1: Step Time =    1.000,"P-1-1",         14582,   50.7868E-03,   157.314E-03,            0.,NA,NA,"",   1.04783E+06,   1.06101E+06,   1.06101E+06
C:/temp/Job-1.odb,Step-1,Increment      1: Step Time =    1.000,"P-1-1",         14583,   43.7752E-03,   51.0999E-03,            0.,NA,NA,"",   1.01576E+06,   1.04344E+06,   1.04344E+06
C:/temp/Job-1.odb,Step-1,Increment      1: Step Time =    1.000,"P-1-1",         14584,   114.516E-03,   158.821E-03,            0.,NA,NA,"",   1.03393E+06,   1.04634E+06,   1.04634E+06
C:/temp/Job-1.odb,Step-1,Increment      1: Step Time =    1.000,"P-1-1",         14585,   156.722E-03,   125.269E-03,            0.,NA,NA,"",   1.01019E+06,   1.00031E+06,   1.00031E+06
C:/temp/Job-1.odb,Step-1,Increment      1: Step Time =    1.000,"P-1-1",         14586,   125.074E-03,   43.2753E-03,            0.,NA,NA,"",   1.06028E+06,   1.05812E+06,   1.05812E+06
C:/temp/Job-1.odb,Step-1,Increment      1: Step Time =    1.000,"P-1-1",         14587,   41.6512E-03,   112.679E-03,            0.,NA,NA,"",   847.955E+03,   907.730E+03,   907.730E+03
C:/temp/Job-1.odb,Step-1,Increment      1: Step Time =    1.000,"P-1-1",         14588,   146.916E-03,   156.166E-03,            0.,NA,NA,"",   1.05785E+06,   1.04389E+06,   1.04389E+06
C:/temp/Job-1.odb,Step-1,Increment      1: Step Time =    1.000,"P-1-1",         14589,   44.3409E-03,   146.637E-03,            0.,NA,NA,"",   1.01306E+06,   1.04078E+06,   1.04078E+06
C:/temp/Job-1.odb,Step-1,Increment      1: Step Time =    1.000,"P-1-1",         14590,   154.129E-03,   126.259E-03,            0.,NA,NA,"",   1.01984E+06,   1.00612E+06,   1.00612E+06
C:/temp/Job-1.odb,Step-1,Increment      1: Step Time =    1.000,"P-1-1",         14591,   157.436E-03,   122.379E-03,            0.,NA,NA,"",   996.227E+03,   989.572E+03,   989.572E+03
C:/temp/Job-1.odb,Step-1,Increment      1: Step Time =    1.000,"P-1-1",         14592,   135.979E-03,   159.124E-03,            0.,NA,NA,"",   1.05919E+06,   1.04894E+06,   1.04894E+06
C:/temp/Job-1.odb,Step-1,Increment      1: Step Time =    1.000,"P-1-1",         14593,   53.7686E-03,   64.0640E-03,            0.,NA,NA,"",   1.02727E+06,   1.04155E+06,   1.04155E+06
C:/temp/Job-1.odb,Step-1,Increment      1: Step Time =    1.000,"P-1-1",         14594,   42.4976E-03,   134.829E-03,            0.,NA,NA,"",   964.944E+03,   1.00397E+06,   1.00397E+06
C:/temp/Job-1.odb,Step-1,Increment      1: Step Time =    1.000,"P-1-1",         14595,   155.713E-03,   42.8314E-03,            0.,NA,NA,"",   1.04297E+06,   1.03193E+06,   1.03193E+06
C:/temp/Job-1.odb,Step-1,Increment      1: Step Time =    1.000,"P-1-1",         14596,   84.0826E-03,   42.6954E-03,            0.,NA,NA,"",   1.04214E+06,   1.05848E+06,   1.05848E+06
C:/temp/Job-1.odb,Step-1,Increment      1: Step Time =    1.000,"P-1-1",         14597,   64.2397E-03,   157.592E-03,            0.,NA,NA,"",   1.06455E+06,   1.06870E+06,   1.06870E+06
C:/temp/Job-1.odb,Step-1,Increment      1: Step Time =    1.000,"P-1-1",         14598,   43.6862E-03,   64.3063E-03,            0.,NA,NA,"",   974.488E+03,   1.01036E+06,   1.01036E+06
C:/temp/Job-1.odb,Step-1,Increment      1: Step Time =    1.000,"P-1-1",         14599,   153.370E-03,   92.8258E-03,            0.,NA,NA,"",   912.575E+03,   919.962E+03,   919.962E+03
C:/temp/Job-1.odb,Step-1,Increment      1: Step Time =    1.000,"P-1-1",         14600,   111.252E-03,   157.703E-03,            0.,NA,NA,"",   1.02962E+06,   1.04690E+06,   1.04690E+06
C:/temp/Job-1.odb,Step-1,Increment      1: Step Time =    1.000,"P-1-1",         14601,   102.505E-03,   43.4708E-03,            0.,NA,NA,"",   1.01803E+06,   1.04506E+06,   1.04506E+06
C:/temp/Job-1.odb,Step-1,Increment      1: Step Time =    1.000,"P-1-1",         14602,   96.0779E-03,   156.875E-03,            0.,NA,NA,"",   1.01950E+06,   1.04625E+06,   1.04625E+06
C:/temp/Job-1.odb,Step-1,Increment      1: Step Time =    1.000,"P-1-1",         14603,   156.379E-03,   104.079E-03,            0.,NA,NA,"",   914.462E+03,   924.524E+03,   924.524E+03
C:/temp/Job-1.odb,Step-1,Increment      1: Step Time =    1.000,"P-1-1",         14604,   43.7034E-03,   96.5671E-03,            0.,NA,NA,"",   814.580E+03,   877.255E+03,   877.255E+03
C:/temp/Job-1.odb,Step-1,Increment      1: Step Time =    1.000,"P-1-1",         14605,   73.2216E-03,   156.791E-03,            0.,NA,NA,"",   1.06365E+06,   1.06992E+06,   1.06992E+06
C:/temp/Job-1.odb,Step-1,Increment      1: Step Time =    1.000,"P-1-1",         14606,   42.9966E-03,   73.1948E-03,            0.,NA,NA,"",   929.246E+03,   973.585E+03,   973.585E+03
C:/temp/Job-1.odb,Step-1,Increment      1: Step Time =    1.000,"P-1-1",         14607,   68.3825E-03,   56.8105E-03,            0.,NA,NA,"",   1.09875E+06,   1.09655E+06,   1.09655E+06
C:/temp/Job-1.odb,Step-1,Increment      1: Step Time =    1.000,"P-1-1",         14608,   64.7003E-03,   39.8551E-03,            0.,NA,NA,"",   1.06009E+06,   1.06429E+06,   1.06429E+06
C:/temp/Job-1.odb,Step-1,Increment      1: Step Time =    1.000,"P-1-1",         14609,   160.093E-03,   64.7290E-03,            0.,NA,NA,"",   1.03163E+06,   1.02055E+06,   1.02055E+06
C:/temp/Job-1.odb,Step-1,Increment      1: Step Time =    1.000,"P-1-1",         14610,   107.636E-03,   153.323E-03,            0.,NA,NA,"",   1.02966E+06,   1.05574E+06,   1.05574E+06
C:/temp/Job-1.odb,Step-1,Increment      1: Step Time =    1.000,"P-1-1",         14611,   54.6964E-03,   134.527E-03,            0.,NA,NA,"",   1.02806E+06,   1.04083E+06,   1.04083E+06
C:/temp/Job-1.odb,Step-1,Increment      1: Step Time =    1.000,"P-1-1",         14612,   92.7501E-03,   154.780E-03,            0.,NA,NA,"",   1.02716E+06,   1.05458E+06,   1.05458E+06
C:/temp/Job-1.odb,Step-1,Increment      1: Step Time =    1.000,"P-1-1",         14613,   155.176E-03,   117.744E-03,            0.,NA,NA,"",   974.244E+03,   970.078E+03,   970.078E+03
C:/temp/Job-1.odb,Step-1,Increment      1: Step Time =    1.000,"P-1-1",         14614,   105.808E-03,   57.5089E-03,            0.,NA,NA,"",   1.04564E+06,   1.09074E+06,   1.09074E+06
C:/temp/Job-1.odb,Step-1,Increment      1: Step Time =    1.000,"P-1-1",         14615,   63.2966E-03,   145.020E-03,            0.,NA,NA,"",   1.08159E+06,   1.08274E+06,   1.08274E+06
C:/temp/Job-1.odb,Step-1,Increment      1: Step Time =    1.000,"P-1-1",         14616,   101.897E-03,   153.408E-03,            0.,NA,NA,"",   1.02108E+06,   1.05238E+06,   1.05238E+06
C:/temp/Job-1.odb,Step-1,Increment      1: Step Time =    1.000,"P-1-1",         14617,   42.2989E-03,   61.1954E-03,            0.,NA,NA,"",   979.472E+03,   1.01623E+06,   1.01623E+06
C:/temp/Job-1.odb,Step-1,Increment      1: Step Time =    1.000,"P-1-1",         14618,   60.6064E-03,   158.385E-03,            0.,NA,NA,"",   1.06132E+06,   1.06650E+06,   1.06650E+06
C:/temp/Job-1.odb,Step-1,Increment      1: Step Time =    1.000,"P-1-1",         14619,   156.010E-03,   156.321E-03,            0.,NA,NA,"",   1.04329E+06,   1.03210E+06,   1.03210E+06
C:/temp/Job-1.odb,Step-1,Increment      1: Step Time =    1.000,"P-1-1",         14620,   157.266E-03,   159.390E-03,            0.,NA,NA,"",   1.03786E+06,   1.02823E+06,   1.02823E+06
C:/temp/Job-1.odb,Step-1,Increment      1: Step Time =    1.000,"P-1-1",         14621,   43.1432E-03,   39.8172E-03,            0.,NA,NA,"",   1.03508E+06,   1.05675E+06,   1.05675E+06
C:/temp/Job-1.odb,Step-1,Increment      1: Step Time =    1.000,"P-1-1",         14622,   44.4013E-03,   42.0973E-03,            0.,NA,NA,"",   1.03463E+06,   1.05588E+06,   1.05588E+06
C:/temp/Job-1.odb,Step-1,Increment      1: Step Time =    1.000,"P-1-1",         14623,   155.199E-03,   111.045E-03,            0.,NA,NA,"",   936.877E+03,   940.687E+03,   940.687E+03
C:/temp/Job-1.odb,Step-1,Increment      1: Step Time =    1.000,"P-1-1",         14624,   46.6272E-03,   77.3710E-03,            0.,NA,NA,"",   918.973E+03,   959.891E+03,   959.891E+03
C:/temp/Job-1.odb,Step-1,Increment      1: Step Time =    1.000,"P-1-1",         14625,   125.859E-03,   159.352E-03,            0.,NA,NA,"",   1.05297E+06,   1.05083E+06,   1.05083E+06
C:/temp/Job-1.odb,Step-1,Increment      1: Step Time =    1.000,"P-1-1",         14626,   46.5060E-03,   73.5754E-03,            0.,NA,NA,"",   942.138E+03,   979.390E+03,   979.390E+03
C:/temp/Job-1.odb,Step-1,Increment      1: Step Time =    1.000,"P-1-1",         14627,   41.7222E-03,   125.901E-03,            0.,NA,NA,"",   919.551E+03,   967.258E+03,   967.258E+03
C:/temp/Job-1.odb,Step-1,Increment      1: Step Time =    1.000,"P-1-1",         14628,   153.083E-03,   90.2758E-03,            0.,NA,NA,"",   924.391E+03,   928.857E+03,   928.857E+03
C:/temp/Job-1.odb,Step-1,Increment      1: Step Time =    1.000,"P-1-1",         14629,   151.750E-03,   85.6754E-03,            0.,NA,NA,"",   951.771E+03,   948.986E+03,   948.986E+03
C:/temp/Job-1.odb,Step-1,Increment      1: Step Time =    1.000,"P-1-1",         14630,   156.596E-03,   99.6614E-03,            0.,NA,NA,"",   910.791E+03,   921.880E+03,   921.880E+03
C:/temp/Job-1.odb,Step-1,Increment      1: Step Time =    1.000,"P-1-1",         14631,   87.3934E-03,   159.482E-03,            0.,NA,NA,"",   1.03052E+06,   1.04878E+06,   1.04878E+06
C:/temp/Job-1.odb,Step-1,Increment      1: Step Time =    1.000,"P-1-1",         14632,   160.308E-03,   112.215E-03,            0.,NA,NA,"",   951.228E+03,   956.515E+03,   956.515E+03
C:/temp/Job-1.odb,Step-1,Increment      1: Step Time =    1.000,"P-1-1",         14633,   38.6094E-03,   88.2824E-03,            0.,NA,NA,"",   841.710E+03,   906.227E+03,   906.227E+03
C:/temp/Job-1.odb,Step-1,Increment      1: Step Time =    1.000,"P-1-1",         14634,   132.955E-03,   142.395E-03,            0.,NA,NA,"",   1.11585E+06,   1.09089E+06,   1.09089E+06
C:/temp/Job-1.odb,Step-1,Increment      1: Step Time =    1.000,"P-1-1",         14635,   99.7188E-03,   57.1641E-03,            0.,NA,NA,"",   1.03254E+06,   1.08450E+06,   1.08450E+06
C:/temp/Job-1.odb,Step-1,Increment      1: Step Time =    1.000,"P-1-1",         14636,   137.434E-03,   158.929E-03,            0.,NA,NA,"",   1.05965E+06,   1.04858E+06,   1.04858E+06
C:/temp/Job-1.odb,Step-1,Increment      1: Step Time =    1.000,"P-1-1",         14637,   41.4354E-03,   136.306E-03,            0.,NA,NA,"",   966.738E+03,   1.00670E+06,   1.00670E+06
C:/temp/Job-1.odb,Step-1,Increment      1: Step Time =    1.000,"P-1-1",         14638,   46.9093E-03,   81.3063E-03,            0.,NA,NA,"",   893.277E+03,   938.076E+03,   938.076E+03
C:/temp/Job-1.odb,Step-1,Increment      1: Step Time =    1.000,"P-1-1",         14639,   107.136E-03,   57.5367E-03,            0.,NA,NA,"",   1.05125E+06,   1.09311E+06,   1.09311E+06
C:/temp/Job-1.odb,Step-1,Increment      1: Step Time =    1.000,"P-1-1",         14640,   45.9766E-03,   69.9606E-03,            0.,NA,NA,"",   959.925E+03,   995.031E+03,   995.031E+03
C:/temp/Job-1.odb,Step-1,Increment      1: Step Time =    1.000,"P-1-1",         14641,   48.3930E-03,   68.3863E-03,            0.,NA,NA,"",   979.956E+03,   1.00845E+06,   1.00845E+06
C:/temp/Job-1.odb,Step-1,Increment      1: Step Time =    1.000,"P-1-1",         14642,   46.3051E-03,   83.4428E-03,            0.,NA,NA,"",   877.118E+03,   925.611E+03,   925.611E+03
C:/temp/Job-1.odb,Step-1,Increment      1: Step Time =    1.000,"P-1-1",         14643,   46.1831E-03,   87.4174E-03,            0.,NA,NA,"",   851.194E+03,   904.386E+03,   904.386E+03
C:/temp/Job-1.odb,Step-1,Increment      1: Step Time =    1.000,"P-1-1",         14644,   146.378E-03,   41.3254E-03,            0.,NA,NA,"",   1.05333E+06,   1.04080E+06,   1.04080E+06
C:/temp/Job-1.odb,Step-1,Increment      1: Step Time =    1.000,"P-1-1",         14645,   158.611E-03,   146.107E-03,            0.,NA,NA,"",   1.04460E+06,   1.03194E+06,   1.03194E+06
C:/temp/Job-1.odb,Step-1,Increment      1: Step Time =    1.000,"P-1-1",         14646,   135.258E-03,   142.466E-03,            0.,NA,NA,"",   1.11090E+06,   1.08508E+06,   1.08508E+06
C:/temp/Job-1.odb,Step-1,Increment      1: Step Time =    1.000,"P-1-1",         14647,   111.873E-03,   65.0582E-03,            0.,NA,NA,"",   1.12387E+06,   1.15237E+06,   1.15237E+06
C:/temp/Job-1.odb,Step-1,Increment      1: Step Time =    1.000,"P-1-1",         14648,   78.9934E-03,   154.713E-03,            0.,NA,NA,"",   1.06060E+06,   1.07211E+06,   1.07211E+06
C:/temp/Job-1.odb,Step-1,Increment      1: Step Time =    1.000,"P-1-1",         14649,   127.051E-03,   66.0331E-03,            0.,NA,NA,"",   1.16462E+06,   1.12874E+06,   1.12874E+06
C:/temp/Job-1.odb,Step-1,Increment      1: Step Time =    1.000,"P-1-1",         14650,   132.705E-03,   66.8084E-03,            0.,NA,NA,"",   1.14188E+06,   1.10176E+06,   1.10176E+06
C:/temp/Job-1.odb,Step-1,Increment      1: Step Time =    1.000,"P-1-1",         14651,   69.4366E-03,   146.833E-03,            0.,NA,NA,"",   1.09142E+06,   1.09215E+06,   1.09215E+06
C:/temp/Job-1.odb,Step-1,Increment      1: Step Time =    1.000,"P-1-1",         14652,   156.228E-03,   136.031E-03,            0.,NA,NA,"",   1.04294E+06,   1.02779E+06,   1.02779E+06
C:/temp/Job-1.odb,Step-1,Increment      1: Step Time =    1.000,"P-1-1",         14653,   135.664E-03,   43.7531E-03,            0.,NA,NA,"",   1.06752E+06,   1.05546E+06,   1.05546E+06
C:/temp/Job-1.odb,Step-1,Increment      1: Step Time =    1.000,"P-1-1",         14654,   136.157E-03,   66.3578E-03,            0.,NA,NA,"",   1.12272E+06,   1.08529E+06,   1.08529E+06
C:/temp/Job-1.odb,Step-1,Increment      1: Step Time =    1.000,"P-1-1",         14655,   41.8736E-03,   43.2314E-03,            0.,NA,NA,"",   1.02668E+06,   1.05245E+06,   1.05245E+06
C:/temp/Job-1.odb,Step-1,Increment      1: Step Time =    1.000,"P-1-1",         14656,   158.592E-03,   155.379E-03,            0.,NA,NA,"",   1.04012E+06,   1.02970E+06,   1.02970E+06
C:/temp/Job-1.odb,Step-1,Increment      1: Step Time =    1.000,"P-1-1",         14657,   51.3517E-03,   127.365E-03,            0.,NA,NA,"",   972.857E+03,   997.797E+03,   997.797E+03
C:/temp/Job-1.odb,Step-1,Increment      1: Step Time =    1.000,"P-1-1",         14658,   156.503E-03,   49.3936E-03,            0.,NA,NA,"",   1.04773E+06,   1.03479E+06,   1.03479E+06
C:/temp/Job-1.odb,Step-1,Increment      1: Step Time =    1.000,"P-1-1",         14659,   48.5304E-03,   44.6815E-03,            0.,NA,NA,"",   1.04156E+06,   1.05828E+06,   1.05828E+06
C:/temp/Job-1.odb,Step-1,Increment      1: Step Time =    1.000,"P-1-1",         14660,   151.432E-03,   154.766E-03,            0.,NA,NA,"",   1.05320E+06,   1.03956E+06,   1.03956E+06
C:/temp/Job-1.odb,Step-1,Increment      1: Step Time =    1.000,"P-1-1",         14661,   44.6510E-03,   151.759E-03,            0.,NA,NA,"",   1.02510E+06,   1.04953E+06,   1.04953E+06
C:/temp/Job-1.odb,Step-1,Increment      1: Step Time =    1.000,"P-1-1",         14662,   134.132E-03,   145.611E-03,            0.,NA,NA,"",   1.10295E+06,   1.08161E+06,   1.08161E+06
C:/temp/Job-1.odb,Step-1,Increment      1: Step Time =    1.000,"P-1-1",         14663,   82.7078E-03,   155.860E-03,            0.,NA,NA,"",   1.04881E+06,   1.06441E+06,   1.06441E+06
C:/temp/Job-1.odb,Step-1,Increment      1: Step Time =    1.000,"P-1-1",         14664,   43.8058E-03,   81.0761E-03,            0.,NA,NA,"",   886.312E+03,   936.618E+03,   936.618E+03
C:/temp/Job-1.odb,Step-1,Increment      1: Step Time =    1.000,"P-1-1",         14665,   47.2072E-03,   114.950E-03,            0.,NA,NA,"",   867.554E+03,   916.282E+03,   916.282E+03
C:/temp/Job-1.odb,Step-1,Increment      1: Step Time =    1.000,"P-1-1",         14666,   41.1010E-03,   117.646E-03,            0.,NA,NA,"",   872.631E+03,   928.991E+03,   928.991E+03
C:/temp/Job-1.odb,Step-1,Increment      1: Step Time =    1.000,"P-1-1",         14667,   110.973E-03,   43.4127E-03,            0.,NA,NA,"",   1.03100E+06,   1.04950E+06,   1.04950E+06
C:/temp/Job-1.odb,Step-1,Increment      1: Step Time =    1.000,"P-1-1",         14668,   107.287E-03,   160.047E-03,            0.,NA,NA,"",   1.01875E+06,   1.03828E+06,   1.03828E+06
C:/temp/Job-1.odb,Step-1,Increment      1: Step Time =    1.000,"P-1-1",         14669,   40.0650E-03,   107.146E-03,            0.,NA,NA,"",   826.604E+03,   891.838E+03,   891.838E+03
C:/temp/Job-1.odb,Step-1,Increment      1: Step Time =    1.000,"P-1-1",         14670,   159.161E-03,   85.4975E-03,            0.,NA,NA,"",   959.510E+03,   962.093E+03,   962.093E+03
C:/temp/Job-1.odb,Step-1,Increment      1: Step Time =    1.000,"P-1-1",         14671,   65.7201E-03,   56.3844E-03,            0.,NA,NA,"",   1.09038E+06,   1.08939E+06,   1.08939E+06
C:/temp/Job-1.odb,Step-1,Increment      1: Step Time =    1.000,"P-1-1",         14672,   141.748E-03,   43.7454E-03,            0.,NA,NA,"",   1.06363E+06,   1.04969E+06,   1.04969E+06
C:/temp/Job-1.odb,Step-1,Increment      1: Step Time =    1.000,"P-1-1",         14673,   157.330E-03,   141.578E-03,            0.,NA,NA,"",   1.04635E+06,   1.03210E+06,   1.03210E+06
C:/temp/Job-1.odb,Step-1,Increment      1: Step Time =    1.000,"P-1-1",         14674,   44.8950E-03,   92.7924E-03,            0.,NA,NA,"",   823.746E+03,   883.159E+03,   883.159E+03
C:/temp/Job-1.odb,Step-1,Increment      1: Step Time =    1.000,"P-1-1",         14675,   41.5547E-03,   156.172E-03,            0.,NA,NA,"",   1.02433E+06,   1.05120E+06,   1.05120E+06
C:/temp/Job-1.odb,Step-1,Increment      1: Step Time =    1.000,"P-1-1",         14676,   136.688E-03,   44.0260E-03,            0.,NA,NA,"",   1.06774E+06,   1.05510E+06,   1.05510E+06
C:/temp/Job-1.odb,Step-1,Increment      1: Step Time =    1.000,"P-1-1",         14677,   154.927E-03,   137.644E-03,            0.,NA,NA,"",   1.04902E+06,   1.03246E+06,   1.03246E+06
C:/temp/Job-1.odb,Step-1,Increment      1: Step Time =    1.000,"P-1-1",         14678,   46.6681E-03,   90.4067E-03,            0.,NA,NA,"",   832.749E+03,   888.130E+03,   888.130E+03
C:/temp/Job-1.odb,Step-1,Increment      1: Step Time =    1.000,"P-1-1",         14679,   62.4978E-03,   57.1408E-03,            0.,NA,NA,"",   1.08063E+06,   1.08145E+06,   1.08145E+06
C:/temp/Job-1.odb,Step-1,Increment      1: Step Time =    1.000,"P-1-1",         14680,   110.063E-03,   154.717E-03,            0.,NA,NA,"",   1.03276E+06,   1.05413E+06,   1.05413E+06
C:/temp/Job-1.odb,Step-1,Increment      1: Step Time =    1.000,"P-1-1",         14681,   158.347E-03,   44.5246E-03,            0.,NA,NA,"",   1.04029E+06,   1.02984E+06,   1.02984E+06
C:/temp/Job-1.odb,Step-1,Increment      1: Step Time =    1.000,"P-1-1",         14682,   114.574E-03,   44.3506E-03,            0.,NA,NA,"",   1.04192E+06,   1.05570E+06,   1.05570E+06
C:/temp/Job-1.odb,Step-1,Increment      1: Step Time =    1.000,"P-1-1",         14683,   96.2787E-03,   53.7844E-03,            0.,NA,NA,"",   1.03184E+06,   1.07532E+06,   1.07532E+06
C:/temp/Job-1.odb,Step-1,Increment      1: Step Time =    1.000,"P-1-1",         14684,   67.5983E-03,   41.6343E-03,            0.,NA,NA,"",   1.06327E+06,   1.06751E+06,   1.06751E+06
C:/temp/Job-1.odb,Step-1,Increment      1: Step Time =    1.000,"P-1-1",         14685,   158.953E-03,   67.5498E-03,            0.,NA,NA,"",   1.02827E+06,   1.01693E+06,   1.01693E+06
C:/temp/Job-1.odb,Step-1,Increment      1: Step Time =    1.000,"P-1-1",         14686,   84.6481E-03,   40.7529E-03,            0.,NA,NA,"",   1.03707E+06,   1.05305E+06,   1.05305E+06
C:/temp/Job-1.odb,Step-1,Increment      1: Step Time =    1.000,"P-1-1",         14687,   73.0752E-03,   57.1761E-03,            0.,NA,NA,"",   1.10757E+06,   1.10687E+06,   1.10687E+06
C:/temp/Job-1.odb,Step-1,Increment      1: Step Time =    1.000,"P-1-1",         14688,   131.903E-03,   42.8258E-03,            0.,NA,NA,"",   1.06476E+06,   1.05589E+06,   1.05589E+06
C:/temp/Job-1.odb,Step-1,Increment      1: Step Time =    1.000,"P-1-1",         14689,   155.616E-03,   46.4780E-03,            0.,NA,NA,"",   1.04695E+06,   1.03456E+06,   1.03456E+06
C:/temp/Job-1.odb,Step-1,Increment      1: Step Time =    1.000,"P-1-1",         14690,   46.5420E-03,   44.8175E-03,            0.,NA,NA,"",   1.03607E+06,   1.05582E+06,   1.05582E+06
C:/temp/Job-1.odb,Step-1,Increment      1: Step Time =    1.000,"P-1-1",         14691,   44.3239E-03,   154.122E-03,            0.,NA,NA,"",   1.02837E+06,   1.05200E+06,   1.05200E+06
C:/temp/Job-1.odb,Step-1,Increment      1: Step Time =    1.000,"P-1-1",         14692,   109.047E-03,   69.4742E-03,            0.,NA,NA,"",   1.14277E+06,   1.19132E+06,   1.19132E+06
C:/temp/Job-1.odb,Step-1,Increment      1: Step Time =    1.000,"P-1-1",         14693,   158.797E-03,   126.266E-03,            0.,NA,NA,"",   1.00999E+06,   1.00171E+06,   1.00171E+06
C:/temp/Job-1.odb,Step-1,Increment      1: Step Time =    1.000,"P-1-1",         14694,   125.570E-03,   41.9553E-03,            0.,NA,NA,"",   1.05663E+06,   1.05445E+06,   1.05445E+06
C:/temp/Job-1.odb,Step-1,Increment      1: Step Time =    1.000,"P-1-1",         14695,   43.6454E-03,   79.6824E-03,            0.,NA,NA,"",   894.349E+03,   943.641E+03,   943.641E+03
C:/temp/Job-1.odb,Step-1,Increment      1: Step Time =    1.000,"P-1-1",         14696,   109.300E-03,   63.3052E-03,            0.,NA,NA,"",   1.09086E+06,   1.13263E+06,   1.13263E+06
C:/temp/Job-1.odb,Step-1,Increment      1: Step Time =    1.000,"P-1-1",         14697,   75.3945E-03,   60.7912E-03,            0.,NA,NA,"",   1.12514E+06,   1.12224E+06,   1.12224E+06
C:/temp/Job-1.odb,Step-1,Increment      1: Step Time =    1.000,"P-1-1",         14698,   156.796E-03,   71.8907E-03,            0.,NA,NA,"",   1.02075E+06,   1.00910E+06,   1.00910E+06
C:/temp/Job-1.odb,Step-1,Increment      1: Step Time =    1.000,"P-1-1",         14699,   70.6859E-03,   42.2713E-03,            0.,NA,NA,"",   1.06319E+06,   1.06826E+06,   1.06826E+06
C:/temp/Job-1.odb,Step-1,Increment      1: Step Time =    1.000,"P-1-1",         14700,   76.4245E-03,   156.059E-03,            0.,NA,NA,"",   1.06143E+06,   1.07007E+06,   1.07007E+06
C:/temp/Job-1.odb,Step-1,Increment      1: Step Time =    1.000,"P-1-1",         14701,   84.9934E-03,   154.941E-03,            0.,NA,NA,"",   1.04545E+06,   1.06435E+06,   1.06435E+06
C:/temp/Job-1.odb,Step-1,Increment      1: Step Time =    1.000,"P-1-1",         14702,   43.2352E-03,   84.2761E-03,            0.,NA,NA,"",   866.064E+03,   920.812E+03,   920.812E+03
C:/temp/Job-1.odb,Step-1,Increment      1: Step Time =    1.000,"P-1-1",         14703,   68.1418E-03,   146.041E-03,            0.,NA,NA,"",   1.09133E+06,   1.09142E+06,   1.09142E+06
C:/temp/Job-1.odb,Step-1,Increment      1: Step Time =    1.000,"P-1-1",         14704,   85.5251E-03,   54.4817E-03,            0.,NA,NA,"",   1.07281E+06,   1.09659E+06,   1.09659E+06
C:/temp/Job-1.odb,Step-1,Increment      1: Step Time =    1.000,"P-1-1",         14705,   71.5111E-03,   56.6480E-03,            0.,NA,NA,"",   1.10425E+06,   1.10294E+06,   1.10294E+06
C:/temp/Job-1.odb,Step-1,Increment      1: Step Time =    1.000,"P-1-1",         14706,   158.122E-03,   62.8998E-03,            0.,NA,NA,"",   1.03963E+06,   1.02624E+06,   1.02624E+06
C:/temp/Job-1.odb,Step-1,Increment      1: Step Time =    1.000,"P-1-1",         14707,   63.9142E-03,   40.1180E-03,            0.,NA,NA,"",   1.06051E+06,   1.06475E+06,   1.06475E+06
C:/temp/Job-1.odb,Step-1,Increment      1: Step Time =    1.000,"P-1-1",         14708,   95.3616E-03,   40.8918E-03,            0.,NA,NA,"",   1.01737E+06,   1.04127E+06,   1.04127E+06
C:/temp/Job-1.odb,Step-1,Increment      1: Step Time =    1.000,"P-1-1",         14709,   159.279E-03,   134.388E-03,            0.,NA,NA,"",   1.03183E+06,   1.02024E+06,   1.02024E+06
C:/temp/Job-1.odb,Step-1,Increment      1: Step Time =    1.000,"P-1-1",         14710,   135.751E-03,   41.0059E-03,            0.,NA,NA,"",   1.05950E+06,   1.04929E+06,   1.04929E+06
C:/temp/Job-1.odb,Step-1,Increment      1: Step Time =    1.000,"P-1-1",         14711,   104.588E-03,   158.720E-03,            0.,NA,NA,"",   1.01735E+06,   1.04032E+06,   1.04032E+06
C:/temp/Job-1.odb,Step-1,Increment      1: Step Time =    1.000,"P-1-1",         14712,   40.8651E-03,   104.106E-03,            0.,NA,NA,"",   818.654E+03,   884.226E+03,   884.226E+03
C:/temp/Job-1.odb,Step-1,Increment      1: Step Time =    1.000,"P-1-1",         14713,   65.9733E-03,   146.906E-03,            0.,NA,NA,"",   1.08549E+06,   1.08636E+06,   1.08636E+06
C:/temp/Job-1.odb,Step-1,Increment      1: Step Time =    1.000,"P-1-1",         14714,   43.3431E-03,   89.3423E-03,            0.,NA,NA,"",   839.382E+03,   898.384E+03,   898.384E+03
C:/temp/Job-1.odb,Step-1,Increment      1: Step Time =    1.000,"P-1-1",         14715,   56.8231E-03,   158.512E-03,            0.,NA,NA,"",   1.05729E+06,   1.06462E+06,   1.06462E+06
C:/temp/Job-1.odb,Step-1,Increment      1: Step Time =    1.000,"P-1-1",         14716,   42.5295E-03,   57.9893E-03,            0.,NA,NA,"",   991.829E+03,   1.02592E+06,   1.02592E+06
C:/temp/Job-1.odb,Step-1,Increment      1: Step Time =    1.000,"P-1-1",         14717,   45.2078E-03,   95.2870E-03,            0.,NA,NA,"",   815.028E+03,   875.577E+03,   875.577E+03
C:/temp/Job-1.odb,Step-1,Increment      1: Step Time =    1.000,"P-1-1",         14718,   97.7620E-03,   40.2073E-03,            0.,NA,NA,"",   1.01471E+06,   1.03815E+06,   1.03815E+06
C:/temp/Job-1.odb,Step-1,Increment      1: Step Time =    1.000,"P-1-1",         14719,   45.3637E-03,   158.446E-03,            0.,NA,NA,"",   1.03761E+06,   1.05711E+06,   1.05711E+06
C:/temp/Job-1.odb,Step-1,Increment      1: Step Time =    1.000,"P-1-1",         14720,   101.415E-03,   159.283E-03,            0.,NA,NA,"",   1.01478E+06,   1.03867E+06,   1.03867E+06
C:/temp/Job-1.odb,Step-1,Increment      1: Step Time =    1.000,"P-1-1",         14721,   130.260E-03,   69.7790E-03,            0.,NA,NA,"",   1.16061E+06,   1.11397E+06,   1.11397E+06
C:/temp/Job-1.odb,Step-1,Increment      1: Step Time =    1.000,"P-1-1",         14722,   41.0296E-03,   101.304E-03,            0.,NA,NA,"",   815.401E+03,   881.237E+03,   881.237E+03
C:/temp/Job-1.odb,Step-1,Increment      1: Step Time =    1.000,"P-1-1",         14723,   82.3218E-03,   54.8702E-03,            0.,NA,NA,"",   1.08535E+06,   1.10186E+06,   1.10186E+06
C:/temp/Job-1.odb,Step-1,Increment      1: Step Time =    1.000,"P-1-1",         14724,   127.946E-03,   149.563E-03,            0.,NA,NA,"",   1.09030E+06,   1.07950E+06,   1.07950E+06
C:/temp/Job-1.odb,Step-1,Increment      1: Step Time =    1.000,"P-1-1",         14725,   88.2388E-03,   53.4585E-03,            0.,NA,NA,"",   1.05812E+06,   1.08763E+06,   1.08763E+06
C:/temp/Job-1.odb,Step-1,Increment      1: Step Time =    1.000,"P-1-1",         14726,   110.834E-03,   72.6678E-03,            0.,NA,NA,"",   1.20566E+06,   1.23694E+06,   1.23694E+06
C:/temp/Job-1.odb,Step-1,Increment      1: Step Time =    1.000,"P-1-1",         14727,   87.0729E-03,   43.9324E-03,            0.,NA,NA,"",   1.03775E+06,   1.05823E+06,   1.05823E+06
C:/temp/Job-1.odb,Step-1,Increment      1: Step Time =    1.000,"P-1-1",         14728,   150.228E-03,   129.308E-03,            0.,NA,NA,"",   1.04451E+06,   1.02383E+06,   1.02383E+06
C:/temp/Job-1.odb,Step-1,Increment      1: Step Time =    1.000,"P-1-1",         14729,   91.1608E-03,   54.7580E-03,            0.,NA,NA,"",   1.05005E+06,   1.08720E+06,   1.08720E+06
C:/temp/Job-1.odb,Step-1,Increment      1: Step Time =    1.000,"P-1-1",         14730,   74.4578E-03,   60.0990E-03,            0.,NA,NA,"",   1.12100E+06,   1.11802E+06,   1.11802E+06
C:/temp/Job-1.odb,Step-1,Increment      1: Step Time =    1.000,"P-1-1",         14731,   145.810E-03,   155.588E-03,            0.,NA,NA,"",   1.06062E+06,   1.04611E+06,   1.04611E+06
C:/temp/Job-1.odb,Step-1,Increment      1: Step Time =    1.000,"P-1-1",         14732,   44.0423E-03,   144.933E-03,            0.,NA,NA,"",   1.00708E+06,   1.03650E+06,   1.03650E+06
C:/temp/Job-1.odb,Step-1,Increment      1: Step Time =    1.000,"P-1-1",         14733,   51.5825E-03,   124.443E-03,            0.,NA,NA,"",   954.311E+03,   981.726E+03,   981.726E+03
C:/temp/Job-1.odb,Step-1,Increment      1: Step Time =    1.000,"P-1-1",         14734,   43.2685E-03,   120.238E-03,            0.,NA,NA,"",   892.598E+03,   942.774E+03,   942.774E+03
C:/temp/Job-1.odb,Step-1,Increment      1: Step Time =    1.000,"P-1-1",         14735,   67.3057E-03,   158.457E-03,            0.,NA,NA,"",   1.06310E+06,   1.06732E+06,   1.06732E+06
C:/temp/Job-1.odb,Step-1,Increment      1: Step Time =    1.000,"P-1-1",         14736,   43.3414E-03,   67.4897E-03,            0.,NA,NA,"",   959.065E+03,   998.005E+03,   998.005E+03
C:/temp/Job-1.odb,Step-1,Increment      1: Step Time =    1.000,"P-1-1",         14737,   44.8145E-03,   106.521E-03,            0.,NA,NA,"",   821.169E+03,   881.267E+03,   881.267E+03
C:/temp/Job-1.odb,Step-1,Increment      1: Step Time =    1.000,"P-1-1",         14738,   156.193E-03,   80.2578E-03,            0.,NA,NA,"",   984.621E+03,   979.228E+03,   979.228E+03
C:/temp/Job-1.odb,Step-1,Increment      1: Step Time =    1.000,"P-1-1",         14739,   81.1429E-03,   42.9213E-03,            0.,NA,NA,"",   1.04927E+06,   1.06252E+06,   1.06252E+06
C:/temp/Job-1.odb,Step-1,Increment      1: Step Time =    1.000,"P-1-1",         14740,   118.986E-03,   152.124E-03,            0.,NA,NA,"",   1.06422E+06,   1.07062E+06,   1.07062E+06
C:/temp/Job-1.odb,Step-1,Increment      1: Step Time =    1.000,"P-1-1",         14741,   119.580E-03,   42.7741E-03,            0.,NA,NA,"",   1.04896E+06,   1.05474E+06,   1.05474E+06
C:/temp/Job-1.odb,Step-1,Increment      1: Step Time =    1.000,"P-1-1",         14742,   44.4338E-03,   110.261E-03,            0.,NA,NA,"",   837.331E+03,   895.208E+03,   895.208E+03
C:/temp/Job-1.odb,Step-1,Increment      1: Step Time =    1.000,"P-1-1",         14743,   157.899E-03,   75.1402E-03,            0.,NA,NA,"",   1.00644E+06,   998.148E+03,   998.148E+03
C:/temp/Job-1.odb,Step-1,Increment      1: Step Time =    1.000,"P-1-1",         14744,   73.9346E-03,   42.5372E-03,            0.,NA,NA,"",   1.06121E+06,   1.06791E+06,   1.06791E+06
C:/temp/Job-1.odb,Step-1,Increment      1: Step Time =    1.000,"P-1-1",         14745,   47.6506E-03,   120.033E-03,            0.,NA,NA,"",   905.875E+03,   947.523E+03,   947.523E+03
C:/temp/Job-1.odb,Step-1,Increment      1: Step Time =    1.000,"P-1-1",         14746,   148.474E-03,   77.5258E-03,            0.,NA,NA,"",   1.01432E+06,   996.174E+03,   996.174E+03
C:/temp/Job-1.odb,Step-1,Increment      1: Step Time =    1.000,"P-1-1",         14747,   45.2171E-03,   96.6926E-03,            0.,NA,NA,"",   811.670E+03,   872.800E+03,   872.800E+03
C:/temp/Job-1.odb,Step-1,Increment      1: Step Time =    1.000,"P-1-1",         14748,   41.6054E-03,   124.561E-03,            0.,NA,NA,"",   911.849E+03,   960.958E+03,   960.958E+03
C:/temp/Job-1.odb,Step-1,Increment      1: Step Time =    1.000,"P-1-1",         14749,   106.175E-03,   42.3265E-03,            0.,NA,NA,"",   1.02044E+06,   1.04327E+06,   1.04327E+06
C:/temp/Job-1.odb,Step-1,Increment      1: Step Time =    1.000,"P-1-1",         14750,   147.949E-03,   76.3868E-03,            0.,NA,NA,"",   1.02356E+06,   1.00338E+06,   1.00338E+06
C:/temp/Job-1.odb,Step-1,Increment      1: Step Time =    1.000,"P-1-1",         14751,   100.059E-03,   155.529E-03,            0.,NA,NA,"",   1.01855E+06,   1.04749E+06,   1.04749E+06
C:/temp/Job-1.odb,Step-1,Increment      1: Step Time =    1.000,"P-1-1",         14752,   123.353E-03,   43.5423E-03,            0.,NA,NA,"",   1.05856E+06,   1.05859E+06,   1.05859E+06
C:/temp/Job-1.odb,Step-1,Increment      1: Step Time =    1.000,"P-1-1",         14753,   43.2652E-03,   71.0921E-03,            0.,NA,NA,"",   941.095E+03,   983.073E+03,   983.073E+03
C:/temp/Job-1.odb,Step-1,Increment      1: Step Time =    1.000,"P-1-1",         14754,   69.6648E-03,   157.880E-03,            0.,NA,NA,"",   1.06374E+06,   1.06843E+06,   1.06843E+06
C:/temp/Job-1.odb,Step-1,Increment      1: Step Time =    1.000,"P-1-1",         14755,   156.472E-03,   128.791E-03,            0.,NA,NA,"",   1.02404E+06,   1.01155E+06,   1.01155E+06
C:/temp/Job-1.odb,Step-1,Increment      1: Step Time =    1.000,"P-1-1",         14756,   129.443E-03,   43.5592E-03,            0.,NA,NA,"",   1.06579E+06,   1.05869E+06,   1.05869E+06
C:/temp/Job-1.odb,Step-1,Increment      1: Step Time =    1.000,"P-1-1",         14757,   52.4514E-03,   121.876E-03,            0.,NA,NA,"",   938.627E+03,   967.022E+03,   967.022E+03
C:/temp/Job-1.odb,Step-1,Increment      1: Step Time =    1.000,"P-1-1",         14758,   101.016E-03,   40.9808E-03,            0.,NA,NA,"",   1.01495E+06,   1.03915E+06,   1.03915E+06
C:/temp/Job-1.odb,Step-1,Increment      1: Step Time =    1.000,"P-1-1",         14759,   156.713E-03,   92.0214E-03,            0.,NA,NA,"",   927.253E+03,   934.743E+03,   934.743E+03
C:/temp/Job-1.odb,Step-1,Increment      1: Step Time =    1.000,"P-1-1",         14760,   158.526E-03,   102.080E-03,            0.,NA,NA,"",   919.285E+03,   930.296E+03,   930.296E+03
C:/temp/Job-1.odb,Step-1,Increment      1: Step Time =    1.000,"P-1-1",         14761,   98.2982E-03,   159.171E-03,            0.,NA,NA,"",   1.01528E+06,   1.03969E+06,   1.03969E+06
C:/temp/Job-1.odb,Step-1,Increment      1: Step Time =    1.000,"P-1-1",         14762,   41.2259E-03,   97.6242E-03,            0.,NA,NA,"",   816.130E+03,   881.649E+03,   881.649E+03
C:/temp/Job-1.odb,Step-1,Increment      1: Step Time =    1.000,"P-1-1",         14763,   155.917E-03,   95.1067E-03,            0.,NA,NA,"",   914.464E+03,   924.079E+03,   924.079E+03
C:/temp/Job-1.odb,Step-1,Increment      1: Step Time =    1.000,"P-1-1",         14764,   56.5050E-03,   61.0157E-03,            0.,NA,NA,"",   1.05031E+06,   1.05865E+06,   1.05865E+06
C:/temp/Job-1.odb,Step-1,Increment      1: Step Time =    1.000,"P-1-1",         14765,   119.349E-03,   157.069E-03,            0.,NA,NA,"",   1.04896E+06,   1.05496E+06,   1.05496E+06
C:/temp/Job-1.odb,Step-1,Increment      1: Step Time =    1.000,"P-1-1",         14766,   41.8183E-03,   63.3701E-03,            0.,NA,NA,"",   969.527E+03,   1.00865E+06,   1.00865E+06
C:/temp/Job-1.odb,Step-1,Increment      1: Step Time =    1.000,"P-1-1",         14767,   63.4816E-03,   159.443E-03,            0.,NA,NA,"",   1.06119E+06,   1.06551E+06,   1.06551E+06
C:/temp/Job-1.odb,Step-1,Increment      1: Step Time =    1.000,"P-1-1",         14768,   44.0672E-03,   139.313E-03,            0.,NA,NA,"",   989.728E+03,   1.02238E+06,   1.02238E+06
C:/temp/Job-1.odb,Step-1,Increment      1: Step Time =    1.000,"P-1-1",         14769,   140.309E-03,   156.725E-03,            0.,NA,NA,"",   1.06359E+06,   1.05024E+06,   1.05024E+06
C:/temp/Job-1.odb,Step-1,Increment      1: Step Time =    1.000,"P-1-1",         14770,   156.517E-03,   96.4320E-03,            0.,NA,NA,"",   913.586E+03,   923.933E+03,   923.933E+03
C:/temp/Job-1.odb,Step-1,Increment      1: Step Time =    1.000,"P-1-1",         14771,   45.1564E-03,   112.355E-03,            0.,NA,NA,"",   848.824E+03,   903.747E+03,   903.747E+03
C:/temp/Job-1.odb,Step-1,Increment      1: Step Time =    1.000,"P-1-1",         14772,   44.8768E-03,   99.5472E-03,            0.,NA,NA,"",   809.149E+03,   871.169E+03,   871.169E+03
C:/temp/Job-1.odb,Step-1,Increment      1: Step Time =    1.000,"P-1-1",         14773,   150.606E-03,   80.9410E-03,            0.,NA,NA,"",   985.792E+03,   974.902E+03,   974.902E+03
C:/temp/Job-1.odb,Step-1,Increment      1: Step Time =    1.000,"P-1-1",         14774,   156.533E-03,   83.0667E-03,            0.,NA,NA,"",   970.295E+03,   968.220E+03,   968.220E+03
C:/temp/Job-1.odb,Step-1,Increment      1: Step Time =    1.000,"P-1-1",         14775,   156.207E-03,   89.9162E-03,            0.,NA,NA,"",   934.141E+03,   939.606E+03,   939.606E+03
C:/temp/Job-1.odb,Step-1,Increment      1: Step Time =    1.000,"P-1-1",         14776,   156.063E-03,   61.4203E-03,            0.,NA,NA,"",   1.04735E+06,   1.03180E+06,   1.03180E+06
C:/temp/Job-1.odb,Step-1,Increment      1: Step Time =    1.000,"P-1-1",         14777,   61.6056E-03,   43.2420E-03,            0.,NA,NA,"",   1.06418E+06,   1.06897E+06,   1.06897E+06
C:/temp/Job-1.odb,Step-1,Increment      1: Step Time =    1.000,"P-1-1",         14778,   52.3898E-03,   132.005E-03,            0.,NA,NA,"",   1.00401E+06,   1.02304E+06,   1.02304E+06
C:/temp/Job-1.odb,Step-1,Increment      1: Step Time =    1.000,"P-1-1",         14779,   142.818E-03,   157.193E-03,            0.,NA,NA,"",   1.06031E+06,   1.04691E+06,   1.04691E+06
C:/temp/Job-1.odb,Step-1,Increment      1: Step Time =    1.000,"P-1-1",         14780,   56.7290E-03,   135.242E-03,            0.,NA,NA,"",   1.04227E+06,   1.05058E+06,   1.05058E+06
C:/temp/Job-1.odb,Step-1,Increment      1: Step Time =    1.000,"P-1-1",         14781,   53.7890E-03,   157.531E-03,            0.,NA,NA,"",   1.05334E+06,   1.06332E+06,   1.06332E+06
C:/temp/Job-1.odb,Step-1,Increment      1: Step Time =    1.000,"P-1-1",         14782,   132.268E-03,   147.431E-03,            0.,NA,NA,"",   1.09834E+06,   1.08061E+06,   1.08061E+06
C:/temp/Job-1.odb,Step-1,Increment      1: Step Time =    1.000,"P-1-1",         14783,   43.6298E-03,   54.8341E-03,            0.,NA,NA,"",   1.00604E+06,   1.03608E+06,   1.03608E+06
C:/temp/Job-1.odb,Step-1,Increment      1: Step Time =    1.000,"P-1-1",         14784,   47.9662E-03,   156.284E-03,            0.,NA,NA,"",   1.04096E+06,   1.05811E+06,   1.05811E+06
C:/temp/Job-1.odb,Step-1,Increment      1: Step Time =    1.000,"P-1-1",         14785,   99.1618E-03,   157.314E-03,            0.,NA,NA,"",   1.01690E+06,   1.04365E+06,   1.04365E+06
C:/temp/Job-1.odb,Step-1,Increment      1: Step Time =    1.000,"P-1-1",         14786,   43.0279E-03,   47.4024E-03,            0.,NA,NA,"",   1.02139E+06,   1.04816E+06,   1.04816E+06
C:/temp/Job-1.odb,Step-1,Increment      1: Step Time =    1.000,"P-1-1",         14787,   109.004E-03,   61.1327E-03,            0.,NA,NA,"",   1.07597E+06,   1.11651E+06,   1.11651E+06
C:/temp/Job-1.odb,Step-1,Increment      1: Step Time =    1.000,"P-1-1",         14788,   157.345E-03,   153.081E-03,            0.,NA,NA,"",   1.04440E+06,   1.03264E+06,   1.03264E+06
C:/temp/Job-1.odb,Step-1,Increment      1: Step Time =    1.000,"P-1-1",         14789,   152.379E-03,   42.8996E-03,            0.,NA,NA,"",   1.04813E+06,   1.03593E+06,   1.03593E+06
C:/temp/Job-1.odb,Step-1,Increment      1: Step Time =    1.000,"P-1-1",         14790,   149.249E-03,   129.766E-03,            0.,NA,NA,"",   1.04979E+06,   1.02763E+06,   1.02763E+06
C:/temp/Job-1.odb,Step-1,Increment      1: Step Time =    1.000,"P-1-1",         14791,   77.7305E-03,   156.255E-03,            0.,NA,NA,"",   1.05877E+06,   1.06867E+06,   1.06867E+06
C:/temp/Job-1.odb,Step-1,Increment      1: Step Time =    1.000,"P-1-1",         14792,   42.8006E-03,   76.6378E-03,            0.,NA,NA,"",   909.228E+03,   957.193E+03,   957.193E+03
C:/temp/Job-1.odb,Step-1,Increment      1: Step Time =    1.000,"P-1-1",         14793,   112.932E-03,   154.294E-03,            0.,NA,NA,"",   1.04099E+06,   1.05819E+06,   1.05819E+06
C:/temp/Job-1.odb,Step-1,Increment      1: Step Time =    1.000,"P-1-1",         14794,   159.013E-03,   148.048E-03,            0.,NA,NA,"",   1.04358E+06,   1.03151E+06,   1.03151E+06
C:/temp/Job-1.odb,Step-1,Increment      1: Step Time =    1.000,"P-1-1",         14795,   148.516E-03,   41.3521E-03,            0.,NA,NA,"",   1.05127E+06,   1.03888E+06,   1.03888E+06
C:/temp/Job-1.odb,Step-1,Increment      1: Step Time =    1.000,"P-1-1",         14796,   132.509E-03,   156.843E-03,            0.,NA,NA,"",   1.06612E+06,   1.05647E+06,   1.05647E+06
C:/temp/Job-1.odb,Step-1,Increment      1: Step Time =    1.000,"P-1-1",         14797,   91.5578E-03,   43.9016E-03,            0.,NA,NA,"",   1.02741E+06,   1.05252E+06,   1.05252E+06
C:/temp/Job-1.odb,Step-1,Increment      1: Step Time =    1.000,"P-1-1",         14798,   47.0919E-03,   103.076E-03,            0.,NA,NA,"",   807.257E+03,   866.545E+03,   866.545E+03
C:/temp/Job-1.odb,Step-1,Increment      1: Step Time =    1.000,"P-1-1",         14799,   74.1790E-03,   157.869E-03,            0.,NA,NA,"",   1.05984E+06,   1.06681E+06,   1.06681E+06
C:/temp/Job-1.odb,Step-1,Increment      1: Step Time =    1.000,"P-1-1",         14800,   41.6746E-03,   73.6540E-03,            0.,NA,NA,"",   921.346E+03,   968.849E+03,   968.849E+03
C:/temp/Job-1.odb,Step-1,Increment      1: Step Time =    1.000,"P-1-1",         14801,   116.145E-03,   151.163E-03,            0.,NA,NA,"",   1.05945E+06,   1.07165E+06,   1.07165E+06
C:/temp/Job-1.odb,Step-1,Increment      1: Step Time =    1.000,"P-1-1",         14802,   57.8313E-03,   139.277E-03,            0.,NA,NA,"",   1.05778E+06,   1.06378E+06,   1.06378E+06
C:/temp/Job-1.odb,Step-1,Increment      1: Step Time =    1.000,"P-1-1",         14803,   128.356E-03,   148.328E-03,            0.,NA,NA,"",   1.09544E+06,   1.08291E+06,   1.08291E+06
C:/temp/Job-1.odb,Step-1,Increment      1: Step Time =    1.000,"P-1-1",         14804,   68.0752E-03,   149.747E-03,            0.,NA,NA,"",   1.08277E+06,   1.08488E+06,   1.08488E+06
C:/temp/Job-1.odb,Step-1,Increment      1: Step Time =    1.000,"P-1-1",         14805,   57.2737E-03,   136.534E-03,            0.,NA,NA,"",   1.04915E+06,   1.05619E+06,   1.05619E+06
C:/temp/Job-1.odb,Step-1,Increment      1: Step Time =    1.000,"P-1-1",         14806,   157.464E-03,   86.5428E-03,            0.,NA,NA,"",   952.713E+03,   955.245E+03,   955.245E+03
C:/temp/Job-1.odb,Step-1,Increment      1: Step Time =    1.000,"P-1-1",         14807,   74.8872E-03,   57.3539E-03,            0.,NA,NA,"",   1.10936E+06,   1.11029E+06,   1.11029E+06
C:/temp/Job-1.odb,Step-1,Increment      1: Step Time =    1.000,"P-1-1",         14808,   138.468E-03,   144.336E-03,            0.,NA,NA,"",   1.09851E+06,   1.07444E+06,   1.07444E+06
C:/temp/Job-1.odb,Step-1,Increment      1: Step Time =    1.000,"P-1-1",         14809,   51.4643E-03,   66.3407E-03,            0.,NA,NA,"",   1.00661E+06,   1.02662E+06,   1.02662E+06
C:/temp/Job-1.odb,Step-1,Increment      1: Step Time =    1.000,"P-1-1",         14810,   105.870E-03,   152.846E-03,            0.,NA,NA,"",   1.02683E+06,   1.05567E+06,   1.05567E+06
C:/temp/Job-1.odb,Step-1,Increment      1: Step Time =    1.000,"P-1-1",         14811,   93.6959E-03,   43.5212E-03,            0.,NA,NA,"",   1.02301E+06,   1.04922E+06,   1.04922E+06
C:/temp/Job-1.odb,Step-1,Increment      1: Step Time =    1.000,"P-1-1",         14812,   106.082E-03,   154.740E-03,            0.,NA,NA,"",   1.02441E+06,   1.05064E+06,   1.05064E+06
C:/temp/Job-1.odb,Step-1,Increment      1: Step Time =    1.000,"P-1-1",         14813,   64.5225E-03,   42.4418E-03,            0.,NA,NA,"",   1.06489E+06,   1.06898E+06,   1.06898E+06
C:/temp/Job-1.odb,Step-1,Increment      1: Step Time =    1.000,"P-1-1",         14814,   157.118E-03,   63.8735E-03,            0.,NA,NA,"",   1.04098E+06,   1.02666E+06,   1.02666E+06
C:/temp/Job-1.odb,Step-1,Increment      1: Step Time =    1.000,"P-1-1",         14815,   117.033E-03,   158.495E-03,            0.,NA,NA,"",   1.03992E+06,   1.04920E+06,   1.04920E+06
C:/temp/Job-1.odb,Step-1,Increment      1: Step Time =    1.000,"P-1-1",         14816,   43.4543E-03,   123.582E-03,            0.,NA,NA,"",   913.407E+03,   959.731E+03,   959.731E+03
C:/temp/Job-1.odb,Step-1,Increment      1: Step Time =    1.000,"P-1-1",         14817,   116.941E-03,   157.231E-03,            0.,NA,NA,"",   1.04327E+06,   1.05286E+06,   1.05286E+06
C:/temp/Job-1.odb,Step-1,Increment      1: Step Time =    1.000,"P-1-1",         14818,   133.280E-03,   41.9248E-03,            0.,NA,NA,"",   1.06237E+06,   1.05302E+06,   1.05302E+06
C:/temp/Job-1.odb,Step-1,Increment      1: Step Time =    1.000,"P-1-1",         14819,   159.359E-03,   132.670E-03,            0.,NA,NA,"",   1.02791E+06,   1.01694E+06,   1.01694E+06
C:/temp/Job-1.odb,Step-1,Increment      1: Step Time =    1.000,"P-1-1",         14820,   126.647E-03,   64.4748E-03,            0.,NA,NA,"",   1.15846E+06,   1.12701E+06,   1.12701E+06
C:/temp/Job-1.odb,Step-1,Increment      1: Step Time =    1.000,"P-1-1",         14821,   125.311E-03,   66.7248E-03,            0.,NA,NA,"",   1.17397E+06,   1.13891E+06,   1.13891E+06
C:/temp/Job-1.odb,Step-1,Increment      1: Step Time =    1.000,"P-1-1",         14822,   132.882E-03,   43.6263E-03,            0.,NA,NA,"",   1.06752E+06,   1.05740E+06,   1.05740E+06
C:/temp/Job-1.odb,Step-1,Increment      1: Step Time =    1.000,"P-1-1",         14823,   157.249E-03,   132.587E-03,            0.,NA,NA,"",   1.03310E+06,   1.01983E+06,   1.01983E+06
C:/temp/Job-1.odb,Step-1,Increment      1: Step Time =    1.000,"P-1-1",         14824,   135.806E-03,   157.431E-03,            0.,NA,NA,"",   1.06406E+06,   1.05278E+06,   1.05278E+06
C:/temp/Job-1.odb,Step-1,Increment      1: Step Time =    1.000,"P-1-1",         14825,   44.0048E-03,   135.586E-03,            0.,NA,NA,"",   975.630E+03,   1.01089E+06,   1.01089E+06
C:/temp/Job-1.odb,Step-1,Increment      1: Step Time =    1.000,"P-1-1",         14826,   45.1747E-03,   115.831E-03,            0.,NA,NA,"",   870.038E+03,   921.303E+03,   921.303E+03
C:/temp/Job-1.odb,Step-1,Increment      1: Step Time =    1.000,"P-1-1",         14827,   61.0088E-03,   144.138E-03,            0.,NA,NA,"",   1.07461E+06,   1.07741E+06,   1.07741E+06
C:/temp/Job-1.odb,Step-1,Increment      1: Step Time =    1.000,"P-1-1",         14828,   154.665E-03,   92.2647E-03,            0.,NA,NA,"",   919.753E+03,   926.865E+03,   926.865E+03
C:/temp/Job-1.odb,Step-1,Increment      1: Step Time =    1.000,"P-1-1",         14829,   94.5330E-03,   42.1878E-03,            0.,NA,NA,"",   1.02000E+06,   1.04506E+06,   1.04506E+06
C:/temp/Job-1.odb,Step-1,Increment      1: Step Time =    1.000,"P-1-1",         14830,   155.759E-03,   157.748E-03,            0.,NA,NA,"",   1.04208E+06,   1.03129E+06,   1.03129E+06
C:/temp/Job-1.odb,Step-1,Increment      1: Step Time =    1.000,"P-1-1",         14831,   44.5651E-03,   40.8809E-03,            0.,NA,NA,"",   1.03667E+06,   1.05695E+06,   1.05695E+06
C:/temp/Job-1.odb,Step-1,Increment      1: Step Time =    1.000,"P-1-1",         14832,   149.700E-03,   130.546E-03,            0.,NA,NA,"",   1.05080E+06,   1.02893E+06,   1.02893E+06
C:/temp/Job-1.odb,Step-1,Increment      1: Step Time =    1.000,"P-1-1",         14833,   41.7328E-03,   116.170E-03,            0.,NA,NA,"",   865.944E+03,   922.585E+03,   922.585E+03
C:/temp/Job-1.odb,Step-1,Increment      1: Step Time =    1.000,"P-1-1",         14834,   43.1377E-03,   116.738E-03,            0.,NA,NA,"",   871.788E+03,   925.577E+03,   925.577E+03
C:/temp/Job-1.odb,Step-1,Increment      1: Step Time =    1.000,"P-1-1",         14835,   60.1596E-03,   142.282E-03,            0.,NA,NA,"",   1.07132E+06,   1.07457E+06,   1.07457E+06
C:/temp/Job-1.odb,Step-1,Increment      1: Step Time =    1.000,"P-1-1",         14836,   116.729E-03,   42.3314E-03,            0.,NA,NA,"",   1.04158E+06,   1.05136E+06,   1.05136E+06
C:/temp/Job-1.odb,Step-1,Increment      1: Step Time =    1.000,"P-1-1",         14837,   99.5752E-03,   151.843E-03,            0.,NA,NA,"",   1.02242E+06,   1.05683E+06,   1.05683E+06
C:/temp/Job-1.odb,Step-1,Increment      1: Step Time =    1.000,"P-1-1",         14838,   149.225E-03,   131.345E-03,            0.,NA,NA,"",   1.05493E+06,   1.03226E+06,   1.03226E+06
C:/temp/Job-1.odb,Step-1,Increment      1: Step Time =    1.000,"P-1-1",         14839,   134.934E-03,   144.754E-03,            0.,NA,NA,"",   1.10407E+06,   1.08133E+06,   1.08133E+06
C:/temp/Job-1.odb,Step-1,Increment      1: Step Time =    1.000,"P-1-1",         14840,   94.5871E-03,   53.4074E-03,            0.,NA,NA,"",   1.03525E+06,   1.07624E+06,   1.07624E+06
C:/temp/Job-1.odb,Step-1,Increment      1: Step Time =    1.000,"P-1-1",         14841,   139.116E-03,   141.757E-03,            0.,NA,NA,"",   1.10209E+06,   1.07528E+06,   1.07528E+06
C:/temp/Job-1.odb,Step-1,Increment      1: Step Time =    1.000,"P-1-1",         14842,   120.068E-03,   155.944E-03,            0.,NA,NA,"",   1.05397E+06,   1.05884E+06,   1.05884E+06
C:/temp/Job-1.odb,Step-1,Increment      1: Step Time =    1.000,"P-1-1",         14843,   69.4983E-03,   150.335E-03,            0.,NA,NA,"",   1.08221E+06,   1.08491E+06,   1.08491E+06
C:/temp/Job-1.odb,Step-1,Increment      1: Step Time =    1.000,"P-1-1",         14844,   43.8610E-03,   105.476E-03,            0.,NA,NA,"",   819.167E+03,   880.907E+03,   880.907E+03
C:/temp/Job-1.odb,Step-1,Increment      1: Step Time =    1.000,"P-1-1",         14845,   46.6330E-03,   119.679E-03,            0.,NA,NA,"",   899.895E+03,   944.085E+03,   944.085E+03
C:/temp/Job-1.odb,Step-1,Increment      1: Step Time =    1.000,"P-1-1",         14846,   44.5414E-03,   50.2784E-03,            0.,NA,NA,"",   1.02016E+06,   1.04610E+06,   1.04610E+06
C:/temp/Job-1.odb,Step-1,Increment      1: Step Time =    1.000,"P-1-1",         14847,   49.3620E-03,   156.854E-03,            0.,NA,NA,"",   1.04456E+06,   1.05965E+06,   1.05965E+06
C:/temp/Job-1.odb,Step-1,Increment      1: Step Time =    1.000,"P-1-1",         14848,   124.252E-03,   44.4775E-03,            0.,NA,NA,"",   1.06372E+06,   1.06211E+06,   1.06211E+06
C:/temp/Job-1.odb,Step-1,Increment      1: Step Time =    1.000,"P-1-1",         14849,   148.140E-03,   156.748E-03,            0.,NA,NA,"",   1.05505E+06,   1.04161E+06,   1.04161E+06
C:/temp/Job-1.odb,Step-1,Increment      1: Step Time =    1.000,"P-1-1",         14850,   45.8230E-03,   145.287E-03,            0.,NA,NA,"",   1.01519E+06,   1.04109E+06,   1.04109E+06
C:/temp/Job-1.odb,Step-1,Increment      1: Step Time =    1.000,"P-1-1",         14851,   43.3379E-03,   148.564E-03,            0.,NA,NA,"",   1.01372E+06,   1.04222E+06,   1.04222E+06
C:/temp/Job-1.odb,Step-1,Increment      1: Step Time =    1.000,"P-1-1",         14852,   153.710E-03,   43.4678E-03,            0.,NA,NA,"",   1.04678E+06,   1.03479E+06,   1.03479E+06
C:/temp/Job-1.odb,Step-1,Increment      1: Step Time =    1.000,"P-1-1",         14853,   82.7734E-03,   43.4517E-03,            0.,NA,NA,"",   1.04716E+06,   1.06238E+06,   1.06238E+06
C:/temp/Job-1.odb,Step-1,Increment      1: Step Time =    1.000,"P-1-1",         14854,   65.6285E-03,   157.241E-03,            0.,NA,NA,"",   1.06560E+06,   1.06960E+06,   1.06960E+06
C:/temp/Job-1.odb,Step-1,Increment      1: Step Time =    1.000,"P-1-1",         14855,   112.820E-03,   156.781E-03,            0.,NA,NA,"",   1.03477E+06,   1.05069E+06,   1.05069E+06
C:/temp/Job-1.odb,Step-1,Increment      1: Step Time =    1.000,"P-1-1",         14856,   104.666E-03,   44.2970E-03,            0.,NA,NA,"",   1.02112E+06,   1.04765E+06,   1.04765E+06
C:/temp/Job-1.odb,Step-1,Increment      1: Step Time =    1.000,"P-1-1",         14857,   71.5159E-03,   156.572E-03,            0.,NA,NA,"",   1.06575E+06,   1.07105E+06,   1.07105E+06
C:/temp/Job-1.odb,Step-1,Increment      1: Step Time =    1.000,"P-1-1",         14858,   44.2568E-03,   72.6256E-03,            0.,NA,NA,"",   937.558E+03,   978.725E+03,   978.725E+03
C:/temp/Job-1.odb,Step-1,Increment      1: Step Time =    1.000,"P-1-1",         14859,   48.3275E-03,   121.595E-03,            0.,NA,NA,"",   918.535E+03,   956.916E+03,   956.916E+03
C:/temp/Job-1.odb,Step-1,Increment      1: Step Time =    1.000,"P-1-1",         14860,   67.2771E-03,   55.1562E-03,            0.,NA,NA,"",   1.09225E+06,   1.09157E+06,   1.09157E+06
C:/temp/Job-1.odb,Step-1,Increment      1: Step Time =    1.000,"P-1-1",         14861,   102.676E-03,   154.804E-03,            0.,NA,NA,"",   1.02004E+06,   1.04903E+06,   1.04903E+06
C:/temp/Job-1.odb,Step-1,Increment      1: Step Time =    1.000,"P-1-1",         14862,   145.945E-03,   134.810E-03,            0.,NA,NA,"",   1.07700E+06,   1.05028E+06,   1.05028E+06
C:/temp/Job-1.odb,Step-1,Increment      1: Step Time =    1.000,"P-1-1",         14863,   46.3943E-03,   68.1411E-03,            0.,NA,NA,"",   971.325E+03,   1.00397E+06,   1.00397E+06
C:/temp/Job-1.odb,Step-1,Increment      1: Step Time =    1.000,"P-1-1",         14864,   44.0109E-03,   157.686E-03,            0.,NA,NA,"",   1.03339E+06,   1.05537E+06,   1.05537E+06
C:/temp/Job-1.odb,Step-1,Increment      1: Step Time =    1.000,"P-1-1",         14865,   71.9507E-03,   152.814E-03,            0.,NA,NA,"",   1.07526E+06,   1.08004E+06,   1.08004E+06
C:/temp/Job-1.odb,Step-1,Increment      1: Step Time =    1.000,"P-1-1",         14866,   100.351E-03,   53.8839E-03,            0.,NA,NA,"",   1.02827E+06,   1.07310E+06,   1.07310E+06
C:/temp/Job-1.odb,Step-1,Increment      1: Step Time =    1.000,"P-1-1",         14867,   157.260E-03,   49.9119E-03,            0.,NA,NA,"",   1.04652E+06,   1.03386E+06,   1.03386E+06
C:/temp/Job-1.odb,Step-1,Increment      1: Step Time =    1.000,"P-1-1",         14868,   49.7802E-03,   43.7769E-03,            0.,NA,NA,"",   1.04507E+06,   1.05990E+06,   1.05990E+06
C:/temp/Job-1.odb,Step-1,Increment      1: Step Time =    1.000,"P-1-1",         14869,   51.1653E-03,   128.825E-03,            0.,NA,NA,"",   980.688E+03,   1.00480E+06,   1.00480E+06
C:/temp/Job-1.odb,Step-1,Increment      1: Step Time =    1.000,"P-1-1",         14870,   45.0486E-03,   80.9267E-03,            0.,NA,NA,"",   890.155E+03,   938.229E+03,   938.229E+03
C:/temp/Job-1.odb,Step-1,Increment      1: Step Time =    1.000,"P-1-1",         14871,   112.947E-03,   45.6208E-03,            0.,NA,NA,"",   1.04082E+06,   1.05794E+06,   1.05794E+06
C:/temp/Job-1.odb,Step-1,Increment      1: Step Time =    1.000,"P-1-1",         14872,   156.435E-03,   78.0810E-03,            0.,NA,NA,"",   995.400E+03,   988.086E+03,   988.086E+03
C:/temp/Job-1.odb,Step-1,Increment      1: Step Time =    1.000,"P-1-1",         14873,   154.945E-03,   139.123E-03,            0.,NA,NA,"",   1.05082E+06,   1.03429E+06,   1.03429E+06
C:/temp/Job-1.odb,Step-1,Increment      1: Step Time =    1.000,"P-1-1",         14874,   39.5150E-03,   156.386E-03,            0.,NA,NA,"",   1.01928E+06,   1.04931E+06,   1.04931E+06
C:/temp/Job-1.odb,Step-1,Increment      1: Step Time =    1.000,"P-1-1",         14875,   139.352E-03,   44.6764E-03,            0.,NA,NA,"",   1.06838E+06,   1.05421E+06,   1.05421E+06
C:/temp/Job-1.odb,Step-1,Increment      1: Step Time =    1.000,"P-1-1",         14876,   160.662E-03,   44.1039E-03,            0.,NA,NA,"",   1.03611E+06,   1.02685E+06,   1.02685E+06
C:/temp/Job-1.odb,Step-1,Increment      1: Step Time =    1.000,"P-1-1",         14877,   156.196E-03,   44.7514E-03,            0.,NA,NA,"",   1.04438E+06,   1.03282E+06,   1.03282E+06
C:/temp/Job-1.odb,Step-1,Increment      1: Step Time =    1.000,"P-1-1",         14878,   64.2630E-03,   56.0741E-03,            0.,NA,NA,"",   1.08558E+06,   1.08560E+06,   1.08560E+06
C:/temp/Job-1.odb,Step-1,Increment      1: Step Time =    1.000,"P-1-1",         14879,   44.9562E-03,   89.9183E-03,            0.,NA,NA,"",   836.658E+03,   893.899E+03,   893.899E+03
C:/temp/Job-1.odb,Step-1,Increment      1: Step Time =    1.000,"P-1-1",         14880,   77.6310E-03,   43.6343E-03,            0.,NA,NA,"",   1.05859E+06,   1.06838E+06,   1.06838E+06
C:/temp/Job-1.odb,Step-1,Increment      1: Step Time =    1.000,"P-1-1",         14881,   155.849E-03,   113.121E-03,            0.,NA,NA,"",   948.461E+03,   950.415E+03,   950.415E+03
C:/temp/Job-1.odb,Step-1,Increment      1: Step Time =    1.000,"P-1-1",         14882,   155.903E-03,   47.3754E-03,            0.,NA,NA,"",   1.04724E+06,   1.03468E+06,   1.03468E+06
C:/temp/Job-1.odb,Step-1,Increment      1: Step Time =    1.000,"P-1-1",         14883,   47.5195E-03,   46.0575E-03,            0.,NA,NA,"",   1.03704E+06,   1.05598E+06,   1.05598E+06
C:/temp/Job-1.odb,Step-1,Increment      1: Step Time =    1.000,"P-1-1",         14884,   153.196E-03,   154.646E-03,            0.,NA,NA,"",   1.05024E+06,   1.03721E+06,   1.03721E+06
C:/temp/Job-1.odb,Step-1,Increment      1: Step Time =    1.000,"P-1-1",         14885,   43.4948E-03,   155.490E-03,            0.,NA,NA,"",   1.02827E+06,   1.05247E+06,   1.05247E+06
C:/temp/Job-1.odb,Step-1,Increment      1: Step Time =    1.000,"P-1-1",         14886,   45.5229E-03,   153.097E-03,            0.,NA,NA,"",   1.03015E+06,   1.05249E+06,   1.05249E+06
C:/temp/Job-1.odb,Step-1,Increment      1: Step Time =    1.000,"P-1-1",         14887,   104.293E-03,   56.5174E-03,            0.,NA,NA,"",   1.03851E+06,   1.08474E+06,   1.08474E+06
C:/temp/Job-1.odb,Step-1,Increment      1: Step Time =    1.000,"P-1-1",         14888,   157.018E-03,   148.193E-03,            0.,NA,NA,"",   1.04804E+06,   1.03466E+06,   1.03466E+06
C:/temp/Job-1.odb,Step-1,Increment      1: Step Time =    1.000,"P-1-1",         14889,   84.0358E-03,   155.243E-03,            0.,NA,NA,"",   1.04711E+06,   1.06469E+06,   1.06469E+06
C:/temp/Job-1.odb,Step-1,Increment      1: Step Time =    1.000,"P-1-1",         14890,   148.835E-03,   43.4427E-03,            0.,NA,NA,"",   1.05433E+06,   1.04094E+06,   1.04094E+06
C:/temp/Job-1.odb,Step-1,Increment      1: Step Time =    1.000,"P-1-1",         14891,   44.2361E-03,   82.4823E-03,            0.,NA,NA,"",   878.473E+03,   929.656E+03,   929.656E+03
C:/temp/Job-1.odb,Step-1,Increment      1: Step Time =    1.000,"P-1-1",         14892,   96.8006E-03,   41.7661E-03,            0.,NA,NA,"",   1.01721E+06,   1.04251E+06,   1.04251E+06
C:/temp/Job-1.odb,Step-1,Increment      1: Step Time =    1.000,"P-1-1",         14893,   70.0609E-03,   56.0297E-03,            0.,NA,NA,"",   1.10012E+06,   1.09879E+06,   1.09879E+06
C:/temp/Job-1.odb,Step-1,Increment      1: Step Time =    1.000,"P-1-1",         14894,   108.662E-03,   57.5977E-03,            0.,NA,NA,"",   1.05917E+06,   1.09670E+06,   1.09670E+06
C:/temp/Job-1.odb,Step-1,Increment      1: Step Time =    1.000,"P-1-1",         14895,   102.650E-03,   158.465E-03,            0.,NA,NA,"",   1.01608E+06,   1.04056E+06,   1.04056E+06
C:/temp/Job-1.odb,Step-1,Increment      1: Step Time =    1.000,"P-1-1",         14896,   67.3761E-03,   147.543E-03,            0.,NA,NA,"",   1.08683E+06,   1.08780E+06,   1.08780E+06
C:/temp/Job-1.odb,Step-1,Increment      1: Step Time =    1.000,"P-1-1",         14897,   118.410E-03,   63.4245E-03,            0.,NA,NA,"",   1.14681E+06,   1.14309E+06,   1.14309E+06
C:/temp/Job-1.odb,Step-1,Increment      1: Step Time =    1.000,"P-1-1",         14898,   41.8185E-03,   103.113E-03,            0.,NA,NA,"",   816.253E+03,   881.065E+03,   881.065E+03
C:/temp/Job-1.odb,Step-1,Increment      1: Step Time =    1.000,"P-1-1",         14899,   86.8466E-03,   53.2647E-03,            0.,NA,NA,"",   1.06287E+06,   1.08921E+06,   1.08921E+06
C:/temp/Job-1.odb,Step-1,Increment      1: Step Time =    1.000,"P-1-1",         14900,   99.3264E-03,   39.1593E-03,            0.,NA,NA,"",   1.01292E+06,   1.03524E+06,   1.03524E+06
C:/temp/Job-1.odb,Step-1,Increment      1: Step Time =    1.000,"P-1-1",         14901,   91.5166E-03,   57.7845E-03,            0.,NA,NA,"",   1.05785E+06,   1.09980E+06,   1.09980E+06
C:/temp/Job-1.odb,Step-1,Increment      1: Step Time =    1.000,"P-1-1",         14902,   40.2387E-03,   99.5429E-03,            0.,NA,NA,"",   815.904E+03,   882.610E+03,   882.610E+03
C:/temp/Job-1.odb,Step-1,Increment      1: Step Time =    1.000,"P-1-1",         14903,   75.7739E-03,   56.1699E-03,            0.,NA,NA,"",   1.10443E+06,   1.10760E+06,   1.10760E+06
C:/temp/Job-1.odb,Step-1,Increment      1: Step Time =    1.000,"P-1-1",         14904,   126.075E-03,   150.732E-03,            0.,NA,NA,"",   1.08393E+06,   1.07682E+06,   1.07682E+06
C:/temp/Job-1.odb,Step-1,Increment      1: Step Time =    1.000,"P-1-1",         14905,   80.5133E-03,   55.8070E-03,            0.,NA,NA,"",   1.09497E+06,   1.10714E+06,   1.10714E+06
C:/temp/Job-1.odb,Step-1,Increment      1: Step Time =    1.000,"P-1-1",         14906,   83.9327E-03,   53.2387E-03,            0.,NA,NA,"",   1.07329E+06,   1.09320E+06,   1.09320E+06
C:/temp/Job-1.odb,Step-1,Increment      1: Step Time =    1.000,"P-1-1",         14907,   42.9901E-03,   109.717E-03,            0.,NA,NA,"",   835.012E+03,   895.205E+03,   895.205E+03
C:/temp/Job-1.odb,Step-1,Increment      1: Step Time =    1.000,"P-1-1",         14908,   109.953E-03,   74.1803E-03,            0.,NA,NA,"",   1.22391E+06,   1.26274E+06,   1.26274E+06
C:/temp/Job-1.odb,Step-1,Increment      1: Step Time =    1.000,"P-1-1",         14909,   154.388E-03,   90.5678E-03,            0.,NA,NA,"",   926.078E+03,   931.513E+03,   931.513E+03
C:/temp/Job-1.odb,Step-1,Increment      1: Step Time =    1.000,"P-1-1",         14910,   110.193E-03,   156.762E-03,            0.,NA,NA,"",   1.02901E+06,   1.04857E+06,   1.04857E+06
C:/temp/Job-1.odb,Step-1,Increment      1: Step Time =    1.000,"P-1-1",         14911,   118.835E-03,   45.6211E-03,            0.,NA,NA,"",   1.05636E+06,   1.06306E+06,   1.06306E+06
C:/temp/Job-1.odb,Step-1,Increment      1: Step Time =    1.000,"P-1-1",         14912,   106.472E-03,   159.044E-03,            0.,NA,NA,"",   1.01912E+06,   1.04032E+06,   1.04032E+06
C:/temp/Job-1.odb,Step-1,Increment      1: Step Time =    1.000,"P-1-1",         14913,   40.0277E-03,   106.321E-03,            0.,NA,NA,"",   824.433E+03,   890.099E+03,   890.099E+03
C:/temp/Job-1.odb,Step-1,Increment      1: Step Time =    1.000,"P-1-1",         14914,   143.939E-03,   155.906E-03,            0.,NA,NA,"",   1.06235E+06,   1.04796E+06,   1.04796E+06
C:/temp/Job-1.odb,Step-1,Increment      1: Step Time =    1.000,"P-1-1",         14915,   44.6594E-03,   142.966E-03,            0.,NA,NA,"",   1.00407E+06,   1.03344E+06,   1.03344E+06
C:/temp/Job-1.odb,Step-1,Increment      1: Step Time =    1.000,"P-1-1",         14916,   76.3208E-03,   43.2365E-03,            0.,NA,NA,"",   1.05942E+06,   1.06801E+06,   1.06801E+06
C:/temp/Job-1.odb,Step-1,Increment      1: Step Time =    1.000,"P-1-1",         14917,   89.8410E-03,   53.7239E-03,            0.,NA,NA,"",   1.05239E+06,   1.08563E+06,   1.08563E+06
C:/temp/Job-1.odb,Step-1,Increment      1: Step Time =    1.000,"P-1-1",         14918,   72.7502E-03,   44.1519E-03,            0.,NA,NA,"",   1.06648E+06,   1.07240E+06,   1.07240E+06
C:/temp/Job-1.odb,Step-1,Increment      1: Step Time =    1.000,"P-1-1",         14919,   156.853E-03,   75.0574E-03,            0.,NA,NA,"",   1.00825E+06,   998.878E+03,   998.878E+03
C:/temp/Job-1.odb,Step-1,Increment      1: Step Time =    1.000,"P-1-1",         14920,   50.1089E-03,   125.796E-03,            0.,NA,NA,"",   955.908E+03,   985.480E+03,   985.480E+03
C:/temp/Job-1.odb,Step-1,Increment      1: Step Time =    1.000,"P-1-1",         14921,   155.474E-03,   72.7473E-03,            0.,NA,NA,"",   1.02059E+06,   1.00792E+06,   1.00792E+06
C:/temp/Job-1.odb,Step-1,Increment      1: Step Time =    1.000,"P-1-1",         14922,   57.7596E-03,   157.476E-03,            0.,NA,NA,"",   1.05918E+06,   1.06602E+06,   1.06602E+06
C:/temp/Job-1.odb,Step-1,Increment      1: Step Time =    1.000,"P-1-1",         14923,   43.5896E-03,   58.4540E-03,            0.,NA,NA,"",   994.925E+03,   1.02730E+06,   1.02730E+06
C:/temp/Job-1.odb,Step-1,Increment      1: Step Time =    1.000,"P-1-1",         14924,   120.307E-03,   44.5201E-03,            0.,NA,NA,"",   1.05615E+06,   1.06059E+06,   1.06059E+06
C:/temp/Job-1.odb,Step-1,Increment      1: Step Time =    1.000,"P-1-1",         14925,   152.502E-03,   87.4787E-03,            0.,NA,NA,"",   940.766E+03,   940.992E+03,   940.992E+03
C:/temp/Job-1.odb,Step-1,Increment      1: Step Time =    1.000,"P-1-1",         14926,   139.974E-03,   66.6734E-03,            0.,NA,NA,"",   1.10276E+06,   1.06853E+06,   1.06853E+06
C:/temp/Job-1.odb,Step-1,Increment      1: Step Time =    1.000,"P-1-1",         14927,   41.3679E-03,   106.882E-03,            0.,NA,NA,"",   825.143E+03,   888.969E+03,   888.969E+03
C:/temp/Job-1.odb,Step-1,Increment      1: Step Time =    1.000,"P-1-1",         14928,   107.605E-03,   156.781E-03,            0.,NA,NA,"",   1.02402E+06,   1.04653E+06,   1.04653E+06
C:/temp/Job-1.odb,Step-1,Increment      1: Step Time =    1.000,"P-1-1",         14929,   41.9748E-03,   123.143E-03,            0.,NA,NA,"",   905.457E+03,   955.146E+03,   955.146E+03
C:/temp/Job-1.odb,Step-1,Increment      1: Step Time =    1.000,"P-1-1",         14930,   109.638E-03,   65.6332E-03,            0.,NA,NA,"",   1.11032E+06,   1.15230E+06,   1.15230E+06
C:/temp/Job-1.odb,Step-1,Increment      1: Step Time =    1.000,"P-1-1",         14931,   102.347E-03,   155.967E-03,            0.,NA,NA,"",   1.01859E+06,   1.04622E+06,   1.04622E+06
C:/temp/Job-1.odb,Step-1,Increment      1: Step Time =    1.000,"P-1-1",         14932,   99.9966E-03,   40.2562E-03,            0.,NA,NA,"",   1.01405E+06,   1.03760E+06,   1.03760E+06
C:/temp/Job-1.odb,Step-1,Increment      1: Step Time =    1.000,"P-1-1",         14933,   50.7418E-03,   122.663E-03,            0.,NA,NA,"",   936.768E+03,   968.291E+03,   968.291E+03
C:/temp/Job-1.odb,Step-1,Increment      1: Step Time =    1.000,"P-1-1",         14934,   56.9444E-03,   59.6311E-03,            0.,NA,NA,"",   1.05507E+06,   1.06259E+06,   1.06259E+06
C:/temp/Job-1.odb,Step-1,Increment      1: Step Time =    1.000,"P-1-1",         14935,   54.7176E-03,   61.7498E-03,            0.,NA,NA,"",   1.03913E+06,   1.05091E+06,   1.05091E+06
C:/temp/Job-1.odb,Step-1,Increment      1: Step Time =    1.000,"P-1-1",         14936,   134.414E-03,   155.663E-03,            0.,NA,NA,"",   1.06986E+06,   1.05810E+06,   1.05810E+06
C:/temp/Job-1.odb,Step-1,Increment      1: Step Time =    1.000,"P-1-1",         14937,   44.4986E-03,   134.095E-03,            0.,NA,NA,"",   971.493E+03,   1.00683E+06,   1.00683E+06
C:/temp/Job-1.odb,Step-1,Increment      1: Step Time =    1.000,"P-1-1",         14938,   135.042E-03,   143.356E-03,            0.,NA,NA,"",   1.10828E+06,   1.08374E+06,   1.08374E+06
C:/temp/Job-1.odb,Step-1,Increment      1: Step Time =    1.000,"P-1-1",         14939,   110.584E-03,   64.1779E-03,            0.,NA,NA,"",   1.10669E+06,   1.14246E+06,   1.14246E+06
C:/temp/Job-1.odb,Step-1,Increment      1: Step Time =    1.000,"P-1-1",         14940,   158.766E-03,   100.116E-03,            0.,NA,NA,"",   919.547E+03,   930.759E+03,   930.759E+03
C:/temp/Job-1.odb,Step-1,Increment      1: Step Time =    1.000,"P-1-1",         14941,   100.126E-03,   159.919E-03,            0.,NA,NA,"",   1.01401E+06,   1.03739E+06,   1.03739E+06
C:/temp/Job-1.odb,Step-1,Increment      1: Step Time =    1.000,"P-1-1",         14942,   40.8074E-03,   98.4606E-03,            0.,NA,NA,"",   815.836E+03,   881.871E+03,   881.871E+03
C:/temp/Job-1.odb,Step-1,Increment      1: Step Time =    1.000,"P-1-1",         14943,   50.6256E-03,   133.455E-03,            0.,NA,NA,"",   1.00044E+06,   1.02271E+06,   1.02271E+06
C:/temp/Job-1.odb,Step-1,Increment      1: Step Time =    1.000,"P-1-1",         14944,   151.798E-03,   44.2391E-03,            0.,NA,NA,"",   1.05102E+06,   1.03800E+06,   1.03800E+06
C:/temp/Job-1.odb,Step-1,Increment      1: Step Time =    1.000,"P-1-1",         14945,   155.478E-03,   152.651E-03,            0.,NA,NA,"",   1.04822E+06,   1.03539E+06,   1.03539E+06
C:/temp/Job-1.odb,Step-1,Increment      1: Step Time =    1.000,"P-1-1",         14946,   155.890E-03,   154.113E-03,            0.,NA,NA,"",   1.04596E+06,   1.03389E+06,   1.03389E+06
C:/temp/Job-1.odb,Step-1,Increment      1: Step Time =    1.000,"P-1-1",         14947,   44.1448E-03,   46.5124E-03,            0.,NA,NA,"",   1.02673E+06,   1.05103E+06,   1.05103E+06
C:/temp/Job-1.odb,Step-1,Increment      1: Step Time =    1.000,"P-1-1",         14948,   46.6519E-03,   155.726E-03,            0.,NA,NA,"",   1.03729E+06,   1.05646E+06,   1.05646E+06
C:/temp/Job-1.odb,Step-1,Increment      1: Step Time =    1.000,"P-1-1",         14949,   44.7233E-03,   52.9847E-03,            0.,NA,NA,"",   1.01506E+06,   1.04204E+06,   1.04204E+06
C:/temp/Job-1.odb,Step-1,Increment      1: Step Time =    1.000,"P-1-1",         14950,   44.7533E-03,   55.9645E-03,            0.,NA,NA,"",   1.00759E+06,   1.03610E+06,   1.03610E+06
C:/temp/Job-1.odb,Step-1,Increment      1: Step Time =    1.000,"P-1-1",         14951,   52.4582E-03,   155.962E-03,            0.,NA,NA,"",   1.05076E+06,   1.06251E+06,   1.06251E+06
C:/temp/Job-1.odb,Step-1,Increment      1: Step Time =    1.000,"P-1-1",         14952,   55.0924E-03,   155.991E-03,            0.,NA,NA,"",   1.05585E+06,   1.06496E+06,   1.06496E+06
C:/temp/Job-1.odb,Step-1,Increment      1: Step Time =    1.000,"P-1-1",         14953,   89.5375E-03,   44.2560E-03,            0.,NA,NA,"",   1.03285E+06,   1.05609E+06,   1.05609E+06
C:/temp/Job-1.odb,Step-1,Increment      1: Step Time =    1.000,"P-1-1",         14954,   157.079E-03,   68.1911E-03,            0.,NA,NA,"",   1.03142E+06,   1.01831E+06,   1.01831E+06
C:/temp/Job-1.odb,Step-1,Increment      1: Step Time =    1.000,"P-1-1",         14955,   62.9130E-03,   142.415E-03,            0.,NA,NA,"",   1.08227E+06,   1.08253E+06,   1.08253E+06
C:/temp/Job-1.odb,Step-1,Increment      1: Step Time =    1.000,"P-1-1",         14956,   67.9491E-03,   42.9431E-03,            0.,NA,NA,"",   1.06603E+06,   1.07022E+06,   1.07022E+06
C:/temp/Job-1.odb,Step-1,Increment      1: Step Time =    1.000,"P-1-1",         14957,   141.751E-03,   155.677E-03,            0.,NA,NA,"",   1.06540E+06,   1.05097E+06,   1.05097E+06
C:/temp/Job-1.odb,Step-1,Increment      1: Step Time =    1.000,"P-1-1",         14958,   44.1308E-03,   141.125E-03,            0.,NA,NA,"",   996.223E+03,   1.02760E+06,   1.02760E+06
C:/temp/Job-1.odb,Step-1,Increment      1: Step Time =    1.000,"P-1-1",         14959,   58.8710E-03,   44.0965E-03,            0.,NA,NA,"",   1.06196E+06,   1.06813E+06,   1.06813E+06
C:/temp/Job-1.odb,Step-1,Increment      1: Step Time =    1.000,"P-1-1",         14960,   155.655E-03,   59.7153E-03,            0.,NA,NA,"",   1.05009E+06,   1.03425E+06,   1.03425E+06
C:/temp/Job-1.odb,Step-1,Increment      1: Step Time =    1.000,"P-1-1",         14961,   155.542E-03,   91.2047E-03,            0.,NA,NA,"",   926.806E+03,   933.255E+03,   933.255E+03
C:/temp/Job-1.odb,Step-1,Increment      1: Step Time =    1.000,"P-1-1",         14962,   63.1439E-03,   43.8485E-03,            0.,NA,NA,"",   1.06629E+06,   1.07052E+06,   1.07052E+06
C:/temp/Job-1.odb,Step-1,Increment      1: Step Time =    1.000,"P-1-1",         14963,   156.243E-03,   63.0761E-03,            0.,NA,NA,"",   1.04459E+06,   1.02930E+06,   1.02930E+06
C:/temp/Job-1.odb,Step-1,Increment      1: Step Time =    1.000,"P-1-1",         14964,   154.841E-03,   89.3944E-03,            0.,NA,NA,"",    933.42E+03,   937.731E+03,   937.731E+03
C:/temp/Job-1.odb,Step-1,Increment      1: Step Time =    1.000,"P-1-1",         14965,   43.7898E-03,   69.0059E-03,            0.,NA,NA,"",   954.505E+03,   993.507E+03,   993.507E+03
C:/temp/Job-1.odb,Step-1,Increment      1: Step Time =    1.000,"P-1-1",         14966,   69.1212E-03,   156.602E-03,            0.,NA,NA,"",   1.06668E+06,   1.07109E+06,   1.07109E+06
C:/temp/Job-1.odb,Step-1,Increment      1: Step Time =    1.000,"P-1-1",         14967,   111.314E-03,   155.566E-03,            0.,NA,NA,"",   1.03404E+06,   1.05289E+06,   1.05289E+06
C:/temp/Job-1.odb,Step-1,Increment      1: Step Time =    1.000,"P-1-1",         14968,   155.778E-03,   56.7536E-03,            0.,NA,NA,"",   1.05113E+06,   1.03582E+06,   1.03582E+06
C:/temp/Job-1.odb,Step-1,Increment      1: Step Time =    1.000,"P-1-1",         14969,   57.4026E-03,   43.6695E-03,            0.,NA,NA,"",   1.05950E+06,   1.06665E+06,   1.06665E+06
C:/temp/Job-1.odb,Step-1,Increment      1: Step Time =    1.000,"P-1-1",         14970,   131.138E-03,   156.191E-03,            0.,NA,NA,"",   1.06786E+06,   1.05891E+06,   1.05891E+06
C:/temp/Job-1.odb,Step-1,Increment      1: Step Time =    1.000,"P-1-1",         14971,   43.3437E-03,   131.902E-03,            0.,NA,NA,"",   956.740E+03,   996.014E+03,   996.014E+03
C:/temp/Job-1.odb,Step-1,Increment      1: Step Time =    1.000,"P-1-1",         14972,   159.550E-03,   150.319E-03,            0.,NA,NA,"",   1.04165E+06,   1.03043E+06,   1.03043E+06
C:/temp/Job-1.odb,Step-1,Increment      1: Step Time =    1.000,"P-1-1",         14973,   149.693E-03,   41.8501E-03,            0.,NA,NA,"",   1.05046E+06,   1.03805E+06,   1.03805E+06
C:/temp/Job-1.odb,Step-1,Increment      1: Step Time =    1.000,"P-1-1",         14974,   142.557E-03,   136.608E-03,            0.,NA,NA,"",   1.09278E+06,   1.06345E+06,   1.06345E+06
C:/temp/Job-1.odb,Step-1,Increment      1: Step Time =    1.000,"P-1-1",         14975,   56.5661E-03,   138.129E-03,            0.,NA,NA,"",   1.04911E+06,   1.05734E+06,   1.05734E+06
C:/temp/Job-1.odb,Step-1,Increment      1: Step Time =    1.000,"P-1-1",         14976,   155.710E-03,   93.4804E-03,            0.,NA,NA,"",   918.478E+03,   926.937E+03,   926.937E+03
C:/temp/Job-1.odb,Step-1,Increment      1: Step Time =    1.000,"P-1-1",         14977,   149.253E-03,   75.9666E-03,            0.,NA,NA,"",   1.02226E+06,   1.00369E+06,   1.00369E+06
C:/temp/Job-1.odb,Step-1,Increment      1: Step Time =    1.000,"P-1-1",         14978,   118.400E-03,   156.399E-03,            0.,NA,NA,"",   1.04864E+06,   1.05618E+06,   1.05618E+06
C:/temp/Job-1.odb,Step-1,Increment      1: Step Time =    1.000,"P-1-1",         14979,   80.2896E-03,   155.531E-03,            0.,NA,NA,"",   1.05559E+06,   1.06847E+06,   1.06847E+06
C:/temp/Job-1.odb,Step-1,Increment      1: Step Time =    1.000,"P-1-1",         14980,   155.062E-03,   81.4581E-03,            0.,NA,NA,"",   978.547E+03,   973.428E+03,   973.428E+03
C:/temp/Job-1.odb,Step-1,Increment      1: Step Time =    1.000,"P-1-1",         14981,   128.028E-03,   44.0106E-03,            0.,NA,NA,"",   1.06630E+06,   1.06037E+06,   1.06037E+06
C:/temp/Job-1.odb,Step-1,Increment      1: Step Time =    1.000,"P-1-1",         14982,   131.385E-03,   44.5013E-03,            0.,NA,NA,"",   1.07008E+06,   1.06051E+06,   1.06051E+06
C:/temp/Job-1.odb,Step-1,Increment      1: Step Time =    1.000,"P-1-1",         14983,   155.964E-03,   127.270E-03,            0.,NA,NA,"",   1.01972E+06,   1.00752E+06,   1.00752E+06
C:/temp/Job-1.odb,Step-1,Increment      1: Step Time =    1.000,"P-1-1",         14984,   42.9719E-03,   136.581E-03,            0.,NA,NA,"",   974.645E+03,   1.01132E+06,   1.01132E+06
C:/temp/Job-1.odb,Step-1,Increment      1: Step Time =    1.000,"P-1-1",         14985,   155.520E-03,   131.134E-03,            0.,NA,NA,"",   1.03391E+06,   1.01920E+06,   1.01920E+06
C:/temp/Job-1.odb,Step-1,Increment      1: Step Time =    1.000,"P-1-1",         14986,   137.299E-03,   157.325E-03,            0.,NA,NA,"",   1.06399E+06,   1.05197E+06,   1.05197E+06
C:/temp/Job-1.odb,Step-1,Increment      1: Step Time =    1.000,"P-1-1",         14987,   43.7534E-03,   111.781E-03,            0.,NA,NA,"",   844.987E+03,   902.513E+03,   902.513E+03
C:/temp/Job-1.odb,Step-1,Increment      1: Step Time =    1.000,"P-1-1",         14988,   43.6320E-03,   97.8951E-03,            0.,NA,NA,"",   812.735E+03,   875.836E+03,   875.836E+03
C:/temp/Job-1.odb,Step-1,Increment      1: Step Time =    1.000,"P-1-1",         14989,   106.947E-03,   43.6416E-03,            0.,NA,NA,"",   1.02346E+06,   1.04711E+06,   1.04711E+06
C:/temp/Job-1.odb,Step-1,Increment      1: Step Time =    1.000,"P-1-1",         14990,   43.8850E-03,   118.776E-03,            0.,NA,NA,"",   885.667E+03,   936.096E+03,   936.096E+03
C:/temp/Job-1.odb,Step-1,Increment      1: Step Time =    1.000,"P-1-1",         14991,   86.0281E-03,   44.9809E-03,            0.,NA,NA,"",   1.04238E+06,   1.06235E+06,   1.06235E+06
C:/temp/Job-1.odb,Step-1,Increment      1: Step Time =    1.000,"P-1-1",         14992,   135.991E-03,   38.0834E-03,            0.,NA,NA,"",   1.05132E+06,   1.04268E+06,   1.04268E+06
C:/temp/Job-1.odb,Step-1,Increment      1: Step Time =    1.000,"P-1-1",         14993,   162.140E-03,   134.610E-03,            0.,NA,NA,"",   1.02580E+06,   1.01690E+06,   1.01690E+06
C:/temp/Job-1.odb,Step-1,Increment      1: Step Time =    1.000,"P-1-1",         14994,   79.2078E-03,   44.3199E-03,            0.,NA,NA,"",   1.05758E+06,   1.06906E+06,   1.06906E+06
C:/temp/Job-1.odb,Step-1,Increment      1: Step Time =    1.000,"P-1-1",         14995,   44.3817E-03,   76.2348E-03,            0.,NA,NA,"",   917.516E+03,   961.921E+03,   961.921E+03
C:/temp/Job-1.odb,Step-1,Increment      1: Step Time =    1.000,"P-1-1",         14996,   155.173E-03,   79.1078E-03,            0.,NA,NA,"",   991.702E+03,   984.044E+03,   984.044E+03
C:/temp/Job-1.odb,Step-1,Increment      1: Step Time =    1.000,"P-1-1",         14997,   43.4887E-03,   107.898E-03,            0.,NA,NA,"",   827.331E+03,   888.129E+03,   888.129E+03
C:/temp/Job-1.odb,Step-1,Increment      1: Step Time =    1.000,"P-1-1",         14998,   69.6136E-03,   44.0841E-03,            0.,NA,NA,"",   1.06822E+06,   1.07269E+06,   1.07269E+06
C:/temp/Job-1.odb,Step-1,Increment      1: Step Time =    1.000,"P-1-1",         14999,   155.848E-03,   70.3082E-03,            0.,NA,NA,"",   1.02850E+06,   1.01486E+06,   1.01486E+06
C:/temp/Job-1.odb,Step-1,Increment      1: Step Time =    1.000,"P-1-1",         15000,   53.4010E-03,   135.076E-03,            0.,NA,NA,"",   1.02302E+06,   1.03826E+06,   1.03826E+06
C:/temp/Job-1.odb,Step-1,Increment      1: Step Time =    1.000,"P-1-1",         15001,   44.8213E-03,   120.784E-03,            0.,NA,NA,"",   900.838E+03,   947.445E+03,   947.445E+03
C:/temp/Job-1.odb,Step-1,Increment      1: Step Time =    1.000,"P-1-1",         15002,   138.451E-03,   155.861E-03,            0.,NA,NA,"",   1.06709E+06,   1.05367E+06,   1.05367E+06
C:/temp/Job-1.odb,Step-1,Increment      1: Step Time =    1.000,"P-1-1",         15003,   120.398E-03,   152.770E-03,            0.,NA,NA,"",   1.06543E+06,   1.06927E+06,   1.06927E+06
C:/temp/Job-1.odb,Step-1,Increment      1: Step Time =    1.000,"P-1-1",         15004,   45.0934E-03,   138.308E-03,            0.,NA,NA,"",   990.993E+03,   1.02221E+06,   1.02221E+06
C:/temp/Job-1.odb,Step-1,Increment      1: Step Time =    1.000,"P-1-1",         15005,   118.399E-03,   153.443E-03,            0.,NA,NA,"",   1.05818E+06,   1.06576E+06,   1.06576E+06
C:/temp/Job-1.odb,Step-1,Increment      1: Step Time =    1.000,"P-1-1",         15006,   114.314E-03,   155.596E-03,            0.,NA,NA,"",   1.04130E+06,   1.05546E+06,   1.05546E+06
C:/temp/Job-1.odb,Step-1,Increment      1: Step Time =    1.000,"P-1-1",         15007,   155.437E-03,   84.6021E-03,            0.,NA,NA,"",   960.900E+03,   959.779E+03,   959.779E+03
C:/temp/Job-1.odb,Step-1,Increment      1: Step Time =    1.000,"P-1-1",         15008,   106.144E-03,   74.1294E-03,            0.,NA,NA,"",   1.17870E+06,   1.25975E+06,   1.25975E+06
C:/temp/Job-1.odb,Step-1,Increment      1: Step Time =    1.000,"P-1-1",         15009,   44.4649E-03,   113.820E-03,            0.,NA,NA,"",   856.782E+03,   911.311E+03,   911.311E+03
C:/temp/Job-1.odb,Step-1,Increment      1: Step Time =    1.000,"P-1-1",         15010,   44.4876E-03,   101.024E-03,            0.,NA,NA,"",   809.963E+03,   872.331E+03,   872.331E+03
C:/temp/Job-1.odb,Step-1,Increment      1: Step Time =    1.000,"P-1-1",         15011,   148.806E-03,   74.7895E-03,            0.,NA,NA,"",   1.03043E+06,   1.01018E+06,   1.01018E+06
C:/temp/Job-1.odb,Step-1,Increment      1: Step Time =    1.000,"P-1-1",         15012,   42.6640E-03,   128.119E-03,            0.,NA,NA,"",    934.48E+03,   978.552E+03,   978.552E+03
C:/temp/Job-1.odb,Step-1,Increment      1: Step Time =    1.000,"P-1-1",         15013,   87.4631E-03,   155.964E-03,            0.,NA,NA,"",   1.03699E+06,   1.05801E+06,   1.05801E+06
C:/temp/Job-1.odb,Step-1,Increment      1: Step Time =    1.000,"P-1-1",         15014,   129.185E-03,   157.056E-03,            0.,NA,NA,"",   1.06376E+06,   1.05716E+06,   1.05716E+06
C:/temp/Job-1.odb,Step-1,Increment      1: Step Time =    1.000,"P-1-1",         15015,   75.4694E-03,   156.035E-03,            0.,NA,NA,"",   1.06305E+06,   1.07085E+06,   1.07085E+06
C:/temp/Job-1.odb,Step-1,Increment      1: Step Time =    1.000,"P-1-1",         15016,   110.250E-03,   61.8666E-03,            0.,NA,NA,"",   1.08875E+06,   1.12473E+06,   1.12473E+06
C:/temp/Job-1.odb,Step-1,Increment      1: Step Time =    1.000,"P-1-1",         15017,   109.013E-03,   155.869E-03,            0.,NA,NA,"",   1.02817E+06,   1.05008E+06,   1.05008E+06
C:/temp/Job-1.odb,Step-1,Increment      1: Step Time =    1.000,"P-1-1",         15018,   135.600E-03,   65.2614E-03,            0.,NA,NA,"",   1.12522E+06,   1.08879E+06,   1.08879E+06
C:/temp/Job-1.odb,Step-1,Increment      1: Step Time =    1.000,"P-1-1",         15019,   92.8708E-03,   44.8415E-03,            0.,NA,NA,"",   1.02625E+06,   1.05346E+06,   1.05346E+06
C:/temp/Job-1.odb,Step-1,Increment      1: Step Time =    1.000,"P-1-1",         15020,   54.2711E-03,   62.9711E-03,            0.,NA,NA,"",   1.03344E+06,   1.04638E+06,   1.04638E+06
C:/temp/Job-1.odb,Step-1,Increment      1: Step Time =    1.000,"P-1-1",         15021,   129.653E-03,   148.778E-03,            0.,NA,NA,"",   1.09380E+06,   1.08020E+06,   1.08020E+06
C:/temp/Job-1.odb,Step-1,Increment      1: Step Time =    1.000,"P-1-1",         15022,   43.5754E-03,   85.7346E-03,            0.,NA,NA,"",   858.362E+03,   913.957E+03,   913.957E+03
C:/temp/Job-1.odb,Step-1,Increment      1: Step Time =    1.000,"P-1-1",         15023,   85.6238E-03,   155.606E-03,            0.,NA,NA,"",   1.04241E+06,   1.06147E+06,   1.06147E+06
C:/temp/Job-1.odb,Step-1,Increment      1: Step Time =    1.000,"P-1-1",         15024,   142.082E-03,   141.047E-03,            0.,NA,NA,"",   1.09300E+06,   1.06677E+06,   1.06677E+06
C:/temp/Job-1.odb,Step-1,Increment      1: Step Time =    1.000,"P-1-1",         15025,   57.5946E-03,   140.754E-03,            0.,NA,NA,"",   1.05840E+06,   1.06498E+06,   1.06498E+06
C:/temp/Job-1.odb,Step-1,Increment      1: Step Time =    1.000,"P-1-1",         15026,   151.355E-03,   83.8023E-03,            0.,NA,NA,"",   964.138E+03,   958.363E+03,   958.363E+03
C:/temp/Job-1.odb,Step-1,Increment      1: Step Time =    1.000,"P-1-1",         15027,   99.0288E-03,   53.9646E-03,            0.,NA,NA,"",   1.02845E+06,   1.07371E+06,   1.07371E+06
C:/temp/Job-1.odb,Step-1,Increment      1: Step Time =    1.000,"P-1-1",         15028,   101.959E-03,   44.6331E-03,            0.,NA,NA,"",   1.01903E+06,   1.04779E+06,   1.04779E+06
C:/temp/Job-1.odb,Step-1,Increment      1: Step Time =    1.000,"P-1-1",         15029,   41.3450E-03,   45.1362E-03,            0.,NA,NA,"",   1.02133E+06,   1.04933E+06,   1.04933E+06
C:/temp/Job-1.odb,Step-1,Increment      1: Step Time =    1.000,"P-1-1",         15030,   159.836E-03,   154.969E-03,            0.,NA,NA,"",   1.03832E+06,   1.02840E+06,   1.02840E+06
C:/temp/Job-1.odb,Step-1,Increment      1: Step Time =    1.000,"P-1-1",         15031,   156.681E-03,   146.298E-03,            0.,NA,NA,"",   1.04935E+06,   1.03525E+06,   1.03525E+06
C:/temp/Job-1.odb,Step-1,Increment      1: Step Time =    1.000,"P-1-1",         15032,   145.899E-03,   42.4863E-03,            0.,NA,NA,"",   1.05623E+06,   1.04300E+06,   1.04300E+06
C:/temp/Job-1.odb,Step-1,Increment      1: Step Time =    1.000,"P-1-1",         15033,   109.732E-03,   59.6139E-03,            0.,NA,NA,"",   1.07370E+06,   1.10966E+06,   1.10966E+06
C:/temp/Job-1.odb,Step-1,Increment      1: Step Time =    1.000,"P-1-1",         15034,   67.0949E-03,   56.6124E-03,            0.,NA,NA,"",   1.09469E+06,   1.09298E+06,   1.09298E+06
C:/temp/Job-1.odb,Step-1,Increment      1: Step Time =    1.000,"P-1-1",         15035,   155.990E-03,   123.803E-03,            0.,NA,NA,"",   1.00479E+06,   995.376E+03,   995.376E+03
C:/temp/Job-1.odb,Step-1,Increment      1: Step Time =    1.000,"P-1-1",         15036,   44.5639E-03,   62.4786E-03,            0.,NA,NA,"",   985.596E+03,   1.01841E+06,   1.01841E+06
C:/temp/Job-1.odb,Step-1,Increment      1: Step Time =    1.000,"P-1-1",         15037,   62.7466E-03,   156.548E-03,            0.,NA,NA,"",   1.06536E+06,   1.06977E+06,   1.06977E+06
C:/temp/Job-1.odb,Step-1,Increment      1: Step Time =    1.000,"P-1-1",         15038,   43.0600E-03,   113.255E-03,            0.,NA,NA,"",   852.267E+03,   909.470E+03,   909.470E+03
C:/temp/Job-1.odb,Step-1,Increment      1: Step Time =    1.000,"P-1-1",         15039,   45.4083E-03,   86.6012E-03,            0.,NA,NA,"",   855.461E+03,   908.858E+03,   908.858E+03
C:/temp/Job-1.odb,Step-1,Increment      1: Step Time =    1.000,"P-1-1",         15040,   156.245E-03,   144.308E-03,            0.,NA,NA,"",   1.05029E+06,   1.03549E+06,   1.03549E+06
C:/temp/Job-1.odb,Step-1,Increment      1: Step Time =    1.000,"P-1-1",         15041,   44.6144E-03,   70.5188E-03,            0.,NA,NA,"",   950.411E+03,   989.017E+03,   989.017E+03
C:/temp/Job-1.odb,Step-1,Increment      1: Step Time =    1.000,"P-1-1",         15042,   128.776E-03,   150.791E-03,            0.,NA,NA,"",   1.08594E+06,   1.07514E+06,   1.07514E+06
C:/temp/Job-1.odb,Step-1,Increment      1: Step Time =    1.000,"P-1-1",         15043,   157.955E-03,   98.9153E-03,            0.,NA,NA,"",   916.274E+03,   927.382E+03,   927.382E+03
C:/temp/Job-1.odb,Step-1,Increment      1: Step Time =    1.000,"P-1-1",         15044,   103.174E-03,   152.336E-03,            0.,NA,NA,"",   1.02340E+06,   1.05549E+06,   1.05549E+06
C:/temp/Job-1.odb,Step-1,Increment      1: Step Time =    1.000,"P-1-1",         15045,   123.826E-03,   155.809E-03,            0.,NA,NA,"",   1.06163E+06,   1.06080E+06,   1.06080E+06
C:/temp/Job-1.odb,Step-1,Increment      1: Step Time =    1.000,"P-1-1",         15046,   60.4765E-03,   156.564E-03,            0.,NA,NA,"",   1.06326E+06,   1.06853E+06,   1.06853E+06
C:/temp/Job-1.odb,Step-1,Increment      1: Step Time =    1.000,"P-1-1",         15047,   44.0259E-03,   60.9782E-03,            0.,NA,NA,"",   988.858E+03,   1.02169E+06,   1.02169E+06
C:/temp/Job-1.odb,Step-1,Increment      1: Step Time =    1.000,"P-1-1",         15048,   42.7227E-03,   125.692E-03,            0.,NA,NA,"",   922.270E+03,   968.124E+03,   968.124E+03
C:/temp/Job-1.odb,Step-1,Increment      1: Step Time =    1.000,"P-1-1",         15049,   125.452E-03,   157.697E-03,            0.,NA,NA,"",   1.05780E+06,   1.05559E+06,   1.05559E+06
C:/temp/Job-1.odb,Step-1,Increment      1: Step Time =    1.000,"P-1-1",         15050,   108.115E-03,   70.9820E-03,            0.,NA,NA,"",   1.15151E+06,   1.20893E+06,   1.20893E+06
C:/temp/Job-1.odb,Step-1,Increment      1: Step Time =    1.000,"P-1-1",         15051,   117.080E-03,   152.947E-03,            0.,NA,NA,"",   1.05630E+06,   1.06631E+06,   1.06631E+06
C:/temp/Job-1.odb,Step-1,Increment      1: Step Time =    1.000,"P-1-1",         15052,   86.0058E-03,   160.086E-03,            0.,NA,NA,"",   1.03222E+06,   1.04885E+06,   1.04885E+06
C:/temp/Job-1.odb,Step-1,Increment      1: Step Time =    1.000,"P-1-1",         15053,   38.9845E-03,   86.9077E-03,            0.,NA,NA,"",   847.384E+03,   910.558E+03,   910.558E+03
C:/temp/Job-1.odb,Step-1,Increment      1: Step Time =    1.000,"P-1-1",         15054,   160.412E-03,   113.320E-03,            0.,NA,NA,"",   955.382E+03,   959.828E+03,   959.828E+03
C:/temp/Job-1.odb,Step-1,Increment      1: Step Time =    1.000,"P-1-1",         15055,   45.1097E-03,   74.1605E-03,            0.,NA,NA,"",   932.588E+03,   973.422E+03,   973.422E+03
C:/temp/Job-1.odb,Step-1,Increment      1: Step Time =    1.000,"P-1-1",         15056,   155.389E-03,   125.784E-03,            0.,NA,NA,"",   1.01489E+06,   1.00311E+06,   1.00311E+06
C:/temp/Job-1.odb,Step-1,Increment      1: Step Time =    1.000,"P-1-1",         15057,   110.239E-03,   44.6083E-03,            0.,NA,NA,"",   1.03178E+06,   1.05239E+06,   1.05239E+06
C:/temp/Job-1.odb,Step-1,Increment      1: Step Time =    1.000,"P-1-1",         15058,   45.0270E-03,   77.8730E-03,            0.,NA,NA,"",   909.856E+03,   954.657E+03,   954.657E+03
C:/temp/Job-1.odb,Step-1,Increment      1: Step Time =    1.000,"P-1-1",         15059,   133.612E-03,   64.8296E-03,            0.,NA,NA,"",   1.13404E+06,   1.09756E+06,   1.09756E+06
C:/temp/Job-1.odb,Step-1,Increment      1: Step Time =    1.000,"P-1-1",         15060,   155.711E-03,   142.307E-03,            0.,NA,NA,"",   1.05095E+06,   1.03542E+06,   1.03542E+06
C:/temp/Job-1.odb,Step-1,Increment      1: Step Time =    1.000,"P-1-1",         15061,   142.482E-03,   44.4012E-03,            0.,NA,NA,"",   1.06452E+06,   1.05009E+06,   1.05009E+06
C:/temp/Job-1.odb,Step-1,Increment      1: Step Time =    1.000,"P-1-1",         15062,   144.019E-03,   71.1964E-03,            0.,NA,NA,"",   1.06949E+06,   1.03945E+06,   1.03945E+06
C:/temp/Job-1.odb,Step-1,Increment      1: Step Time =    1.000,"P-1-1",         15063,   60.8793E-03,   56.6299E-03,            0.,NA,NA,"",   1.07418E+06,   1.07688E+06,   1.07688E+06
C:/temp/Job-1.odb,Step-1,Increment      1: Step Time =    1.000,"P-1-1",         15064,   149.423E-03,   134.515E-03,            0.,NA,NA,"",   1.06213E+06,   1.03959E+06,   1.03959E+06
C:/temp/Job-1.odb,Step-1,Increment      1: Step Time =    1.000,"P-1-1",         15065,   152.558E-03,   84.4713E-03,            0.,NA,NA,"",   960.270E+03,   956.517E+03,   956.517E+03
C:/temp/Job-1.odb,Step-1,Increment      1: Step Time =    1.000,"P-1-1",         15066,   115.778E-03,   45.7639E-03,            0.,NA,NA,"",   1.04896E+06,   1.06105E+06,   1.06105E+06
C:/temp/Job-1.odb,Step-1,Increment      1: Step Time =    1.000,"P-1-1",         15067,   109.456E-03,   39.7096E-03,            0.,NA,NA,"",   1.02143E+06,   1.03874E+06,   1.03874E+06
C:/temp/Job-1.odb,Step-1,Increment      1: Step Time =    1.000,"P-1-1",         15068,   63.9713E-03,   147.953E-03,            0.,NA,NA,"",   1.07978E+06,   1.08182E+06,   1.08182E+06
C:/temp/Job-1.odb,Step-1,Increment      1: Step Time =    1.000,"P-1-1",         15069,   157.375E-03,   155.513E-03,            0.,NA,NA,"",   1.04216E+06,   1.03120E+06,   1.03120E+06
C:/temp/Job-1.odb,Step-1,Increment      1: Step Time =    1.000,"P-1-1",         15070,   43.8991E-03,   43.4101E-03,            0.,NA,NA,"",   1.03158E+06,   1.05429E+06,   1.05429E+06
C:/temp/Job-1.odb,Step-1,Increment      1: Step Time =    1.000,"P-1-1",         15071,   52.5957E-03,   63.4770E-03,            0.,NA,NA,"",   1.02283E+06,   1.03932E+06,   1.03932E+06
C:/temp/Job-1.odb,Step-1,Increment      1: Step Time =    1.000,"P-1-1",         15072,   135.497E-03,   146.864E-03,            0.,NA,NA,"",   1.09730E+06,   1.07675E+06,   1.07675E+06
C:/temp/Job-1.odb,Step-1,Increment      1: Step Time =    1.000,"P-1-1",         15073,   115.530E-03,   154.023E-03,            0.,NA,NA,"",   1.04864E+06,   1.06146E+06,   1.06146E+06
C:/temp/Job-1.odb,Step-1,Increment      1: Step Time =    1.000,"P-1-1",         15074,   103.737E-03,   55.1605E-03,            0.,NA,NA,"",   1.03468E+06,   1.07892E+06,   1.07892E+06
C:/temp/Job-1.odb,Step-1,Increment      1: Step Time =    1.000,"P-1-1",         15075,   53.9089E-03,   136.238E-03,            0.,NA,NA,"",   1.02964E+06,   1.04341E+06,   1.04341E+06
C:/temp/Job-1.odb,Step-1,Increment      1: Step Time =    1.000,"P-1-1",         15076,   47.2764E-03,   67.7171E-03,            0.,NA,NA,"",   977.413E+03,   1.00794E+06,   1.00794E+06
C:/temp/Job-1.odb,Step-1,Increment      1: Step Time =    1.000,"P-1-1",         15077,   45.8943E-03,   66.8261E-03,            0.,NA,NA,"",   974.350E+03,   1.00731E+06,   1.00731E+06
C:/temp/Job-1.odb,Step-1,Increment      1: Step Time =    1.000,"P-1-1",         15078,   51.5429E-03,   135.315E-03,            0.,NA,NA,"",   1.01327E+06,   1.03245E+06,   1.03245E+06
C:/temp/Job-1.odb,Step-1,Increment      1: Step Time =    1.000,"P-1-1",         15079,   107.571E-03,   155.857E-03,            0.,NA,NA,"",   1.02517E+06,   1.04868E+06,   1.04868E+06
C:/temp/Job-1.odb,Step-1,Increment      1: Step Time =    1.000,"P-1-1",         15080,   42.6715E-03,   106.324E-03,            0.,NA,NA,"",   822.530E+03,   885.158E+03,   885.158E+03
C:/temp/Job-1.odb,Step-1,Increment      1: Step Time =    1.000,"P-1-1",         15081,   112.806E-03,   63.5868E-03,            0.,NA,NA,"",   1.11882E+06,   1.14229E+06,   1.14229E+06
C:/temp/Job-1.odb,Step-1,Increment      1: Step Time =    1.000,"P-1-1",         15082,   73.2615E-03,   55.6692E-03,            0.,NA,NA,"",   1.10203E+06,   1.10300E+06,   1.10300E+06
C:/temp/Job-1.odb,Step-1,Increment      1: Step Time =    1.000,"P-1-1",         15083,   109.148E-03,   75.8598E-03,            0.,NA,NA,"",   1.25135E+06,   1.29848E+06,   1.29848E+06
C:/temp/Job-1.odb,Step-1,Increment      1: Step Time =    1.000,"P-1-1",         15084,   103.647E-03,   155.950E-03,            0.,NA,NA,"",   1.01972E+06,   1.04672E+06,   1.04672E+06
C:/temp/Job-1.odb,Step-1,Increment      1: Step Time =    1.000,"P-1-1",         15085,   136.956E-03,   144.930E-03,            0.,NA,NA,"",   1.10044E+06,   1.07719E+06,   1.07719E+06
C:/temp/Job-1.odb,Step-1,Increment      1: Step Time =    1.000,"P-1-1",         15086,   52.0615E-03,   64.5926E-03,            0.,NA,NA,"",   1.01591E+06,   1.03408E+06,   1.03408E+06
C:/temp/Job-1.odb,Step-1,Increment      1: Step Time =    1.000,"P-1-1",         15087,   76.1305E-03,   54.8189E-03,            0.,NA,NA,"",   1.09847E+06,   1.10328E+06,   1.10328E+06
C:/temp/Job-1.odb,Step-1,Increment      1: Step Time =    1.000,"P-1-1",         15088,   151.079E-03,   76.5787E-03,            0.,NA,NA,"",   1.01372E+06,   998.260E+03,   998.260E+03
C:/temp/Job-1.odb,Step-1,Increment      1: Step Time =    1.000,"P-1-1",         15089,   44.0285E-03,   125.293E-03,            0.,NA,NA,"",   925.033E+03,   968.620E+03,   968.620E+03
C:/temp/Job-1.odb,Step-1,Increment      1: Step Time =    1.000,"P-1-1",         15090,   142.749E-03,   142.622E-03,            0.,NA,NA,"",   1.08903E+06,   1.06447E+06,   1.06447E+06
C:/temp/Job-1.odb,Step-1,Increment      1: Step Time =    1.000,"P-1-1",         15091,   61.7508E-03,   146.032E-03,            0.,NA,NA,"",   1.07617E+06,   1.07889E+06,   1.07889E+06
C:/temp/Job-1.odb,Step-1,Increment      1: Step Time =    1.000,"P-1-1",         15092,   154.018E-03,   86.8561E-03,            0.,NA,NA,"",   946.722E+03,   947.244E+03,   947.244E+03
C:/temp/Job-1.odb,Step-1,Increment      1: Step Time =    1.000,"P-1-1",         15093,   48.8172E-03,   123.459E-03,            0.,NA,NA,"",   934.092E+03,   969.202E+03,   969.202E+03
C:/temp/Job-1.odb,Step-1,Increment      1: Step Time =    1.000,"P-1-1",         15094,   70.4564E-03,   152.378E-03,            0.,NA,NA,"",   1.07683E+06,   1.08072E+06,   1.08072E+06
C:/temp/Job-1.odb,Step-1,Increment      1: Step Time =    1.000,"P-1-1",         15095,   151.986E-03,   130.398E-03,            0.,NA,NA,"",   1.04226E+06,   1.02347E+06,   1.02347E+06
C:/temp/Job-1.odb,Step-1,Increment      1: Step Time =    1.000,"P-1-1",         15096,   153.695E-03,   142.233E-03,            0.,NA,NA,"",   1.05643E+06,   1.03920E+06,   1.03920E+06
C:/temp/Job-1.odb,Step-1,Increment      1: Step Time =    1.000,"P-1-1",         15097,   142.293E-03,   45.4644E-03,            0.,NA,NA,"",   1.06719E+06,   1.05203E+06,   1.05203E+06
C:/temp/Job-1.odb,Step-1,Increment      1: Step Time =    1.000,"P-1-1",         15098,   128.249E-03,   63.8965E-03,            0.,NA,NA,"",   1.15129E+06,   1.11909E+06,   1.11909E+06
C:/temp/Job-1.odb,Step-1,Increment      1: Step Time =    1.000,"P-1-1",         15099,   61.1135E-03,   55.0699E-03,            0.,NA,NA,"",   1.07482E+06,   1.07771E+06,   1.07771E+06
C:/temp/Job-1.odb,Step-1,Increment      1: Step Time =    1.000,"P-1-1",         15100,   44.4609E-03,   51.8742E-03,            0.,NA,NA,"",   1.01632E+06,   1.04330E+06,   1.04330E+06
C:/temp/Job-1.odb,Step-1,Increment      1: Step Time =    1.000,"P-1-1",         15101,   51.1427E-03,   155.689E-03,            0.,NA,NA,"",   1.04784E+06,   1.06117E+06,   1.06117E+06
C:/temp/Job-1.odb,Step-1,Increment      1: Step Time =    1.000,"P-1-1",         15102,   43.2209E-03,   104.083E-03,            0.,NA,NA,"",   816.446E+03,   879.421E+03,   879.421E+03
C:/temp/Job-1.odb,Step-1,Increment      1: Step Time =    1.000,"P-1-1",         15103,   148.591E-03,   155.535E-03,            0.,NA,NA,"",   1.05675E+06,   1.04266E+06,   1.04266E+06
C:/temp/Job-1.odb,Step-1,Increment      1: Step Time =    1.000,"P-1-1",         15104,   83.8675E-03,   44.8574E-03,            0.,NA,NA,"",   1.04782E+06,   1.06506E+06,   1.06506E+06
C:/temp/Job-1.odb,Step-1,Increment      1: Step Time =    1.000,"P-1-1",         15105,   44.7781E-03,   148.052E-03,            0.,NA,NA,"",   1.01798E+06,   1.04418E+06,   1.04418E+06
C:/temp/Job-1.odb,Step-1,Increment      1: Step Time =    1.000,"P-1-1",         15106,   92.8937E-03,   53.0438E-03,            0.,NA,NA,"",   1.03977E+06,   1.07757E+06,   1.07757E+06
C:/temp/Job-1.odb,Step-1,Increment      1: Step Time =    1.000,"P-1-1",         15107,   45.0917E-03,   63.9684E-03,            0.,NA,NA,"",   982.234E+03,   1.01499E+06,   1.01499E+06
C:/temp/Job-1.odb,Step-1,Increment      1: Step Time =    1.000,"P-1-1",         15108,   63.9524E-03,   156.197E-03,            0.,NA,NA,"",   1.06680E+06,   1.07088E+06,   1.07088E+06
C:/temp/Job-1.odb,Step-1,Increment      1: Step Time =    1.000,"P-1-1",         15109,   104.102E-03,   153.779E-03,            0.,NA,NA,"",   1.02273E+06,   1.05207E+06,   1.05207E+06
C:/temp/Job-1.odb,Step-1,Increment      1: Step Time =    1.000,"P-1-1",         15110,   115.704E-03,   47.0396E-03,            0.,NA,NA,"",   1.05273E+06,   1.06531E+06,   1.06531E+06
C:/temp/Job-1.odb,Step-1,Increment      1: Step Time =    1.000,"P-1-1",         15111,   70.0378E-03,   153.881E-03,            0.,NA,NA,"",   1.07312E+06,   1.07728E+06,   1.07728E+06
C:/temp/Job-1.odb,Step-1,Increment      1: Step Time =    1.000,"P-1-1",         15112,   45.4196E-03,   155.089E-03,            0.,NA,NA,"",   1.03319E+06,   1.05447E+06,   1.05447E+06
C:/temp/Job-1.odb,Step-1,Increment      1: Step Time =    1.000,"P-1-1",         15113,   146.948E-03,   43.8440E-03,            0.,NA,NA,"",   1.05779E+06,   1.04381E+06,   1.04381E+06
C:/temp/Job-1.odb,Step-1,Increment      1: Step Time =    1.000,"P-1-1",         15114,   155.887E-03,   147.367E-03,            0.,NA,NA,"",   1.05089E+06,   1.03654E+06,   1.03654E+06
C:/temp/Job-1.odb,Step-1,Increment      1: Step Time =    1.000,"P-1-1",         15115,   156.256E-03,   75.9646E-03,            0.,NA,NA,"",   1.00577E+06,   996.372E+03,   996.372E+03
C:/temp/Job-1.odb,Step-1,Increment      1: Step Time =    1.000,"P-1-1",         15116,   121.218E-03,   43.1143E-03,            0.,NA,NA,"",   1.05333E+06,   1.05654E+06,   1.05654E+06
C:/temp/Job-1.odb,Step-1,Increment      1: Step Time =    1.000,"P-1-1",         15117,   133.238E-03,   150.181E-03,            0.,NA,NA,"",   1.08831E+06,   1.07247E+06,   1.07247E+06
C:/temp/Job-1.odb,Step-1,Increment      1: Step Time =    1.000,"P-1-1",         15118,   132.979E-03,   155.397E-03,            0.,NA,NA,"",   1.07083E+06,   1.05982E+06,   1.05982E+06
C:/temp/Job-1.odb,Step-1,Increment      1: Step Time =    1.000,"P-1-1",         15119,   149.878E-03,   156.040E-03,            0.,NA,NA,"",   1.05374E+06,   1.04027E+06,   1.04027E+06
C:/temp/Job-1.odb,Step-1,Increment      1: Step Time =    1.000,"P-1-1",         15120,   43.8362E-03,   132.719E-03,            0.,NA,NA,"",   962.201E+03,   999.939E+03,   999.939E+03
C:/temp/Job-1.odb,Step-1,Increment      1: Step Time =    1.000,"P-1-1",         15121,   43.8864E-03,   150.177E-03,            0.,NA,NA,"",   1.01926E+06,   1.04591E+06,   1.04591E+06
C:/temp/Job-1.odb,Step-1,Increment      1: Step Time =    1.000,"P-1-1",         15122,   153.088E-03,   44.8194E-03,            0.,NA,NA,"",   1.04956E+06,   1.03676E+06,   1.03676E+06
C:/temp/Job-1.odb,Step-1,Increment      1: Step Time =    1.000,"P-1-1",         15123,   50.2026E-03,   134.971E-03,            0.,NA,NA,"",   1.00461E+06,   1.02689E+06,   1.02689E+06
C:/temp/Job-1.odb,Step-1,Increment      1: Step Time =    1.000,"P-1-1",         15124,   44.7262E-03,   156.327E-03,            0.,NA,NA,"",   1.03311E+06,   1.05481E+06,   1.05481E+06
C:/temp/Job-1.odb,Step-1,Increment      1: Step Time =    1.000,"P-1-1",         15125,   46.0228E-03,   53.6592E-03,            0.,NA,NA,"",   1.01893E+06,   1.04371E+06,   1.04371E+06
C:/temp/Job-1.odb,Step-1,Increment      1: Step Time =    1.000,"P-1-1",         15126,   65.8668E-03,   43.7301E-03,            0.,NA,NA,"",   1.06750E+06,   1.07137E+06,   1.07137E+06
C:/temp/Job-1.odb,Step-1,Increment      1: Step Time =    1.000,"P-1-1",         15127,   53.8848E-03,   154.681E-03,            0.,NA,NA,"",   1.05370E+06,   1.06417E+06,   1.06417E+06
C:/temp/Job-1.odb,Step-1,Increment      1: Step Time =    1.000,"P-1-1",         15128,   156.493E-03,   67.0924E-03,            0.,NA,NA,"",   1.03607E+06,   1.02183E+06,   1.02183E+06
C:/temp/Job-1.odb,Step-1,Increment      1: Step Time =    1.000,"P-1-1",         15129,   60.6736E-03,   44.7263E-03,            0.,NA,NA,"",   1.06495E+06,   1.07011E+06,   1.07011E+06
C:/temp/Job-1.odb,Step-1,Increment      1: Step Time =    1.000,"P-1-1",         15130,   154.898E-03,   60.8215E-03,            0.,NA,NA,"",   1.05107E+06,   1.03450E+06,   1.03450E+06
C:/temp/Job-1.odb,Step-1,Increment      1: Step Time =    1.000,"P-1-1",         15131,   129.673E-03,   155.441E-03,            0.,NA,NA,"",   1.06968E+06,   1.06165E+06,   1.06165E+06
C:/temp/Job-1.odb,Step-1,Increment      1: Step Time =    1.000,"P-1-1",         15132,   43.5190E-03,   129.104E-03,            0.,NA,NA,"",   943.415E+03,   984.736E+03,   984.736E+03
C:/temp/Job-1.odb,Step-1,Increment      1: Step Time =    1.000,"P-1-1",         15133,   103.137E-03,   57.4073E-03,            0.,NA,NA,"",   1.03700E+06,   1.08701E+06,   1.08701E+06
C:/temp/Job-1.odb,Step-1,Increment      1: Step Time =    1.000,"P-1-1",         15134,   141.648E-03,   135.155E-03,            0.,NA,NA,"",   1.09619E+06,   1.06500E+06,   1.06500E+06
C:/temp/Job-1.odb,Step-1,Increment      1: Step Time =    1.000,"P-1-1",         15135,   56.3715E-03,   139.207E-03,            0.,NA,NA,"",   1.04995E+06,   1.05850E+06,   1.05850E+06
C:/temp/Job-1.odb,Step-1,Increment      1: Step Time =    1.000,"P-1-1",         15136,   155.105E-03,   129.268E-03,            0.,NA,NA,"",   1.02921E+06,   1.01478E+06,   1.01478E+06
C:/temp/Job-1.odb,Step-1,Increment      1: Step Time =    1.000,"P-1-1",         15137,   129.885E-03,   45.0886E-03,            0.,NA,NA,"",   1.07153E+06,   1.06293E+06,   1.06293E+06
C:/temp/Job-1.odb,Step-1,Increment      1: Step Time =    1.000,"P-1-1",         15138,   155.162E-03,   83.1208E-03,            0.,NA,NA,"",   969.292E+03,   966.242E+03,   966.242E+03
C:/temp/Job-1.odb,Step-1,Increment      1: Step Time =    1.000,"P-1-1",         15139,   109.054E-03,   43.8114E-03,            0.,NA,NA,"",   1.02770E+06,   1.04911E+06,   1.04911E+06
C:/temp/Job-1.odb,Step-1,Increment      1: Step Time =    1.000,"P-1-1",         15140,   105.725E-03,   44.1981E-03,            0.,NA,NA,"",   1.02238E+06,   1.04787E+06,   1.04787E+06
C:/temp/Job-1.odb,Step-1,Increment      1: Step Time =    1.000,"P-1-1",         15141,   58.2785E-03,   142.706E-03,            0.,NA,NA,"",   1.06357E+06,   1.06930E+06,   1.06930E+06
C:/temp/Job-1.odb,Step-1,Increment      1: Step Time =    1.000,"P-1-1",         15142,   87.1402E-03,   45.7605E-03,            0.,NA,NA,"",   1.04119E+06,   1.06326E+06,   1.06326E+06
C:/temp/Job-1.odb,Step-1,Increment      1: Step Time =    1.000,"P-1-1",         15143,   43.3923E-03,   99.2451E-03,            0.,NA,NA,"",   812.001E+03,   875.516E+03,   875.516E+03
C:/temp/Job-1.odb,Step-1,Increment      1: Step Time =    1.000,"P-1-1",         15144,   80.8790E-03,   44.4412E-03,            0.,NA,NA,"",   1.05383E+06,   1.06733E+06,   1.06733E+06
C:/temp/Job-1.odb,Step-1,Increment      1: Step Time =    1.000,"P-1-1",         15145,   70.9333E-03,   45.7619E-03,            0.,NA,NA,"",   1.07191E+06,   1.07657E+06,   1.07657E+06
C:/temp/Job-1.odb,Step-1,Increment      1: Step Time =    1.000,"P-1-1",         15146,   43.7067E-03,   74.6816E-03,            0.,NA,NA,"",   923.887E+03,   968.147E+03,   968.147E+03
C:/temp/Job-1.odb,Step-1,Increment      1: Step Time =    1.000,"P-1-1",         15147,   154.534E-03,   71.5400E-03,            0.,NA,NA,"",   1.02749E+06,   1.01299E+06,   1.01299E+06
C:/temp/Job-1.odb,Step-1,Increment      1: Step Time =    1.000,"P-1-1",         15148,   153.965E-03,   80.1054E-03,            0.,NA,NA,"",   987.617E+03,   979.709E+03,   979.709E+03
C:/temp/Job-1.odb,Step-1,Increment      1: Step Time =    1.000,"P-1-1",         15149,   139.365E-03,   154.679E-03,            0.,NA,NA,"",   1.06998E+06,   1.05535E+06,   1.05535E+06
C:/temp/Job-1.odb,Step-1,Increment      1: Step Time =    1.000,"P-1-1",         15150,   137.303E-03,   155.759E-03,            0.,NA,NA,"",   1.06810E+06,   1.05498E+06,   1.05498E+06
C:/temp/Job-1.odb,Step-1,Increment      1: Step Time =    1.000,"P-1-1",         15151,   122.828E-03,   152.172E-03,            0.,NA,NA,"",   1.07302E+06,   1.07227E+06,   1.07227E+06
C:/temp/Job-1.odb,Step-1,Increment      1: Step Time =    1.000,"P-1-1",         15152,   46.2511E-03,   138.674E-03,            0.,NA,NA,"",   997.281E+03,   1.02612E+06,   1.02612E+06
C:/temp/Job-1.odb,Step-1,Increment      1: Step Time =    1.000,"P-1-1",         15153,   44.9202E-03,   136.983E-03,            0.,NA,NA,"",   985.694E+03,   1.01798E+06,   1.01798E+06
C:/temp/Job-1.odb,Step-1,Increment      1: Step Time =    1.000,"P-1-1",         15154,   119.674E-03,   154.060E-03,            0.,NA,NA,"",   1.05920E+06,   1.06456E+06,   1.06456E+06
C:/temp/Job-1.odb,Step-1,Increment      1: Step Time =    1.000,"P-1-1",         15155,   45.2939E-03,   119.302E-03,            0.,NA,NA,"",   892.984E+03,   940.147E+03,   940.147E+03
C:/temp/Job-1.odb,Step-1,Increment      1: Step Time =    1.000,"P-1-1",         15156,   115.837E-03,   155.465E-03,            0.,NA,NA,"",   1.04545E+06,   1.05723E+06,   1.05723E+06
C:/temp/Job-1.odb,Step-1,Increment      1: Step Time =    1.000,"P-1-1",         15157,   43.9692E-03,   102.517E-03,            0.,NA,NA,"",   812.569E+03,   875.229E+03,   875.229E+03
C:/temp/Job-1.odb,Step-1,Increment      1: Step Time =    1.000,"P-1-1",         15158,   127.673E-03,   156.709E-03,            0.,NA,NA,"",   1.06385E+06,   1.05861E+06,   1.05861E+06
C:/temp/Job-1.odb,Step-1,Increment      1: Step Time =    1.000,"P-1-1",         15159,   43.8505E-03,   127.725E-03,            0.,NA,NA,"",   937.969E+03,   979.733E+03,   979.733E+03
C:/temp/Job-1.odb,Step-1,Increment      1: Step Time =    1.000,"P-1-1",         15160,   148.533E-03,   73.5879E-03,            0.,NA,NA,"",   1.03810E+06,   1.01644E+06,   1.01644E+06
C:/temp/Job-1.odb,Step-1,Increment      1: Step Time =    1.000,"P-1-1",         15161,   90.7930E-03,   45.1507E-03,            0.,NA,NA,"",   1.03136E+06,   1.05692E+06,   1.05692E+06
C:/temp/Job-1.odb,Step-1,Increment      1: Step Time =    1.000,"P-1-1",         15162,   142.926E-03,   138.644E-03,            0.,NA,NA,"",   1.09118E+06,   1.06364E+06,   1.06364E+06
C:/temp/Job-1.odb,Step-1,Increment      1: Step Time =    1.000,"P-1-1",         15163,   103.187E-03,   45.2598E-03,            0.,NA,NA,"",   1.02059E+06,   1.04956E+06,   1.04956E+06
C:/temp/Job-1.odb,Step-1,Increment      1: Step Time =    1.000,"P-1-1",         15164,   100.741E-03,   44.0108E-03,            0.,NA,NA,"",   1.01806E+06,   1.04634E+06,   1.04634E+06
C:/temp/Job-1.odb,Step-1,Increment      1: Step Time =    1.000,"P-1-1",         15165,   119.660E-03,   65.3152E-03,            0.,NA,NA,"",   1.16629E+06,   1.15297E+06,   1.15297E+06
C:/temp/Job-1.odb,Step-1,Increment      1: Step Time =    1.000,"P-1-1",         15166,   97.3935E-03,   53.0776E-03,            0.,NA,NA,"",   1.02901E+06,   1.07194E+06,   1.07194E+06
C:/temp/Job-1.odb,Step-1,Increment      1: Step Time =    1.000,"P-1-1",         15167,   144.667E-03,   43.3453E-03,            0.,NA,NA,"",   1.05969E+06,   1.04587E+06,   1.04587E+06
C:/temp/Job-1.odb,Step-1,Increment      1: Step Time =    1.000,"P-1-1",         15168,   155.564E-03,   145.507E-03,            0.,NA,NA,"",   1.05227E+06,   1.03715E+06,   1.03715E+06
C:/temp/Job-1.odb,Step-1,Increment      1: Step Time =    1.000,"P-1-1",         15169,   80.9320E-03,   53.8025E-03,            0.,NA,NA,"",   1.08486E+06,   1.09869E+06,   1.09869E+06
C:/temp/Job-1.odb,Step-1,Increment      1: Step Time =    1.000,"P-1-1",         15170,   121.904E-03,   155.727E-03,            0.,NA,NA,"",   1.05838E+06,   1.06048E+06,   1.06048E+06
C:/temp/Job-1.odb,Step-1,Increment      1: Step Time =    1.000,"P-1-1",         15171,   111.147E-03,   60.2646E-03,            0.,NA,NA,"",   1.08565E+06,   1.11648E+06,   1.11648E+06
C:/temp/Job-1.odb,Step-1,Increment      1: Step Time =    1.000,"P-1-1",         15172,   41.5617E-03,   100.107E-03,            0.,NA,NA,"",   814.423E+03,   879.805E+03,   879.805E+03
C:/temp/Job-1.odb,Step-1,Increment      1: Step Time =    1.000,"P-1-1",         15173,   107.138E-03,   55.9361E-03,            0.,NA,NA,"",   1.04700E+06,   1.08632E+06,   1.08632E+06
C:/temp/Job-1.odb,Step-1,Increment      1: Step Time =    1.000,"P-1-1",         15174,   130.836E-03,   149.306E-03,            0.,NA,NA,"",   1.09225E+06,   1.07781E+06,   1.07781E+06
C:/temp/Job-1.odb,Step-1,Increment      1: Step Time =    1.000,"P-1-1",         15175,   100.843E-03,   158.052E-03,            0.,NA,NA,"",   1.01602E+06,   1.04158E+06,   1.04158E+06
C:/temp/Job-1.odb,Step-1,Increment      1: Step Time =    1.000,"P-1-1",         15176,   49.7152E-03,   128.710E-03,            0.,NA,NA,"",   971.690E+03,   999.489E+03,   999.489E+03
C:/temp/Job-1.odb,Step-1,Increment      1: Step Time =    1.000,"P-1-1",         15177,   98.9976E-03,   41.3116E-03,            0.,NA,NA,"",   1.01547E+06,   1.04035E+06,   1.04035E+06
C:/temp/Job-1.odb,Step-1,Increment      1: Step Time =    1.000,"P-1-1",         15178,   50.8460E-03,   131.906E-03,            0.,NA,NA,"",   994.689E+03,   1.01738E+06,   1.01738E+06
C:/temp/Job-1.odb,Step-1,Increment      1: Step Time =    1.000,"P-1-1",         15179,   131.358E-03,   148.301E-03,            0.,NA,NA,"",   1.09573E+06,   1.07970E+06,   1.07970E+06
C:/temp/Job-1.odb,Step-1,Increment      1: Step Time =    1.000,"P-1-1",         15180,   55.1144E-03,   60.4057E-03,            0.,NA,NA,"",   1.04418E+06,   1.05503E+06,   1.05503E+06
C:/temp/Job-1.odb,Step-1,Increment      1: Step Time =    1.000,"P-1-1",         15181,   125.678E-03,   156.043E-03,            0.,NA,NA,"",   1.06355E+06,   1.06032E+06,   1.06032E+06
C:/temp/Job-1.odb,Step-1,Increment      1: Step Time =    1.000,"P-1-1",         15182,   126.307E-03,   157.087E-03,            0.,NA,NA,"",   1.06085E+06,   1.05737E+06,   1.05737E+06
C:/temp/Job-1.odb,Step-1,Increment      1: Step Time =    1.000,"P-1-1",         15183,   139.109E-03,   65.3573E-03,            0.,NA,NA,"",   1.10793E+06,   1.07395E+06,   1.07395E+06
C:/temp/Job-1.odb,Step-1,Increment      1: Step Time =    1.000,"P-1-1",         15184,   63.4588E-03,   149.212E-03,            0.,NA,NA,"",   1.07694E+06,   1.07967E+06,   1.07967E+06
C:/temp/Job-1.odb,Step-1,Increment      1: Step Time =    1.000,"P-1-1",         15185,   70.0164E-03,   156.228E-03,            0.,NA,NA,"",   1.06722E+06,   1.07185E+06,   1.07185E+06
C:/temp/Job-1.odb,Step-1,Increment      1: Step Time =    1.000,"P-1-1",         15186,   149.898E-03,   133.066E-03,            0.,NA,NA,"",   1.05745E+06,   1.03542E+06,   1.03542E+06
C:/temp/Job-1.odb,Step-1,Increment      1: Step Time =    1.000,"P-1-1",         15187,   43.4954E-03,   126.449E-03,            0.,NA,NA,"",   929.500E+03,   973.094E+03,   973.094E+03
C:/temp/Job-1.odb,Step-1,Increment      1: Step Time =    1.000,"P-1-1",         15188,   135.049E-03,   64.1218E-03,            0.,NA,NA,"",   1.12631E+06,   1.09127E+06,   1.09127E+06
C:/temp/Job-1.odb,Step-1,Increment      1: Step Time =    1.000,"P-1-1",         15189,   59.2267E-03,   57.7560E-03,            0.,NA,NA,"",   1.06677E+06,   1.07129E+06,   1.07129E+06
C:/temp/Job-1.odb,Step-1,Increment      1: Step Time =    1.000,"P-1-1",         15190,   149.267E-03,   136.118E-03,            0.,NA,NA,"",   1.06556E+06,   1.04293E+06,   1.04293E+06
C:/temp/Job-1.odb,Step-1,Increment      1: Step Time =    1.000,"P-1-1",         15191,   117.553E-03,   44.2377E-03,            0.,NA,NA,"",   1.04906E+06,   1.05788E+06,   1.05788E+06
C:/temp/Job-1.odb,Step-1,Increment      1: Step Time =    1.000,"P-1-1",         15192,   86.8565E-03,   51.6404E-03,            0.,NA,NA,"",   1.05770E+06,   1.08314E+06,   1.08314E+06
C:/temp/Job-1.odb,Step-1,Increment      1: Step Time =    1.000,"P-1-1",         15193,   142.080E-03,   70.2227E-03,            0.,NA,NA,"",   1.08349E+06,   1.05039E+06,   1.05039E+06
C:/temp/Job-1.odb,Step-1,Increment      1: Step Time =    1.000,"P-1-1",         15194,   145.525E-03,   71.0884E-03,            0.,NA,NA,"",   1.06269E+06,   1.03507E+06,   1.03507E+06
C:/temp/Job-1.odb,Step-1,Increment      1: Step Time =    1.000,"P-1-1",         15195,   45.0431E-03,   59.2602E-03,            0.,NA,NA,"",   999.202E+03,   1.02895E+06,   1.02895E+06
C:/temp/Job-1.odb,Step-1,Increment      1: Step Time =    1.000,"P-1-1",         15196,   58.7449E-03,   156.501E-03,            0.,NA,NA,"",   1.06125E+06,   1.06751E+06,   1.06751E+06
C:/temp/Job-1.odb,Step-1,Increment      1: Step Time =    1.000,"P-1-1",         15197,   126.586E-03,   152.301E-03,            0.,NA,NA,"",   1.07849E+06,   1.07183E+06,   1.07183E+06
C:/temp/Job-1.odb,Step-1,Increment      1: Step Time =    1.000,"P-1-1",         15198,   159.375E-03,   98.2428E-03,            0.,NA,NA,"",   922.112E+03,   933.243E+03,   933.243E+03
C:/temp/Job-1.odb,Step-1,Increment      1: Step Time =    1.000,"P-1-1",         15199,   43.3040E-03,   78.1862E-03,            0.,NA,NA,"",   901.977E+03,   950.472E+03,   950.472E+03
C:/temp/Job-1.odb,Step-1,Increment      1: Step Time =    1.000,"P-1-1",         15200,   50.1063E-03,   66.9820E-03,            0.,NA,NA,"",   995.506E+03,   1.01920E+06,   1.01920E+06
C:/temp/Job-1.odb,Step-1,Increment      1: Step Time =    1.000,"P-1-1",         15201,   151.763E-03,   82.2851E-03,            0.,NA,NA,"",   975.019E+03,   967.390E+03,   967.390E+03
C:/temp/Job-1.odb,Step-1,Increment      1: Step Time =    1.000,"P-1-1",         15202,   50.2515E-03,   45.2130E-03,            0.,NA,NA,"",   1.04494E+06,   1.05982E+06,   1.05982E+06
C:/temp/Job-1.odb,Step-1,Increment      1: Step Time =    1.000,"P-1-1",         15203,   155.613E-03,   49.7996E-03,            0.,NA,NA,"",   1.04969E+06,   1.03615E+06,   1.03615E+06
C:/temp/Job-1.odb,Step-1,Increment      1: Step Time =    1.000,"P-1-1",         15204,   154.807E-03,   136.163E-03,            0.,NA,NA,"",   1.04727E+06,   1.03062E+06,   1.03062E+06
C:/temp/Job-1.odb,Step-1,Increment      1: Step Time =    1.000,"P-1-1",         15205,   154.806E-03,   155.607E-03,            0.,NA,NA,"",   1.04615E+06,   1.03419E+06,   1.03419E+06
C:/temp/Job-1.odb,Step-1,Increment      1: Step Time =    1.000,"P-1-1",         15206,   135.425E-03,   45.1653E-03,            0.,NA,NA,"",   1.07207E+06,   1.05915E+06,   1.05915E+06
C:/temp/Job-1.odb,Step-1,Increment      1: Step Time =    1.000,"P-1-1",         15207,   45.6934E-03,   43.9111E-03,            0.,NA,NA,"",   1.03531E+06,   1.05570E+06,   1.05570E+06
C:/temp/Job-1.odb,Step-1,Increment      1: Step Time =    1.000,"P-1-1",         15208,   155.232E-03,   88.0113E-03,            0.,NA,NA,"",   941.858E+03,   944.703E+03,   944.703E+03
C:/temp/Job-1.odb,Step-1,Increment      1: Step Time =    1.000,"P-1-1",         15209,   157.359E-03,   126.772E-03,            0.,NA,NA,"",   1.01477E+06,   1.00454E+06,   1.00454E+06
C:/temp/Job-1.odb,Step-1,Increment      1: Step Time =    1.000,"P-1-1",         15210,   133.110E-03,   63.5991E-03,            0.,NA,NA,"",   1.13350E+06,   1.09911E+06,   1.09911E+06
C:/temp/Job-1.odb,Step-1,Increment      1: Step Time =    1.000,"P-1-1",         15211,   44.9430E-03,   47.5068E-03,            0.,NA,NA,"",   1.02742E+06,   1.05097E+06,   1.05097E+06
C:/temp/Job-1.odb,Step-1,Increment      1: Step Time =    1.000,"P-1-1",         15212,   137.071E-03,   64.5202E-03,            0.,NA,NA,"",   1.11772E+06,   1.08300E+06,   1.08300E+06
C:/temp/Job-1.odb,Step-1,Increment      1: Step Time =    1.000,"P-1-1",         15213,   147.719E-03,   136.124E-03,            0.,NA,NA,"",   1.07133E+06,   1.04703E+06,   1.04703E+06
C:/temp/Job-1.odb,Step-1,Increment      1: Step Time =    1.000,"P-1-1",         15214,   70.3955E-03,   54.6147E-03,            0.,NA,NA,"",   1.09652E+06,   1.09651E+06,   1.09651E+06
C:/temp/Job-1.odb,Step-1,Increment      1: Step Time =    1.000,"P-1-1",         15215,   89.6218E-03,   51.8219E-03,            0.,NA,NA,"",   1.04797E+06,   1.07891E+06,   1.07891E+06
C:/temp/Job-1.odb,Step-1,Increment      1: Step Time =    1.000,"P-1-1",         15216,   48.9666E-03,   125.468E-03,            0.,NA,NA,"",   947.972E+03,   980.538E+03,   980.538E+03
C:/temp/Job-1.odb,Step-1,Increment      1: Step Time =    1.000,"P-1-1",         15217,   140.631E-03,   67.8955E-03,            0.,NA,NA,"",   1.09732E+06,   1.06316E+06,   1.06316E+06
C:/temp/Job-1.odb,Step-1,Increment      1: Step Time =    1.000,"P-1-1",         15218,   101.823E-03,   53.7957E-03,            0.,NA,NA,"",   1.02925E+06,   1.07292E+06,   1.07292E+06
C:/temp/Job-1.odb,Step-1,Increment      1: Step Time =    1.000,"P-1-1",         15219,   105.814E-03,   71.5425E-03,            0.,NA,NA,"",   1.13267E+06,   1.21006E+06,   1.21006E+06
C:/temp/Job-1.odb,Step-1,Increment      1: Step Time =    1.000,"P-1-1",         15220,   55.6636E-03,   44.7610E-03,            0.,NA,NA,"",   1.05708E+06,   1.06576E+06,   1.06576E+06
C:/temp/Job-1.odb,Step-1,Increment      1: Step Time =    1.000,"P-1-1",         15221,   154.822E-03,   54.7825E-03,            0.,NA,NA,"",   1.05375E+06,   1.03814E+06,   1.03814E+06
C:/temp/Job-1.odb,Step-1,Increment      1: Step Time =    1.000,"P-1-1",         15222,   144.466E-03,   135.124E-03,            0.,NA,NA,"",   1.08367E+06,   1.05535E+06,   1.05535E+06
C:/temp/Job-1.odb,Step-1,Increment      1: Step Time =    1.000,"P-1-1",         15223,   102.929E-03,   156.672E-03,            0.,NA,NA,"",   1.01821E+06,   1.04481E+06,   1.04481E+06
C:/temp/Job-1.odb,Step-1,Increment      1: Step Time =    1.000,"P-1-1",         15224,   150.454E-03,   43.7815E-03,            0.,NA,NA,"",   1.05241E+06,   1.03923E+06,   1.03923E+06
C:/temp/Job-1.odb,Step-1,Increment      1: Step Time =    1.000,"P-1-1",         15225,   156.036E-03,   150.899E-03,            0.,NA,NA,"",   1.04855E+06,   1.03539E+06,   1.03539E+06
C:/temp/Job-1.odb,Step-1,Increment      1: Step Time =    1.000,"P-1-1",         15226,   97.3185E-03,   44.2397E-03,            0.,NA,NA,"",   1.01950E+06,   1.04807E+06,   1.04807E+06
C:/temp/Job-1.odb,Step-1,Increment      1: Step Time =    1.000,"P-1-1",         15227,   95.0080E-03,   44.4351E-03,            0.,NA,NA,"",   1.02206E+06,   1.05021E+06,   1.05021E+06
C:/temp/Job-1.odb,Step-1,Increment      1: Step Time =    1.000,"P-1-1",         15228,   126.121E-03,   43.7694E-03,            0.,NA,NA,"",   1.06352E+06,   1.05990E+06,   1.05990E+06
C:/temp/Job-1.odb,Step-1,Increment      1: Step Time =    1.000,"P-1-1",         15229,   43.7919E-03,   115.273E-03,            0.,NA,NA,"",   864.398E+03,   918.545E+03,   918.545E+03
C:/temp/Job-1.odb,Step-1,Increment      1: Step Time =    1.000,"P-1-1",         15230,   84.3503E-03,   51.7278E-03,            0.,NA,NA,"",   1.06679E+06,   1.08740E+06,   1.08740E+06
C:/temp/Job-1.odb,Step-1,Increment      1: Step Time =    1.000,"P-1-1",         15231,   67.5022E-03,   53.6190E-03,            0.,NA,NA,"",   1.08946E+06,   1.08976E+06,   1.08976E+06
C:/temp/Job-1.odb,Step-1,Increment      1: Step Time =    1.000,"P-1-1",         15232,   85.0431E-03,   43.8098E-03,            0.,NA,NA,"",   1.04258E+06,   1.06064E+06,   1.06064E+06
C:/temp/Job-1.odb,Step-1,Increment      1: Step Time =    1.000,"P-1-1",         15233,   106.371E-03,   156.141E-03,            0.,NA,NA,"",   1.02298E+06,   1.04731E+06,   1.04731E+06
C:/temp/Job-1.odb,Step-1,Increment      1: Step Time =    1.000,"P-1-1",         15234,   133.428E-03,   45.2637E-03,            0.,NA,NA,"",   1.07290E+06,   1.06113E+06,   1.06113E+06
C:/temp/Job-1.odb,Step-1,Increment      1: Step Time =    1.000,"P-1-1",         15235,   155.293E-03,   76.9517E-03,            0.,NA,NA,"",   1.00278E+06,   993.146E+03,   993.146E+03
C:/temp/Job-1.odb,Step-1,Increment      1: Step Time =    1.000,"P-1-1",         15236,   77.1699E-03,   44.9579E-03,            0.,NA,NA,"",   1.06297E+06,   1.07249E+06,   1.07249E+06
C:/temp/Job-1.odb,Step-1,Increment      1: Step Time =    1.000,"P-1-1",         15237,   124.736E-03,   63.3510E-03,            0.,NA,NA,"",   1.15475E+06,   1.13002E+06,   1.13002E+06
C:/temp/Job-1.odb,Step-1,Increment      1: Step Time =    1.000,"P-1-1",         15238,   120.314E-03,   46.1322E-03,            0.,NA,NA,"",   1.06111E+06,   1.06539E+06,   1.06539E+06
C:/temp/Job-1.odb,Step-1,Increment      1: Step Time =    1.000,"P-1-1",         15239,   100.061E-03,   52.2244E-03,            0.,NA,NA,"",   1.02623E+06,   1.06779E+06,   1.06779E+06
C:/temp/Job-1.odb,Step-1,Increment      1: Step Time =    1.000,"P-1-1",         15240,   154.807E-03,   132.797E-03,            0.,NA,NA,"",   1.04052E+06,   1.02445E+06,   1.02445E+06
C:/temp/Job-1.odb,Step-1,Increment      1: Step Time =    1.000,"P-1-1",         15241,   131.988E-03,   45.9395E-03,            0.,NA,NA,"",   1.07500E+06,   1.06384E+06,   1.06384E+06
C:/temp/Job-1.odb,Step-1,Increment      1: Step Time =    1.000,"P-1-1",         15242,   118.994E-03,   155.277E-03,            0.,NA,NA,"",   1.05359E+06,   1.06017E+06,   1.06017E+06
C:/temp/Job-1.odb,Step-1,Increment      1: Step Time =    1.000,"P-1-1",         15243,   44.1298E-03,   122.233E-03,            0.,NA,NA,"",   907.623E+03,   954.014E+03,   954.014E+03
C:/temp/Job-1.odb,Step-1,Increment      1: Step Time =    1.000,"P-1-1",         15244,   66.9924E-03,   156.967E-03,            0.,NA,NA,"",   1.06616E+06,   1.07020E+06,   1.07020E+06
C:/temp/Job-1.odb,Step-1,Increment      1: Step Time =    1.000,"P-1-1",         15245,   46.0668E-03,   141.751E-03,            0.,NA,NA,"",   1.00683E+06,   1.03404E+06,   1.03404E+06
C:/temp/Job-1.odb,Step-1,Increment      1: Step Time =    1.000,"P-1-1",         15246,   143.007E-03,   154.772E-03,            0.,NA,NA,"",   1.06606E+06,   1.05088E+06,   1.05088E+06
C:/temp/Job-1.odb,Step-1,Increment      1: Step Time =    1.000,"P-1-1",         15247,   47.2099E-03,   152.500E-03,            0.,NA,NA,"",   1.03422E+06,   1.05424E+06,   1.05424E+06
C:/temp/Job-1.odb,Step-1,Increment      1: Step Time =    1.000,"P-1-1",         15248,   152.331E-03,   152.777E-03,            0.,NA,NA,"",   1.05424E+06,   1.03998E+06,   1.03998E+06
C:/temp/Job-1.odb,Step-1,Increment      1: Step Time =    1.000,"P-1-1",         15249,   46.4706E-03,   47.7920E-03,            0.,NA,NA,"",   1.03160E+06,   1.05288E+06,   1.05288E+06
C:/temp/Job-1.odb,Step-1,Increment      1: Step Time =    1.000,"P-1-1",         15250,   153.979E-03,   46.9737E-03,            0.,NA,NA,"",   1.05065E+06,   1.03728E+06,   1.03728E+06
C:/temp/Job-1.odb,Step-1,Increment      1: Step Time =    1.000,"P-1-1",         15251,   64.4820E-03,   54.6526E-03,            0.,NA,NA,"",   1.08437E+06,   1.08503E+06,   1.08503E+06
C:/temp/Job-1.odb,Step-1,Increment      1: Step Time =    1.000,"P-1-1",         15252,   153.493E-03,   139.082E-03,            0.,NA,NA,"",   1.05511E+06,   1.03715E+06,   1.03715E+06
C:/temp/Job-1.odb,Step-1,Increment      1: Step Time =    1.000,"P-1-1",         15253,   138.712E-03,   46.0329E-03,            0.,NA,NA,"",   1.07235E+06,   1.05737E+06,   1.05737E+06
C:/temp/Job-1.odb,Step-1,Increment      1: Step Time =    1.000,"P-1-1",         15254,   112.530E-03,   47.3160E-03,            0.,NA,NA,"",   1.04402E+06,   1.06293E+06,   1.06293E+06
C:/temp/Job-1.odb,Step-1,Increment      1: Step Time =    1.000,"P-1-1",         15255,   122.983E-03,   45.3255E-03,            0.,NA,NA,"",   1.06435E+06,   1.06428E+06,   1.06428E+06
C:/temp/Job-1.odb,Step-1,Increment      1: Step Time =    1.000,"P-1-1",         15256,   94.1706E-03,   45.7818E-03,            0.,NA,NA,"",   1.02515E+06,   1.05449E+06,   1.05449E+06
C:/temp/Job-1.odb,Step-1,Increment      1: Step Time =    1.000,"P-1-1",         15257,   40.8151E-03,   105.808E-03,            0.,NA,NA,"",   822.536E+03,   887.535E+03,   887.535E+03
C:/temp/Job-1.odb,Step-1,Increment      1: Step Time =    1.000,"P-1-1",         15258,   107.497E-03,   158.197E-03,            0.,NA,NA,"",   1.02179E+06,   1.04293E+06,   1.04293E+06
C:/temp/Job-1.odb,Step-1,Increment      1: Step Time =    1.000,"P-1-1",         15259,   45.5182E-03,   135.662E-03,            0.,NA,NA,"",   983.376E+03,   1.01531E+06,   1.01531E+06
C:/temp/Job-1.odb,Step-1,Increment      1: Step Time =    1.000,"P-1-1",         15260,   135.891E-03,   155.745E-03,            0.,NA,NA,"",   1.06908E+06,   1.05656E+06,   1.05656E+06
C:/temp/Job-1.odb,Step-1,Increment      1: Step Time =    1.000,"P-1-1",         15261,   156.144E-03,   64.7543E-03,            0.,NA,NA,"",   1.04207E+06,   1.02690E+06,   1.02690E+06
C:/temp/Job-1.odb,Step-1,Increment      1: Step Time =    1.000,"P-1-1",         15262,   64.5203E-03,   43.6600E-03,            0.,NA,NA,"",   1.06679E+06,   1.07077E+06,   1.07077E+06
C:/temp/Job-1.odb,Step-1,Increment      1: Step Time =    1.000,"P-1-1",         15263,   67.3675E-03,   151.382E-03,            0.,NA,NA,"",   1.07844E+06,   1.08118E+06,   1.08118E+06
C:/temp/Job-1.odb,Step-1,Increment      1: Step Time =    1.000,"P-1-1",         15264,   47.4529E-03,   146.157E-03,            0.,NA,NA,"",   1.02399E+06,   1.04638E+06,   1.04638E+06
C:/temp/Job-1.odb,Step-1,Increment      1: Step Time =    1.000,"P-1-1",         15265,   146.438E-03,   154.720E-03,            0.,NA,NA,"",   1.06124E+06,   1.04634E+06,   1.04634E+06
C:/temp/Job-1.odb,Step-1,Increment      1: Step Time =    1.000,"P-1-1",         15266,   57.4464E-03,   58.3769E-03,            0.,NA,NA,"",   1.05921E+06,   1.06594E+06,   1.06594E+06
C:/temp/Job-1.odb,Step-1,Increment      1: Step Time =    1.000,"P-1-1",         15267,   129.284E-03,   151.682E-03,            0.,NA,NA,"",   1.08288E+06,   1.07239E+06,   1.07239E+06
C:/temp/Job-1.odb,Step-1,Increment      1: Step Time =    1.000,"P-1-1",         15268,   155.175E-03,   57.9841E-03,            0.,NA,NA,"",   1.05231E+06,   1.03630E+06,   1.03630E+06
C:/temp/Job-1.odb,Step-1,Increment      1: Step Time =    1.000,"P-1-1",         15269,   58.4421E-03,   45.3580E-03,            0.,NA,NA,"",   1.06244E+06,   1.06889E+06,   1.06889E+06
C:/temp/Job-1.odb,Step-1,Increment      1: Step Time =    1.000,"P-1-1",         15270,   60.4985E-03,   145.706E-03,            0.,NA,NA,"",   1.07234E+06,   1.07607E+06,   1.07607E+06
C:/temp/Job-1.odb,Step-1,Increment      1: Step Time =    1.000,"P-1-1",         15271,   110.300E-03,   57.8699E-03,            0.,NA,NA,"",   1.06918E+06,   1.10163E+06,   1.10163E+06
C:/temp/Job-1.odb,Step-1,Increment      1: Step Time =    1.000,"P-1-1",         15272,   55.2480E-03,   135.845E-03,            0.,NA,NA,"",   1.03544E+06,   1.04671E+06,   1.04671E+06
C:/temp/Job-1.odb,Step-1,Increment      1: Step Time =    1.000,"P-1-1",         15273,   140.549E-03,   145.519E-03,            0.,NA,NA,"",   1.09046E+06,   1.06776E+06,   1.06776E+06
C:/temp/Job-1.odb,Step-1,Increment      1: Step Time =    1.000,"P-1-1",         15274,   53.4023E-03,   61.2408E-03,            0.,NA,NA,"",   1.03345E+06,   1.04770E+06,   1.04770E+06
C:/temp/Job-1.odb,Step-1,Increment      1: Step Time =    1.000,"P-1-1",         15275,   49.3149E-03,   131.722E-03,            0.,NA,NA,"",   985.295E+03,   1.01166E+06,   1.01166E+06
C:/temp/Job-1.odb,Step-1,Increment      1: Step Time =    1.000,"P-1-1",         15276,   155.560E-03,   51.6277E-03,            0.,NA,NA,"",   1.05111E+06,   1.03688E+06,   1.03688E+06
C:/temp/Job-1.odb,Step-1,Increment      1: Step Time =    1.000,"P-1-1",         15277,   51.4843E-03,   44.9769E-03,            0.,NA,NA,"",   1.04803E+06,   1.06129E+06,   1.06129E+06
C:/temp/Job-1.odb,Step-1,Increment      1: Step Time =    1.000,"P-1-1",         15278,   53.9686E-03,   58.5293E-03,            0.,NA,NA,"",   1.04222E+06,   1.05488E+06,   1.05488E+06
C:/temp/Job-1.odb,Step-1,Increment      1: Step Time =    1.000,"P-1-1",         15279,   154.759E-03,   146.572E-03,            0.,NA,NA,"",   1.05377E+06,   1.03846E+06,   1.03846E+06
C:/temp/Job-1.odb,Step-1,Increment      1: Step Time =    1.000,"P-1-1",         15280,   145.307E-03,   44.6547E-03,            0.,NA,NA,"",   1.06188E+06,   1.04718E+06,   1.04718E+06
C:/temp/Job-1.odb,Step-1,Increment      1: Step Time =    1.000,"P-1-1",         15281,   66.7041E-03,   149.089E-03,            0.,NA,NA,"",   1.08256E+06,   1.08436E+06,   1.08436E+06
C:/temp/Job-1.odb,Step-1,Increment      1: Step Time =    1.000,"P-1-1",         15282,   153.672E-03,   49.4184E-03,            0.,NA,NA,"",   1.05352E+06,   1.03905E+06,   1.03905E+06
C:/temp/Job-1.odb,Step-1,Increment      1: Step Time =    1.000,"P-1-1",         15283,   50.3360E-03,   46.6507E-03,            0.,NA,NA,"",   1.04416E+06,   1.05933E+06,   1.05933E+06
C:/temp/Job-1.odb,Step-1,Increment      1: Step Time =    1.000,"P-1-1",         15284,   56.9120E-03,   46.4931E-03,            0.,NA,NA,"",   1.05997E+06,   1.06775E+06,   1.06775E+06
C:/temp/Job-1.odb,Step-1,Increment      1: Step Time =    1.000,"P-1-1",         15285,   152.570E-03,   57.4720E-03,            0.,NA,NA,"",   1.05976E+06,   1.04169E+06,   1.04169E+06
C:/temp/Job-1.odb,Step-1,Increment      1: Step Time =    1.000,"P-1-1",         15286,   149.001E-03,   154.433E-03,            0.,NA,NA,"",   1.05787E+06,   1.04329E+06,   1.04329E+06
C:/temp/Job-1.odb,Step-1,Increment      1: Step Time =    1.000,"P-1-1",         15287,   46.7684E-03,   148.623E-03,            0.,NA,NA,"",   1.02625E+06,   1.04876E+06,   1.04876E+06
C:/temp/Job-1.odb,Step-1,Increment      1: Step Time =    1.000,"P-1-1",         15288,   79.2484E-03,   53.6906E-03,            0.,NA,NA,"",   1.08868E+06,   1.09924E+06,   1.09924E+06
C:/temp/Job-1.odb,Step-1,Increment      1: Step Time =    1.000,"P-1-1",         15289,   80.5434E-03,   51.7133E-03,            0.,NA,NA,"",   1.07773E+06,   1.09120E+06,   1.09120E+06
C:/temp/Job-1.odb,Step-1,Increment      1: Step Time =    1.000,"P-1-1",         15290,   47.6723E-03,   122.651E-03,            0.,NA,NA,"",   923.472E+03,   962.070E+03,   962.070E+03
C:/temp/Job-1.odb,Step-1,Increment      1: Step Time =    1.000,"P-1-1",         15291,   51.0068E-03,   130.348E-03,            0.,NA,NA,"",   987.824E+03,   1.01126E+06,   1.01126E+06
C:/temp/Job-1.odb,Step-1,Increment      1: Step Time =    1.000,"P-1-1",         15292,   47.8743E-03,   124.728E-03,            0.,NA,NA,"",   938.683E+03,   974.379E+03,   974.379E+03
C:/temp/Job-1.odb,Step-1,Increment      1: Step Time =    1.000,"P-1-1",         15293,   48.3202E-03,   128.594E-03,            0.,NA,NA,"",   963.899E+03,   994.925E+03,   994.925E+03
C:/temp/Job-1.odb,Step-1,Increment      1: Step Time =    1.000,"P-1-1",         15294,   149.305E-03,   137.702E-03,            0.,NA,NA,"",   1.06752E+06,   1.04519E+06,   1.04519E+06
C:/temp/Job-1.odb,Step-1,Increment      1: Step Time =    1.000,"P-1-1",         15295,   114.872E-03,   60.9647E-03,            0.,NA,NA,"",   1.11284E+06,   1.12723E+06,   1.12723E+06
C:/temp/Job-1.odb,Step-1,Increment      1: Step Time =    1.000,"P-1-1",         15296,   49.8199E-03,   136.474E-03,            0.,NA,NA,"",   1.00781E+06,   1.03027E+06,   1.03027E+06
C:/temp/Job-1.odb,Step-1,Increment      1: Step Time =    1.000,"P-1-1",         15297,   53.2370E-03,   65.0320E-03,            0.,NA,NA,"",   1.02113E+06,   1.03688E+06,   1.03688E+06
C:/temp/Job-1.odb,Step-1,Increment      1: Step Time =    1.000,"P-1-1",         15298,   64.9360E-03,   41.2425E-03,            0.,NA,NA,"",   1.06267E+06,   1.06682E+06,   1.06682E+06
C:/temp/Job-1.odb,Step-1,Increment      1: Step Time =    1.000,"P-1-1",         15299,   158.078E-03,   64.7549E-03,            0.,NA,NA,"",   1.03671E+06,   1.02355E+06,   1.02355E+06
C:/temp/Job-1.odb,Step-1,Increment      1: Step Time =    1.000,"P-1-1",         15300,   153.125E-03,   76.8131E-03,            0.,NA,NA,"",   1.00763E+06,   995.204E+03,   995.204E+03
C:/temp/Job-1.odb,Step-1,Increment      1: Step Time =    1.000,"P-1-1",         15301,   77.3133E-03,   46.3734E-03,            0.,NA,NA,"",   1.06656E+06,   1.07602E+06,   1.07602E+06
C:/temp/Job-1.odb,Step-1,Increment      1: Step Time =    1.000,"P-1-1",         15302,   142.464E-03,   68.2841E-03,            0.,NA,NA,"",   1.08706E+06,   1.05508E+06,   1.05508E+06
C:/temp/Job-1.odb,Step-1,Increment      1: Step Time =    1.000,"P-1-1",         15303,   105.339E-03,   54.6639E-03,            0.,NA,NA,"",   1.03809E+06,   1.07887E+06,   1.07887E+06
C:/temp/Job-1.odb,Step-1,Increment      1: Step Time =    1.000,"P-1-1",         15304,   46.9552E-03,   135.957E-03,            0.,NA,NA,"",   991.302E+03,   1.02008E+06,   1.02008E+06
C:/temp/Job-1.odb,Step-1,Increment      1: Step Time =    1.000,"P-1-1",         15305,   136.095E-03,   154.159E-03,            0.,NA,NA,"",   1.07398E+06,   1.06008E+06,   1.06008E+06
C:/temp/Job-1.odb,Step-1,Increment      1: Step Time =    1.000,"P-1-1",         15306,   138.969E-03,   146.214E-03,            0.,NA,NA,"",   1.09285E+06,   1.07069E+06,   1.07069E+06
C:/temp/Job-1.odb,Step-1,Increment      1: Step Time =    1.000,"P-1-1",         15307,   50.8660E-03,   65.1281E-03,            0.,NA,NA,"",   1.00752E+06,   1.02841E+06,   1.02841E+06
C:/temp/Job-1.odb,Step-1,Increment      1: Step Time =    1.000,"P-1-1",         15308,   151.858E-03,   77.7590E-03,            0.,NA,NA,"",   1.00497E+06,   991.812E+03,   991.812E+03
C:/temp/Job-1.odb,Step-1,Increment      1: Step Time =    1.000,"P-1-1",         15309,   143.343E-03,   144.028E-03,            0.,NA,NA,"",   1.08561E+06,   1.06239E+06,   1.06239E+06
C:/temp/Job-1.odb,Step-1,Increment      1: Step Time =    1.000,"P-1-1",         15310,   66.8029E-03,   155.330E-03,            0.,NA,NA,"",   1.06965E+06,   1.07343E+06,   1.07343E+06
C:/temp/Job-1.odb,Step-1,Increment      1: Step Time =    1.000,"P-1-1",         15311,   68.4359E-03,   153.584E-03,            0.,NA,NA,"",   1.07388E+06,   1.07749E+06,   1.07749E+06
C:/temp/Job-1.odb,Step-1,Increment      1: Step Time =    1.000,"P-1-1",         15312,   63.9395E-03,   45.9167E-03,            0.,NA,NA,"",   1.07041E+06,   1.07413E+06,   1.07413E+06
C:/temp/Job-1.odb,Step-1,Increment      1: Step Time =    1.000,"P-1-1",         15313,   110.232E-03,   48.8700E-03,            0.,NA,NA,"",   1.04095E+06,   1.06521E+06,   1.06521E+06
C:/temp/Job-1.odb,Step-1,Increment      1: Step Time =    1.000,"P-1-1",         15314,   153.180E-03,   140.713E-03,            0.,NA,NA,"",   1.05743E+06,   1.03936E+06,   1.03936E+06
C:/temp/Job-1.odb,Step-1,Increment      1: Step Time =    1.000,"P-1-1",         15315,   140.292E-03,   46.4714E-03,            0.,NA,NA,"",   1.07203E+06,   1.05632E+06,   1.05632E+06
C:/temp/Job-1.odb,Step-1,Increment      1: Step Time =    1.000,"P-1-1",         15316,   99.6087E-03,   158.618E-03,            0.,NA,NA,"",   1.01544E+06,   1.04050E+06,   1.04050E+06
C:/temp/Job-1.odb,Step-1,Increment      1: Step Time =    1.000,"P-1-1",         15317,   63.0516E-03,   54.3294E-03,            0.,NA,NA,"",   1.08003E+06,   1.08171E+06,   1.08171E+06
C:/temp/Job-1.odb,Step-1,Increment      1: Step Time =    1.000,"P-1-1",         15318,   114.248E-03,   47.2010E-03,            0.,NA,NA,"",   1.04900E+06,   1.06441E+06,   1.06441E+06
C:/temp/Job-1.odb,Step-1,Increment      1: Step Time =    1.000,"P-1-1",         15319,   135.742E-03,   148.715E-03,            0.,NA,NA,"",   1.09089E+06,   1.07224E+06,   1.07224E+06
C:/temp/Job-1.odb,Step-1,Increment      1: Step Time =    1.000,"P-1-1",         15320,   67.0212E-03,   44.1999E-03,            0.,NA,NA,"",   1.06877E+06,   1.07262E+06,   1.07262E+06
C:/temp/Job-1.odb,Step-1,Increment      1: Step Time =    1.000,"P-1-1",         15321,   57.6474E-03,   144.224E-03,            0.,NA,NA,"",   1.06174E+06,   1.06854E+06,   1.06854E+06
C:/temp/Job-1.odb,Step-1,Increment      1: Step Time =    1.000,"P-1-1",         15322,   99.7081E-03,   50.6352E-03,            0.,NA,NA,"",   1.02446E+06,   1.06321E+06,   1.06321E+06
C:/temp/Job-1.odb,Step-1,Increment      1: Step Time =    1.000,"P-1-1",         15323,   149.953E-03,   74.4817E-03,            0.,NA,NA,"",   1.02821E+06,   1.00948E+06,   1.00948E+06
C:/temp/Job-1.odb,Step-1,Increment      1: Step Time =    1.000,"P-1-1",         15324,   147.211E-03,   73.8184E-03,            0.,NA,NA,"",   1.04213E+06,   1.01845E+06,   1.01845E+06
C:/temp/Job-1.odb,Step-1,Increment      1: Step Time =    1.000,"P-1-1",         15325,   151.346E-03,   133.406E-03,            0.,NA,NA,"",   1.05305E+06,   1.03280E+06,   1.03280E+06
C:/temp/Job-1.odb,Step-1,Increment      1: Step Time =    1.000,"P-1-1",         15326,   48.3177E-03,   65.2818E-03,            0.,NA,NA,"",   993.589E+03,   1.02009E+06,   1.02009E+06
C:/temp/Job-1.odb,Step-1,Increment      1: Step Time =    1.000,"P-1-1",         15327,   132.534E-03,   151.667E-03,            0.,NA,NA,"",   1.08351E+06,   1.06963E+06,   1.06963E+06
C:/temp/Job-1.odb,Step-1,Increment      1: Step Time =    1.000,"P-1-1",         15328,   64.7063E-03,   149.813E-03,            0.,NA,NA,"",   1.07827E+06,   1.08073E+06,   1.08073E+06
C:/temp/Job-1.odb,Step-1,Increment      1: Step Time =    1.000,"P-1-1",         15329,   44.8227E-03,   126.072E-03,            0.,NA,NA,"",   932.589E+03,   973.853E+03,   973.853E+03
C:/temp/Job-1.odb,Step-1,Increment      1: Step Time =    1.000,"P-1-1",         15330,   126.331E-03,   62.8665E-03,            0.,NA,NA,"",   1.15046E+06,   1.12344E+06,   1.12344E+06
C:/temp/Job-1.odb,Step-1,Increment      1: Step Time =    1.000,"P-1-1",         15331,   130.195E-03,   64.7794E-03,            0.,NA,NA,"",   1.14809E+06,   1.11243E+06,   1.11243E+06
C:/temp/Job-1.odb,Step-1,Increment      1: Step Time =    1.000,"P-1-1",         15332,   153.744E-03,   129.448E-03,            0.,NA,NA,"",   1.03364E+06,   1.01745E+06,   1.01745E+06
C:/temp/Job-1.odb,Step-1,Increment      1: Step Time =    1.000,"P-1-1",         15333,   45.5357E-03,   60.6871E-03,            0.,NA,NA,"",   996.944E+03,   1.02650E+06,   1.02650E+06
C:/temp/Job-1.odb,Step-1,Increment      1: Step Time =    1.000,"P-1-1",         15334,   61.3426E-03,   155.821E-03,            0.,NA,NA,"",   1.06501E+06,   1.06985E+06,   1.06985E+06
C:/temp/Job-1.odb,Step-1,Increment      1: Step Time =    1.000,"P-1-1",         15335,   127.148E-03,   153.584E-03,            0.,NA,NA,"",   1.07423E+06,   1.06774E+06,   1.06774E+06
C:/temp/Job-1.odb,Step-1,Increment      1: Step Time =    1.000,"P-1-1",         15336,   147.033E-03,   72.4780E-03,            0.,NA,NA,"",   1.04975E+06,   1.02502E+06,   1.02502E+06
C:/temp/Job-1.odb,Step-1,Increment      1: Step Time =    1.000,"P-1-1",         15337,   145.582E-03,   69.5286E-03,            0.,NA,NA,"",   1.06804E+06,   1.04034E+06,   1.04034E+06
C:/temp/Job-1.odb,Step-1,Increment      1: Step Time =    1.000,"P-1-1",         15338,   106.908E-03,   54.3543E-03,            0.,NA,NA,"",   1.04250E+06,   1.07980E+06,   1.07980E+06
C:/temp/Job-1.odb,Step-1,Increment      1: Step Time =    1.000,"P-1-1",         15339,   153.509E-03,   83.2382E-03,            0.,NA,NA,"",   968.338E+03,   963.916E+03,   963.916E+03
C:/temp/Job-1.odb,Step-1,Increment      1: Step Time =    1.000,"P-1-1",         15340,   46.6337E-03,   48.6362E-03,            0.,NA,NA,"",   1.03086E+06,   1.05220E+06,   1.05220E+06
C:/temp/Job-1.odb,Step-1,Increment      1: Step Time =    1.000,"P-1-1",         15341,   134.501E-03,   62.9499E-03,            0.,NA,NA,"",   1.12633E+06,   1.09302E+06,   1.09302E+06
C:/temp/Job-1.odb,Step-1,Increment      1: Step Time =    1.000,"P-1-1",         15342,   146.145E-03,   136.386E-03,            0.,NA,NA,"",   1.07765E+06,   1.05175E+06,   1.05175E+06
C:/temp/Job-1.odb,Step-1,Increment      1: Step Time =    1.000,"P-1-1",         15343,   151.750E-03,   131.999E-03,            0.,NA,NA,"",   1.04816E+06,   1.02858E+06,   1.02858E+06
C:/temp/Job-1.odb,Step-1,Increment      1: Step Time =    1.000,"P-1-1",         15344,   57.0119E-03,   142.245E-03,            0.,NA,NA,"",   1.05765E+06,   1.06517E+06,   1.06517E+06
C:/temp/Job-1.odb,Step-1,Increment      1: Step Time =    1.000,"P-1-1",         15345,   136.459E-03,   63.3916E-03,            0.,NA,NA,"",   1.11899E+06,   1.08547E+06,   1.08547E+06
C:/temp/Job-1.odb,Step-1,Increment      1: Step Time =    1.000,"P-1-1",         15346,   54.2387E-03,   44.7185E-03,            0.,NA,NA,"",   1.05426E+06,   1.06431E+06,   1.06431E+06
C:/temp/Job-1.odb,Step-1,Increment      1: Step Time =    1.000,"P-1-1",         15347,   155.841E-03,   53.5509E-03,            0.,NA,NA,"",   1.05114E+06,   1.03655E+06,   1.03655E+06
C:/temp/Job-1.odb,Step-1,Increment      1: Step Time =    1.000,"P-1-1",         15348,   153.515E-03,   136.376E-03,            0.,NA,NA,"",   1.05160E+06,   1.03354E+06,   1.03354E+06
C:/temp/Job-1.odb,Step-1,Increment      1: Step Time =    1.000,"P-1-1",         15349,   136.500E-03,   47.0964E-03,            0.,NA,NA,"",   1.07749E+06,   1.06241E+06,   1.06241E+06
C:/temp/Job-1.odb,Step-1,Increment      1: Step Time =    1.000,"P-1-1",         15350,   153.616E-03,   152.060E-03,            0.,NA,NA,"",   1.05228E+06,   1.03836E+06,   1.03836E+06
C:/temp/Job-1.odb,Step-1,Increment      1: Step Time =    1.000,"P-1-1",         15351,   142.975E-03,   134.830E-03,            0.,NA,NA,"",   1.08955E+06,   1.05959E+06,   1.05959E+06
C:/temp/Job-1.odb,Step-1,Increment      1: Step Time =    1.000,"P-1-1",         15352,   42.0222E-03,   98.9083E-03,            0.,NA,NA,"",   814.058E+03,   878.935E+03,   878.935E+03
C:/temp/Job-1.odb,Step-1,Increment      1: Step Time =    1.000,"P-1-1",         15353,   120.215E-03,   62.3097E-03,            0.,NA,NA,"",   1.14317E+06,   1.13434E+06,   1.13434E+06
C:/temp/Job-1.odb,Step-1,Increment      1: Step Time =    1.000,"P-1-1",         15354,   96.2055E-03,   45.3079E-03,            0.,NA,NA,"",   1.02155E+06,   1.05122E+06,   1.05122E+06
C:/temp/Job-1.odb,Step-1,Increment      1: Step Time =    1.000,"P-1-1",         15355,   103.397E-03,   53.4510E-03,            0.,NA,NA,"",   1.03119E+06,   1.07277E+06,   1.07277E+06
C:/temp/Job-1.odb,Step-1,Increment      1: Step Time =    1.000,"P-1-1",         15356,   100.206E-03,   42.1337E-03,            0.,NA,NA,"",   1.01615E+06,   1.04204E+06,   1.04204E+06
C:/temp/Job-1.odb,Step-1,Increment      1: Step Time =    1.000,"P-1-1",         15357,   123.679E-03,   46.2639E-03,            0.,NA,NA,"",   1.06871E+06,   1.06719E+06,   1.06719E+06
C:/temp/Job-1.odb,Step-1,Increment      1: Step Time =    1.000,"P-1-1",         15358,   147.724E-03,   153.514E-03,            0.,NA,NA,"",   1.06131E+06,   1.04596E+06,   1.04596E+06
C:/temp/Job-1.odb,Step-1,Increment      1: Step Time =    1.000,"P-1-1",         15359,   48.0903E-03,   147.811E-03,            0.,NA,NA,"",   1.02988E+06,   1.05041E+06,   1.05041E+06
C:/temp/Job-1.odb,Step-1,Increment      1: Step Time =    1.000,"P-1-1",         15360,   58.0639E-03,   57.5112E-03,            0.,NA,NA,"",   1.06225E+06,   1.06832E+06,   1.06832E+06
C:/temp/Job-1.odb,Step-1,Increment      1: Step Time =    1.000,"P-1-1",         15361,   144.046E-03,   142.085E-03,            0.,NA,NA,"",   1.08554E+06,   1.06123E+06,   1.06123E+06
C:/temp/Job-1.odb,Step-1,Increment      1: Step Time =    1.000,"P-1-1",         15362,   118.308E-03,   47.0627E-03,            0.,NA,NA,"",   1.06007E+06,   1.06764E+06,   1.06764E+06
C:/temp/Job-1.odb,Step-1,Increment      1: Step Time =    1.000,"P-1-1",         15363,   152.734E-03,   48.2812E-03,            0.,NA,NA,"",   1.05459E+06,   1.04006E+06,   1.04006E+06
C:/temp/Job-1.odb,Step-1,Increment      1: Step Time =    1.000,"P-1-1",         15364,   48.9722E-03,   46.5909E-03,            0.,NA,NA,"",   1.04071E+06,   1.05765E+06,   1.05765E+06
C:/temp/Job-1.odb,Step-1,Increment      1: Step Time =    1.000,"P-1-1",         15365,   151.650E-03,   151.282E-03,            0.,NA,NA,"",   1.05726E+06,   1.04203E+06,   1.04203E+06
C:/temp/Job-1.odb,Step-1,Increment      1: Step Time =    1.000,"P-1-1",         15366,   142.321E-03,   153.503E-03,            0.,NA,NA,"",   1.07000E+06,   1.05390E+06,   1.05390E+06
C:/temp/Job-1.odb,Step-1,Increment      1: Step Time =    1.000,"P-1-1",         15367,   47.2306E-03,   142.521E-03,            0.,NA,NA,"",   1.01428E+06,   1.03889E+06,   1.03889E+06
C:/temp/Job-1.odb,Step-1,Increment      1: Step Time =    1.000,"P-1-1",         15368,   121.742E-03,   153.589E-03,            0.,NA,NA,"",   1.06539E+06,   1.06714E+06,   1.06714E+06
C:/temp/Job-1.odb,Step-1,Increment      1: Step Time =    1.000,"P-1-1",         15369,   48.3586E-03,   151.173E-03,            0.,NA,NA,"",   1.03590E+06,   1.05473E+06,   1.05473E+06
C:/temp/Job-1.odb,Step-1,Increment      1: Step Time =    1.000,"P-1-1",         15370,   138.126E-03,   47.5785E-03,            0.,NA,NA,"",   1.07721E+06,   1.06113E+06,   1.06113E+06
C:/temp/Job-1.odb,Step-1,Increment      1: Step Time =    1.000,"P-1-1",         15371,   152.155E-03,   137.646E-03,            0.,NA,NA,"",   1.05776E+06,   1.03834E+06,   1.03834E+06
C:/temp/Job-1.odb,Step-1,Increment      1: Step Time =    1.000,"P-1-1",         15372,   66.0668E-03,   53.3909E-03,            0.,NA,NA,"",   1.08615E+06,   1.08684E+06,   1.08684E+06
C:/temp/Job-1.odb,Step-1,Increment      1: Step Time =    1.000,"P-1-1",         15373,   48.8769E-03,   153.258E-03,            0.,NA,NA,"",   1.04020E+06,   1.05736E+06,   1.05736E+06
C:/temp/Job-1.odb,Step-1,Increment      1: Step Time =    1.000,"P-1-1",         15374,   60.9398E-03,   147.130E-03,            0.,NA,NA,"",   1.07298E+06,   1.07671E+06,   1.07671E+06
C:/temp/Job-1.odb,Step-1,Increment      1: Step Time =    1.000,"P-1-1",         15375,   68.9521E-03,   53.9881E-03,            0.,NA,NA,"",   1.09286E+06,   1.09293E+06,   1.09293E+06
C:/temp/Job-1.odb,Step-1,Increment      1: Step Time =    1.000,"P-1-1",         15376,   66.5046E-03,   153.283E-03,            0.,NA,NA,"",   1.07369E+06,   1.07702E+06,   1.07702E+06
C:/temp/Job-1.odb,Step-1,Increment      1: Step Time =    1.000,"P-1-1",         15377,   44.1858E-03,   65.7123E-03,            0.,NA,NA,"",   970.715E+03,   1.00665E+06,   1.00665E+06
C:/temp/Job-1.odb,Step-1,Increment      1: Step Time =    1.000,"P-1-1",         15378,   144.925E-03,   153.230E-03,            0.,NA,NA,"",   1.06649E+06,   1.05040E+06,   1.05040E+06
C:/temp/Job-1.odb,Step-1,Increment      1: Step Time =    1.000,"P-1-1",         15379,   123.139E-03,   63.7047E-03,            0.,NA,NA,"",   1.15721E+06,   1.13577E+06,   1.13577E+06
C:/temp/Job-1.odb,Step-1,Increment      1: Step Time =    1.000,"P-1-1",         15380,   47.8858E-03,   144.431E-03,            0.,NA,NA,"",   1.02173E+06,   1.04419E+06,   1.04419E+06
C:/temp/Job-1.odb,Step-1,Increment      1: Step Time =    1.000,"P-1-1",         15381,   58.8840E-03,   145.917E-03,            0.,NA,NA,"",   1.06687E+06,   1.07233E+06,   1.07233E+06
C:/temp/Job-1.odb,Step-1,Increment      1: Step Time =    1.000,"P-1-1",         15382,   42.7164E-03,   156.914E-03,            0.,NA,NA,"",   1.02873E+06,   1.05329E+06,   1.05329E+06
C:/temp/Job-1.odb,Step-1,Increment      1: Step Time =    1.000,"P-1-1",         15383,   45.3846E-03,   149.450E-03,            0.,NA,NA,"",   1.02289E+06,   1.04737E+06,   1.04737E+06
C:/temp/Job-1.odb,Step-1,Increment      1: Step Time =    1.000,"P-1-1",         15384,   150.082E-03,   154.808E-03,            0.,NA,NA,"",   1.05543E+06,   1.04136E+06,   1.04136E+06
C:/temp/Job-1.odb,Step-1,Increment      1: Step Time =    1.000,"P-1-1",         15385,   142.732E-03,   146.236E-03,            0.,NA,NA,"",   1.08414E+06,   1.06243E+06,   1.06243E+06
C:/temp/Job-1.odb,Step-1,Increment      1: Step Time =    1.000,"P-1-1",         15386,   48.2143E-03,   127.074E-03,            0.,NA,NA,"",   954.263E+03,   987.038E+03,   987.038E+03
C:/temp/Job-1.odb,Step-1,Increment      1: Step Time =    1.000,"P-1-1",         15387,   74.9758E-03,   53.1793E-03,            0.,NA,NA,"",   1.09275E+06,   1.09727E+06,   1.09727E+06
C:/temp/Job-1.odb,Step-1,Increment      1: Step Time =    1.000,"P-1-1",         15388,   73.4903E-03,   54.2685E-03,            0.,NA,NA,"",   1.09705E+06,   1.09932E+06,   1.09932E+06
C:/temp/Job-1.odb,Step-1,Increment      1: Step Time =    1.000,"P-1-1",         15389,   152.469E-03,   46.1792E-03,            0.,NA,NA,"",   1.05254E+06,   1.03887E+06,   1.03887E+06
C:/temp/Job-1.odb,Step-1,Increment      1: Step Time =    1.000,"P-1-1",         15390,   156.086E-03,   134.556E-03,            0.,NA,NA,"",   1.04050E+06,   1.02545E+06,   1.02545E+06
C:/temp/Job-1.odb,Step-1,Increment      1: Step Time =    1.000,"P-1-1",         15391,   155.232E-03,   74.8614E-03,            0.,NA,NA,"",   1.01244E+06,   1.00096E+06,   1.00096E+06
C:/temp/Job-1.odb,Step-1,Increment      1: Step Time =    1.000,"P-1-1",         15392,   134.404E-03,   44.6761E-03,            0.,NA,NA,"",   1.07114E+06,   1.05911E+06,   1.05911E+06
C:/temp/Job-1.odb,Step-1,Increment      1: Step Time =    1.000,"P-1-1",         15393,   74.0884E-03,   45.5178E-03,            0.,NA,NA,"",   1.06925E+06,   1.07585E+06,   1.07585E+06
C:/temp/Job-1.odb,Step-1,Increment      1: Step Time =    1.000,"P-1-1",         15394,   98.8857E-03,   44.7069E-03,            0.,NA,NA,"",   1.01903E+06,   1.04837E+06,   1.04837E+06
C:/temp/Job-1.odb,Step-1,Increment      1: Step Time =    1.000,"P-1-1",         15395,   85.5173E-03,   51.5952E-03,            0.,NA,NA,"",   1.06230E+06,   1.08517E+06,   1.08517E+06
C:/temp/Job-1.odb,Step-1,Increment      1: Step Time =    1.000,"P-1-1",         15396,   48.4429E-03,   154.743E-03,            0.,NA,NA,"",   1.04048E+06,   1.05770E+06,   1.05770E+06
C:/temp/Job-1.odb,Step-1,Increment      1: Step Time =    1.000,"P-1-1",         15397,   72.1706E-03,   53.8913E-03,            0.,NA,NA,"",   1.09550E+06,   1.09705E+06,   1.09705E+06
C:/temp/Job-1.odb,Step-1,Increment      1: Step Time =    1.000,"P-1-1",         15398,   155.662E-03,   68.6052E-03,            0.,NA,NA,"",   1.03409E+06,   1.01950E+06,   1.01950E+06
C:/temp/Job-1.odb,Step-1,Increment      1: Step Time =    1.000,"P-1-1",         15399,   68.2114E-03,   44.2239E-03,            0.,NA,NA,"",   1.06889E+06,   1.07293E+06,   1.07293E+06
C:/temp/Job-1.odb,Step-1,Increment      1: Step Time =    1.000,"P-1-1",         15400,   82.9445E-03,   51.4023E-03,            0.,NA,NA,"",   1.07013E+06,   1.08795E+06,   1.08795E+06
C:/temp/Job-1.odb,Step-1,Increment      1: Step Time =    1.000,"P-1-1",         15401,   57.9491E-03,   155.537E-03,            0.,NA,NA,"",   1.06082E+06,   1.06766E+06,   1.06766E+06
C:/temp/Job-1.odb,Step-1,Increment      1: Step Time =    1.000,"P-1-1",         15402,   46.2455E-03,   58.8923E-03,            0.,NA,NA,"",   1.00548E+06,   1.03278E+06,   1.03278E+06
C:/temp/Job-1.odb,Step-1,Increment      1: Step Time =    1.000,"P-1-1",         15403,   88.2728E-03,   50.0641E-03,            0.,NA,NA,"",   1.04830E+06,   1.07514E+06,   1.07514E+06
C:/temp/Job-1.odb,Step-1,Increment      1: Step Time =    1.000,"P-1-1",         15404,   55.9672E-03,   57.1825E-03,            0.,NA,NA,"",   1.05347E+06,   1.06264E+06,   1.06264E+06
C:/temp/Job-1.odb,Step-1,Increment      1: Step Time =    1.000,"P-1-1",         15405,   63.0787E-03,   150.239E-03,            0.,NA,NA,"",   1.07497E+06,   1.07816E+06,   1.07816E+06
C:/temp/Job-1.odb,Step-1,Increment      1: Step Time =    1.000,"P-1-1",         15406,   91.2677E-03,   50.9846E-03,            0.,NA,NA,"",   1.04071E+06,   1.07359E+06,   1.07359E+06
C:/temp/Job-1.odb,Step-1,Increment      1: Step Time =    1.000,"P-1-1",         15407,   152.783E-03,   81.0620E-03,            0.,NA,NA,"",   982.392E+03,   974.459E+03,   974.459E+03
C:/temp/Job-1.odb,Step-1,Increment      1: Step Time =    1.000,"P-1-1",         15408,   81.1025E-03,   46.1457E-03,            0.,NA,NA,"",   1.05846E+06,   1.07258E+06,   1.07258E+06
C:/temp/Job-1.odb,Step-1,Increment      1: Step Time =    1.000,"P-1-1",         15409,   106.485E-03,   77.2389E-03,            0.,NA,NA,"",   1.25526E+06,   1.33858E+06,   1.33858E+06
C:/temp/Job-1.odb,Step-1,Increment      1: Step Time =    1.000,"P-1-1",         15410,   129.706E-03,   153.062E-03,            0.,NA,NA,"",   1.07826E+06,   1.06842E+06,   1.06842E+06
C:/temp/Job-1.odb,Step-1,Increment      1: Step Time =    1.000,"P-1-1",         15411,   48.4956E-03,   66.7734E-03,            0.,NA,NA,"",   987.714E+03,   1.01495E+06,   1.01495E+06
C:/temp/Job-1.odb,Step-1,Increment      1: Step Time =    1.000,"P-1-1",         15412,   144.656E-03,   138.312E-03,            0.,NA,NA,"",   1.08474E+06,   1.05830E+06,   1.05830E+06
C:/temp/Job-1.odb,Step-1,Increment      1: Step Time =    1.000,"P-1-1",         15413,   96.7038E-03,   51.8864E-03,            0.,NA,NA,"",   1.02851E+06,   1.06892E+06,   1.06892E+06
C:/temp/Job-1.odb,Step-1,Increment      1: Step Time =    1.000,"P-1-1",         15414,   102.628E-03,   46.4850E-03,            0.,NA,NA,"",   1.02144E+06,   1.05236E+06,   1.05236E+06
C:/temp/Job-1.odb,Step-1,Increment      1: Step Time =    1.000,"P-1-1",         15415,   55.0487E-03,   138.890E-03,            0.,NA,NA,"",   1.04247E+06,   1.05351E+06,   1.05351E+06
C:/temp/Job-1.odb,Step-1,Increment      1: Step Time =    1.000,"P-1-1",         15416,   128.899E-03,   47.2072E-03,            0.,NA,NA,"",   1.07851E+06,   1.06939E+06,   1.06939E+06
C:/temp/Job-1.odb,Step-1,Increment      1: Step Time =    1.000,"P-1-1",         15417,   125.253E-03,   45.8496E-03,            0.,NA,NA,"",   1.06923E+06,   1.06584E+06,   1.06584E+06
C:/temp/Job-1.odb,Step-1,Increment      1: Step Time =    1.000,"P-1-1",         15418,   86.6351E-03,   47.0178E-03,            0.,NA,NA,"",   1.04549E+06,   1.06785E+06,   1.06785E+06
C:/temp/Job-1.odb,Step-1,Increment      1: Step Time =    1.000,"P-1-1",         15419,   44.5190E-03,   117.288E-03,            0.,NA,NA,"",   877.997E+03,   928.817E+03,   928.817E+03
C:/temp/Job-1.odb,Step-1,Increment      1: Step Time =    1.000,"P-1-1",         15420,   83.3193E-03,   47.0454E-03,            0.,NA,NA,"",   1.05534E+06,   1.07255E+06,   1.07255E+06
C:/temp/Job-1.odb,Step-1,Increment      1: Step Time =    1.000,"P-1-1",         15421,   152.999E-03,   72.4858E-03,            0.,NA,NA,"",   1.02824E+06,   1.01227E+06,   1.01227E+06
C:/temp/Job-1.odb,Step-1,Increment      1: Step Time =    1.000,"P-1-1",         15422,   72.1392E-03,   47.3174E-03,            0.,NA,NA,"",   1.07547E+06,   1.08034E+06,   1.08034E+06
C:/temp/Job-1.odb,Step-1,Increment      1: Step Time =    1.000,"P-1-1",         15423,   125.245E-03,   152.917E-03,            0.,NA,NA,"",   1.07446E+06,   1.07018E+06,   1.07018E+06
C:/temp/Job-1.odb,Step-1,Increment      1: Step Time =    1.000,"P-1-1",         15424,   45.1726E-03,   129.348E-03,            0.,NA,NA,"",   952.068E+03,   989.709E+03,   989.709E+03
C:/temp/Job-1.odb,Step-1,Increment      1: Step Time =    1.000,"P-1-1",         15425,   128.845E-03,   154.130E-03,            0.,NA,NA,"",   1.07390E+06,   1.06573E+06,   1.06573E+06
C:/temp/Job-1.odb,Step-1,Increment      1: Step Time =    1.000,"P-1-1",         15426,   155.227E-03,   86.2928E-03,            0.,NA,NA,"",   951.187E+03,   951.898E+03,   951.898E+03
C:/temp/Job-1.odb,Step-1,Increment      1: Step Time =    1.000,"P-1-1",         15427,   126.750E-03,   155.393E-03,            0.,NA,NA,"",   1.06716E+06,   1.06231E+06,   1.06231E+06
C:/temp/Job-1.odb,Step-1,Increment      1: Step Time =    1.000,"P-1-1",         15428,   89.9526E-03,   46.2717E-03,            0.,NA,NA,"",   1.03560E+06,   1.06128E+06,   1.06128E+06
C:/temp/Job-1.odb,Step-1,Increment      1: Step Time =    1.000,"P-1-1",         15429,   154.203E-03,   61.9790E-03,            0.,NA,NA,"",   1.05184E+06,   1.03457E+06,   1.03457E+06
C:/temp/Job-1.odb,Step-1,Increment      1: Step Time =    1.000,"P-1-1",         15430,   60.9689E-03,   46.6884E-03,            0.,NA,NA,"",   1.06771E+06,   1.07251E+06,   1.07251E+06
C:/temp/Job-1.odb,Step-1,Increment      1: Step Time =    1.000,"P-1-1",         15431,   150.173E-03,   45.1149E-03,            0.,NA,NA,"",   1.05509E+06,   1.04113E+06,   1.04113E+06
C:/temp/Job-1.odb,Step-1,Increment      1: Step Time =    1.000,"P-1-1",         15432,   155.095E-03,   148.457E-03,            0.,NA,NA,"",   1.05208E+06,   1.03760E+06,   1.03760E+06
C:/temp/Job-1.odb,Step-1,Increment      1: Step Time =    1.000,"P-1-1",         15433,   139.268E-03,   152.462E-03,            0.,NA,NA,"",   1.07614E+06,   1.05973E+06,   1.05973E+06
C:/temp/Job-1.odb,Step-1,Increment      1: Step Time =    1.000,"P-1-1",         15434,   54.0970E-03,   153.402E-03,            0.,NA,NA,"",   1.05394E+06,   1.06448E+06,   1.06448E+06
C:/temp/Job-1.odb,Step-1,Increment      1: Step Time =    1.000,"P-1-1",         15435,   46.1363E-03,   132.814E-03,            0.,NA,NA,"",   973.478E+03,   1.00634E+06,   1.00634E+06
C:/temp/Job-1.odb,Step-1,Increment      1: Step Time =    1.000,"P-1-1",         15436,   46.8915E-03,   54.2273E-03,            0.,NA,NA,"",   1.02060E+06,   1.04432E+06,   1.04432E+06
C:/temp/Job-1.odb,Step-1,Increment      1: Step Time =    1.000,"P-1-1",         15437,   112.581E-03,   56.7597E-03,            0.,NA,NA,"",   1.07668E+06,   1.10019E+06,   1.10019E+06
C:/temp/Job-1.odb,Step-1,Increment      1: Step Time =    1.000,"P-1-1",         15438,   132.905E-03,   153.845E-03,            0.,NA,NA,"",   1.07608E+06,   1.06392E+06,   1.06392E+06
C:/temp/Job-1.odb,Step-1,Increment      1: Step Time =    1.000,"P-1-1",         15439,   105.986E-03,   45.7086E-03,            0.,NA,NA,"",   1.02482E+06,   1.05186E+06,   1.05186E+06
C:/temp/Job-1.odb,Step-1,Increment      1: Step Time =    1.000,"P-1-1",         15440,   63.4776E-03,   154.867E-03,            0.,NA,NA,"",   1.06852E+06,   1.07257E+06,   1.07257E+06
C:/temp/Job-1.odb,Step-1,Increment      1: Step Time =    1.000,"P-1-1",         15441,   46.6199E-03,   63.7089E-03,            0.,NA,NA,"",   990.744E+03,   1.02009E+06,   1.02009E+06
C:/temp/Job-1.odb,Step-1,Increment      1: Step Time =    1.000,"P-1-1",         15442,   45.5649E-03,   122.915E-03,            0.,NA,NA,"",   917.114E+03,   959.917E+03,   959.917E+03
C:/temp/Job-1.odb,Step-1,Increment      1: Step Time =    1.000,"P-1-1",         15443,   53.0156E-03,   62.4097E-03,            0.,NA,NA,"",   1.02833E+06,   1.04363E+06,   1.04363E+06
C:/temp/Job-1.odb,Step-1,Increment      1: Step Time =    1.000,"P-1-1",         15444,   93.0892E-03,   51.2286E-03,            0.,NA,NA,"",   1.03595E+06,   1.07145E+06,   1.07145E+06
C:/temp/Job-1.odb,Step-1,Increment      1: Step Time =    1.000,"P-1-1",         15445,   138.625E-03,   63.8210E-03,            0.,NA,NA,"",   1.10990E+06,   1.07709E+06,   1.07709E+06
C:/temp/Job-1.odb,Step-1,Increment      1: Step Time =    1.000,"P-1-1",         15446,   54.0136E-03,   137.324E-03,            0.,NA,NA,"",   1.03290E+06,   1.04630E+06,   1.04630E+06
C:/temp/Job-1.odb,Step-1,Increment      1: Step Time =    1.000,"P-1-1",         15447,   107.078E-03,   151.229E-03,            0.,NA,NA,"",   1.03204E+06,   1.06145E+06,   1.06145E+06
C:/temp/Job-1.odb,Step-1,Increment      1: Step Time =    1.000,"P-1-1",         15448,   68.2134E-03,   156.857E-03,            0.,NA,NA,"",   1.06638E+06,   1.07059E+06,   1.07059E+06
C:/temp/Job-1.odb,Step-1,Increment      1: Step Time =    1.000,"P-1-1",         15449,   68.1929E-03,   45.5933E-03,            0.,NA,NA,"",   1.07196E+06,   1.07572E+06,   1.07572E+06
C:/temp/Job-1.odb,Step-1,Increment      1: Step Time =    1.000,"P-1-1",         15450,   153.273E-03,   132.352E-03,            0.,NA,NA,"",   1.04400E+06,   1.02624E+06,   1.02624E+06
C:/temp/Job-1.odb,Step-1,Increment      1: Step Time =    1.000,"P-1-1",         15451,   150.842E-03,   74.2411E-03,            0.,NA,NA,"",   1.02661E+06,   1.00893E+06,   1.00893E+06
C:/temp/Job-1.odb,Step-1,Increment      1: Step Time =    1.000,"P-1-1",         15452,   51.2225E-03,   63.7690E-03,            0.,NA,NA,"",   1.01381E+06,   1.03360E+06,   1.03360E+06
C:/temp/Job-1.odb,Step-1,Increment      1: Step Time =    1.000,"P-1-1",         15453,   57.1292E-03,   145.856E-03,            0.,NA,NA,"",   1.06055E+06,   1.06814E+06,   1.06814E+06
C:/temp/Job-1.odb,Step-1,Increment      1: Step Time =    1.000,"P-1-1",         15454,   113.815E-03,   59.3881E-03,            0.,NA,NA,"",   1.09690E+06,   1.11619E+06,   1.11619E+06
C:/temp/Job-1.odb,Step-1,Increment      1: Step Time =    1.000,"P-1-1",         15455,   50.3227E-03,   63.9525E-03,            0.,NA,NA,"",   1.00873E+06,   1.03034E+06,   1.03034E+06
C:/temp/Job-1.odb,Step-1,Increment      1: Step Time =    1.000,"P-1-1",         15456,   149.475E-03,   139.228E-03,            0.,NA,NA,"",   1.06804E+06,   1.04631E+06,   1.04631E+06
C:/temp/Job-1.odb,Step-1,Increment      1: Step Time =    1.000,"P-1-1",         15457,   56.3730E-03,   143.719E-03,            0.,NA,NA,"",   1.05618E+06,   1.06476E+06,   1.06476E+06
C:/temp/Job-1.odb,Step-1,Increment      1: Step Time =    1.000,"P-1-1",         15458,   147.126E-03,   69.7426E-03,            0.,NA,NA,"",   1.06024E+06,   1.03486E+06,   1.03486E+06
C:/temp/Job-1.odb,Step-1,Increment      1: Step Time =    1.000,"P-1-1",         15459,   145.986E-03,   67.9701E-03,            0.,NA,NA,"",   1.07103E+06,   1.04386E+06,   1.04386E+06
C:/temp/Job-1.odb,Step-1,Increment      1: Step Time =    1.000,"P-1-1",         15460,   144.362E-03,   145.171E-03,            0.,NA,NA,"",   1.08154E+06,   1.05955E+06,   1.05955E+06
C:/temp/Job-1.odb,Step-1,Increment      1: Step Time =    1.000,"P-1-1",         15461,   53.2710E-03,   140.357E-03,            0.,NA,NA,"",   1.03653E+06,   1.05067E+06,   1.05067E+06
C:/temp/Job-1.odb,Step-1,Increment      1: Step Time =    1.000,"P-1-1",         15462,   106.583E-03,   52.7190E-03,            0.,NA,NA,"",   1.03801E+06,   1.07348E+06,   1.07348E+06
C:/temp/Job-1.odb,Step-1,Increment      1: Step Time =    1.000,"P-1-1",         15463,   123.942E-03,   153.674E-03,            0.,NA,NA,"",   1.06941E+06,   1.06754E+06,   1.06754E+06
C:/temp/Job-1.odb,Step-1,Increment      1: Step Time =    1.000,"P-1-1",         15464,   154.253E-03,   68.5397E-03,            0.,NA,NA,"",   1.03836E+06,   1.02200E+06,   1.02200E+06
C:/temp/Job-1.odb,Step-1,Increment      1: Step Time =    1.000,"P-1-1",         15465,   46.8944E-03,   126.103E-03,            0.,NA,NA,"",   942.037E+03,   978.730E+03,   978.730E+03
C:/temp/Job-1.odb,Step-1,Increment      1: Step Time =    1.000,"P-1-1",         15466,   59.6022E-03,   47.1880E-03,            0.,NA,NA,"",   1.06554E+06,   1.07120E+06,   1.07120E+06
C:/temp/Job-1.odb,Step-1,Increment      1: Step Time =    1.000,"P-1-1",         15467,   152.304E-03,   59.2209E-03,            0.,NA,NA,"",   1.05974E+06,   1.04106E+06,   1.04106E+06
C:/temp/Job-1.odb,Step-1,Increment      1: Step Time =    1.000,"P-1-1",         15468,   135.838E-03,   150.650E-03,            0.,NA,NA,"",   1.08480E+06,   1.06805E+06,   1.06805E+06
C:/temp/Job-1.odb,Step-1,Increment      1: Step Time =    1.000,"P-1-1",         15469,   46.5282E-03,   116.374E-03,            0.,NA,NA,"",   876.133E+03,   924.408E+03,   924.408E+03
C:/temp/Job-1.odb,Step-1,Increment      1: Step Time =    1.000,"P-1-1",         15470,   150.743E-03,   137.642E-03,            0.,NA,NA,"",   1.06254E+06,   1.04164E+06,   1.04164E+06
C:/temp/Job-1.odb,Step-1,Increment      1: Step Time =    1.000,"P-1-1",         15471,   51.1922E-03,   136.717E-03,            0.,NA,NA,"",   1.01578E+06,   1.03529E+06,   1.03529E+06
C:/temp/Job-1.odb,Step-1,Increment      1: Step Time =    1.000,"P-1-1",         15472,   134.879E-03,   152.659E-03,            0.,NA,NA,"",   1.07970E+06,   1.06520E+06,   1.06520E+06
C:/temp/Job-1.odb,Step-1,Increment      1: Step Time =    1.000,"P-1-1",         15473,   47.2837E-03,   134.505E-03,            0.,NA,NA,"",   987.082E+03,   1.01609E+06,   1.01609E+06
C:/temp/Job-1.odb,Step-1,Increment      1: Step Time =    1.000,"P-1-1",         15474,   60.7602E-03,   148.671E-03,            0.,NA,NA,"",   1.07137E+06,   1.07563E+06,   1.07563E+06
C:/temp/Job-1.odb,Step-1,Increment      1: Step Time =    1.000,"P-1-1",         15475,   141.807E-03,   67.3083E-03,            0.,NA,NA,"",   1.09271E+06,   1.06019E+06,   1.06019E+06
C:/temp/Job-1.odb,Step-1,Increment      1: Step Time =    1.000,"P-1-1",         15476,   62.2975E-03,   46.8583E-03,            0.,NA,NA,"",   1.06975E+06,   1.07390E+06,   1.07390E+06
C:/temp/Job-1.odb,Step-1,Increment      1: Step Time =    1.000,"P-1-1",         15477,   64.7996E-03,   154.193E-03,            0.,NA,NA,"",   1.07074E+06,   1.07440E+06,   1.07440E+06
C:/temp/Job-1.odb,Step-1,Increment      1: Step Time =    1.000,"P-1-1",         15478,   151.690E-03,   141.592E-03,            0.,NA,NA,"",   1.06210E+06,   1.04301E+06,   1.04301E+06
C:/temp/Job-1.odb,Step-1,Increment      1: Step Time =    1.000,"P-1-1",         15479,   142.126E-03,   47.1464E-03,            0.,NA,NA,"",   1.07144E+06,   1.05502E+06,   1.05502E+06
C:/temp/Job-1.odb,Step-1,Increment      1: Step Time =    1.000,"P-1-1",         15480,   60.4474E-03,   52.8222E-03,            0.,NA,NA,"",   1.07152E+06,   1.07566E+06,   1.07566E+06
C:/temp/Job-1.odb,Step-1,Increment      1: Step Time =    1.000,"P-1-1",         15481,   108.977E-03,   48.9627E-03,            0.,NA,NA,"",   1.03757E+06,   1.06408E+06,   1.06408E+06
C:/temp/Job-1.odb,Step-1,Increment      1: Step Time =    1.000,"P-1-1",         15482,   115.791E-03,   48.5279E-03,            0.,NA,NA,"",   1.05757E+06,   1.07040E+06,   1.07040E+06
C:/temp/Job-1.odb,Step-1,Increment      1: Step Time =    1.000,"P-1-1",         15483,   47.8154E-03,   131.507E-03,            0.,NA,NA,"",   976.182E+03,   1.00611E+06,   1.00611E+06
C:/temp/Job-1.odb,Step-1,Increment      1: Step Time =    1.000,"P-1-1",         15484,   149.799E-03,   73.4115E-03,            0.,NA,NA,"",   1.03436E+06,   1.01453E+06,   1.01453E+06
C:/temp/Job-1.odb,Step-1,Increment      1: Step Time =    1.000,"P-1-1",         15485,   125.983E-03,   154.195E-03,            0.,NA,NA,"",   1.07052E+06,   1.06596E+06,   1.06596E+06
C:/temp/Job-1.odb,Step-1,Increment      1: Step Time =    1.000,"P-1-1",         15486,   54.2739E-03,   46.2854E-03,            0.,NA,NA,"",   1.05421E+06,   1.06455E+06,   1.06455E+06
C:/temp/Job-1.odb,Step-1,Increment      1: Step Time =    1.000,"P-1-1",         15487,   153.767E-03,   53.6669E-03,            0.,NA,NA,"",   1.05607E+06,   1.04007E+06,   1.04007E+06
C:/temp/Job-1.odb,Step-1,Increment      1: Step Time =    1.000,"P-1-1",         15488,   146.025E-03,   153.622E-03,            0.,NA,NA,"",   1.06392E+06,   1.04829E+06,   1.04829E+06
C:/temp/Job-1.odb,Step-1,Increment      1: Step Time =    1.000,"P-1-1",         15489,   145.459E-03,   141.700E-03,            0.,NA,NA,"",   1.08158E+06,   1.05777E+06,   1.05777E+06
C:/temp/Job-1.odb,Step-1,Increment      1: Step Time =    1.000,"P-1-1",         15490,   49.1874E-03,   145.970E-03,            0.,NA,NA,"",   1.03084E+06,   1.05017E+06,   1.05017E+06
C:/temp/Job-1.odb,Step-1,Increment      1: Step Time =    1.000,"P-1-1",         15491,   148.997E-03,   152.696E-03,            0.,NA,NA,"",   1.06030E+06,   1.04483E+06,   1.04483E+06
C:/temp/Job-1.odb,Step-1,Increment      1: Step Time =    1.000,"P-1-1",         15492,   52.8287E-03,   44.8047E-03,            0.,NA,NA,"",   1.05119E+06,   1.06281E+06,   1.06281E+06
C:/temp/Job-1.odb,Step-1,Increment      1: Step Time =    1.000,"P-1-1",         15493,   154.633E-03,   52.6273E-03,            0.,NA,NA,"",   1.05382E+06,   1.03866E+06,   1.03866E+06
C:/temp/Job-1.odb,Step-1,Increment      1: Step Time =    1.000,"P-1-1",         15494,   152.180E-03,   138.928E-03,            0.,NA,NA,"",   1.05925E+06,   1.03996E+06,   1.03996E+06
C:/temp/Job-1.odb,Step-1,Increment      1: Step Time =    1.000,"P-1-1",         15495,   47.4799E-03,   149.977E-03,            0.,NA,NA,"",   1.03136E+06,   1.05200E+06,   1.05200E+06
C:/temp/Job-1.odb,Step-1,Increment      1: Step Time =    1.000,"P-1-1",         15496,   117.142E-03,   48.3194E-03,            0.,NA,NA,"",   1.06109E+06,   1.07091E+06,   1.07091E+06
C:/temp/Job-1.odb,Step-1,Increment      1: Step Time =    1.000,"P-1-1",         15497,   51.3966E-03,   62.9193E-03,            0.,NA,NA,"",   1.01782E+06,   1.03676E+06,   1.03676E+06
C:/temp/Job-1.odb,Step-1,Increment      1: Step Time =    1.000,"P-1-1",         15498,   139.713E-03,   47.9136E-03,            0.,NA,NA,"",   1.07643E+06,   1.05962E+06,   1.05962E+06
C:/temp/Job-1.odb,Step-1,Increment      1: Step Time =    1.000,"P-1-1",         15499,   64.6627E-03,   53.2233E-03,            0.,NA,NA,"",   1.08270E+06,   1.08399E+06,   1.08399E+06
C:/temp/Job-1.odb,Step-1,Increment      1: Step Time =    1.000,"P-1-1",         15500,   49.5158E-03,   151.997E-03,            0.,NA,NA,"",   1.04038E+06,   1.05724E+06,   1.05724E+06
C:/temp/Job-1.odb,Step-1,Increment      1: Step Time =    1.000,"P-1-1",         15501,   103.141E-03,   51.6888E-03,            0.,NA,NA,"",   1.02824E+06,   1.06687E+06,   1.06687E+06
C:/temp/Job-1.odb,Step-1,Increment      1: Step Time =    1.000,"P-1-1",         15502,   116.283E-03,   60.2137E-03,            0.,NA,NA,"",   1.11480E+06,   1.12395E+06,   1.12395E+06
C:/temp/Job-1.odb,Step-1,Increment      1: Step Time =    1.000,"P-1-1",         15503,   108.510E-03,   54.0874E-03,            0.,NA,NA,"",   1.04787E+06,   1.08117E+06,   1.08117E+06
C:/temp/Job-1.odb,Step-1,Increment      1: Step Time =    1.000,"P-1-1",         15504,   129.787E-03,   63.3458E-03,            0.,NA,NA,"",   1.14435E+06,   1.11188E+06,   1.11188E+06
C:/temp/Job-1.odb,Step-1,Increment      1: Step Time =    1.000,"P-1-1",         15505,   76.3217E-03,   53.3844E-03,            0.,NA,NA,"",   1.09227E+06,   1.09839E+06,   1.09839E+06
C:/temp/Job-1.odb,Step-1,Increment      1: Step Time =    1.000,"P-1-1",         15506,   74.6270E-03,   46.9616E-03,            0.,NA,NA,"",   1.07258E+06,   1.07933E+06,   1.07933E+06
C:/temp/Job-1.odb,Step-1,Increment      1: Step Time =    1.000,"P-1-1",         15507,   153.268E-03,   74.7582E-03,            0.,NA,NA,"",   1.01760E+06,   1.00353E+06,   1.00353E+06
C:/temp/Job-1.odb,Step-1,Increment      1: Step Time =    1.000,"P-1-1",         15508,   70.8200E-03,   53.3042E-03,            0.,NA,NA,"",   1.09295E+06,   1.09412E+06,   1.09412E+06
C:/temp/Job-1.odb,Step-1,Increment      1: Step Time =    1.000,"P-1-1",         15509,   83.6554E-03,   50.3419E-03,            0.,NA,NA,"",   1.06458E+06,   1.08354E+06,   1.08354E+06
C:/temp/Job-1.odb,Step-1,Increment      1: Step Time =    1.000,"P-1-1",         15510,   63.8915E-03,   150.991E-03,            0.,NA,NA,"",   1.07518E+06,   1.07829E+06,   1.07829E+06
C:/temp/Job-1.odb,Step-1,Increment      1: Step Time =    1.000,"P-1-1",         15511,   151.598E-03,   47.3689E-03,            0.,NA,NA,"",   1.05567E+06,   1.04110E+06,   1.04110E+06
C:/temp/Job-1.odb,Step-1,Increment      1: Step Time =    1.000,"P-1-1",         15512,   142.686E-03,   64.2580E-03,            0.,NA,NA,"",   1.09188E+06,   1.06218E+06,   1.06218E+06
C:/temp/Job-1.odb,Step-1,Increment      1: Step Time =    1.000,"P-1-1",         15513,   89.9916E-03,   49.9849E-03,            0.,NA,NA,"",   1.04247E+06,   1.07213E+06,   1.07213E+06
C:/temp/Job-1.odb,Step-1,Increment      1: Step Time =    1.000,"P-1-1",         15514,   99.4647E-03,   43.3746E-03,            0.,NA,NA,"",   1.01756E+06,   1.04510E+06,   1.04510E+06
C:/temp/Job-1.odb,Step-1,Increment      1: Step Time =    1.000,"P-1-1",         15515,   128.331E-03,   153.141E-03,            0.,NA,NA,"",   1.07730E+06,   1.06903E+06,   1.06903E+06
C:/temp/Job-1.odb,Step-1,Increment      1: Step Time =    1.000,"P-1-1",         15516,   58.0756E-03,   153.556E-03,            0.,NA,NA,"",   1.06225E+06,   1.06906E+06,   1.06906E+06
C:/temp/Job-1.odb,Step-1,Increment      1: Step Time =    1.000,"P-1-1",         15517,   47.7789E-03,   56.9495E-03,            0.,NA,NA,"",   1.01726E+06,   1.04077E+06,   1.04077E+06
C:/temp/Job-1.odb,Step-1,Increment      1: Step Time =    1.000,"P-1-1",         15518,   123.210E-03,   65.4192E-03,            0.,NA,NA,"",   1.16903E+06,   1.14297E+06,   1.14297E+06
C:/temp/Job-1.odb,Step-1,Increment      1: Step Time =    1.000,"P-1-1",         15519,   117.070E-03,   62.8196E-03,            0.,NA,NA,"",   1.13730E+06,   1.14030E+06,   1.14030E+06
C:/temp/Job-1.odb,Step-1,Increment      1: Step Time =    1.000,"P-1-1",         15520,   151.645E-03,   79.9169E-03,            0.,NA,NA,"",   991.280E+03,   980.451E+03,   980.451E+03
C:/temp/Job-1.odb,Step-1,Increment      1: Step Time =    1.000,"P-1-1",         15521,   153.212E-03,   148.682E-03,            0.,NA,NA,"",   1.05611E+06,   1.04061E+06,   1.04061E+06
C:/temp/Job-1.odb,Step-1,Increment      1: Step Time =    1.000,"P-1-1",         15522,   153.495E-03,   145.656E-03,            0.,NA,NA,"",   1.05700E+06,   1.04060E+06,   1.04060E+06
C:/temp/Job-1.odb,Step-1,Increment      1: Step Time =    1.000,"P-1-1",         15523,   145.713E-03,   46.0760E-03,            0.,NA,NA,"",   1.06395E+06,   1.04841E+06,   1.04841E+06
C:/temp/Job-1.odb,Step-1,Increment      1: Step Time =    1.000,"P-1-1",         15524,   47.1047E-03,   128.267E-03,            0.,NA,NA,"",    955.65E+03,   989.804E+03,   989.804E+03
C:/temp/Job-1.odb,Step-1,Increment      1: Step Time =    1.000,"P-1-1",         15525,   47.7012E-03,   52.9233E-03,            0.,NA,NA,"",   1.02641E+06,   1.04813E+06,   1.04813E+06
C:/temp/Job-1.odb,Step-1,Increment      1: Step Time =    1.000,"P-1-1",         15526,   46.8394E-03,   56.0920E-03,            0.,NA,NA,"",   1.01574E+06,   1.04050E+06,   1.04050E+06
C:/temp/Job-1.odb,Step-1,Increment      1: Step Time =    1.000,"P-1-1",         15527,   53.1304E-03,   153.198E-03,            0.,NA,NA,"",   1.05140E+06,   1.06312E+06,   1.06312E+06
C:/temp/Job-1.odb,Step-1,Increment      1: Step Time =    1.000,"P-1-1",         15528,   56.3103E-03,   153.857E-03,            0.,NA,NA,"",   1.05852E+06,   1.06686E+06,   1.06686E+06
C:/temp/Job-1.odb,Step-1,Increment      1: Step Time =    1.000,"P-1-1",         15529,   104.042E-03,   47.5601E-03,            0.,NA,NA,"",   1.02428E+06,   1.05562E+06,   1.05562E+06
C:/temp/Job-1.odb,Step-1,Increment      1: Step Time =    1.000,"P-1-1",         15530,   79.5625E-03,   46.8768E-03,            0.,NA,NA,"",   1.06390E+06,   1.07615E+06,   1.07615E+06
C:/temp/Job-1.odb,Step-1,Increment      1: Step Time =    1.000,"P-1-1",         15531,   72.2701E-03,   48.7350E-03,            0.,NA,NA,"",   1.07958E+06,   1.08406E+06,   1.08406E+06
C:/temp/Job-1.odb,Step-1,Increment      1: Step Time =    1.000,"P-1-1",         15532,   46.3247E-03,   131.267E-03,            0.,NA,NA,"",   967.241E+03,   1.00076E+06,   1.00076E+06
C:/temp/Job-1.odb,Step-1,Increment      1: Step Time =    1.000,"P-1-1",         15533,   152.350E-03,   62.4171E-03,            0.,NA,NA,"",   1.05732E+06,   1.03804E+06,   1.03804E+06
C:/temp/Job-1.odb,Step-1,Increment      1: Step Time =    1.000,"P-1-1",         15534,   146.306E-03,   138.048E-03,            0.,NA,NA,"",   1.07835E+06,   1.05328E+06,   1.05328E+06
C:/temp/Job-1.odb,Step-1,Increment      1: Step Time =    1.000,"P-1-1",         15535,   70.8241E-03,   47.2880E-03,            0.,NA,NA,"",   1.07598E+06,   1.08017E+06,   1.08017E+06
C:/temp/Job-1.odb,Step-1,Increment      1: Step Time =    1.000,"P-1-1",         15536,   151.791E-03,   69.3470E-03,            0.,NA,NA,"",   1.04398E+06,   1.02478E+06,   1.02478E+06
C:/temp/Job-1.odb,Step-1,Increment      1: Step Time =    1.000,"P-1-1",         15537,   124.618E-03,   46.9707E-03,            0.,NA,NA,"",   1.07260E+06,   1.06942E+06,   1.06942E+06
C:/temp/Job-1.odb,Step-1,Increment      1: Step Time =    1.000,"P-1-1",         15538,   88.9961E-03,   47.0485E-03,            0.,NA,NA,"",   1.03922E+06,   1.06465E+06,   1.06465E+06
C:/temp/Job-1.odb,Step-1,Increment      1: Step Time =    1.000,"P-1-1",         15539,   82.0300E-03,   47.4955E-03,            0.,NA,NA,"",   1.05998E+06,   1.07555E+06,   1.07555E+06
C:/temp/Job-1.odb,Step-1,Increment      1: Step Time =    1.000,"P-1-1",         15540,   140.703E-03,   152.390E-03,            0.,NA,NA,"",   1.07444E+06,   1.05774E+06,   1.05774E+06
C:/temp/Job-1.odb,Step-1,Increment      1: Step Time =    1.000,"P-1-1",         15541,   47.0004E-03,   140.516E-03,            0.,NA,NA,"",   1.00747E+06,   1.03345E+06,   1.03345E+06
C:/temp/Job-1.odb,Step-1,Increment      1: Step Time =    1.000,"P-1-1",         15542,   85.0931E-03,   48.4739E-03,            0.,NA,NA,"",   1.05428E+06,   1.07498E+06,   1.07498E+06
C:/temp/Job-1.odb,Step-1,Increment      1: Step Time =    1.000,"P-1-1",         15543,   139.081E-03,   61.6289E-03,            0.,NA,NA,"",   1.10654E+06,   1.07637E+06,   1.07637E+06
C:/temp/Job-1.odb,Step-1,Increment      1: Step Time =    1.000,"P-1-1",         15544,   114.165E-03,   57.4109E-03,            0.,NA,NA,"",   1.08751E+06,   1.10560E+06,   1.10560E+06
C:/temp/Job-1.odb,Step-1,Increment      1: Step Time =    1.000,"P-1-1",         15545,   52.2775E-03,   138.383E-03,            0.,NA,NA,"",   1.02672E+06,   1.04323E+06,   1.04323E+06
C:/temp/Job-1.odb,Step-1,Increment      1: Step Time =    1.000,"P-1-1",         15546,   127.321E-03,   47.9011E-03,            0.,NA,NA,"",   1.07954E+06,   1.07204E+06,   1.07204E+06
C:/temp/Job-1.odb,Step-1,Increment      1: Step Time =    1.000,"P-1-1",         15547,   130.935E-03,   48.0066E-03,            0.,NA,NA,"",   1.08222E+06,   1.07029E+06,   1.07029E+06
C:/temp/Job-1.odb,Step-1,Increment      1: Step Time =    1.000,"P-1-1",         15548,   94.1222E-03,   50.4846E-03,            0.,NA,NA,"",   1.03181E+06,   1.06742E+06,   1.06742E+06
C:/temp/Job-1.odb,Step-1,Increment      1: Step Time =    1.000,"P-1-1",         15549,   101.784E-03,   47.3981E-03,            0.,NA,NA,"",   1.02176E+06,   1.05444E+06,   1.05444E+06
C:/temp/Job-1.odb,Step-1,Increment      1: Step Time =    1.000,"P-1-1",         15550,   97.9498E-03,   50.8092E-03,            0.,NA,NA,"",   1.02565E+06,   1.06458E+06,   1.06458E+06
C:/temp/Job-1.odb,Step-1,Increment      1: Step Time =    1.000,"P-1-1",         15551,   48.3159E-03,   63.5147E-03,            0.,NA,NA,"",   1.00070E+06,   1.02607E+06,   1.02607E+06
C:/temp/Job-1.odb,Step-1,Increment      1: Step Time =    1.000,"P-1-1",         15552,   62.7652E-03,   153.749E-03,            0.,NA,NA,"",   1.06942E+06,   1.07355E+06,   1.07355E+06
C:/temp/Job-1.odb,Step-1,Increment      1: Step Time =    1.000,"P-1-1",         15553,   121.541E-03,   63.8456E-03,            0.,NA,NA,"",   1.15733E+06,   1.14044E+06,   1.14044E+06
C:/temp/Job-1.odb,Step-1,Increment      1: Step Time =    1.000,"P-1-1",         15554,   107.590E-03,   47.3154E-03,            0.,NA,NA,"",   1.03075E+06,   1.05769E+06,   1.05769E+06
C:/temp/Job-1.odb,Step-1,Increment      1: Step Time =    1.000,"P-1-1",         15555,   137.714E-03,   152.435E-03,            0.,NA,NA,"",   1.07774E+06,   1.06180E+06,   1.06180E+06
C:/temp/Job-1.odb,Step-1,Increment      1: Step Time =    1.000,"P-1-1",         15556,   113.485E-03,   55.2572E-03,            0.,NA,NA,"",   1.07387E+06,   1.09412E+06,   1.09412E+06
C:/temp/Job-1.odb,Step-1,Increment      1: Step Time =    1.000,"P-1-1",         15557,   48.0783E-03,   137.709E-03,            0.,NA,NA,"",   1.00333E+06,   1.02875E+06,   1.02875E+06
C:/temp/Job-1.odb,Step-1,Increment      1: Step Time =    1.000,"P-1-1",         15558,   146.571E-03,   139.718E-03,            0.,NA,NA,"",   1.07818E+06,   1.05407E+06,   1.05407E+06
C:/temp/Job-1.odb,Step-1,Increment      1: Step Time =    1.000,"P-1-1",         15559,   91.0300E-03,   47.5623E-03,            0.,NA,NA,"",   1.03486E+06,   1.06332E+06,   1.06332E+06
C:/temp/Job-1.odb,Step-1,Increment      1: Step Time =    1.000,"P-1-1",         15560,   44.1427E-03,   48.4496E-03,            0.,NA,NA,"",   1.02280E+06,   1.04832E+06,   1.04832E+06
C:/temp/Job-1.odb,Step-1,Increment      1: Step Time =    1.000,"P-1-1",         15561,   122.744E-03,   47.2371E-03,            0.,NA,NA,"",   1.07045E+06,   1.07005E+06,   1.07005E+06
C:/temp/Job-1.odb,Step-1,Increment      1: Step Time =    1.000,"P-1-1",         15562,   137.604E-03,   148.516E-03,            0.,NA,NA,"",   1.08901E+06,   1.06948E+06,   1.06948E+06
C:/temp/Job-1.odb,Step-1,Increment      1: Step Time =    1.000,"P-1-1",         15563,   137.005E-03,   61.5088E-03,            0.,NA,NA,"",   1.11433E+06,   1.08338E+06,   1.08338E+06
C:/temp/Job-1.odb,Step-1,Increment      1: Step Time =    1.000,"P-1-1",         15564,   152.819E-03,   133.769E-03,            0.,NA,NA,"",   1.04904E+06,   1.03045E+06,   1.03045E+06
C:/temp/Job-1.odb,Step-1,Increment      1: Step Time =    1.000,"P-1-1",         15565,   76.1120E-03,   46.9153E-03,            0.,NA,NA,"",   1.07037E+06,   1.07865E+06,   1.07865E+06
C:/temp/Job-1.odb,Step-1,Increment      1: Step Time =    1.000,"P-1-1",         15566,   152.248E-03,   75.7610E-03,            0.,NA,NA,"",   1.01525E+06,   1.00063E+06,   1.00063E+06
C:/temp/Job-1.odb,Step-1,Increment      1: Step Time =    1.000,"P-1-1",         15567,   101.295E-03,   50.3999E-03,            0.,NA,NA,"",   1.02472E+06,   1.06246E+06,   1.06246E+06
C:/temp/Job-1.odb,Step-1,Increment      1: Step Time =    1.000,"P-1-1",         15568,   57.5939E-03,   56.3123E-03,            0.,NA,NA,"",   1.06132E+06,   1.06808E+06,   1.06808E+06
C:/temp/Job-1.odb,Step-1,Increment      1: Step Time =    1.000,"P-1-1",         15569,   152.378E-03,   50.4736E-03,            0.,NA,NA,"",   1.05730E+06,   1.04171E+06,   1.04171E+06
C:/temp/Job-1.odb,Step-1,Increment      1: Step Time =    1.000,"P-1-1",         15570,   51.7937E-03,   48.0566E-03,            0.,NA,NA,"",   1.04712E+06,   1.06077E+06,   1.06077E+06
C:/temp/Job-1.odb,Step-1,Increment      1: Step Time =    1.000,"P-1-1",         15571,   80.3754E-03,   49.7667E-03,            0.,NA,NA,"",   1.07121E+06,   1.08448E+06,   1.08448E+06
C:/temp/Job-1.odb,Step-1,Increment      1: Step Time =    1.000,"P-1-1",         15572,   52.4903E-03,   58.3142E-03,            0.,NA,NA,"",   1.03565E+06,   1.05091E+06,   1.05091E+06
C:/temp/Job-1.odb,Step-1,Increment      1: Step Time =    1.000,"P-1-1",         15573,   97.2918E-03,   45.7858E-03,            0.,NA,NA,"",   1.02098E+06,   1.05171E+06,   1.05171E+06
C:/temp/Job-1.odb,Step-1,Increment      1: Step Time =    1.000,"P-1-1",         15574,   133.976E-03,   61.7947E-03,            0.,NA,NA,"",   1.12568E+06,   1.09421E+06,   1.09421E+06
C:/temp/Job-1.odb,Step-1,Increment      1: Step Time =    1.000,"P-1-1",         15575,   78.8527E-03,   50.2310E-03,            0.,NA,NA,"",   1.07607E+06,   1.08711E+06,   1.08711E+06
C:/temp/Job-1.odb,Step-1,Increment      1: Step Time =    1.000,"P-1-1",         15576,   77.7404E-03,   53.5575E-03,            0.,NA,NA,"",   1.09100E+06,   1.09910E+06,   1.09910E+06
C:/temp/Job-1.odb,Step-1,Increment      1: Step Time =    1.000,"P-1-1",         15577,   54.0426E-03,   57.0527E-03,            0.,NA,NA,"",   1.04498E+06,   1.05732E+06,   1.05732E+06
C:/temp/Job-1.odb,Step-1,Increment      1: Step Time =    1.000,"P-1-1",         15578,   47.5200E-03,   49.8552E-03,            0.,NA,NA,"",   1.03130E+06,   1.05205E+06,   1.05205E+06
C:/temp/Job-1.odb,Step-1,Increment      1: Step Time =    1.000,"P-1-1",         15579,   48.7250E-03,   149.140E-03,            0.,NA,NA,"",   1.03434E+06,   1.05332E+06,   1.05332E+06
C:/temp/Job-1.odb,Step-1,Increment      1: Step Time =    1.000,"P-1-1",         15580,   148.312E-03,   151.810E-03,            0.,NA,NA,"",   1.06280E+06,   1.04665E+06,   1.04665E+06
C:/temp/Job-1.odb,Step-1,Increment      1: Step Time =    1.000,"P-1-1",         15581,   152.944E-03,   150.670E-03,            0.,NA,NA,"",   1.05514E+06,   1.04028E+06,   1.04028E+06
C:/temp/Job-1.odb,Step-1,Increment      1: Step Time =    1.000,"P-1-1",         15582,   126.041E-03,   61.2564E-03,            0.,NA,NA,"",   1.14172E+06,   1.11880E+06,   1.11880E+06
C:/temp/Job-1.odb,Step-1,Increment      1: Step Time =    1.000,"P-1-1",         15583,   92.2680E-03,   50.1249E-03,            0.,NA,NA,"",   1.03626E+06,   1.06921E+06,   1.06921E+06
C:/temp/Job-1.odb,Step-1,Increment      1: Step Time =    1.000,"P-1-1",         15584,   50.3545E-03,   48.1411E-03,            0.,NA,NA,"",   1.04295E+06,   1.05855E+06,   1.05855E+06
C:/temp/Job-1.odb,Step-1,Increment      1: Step Time =    1.000,"P-1-1",         15585,   151.573E-03,   49.3268E-03,            0.,NA,NA,"",   1.05815E+06,   1.04258E+06,   1.04258E+06
C:/temp/Job-1.odb,Step-1,Increment      1: Step Time =    1.000,"P-1-1",         15586,   61.8279E-03,   154.276E-03,            0.,NA,NA,"",   1.06753E+06,   1.07208E+06,   1.07208E+06
C:/temp/Job-1.odb,Step-1,Increment      1: Step Time =    1.000,"P-1-1",         15587,   47.5870E-03,   61.7699E-03,            0.,NA,NA,"",   1.00295E+06,   1.02902E+06,   1.02902E+06
C:/temp/Job-1.odb,Step-1,Increment      1: Step Time =    1.000,"P-1-1",         15588,   100.203E-03,   45.2042E-03,            0.,NA,NA,"",   1.01926E+06,   1.04918E+06,   1.04918E+06
C:/temp/Job-1.odb,Step-1,Increment      1: Step Time =    1.000,"P-1-1",         15589,   54.3079E-03,   47.7088E-03,            0.,NA,NA,"",   1.05410E+06,   1.06460E+06,   1.06460E+06
C:/temp/Job-1.odb,Step-1,Increment      1: Step Time =    1.000,"P-1-1",         15590,   152.057E-03,   54.4444E-03,            0.,NA,NA,"",   1.06065E+06,   1.04323E+06,   1.04323E+06
C:/temp/Job-1.odb,Step-1,Increment      1: Step Time =    1.000,"P-1-1",         15591,   50.8914E-03,   138.074E-03,            0.,NA,NA,"",   1.01881E+06,   1.03827E+06,   1.03827E+06
C:/temp/Job-1.odb,Step-1,Increment      1: Step Time =    1.000,"P-1-1",         15592,   117.685E-03,   61.4911E-03,            0.,NA,NA,"",   1.12947E+06,   1.13182E+06,   1.13182E+06
C:/temp/Job-1.odb,Step-1,Increment      1: Step Time =    1.000,"P-1-1",         15593,   114.997E-03,   63.1723E-03,            0.,NA,NA,"",   1.12952E+06,   1.14159E+06,   1.14159E+06
C:/temp/Job-1.odb,Step-1,Increment      1: Step Time =    1.000,"P-1-1",         15594,   55.5894E-03,   146.324E-03,            0.,NA,NA,"",   1.05545E+06,   1.06498E+06,   1.06498E+06
C:/temp/Job-1.odb,Step-1,Increment      1: Step Time =    1.000,"P-1-1",         15595,   86.5997E-03,   48.5307E-03,            0.,NA,NA,"",   1.04956E+06,   1.07273E+06,   1.07273E+06
C:/temp/Job-1.odb,Step-1,Increment      1: Step Time =    1.000,"P-1-1",         15596,   66.7006E-03,   46.8058E-03,            0.,NA,NA,"",   1.07409E+06,   1.07736E+06,   1.07736E+06
C:/temp/Job-1.odb,Step-1,Increment      1: Step Time =    1.000,"P-1-1",         15597,   57.3936E-03,   147.543E-03,            0.,NA,NA,"",   1.06180E+06,   1.06918E+06,   1.06918E+06
C:/temp/Job-1.odb,Step-1,Increment      1: Step Time =    1.000,"P-1-1",         15598,   157.429E-03,   51.4880E-03,            0.,NA,NA,"",   1.04688E+06,   1.03390E+06,   1.03390E+06
C:/temp/Job-1.odb,Step-1,Increment      1: Step Time =    1.000,"P-1-1",         15599,   51.1748E-03,   43.3888E-03,            0.,NA,NA,"",   1.04823E+06,   1.06128E+06,   1.06128E+06
C:/temp/Job-1.odb,Step-1,Increment      1: Step Time =    1.000,"P-1-1",         15600,   144.428E-03,   67.5514E-03,            0.,NA,NA,"",   1.07914E+06,   1.04998E+06,   1.04998E+06
C:/temp/Job-1.odb,Step-1,Increment      1: Step Time =    1.000,"P-1-1",         15601,   143.698E-03,   147.118E-03,            0.,NA,NA,"",   1.08040E+06,   1.05963E+06,   1.05963E+06
C:/temp/Job-1.odb,Step-1,Increment      1: Step Time =    1.000,"P-1-1",         15602,   54.3574E-03,   141.311E-03,            0.,NA,NA,"",   1.04356E+06,   1.05563E+06,   1.05563E+06
C:/temp/Job-1.odb,Step-1,Increment      1: Step Time =    1.000,"P-1-1",         15603,   49.9465E-03,   148.518E-03,            0.,NA,NA,"",   1.03735E+06,   1.05478E+06,   1.05478E+06
C:/temp/Job-1.odb,Step-1,Increment      1: Step Time =    1.000,"P-1-1",         15604,   150.082E-03,   150.182E-03,            0.,NA,NA,"",   1.06187E+06,   1.04540E+06,   1.04540E+06
C:/temp/Job-1.odb,Step-1,Increment      1: Step Time =    1.000,"P-1-1",         15605,   153.504E-03,   66.4694E-03,            0.,NA,NA,"",   1.04618E+06,   1.02842E+06,   1.02842E+06
C:/temp/Job-1.odb,Step-1,Increment      1: Step Time =    1.000,"P-1-1",         15606,   152.174E-03,   136.330E-03,            0.,NA,NA,"",   1.05589E+06,   1.03643E+06,   1.03643E+06
C:/temp/Job-1.odb,Step-1,Increment      1: Step Time =    1.000,"P-1-1",         15607,   46.6403E-03,   129.727E-03,            0.,NA,NA,"",   960.840E+03,   994.916E+03,   994.916E+03
C:/temp/Job-1.odb,Step-1,Increment      1: Step Time =    1.000,"P-1-1",         15608,   57.9524E-03,   47.7072E-03,            0.,NA,NA,"",   1.06256E+06,   1.06950E+06,   1.06950E+06
C:/temp/Job-1.odb,Step-1,Increment      1: Step Time =    1.000,"P-1-1",         15609,   129.459E-03,   61.8396E-03,            0.,NA,NA,"",   1.13930E+06,   1.11009E+06,   1.11009E+06
C:/temp/Job-1.odb,Step-1,Increment      1: Step Time =    1.000,"P-1-1",         15610,   151.277E-03,   57.1727E-03,            0.,NA,NA,"",   1.06342E+06,   1.04444E+06,   1.04444E+06
C:/temp/Job-1.odb,Step-1,Increment      1: Step Time =    1.000,"P-1-1",         15611,   50.4816E-03,   49.6419E-03,            0.,NA,NA,"",   1.04160E+06,   1.05758E+06,   1.05758E+06
C:/temp/Job-1.odb,Step-1,Increment      1: Step Time =    1.000,"P-1-1",         15612,   150.134E-03,   49.8683E-03,            0.,NA,NA,"",   1.06175E+06,   1.04529E+06,   1.04529E+06
C:/temp/Job-1.odb,Step-1,Increment      1: Step Time =    1.000,"P-1-1",         15613,   148.365E-03,   71.1899E-03,            0.,NA,NA,"",   1.04972E+06,   1.02653E+06,   1.02653E+06
C:/temp/Job-1.odb,Step-1,Increment      1: Step Time =    1.000,"P-1-1",         15614,   136.204E-03,   152.524E-03,            0.,NA,NA,"",   1.07893E+06,   1.06363E+06,   1.06363E+06
C:/temp/Job-1.odb,Step-1,Increment      1: Step Time =    1.000,"P-1-1",         15615,   81.2011E-03,   48.3405E-03,            0.,NA,NA,"",   1.06472E+06,   1.07914E+06,   1.07914E+06
C:/temp/Job-1.odb,Step-1,Increment      1: Step Time =    1.000,"P-1-1",         15616,   48.4141E-03,   136.222E-03,            0.,NA,NA,"",   999.776E+03,   1.02527E+06,   1.02527E+06
C:/temp/Job-1.odb,Step-1,Increment      1: Step Time =    1.000,"P-1-1",         15617,   63.6771E-03,   47.2296E-03,            0.,NA,NA,"",   1.07205E+06,   1.07563E+06,   1.07563E+06
C:/temp/Job-1.odb,Step-1,Increment      1: Step Time =    1.000,"P-1-1",         15618,   92.3955E-03,   48.2354E-03,            0.,NA,NA,"",   1.03234E+06,   1.06316E+06,   1.06316E+06
C:/temp/Job-1.odb,Step-1,Increment      1: Step Time =    1.000,"P-1-1",         15619,   118.429E-03,   48.1852E-03,            0.,NA,NA,"",   1.06396E+06,   1.07114E+06,   1.07114E+06
C:/temp/Job-1.odb,Step-1,Increment      1: Step Time =    1.000,"P-1-1",         15620,   106.277E-03,   51.0164E-03,            0.,NA,NA,"",   1.03393E+06,   1.06751E+06,   1.06751E+06
C:/temp/Job-1.odb,Step-1,Increment      1: Step Time =    1.000,"P-1-1",         15621,   154.281E-03,   149.850E-03,            0.,NA,NA,"",   1.05279E+06,   1.03837E+06,   1.03837E+06
C:/temp/Job-1.odb,Step-1,Increment      1: Step Time =    1.000,"P-1-1",         15622,   150.276E-03,   46.4813E-03,            0.,NA,NA,"",   1.05694E+06,   1.04231E+06,   1.04231E+06
C:/temp/Job-1.odb,Step-1,Increment      1: Step Time =    1.000,"P-1-1",         15623,   52.0382E-03,   152.788E-03,            0.,NA,NA,"",   1.04839E+06,   1.06152E+06,   1.06152E+06
C:/temp/Job-1.odb,Step-1,Increment      1: Step Time =    1.000,"P-1-1",         15624,   153.566E-03,   63.1724E-03,            0.,NA,NA,"",   1.05238E+06,   1.03436E+06,   1.03436E+06
C:/temp/Job-1.odb,Step-1,Increment      1: Step Time =    1.000,"P-1-1",         15625,   148.055E-03,   139.457E-03,            0.,NA,NA,"",   1.07293E+06,   1.05000E+06,   1.05000E+06
C:/temp/Job-1.odb,Step-1,Increment      1: Step Time =    1.000,"P-1-1",         15626,   70.8208E-03,   48.8258E-03,            0.,NA,NA,"",   1.08018E+06,   1.08379E+06,   1.08379E+06
C:/temp/Job-1.odb,Step-1,Increment      1: Step Time =    1.000,"P-1-1",         15627,   151.093E-03,   71.0638E-03,            0.,NA,NA,"",   1.04015E+06,   1.02082E+06,   1.02082E+06
C:/temp/Job-1.odb,Step-1,Increment      1: Step Time =    1.000,"P-1-1",         15628,   139.354E-03,   150.465E-03,            0.,NA,NA,"",   1.08131E+06,   1.06317E+06,   1.06317E+06
C:/temp/Job-1.odb,Step-1,Increment      1: Step Time =    1.000,"P-1-1",         15629,   47.6852E-03,   139.191E-03,            0.,NA,NA,"",   1.00603E+06,   1.03157E+06,   1.03157E+06
C:/temp/Job-1.odb,Step-1,Increment      1: Step Time =    1.000,"P-1-1",         15630,   132.583E-03,   47.4018E-03,            0.,NA,NA,"",   1.08012E+06,   1.06724E+06,   1.06724E+06
C:/temp/Job-1.odb,Step-1,Increment      1: Step Time =    1.000,"P-1-1",         15631,   129.413E-03,   48.6429E-03,            0.,NA,NA,"",   1.08410E+06,   1.07321E+06,   1.07321E+06
C:/temp/Job-1.odb,Step-1,Increment      1: Step Time =    1.000,"P-1-1",         15632,   126.335E-03,   48.8992E-03,            0.,NA,NA,"",   1.08240E+06,   1.07542E+06,   1.07542E+06
C:/temp/Job-1.odb,Step-1,Increment      1: Step Time =    1.000,"P-1-1",         15633,   100.924E-03,   46.7752E-03,            0.,NA,NA,"",   1.02072E+06,   1.05277E+06,   1.05277E+06
C:/temp/Job-1.odb,Step-1,Increment      1: Step Time =    1.000,"P-1-1",         15634,   102.447E-03,   48.5171E-03,            0.,NA,NA,"",   1.02355E+06,   1.05757E+06,   1.05757E+06
C:/temp/Job-1.odb,Step-1,Increment      1: Step Time =    1.000,"P-1-1",         15635,   50.4387E-03,   61.4906E-03,            0.,NA,NA,"",   1.01819E+06,   1.03821E+06,   1.03821E+06
C:/temp/Job-1.odb,Step-1,Increment      1: Step Time =    1.000,"P-1-1",         15636,   105.933E-03,   47.4433E-03,            0.,NA,NA,"",   1.02741E+06,   1.05656E+06,   1.05656E+06
C:/temp/Job-1.odb,Step-1,Increment      1: Step Time =    1.000,"P-1-1",         15637,   122.860E-03,   154.673E-03,            0.,NA,NA,"",    1.0639E+06,   1.06415E+06,   1.06415E+06
C:/temp/Job-1.odb,Step-1,Increment      1: Step Time =    1.000,"P-1-1",         15638,   55.0009E-03,   143.206E-03,            0.,NA,NA,"",   1.05002E+06,   1.06061E+06,   1.06061E+06
C:/temp/Job-1.odb,Step-1,Increment      1: Step Time =    1.000,"P-1-1",         15639,   93.3291E-03,   47.0874E-03,            0.,NA,NA,"",   1.02865E+06,   1.05897E+06,   1.05897E+06
C:/temp/Job-1.odb,Step-1,Increment      1: Step Time =    1.000,"P-1-1",         15640,   89.5286E-03,   48.3052E-03,            0.,NA,NA,"",   1.04032E+06,   1.06753E+06,   1.06753E+06
C:/temp/Job-1.odb,Step-1,Increment      1: Step Time =    1.000,"P-1-1",         15641,   123.722E-03,   48.3088E-03,            0.,NA,NA,"",   1.07633E+06,   1.07380E+06,   1.07380E+06
C:/temp/Job-1.odb,Step-1,Increment      1: Step Time =    1.000,"P-1-1",         15642,   77.5693E-03,   47.6914E-03,            0.,NA,NA,"",   1.07041E+06,   1.08010E+06,   1.08010E+06
C:/temp/Job-1.odb,Step-1,Increment      1: Step Time =    1.000,"P-1-1",         15643,   154.361E-03,   56.2847E-03,            0.,NA,NA,"",   1.05505E+06,   1.03868E+06,   1.03868E+06
C:/temp/Job-1.odb,Step-1,Increment      1: Step Time =    1.000,"P-1-1",         15644,   57.0871E-03,   45.0293E-03,            0.,NA,NA,"",   1.05976E+06,   1.06726E+06,   1.06726E+06
C:/temp/Job-1.odb,Step-1,Increment      1: Step Time =    1.000,"P-1-1",         15645,   114.668E-03,   55.9348E-03,            0.,NA,NA,"",   1.08227E+06,   1.09884E+06,   1.09884E+06
C:/temp/Job-1.odb,Step-1,Increment      1: Step Time =    1.000,"P-1-1",         15646,   112.419E-03,   54.2383E-03,            0.,NA,NA,"",   1.06519E+06,   1.08812E+06,   1.08812E+06
C:/temp/Job-1.odb,Step-1,Increment      1: Step Time =    1.000,"P-1-1",         15647,   99.5752E-03,   49.1303E-03,            0.,NA,NA,"",   1.02298E+06,   1.05921E+06,   1.05921E+06
C:/temp/Job-1.odb,Step-1,Increment      1: Step Time =    1.000,"P-1-1",         15648,   57.0782E-03,   54.5211E-03,            0.,NA,NA,"",   1.05988E+06,   1.06761E+06,   1.06761E+06
C:/temp/Job-1.odb,Step-1,Increment      1: Step Time =    1.000,"P-1-1",         15649,   73.7047E-03,   52.9251E-03,            0.,NA,NA,"",   1.09248E+06,   1.09584E+06,   1.09584E+06
C:/temp/Job-1.odb,Step-1,Increment      1: Step Time =    1.000,"P-1-1",         15650,   51.1648E-03,   58.2750E-03,            0.,NA,NA,"",   1.02980E+06,   1.04736E+06,   1.04736E+06
C:/temp/Job-1.odb,Step-1,Increment      1: Step Time =    1.000,"P-1-1",         15651,   96.8943E-03,   47.1953E-03,            0.,NA,NA,"",   1.02276E+06,   1.05552E+06,   1.05552E+06
C:/temp/Job-1.odb,Step-1,Increment      1: Step Time =    1.000,"P-1-1",         15652,   147.288E-03,   46.9263E-03,            0.,NA,NA,"",   1.06281E+06,   1.04707E+06,   1.04707E+06
C:/temp/Job-1.odb,Step-1,Increment      1: Step Time =    1.000,"P-1-1",         15653,   152.265E-03,   147.704E-03,            0.,NA,NA,"",   1.05884E+06,   1.04244E+06,   1.04244E+06
C:/temp/Job-1.odb,Step-1,Increment      1: Step Time =    1.000,"P-1-1",         15654,   118.043E-03,   59.8624E-03,            0.,NA,NA,"",   1.11949E+06,   1.12213E+06,   1.12213E+06
C:/temp/Job-1.odb,Step-1,Increment      1: Step Time =    1.000,"P-1-1",         15655,   77.4966E-03,   50.3993E-03,            0.,NA,NA,"",   1.07947E+06,   1.08851E+06,   1.08851E+06
C:/temp/Job-1.odb,Step-1,Increment      1: Step Time =    1.000,"P-1-1",         15656,   96.4084E-03,   50.0195E-03,            0.,NA,NA,"",   1.02670E+06,   1.06355E+06,   1.06355E+06
C:/temp/Job-1.odb,Step-1,Increment      1: Step Time =    1.000,"P-1-1",         15657,   50.7013E-03,   139.232E-03,            0.,NA,NA,"",   1.02117E+06,   1.04052E+06,   1.04052E+06
C:/temp/Job-1.odb,Step-1,Increment      1: Step Time =    1.000,"P-1-1",         15658,   152.251E-03,   149.461E-03,            0.,NA,NA,"",   1.05775E+06,   1.04200E+06,   1.04200E+06
C:/temp/Job-1.odb,Step-1,Increment      1: Step Time =    1.000,"P-1-1",         15659,   48.2055E-03,   143.202E-03,            0.,NA,NA,"",   1.02001E+06,   1.04257E+06,   1.04257E+06
C:/temp/Job-1.odb,Step-1,Increment      1: Step Time =    1.000,"P-1-1",         15660,   143.435E-03,   152.708E-03,            0.,NA,NA,"",   1.06988E+06,   1.05327E+06,   1.05327E+06
C:/temp/Job-1.odb,Step-1,Increment      1: Step Time =    1.000,"P-1-1",         15661,   47.5134E-03,   51.2499E-03,            0.,NA,NA,"",   1.02901E+06,   1.05028E+06,   1.05028E+06
C:/temp/Job-1.odb,Step-1,Increment      1: Step Time =    1.000,"P-1-1",         15662,   144.464E-03,   143.597E-03,            0.,NA,NA,"",   1.08286E+06,   1.05983E+06,   1.05983E+06
C:/temp/Job-1.odb,Step-1,Increment      1: Step Time =    1.000,"P-1-1",         15663,   138.112E-03,   60.6211E-03,            0.,NA,NA,"",   1.10935E+06,   1.07974E+06,   1.07974E+06
C:/temp/Job-1.odb,Step-1,Increment      1: Step Time =    1.000,"P-1-1",         15664,   63.8577E-03,   152.925E-03,            0.,NA,NA,"",   1.07189E+06,   1.07553E+06,   1.07553E+06
C:/temp/Job-1.odb,Step-1,Increment      1: Step Time =    1.000,"P-1-1",         15665,   49.0308E-03,   61.1183E-03,            0.,NA,NA,"",   1.01222E+06,   1.03495E+06,   1.03495E+06
C:/temp/Job-1.odb,Step-1,Increment      1: Step Time =    1.000,"P-1-1",         15666,   63.2719E-03,   51.7649E-03,            0.,NA,NA,"",   1.07773E+06,   1.08025E+06,   1.08025E+06
C:/temp/Job-1.odb,Step-1,Increment      1: Step Time =    1.000,"P-1-1",         15667,   127.624E-03,   60.7520E-03,            0.,NA,NA,"",   1.13766E+06,   1.11293E+06,   1.11293E+06
C:/temp/Job-1.odb,Step-1,Increment      1: Step Time =    1.000,"P-1-1",         15668,   135.096E-03,   61.0324E-03,            0.,NA,NA,"",   1.11983E+06,   1.08932E+06,   1.08932E+06
C:/temp/Job-1.odb,Step-1,Increment      1: Step Time =    1.000,"P-1-1",         15669,   139.460E-03,   49.4822E-03,            0.,NA,NA,"",   1.08086E+06,   1.06279E+06,   1.06279E+06
C:/temp/Job-1.odb,Step-1,Increment      1: Step Time =    1.000,"P-1-1",         15670,   48.0373E-03,   59.7714E-03,            0.,NA,NA,"",   1.01114E+06,   1.03539E+06,   1.03539E+06
C:/temp/Job-1.odb,Step-1,Increment      1: Step Time =    1.000,"P-1-1",         15671,   60.0801E-03,   153.697E-03,            0.,NA,NA,"",   1.06575E+06,   1.07113E+06,   1.07113E+06
C:/temp/Job-1.odb,Step-1,Increment      1: Step Time =    1.000,"P-1-1",         15672,   132.370E-03,   61.0292E-03,            0.,NA,NA,"",   1.12849E+06,   1.09857E+06,   1.09857E+06
C:/temp/Job-1.odb,Step-1,Increment      1: Step Time =    1.000,"P-1-1",         15673,   113.025E-03,   48.9140E-03,            0.,NA,NA,"",   1.05023E+06,   1.06904E+06,   1.06904E+06
C:/temp/Job-1.odb,Step-1,Increment      1: Step Time =    1.000,"P-1-1",         15674,   131.995E-03,   149.284E-03,            0.,NA,NA,"",   1.09198E+06,   1.07642E+06,   1.07642E+06
C:/temp/Job-1.odb,Step-1,Increment      1: Step Time =    1.000,"P-1-1",         15675,   66.1510E-03,   51.8027E-03,            0.,NA,NA,"",   1.08336E+06,   1.08483E+06,   1.08483E+06
C:/temp/Job-1.odb,Step-1,Increment      1: Step Time =    1.000,"P-1-1",         15676,   136.119E-03,   48.6645E-03,            0.,NA,NA,"",   1.08224E+06,   1.06601E+06,   1.06601E+06
C:/temp/Job-1.odb,Step-1,Increment      1: Step Time =    1.000,"P-1-1",         15677,   141.255E-03,   60.6249E-03,            0.,NA,NA,"",   1.09733E+06,   1.06928E+06,   1.06928E+06
C:/temp/Job-1.odb,Step-1,Increment      1: Step Time =    1.000,"P-1-1",         15678,   144.067E-03,   46.6893E-03,            0.,NA,NA,"",   1.06765E+06,   1.05157E+06,   1.05157E+06
C:/temp/Job-1.odb,Step-1,Increment      1: Step Time =    1.000,"P-1-1",         15679,   152.920E-03,   144.222E-03,            0.,NA,NA,"",   1.05876E+06,   1.04147E+06,   1.04147E+06
C:/temp/Job-1.odb,Step-1,Increment      1: Step Time =    1.000,"P-1-1",         15680,   104.724E-03,   51.3289E-03,            0.,NA,NA,"",   1.03064E+06,   1.06698E+06,   1.06698E+06
C:/temp/Job-1.odb,Step-1,Increment      1: Step Time =    1.000,"P-1-1",         15681,   124.193E-03,   60.1885E-03,            0.,NA,NA,"",   1.13557E+06,   1.11877E+06,   1.11877E+06
C:/temp/Job-1.odb,Step-1,Increment      1: Step Time =    1.000,"P-1-1",         15682,   47.8628E-03,   116.930E-03,            0.,NA,NA,"",   883.089E+03,   928.154E+03,   928.154E+03
C:/temp/Job-1.odb,Step-1,Increment      1: Step Time =    1.000,"P-1-1",         15683,   59.2030E-03,   148.869E-03,            0.,NA,NA,"",   1.06720E+06,   1.07280E+06,   1.07280E+06
C:/temp/Job-1.odb,Step-1,Increment      1: Step Time =    1.000,"P-1-1",         15684,   83.6217E-03,   48.6375E-03,            0.,NA,NA,"",   1.05917E+06,   1.07744E+06,   1.07744E+06
C:/temp/Job-1.odb,Step-1,Increment      1: Step Time =    1.000,"P-1-1",         15685,   115.875E-03,   50.0453E-03,            0.,NA,NA,"",   1.06293E+06,   1.07573E+06,   1.07573E+06
C:/temp/Job-1.odb,Step-1,Increment      1: Step Time =    1.000,"P-1-1",         15686,   70.5122E-03,   51.6850E-03,            0.,NA,NA,"",   1.08800E+06,   1.09005E+06,   1.09005E+06
C:/temp/Job-1.odb,Step-1,Increment      1: Step Time =    1.000,"P-1-1",         15687,   123.023E-03,   62.1456E-03,            0.,NA,NA,"",   1.14687E+06,   1.12923E+06,   1.12923E+06
C:/temp/Job-1.odb,Step-1,Increment      1: Step Time =    1.000,"P-1-1",         15688,   152.234E-03,   68.6039E-03,            0.,NA,NA,"",   1.04478E+06,   1.02593E+06,   1.02593E+06
C:/temp/Job-1.odb,Step-1,Increment      1: Step Time =    1.000,"P-1-1",         15689,   148.054E-03,   67.0941E-03,            0.,NA,NA,"",   1.06442E+06,   1.04002E+06,   1.04002E+06
C:/temp/Job-1.odb,Step-1,Increment      1: Step Time =    1.000,"P-1-1",         15690,   151.496E-03,   61.1341E-03,            0.,NA,NA,"",   1.06118E+06,   1.04128E+06,   1.04128E+06
C:/temp/Job-1.odb,Step-1,Increment      1: Step Time =    1.000,"P-1-1",         15691,   62.1321E-03,   48.4141E-03,            0.,NA,NA,"",   1.07156E+06,   1.07551E+06,   1.07551E+06
C:/temp/Job-1.odb,Step-1,Increment      1: Step Time =    1.000,"P-1-1",         15692,   50.5362E-03,   145.955E-03,            0.,NA,NA,"",   1.03599E+06,   1.05314E+06,   1.05314E+06
C:/temp/Job-1.odb,Step-1,Increment      1: Step Time =    1.000,"P-1-1",         15693,   145.716E-03,   150.403E-03,            0.,NA,NA,"",   1.07010E+06,   1.05231E+06,   1.05231E+06
C:/temp/Job-1.odb,Step-1,Increment      1: Step Time =    1.000,"P-1-1",         15694,   50.7957E-03,   152.406E-03,            0.,NA,NA,"",   1.04470E+06,   1.05957E+06,   1.05957E+06
C:/temp/Job-1.odb,Step-1,Increment      1: Step Time =    1.000,"P-1-1",         15695,   86.7445E-03,   50.0711E-03,            0.,NA,NA,"",   1.05340E+06,   1.07771E+06,   1.07771E+06
C:/temp/Job-1.odb,Step-1,Increment      1: Step Time =    1.000,"P-1-1",         15696,   102.862E-03,   50.0066E-03,            0.,NA,NA,"",   1.02573E+06,   1.06175E+06,   1.06175E+06
C:/temp/Job-1.odb,Step-1,Increment      1: Step Time =    1.000,"P-1-1",         15697,   69.4470E-03,   47.2001E-03,            0.,NA,NA,"",   1.07588E+06,   1.07953E+06,   1.07953E+06
C:/temp/Job-1.odb,Step-1,Increment      1: Step Time =    1.000,"P-1-1",         15698,   146.924E-03,   141.370E-03,            0.,NA,NA,"",   1.07702E+06,   1.05403E+06,   1.05403E+06
C:/temp/Job-1.odb,Step-1,Increment      1: Step Time =    1.000,"P-1-1",         15699,   142.995E-03,   67.1809E-03,            0.,NA,NA,"",   1.08676E+06,   1.05583E+06,   1.05583E+06
C:/temp/Job-1.odb,Step-1,Increment      1: Step Time =    1.000,"P-1-1",         15700,   142.993E-03,   65.7830E-03,            0.,NA,NA,"",   1.08903E+06,   1.05874E+06,   1.05874E+06
C:/temp/Job-1.odb,Step-1,Increment      1: Step Time =    1.000,"P-1-1",         15701,   149.647E-03,   47.9016E-03,            0.,NA,NA,"",   1.05992E+06,   1.04437E+06,   1.04437E+06
C:/temp/Job-1.odb,Step-1,Increment      1: Step Time =    1.000,"P-1-1",         15702,   141.845E-03,   152.385E-03,            0.,NA,NA,"",   1.07310E+06,   1.05625E+06,   1.05625E+06
C:/temp/Job-1.odb,Step-1,Increment      1: Step Time =    1.000,"P-1-1",         15703,   48.3289E-03,   141.333E-03,            0.,NA,NA,"",   1.01562E+06,   1.03876E+06,   1.03876E+06
C:/temp/Job-1.odb,Step-1,Increment      1: Step Time =    1.000,"P-1-1",         15704,   142.650E-03,   151.222E-03,            0.,NA,NA,"",   1.07416E+06,   1.05650E+06,   1.05650E+06
C:/temp/Job-1.odb,Step-1,Increment      1: Step Time =    1.000,"P-1-1",         15705,   49.6544E-03,   142.645E-03,            0.,NA,NA,"",   1.02490E+06,   1.04505E+06,   1.04505E+06
C:/temp/Job-1.odb,Step-1,Increment      1: Step Time =    1.000,"P-1-1",         15706,   120.897E-03,   47.0823E-03,            0.,NA,NA,"",   1.06593E+06,   1.06890E+06,   1.06890E+06
C:/temp/Job-1.odb,Step-1,Increment      1: Step Time =    1.000,"P-1-1",         15707,   120.222E-03,   48.9614E-03,            0.,NA,NA,"",   1.07119E+06,   1.07485E+06,   1.07485E+06
C:/temp/Job-1.odb,Step-1,Increment      1: Step Time =    1.000,"P-1-1",         15708,   110.103E-03,   53.6910E-03,            0.,NA,NA,"",   1.05310E+06,   1.08202E+06,   1.08202E+06
C:/temp/Job-1.odb,Step-1,Increment      1: Step Time =    1.000,"P-1-1",         15709,   109.573E-03,   52.0286E-03,            0.,NA,NA,"",   1.04629E+06,   1.07481E+06,   1.07481E+06
C:/temp/Job-1.odb,Step-1,Increment      1: Step Time =    1.000,"P-1-1",         15710,   122.786E-03,   60.7090E-03,            0.,NA,NA,"",   1.13728E+06,   1.12322E+06,   1.12322E+06
C:/temp/Job-1.odb,Step-1,Increment      1: Step Time =    1.000,"P-1-1",         15711,   149.758E-03,   72.3233E-03,            0.,NA,NA,"",   1.03973E+06,   1.01909E+06,   1.01909E+06
C:/temp/Job-1.odb,Step-1,Increment      1: Step Time =    1.000,"P-1-1",         15712,   94.7991E-03,   48.2819E-03,            0.,NA,NA,"",   1.02732E+06,   1.06050E+06,   1.06050E+06
C:/temp/Job-1.odb,Step-1,Increment      1: Step Time =    1.000,"P-1-1",         15713,   145.838E-03,   143.337E-03,            0.,NA,NA,"",   1.07941E+06,   1.05686E+06,   1.05686E+06
C:/temp/Job-1.odb,Step-1,Increment      1: Step Time =    1.000,"P-1-1",         15714,   54.3701E-03,   144.651E-03,            0.,NA,NA,"",   1.04930E+06,   1.06065E+06,   1.06065E+06
C:/temp/Job-1.odb,Step-1,Increment      1: Step Time =    1.000,"P-1-1",         15715,   149.791E-03,   140.725E-03,            0.,NA,NA,"",   1.06763E+06,   1.04667E+06,   1.04667E+06
C:/temp/Job-1.odb,Step-1,Increment      1: Step Time =    1.000,"P-1-1",         15716,   96.5847E-03,   48.6331E-03,            0.,NA,NA,"",   1.02473E+06,   1.05965E+06,   1.05965E+06
C:/temp/Job-1.odb,Step-1,Increment      1: Step Time =    1.000,"P-1-1",         15717,   68.0720E-03,   47.0543E-03,            0.,NA,NA,"",   1.07523E+06,   1.07858E+06,   1.07858E+06
C:/temp/Job-1.odb,Step-1,Increment      1: Step Time =    1.000,"P-1-1",         15718,   99.7918E-03,   46.4353E-03,            0.,NA,NA,"",   1.02048E+06,   1.05223E+06,   1.05223E+06
C:/temp/Job-1.odb,Step-1,Increment      1: Step Time =    1.000,"P-1-1",         15719,   148.571E-03,   149.232E-03,            0.,NA,NA,"",   1.06591E+06,   1.04837E+06,   1.04837E+06
C:/temp/Job-1.odb,Step-1,Increment      1: Step Time =    1.000,"P-1-1",         15720,   50.6533E-03,   146.960E-03,            0.,NA,NA,"",   1.03784E+06,   1.05457E+06,   1.05457E+06
C:/temp/Job-1.odb,Step-1,Increment      1: Step Time =    1.000,"P-1-1",         15721,   142.135E-03,   147.708E-03,            0.,NA,NA,"",   1.08306E+06,   1.06242E+06,   1.06242E+06
C:/temp/Job-1.odb,Step-1,Increment      1: Step Time =    1.000,"P-1-1",         15722,   148.944E-03,   48.8719E-03,            0.,NA,NA,"",   1.06281E+06,   1.04644E+06,   1.04644E+06
C:/temp/Job-1.odb,Step-1,Increment      1: Step Time =    1.000,"P-1-1",         15723,   67.7309E-03,   50.2430E-03,            0.,NA,NA,"",   1.08230E+06,   1.08441E+06,   1.08441E+06
C:/temp/Job-1.odb,Step-1,Increment      1: Step Time =    1.000,"P-1-1",         15724,   149.645E-03,   70.2187E-03,            0.,NA,NA,"",   1.04840E+06,   1.02676E+06,   1.02676E+06
C:/temp/Job-1.odb,Step-1,Increment      1: Step Time =    1.000,"P-1-1",         15725,   45.7234E-03,   51.1868E-03,            0.,NA,NA,"",   1.02253E+06,   1.04685E+06,   1.04685E+06
C:/temp/Job-1.odb,Step-1,Increment      1: Step Time =    1.000,"P-1-1",         15726,   51.5410E-03,   154.202E-03,            0.,NA,NA,"",   1.04794E+06,   1.06129E+06,   1.06129E+06
C:/temp/Job-1.odb,Step-1,Increment      1: Step Time =    1.000,"P-1-1",         15727,   119.419E-03,   60.5742E-03,            0.,NA,NA,"",   1.12926E+06,   1.12583E+06,   1.12583E+06
C:/temp/Job-1.odb,Step-1,Increment      1: Step Time =    1.000,"P-1-1",         15728,   50.8781E-03,   60.4670E-03,            0.,NA,NA,"",   1.02302E+06,   1.04186E+06,   1.04186E+06
C:/temp/Job-1.odb,Step-1,Increment      1: Step Time =    1.000,"P-1-1",         15729,   100.783E-03,   47.7775E-03,            0.,NA,NA,"",   1.02169E+06,   1.05542E+06,   1.05542E+06
C:/temp/Job-1.odb,Step-1,Increment      1: Step Time =    1.000,"P-1-1",         15730,   59.2174E-03,   54.2168E-03,            0.,NA,NA,"",   1.06802E+06,   1.07309E+06,   1.07309E+06
C:/temp/Job-1.odb,Step-1,Increment      1: Step Time =    1.000,"P-1-1",         15731,   73.8706E-03,   51.5339E-03,            0.,NA,NA,"",   1.08767E+06,   1.09203E+06,   1.09203E+06
C:/temp/Job-1.odb,Step-1,Increment      1: Step Time =    1.000,"P-1-1",         15732,   50.3374E-03,   59.2983E-03,            0.,NA,NA,"",   1.02382E+06,   1.04318E+06,   1.04318E+06
C:/temp/Job-1.odb,Step-1,Increment      1: Step Time =    1.000,"P-1-1",         15733,   150.780E-03,   148.839E-03,            0.,NA,NA,"",   1.06189E+06,   1.04500E+06,   1.04500E+06
C:/temp/Job-1.odb,Step-1,Increment      1: Step Time =    1.000,"P-1-1",         15734,   50.7800E-03,   141.084E-03,            0.,NA,NA,"",   1.02633E+06,   1.04490E+06,   1.04490E+06
C:/temp/Job-1.odb,Step-1,Increment      1: Step Time =    1.000,"P-1-1",         15735,   49.0965E-03,   51.1551E-03,            0.,NA,NA,"",   1.03496E+06,   1.05352E+06,   1.05352E+06
C:/temp/Job-1.odb,Step-1,Increment      1: Step Time =    1.000,"P-1-1",         15736,   57.6178E-03,   149.197E-03,            0.,NA,NA,"",   1.06261E+06,   1.06981E+06,   1.06981E+06
C:/temp/Job-1.odb,Step-1,Increment      1: Step Time =    1.000,"P-1-1",         15737,   61.5501E-03,   152.960E-03,            0.,NA,NA,"",   1.06879E+06,   1.07333E+06,   1.07333E+06
C:/temp/Job-1.odb,Step-1,Increment      1: Step Time =    1.000,"P-1-1",         15738,   152.191E-03,   146.045E-03,            0.,NA,NA,"",   1.06029E+06,   1.04310E+06,   1.04310E+06
C:/temp/Job-1.odb,Step-1,Increment      1: Step Time =    1.000,"P-1-1",         15739,   146.103E-03,   47.4710E-03,            0.,NA,NA,"",   1.06557E+06,   1.04928E+06,   1.04928E+06
C:/temp/Job-1.odb,Step-1,Increment      1: Step Time =    1.000,"P-1-1",         15740,   133.499E-03,   60.8649E-03,            0.,NA,NA,"",   1.12490E+06,   1.09486E+06,   1.09486E+06
C:/temp/Job-1.odb,Step-1,Increment      1: Step Time =    1.000,"P-1-1",         15741,   142.773E-03,   61.3951E-03,            0.,NA,NA,"",   1.09208E+06,   1.06433E+06,   1.06433E+06
C:/temp/Job-1.odb,Step-1,Increment      1: Step Time =    1.000,"P-1-1",         15742,   139.819E-03,   60.5472E-03,            0.,NA,NA,"",   1.10266E+06,   1.07379E+06,   1.07379E+06
C:/temp/Job-1.odb,Step-1,Increment      1: Step Time =    1.000,"P-1-1",         15743,   117.368E-03,   58.5541E-03,            0.,NA,NA,"",   1.10870E+06,   1.11479E+06,   1.11479E+06
C:/temp/Job-1.odb,Step-1,Increment      1: Step Time =    1.000,"P-1-1",         15744,   61.8198E-03,   150.536E-03,            0.,NA,NA,"",   1.07213E+06,   1.07608E+06,   1.07608E+06
C:/temp/Job-1.odb,Step-1,Increment      1: Step Time =    1.000,"P-1-1",         15745,   125.728E-03,   59.6652E-03,            0.,NA,NA,"",   1.13302E+06,   1.11382E+06,   1.11382E+06
C:/temp/Job-1.odb,Step-1,Increment      1: Step Time =    1.000,"P-1-1",         15746,   136.086E-03,   49.9361E-03,            0.,NA,NA,"",   1.08631E+06,   1.06887E+06,   1.06887E+06
C:/temp/Job-1.odb,Step-1,Increment      1: Step Time =    1.000,"P-1-1",         15747,   113.240E-03,   50.1066E-03,            0.,NA,NA,"",   1.05426E+06,   1.07315E+06,   1.07315E+06
C:/temp/Job-1.odb,Step-1,Increment      1: Step Time =    1.000,"P-1-1",         15748,   141.212E-03,   49.4334E-03,            0.,NA,NA,"",   1.07794E+06,   1.05980E+06,   1.05980E+06
C:/temp/Job-1.odb,Step-1,Increment      1: Step Time =    1.000,"P-1-1",         15749,   62.1503E-03,   50.2891E-03,            0.,NA,NA,"",   1.07391E+06,   1.07739E+06,   1.07739E+06
C:/temp/Job-1.odb,Step-1,Increment      1: Step Time =    1.000,"P-1-1",         15750,   117.911E-03,   51.1395E-03,            0.,NA,NA,"",   1.07347E+06,   1.08163E+06,   1.08163E+06
C:/temp/Job-1.odb,Step-1,Increment      1: Step Time =    1.000,"P-1-1",         15751,   152.284E-03,   52.8447E-03,            0.,NA,NA,"",   1.05951E+06,   1.04280E+06,   1.04280E+06
C:/temp/Job-1.odb,Step-1,Increment      1: Step Time =    1.000,"P-1-1",         15752,   53.1001E-03,   47.9042E-03,            0.,NA,NA,"",   1.05078E+06,   1.06276E+06,   1.06276E+06
C:/temp/Job-1.odb,Step-1,Increment      1: Step Time =    1.000,"P-1-1",         15753,   49.7994E-03,   60.0012E-03,            0.,NA,NA,"",   1.01937E+06,   1.04004E+06,   1.04004E+06
C:/temp/Job-1.odb,Step-1,Increment      1: Step Time =    1.000,"P-1-1",         15754,   149.458E-03,   67.6097E-03,            0.,NA,NA,"",   1.05745E+06,   1.03489E+06,   1.03489E+06
C:/temp/Job-1.odb,Step-1,Increment      1: Step Time =    1.000,"P-1-1",         15755,   146.571E-03,   66.5161E-03,            0.,NA,NA,"",   1.07190E+06,   1.04569E+06,   1.04569E+06
C:/temp/Job-1.odb,Step-1,Increment      1: Step Time =    1.000,"P-1-1",         15756,   51.2561E-03,   150.934E-03,            0.,NA,NA,"",   1.04428E+06,   1.05914E+06,   1.05914E+06
C:/temp/Job-1.odb,Step-1,Increment      1: Step Time =    1.000,"P-1-1",         15757,   74.6513E-03,   48.1456E-03,            0.,NA,NA,"",   1.07579E+06,   1.08234E+06,   1.08234E+06
C:/temp/Job-1.odb,Step-1,Increment      1: Step Time =    1.000,"P-1-1",         15758,   144.043E-03,   149.749E-03,            0.,NA,NA,"",   1.07459E+06,   1.05601E+06,   1.05601E+06
C:/temp/Job-1.odb,Step-1,Increment      1: Step Time =    1.000,"P-1-1",         15759,   50.8868E-03,   144.719E-03,            0.,NA,NA,"",   1.03491E+06,   1.05199E+06,   1.05199E+06
C:/temp/Job-1.odb,Step-1,Increment      1: Step Time =    1.000,"P-1-1",         15760,   148.796E-03,   142.619E-03,            0.,NA,NA,"",   1.07092E+06,   1.04992E+06,   1.04992E+06
C:/temp/Job-1.odb,Step-1,Increment      1: Step Time =    1.000,"P-1-1",         15761,   114.362E-03,   50.5782E-03,            0.,NA,NA,"",   1.05954E+06,   1.07604E+06,   1.07604E+06
C:/temp/Job-1.odb,Step-1,Increment      1: Step Time =    1.000,"P-1-1",         15762,   106.043E-03,   49.2437E-03,            0.,NA,NA,"",   1.03038E+06,   1.06182E+06,   1.06182E+06
C:/temp/Job-1.odb,Step-1,Increment      1: Step Time =    1.000,"P-1-1",         15763,   69.2985E-03,   50.3786E-03,            0.,NA,NA,"",   1.08391E+06,   1.08622E+06,   1.08622E+06
C:/temp/Job-1.odb,Step-1,Increment      1: Step Time =    1.000,"P-1-1",         15764,   131.363E-03,   49.4273E-03,            0.,NA,NA,"",   1.08739E+06,   1.07372E+06,   1.07372E+06
C:/temp/Job-1.odb,Step-1,Increment      1: Step Time =    1.000,"P-1-1",         15765,   71.6751E-03,   51.3715E-03,            0.,NA,NA,"",   1.08749E+06,   1.09036E+06,   1.09036E+06
C:/temp/Job-1.odb,Step-1,Increment      1: Step Time =    1.000,"P-1-1",         15766,   55.5672E-03,   47.8108E-03,            0.,NA,NA,"",   1.05725E+06,   1.06640E+06,   1.06640E+06
C:/temp/Job-1.odb,Step-1,Increment      1: Step Time =    1.000,"P-1-1",         15767,   151.731E-03,   55.7887E-03,            0.,NA,NA,"",   1.06199E+06,   1.04384E+06,   1.04384E+06
C:/temp/Job-1.odb,Step-1,Increment      1: Step Time =    1.000,"P-1-1",         15768,   150.144E-03,   56.6808E-03,            0.,NA,NA,"",   1.06687E+06,   1.04713E+06,   1.04713E+06
C:/temp/Job-1.odb,Step-1,Increment      1: Step Time =    1.000,"P-1-1",         15769,   57.9407E-03,   49.1383E-03,            0.,NA,NA,"",   1.06294E+06,   1.06994E+06,   1.06994E+06
C:/temp/Job-1.odb,Step-1,Increment      1: Step Time =    1.000,"P-1-1",         15770,   47.3897E-03,   58.5724E-03,            0.,NA,NA,"",   1.01163E+06,   1.03656E+06,   1.03656E+06
C:/temp/Job-1.odb,Step-1,Increment      1: Step Time =    1.000,"P-1-1",         15771,   134.555E-03,   48.5757E-03,            0.,NA,NA,"",   1.08336E+06,   1.06797E+06,   1.06797E+06
C:/temp/Job-1.odb,Step-1,Increment      1: Step Time =    1.000,"P-1-1",         15772,   137.751E-03,   51.1588E-03,            0.,NA,NA,"",   1.08795E+06,   1.06873E+06,   1.06873E+06
C:/temp/Job-1.odb,Step-1,Increment      1: Step Time =    1.000,"P-1-1",         15773,   66.0145E-03,   49.9753E-03,            0.,NA,NA,"",   1.07966E+06,   1.08194E+06,   1.08194E+06
C:/temp/Job-1.odb,Step-1,Increment      1: Step Time =    1.000,"P-1-1",         15774,   151.231E-03,   63.6885E-03,            0.,NA,NA,"",   1.05910E+06,   1.03865E+06,   1.03865E+06
C:/temp/Job-1.odb,Step-1,Increment      1: Step Time =    1.000,"P-1-1",         15775,   133.563E-03,   152.419E-03,            0.,NA,NA,"",   1.08089E+06,   1.06700E+06,   1.06700E+06
C:/temp/Job-1.odb,Step-1,Increment      1: Step Time =    1.000,"P-1-1",         15776,   129.222E-03,   60.2868E-03,            0.,NA,NA,"",   1.13319E+06,   1.10714E+06,   1.10714E+06
C:/temp/Job-1.odb,Step-1,Increment      1: Step Time =    1.000,"P-1-1",         15777,   76.1951E-03,   50.4701E-03,            0.,NA,NA,"",   1.08208E+06,   1.08943E+06,   1.08943E+06
C:/temp/Job-1.odb,Step-1,Increment      1: Step Time =    1.000,"P-1-1",         15778,   107.774E-03,   50.7489E-03,            0.,NA,NA,"",   1.03766E+06,   1.06831E+06,   1.06831E+06
C:/temp/Job-1.odb,Step-1,Increment      1: Step Time =    1.000,"P-1-1",         15779,   123.784E-03,   49.7666E-03,            0.,NA,NA,"",   1.08245E+06,   1.07900E+06,   1.07900E+06
C:/temp/Job-1.odb,Step-1,Increment      1: Step Time =    1.000,"P-1-1",         15780,   142.867E-03,   48.9573E-03,            0.,NA,NA,"",   1.07413E+06,   1.05638E+06,   1.05638E+06
C:/temp/Job-1.odb,Step-1,Increment      1: Step Time =    1.000,"P-1-1",         15781,   150.807E-03,   143.563E-03,            0.,NA,NA,"",   1.06478E+06,   1.04568E+06,   1.04568E+06
C:/temp/Job-1.odb,Step-1,Increment      1: Step Time =    1.000,"P-1-1",         15782,   64.7339E-03,   48.9291E-03,            0.,NA,NA,"",   1.07604E+06,   1.07894E+06,   1.07894E+06
C:/temp/Job-1.odb,Step-1,Increment      1: Step Time =    1.000,"P-1-1",         15783,   47.5686E-03,   133.008E-03,            0.,NA,NA,"",   981.928E+03,   1.01136E+06,   1.01136E+06
C:/temp/Job-1.odb,Step-1,Increment      1: Step Time =    1.000,"P-1-1",         15784,   53.6114E-03,   142.600E-03,            0.,NA,NA,"",   1.04308E+06,   1.05598E+06,   1.05598E+06
C:/temp/Job-1.odb,Step-1,Increment      1: Step Time =    1.000,"P-1-1",         15785,   149.686E-03,   71.2493E-03,            0.,NA,NA,"",   1.04439E+06,   1.02315E+06,   1.02315E+06
C:/temp/Job-1.odb,Step-1,Increment      1: Step Time =    1.000,"P-1-1",         15786,   70.9104E-03,   50.4179E-03,            0.,NA,NA,"",   1.08496E+06,   1.08784E+06,   1.08784E+06
C:/temp/Job-1.odb,Step-1,Increment      1: Step Time =    1.000,"P-1-1",         15787,   61.2358E-03,   49.5025E-03,            0.,NA,NA,"",   1.07119E+06,   1.07539E+06,   1.07539E+06
C:/temp/Job-1.odb,Step-1,Increment      1: Step Time =    1.000,"P-1-1",         15788,   152.860E-03,   67.6170E-03,            0.,NA,NA,"",   1.04535E+06,   1.02705E+06,   1.02705E+06
C:/temp/Job-1.odb,Step-1,Increment      1: Step Time =    1.000,"P-1-1",         15789,   152.344E-03,   135.015E-03,            0.,NA,NA,"",   1.05299E+06,   1.03382E+06,   1.03382E+06
C:/temp/Job-1.odb,Step-1,Increment      1: Step Time =    1.000,"P-1-1",         15790,   136.286E-03,   60.4029E-03,            0.,NA,NA,"",   1.11462E+06,   1.08498E+06,   1.08498E+06
C:/temp/Job-1.odb,Step-1,Increment      1: Step Time =    1.000,"P-1-1",         15791,   131.676E-03,   64.1961E-03,            0.,NA,NA,"",   1.14072E+06,   1.10554E+06,   1.10554E+06
C:/temp/Job-1.odb,Step-1,Increment      1: Step Time =    1.000,"P-1-1",         15792,   146.398E-03,   146.559E-03,            0.,NA,NA,"",   1.07474E+06,   1.05455E+06,   1.05455E+06
C:/temp/Job-1.odb,Step-1,Increment      1: Step Time =    1.000,"P-1-1",         15793,   128.519E-03,   50.7099E-03,            0.,NA,NA,"",   1.09174E+06,   1.08003E+06,   1.08003E+06
C:/temp/Job-1.odb,Step-1,Increment      1: Step Time =    1.000,"P-1-1",         15794,   54.2885E-03,   148.018E-03,            0.,NA,NA,"",   1.05185E+06,   1.06305E+06,   1.06305E+06
C:/temp/Job-1.odb,Step-1,Increment      1: Step Time =    1.000,"P-1-1",         15795,   126.507E-03,   50.0950E-03,            0.,NA,NA,"",   1.08739E+06,   1.07927E+06,   1.07927E+06
C:/temp/Job-1.odb,Step-1,Increment      1: Step Time =    1.000,"P-1-1",         15796,   152.256E-03,   73.8735E-03,            0.,NA,NA,"",   1.02426E+06,   1.00820E+06,   1.00820E+06
C:/temp/Job-1.odb,Step-1,Increment      1: Step Time =    1.000,"P-1-1",         15797,   149.904E-03,   60.4177E-03,            0.,NA,NA,"",   1.06694E+06,   1.04574E+06,   1.04574E+06
C:/temp/Job-1.odb,Step-1,Increment      1: Step Time =    1.000,"P-1-1",         15798,   98.2809E-03,   47.5363E-03,            0.,NA,NA,"",   1.02192E+06,   1.05555E+06,   1.05555E+06
C:/temp/Job-1.odb,Step-1,Increment      1: Step Time =    1.000,"P-1-1",         15799,   144.312E-03,   63.9894E-03,            0.,NA,NA,"",   1.08493E+06,   1.05703E+06,   1.05703E+06
C:/temp/Job-1.odb,Step-1,Increment      1: Step Time =    1.000,"P-1-1",         15800,   152.758E-03,   64.4614E-03,            0.,NA,NA,"",   1.05264E+06,   1.03383E+06,   1.03383E+06
C:/temp/Job-1.odb,Step-1,Increment      1: Step Time =    1.000,"P-1-1",         15801,   139.650E-03,   148.251E-03,            0.,NA,NA,"",   1.08632E+06,   1.06613E+06,   1.06613E+06
C:/temp/Job-1.odb,Step-1,Increment      1: Step Time =    1.000,"P-1-1",         15802,   55.3607E-03,   49.1545E-03,            0.,NA,NA,"",   1.05644E+06,   1.06601E+06,   1.06601E+06
C:/temp/Job-1.odb,Step-1,Increment      1: Step Time =    1.000,"P-1-1",         15803,   151.080E-03,   53.2652E-03,            0.,NA,NA,"",   1.06297E+06,   1.04529E+06,   1.04529E+06
C:/temp/Job-1.odb,Step-1,Increment      1: Step Time =    1.000,"P-1-1",         15804,   149.826E-03,   63.6372E-03,            0.,NA,NA,"",   1.06412E+06,   1.04212E+06,   1.04212E+06
C:/temp/Job-1.odb,Step-1,Increment      1: Step Time =    1.000,"P-1-1",         15805,   132.922E-03,   48.9021E-03,            0.,NA,NA,"",   1.08518E+06,   1.07063E+06,   1.07063E+06
C:/temp/Job-1.odb,Step-1,Increment      1: Step Time =    1.000,"P-1-1",         15806,   131.747E-03,   50.8191E-03,            0.,NA,NA,"",   1.09254E+06,   1.07705E+06,   1.07705E+06
C:/temp/Job-1.odb,Step-1,Increment      1: Step Time =    1.000,"P-1-1",         15807,   113.800E-03,   53.0155E-03,            0.,NA,NA,"",   1.06652E+06,   1.08496E+06,   1.08496E+06
C:/temp/Job-1.odb,Step-1,Increment      1: Step Time =    1.000,"P-1-1",         15808,   114.594E-03,   54.0530E-03,            0.,NA,NA,"",   1.07370E+06,   1.09034E+06,   1.09034E+06
C:/temp/Job-1.odb,Step-1,Increment      1: Step Time =    1.000,"P-1-1",         15809,   150.738E-03,   48.5351E-03,            0.,NA,NA,"",   1.05887E+06,   1.04335E+06,   1.04335E+06
C:/temp/Job-1.odb,Step-1,Increment      1: Step Time =    1.000,"P-1-1",         15810,   135.872E-03,   59.1259E-03,            0.,NA,NA,"",   1.11313E+06,   1.08514E+06,   1.08514E+06
C:/temp/Job-1.odb,Step-1,Increment      1: Step Time =    1.000,"P-1-1",         15811,   129.049E-03,   58.6763E-03,            0.,NA,NA,"",   1.12622E+06,   1.10321E+06,   1.10321E+06
C:/temp/Job-1.odb,Step-1,Increment      1: Step Time =    1.000,"P-1-1",         15812,   53.8001E-03,   146.310E-03,            0.,NA,NA,"",   1.04873E+06,   1.06080E+06,   1.06080E+06
C:/temp/Job-1.odb,Step-1,Increment      1: Step Time =    1.000,"P-1-1",         15813,   151.572E-03,   148.455E-03,            0.,NA,NA,"",   1.06020E+06,   1.04360E+06,   1.04360E+06
C:/temp/Job-1.odb,Step-1,Increment      1: Step Time =    1.000,"P-1-1",         15814,   51.1636E-03,   147.964E-03,            0.,NA,NA,"",   1.04065E+06,   1.05647E+06,   1.05647E+06
C:/temp/Job-1.odb,Step-1,Increment      1: Step Time =    1.000,"P-1-1",         15815,   148.682E-03,   50.8410E-03,            0.,NA,NA,"",   1.06623E+06,   1.04856E+06,   1.04856E+06
C:/temp/Job-1.odb,Step-1,Increment      1: Step Time =    1.000,"P-1-1",         15816,   55.9107E-03,   53.7553E-03,            0.,NA,NA,"",   1.05598E+06,   1.06528E+06,   1.06528E+06
C:/temp/Job-1.odb,Step-1,Increment      1: Step Time =    1.000,"P-1-1",         15817,   75.1804E-03,   50.7473E-03,            0.,NA,NA,"",   1.08389E+06,   1.09007E+06,   1.09007E+06
C:/temp/Job-1.odb,Step-1,Increment      1: Step Time =    1.000,"P-1-1",         15818,   50.5938E-03,   51.1025E-03,            0.,NA,NA,"",   1.04031E+06,   1.05653E+06,   1.05653E+06
C:/temp/Job-1.odb,Step-1,Increment      1: Step Time =    1.000,"P-1-1",         15819,   56.0356E-03,   149.322E-03,            0.,NA,NA,"",   1.05788E+06,   1.06686E+06,   1.06686E+06
C:/temp/Job-1.odb,Step-1,Increment      1: Step Time =    1.000,"P-1-1",         15820,   142.564E-03,   59.2932E-03,            0.,NA,NA,"",   1.09175E+06,   1.06558E+06,   1.06558E+06
C:/temp/Job-1.odb,Step-1,Increment      1: Step Time =    1.000,"P-1-1",         15821,   74.1569E-03,   49.9480E-03,            0.,NA,NA,"",   1.08228E+06,   1.08777E+06,   1.08777E+06
C:/temp/Job-1.odb,Step-1,Increment      1: Step Time =    1.000,"P-1-1",         15822,   150.253E-03,   142.154E-03,            0.,NA,NA,"",   1.06652E+06,   1.04645E+06,   1.04645E+06
C:/temp/Job-1.odb,Step-1,Increment      1: Step Time =    1.000,"P-1-1",         15823,   58.6540E-03,   50.2411E-03,            0.,NA,NA,"",   1.06523E+06,   1.07144E+06,   1.07144E+06
C:/temp/Job-1.odb,Step-1,Increment      1: Step Time =    1.000,"P-1-1",         15824,   149.107E-03,   58.6709E-03,            0.,NA,NA,"",   1.07008E+06,   1.04877E+06,   1.04877E+06
C:/temp/Job-1.odb,Step-1,Increment      1: Step Time =    1.000,"P-1-1",         15825,   49.5693E-03,   57.4084E-03,            0.,NA,NA,"",   1.02450E+06,   1.04469E+06,   1.04469E+06
C:/temp/Job-1.odb,Step-1,Increment      1: Step Time =    1.000,"P-1-1",         15826,   139.443E-03,   51.0653E-03,            0.,NA,NA,"",   1.08508E+06,   1.06561E+06,   1.06561E+06
C:/temp/Job-1.odb,Step-1,Increment      1: Step Time =    1.000,"P-1-1",         15827,   120.506E-03,   61.0736E-03,            0.,NA,NA,"",   1.13534E+06,   1.12754E+06,   1.12754E+06
C:/temp/Job-1.odb,Step-1,Increment      1: Step Time =    1.000,"P-1-1",         15828,   122.303E-03,   59.4230E-03,            0.,NA,NA,"",   1.12827E+06,   1.11787E+06,   1.11787E+06
C:/temp/Job-1.odb,Step-1,Increment      1: Step Time =    1.000,"P-1-1",         15829,   120.328E-03,   59.4133E-03,            0.,NA,NA,"",   1.12404E+06,   1.11935E+06,   1.11935E+06
C:/temp/Job-1.odb,Step-1,Increment      1: Step Time =    1.000,"P-1-1",         15830,   145.289E-03,   49.6278E-03,            0.,NA,NA,"",   1.07117E+06,   1.05323E+06,   1.05323E+06
C:/temp/Job-1.odb,Step-1,Increment      1: Step Time =    1.000,"P-1-1",         15831,   149.281E-03,   144.192E-03,            0.,NA,NA,"",   1.06896E+06,   1.04903E+06,   1.04903E+06
C:/temp/Job-1.odb,Step-1,Increment      1: Step Time =    1.000,"P-1-1",         15832,   150.078E-03,   66.4504E-03,            0.,NA,NA,"",   1.05809E+06,   1.03618E+06,   1.03618E+06
C:/temp/Job-1.odb,Step-1,Increment      1: Step Time =    1.000,"P-1-1",         15833,   131.323E-03,   152.671E-03,            0.,NA,NA,"",   1.08009E+06,   1.06822E+06,   1.06822E+06
C:/temp/Job-1.odb,Step-1,Increment      1: Step Time =    1.000,"P-1-1",         15834,   59.5604E-03,   150.362E-03,            0.,NA,NA,"",   1.06758E+06,   1.07299E+06,   1.07299E+06
C:/temp/Job-1.odb,Step-1,Increment      1: Step Time =    1.000,"P-1-1",         15835,   125.750E-03,   51.0820E-03,            0.,NA,NA,"",   1.09080E+06,   1.08294E+06,   1.08294E+06
C:/temp/Job-1.odb,Step-1,Increment      1: Step Time =    1.000,"P-1-1",         15836,   127.221E-03,   51.4026E-03,            0.,NA,NA,"",   1.09361E+06,   1.08306E+06,   1.08306E+06
C:/temp/Job-1.odb,Step-1,Increment      1: Step Time =    1.000,"P-1-1",         15837,   148.015E-03,   146.206E-03,            0.,NA,NA,"",   1.07086E+06,   1.05127E+06,   1.05127E+06
C:/temp/Job-1.odb,Step-1,Increment      1: Step Time =    1.000,"P-1-1",         15838,   54.6006E-03,   149.438E-03,            0.,NA,NA,"",   1.05353E+06,   1.06422E+06,   1.06422E+06
C:/temp/Job-1.odb,Step-1,Increment      1: Step Time =    1.000,"P-1-1",         15839,   67.9018E-03,   48.6042E-03,            0.,NA,NA,"",   1.07868E+06,   1.08148E+06,   1.08148E+06
C:/temp/Job-1.odb,Step-1,Increment      1: Step Time =    1.000,"P-1-1",         15840,   148.821E-03,   61.9412E-03,            0.,NA,NA,"",   1.06922E+06,   1.04662E+06,   1.04662E+06
C:/temp/Job-1.odb,Step-1,Increment      1: Step Time =    1.000,"P-1-1",         15841,   59.1500E-03,   152.486E-03,            0.,NA,NA,"",   1.06507E+06,   1.07102E+06,   1.07102E+06
C:/temp/Job-1.odb,Step-1,Increment      1: Step Time =    1.000,"P-1-1",         15842,   122.731E-03,   49.9001E-03,            0.,NA,NA,"",   1.08095E+06,   1.07926E+06,   1.07926E+06
C:/temp/Job-1.odb,Step-1,Increment      1: Step Time =    1.000,"P-1-1",         15843,   130.369E-03,   51.4318E-03,            0.,NA,NA,"",   1.09507E+06,   1.08037E+06,   1.08037E+06
C:/temp/Job-1.odb,Step-1,Increment      1: Step Time =    1.000,"P-1-1",         15844,   145.029E-03,   148.705E-03,            0.,NA,NA,"",   1.07449E+06,   1.05537E+06,   1.05537E+06
C:/temp/Job-1.odb,Step-1,Increment      1: Step Time =    1.000,"P-1-1",         15845,   149.751E-03,   148.958E-03,            0.,NA,NA,"",   1.06389E+06,   1.04664E+06,   1.04664E+06
C:/temp/Job-1.odb,Step-1,Increment      1: Step Time =    1.000,"P-1-1",         15846,   146.002E-03,   64.8171E-03,            0.,NA,NA,"",   1.07704E+06,   1.05065E+06,   1.05065E+06
C:/temp/Job-1.odb,Step-1,Increment      1: Step Time =    1.000,"P-1-1",         15847,   112.264E-03,   50.7904E-03,            0.,NA,NA,"",   1.05282E+06,   1.07413E+06,   1.07413E+06
C:/temp/Job-1.odb,Step-1,Increment      1: Step Time =    1.000,"P-1-1",         15848,   151.466E-03,   74.8662E-03,            0.,NA,NA,"",   1.02193E+06,   1.00548E+06,   1.00548E+06
C:/temp/Job-1.odb,Step-1,Increment      1: Step Time =    1.000,"P-1-1",         15849,   150.156E-03,   151.691E-03,            0.,NA,NA,"",   1.05958E+06,   1.04398E+06,   1.04398E+06
C:/temp/Job-1.odb,Step-1,Increment      1: Step Time =    1.000,"P-1-1",         15850,   56.3919E-03,   50.9875E-03,            0.,NA,NA,"",   1.05905E+06,   1.06756E+06,   1.06756E+06
C:/temp/Job-1.odb,Step-1,Increment      1: Step Time =    1.000,"P-1-1",         15851,   149.059E-03,   56.2107E-03,            0.,NA,NA,"",   1.06947E+06,   1.04929E+06,   1.04929E+06
C:/temp/Job-1.odb,Step-1,Increment      1: Step Time =    1.000,"P-1-1",         15852,   141.370E-03,   149.083E-03,            0.,NA,NA,"",   1.08098E+06,   1.06156E+06,   1.06156E+06
C:/temp/Job-1.odb,Step-1,Increment      1: Step Time =    1.000,"P-1-1",         15853,   125.374E-03,   58.1121E-03,            0.,NA,NA,"",   1.12429E+06,   1.10851E+06,   1.10851E+06
C:/temp/Job-1.odb,Step-1,Increment      1: Step Time =    1.000,"P-1-1",         15854,   61.6498E-03,   51.6481E-03,            0.,NA,NA,"",   1.07407E+06,   1.07752E+06,   1.07752E+06
C:/temp/Job-1.odb,Step-1,Increment      1: Step Time =    1.000,"P-1-1",         15855,   72.6592E-03,   51.3619E-03,            0.,NA,NA,"",   1.08757E+06,   1.09103E+06,   1.09103E+06
C:/temp/Job-1.odb,Step-1,Increment      1: Step Time =    1.000,"P-1-1",         15856,   140.630E-03,   58.9564E-03,            0.,NA,NA,"",   1.09727E+06,   1.07052E+06,   1.07052E+06
C:/temp/Job-1.odb,Step-1,Increment      1: Step Time =    1.000,"P-1-1",         15857,   109.183E-03,   50.4770E-03,            0.,NA,NA,"",   1.04130E+06,   1.06905E+06,   1.06905E+06
C:/temp/Job-1.odb,Step-1,Increment      1: Step Time =    1.000,"P-1-1",         15858,   132.377E-03,   58.2302E-03,            0.,NA,NA,"",   1.11883E+06,   1.09350E+06,   1.09350E+06
C:/temp/Job-1.odb,Step-1,Increment      1: Step Time =    1.000,"P-1-1",         15859,   149.880E-03,   145.912E-03,            0.,NA,NA,"",   1.06619E+06,   1.04751E+06,   1.04751E+06
C:/temp/Job-1.odb,Step-1,Increment      1: Step Time =    1.000,"P-1-1",         15860,   146.835E-03,   48.6690E-03,            0.,NA,NA,"",   1.06645E+06,   1.04957E+06,   1.04957E+06
C:/temp/Job-1.odb,Step-1,Increment      1: Step Time =    1.000,"P-1-1",         15861,   99.5810E-03,   47.7313E-03,            0.,NA,NA,"",   1.02169E+06,   1.05557E+06,   1.05557E+06
C:/temp/Job-1.odb,Step-1,Increment      1: Step Time =    1.000,"P-1-1",         15862,   119.224E-03,   50.7756E-03,            0.,NA,NA,"",   1.07577E+06,   1.08114E+06,   1.08114E+06
C:/temp/Job-1.odb,Step-1,Increment      1: Step Time =    1.000,"P-1-1",         15863,   137.294E-03,   59.9709E-03,            0.,NA,NA,"",   1.11058E+06,   1.08159E+06,   1.08159E+06
C:/temp/Job-1.odb,Step-1,Increment      1: Step Time =    1.000,"P-1-1",         15864,   54.5195E-03,   150.632E-03,            0.,NA,NA,"",   1.05386E+06,   1.06449E+06,   1.06449E+06
C:/temp/Job-1.odb,Step-1,Increment      1: Step Time =    1.000,"P-1-1",         15865,   143.641E-03,   60.0934E-03,            0.,NA,NA,"",   1.08873E+06,   1.06253E+06,   1.06253E+06
C:/temp/Job-1.odb,Step-1,Increment      1: Step Time =    1.000,"P-1-1",         15866,   141.989E-03,   57.4177E-03,            0.,NA,NA,"",   1.09172E+06,   1.06670E+06,   1.06670E+06
C:/temp/Job-1.odb,Step-1,Increment      1: Step Time =    1.000,"P-1-1",         15867,   54.9101E-03,   54.0549E-03,            0.,NA,NA,"",   1.05242E+06,   1.06301E+06,   1.06301E+06
C:/temp/Job-1.odb,Step-1,Increment      1: Step Time =    1.000,"P-1-1",         15868,   148.740E-03,   65.9166E-03,            0.,NA,NA,"",   1.06458E+06,   1.04100E+06,   1.04100E+06
C:/temp/Job-1.odb,Step-1,Increment      1: Step Time =    1.000,"P-1-1",         15869,   142.435E-03,   62.7443E-03,            0.,NA,NA,"",   1.09314E+06,   1.06426E+06,   1.06426E+06
C:/temp/Job-1.odb,Step-1,Increment      1: Step Time =    1.000,"P-1-1",         15870,   154.157E-03,   65.1653E-03,            0.,NA,NA,"",   1.04688E+06,   1.02968E+06,   1.02968E+06
C:/temp/Job-1.odb,Step-1,Increment      1: Step Time =    1.000,"P-1-1",         15871,   120.712E-03,   52.1481E-03,            0.,NA,NA,"",   1.08616E+06,   1.08736E+06,   1.08736E+06
C:/temp/Job-1.odb,Step-1,Increment      1: Step Time =    1.000,"P-1-1",         15872,   116.222E-03,   54.7816E-03,            0.,NA,NA,"",   1.08316E+06,   1.09544E+06,   1.09544E+06
C:/temp/Job-1.odb,Step-1,Increment      1: Step Time =    1.000,"P-1-1",         15873,   134.048E-03,   57.9204E-03,            0.,NA,NA,"",   1.11457E+06,   1.08863E+06,   1.08863E+06
C:/temp/Job-1.odb,Step-1,Increment      1: Step Time =    1.000,"P-1-1",         15874,   52.3075E-03,   145.310E-03,            0.,NA,NA,"",   1.04164E+06,   1.05621E+06,   1.05621E+06
C:/temp/Job-1.odb,Step-1,Increment      1: Step Time =    1.000,"P-1-1",         15875,   113.011E-03,   51.8853E-03,            0.,NA,NA,"",   1.05933E+06,   1.07947E+06,   1.07947E+06
C:/temp/Job-1.odb,Step-1,Increment      1: Step Time =    1.000,"P-1-1",         15876,   127.092E-03,   57.6075E-03,            0.,NA,NA,"",   1.12213E+06,   1.10389E+06,   1.10389E+06
C:/temp/Job-1.odb,Step-1,Increment      1: Step Time =    1.000,"P-1-1",         15877,   149.988E-03,   69.1923E-03,            0.,NA,NA,"",   1.05065E+06,   1.02913E+06,   1.02913E+06
C:/temp/Job-1.odb,Step-1,Increment      1: Step Time =    1.000,"P-1-1",         15878,   66.4687E-03,   48.2837E-03,            0.,NA,NA,"",   1.07692E+06,   1.07975E+06,   1.07975E+06
C:/temp/Job-1.odb,Step-1,Increment      1: Step Time =    1.000,"P-1-1",         15879,   129.023E-03,   52.0965E-03,            0.,NA,NA,"",   1.09756E+06,   1.08375E+06,   1.08375E+06
C:/temp/Job-1.odb,Step-1,Increment      1: Step Time =    1.000,"P-1-1",         15880,   126.034E-03,   52.0155E-03,            0.,NA,NA,"",   1.09486E+06,   1.08574E+06,   1.08574E+06
C:/temp/Job-1.odb,Step-1,Increment      1: Step Time =    1.000,"P-1-1",         15881,   123.580E-03,   51.0256E-03,            0.,NA,NA,"",   1.08769E+06,   1.08350E+06,   1.08350E+06
C:/temp/Job-1.odb,Step-1,Increment      1: Step Time =    1.000,"P-1-1",         15882,   120.548E-03,   57.4854E-03,            0.,NA,NA,"",   1.11253E+06,   1.10951E+06,   1.10951E+06
C:/temp/Job-1.odb,Step-1,Increment      1: Step Time =    1.000,"P-1-1",         15883,   57.6552E-03,   50.8287E-03,            0.,NA,NA,"",   1.06272E+06,   1.06986E+06,   1.06986E+06
C:/temp/Job-1.odb,Step-1,Increment      1: Step Time =    1.000,"P-1-1",         15884,   54.9661E-03,   50.2949E-03,            0.,NA,NA,"",   1.05508E+06,   1.06519E+06,   1.06519E+06
C:/temp/Job-1.odb,Step-1,Increment      1: Step Time =    1.000,"P-1-1",         15885,   149.363E-03,   55.2408E-03,            0.,NA,NA,"",   1.06823E+06,   1.04868E+06,   1.04868E+06
C:/temp/Job-1.odb,Step-1,Increment      1: Step Time =    1.000,"P-1-1",         15886,   148.501E-03,   57.1873E-03,            0.,NA,NA,"",   1.07130E+06,   1.05034E+06,   1.05034E+06
C:/temp/Job-1.odb,Step-1,Increment      1: Step Time =    1.000,"P-1-1",         15887,   145.801E-03,   63.7121E-03,            0.,NA,NA,"",   1.07884E+06,   1.05262E+06,   1.05262E+06
C:/temp/Job-1.odb,Step-1,Increment      1: Step Time =    1.000,"P-1-1",         15888,   147.693E-03,   49.7763E-03,            0.,NA,NA,"",   1.06656E+06,   1.04924E+06,   1.04924E+06
C:/temp/Job-1.odb,Step-1,Increment      1: Step Time =    1.000,"P-1-1",         15889,   149.610E-03,   147.627E-03,            0.,NA,NA,"",   1.06537E+06,   1.04741E+06,   1.04741E+06
C:/temp/Job-1.odb,Step-1,Increment      1: Step Time =    1.000,"P-1-1",         15890,   139.062E-03,   57.5305E-03,            0.,NA,NA,"",   1.10033E+06,   1.07441E+06,   1.07441E+06
C:/temp/Job-1.odb,Step-1,Increment      1: Step Time =    1.000,"P-1-1",         15891,   140.553E-03,   57.4350E-03,            0.,NA,NA,"",   1.09606E+06,   1.07055E+06,   1.07055E+06
C:/temp/Job-1.odb,Step-1,Increment      1: Step Time =    1.000,"P-1-1",         15892,   143.437E-03,   50.8667E-03,            0.,NA,NA,"",   1.07710E+06,   1.05790E+06,   1.05790E+06
C:/temp/Job-1.odb,Step-1,Increment      1: Step Time =    1.000,"P-1-1",         15893,   130.748E-03,   58.3395E-03,            0.,NA,NA,"",   1.12270E+06,   1.09837E+06,   1.09837E+06
C:/temp/Job-1.odb,Step-1,Increment      1: Step Time =    1.000,"P-1-1",         15894,   148.584E-03,   63.3940E-03,            0.,NA,NA,"",   1.06858E+06,   1.04531E+06,   1.04531E+06
C:/temp/Job-1.odb,Step-1,Increment      1: Step Time =    1.000,"P-1-1",         15895,   136.219E-03,   51.3548E-03,            0.,NA,NA,"",   1.09048E+06,   1.07163E+06,   1.07163E+06
C:/temp/Job-1.odb,Step-1,Increment      1: Step Time =    1.000,"P-1-1",         15896,   73.6230E-03,   48.5482E-03,            0.,NA,NA,"",   1.07788E+06,   1.08346E+06,   1.08346E+06
C:/temp/Job-1.odb,Step-1,Increment      1: Step Time =    1.000,"P-1-1",         15897,   125.054E-03,   56.6094E-03,            0.,NA,NA,"",   1.11594E+06,   1.10305E+06,   1.10305E+06
C:/temp/Job-1.odb,Step-1,Increment      1: Step Time =    1.000,"P-1-1",         15898,   51.4105E-03,   143.304E-03,            0.,NA,NA,"",   1.03453E+06,   1.05113E+06,   1.05113E+06
C:/temp/Job-1.odb,Step-1,Increment      1: Step Time =    1.000,"P-1-1",         15899,   148.503E-03,   64.4178E-03,            0.,NA,NA,"",   1.06813E+06,   1.04446E+06,   1.04446E+06
C:/temp/Job-1.odb,Step-1,Increment      1: Step Time =    1.000,"P-1-1",         15900,   53.3313E-03,   150.022E-03,            0.,NA,NA,"",   1.04991E+06,   1.06216E+06,   1.06216E+06
C:/temp/Job-1.odb,Step-1,Increment      1: Step Time =    1.000,"P-1-1",         15901,   50.8679E-03,   56.9985E-03,            0.,NA,NA,"",   1.03121E+06,   1.04890E+06,   1.04890E+06
C:/temp/Job-1.odb,Step-1,Increment      1: Step Time =    1.000,"P-1-1",         15902,   133.419E-03,   51.6841E-03,            0.,NA,NA,"",   1.09480E+06,   1.07694E+06,   1.07694E+06
C:/temp/Job-1.odb,Step-1,Increment      1: Step Time =    1.000,"P-1-1",         15903,   120.881E-03,   50.3865E-03,            0.,NA,NA,"",   1.07877E+06,   1.08052E+06,   1.08052E+06
C:/temp/Job-1.odb,Step-1,Increment      1: Step Time =    1.000,"P-1-1",         15904,   116.124E-03,   53.2070E-03,            0.,NA,NA,"",   1.07585E+06,   1.08836E+06,   1.08836E+06
C:/temp/Job-1.odb,Step-1,Increment      1: Step Time =    1.000,"P-1-1",         15905,   139.368E-03,   52.7055E-03,            0.,NA,NA,"",   1.08925E+06,   1.06823E+06,   1.06823E+06
C:/temp/Job-1.odb,Step-1,Increment      1: Step Time =    1.000,"P-1-1",         15906,   147.301E-03,   150.085E-03,            0.,NA,NA,"",   1.06741E+06,   1.04991E+06,   1.04991E+06
C:/temp/Job-1.odb,Step-1,Increment      1: Step Time =    1.000,"P-1-1",         15907,   132.132E-03,   52.1168E-03,            0.,NA,NA,"",   1.09735E+06,   1.08002E+06,   1.08002E+06
C:/temp/Job-1.odb,Step-1,Increment      1: Step Time =    1.000,"P-1-1",         15908,   147.829E-03,   60.8783E-03,            0.,NA,NA,"",   1.07381E+06,   1.05054E+06,   1.05054E+06
C:/temp/Job-1.odb,Step-1,Increment      1: Step Time =    1.000,"P-1-1",         15909,   110.976E-03,   51.4858E-03,            0.,NA,NA,"",   1.04990E+06,   1.07481E+06,   1.07481E+06
C:/temp/Job-1.odb,Step-1,Increment      1: Step Time =    1.000,"P-1-1",         15910,   53.9989E-03,   152.099E-03,            0.,NA,NA,"",   1.05325E+06,   1.06418E+06,   1.06418E+06
C:/temp/Job-1.odb,Step-1,Increment      1: Step Time =    1.000,"P-1-1",         15911,   119.165E-03,   53.6198E-03,            0.,NA,NA,"",   1.08877E+06,   1.09290E+06,   1.09290E+06
C:/temp/Job-1.odb,Step-1,Increment      1: Step Time =    1.000,"P-1-1",         15912,   135.748E-03,   57.6620E-03,            0.,NA,NA,"",   1.10997E+06,   1.08384E+06,   1.08384E+06
C:/temp/Job-1.odb,Step-1,Increment      1: Step Time =    1.000,"P-1-1",         15913,   117.716E-03,   53.5000E-03,            0.,NA,NA,"",   1.08299E+06,   1.09108E+06,   1.09108E+06
C:/temp/Job-1.odb,Step-1,Increment      1: Step Time =    1.000,"P-1-1",         15914,   48.4438E-03,   58.0061E-03,            0.,NA,NA,"",   1.01790E+06,   1.04048E+06,   1.04048E+06
C:/temp/Job-1.odb,Step-1,Increment      1: Step Time =    1.000,"P-1-1",         15915,   128.865E-03,   57.0724E-03,            0.,NA,NA,"",   1.11907E+06,   1.09892E+06,   1.09892E+06
C:/temp/Job-1.odb,Step-1,Increment      1: Step Time =    1.000,"P-1-1",         15916,   54.6453E-03,   51.4352E-03,            0.,NA,NA,"",   1.05354E+06,   1.06414E+06,   1.06414E+06
C:/temp/Job-1.odb,Step-1,Increment      1: Step Time =    1.000,"P-1-1",         15917,   148.096E-03,   55.4800E-03,            0.,NA,NA,"",   1.07159E+06,   1.05122E+06,   1.05122E+06
C:/temp/Job-1.odb,Step-1,Increment      1: Step Time =    1.000,"P-1-1",         15918,   144.815E-03,   60.8165E-03,            0.,NA,NA,"",   1.08442E+06,   1.05862E+06,   1.05862E+06
C:/temp/Job-1.odb,Step-1,Increment      1: Step Time =    1.000,"P-1-1",         15919,   146.306E-03,   50.7949E-03,            0.,NA,NA,"",   1.07118E+06,   1.05269E+06,   1.05269E+06
C:/temp/Job-1.odb,Step-1,Increment      1: Step Time =    1.000,"P-1-1",         15920,   50.3244E-03,   55.4268E-03,            0.,NA,NA,"",   1.03204E+06,   1.05020E+06,   1.05020E+06
C:/temp/Job-1.odb,Step-1,Increment      1: Step Time =    1.000,"P-1-1",         15921,   137.454E-03,   57.5344E-03,            0.,NA,NA,"",   1.10498E+06,   1.07885E+06,   1.07885E+06
C:/temp/Job-1.odb,Step-1,Increment      1: Step Time =    1.000,"P-1-1",         15922,   139.123E-03,   55.9415E-03,            0.,NA,NA,"",   1.09717E+06,   1.07288E+06,   1.07288E+06
C:/temp/Job-1.odb,Step-1,Increment      1: Step Time =    1.000,"P-1-1",         15923,   142.725E-03,   52.8258E-03,            0.,NA,NA,"",   1.08239E+06,   1.06147E+06,   1.06147E+06
C:/temp/Job-1.odb,Step-1,Increment      1: Step Time =    1.000,"P-1-1",         15924,   132.311E-03,   56.9863E-03,            0.,NA,NA,"",   1.11467E+06,   1.09107E+06,   1.09107E+06
C:/temp/Job-1.odb,Step-1,Increment      1: Step Time =    1.000,"P-1-1",         15925,   136.179E-03,   52.9021E-03,            0.,NA,NA,"",   1.09514E+06,   1.07469E+06,   1.07469E+06
C:/temp/Job-1.odb,Step-1,Increment      1: Step Time =    1.000,"P-1-1",         15926,   126.807E-03,   56.1398E-03,            0.,NA,NA,"",   1.11476E+06,   1.09919E+06,   1.09919E+06
C:/temp/Job-1.odb,Step-1,Increment      1: Step Time =    1.000,"P-1-1",         15927,   123.067E-03,   57.0313E-03,            0.,NA,NA,"",   1.11557E+06,   1.10666E+06,   1.10666E+06
C:/temp/Job-1.odb,Step-1,Increment      1: Step Time =    1.000,"P-1-1",         15928,   117.020E-03,   51.8742E-03,            0.,NA,NA,"",   1.07350E+06,   1.08378E+06,   1.08378E+06
C:/temp/Job-1.odb,Step-1,Increment      1: Step Time =    1.000,"P-1-1",         15929,   141.081E-03,   52.6724E-03,            0.,NA,NA,"",   1.08561E+06,   1.06463E+06,   1.06463E+06
C:/temp/Job-1.odb,Step-1,Increment      1: Step Time =    1.000,"P-1-1",         15930,   57.8672E-03,   151.097E-03,            0.,NA,NA,"",   1.06296E+06,   1.06995E+06,   1.06995E+06
C:/temp/Job-1.odb,Step-1,Increment      1: Step Time =    1.000,"P-1-1",         15931,   137.613E-03,   54.4239E-03,            0.,NA,NA,"",   1.09714E+06,   1.07452E+06,   1.07452E+06
C:/temp/Job-1.odb,Step-1,Increment      1: Step Time =    1.000,"P-1-1",         15932,   118.508E-03,   57.6435E-03,            0.,NA,NA,"",   1.10748E+06,   1.11071E+06,   1.11071E+06
C:/temp/Job-1.odb,Step-1,Increment      1: Step Time =    1.000,"P-1-1",         15933,   48.8542E-03,   54.2993E-03,            0.,NA,NA,"",   1.02848E+06,   1.04870E+06,   1.04870E+06
C:/temp/Job-1.odb,Step-1,Increment      1: Step Time =    1.000,"P-1-1",         15934,   123.439E-03,   52.3402E-03,            0.,NA,NA,"",   1.09317E+06,   1.08815E+06,   1.08815E+06
C:/temp/Job-1.odb,Step-1,Increment      1: Step Time =    1.000,"P-1-1",         15935,   126.291E-03,   53.2765E-03,            0.,NA,NA,"",   1.10085E+06,   1.08988E+06,   1.08988E+06
C:/temp/Job-1.odb,Step-1,Increment      1: Step Time =    1.000,"P-1-1",         15936,   121.549E-03,   56.2909E-03,            0.,NA,NA,"",   1.10879E+06,   1.10451E+06,   1.10451E+06
C:/temp/Job-1.odb,Step-1,Increment      1: Step Time =    1.000,"P-1-1",         15937,   147.256E-03,   63.6013E-03,            0.,NA,NA,"",   1.07327E+06,   1.04868E+06,   1.04868E+06
C:/temp/Job-1.odb,Step-1,Increment      1: Step Time =    1.000,"P-1-1",         15938,   146.933E-03,   57.6757E-03,            0.,NA,NA,"",   1.07666E+06,   1.05429E+06,   1.05429E+06
C:/temp/Job-1.odb,Step-1,Increment      1: Step Time =    1.000,"P-1-1",         15939,   149.482E-03,   51.9121E-03,            0.,NA,NA,"",   1.06528E+06,   1.04750E+06,   1.04750E+06
C:/temp/Job-1.odb,Step-1,Increment      1: Step Time =    1.000,"P-1-1",         15940,   143.553E-03,   56.0336E-03,            0.,NA,NA,"",   1.08523E+06,   1.06205E+06,   1.06205E+06
C:/temp/Job-1.odb,Step-1,Increment      1: Step Time =    1.000,"P-1-1",         15941,   51.5663E-03,   146.375E-03,            0.,NA,NA,"",   1.04039E+06,   1.05584E+06,   1.05584E+06
C:/temp/Job-1.odb,Step-1,Increment      1: Step Time =    1.000,"P-1-1",         15942,   129.522E-03,   53.4962E-03,            0.,NA,NA,"",   1.10324E+06,   1.08721E+06,   1.08721E+06
C:/temp/Job-1.odb,Step-1,Increment      1: Step Time =    1.000,"P-1-1",         15943,   142.138E-03,   55.9589E-03,            0.,NA,NA,"",   1.08934E+06,   1.06559E+06,   1.06559E+06
C:/temp/Job-1.odb,Step-1,Increment      1: Step Time =    1.000,"P-1-1",         15944,   149.388E-03,   53.8772E-03,            0.,NA,NA,"",   1.06744E+06,   1.04852E+06,   1.04852E+06
C:/temp/Job-1.odb,Step-1,Increment      1: Step Time =    1.000,"P-1-1",         15945,   53.5068E-03,   49.5742E-03,            0.,NA,NA,"",   1.05120E+06,   1.06295E+06,   1.06295E+06
C:/temp/Job-1.odb,Step-1,Increment      1: Step Time =    1.000,"P-1-1",         15946,   53.5788E-03,   54.1346E-03,            0.,NA,NA,"",   1.04740E+06,   1.05988E+06,   1.05988E+06
C:/temp/Job-1.odb,Step-1,Increment      1: Step Time =    1.000,"P-1-1",         15947,   52.0173E-03,   51.1181E-03,            0.,NA,NA,"",   1.04520E+06,   1.05931E+06,   1.05931E+06
C:/temp/Job-1.odb,Step-1,Increment      1: Step Time =    1.000,"P-1-1",         15948,   53.4127E-03,   52.6837E-03,            0.,NA,NA,"",   1.04825E+06,   1.06077E+06,   1.06077E+06
C:/temp/Job-1.odb,Step-1,Increment      1: Step Time =    1.000,"P-1-1",         15949,   146.675E-03,   54.9495E-03,            0.,NA,NA,"",   1.07529E+06,   1.05433E+06,   1.05433E+06
C:/temp/Job-1.odb,Step-1,Increment      1: Step Time =    1.000,"P-1-1",         15950,   142.332E-03,   54.4130E-03,            0.,NA,NA,"",   1.08629E+06,   1.06392E+06,   1.06392E+06
C:/temp/Job-1.odb,Step-1,Increment      1: Step Time =    1.000,"P-1-1",         15951,   145.433E-03,   58.0486E-03,            0.,NA,NA,"",   1.08153E+06,   1.05794E+06,   1.05794E+06
C:/temp/Job-1.odb,Step-1,Increment      1: Step Time =    1.000,"P-1-1",         15952,   120.469E-03,   55.3241E-03,            0.,NA,NA,"",   1.10144E+06,   1.10084E+06,   1.10084E+06
C:/temp/Job-1.odb,Step-1,Increment      1: Step Time =    1.000,"P-1-1",         15953,   57.0113E-03,   52.6259E-03,            0.,NA,NA,"",   1.06073E+06,   1.06847E+06,   1.06847E+06
C:/temp/Job-1.odb,Step-1,Increment      1: Step Time =    1.000,"P-1-1",         15954,   139.240E-03,   54.3420E-03,            0.,NA,NA,"",   1.09337E+06,   1.07071E+06,   1.07071E+06
C:/temp/Job-1.odb,Step-1,Increment      1: Step Time =    1.000,"P-1-1",         15955,   49.5715E-03,   53.6009E-03,            0.,NA,NA,"",   1.03255E+06,   1.05131E+06,   1.05131E+06
C:/temp/Job-1.odb,Step-1,Increment      1: Step Time =    1.000,"P-1-1",         15956,   145.754E-03,   62.4733E-03,            0.,NA,NA,"",   1.08003E+06,   1.05425E+06,   1.05425E+06
C:/temp/Job-1.odb,Step-1,Increment      1: Step Time =    1.000,"P-1-1",         15957,   119.621E-03,   56.7197E-03,            0.,NA,NA,"",   1.10604E+06,   1.10653E+06,   1.10653E+06
C:/temp/Job-1.odb,Step-1,Increment      1: Step Time =    1.000,"P-1-1",         15958,   144.921E-03,   57.2070E-03,            0.,NA,NA,"",   1.08219E+06,   1.05889E+06,   1.05889E+06
C:/temp/Job-1.odb,Step-1,Increment      1: Step Time =    1.000,"P-1-1",         15959,   128.081E-03,   54.1465E-03,            0.,NA,NA,"",   1.10581E+06,   1.09090E+06,   1.09090E+06
C:/temp/Job-1.odb,Step-1,Increment      1: Step Time =    1.000,"P-1-1",         15960,   117.180E-03,   57.4634E-03,            0.,NA,NA,"",   1.10171E+06,   1.10936E+06,   1.10936E+06
C:/temp/Job-1.odb,Step-1,Increment      1: Step Time =    1.000,"P-1-1",         15961,   53.8187E-03,   55.5452E-03,            0.,NA,NA,"",   1.04653E+06,   1.05886E+06,   1.05886E+06
C:/temp/Job-1.odb,Step-1,Increment      1: Step Time =    1.000,"P-1-1",         15962,   124.827E-03,   53.6156E-03,            0.,NA,NA,"",   1.10072E+06,   1.09202E+06,   1.09202E+06
C:/temp/Job-1.odb,Step-1,Increment      1: Step Time =    1.000,"P-1-1",         15963,   131.470E-03,   54.0405E-03,            0.,NA,NA,"",   1.10469E+06,   1.08582E+06,   1.08582E+06
C:/temp/Job-1.odb,Step-1,Increment      1: Step Time =    1.000,"P-1-1",         15964,   146.246E-03,   56.1489E-03,            0.,NA,NA,"",   1.07741E+06,   1.05554E+06,   1.05554E+06
C:/temp/Job-1.odb,Step-1,Increment      1: Step Time =    1.000,"P-1-1",         15965,   121.969E-03,   53.7167E-03,            0.,NA,NA,"",   1.09691E+06,   1.09387E+06,   1.09387E+06
C:/temp/Job-1.odb,Step-1,Increment      1: Step Time =    1.000,"P-1-1",         15966,   130.107E-03,   54.9260E-03,            0.,NA,NA,"",   1.10874E+06,   1.09024E+06,   1.09024E+06
C:/temp/Job-1.odb,Step-1,Increment      1: Step Time =    1.000,"P-1-1",         15967,   135.762E-03,   56.0907E-03,            0.,NA,NA,"",   1.10549E+06,   1.08136E+06,   1.08136E+06
C:/temp/Job-1.odb,Step-1,Increment      1: Step Time =    1.000,"P-1-1",         15968,   126.544E-03,   54.6851E-03,            0.,NA,NA,"",   1.10765E+06,   1.09450E+06,   1.09450E+06
C:/temp/Job-1.odb,Step-1,Increment      1: Step Time =    1.000,"P-1-1",         15969,   132.360E-03,   55.1182E-03,            0.,NA,NA,"",   1.10770E+06,   1.08672E+06,   1.08672E+06
C:/temp/Job-1.odb,Step-1,Increment      1: Step Time =    1.000,"P-1-1",         15970,   56.9736E-03,   152.679E-03,            0.,NA,NA,"",   1.06034E+06,   1.06814E+06,   1.06814E+06
C:/temp/Job-1.odb,Step-1,Increment      1: Step Time =    1.000,"P-1-1",         15971,   147.401E-03,   59.2295E-03,            0.,NA,NA,"",   1.07594E+06,   1.05297E+06,   1.05297E+06
C:/temp/Job-1.odb,Step-1,Increment      1: Step Time =    1.000,"P-1-1",         15972,   50.6924E-03,   52.5160E-03,            0.,NA,NA,"",   1.03893E+06,   1.05536E+06,   1.05536E+06
C:/temp/Job-1.odb,Step-1,Increment      1: Step Time =    1.000,"P-1-1",         15973,   50.7068E-03,   53.9212E-03,            0.,NA,NA,"",   1.03642E+06,   1.05343E+06,   1.05343E+06
C:/temp/Job-1.odb,Step-1,Increment      1: Step Time =    1.000,"P-1-1",         15974,   123.326E-03,   55.2530E-03,            0.,NA,NA,"",   1.10651E+06,   1.09907E+06,   1.09907E+06
C:/temp/Job-1.odb,Step-1,Increment      1: Step Time =    1.000,"P-1-1",         15975,   115.982E-03,   56.1472E-03,            0.,NA,NA,"",   1.08925E+06,   1.10177E+06,   1.10177E+06
C:/temp/Job-1.odb,Step-1,Increment      1: Step Time =    1.000,"P-1-1",         15976,   53.3648E-03,   51.1990E-03,            0.,NA,NA,"",   1.04954E+06,   1.06180E+06,   1.06180E+06
C:/temp/Job-1.odb,Step-1,Increment      1: Step Time =    1.000,"P-1-1",         15977,   52.1348E-03,   54.0824E-03,            0.,NA,NA,"",   1.04172E+06,   1.05647E+06,   1.05647E+06
C:/temp/Job-1.odb,Step-1,Increment      1: Step Time =    1.000,"P-1-1",         15978,   123.386E-03,   53.7373E-03,            0.,NA,NA,"",   1.09939E+06,   1.09326E+06,   1.09326E+06
C:/temp/Job-1.odb,Step-1,Increment      1: Step Time =    1.000,"P-1-1",         15979,   145.162E-03,   54.3784E-03,            0.,NA,NA,"",   1.07879E+06,   1.05747E+06,   1.05747E+06
C:/temp/Job-1.odb,Step-1,Increment      1: Step Time =    1.000,"P-1-1",         15980,   134.462E-03,   54.3854E-03,            0.,NA,NA,"",   1.10235E+06,   1.08096E+06,   1.08096E+06
C:/temp/Job-1.odb,Step-1,Increment      1: Step Time =    1.000,"P-1-1",         15981,   144.079E-03,   53.3583E-03,            0.,NA,NA,"",   1.07994E+06,   1.05901E+06,   1.05901E+06
C:/temp/Job-1.odb,Step-1,Increment      1: Step Time =    1.000,"P-1-1",         15982,   133.280E-03,   53.9691E-03,            0.,NA,NA,"",   1.10274E+06,   1.08243E+06,   1.08243E+06
C:/temp/Job-1.odb,Step-1,Increment      1: Step Time =    1.000,"P-1-1",         15983,   146.213E-03,   52.9704E-03,            0.,NA,NA,"",   1.07436E+06,   1.05441E+06,   1.05441E+06
C:/temp/Job-1.odb,Step-1,Increment      1: Step Time =    1.000,"P-1-1",         15984,   148.369E-03,   52.8199E-03,            0.,NA,NA,"",   1.06898E+06,   1.05012E+06,   1.05012E+06
C:/temp/Job-1.odb,Step-1,Increment      1: Step Time =    1.000,"P-1-1",         15985,   130.963E-03,   61.3931E-03,            0.,NA,NA,"",   1.13358E+06,   1.10395E+06,   1.10395E+06
C:/temp/Job-1.odb,Step-1,Increment      1: Step Time =    1.000,"P-1-1",         15986,   76.3624E-03,   51.9375E-03,            0.,NA,NA,"",   1.08687E+06,   1.09384E+06,   1.09384E+06
C:/temp/Job-1.odb,Step-1,Increment      1: Step Time =    1.000,"P-1-1",         15987,   96.8461E-03,   143.580E-03,            0.,NA,NA,"",   1.03484E+06,   1.08377E+06,   1.08377E+06
C:/temp/Job-1.odb,Step-1,Increment      1: Step Time =    1.000,"P-1-1",         15988,   110.717E-03,   76.3937E-03,            0.,NA,NA,"",   1.28049E+06,   1.30430E+06,   1.30430E+06
C:/temp/Job-1.odb,Step-1,Increment      1: Step Time =    1.000,"P-1-1",         15989,   145.307E-03,   110.713E-03,            0.,NA,NA,"",   909.719E+03,   907.719E+03,   907.719E+03
C:/temp/Job-1.odb,Step-1,Increment      1: Step Time =    1.000,"P-1-1",         15990,   102.048E-03,   139.877E-03,            0.,NA,NA,"",   1.04023E+06,   1.09788E+06,   1.09788E+06
C:/temp/Job-1.odb,Step-1,Increment      1: Step Time =    1.000,"P-1-1",         15991,   111.278E-03,   48.4049E-03,            0.,NA,NA,"",   1.04289E+06,   1.06490E+06,   1.06490E+06
C:/temp/Job-1.odb,Step-1,Increment      1: Step Time =    1.000,"P-1-1",         15992,   178.661E-03,   135.914E-03,            0.,NA,NA,"",   1.00081E+06,   1.00539E+06,   1.00539E+06
C:/temp/Job-1.odb,Step-1,Increment      1: Step Time =    1.000,"P-1-1",         15993,   135.970E-03,   21.5951E-03,            0.,NA,NA,"",   1.00943E+06,   1.00676E+06,   1.00676E+06
C:/temp/Job-1.odb,Step-1,Increment      1: Step Time =    1.000,"P-1-1",         15994,   117.232E-03,   155.932E-03,            0.,NA,NA,"",   1.04741E+06,   1.05686E+06,   1.05686E+06
C:/temp/Job-1.odb,Step-1,Increment      1: Step Time =    1.000,"P-1-1",         15995,   77.5779E-03,   62.4689E-03,            0.,NA,NA,"",   1.13542E+06,   1.13372E+06,   1.13372E+06
C:/temp/Job-1.odb,Step-1,Increment      1: Step Time =    1.000,"P-1-1",         15996,   150.859E-03,   117.233E-03,            0.,NA,NA,"",   972.361E+03,   964.453E+03,   964.453E+03
C:/temp/Job-1.odb,Step-1,Increment      1: Step Time =    1.000,"P-1-1",         15997,   117.872E-03,   66.8498E-03,            0.,NA,NA,"",   1.17576E+06,   1.16672E+06,   1.16672E+06
C:/temp/Job-1.odb,Step-1,Increment      1: Step Time =    1.000,"P-1-1",         15998,   2.99007E-03,   12.6483E-03,            0.,NA,NA,"",   1.09217E+06,   1.19071E+06,   1.19071E+06
C:/temp/Job-1.odb,Step-1,Increment      1: Step Time =    1.000,"P-1-1",         15999,   197.060E-03,   187.477E-03,            0.,NA,NA,"",   1.00022E+06,   1.00001E+06,   1.00001E+06
C:/temp/Job-1.odb,Step-1,Increment      1: Step Time =    1.000,"P-1-1",         16000,   12.5732E-03,   196.941E-03,            0.,NA,NA,"",   1.18238E+06,   1.18676E+06,   1.18676E+06
C:/temp/Job-1.odb,Step-1,Increment      1: Step Time =    1.000,"P-1-1",         16001,   187.368E-03,   3.00789E-03,            0.,NA,NA,"",   999.536E+03,   999.530E+03,   999.530E+03
C:/temp/Job-1.odb,Step-1,Increment      1: Step Time =    1.000,"P-1-1",         16002,   79.6070E-03,   131.391E-03,            0.,NA,NA,"",   1.18106E+06,   1.16968E+06,   1.16968E+06
C:/temp/Job-1.odb,Step-1,Increment      1: Step Time =    1.000,"P-1-1",         16003,   174.298E-03,   122.906E-03,            0.,NA,NA,"",   986.591E+03,   993.861E+03,   993.861E+03
C:/temp/Job-1.odb,Step-1,Increment      1: Step Time =    1.000,"P-1-1",         16004,   122.921E-03,   26.0781E-03,            0.,NA,NA,"",   1.01050E+06,   1.01206E+06,   1.01206E+06
C:/temp/Job-1.odb,Step-1,Increment      1: Step Time =    1.000,"P-1-1",         16005,   44.5959E-03,   163.527E-03,            0.,NA,NA,"",   1.04167E+06,   1.05905E+06,   1.05905E+06
C:/temp/Job-1.odb,Step-1,Increment      1: Step Time =    1.000,"P-1-1",         16006,   151.949E-03,   111.114E-03,            0.,NA,NA,"",   929.721E+03,   931.796E+03,   931.796E+03
C:/temp/Job-1.odb,Step-1,Increment      1: Step Time =    1.000,"P-1-1",         16007,   71.7214E-03,   105.645E-03,            0.,NA,NA,"",   676.728E+03,   689.851E+03,   689.851E+03
C:/temp/Job-1.odb,Step-1,Increment      1: Step Time =    1.000,"P-1-1",         16008,   35.7841E-03,   44.0101E-03,            0.,NA,NA,"",   1.00723E+06,   1.04437E+06,   1.04437E+06
C:/temp/Job-1.odb,Step-1,Increment      1: Step Time =    1.000,"P-1-1",         16009,   72.7633E-03,   145.239E-03,            0.,NA,NA,"",   1.09872E+06,   1.09997E+06,   1.09997E+06
C:/temp/Job-1.odb,Step-1,Increment      1: Step Time =    1.000,"P-1-1",         16010,   122.568E-03,   159.161E-03,            0.,NA,NA,"",   1.04883E+06,   1.05057E+06,   1.05057E+06
C:/temp/Job-1.odb,Step-1,Increment      1: Step Time =    1.000,"P-1-1",         16011,   54.3243E-03,   65.8598E-03,            0.,NA,NA,"",   1.02433E+06,   1.03807E+06,   1.03807E+06
C:/temp/Job-1.odb,Step-1,Increment      1: Step Time =    1.000,"P-1-1",         16012,   47.8968E-03,   174.216E-03,            0.,NA,NA,"",   1.04415E+06,   1.05168E+06,   1.05168E+06
C:/temp/Job-1.odb,Step-1,Increment      1: Step Time =    1.000,"P-1-1",         16013,   25.5235E-03,   47.0191E-03,            0.,NA,NA,"",   961.209E+03,   1.02151E+06,   1.02151E+06
C:/temp/Job-1.odb,Step-1,Increment      1: Step Time =    1.000,"P-1-1",         16014,   19.6352E-03,   123.434E-03,            0.,NA,NA,"",   841.357E+03,   925.841E+03,   925.841E+03
C:/temp/Job-1.odb,Step-1,Increment      1: Step Time =    1.000,"P-1-1",         16015,   123.522E-03,   181.623E-03,            0.,NA,NA,"",   992.742E+03,   993.511E+03,   993.511E+03
C:/temp/Job-1.odb,Step-1,Increment      1: Step Time =    1.000,"P-1-1",         16016,   173.790E-03,   152.280E-03,            0.,NA,NA,"",   1.01639E+06,   1.01384E+06,   1.01384E+06
C:/temp/Job-1.odb,Step-1,Increment      1: Step Time =    1.000,"P-1-1",         16017,   153.116E-03,   25.8990E-03,            0.,NA,NA,"",   1.01937E+06,   1.01419E+06,   1.01419E+06
C:/temp/Job-1.odb,Step-1,Increment      1: Step Time =    1.000,"P-1-1",         16018,   92.2307E-03,   136.954E-03,            0.,NA,NA,"",   1.07609E+06,   1.12775E+06,   1.12775E+06
C:/temp/Job-1.odb,Step-1,Increment      1: Step Time =    1.000,"P-1-1",         16019,   80.2599E-03,   133.368E-03,            0.,NA,NA,"",   1.16361E+06,   1.16033E+06,   1.16033E+06
C:/temp/Job-1.odb,Step-1,Increment      1: Step Time =    1.000,"P-1-1",         16020,   10.4302E-03,   186.003E-03,            0.,NA,NA,"",   1.11708E+06,   1.17373E+06,   1.17373E+06
C:/temp/Job-1.odb,Step-1,Increment      1: Step Time =    1.000,"P-1-1",         16021,   188.529E-03,   14.9423E-03,            0.,NA,NA,"",   1.00045E+06,   1.00038E+06,   1.00038E+06
C:/temp/Job-1.odb,Step-1,Increment      1: Step Time =    1.000,"P-1-1",         16022,   14.6554E-03,   11.1183E-03,            0.,NA,NA,"",   1.14136E+06,   1.17017E+06,   1.17017E+06
C:/temp/Job-1.odb,Step-1,Increment      1: Step Time =    1.000,"P-1-1",         16023,   129.163E-03,   192.418E-03,            0.,NA,NA,"",   972.306E+03,   972.134E+03,   972.134E+03
C:/temp/Job-1.odb,Step-1,Increment      1: Step Time =    1.000,"P-1-1",         16024,   192.355E-03,   70.9208E-03,            0.,NA,NA,"",   982.124E+03,   1.00017E+06,   1.00017E+06
C:/temp/Job-1.odb,Step-1,Increment      1: Step Time =    1.000,"P-1-1",         16025,   115.383E-03,   146.216E-03,            0.,NA,NA,"",   1.07526E+06,   1.08985E+06,   1.08985E+06
C:/temp/Job-1.odb,Step-1,Increment      1: Step Time =    1.000,"P-1-1",         16026,   42.6077E-03,   191.757E-03,            0.,NA,NA,"",   1.01602E+06,   1.01718E+06,   1.01718E+06
C:/temp/Job-1.odb,Step-1,Increment      1: Step Time =    1.000,"P-1-1",         16027,   156.160E-03,   6.92860E-03,            0.,NA,NA,"",   994.577E+03,   994.099E+03,   994.099E+03
C:/temp/Job-1.odb,Step-1,Increment      1: Step Time =    1.000,"P-1-1",         16028,   6.86657E-03,   43.6867E-03,            0.,NA,NA,"",   894.091E+03,   991.091E+03,   991.091E+03
C:/temp/Job-1.odb,Step-1,Increment      1: Step Time =    1.000,"P-1-1",         16029,   191.960E-03,   157.377E-03,            0.,NA,NA,"",   998.460E+03,   1.00160E+06,   1.00160E+06
C:/temp/Job-1.odb,Step-1,Increment      1: Step Time =    1.000,"P-1-1",         16030,   117.453E-03,   129.314E-03,            0.,NA,NA,"",   1.21694E+06,   1.19704E+06,   1.19704E+06
C:/temp/Job-1.odb,Step-1,Increment      1: Step Time =    1.000,"P-1-1",         16031,   90.1057E-03,   146.346E-03,            0.,NA,NA,"",   1.05101E+06,   1.08493E+06,   1.08493E+06
C:/temp/Job-1.odb,Step-1,Increment      1: Step Time =    1.000,"P-1-1",         16032,   101.184E-03,   72.1918E-03,            0.,NA,NA,"",   1.10634E+06,   1.20726E+06,   1.20726E+06
C:/temp/Job-1.odb,Step-1,Increment      1: Step Time =    1.000,"P-1-1",         16033,   103.485E-03,   71.9058E-03,            0.,NA,NA,"",   1.11475E+06,   1.20754E+06,   1.20754E+06
C:/temp/Job-1.odb,Step-1,Increment      1: Step Time =    1.000,"P-1-1",         16034,   115.429E-03,   80.5449E-03,            0.,NA,NA,"",   1.34221E+06,   1.27664E+06,   1.27664E+06
C:/temp/Job-1.odb,Step-1,Increment      1: Step Time =    1.000,"P-1-1",         16035,   87.2769E-03,   84.2049E-03,            0.,NA,NA,"",   1.37864E+06,   1.32066E+06,   1.32066E+06
C:/temp/Job-1.odb,Step-1,Increment      1: Step Time =    1.000,"P-1-1",         16036,   111.236E-03,   87.5148E-03,            0.,NA,NA,"",   1.35061E+06,   1.28843E+06,   1.28843E+06
C:/temp/Job-1.odb,Step-1,Increment      1: Step Time =    1.000,"P-1-1",         16037,   95.3162E-03,   76.2530E-03,            0.,NA,NA,"",   1.20807E+06,   1.30983E+06,   1.30983E+06
C:/temp/Job-1.odb,Step-1,Increment      1: Step Time =    1.000,"P-1-1",         16038,   118.163E-03,   91.2615E-03,            0.,NA,NA,"",   974.159E+03,   808.409E+03,   808.409E+03
C:/temp/Job-1.odb,Step-1,Increment      1: Step Time =    1.000,"P-1-1",         16039,   98.9713E-03,   83.6791E-03,            0.,NA,NA,"",   1.71932E+06,   1.87482E+06,   1.87482E+06
C:/temp/Job-1.odb,Step-1,Increment      1: Step Time =    1.000,"P-1-1",         16040,   114.132E-03,   89.8858E-03,            0.,NA,NA,"",   1.12148E+06,   956.653E+03,   956.653E+03
C:/temp/Job-1.odb,Step-1,Increment      1: Step Time =    1.000,"P-1-1",         16041,   107.039E-03,   82.3009E-03,            0.,NA,NA,"",   1.44577E+06,   1.52238E+06,   1.52238E+06
C:/temp/Job-1.odb,Step-1,Increment      1: Step Time =    1.000,"P-1-1",         16042,   97.8065E-03,   82.4327E-03,            0.,NA,NA,"",   1.54001E+06,   1.68936E+06,   1.68936E+06
C:/temp/Job-1.odb,Step-1,Increment      1: Step Time =    1.000,"P-1-1",         16043,   100.808E-03,   81.6535E-03,            0.,NA,NA,"",   1.45878E+06,   1.61172E+06,   1.61172E+06
C:/temp/Job-1.odb,Step-1,Increment      1: Step Time =    1.000,"P-1-1",         16044,   100.126E-03,   73.5541E-03,            0.,NA,NA,"",   1.12359E+06,   1.23211E+06,   1.23211E+06
C:/temp/Job-1.odb,Step-1,Increment      1: Step Time =    1.000,"P-1-1",         16045,   116.651E-03,   128.054E-03,            0.,NA,NA,"",   1.23055E+06,   1.21088E+06,   1.21088E+06
C:/temp/Job-1.odb,Step-1,Increment      1: Step Time =    1.000,"P-1-1",         16046,   113.322E-03,   81.7684E-03,            0.,NA,NA,"",   1.37331E+06,   1.32342E+06,   1.32342E+06
C:/temp/Job-1.odb,Step-1,Increment      1: Step Time =    1.000,"P-1-1",         16047,   96.6135E-03,   77.9460E-03,            0.,NA,NA,"",   1.24992E+06,   1.37015E+06,   1.37015E+06
C:/temp/Job-1.odb,Step-1,Increment      1: Step Time =    1.000,"P-1-1",         16048,   103.705E-03,   74.3392E-03,            0.,NA,NA,"",   1.15494E+06,   1.25658E+06,   1.25658E+06
C:/temp/Job-1.odb,Step-1,Increment      1: Step Time =    1.000,"P-1-1",         16049,   96.5730E-03,   75.0829E-03,            0.,NA,NA,"",   1.16738E+06,   1.27461E+06,   1.27461E+06
C:/temp/Job-1.odb,Step-1,Increment      1: Step Time =    1.000,"P-1-1",         16050,   109.837E-03,   86.1431E-03,            0.,NA,NA,"",   1.44635E+06,   1.43796E+06,   1.43796E+06
C:/temp/Job-1.odb,Step-1,Increment      1: Step Time =    1.000,"P-1-1",         16051,   134.775E-03,   51.4890E-03,            0.,NA,NA,"",   1.09271E+06,   1.07431E+06,   1.07431E+06
C:/temp/Job-1.odb,Step-1,Increment      1: Step Time =    1.000,"P-1-1",         16052,   116.698E-03,   89.5843E-03,            0.,NA,NA,"",   1.12291E+06,   951.066E+03,   951.066E+03
C:/temp/Job-1.odb,Step-1,Increment      1: Step Time =    1.000,"P-1-1",         16053,   92.3463E-03,   133.518E-03,            0.,NA,NA,"",   1.09807E+06,   1.15588E+06,   1.15588E+06
C:/temp/Job-1.odb,Step-1,Increment      1: Step Time =    1.000,"P-1-1",         16054,   93.0693E-03,   79.2190E-03,            0.,NA,NA,"",   1.31542E+06,   1.39693E+06,   1.39693E+06
C:/temp/Job-1.odb,Step-1,Increment      1: Step Time =    1.000,"P-1-1",         16055,   88.6742E-03,   83.7203E-03,            0.,NA,NA,"",   1.40394E+06,   1.37818E+06,   1.37818E+06
C:/temp/Job-1.odb,Step-1,Increment      1: Step Time =    1.000,"P-1-1",         16056,   110.273E-03,   78.0134E-03,            0.,NA,NA,"",   1.31336E+06,   1.33737E+06,   1.33737E+06
C:/temp/Job-1.odb,Step-1,Increment      1: Step Time =    1.000,"P-1-1",         16057,   111.129E-03,   84.7618E-03,            0.,NA,NA,"",   1.42593E+06,   1.38958E+06,   1.38958E+06
C:/temp/Job-1.odb,Step-1,Increment      1: Step Time =    1.000,"P-1-1",         16058,   89.9211E-03,   83.2051E-03,            0.,NA,NA,"",   1.41891E+06,   1.42728E+06,   1.42728E+06
C:/temp/Job-1.odb,Step-1,Increment      1: Step Time =    1.000,"P-1-1",         16059,   106.776E-03,   79.6764E-03,            0.,NA,NA,"",   1.33834E+06,   1.42143E+06,   1.42143E+06
C:/temp/Job-1.odb,Step-1,Increment      1: Step Time =    1.000,"P-1-1",         16060,   101.896E-03,   77.6591E-03,            0.,NA,NA,"",   1.22954E+06,   1.35592E+06,   1.35592E+06
C:/temp/Job-1.odb,Step-1,Increment      1: Step Time =    1.000,"P-1-1",         16061,   100.704E-03,   80.0392E-03,            0.,NA,NA,"",   1.34922E+06,   1.49320E+06,   1.49320E+06
C:/temp/Job-1.odb,Step-1,Increment      1: Step Time =    1.000,"P-1-1",         16062,   96.7105E-03,   80.9047E-03,            0.,NA,NA,"",   1.39934E+06,   1.53385E+06,   1.53385E+06
C:/temp/Job-1.odb,Step-1,Increment      1: Step Time =    1.000,"P-1-1",         16063,   117.991E-03,   90.0784E-03,            0.,NA,NA,"",   1.05643E+06,   889.828E+03,   889.828E+03
C:/temp/Job-1.odb,Step-1,Increment      1: Step Time =    1.000,"P-1-1",         16064,   112.548E-03,   80.2714E-03,            0.,NA,NA,"",   1.35962E+06,   1.33297E+06,   1.33297E+06
C:/temp/Job-1.odb,Step-1,Increment      1: Step Time =    1.000,"P-1-1",         16065,   112.387E-03,   83.4854E-03,            0.,NA,NA,"",   1.40000E+06,   1.34896E+06,   1.34896E+06
C:/temp/Job-1.odb,Step-1,Increment      1: Step Time =    1.000,"P-1-1",         16066,   91.4974E-03,   78.8059E-03,            0.,NA,NA,"",   1.31652E+06,   1.37258E+06,   1.37258E+06
C:/temp/Job-1.odb,Step-1,Increment      1: Step Time =    1.000,"P-1-1",         16067,   103.580E-03,   76.7639E-03,            0.,NA,NA,"",   1.21382E+06,   1.32616E+06,   1.32616E+06
C:/temp/Job-1.odb,Step-1,Increment      1: Step Time =    1.000,"P-1-1",         16068,   99.7327E-03,   78.0186E-03,            0.,NA,NA,"",   1.24239E+06,   1.37506E+06,   1.37506E+06
C:/temp/Job-1.odb,Step-1,Increment      1: Step Time =    1.000,"P-1-1",         16069,   111.520E-03,   79.6988E-03,            0.,NA,NA,"",   1.34750E+06,   1.34172E+06,   1.34172E+06
C:/temp/Job-1.odb,Step-1,Increment      1: Step Time =    1.000,"P-1-1",         16070,   112.458E-03,   86.0078E-03,            0.,NA,NA,"",   1.39267E+06,   1.31084E+06,   1.31084E+06
C:/temp/Job-1.odb,Step-1,Increment      1: Step Time =    1.000,"P-1-1",         16071,   97.9634E-03,   76.5579E-03,            0.,NA,NA,"",   1.19477E+06,   1.31604E+06,   1.31604E+06
C:/temp/Job-1.odb,Step-1,Increment      1: Step Time =    1.000,"P-1-1",         16072,   100.400E-03,   75.9835E-03,            0.,NA,NA,"",   1.17319E+06,   1.29425E+06,   1.29425E+06
C:/temp/Job-1.odb,Step-1,Increment      1: Step Time =    1.000,"P-1-1",         16073,   113.668E-03,   84.4706E-03,            0.,NA,NA,"",   1.38614E+06,   1.29921E+06,   1.29921E+06
C:/temp/Job-1.odb,Step-1,Increment      1: Step Time =    1.000,"P-1-1",         16074,   113.845E-03,   87.1903E-03,            0.,NA,NA,"",   1.32770E+06,   1.20266E+06,   1.20266E+06
C:/temp/Job-1.odb,Step-1,Increment      1: Step Time =    1.000,"P-1-1",         16075,   116.631E-03,   86.7135E-03,            0.,NA,NA,"",   1.27674E+06,   1.13497E+06,   1.13497E+06
C:/temp/Job-1.odb,Step-1,Increment      1: Step Time =    1.000,"P-1-1",         16076,   119.276E-03,   89.1614E-03,            0.,NA,NA,"",   1.09331E+06,   943.016E+03,   943.016E+03
C:/temp/Job-1.odb,Step-1,Increment      1: Step Time =    1.000,"P-1-1",         16077,   91.5845E-03,   86.1251E-03,            0.,NA,NA,"",   1.49804E+06,   1.53540E+06,   1.53540E+06
C:/temp/Job-1.odb,Step-1,Increment      1: Step Time =    1.000,"P-1-1",         16078,   117.720E-03,   84.7062E-03,            0.,NA,NA,"",   1.30563E+06,   1.18086E+06,   1.18086E+06
C:/temp/Job-1.odb,Step-1,Increment      1: Step Time =    1.000,"P-1-1",         16079,   1.59383E-03,   1.59063E-03,            0.,NA,NA,"",   1.73517E+06,   1.79705E+06,   1.79705E+06
C:/temp/Job-1.odb,Step-1,Increment      1: Step Time =    1.000,"P-1-1",         16080,   109.989E-03,   89.1373E-03,            0.,NA,NA,"",   1.22332E+06,   1.20484E+06,   1.20484E+06
C:/temp/Job-1.odb,Step-1,Increment      1: Step Time =    1.000,"P-1-1",         16081,   104.927E-03,   86.5185E-03,            0.,NA,NA,"",   2.02837E+06,   2.10147E+06,   2.10147E+06
C:/temp/Job-1.odb,Step-1,Increment      1: Step Time =    1.000,"P-1-1",         16082,   101.629E-03,   86.2410E-03,            0.,NA,NA,"",   2.40740E+06,   2.49501E+06,   2.49501E+06
C:/temp/Job-1.odb,Step-1,Increment      1: Step Time =    1.000,"P-1-1",         16083,   99.9663E-03,   85.8954E-03,            0.,NA,NA,"",   2.36394E+06,   2.46935E+06,   2.46935E+06
C:/temp/Job-1.odb,Step-1,Increment      1: Step Time =    1.000,"P-1-1",         16084,   96.5604E-03,   86.3839E-03,            0.,NA,NA,"",   2.20475E+06,   2.29382E+06,   2.29382E+06
C:/temp/Job-1.odb,Step-1,Increment      1: Step Time =    1.000,"P-1-1",         16085,   94.9958E-03,   86.9437E-03,            0.,NA,NA,"",   2.05445E+06,   2.12093E+06,   2.12093E+06
C:/temp/Job-1.odb,Step-1,Increment      1: Step Time =    1.000,"P-1-1",         16086,   89.0077E-03,   90.6269E-03,            0.,NA,NA,"",   933.258E+03,   884.726E+03,   884.726E+03
C:/temp/Job-1.odb,Step-1,Increment      1: Step Time =    1.000,"P-1-1",         16087,   99.2343E-03,   3.24069E-03,            0.,NA,NA,"",   931.489E+03,   931.746E+03,   931.746E+03
C:/temp/Job-1.odb,Step-1,Increment      1: Step Time =    1.000,"P-1-1",         16088,   197.028E-03,   147.114E-03,            0.,NA,NA,"",   992.044E+03,   1.00028E+06,   1.00028E+06
C:/temp/Job-1.odb,Step-1,Increment      1: Step Time =    1.000,"P-1-1",         16089,   52.8263E-03,   197.199E-03,            0.,NA,NA,"",   974.035E+03,   974.051E+03,   974.051E+03
C:/temp/Job-1.odb,Step-1,Increment      1: Step Time =    1.000,"P-1-1",         16090,   197.171E-03,   117.471E-03,            0.,NA,NA,"",   969.316E+03,   999.698E+03,   999.698E+03
C:/temp/Job-1.odb,Step-1,Increment      1: Step Time =    1.000,"P-1-1",         16091,   197.206E-03,   87.9774E-03,            0.,NA,NA,"",   966.174E+03,   999.616E+03,   999.616E+03
C:/temp/Job-1.odb,Step-1,Increment      1: Step Time =    1.000,"P-1-1",         16092,   82.4532E-03,   197.140E-03,            0.,NA,NA,"",   936.212E+03,   936.356E+03,   936.356E+03
C:/temp/Job-1.odb,Step-1,Increment      1: Step Time =    1.000,"P-1-1",         16093,   112.016E-03,   197.163E-03,            0.,NA,NA,"",   938.292E+03,   938.445E+03,   938.445E+03
C:/temp/Job-1.odb,Step-1,Increment      1: Step Time =    1.000,"P-1-1",         16094,   197.276E-03,   61.8761E-03,            0.,NA,NA,"",   985.647E+03,   1.00014E+06,   1.00014E+06
C:/temp/Job-1.odb,Step-1,Increment      1: Step Time =    1.000,"P-1-1",         16095,   138.150E-03,   197.296E-03,            0.,NA,NA,"",   974.133E+03,   974.069E+03,   974.069E+03
C:/temp/Job-1.odb,Step-1,Increment      1: Step Time =    1.000,"P-1-1",         16096,   197.134E-03,   32.2473E-03,            0.,NA,NA,"",   999.651E+03,   1.00018E+06,   1.00018E+06
C:/temp/Job-1.odb,Step-1,Increment      1: Step Time =    1.000,"P-1-1",         16097,   167.825E-03,   197.099E-03,            0.,NA,NA,"",   997.046E+03,   996.987E+03,   996.987E+03
C:/temp/Job-1.odb,Step-1,Increment      1: Step Time =    1.000,"P-1-1",         16098,   116.654E-03,   101.480E-03,            0.,NA,NA,"",   326.171E+03,  -150.280E+03,  -150.280E+03
C:/temp/Job-1.odb,Step-1,Increment      1: Step Time =    1.000,"P-1-1",         16099,   86.3345E-03,   107.172E-03,            0.,NA,NA,"",   748.861E+03,   563.606E+03,   563.606E+03
C:/temp/Job-1.odb,Step-1,Increment      1: Step Time =    1.000,"P-1-1",         16100,   113.569E-03,   91.7953E-03,            0.,NA,NA,"",   918.458E+03,   742.495E+03,   742.495E+03
C:/temp/Job-1.odb,Step-1,Increment      1: Step Time =    1.000,"P-1-1",         16101,   113.159E-03,   90.7197E-03,            0.,NA,NA,"",   1.01250E+06,   856.323E+03,   856.323E+03
C:/temp/Job-1.odb,Step-1,Increment      1: Step Time =    1.000,"P-1-1",         16102,   166.704E-03,   195.571E-03,            0.,NA,NA,"",   997.116E+03,   996.982E+03,   996.982E+03
C:/temp/Job-1.odb,Step-1,Increment      1: Step Time =    1.000,"P-1-1",         16103,   195.645E-03,   33.4073E-03,            0.,NA,NA,"",   999.465E+03,   1.00039E+06,   1.00039E+06
C:/temp/Job-1.odb,Step-1,Increment      1: Step Time =    1.000,"P-1-1",         16104,   193.403E-03,   36.8707E-03,            0.,NA,NA,"",   999.268E+03,   1.00095E+06,   1.00095E+06
C:/temp/Job-1.odb,Step-1,Increment      1: Step Time =    1.000,"P-1-1",         16105,   195.521E-03,   40.2046E-03,            0.,NA,NA,"",   998.007E+03,   1.00051E+06,   1.00051E+06
C:/temp/Job-1.odb,Step-1,Increment      1: Step Time =    1.000,"P-1-1",         16106,   163.209E-03,   193.364E-03,            0.,NA,NA,"",   997.088E+03,   996.746E+03,   996.746E+03
C:/temp/Job-1.odb,Step-1,Increment      1: Step Time =    1.000,"P-1-1",         16107,   159.818E-03,   195.504E-03,            0.,NA,NA,"",   994.756E+03,   994.560E+03,   994.560E+03
C:/temp/Job-1.odb,Step-1,Increment      1: Step Time =    1.000,"P-1-1",         16108,   3.16206E-03,   100.712E-03,            0.,NA,NA,"",   779.317E+03,   879.061E+03,   879.061E+03
C:/temp/Job-1.odb,Step-1,Increment      1: Step Time =    1.000,"P-1-1",         16109,   84.5340E-03,   94.1465E-03,            0.,NA,NA,"",   671.460E+03,   320.700E+03,   320.700E+03
C:/temp/Job-1.odb,Step-1,Increment      1: Step Time =    1.000,"P-1-1",         16110,   87.5960E-03,   88.9781E-03,            0.,NA,NA,"",   1.18395E+06,   1.08550E+06,   1.08550E+06
C:/temp/Job-1.odb,Step-1,Increment      1: Step Time =    1.000,"P-1-1",         16111,   93.5722E-03,   85.6468E-03,            0.,NA,NA,"",   1.65728E+06,   1.73715E+06,   1.73715E+06
C:/temp/Job-1.odb,Step-1,Increment      1: Step Time =    1.000,"P-1-1",         16112,   92.3482E-03,   85.1588E-03,            0.,NA,NA,"",   1.54106E+06,   1.60152E+06,   1.60152E+06
C:/temp/Job-1.odb,Step-1,Increment      1: Step Time =    1.000,"P-1-1",         16113,   94.8661E-03,   85.5258E-03,            0.,NA,NA,"",   1.78894E+06,   1.88965E+06,   1.88965E+06
C:/temp/Job-1.odb,Step-1,Increment      1: Step Time =    1.000,"P-1-1",         16114,   96.0053E-03,   85.3251E-03,            0.,NA,NA,"",   1.87984E+06,   1.99873E+06,   1.99873E+06
C:/temp/Job-1.odb,Step-1,Increment      1: Step Time =    1.000,"P-1-1",         16115,   195.692E-03,   45.4539E-03,            0.,NA,NA,"",   996.135E+03,   1.00051E+06,   1.00051E+06
C:/temp/Job-1.odb,Step-1,Increment      1: Step Time =    1.000,"P-1-1",         16116,   195.957E-03,   63.2835E-03,            0.,NA,NA,"",   985.268E+03,   1.00027E+06,   1.00027E+06
C:/temp/Job-1.odb,Step-1,Increment      1: Step Time =    1.000,"P-1-1",         16117,   195.667E-03,   74.7847E-03,            0.,NA,NA,"",   976.556E+03,   999.907E+03,   999.907E+03
C:/temp/Job-1.odb,Step-1,Increment      1: Step Time =    1.000,"P-1-1",         16118,   195.718E-03,   89.0440E-03,            0.,NA,NA,"",   967.230E+03,   999.259E+03,   999.259E+03
C:/temp/Job-1.odb,Step-1,Increment      1: Step Time =    1.000,"P-1-1",         16119,   194.990E-03,   95.7593E-03,            0.,NA,NA,"",   965.773E+03,   998.719E+03,   998.719E+03
C:/temp/Job-1.odb,Step-1,Increment      1: Step Time =    1.000,"P-1-1",         16120,   195.781E-03,   118.625E-03,            0.,NA,NA,"",   971.569E+03,   999.565E+03,   999.565E+03
C:/temp/Job-1.odb,Step-1,Increment      1: Step Time =    1.000,"P-1-1",         16121,   193.419E-03,   121.843E-03,            0.,NA,NA,"",   975.694E+03,   999.353E+03,   999.353E+03
C:/temp/Job-1.odb,Step-1,Increment      1: Step Time =    1.000,"P-1-1",         16122,   195.552E-03,   125.384E-03,            0.,NA,NA,"",   976.646E+03,   999.919E+03,   999.919E+03
C:/temp/Job-1.odb,Step-1,Increment      1: Step Time =    1.000,"P-1-1",         16123,   195.813E-03,   130.671E-03,            0.,NA,NA,"",   980.581E+03,   1.00011E+06,   1.00011E+06
C:/temp/Job-1.odb,Step-1,Increment      1: Step Time =    1.000,"P-1-1",         16124,   195.504E-03,   148.570E-03,            0.,NA,NA,"",   993.376E+03,   1.00060E+06,   1.00060E+06
C:/temp/Job-1.odb,Step-1,Increment      1: Step Time =    1.000,"P-1-1",         16125,   195.739E-03,   156.440E-03,            0.,NA,NA,"",   996.819E+03,   1.00049E+06,   1.00049E+06
C:/temp/Job-1.odb,Step-1,Increment      1: Step Time =    1.000,"P-1-1",         16126,   154.550E-03,   195.700E-03,            0.,NA,NA,"",   991.750E+03,   991.552E+03,   991.552E+03
C:/temp/Job-1.odb,Step-1,Increment      1: Step Time =    1.000,"P-1-1",         16127,   136.770E-03,   195.971E-03,            0.,NA,NA,"",   974.389E+03,   974.262E+03,   974.262E+03
C:/temp/Job-1.odb,Step-1,Increment      1: Step Time =    1.000,"P-1-1",         16128,   125.252E-03,   195.667E-03,            0.,NA,NA,"",   959.792E+03,   959.787E+03,   959.787E+03
C:/temp/Job-1.odb,Step-1,Increment      1: Step Time =    1.000,"P-1-1",         16129,   110.911E-03,   195.776E-03,            0.,NA,NA,"",   942.062E+03,   942.354E+03,   942.354E+03
C:/temp/Job-1.odb,Step-1,Increment      1: Step Time =    1.000,"P-1-1",         16130,   104.289E-03,   194.908E-03,            0.,NA,NA,"",   940.489E+03,   940.976E+03,   940.976E+03
C:/temp/Job-1.odb,Step-1,Increment      1: Step Time =    1.000,"P-1-1",         16131,   81.2380E-03,   195.776E-03,            0.,NA,NA,"",   943.047E+03,   943.225E+03,   943.225E+03
C:/temp/Job-1.odb,Step-1,Increment      1: Step Time =    1.000,"P-1-1",         16132,   77.9321E-03,   193.540E-03,            0.,NA,NA,"",   954.804E+03,   955.160E+03,   955.160E+03
C:/temp/Job-1.odb,Step-1,Increment      1: Step Time =    1.000,"P-1-1",         16133,   74.5438E-03,   195.621E-03,            0.,NA,NA,"",   950.546E+03,   950.627E+03,   950.627E+03
C:/temp/Job-1.odb,Step-1,Increment      1: Step Time =    1.000,"P-1-1",         16134,   69.2775E-03,   195.807E-03,            0.,NA,NA,"",   956.240E+03,   956.277E+03,   956.277E+03
C:/temp/Job-1.odb,Step-1,Increment      1: Step Time =    1.000,"P-1-1",         16135,   51.3378E-03,   195.835E-03,            0.,NA,NA,"",   982.209E+03,   982.277E+03,   982.277E+03
C:/temp/Job-1.odb,Step-1,Increment      1: Step Time =    1.000,"P-1-1",         16136,   43.7194E-03,   195.677E-03,            0.,NA,NA,"",   996.696E+03,   996.918E+03,   996.918E+03
C:/temp/Job-1.odb,Step-1,Increment      1: Step Time =    1.000,"P-1-1",         16137,   117.691E-03,   99.7782E-03,            0.,NA,NA,"",   254.823E+03,  -3.21565E+03,  -3.21565E+03
C:/temp/Job-1.odb,Step-1,Increment      1: Step Time =    1.000,"P-1-1",         16138,   104.610E-03,   84.9128E-03,            0.,NA,NA,"",   1.75660E+06,   1.86874E+06,   1.86874E+06
C:/temp/Job-1.odb,Step-1,Increment      1: Step Time =    1.000,"P-1-1",         16139,   103.200E-03,   85.1875E-03,            0.,NA,NA,"",   1.92867E+06,   2.04911E+06,   2.04911E+06
C:/temp/Job-1.odb,Step-1,Increment      1: Step Time =    1.000,"P-1-1",         16140,   101.789E-03,   84.9968E-03,            0.,NA,NA,"",   1.98785E+06,   2.12182E+06,   2.12182E+06
C:/temp/Job-1.odb,Step-1,Increment      1: Step Time =    1.000,"P-1-1",         16141,   100.307E-03,   84.4671E-03,            0.,NA,NA,"",   1.89467E+06,   2.04520E+06,   2.04520E+06
C:/temp/Job-1.odb,Step-1,Increment      1: Step Time =    1.000,"P-1-1",         16142,   93.6327E-03,   117.251E-03,            0.,NA,NA,"",   1.46590E+06,   1.55746E+06,   1.55746E+06
C:/temp/Job-1.odb,Step-1,Increment      1: Step Time =    1.000,"P-1-1",         16143,   91.0760E-03,   117.678E-03,            0.,NA,NA,"",   1.42152E+06,   1.46099E+06,   1.46099E+06
C:/temp/Job-1.odb,Step-1,Increment      1: Step Time =    1.000,"P-1-1",         16144,   98.1561E-03,   117.267E-03,            0.,NA,NA,"",   1.57110E+06,   1.72174E+06,   1.72174E+06
C:/temp/Job-1.odb,Step-1,Increment      1: Step Time =    1.000,"P-1-1",         16145,   93.9459E-03,   118.456E-03,            0.,NA,NA,"",   1.41653E+06,   1.51283E+06,   1.51283E+06
C:/temp/Job-1.odb,Step-1,Increment      1: Step Time =    1.000,"P-1-1",         16146,   127.322E-03,   194.759E-03,            0.,NA,NA,"",   964.344E+03,   964.285E+03,   964.285E+03
C:/temp/Job-1.odb,Step-1,Increment      1: Step Time =    1.000,"P-1-1",         16147,   194.736E-03,   72.7269E-03,            0.,NA,NA,"",   978.734E+03,   999.998E+03,   999.998E+03
C:/temp/Job-1.odb,Step-1,Increment      1: Step Time =    1.000,"P-1-1",         16148,   94.8888E-03,   84.1283E-03,            0.,NA,NA,"",   1.59698E+06,   1.70891E+06,   1.70891E+06
C:/temp/Job-1.odb,Step-1,Increment      1: Step Time =    1.000,"P-1-1",         16149,   194.150E-03,   45.2104E-03,            0.,NA,NA,"",   996.713E+03,   1.00094E+06,   1.00094E+06
C:/temp/Job-1.odb,Step-1,Increment      1: Step Time =    1.000,"P-1-1",         16150,   194.097E-03,   74.3791E-03,            0.,NA,NA,"",   978.004E+03,   999.788E+03,   999.788E+03
C:/temp/Job-1.odb,Step-1,Increment      1: Step Time =    1.000,"P-1-1",         16151,   194.277E-03,   130.419E-03,            0.,NA,NA,"",   981.564E+03,   1.00016E+06,   1.00016E+06
C:/temp/Job-1.odb,Step-1,Increment      1: Step Time =    1.000,"P-1-1",         16152,   154.792E-03,   194.158E-03,            0.,NA,NA,"",   993.036E+03,   992.676E+03,   992.676E+03
C:/temp/Job-1.odb,Step-1,Increment      1: Step Time =    1.000,"P-1-1",         16153,   125.682E-03,   194.109E-03,            0.,NA,NA,"",   964.030E+03,   964.053E+03,   964.053E+03
C:/temp/Job-1.odb,Step-1,Increment      1: Step Time =    1.000,"P-1-1",         16154,   69.4998E-03,   194.273E-03,            0.,NA,NA,"",   962.000E+03,   962.097E+03,   962.097E+03
C:/temp/Job-1.odb,Step-1,Increment      1: Step Time =    1.000,"P-1-1",         16155,   93.7460E-03,   84.5391E-03,            0.,NA,NA,"",   1.59333E+06,   1.68325E+06,   1.68325E+06
C:/temp/Job-1.odb,Step-1,Increment      1: Step Time =    1.000,"P-1-1",         16156,   92.8131E-03,   84.3256E-03,            0.,NA,NA,"",   1.54461E+06,   1.61909E+06,   1.61909E+06
C:/temp/Job-1.odb,Step-1,Increment      1: Step Time =    1.000,"P-1-1",         16157,   193.988E-03,   183.022E-03,            0.,NA,NA,"",   1.00031E+06,   1.00016E+06,   1.00016E+06
C:/temp/Job-1.odb,Step-1,Increment      1: Step Time =    1.000,"P-1-1",         16158,   17.2695E-03,   193.843E-03,            0.,NA,NA,"",   1.13428E+06,   1.14225E+06,   1.14225E+06
C:/temp/Job-1.odb,Step-1,Increment      1: Step Time =    1.000,"P-1-1",         16159,   100.071E-03,   191.700E-03,            0.,NA,NA,"",   950.813E+03,   952.107E+03,   952.107E+03
C:/temp/Job-1.odb,Step-1,Increment      1: Step Time =    1.000,"P-1-1",         16160,   191.863E-03,   99.9310E-03,            0.,NA,NA,"",   967.447E+03,   996.726E+03,   996.726E+03
C:/temp/Job-1.odb,Step-1,Increment      1: Step Time =    1.000,"P-1-1",         16161,   194.118E-03,   173.202E-03,            0.,NA,NA,"",   1.00026E+06,   1.00047E+06,   1.00047E+06
C:/temp/Job-1.odb,Step-1,Increment      1: Step Time =    1.000,"P-1-1",         16162,   26.9251E-03,   194.162E-03,            0.,NA,NA,"",   1.06086E+06,   1.06348E+06,   1.06348E+06
C:/temp/Job-1.odb,Step-1,Increment      1: Step Time =    1.000,"P-1-1",         16163,   90.5347E-03,   84.8209E-03,            0.,NA,NA,"",   1.44587E+06,   1.45992E+06,   1.45992E+06
C:/temp/Job-1.odb,Step-1,Increment      1: Step Time =    1.000,"P-1-1",         16164,   91.4514E-03,   84.2883E-03,            0.,NA,NA,"",   1.47387E+06,   1.51551E+06,   1.51551E+06
C:/temp/Job-1.odb,Step-1,Increment      1: Step Time =    1.000,"P-1-1",         16165,   92.1204E-03,   83.7621E-03,            0.,NA,NA,"",   1.49101E+06,   1.55253E+06,   1.55253E+06
C:/temp/Job-1.odb,Step-1,Increment      1: Step Time =    1.000,"P-1-1",         16166,   41.3957E-03,   193.450E-03,            0.,NA,NA,"",   1.01198E+06,   1.01282E+06,   1.01282E+06
C:/temp/Job-1.odb,Step-1,Increment      1: Step Time =    1.000,"P-1-1",         16167,   193.554E-03,   158.666E-03,            0.,NA,NA,"",   998.178E+03,   1.00105E+06,   1.00105E+06
C:/temp/Job-1.odb,Step-1,Increment      1: Step Time =    1.000,"P-1-1",         16168,   83.0504E-03,   93.7443E-03,            0.,NA,NA,"",   744.023E+03,   580.387E+03,   580.387E+03
C:/temp/Job-1.odb,Step-1,Increment      1: Step Time =    1.000,"P-1-1",         16169,   104.103E-03,   83.8350E-03,            0.,NA,NA,"",   1.62987E+06,   1.75560E+06,   1.75560E+06
C:/temp/Job-1.odb,Step-1,Increment      1: Step Time =    1.000,"P-1-1",         16170,   104.910E-03,   83.0007E-03,            0.,NA,NA,"",   1.52708E+06,   1.64168E+06,   1.64168E+06
C:/temp/Job-1.odb,Step-1,Increment      1: Step Time =    1.000,"P-1-1",         16171,   105.389E-03,   81.6302E-03,            0.,NA,NA,"",   1.43492E+06,   1.54290E+06,   1.54290E+06
C:/temp/Job-1.odb,Step-1,Increment      1: Step Time =    1.000,"P-1-1",         16172,   108.520E-03,   114.799E-03,            0.,NA,NA,"",   1.52684E+06,   1.55716E+06,   1.55716E+06
C:/temp/Job-1.odb,Step-1,Increment      1: Step Time =    1.000,"P-1-1",         16173,   77.9496E-03,   102.998E-03,            0.,NA,NA,"",   458.307E+03,   448.632E+03,   448.632E+03
C:/temp/Job-1.odb,Step-1,Increment      1: Step Time =    1.000,"P-1-1",         16174,   35.7742E-03,   192.397E-03,            0.,NA,NA,"",   1.03189E+06,   1.03384E+06,   1.03384E+06
C:/temp/Job-1.odb,Step-1,Increment      1: Step Time =    1.000,"P-1-1",         16175,   192.383E-03,   164.330E-03,            0.,NA,NA,"",   999.768E+03,   1.00122E+06,   1.00122E+06
C:/temp/Job-1.odb,Step-1,Increment      1: Step Time =    1.000,"P-1-1",         16176,   120.575E-03,   99.7872E-03,            0.,NA,NA,"",   319.299E+03,   300.321E+03,   300.321E+03
C:/temp/Job-1.odb,Step-1,Increment      1: Step Time =    1.000,"P-1-1",         16177,   167.048E-03,   194.325E-03,            0.,NA,NA,"",   997.639E+03,   997.428E+03,   997.428E+03
C:/temp/Job-1.odb,Step-1,Increment      1: Step Time =    1.000,"P-1-1",         16178,   168.230E-03,   194.329E-03,            0.,NA,NA,"",   997.899E+03,   997.706E+03,   997.706E+03
C:/temp/Job-1.odb,Step-1,Increment      1: Step Time =    1.000,"P-1-1",         16179,   111.219E-03,   194.736E-03,            0.,NA,NA,"",   946.015E+03,   946.422E+03,   946.422E+03
C:/temp/Job-1.odb,Step-1,Increment      1: Step Time =    1.000,"P-1-1",         16180,   112.128E-03,   194.716E-03,            0.,NA,NA,"",   946.861E+03,   947.263E+03,   947.263E+03
C:/temp/Job-1.odb,Step-1,Increment      1: Step Time =    1.000,"P-1-1",         16181,   81.5124E-03,   194.690E-03,            0.,NA,NA,"",   947.188E+03,   947.476E+03,   947.476E+03
C:/temp/Job-1.odb,Step-1,Increment      1: Step Time =    1.000,"P-1-1",         16182,   82.4686E-03,   194.693E-03,            0.,NA,NA,"",   946.361E+03,   946.665E+03,   946.665E+03
C:/temp/Job-1.odb,Step-1,Increment      1: Step Time =    1.000,"P-1-1",         16183,   194.439E-03,   33.1115E-03,            0.,NA,NA,"",   999.622E+03,   1.00060E+06,   1.00060E+06
C:/temp/Job-1.odb,Step-1,Increment      1: Step Time =    1.000,"P-1-1",         16184,   194.423E-03,   31.9566E-03,            0.,NA,NA,"",   999.781E+03,   1.00057E+06,   1.00057E+06
C:/temp/Job-1.odb,Step-1,Increment      1: Step Time =    1.000,"P-1-1",         16185,   194.534E-03,   88.5507E-03,            0.,NA,NA,"",   968.517E+03,   998.812E+03,   998.812E+03
C:/temp/Job-1.odb,Step-1,Increment      1: Step Time =    1.000,"P-1-1",         16186,   194.926E-03,   87.7003E-03,            0.,NA,NA,"",   968.570E+03,   998.987E+03,   998.987E+03
C:/temp/Job-1.odb,Step-1,Increment      1: Step Time =    1.000,"P-1-1",         16187,   194.738E-03,   118.310E-03,            0.,NA,NA,"",   972.264E+03,   999.336E+03,   999.336E+03
C:/temp/Job-1.odb,Step-1,Increment      1: Step Time =    1.000,"P-1-1",         16188,   194.736E-03,   117.366E-03,            0.,NA,NA,"",   971.633E+03,   999.254E+03,   999.254E+03
C:/temp/Job-1.odb,Step-1,Increment      1: Step Time =    1.000,"P-1-1",         16189,   91.3766E-03,   120.569E-03,            0.,NA,NA,"",   1.33332E+06,   1.38597E+06,   1.38597E+06
C:/temp/Job-1.odb,Step-1,Increment      1: Step Time =    1.000,"P-1-1",         16190,   90.1387E-03,   120.572E-03,            0.,NA,NA,"",   1.33903E+06,   1.37135E+06,   1.37135E+06
C:/temp/Job-1.odb,Step-1,Increment      1: Step Time =    1.000,"P-1-1",         16191,   96.6908E-03,   193.601E-03,            0.,NA,NA,"",   943.918E+03,   944.651E+03,   944.651E+03
C:/temp/Job-1.odb,Step-1,Increment      1: Step Time =    1.000,"P-1-1",         16192,   193.689E-03,   103.335E-03,            0.,NA,NA,"",   966.800E+03,   998.112E+03,   998.112E+03
C:/temp/Job-1.odb,Step-1,Increment      1: Step Time =    1.000,"P-1-1",         16193,   109.882E-03,   83.1227E-03,            0.,NA,NA,"",   1.42329E+06,   1.43048E+06,   1.43048E+06
C:/temp/Job-1.odb,Step-1,Increment      1: Step Time =    1.000,"P-1-1",         16194,   182.654E-03,   6.03202E-03,            0.,NA,NA,"",   999.519E+03,   999.477E+03,   999.477E+03
C:/temp/Job-1.odb,Step-1,Increment      1: Step Time =    1.000,"P-1-1",         16195,   103.118E-03,   84.1899E-03,            0.,NA,NA,"",   1.71995E+06,   1.85733E+06,   1.85733E+06
C:/temp/Job-1.odb,Step-1,Increment      1: Step Time =    1.000,"P-1-1",         16196,   194.792E-03,   155.517E-03,            0.,NA,NA,"",   996.677E+03,   1.00071E+06,   1.00071E+06
C:/temp/Job-1.odb,Step-1,Increment      1: Step Time =    1.000,"P-1-1",         16197,   44.8765E-03,   194.545E-03,            0.,NA,NA,"",   999.381E+03,   999.774E+03,   999.774E+03
C:/temp/Job-1.odb,Step-1,Increment      1: Step Time =    1.000,"P-1-1",         16198,   45.9688E-03,   194.641E-03,            0.,NA,NA,"",   997.132E+03,   997.572E+03,   997.572E+03
C:/temp/Job-1.odb,Step-1,Increment      1: Step Time =    1.000,"P-1-1",         16199,   108.616E-03,   81.5053E-03,            0.,NA,NA,"",   1.39632E+06,   1.43784E+06,   1.43784E+06
C:/temp/Job-1.odb,Step-1,Increment      1: Step Time =    1.000,"P-1-1",         16200,   102.067E-03,   83.9516E-03,            0.,NA,NA,"",   1.70712E+06,   1.85843E+06,   1.85843E+06
C:/temp/Job-1.odb,Step-1,Increment      1: Step Time =    1.000,"P-1-1",         16201,   100.802E-03,   83.3425E-03,            0.,NA,NA,"",   1.64943E+06,   1.80805E+06,   1.80805E+06
C:/temp/Job-1.odb,Step-1,Increment      1: Step Time =    1.000,"P-1-1",         16202,   55.8158E-03,   194.091E-03,            0.,NA,NA,"",   982.169E+03,   982.239E+03,   982.239E+03
C:/temp/Job-1.odb,Step-1,Increment      1: Step Time =    1.000,"P-1-1",         16203,   193.187E-03,   97.4841E-03,            0.,NA,NA,"",   967.025E+03,   997.771E+03,   997.771E+03
C:/temp/Job-1.odb,Step-1,Increment      1: Step Time =    1.000,"P-1-1",         16204,   193.984E-03,   143.903E-03,            0.,NA,NA,"",   991.431E+03,   1.00091E+06,   1.00091E+06
C:/temp/Job-1.odb,Step-1,Increment      1: Step Time =    1.000,"P-1-1",         16205,   102.576E-03,   193.023E-03,            0.,NA,NA,"",   946.930E+03,   947.769E+03,   947.769E+03
C:/temp/Job-1.odb,Step-1,Increment      1: Step Time =    1.000,"P-1-1",         16206,   15.8169E-03,   192.404E-03,            0.,NA,NA,"",   1.15040E+06,   1.16415E+06,   1.16415E+06
C:/temp/Job-1.odb,Step-1,Increment      1: Step Time =    1.000,"P-1-1",         16207,   25.3868E-03,   192.461E-03,            0.,NA,NA,"",   1.07520E+06,   1.08023E+06,   1.08023E+06
C:/temp/Job-1.odb,Step-1,Increment      1: Step Time =    1.000,"P-1-1",         16208,   26.8663E-03,   192.906E-03,            0.,NA,NA,"",   1.06708E+06,   1.07102E+06,   1.07102E+06
C:/temp/Job-1.odb,Step-1,Increment      1: Step Time =    1.000,"P-1-1",         16209,   28.0739E-03,   192.517E-03,            0.,NA,NA,"",   1.06246E+06,   1.06636E+06,   1.06636E+06
C:/temp/Job-1.odb,Step-1,Increment      1: Step Time =    1.000,"P-1-1",         16210,   183.253E-03,   194.220E-03,            0.,NA,NA,"",   999.515E+03,   999.482E+03,   999.482E+03
C:/temp/Job-1.odb,Step-1,Increment      1: Step Time =    1.000,"P-1-1",         16211,   34.4554E-03,   192.497E-03,            0.,NA,NA,"",   1.03624E+06,   1.03830E+06,   1.03830E+06
C:/temp/Job-1.odb,Step-1,Increment      1: Step Time =    1.000,"P-1-1",         16212,   194.494E-03,   16.9082E-03,            0.,NA,NA,"",   1.00029E+06,   1.00013E+06,   1.00013E+06
C:/temp/Job-1.odb,Step-1,Increment      1: Step Time =    1.000,"P-1-1",         16213,   192.483E-03,   191.261E-03,            0.,NA,NA,"",   999.983E+03,   999.917E+03,   999.917E+03
C:/temp/Job-1.odb,Step-1,Increment      1: Step Time =    1.000,"P-1-1",         16214,   192.699E-03,   189.992E-03,            0.,NA,NA,"",   1.00004E+06,   999.961E+03,   999.961E+03
C:/temp/Job-1.odb,Step-1,Increment      1: Step Time =    1.000,"P-1-1",         16215,   192.610E-03,   184.551E-03,            0.,NA,NA,"",   1.00028E+06,   1.00017E+06,   1.00017E+06
C:/temp/Job-1.odb,Step-1,Increment      1: Step Time =    1.000,"P-1-1",         16216,   192.516E-03,   175.243E-03,            0.,NA,NA,"",   1.00050E+06,   1.00065E+06,   1.00065E+06
C:/temp/Job-1.odb,Step-1,Increment      1: Step Time =    1.000,"P-1-1",         16217,   192.844E-03,   173.156E-03,            0.,NA,NA,"",   1.00038E+06,   1.00066E+06,   1.00066E+06
C:/temp/Job-1.odb,Step-1,Increment      1: Step Time =    1.000,"P-1-1",         16218,   192.665E-03,   171.930E-03,            0.,NA,NA,"",   1.00038E+06,   1.00077E+06,   1.00077E+06
C:/temp/Job-1.odb,Step-1,Increment      1: Step Time =    1.000,"P-1-1",         16219,   192.325E-03,   165.647E-03,            0.,NA,NA,"",   999.975E+03,   1.00118E+06,   1.00118E+06
C:/temp/Job-1.odb,Step-1,Increment      1: Step Time =    1.000,"P-1-1",         16220,   191.047E-03,   7.86070E-03,            0.,NA,NA,"",   999.914E+03,   999.867E+03,   999.867E+03
C:/temp/Job-1.odb,Step-1,Increment      1: Step Time =    1.000,"P-1-1",         16221,   189.733E-03,   7.55029E-03,            0.,NA,NA,"",   999.865E+03,   999.828E+03,   999.828E+03
C:/temp/Job-1.odb,Step-1,Increment      1: Step Time =    1.000,"P-1-1",         16222,   184.082E-03,   7.52011E-03,            0.,NA,NA,"",   999.740E+03,   999.689E+03,   999.689E+03
C:/temp/Job-1.odb,Step-1,Increment      1: Step Time =    1.000,"P-1-1",         16223,   103.592E-03,   83.1812E-03,            0.,NA,NA,"",   1.56647E+06,   1.70048E+06,   1.70048E+06
C:/temp/Job-1.odb,Step-1,Increment      1: Step Time =    1.000,"P-1-1",         16224,   104.060E-03,   82.4569E-03,            0.,NA,NA,"",   1.49665E+06,   1.62402E+06,   1.62402E+06
C:/temp/Job-1.odb,Step-1,Increment      1: Step Time =    1.000,"P-1-1",         16225,   102.994E-03,   83.5654E-03,            0.,NA,NA,"",   1.61390E+06,   1.75546E+06,   1.75546E+06
C:/temp/Job-1.odb,Step-1,Increment      1: Step Time =    1.000,"P-1-1",         16226,   104.205E-03,   81.4367E-03,            0.,NA,NA,"",   1.42795E+06,   1.55161E+06,   1.55161E+06
C:/temp/Job-1.odb,Step-1,Increment      1: Step Time =    1.000,"P-1-1",         16227,   192.131E-03,   90.4615E-03,            0.,NA,NA,"",   969.264E+03,   997.315E+03,   997.315E+03
C:/temp/Job-1.odb,Step-1,Increment      1: Step Time =    1.000,"P-1-1",         16228,   109.891E-03,   192.243E-03,            0.,NA,NA,"",   953.243E+03,   954.133E+03,   954.133E+03
C:/temp/Job-1.odb,Step-1,Increment      1: Step Time =    1.000,"P-1-1",         16229,   91.0174E-03,   83.2786E-03,            0.,NA,NA,"",   1.44506E+06,   1.47828E+06,   1.47828E+06
C:/temp/Job-1.odb,Step-1,Increment      1: Step Time =    1.000,"P-1-1",         16230,   91.7348E-03,   83.0757E-03,            0.,NA,NA,"",   1.45605E+06,   1.50810E+06,   1.50810E+06
C:/temp/Job-1.odb,Step-1,Increment      1: Step Time =    1.000,"P-1-1",         16231,   92.5837E-03,   83.2966E-03,            0.,NA,NA,"",   1.48797E+06,   1.56151E+06,   1.56151E+06
C:/temp/Job-1.odb,Step-1,Increment      1: Step Time =    1.000,"P-1-1",         16232,   92.2521E-03,   82.7006E-03,            0.,NA,NA,"",   1.45383E+06,   1.52051E+06,   1.52051E+06
C:/temp/Job-1.odb,Step-1,Increment      1: Step Time =    1.000,"P-1-1",         16233,   93.0947E-03,   83.7155E-03,            0.,NA,NA,"",   1.51814E+06,   1.60165E+06,   1.60165E+06
C:/temp/Job-1.odb,Step-1,Increment      1: Step Time =    1.000,"P-1-1",         16234,   193.412E-03,   70.3539E-03,            0.,NA,NA,"",   981.801E+03,   1.00018E+06,   1.00018E+06
C:/temp/Job-1.odb,Step-1,Increment      1: Step Time =    1.000,"P-1-1",         16235,   194.290E-03,   68.3181E-03,            0.,NA,NA,"",   982.562E+03,   1.00025E+06,   1.00025E+06
C:/temp/Job-1.odb,Step-1,Increment      1: Step Time =    1.000,"P-1-1",         16236,   194.524E-03,   61.8602E-03,            0.,NA,NA,"",   987.225E+03,   1.00054E+06,   1.00054E+06
C:/temp/Job-1.odb,Step-1,Increment      1: Step Time =    1.000,"P-1-1",         16237,   192.201E-03,   35.1381E-03,            0.,NA,NA,"",   999.903E+03,   1.00124E+06,   1.00124E+06
C:/temp/Job-1.odb,Step-1,Increment      1: Step Time =    1.000,"P-1-1",         16238,   193.682E-03,   49.3900E-03,            0.,NA,NA,"",   995.145E+03,   1.00108E+06,   1.00108E+06
C:/temp/Job-1.odb,Step-1,Increment      1: Step Time =    1.000,"P-1-1",         16239,   193.105E-03,   45.7597E-03,            0.,NA,NA,"",   996.952E+03,   1.00128E+06,   1.00128E+06
C:/temp/Job-1.odb,Step-1,Increment      1: Step Time =    1.000,"P-1-1",         16240,   102.724E-03,   120.704E-03,            0.,NA,NA,"",   1.30014E+06,   1.43224E+06,   1.43224E+06
C:/temp/Job-1.odb,Step-1,Increment      1: Step Time =    1.000,"P-1-1",         16241,   37.1027E-03,   192.302E-03,            0.,NA,NA,"",   1.02797E+06,   1.02971E+06,   1.02971E+06
C:/temp/Job-1.odb,Step-1,Increment      1: Step Time =    1.000,"P-1-1",         16242,   38.9865E-03,   192.411E-03,            0.,NA,NA,"",   1.02299E+06,   1.02442E+06,   1.02442E+06
C:/temp/Job-1.odb,Step-1,Increment      1: Step Time =    1.000,"P-1-1",         16243,   41.3381E-03,   192.115E-03,            0.,NA,NA,"",   1.01803E+06,   1.01925E+06,   1.01925E+06
C:/temp/Job-1.odb,Step-1,Increment      1: Step Time =    1.000,"P-1-1",         16244,   68.8945E-03,   193.234E-03,            0.,NA,NA,"",   966.875E+03,   966.975E+03,   966.975E+03
C:/temp/Job-1.odb,Step-1,Increment      1: Step Time =    1.000,"P-1-1",         16245,   79.7626E-03,   192.302E-03,            0.,NA,NA,"",   958.013E+03,   958.613E+03,   958.613E+03
C:/temp/Job-1.odb,Step-1,Increment      1: Step Time =    1.000,"P-1-1",         16246,   129.713E-03,   193.460E-03,            0.,NA,NA,"",   970.800E+03,   970.660E+03,   970.660E+03
C:/temp/Job-1.odb,Step-1,Increment      1: Step Time =    1.000,"P-1-1",         16247,   131.739E-03,   194.327E-03,            0.,NA,NA,"",   971.164E+03,   971.018E+03,   971.018E+03
C:/temp/Job-1.odb,Step-1,Increment      1: Step Time =    1.000,"P-1-1",         16248,   138.215E-03,   194.541E-03,            0.,NA,NA,"",   978.474E+03,   978.222E+03,   978.222E+03
C:/temp/Job-1.odb,Step-1,Increment      1: Step Time =    1.000,"P-1-1",         16249,   164.970E-03,   192.102E-03,            0.,NA,NA,"",   998.235E+03,   997.798E+03,   997.798E+03
C:/temp/Job-1.odb,Step-1,Increment      1: Step Time =    1.000,"P-1-1",         16250,   150.610E-03,   193.739E-03,            0.,NA,NA,"",   990.750E+03,   990.317E+03,   990.317E+03
C:/temp/Job-1.odb,Step-1,Increment      1: Step Time =    1.000,"P-1-1",         16251,   154.239E-03,   193.119E-03,            0.,NA,NA,"",   993.625E+03,   993.128E+03,   993.128E+03
C:/temp/Job-1.odb,Step-1,Increment      1: Step Time =    1.000,"P-1-1",         16252,   192.426E-03,   163.041E-03,            0.,NA,NA,"",   999.488E+03,   1.00124E+06,   1.00124E+06
C:/temp/Job-1.odb,Step-1,Increment      1: Step Time =    1.000,"P-1-1",         16253,   192.416E-03,   161.142E-03,            0.,NA,NA,"",   999.217E+03,   1.00135E+06,   1.00135E+06
C:/temp/Job-1.odb,Step-1,Increment      1: Step Time =    1.000,"P-1-1",         16254,   192.219E-03,   158.670E-03,            0.,NA,NA,"",   998.737E+03,   1.00151E+06,   1.00151E+06
C:/temp/Job-1.odb,Step-1,Increment      1: Step Time =    1.000,"P-1-1",         16255,   193.270E-03,   131.005E-03,            0.,NA,NA,"",   982.855E+03,   1.00030E+06,   1.00030E+06
C:/temp/Job-1.odb,Step-1,Increment      1: Step Time =    1.000,"P-1-1",         16256,   192.102E-03,   119.688E-03,            0.,NA,NA,"",   975.164E+03,   998.745E+03,   998.745E+03
C:/temp/Job-1.odb,Step-1,Increment      1: Step Time =    1.000,"P-1-1",         16257,   125.265E-03,   192.839E-03,            0.,NA,NA,"",   966.773E+03,   966.812E+03,   966.812E+03
C:/temp/Job-1.odb,Step-1,Increment      1: Step Time =    1.000,"P-1-1",         16258,   192.824E-03,   74.8247E-03,            0.,NA,NA,"",   978.725E+03,   999.668E+03,   999.668E+03
C:/temp/Job-1.odb,Step-1,Increment      1: Step Time =    1.000,"P-1-1",         16259,   103.808E-03,   80.2525E-03,            0.,NA,NA,"",   1.35965E+06,   1.48433E+06,   1.48433E+06
C:/temp/Job-1.odb,Step-1,Increment      1: Step Time =    1.000,"P-1-1",         16260,   94.7786E-03,   82.8956E-03,            0.,NA,NA,"",   1.50934E+06,   1.62228E+06,   1.62228E+06
C:/temp/Job-1.odb,Step-1,Increment      1: Step Time =    1.000,"P-1-1",         16261,   75.7520E-03,   103.122E-03,            0.,NA,NA,"",   511.275E+03,   522.386E+03,   522.386E+03
C:/temp/Job-1.odb,Step-1,Increment      1: Step Time =    1.000,"P-1-1",         16262,   83.1661E-03,   107.716E-03,            0.,NA,NA,"",   882.870E+03,   717.436E+03,   717.436E+03
C:/temp/Job-1.odb,Step-1,Increment      1: Step Time =    1.000,"P-1-1",         16263,   121.180E-03,   192.471E-03,            0.,NA,NA,"",   963.212E+03,   963.414E+03,   963.414E+03
C:/temp/Job-1.odb,Step-1,Increment      1: Step Time =    1.000,"P-1-1",         16264,   65.0836E-03,   193.047E-03,            0.,NA,NA,"",   972.287E+03,   972.338E+03,   972.338E+03
C:/temp/Job-1.odb,Step-1,Increment      1: Step Time =    1.000,"P-1-1",         16265,   192.603E-03,   78.9116E-03,            0.,NA,NA,"",   975.972E+03,   999.182E+03,   999.182E+03
C:/temp/Job-1.odb,Step-1,Increment      1: Step Time =    1.000,"P-1-1",         16266,   193.081E-03,   134.771E-03,            0.,NA,NA,"",   985.630E+03,   1.00058E+06,   1.00058E+06
C:/temp/Job-1.odb,Step-1,Increment      1: Step Time =    1.000,"P-1-1",         16267,   108.375E-03,   79.6042E-03,            0.,NA,NA,"",   1.34458E+06,   1.39761E+06,   1.39761E+06
C:/temp/Job-1.odb,Step-1,Increment      1: Step Time =    1.000,"P-1-1",         16268,   120.075E-03,   92.3387E-03,            0.,NA,NA,"",   864.680E+03,   729.714E+03,   729.714E+03
C:/temp/Job-1.odb,Step-1,Increment      1: Step Time =    1.000,"P-1-1",         16269,   193.515E-03,   87.8935E-03,            0.,NA,NA,"",   969.651E+03,   998.406E+03,   998.406E+03
C:/temp/Job-1.odb,Step-1,Increment      1: Step Time =    1.000,"P-1-1",         16270,   194.084E-03,   117.791E-03,            0.,NA,NA,"",   972.494E+03,   999.043E+03,   999.043E+03
C:/temp/Job-1.odb,Step-1,Increment      1: Step Time =    1.000,"P-1-1",         16271,   193.587E-03,   117.118E-03,            0.,NA,NA,"",   972.577E+03,   998.851E+03,   998.851E+03
C:/temp/Job-1.odb,Step-1,Increment      1: Step Time =    1.000,"P-1-1",         16272,   191.511E-03,   163.471E-03,            0.,NA,NA,"",   999.876E+03,   1.00150E+06,   1.00150E+06
C:/temp/Job-1.odb,Step-1,Increment      1: Step Time =    1.000,"P-1-1",         16273,   167.204E-03,   193.338E-03,            0.,NA,NA,"",   998.067E+03,   997.786E+03,   997.786E+03
C:/temp/Job-1.odb,Step-1,Increment      1: Step Time =    1.000,"P-1-1",         16274,   102.477E-03,   83.5980E-03,            0.,NA,NA,"",   1.62474E+06,   1.77407E+06,   1.77407E+06
C:/temp/Job-1.odb,Step-1,Increment      1: Step Time =    1.000,"P-1-1",         16275,   193.508E-03,   32.9915E-03,            0.,NA,NA,"",   999.808E+03,   1.00080E+06,   1.00080E+06
C:/temp/Job-1.odb,Step-1,Increment      1: Step Time =    1.000,"P-1-1",         16276,   45.9698E-03,   193.573E-03,            0.,NA,NA,"",   1.00148E+06,   1.00203E+06,   1.00203E+06
C:/temp/Job-1.odb,Step-1,Increment      1: Step Time =    1.000,"P-1-1",         16277,   36.6328E-03,   191.384E-03,            0.,NA,NA,"",   1.03263E+06,   1.03491E+06,   1.03491E+06
C:/temp/Job-1.odb,Step-1,Increment      1: Step Time =    1.000,"P-1-1",         16278,   190.666E-03,   126.576E-03,            0.,NA,NA,"",   981.524E+03,   999.752E+03,   999.752E+03
C:/temp/Job-1.odb,Step-1,Increment      1: Step Time =    1.000,"P-1-1",         16279,   111.716E-03,   194.090E-03,            0.,NA,NA,"",   949.067E+03,   949.598E+03,   949.598E+03
C:/temp/Job-1.odb,Step-1,Increment      1: Step Time =    1.000,"P-1-1",         16280,   112.359E-03,   193.590E-03,            0.,NA,NA,"",   951.188E+03,   951.801E+03,   951.801E+03
C:/temp/Job-1.odb,Step-1,Increment      1: Step Time =    1.000,"P-1-1",         16281,   82.0301E-03,   193.908E-03,            0.,NA,NA,"",   949.807E+03,   950.228E+03,   950.228E+03
C:/temp/Job-1.odb,Step-1,Increment      1: Step Time =    1.000,"P-1-1",         16282,   82.9023E-03,   193.158E-03,            0.,NA,NA,"",   952.058E+03,   952.629E+03,   952.629E+03
C:/temp/Job-1.odb,Step-1,Increment      1: Step Time =    1.000,"P-1-1",         16283,   190.568E-03,   41.4517E-03,            0.,NA,NA,"",   999.420E+03,   1.00207E+06,   1.00207E+06
C:/temp/Job-1.odb,Step-1,Increment      1: Step Time =    1.000,"P-1-1",         16284,   192.918E-03,   30.7599E-03,            0.,NA,NA,"",   1.00017E+06,   1.00085E+06,   1.00085E+06
C:/temp/Job-1.odb,Step-1,Increment      1: Step Time =    1.000,"P-1-1",         16285,   158.568E-03,   190.543E-03,            0.,NA,NA,"",   997.579E+03,   996.799E+03,   996.799E+03
C:/temp/Job-1.odb,Step-1,Increment      1: Step Time =    1.000,"P-1-1",         16286,   169.563E-03,   192.894E-03,            0.,NA,NA,"",   998.693E+03,   998.420E+03,   998.420E+03
C:/temp/Job-1.odb,Step-1,Increment      1: Step Time =    1.000,"P-1-1",         16287,   73.3231E-03,   190.811E-03,            0.,NA,NA,"",   970.514E+03,   970.944E+03,   970.944E+03
C:/temp/Job-1.odb,Step-1,Increment      1: Step Time =    1.000,"P-1-1",         16288,   5.92751E-03,   18.9396E-03,            0.,NA,NA,"",   1.03143E+06,   1.12080E+06,   1.12080E+06
C:/temp/Job-1.odb,Step-1,Increment      1: Step Time =    1.000,"P-1-1",         16289,   170.908E-03,   192.847E-03,            0.,NA,NA,"",   998.891E+03,   998.644E+03,   998.644E+03
C:/temp/Job-1.odb,Step-1,Increment      1: Step Time =    1.000,"P-1-1",         16290,   159.824E-03,   189.479E-03,            0.,NA,NA,"",   998.907E+03,   997.989E+03,   997.989E+03
C:/temp/Job-1.odb,Step-1,Increment      1: Step Time =    1.000,"P-1-1",         16291,   81.4177E-03,   107.622E-03,            0.,NA,NA,"",   854.458E+03,   721.178E+03,   721.178E+03
C:/temp/Job-1.odb,Step-1,Increment      1: Step Time =    1.000,"P-1-1",         16292,   74.5182E-03,   189.818E-03,            0.,NA,NA,"",   972.655E+03,   973.268E+03,   973.268E+03
C:/temp/Job-1.odb,Step-1,Increment      1: Step Time =    1.000,"P-1-1",         16293,   189.626E-03,   125.354E-03,            0.,NA,NA,"",   981.235E+03,   999.375E+03,   999.375E+03
C:/temp/Job-1.odb,Step-1,Increment      1: Step Time =    1.000,"P-1-1",         16294,   189.506E-03,   40.2112E-03,            0.,NA,NA,"",   1.00031E+06,   1.00247E+06,   1.00247E+06
C:/temp/Job-1.odb,Step-1,Increment      1: Step Time =    1.000,"P-1-1",         16295,   121.516E-03,   98.3790E-03,            0.,NA,NA,"",   394.580E+03,   377.517E+03,   377.517E+03
C:/temp/Job-1.odb,Step-1,Increment      1: Step Time =    1.000,"P-1-1",         16296,   108.624E-03,   116.314E-03,            0.,NA,NA,"",   1.47114E+06,   1.50817E+06,   1.50817E+06
C:/temp/Job-1.odb,Step-1,Increment      1: Step Time =    1.000,"P-1-1",         16297,   174.889E-03,   192.354E-03,            0.,NA,NA,"",   999.447E+03,   999.250E+03,   999.250E+03
C:/temp/Job-1.odb,Step-1,Increment      1: Step Time =    1.000,"P-1-1",         16298,   166.071E-03,   191.486E-03,            0.,NA,NA,"",   998.824E+03,   998.344E+03,   998.344E+03
C:/temp/Job-1.odb,Step-1,Increment      1: Step Time =    1.000,"P-1-1",         16299,   191.643E-03,   34.0497E-03,            0.,NA,NA,"",   1.00026E+06,   1.00138E+06,   1.00138E+06
C:/temp/Job-1.odb,Step-1,Increment      1: Step Time =    1.000,"P-1-1",         16300,   191.489E-03,   89.3934E-03,            0.,NA,NA,"",   970.126E+03,   996.979E+03,   996.979E+03
C:/temp/Job-1.odb,Step-1,Increment      1: Step Time =    1.000,"P-1-1",         16301,   191.869E-03,   118.207E-03,            0.,NA,NA,"",   974.267E+03,   998.420E+03,   998.420E+03
C:/temp/Job-1.odb,Step-1,Increment      1: Step Time =    1.000,"P-1-1",         16302,   111.267E-03,   191.985E-03,            0.,NA,NA,"",   955.152E+03,   956.034E+03,   956.034E+03
C:/temp/Job-1.odb,Step-1,Increment      1: Step Time =    1.000,"P-1-1",         16303,   80.9710E-03,   191.734E-03,            0.,NA,NA,"",   959.114E+03,   959.887E+03,   959.887E+03
C:/temp/Job-1.odb,Step-1,Increment      1: Step Time =    1.000,"P-1-1",         16304,   93.7316E-03,   83.8686E-03,            0.,NA,NA,"",   1.53260E+06,   1.62716E+06,   1.62716E+06
C:/temp/Job-1.odb,Step-1,Increment      1: Step Time =    1.000,"P-1-1",         16305,   94.2859E-03,   83.7291E-03,            0.,NA,NA,"",   1.53536E+06,   1.63885E+06,   1.63885E+06
C:/temp/Job-1.odb,Step-1,Increment      1: Step Time =    1.000,"P-1-1",         16306,   94.2195E-03,   83.1748E-03,            0.,NA,NA,"",   1.51239E+06,   1.61515E+06,   1.61515E+06
C:/temp/Job-1.odb,Step-1,Increment      1: Step Time =    1.000,"P-1-1",         16307,   10.1359E-03,   190.851E-03,            0.,NA,NA,"",   1.19120E+06,   1.22861E+06,   1.22861E+06
C:/temp/Job-1.odb,Step-1,Increment      1: Step Time =    1.000,"P-1-1",         16308,   54.2028E-03,   192.958E-03,            0.,NA,NA,"",   989.098E+03,   989.223E+03,   989.223E+03
C:/temp/Job-1.odb,Step-1,Increment      1: Step Time =    1.000,"P-1-1",         16309,   63.8728E-03,   192.957E-03,            0.,NA,NA,"",   974.535E+03,   974.598E+03,   974.598E+03
C:/temp/Job-1.odb,Step-1,Increment      1: Step Time =    1.000,"P-1-1",         16310,   192.608E-03,   145.365E-03,            0.,NA,NA,"",   993.089E+03,   1.00136E+06,   1.00136E+06
C:/temp/Job-1.odb,Step-1,Increment      1: Step Time =    1.000,"P-1-1",         16311,   192.859E-03,   135.999E-03,            0.,NA,NA,"",   986.828E+03,   1.00072E+06,   1.00072E+06
C:/temp/Job-1.odb,Step-1,Increment      1: Step Time =    1.000,"P-1-1",         16312,   17.1662E-03,   5.98895E-03,            0.,NA,NA,"",   1.13498E+06,   1.14264E+06,   1.14264E+06
C:/temp/Job-1.odb,Step-1,Increment      1: Step Time =    1.000,"P-1-1",         16313,   192.035E-03,   24.2330E-03,            0.,NA,NA,"",   1.00059E+06,   1.00070E+06,   1.00070E+06
C:/temp/Job-1.odb,Step-1,Increment      1: Step Time =    1.000,"P-1-1",         16314,   191.414E-03,   23.1705E-03,            0.,NA,NA,"",   1.00064E+06,   1.00071E+06,   1.00071E+06
C:/temp/Job-1.odb,Step-1,Increment      1: Step Time =    1.000,"P-1-1",         16315,   91.0839E-03,   82.4476E-03,            0.,NA,NA,"",   1.42404E+06,   1.46045E+06,   1.46045E+06
C:/temp/Job-1.odb,Step-1,Increment      1: Step Time =    1.000,"P-1-1",         16316,   91.5645E-03,   82.5272E-03,            0.,NA,NA,"",   1.43277E+06,   1.48019E+06,   1.48019E+06
C:/temp/Job-1.odb,Step-1,Increment      1: Step Time =    1.000,"P-1-1",         16317,   90.4138E-03,   82.1721E-03,            0.,NA,NA,"",   1.40874E+06,   1.43529E+06,   1.43529E+06
C:/temp/Job-1.odb,Step-1,Increment      1: Step Time =    1.000,"P-1-1",         16318,   91.9590E-03,   82.0162E-03,            0.,NA,NA,"",   1.42037E+06,   1.47881E+06,   1.47881E+06
C:/temp/Job-1.odb,Step-1,Increment      1: Step Time =    1.000,"P-1-1",         16319,   43.4043E-03,   6.26176E-03,            0.,NA,NA,"",   1.00622E+06,   1.00682E+06,   1.00682E+06
C:/temp/Job-1.odb,Step-1,Increment      1: Step Time =    1.000,"P-1-1",         16320,   73.0024E-03,   5.70804E-03,            0.,NA,NA,"",   957.696E+03,   957.818E+03,   957.818E+03
C:/temp/Job-1.odb,Step-1,Increment      1: Step Time =    1.000,"P-1-1",         16321,   27.5049E-03,   191.209E-03,            0.,NA,NA,"",   1.06898E+06,   1.07480E+06,   1.07480E+06
C:/temp/Job-1.odb,Step-1,Increment      1: Step Time =    1.000,"P-1-1",         16322,   28.5603E-03,   190.450E-03,            0.,NA,NA,"",   1.06599E+06,   1.07209E+06,   1.07209E+06
C:/temp/Job-1.odb,Step-1,Increment      1: Step Time =    1.000,"P-1-1",         16323,   99.4684E-03,   6.37953E-03,            0.,NA,NA,"",   944.022E+03,   944.837E+03,   944.837E+03
C:/temp/Job-1.odb,Step-1,Increment      1: Step Time =    1.000,"P-1-1",         16324,   128.554E-03,   6.08337E-03,            0.,NA,NA,"",   968.196E+03,   968.111E+03,   968.111E+03
C:/temp/Job-1.odb,Step-1,Increment      1: Step Time =    1.000,"P-1-1",         16325,   157.568E-03,   5.49257E-03,            0.,NA,NA,"",   994.233E+03,   993.931E+03,   993.931E+03
C:/temp/Job-1.odb,Step-1,Increment      1: Step Time =    1.000,"P-1-1",         16326,   92.9326E-03,   82.9692E-03,            0.,NA,NA,"",   1.47907E+06,   1.56062E+06,   1.56062E+06
C:/temp/Job-1.odb,Step-1,Increment      1: Step Time =    1.000,"P-1-1",         16327,   92.7151E-03,   82.4305E-03,            0.,NA,NA,"",   1.44981E+06,   1.52620E+06,   1.52620E+06
C:/temp/Job-1.odb,Step-1,Increment      1: Step Time =    1.000,"P-1-1",         16328,   93.2926E-03,   83.2675E-03,            0.,NA,NA,"",   1.49463E+06,   1.58288E+06,   1.58288E+06
C:/temp/Job-1.odb,Step-1,Increment      1: Step Time =    1.000,"P-1-1",         16329,   92.5590E-03,   81.7944E-03,            0.,NA,NA,"",   1.41464E+06,   1.48727E+06,   1.48727E+06
C:/temp/Job-1.odb,Step-1,Increment      1: Step Time =    1.000,"P-1-1",         16330,   192.475E-03,   80.2450E-03,            0.,NA,NA,"",   974.968E+03,   998.810E+03,   998.810E+03
C:/temp/Job-1.odb,Step-1,Increment      1: Step Time =    1.000,"P-1-1",         16331,   119.825E-03,   192.261E-03,            0.,NA,NA,"",   962.354E+03,   962.739E+03,   962.739E+03
C:/temp/Job-1.odb,Step-1,Increment      1: Step Time =    1.000,"P-1-1",         16332,   7.78797E-03,   8.94746E-03,            0.,NA,NA,"",   1.20703E+06,   1.25679E+06,   1.25679E+06
C:/temp/Job-1.odb,Step-1,Increment      1: Step Time =    1.000,"P-1-1",         16333,   7.50525E-03,   10.2844E-03,            0.,NA,NA,"",   1.17718E+06,   1.23601E+06,   1.23601E+06
C:/temp/Job-1.odb,Step-1,Increment      1: Step Time =    1.000,"P-1-1",         16334,   7.44278E-03,   16.0071E-03,            0.,NA,NA,"",   1.07754E+06,   1.15517E+06,   1.15517E+06
C:/temp/Job-1.odb,Step-1,Increment      1: Step Time =    1.000,"P-1-1",         16335,   193.142E-03,   66.8915E-03,            0.,NA,NA,"",   984.538E+03,   1.00047E+06,   1.00047E+06
C:/temp/Job-1.odb,Step-1,Increment      1: Step Time =    1.000,"P-1-1",         16336,   193.217E-03,   65.7171E-03,            0.,NA,NA,"",   985.356E+03,   1.00056E+06,   1.00056E+06
C:/temp/Job-1.odb,Step-1,Increment      1: Step Time =    1.000,"P-1-1",         16337,   133.180E-03,   193.182E-03,            0.,NA,NA,"",   975.296E+03,   975.040E+03,   975.040E+03
C:/temp/Job-1.odb,Step-1,Increment      1: Step Time =    1.000,"P-1-1",         16338,   134.365E-03,   193.241E-03,            0.,NA,NA,"",   976.501E+03,   976.208E+03,   976.208E+03
C:/temp/Job-1.odb,Step-1,Increment      1: Step Time =    1.000,"P-1-1",         16339,   94.0233E-03,   82.0790E-03,            0.,NA,NA,"",   1.45445E+06,   1.55513E+06,   1.55513E+06
C:/temp/Job-1.odb,Step-1,Increment      1: Step Time =    1.000,"P-1-1",         16340,   93.8983E-03,   82.7542E-03,            0.,NA,NA,"",   1.49644E+06,   1.59458E+06,   1.59458E+06
C:/temp/Job-1.odb,Step-1,Increment      1: Step Time =    1.000,"P-1-1",         16341,   94.4783E-03,   81.0750E-03,            0.,NA,NA,"",   1.39301E+06,   1.49931E+06,   1.49931E+06
C:/temp/Job-1.odb,Step-1,Increment      1: Step Time =    1.000,"P-1-1",         16342,   191.771E-03,   172.267E-03,            0.,NA,NA,"",   1.00054E+06,   1.00093E+06,   1.00093E+06
C:/temp/Job-1.odb,Step-1,Increment      1: Step Time =    1.000,"P-1-1",         16343,   190.979E-03,   171.742E-03,            0.,NA,NA,"",   1.00074E+06,   1.00116E+06,   1.00116E+06
C:/temp/Job-1.odb,Step-1,Increment      1: Step Time =    1.000,"P-1-1",         16344,   191.668E-03,   174.927E-03,            0.,NA,NA,"",   1.00062E+06,   1.00080E+06,   1.00080E+06
C:/temp/Job-1.odb,Step-1,Increment      1: Step Time =    1.000,"P-1-1",         16345,   102.701E-03,   83.0592E-03,            0.,NA,NA,"",   1.56661E+06,   1.71125E+06,   1.71125E+06
C:/temp/Job-1.odb,Step-1,Increment      1: Step Time =    1.000,"P-1-1",         16346,   102.393E-03,   83.2715E-03,            0.,NA,NA,"",   1.59778E+06,   1.74861E+06,   1.74861E+06
C:/temp/Job-1.odb,Step-1,Increment      1: Step Time =    1.000,"P-1-1",         16347,   103.099E-03,   82.7509E-03,            0.,NA,NA,"",   1.52425E+06,   1.66378E+06,   1.66378E+06
C:/temp/Job-1.odb,Step-1,Increment      1: Step Time =    1.000,"P-1-1",         16348,   103.394E-03,   82.2001E-03,            0.,NA,NA,"",   1.47848E+06,   1.61409E+06,   1.61409E+06
C:/temp/Job-1.odb,Step-1,Increment      1: Step Time =    1.000,"P-1-1",         16349,   103.400E-03,   81.4800E-03,            0.,NA,NA,"",   1.43034E+06,   1.56405E+06,   1.56405E+06
C:/temp/Job-1.odb,Step-1,Increment      1: Step Time =    1.000,"P-1-1",         16350,   103.055E-03,   80.7243E-03,            0.,NA,NA,"",   1.38752E+06,   1.52309E+06,   1.52309E+06
C:/temp/Job-1.odb,Step-1,Increment      1: Step Time =    1.000,"P-1-1",         16351,   111.421E-03,   82.5638E-03,            0.,NA,NA,"",   1.40494E+06,   1.38212E+06,   1.38212E+06
C:/temp/Job-1.odb,Step-1,Increment      1: Step Time =    1.000,"P-1-1",         16352,   190.854E-03,   179.138E-03,            0.,NA,NA,"",   1.00064E+06,   1.00064E+06,   1.00064E+06
C:/temp/Job-1.odb,Step-1,Increment      1: Step Time =    1.000,"P-1-1",         16353,   189.135E-03,   177.185E-03,            0.,NA,NA,"",   1.00103E+06,   1.00108E+06,   1.00108E+06
C:/temp/Job-1.odb,Step-1,Increment      1: Step Time =    1.000,"P-1-1",         16354,   191.188E-03,   191.743E-03,            0.,NA,NA,"",   999.931E+03,   999.881E+03,   999.881E+03
C:/temp/Job-1.odb,Step-1,Increment      1: Step Time =    1.000,"P-1-1",         16355,   68.3180E-03,   192.185E-03,            0.,NA,NA,"",   971.706E+03,   971.850E+03,   971.850E+03
C:/temp/Job-1.odb,Step-1,Increment      1: Step Time =    1.000,"P-1-1",         16356,   69.2964E-03,   191.548E-03,            0.,NA,NA,"",   972.939E+03,   973.113E+03,   973.113E+03
C:/temp/Job-1.odb,Step-1,Increment      1: Step Time =    1.000,"P-1-1",         16357,   70.2171E-03,   190.744E-03,            0.,NA,NA,"",   974.604E+03,   974.884E+03,   974.884E+03
C:/temp/Job-1.odb,Step-1,Increment      1: Step Time =    1.000,"P-1-1",         16358,   192.271E-03,   131.569E-03,            0.,NA,NA,"",   984.117E+03,   1.00045E+06,   1.00045E+06
C:/temp/Job-1.odb,Step-1,Increment      1: Step Time =    1.000,"P-1-1",         16359,   191.579E-03,   130.623E-03,            0.,NA,NA,"",   983.992E+03,   1.00042E+06,   1.00042E+06
C:/temp/Job-1.odb,Step-1,Increment      1: Step Time =    1.000,"P-1-1",         16360,   190.718E-03,   129.734E-03,            0.,NA,NA,"",   983.997E+03,   1.00033E+06,   1.00033E+06
C:/temp/Job-1.odb,Step-1,Increment      1: Step Time =    1.000,"P-1-1",         16361,   109.571E-03,   81.0623E-03,            0.,NA,NA,"",   1.37692E+06,   1.39942E+06,   1.39942E+06
C:/temp/Job-1.odb,Step-1,Increment      1: Step Time =    1.000,"P-1-1",         16362,   110.024E-03,   79.7553E-03,            0.,NA,NA,"",   1.35070E+06,   1.36958E+06,   1.36958E+06
C:/temp/Job-1.odb,Step-1,Increment      1: Step Time =    1.000,"P-1-1",         16363,   110.278E-03,   81.6361E-03,            0.,NA,NA,"",   1.38864E+06,   1.39581E+06,   1.39581E+06
C:/temp/Job-1.odb,Step-1,Increment      1: Step Time =    1.000,"P-1-1",         16364,   189.428E-03,   8.85632E-03,            0.,NA,NA,"",   999.942E+03,   999.895E+03,   999.895E+03
C:/temp/Job-1.odb,Step-1,Increment      1: Step Time =    1.000,"P-1-1",         16365,   188.226E-03,   8.82138E-03,            0.,NA,NA,"",   999.924E+03,   999.880E+03,   999.880E+03
C:/temp/Job-1.odb,Step-1,Increment      1: Step Time =    1.000,"P-1-1",         16366,   144.797E-03,   192.612E-03,            0.,NA,NA,"",   987.801E+03,   987.231E+03,   987.231E+03
C:/temp/Job-1.odb,Step-1,Increment      1: Step Time =    1.000,"P-1-1",         16367,   148.190E-03,   191.499E-03,            0.,NA,NA,"",   991.736E+03,   990.979E+03,   990.979E+03
C:/temp/Job-1.odb,Step-1,Increment      1: Step Time =    1.000,"P-1-1",         16368,   151.883E-03,   192.099E-03,            0.,NA,NA,"",   993.272E+03,   992.619E+03,   992.619E+03
C:/temp/Job-1.odb,Step-1,Increment      1: Step Time =    1.000,"P-1-1",         16369,   153.856E-03,   192.264E-03,            0.,NA,NA,"",   994.200E+03,   993.584E+03,   993.584E+03
C:/temp/Job-1.odb,Step-1,Increment      1: Step Time =    1.000,"P-1-1",         16370,   154.409E-03,   191.468E-03,            0.,NA,NA,"",   995.159E+03,   994.438E+03,   994.438E+03
C:/temp/Job-1.odb,Step-1,Increment      1: Step Time =    1.000,"P-1-1",         16371,   155.173E-03,   190.487E-03,            0.,NA,NA,"",   996.414E+03,   995.557E+03,   995.557E+03
C:/temp/Job-1.odb,Step-1,Increment      1: Step Time =    1.000,"P-1-1",         16372,   117.978E-03,   112.252E-03,            0.,NA,NA,"",   1.19628E+06,   1.04403E+06,   1.04403E+06
C:/temp/Job-1.odb,Step-1,Increment      1: Step Time =    1.000,"P-1-1",         16373,   117.184E-03,   113.168E-03,            0.,NA,NA,"",   1.25717E+06,   1.11142E+06,   1.11142E+06
C:/temp/Job-1.odb,Step-1,Increment      1: Step Time =    1.000,"P-1-1",         16374,   115.978E-03,   84.3604E-03,            0.,NA,NA,"",   1.33946E+06,   1.22637E+06,   1.22637E+06
C:/temp/Job-1.odb,Step-1,Increment      1: Step Time =    1.000,"P-1-1",         16375,   116.760E-03,   85.2067E-03,            0.,NA,NA,"",   1.31318E+06,   1.18669E+06,   1.18669E+06
C:/temp/Job-1.odb,Step-1,Increment      1: Step Time =    1.000,"P-1-1",         16376,   191.215E-03,   162.385E-03,            0.,NA,NA,"",   999.877E+03,   1.00168E+06,   1.00168E+06
C:/temp/Job-1.odb,Step-1,Increment      1: Step Time =    1.000,"P-1-1",         16377,   192.394E-03,   55.2741E-03,            0.,NA,NA,"",   992.936E+03,   1.00141E+06,   1.00141E+06
C:/temp/Job-1.odb,Step-1,Increment      1: Step Time =    1.000,"P-1-1",         16378,   191.361E-03,   51.8129E-03,            0.,NA,NA,"",   995.400E+03,   1.00187E+06,   1.00187E+06
C:/temp/Job-1.odb,Step-1,Increment      1: Step Time =    1.000,"P-1-1",         16379,   192.055E-03,   48.0995E-03,            0.,NA,NA,"",   996.571E+03,   1.00165E+06,   1.00165E+06
C:/temp/Job-1.odb,Step-1,Increment      1: Step Time =    1.000,"P-1-1",         16380,   192.245E-03,   46.1366E-03,            0.,NA,NA,"",   997.222E+03,   1.00157E+06,   1.00157E+06
C:/temp/Job-1.odb,Step-1,Increment      1: Step Time =    1.000,"P-1-1",         16381,   191.453E-03,   45.5794E-03,            0.,NA,NA,"",   997.802E+03,   1.00184E+06,   1.00184E+06
C:/temp/Job-1.odb,Step-1,Increment      1: Step Time =    1.000,"P-1-1",         16382,   190.479E-03,   44.8121E-03,            0.,NA,NA,"",   998.583E+03,   1.00221E+06,   1.00221E+06
C:/temp/Job-1.odb,Step-1,Increment      1: Step Time =    1.000,"P-1-1",         16383,   37.9750E-03,   190.842E-03,            0.,NA,NA,"",   1.03106E+06,   1.03339E+06,   1.03339E+06
C:/temp/Job-1.odb,Step-1,Increment      1: Step Time =    1.000,"P-1-1",         16384,   191.511E-03,   75.2806E-03,            0.,NA,NA,"",   979.366E+03,   999.444E+03,   999.444E+03
C:/temp/Job-1.odb,Step-1,Increment      1: Step Time =    1.000,"P-1-1",         16385,   124.848E-03,   191.529E-03,            0.,NA,NA,"",   969.644E+03,   969.735E+03,   969.735E+03
C:/temp/Job-1.odb,Step-1,Increment      1: Step Time =    1.000,"P-1-1",         16386,   102.587E-03,   79.1687E-03,            0.,NA,NA,"",   1.30137E+06,   1.43148E+06,   1.43148E+06
C:/temp/Job-1.odb,Step-1,Increment      1: Step Time =    1.000,"P-1-1",         16387,   102.470E-03,   80.1735E-03,            0.,NA,NA,"",   1.36132E+06,   1.49986E+06,   1.49986E+06
C:/temp/Job-1.odb,Step-1,Increment      1: Step Time =    1.000,"P-1-1",         16388,   101.306E-03,   82.6224E-03,            0.,NA,NA,"",   1.54112E+06,   1.69595E+06,   1.69595E+06
C:/temp/Job-1.odb,Step-1,Increment      1: Step Time =    1.000,"P-1-1",         16389,   98.6872E-03,   121.726E-03,            0.,NA,NA,"",   1.24908E+06,   1.38183E+06,   1.38183E+06
C:/temp/Job-1.odb,Step-1,Increment      1: Step Time =    1.000,"P-1-1",         16390,   192.387E-03,   87.3365E-03,            0.,NA,NA,"",   970.792E+03,   998.021E+03,   998.021E+03
C:/temp/Job-1.odb,Step-1,Increment      1: Step Time =    1.000,"P-1-1",         16391,   108.836E-03,   118.244E-03,            0.,NA,NA,"",   1.40851E+06,   1.44770E+06,   1.44770E+06
C:/temp/Job-1.odb,Step-1,Increment      1: Step Time =    1.000,"P-1-1",         16392,   73.5070E-03,   103.277E-03,            0.,NA,NA,"",   562.245E+03,   584.819E+03,   584.819E+03
C:/temp/Job-1.odb,Step-1,Increment      1: Step Time =    1.000,"P-1-1",         16393,   76.3741E-03,   99.7830E-03,            0.,NA,NA,"",   410.714E+03,   436.364E+03,   436.364E+03
C:/temp/Job-1.odb,Step-1,Increment      1: Step Time =    1.000,"P-1-1",         16394,   178.014E-03,   191.882E-03,            0.,NA,NA,"",   999.708E+03,   999.559E+03,   999.559E+03
C:/temp/Job-1.odb,Step-1,Increment      1: Step Time =    1.000,"P-1-1",         16395,   102.541E-03,   122.740E-03,            0.,NA,NA,"",   1.21779E+06,   1.34136E+06,   1.34136E+06
C:/temp/Job-1.odb,Step-1,Increment      1: Step Time =    1.000,"P-1-1",         16396,   101.994E-03,   83.1372E-03,            0.,NA,NA,"",   1.58462E+06,   1.73900E+06,   1.73900E+06
C:/temp/Job-1.odb,Step-1,Increment      1: Step Time =    1.000,"P-1-1",         16397,   111.053E-03,   81.7221E-03,            0.,NA,NA,"",   1.39958E+06,   1.39089E+06,   1.39089E+06
C:/temp/Job-1.odb,Step-1,Increment      1: Step Time =    1.000,"P-1-1",         16398,   163.319E-03,   7.44811E-03,            0.,NA,NA,"",   997.543E+03,   997.116E+03,   997.116E+03
C:/temp/Job-1.odb,Step-1,Increment      1: Step Time =    1.000,"P-1-1",         16399,   189.710E-03,   193.384E-03,            0.,NA,NA,"",   999.806E+03,   999.777E+03,   999.777E+03
C:/temp/Job-1.odb,Step-1,Increment      1: Step Time =    1.000,"P-1-1",         16400,   193.364E-03,   10.4115E-03,            0.,NA,NA,"",   1.00008E+06,   999.978E+03,   999.978E+03
C:/temp/Job-1.odb,Step-1,Increment      1: Step Time =    1.000,"P-1-1",         16401,   192.325E-03,   10.9454E-03,            0.,NA,NA,"",   1.00008E+06,   999.994E+03,   999.994E+03
C:/temp/Job-1.odb,Step-1,Increment      1: Step Time =    1.000,"P-1-1",         16402,   82.2849E-03,   84.1293E-03,            0.,NA,NA,"",   1.26535E+06,   1.16651E+06,   1.16651E+06
C:/temp/Job-1.odb,Step-1,Increment      1: Step Time =    1.000,"P-1-1",         16403,   82.3754E-03,   82.3786E-03,            0.,NA,NA,"",   1.29346E+06,   1.20980E+06,   1.20980E+06
C:/temp/Job-1.odb,Step-1,Increment      1: Step Time =    1.000,"P-1-1",         16404,   192.626E-03,   104.825E-03,            0.,NA,NA,"",   967.580E+03,   997.433E+03,   997.433E+03
C:/temp/Job-1.odb,Step-1,Increment      1: Step Time =    1.000,"P-1-1",         16405,   95.2312E-03,   192.525E-03,            0.,NA,NA,"",   947.798E+03,   948.820E+03,   948.820E+03
C:/temp/Job-1.odb,Step-1,Increment      1: Step Time =    1.000,"P-1-1",         16406,   189.136E-03,   192.319E-03,            0.,NA,NA,"",   999.857E+03,   999.821E+03,   999.821E+03
C:/temp/Job-1.odb,Step-1,Increment      1: Step Time =    1.000,"P-1-1",         16407,   93.7435E-03,   83.3450E-03,            0.,NA,NA,"",   1.50316E+06,   1.59809E+06,   1.59809E+06
C:/temp/Job-1.odb,Step-1,Increment      1: Step Time =    1.000,"P-1-1",         16408,   102.284E-03,   82.6494E-03,            0.,NA,NA,"",   1.52216E+06,   1.67074E+06,   1.67074E+06
C:/temp/Job-1.odb,Step-1,Increment      1: Step Time =    1.000,"P-1-1",         16409,   102.718E-03,   82.4609E-03,            0.,NA,NA,"",   1.49983E+06,   1.64275E+06,   1.64275E+06
C:/temp/Job-1.odb,Step-1,Increment      1: Step Time =    1.000,"P-1-1",         16410,   102.924E-03,   82.0894E-03,            0.,NA,NA,"",   1.47056E+06,   1.61092E+06,   1.61092E+06
C:/temp/Job-1.odb,Step-1,Increment      1: Step Time =    1.000,"P-1-1",         16411,   102.839E-03,   81.6279E-03,            0.,NA,NA,"",   1.43664E+06,   1.57799E+06,   1.57799E+06
C:/temp/Job-1.odb,Step-1,Increment      1: Step Time =    1.000,"P-1-1",         16412,   102.460E-03,   81.1457E-03,            0.,NA,NA,"",   1.41166E+06,   1.55515E+06,   1.55515E+06
C:/temp/Job-1.odb,Step-1,Increment      1: Step Time =    1.000,"P-1-1",         16413,   101.791E-03,   80.6783E-03,            0.,NA,NA,"",   1.38669E+06,   1.53049E+06,   1.53049E+06
C:/temp/Job-1.odb,Step-1,Increment      1: Step Time =    1.000,"P-1-1",         16414,   122.460E-03,   107.306E-03,            0.,NA,NA,"",   803.324E+03,   715.143E+03,   715.143E+03
C:/temp/Job-1.odb,Step-1,Increment      1: Step Time =    1.000,"P-1-1",         16415,   6.16185E-03,   26.6014E-03,            0.,NA,NA,"",   969.043E+03,   1.06309E+06,   1.06309E+06
C:/temp/Job-1.odb,Step-1,Increment      1: Step Time =    1.000,"P-1-1",         16416,   111.879E-03,   119.218E-03,            0.,NA,NA,"",   1.37704E+06,   1.35927E+06,   1.35927E+06
C:/temp/Job-1.odb,Step-1,Increment      1: Step Time =    1.000,"P-1-1",         16417,   82.6447E-03,   191.359E-03,            0.,NA,NA,"",   958.981E+03,   959.895E+03,   959.895E+03
C:/temp/Job-1.odb,Step-1,Increment      1: Step Time =    1.000,"P-1-1",         16418,   83.3007E-03,   190.308E-03,            0.,NA,NA,"",   962.011E+03,   963.146E+03,   963.146E+03
C:/temp/Job-1.odb,Step-1,Increment      1: Step Time =    1.000,"P-1-1",         16419,   121.825E-03,   91.3070E-03,            0.,NA,NA,"",   905.213E+03,   795.426E+03,   795.426E+03
C:/temp/Job-1.odb,Step-1,Increment      1: Step Time =    1.000,"P-1-1",         16420,   117.452E-03,   83.6536E-03,            0.,NA,NA,"",   1.31923E+06,   1.20775E+06,   1.20775E+06
C:/temp/Job-1.odb,Step-1,Increment      1: Step Time =    1.000,"P-1-1",         16421,   116.950E-03,   82.1693E-03,            0.,NA,NA,"",   1.32782E+06,   1.23410E+06,   1.23410E+06
C:/temp/Job-1.odb,Step-1,Increment      1: Step Time =    1.000,"P-1-1",         16422,   191.791E-03,   68.9226E-03,            0.,NA,NA,"",   984.106E+03,   1.00039E+06,   1.00039E+06
C:/temp/Job-1.odb,Step-1,Increment      1: Step Time =    1.000,"P-1-1",         16423,   131.151E-03,   191.866E-03,            0.,NA,NA,"",   975.894E+03,   975.648E+03,   975.648E+03
C:/temp/Job-1.odb,Step-1,Increment      1: Step Time =    1.000,"P-1-1",         16424,   76.0900E-03,   97.7072E-03,            0.,NA,NA,"",   473.121E+03,   489.548E+03,   489.548E+03
C:/temp/Job-1.odb,Step-1,Increment      1: Step Time =    1.000,"P-1-1",         16425,   190.723E-03,   55.2692E-03,            0.,NA,NA,"",   994.119E+03,   1.00201E+06,   1.00201E+06
C:/temp/Job-1.odb,Step-1,Increment      1: Step Time =    1.000,"P-1-1",         16426,   189.200E-03,   179.108E-03,            0.,NA,NA,"",   1.00090E+06,   1.00089E+06,   1.00089E+06
C:/temp/Job-1.odb,Step-1,Increment      1: Step Time =    1.000,"P-1-1",         16427,   144.831E-03,   191.031E-03,            0.,NA,NA,"",   990.064E+03,   989.257E+03,   989.257E+03
C:/temp/Job-1.odb,Step-1,Increment      1: Step Time =    1.000,"P-1-1",         16428,   190.427E-03,   87.9207E-03,            0.,NA,NA,"",   971.402E+03,   996.757E+03,   996.757E+03
C:/temp/Job-1.odb,Step-1,Increment      1: Step Time =    1.000,"P-1-1",         16429,   111.592E-03,   80.8335E-03,            0.,NA,NA,"",   1.37571E+06,   1.36221E+06,   1.36221E+06
C:/temp/Job-1.odb,Step-1,Increment      1: Step Time =    1.000,"P-1-1",         16430,   134.498E-03,   191.854E-03,            0.,NA,NA,"",   979.437E+03,   979.010E+03,   979.010E+03
C:/temp/Job-1.odb,Step-1,Increment      1: Step Time =    1.000,"P-1-1",         16431,   135.701E-03,   191.907E-03,            0.,NA,NA,"",   980.531E+03,   980.072E+03,   980.072E+03
C:/temp/Job-1.odb,Step-1,Increment      1: Step Time =    1.000,"P-1-1",         16432,   191.824E-03,   65.5894E-03,            0.,NA,NA,"",   986.587E+03,   1.00083E+06,   1.00083E+06
C:/temp/Job-1.odb,Step-1,Increment      1: Step Time =    1.000,"P-1-1",         16433,   191.908E-03,   64.4028E-03,            0.,NA,NA,"",   987.347E+03,   1.00091E+06,   1.00091E+06
C:/temp/Job-1.odb,Step-1,Increment      1: Step Time =    1.000,"P-1-1",         16434,   192.985E-03,   15.5537E-03,            0.,NA,NA,"",   1.00027E+06,   1.00016E+06,   1.00016E+06
C:/temp/Job-1.odb,Step-1,Increment      1: Step Time =    1.000,"P-1-1",         16435,   27.7544E-03,   189.256E-03,            0.,NA,NA,"",   1.07192E+06,   1.08021E+06,   1.08021E+06
C:/temp/Job-1.odb,Step-1,Increment      1: Step Time =    1.000,"P-1-1",         16436,   189.084E-03,   53.1712E-03,            0.,NA,NA,"",   996.576E+03,   1.00284E+06,   1.00284E+06
C:/temp/Job-1.odb,Step-1,Increment      1: Step Time =    1.000,"P-1-1",         16437,   173.525E-03,   7.97855E-03,            0.,NA,NA,"",   999.424E+03,   999.182E+03,   999.182E+03
C:/temp/Job-1.odb,Step-1,Increment      1: Step Time =    1.000,"P-1-1",         16438,   146.814E-03,   189.375E-03,            0.,NA,NA,"",   993.879E+03,   992.741E+03,   992.741E+03
C:/temp/Job-1.odb,Step-1,Increment      1: Step Time =    1.000,"P-1-1",         16439,   191.116E-03,   144.035E-03,            0.,NA,NA,"",   993.354E+03,   1.00181E+06,   1.00181E+06
C:/temp/Job-1.odb,Step-1,Increment      1: Step Time =    1.000,"P-1-1",         16440,   190.852E-03,   142.737E-03,            0.,NA,NA,"",   992.798E+03,   1.00182E+06,   1.00182E+06
C:/temp/Job-1.odb,Step-1,Increment      1: Step Time =    1.000,"P-1-1",         16441,   190.288E-03,   141.496E-03,            0.,NA,NA,"",   992.679E+03,   1.00198E+06,   1.00198E+06
C:/temp/Job-1.odb,Step-1,Increment      1: Step Time =    1.000,"P-1-1",         16442,   183.425E-03,   192.725E-03,            0.,NA,NA,"",   999.689E+03,   999.638E+03,   999.638E+03
C:/temp/Job-1.odb,Step-1,Increment      1: Step Time =    1.000,"P-1-1",         16443,   5.25006E-03,   182.500E-03,            0.,NA,NA,"",   1.04280E+06,   1.13381E+06,   1.13381E+06
C:/temp/Job-1.odb,Step-1,Increment      1: Step Time =    1.000,"P-1-1",         16444,   6.04420E-03,   156.641E-03,            0.,NA,NA,"",   891.507E+03,   989.950E+03,   989.950E+03
C:/temp/Job-1.odb,Step-1,Increment      1: Step Time =    1.000,"P-1-1",         16445,   6.01234E-03,   127.077E-03,            0.,NA,NA,"",   813.875E+03,   912.772E+03,   912.772E+03
C:/temp/Job-1.odb,Step-1,Increment      1: Step Time =    1.000,"P-1-1",         16446,   6.19079E-03,   100.393E-03,            0.,NA,NA,"",   783.902E+03,   882.021E+03,   882.021E+03
C:/temp/Job-1.odb,Step-1,Increment      1: Step Time =    1.000,"P-1-1",         16447,   39.9358E-03,   189.088E-03,            0.,NA,NA,"",   1.03222E+06,   1.03504E+06,   1.03504E+06
C:/temp/Job-1.odb,Step-1,Increment      1: Step Time =    1.000,"P-1-1",         16448,   91.4226E-03,   81.7939E-03,            0.,NA,NA,"",   1.41034E+06,   1.45470E+06,   1.45470E+06
C:/temp/Job-1.odb,Step-1,Increment      1: Step Time =    1.000,"P-1-1",         16449,   115.034E-03,   115.820E-03,            0.,NA,NA,"",   1.36256E+06,   1.25875E+06,   1.25875E+06
C:/temp/Job-1.odb,Step-1,Increment      1: Step Time =    1.000,"P-1-1",         16450,   114.683E-03,   116.968E-03,            0.,NA,NA,"",   1.37464E+06,   1.28827E+06,   1.28827E+06
C:/temp/Job-1.odb,Step-1,Increment      1: Step Time =    1.000,"P-1-1",         16451,   93.2048E-03,   82.7771E-03,            0.,NA,NA,"",   1.47489E+06,   1.56115E+06,   1.56115E+06
C:/temp/Job-1.odb,Step-1,Increment      1: Step Time =    1.000,"P-1-1",         16452,   93.4383E-03,   82.9530E-03,            0.,NA,NA,"",   1.49089E+06,   1.58077E+06,   1.58077E+06
C:/temp/Job-1.odb,Step-1,Increment      1: Step Time =    1.000,"P-1-1",         16453,   93.1104E-03,   82.4631E-03,            0.,NA,NA,"",   1.45710E+06,   1.54316E+06,   1.54316E+06
C:/temp/Job-1.odb,Step-1,Increment      1: Step Time =    1.000,"P-1-1",         16454,   93.6899E-03,   83.0261E-03,            0.,NA,NA,"",   1.49980E+06,   1.59442E+06,   1.59442E+06
C:/temp/Job-1.odb,Step-1,Increment      1: Step Time =    1.000,"P-1-1",         16455,   107.672E-03,   122.464E-03,            0.,NA,NA,"",   1.27825E+06,   1.34484E+06,   1.34484E+06
C:/temp/Job-1.odb,Step-1,Increment      1: Step Time =    1.000,"P-1-1",         16456,   106.987E-03,   123.570E-03,            0.,NA,NA,"",   1.24046E+06,   1.31735E+06,   1.31735E+06
C:/temp/Job-1.odb,Step-1,Increment      1: Step Time =    1.000,"P-1-1",         16457,   112.130E-03,   191.258E-03,            0.,NA,NA,"",   958.199E+03,   959.188E+03,   959.188E+03
C:/temp/Job-1.odb,Step-1,Increment      1: Step Time =    1.000,"P-1-1",         16458,   191.546E-03,   30.8208E-03,            0.,NA,NA,"",   1.00049E+06,   1.00119E+06,   1.00119E+06
C:/temp/Job-1.odb,Step-1,Increment      1: Step Time =    1.000,"P-1-1",         16459,   191.480E-03,   32.7944E-03,            0.,NA,NA,"",   1.00037E+06,   1.00130E+06,   1.00130E+06
C:/temp/Job-1.odb,Step-1,Increment      1: Step Time =    1.000,"P-1-1",         16460,   191.367E-03,   29.6418E-03,            0.,NA,NA,"",   1.00061E+06,   1.00116E+06,   1.00116E+06
C:/temp/Job-1.odb,Step-1,Increment      1: Step Time =    1.000,"P-1-1",         16461,   191.097E-03,   24.5047E-03,            0.,NA,NA,"",   1.00072E+06,   1.00086E+06,   1.00086E+06
C:/temp/Job-1.odb,Step-1,Increment      1: Step Time =    1.000,"P-1-1",         16462,   190.432E-03,   23.8308E-03,            0.,NA,NA,"",   1.00081E+06,   1.00092E+06,   1.00092E+06
C:/temp/Job-1.odb,Step-1,Increment      1: Step Time =    1.000,"P-1-1",         16463,   189.211E-03,   140.518E-03,            0.,NA,NA,"",   992.936E+03,   1.00225E+06,   1.00225E+06
C:/temp/Job-1.odb,Step-1,Increment      1: Step Time =    1.000,"P-1-1",         16464,   6.14027E-03,   71.6430E-03,            0.,NA,NA,"",   816.843E+03,   915.629E+03,   915.629E+03
C:/temp/Job-1.odb,Step-1,Increment      1: Step Time =    1.000,"P-1-1",         16465,   5.44959E-03,   42.3193E-03,            0.,NA,NA,"",   892.371E+03,   991.779E+03,   991.779E+03
C:/temp/Job-1.odb,Step-1,Increment      1: Step Time =    1.000,"P-1-1",         16466,   110.659E-03,   80.7302E-03,            0.,NA,NA,"",   1.36708E+06,   1.37137E+06,   1.37137E+06
C:/temp/Job-1.odb,Step-1,Increment      1: Step Time =    1.000,"P-1-1",         16467,   190.271E-03,   161.407E-03,            0.,NA,NA,"",   1.00013E+06,   1.00209E+06,   1.00209E+06
C:/temp/Job-1.odb,Step-1,Increment      1: Step Time =    1.000,"P-1-1",         16468,   189.115E-03,   159.856E-03,            0.,NA,NA,"",   1.00062E+06,   1.00268E+06,   1.00268E+06
C:/temp/Job-1.odb,Step-1,Increment      1: Step Time =    1.000,"P-1-1",         16469,   169.693E-03,   191.616E-03,            0.,NA,NA,"",   999.237E+03,   998.869E+03,   998.869E+03
C:/temp/Job-1.odb,Step-1,Increment      1: Step Time =    1.000,"P-1-1",         16470,   167.562E-03,   190.769E-03,            0.,NA,NA,"",   999.345E+03,   998.845E+03,   998.845E+03
C:/temp/Job-1.odb,Step-1,Increment      1: Step Time =    1.000,"P-1-1",         16471,   84.6391E-03,   117.110E-03,            0.,NA,NA,"",   1.33494E+06,   1.25952E+06,   1.25952E+06
C:/temp/Job-1.odb,Step-1,Increment      1: Step Time =    1.000,"P-1-1",         16472,   191.130E-03,   117.227E-03,            0.,NA,NA,"",   974.171E+03,   998.010E+03,   998.010E+03
C:/temp/Job-1.odb,Step-1,Increment      1: Step Time =    1.000,"P-1-1",         16473,   193.338E-03,   20.3652E-03,            0.,NA,NA,"",   1.00040E+06,   1.00033E+06,   1.00033E+06
C:/temp/Job-1.odb,Step-1,Increment      1: Step Time =    1.000,"P-1-1",         16474,   193.262E-03,   19.4462E-03,            0.,NA,NA,"",   1.00038E+06,   1.00029E+06,   1.00029E+06
C:/temp/Job-1.odb,Step-1,Increment      1: Step Time =    1.000,"P-1-1",         16475,   193.094E-03,   16.9672E-03,            0.,NA,NA,"",   1.00032E+06,   1.00021E+06,   1.00021E+06
C:/temp/Job-1.odb,Step-1,Increment      1: Step Time =    1.000,"P-1-1",         16476,   174.628E-03,   191.232E-03,            0.,NA,NA,"",   999.732E+03,   999.476E+03,   999.476E+03
C:/temp/Job-1.odb,Step-1,Increment      1: Step Time =    1.000,"P-1-1",         16477,   176.472E-03,   189.797E-03,            0.,NA,NA,"",   1.00022E+06,   999.938E+03,   999.938E+03
C:/temp/Job-1.odb,Step-1,Increment      1: Step Time =    1.000,"P-1-1",         16478,   56.5418E-03,   190.787E-03,            0.,NA,NA,"",   993.538E+03,   993.773E+03,   993.773E+03
C:/temp/Job-1.odb,Step-1,Increment      1: Step Time =    1.000,"P-1-1",         16479,   52.7692E-03,   191.894E-03,            0.,NA,NA,"",   995.527E+03,   995.816E+03,   995.816E+03
C:/temp/Job-1.odb,Step-1,Increment      1: Step Time =    1.000,"P-1-1",         16480,   79.5500E-03,   87.0114E-03,            0.,NA,NA,"",   1.12208E+06,   1.01707E+06,   1.01707E+06
C:/temp/Job-1.odb,Step-1,Increment      1: Step Time =    1.000,"P-1-1",         16481,   83.8995E-03,   81.0494E-03,            0.,NA,NA,"",   1.32012E+06,   1.25733E+06,   1.25733E+06
C:/temp/Job-1.odb,Step-1,Increment      1: Step Time =    1.000,"P-1-1",         16482,   89.0675E-03,   80.2197E-03,            0.,NA,NA,"",   1.35409E+06,   1.36353E+06,   1.36353E+06
C:/temp/Job-1.odb,Step-1,Increment      1: Step Time =    1.000,"P-1-1",         16483,   125.993E-03,   100.466E-03,            0.,NA,NA,"",   522.941E+03,   534.876E+03,   534.876E+03
C:/temp/Job-1.odb,Step-1,Increment      1: Step Time =    1.000,"P-1-1",         16484,   154.167E-03,   189.688E-03,            0.,NA,NA,"",   996.912E+03,   995.892E+03,   995.892E+03
C:/temp/Job-1.odb,Step-1,Increment      1: Step Time =    1.000,"P-1-1",         16485,   155.052E-03,   188.589E-03,            0.,NA,NA,"",   998.508E+03,   997.296E+03,   997.296E+03
C:/temp/Job-1.odb,Step-1,Increment      1: Step Time =    1.000,"P-1-1",         16486,   189.670E-03,   45.7980E-03,            0.,NA,NA,"",   998.872E+03,   1.00262E+06,   1.00262E+06
C:/temp/Job-1.odb,Step-1,Increment      1: Step Time =    1.000,"P-1-1",         16487,   188.580E-03,   44.9072E-03,            0.,NA,NA,"",   999.955E+03,   1.00315E+06,   1.00315E+06
C:/temp/Job-1.odb,Step-1,Increment      1: Step Time =    1.000,"P-1-1",         16488,   8.78098E-03,   10.5386E-03,            0.,NA,NA,"",   1.17307E+06,   1.22398E+06,   1.22398E+06
C:/temp/Job-1.odb,Step-1,Increment      1: Step Time =    1.000,"P-1-1",         16489,   8.83792E-03,   11.7612E-03,            0.,NA,NA,"",   1.15069E+06,   1.20716E+06,   1.20716E+06
C:/temp/Job-1.odb,Step-1,Increment      1: Step Time =    1.000,"P-1-1",         16490,   180.789E-03,   190.998E-03,            0.,NA,NA,"",   999.922E+03,   999.798E+03,   999.798E+03
C:/temp/Job-1.odb,Step-1,Increment      1: Step Time =    1.000,"P-1-1",         16491,   91.8187E-03,   81.2967E-03,            0.,NA,NA,"",   1.39422E+06,   1.44957E+06,   1.44957E+06
C:/temp/Job-1.odb,Step-1,Increment      1: Step Time =    1.000,"P-1-1",         16492,   92.8026E-03,   80.7793E-03,            0.,NA,NA,"",   1.37432E+06,   1.45159E+06,   1.45159E+06
C:/temp/Job-1.odb,Step-1,Increment      1: Step Time =    1.000,"P-1-1",         16493,   118.131E-03,   114.199E-03,            0.,NA,NA,"",   1.26049E+06,   1.12566E+06,   1.12566E+06
C:/temp/Job-1.odb,Step-1,Increment      1: Step Time =    1.000,"P-1-1",         16494,   101.554E-03,   123.457E-03,            0.,NA,NA,"",   1.19107E+06,   1.31428E+06,   1.31428E+06
C:/temp/Job-1.odb,Step-1,Increment      1: Step Time =    1.000,"P-1-1",         16495,   191.829E-03,   133.045E-03,            0.,NA,NA,"",   985.440E+03,   1.00060E+06,   1.00060E+06
C:/temp/Job-1.odb,Step-1,Increment      1: Step Time =    1.000,"P-1-1",         16496,   190.751E-03,   131.236E-03,            0.,NA,NA,"",   985.044E+03,   1.00053E+06,   1.00053E+06
C:/temp/Job-1.odb,Step-1,Increment      1: Step Time =    1.000,"P-1-1",         16497,   190.056E-03,   130.444E-03,            0.,NA,NA,"",   985.007E+03,   1.00045E+06,   1.00045E+06
C:/temp/Job-1.odb,Step-1,Increment      1: Step Time =    1.000,"P-1-1",         16498,   189.088E-03,   129.896E-03,            0.,NA,NA,"",   985.277E+03,   1.00036E+06,   1.00036E+06
C:/temp/Job-1.odb,Step-1,Increment      1: Step Time =    1.000,"P-1-1",         16499,   66.7836E-03,   191.571E-03,            0.,NA,NA,"",   975.679E+03,   975.922E+03,   975.922E+03
C:/temp/Job-1.odb,Step-1,Increment      1: Step Time =    1.000,"P-1-1",         16500,   68.7202E-03,   190.683E-03,            0.,NA,NA,"",   976.652E+03,   976.915E+03,   976.915E+03
C:/temp/Job-1.odb,Step-1,Increment      1: Step Time =    1.000,"P-1-1",         16501,   69.5503E-03,   190.060E-03,            0.,NA,NA,"",   977.716E+03,   978.062E+03,   978.062E+03
C:/temp/Job-1.odb,Step-1,Increment      1: Step Time =    1.000,"P-1-1",         16502,   70.1209E-03,   189.149E-03,            0.,NA,NA,"",   980.127E+03,   980.607E+03,   980.607E+03
C:/temp/Job-1.odb,Step-1,Increment      1: Step Time =    1.000,"P-1-1",         16503,   190.996E-03,   76.9689E-03,            0.,NA,NA,"",   978.407E+03,   999.009E+03,   999.009E+03
C:/temp/Job-1.odb,Step-1,Increment      1: Step Time =    1.000,"P-1-1",         16504,   123.184E-03,   190.971E-03,            0.,NA,NA,"",   969.261E+03,   969.514E+03,   969.514E+03
C:/temp/Job-1.odb,Step-1,Increment      1: Step Time =    1.000,"P-1-1",         16505,   103.970E-03,   188.439E-03,            0.,NA,NA,"",   961.905E+03,   964.201E+03,   964.201E+03
C:/temp/Job-1.odb,Step-1,Increment      1: Step Time =    1.000,"P-1-1",         16506,   71.3035E-03,   103.562E-03,            0.,NA,NA,"",   609.889E+03,   638.711E+03,   638.711E+03
C:/temp/Job-1.odb,Step-1,Increment      1: Step Time =    1.000,"P-1-1",         16507,   189.608E-03,   22.9306E-03,            0.,NA,NA,"",   1.00093E+06,   1.00099E+06,   1.00099E+06
C:/temp/Job-1.odb,Step-1,Increment      1: Step Time =    1.000,"P-1-1",         16508,   187.020E-03,   177.154E-03,            0.,NA,NA,"",   1.00154E+06,   1.00151E+06,   1.00151E+06
C:/temp/Job-1.odb,Step-1,Increment      1: Step Time =    1.000,"P-1-1",         16509,   166.635E-03,   189.322E-03,            0.,NA,NA,"",   1.00005E+06,   999.370E+03,   999.370E+03
C:/temp/Job-1.odb,Step-1,Increment      1: Step Time =    1.000,"P-1-1",         16510,   81.1985E-03,   189.022E-03,            0.,NA,NA,"",   968.366E+03,   969.681E+03,   969.681E+03
C:/temp/Job-1.odb,Step-1,Increment      1: Step Time =    1.000,"P-1-1",         16511,   189.266E-03,   33.3848E-03,            0.,NA,NA,"",   1.00117E+06,   1.00207E+06,   1.00207E+06
C:/temp/Job-1.odb,Step-1,Increment      1: Step Time =    1.000,"P-1-1",         16512,   93.2625E-03,   81.7018E-03,            0.,NA,NA,"",   1.41785E+06,   1.50853E+06,   1.50853E+06
C:/temp/Job-1.odb,Step-1,Increment      1: Step Time =    1.000,"P-1-1",         16513,   92.9029E-03,   81.8812E-03,            0.,NA,NA,"",   1.41825E+06,   1.49967E+06,   1.49967E+06
C:/temp/Job-1.odb,Step-1,Increment      1: Step Time =    1.000,"P-1-1",         16514,   92.9517E-03,   82.1505E-03,            0.,NA,NA,"",   1.43524E+06,   1.51640E+06,   1.51640E+06
C:/temp/Job-1.odb,Step-1,Increment      1: Step Time =    1.000,"P-1-1",         16515,   101.581E-03,   81.5182E-03,            0.,NA,NA,"",   1.43655E+06,   1.58390E+06,   1.58390E+06
C:/temp/Job-1.odb,Step-1,Increment      1: Step Time =    1.000,"P-1-1",         16516,   101.779E-03,   82.2203E-03,            0.,NA,NA,"",   1.48891E+06,   1.63861E+06,   1.63861E+06
C:/temp/Job-1.odb,Step-1,Increment      1: Step Time =    1.000,"P-1-1",         16517,   188.263E-03,   124.987E-03,            0.,NA,NA,"",   981.860E+03,   999.105E+03,   999.105E+03
C:/temp/Job-1.odb,Step-1,Increment      1: Step Time =    1.000,"P-1-1",         16518,   160.256E-03,   188.028E-03,            0.,NA,NA,"",   1.00020E+06,   999.076E+03,   999.076E+03
C:/temp/Job-1.odb,Step-1,Increment      1: Step Time =    1.000,"P-1-1",         16519,   74.8462E-03,   188.525E-03,            0.,NA,NA,"",   976.750E+03,   977.534E+03,   977.534E+03
C:/temp/Job-1.odb,Step-1,Increment      1: Step Time =    1.000,"P-1-1",         16520,   188.063E-03,   39.7987E-03,            0.,NA,NA,"",   1.00119E+06,   1.00305E+06,   1.00305E+06
C:/temp/Job-1.odb,Step-1,Increment      1: Step Time =    1.000,"P-1-1",         16521,   125.030E-03,   93.2146E-03,            0.,NA,NA,"",   753.945E+03,   705.252E+03,   705.252E+03
C:/temp/Job-1.odb,Step-1,Increment      1: Step Time =    1.000,"P-1-1",         16522,   99.0524E-03,   75.0295E-03,            0.,NA,NA,"",   1.15232E+06,   1.26856E+06,   1.26856E+06
C:/temp/Job-1.odb,Step-1,Increment      1: Step Time =    1.000,"P-1-1",         16523,   129.880E-03,   189.664E-03,            0.,NA,NA,"",   979.420E+03,   979.100E+03,   979.100E+03
C:/temp/Job-1.odb,Step-1,Increment      1: Step Time =    1.000,"P-1-1",         16524,   189.534E-03,   70.2358E-03,            0.,NA,NA,"",   984.896E+03,   1.00036E+06,   1.00036E+06
C:/temp/Job-1.odb,Step-1,Increment      1: Step Time =    1.000,"P-1-1",         16525,   76.0034E-03,   85.8842E-03,            0.,NA,NA,"",   1.06910E+06,   997.355E+03,   997.355E+03
C:/temp/Job-1.odb,Step-1,Increment      1: Step Time =    1.000,"P-1-1",         16526,   93.2182E-03,   82.1645E-03,            0.,NA,NA,"",   1.44308E+06,   1.53255E+06,   1.53255E+06
C:/temp/Job-1.odb,Step-1,Increment      1: Step Time =    1.000,"P-1-1",         16527,   90.9857E-03,   81.5170E-03,            0.,NA,NA,"",   1.40367E+06,   1.44061E+06,   1.44061E+06
C:/temp/Job-1.odb,Step-1,Increment      1: Step Time =    1.000,"P-1-1",         16528,   126.865E-03,   89.9383E-03,            0.,NA,NA,"",   908.395E+03,   847.398E+03,   847.398E+03
C:/temp/Job-1.odb,Step-1,Increment      1: Step Time =    1.000,"P-1-1",         16529,   102.141E-03,   81.6256E-03,            0.,NA,NA,"",   1.43746E+06,   1.58295E+06,   1.58295E+06
C:/temp/Job-1.odb,Step-1,Increment      1: Step Time =    1.000,"P-1-1",         16530,   102.073E-03,   82.0447E-03,            0.,NA,NA,"",   1.46626E+06,   1.61284E+06,   1.61284E+06
C:/temp/Job-1.odb,Step-1,Increment      1: Step Time =    1.000,"P-1-1",         16531,   102.508E-03,   81.8680E-03,            0.,NA,NA,"",   1.44782E+06,   1.59329E+06,   1.59329E+06
C:/temp/Job-1.odb,Step-1,Increment      1: Step Time =    1.000,"P-1-1",         16532,   93.5252E-03,   82.3310E-03,            0.,NA,NA,"",   1.45871E+06,   1.55237E+06,   1.55237E+06
C:/temp/Job-1.odb,Step-1,Increment      1: Step Time =    1.000,"P-1-1",         16533,   93.3291E-03,   82.4842E-03,            0.,NA,NA,"",   1.45920E+06,   1.54964E+06,   1.54964E+06
C:/temp/Job-1.odb,Step-1,Increment      1: Step Time =    1.000,"P-1-1",         16534,   93.3690E-03,   82.6452E-03,            0.,NA,NA,"",   1.46974E+06,   1.55872E+06,   1.55872E+06
C:/temp/Job-1.odb,Step-1,Increment      1: Step Time =    1.000,"P-1-1",         16535,   93.5701E-03,   82.6755E-03,            0.,NA,NA,"",   1.48172E+06,   1.57386E+06,   1.57386E+06
C:/temp/Job-1.odb,Step-1,Increment      1: Step Time =    1.000,"P-1-1",         16536,   7.40200E-03,   36.5452E-03,            0.,NA,NA,"",   923.506E+03,   1.01807E+06,   1.01807E+06
C:/temp/Job-1.odb,Step-1,Increment      1: Step Time =    1.000,"P-1-1",         16537,   10.3383E-03,   6.68059E-03,            0.,NA,NA,"",   1.22185E+06,   1.24514E+06,   1.24514E+06
C:/temp/Job-1.odb,Step-1,Increment      1: Step Time =    1.000,"P-1-1",         16538,   7.34080E-03,   187.461E-03,            0.,NA,NA,"",   1.13345E+06,   1.20195E+06,   1.20195E+06
C:/temp/Job-1.odb,Step-1,Increment      1: Step Time =    1.000,"P-1-1",         16539,   187.134E-03,   96.3045E-03,            0.,NA,NA,"",   968.470E+03,   992.574E+03,   992.574E+03
C:/temp/Job-1.odb,Step-1,Increment      1: Step Time =    1.000,"P-1-1",         16540,   190.674E-03,   69.0076E-03,            0.,NA,NA,"",   984.903E+03,   1.00046E+06,   1.00046E+06
C:/temp/Job-1.odb,Step-1,Increment      1: Step Time =    1.000,"P-1-1",         16541,   131.076E-03,   190.777E-03,            0.,NA,NA,"",   978.198E+03,   977.888E+03,   977.888E+03
C:/temp/Job-1.odb,Step-1,Increment      1: Step Time =    1.000,"P-1-1",         16542,   10.8170E-03,   7.70666E-03,            0.,NA,NA,"",   1.20473E+06,   1.23279E+06,   1.23279E+06
C:/temp/Job-1.odb,Step-1,Increment      1: Step Time =    1.000,"P-1-1",         16543,   65.1074E-03,   191.304E-03,            0.,NA,NA,"",   978.850E+03,   978.956E+03,   978.956E+03
C:/temp/Job-1.odb,Step-1,Increment      1: Step Time =    1.000,"P-1-1",         16544,   86.4142E-03,   113.646E-03,            0.,NA,NA,"",   1.33385E+06,   1.24003E+06,   1.24003E+06
C:/temp/Job-1.odb,Step-1,Increment      1: Step Time =    1.000,"P-1-1",         16545,   85.4912E-03,   113.943E-03,            0.,NA,NA,"",   1.32615E+06,   1.22306E+06,   1.22306E+06
C:/temp/Job-1.odb,Step-1,Increment      1: Step Time =    1.000,"P-1-1",         16546,   190.519E-03,   67.8824E-03,            0.,NA,NA,"",   986.018E+03,   1.00071E+06,   1.00071E+06
C:/temp/Job-1.odb,Step-1,Increment      1: Step Time =    1.000,"P-1-1",         16547,   190.336E-03,   66.6970E-03,            0.,NA,NA,"",   987.052E+03,   1.00097E+06,   1.00097E+06
C:/temp/Job-1.odb,Step-1,Increment      1: Step Time =    1.000,"P-1-1",         16548,   190.759E-03,   78.7053E-03,            0.,NA,NA,"",   977.323E+03,   998.722E+03,   998.722E+03
C:/temp/Job-1.odb,Step-1,Increment      1: Step Time =    1.000,"P-1-1",         16549,   191.423E-03,   134.562E-03,            0.,NA,NA,"",   986.924E+03,   1.00090E+06,   1.00090E+06
C:/temp/Job-1.odb,Step-1,Increment      1: Step Time =    1.000,"P-1-1",         16550,   132.190E-03,   190.619E-03,            0.,NA,NA,"",   979.835E+03,   979.427E+03,   979.427E+03
C:/temp/Job-1.odb,Step-1,Increment      1: Step Time =    1.000,"P-1-1",         16551,   133.371E-03,   190.421E-03,            0.,NA,NA,"",   981.309E+03,   980.795E+03,   980.795E+03
C:/temp/Job-1.odb,Step-1,Increment      1: Step Time =    1.000,"P-1-1",         16552,   121.455E-03,   190.613E-03,            0.,NA,NA,"",   968.360E+03,   968.691E+03,   968.691E+03
C:/temp/Job-1.odb,Step-1,Increment      1: Step Time =    1.000,"P-1-1",         16553,   189.509E-03,   116.972E-03,            0.,NA,NA,"",   974.795E+03,   997.315E+03,   997.315E+03
C:/temp/Job-1.odb,Step-1,Increment      1: Step Time =    1.000,"P-1-1",         16554,   76.1374E-03,   187.607E-03,            0.,NA,NA,"",   978.609E+03,   979.678E+03,   979.678E+03
C:/temp/Job-1.odb,Step-1,Increment      1: Step Time =    1.000,"P-1-1",         16555,   102.677E-03,   82.0742E-03,            0.,NA,NA,"",   1.46557E+06,   1.60950E+06,   1.60950E+06
C:/temp/Job-1.odb,Step-1,Increment      1: Step Time =    1.000,"P-1-1",         16556,   102.578E-03,   82.2560E-03,            0.,NA,NA,"",   1.47882E+06,   1.62436E+06,   1.62436E+06
C:/temp/Job-1.odb,Step-1,Increment      1: Step Time =    1.000,"P-1-1",         16557,   102.350E-03,   82.2144E-03,            0.,NA,NA,"",   1.47305E+06,   1.62025E+06,   1.62025E+06
C:/temp/Job-1.odb,Step-1,Increment      1: Step Time =    1.000,"P-1-1",         16558,   80.9828E-03,   108.687E-03,            0.,NA,NA,"",   931.998E+03,   802.689E+03,   802.689E+03
C:/temp/Job-1.odb,Step-1,Increment      1: Step Time =    1.000,"P-1-1",         16559,   187.197E-03,   38.2987E-03,            0.,NA,NA,"",   1.00194E+06,   1.00335E+06,   1.00335E+06
C:/temp/Job-1.odb,Step-1,Increment      1: Step Time =    1.000,"P-1-1",         16560,   187.321E-03,   123.577E-03,            0.,NA,NA,"",   981.264E+03,   998.448E+03,   998.448E+03
C:/temp/Job-1.odb,Step-1,Increment      1: Step Time =    1.000,"P-1-1",         16561,   161.795E-03,   187.184E-03,            0.,NA,NA,"",   1.00122E+06,   1.00000E+06,   1.00000E+06
C:/temp/Job-1.odb,Step-1,Increment      1: Step Time =    1.000,"P-1-1",         16562,   190.545E-03,   64.2603E-03,            0.,NA,NA,"",   988.654E+03,   1.00126E+06,   1.00126E+06
C:/temp/Job-1.odb,Step-1,Increment      1: Step Time =    1.000,"P-1-1",         16563,   67.3695E-03,   190.079E-03,            0.,NA,NA,"",   980.510E+03,   980.855E+03,   980.855E+03
C:/temp/Job-1.odb,Step-1,Increment      1: Step Time =    1.000,"P-1-1",         16564,   82.4243E-03,   114.577E-03,            0.,NA,NA,"",   1.24975E+06,   1.13976E+06,   1.13976E+06
C:/temp/Job-1.odb,Step-1,Increment      1: Step Time =    1.000,"P-1-1",         16565,   111.804E-03,   121.201E-03,            0.,NA,NA,"",   1.33609E+06,   1.33288E+06,   1.33288E+06
C:/temp/Job-1.odb,Step-1,Increment      1: Step Time =    1.000,"P-1-1",         16566,   112.308E-03,   76.7729E-03,            0.,NA,NA,"",   1.29692E+06,   1.29692E+06,   1.29692E+06
C:/temp/Job-1.odb,Step-1,Increment      1: Step Time =    1.000,"P-1-1",         16567,   135.838E-03,   190.534E-03,            0.,NA,NA,"",   983.448E+03,   982.821E+03,   982.821E+03
C:/temp/Job-1.odb,Step-1,Increment      1: Step Time =    1.000,"P-1-1",         16568,   190.315E-03,   132.628E-03,            0.,NA,NA,"",   986.395E+03,   1.00077E+06,   1.00077E+06
C:/temp/Job-1.odb,Step-1,Increment      1: Step Time =    1.000,"P-1-1",         16569,   188.643E-03,   68.8345E-03,            0.,NA,NA,"",   986.846E+03,   1.00081E+06,   1.00081E+06
C:/temp/Job-1.odb,Step-1,Increment      1: Step Time =    1.000,"P-1-1",         16570,   131.260E-03,   188.803E-03,            0.,NA,NA,"",   982.749E+03,   982.244E+03,   982.244E+03
C:/temp/Job-1.odb,Step-1,Increment      1: Step Time =    1.000,"P-1-1",         16571,   102.121E-03,   185.375E-03,            0.,NA,NA,"",   969.896E+03,   973.487E+03,   973.487E+03
C:/temp/Job-1.odb,Step-1,Increment      1: Step Time =    1.000,"P-1-1",         16572,   76.0697E-03,   107.580E-03,            0.,NA,NA,"",   774.320E+03,   731.415E+03,   731.415E+03
C:/temp/Job-1.odb,Step-1,Increment      1: Step Time =    1.000,"P-1-1",         16573,   186.327E-03,   98.0524E-03,            0.,NA,NA,"",   968.058E+03,   991.654E+03,   991.654E+03
C:/temp/Job-1.odb,Step-1,Increment      1: Step Time =    1.000,"P-1-1",         16574,   123.797E-03,   189.134E-03,            0.,NA,NA,"",   974.562E+03,   974.848E+03,   974.848E+03
C:/temp/Job-1.odb,Step-1,Increment      1: Step Time =    1.000,"P-1-1",         16575,   189.083E-03,   76.4592E-03,            0.,NA,NA,"",   980.095E+03,   998.754E+03,   998.754E+03
C:/temp/Job-1.odb,Step-1,Increment      1: Step Time =    1.000,"P-1-1",         16576,   190.108E-03,   190.942E-03,            0.,NA,NA,"",   999.954E+03,   999.904E+03,   999.904E+03
C:/temp/Job-1.odb,Step-1,Increment      1: Step Time =    1.000,"P-1-1",         16577,   189.666E-03,   24.7284E-03,            0.,NA,NA,"",   1.00101E+06,   1.00115E+06,   1.00115E+06
C:/temp/Job-1.odb,Step-1,Increment      1: Step Time =    1.000,"P-1-1",         16578,   115.800E-03,   118.292E-03,            0.,NA,NA,"",   1.34752E+06,   1.26339E+06,   1.26339E+06
C:/temp/Job-1.odb,Step-1,Increment      1: Step Time =    1.000,"P-1-1",         16579,   116.019E-03,   119.271E-03,            0.,NA,NA,"",   1.33990E+06,   1.26478E+06,   1.26478E+06
C:/temp/Job-1.odb,Step-1,Increment      1: Step Time =    1.000,"P-1-1",         16580,   188.999E-03,   161.280E-03,            0.,NA,NA,"",   1.00087E+06,   1.00265E+06,   1.00265E+06
C:/temp/Job-1.odb,Step-1,Increment      1: Step Time =    1.000,"P-1-1",         16581,   174.665E-03,   189.655E-03,            0.,NA,NA,"",   1.00026E+06,   999.910E+03,   999.910E+03
C:/temp/Job-1.odb,Step-1,Increment      1: Step Time =    1.000,"P-1-1",         16582,   38.4652E-03,   188.956E-03,            0.,NA,NA,"",   1.03586E+06,   1.03916E+06,   1.03916E+06
C:/temp/Job-1.odb,Step-1,Increment      1: Step Time =    1.000,"P-1-1",         16583,   98.0305E-03,   124.873E-03,            0.,NA,NA,"",   1.15778E+06,   1.27155E+06,   1.27155E+06
C:/temp/Job-1.odb,Step-1,Increment      1: Step Time =    1.000,"P-1-1",         16584,   118.494E-03,   84.4635E-03,            0.,NA,NA,"",   1.29678E+06,   1.17145E+06,   1.17145E+06
C:/temp/Job-1.odb,Step-1,Increment      1: Step Time =    1.000,"P-1-1",         16585,   164.592E-03,   8.37234E-03,            0.,NA,NA,"",   998.414E+03,   997.916E+03,   997.916E+03
C:/temp/Job-1.odb,Step-1,Increment      1: Step Time =    1.000,"P-1-1",         16586,   69.0322E-03,   189.588E-03,            0.,NA,NA,"",   979.875E+03,   980.277E+03,   980.277E+03
C:/temp/Job-1.odb,Step-1,Increment      1: Step Time =    1.000,"P-1-1",         16587,   69.1805E-03,   188.843E-03,            0.,NA,NA,"",   982.402E+03,   982.862E+03,   982.862E+03
C:/temp/Job-1.odb,Step-1,Increment      1: Step Time =    1.000,"P-1-1",         16588,   69.2795E-03,   187.821E-03,            0.,NA,NA,"",   986.030E+03,   986.591E+03,   986.591E+03
C:/temp/Job-1.odb,Step-1,Increment      1: Step Time =    1.000,"P-1-1",         16589,   137.014E-03,   190.669E-03,            0.,NA,NA,"",   984.211E+03,   983.550E+03,   983.550E+03
C:/temp/Job-1.odb,Step-1,Increment      1: Step Time =    1.000,"P-1-1",         16590,   154.065E-03,   187.766E-03,            0.,NA,NA,"",   999.236E+03,   997.830E+03,   997.830E+03
C:/temp/Job-1.odb,Step-1,Increment      1: Step Time =    1.000,"P-1-1",         16591,   154.856E-03,   186.801E-03,            0.,NA,NA,"",   1.00062E+06,   999.035E+03,   999.035E+03
C:/temp/Job-1.odb,Step-1,Increment      1: Step Time =    1.000,"P-1-1",         16592,   155.435E-03,   186.038E-03,            0.,NA,NA,"",   1.00158E+06,   999.863E+03,   999.863E+03
C:/temp/Job-1.odb,Step-1,Increment      1: Step Time =    1.000,"P-1-1",         16593,   189.326E-03,   172.570E-03,            0.,NA,NA,"",   1.00122E+06,   1.00151E+06,   1.00151E+06
C:/temp/Job-1.odb,Step-1,Increment      1: Step Time =    1.000,"P-1-1",         16594,   189.594E-03,   131.018E-03,            0.,NA,NA,"",   985.756E+03,   1.00056E+06,   1.00056E+06
C:/temp/Job-1.odb,Step-1,Increment      1: Step Time =    1.000,"P-1-1",         16595,   188.806E-03,   130.911E-03,            0.,NA,NA,"",   986.315E+03,   1.00061E+06,   1.00061E+06
C:/temp/Job-1.odb,Step-1,Increment      1: Step Time =    1.000,"P-1-1",         16596,   187.711E-03,   130.813E-03,            0.,NA,NA,"",   987.210E+03,   1.00072E+06,   1.00072E+06
C:/temp/Job-1.odb,Step-1,Increment      1: Step Time =    1.000,"P-1-1",         16597,   190.730E-03,   63.1116E-03,            0.,NA,NA,"",   989.274E+03,   1.00135E+06,   1.00135E+06
C:/temp/Job-1.odb,Step-1,Increment      1: Step Time =    1.000,"P-1-1",         16598,   187.746E-03,   45.8584E-03,            0.,NA,NA,"",   1.00042E+06,   1.00364E+06,   1.00364E+06
C:/temp/Job-1.odb,Step-1,Increment      1: Step Time =    1.000,"P-1-1",         16599,   186.792E-03,   45.0649E-03,            0.,NA,NA,"",   1.00139E+06,   1.00412E+06,   1.00412E+06
C:/temp/Job-1.odb,Step-1,Increment      1: Step Time =    1.000,"P-1-1",         16600,   186.042E-03,   44.4853E-03,            0.,NA,NA,"",   1.00207E+06,   1.00447E+06,   1.00447E+06
C:/temp/Job-1.odb,Step-1,Increment      1: Step Time =    1.000,"P-1-1",         16601,   176.613E-03,   187.810E-03,            0.,NA,NA,"",   1.00089E+06,   1.00050E+06,   1.00050E+06
C:/temp/Job-1.odb,Step-1,Increment      1: Step Time =    1.000,"P-1-1",         16602,   15.6089E-03,   7.41657E-03,            0.,NA,NA,"",   1.15233E+06,   1.16594E+06,   1.16594E+06
C:/temp/Job-1.odb,Step-1,Increment      1: Step Time =    1.000,"P-1-1",         16603,   189.474E-03,   56.0150E-03,            0.,NA,NA,"",   994.749E+03,   1.00248E+06,   1.00248E+06
C:/temp/Job-1.odb,Step-1,Increment      1: Step Time =    1.000,"P-1-1",         16604,   188.214E-03,   179.856E-03,            0.,NA,NA,"",   1.00100E+06,   1.00096E+06,   1.00096E+06
C:/temp/Job-1.odb,Step-1,Increment      1: Step Time =    1.000,"P-1-1",         16605,   144.156E-03,   189.926E-03,            0.,NA,NA,"",   991.287E+03,   990.297E+03,   990.297E+03
C:/temp/Job-1.odb,Step-1,Increment      1: Step Time =    1.000,"P-1-1",         16606,   188.656E-03,   48.6645E-03,            0.,NA,NA,"",   998.810E+03,   1.00319E+06,   1.00319E+06
C:/temp/Job-1.odb,Step-1,Increment      1: Step Time =    1.000,"P-1-1",         16607,   151.241E-03,   188.715E-03,            0.,NA,NA,"",   997.034E+03,   995.774E+03,   995.774E+03
C:/temp/Job-1.odb,Step-1,Increment      1: Step Time =    1.000,"P-1-1",         16608,   189.632E-03,   28.9035E-03,            0.,NA,NA,"",   1.00113E+06,   1.00156E+06,   1.00156E+06
C:/temp/Job-1.odb,Step-1,Increment      1: Step Time =    1.000,"P-1-1",         16609,   190.327E-03,   32.0649E-03,            0.,NA,NA,"",   1.00079E+06,   1.00159E+06,   1.00159E+06
C:/temp/Job-1.odb,Step-1,Increment      1: Step Time =    1.000,"P-1-1",         16610,   84.4830E-03,   120.027E-03,            0.,NA,NA,"",   1.31928E+06,   1.27064E+06,   1.27064E+06
C:/temp/Job-1.odb,Step-1,Increment      1: Step Time =    1.000,"P-1-1",         16611,   192.585E-03,   20.8444E-03,            0.,NA,NA,"",   1.00047E+06,   1.00043E+06,   1.00043E+06
C:/temp/Job-1.odb,Step-1,Increment      1: Step Time =    1.000,"P-1-1",         16612,   104.627E-03,   185.623E-03,            0.,NA,NA,"",   970.046E+03,   973.355E+03,   973.355E+03
C:/temp/Job-1.odb,Step-1,Increment      1: Step Time =    1.000,"P-1-1",         16613,   189.873E-03,   147.770E-03,            0.,NA,NA,"",   996.310E+03,   1.00250E+06,   1.00250E+06
C:/temp/Job-1.odb,Step-1,Increment      1: Step Time =    1.000,"P-1-1",         16614,   189.983E-03,   146.577E-03,            0.,NA,NA,"",   995.714E+03,   1.00244E+06,   1.00244E+06
C:/temp/Job-1.odb,Step-1,Increment      1: Step Time =    1.000,"P-1-1",         16615,   189.332E-03,   142.086E-03,            0.,NA,NA,"",   993.805E+03,   1.00238E+06,   1.00238E+06
C:/temp/Job-1.odb,Step-1,Increment      1: Step Time =    1.000,"P-1-1",         16616,   13.1097E-03,   188.197E-03,            0.,NA,NA,"",   1.14304E+06,   1.17970E+06,   1.17970E+06
C:/temp/Job-1.odb,Step-1,Increment      1: Step Time =    1.000,"P-1-1",         16617,   82.6082E-03,   79.3236E-03,            0.,NA,NA,"",   1.29087E+06,   1.23577E+06,   1.23577E+06
C:/temp/Job-1.odb,Step-1,Increment      1: Step Time =    1.000,"P-1-1",         16618,   88.7717E-03,   78.7405E-03,            0.,NA,NA,"",   1.32183E+06,   1.33337E+06,   1.33337E+06
C:/temp/Job-1.odb,Step-1,Increment      1: Step Time =    1.000,"P-1-1",         16619,   90.0967E-03,   78.4699E-03,            0.,NA,NA,"",   1.31733E+06,   1.35023E+06,   1.35023E+06
C:/temp/Job-1.odb,Step-1,Increment      1: Step Time =    1.000,"P-1-1",         16620,   113.427E-03,   121.757E-03,            0.,NA,NA,"",   1.32556E+06,   1.30209E+06,   1.30209E+06
C:/temp/Job-1.odb,Step-1,Increment      1: Step Time =    1.000,"P-1-1",         16621,   115.419E-03,   120.803E-03,            0.,NA,NA,"",   1.33662E+06,   1.28158E+06,   1.28158E+06
C:/temp/Job-1.odb,Step-1,Increment      1: Step Time =    1.000,"P-1-1",         16622,   17.1729E-03,   7.48027E-03,            0.,NA,NA,"",   1.13692E+06,   1.14841E+06,   1.14841E+06
C:/temp/Job-1.odb,Step-1,Increment      1: Step Time =    1.000,"P-1-1",         16623,   74.1864E-03,   6.86993E-03,            0.,NA,NA,"",   960.627E+03,   960.848E+03,   960.848E+03
C:/temp/Job-1.odb,Step-1,Increment      1: Step Time =    1.000,"P-1-1",         16624,   101.381E-03,   74.5181E-03,            0.,NA,NA,"",   1.14188E+06,   1.25348E+06,   1.25348E+06
C:/temp/Job-1.odb,Step-1,Increment      1: Step Time =    1.000,"P-1-1",         16625,   39.4669E-03,   187.696E-03,            0.,NA,NA,"",   1.03663E+06,   1.04030E+06,   1.04030E+06
C:/temp/Job-1.odb,Step-1,Increment      1: Step Time =    1.000,"P-1-1",         16626,   169.800E-03,   190.681E-03,            0.,NA,NA,"",   999.648E+03,   999.207E+03,   999.207E+03
C:/temp/Job-1.odb,Step-1,Increment      1: Step Time =    1.000,"P-1-1",         16627,   161.949E-03,   7.55202E-03,            0.,NA,NA,"",   997.237E+03,   996.775E+03,   996.775E+03
C:/temp/Job-1.odb,Step-1,Increment      1: Step Time =    1.000,"P-1-1",         16628,   159.949E-03,   6.92335E-03,            0.,NA,NA,"",   996.229E+03,   995.792E+03,   995.792E+03
C:/temp/Job-1.odb,Step-1,Increment      1: Step Time =    1.000,"P-1-1",         16629,   157.475E-03,   6.83226E-03,            0.,NA,NA,"",   995.115E+03,   994.662E+03,   994.662E+03
C:/temp/Job-1.odb,Step-1,Increment      1: Step Time =    1.000,"P-1-1",         16630,   153.337E-03,   7.16365E-03,            0.,NA,NA,"",   993.332E+03,   992.793E+03,   992.793E+03
C:/temp/Job-1.odb,Step-1,Increment      1: Step Time =    1.000,"P-1-1",         16631,   127.079E-03,   7.64344E-03,            0.,NA,NA,"",   970.060E+03,   970.009E+03,   970.009E+03
C:/temp/Job-1.odb,Step-1,Increment      1: Step Time =    1.000,"P-1-1",         16632,   99.8663E-03,   7.51311E-03,            0.,NA,NA,"",   947.974E+03,   949.044E+03,   949.044E+03
C:/temp/Job-1.odb,Step-1,Increment      1: Step Time =    1.000,"P-1-1",         16633,   99.1747E-03,   8.42036E-03,            0.,NA,NA,"",   951.113E+03,   952.469E+03,   952.469E+03
C:/temp/Job-1.odb,Step-1,Increment      1: Step Time =    1.000,"P-1-1",         16634,   186.008E-03,   94.9149E-03,            0.,NA,NA,"",   968.565E+03,   991.439E+03,   991.439E+03
C:/temp/Job-1.odb,Step-1,Increment      1: Step Time =    1.000,"P-1-1",         16635,   178.185E-03,   190.052E-03,            0.,NA,NA,"",   1.00014E+06,   999.926E+03,   999.926E+03
C:/temp/Job-1.odb,Step-1,Increment      1: Step Time =    1.000,"P-1-1",         16636,   186.660E-03,   170.851E-03,            0.,NA,NA,"",   1.00228E+06,   1.00251E+06,   1.00251E+06
C:/temp/Job-1.odb,Step-1,Increment      1: Step Time =    1.000,"P-1-1",         16637,   187.829E-03,   160.332E-03,            0.,NA,NA,"",   1.00140E+06,   1.00318E+06,   1.00318E+06
C:/temp/Job-1.odb,Step-1,Increment      1: Step Time =    1.000,"P-1-1",         16638,   46.5358E-03,   186.248E-03,            0.,NA,NA,"",   1.02570E+06,   1.02805E+06,   1.02805E+06
C:/temp/Job-1.odb,Step-1,Increment      1: Step Time =    1.000,"P-1-1",         16639,   187.735E-03,   22.7707E-03,            0.,NA,NA,"",   1.00134E+06,   1.00133E+06,   1.00133E+06
C:/temp/Job-1.odb,Step-1,Increment      1: Step Time =    1.000,"P-1-1",         16640,   69.2144E-03,   104.120E-03,            0.,NA,NA,"",   655.967E+03,   687.765E+03,   687.765E+03
C:/temp/Job-1.odb,Step-1,Increment      1: Step Time =    1.000,"P-1-1",         16641,   114.221E-03,   80.4195E-03,            0.,NA,NA,"",   1.35188E+06,   1.29873E+06,   1.29873E+06
C:/temp/Job-1.odb,Step-1,Increment      1: Step Time =    1.000,"P-1-1",         16642,   118.367E-03,   83.1609E-03,            0.,NA,NA,"",   1.30224E+06,   1.19184E+06,   1.19184E+06
C:/temp/Job-1.odb,Step-1,Increment      1: Step Time =    1.000,"P-1-1",         16643,   187.638E-03,   32.2880E-03,            0.,NA,NA,"",   1.00195E+06,   1.00255E+06,   1.00255E+06
C:/temp/Job-1.odb,Step-1,Increment      1: Step Time =    1.000,"P-1-1",         16644,   167.677E-03,   187.772E-03,            0.,NA,NA,"",   1.00112E+06,   1.00029E+06,   1.00029E+06
C:/temp/Job-1.odb,Step-1,Increment      1: Step Time =    1.000,"P-1-1",         16645,   74.4139E-03,   186.901E-03,            0.,NA,NA,"",   982.747E+03,   983.824E+03,   983.824E+03
C:/temp/Job-1.odb,Step-1,Increment      1: Step Time =    1.000,"P-1-1",         16646,   186.241E-03,   40.2070E-03,            0.,NA,NA,"",   1.00255E+06,   1.00406E+06,   1.00406E+06
C:/temp/Job-1.odb,Step-1,Increment      1: Step Time =    1.000,"P-1-1",         16647,   159.865E-03,   186.179E-03,            0.,NA,NA,"",   1.00207E+06,   1.00058E+06,   1.00058E+06
C:/temp/Job-1.odb,Step-1,Increment      1: Step Time =    1.000,"P-1-1",         16648,   186.498E-03,   125.411E-03,            0.,NA,NA,"",   983.351E+03,   998.914E+03,   998.914E+03
C:/temp/Job-1.odb,Step-1,Increment      1: Step Time =    1.000,"P-1-1",         16649,   111.102E-03,   186.686E-03,            0.,NA,NA,"",   970.121E+03,   972.311E+03,   972.311E+03
C:/temp/Job-1.odb,Step-1,Increment      1: Step Time =    1.000,"P-1-1",         16650,   111.178E-03,   185.137E-03,            0.,NA,NA,"",   974.206E+03,   976.898E+03,   976.898E+03
C:/temp/Job-1.odb,Step-1,Increment      1: Step Time =    1.000,"P-1-1",         16651,   73.9590E-03,   107.542E-03,            0.,NA,NA,"",   755.923E+03,   736.491E+03,   736.491E+03
C:/temp/Job-1.odb,Step-1,Increment      1: Step Time =    1.000,"P-1-1",         16652,   174.973E-03,   188.016E-03,            0.,NA,NA,"",   1.00087E+06,   1.00042E+06,   1.00042E+06
C:/temp/Job-1.odb,Step-1,Increment      1: Step Time =    1.000,"P-1-1",         16653,   186.599E-03,   160.290E-03,            0.,NA,NA,"",   1.00224E+06,   1.00378E+06,   1.00378E+06
C:/temp/Job-1.odb,Step-1,Increment      1: Step Time =    1.000,"P-1-1",         16654,   39.5338E-03,   186.349E-03,            0.,NA,NA,"",   1.03995E+06,   1.04442E+06,   1.04442E+06
C:/temp/Job-1.odb,Step-1,Increment      1: Step Time =    1.000,"P-1-1",         16655,   101.935E-03,   184.416E-03,            0.,NA,NA,"",   972.349E+03,   976.334E+03,   976.334E+03
C:/temp/Job-1.odb,Step-1,Increment      1: Step Time =    1.000,"P-1-1",         16656,   131.962E-03,   189.519E-03,            0.,NA,NA,"",   981.855E+03,   981.358E+03,   981.358E+03
C:/temp/Job-1.odb,Step-1,Increment      1: Step Time =    1.000,"P-1-1",         16657,   8.24561E-03,   187.003E-03,            0.,NA,NA,"",   1.12889E+06,   1.19344E+06,   1.19344E+06
C:/temp/Job-1.odb,Step-1,Increment      1: Step Time =    1.000,"P-1-1",         16658,   184.332E-03,   97.9472E-03,            0.,NA,NA,"",   967.529E+03,   989.431E+03,   989.431E+03
C:/temp/Job-1.odb,Step-1,Increment      1: Step Time =    1.000,"P-1-1",         16659,   189.380E-03,   68.1138E-03,            0.,NA,NA,"",   986.753E+03,   1.00085E+06,   1.00085E+06
C:/temp/Job-1.odb,Step-1,Increment      1: Step Time =    1.000,"P-1-1",         16660,   185.887E-03,   95.9942E-03,            0.,NA,NA,"",   968.274E+03,   991.230E+03,   991.230E+03
C:/temp/Job-1.odb,Step-1,Increment      1: Step Time =    1.000,"P-1-1",         16661,   162.586E-03,   7.90888E-03,            0.,NA,NA,"",   997.583E+03,   997.098E+03,   997.098E+03
C:/temp/Job-1.odb,Step-1,Increment      1: Step Time =    1.000,"P-1-1",         16662,   30.2754E-03,   188.722E-03,            0.,NA,NA,"",   1.06225E+06,   1.06914E+06,   1.06914E+06
C:/temp/Job-1.odb,Step-1,Increment      1: Step Time =    1.000,"P-1-1",         16663,   54.8072E-03,   190.159E-03,            0.,NA,NA,"",   998.437E+03,   998.765E+03,   998.765E+03
C:/temp/Job-1.odb,Step-1,Increment      1: Step Time =    1.000,"P-1-1",         16664,   118.030E-03,   84.1326E-03,            0.,NA,NA,"",   1.31350E+06,   1.19202E+06,   1.19202E+06
C:/temp/Job-1.odb,Step-1,Increment      1: Step Time =    1.000,"P-1-1",         16665,   111.732E-03,   122.701E-03,            0.,NA,NA,"",   1.30465E+06,   1.31042E+06,   1.31042E+06
C:/temp/Job-1.odb,Step-1,Increment      1: Step Time =    1.000,"P-1-1",         16666,   190.291E-03,   137.964E-03,            0.,NA,NA,"",   990.341E+03,   1.00159E+06,   1.00159E+06
C:/temp/Job-1.odb,Step-1,Increment      1: Step Time =    1.000,"P-1-1",         16667,   61.9320E-03,   189.399E-03,            0.,NA,NA,"",   990.665E+03,   990.900E+03,   990.900E+03
C:/temp/Job-1.odb,Step-1,Increment      1: Step Time =    1.000,"P-1-1",         16668,   63.0428E-03,   190.043E-03,            0.,NA,NA,"",   986.653E+03,   986.850E+03,   986.850E+03
C:/temp/Job-1.odb,Step-1,Increment      1: Step Time =    1.000,"P-1-1",         16669,   188.443E-03,   187.554E-03,            0.,NA,NA,"",   1.00022E+06,   1.00015E+06,   1.00015E+06
C:/temp/Job-1.odb,Step-1,Increment      1: Step Time =    1.000,"P-1-1",         16670,   188.925E-03,   131.963E-03,            0.,NA,NA,"",   987.087E+03,   1.00085E+06,   1.00085E+06
C:/temp/Job-1.odb,Step-1,Increment      1: Step Time =    1.000,"P-1-1",         16671,   187.831E-03,   132.091E-03,            0.,NA,NA,"",   988.177E+03,   1.00107E+06,   1.00107E+06
C:/temp/Job-1.odb,Step-1,Increment      1: Step Time =    1.000,"P-1-1",         16672,   186.621E-03,   132.221E-03,            0.,NA,NA,"",   989.335E+03,   1.00131E+06,   1.00131E+06
C:/temp/Job-1.odb,Step-1,Increment      1: Step Time =    1.000,"P-1-1",         16673,   76.9322E-03,   186.639E-03,            0.,NA,NA,"",   981.138E+03,   982.484E+03,   982.484E+03
C:/temp/Job-1.odb,Step-1,Increment      1: Step Time =    1.000,"P-1-1",         16674,   187.738E-03,   24.7177E-03,            0.,NA,NA,"",   1.00154E+06,   1.00160E+06,   1.00160E+06
C:/temp/Job-1.odb,Step-1,Increment      1: Step Time =    1.000,"P-1-1",         16675,   88.3458E-03,   77.1953E-03,            0.,NA,NA,"",   1.29254E+06,   1.30518E+06,   1.30518E+06
C:/temp/Job-1.odb,Step-1,Increment      1: Step Time =    1.000,"P-1-1",         16676,   68.2270E-03,   188.906E-03,            0.,NA,NA,"",   983.494E+03,   983.893E+03,   983.893E+03
C:/temp/Job-1.odb,Step-1,Increment      1: Step Time =    1.000,"P-1-1",         16677,   68.0512E-03,   187.965E-03,            0.,NA,NA,"",   987.251E+03,   987.718E+03,   987.718E+03
C:/temp/Job-1.odb,Step-1,Increment      1: Step Time =    1.000,"P-1-1",         16678,   67.9229E-03,   186.780E-03,            0.,NA,NA,"",   991.374E+03,   991.968E+03,   991.968E+03
C:/temp/Job-1.odb,Step-1,Increment      1: Step Time =    1.000,"P-1-1",         16679,   186.336E-03,   37.6840E-03,            0.,NA,NA,"",   1.00252E+06,   1.00369E+06,   1.00369E+06
C:/temp/Job-1.odb,Step-1,Increment      1: Step Time =    1.000,"P-1-1",         16680,   162.449E-03,   186.348E-03,            0.,NA,NA,"",   1.00198E+06,   1.00066E+06,   1.00066E+06
C:/temp/Job-1.odb,Step-1,Increment      1: Step Time =    1.000,"P-1-1",         16681,   189.068E-03,   30.7743E-03,            0.,NA,NA,"",   1.00132E+06,   1.00190E+06,   1.00190E+06
C:/temp/Job-1.odb,Step-1,Increment      1: Step Time =    1.000,"P-1-1",         16682,   109.151E-03,   125.234E-03,            0.,NA,NA,"",   1.22751E+06,   1.27562E+06,   1.27562E+06
C:/temp/Job-1.odb,Step-1,Increment      1: Step Time =    1.000,"P-1-1",         16683,   78.8588E-03,   81.5077E-03,            0.,NA,NA,"",   1.21704E+06,   1.14239E+06,   1.14239E+06
C:/temp/Job-1.odb,Step-1,Increment      1: Step Time =    1.000,"P-1-1",         16684,   79.9785E-03,   78.1924E-03,            0.,NA,NA,"",   1.24970E+06,   1.19426E+06,   1.19426E+06
C:/temp/Job-1.odb,Step-1,Increment      1: Step Time =    1.000,"P-1-1",         16685,   118.747E-03,   83.9567E-03,            0.,NA,NA,"",   1.29499E+06,   1.17158E+06,   1.17158E+06
C:/temp/Job-1.odb,Step-1,Increment      1: Step Time =    1.000,"P-1-1",         16686,   8.23646E-03,   35.1975E-03,            0.,NA,NA,"",    934.21E+03,   1.02636E+06,   1.02636E+06
C:/temp/Job-1.odb,Step-1,Increment      1: Step Time =    1.000,"P-1-1",         16687,   137.361E-03,   189.484E-03,            0.,NA,NA,"",   986.835E+03,   986.002E+03,   986.002E+03
C:/temp/Job-1.odb,Step-1,Increment      1: Step Time =    1.000,"P-1-1",         16688,   154.064E-03,   185.862E-03,            0.,NA,NA,"",   1.00156E+06,   999.754E+03,   999.754E+03
C:/temp/Job-1.odb,Step-1,Increment      1: Step Time =    1.000,"P-1-1",         16689,   185.840E-03,   45.8159E-03,            0.,NA,NA,"",   1.00201E+06,   1.00466E+06,   1.00466E+06
C:/temp/Job-1.odb,Step-1,Increment      1: Step Time =    1.000,"P-1-1",         16690,   189.588E-03,   62.7569E-03,            0.,NA,NA,"",   990.525E+03,   1.00172E+06,   1.00172E+06
C:/temp/Job-1.odb,Step-1,Increment      1: Step Time =    1.000,"P-1-1",         16691,   6.27984E-03,   181.298E-03,            0.,NA,NA,"",   1.03693E+06,   1.12462E+06,   1.12462E+06
C:/temp/Job-1.odb,Step-1,Increment      1: Step Time =    1.000,"P-1-1",         16692,   50.8210E-03,   190.868E-03,            0.,NA,NA,"",   1.00319E+06,   1.00378E+06,   1.00378E+06
C:/temp/Job-1.odb,Step-1,Increment      1: Step Time =    1.000,"P-1-1",         16693,   49.7520E-03,   189.592E-03,            0.,NA,NA,"",   1.00872E+06,   1.00955E+06,   1.00955E+06
C:/temp/Job-1.odb,Step-1,Increment      1: Step Time =    1.000,"P-1-1",         16694,   188.864E-03,   78.2881E-03,            0.,NA,NA,"",   978.820E+03,   998.248E+03,   998.248E+03
C:/temp/Job-1.odb,Step-1,Increment      1: Step Time =    1.000,"P-1-1",         16695,   189.976E-03,   14.6977E-03,            0.,NA,NA,"",   1.00033E+06,   1.00026E+06,   1.00026E+06
C:/temp/Job-1.odb,Step-1,Increment      1: Step Time =    1.000,"P-1-1",         16696,   189.748E-03,   13.5747E-03,            0.,NA,NA,"",   1.00027E+06,   1.00020E+06,   1.00020E+06
C:/temp/Job-1.odb,Step-1,Increment      1: Step Time =    1.000,"P-1-1",         16697,   187.081E-03,   13.4832E-03,            0.,NA,NA,"",   1.00040E+06,   1.00031E+06,   1.00031E+06
C:/temp/Job-1.odb,Step-1,Increment      1: Step Time =    1.000,"P-1-1",         16698,   122.026E-03,   188.788E-03,            0.,NA,NA,"",   973.814E+03,   974.246E+03,   974.246E+03
C:/temp/Job-1.odb,Step-1,Increment      1: Step Time =    1.000,"P-1-1",         16699,   189.761E-03,   134.098E-03,            0.,NA,NA,"",   988.031E+03,   1.00115E+06,   1.00115E+06
C:/temp/Job-1.odb,Step-1,Increment      1: Step Time =    1.000,"P-1-1",         16700,   143.595E-03,   188.807E-03,            0.,NA,NA,"",   992.712E+03,   991.527E+03,   991.527E+03
C:/temp/Job-1.odb,Step-1,Increment      1: Step Time =    1.000,"P-1-1",         16701,   144.535E-03,   188.119E-03,            0.,NA,NA,"",   994.368E+03,   993.032E+03,   993.032E+03
C:/temp/Job-1.odb,Step-1,Increment      1: Step Time =    1.000,"P-1-1",         16702,   145.293E-03,   187.264E-03,            0.,NA,NA,"",   996.212E+03,   994.693E+03,   994.693E+03
C:/temp/Job-1.odb,Step-1,Increment      1: Step Time =    1.000,"P-1-1",         16703,   189.050E-03,   146.635E-03,            0.,NA,NA,"",   996.495E+03,   1.00286E+06,   1.00286E+06
C:/temp/Job-1.odb,Step-1,Increment      1: Step Time =    1.000,"P-1-1",         16704,   187.757E-03,   144.910E-03,            0.,NA,NA,"",   996.741E+03,   1.00332E+06,   1.00332E+06
C:/temp/Job-1.odb,Step-1,Increment      1: Step Time =    1.000,"P-1-1",         16705,   188.113E-03,   149.057E-03,            0.,NA,NA,"",   998.331E+03,   1.00339E+06,   1.00339E+06
C:/temp/Job-1.odb,Step-1,Increment      1: Step Time =    1.000,"P-1-1",         16706,   186.336E-03,   149.742E-03,            0.,NA,NA,"",   1.00014E+06,   1.00432E+06,   1.00432E+06
C:/temp/Job-1.odb,Step-1,Increment      1: Step Time =    1.000,"P-1-1",         16707,   127.805E-03,   184.255E-03,            0.,NA,NA,"",   990.150E+03,   989.880E+03,   989.880E+03
C:/temp/Job-1.odb,Step-1,Increment      1: Step Time =    1.000,"P-1-1",         16708,   182.526E-03,   13.7598E-03,            0.,NA,NA,"",   1.00082E+06,   1.00061E+06,   1.00061E+06
C:/temp/Job-1.odb,Step-1,Increment      1: Step Time =    1.000,"P-1-1",         16709,   188.122E-03,   56.6558E-03,            0.,NA,NA,"",   995.551E+03,   1.00299E+06,   1.00299E+06
C:/temp/Job-1.odb,Step-1,Increment      1: Step Time =    1.000,"P-1-1",         16710,   187.485E-03,   55.5453E-03,            0.,NA,NA,"",   996.843E+03,   1.00344E+06,   1.00344E+06
C:/temp/Job-1.odb,Step-1,Increment      1: Step Time =    1.000,"P-1-1",         16711,   186.663E-03,   54.5442E-03,            0.,NA,NA,"",   998.145E+03,   1.00394E+06,   1.00394E+06
C:/temp/Job-1.odb,Step-1,Increment      1: Step Time =    1.000,"P-1-1",         16712,   99.7206E-03,   125.641E-03,            0.,NA,NA,"",   1.13770E+06,   1.25046E+06,   1.25046E+06
C:/temp/Job-1.odb,Step-1,Increment      1: Step Time =    1.000,"P-1-1",         16713,   120.618E-03,   115.080E-03,            0.,NA,NA,"",    1.2148E+06,   1.09498E+06,   1.09498E+06
C:/temp/Job-1.odb,Step-1,Increment      1: Step Time =    1.000,"P-1-1",         16714,   67.4138E-03,   189.144E-03,            0.,NA,NA,"",   983.617E+03,   983.979E+03,   983.979E+03
C:/temp/Job-1.odb,Step-1,Increment      1: Step Time =    1.000,"P-1-1",         16715,   187.256E-03,   180.454E-03,            0.,NA,NA,"",   1.00112E+06,   1.00104E+06,   1.00104E+06
C:/temp/Job-1.odb,Step-1,Increment      1: Step Time =    1.000,"P-1-1",         16716,   186.580E-03,   179.631E-03,            0.,NA,NA,"",   1.00135E+06,   1.00126E+06,   1.00126E+06
C:/temp/Job-1.odb,Step-1,Increment      1: Step Time =    1.000,"P-1-1",         16717,   185.589E-03,   179.130E-03,            0.,NA,NA,"",   1.00165E+06,   1.00152E+06,   1.00152E+06
C:/temp/Job-1.odb,Step-1,Increment      1: Step Time =    1.000,"P-1-1",         16718,   129.770E-03,   8.79372E-03,            0.,NA,NA,"",   975.623E+03,   975.398E+03,   975.398E+03
C:/temp/Job-1.odb,Step-1,Increment      1: Step Time =    1.000,"P-1-1",         16719,   105.878E-03,   128.040E-03,            0.,NA,NA,"",   1.13779E+06,   1.21637E+06,   1.21637E+06
C:/temp/Job-1.odb,Step-1,Increment      1: Step Time =    1.000,"P-1-1",         16720,   168.711E-03,   187.556E-03,            0.,NA,NA,"",   1.00125E+06,   1.00045E+06,   1.00045E+06
C:/temp/Job-1.odb,Step-1,Increment      1: Step Time =    1.000,"P-1-1",         16721,   185.120E-03,   175.435E-03,            0.,NA,NA,"",   1.00231E+06,   1.00220E+06,   1.00220E+06
C:/temp/Job-1.odb,Step-1,Increment      1: Step Time =    1.000,"P-1-1",         16722,   187.953E-03,   20.8299E-03,            0.,NA,NA,"",   1.00109E+06,   1.00105E+06,   1.00105E+06
C:/temp/Job-1.odb,Step-1,Increment      1: Step Time =    1.000,"P-1-1",         16723,   156.214E-03,   8.35935E-03,            0.,NA,NA,"",   995.828E+03,   995.153E+03,   995.153E+03
C:/temp/Job-1.odb,Step-1,Increment      1: Step Time =    1.000,"P-1-1",         16724,   160.688E-03,   8.34373E-03,            0.,NA,NA,"",   997.388E+03,   996.801E+03,   996.801E+03
C:/temp/Job-1.odb,Step-1,Increment      1: Step Time =    1.000,"P-1-1",         16725,   161.624E-03,   8.66180E-03,            0.,NA,NA,"",   997.874E+03,   997.270E+03,   997.270E+03
C:/temp/Job-1.odb,Step-1,Increment      1: Step Time =    1.000,"P-1-1",         16726,   185.266E-03,   150.689E-03,            0.,NA,NA,"",   1.00161E+06,   1.00501E+06,   1.00501E+06
C:/temp/Job-1.odb,Step-1,Increment      1: Step Time =    1.000,"P-1-1",         16727,   104.943E-03,   184.681E-03,            0.,NA,NA,"",   972.323E+03,   975.991E+03,   975.991E+03
C:/temp/Job-1.odb,Step-1,Increment      1: Step Time =    1.000,"P-1-1",         16728,   68.1462E-03,   9.69615E-03,            0.,NA,NA,"",   978.649E+03,   978.972E+03,   978.972E+03
C:/temp/Job-1.odb,Step-1,Increment      1: Step Time =    1.000,"P-1-1",         16729,   7.12661E-03,   125.700E-03,            0.,NA,NA,"",   813.881E+03,   911.740E+03,   911.740E+03
C:/temp/Job-1.odb,Step-1,Increment      1: Step Time =    1.000,"P-1-1",         16730,   112.285E-03,   73.5123E-03,            0.,NA,NA,"",   1.23339E+06,   1.24727E+06,   1.24727E+06
C:/temp/Job-1.odb,Step-1,Increment      1: Step Time =    1.000,"P-1-1",         16731,   67.2699E-03,   104.868E-03,            0.,NA,NA,"",   694.971E+03,   728.062E+03,   728.062E+03
C:/temp/Job-1.odb,Step-1,Increment      1: Step Time =    1.000,"P-1-1",         16732,   9.46368E-03,   186.637E-03,            0.,NA,NA,"",   1.12488E+06,   1.18391E+06,   1.18391E+06
C:/temp/Job-1.odb,Step-1,Increment      1: Step Time =    1.000,"P-1-1",         16733,   14.2975E-03,   186.594E-03,            0.,NA,NA,"",   1.12311E+06,   1.16134E+06,   1.16134E+06
C:/temp/Job-1.odb,Step-1,Increment      1: Step Time =    1.000,"P-1-1",         16734,   16.9587E-03,   186.234E-03,            0.,NA,NA,"",   1.11254E+06,   1.14373E+06,   1.14373E+06
C:/temp/Job-1.odb,Step-1,Increment      1: Step Time =    1.000,"P-1-1",         16735,   47.8268E-03,   184.615E-03,            0.,NA,NA,"",   1.02771E+06,   1.03038E+06,   1.03038E+06
C:/temp/Job-1.odb,Step-1,Increment      1: Step Time =    1.000,"P-1-1",         16736,   184.483E-03,   96.8009E-03,            0.,NA,NA,"",   967.753E+03,   989.677E+03,   989.677E+03
C:/temp/Job-1.odb,Step-1,Increment      1: Step Time =    1.000,"P-1-1",         16737,   184.583E-03,   93.8480E-03,            0.,NA,NA,"",   968.553E+03,   990.057E+03,   990.057E+03
C:/temp/Job-1.odb,Step-1,Increment      1: Step Time =    1.000,"P-1-1",         16738,   7.58777E-03,   37.9524E-03,            0.,NA,NA,"",   918.931E+03,   1.01338E+06,   1.01338E+06
C:/temp/Job-1.odb,Step-1,Increment      1: Step Time =    1.000,"P-1-1",         16739,   6.92554E-03,   39.9426E-03,            0.,NA,NA,"",   908.314E+03,   1.00449E+06,   1.00449E+06
C:/temp/Job-1.odb,Step-1,Increment      1: Step Time =    1.000,"P-1-1",         16740,   6.75226E-03,   42.3945E-03,            0.,NA,NA,"",   898.183E+03,   995.170E+03,   995.170E+03
C:/temp/Job-1.odb,Step-1,Increment      1: Step Time =    1.000,"P-1-1",         16741,   7.21612E-03,   46.4338E-03,            0.,NA,NA,"",   886.409E+03,   983.177E+03,   983.177E+03
C:/temp/Job-1.odb,Step-1,Increment      1: Step Time =    1.000,"P-1-1",         16742,   7.59761E-03,   73.2508E-03,            0.,NA,NA,"",   817.364E+03,   914.763E+03,   914.763E+03
C:/temp/Job-1.odb,Step-1,Increment      1: Step Time =    1.000,"P-1-1",         16743,   7.26031E-03,   99.9652E-03,            0.,NA,NA,"",   785.488E+03,   883.005E+03,   883.005E+03
C:/temp/Job-1.odb,Step-1,Increment      1: Step Time =    1.000,"P-1-1",         16744,   8.15388E-03,   100.591E-03,            0.,NA,NA,"",   786.967E+03,   883.899E+03,   883.899E+03
C:/temp/Job-1.odb,Step-1,Increment      1: Step Time =    1.000,"P-1-1",         16745,   61.7875E-03,   187.591E-03,            0.,NA,NA,"",   997.220E+03,   997.600E+03,   997.600E+03
C:/temp/Job-1.odb,Step-1,Increment      1: Step Time =    1.000,"P-1-1",         16746,   102.689E-03,   183.741E-03,            0.,NA,NA,"",   974.078E+03,   978.283E+03,   978.283E+03
C:/temp/Job-1.odb,Step-1,Increment      1: Step Time =    1.000,"P-1-1",         16747,   186.683E-03,   161.572E-03,            0.,NA,NA,"",   1.00234E+06,   1.00365E+06,   1.00365E+06
C:/temp/Job-1.odb,Step-1,Increment      1: Step Time =    1.000,"P-1-1",         16748,   186.239E-03,   84.5794E-03,            0.,NA,NA,"",   974.663E+03,   994.725E+03,   994.725E+03
C:/temp/Job-1.odb,Step-1,Increment      1: Step Time =    1.000,"P-1-1",         16749,   38.2023E-03,   186.442E-03,            0.,NA,NA,"",   1.04315E+06,   1.04814E+06,   1.04814E+06
C:/temp/Job-1.odb,Step-1,Increment      1: Step Time =    1.000,"P-1-1",         16750,   185.799E-03,   22.6041E-03,            0.,NA,NA,"",   1.00184E+06,   1.00173E+06,   1.00173E+06
C:/temp/Job-1.odb,Step-1,Increment      1: Step Time =    1.000,"P-1-1",         16751,   11.9072E-03,   16.4846E-03,            0.,NA,NA,"",   1.09063E+06,   1.14781E+06,   1.14781E+06
C:/temp/Job-1.odb,Step-1,Increment      1: Step Time =    1.000,"P-1-1",         16752,   99.9566E-03,   71.1274E-03,            0.,NA,NA,"",   1.09227E+06,   1.18977E+06,   1.18977E+06
C:/temp/Job-1.odb,Step-1,Increment      1: Step Time =    1.000,"P-1-1",         16753,   115.461E-03,   78.7050E-03,            0.,NA,NA,"",   1.32123E+06,   1.27058E+06,   1.27058E+06
C:/temp/Job-1.odb,Step-1,Increment      1: Step Time =    1.000,"P-1-1",         16754,   132.715E-03,   186.666E-03,            0.,NA,NA,"",   988.661E+03,   987.847E+03,   987.847E+03
C:/temp/Job-1.odb,Step-1,Increment      1: Step Time =    1.000,"P-1-1",         16755,   55.3126E-03,   188.882E-03,            0.,NA,NA,"",   1.00245E+06,   1.00293E+06,   1.00293E+06
C:/temp/Job-1.odb,Step-1,Increment      1: Step Time =    1.000,"P-1-1",         16756,   72.9526E-03,   108.587E-03,            0.,NA,NA,"",   804.209E+03,   784.477E+03,   784.477E+03
C:/temp/Job-1.odb,Step-1,Increment      1: Step Time =    1.000,"P-1-1",         16757,   78.0890E-03,   184.467E-03,            0.,NA,NA,"",   986.552E+03,   988.622E+03,   988.622E+03
C:/temp/Job-1.odb,Step-1,Increment      1: Step Time =    1.000,"P-1-1",         16758,   118.230E-03,   83.7181E-03,            0.,NA,NA,"",   1.30878E+06,   1.18989E+06,   1.18989E+06
C:/temp/Job-1.odb,Step-1,Increment      1: Step Time =    1.000,"P-1-1",         16759,   187.650E-03,   51.5926E-03,            0.,NA,NA,"",   998.539E+03,   1.00361E+06,   1.00361E+06
C:/temp/Job-1.odb,Step-1,Increment      1: Step Time =    1.000,"P-1-1",         16760,   148.252E-03,   187.838E-03,            0.,NA,NA,"",   996.866E+03,   995.425E+03,   995.425E+03
C:/temp/Job-1.odb,Step-1,Increment      1: Step Time =    1.000,"P-1-1",         16761,   170.062E-03,   12.3133E-03,            0.,NA,NA,"",   1.00114E+06,   1.00043E+06,   1.00043E+06
C:/temp/Job-1.odb,Step-1,Increment      1: Step Time =    1.000,"P-1-1",         16762,   78.6776E-03,   77.5072E-03,            0.,NA,NA,"",   1.22914E+06,   1.17613E+06,   1.17613E+06
C:/temp/Job-1.odb,Step-1,Increment      1: Step Time =    1.000,"P-1-1",         16763,   135.102E-03,   187.625E-03,            0.,NA,NA,"",   988.574E+03,   987.647E+03,   987.647E+03
C:/temp/Job-1.odb,Step-1,Increment      1: Step Time =    1.000,"P-1-1",         16764,   184.733E-03,   95.8004E-03,            0.,NA,NA,"",   968.005E+03,   989.984E+03,   989.984E+03
C:/temp/Job-1.odb,Step-1,Increment      1: Step Time =    1.000,"P-1-1",         16765,   187.811E-03,   78.9904E-03,            0.,NA,NA,"",   978.788E+03,   997.705E+03,   997.705E+03
C:/temp/Job-1.odb,Step-1,Increment      1: Step Time =    1.000,"P-1-1",         16766,   187.504E-03,   64.8442E-03,            0.,NA,NA,"",   990.805E+03,   1.00189E+06,   1.00189E+06
C:/temp/Job-1.odb,Step-1,Increment      1: Step Time =    1.000,"P-1-1",         16767,   121.539E-03,   187.622E-03,            0.,NA,NA,"",   976.248E+03,   976.843E+03,   976.843E+03
C:/temp/Job-1.odb,Step-1,Increment      1: Step Time =    1.000,"P-1-1",         16768,   185.646E-03,   47.5145E-03,            0.,NA,NA,"",   1.00175E+06,   1.00479E+06,   1.00479E+06
C:/temp/Job-1.odb,Step-1,Increment      1: Step Time =    1.000,"P-1-1",         16769,   49.2757E-03,   185.783E-03,            0.,NA,NA,"",   1.02206E+06,   1.02397E+06,   1.02397E+06
C:/temp/Job-1.odb,Step-1,Increment      1: Step Time =    1.000,"P-1-1",         16770,   152.300E-03,   185.674E-03,            0.,NA,NA,"",   1.00138E+06,   999.489E+03,   999.489E+03
C:/temp/Job-1.odb,Step-1,Increment      1: Step Time =    1.000,"P-1-1",         16771,   69.4661E-03,   9.14518E-03,            0.,NA,NA,"",   974.907E+03,   975.193E+03,   975.193E+03
C:/temp/Job-1.odb,Step-1,Increment      1: Step Time =    1.000,"P-1-1",         16772,   7.92093E-03,   37.2875E-03,            0.,NA,NA,"",   922.677E+03,   1.01640E+06,   1.01640E+06
C:/temp/Job-1.odb,Step-1,Increment      1: Step Time =    1.000,"P-1-1",         16773,   122.656E-03,   187.127E-03,            0.,NA,NA,"",   978.416E+03,   978.922E+03,   978.922E+03
C:/temp/Job-1.odb,Step-1,Increment      1: Step Time =    1.000,"P-1-1",         16774,   186.901E-03,   77.9164E-03,            0.,NA,NA,"",   980.149E+03,   997.732E+03,   997.732E+03
C:/temp/Job-1.odb,Step-1,Increment      1: Step Time =    1.000,"P-1-1",         16775,   100.189E-03,   126.904E-03,            0.,NA,NA,"",   1.11660E+06,   1.22333E+06,   1.22333E+06
C:/temp/Job-1.odb,Step-1,Increment      1: Step Time =    1.000,"P-1-1",         16776,   97.8928E-03,   127.987E-03,            0.,NA,NA,"",   1.10705E+06,   1.20570E+06,   1.20570E+06
C:/temp/Job-1.odb,Step-1,Increment      1: Step Time =    1.000,"P-1-1",         16777,   63.7256E-03,   188.924E-03,            0.,NA,NA,"",   989.865E+03,   990.161E+03,   990.161E+03
C:/temp/Job-1.odb,Step-1,Increment      1: Step Time =    1.000,"P-1-1",         16778,   188.616E-03,   134.530E-03,            0.,NA,NA,"",   989.386E+03,   1.00149E+06,   1.00149E+06
C:/temp/Job-1.odb,Step-1,Increment      1: Step Time =    1.000,"P-1-1",         16779,   188.151E-03,   133.321E-03,            0.,NA,NA,"",   988.882E+03,   1.00132E+06,   1.00132E+06
C:/temp/Job-1.odb,Step-1,Increment      1: Step Time =    1.000,"P-1-1",         16780,   187.708E-03,   190.050E-03,            0.,NA,NA,"",   1.00002E+06,   999.965E+03,   999.965E+03
C:/temp/Job-1.odb,Step-1,Increment      1: Step Time =    1.000,"P-1-1",         16781,   110.736E-03,   124.740E-03,            0.,NA,NA,"",   1.25413E+06,   1.28164E+06,   1.28164E+06
C:/temp/Job-1.odb,Step-1,Increment      1: Step Time =    1.000,"P-1-1",         16782,   93.6914E-03,   9.11663E-03,            0.,NA,NA,"",   954.030E+03,   955.507E+03,   955.507E+03
C:/temp/Job-1.odb,Step-1,Increment      1: Step Time =    1.000,"P-1-1",         16783,   32.6142E-03,   188.923E-03,            0.,NA,NA,"",   1.05404E+06,   1.05954E+06,   1.05954E+06
C:/temp/Job-1.odb,Step-1,Increment      1: Step Time =    1.000,"P-1-1",         16784,   91.5611E-03,   182.960E-03,            0.,NA,NA,"",   978.558E+03,   983.054E+03,   983.054E+03
C:/temp/Job-1.odb,Step-1,Increment      1: Step Time =    1.000,"P-1-1",         16785,   183.185E-03,   108.776E-03,            0.,NA,NA,"",   969.587E+03,   989.441E+03,   989.441E+03
C:/temp/Job-1.odb,Step-1,Increment      1: Step Time =    1.000,"P-1-1",         16786,   66.8458E-03,   187.141E-03,            0.,NA,NA,"",   991.559E+03,   992.100E+03,   992.100E+03
C:/temp/Job-1.odb,Step-1,Increment      1: Step Time =    1.000,"P-1-1",         16787,   65.5959E-03,   184.561E-03,            0.,NA,NA,"",   1.00171E+06,   1.00252E+06,   1.00252E+06
C:/temp/Job-1.odb,Step-1,Increment      1: Step Time =    1.000,"P-1-1",         16788,   182.895E-03,   71.5348E-03,            0.,NA,NA,"",   988.993E+03,   1.00012E+06,   1.00012E+06
C:/temp/Job-1.odb,Step-1,Increment      1: Step Time =    1.000,"P-1-1",         16789,   186.947E-03,   133.578E-03,            0.,NA,NA,"",   990.164E+03,   1.00164E+06,   1.00164E+06
C:/temp/Job-1.odb,Step-1,Increment      1: Step Time =    1.000,"P-1-1",         16790,   184.351E-03,   134.063E-03,            0.,NA,NA,"",   992.934E+03,   1.00241E+06,   1.00241E+06
C:/temp/Job-1.odb,Step-1,Increment      1: Step Time =    1.000,"P-1-1",         16791,   31.7019E-03,   184.345E-03,            0.,NA,NA,"",   1.06163E+06,   1.07299E+06,   1.07299E+06
C:/temp/Job-1.odb,Step-1,Increment      1: Step Time =    1.000,"P-1-1",         16792,   185.539E-03,   15.1612E-03,            0.,NA,NA,"",   1.00076E+06,   1.00063E+06,   1.00063E+06
C:/temp/Job-1.odb,Step-1,Increment      1: Step Time =    1.000,"P-1-1",         16793,   105.503E-03,   183.346E-03,            0.,NA,NA,"",   975.767E+03,   980.010E+03,   980.010E+03
C:/temp/Job-1.odb,Step-1,Increment      1: Step Time =    1.000,"P-1-1",         16794,   163.569E-03,   9.51262E-03,            0.,NA,NA,"",   998.885E+03,   998.234E+03,   998.234E+03
C:/temp/Job-1.odb,Step-1,Increment      1: Step Time =    1.000,"P-1-1",         16795,   188.143E-03,   50.0174E-03,            0.,NA,NA,"",   998.696E+03,   1.00341E+06,   1.00341E+06
C:/temp/Job-1.odb,Step-1,Increment      1: Step Time =    1.000,"P-1-1",         16796,   149.857E-03,   188.232E-03,            0.,NA,NA,"",   997.025E+03,   995.664E+03,   995.664E+03
C:/temp/Job-1.odb,Step-1,Increment      1: Step Time =    1.000,"P-1-1",         16797,   54.3151E-03,   187.783E-03,            0.,NA,NA,"",   1.00759E+06,   1.00835E+06,   1.00835E+06
C:/temp/Job-1.odb,Step-1,Increment      1: Step Time =    1.000,"P-1-1",         16798,   114.813E-03,   188.043E-03,            0.,NA,NA,"",   969.196E+03,   970.656E+03,   970.656E+03
C:/temp/Job-1.odb,Step-1,Increment      1: Step Time =    1.000,"P-1-1",         16799,   90.9776E-03,   8.89164E-03,            0.,NA,NA,"",   954.165E+03,   955.517E+03,   955.517E+03
C:/temp/Job-1.odb,Step-1,Increment      1: Step Time =    1.000,"P-1-1",         16800,   110.163E-03,   126.982E-03,            0.,NA,NA,"",   1.20667E+06,   1.24448E+06,   1.24448E+06
C:/temp/Job-1.odb,Step-1,Increment      1: Step Time =    1.000,"P-1-1",         16801,   186.687E-03,   183.887E-03,            0.,NA,NA,"",   1.00077E+06,   1.00066E+06,   1.00066E+06
C:/temp/Job-1.odb,Step-1,Increment      1: Step Time =    1.000,"P-1-1",         16802,   78.9578E-03,   76.0250E-03,            0.,NA,NA,"",   1.22866E+06,   1.18427E+06,   1.18427E+06
C:/temp/Job-1.odb,Step-1,Increment      1: Step Time =    1.000,"P-1-1",         16803,   73.4487E-03,   8.38270E-03,            0.,NA,NA,"",   967.248E+03,   967.665E+03,   967.665E+03
C:/temp/Job-1.odb,Step-1,Increment      1: Step Time =    1.000,"P-1-1",         16804,   138.914E-03,   188.374E-03,            0.,NA,NA,"",   990.207E+03,   989.130E+03,   989.130E+03
C:/temp/Job-1.odb,Step-1,Increment      1: Step Time =    1.000,"P-1-1",         16805,   104.225E-03,   68.1078E-03,            0.,NA,NA,"",   1.08337E+06,   1.15933E+06,   1.15933E+06
C:/temp/Job-1.odb,Step-1,Increment      1: Step Time =    1.000,"P-1-1",         16806,   186.524E-03,   181.721E-03,            0.,NA,NA,"",   1.00111E+06,   1.00099E+06,   1.00099E+06
C:/temp/Job-1.odb,Step-1,Increment      1: Step Time =    1.000,"P-1-1",         16807,   186.101E-03,   180.170E-03,            0.,NA,NA,"",   1.00138E+06,   1.00126E+06,   1.00126E+06
C:/temp/Job-1.odb,Step-1,Increment      1: Step Time =    1.000,"P-1-1",         16808,   185.361E-03,   180.043E-03,            0.,NA,NA,"",   1.00158E+06,   1.00141E+06,   1.00141E+06
C:/temp/Job-1.odb,Step-1,Increment      1: Step Time =    1.000,"P-1-1",         16809,   184.554E-03,   179.965E-03,            0.,NA,NA,"",   1.00179E+06,   1.00157E+06,   1.00157E+06
C:/temp/Job-1.odb,Step-1,Increment      1: Step Time =    1.000,"P-1-1",         16810,   98.5603E-03,   12.1087E-03,            0.,NA,NA,"",   962.754E+03,   965.345E+03,   965.345E+03
C:/temp/Job-1.odb,Step-1,Increment      1: Step Time =    1.000,"P-1-1",         16811,   143.917E-03,   187.387E-03,            0.,NA,NA,"",   995.141E+03,   993.682E+03,   993.682E+03
C:/temp/Job-1.odb,Step-1,Increment      1: Step Time =    1.000,"P-1-1",         16812,   146.445E-03,   184.376E-03,            0.,NA,NA,"",   1.00163E+06,   999.428E+03,   999.428E+03
C:/temp/Job-1.odb,Step-1,Increment      1: Step Time =    1.000,"P-1-1",         16813,   188.747E-03,   61.2577E-03,            0.,NA,NA,"",   992.322E+03,   1.00221E+06,   1.00221E+06
C:/temp/Job-1.odb,Step-1,Increment      1: Step Time =    1.000,"P-1-1",         16814,   186.493E-03,   56.0975E-03,            0.,NA,NA,"",   997.511E+03,   1.00385E+06,   1.00385E+06
C:/temp/Job-1.odb,Step-1,Increment      1: Step Time =    1.000,"P-1-1",         16815,   184.011E-03,   52.9060E-03,            0.,NA,NA,"",   1.00169E+06,   1.00561E+06,   1.00561E+06
C:/temp/Job-1.odb,Step-1,Increment      1: Step Time =    1.000,"P-1-1",         16816,   183.288E-03,   96.4957E-03,            0.,NA,NA,"",   967.245E+03,   988.154E+03,   988.154E+03
C:/temp/Job-1.odb,Step-1,Increment      1: Step Time =    1.000,"P-1-1",         16817,   185.835E-03,   162.791E-03,            0.,NA,NA,"",   1.00299E+06,   1.00392E+06,   1.00392E+06
C:/temp/Job-1.odb,Step-1,Increment      1: Step Time =    1.000,"P-1-1",         16818,   182.697E-03,   123.603E-03,            0.,NA,NA,"",   983.736E+03,   997.185E+03,   997.185E+03
C:/temp/Job-1.odb,Step-1,Increment      1: Step Time =    1.000,"P-1-1",         16819,   14.0295E-03,   11.7785E-03,            0.,NA,NA,"",   1.13709E+06,   1.17029E+06,   1.17029E+06
C:/temp/Job-1.odb,Step-1,Increment      1: Step Time =    1.000,"P-1-1",         16820,   123.474E-03,   186.353E-03,            0.,NA,NA,"",   981.150E+03,   981.602E+03,   981.602E+03
C:/temp/Job-1.odb,Step-1,Increment      1: Step Time =    1.000,"P-1-1",         16821,   9.30085E-03,   184.063E-03,            0.,NA,NA,"",   1.08792E+06,   1.15584E+06,   1.15584E+06
C:/temp/Job-1.odb,Step-1,Increment      1: Step Time =    1.000,"P-1-1",         16822,   15.4527E-03,   184.949E-03,            0.,NA,NA,"",   1.10613E+06,   1.14570E+06,   1.14570E+06
C:/temp/Job-1.odb,Step-1,Increment      1: Step Time =    1.000,"P-1-1",         16823,   181.407E-03,   117.690E-03,            0.,NA,NA,"",   977.451E+03,   992.650E+03,   992.650E+03
C:/temp/Job-1.odb,Step-1,Increment      1: Step Time =    1.000,"P-1-1",         16824,   28.3878E-03,   182.550E-03,            0.,NA,NA,"",   1.06856E+06,   1.08626E+06,   1.08626E+06
C:/temp/Job-1.odb,Step-1,Increment      1: Step Time =    1.000,"P-1-1",         16825,   9.04830E-03,   70.4943E-03,            0.,NA,NA,"",   827.307E+03,   923.205E+03,   923.205E+03
C:/temp/Job-1.odb,Step-1,Increment      1: Step Time =    1.000,"P-1-1",         16826,   185.429E-03,   49.3481E-03,            0.,NA,NA,"",   1.00146E+06,   1.00493E+06,   1.00493E+06
C:/temp/Job-1.odb,Step-1,Increment      1: Step Time =    1.000,"P-1-1",         16827,   128.202E-03,   182.161E-03,            0.,NA,NA,"",   995.375E+03,   994.938E+03,   994.938E+03
C:/temp/Job-1.odb,Step-1,Increment      1: Step Time =    1.000,"P-1-1",         16828,   150.374E-03,   185.437E-03,            0.,NA,NA,"",   1.00123E+06,   999.260E+03,   999.260E+03
C:/temp/Job-1.odb,Step-1,Increment      1: Step Time =    1.000,"P-1-1",         16829,   44.8475E-03,   8.91297E-03,            0.,NA,NA,"",   1.01336E+06,   1.01443E+06,   1.01443E+06
C:/temp/Job-1.odb,Step-1,Increment      1: Step Time =    1.000,"P-1-1",         16830,   8.24382E-03,   43.5742E-03,            0.,NA,NA,"",   900.792E+03,   995.215E+03,   995.215E+03
C:/temp/Job-1.odb,Step-1,Increment      1: Step Time =    1.000,"P-1-1",         16831,   8.47602E-03,   39.2720E-03,            0.,NA,NA,"",   917.886E+03,   1.01080E+06,   1.01080E+06
C:/temp/Job-1.odb,Step-1,Increment      1: Step Time =    1.000,"P-1-1",         16832,   8.78329E-03,   38.2809E-03,            0.,NA,NA,"",   923.017E+03,   1.01511E+06,   1.01511E+06
C:/temp/Job-1.odb,Step-1,Increment      1: Step Time =    1.000,"P-1-1",         16833,   123.011E-03,   115.135E-03,            0.,NA,NA,"",   1.16018E+06,   1.05461E+06,   1.05461E+06
C:/temp/Job-1.odb,Step-1,Increment      1: Step Time =    1.000,"P-1-1",         16834,   121.239E-03,   115.717E-03,            0.,NA,NA,"",   1.21378E+06,   1.09958E+06,   1.09958E+06
C:/temp/Job-1.odb,Step-1,Increment      1: Step Time =    1.000,"P-1-1",         16835,   121.032E-03,   116.603E-03,            0.,NA,NA,"",   1.23295E+06,   1.12307E+06,   1.12307E+06
C:/temp/Job-1.odb,Step-1,Increment      1: Step Time =    1.000,"P-1-1",         16836,   120.707E-03,   117.833E-03,            0.,NA,NA,"",   1.25543E+06,   1.15244E+06,   1.15244E+06
C:/temp/Job-1.odb,Step-1,Increment      1: Step Time =    1.000,"P-1-1",         16837,   69.4610E-03,   87.7874E-03,            0.,NA,NA,"",   898.057E+03,   884.977E+03,   884.977E+03
C:/temp/Job-1.odb,Step-1,Increment      1: Step Time =    1.000,"P-1-1",         16838,   106.107E-03,   129.403E-03,            0.,NA,NA,"",   1.12220E+06,   1.19591E+06,   1.19591E+06
C:/temp/Job-1.odb,Step-1,Increment      1: Step Time =    1.000,"P-1-1",         16839,   69.9851E-03,   10.4167E-03,            0.,NA,NA,"",   978.774E+03,   979.218E+03,   979.218E+03
C:/temp/Job-1.odb,Step-1,Increment      1: Step Time =    1.000,"P-1-1",         16840,   9.78673E-03,   132.124E-03,            0.,NA,NA,"",   835.840E+03,   930.718E+03,   930.718E+03
C:/temp/Job-1.odb,Step-1,Increment      1: Step Time =    1.000,"P-1-1",         16841,   180.030E-03,   103.841E-03,            0.,NA,NA,"",   965.036E+03,   983.579E+03,   983.579E+03
C:/temp/Job-1.odb,Step-1,Increment      1: Step Time =    1.000,"P-1-1",         16842,   96.4941E-03,   179.804E-03,            0.,NA,NA,"",   983.843E+03,   990.343E+03,   990.343E+03
C:/temp/Job-1.odb,Step-1,Increment      1: Step Time =    1.000,"P-1-1",         16843,   184.005E-03,   150.653E-03,            0.,NA,NA,"",   1.00295E+06,   1.00581E+06,   1.00581E+06
C:/temp/Job-1.odb,Step-1,Increment      1: Step Time =    1.000,"P-1-1",         16844,   184.025E-03,   149.190E-03,            0.,NA,NA,"",   1.00236E+06,   1.00570E+06,   1.00570E+06
C:/temp/Job-1.odb,Step-1,Increment      1: Step Time =    1.000,"P-1-1",         16845,   187.580E-03,   30.0596E-03,            0.,NA,NA,"",   1.00194E+06,   1.00232E+06,   1.00232E+06
C:/temp/Job-1.odb,Step-1,Increment      1: Step Time =    1.000,"P-1-1",         16846,   185.902E-03,   28.6376E-03,            0.,NA,NA,"",   1.00254E+06,   1.00267E+06,   1.00267E+06
C:/temp/Job-1.odb,Step-1,Increment      1: Step Time =    1.000,"P-1-1",         16847,   183.721E-03,   27.2338E-03,            0.,NA,NA,"",   1.00341E+06,   1.00320E+06,   1.00320E+06
C:/temp/Job-1.odb,Step-1,Increment      1: Step Time =    1.000,"P-1-1",         16848,   13.3058E-03,   16.7196E-03,            0.,NA,NA,"",   1.09069E+06,   1.14260E+06,   1.14260E+06
C:/temp/Job-1.odb,Step-1,Increment      1: Step Time =    1.000,"P-1-1",         16849,   13.2625E-03,   19.3862E-03,            0.,NA,NA,"",   1.06465E+06,   1.12369E+06,   1.12369E+06
C:/temp/Job-1.odb,Step-1,Increment      1: Step Time =    1.000,"P-1-1",         16850,   13.3990E-03,   22.1354E-03,            0.,NA,NA,"",   1.04106E+06,   1.10523E+06,   1.10523E+06
C:/temp/Job-1.odb,Step-1,Increment      1: Step Time =    1.000,"P-1-1",         16851,   62.2786E-03,   186.007E-03,            0.,NA,NA,"",   1.00136E+06,   1.00188E+06,   1.00188E+06
C:/temp/Job-1.odb,Step-1,Increment      1: Step Time =    1.000,"P-1-1",         16852,   63.2946E-03,   187.440E-03,            0.,NA,NA,"",   996.003E+03,   996.440E+03,   996.440E+03
C:/temp/Job-1.odb,Step-1,Increment      1: Step Time =    1.000,"P-1-1",         16853,   187.582E-03,   80.7023E-03,            0.,NA,NA,"",   977.445E+03,   997.054E+03,   997.054E+03
C:/temp/Job-1.odb,Step-1,Increment      1: Step Time =    1.000,"P-1-1",         16854,   169.105E-03,   12.6828E-03,            0.,NA,NA,"",   1.00138E+06,   1.00057E+06,   1.00057E+06
C:/temp/Job-1.odb,Step-1,Increment      1: Step Time =    1.000,"P-1-1",         16855,   166.518E-03,   12.7314E-03,            0.,NA,NA,"",   1.00145E+06,   1.00049E+06,   1.00049E+06
C:/temp/Job-1.odb,Step-1,Increment      1: Step Time =    1.000,"P-1-1",         16856,   183.643E-03,   94.1838E-03,            0.,NA,NA,"",   968.148E+03,   988.967E+03,   988.967E+03
C:/temp/Job-1.odb,Step-1,Increment      1: Step Time =    1.000,"P-1-1",         16857,   182.045E-03,   91.9037E-03,            0.,NA,NA,"",   968.656E+03,   987.792E+03,   987.792E+03
C:/temp/Job-1.odb,Step-1,Increment      1: Step Time =    1.000,"P-1-1",         16858,   36.8995E-03,   185.623E-03,            0.,NA,NA,"",   1.04821E+06,   1.05451E+06,   1.05451E+06
C:/temp/Job-1.odb,Step-1,Increment      1: Step Time =    1.000,"P-1-1",         16859,   132.381E-03,   184.922E-03,            0.,NA,NA,"",   992.497E+03,   991.519E+03,   991.519E+03
C:/temp/Job-1.odb,Step-1,Increment      1: Step Time =    1.000,"P-1-1",         16860,   134.410E-03,   185.897E-03,            0.,NA,NA,"",   991.728E+03,   990.642E+03,   990.642E+03
C:/temp/Job-1.odb,Step-1,Increment      1: Step Time =    1.000,"P-1-1",         16861,   91.1676E-03,   181.489E-03,            0.,NA,NA,"",   982.607E+03,   987.805E+03,   987.805E+03
C:/temp/Job-1.odb,Step-1,Increment      1: Step Time =    1.000,"P-1-1",         16862,   185.590E-03,   65.4696E-03,            0.,NA,NA,"",   992.149E+03,   1.00224E+06,   1.00224E+06
C:/temp/Job-1.odb,Step-1,Increment      1: Step Time =    1.000,"P-1-1",         16863,   181.782E-03,   109.258E-03,            0.,NA,NA,"",   969.361E+03,   987.970E+03,   987.970E+03
C:/temp/Job-1.odb,Step-1,Increment      1: Step Time =    1.000,"P-1-1",         16864,   66.9847E-03,   100.489E-03,            0.,NA,NA,"",   644.734E+03,   688.496E+03,   688.496E+03
C:/temp/Job-1.odb,Step-1,Increment      1: Step Time =    1.000,"P-1-1",         16865,   47.7537E-03,   183.240E-03,            0.,NA,NA,"",   1.03108E+06,   1.03430E+06,   1.03430E+06
C:/temp/Job-1.odb,Step-1,Increment      1: Step Time =    1.000,"P-1-1",         16866,   14.3819E-03,   10.1954E-03,            0.,NA,NA,"",   1.15176E+06,   1.17794E+06,   1.17794E+06
C:/temp/Job-1.odb,Step-1,Increment      1: Step Time =    1.000,"P-1-1",         16867,   178.387E-03,   186.042E-03,            0.,NA,NA,"",   1.00133E+06,   1.00093E+06,   1.00093E+06
C:/temp/Job-1.odb,Step-1,Increment      1: Step Time =    1.000,"P-1-1",         16868,   180.520E-03,   179.989E-03,            0.,NA,NA,"",   1.00279E+06,   1.00230E+06,   1.00230E+06
C:/temp/Job-1.odb,Step-1,Increment      1: Step Time =    1.000,"P-1-1",         16869,   113.480E-03,   124.753E-03,            0.,NA,NA,"",   1.27176E+06,   1.26511E+06,   1.26511E+06
C:/temp/Job-1.odb,Step-1,Increment      1: Step Time =    1.000,"P-1-1",         16870,   183.339E-03,   173.363E-03,            0.,NA,NA,"",   1.00348E+06,   1.00322E+06,   1.00322E+06
C:/temp/Job-1.odb,Step-1,Increment      1: Step Time =    1.000,"P-1-1",         16871,   182.313E-03,   172.452E-03,            0.,NA,NA,"",   1.00415E+06,   1.00377E+06,   1.00377E+06
C:/temp/Job-1.odb,Step-1,Increment      1: Step Time =    1.000,"P-1-1",         16872,   183.708E-03,   170.181E-03,            0.,NA,NA,"",   1.00382E+06,   1.00372E+06,   1.00372E+06
C:/temp/Job-1.odb,Step-1,Increment      1: Step Time =    1.000,"P-1-1",         16873,   94.5431E-03,   10.6989E-03,            0.,NA,NA,"",   959.082E+03,   961.121E+03,   961.121E+03
C:/temp/Job-1.odb,Step-1,Increment      1: Step Time =    1.000,"P-1-1",         16874,   181.109E-03,   41.9796E-03,            0.,NA,NA,"",   1.00710E+06,   1.00735E+06,   1.00735E+06
C:/temp/Job-1.odb,Step-1,Increment      1: Step Time =    1.000,"P-1-1",         16875,   157.940E-03,   181.041E-03,            0.,NA,NA,"",   1.00802E+06,   1.00526E+06,   1.00526E+06
C:/temp/Job-1.odb,Step-1,Increment      1: Step Time =    1.000,"P-1-1",         16876,   49.2250E-03,   184.440E-03,            0.,NA,NA,"",   1.02572E+06,   1.02808E+06,   1.02808E+06
C:/temp/Job-1.odb,Step-1,Increment      1: Step Time =    1.000,"P-1-1",         16877,   185.147E-03,   143.199E-03,            0.,NA,NA,"",   998.511E+03,   1.00446E+06,   1.00446E+06
C:/temp/Job-1.odb,Step-1,Increment      1: Step Time =    1.000,"P-1-1",         16878,   183.161E-03,   139.409E-03,            0.,NA,NA,"",   998.339E+03,   1.00466E+06,   1.00466E+06
C:/temp/Job-1.odb,Step-1,Increment      1: Step Time =    1.000,"P-1-1",         16879,   58.7844E-03,   183.261E-03,            0.,NA,NA,"",   1.01456E+06,   1.01557E+06,   1.01557E+06
C:/temp/Job-1.odb,Step-1,Increment      1: Step Time =    1.000,"P-1-1",         16880,   77.5873E-03,   77.0428E-03,            0.,NA,NA,"",   1.21367E+06,   1.16303E+06,   1.16303E+06
C:/temp/Job-1.odb,Step-1,Increment      1: Step Time =    1.000,"P-1-1",         16881,   182.264E-03,   174.134E-03,            0.,NA,NA,"",   1.00376E+06,   1.00336E+06,   1.00336E+06
C:/temp/Job-1.odb,Step-1,Increment      1: Step Time =    1.000,"P-1-1",         16882,   181.355E-03,   173.373E-03,            0.,NA,NA,"",   1.00437E+06,   1.00385E+06,   1.00385E+06
C:/temp/Job-1.odb,Step-1,Increment      1: Step Time =    1.000,"P-1-1",         16883,   71.2119E-03,   9.97615E-03,            0.,NA,NA,"",   975.511E+03,   975.891E+03,   975.891E+03
C:/temp/Job-1.odb,Step-1,Increment      1: Step Time =    1.000,"P-1-1",         16884,   122.447E-03,   186.114E-03,            0.,NA,NA,"",   980.848E+03,   981.477E+03,   981.477E+03
C:/temp/Job-1.odb,Step-1,Increment      1: Step Time =    1.000,"P-1-1",         16885,   99.5357E-03,   128.534E-03,            0.,NA,NA,"",   1.09562E+06,   1.19415E+06,   1.19415E+06
C:/temp/Job-1.odb,Step-1,Increment      1: Step Time =    1.000,"P-1-1",         16886,   160.379E-03,   9.38938E-03,            0.,NA,NA,"",   998.067E+03,   997.329E+03,   997.329E+03
C:/temp/Job-1.odb,Step-1,Increment      1: Step Time =    1.000,"P-1-1",         16887,   159.451E-03,   9.18164E-03,            0.,NA,NA,"",   997.543E+03,   996.827E+03,   996.827E+03
C:/temp/Job-1.odb,Step-1,Increment      1: Step Time =    1.000,"P-1-1",         16888,   158.650E-03,   8.96766E-03,            0.,NA,NA,"",   997.173E+03,   996.468E+03,   996.468E+03
C:/temp/Job-1.odb,Step-1,Increment      1: Step Time =    1.000,"P-1-1",         16889,   9.29239E-03,   130.905E-03,            0.,NA,NA,"",   831.296E+03,   926.858E+03,   926.858E+03
C:/temp/Job-1.odb,Step-1,Increment      1: Step Time =    1.000,"P-1-1",         16890,   7.83678E-03,   183.242E-03,            0.,NA,NA,"",   1.07095E+06,   1.14784E+06,   1.14784E+06
C:/temp/Job-1.odb,Step-1,Increment      1: Step Time =    1.000,"P-1-1",         16891,   63.4391E-03,   186.603E-03,            0.,NA,NA,"",   998.618E+03,   999.115E+03,   999.115E+03
C:/temp/Job-1.odb,Step-1,Increment      1: Step Time =    1.000,"P-1-1",         16892,   15.1773E-03,   12.5598E-03,            0.,NA,NA,"",   1.12706E+06,   1.15950E+06,   1.15950E+06
C:/temp/Job-1.odb,Step-1,Increment      1: Step Time =    1.000,"P-1-1",         16893,   185.868E-03,   78.7244E-03,            0.,NA,NA,"",   979.946E+03,   997.056E+03,   997.056E+03
C:/temp/Job-1.odb,Step-1,Increment      1: Step Time =    1.000,"P-1-1",         16894,   184.895E-03,   77.6874E-03,            0.,NA,NA,"",   981.351E+03,   997.151E+03,   997.151E+03
C:/temp/Job-1.odb,Step-1,Increment      1: Step Time =    1.000,"P-1-1",         16895,   187.167E-03,   61.9922E-03,            0.,NA,NA,"",   993.233E+03,   1.00261E+06,   1.00261E+06
C:/temp/Job-1.odb,Step-1,Increment      1: Step Time =    1.000,"P-1-1",         16896,   116.790E-03,   121.522E-03,            0.,NA,NA,"",   1.31702E+06,   1.25454E+06,   1.25454E+06
C:/temp/Job-1.odb,Step-1,Increment      1: Step Time =    1.000,"P-1-1",         16897,   96.6149E-03,   130.709E-03,            0.,NA,NA,"",   1.08722E+06,   1.17139E+06,   1.17139E+06
C:/temp/Job-1.odb,Step-1,Increment      1: Step Time =    1.000,"P-1-1",         16898,   95.6834E-03,   131.762E-03,            0.,NA,NA,"",   1.08482E+06,   1.16220E+06,   1.16220E+06
C:/temp/Job-1.odb,Step-1,Increment      1: Step Time =    1.000,"P-1-1",         16899,   125.681E-03,   81.6854E-03,            0.,NA,NA,"",   1.16543E+06,   1.08085E+06,   1.08085E+06
C:/temp/Job-1.odb,Step-1,Increment      1: Step Time =    1.000,"P-1-1",         16900,   156.338E-03,   9.81032E-03,            0.,NA,NA,"",   997.203E+03,   996.306E+03,   996.306E+03
C:/temp/Job-1.odb,Step-1,Increment      1: Step Time =    1.000,"P-1-1",         16901,   154.928E-03,   9.92889E-03,            0.,NA,NA,"",   996.810E+03,   995.865E+03,   995.865E+03
C:/temp/Job-1.odb,Step-1,Increment      1: Step Time =    1.000,"P-1-1",         16902,   53.3225E-03,   189.256E-03,            0.,NA,NA,"",   1.00383E+06,   1.00439E+06,   1.00439E+06
C:/temp/Job-1.odb,Step-1,Increment      1: Step Time =    1.000,"P-1-1",         16903,   137.856E-03,   186.845E-03,            0.,NA,NA,"",   992.387E+03,   991.122E+03,   991.122E+03
C:/temp/Job-1.odb,Step-1,Increment      1: Step Time =    1.000,"P-1-1",         16904,   32.9213E-03,   184.702E-03,            0.,NA,NA,"",   1.05854E+06,   1.06865E+06,   1.06865E+06
C:/temp/Job-1.odb,Step-1,Increment      1: Step Time =    1.000,"P-1-1",         16905,   76.4686E-03,   180.592E-03,            0.,NA,NA,"",   999.815E+03,   1.00259E+06,   1.00259E+06
C:/temp/Job-1.odb,Step-1,Increment      1: Step Time =    1.000,"P-1-1",         16906,   104.103E-03,   179.840E-03,            0.,NA,NA,"",   983.516E+03,   989.612E+03,   989.612E+03
C:/temp/Job-1.odb,Step-1,Increment      1: Step Time =    1.000,"P-1-1",         16907,   188.462E-03,   83.3861E-03,            0.,NA,NA,"",   975.060E+03,   996.617E+03,   996.617E+03
C:/temp/Job-1.odb,Step-1,Increment      1: Step Time =    1.000,"P-1-1",         16908,   63.1944E-03,   185.890E-03,            0.,NA,NA,"",   1.00061E+06,   1.00114E+06,   1.00114E+06
C:/temp/Job-1.odb,Step-1,Increment      1: Step Time =    1.000,"P-1-1",         16909,   9.25755E-03,   105.974E-03,            0.,NA,NA,"",   790.529E+03,   886.739E+03,   886.739E+03
C:/temp/Job-1.odb,Step-1,Increment      1: Step Time =    1.000,"P-1-1",         16910,   92.1702E-03,   10.2237E-03,            0.,NA,NA,"",   958.288E+03,   960.095E+03,   960.095E+03
C:/temp/Job-1.odb,Step-1,Increment      1: Step Time =    1.000,"P-1-1",         16911,   86.4088E-03,   76.6345E-03,            0.,NA,NA,"",   1.28386E+06,   1.27734E+06,   1.27734E+06
C:/temp/Job-1.odb,Step-1,Increment      1: Step Time =    1.000,"P-1-1",         16912,   183.761E-03,   159.295E-03,            0.,NA,NA,"",   1.00445E+06,   1.00543E+06,   1.00543E+06
C:/temp/Job-1.odb,Step-1,Increment      1: Step Time =    1.000,"P-1-1",         16913,   68.9663E-03,   85.5316E-03,            0.,NA,NA,"",   954.558E+03,   935.677E+03,   935.677E+03
C:/temp/Job-1.odb,Step-1,Increment      1: Step Time =    1.000,"P-1-1",         16914,   187.347E-03,   147.975E-03,            0.,NA,NA,"",   998.580E+03,   1.00375E+06,   1.00375E+06
C:/temp/Job-1.odb,Step-1,Increment      1: Step Time =    1.000,"P-1-1",         16915,   130.103E-03,   182.221E-03,            0.,NA,NA,"",   996.754E+03,   995.923E+03,   995.923E+03
C:/temp/Job-1.odb,Step-1,Increment      1: Step Time =    1.000,"P-1-1",         16916,   10.1825E-03,   183.590E-03,            0.,NA,NA,"",   1.08460E+06,   1.14959E+06,   1.14959E+06
C:/temp/Job-1.odb,Step-1,Increment      1: Step Time =    1.000,"P-1-1",         16917,   183.064E-03,   69.6523E-03,            0.,NA,NA,"",   990.752E+03,   1.00107E+06,   1.00107E+06
C:/temp/Job-1.odb,Step-1,Increment      1: Step Time =    1.000,"P-1-1",         16918,   122.974E-03,   79.2716E-03,            0.,NA,NA,"",   1.23176E+06,   1.14792E+06,   1.14792E+06
C:/temp/Job-1.odb,Step-1,Increment      1: Step Time =    1.000,"P-1-1",         16919,   185.281E-03,   180.921E-03,            0.,NA,NA,"",   1.00141E+06,   1.00125E+06,   1.00125E+06
C:/temp/Job-1.odb,Step-1,Increment      1: Step Time =    1.000,"P-1-1",         16920,   183.457E-03,   135.676E-03,            0.,NA,NA,"",   995.226E+03,   1.00331E+06,   1.00331E+06
C:/temp/Job-1.odb,Step-1,Increment      1: Step Time =    1.000,"P-1-1",         16921,   184.108E-03,   83.3415E-03,            0.,NA,NA,"",   976.141E+03,   993.872E+03,   993.872E+03
C:/temp/Job-1.odb,Step-1,Increment      1: Step Time =    1.000,"P-1-1",         16922,   9.42243E-03,   36.1637E-03,            0.,NA,NA,"",   935.497E+03,   1.02536E+06,   1.02536E+06
C:/temp/Job-1.odb,Step-1,Increment      1: Step Time =    1.000,"P-1-1",         16923,   140.154E-03,   186.989E-03,            0.,NA,NA,"",   993.674E+03,   992.294E+03,   992.294E+03
C:/temp/Job-1.odb,Step-1,Increment      1: Step Time =    1.000,"P-1-1",         16924,   83.4070E-03,   76.8998E-03,            0.,NA,NA,"",   1.27909E+06,   1.24666E+06,   1.24666E+06
C:/temp/Job-1.odb,Step-1,Increment      1: Step Time =    1.000,"P-1-1",         16925,   182.349E-03,   94.9155E-03,            0.,NA,NA,"",   967.151E+03,   987.075E+03,   987.075E+03
C:/temp/Job-1.odb,Step-1,Increment      1: Step Time =    1.000,"P-1-1",         16926,   9.13384E-03,   108.816E-03,            0.,NA,NA,"",   792.444E+03,   888.714E+03,   888.714E+03
C:/temp/Job-1.odb,Step-1,Increment      1: Step Time =    1.000,"P-1-1",         16927,   182.842E-03,   23.2308E-03,            0.,NA,NA,"",   1.00290E+06,   1.00256E+06,   1.00256E+06
C:/temp/Job-1.odb,Step-1,Increment      1: Step Time =    1.000,"P-1-1",         16928,   8.75172E-03,   125.895E-03,            0.,NA,NA,"",   818.478E+03,   914.788E+03,   914.788E+03
C:/temp/Job-1.odb,Step-1,Increment      1: Step Time =    1.000,"P-1-1",         16929,   150.583E-03,   183.297E-03,            0.,NA,NA,"",   1.00453E+06,   1.00204E+06,   1.00204E+06
C:/temp/Job-1.odb,Step-1,Increment      1: Step Time =    1.000,"P-1-1",         16930,   151.660E-03,   182.427E-03,            0.,NA,NA,"",   1.00603E+06,   1.00333E+06,   1.00333E+06
C:/temp/Job-1.odb,Step-1,Increment      1: Step Time =    1.000,"P-1-1",         16931,   11.6787E-03,   100.841E-03,            0.,NA,NA,"",   792.668E+03,   887.171E+03,   887.171E+03
C:/temp/Job-1.odb,Step-1,Increment      1: Step Time =    1.000,"P-1-1",         16932,   89.8393E-03,   181.875E-03,            0.,NA,NA,"",   982.444E+03,   987.316E+03,   987.316E+03
C:/temp/Job-1.odb,Step-1,Increment      1: Step Time =    1.000,"P-1-1",         16933,   183.414E-03,   49.0675E-03,            0.,NA,NA,"",   1.00361E+06,   1.00617E+06,   1.00617E+06
C:/temp/Job-1.odb,Step-1,Increment      1: Step Time =    1.000,"P-1-1",         16934,   182.434E-03,   48.2225E-03,            0.,NA,NA,"",   1.00490E+06,   1.00682E+06,   1.00682E+06
C:/temp/Job-1.odb,Step-1,Increment      1: Step Time =    1.000,"P-1-1",         16935,   182.196E-03,   110.551E-03,            0.,NA,NA,"",   970.519E+03,   989.068E+03,   989.068E+03
C:/temp/Job-1.odb,Step-1,Increment      1: Step Time =    1.000,"P-1-1",         16936,   185.542E-03,   181.738E-03,            0.,NA,NA,"",   1.00126E+06,   1.00110E+06,   1.00110E+06
C:/temp/Job-1.odb,Step-1,Increment      1: Step Time =    1.000,"P-1-1",         16937,   183.904E-03,   16.6899E-03,            0.,NA,NA,"",   1.00124E+06,   1.00103E+06,   1.00103E+06
C:/temp/Job-1.odb,Step-1,Increment      1: Step Time =    1.000,"P-1-1",         16938,   63.7372E-03,   183.491E-03,            0.,NA,NA,"",   1.00741E+06,   1.00829E+06,   1.00829E+06
C:/temp/Job-1.odb,Step-1,Increment      1: Step Time =    1.000,"P-1-1",         16939,   16.5951E-03,   183.365E-03,            0.,NA,NA,"",   1.09231E+06,   1.13273E+06,   1.13273E+06
C:/temp/Job-1.odb,Step-1,Increment      1: Step Time =    1.000,"P-1-1",         16940,   17.8870E-03,   183.123E-03,            0.,NA,NA,"",   1.08943E+06,   1.12692E+06,   1.12692E+06
C:/temp/Job-1.odb,Step-1,Increment      1: Step Time =    1.000,"P-1-1",         16941,   26.7209E-03,   181.397E-03,            0.,NA,NA,"",   1.06914E+06,   1.09125E+06,   1.09125E+06
C:/temp/Job-1.odb,Step-1,Increment      1: Step Time =    1.000,"P-1-1",         16942,   99.1036E-03,   13.5715E-03,            0.,NA,NA,"",   966.787E+03,   969.950E+03,   969.950E+03
C:/temp/Job-1.odb,Step-1,Increment      1: Step Time =    1.000,"P-1-1",         16943,   50.4564E-03,   186.680E-03,            0.,NA,NA,"",   1.01742E+06,   1.01881E+06,   1.01881E+06
C:/temp/Job-1.odb,Step-1,Increment      1: Step Time =    1.000,"P-1-1",         16944,   174.174E-03,   183.544E-03,            0.,NA,NA,"",   1.00299E+06,   1.00213E+06,   1.00213E+06
C:/temp/Job-1.odb,Step-1,Increment      1: Step Time =    1.000,"P-1-1",         16945,   184.550E-03,   145.171E-03,            0.,NA,NA,"",   1.00019E+06,   1.00507E+06,   1.00507E+06
C:/temp/Job-1.odb,Step-1,Increment      1: Step Time =    1.000,"P-1-1",         16946,   82.5247E-03,   178.020E-03,            0.,NA,NA,"",   999.343E+03,   1.00439E+06,   1.00439E+06
C:/temp/Job-1.odb,Step-1,Increment      1: Step Time =    1.000,"P-1-1",         16947,   84.4971E-03,   179.401E-03,            0.,NA,NA,"",   993.782E+03,   998.764E+03,   998.764E+03
C:/temp/Job-1.odb,Step-1,Increment      1: Step Time =    1.000,"P-1-1",         16948,   60.9807E-03,   182.528E-03,            0.,NA,NA,"",   1.01389E+06,   1.01497E+06,   1.01497E+06
C:/temp/Job-1.odb,Step-1,Increment      1: Step Time =    1.000,"P-1-1",         16949,   186.181E-03,   58.9207E-03,            0.,NA,NA,"",   996.180E+03,   1.00359E+06,   1.00359E+06
C:/temp/Job-1.odb,Step-1,Increment      1: Step Time =    1.000,"P-1-1",         16950,   183.217E-03,   54.6501E-03,            0.,NA,NA,"",   1.00178E+06,   1.00589E+06,   1.00589E+06
C:/temp/Job-1.odb,Step-1,Increment      1: Step Time =    1.000,"P-1-1",         16951,   8.84734E-03,   137.654E-03,            0.,NA,NA,"",   846.958E+03,   942.580E+03,   942.580E+03
C:/temp/Job-1.odb,Step-1,Increment      1: Step Time =    1.000,"P-1-1",         16952,   8.94025E-03,   156.635E-03,            0.,NA,NA,"",   904.465E+03,   997.582E+03,   997.582E+03
C:/temp/Job-1.odb,Step-1,Increment      1: Step Time =    1.000,"P-1-1",         16953,   9.04255E-03,   158.032E-03,            0.,NA,NA,"",   909.850E+03,   1.00244E+06,   1.00244E+06
C:/temp/Job-1.odb,Step-1,Increment      1: Step Time =    1.000,"P-1-1",         16954,   183.609E-03,   163.730E-03,            0.,NA,NA,"",   1.00460E+06,   1.00496E+06,   1.00496E+06
C:/temp/Job-1.odb,Step-1,Increment      1: Step Time =    1.000,"P-1-1",         16955,   179.901E-03,   117.890E-03,            0.,NA,NA,"",   977.756E+03,   991.711E+03,   991.711E+03
C:/temp/Job-1.odb,Step-1,Increment      1: Step Time =    1.000,"P-1-1",         16956,   179.461E-03,   116.425E-03,            0.,NA,NA,"",   975.840E+03,   990.129E+03,   990.129E+03
C:/temp/Job-1.odb,Step-1,Increment      1: Step Time =    1.000,"P-1-1",         16957,   56.6452E-03,   182.331E-03,            0.,NA,NA,"",   1.02028E+06,   1.02179E+06,   1.02179E+06
C:/temp/Job-1.odb,Step-1,Increment      1: Step Time =    1.000,"P-1-1",         16958,   97.9792E-03,   179.414E-03,            0.,NA,NA,"",   984.281E+03,   991.139E+03,   991.139E+03
C:/temp/Job-1.odb,Step-1,Increment      1: Step Time =    1.000,"P-1-1",         16959,   101.283E-03,   179.617E-03,            0.,NA,NA,"",   983.699E+03,   990.269E+03,   990.269E+03
C:/temp/Job-1.odb,Step-1,Increment      1: Step Time =    1.000,"P-1-1",         16960,   182.667E-03,   149.204E-03,            0.,NA,NA,"",   1.00389E+06,   1.00658E+06,   1.00658E+06
C:/temp/Job-1.odb,Step-1,Increment      1: Step Time =    1.000,"P-1-1",         16961,   126.325E-03,   181.843E-03,            0.,NA,NA,"",   994.561E+03,   994.577E+03,   994.577E+03
C:/temp/Job-1.odb,Step-1,Increment      1: Step Time =    1.000,"P-1-1",         16962,   65.6406E-03,   102.926E-03,            0.,NA,NA,"",   681.391E+03,   723.426E+03,   723.426E+03
C:/temp/Job-1.odb,Step-1,Increment      1: Step Time =    1.000,"P-1-1",         16963,   105.573E-03,   131.105E-03,            0.,NA,NA,"",   1.10093E+06,   1.17275E+06,   1.17275E+06
C:/temp/Job-1.odb,Step-1,Increment      1: Step Time =    1.000,"P-1-1",         16964,   104.530E-03,   131.325E-03,            0.,NA,NA,"",   1.08914E+06,   1.16532E+06,   1.16532E+06
C:/temp/Job-1.odb,Step-1,Increment      1: Step Time =    1.000,"P-1-1",         16965,   122.254E-03,   118.279E-03,            0.,NA,NA,"",   1.22716E+06,   1.13049E+06,   1.13049E+06
C:/temp/Job-1.odb,Step-1,Increment      1: Step Time =    1.000,"P-1-1",         16966,   121.598E-03,   119.751E-03,            0.,NA,NA,"",   1.25049E+06,   1.16106E+06,   1.16106E+06
C:/temp/Job-1.odb,Step-1,Increment      1: Step Time =    1.000,"P-1-1",         16967,   68.4287E-03,   86.8433E-03,            0.,NA,NA,"",   913.296E+03,   903.009E+03,   903.009E+03
C:/temp/Job-1.odb,Step-1,Increment      1: Step Time =    1.000,"P-1-1",         16968,   94.1083E-03,   11.8235E-03,            0.,NA,NA,"",   962.889E+03,   965.316E+03,   965.316E+03
C:/temp/Job-1.odb,Step-1,Increment      1: Step Time =    1.000,"P-1-1",         16969,   93.0565E-03,   11.6036E-03,            0.,NA,NA,"",   962.396E+03,   964.703E+03,   964.703E+03
C:/temp/Job-1.odb,Step-1,Increment      1: Step Time =    1.000,"P-1-1",         16970,   75.9154E-03,   76.6732E-03,            0.,NA,NA,"",   1.18750E+06,   1.14090E+06,   1.14090E+06
C:/temp/Job-1.odb,Step-1,Increment      1: Step Time =    1.000,"P-1-1",         16971,   75.3007E-03,   115.854E-03,            0.,NA,NA,"",   1.09551E+06,   1.03046E+06,   1.03046E+06
C:/temp/Job-1.odb,Step-1,Increment      1: Step Time =    1.000,"P-1-1",         16972,   74.2628E-03,   115.352E-03,            0.,NA,NA,"",   1.05901E+06,   1.00174E+06,   1.00174E+06
C:/temp/Job-1.odb,Step-1,Increment      1: Step Time =    1.000,"P-1-1",         16973,   65.9912E-03,   94.5460E-03,            0.,NA,NA,"",   719.141E+03,   752.708E+03,   752.708E+03
C:/temp/Job-1.odb,Step-1,Increment      1: Step Time =    1.000,"P-1-1",         16974,   87.7223E-03,   184.632E-03,            0.,NA,NA,"",   976.722E+03,   980.053E+03,   980.053E+03
C:/temp/Job-1.odb,Step-1,Increment      1: Step Time =    1.000,"P-1-1",         16975,   10.5628E-03,   130.384E-03,            0.,NA,NA,"",   833.778E+03,   927.899E+03,   927.899E+03
C:/temp/Job-1.odb,Step-1,Increment      1: Step Time =    1.000,"P-1-1",         16976,   179.516E-03,   102.254E-03,            0.,NA,NA,"",   964.126E+03,   982.484E+03,   982.484E+03
C:/temp/Job-1.odb,Step-1,Increment      1: Step Time =    1.000,"P-1-1",         16977,   180.232E-03,   98.6241E-03,            0.,NA,NA,"",   964.790E+03,   983.648E+03,   983.648E+03
C:/temp/Job-1.odb,Step-1,Increment      1: Step Time =    1.000,"P-1-1",         16978,   119.769E-03,   185.208E-03,            0.,NA,NA,"",   980.640E+03,   981.834E+03,   981.834E+03
C:/temp/Job-1.odb,Step-1,Increment      1: Step Time =    1.000,"P-1-1",         16979,   115.676E-03,   186.925E-03,            0.,NA,NA,"",   972.919E+03,   974.548E+03,   974.548E+03
C:/temp/Job-1.odb,Step-1,Increment      1: Step Time =    1.000,"P-1-1",         16980,   116.911E-03,   185.083E-03,            0.,NA,NA,"",   978.510E+03,   980.258E+03,   980.258E+03
C:/temp/Job-1.odb,Step-1,Increment      1: Step Time =    1.000,"P-1-1",         16981,   144.455E-03,   183.928E-03,            0.,NA,NA,"",   1.00162E+06,   999.364E+03,   999.364E+03
C:/temp/Job-1.odb,Step-1,Increment      1: Step Time =    1.000,"P-1-1",         16982,   182.768E-03,   168.470E-03,            0.,NA,NA,"",   1.00468E+06,   1.00449E+06,   1.00449E+06
C:/temp/Job-1.odb,Step-1,Increment      1: Step Time =    1.000,"P-1-1",         16983,   167.910E-03,   13.9999E-03,            0.,NA,NA,"",   1.00227E+06,   1.00122E+06,   1.00122E+06
C:/temp/Job-1.odb,Step-1,Increment      1: Step Time =    1.000,"P-1-1",         16984,   14.6169E-03,   16.8989E-03,            0.,NA,NA,"",   1.09011E+06,   1.13766E+06,   1.13766E+06
C:/temp/Job-1.odb,Step-1,Increment      1: Step Time =    1.000,"P-1-1",         16985,   14.6301E-03,   18.1137E-03,            0.,NA,NA,"",   1.07925E+06,   1.13004E+06,   1.13004E+06
C:/temp/Job-1.odb,Step-1,Increment      1: Step Time =    1.000,"P-1-1",         16986,   14.8307E-03,   20.7685E-03,            0.,NA,NA,"",   1.05700E+06,   1.11336E+06,   1.11336E+06
C:/temp/Job-1.odb,Step-1,Increment      1: Step Time =    1.000,"P-1-1",         16987,   89.5228E-03,   180.554E-03,            0.,NA,NA,"",   986.026E+03,   991.493E+03,   991.493E+03
C:/temp/Job-1.odb,Step-1,Increment      1: Step Time =    1.000,"P-1-1",         16988,   135.969E-03,   184.925E-03,            0.,NA,NA,"",   995.006E+03,   993.595E+03,   993.595E+03
C:/temp/Job-1.odb,Step-1,Increment      1: Step Time =    1.000,"P-1-1",         16989,   132.982E-03,   184.102E-03,            0.,NA,NA,"",   994.774E+03,   993.614E+03,   993.614E+03
C:/temp/Job-1.odb,Step-1,Increment      1: Step Time =    1.000,"P-1-1",         16990,   132.000E-03,   182.251E-03,            0.,NA,NA,"",   998.110E+03,   996.892E+03,   996.892E+03
C:/temp/Job-1.odb,Step-1,Increment      1: Step Time =    1.000,"P-1-1",         16991,   162.346E-03,   180.888E-03,            0.,NA,NA,"",   1.00736E+06,   1.00499E+06,   1.00499E+06
C:/temp/Job-1.odb,Step-1,Increment      1: Step Time =    1.000,"P-1-1",         16992,   171.896E-03,   183.925E-03,            0.,NA,NA,"",   1.00310E+06,   1.00212E+06,   1.00212E+06
C:/temp/Job-1.odb,Step-1,Increment      1: Step Time =    1.000,"P-1-1",         16993,   185.800E-03,   80.5707E-03,            0.,NA,NA,"",   978.316E+03,   996.223E+03,   996.223E+03
C:/temp/Job-1.odb,Step-1,Increment      1: Step Time =    1.000,"P-1-1",         16994,   180.900E-03,   111.106E-03,            0.,NA,NA,"",   970.354E+03,   987.775E+03,   987.775E+03
C:/temp/Job-1.odb,Step-1,Increment      1: Step Time =    1.000,"P-1-1",         16995,   182.513E-03,   147.808E-03,            0.,NA,NA,"",   1.00366E+06,   1.00663E+06,   1.00663E+06
C:/temp/Job-1.odb,Step-1,Increment      1: Step Time =    1.000,"P-1-1",         16996,   35.0854E-03,   183.717E-03,            0.,NA,NA,"",   1.05361E+06,   1.06326E+06,   1.06326E+06
C:/temp/Job-1.odb,Step-1,Increment      1: Step Time =    1.000,"P-1-1",         16997,   180.134E-03,   33.3142E-03,            0.,NA,NA,"",   1.00687E+06,   1.00619E+06,   1.00619E+06
C:/temp/Job-1.odb,Step-1,Increment      1: Step Time =    1.000,"P-1-1",         16998,   183.179E-03,   68.2278E-03,            0.,NA,NA,"",   992.082E+03,   1.00176E+06,   1.00176E+06
C:/temp/Job-1.odb,Step-1,Increment      1: Step Time =    1.000,"P-1-1",         16999,   180.537E-03,   174.346E-03,            0.,NA,NA,"",   1.00445E+06,   1.00383E+06,   1.00383E+06
C:/temp/Job-1.odb,Step-1,Increment      1: Step Time =    1.000,"P-1-1",         17000,   181.978E-03,   141.522E-03,            0.,NA,NA,"",   1.00112E+06,   1.00586E+06,   1.00586E+06
C:/temp/Job-1.odb,Step-1,Increment      1: Step Time =    1.000,"P-1-1",         17001,   183.206E-03,   142.715E-03,            0.,NA,NA,"",   1.00043E+06,   1.00545E+06,   1.00545E+06
C:/temp/Job-1.odb,Step-1,Increment      1: Step Time =    1.000,"P-1-1",         17002,   182.186E-03,   137.897E-03,            0.,NA,NA,"",   998.325E+03,   1.00462E+06,   1.00462E+06
C:/temp/Job-1.odb,Step-1,Increment      1: Step Time =    1.000,"P-1-1",         17003,   182.446E-03,   159.601E-03,            0.,NA,NA,"",   1.00563E+06,   1.00619E+06,   1.00619E+06
C:/temp/Job-1.odb,Step-1,Increment      1: Step Time =    1.000,"P-1-1",         17004,   178.920E-03,   184.058E-03,            0.,NA,NA,"",   1.00187E+06,   1.00142E+06,   1.00142E+06
C:/temp/Job-1.odb,Step-1,Increment      1: Step Time =    1.000,"P-1-1",         17005,   10.8417E-03,   104.965E-03,            0.,NA,NA,"",   792.558E+03,   887.664E+03,   887.664E+03
C:/temp/Job-1.odb,Step-1,Increment      1: Step Time =    1.000,"P-1-1",         17006,   180.743E-03,   182.059E-03,            0.,NA,NA,"",   1.00211E+06,   1.00171E+06,   1.00171E+06
C:/temp/Job-1.odb,Step-1,Increment      1: Step Time =    1.000,"P-1-1",         17007,   129.312E-03,   83.2709E-03,            0.,NA,NA,"",   1.07954E+06,   1.01267E+06,   1.01267E+06
C:/temp/Job-1.odb,Step-1,Increment      1: Step Time =    1.000,"P-1-1",         17008,   64.8572E-03,   181.692E-03,            0.,NA,NA,"",   1.01137E+06,   1.01254E+06,   1.01254E+06
C:/temp/Job-1.odb,Step-1,Increment      1: Step Time =    1.000,"P-1-1",         17009,   68.2599E-03,   178.979E-03,            0.,NA,NA,"",   1.01475E+06,   1.01655E+06,   1.01655E+06
C:/temp/Job-1.odb,Step-1,Increment      1: Step Time =    1.000,"P-1-1",         17010,   94.1706E-03,   178.271E-03,            0.,NA,NA,"",   988.136E+03,   995.437E+03,   995.437E+03
C:/temp/Job-1.odb,Step-1,Increment      1: Step Time =    1.000,"P-1-1",         17011,   183.710E-03,   136.998E-03,            0.,NA,NA,"",   996.076E+03,   1.00371E+06,   1.00371E+06
C:/temp/Job-1.odb,Step-1,Increment      1: Step Time =    1.000,"P-1-1",         17012,   75.0933E-03,   180.373E-03,            0.,NA,NA,"",   1.00227E+06,   1.00485E+06,   1.00485E+06
C:/temp/Job-1.odb,Step-1,Increment      1: Step Time =    1.000,"P-1-1",         17013,   178.777E-03,   106.333E-03,            0.,NA,NA,"",   965.159E+03,   982.461E+03,   982.461E+03
C:/temp/Job-1.odb,Step-1,Increment      1: Step Time =    1.000,"P-1-1",         17014,   72.2148E-03,   9.51691E-03,            0.,NA,NA,"",   973.002E+03,   973.402E+03,   973.402E+03
C:/temp/Job-1.odb,Step-1,Increment      1: Step Time =    1.000,"P-1-1",         17015,   84.9063E-03,   11.6499E-03,            0.,NA,NA,"",   967.067E+03,   968.791E+03,   968.791E+03
C:/temp/Job-1.odb,Step-1,Increment      1: Step Time =    1.000,"P-1-1",         17016,   141.097E-03,   11.8973E-03,            0.,NA,NA,"",   992.160E+03,   990.927E+03,   990.927E+03
C:/temp/Job-1.odb,Step-1,Increment      1: Step Time =    1.000,"P-1-1",         17017,   181.267E-03,   94.6820E-03,            0.,NA,NA,"",   966.746E+03,   985.919E+03,   985.919E+03
C:/temp/Job-1.odb,Step-1,Increment      1: Step Time =    1.000,"P-1-1",         17018,   59.7063E-03,   10.3044E-03,            0.,NA,NA,"",   992.556E+03,   992.790E+03,   992.790E+03
C:/temp/Job-1.odb,Step-1,Increment      1: Step Time =    1.000,"P-1-1",         17019,   10.0165E-03,   129.363E-03,            0.,NA,NA,"",   829.782E+03,   924.606E+03,   924.606E+03
C:/temp/Job-1.odb,Step-1,Increment      1: Step Time =    1.000,"P-1-1",         17020,   58.6434E-03,   10.6204E-03,            0.,NA,NA,"",   994.947E+03,   995.221E+03,   995.221E+03
C:/temp/Job-1.odb,Step-1,Increment      1: Step Time =    1.000,"P-1-1",         17021,   82.0358E-03,   176.740E-03,            0.,NA,NA,"",   1.00300E+06,   1.00841E+06,   1.00841E+06
C:/temp/Job-1.odb,Step-1,Increment      1: Step Time =    1.000,"P-1-1",         17022,   184.014E-03,   56.7839E-03,            0.,NA,NA,"",   999.797E+03,   1.00509E+06,   1.00509E+06
C:/temp/Job-1.odb,Step-1,Increment      1: Step Time =    1.000,"P-1-1",         17023,   99.9299E-03,   129.507E-03,            0.,NA,NA,"",   1.08534E+06,   1.17982E+06,   1.17982E+06
C:/temp/Job-1.odb,Step-1,Increment      1: Step Time =    1.000,"P-1-1",         17024,   98.4051E-03,   130.899E-03,            0.,NA,NA,"",   1.07701E+06,   1.16494E+06,   1.16494E+06
C:/temp/Job-1.odb,Step-1,Increment      1: Step Time =    1.000,"P-1-1",         17025,   96.7204E-03,   132.645E-03,            0.,NA,NA,"",   1.07203E+06,   1.14989E+06,   1.14989E+06
C:/temp/Job-1.odb,Step-1,Increment      1: Step Time =    1.000,"P-1-1",         17026,   96.0078E-03,   133.830E-03,            0.,NA,NA,"",   1.06911E+06,   1.14131E+06,   1.14131E+06
C:/temp/Job-1.odb,Step-1,Increment      1: Step Time =    1.000,"P-1-1",         17027,   159.125E-03,   10.2326E-03,            0.,NA,NA,"",   998.392E+03,   997.510E+03,   997.510E+03
C:/temp/Job-1.odb,Step-1,Increment      1: Step Time =    1.000,"P-1-1",         17028,   91.0310E-03,   11.5102E-03,            0.,NA,NA,"",   962.977E+03,   965.154E+03,   965.154E+03
C:/temp/Job-1.odb,Step-1,Increment      1: Step Time =    1.000,"P-1-1",         17029,   89.8384E-03,   11.7953E-03,            0.,NA,NA,"",   964.405E+03,   966.554E+03,   966.554E+03
C:/temp/Job-1.odb,Step-1,Increment      1: Step Time =    1.000,"P-1-1",         17030,   68.2996E-03,   108.402E-03,            0.,NA,NA,"",   784.428E+03,   796.036E+03,   796.036E+03
C:/temp/Job-1.odb,Step-1,Increment      1: Step Time =    1.000,"P-1-1",         17031,   72.0996E-03,   8.44723E-03,            0.,NA,NA,"",   969.535E+03,   969.881E+03,   969.881E+03
C:/temp/Job-1.odb,Step-1,Increment      1: Step Time =    1.000,"P-1-1",         17032,   9.72838E-03,   39.7146E-03,            0.,NA,NA,"",   921.549E+03,   1.01205E+06,   1.01205E+06
C:/temp/Job-1.odb,Step-1,Increment      1: Step Time =    1.000,"P-1-1",         17033,   8.81852E-03,   41.3577E-03,            0.,NA,NA,"",   911.645E+03,   1.00433E+06,   1.00433E+06
C:/temp/Job-1.odb,Step-1,Increment      1: Step Time =    1.000,"P-1-1",         17034,   32.6728E-03,   183.919E-03,            0.,NA,NA,"",   1.05914E+06,   1.07026E+06,   1.07026E+06
C:/temp/Job-1.odb,Step-1,Increment      1: Step Time =    1.000,"P-1-1",         17035,   36.8022E-03,   182.730E-03,            0.,NA,NA,"",   1.05087E+06,   1.06001E+06,   1.06001E+06
C:/temp/Job-1.odb,Step-1,Increment      1: Step Time =    1.000,"P-1-1",         17036,   8.79020E-03,   181.661E-03,            0.,NA,NA,"",   1.05851E+06,   1.13370E+06,   1.13370E+06
C:/temp/Job-1.odb,Step-1,Increment      1: Step Time =    1.000,"P-1-1",         17037,   179.217E-03,   103.145E-03,            0.,NA,NA,"",   964.140E+03,   982.254E+03,   982.254E+03
C:/temp/Job-1.odb,Step-1,Increment      1: Step Time =    1.000,"P-1-1",         17038,   183.921E-03,   78.5654E-03,            0.,NA,NA,"",   980.834E+03,   996.292E+03,   996.292E+03
C:/temp/Job-1.odb,Step-1,Increment      1: Step Time =    1.000,"P-1-1",         17039,   182.878E-03,   77.6378E-03,            0.,NA,NA,"",   982.322E+03,   996.467E+03,   996.467E+03
C:/temp/Job-1.odb,Step-1,Increment      1: Step Time =    1.000,"P-1-1",         17040,   106.856E-03,   179.905E-03,            0.,NA,NA,"",   984.436E+03,   990.184E+03,   990.184E+03
C:/temp/Job-1.odb,Step-1,Increment      1: Step Time =    1.000,"P-1-1",         17041,   107.881E-03,   179.005E-03,            0.,NA,NA,"",   986.666E+03,   992.548E+03,   992.548E+03
C:/temp/Job-1.odb,Step-1,Increment      1: Step Time =    1.000,"P-1-1",         17042,   97.1938E-03,   179.085E-03,            0.,NA,NA,"",   985.157E+03,   992.135E+03,   992.135E+03
C:/temp/Job-1.odb,Step-1,Increment      1: Step Time =    1.000,"P-1-1",         17043,   9.79783E-03,   181.691E-03,            0.,NA,NA,"",   1.06386E+06,   1.13477E+06,   1.13477E+06
C:/temp/Job-1.odb,Step-1,Increment      1: Step Time =    1.000,"P-1-1",         17044,   182.107E-03,   17.9015E-03,            0.,NA,NA,"",   1.00184E+06,   1.00151E+06,   1.00151E+06
C:/temp/Job-1.odb,Step-1,Increment      1: Step Time =    1.000,"P-1-1",         17045,   9.67955E-03,   43.2775E-03,            0.,NA,NA,"",   908.321E+03,   999.945E+03,   999.945E+03
C:/temp/Job-1.odb,Step-1,Increment      1: Step Time =    1.000,"P-1-1",         17046,   9.95088E-03,   44.5985E-03,            0.,NA,NA,"",   905.221E+03,   996.439E+03,   996.439E+03
C:/temp/Job-1.odb,Step-1,Increment      1: Step Time =    1.000,"P-1-1",         17047,   181.418E-03,   169.363E-03,            0.,NA,NA,"",   1.00532E+06,   1.00485E+06,   1.00485E+06
C:/temp/Job-1.odb,Step-1,Increment      1: Step Time =    1.000,"P-1-1",         17048,   167.965E-03,   15.2827E-03,            0.,NA,NA,"",   1.00314E+06,   1.00193E+06,   1.00193E+06
C:/temp/Job-1.odb,Step-1,Increment      1: Step Time =    1.000,"P-1-1",         17049,   180.463E-03,   171.101E-03,            0.,NA,NA,"",   1.00544E+06,   1.00480E+06,   1.00480E+06
C:/temp/Job-1.odb,Step-1,Increment      1: Step Time =    1.000,"P-1-1",         17050,   179.554E-03,   123.873E-03,            0.,NA,NA,"",   985.711E+03,   996.643E+03,   996.643E+03
C:/temp/Job-1.odb,Step-1,Increment      1: Step Time =    1.000,"P-1-1",         17051,   125.659E-03,   74.5819E-03,            0.,NA,NA,"",   1.20259E+06,   1.14071E+06,   1.14071E+06
C:/temp/Job-1.odb,Step-1,Increment      1: Step Time =    1.000,"P-1-1",         17052,   10.4852E-03,   107.482E-03,            0.,NA,NA,"",   793.676E+03,   888.988E+03,   888.988E+03
C:/temp/Job-1.odb,Step-1,Increment      1: Step Time =    1.000,"P-1-1",         17053,   183.690E-03,   111.417E-03,            0.,NA,NA,"",   971.571E+03,   991.086E+03,   991.086E+03
C:/temp/Job-1.odb,Step-1,Increment      1: Step Time =    1.000,"P-1-1",         17054,   181.180E-03,   69.2114E-03,            0.,NA,NA,"",   992.842E+03,   1.00155E+06,   1.00155E+06
C:/temp/Job-1.odb,Step-1,Increment      1: Step Time =    1.000,"P-1-1",         17055,   161.243E-03,   178.160E-03,            0.,NA,NA,"",   1.01077E+06,   1.00765E+06,   1.00765E+06
C:/temp/Job-1.odb,Step-1,Increment      1: Step Time =    1.000,"P-1-1",         17056,   73.9083E-03,   178.706E-03,            0.,NA,NA,"",   1.00839E+06,   1.01114E+06,   1.01114E+06
C:/temp/Job-1.odb,Step-1,Increment      1: Step Time =    1.000,"P-1-1",         17057,   116.539E-03,   122.981E-03,            0.,NA,NA,"",   1.29690E+06,   1.24947E+06,   1.24947E+06
C:/temp/Job-1.odb,Step-1,Increment      1: Step Time =    1.000,"P-1-1",         17058,   155.204E-03,   179.751E-03,            0.,NA,NA,"",   1.01015E+06,   1.00684E+06,   1.00684E+06
C:/temp/Job-1.odb,Step-1,Increment      1: Step Time =    1.000,"P-1-1",         17059,   179.591E-03,   44.6244E-03,            0.,NA,NA,"",   1.00876E+06,   1.00875E+06,   1.00875E+06
C:/temp/Job-1.odb,Step-1,Increment      1: Step Time =    1.000,"P-1-1",         17060,   115.146E-03,   185.521E-03,            0.,NA,NA,"",   976.037E+03,   978.053E+03,   978.053E+03
C:/temp/Job-1.odb,Step-1,Increment      1: Step Time =    1.000,"P-1-1",         17061,   95.4472E-03,   13.6567E-03,            0.,NA,NA,"",   967.659E+03,   970.845E+03,   970.845E+03
C:/temp/Job-1.odb,Step-1,Increment      1: Step Time =    1.000,"P-1-1",         17062,   182.999E-03,   162.053E-03,            0.,NA,NA,"",   1.00516E+06,   1.00556E+06,   1.00556E+06
C:/temp/Job-1.odb,Step-1,Increment      1: Step Time =    1.000,"P-1-1",         17063,   180.064E-03,   36.8570E-03,            0.,NA,NA,"",   1.00766E+06,   1.00709E+06,   1.00709E+06
C:/temp/Job-1.odb,Step-1,Increment      1: Step Time =    1.000,"P-1-1",         17064,   50.5529E-03,   185.648E-03,            0.,NA,NA,"",   1.02009E+06,   1.02172E+06,   1.02172E+06
C:/temp/Job-1.odb,Step-1,Increment      1: Step Time =    1.000,"P-1-1",         17065,   56.9330E-03,   180.706E-03,            0.,NA,NA,"",   1.02437E+06,   1.02619E+06,   1.02619E+06
C:/temp/Job-1.odb,Step-1,Increment      1: Step Time =    1.000,"P-1-1",         17066,   150.809E-03,   181.183E-03,            0.,NA,NA,"",   1.00802E+06,   1.00494E+06,   1.00494E+06
C:/temp/Job-1.odb,Step-1,Increment      1: Step Time =    1.000,"P-1-1",         17067,   181.278E-03,   49.4795E-03,            0.,NA,NA,"",   1.00592E+06,   1.00760E+06,   1.00760E+06
C:/temp/Job-1.odb,Step-1,Increment      1: Step Time =    1.000,"P-1-1",         17068,   182.731E-03,   160.750E-03,            0.,NA,NA,"",   1.00541E+06,   1.00590E+06,   1.00590E+06
C:/temp/Job-1.odb,Step-1,Increment      1: Step Time =    1.000,"P-1-1",         17069,   44.3711E-03,   10.6241E-03,            0.,NA,NA,"",   1.02073E+06,   1.02245E+06,   1.02245E+06
C:/temp/Job-1.odb,Step-1,Increment      1: Step Time =    1.000,"P-1-1",         17070,   186.729E-03,   60.6925E-03,            0.,NA,NA,"",   994.559E+03,   1.00305E+06,   1.00305E+06
C:/temp/Job-1.odb,Step-1,Increment      1: Step Time =    1.000,"P-1-1",         17071,   130.434E-03,   180.167E-03,            0.,NA,NA,"",   1.00190E+06,   1.00079E+06,   1.00079E+06
C:/temp/Job-1.odb,Step-1,Increment      1: Step Time =    1.000,"P-1-1",         17072,   141.181E-03,   185.601E-03,            0.,NA,NA,"",   996.826E+03,   995.126E+03,   995.126E+03
C:/temp/Job-1.odb,Step-1,Increment      1: Step Time =    1.000,"P-1-1",         17073,   67.5039E-03,   86.3681E-03,            0.,NA,NA,"",   919.198E+03,   911.722E+03,   911.722E+03
C:/temp/Job-1.odb,Step-1,Increment      1: Step Time =    1.000,"P-1-1",         17074,   128.020E-03,   118.616E-03,            0.,NA,NA,"",   1.13170E+06,   1.05739E+06,   1.05739E+06
C:/temp/Job-1.odb,Step-1,Increment      1: Step Time =    1.000,"P-1-1",         17075,   10.3791E-03,   74.9327E-03,            0.,NA,NA,"",   821.179E+03,   915.873E+03,   915.873E+03
C:/temp/Job-1.odb,Step-1,Increment      1: Step Time =    1.000,"P-1-1",         17076,   10.4283E-03,   76.3073E-03,            0.,NA,NA,"",   818.266E+03,   912.996E+03,   912.996E+03
C:/temp/Job-1.odb,Step-1,Increment      1: Step Time =    1.000,"P-1-1",         17077,   183.962E-03,   80.3881E-03,            0.,NA,NA,"",   979.072E+03,   995.448E+03,   995.448E+03
C:/temp/Job-1.odb,Step-1,Increment      1: Step Time =    1.000,"P-1-1",         17078,   37.9096E-03,   11.8795E-03,            0.,NA,NA,"",   1.03968E+06,   1.04372E+06,   1.04372E+06
C:/temp/Job-1.odb,Step-1,Increment      1: Step Time =    1.000,"P-1-1",         17079,   177.993E-03,   126.265E-03,            0.,NA,NA,"",   989.822E+03,   998.322E+03,   998.322E+03
C:/temp/Job-1.odb,Step-1,Increment      1: Step Time =    1.000,"P-1-1",         17080,   177.166E-03,   125.229E-03,            0.,NA,NA,"",   988.896E+03,   997.258E+03,   997.258E+03
C:/temp/Job-1.odb,Step-1,Increment      1: Step Time =    1.000,"P-1-1",         17081,   59.3257E-03,   181.326E-03,            0.,NA,NA,"",   1.01943E+06,   1.02074E+06,   1.02074E+06
C:/temp/Job-1.odb,Step-1,Increment      1: Step Time =    1.000,"P-1-1",         17082,   65.5456E-03,   179.867E-03,            0.,NA,NA,"",   1.01605E+06,   1.01756E+06,   1.01756E+06
C:/temp/Job-1.odb,Step-1,Increment      1: Step Time =    1.000,"P-1-1",         17083,   182.033E-03,   146.459E-03,            0.,NA,NA,"",   1.00365E+06,   1.00678E+06,   1.00678E+06
C:/temp/Job-1.odb,Step-1,Increment      1: Step Time =    1.000,"P-1-1",         17084,   153.654E-03,   11.4931E-03,            0.,NA,NA,"",   998.128E+03,   996.871E+03,   996.871E+03
C:/temp/Job-1.odb,Step-1,Increment      1: Step Time =    1.000,"P-1-1",         17085,   12.8868E-03,   100.064E-03,            0.,NA,NA,"",   794.506E+03,   888.139E+03,   888.139E+03
C:/temp/Job-1.odb,Step-1,Increment      1: Step Time =    1.000,"P-1-1",         17086,   13.6980E-03,   101.153E-03,            0.,NA,NA,"",   795.802E+03,   888.839E+03,   888.839E+03
C:/temp/Job-1.odb,Step-1,Increment      1: Step Time =    1.000,"P-1-1",         17087,   85.9110E-03,   178.073E-03,            0.,NA,NA,"",   995.698E+03,   1.00161E+06,   1.00161E+06
C:/temp/Job-1.odb,Step-1,Increment      1: Step Time =    1.000,"P-1-1",         17088,   87.1674E-03,   178.146E-03,            0.,NA,NA,"",   994.112E+03,   1.00027E+06,   1.00027E+06
C:/temp/Job-1.odb,Step-1,Increment      1: Step Time =    1.000,"P-1-1",         17089,   129.079E-03,   81.5460E-03,            0.,NA,NA,"",   1.11248E+06,   1.04367E+06,   1.04367E+06
C:/temp/Job-1.odb,Step-1,Increment      1: Step Time =    1.000,"P-1-1",         17090,   122.809E-03,   120.268E-03,            0.,NA,NA,"",   1.23195E+06,   1.14617E+06,   1.14617E+06
C:/temp/Job-1.odb,Step-1,Increment      1: Step Time =    1.000,"P-1-1",         17091,   122.671E-03,   121.565E-03,            0.,NA,NA,"",   1.23899E+06,   1.15912E+06,   1.15912E+06
C:/temp/Job-1.odb,Step-1,Increment      1: Step Time =    1.000,"P-1-1",         17092,   137.354E-03,   93.9783E-03,            0.,NA,NA,"",   809.214E+03,   812.962E+03,   812.962E+03
C:/temp/Job-1.odb,Step-1,Increment      1: Step Time =    1.000,"P-1-1",         17093,   94.4783E-03,   65.1373E-03,            0.,NA,NA,"",   1.07268E+06,   1.13711E+06,   1.13711E+06
C:/temp/Job-1.odb,Step-1,Increment      1: Step Time =    1.000,"P-1-1",         17094,   131.653E-03,   116.656E-03,            0.,NA,NA,"",   1.04720E+06,   991.934E+03,   991.934E+03
C:/temp/Job-1.odb,Step-1,Increment      1: Step Time =    1.000,"P-1-1",         17095,   8.98147E-03,   138.630E-03,            0.,NA,NA,"",   849.813E+03,   945.218E+03,   945.218E+03
C:/temp/Job-1.odb,Step-1,Increment      1: Step Time =    1.000,"P-1-1",         17096,   98.2145E-03,   178.289E-03,            0.,NA,NA,"",   986.658E+03,   994.217E+03,   994.217E+03
C:/temp/Job-1.odb,Step-1,Increment      1: Step Time =    1.000,"P-1-1",         17097,   101.098E-03,   178.491E-03,            0.,NA,NA,"",   986.056E+03,   993.334E+03,   993.334E+03
C:/temp/Job-1.odb,Step-1,Increment      1: Step Time =    1.000,"P-1-1",         17098,   102.090E-03,   177.982E-03,            0.,NA,NA,"",   987.166E+03,   994.647E+03,   994.647E+03
C:/temp/Job-1.odb,Step-1,Increment      1: Step Time =    1.000,"P-1-1",         17099,   158.282E-03,   177.778E-03,            0.,NA,NA,"",   1.01217E+06,   1.00861E+06,   1.00861E+06
C:/temp/Job-1.odb,Step-1,Increment      1: Step Time =    1.000,"P-1-1",         17100,   159.469E-03,   177.312E-03,            0.,NA,NA,"",   1.01244E+06,   1.00888E+06,   1.00888E+06
C:/temp/Job-1.odb,Step-1,Increment      1: Step Time =    1.000,"P-1-1",         17101,   178.254E-03,   102.038E-03,            0.,NA,NA,"",   962.858E+03,   980.468E+03,   980.468E+03
C:/temp/Job-1.odb,Step-1,Increment      1: Step Time =    1.000,"P-1-1",         17102,   83.7295E-03,   12.5263E-03,            0.,NA,NA,"",   971.107E+03,   972.996E+03,   972.996E+03
C:/temp/Job-1.odb,Step-1,Increment      1: Step Time =    1.000,"P-1-1",         17103,   81.4194E-03,   11.9906E-03,            0.,NA,NA,"",   971.706E+03,   973.231E+03,   973.231E+03
C:/temp/Job-1.odb,Step-1,Increment      1: Step Time =    1.000,"P-1-1",         17104,   40.5577E-03,   10.6791E-03,            0.,NA,NA,"",   1.02970E+06,   1.03223E+06,   1.03223E+06
C:/temp/Job-1.odb,Step-1,Increment      1: Step Time =    1.000,"P-1-1",         17105,   15.9788E-03,   18.0520E-03,            0.,NA,NA,"",   1.08098E+06,   1.12692E+06,   1.12692E+06
C:/temp/Job-1.odb,Step-1,Increment      1: Step Time =    1.000,"P-1-1",         17106,   16.2096E-03,   19.3625E-03,            0.,NA,NA,"",   1.07086E+06,   1.11944E+06,   1.11944E+06
C:/temp/Job-1.odb,Step-1,Increment      1: Step Time =    1.000,"P-1-1",         17107,   16.4192E-03,   22.1095E-03,            0.,NA,NA,"",   1.05034E+06,   1.10400E+06,   1.10400E+06
C:/temp/Job-1.odb,Step-1,Increment      1: Step Time =    1.000,"P-1-1",         17108,   16.6358E-03,   23.4728E-03,            0.,NA,NA,"",   1.04101E+06,   1.09696E+06,   1.09696E+06
C:/temp/Job-1.odb,Step-1,Increment      1: Step Time =    1.000,"P-1-1",         17109,   17.1020E-03,   13.6636E-03,            0.,NA,NA,"",   1.11212E+06,   1.14275E+06,   1.14275E+06
C:/temp/Job-1.odb,Step-1,Increment      1: Step Time =    1.000,"P-1-1",         17110,   179.659E-03,   151.913E-03,            0.,NA,NA,"",   1.00822E+06,   1.00882E+06,   1.00882E+06
C:/temp/Job-1.odb,Step-1,Increment      1: Step Time =    1.000,"P-1-1",         17111,   139.979E-03,   12.8360E-03,            0.,NA,NA,"",   993.139E+03,   991.797E+03,   991.797E+03
C:/temp/Job-1.odb,Step-1,Increment      1: Step Time =    1.000,"P-1-1",         17112,   137.361E-03,   12.7341E-03,            0.,NA,NA,"",   991.166E+03,   990.002E+03,   990.002E+03
C:/temp/Job-1.odb,Step-1,Increment      1: Step Time =    1.000,"P-1-1",         17113,   10.1149E-03,   155.440E-03,            0.,NA,NA,"",   905.325E+03,   996.508E+03,   996.508E+03
C:/temp/Job-1.odb,Step-1,Increment      1: Step Time =    1.000,"P-1-1",         17114,   10.8380E-03,   168.013E-03,            0.,NA,NA,"",    962.86E+03,   1.04676E+06,   1.04676E+06
C:/temp/Job-1.odb,Step-1,Increment      1: Step Time =    1.000,"P-1-1",         17115,   48.8221E-03,   180.655E-03,            0.,NA,NA,"",   1.03467E+06,   1.03861E+06,   1.03861E+06
C:/temp/Job-1.odb,Step-1,Increment      1: Step Time =    1.000,"P-1-1",         17116,   179.740E-03,   94.0388E-03,            0.,NA,NA,"",   965.881E+03,   983.860E+03,   983.860E+03
C:/temp/Job-1.odb,Step-1,Increment      1: Step Time =    1.000,"P-1-1",         17117,   26.4756E-03,   179.925E-03,            0.,NA,NA,"",   1.06541E+06,   1.09055E+06,   1.09055E+06
C:/temp/Job-1.odb,Step-1,Increment      1: Step Time =    1.000,"P-1-1",         17118,   176.970E-03,   106.150E-03,            0.,NA,NA,"",   963.233E+03,   979.501E+03,   979.501E+03
C:/temp/Job-1.odb,Step-1,Increment      1: Step Time =    1.000,"P-1-1",         17119,   178.062E-03,   41.2133E-03,            0.,NA,NA,"",   1.01027E+06,   1.00933E+06,   1.00933E+06
C:/temp/Job-1.odb,Step-1,Increment      1: Step Time =    1.000,"P-1-1",         17120,   177.645E-03,   40.1065E-03,            0.,NA,NA,"",   1.01056E+06,   1.00940E+06,   1.00940E+06
C:/temp/Job-1.odb,Step-1,Increment      1: Step Time =    1.000,"P-1-1",         17121,   136.390E-03,   183.630E-03,            0.,NA,NA,"",   998.018E+03,   996.331E+03,   996.331E+03
C:/temp/Job-1.odb,Step-1,Increment      1: Step Time =    1.000,"P-1-1",         17122,   68.3766E-03,   14.8909E-03,            0.,NA,NA,"",   996.356E+03,   997.230E+03,   997.230E+03
C:/temp/Job-1.odb,Step-1,Increment      1: Step Time =    1.000,"P-1-1",         17123,   94.7137E-03,   176.316E-03,            0.,NA,NA,"",   991.918E+03,   1.00052E+06,   1.00052E+06
C:/temp/Job-1.odb,Step-1,Increment      1: Step Time =    1.000,"P-1-1",         17124,   11.8685E-03,   106.404E-03,            0.,NA,NA,"",   795.207E+03,   889.523E+03,   889.523E+03
C:/temp/Job-1.odb,Step-1,Increment      1: Step Time =    1.000,"P-1-1",         17125,   179.761E-03,   28.3380E-03,            0.,NA,NA,"",   1.00572E+06,   1.00494E+06,   1.00494E+06
C:/temp/Job-1.odb,Step-1,Increment      1: Step Time =    1.000,"P-1-1",         17126,   173.306E-03,   16.3884E-03,            0.,NA,NA,"",   1.00307E+06,   1.00216E+06,   1.00216E+06
C:/temp/Job-1.odb,Step-1,Increment      1: Step Time =    1.000,"P-1-1",         17127,   177.011E-03,   18.5648E-03,            0.,NA,NA,"",   1.00323E+06,   1.00248E+06,   1.00248E+06
C:/temp/Job-1.odb,Step-1,Increment      1: Step Time =    1.000,"P-1-1",         17128,   126.778E-03,   179.843E-03,            0.,NA,NA,"",   999.891E+03,   999.760E+03,   999.760E+03
C:/temp/Job-1.odb,Step-1,Increment      1: Step Time =    1.000,"P-1-1",         17129,   178.703E-03,   122.820E-03,            0.,NA,NA,"",   984.563E+03,   995.324E+03,   995.324E+03
C:/temp/Job-1.odb,Step-1,Increment      1: Step Time =    1.000,"P-1-1",         17130,   79.7957E-03,   73.0634E-03,            0.,NA,NA,"",   1.21646E+06,   1.18872E+06,   1.18872E+06
C:/temp/Job-1.odb,Step-1,Increment      1: Step Time =    1.000,"P-1-1",         17131,   76.9719E-03,   71.5097E-03,            0.,NA,NA,"",   1.18840E+06,   1.16124E+06,   1.16124E+06
C:/temp/Job-1.odb,Step-1,Increment      1: Step Time =    1.000,"P-1-1",         17132,   65.4154E-03,   96.3180E-03,            0.,NA,NA,"",   693.644E+03,   733.963E+03,   733.963E+03
C:/temp/Job-1.odb,Step-1,Increment      1: Step Time =    1.000,"P-1-1",         17133,   63.6073E-03,   99.7190E-03,            0.,NA,NA,"",   694.099E+03,   740.438E+03,   740.438E+03
C:/temp/Job-1.odb,Step-1,Increment      1: Step Time =    1.000,"P-1-1",         17134,   99.1007E-03,   132.012E-03,            0.,NA,NA,"",   1.06766E+06,   1.15187E+06,   1.15187E+06
C:/temp/Job-1.odb,Step-1,Increment      1: Step Time =    1.000,"P-1-1",         17135,   117.260E-03,   183.002E-03,            0.,NA,NA,"",   983.985E+03,   986.143E+03,   986.143E+03
C:/temp/Job-1.odb,Step-1,Increment      1: Step Time =    1.000,"P-1-1",         17136,   97.8257E-03,   61.9791E-03,            0.,NA,NA,"",   1.04468E+06,   1.10828E+06,   1.10828E+06
C:/temp/Job-1.odb,Step-1,Increment      1: Step Time =    1.000,"P-1-1",         17137,   179.855E-03,   150.653E-03,            0.,NA,NA,"",   1.00776E+06,   1.00869E+06,   1.00869E+06
C:/temp/Job-1.odb,Step-1,Increment      1: Step Time =    1.000,"P-1-1",         17138,   132.378E-03,   180.237E-03,            0.,NA,NA,"",   1.00312E+06,   1.00154E+06,   1.00154E+06
C:/temp/Job-1.odb,Step-1,Increment      1: Step Time =    1.000,"P-1-1",         17139,   128.570E-03,   180.205E-03,            0.,NA,NA,"",   1.00030E+06,   999.663E+03,   999.663E+03
C:/temp/Job-1.odb,Step-1,Increment      1: Step Time =    1.000,"P-1-1",         17140,   10.1971E-03,   126.314E-03,            0.,NA,NA,"",   823.124E+03,   918.056E+03,   918.056E+03
C:/temp/Job-1.odb,Step-1,Increment      1: Step Time =    1.000,"P-1-1",         17141,   56.4907E-03,   179.666E-03,            0.,NA,NA,"",   1.02711E+06,   1.02919E+06,   1.02919E+06
C:/temp/Job-1.odb,Step-1,Increment      1: Step Time =    1.000,"P-1-1",         17142,   22.0593E-03,   179.306E-03,            0.,NA,NA,"",   1.06530E+06,   1.10042E+06,   1.10042E+06
C:/temp/Job-1.odb,Step-1,Increment      1: Step Time =    1.000,"P-1-1",         17143,   153.988E-03,   179.277E-03,            0.,NA,NA,"",   1.01087E+06,   1.00738E+06,   1.00738E+06
C:/temp/Job-1.odb,Step-1,Increment      1: Step Time =    1.000,"P-1-1",         17144,   12.3462E-03,   115.324E-03,            0.,NA,NA,"",   806.660E+03,   900.215E+03,   900.215E+03
C:/temp/Job-1.odb,Step-1,Increment      1: Step Time =    1.000,"P-1-1",         17145,   12.4405E-03,   59.2413E-03,            0.,NA,NA,"",   868.025E+03,   958.359E+03,   958.359E+03
C:/temp/Job-1.odb,Step-1,Increment      1: Step Time =    1.000,"P-1-1",         17146,   179.015E-03,   45.8379E-03,            0.,NA,NA,"",   1.00933E+06,   1.00924E+06,   1.00924E+06
C:/temp/Job-1.odb,Step-1,Increment      1: Step Time =    1.000,"P-1-1",         17147,   42.2150E-03,   11.6737E-03,            0.,NA,NA,"",   1.02902E+06,   1.03151E+06,   1.03151E+06
C:/temp/Job-1.odb,Step-1,Increment      1: Step Time =    1.000,"P-1-1",         17148,   12.0076E-03,   86.0820E-03,            0.,NA,NA,"",   803.578E+03,   897.540E+03,   897.540E+03
C:/temp/Job-1.odb,Step-1,Increment      1: Step Time =    1.000,"P-1-1",         17149,   90.9296E-03,   135.671E-03,            0.,NA,NA,"",   1.09308E+06,   1.14136E+06,   1.14136E+06
C:/temp/Job-1.odb,Step-1,Increment      1: Step Time =    1.000,"P-1-1",         17150,   84.0753E-03,   76.3402E-03,            0.,NA,NA,"",   1.27442E+06,   1.25018E+06,   1.25018E+06
C:/temp/Job-1.odb,Step-1,Increment      1: Step Time =    1.000,"P-1-1",         17151,   88.6060E-03,   136.822E-03,            0.,NA,NA,"",   1.10158E+06,   1.13875E+06,   1.13875E+06
C:/temp/Job-1.odb,Step-1,Increment      1: Step Time =    1.000,"P-1-1",         17152,   9.26059E-03,   40.6708E-03,            0.,NA,NA,"",   915.892E+03,   1.00762E+06,   1.00762E+06
C:/temp/Job-1.odb,Step-1,Increment      1: Step Time =    1.000,"P-1-1",         17153,   10.2676E-03,   41.4692E-03,            0.,NA,NA,"",   917.311E+03,   1.00725E+06,   1.00725E+06
C:/temp/Job-1.odb,Step-1,Increment      1: Step Time =    1.000,"P-1-1",         17154,   66.3818E-03,   87.4065E-03,            0.,NA,NA,"",   888.787E+03,   890.157E+03,   890.157E+03
C:/temp/Job-1.odb,Step-1,Increment      1: Step Time =    1.000,"P-1-1",         17155,   73.5938E-03,   78.0059E-03,            0.,NA,NA,"",   1.14805E+06,   1.10298E+06,   1.10298E+06
C:/temp/Job-1.odb,Step-1,Increment      1: Step Time =    1.000,"P-1-1",         17156,   138.112E-03,   96.8557E-03,            0.,NA,NA,"",   782.139E+03,   793.725E+03,   793.725E+03
C:/temp/Job-1.odb,Step-1,Increment      1: Step Time =    1.000,"P-1-1",         17157,   119.421E-03,   124.977E-03,            0.,NA,NA,"",   1.26081E+06,   1.20844E+06,   1.20844E+06
C:/temp/Job-1.odb,Step-1,Increment      1: Step Time =    1.000,"P-1-1",         17158,   139.271E-03,   97.6410E-03,            0.,NA,NA,"",   789.604E+03,   802.392E+03,   802.392E+03
C:/temp/Job-1.odb,Step-1,Increment      1: Step Time =    1.000,"P-1-1",         17159,   10.2835E-03,   127.705E-03,            0.,NA,NA,"",   826.806E+03,   921.424E+03,   921.424E+03
C:/temp/Job-1.odb,Step-1,Increment      1: Step Time =    1.000,"P-1-1",         17160,   9.48382E-03,   126.848E-03,            0.,NA,NA,"",   822.497E+03,   918.053E+03,   918.053E+03
C:/temp/Job-1.odb,Step-1,Increment      1: Step Time =    1.000,"P-1-1",         17161,   156.457E-03,   12.6112E-03,            0.,NA,NA,"",   1.00015E+06,   998.756E+03,   998.756E+03
C:/temp/Job-1.odb,Step-1,Increment      1: Step Time =    1.000,"P-1-1",         17162,   153.856E-03,   12.7955E-03,            0.,NA,NA,"",   999.736E+03,   998.224E+03,   998.224E+03
C:/temp/Job-1.odb,Step-1,Increment      1: Step Time =    1.000,"P-1-1",         17163,   166.675E-03,   16.6621E-03,            0.,NA,NA,"",   1.00437E+06,   1.00284E+06,   1.00284E+06
C:/temp/Job-1.odb,Step-1,Increment      1: Step Time =    1.000,"P-1-1",         17164,   165.363E-03,   16.8095E-03,            0.,NA,NA,"",   1.00471E+06,   1.00304E+06,   1.00304E+06
C:/temp/Job-1.odb,Step-1,Increment      1: Step Time =    1.000,"P-1-1",         17165,   182.415E-03,   80.2228E-03,            0.,NA,NA,"",   979.614E+03,   994.652E+03,   994.652E+03
C:/temp/Job-1.odb,Step-1,Increment      1: Step Time =    1.000,"P-1-1",         17166,   152.515E-03,   13.0904E-03,            0.,NA,NA,"",   999.768E+03,   998.161E+03,   998.161E+03
C:/temp/Job-1.odb,Step-1,Increment      1: Step Time =    1.000,"P-1-1",         17167,   62.9434E-03,   16.6049E-03,            0.,NA,NA,"",   1.00892E+06,   1.00977E+06,   1.00977E+06
C:/temp/Job-1.odb,Step-1,Increment      1: Step Time =    1.000,"P-1-1",         17168,   43.4598E-03,   12.5869E-03,            0.,NA,NA,"",   1.02869E+06,   1.03137E+06,   1.03137E+06
C:/temp/Job-1.odb,Step-1,Increment      1: Step Time =    1.000,"P-1-1",         17169,   179.005E-03,   49.1211E-03,            0.,NA,NA,"",   1.00895E+06,   1.00937E+06,   1.00937E+06
C:/temp/Job-1.odb,Step-1,Increment      1: Step Time =    1.000,"P-1-1",         17170,   178.318E-03,   46.9588E-03,            0.,NA,NA,"",   1.01004E+06,   1.00981E+06,   1.00981E+06
C:/temp/Job-1.odb,Step-1,Increment      1: Step Time =    1.000,"P-1-1",         17171,   178.747E-03,   48.2764E-03,            0.,NA,NA,"",   1.00951E+06,   1.00962E+06,   1.00962E+06
C:/temp/Job-1.odb,Step-1,Increment      1: Step Time =    1.000,"P-1-1",         17172,   164.102E-03,   17.1283E-03,            0.,NA,NA,"",   1.00514E+06,   1.00331E+06,   1.00331E+06
C:/temp/Job-1.odb,Step-1,Increment      1: Step Time =    1.000,"P-1-1",         17173,   15.9093E-03,   28.5569E-03,            0.,NA,NA,"",   1.00621E+06,   1.07201E+06,   1.07201E+06
C:/temp/Job-1.odb,Step-1,Increment      1: Step Time =    1.000,"P-1-1",         17174,   152.653E-03,   179.962E-03,            0.,NA,NA,"",   1.00998E+06,   1.00661E+06,   1.00661E+06
C:/temp/Job-1.odb,Step-1,Increment      1: Step Time =    1.000,"P-1-1",         17175,   141.280E-03,   184.221E-03,            0.,NA,NA,"",   999.634E+03,   997.624E+03,   997.624E+03
C:/temp/Job-1.odb,Step-1,Increment      1: Step Time =    1.000,"P-1-1",         17176,   156.365E-03,   178.747E-03,            0.,NA,NA,"",   1.01141E+06,   1.00791E+06,   1.00791E+06
C:/temp/Job-1.odb,Step-1,Increment      1: Step Time =    1.000,"P-1-1",         17177,   148.977E-03,   180.895E-03,            0.,NA,NA,"",   1.00836E+06,   1.00517E+06,   1.00517E+06
C:/temp/Job-1.odb,Step-1,Increment      1: Step Time =    1.000,"P-1-1",         17178,   23.6024E-03,   13.7807E-03,            0.,NA,NA,"",   1.08951E+06,   1.10701E+06,   1.10701E+06
C:/temp/Job-1.odb,Step-1,Increment      1: Step Time =    1.000,"P-1-1",         17179,   83.3208E-03,   175.581E-03,            0.,NA,NA,"",   1.00431E+06,   1.01071E+06,   1.01071E+06
C:/temp/Job-1.odb,Step-1,Increment      1: Step Time =    1.000,"P-1-1",         17180,   181.444E-03,   25.1442E-03,            0.,NA,NA,"",   1.00397E+06,   1.00346E+06,   1.00346E+06
C:/temp/Job-1.odb,Step-1,Increment      1: Step Time =    1.000,"P-1-1",         17181,   179.321E-03,   83.0269E-03,            0.,NA,NA,"",   976.519E+03,   990.461E+03,   990.461E+03
C:/temp/Job-1.odb,Step-1,Increment      1: Step Time =    1.000,"P-1-1",         17182,   104.718E-03,   14.9386E-03,            0.,NA,NA,"",   971.345E+03,   974.900E+03,   974.900E+03
C:/temp/Job-1.odb,Step-1,Increment      1: Step Time =    1.000,"P-1-1",         17183,   63.4105E-03,   95.5836E-03,            0.,NA,NA,"",   724.105E+03,   765.243E+03,   765.243E+03
C:/temp/Job-1.odb,Step-1,Increment      1: Step Time =    1.000,"P-1-1",         17184,   65.5812E-03,   84.4468E-03,            0.,NA,NA,"",   943.408E+03,   939.912E+03,   939.912E+03
C:/temp/Job-1.odb,Step-1,Increment      1: Step Time =    1.000,"P-1-1",         17185,   83.4710E-03,   177.275E-03,            0.,NA,NA,"",   1.00007E+06,   1.00577E+06,   1.00577E+06
C:/temp/Job-1.odb,Step-1,Increment      1: Step Time =    1.000,"P-1-1",         17186,   179.315E-03,   68.5836E-03,            0.,NA,NA,"",   995.399E+03,   1.00237E+06,   1.00237E+06
C:/temp/Job-1.odb,Step-1,Increment      1: Step Time =    1.000,"P-1-1",         17187,   40.8462E-03,   12.1400E-03,            0.,NA,NA,"",   1.03338E+06,   1.03666E+06,   1.03666E+06
C:/temp/Job-1.odb,Step-1,Increment      1: Step Time =    1.000,"P-1-1",         17188,   59.8462E-03,   180.602E-03,            0.,NA,NA,"",   1.02102E+06,   1.02250E+06,   1.02250E+06
C:/temp/Job-1.odb,Step-1,Increment      1: Step Time =    1.000,"P-1-1",         17189,   70.0303E-03,   176.938E-03,            0.,NA,NA,"",   1.01807E+06,   1.02054E+06,   1.02054E+06
C:/temp/Job-1.odb,Step-1,Increment      1: Step Time =    1.000,"P-1-1",         17190,   16.4720E-03,   182.000E-03,            0.,NA,NA,"",   1.08130E+06,   1.12554E+06,   1.12554E+06
C:/temp/Job-1.odb,Step-1,Increment      1: Step Time =    1.000,"P-1-1",         17191,   177.949E-03,   93.0960E-03,            0.,NA,NA,"",   965.021E+03,   981.674E+03,   981.674E+03
C:/temp/Job-1.odb,Step-1,Increment      1: Step Time =    1.000,"P-1-1",         17192,   176.891E-03,   90.8089E-03,            0.,NA,NA,"",   966.180E+03,   981.558E+03,   981.558E+03
C:/temp/Job-1.odb,Step-1,Increment      1: Step Time =    1.000,"P-1-1",         17193,   184.827E-03,   59.2573E-03,            0.,NA,NA,"",   997.345E+03,   1.00414E+06,   1.00414E+06
C:/temp/Job-1.odb,Step-1,Increment      1: Step Time =    1.000,"P-1-1",         17194,   114.909E-03,   180.892E-03,            0.,NA,NA,"",   987.011E+03,   990.358E+03,   990.358E+03
C:/temp/Job-1.odb,Step-1,Increment      1: Step Time =    1.000,"P-1-1",         17195,   106.970E-03,   178.186E-03,            0.,NA,NA,"",   987.902E+03,   994.429E+03,   994.429E+03
C:/temp/Job-1.odb,Step-1,Increment      1: Step Time =    1.000,"P-1-1",         17196,   107.699E-03,   177.363E-03,            0.,NA,NA,"",   989.764E+03,   996.553E+03,   996.553E+03
C:/temp/Job-1.odb,Step-1,Increment      1: Step Time =    1.000,"P-1-1",         17197,   128.799E-03,   178.679E-03,            0.,NA,NA,"",   1.00433E+06,   1.00353E+06,   1.00353E+06
C:/temp/Job-1.odb,Step-1,Increment      1: Step Time =    1.000,"P-1-1",         17198,   11.8311E-03,   108.733E-03,            0.,NA,NA,"",   797.104E+03,   891.347E+03,   891.347E+03
C:/temp/Job-1.odb,Step-1,Increment      1: Step Time =    1.000,"P-1-1",         17199,   12.1611E-03,   109.898E-03,            0.,NA,NA,"",   798.868E+03,   892.826E+03,   892.826E+03
C:/temp/Job-1.odb,Step-1,Increment      1: Step Time =    1.000,"P-1-1",         17200,   16.7920E-03,   27.1614E-03,            0.,NA,NA,"",   1.01783E+06,   1.07922E+06,   1.07922E+06
C:/temp/Job-1.odb,Step-1,Increment      1: Step Time =    1.000,"P-1-1",         17201,   96.2367E-03,   135.765E-03,            0.,NA,NA,"",   1.05799E+06,   1.12533E+06,   1.12533E+06
C:/temp/Job-1.odb,Step-1,Increment      1: Step Time =    1.000,"P-1-1",         17202,   95.5937E-03,   136.868E-03,            0.,NA,NA,"",   1.05664E+06,   1.11960E+06,   1.11960E+06
C:/temp/Job-1.odb,Step-1,Increment      1: Step Time =    1.000,"P-1-1",         17203,   87.2952E-03,   176.719E-03,            0.,NA,NA,"",   997.210E+03,   1.00417E+06,   1.00417E+06
C:/temp/Job-1.odb,Step-1,Increment      1: Step Time =    1.000,"P-1-1",         17204,   88.4735E-03,   176.750E-03,            0.,NA,NA,"",   995.869E+03,   1.00310E+06,   1.00310E+06
C:/temp/Job-1.odb,Step-1,Increment      1: Step Time =    1.000,"P-1-1",         17205,   162.968E-03,   175.566E-03,            0.,NA,NA,"",   1.01304E+06,   1.00954E+06,   1.00954E+06
C:/temp/Job-1.odb,Step-1,Increment      1: Step Time =    1.000,"P-1-1",         17206,   12.6771E-03,   165.884E-03,            0.,NA,NA,"",   961.069E+03,   1.04156E+06,   1.04156E+06
C:/temp/Job-1.odb,Step-1,Increment      1: Step Time =    1.000,"P-1-1",         17207,   64.9835E-03,   179.018E-03,            0.,NA,NA,"",   1.01898E+06,   1.02058E+06,   1.02058E+06
C:/temp/Job-1.odb,Step-1,Increment      1: Step Time =    1.000,"P-1-1",         17208,   65.3877E-03,   177.962E-03,            0.,NA,NA,"",   1.02125E+06,   1.02306E+06,   1.02306E+06
C:/temp/Job-1.odb,Step-1,Increment      1: Step Time =    1.000,"P-1-1",         17209,   66.4129E-03,   176.931E-03,            0.,NA,NA,"",   1.02257E+06,   1.02460E+06,   1.02460E+06
C:/temp/Job-1.odb,Step-1,Increment      1: Step Time =    1.000,"P-1-1",         17210,   67.0713E-03,   81.7724E-03,            0.,NA,NA,"",   1.00994E+06,   992.236E+03,   992.236E+03
C:/temp/Job-1.odb,Step-1,Increment      1: Step Time =    1.000,"P-1-1",         17211,   94.8757E-03,   14.2623E-03,            0.,NA,NA,"",   969.441E+03,   972.799E+03,   972.799E+03
C:/temp/Job-1.odb,Step-1,Increment      1: Step Time =    1.000,"P-1-1",         17212,   93.6227E-03,   13.6113E-03,            0.,NA,NA,"",   968.252E+03,   971.363E+03,   971.363E+03
C:/temp/Job-1.odb,Step-1,Increment      1: Step Time =    1.000,"P-1-1",         17213,   63.7357E-03,   90.1809E-03,            0.,NA,NA,"",   817.572E+03,   840.486E+03,   840.486E+03
C:/temp/Job-1.odb,Step-1,Increment      1: Step Time =    1.000,"P-1-1",         17214,   19.3768E-03,   178.910E-03,            0.,NA,NA,"",   1.06200E+06,   1.10509E+06,   1.10509E+06
C:/temp/Job-1.odb,Step-1,Increment      1: Step Time =    1.000,"P-1-1",         17215,   52.5769E-03,   176.869E-03,            0.,NA,NA,"",   1.03730E+06,   1.04128E+06,   1.04128E+06
C:/temp/Job-1.odb,Step-1,Increment      1: Step Time =    1.000,"P-1-1",         17216,   176.361E-03,   31.5851E-03,            0.,NA,NA,"",   1.00928E+06,   1.00768E+06,   1.00768E+06
C:/temp/Job-1.odb,Step-1,Increment      1: Step Time =    1.000,"P-1-1",         17217,   176.120E-03,   156.092E-03,            0.,NA,NA,"",   1.01290E+06,   1.01132E+06,   1.01132E+06
C:/temp/Job-1.odb,Step-1,Increment      1: Step Time =    1.000,"P-1-1",         17218,   180.192E-03,   143.855E-03,            0.,NA,NA,"",   1.00475E+06,   1.00758E+06,   1.00758E+06
C:/temp/Job-1.odb,Step-1,Increment      1: Step Time =    1.000,"P-1-1",         17219,   179.251E-03,   142.697E-03,            0.,NA,NA,"",   1.00528E+06,   1.00790E+06,   1.00790E+06
C:/temp/Job-1.odb,Step-1,Increment      1: Step Time =    1.000,"P-1-1",         17220,   109.022E-03,   134.680E-03,            0.,NA,NA,"",   1.10050E+06,   1.14608E+06,   1.14608E+06
C:/temp/Job-1.odb,Step-1,Increment      1: Step Time =    1.000,"P-1-1",         17221,   169.557E-03,   177.366E-03,            0.,NA,NA,"",   1.00827E+06,   1.00616E+06,   1.00616E+06
C:/temp/Job-1.odb,Step-1,Increment      1: Step Time =    1.000,"P-1-1",         17222,   48.6094E-03,   179.808E-03,            0.,NA,NA,"",   1.03641E+06,   1.04077E+06,   1.04077E+06
C:/temp/Job-1.odb,Step-1,Increment      1: Step Time =    1.000,"P-1-1",         17223,   50.7038E-03,   177.347E-03,            0.,NA,NA,"",   1.03836E+06,   1.04295E+06,   1.04295E+06
C:/temp/Job-1.odb,Step-1,Increment      1: Step Time =    1.000,"P-1-1",         17224,   46.6444E-03,   179.226E-03,            0.,NA,NA,"",   1.03971E+06,   1.04529E+06,   1.04529E+06
C:/temp/Job-1.odb,Step-1,Increment      1: Step Time =    1.000,"P-1-1",         17225,   177.715E-03,   45.4166E-03,            0.,NA,NA,"",   1.01087E+06,   1.01017E+06,   1.01017E+06
C:/temp/Job-1.odb,Step-1,Increment      1: Step Time =    1.000,"P-1-1",         17226,   30.0512E-03,   176.787E-03,            0.,NA,NA,"",   1.05419E+06,   1.07843E+06,   1.07843E+06
C:/temp/Job-1.odb,Step-1,Increment      1: Step Time =    1.000,"P-1-1",         17227,   13.5895E-03,   163.886E-03,            0.,NA,NA,"",   955.535E+03,   1.03526E+06,   1.03526E+06
C:/temp/Job-1.odb,Step-1,Increment      1: Step Time =    1.000,"P-1-1",         17228,   124.010E-03,   121.614E-03,            0.,NA,NA,"",   1.21855E+06,   1.14059E+06,   1.14059E+06
C:/temp/Job-1.odb,Step-1,Increment      1: Step Time =    1.000,"P-1-1",         17229,   124.163E-03,   123.071E-03,            0.,NA,NA,"",   1.21994E+06,   1.14830E+06,   1.14830E+06
C:/temp/Job-1.odb,Step-1,Increment      1: Step Time =    1.000,"P-1-1",         17230,   84.2866E-03,   137.443E-03,            0.,NA,NA,"",   1.12141E+06,   1.14035E+06,   1.14035E+06
C:/temp/Job-1.odb,Step-1,Increment      1: Step Time =    1.000,"P-1-1",         17231,   138.672E-03,   93.3119E-03,            0.,NA,NA,"",   830.917E+03,   833.369E+03,   833.369E+03
C:/temp/Job-1.odb,Step-1,Increment      1: Step Time =    1.000,"P-1-1",         17232,   139.359E-03,   94.2816E-03,            0.,NA,NA,"",   821.922E+03,   827.865E+03,   827.865E+03
C:/temp/Job-1.odb,Step-1,Increment      1: Step Time =    1.000,"P-1-1",         17233,   90.8872E-03,   176.970E-03,            0.,NA,NA,"",   993.207E+03,   1.00083E+06,   1.00083E+06
C:/temp/Job-1.odb,Step-1,Increment      1: Step Time =    1.000,"P-1-1",         17234,   94.2798E-03,   175.090E-03,            0.,NA,NA,"",   994.631E+03,   1.00402E+06,   1.00402E+06
C:/temp/Job-1.odb,Step-1,Increment      1: Step Time =    1.000,"P-1-1",         17235,   20.5530E-03,   16.6347E-03,            0.,NA,NA,"",   1.08598E+06,   1.11589E+06,   1.11589E+06
C:/temp/Job-1.odb,Step-1,Increment      1: Step Time =    1.000,"P-1-1",         17236,   14.7169E-03,   100.502E-03,            0.,NA,NA,"",   797.320E+03,   889.587E+03,   889.587E+03
C:/temp/Job-1.odb,Step-1,Increment      1: Step Time =    1.000,"P-1-1",         17237,   15.5755E-03,   101.584E-03,            0.,NA,NA,"",   798.828E+03,    890.36E+03,    890.36E+03
C:/temp/Job-1.odb,Step-1,Increment      1: Step Time =    1.000,"P-1-1",         17238,   13.6777E-03,   98.4792E-03,            0.,NA,NA,"",   795.902E+03,   888.911E+03,   888.911E+03
C:/temp/Job-1.odb,Step-1,Increment      1: Step Time =    1.000,"P-1-1",         17239,   71.3397E-03,   77.7777E-03,            0.,NA,NA,"",   1.11529E+06,   1.07900E+06,   1.07900E+06
C:/temp/Job-1.odb,Step-1,Increment      1: Step Time =    1.000,"P-1-1",         17240,   134.029E-03,   116.016E-03,            0.,NA,NA,"",   1.01344E+06,   969.685E+03,   969.685E+03
C:/temp/Job-1.odb,Step-1,Increment      1: Step Time =    1.000,"P-1-1",         17241,   16.9581E-03,   16.7087E-03,            0.,NA,NA,"",   1.09040E+06,   1.13021E+06,   1.13021E+06
C:/temp/Job-1.odb,Step-1,Increment      1: Step Time =    1.000,"P-1-1",         17242,   81.6411E-03,   133.682E-03,            0.,NA,NA,"",   1.16044E+06,   1.16237E+06,   1.16237E+06
C:/temp/Job-1.odb,Step-1,Increment      1: Step Time =    1.000,"P-1-1",         17243,   75.3809E-03,   123.039E-03,            0.,NA,NA,"",   1.18009E+06,   1.13312E+06,   1.13312E+06
C:/temp/Job-1.odb,Step-1,Increment      1: Step Time =    1.000,"P-1-1",         17244,   90.2064E-03,   66.4974E-03,            0.,NA,NA,"",   1.11560E+06,   1.16202E+06,   1.16202E+06
C:/temp/Job-1.odb,Step-1,Increment      1: Step Time =    1.000,"P-1-1",         17245,   92.4392E-03,   64.8412E-03,            0.,NA,NA,"",   1.08552E+06,   1.14124E+06,   1.14124E+06
C:/temp/Job-1.odb,Step-1,Increment      1: Step Time =    1.000,"P-1-1",         17246,   82.2553E-03,   13.2986E-03,            0.,NA,NA,"",   974.885E+03,   976.819E+03,   976.819E+03
C:/temp/Job-1.odb,Step-1,Increment      1: Step Time =    1.000,"P-1-1",         17247,   138.705E-03,   14.1459E-03,            0.,NA,NA,"",   994.865E+03,   993.371E+03,   993.371E+03
C:/temp/Job-1.odb,Step-1,Increment      1: Step Time =    1.000,"P-1-1",         17248,   175.965E-03,   131.155E-03,            0.,NA,NA,"",   998.423E+03,   1.00297E+06,   1.00297E+06
C:/temp/Job-1.odb,Step-1,Increment      1: Step Time =    1.000,"P-1-1",         17249,   174.992E-03,   130.175E-03,            0.,NA,NA,"",   998.037E+03,   1.00229E+06,   1.00229E+06
C:/temp/Job-1.odb,Step-1,Increment      1: Step Time =    1.000,"P-1-1",         17250,   177.214E-03,   42.3915E-03,            0.,NA,NA,"",   1.01134E+06,   1.01015E+06,   1.01015E+06
C:/temp/Job-1.odb,Step-1,Increment      1: Step Time =    1.000,"P-1-1",         17251,   45.1200E-03,   13.6852E-03,            0.,NA,NA,"",   1.02809E+06,   1.03082E+06,   1.03082E+06
C:/temp/Job-1.odb,Step-1,Increment      1: Step Time =    1.000,"P-1-1",         17252,   87.2457E-03,   69.3655E-03,            0.,NA,NA,"",   1.16944E+06,   1.19508E+06,   1.19508E+06
C:/temp/Job-1.odb,Step-1,Increment      1: Step Time =    1.000,"P-1-1",         17253,   174.249E-03,   17.4102E-03,            0.,NA,NA,"",   1.00343E+06,   1.00250E+06,   1.00250E+06
C:/temp/Job-1.odb,Step-1,Increment      1: Step Time =    1.000,"P-1-1",         17254,   175.869E-03,   18.4977E-03,            0.,NA,NA,"",   1.00352E+06,   1.00266E+06,   1.00266E+06
C:/temp/Job-1.odb,Step-1,Increment      1: Step Time =    1.000,"P-1-1",         17255,   96.6134E-03,   175.274E-03,            0.,NA,NA,"",   993.155E+03,   1.00250E+06,   1.00250E+06
C:/temp/Job-1.odb,Step-1,Increment      1: Step Time =    1.000,"P-1-1",         17256,   99.3493E-03,   177.518E-03,            0.,NA,NA,"",   988.004E+03,   996.012E+03,   996.012E+03
C:/temp/Job-1.odb,Step-1,Increment      1: Step Time =    1.000,"P-1-1",         17257,   100.878E-03,   177.661E-03,            0.,NA,NA,"",   987.748E+03,   995.563E+03,   995.563E+03
C:/temp/Job-1.odb,Step-1,Increment      1: Step Time =    1.000,"P-1-1",         17258,   102.234E-03,   176.206E-03,            0.,NA,NA,"",   990.601E+03,   999.247E+03,   999.247E+03
C:/temp/Job-1.odb,Step-1,Increment      1: Step Time =    1.000,"P-1-1",         17259,   103.058E-03,   175.291E-03,            0.,NA,NA,"",   992.462E+03,   1.00162E+06,   1.00162E+06
C:/temp/Job-1.odb,Step-1,Increment      1: Step Time =    1.000,"P-1-1",         17260,   12.7509E-03,   60.6821E-03,            0.,NA,NA,"",   865.222E+03,   955.239E+03,   955.239E+03
C:/temp/Job-1.odb,Step-1,Increment      1: Step Time =    1.000,"P-1-1",         17261,   12.5643E-03,   63.0125E-03,            0.,NA,NA,"",   857.927E+03,   948.659E+03,   948.659E+03
C:/temp/Job-1.odb,Step-1,Increment      1: Step Time =    1.000,"P-1-1",         17262,   176.930E-03,   163.281E-03,            0.,NA,NA,"",   1.01054E+06,   1.00904E+06,   1.00904E+06
C:/temp/Job-1.odb,Step-1,Increment      1: Step Time =    1.000,"P-1-1",         17263,   97.8497E-03,   59.7401E-03,            0.,NA,NA,"",   1.03917E+06,   1.09667E+06,   1.09667E+06
C:/temp/Job-1.odb,Step-1,Increment      1: Step Time =    1.000,"P-1-1",         17264,   62.0185E-03,   98.7511E-03,            0.,NA,NA,"",   713.859E+03,   761.050E+03,   761.050E+03
C:/temp/Job-1.odb,Step-1,Increment      1: Step Time =    1.000,"P-1-1",         17265,   175.092E-03,   104.477E-03,            0.,NA,NA,"",   960.214E+03,   975.801E+03,   975.801E+03
C:/temp/Job-1.odb,Step-1,Increment      1: Step Time =    1.000,"P-1-1",         17266,   177.246E-03,   100.614E-03,            0.,NA,NA,"",   961.568E+03,   978.666E+03,   978.666E+03
C:/temp/Job-1.odb,Step-1,Increment      1: Step Time =    1.000,"P-1-1",         17267,   177.555E-03,   98.3468E-03,            0.,NA,NA,"",   962.156E+03,   979.358E+03,   979.358E+03
C:/temp/Job-1.odb,Step-1,Increment      1: Step Time =    1.000,"P-1-1",         17268,   12.5927E-03,   116.275E-03,            0.,NA,NA,"",   808.895E+03,   902.108E+03,   902.108E+03
C:/temp/Job-1.odb,Step-1,Increment      1: Step Time =    1.000,"P-1-1",         17269,   12.5466E-03,   118.609E-03,            0.,NA,NA,"",   812.950E+03,   905.992E+03,   905.992E+03
C:/temp/Job-1.odb,Step-1,Increment      1: Step Time =    1.000,"P-1-1",         17270,   175.046E-03,   106.297E-03,            0.,NA,NA,"",    961.39E+03,   976.572E+03,   976.572E+03
C:/temp/Job-1.odb,Step-1,Increment      1: Step Time =    1.000,"P-1-1",         17271,   176.990E-03,   107.467E-03,            0.,NA,NA,"",   964.463E+03,   980.401E+03,   980.401E+03
C:/temp/Job-1.odb,Step-1,Increment      1: Step Time =    1.000,"P-1-1",         17272,   99.6197E-03,   16.6052E-03,            0.,NA,NA,"",   974.858E+03,   979.459E+03,   979.459E+03
C:/temp/Job-1.odb,Step-1,Increment      1: Step Time =    1.000,"P-1-1",         17273,   180.618E-03,   55.6965E-03,            0.,NA,NA,"",   1.00448E+06,   1.00741E+06,   1.00741E+06
C:/temp/Job-1.odb,Step-1,Increment      1: Step Time =    1.000,"P-1-1",         17274,   177.935E-03,   50.8182E-03,            0.,NA,NA,"",   1.00996E+06,   1.01014E+06,   1.01014E+06
C:/temp/Job-1.odb,Step-1,Increment      1: Step Time =    1.000,"P-1-1",         17275,   139.330E-03,   183.189E-03,            0.,NA,NA,"",   1.00066E+06,   998.582E+03,   998.582E+03
C:/temp/Job-1.odb,Step-1,Increment      1: Step Time =    1.000,"P-1-1",         17276,   14.9480E-03,   132.464E-03,            0.,NA,NA,"",   853.399E+03,   941.635E+03,   941.635E+03
C:/temp/Job-1.odb,Step-1,Increment      1: Step Time =    1.000,"P-1-1",         17277,   15.7249E-03,   31.4782E-03,            0.,NA,NA,"",   988.765E+03,   1.05858E+06,   1.05858E+06
C:/temp/Job-1.odb,Step-1,Increment      1: Step Time =    1.000,"P-1-1",         17278,   15.5309E-03,   33.8688E-03,            0.,NA,NA,"",   975.671E+03,   1.04840E+06,   1.04840E+06
C:/temp/Job-1.odb,Step-1,Increment      1: Step Time =    1.000,"P-1-1",         17279,   109.406E-03,   174.634E-03,            0.,NA,NA,"",   996.381E+03,   1.00413E+06,   1.00413E+06
C:/temp/Job-1.odb,Step-1,Increment      1: Step Time =    1.000,"P-1-1",         17280,   76.2994E-03,   174.040E-03,            0.,NA,NA,"",   1.01760E+06,   1.02225E+06,   1.02225E+06
C:/temp/Job-1.odb,Step-1,Increment      1: Step Time =    1.000,"P-1-1",         17281,   32.7725E-03,   175.361E-03,            0.,NA,NA,"",   1.05040E+06,   1.07249E+06,   1.07249E+06
C:/temp/Job-1.odb,Step-1,Increment      1: Step Time =    1.000,"P-1-1",         17282,   180.879E-03,   66.4105E-03,            0.,NA,NA,"",   996.151E+03,   1.00327E+06,   1.00327E+06
C:/temp/Job-1.odb,Step-1,Increment      1: Step Time =    1.000,"P-1-1",         17283,   104.100E-03,   137.572E-03,            0.,NA,NA,"",   1.05304E+06,   1.11311E+06,   1.11311E+06
C:/temp/Job-1.odb,Step-1,Increment      1: Step Time =    1.000,"P-1-1",         17284,   105.435E-03,   138.227E-03,            0.,NA,NA,"",   1.05726E+06,   1.11205E+06,   1.11205E+06
C:/temp/Job-1.odb,Step-1,Increment      1: Step Time =    1.000,"P-1-1",         17285,   66.2913E-03,   113.591E-03,            0.,NA,NA,"",   909.883E+03,   908.551E+03,   908.551E+03
C:/temp/Job-1.odb,Step-1,Increment      1: Step Time =    1.000,"P-1-1",         17286,   65.7279E-03,   114.931E-03,            0.,NA,NA,"",   933.528E+03,   930.661E+03,   930.661E+03
C:/temp/Job-1.odb,Step-1,Increment      1: Step Time =    1.000,"P-1-1",         17287,   61.2850E-03,   15.9565E-03,            0.,NA,NA,"",   1.00908E+06,   1.00986E+06,   1.00986E+06
C:/temp/Job-1.odb,Step-1,Increment      1: Step Time =    1.000,"P-1-1",         17288,   175.355E-03,   110.289E-03,            0.,NA,NA,"",   965.907E+03,   980.090E+03,   980.090E+03
C:/temp/Job-1.odb,Step-1,Increment      1: Step Time =    1.000,"P-1-1",         17289,   123.714E-03,   180.123E-03,            0.,NA,NA,"",   996.460E+03,   997.244E+03,   997.244E+03
C:/temp/Job-1.odb,Step-1,Increment      1: Step Time =    1.000,"P-1-1",         17290,   177.815E-03,   153.753E-03,            0.,NA,NA,"",   1.01083E+06,   1.01024E+06,   1.01024E+06
C:/temp/Job-1.odb,Step-1,Increment      1: Step Time =    1.000,"P-1-1",         17291,   39.8376E-03,   180.057E-03,            0.,NA,NA,"",   1.04754E+06,   1.05686E+06,   1.05686E+06
C:/temp/Job-1.odb,Step-1,Increment      1: Step Time =    1.000,"P-1-1",         17292,   146.808E-03,   177.621E-03,            0.,NA,NA,"",   1.01414E+06,   1.00998E+06,   1.00998E+06
C:/temp/Job-1.odb,Step-1,Increment      1: Step Time =    1.000,"P-1-1",         17293,   148.999E-03,   179.039E-03,            0.,NA,NA,"",   1.01136E+06,   1.00766E+06,   1.00766E+06
C:/temp/Job-1.odb,Step-1,Increment      1: Step Time =    1.000,"P-1-1",         17294,   173.678E-03,   178.006E-03,            0.,NA,NA,"",   1.00605E+06,   1.00464E+06,   1.00464E+06
C:/temp/Job-1.odb,Step-1,Increment      1: Step Time =    1.000,"P-1-1",         17295,   12.9758E-03,   39.6821E-03,            0.,NA,NA,"",   937.495E+03,   1.02051E+06,   1.02051E+06
C:/temp/Job-1.odb,Step-1,Increment      1: Step Time =    1.000,"P-1-1",         17296,   11.1685E-03,   126.728E-03,            0.,NA,NA,"",   826.641E+03,   920.528E+03,   920.528E+03
C:/temp/Job-1.odb,Step-1,Increment      1: Step Time =    1.000,"P-1-1",         17297,   137.084E-03,   86.2249E-03,            0.,NA,NA,"",   953.594E+03,   927.794E+03,   927.794E+03
C:/temp/Job-1.odb,Step-1,Increment      1: Step Time =    1.000,"P-1-1",         17298,   179.283E-03,   170.330E-03,            0.,NA,NA,"",   1.00646E+06,   1.00557E+06,   1.00557E+06
C:/temp/Job-1.odb,Step-1,Increment      1: Step Time =    1.000,"P-1-1",         17299,   158.430E-03,   18.5026E-03,            0.,NA,NA,"",   1.00728E+06,   1.00468E+06,   1.00468E+06
C:/temp/Job-1.odb,Step-1,Increment      1: Step Time =    1.000,"P-1-1",         17300,   119.621E-03,   182.066E-03,            0.,NA,NA,"",   988.236E+03,   990.013E+03,   990.013E+03
C:/temp/Job-1.odb,Step-1,Increment      1: Step Time =    1.000,"P-1-1",         17301,   12.9768E-03,   165.081E-03,            0.,NA,NA,"",   958.668E+03,   1.03910E+06,   1.03910E+06
C:/temp/Job-1.odb,Step-1,Increment      1: Step Time =    1.000,"P-1-1",         17302,   96.8398E-03,   136.509E-03,            0.,NA,NA,"",   1.05207E+06,   1.11909E+06,   1.11909E+06
C:/temp/Job-1.odb,Step-1,Increment      1: Step Time =    1.000,"P-1-1",         17303,   84.1636E-03,   74.2446E-03,            0.,NA,NA,"",   1.24596E+06,   1.23416E+06,   1.23416E+06
C:/temp/Job-1.odb,Step-1,Increment      1: Step Time =    1.000,"P-1-1",         17304,   16.6055E-03,   179.309E-03,            0.,NA,NA,"",   1.06098E+06,   1.11125E+06,   1.11125E+06
C:/temp/Job-1.odb,Step-1,Increment      1: Step Time =    1.000,"P-1-1",         17305,   59.9651E-03,   179.751E-03,            0.,NA,NA,"",   1.02299E+06,   1.02463E+06,   1.02463E+06
C:/temp/Job-1.odb,Step-1,Increment      1: Step Time =    1.000,"P-1-1",         17306,   178.175E-03,   143.364E-03,            0.,NA,NA,"",   1.00717E+06,   1.00888E+06,   1.00888E+06
C:/temp/Job-1.odb,Step-1,Increment      1: Step Time =    1.000,"P-1-1",         17307,   177.577E-03,   70.5488E-03,            0.,NA,NA,"",   994.626E+03,   1.00123E+06,   1.00123E+06
C:/temp/Job-1.odb,Step-1,Increment      1: Step Time =    1.000,"P-1-1",         17308,   71.6764E-03,   76.2416E-03,            0.,NA,NA,"",   1.13045E+06,   1.09527E+06,   1.09527E+06
C:/temp/Job-1.odb,Step-1,Increment      1: Step Time =    1.000,"P-1-1",         17309,   176.873E-03,   47.6220E-03,            0.,NA,NA,"",   1.01175E+06,   1.01095E+06,   1.01095E+06
C:/temp/Job-1.odb,Step-1,Increment      1: Step Time =    1.000,"P-1-1",         17310,   140.251E-03,   96.6339E-03,            0.,NA,NA,"",   806.319E+03,   817.573E+03,   817.573E+03
C:/temp/Job-1.odb,Step-1,Increment      1: Step Time =    1.000,"P-1-1",         17311,   95.0362E-03,   137.888E-03,            0.,NA,NA,"",   1.05537E+06,   1.11469E+06,   1.11469E+06
C:/temp/Job-1.odb,Step-1,Increment      1: Step Time =    1.000,"P-1-1",         17312,   139.853E-03,   95.1585E-03,            0.,NA,NA,"",   816.382E+03,   824.605E+03,   824.605E+03
C:/temp/Job-1.odb,Step-1,Increment      1: Step Time =    1.000,"P-1-1",         17313,   122.616E-03,   70.9250E-03,            0.,NA,NA,"",   1.21071E+06,   1.16798E+06,   1.16798E+06
C:/temp/Job-1.odb,Step-1,Increment      1: Step Time =    1.000,"P-1-1",         17314,   123.342E-03,   70.0122E-03,            0.,NA,NA,"",   1.20174E+06,   1.16032E+06,   1.16032E+06
C:/temp/Job-1.odb,Step-1,Increment      1: Step Time =    1.000,"P-1-1",         17315,   56.6067E-03,   13.3904E-03,            0.,NA,NA,"",   1.00767E+06,   1.00840E+06,   1.00840E+06
C:/temp/Job-1.odb,Step-1,Increment      1: Step Time =    1.000,"P-1-1",         17316,   55.9512E-03,   14.1016E-03,            0.,NA,NA,"",   1.01057E+06,   1.01136E+06,   1.01136E+06
C:/temp/Job-1.odb,Step-1,Increment      1: Step Time =    1.000,"P-1-1",         17317,   87.1978E-03,   138.923E-03,            0.,NA,NA,"",   1.09700E+06,   1.12764E+06,   1.12764E+06
C:/temp/Job-1.odb,Step-1,Increment      1: Step Time =    1.000,"P-1-1",         17318,   15.6637E-03,   137.143E-03,            0.,NA,NA,"",   868.912E+03,   955.184E+03,   955.184E+03
C:/temp/Job-1.odb,Step-1,Increment      1: Step Time =    1.000,"P-1-1",         17319,   62.4165E-03,   96.2489E-03,            0.,NA,NA,"",   726.698E+03,   770.518E+03,   770.518E+03
C:/temp/Job-1.odb,Step-1,Increment      1: Step Time =    1.000,"P-1-1",         17320,   61.4178E-03,   95.3747E-03,            0.,NA,NA,"",   744.557E+03,   787.887E+03,   787.887E+03
C:/temp/Job-1.odb,Step-1,Increment      1: Step Time =    1.000,"P-1-1",         17321,   89.1310E-03,   137.941E-03,            0.,NA,NA,"",   1.09128E+06,   1.12998E+06,   1.12998E+06
C:/temp/Job-1.odb,Step-1,Increment      1: Step Time =    1.000,"P-1-1",         17322,   88.3608E-03,   138.265E-03,            0.,NA,NA,"",   1.09383E+06,   1.12950E+06,   1.12950E+06
C:/temp/Job-1.odb,Step-1,Increment      1: Step Time =    1.000,"P-1-1",         17323,   165.484E-03,   175.515E-03,            0.,NA,NA,"",   1.01179E+06,   1.00870E+06,   1.00870E+06
C:/temp/Job-1.odb,Step-1,Increment      1: Step Time =    1.000,"P-1-1",         17324,   103.638E-03,   174.436E-03,            0.,NA,NA,"",   994.034E+03,   1.00353E+06,   1.00353E+06
C:/temp/Job-1.odb,Step-1,Increment      1: Step Time =    1.000,"P-1-1",         17325,   177.757E-03,   48.0501E-03,            0.,NA,NA,"",   1.01066E+06,   1.01030E+06,   1.01030E+06
C:/temp/Job-1.odb,Step-1,Increment      1: Step Time =    1.000,"P-1-1",         17326,   164.424E-03,   18.1660E-03,            0.,NA,NA,"",   1.00614E+06,   1.00413E+06,   1.00413E+06
C:/temp/Job-1.odb,Step-1,Increment      1: Step Time =    1.000,"P-1-1",         17327,   61.8736E-03,   18.1866E-03,            0.,NA,NA,"",   1.01490E+06,   1.01599E+06,   1.01599E+06
C:/temp/Job-1.odb,Step-1,Increment      1: Step Time =    1.000,"P-1-1",         17328,   180.063E-03,   136.846E-03,            0.,NA,NA,"",   999.931E+03,   1.00518E+06,   1.00518E+06
C:/temp/Job-1.odb,Step-1,Increment      1: Step Time =    1.000,"P-1-1",         17329,   176.609E-03,   93.4539E-03,            0.,NA,NA,"",   963.491E+03,   979.427E+03,   979.427E+03
C:/temp/Job-1.odb,Step-1,Increment      1: Step Time =    1.000,"P-1-1",         17330,   175.762E-03,   91.4272E-03,            0.,NA,NA,"",   964.375E+03,   979.265E+03,   979.265E+03
C:/temp/Job-1.odb,Step-1,Increment      1: Step Time =    1.000,"P-1-1",         17331,   175.338E-03,   90.5272E-03,            0.,NA,NA,"",   965.087E+03,   979.462E+03,   979.462E+03
C:/temp/Job-1.odb,Step-1,Increment      1: Step Time =    1.000,"P-1-1",         17332,   176.646E-03,   35.8722E-03,            0.,NA,NA,"",   1.01061E+06,   1.00899E+06,   1.00899E+06
C:/temp/Job-1.odb,Step-1,Increment      1: Step Time =    1.000,"P-1-1",         17333,   34.8433E-03,   12.5051E-03,            0.,NA,NA,"",   1.04983E+06,   1.05560E+06,   1.05560E+06
C:/temp/Job-1.odb,Step-1,Increment      1: Step Time =    1.000,"P-1-1",         17334,   36.1833E-03,   179.997E-03,            0.,NA,NA,"",   1.05269E+06,   1.06507E+06,   1.06507E+06
C:/temp/Job-1.odb,Step-1,Increment      1: Step Time =    1.000,"P-1-1",         17335,   177.806E-03,   121.728E-03,            0.,NA,NA,"",   983.247E+03,   993.888E+03,   993.888E+03
C:/temp/Job-1.odb,Step-1,Increment      1: Step Time =    1.000,"P-1-1",         17336,   176.233E-03,   109.660E-03,            0.,NA,NA,"",   965.870E+03,   980.776E+03,   980.776E+03
C:/temp/Job-1.odb,Step-1,Increment      1: Step Time =    1.000,"P-1-1",         17337,   72.4405E-03,   176.085E-03,            0.,NA,NA,"",   1.01722E+06,   1.02038E+06,   1.02038E+06
C:/temp/Job-1.odb,Step-1,Increment      1: Step Time =    1.000,"P-1-1",         17338,   161.231E-03,   174.871E-03,            0.,NA,NA,"",   1.01467E+06,   1.01073E+06,   1.01073E+06
C:/temp/Job-1.odb,Step-1,Increment      1: Step Time =    1.000,"P-1-1",         17339,   179.920E-03,   78.8764E-03,            0.,NA,NA,"",   981.944E+03,   994.381E+03,   994.381E+03
C:/temp/Job-1.odb,Step-1,Increment      1: Step Time =    1.000,"P-1-1",         17340,   175.056E-03,   38.6001E-03,            0.,NA,NA,"",   1.01318E+06,   1.01098E+06,   1.01098E+06
C:/temp/Job-1.odb,Step-1,Increment      1: Step Time =    1.000,"P-1-1",         17341,   24.7664E-03,   15.0826E-03,            0.,NA,NA,"",   1.08201E+06,   1.10050E+06,   1.10050E+06
C:/temp/Job-1.odb,Step-1,Increment      1: Step Time =    1.000,"P-1-1",         17342,   58.3132E-03,   178.408E-03,            0.,NA,NA,"",   1.02805E+06,   1.03008E+06,   1.03008E+06
C:/temp/Job-1.odb,Step-1,Increment      1: Step Time =    1.000,"P-1-1",         17343,   129.267E-03,   79.9744E-03,            0.,NA,NA,"",   1.13021E+06,   1.06245E+06,   1.06245E+06
C:/temp/Job-1.odb,Step-1,Increment      1: Step Time =    1.000,"P-1-1",         17344,   69.3544E-03,   78.2545E-03,            0.,NA,NA,"",   1.08429E+06,   1.05513E+06,   1.05513E+06
C:/temp/Job-1.odb,Step-1,Increment      1: Step Time =    1.000,"P-1-1",         17345,   135.732E-03,   182.325E-03,            0.,NA,NA,"",   1.00058E+06,   998.735E+03,   998.735E+03
C:/temp/Job-1.odb,Step-1,Increment      1: Step Time =    1.000,"P-1-1",         17346,   77.9477E-03,   172.733E-03,            0.,NA,NA,"",   1.01849E+06,   1.02415E+06,   1.02415E+06
C:/temp/Job-1.odb,Step-1,Increment      1: Step Time =    1.000,"P-1-1",         17347,   176.444E-03,   142.512E-03,            0.,NA,NA,"",   1.00905E+06,   1.00988E+06,   1.00988E+06
C:/temp/Job-1.odb,Step-1,Increment      1: Step Time =    1.000,"P-1-1",         17348,   142.794E-03,   181.317E-03,            0.,NA,NA,"",   1.00602E+06,   1.00319E+06,   1.00319E+06
C:/temp/Job-1.odb,Step-1,Increment      1: Step Time =    1.000,"P-1-1",         17349,   92.8994E-03,   13.9227E-03,            0.,NA,NA,"",   969.418E+03,   972.609E+03,   972.609E+03
C:/temp/Job-1.odb,Step-1,Increment      1: Step Time =    1.000,"P-1-1",         17350,   176.507E-03,   126.498E-03,            0.,NA,NA,"",   991.206E+03,   998.340E+03,   998.340E+03
C:/temp/Job-1.odb,Step-1,Increment      1: Step Time =    1.000,"P-1-1",         17351,   101.352E-03,   175.282E-03,            0.,NA,NA,"",   992.264E+03,   1.00164E+06,   1.00164E+06
C:/temp/Job-1.odb,Step-1,Increment      1: Step Time =    1.000,"P-1-1",         17352,   138.000E-03,   90.8247E-03,            0.,NA,NA,"",    866.22E+03,   859.556E+03,   859.556E+03
C:/temp/Job-1.odb,Step-1,Increment      1: Step Time =    1.000,"P-1-1",         17353,   109.301E-03,   137.310E-03,            0.,NA,NA,"",   1.08699E+06,   1.12773E+06,   1.12773E+06
C:/temp/Job-1.odb,Step-1,Increment      1: Step Time =    1.000,"P-1-1",         17354,   85.7143E-03,   68.8905E-03,            0.,NA,NA,"",   1.17283E+06,   1.18932E+06,   1.18932E+06
C:/temp/Job-1.odb,Step-1,Increment      1: Step Time =    1.000,"P-1-1",         17355,   97.9589E-03,   174.951E-03,            0.,NA,NA,"",   993.262E+03,   1.00292E+06,   1.00292E+06
C:/temp/Job-1.odb,Step-1,Increment      1: Step Time =    1.000,"P-1-1",         17356,   24.3345E-03,   177.810E-03,            0.,NA,NA,"",   1.05825E+06,   1.09139E+06,   1.09139E+06
C:/temp/Job-1.odb,Step-1,Increment      1: Step Time =    1.000,"P-1-1",         17357,   91.4759E-03,   175.039E-03,            0.,NA,NA,"",   996.775E+03,   1.00572E+06,   1.00572E+06
C:/temp/Job-1.odb,Step-1,Increment      1: Step Time =    1.000,"P-1-1",         17358,   69.9691E-03,   77.1053E-03,            0.,NA,NA,"",   1.10309E+06,   1.07205E+06,   1.07205E+06
C:/temp/Job-1.odb,Step-1,Increment      1: Step Time =    1.000,"P-1-1",         17359,   84.8645E-03,   15.4172E-03,            0.,NA,NA,"",   979.247E+03,   982.183E+03,   982.183E+03
C:/temp/Job-1.odb,Step-1,Increment      1: Step Time =    1.000,"P-1-1",         17360,   19.7048E-03,   17.2798E-03,            0.,NA,NA,"",   1.08419E+06,   1.11739E+06,   1.11739E+06
C:/temp/Job-1.odb,Step-1,Increment      1: Step Time =    1.000,"P-1-1",         17361,   13.3332E-03,   76.2393E-03,            0.,NA,NA,"",   825.856E+03,   917.554E+03,   917.554E+03
C:/temp/Job-1.odb,Step-1,Increment      1: Step Time =    1.000,"P-1-1",         17362,   85.0636E-03,   174.960E-03,            0.,NA,NA,"",   1.00355E+06,   1.01083E+06,   1.01083E+06
C:/temp/Job-1.odb,Step-1,Increment      1: Step Time =    1.000,"P-1-1",         17363,   30.7643E-03,   174.619E-03,            0.,NA,NA,"",   1.04837E+06,   1.07463E+06,   1.07463E+06
C:/temp/Job-1.odb,Step-1,Increment      1: Step Time =    1.000,"P-1-1",         17364,   18.0135E-03,   27.0936E-03,            0.,NA,NA,"",   1.02141E+06,   1.07946E+06,   1.07946E+06
C:/temp/Job-1.odb,Step-1,Increment      1: Step Time =    1.000,"P-1-1",         17365,   18.0413E-03,   27.9676E-03,            0.,NA,NA,"",   1.01766E+06,   1.07673E+06,   1.07673E+06
C:/temp/Job-1.odb,Step-1,Increment      1: Step Time =    1.000,"P-1-1",         17366,   140.676E-03,   93.7832E-03,            0.,NA,NA,"",   839.735E+03,   844.734E+03,   844.734E+03
C:/temp/Job-1.odb,Step-1,Increment      1: Step Time =    1.000,"P-1-1",         17367,   66.0618E-03,   174.949E-03,            0.,NA,NA,"",   1.02808E+06,   1.03044E+06,   1.03044E+06
C:/temp/Job-1.odb,Step-1,Increment      1: Step Time =    1.000,"P-1-1",         17368,   150.231E-03,   176.452E-03,            0.,NA,NA,"",   1.01601E+06,   1.01149E+06,   1.01149E+06
C:/temp/Job-1.odb,Step-1,Increment      1: Step Time =    1.000,"P-1-1",         17369,   152.454E-03,   14.7063E-03,            0.,NA,NA,"",   1.00209E+06,   1.00010E+06,   1.00010E+06
C:/temp/Job-1.odb,Step-1,Increment      1: Step Time =    1.000,"P-1-1",         17370,   140.438E-03,   89.8803E-03,            0.,NA,NA,"",   888.148E+03,   882.277E+03,   882.277E+03
C:/temp/Job-1.odb,Step-1,Increment      1: Step Time =    1.000,"P-1-1",         17371,   174.781E-03,   156.761E-03,            0.,NA,NA,"",   1.01457E+06,   1.01233E+06,   1.01233E+06
C:/temp/Job-1.odb,Step-1,Increment      1: Step Time =    1.000,"P-1-1",         17372,   21.4017E-03,   176.311E-03,            0.,NA,NA,"",   1.04931E+06,   1.09207E+06,   1.09207E+06
C:/temp/Job-1.odb,Step-1,Increment      1: Step Time =    1.000,"P-1-1",         17373,   174.142E-03,   127.379E-03,            0.,NA,NA,"",   994.494E+03,   999.362E+03,   999.362E+03
C:/temp/Job-1.odb,Step-1,Increment      1: Step Time =    1.000,"P-1-1",         17374,   22.5985E-03,   175.375E-03,            0.,NA,NA,"",   1.04621E+06,   1.08759E+06,   1.08759E+06
C:/temp/Job-1.odb,Step-1,Increment      1: Step Time =    1.000,"P-1-1",         17375,   64.5415E-03,   84.5807E-03,            0.,NA,NA,"",   934.085E+03,      935.E+03,      935.E+03
C:/temp/Job-1.odb,Step-1,Increment      1: Step Time =    1.000,"P-1-1",         17376,   63.7723E-03,   83.6106E-03,            0.,NA,NA,"",   944.869E+03,   946.518E+03,   946.518E+03
C:/temp/Job-1.odb,Step-1,Increment      1: Step Time =    1.000,"P-1-1",         17377,   62.8030E-03,   82.2141E-03,            0.,NA,NA,"",   959.127E+03,   961.663E+03,   961.663E+03
C:/temp/Job-1.odb,Step-1,Increment      1: Step Time =    1.000,"P-1-1",         17378,   84.2117E-03,   73.1093E-03,            0.,NA,NA,"",   1.23178E+06,   1.22544E+06,   1.22544E+06
C:/temp/Job-1.odb,Step-1,Increment      1: Step Time =    1.000,"P-1-1",         17379,   20.7936E-03,   22.9281E-03,            0.,NA,NA,"",   1.05252E+06,   1.09539E+06,   1.09539E+06
C:/temp/Job-1.odb,Step-1,Increment      1: Step Time =    1.000,"P-1-1",         17380,   91.5269E-03,   63.5770E-03,            0.,NA,NA,"",   1.08431E+06,   1.13422E+06,   1.13422E+06
C:/temp/Job-1.odb,Step-1,Increment      1: Step Time =    1.000,"P-1-1",         17381,   93.6400E-03,   61.7096E-03,            0.,NA,NA,"",   1.06138E+06,   1.11552E+06,   1.11552E+06
C:/temp/Job-1.odb,Step-1,Increment      1: Step Time =    1.000,"P-1-1",         17382,   97.7414E-03,   57.6429E-03,            0.,NA,NA,"",   1.03526E+06,   1.08760E+06,   1.08760E+06
C:/temp/Job-1.odb,Step-1,Increment      1: Step Time =    1.000,"P-1-1",         17383,   120.458E-03,   14.1864E-03,            0.,NA,NA,"",   979.699E+03,   980.641E+03,   980.641E+03
C:/temp/Job-1.odb,Step-1,Increment      1: Step Time =    1.000,"P-1-1",         17384,   92.3580E-03,   138.244E-03,            0.,NA,NA,"",   1.06893E+06,   1.11895E+06,   1.11895E+06
C:/temp/Job-1.odb,Step-1,Increment      1: Step Time =    1.000,"P-1-1",         17385,   168.768E-03,   175.544E-03,            0.,NA,NA,"",   1.01006E+06,   1.00754E+06,   1.00754E+06
C:/temp/Job-1.odb,Step-1,Increment      1: Step Time =    1.000,"P-1-1",         17386,   171.162E-03,   176.399E-03,            0.,NA,NA,"",   1.00823E+06,   1.00625E+06,   1.00625E+06
C:/temp/Job-1.odb,Step-1,Increment      1: Step Time =    1.000,"P-1-1",         17387,   175.947E-03,   165.042E-03,            0.,NA,NA,"",   1.01094E+06,   1.00913E+06,   1.00913E+06
C:/temp/Job-1.odb,Step-1,Increment      1: Step Time =    1.000,"P-1-1",         17388,   172.476E-03,   111.496E-03,            0.,NA,NA,"",   965.044E+03,   977.011E+03,   977.011E+03
C:/temp/Job-1.odb,Step-1,Increment      1: Step Time =    1.000,"P-1-1",         17389,   174.599E-03,   109.288E-03,            0.,NA,NA,"",   963.929E+03,   977.963E+03,   977.963E+03
C:/temp/Job-1.odb,Step-1,Increment      1: Step Time =    1.000,"P-1-1",         17390,   139.984E-03,   15.3922E-03,            0.,NA,NA,"",   998.135E+03,   996.287E+03,   996.287E+03
C:/temp/Job-1.odb,Step-1,Increment      1: Step Time =    1.000,"P-1-1",         17391,   141.313E-03,   97.4845E-03,            0.,NA,NA,"",   811.813E+03,   824.022E+03,   824.022E+03
C:/temp/Job-1.odb,Step-1,Increment      1: Step Time =    1.000,"P-1-1",         17392,   66.3069E-03,   80.5345E-03,            0.,NA,NA,"",   1.01901E+06,   1.00376E+06,   1.00376E+06
C:/temp/Job-1.odb,Step-1,Increment      1: Step Time =    1.000,"P-1-1",         17393,   67.2710E-03,   78.5375E-03,            0.,NA,NA,"",   1.05402E+06,   1.03324E+06,   1.03324E+06
C:/temp/Job-1.odb,Step-1,Increment      1: Step Time =    1.000,"P-1-1",         17394,   62.5830E-03,   89.8427E-03,            0.,NA,NA,"",   823.944E+03,   849.317E+03,   849.317E+03
C:/temp/Job-1.odb,Step-1,Increment      1: Step Time =    1.000,"P-1-1",         17395,   62.6865E-03,   88.6957E-03,            0.,NA,NA,"",   847.176E+03,   868.270E+03,   868.270E+03
C:/temp/Job-1.odb,Step-1,Increment      1: Step Time =    1.000,"P-1-1",         17396,   62.6087E-03,   87.5542E-03,            0.,NA,NA,"",   866.631E+03,   884.497E+03,   884.497E+03
C:/temp/Job-1.odb,Step-1,Increment      1: Step Time =    1.000,"P-1-1",         17397,   97.5049E-03,   137.775E-03,            0.,NA,NA,"",   1.04620E+06,   1.11010E+06,   1.11010E+06
C:/temp/Job-1.odb,Step-1,Increment      1: Step Time =    1.000,"P-1-1",         17398,   123.459E-03,   128.669E-03,            0.,NA,NA,"",   1.20920E+06,   1.16193E+06,   1.16193E+06
C:/temp/Job-1.odb,Step-1,Increment      1: Step Time =    1.000,"P-1-1",         17399,   66.4053E-03,   116.765E-03,            0.,NA,NA,"",   975.520E+03,   964.543E+03,   964.543E+03
C:/temp/Job-1.odb,Step-1,Increment      1: Step Time =    1.000,"P-1-1",         17400,   139.367E-03,   113.651E-03,            0.,NA,NA,"",   942.773E+03,   923.832E+03,   923.832E+03
C:/temp/Job-1.odb,Step-1,Increment      1: Step Time =    1.000,"P-1-1",         17401,   139.577E-03,   115.061E-03,            0.,NA,NA,"",   965.695E+03,   942.874E+03,   942.874E+03
C:/temp/Job-1.odb,Step-1,Increment      1: Step Time =    1.000,"P-1-1",         17402,   16.4609E-03,   100.793E-03,            0.,NA,NA,"",   800.181E+03,   890.948E+03,   890.948E+03
C:/temp/Job-1.odb,Step-1,Increment      1: Step Time =    1.000,"P-1-1",         17403,   17.5233E-03,   101.588E-03,            0.,NA,NA,"",   801.945E+03,   891.757E+03,   891.757E+03
C:/temp/Job-1.odb,Step-1,Increment      1: Step Time =    1.000,"P-1-1",         17404,   72.1883E-03,   174.861E-03,            0.,NA,NA,"",   1.02082E+06,   1.02418E+06,   1.02418E+06
C:/temp/Job-1.odb,Step-1,Increment      1: Step Time =    1.000,"P-1-1",         17405,   127.832E-03,   17.3178E-03,            0.,NA,NA,"",   993.841E+03,   993.521E+03,   993.521E+03
C:/temp/Job-1.odb,Step-1,Increment      1: Step Time =    1.000,"P-1-1",         17406,   14.0152E-03,   162.529E-03,            0.,NA,NA,"",   951.340E+03,   1.03084E+06,   1.03084E+06
C:/temp/Job-1.odb,Step-1,Increment      1: Step Time =    1.000,"P-1-1",         17407,   13.9320E-03,   164.943E-03,            0.,NA,NA,"",   962.142E+03,   1.04032E+06,   1.04032E+06
C:/temp/Job-1.odb,Step-1,Increment      1: Step Time =    1.000,"P-1-1",         17408,   48.2306E-03,   178.526E-03,            0.,NA,NA,"",   1.03901E+06,   1.04416E+06,   1.04416E+06
C:/temp/Job-1.odb,Step-1,Increment      1: Step Time =    1.000,"P-1-1",         17409,   82.2566E-03,   171.318E-03,            0.,NA,NA,"",   1.01545E+06,   1.02345E+06,   1.02345E+06
C:/temp/Job-1.odb,Step-1,Increment      1: Step Time =    1.000,"P-1-1",         17410,   12.6394E-03,   146.774E-03,            0.,NA,NA,"",   887.140E+03,   975.814E+03,   975.814E+03
C:/temp/Job-1.odb,Step-1,Increment      1: Step Time =    1.000,"P-1-1",         17411,   12.4980E-03,   148.216E-03,            0.,NA,NA,"",   891.162E+03,   979.712E+03,   979.712E+03
C:/temp/Job-1.odb,Step-1,Increment      1: Step Time =    1.000,"P-1-1",         17412,   175.977E-03,   100.398E-03,            0.,NA,NA,"",   960.092E+03,   976.494E+03,   976.494E+03
C:/temp/Job-1.odb,Step-1,Increment      1: Step Time =    1.000,"P-1-1",         17413,   176.279E-03,   98.2660E-03,            0.,NA,NA,"",   960.506E+03,   977.016E+03,   977.016E+03
C:/temp/Job-1.odb,Step-1,Increment      1: Step Time =    1.000,"P-1-1",         17414,   175.972E-03,   94.9491E-03,            0.,NA,NA,"",   961.753E+03,   977.650E+03,   977.650E+03
C:/temp/Job-1.odb,Step-1,Increment      1: Step Time =    1.000,"P-1-1",         17415,   175.282E-03,   103.119E-03,            0.,NA,NA,"",   959.787E+03,   975.655E+03,   975.655E+03
C:/temp/Job-1.odb,Step-1,Increment      1: Step Time =    1.000,"P-1-1",         17416,   13.9586E-03,   117.345E-03,            0.,NA,NA,"",   813.608E+03,   905.463E+03,   905.463E+03
C:/temp/Job-1.odb,Step-1,Increment      1: Step Time =    1.000,"P-1-1",         17417,   101.262E-03,   17.8504E-03,            0.,NA,NA,"",   977.881E+03,   983.072E+03,   983.072E+03
C:/temp/Job-1.odb,Step-1,Increment      1: Step Time =    1.000,"P-1-1",         17418,   13.9399E-03,   61.8558E-03,            0.,NA,NA,"",   865.923E+03,   954.445E+03,   954.445E+03
C:/temp/Job-1.odb,Step-1,Increment      1: Step Time =    1.000,"P-1-1",         17419,   16.8918E-03,   32.6855E-03,            0.,NA,NA,"",   987.110E+03,   1.05505E+06,   1.05505E+06
C:/temp/Job-1.odb,Step-1,Increment      1: Step Time =    1.000,"P-1-1",         17420,   178.432E-03,   148.161E-03,            0.,NA,NA,"",   1.00889E+06,   1.00959E+06,   1.00959E+06
C:/temp/Job-1.odb,Step-1,Increment      1: Step Time =    1.000,"P-1-1",         17421,   178.094E-03,   53.9553E-03,            0.,NA,NA,"",   1.00860E+06,   1.00957E+06,   1.00957E+06
C:/temp/Job-1.odb,Step-1,Increment      1: Step Time =    1.000,"P-1-1",         17422,   41.2228E-03,   178.463E-03,            0.,NA,NA,"",   1.04672E+06,   1.05630E+06,   1.05630E+06
C:/temp/Job-1.odb,Step-1,Increment      1: Step Time =    1.000,"P-1-1",         17423,   52.2545E-03,   13.8810E-03,            0.,NA,NA,"",   1.01607E+06,   1.01735E+06,   1.01735E+06
C:/temp/Job-1.odb,Step-1,Increment      1: Step Time =    1.000,"P-1-1",         17424,   45.3311E-03,   15.2488E-03,            0.,NA,NA,"",   1.03163E+06,   1.03500E+06,   1.03500E+06
C:/temp/Job-1.odb,Step-1,Increment      1: Step Time =    1.000,"P-1-1",         17425,   82.5916E-03,   138.283E-03,            0.,NA,NA,"",   1.12280E+06,   1.13601E+06,   1.13601E+06
C:/temp/Job-1.odb,Step-1,Increment      1: Step Time =    1.000,"P-1-1",         17426,   61.1900E-03,   100.979E-03,            0.,NA,NA,"",   723.338E+03,   771.268E+03,   771.268E+03
C:/temp/Job-1.odb,Step-1,Increment      1: Step Time =    1.000,"P-1-1",         17427,   60.5931E-03,   97.6709E-03,            0.,NA,NA,"",   733.300E+03,   780.843E+03,   780.843E+03
C:/temp/Job-1.odb,Step-1,Increment      1: Step Time =    1.000,"P-1-1",         17428,   134.695E-03,   117.515E-03,            0.,NA,NA,"",   1.03281E+06,   988.468E+03,   988.468E+03
C:/temp/Job-1.odb,Step-1,Increment      1: Step Time =    1.000,"P-1-1",         17429,   102.388E-03,   138.516E-03,            0.,NA,NA,"",   1.04436E+06,   1.10518E+06,   1.10518E+06
C:/temp/Job-1.odb,Step-1,Increment      1: Step Time =    1.000,"P-1-1",         17430,   75.0820E-03,   68.2695E-03,            0.,NA,NA,"",   1.16101E+06,   1.14227E+06,   1.14227E+06
C:/temp/Job-1.odb,Step-1,Increment      1: Step Time =    1.000,"P-1-1",         17431,   174.387E-03,   33.7233E-03,            0.,NA,NA,"",   1.01192E+06,   1.00967E+06,   1.00967E+06
C:/temp/Job-1.odb,Step-1,Increment      1: Step Time =    1.000,"P-1-1",         17432,   161.582E-03,   22.1613E-03,            0.,NA,NA,"",   1.01098E+06,   1.00783E+06,   1.00783E+06
C:/temp/Job-1.odb,Step-1,Increment      1: Step Time =    1.000,"P-1-1",         17433,   177.122E-03,   150.347E-03,            0.,NA,NA,"",   1.01138E+06,   1.01089E+06,   1.01089E+06
C:/temp/Job-1.odb,Step-1,Increment      1: Step Time =    1.000,"P-1-1",         17434,   176.345E-03,   133.904E-03,            0.,NA,NA,"",   1.00151E+06,   1.00514E+06,   1.00514E+06
C:/temp/Job-1.odb,Step-1,Increment      1: Step Time =    1.000,"P-1-1",         17435,   174.310E-03,   37.5596E-03,            0.,NA,NA,"",   1.01359E+06,   1.01116E+06,   1.01116E+06
C:/temp/Job-1.odb,Step-1,Increment      1: Step Time =    1.000,"P-1-1",         17436,   52.0350E-03,   174.870E-03,            0.,NA,NA,"",   1.04101E+06,   1.04602E+06,   1.04602E+06
C:/temp/Job-1.odb,Step-1,Increment      1: Step Time =    1.000,"P-1-1",         17437,   129.027E-03,   176.689E-03,            0.,NA,NA,"",   1.00891E+06,   1.00786E+06,   1.00786E+06
C:/temp/Job-1.odb,Step-1,Increment      1: Step Time =    1.000,"P-1-1",         17438,   172.521E-03,   22.0829E-03,            0.,NA,NA,"",   1.00662E+06,   1.00502E+06,   1.00502E+06
C:/temp/Job-1.odb,Step-1,Increment      1: Step Time =    1.000,"P-1-1",         17439,   177.268E-03,   136.186E-03,            0.,NA,NA,"",   1.00287E+06,   1.00629E+06,   1.00629E+06
C:/temp/Job-1.odb,Step-1,Increment      1: Step Time =    1.000,"P-1-1",         17440,   174.607E-03,   169.995E-03,            0.,NA,NA,"",   1.00987E+06,   1.00795E+06,   1.00795E+06
C:/temp/Job-1.odb,Step-1,Increment      1: Step Time =    1.000,"P-1-1",         17441,   13.9232E-03,   59.7668E-03,            0.,NA,NA,"",   871.672E+03,   959.962E+03,   959.962E+03
C:/temp/Job-1.odb,Step-1,Increment      1: Step Time =    1.000,"P-1-1",         17442,   87.1736E-03,   66.6038E-03,            0.,NA,NA,"",   1.14009E+06,   1.16883E+06,   1.16883E+06
C:/temp/Job-1.odb,Step-1,Increment      1: Step Time =    1.000,"P-1-1",         17443,   58.5396E-03,   105.967E-03,            0.,NA,NA,"",   777.245E+03,   821.608E+03,   821.608E+03
C:/temp/Job-1.odb,Step-1,Increment      1: Step Time =    1.000,"P-1-1",         17444,   59.2333E-03,   104.482E-03,            0.,NA,NA,"",   759.266E+03,   805.305E+03,   805.305E+03
C:/temp/Job-1.odb,Step-1,Increment      1: Step Time =    1.000,"P-1-1",         17445,   175.316E-03,   160.713E-03,            0.,NA,NA,"",   1.01307E+06,   1.01098E+06,   1.01098E+06
C:/temp/Job-1.odb,Step-1,Increment      1: Step Time =    1.000,"P-1-1",         17446,   16.8445E-03,   30.5792E-03,            0.,NA,NA,"",   997.516E+03,   1.06367E+06,   1.06367E+06
C:/temp/Job-1.odb,Step-1,Increment      1: Step Time =    1.000,"P-1-1",         17447,   138.351E-03,   181.240E-03,            0.,NA,NA,"",   1.00440E+06,   1.00198E+06,   1.00198E+06
C:/temp/Job-1.odb,Step-1,Increment      1: Step Time =    1.000,"P-1-1",         17448,   175.809E-03,   140.566E-03,            0.,NA,NA,"",   1.00855E+06,   1.00952E+06,   1.00952E+06
C:/temp/Job-1.odb,Step-1,Increment      1: Step Time =    1.000,"P-1-1",         17449,   170.413E-03,   84.9123E-03,            0.,NA,NA,"",   970.311E+03,   979.322E+03,   979.322E+03
C:/temp/Job-1.odb,Step-1,Increment      1: Step Time =    1.000,"P-1-1",         17450,   152.199E-03,   15.7001E-03,            0.,NA,NA,"",   1.00318E+06,   1.00099E+06,   1.00099E+06
C:/temp/Job-1.odb,Step-1,Increment      1: Step Time =    1.000,"P-1-1",         17451,   68.5258E-03,   78.3112E-03,            0.,NA,NA,"",   1.07354E+06,   1.04735E+06,   1.04735E+06
C:/temp/Job-1.odb,Step-1,Increment      1: Step Time =    1.000,"P-1-1",         17452,   107.540E-03,   13.7654E-03,            0.,NA,NA,"",   969.330E+03,   972.128E+03,   972.128E+03
C:/temp/Job-1.odb,Step-1,Increment      1: Step Time =    1.000,"P-1-1",         17453,   173.971E-03,   34.9160E-03,            0.,NA,NA,"",   1.01283E+06,   1.01040E+06,   1.01040E+06
C:/temp/Job-1.odb,Step-1,Increment      1: Step Time =    1.000,"P-1-1",         17454,   176.987E-03,   143.683E-03,            0.,NA,NA,"",   1.00901E+06,   1.00986E+06,   1.00986E+06
C:/temp/Job-1.odb,Step-1,Increment      1: Step Time =    1.000,"P-1-1",         17455,   61.7220E-03,   19.4472E-03,            0.,NA,NA,"",   1.01860E+06,   1.01994E+06,   1.01994E+06
C:/temp/Job-1.odb,Step-1,Increment      1: Step Time =    1.000,"P-1-1",         17456,   21.5625E-03,   21.8863E-03,            0.,NA,NA,"",   1.05925E+06,   1.09805E+06,   1.09805E+06
C:/temp/Job-1.odb,Step-1,Increment      1: Step Time =    1.000,"P-1-1",         17457,   174.879E-03,   36.1399E-03,            0.,NA,NA,"",   1.01241E+06,   1.01023E+06,   1.01023E+06
C:/temp/Job-1.odb,Step-1,Increment      1: Step Time =    1.000,"P-1-1",         17458,   61.7006E-03,   96.7979E-03,            0.,NA,NA,"",   728.631E+03,   774.147E+03,   774.147E+03
C:/temp/Job-1.odb,Step-1,Increment      1: Step Time =    1.000,"P-1-1",         17459,   125.197E-03,   69.8974E-03,            0.,NA,NA,"",   1.19291E+06,   1.14730E+06,   1.14730E+06
C:/temp/Job-1.odb,Step-1,Increment      1: Step Time =    1.000,"P-1-1",         17460,   142.352E-03,   87.8417E-03,            0.,NA,NA,"",   922.101E+03,   912.860E+03,   912.860E+03
C:/temp/Job-1.odb,Step-1,Increment      1: Step Time =    1.000,"P-1-1",         17461,   99.6403E-03,   175.093E-03,            0.,NA,NA,"",   992.696E+03,   1.00229E+06,   1.00229E+06
C:/temp/Job-1.odb,Step-1,Increment      1: Step Time =    1.000,"P-1-1",         17462,   176.566E-03,   119.084E-03,            0.,NA,NA,"",   979.505E+03,   990.560E+03,   990.560E+03
C:/temp/Job-1.odb,Step-1,Increment      1: Step Time =    1.000,"P-1-1",         17463,   176.256E-03,   24.5385E-03,            0.,NA,NA,"",   1.00624E+06,   1.00499E+06,   1.00499E+06
C:/temp/Job-1.odb,Step-1,Increment      1: Step Time =    1.000,"P-1-1",         17464,   89.2939E-03,   139.178E-03,            0.,NA,NA,"",   1.08266E+06,   1.12136E+06,   1.12136E+06
C:/temp/Job-1.odb,Step-1,Increment      1: Step Time =    1.000,"P-1-1",         17465,   20.3050E-03,   19.3722E-03,            0.,NA,NA,"",   1.07362E+06,   1.10990E+06,   1.10990E+06
C:/temp/Job-1.odb,Step-1,Increment      1: Step Time =    1.000,"P-1-1",         17466,   173.167E-03,   126.621E-03,            0.,NA,NA,"",   994.018E+03,   998.493E+03,   998.493E+03
C:/temp/Job-1.odb,Step-1,Increment      1: Step Time =    1.000,"P-1-1",         17467,   105.684E-03,   173.146E-03,            0.,NA,NA,"",   996.923E+03,   1.00702E+06,   1.00702E+06
C:/temp/Job-1.odb,Step-1,Increment      1: Step Time =    1.000,"P-1-1",         17468,   17.7694E-03,   177.832E-03,            0.,NA,NA,"",   1.05280E+06,   1.10276E+06,   1.10276E+06
C:/temp/Job-1.odb,Step-1,Increment      1: Step Time =    1.000,"P-1-1",         17469,   164.595E-03,   19.1033E-03,            0.,NA,NA,"",   1.00697E+06,   1.00481E+06,   1.00481E+06
C:/temp/Job-1.odb,Step-1,Increment      1: Step Time =    1.000,"P-1-1",         17470,   37.2041E-03,   179.884E-03,            0.,NA,NA,"",   1.05139E+06,   1.06300E+06,   1.06300E+06
C:/temp/Job-1.odb,Step-1,Increment      1: Step Time =    1.000,"P-1-1",         17471,   141.201E-03,   99.1583E-03,            0.,NA,NA,"",   805.799E+03,   819.172E+03,   819.172E+03
C:/temp/Job-1.odb,Step-1,Increment      1: Step Time =    1.000,"P-1-1",         17472,   116.372E-03,   66.9241E-03,            0.,NA,NA,"",   1.17000E+06,   1.16918E+06,   1.16918E+06
C:/temp/Job-1.odb,Step-1,Increment      1: Step Time =    1.000,"P-1-1",         17473,   93.9301E-03,   138.218E-03,            0.,NA,NA,"",   1.05992E+06,   1.11510E+06,   1.11510E+06
C:/temp/Job-1.odb,Step-1,Increment      1: Step Time =    1.000,"P-1-1",         17474,   66.3249E-03,   78.0087E-03,            0.,NA,NA,"",   1.05017E+06,   1.03278E+06,   1.03278E+06
C:/temp/Job-1.odb,Step-1,Increment      1: Step Time =    1.000,"P-1-1",         17475,   174.909E-03,   17.9950E-03,            0.,NA,NA,"",   1.00353E+06,   1.00263E+06,   1.00263E+06
C:/temp/Job-1.odb,Step-1,Increment      1: Step Time =    1.000,"P-1-1",         17476,   13.0129E-03,   59.9087E-03,            0.,NA,NA,"",   868.083E+03,   957.692E+03,   957.692E+03
C:/temp/Job-1.odb,Step-1,Increment      1: Step Time =    1.000,"P-1-1",         17477,   59.5712E-03,   96.0980E-03,            0.,NA,NA,"",   751.213E+03,   797.887E+03,   797.887E+03
C:/temp/Job-1.odb,Step-1,Increment      1: Step Time =    1.000,"P-1-1",         17478,   76.8429E-03,   128.247E-03,            0.,NA,NA,"",   1.18804E+06,   1.15991E+06,   1.15991E+06
C:/temp/Job-1.odb,Step-1,Increment      1: Step Time =    1.000,"P-1-1",         17479,   58.1561E-03,   95.7867E-03,            0.,NA,NA,"",   763.308E+03,   810.990E+03,   810.990E+03
C:/temp/Job-1.odb,Step-1,Increment      1: Step Time =    1.000,"P-1-1",         17480,   13.4726E-03,   168.324E-03,            0.,NA,NA,"",   977.495E+03,   1.05388E+06,   1.05388E+06
C:/temp/Job-1.odb,Step-1,Increment      1: Step Time =    1.000,"P-1-1",         17481,   13.4091E-03,   169.540E-03,            0.,NA,NA,"",   983.909E+03,   1.05919E+06,   1.05919E+06
C:/temp/Job-1.odb,Step-1,Increment      1: Step Time =    1.000,"P-1-1",         17482,   14.7861E-03,   105.079E-03,            0.,NA,NA,"",   799.112E+03,   891.166E+03,   891.166E+03
C:/temp/Job-1.odb,Step-1,Increment      1: Step Time =    1.000,"P-1-1",         17483,   33.2872E-03,   13.5644E-03,            0.,NA,NA,"",   1.05616E+06,   1.06393E+06,   1.06393E+06
C:/temp/Job-1.odb,Step-1,Increment      1: Step Time =    1.000,"P-1-1",         17484,   32.0739E-03,   13.5010E-03,            0.,NA,NA,"",   1.05978E+06,   1.06819E+06,   1.06819E+06
C:/temp/Job-1.odb,Step-1,Increment      1: Step Time =    1.000,"P-1-1",         17485,   176.715E-03,   66.8010E-03,            0.,NA,NA,"",   1.00022E+06,   1.00444E+06,   1.00444E+06
C:/temp/Job-1.odb,Step-1,Increment      1: Step Time =    1.000,"P-1-1",         17486,   24.1494E-03,   15.8540E-03,            0.,NA,NA,"",   1.08157E+06,   1.10268E+06,   1.10268E+06
C:/temp/Job-1.odb,Step-1,Increment      1: Step Time =    1.000,"P-1-1",         17487,   88.0095E-03,   140.630E-03,            0.,NA,NA,"",   1.08263E+06,   1.11594E+06,   1.11594E+06
C:/temp/Job-1.odb,Step-1,Increment      1: Step Time =    1.000,"P-1-1",         17488,   172.152E-03,   129.152E-03,            0.,NA,NA,"",   999.481E+03,   1.00189E+06,   1.00189E+06
C:/temp/Job-1.odb,Step-1,Increment      1: Step Time =    1.000,"P-1-1",         17489,   143.251E-03,   179.437E-03,            0.,NA,NA,"",   1.01001E+06,   1.00661E+06,   1.00661E+06
C:/temp/Job-1.odb,Step-1,Increment      1: Step Time =    1.000,"P-1-1",         17490,   101.506E-03,   173.453E-03,            0.,NA,NA,"",   995.344E+03,   1.00596E+06,   1.00596E+06
C:/temp/Job-1.odb,Step-1,Increment      1: Step Time =    1.000,"P-1-1",         17491,   102.430E-03,   172.648E-03,            0.,NA,NA,"",   996.873E+03,   1.00791E+06,   1.00791E+06
C:/temp/Job-1.odb,Step-1,Increment      1: Step Time =    1.000,"P-1-1",         17492,   60.4313E-03,   19.1091E-03,            0.,NA,NA,"",   1.01942E+06,   1.02077E+06,   1.02077E+06
C:/temp/Job-1.odb,Step-1,Increment      1: Step Time =    1.000,"P-1-1",         17493,   15.9543E-03,   30.7321E-03,            0.,NA,NA,"",   993.264E+03,   1.06189E+06,   1.06189E+06
C:/temp/Job-1.odb,Step-1,Increment      1: Step Time =    1.000,"P-1-1",         17494,   176.441E-03,   68.5834E-03,            0.,NA,NA,"",   998.207E+03,   1.00302E+06,   1.00302E+06
C:/temp/Job-1.odb,Step-1,Increment      1: Step Time =    1.000,"P-1-1",         17495,   81.5463E-03,   14.1716E-03,            0.,NA,NA,"",   978.597E+03,   980.748E+03,   980.748E+03
C:/temp/Job-1.odb,Step-1,Increment      1: Step Time =    1.000,"P-1-1",         17496,   15.1819E-03,   60.7108E-03,            0.,NA,NA,"",   873.543E+03,   960.051E+03,   960.051E+03
C:/temp/Job-1.odb,Step-1,Increment      1: Step Time =    1.000,"P-1-1",         17497,   18.2232E-03,   31.5726E-03,            0.,NA,NA,"",   997.566E+03,   1.06094E+06,   1.06094E+06
C:/temp/Job-1.odb,Step-1,Increment      1: Step Time =    1.000,"P-1-1",         17498,   49.0849E-03,   174.780E-03,            0.,NA,NA,"",   1.04293E+06,   1.04951E+06,   1.04951E+06
C:/temp/Job-1.odb,Step-1,Increment      1: Step Time =    1.000,"P-1-1",         17499,   174.102E-03,   158.477E-03,            0.,NA,NA,"",   1.01511E+06,   1.01253E+06,   1.01253E+06
C:/temp/Job-1.odb,Step-1,Increment      1: Step Time =    1.000,"P-1-1",         17500,   172.772E-03,   156.253E-03,            0.,NA,NA,"",   1.01738E+06,   1.01419E+06,   1.01419E+06
C:/temp/Job-1.odb,Step-1,Increment      1: Step Time =    1.000,"P-1-1",         17501,   67.3806E-03,   172.393E-03,            0.,NA,NA,"",   1.03282E+06,   1.03574E+06,   1.03574E+06
C:/temp/Job-1.odb,Step-1,Increment      1: Step Time =    1.000,"P-1-1",         17502,   14.0809E-03,   54.8328E-03,            0.,NA,NA,"",   887.932E+03,   974.559E+03,   974.559E+03
C:/temp/Job-1.odb,Step-1,Increment      1: Step Time =    1.000,"P-1-1",         17503,   172.998E-03,   38.3070E-03,            0.,NA,NA,"",   1.01534E+06,   1.01239E+06,   1.01239E+06
C:/temp/Job-1.odb,Step-1,Increment      1: Step Time =    1.000,"P-1-1",         17504,   161.772E-03,   172.958E-03,            0.,NA,NA,"",   1.01663E+06,   1.01230E+06,   1.01230E+06
C:/temp/Job-1.odb,Step-1,Increment      1: Step Time =    1.000,"P-1-1",         17505,   155.056E-03,   174.721E-03,            0.,NA,NA,"",   1.01761E+06,   1.01282E+06,   1.01282E+06
C:/temp/Job-1.odb,Step-1,Increment      1: Step Time =    1.000,"P-1-1",         17506,   176.932E-03,   79.3722E-03,            0.,NA,NA,"",   981.846E+03,   992.260E+03,   992.260E+03
C:/temp/Job-1.odb,Step-1,Increment      1: Step Time =    1.000,"P-1-1",         17507,   177.000E-03,   78.1138E-03,            0.,NA,NA,"",   983.871E+03,   993.699E+03,   993.699E+03
C:/temp/Job-1.odb,Step-1,Increment      1: Step Time =    1.000,"P-1-1",         17508,   140.455E-03,   110.328E-03,            0.,NA,NA,"",   892.271E+03,   885.503E+03,   885.503E+03
C:/temp/Job-1.odb,Step-1,Increment      1: Step Time =    1.000,"P-1-1",         17509,   175.404E-03,   47.0434E-03,            0.,NA,NA,"",   1.01405E+06,   1.01232E+06,   1.01232E+06
C:/temp/Job-1.odb,Step-1,Increment      1: Step Time =    1.000,"P-1-1",         17510,   175.129E-03,   45.8000E-03,            0.,NA,NA,"",   1.01442E+06,   1.01245E+06,   1.01245E+06
C:/temp/Job-1.odb,Step-1,Increment      1: Step Time =    1.000,"P-1-1",         17511,   15.4675E-03,   118.472E-03,            0.,NA,NA,"",   819.209E+03,   909.372E+03,   909.372E+03
C:/temp/Job-1.odb,Step-1,Increment      1: Step Time =    1.000,"P-1-1",         17512,   15.7829E-03,   119.697E-03,            0.,NA,NA,"",   822.577E+03,   912.276E+03,   912.276E+03
C:/temp/Job-1.odb,Step-1,Increment      1: Step Time =    1.000,"P-1-1",         17513,   14.9803E-03,   78.9131E-03,            0.,NA,NA,"",   823.720E+03,   914.062E+03,   914.062E+03
C:/temp/Job-1.odb,Step-1,Increment      1: Step Time =    1.000,"P-1-1",         17514,   86.2363E-03,   16.7443E-03,            0.,NA,NA,"",   981.713E+03,   985.366E+03,   985.366E+03
C:/temp/Job-1.odb,Step-1,Increment      1: Step Time =    1.000,"P-1-1",         17515,   15.6801E-03,   64.0189E-03,            0.,NA,NA,"",   865.456E+03,   951.988E+03,   951.988E+03
C:/temp/Job-1.odb,Step-1,Increment      1: Step Time =    1.000,"P-1-1",         17516,   18.5501E-03,   35.2248E-03,            0.,NA,NA,"",   981.735E+03,   1.04796E+06,   1.04796E+06
C:/temp/Job-1.odb,Step-1,Increment      1: Step Time =    1.000,"P-1-1",         17517,   171.376E-03,   175.380E-03,            0.,NA,NA,"",   1.00874E+06,   1.00669E+06,   1.00669E+06
C:/temp/Job-1.odb,Step-1,Increment      1: Step Time =    1.000,"P-1-1",         17518,   81.0437E-03,   139.401E-03,            0.,NA,NA,"",   1.11967E+06,   1.12939E+06,   1.12939E+06
C:/temp/Job-1.odb,Step-1,Increment      1: Step Time =    1.000,"P-1-1",         17519,   63.1617E-03,   117.009E-03,            0.,NA,NA,"",   950.375E+03,   953.236E+03,   953.236E+03
C:/temp/Job-1.odb,Step-1,Increment      1: Step Time =    1.000,"P-1-1",         17520,   38.7127E-03,   177.545E-03,            0.,NA,NA,"",   1.04953E+06,   1.06202E+06,   1.06202E+06
C:/temp/Job-1.odb,Step-1,Increment      1: Step Time =    1.000,"P-1-1",         17521,   31.5708E-03,   172.752E-03,            0.,NA,NA,"",   1.04403E+06,   1.07123E+06,   1.07123E+06
C:/temp/Job-1.odb,Step-1,Increment      1: Step Time =    1.000,"P-1-1",         17522,   118.495E-03,   130.194E-03,            0.,NA,NA,"",   1.20744E+06,   1.18564E+06,   1.18564E+06
C:/temp/Job-1.odb,Step-1,Increment      1: Step Time =    1.000,"P-1-1",         17523,   60.4921E-03,   81.4142E-03,            0.,NA,NA,"",   952.493E+03,   962.139E+03,   962.139E+03
C:/temp/Job-1.odb,Step-1,Increment      1: Step Time =    1.000,"P-1-1",         17524,   16.6530E-03,   164.996E-03,            0.,NA,NA,"",   974.695E+03,   1.04571E+06,   1.04571E+06
C:/temp/Job-1.odb,Step-1,Increment      1: Step Time =    1.000,"P-1-1",         17525,   16.4629E-03,   166.416E-03,            0.,NA,NA,"",   980.874E+03,   1.05105E+06,   1.05105E+06
C:/temp/Job-1.odb,Step-1,Increment      1: Step Time =    1.000,"P-1-1",         17526,   26.7318E-03,   16.7841E-03,            0.,NA,NA,"",   1.07322E+06,   1.09199E+06,   1.09199E+06
C:/temp/Job-1.odb,Step-1,Increment      1: Step Time =    1.000,"P-1-1",         17527,   121.722E-03,   177.615E-03,            0.,NA,NA,"",   1.00072E+06,   1.00243E+06,   1.00243E+06
C:/temp/Job-1.odb,Step-1,Increment      1: Step Time =    1.000,"P-1-1",         17528,   22.6217E-03,   22.7185E-03,            0.,NA,NA,"",   1.05547E+06,   1.09339E+06,   1.09339E+06
C:/temp/Job-1.odb,Step-1,Increment      1: Step Time =    1.000,"P-1-1",         17529,   61.5944E-03,   91.0994E-03,            0.,NA,NA,"",   805.104E+03,   836.748E+03,   836.748E+03
C:/temp/Job-1.odb,Step-1,Increment      1: Step Time =    1.000,"P-1-1",         17530,   90.6542E-03,   62.3124E-03,            0.,NA,NA,"",   1.08267E+06,   1.12753E+06,   1.12753E+06
C:/temp/Job-1.odb,Step-1,Increment      1: Step Time =    1.000,"P-1-1",         17531,   91.7110E-03,   61.6096E-03,            0.,NA,NA,"",   1.07208E+06,   1.12004E+06,   1.12004E+06
C:/temp/Job-1.odb,Step-1,Increment      1: Step Time =    1.000,"P-1-1",         17532,   86.4570E-03,   65.8347E-03,            0.,NA,NA,"",   1.13718E+06,   1.16297E+06,   1.16297E+06
C:/temp/Job-1.odb,Step-1,Increment      1: Step Time =    1.000,"P-1-1",         17533,   134.016E-03,   17.7148E-03,            0.,NA,NA,"",   999.489E+03,   997.927E+03,   997.927E+03
C:/temp/Job-1.odb,Step-1,Increment      1: Step Time =    1.000,"P-1-1",         17534,   71.3800E-03,   173.076E-03,            0.,NA,NA,"",   1.02647E+06,   1.03007E+06,   1.03007E+06
C:/temp/Job-1.odb,Step-1,Increment      1: Step Time =    1.000,"P-1-1",         17535,   68.1138E-03,   171.086E-03,            0.,NA,NA,"",   1.03508E+06,   1.03835E+06,   1.03835E+06
C:/temp/Job-1.odb,Step-1,Increment      1: Step Time =    1.000,"P-1-1",         17536,   130.391E-03,   174.222E-03,            0.,NA,NA,"",   1.01619E+06,   1.01430E+06,   1.01430E+06
C:/temp/Job-1.odb,Step-1,Increment      1: Step Time =    1.000,"P-1-1",         17537,   144.347E-03,   176.607E-03,            0.,NA,NA,"",   1.01601E+06,   1.01164E+06,   1.01164E+06
C:/temp/Job-1.odb,Step-1,Increment      1: Step Time =    1.000,"P-1-1",         17538,   170.241E-03,   114.819E-03,            0.,NA,NA,"",   969.582E+03,   978.624E+03,   978.624E+03
C:/temp/Job-1.odb,Step-1,Increment      1: Step Time =    1.000,"P-1-1",         17539,   109.572E-03,   138.402E-03,            0.,NA,NA,"",   1.08248E+06,   1.12130E+06,   1.12130E+06
C:/temp/Job-1.odb,Step-1,Increment      1: Step Time =    1.000,"P-1-1",         17540,   174.718E-03,   99.1964E-03,            0.,NA,NA,"",   958.407E+03,   974.154E+03,   974.154E+03
C:/temp/Job-1.odb,Step-1,Increment      1: Step Time =    1.000,"P-1-1",         17541,   175.296E-03,   96.2406E-03,            0.,NA,NA,"",   960.387E+03,   976.117E+03,   976.117E+03
C:/temp/Job-1.odb,Step-1,Increment      1: Step Time =    1.000,"P-1-1",         17542,   174.448E-03,   94.4705E-03,            0.,NA,NA,"",   960.186E+03,   975.179E+03,   975.179E+03
C:/temp/Job-1.odb,Step-1,Increment      1: Step Time =    1.000,"P-1-1",         17543,   173.495E-03,   93.7148E-03,            0.,NA,NA,"",   959.442E+03,   973.782E+03,   973.782E+03
C:/temp/Job-1.odb,Step-1,Increment      1: Step Time =    1.000,"P-1-1",         17544,   159.924E-03,   172.208E-03,            0.,NA,NA,"",   1.01873E+06,   1.01386E+06,   1.01386E+06
C:/temp/Job-1.odb,Step-1,Increment      1: Step Time =    1.000,"P-1-1",         17545,   106.242E-03,   172.160E-03,            0.,NA,NA,"",   998.988E+03,   1.00948E+06,   1.00948E+06
C:/temp/Job-1.odb,Step-1,Increment      1: Step Time =    1.000,"P-1-1",         17546,   138.919E-03,   179.920E-03,            0.,NA,NA,"",   1.00756E+06,   1.00475E+06,   1.00475E+06
C:/temp/Job-1.odb,Step-1,Increment      1: Step Time =    1.000,"P-1-1",         17547,   178.650E-03,   57.6709E-03,            0.,NA,NA,"",   1.00591E+06,   1.00823E+06,   1.00823E+06
C:/temp/Job-1.odb,Step-1,Increment      1: Step Time =    1.000,"P-1-1",         17548,   172.957E-03,   50.5255E-03,            0.,NA,NA,"",   1.01737E+06,   1.01458E+06,   1.01458E+06
C:/temp/Job-1.odb,Step-1,Increment      1: Step Time =    1.000,"P-1-1",         17549,   128.783E-03,   70.1714E-03,            0.,NA,NA,"",   1.17077E+06,   1.12279E+06,   1.12279E+06
C:/temp/Job-1.odb,Step-1,Increment      1: Step Time =    1.000,"P-1-1",         17550,   117.770E-03,   65.0670E-03,            0.,NA,NA,"",   1.15885E+06,   1.15480E+06,   1.15480E+06
C:/temp/Job-1.odb,Step-1,Increment      1: Step Time =    1.000,"P-1-1",         17551,   143.174E-03,   86.1458E-03,            0.,NA,NA,"",   944.406E+03,   932.120E+03,   932.120E+03
C:/temp/Job-1.odb,Step-1,Increment      1: Step Time =    1.000,"P-1-1",         17552,   172.633E-03,   34.5322E-03,            0.,NA,NA,"",   1.01401E+06,   1.01116E+06,   1.01116E+06
C:/temp/Job-1.odb,Step-1,Increment      1: Step Time =    1.000,"P-1-1",         17553,   173.784E-03,   31.0846E-03,            0.,NA,NA,"",   1.01117E+06,   1.00892E+06,   1.00892E+06
C:/temp/Job-1.odb,Step-1,Increment      1: Step Time =    1.000,"P-1-1",         17554,   172.381E-03,   40.0477E-03,            0.,NA,NA,"",   1.01681E+06,   1.01352E+06,   1.01352E+06
C:/temp/Job-1.odb,Step-1,Increment      1: Step Time =    1.000,"P-1-1",         17555,   107.797E-03,   15.4428E-03,            0.,NA,NA,"",   973.876E+03,   977.332E+03,   977.332E+03
C:/temp/Job-1.odb,Step-1,Increment      1: Step Time =    1.000,"P-1-1",         17556,   13.8995E-03,   142.299E-03,            0.,NA,NA,"",   878.016E+03,   965.768E+03,   965.768E+03
C:/temp/Job-1.odb,Step-1,Increment      1: Step Time =    1.000,"P-1-1",         17557,   17.3895E-03,   176.594E-03,            0.,NA,NA,"",   1.04382E+06,   1.09736E+06,   1.09736E+06
C:/temp/Job-1.odb,Step-1,Increment      1: Step Time =    1.000,"P-1-1",         17558,   85.5158E-03,   173.830E-03,            0.,NA,NA,"",   1.00562E+06,   1.01363E+06,   1.01363E+06
C:/temp/Job-1.odb,Step-1,Increment      1: Step Time =    1.000,"P-1-1",         17559,   86.5490E-03,   174.048E-03,            0.,NA,NA,"",   1.00386E+06,   1.01210E+06,   1.01210E+06
C:/temp/Job-1.odb,Step-1,Increment      1: Step Time =    1.000,"P-1-1",         17560,   88.8034E-03,   174.044E-03,            0.,NA,NA,"",   1.00130E+06,   1.01017E+06,   1.01017E+06
C:/temp/Job-1.odb,Step-1,Increment      1: Step Time =    1.000,"P-1-1",         17561,   92.3149E-03,   173.228E-03,            0.,NA,NA,"",   999.579E+03,   1.00991E+06,   1.00991E+06
C:/temp/Job-1.odb,Step-1,Increment      1: Step Time =    1.000,"P-1-1",         17562,   177.252E-03,   147.227E-03,            0.,NA,NA,"",   1.01023E+06,   1.01042E+06,   1.01042E+06
C:/temp/Job-1.odb,Step-1,Increment      1: Step Time =    1.000,"P-1-1",         17563,   176.054E-03,   145.080E-03,            0.,NA,NA,"",   1.01101E+06,   1.01094E+06,   1.01094E+06
C:/temp/Job-1.odb,Step-1,Increment      1: Step Time =    1.000,"P-1-1",         17564,   22.8666E-03,   18.5142E-03,            0.,NA,NA,"",   1.07405E+06,   1.10314E+06,   1.10314E+06
C:/temp/Job-1.odb,Step-1,Increment      1: Step Time =    1.000,"P-1-1",         17565,   165.202E-03,   19.7899E-03,            0.,NA,NA,"",   1.00739E+06,   1.00518E+06,   1.00518E+06
C:/temp/Job-1.odb,Step-1,Increment      1: Step Time =    1.000,"P-1-1",         17566,   103.794E-03,   19.4473E-03,            0.,NA,NA,"",   981.733E+03,   987.501E+03,   987.501E+03
C:/temp/Job-1.odb,Step-1,Increment      1: Step Time =    1.000,"P-1-1",         17567,   95.6689E-03,   20.3942E-03,            0.,NA,NA,"",   984.638E+03,   991.228E+03,   991.228E+03
C:/temp/Job-1.odb,Step-1,Increment      1: Step Time =    1.000,"P-1-1",         17568,   54.9412E-03,   14.6532E-03,            0.,NA,NA,"",   1.01394E+06,   1.01496E+06,   1.01496E+06
C:/temp/Job-1.odb,Step-1,Increment      1: Step Time =    1.000,"P-1-1",         17569,   173.639E-03,   27.2863E-03,            0.,NA,NA,"",   1.00912E+06,   1.00718E+06,   1.00718E+06
C:/temp/Job-1.odb,Step-1,Increment      1: Step Time =    1.000,"P-1-1",         17570,   97.5903E-03,   55.8325E-03,            0.,NA,NA,"",   1.03249E+06,   1.08079E+06,   1.08079E+06
C:/temp/Job-1.odb,Step-1,Increment      1: Step Time =    1.000,"P-1-1",         17571,   112.545E-03,   61.1119E-03,            0.,NA,NA,"",   1.09969E+06,   1.12474E+06,   1.12474E+06
C:/temp/Job-1.odb,Step-1,Increment      1: Step Time =    1.000,"P-1-1",         17572,   13.8395E-03,   148.345E-03,            0.,NA,NA,"",   897.050E+03,   983.130E+03,   983.130E+03
C:/temp/Job-1.odb,Step-1,Increment      1: Step Time =    1.000,"P-1-1",         17573,   14.0715E-03,   149.616E-03,            0.,NA,NA,"",   902.256E+03,   987.575E+03,   987.575E+03
C:/temp/Job-1.odb,Step-1,Increment      1: Step Time =    1.000,"P-1-1",         17574,   174.443E-03,   151.503E-03,            0.,NA,NA,"",   1.01536E+06,   1.01324E+06,   1.01324E+06
C:/temp/Job-1.odb,Step-1,Increment      1: Step Time =    1.000,"P-1-1",         17575,   174.994E-03,   166.570E-03,            0.,NA,NA,"",   1.01121E+06,   1.00917E+06,   1.00917E+06
C:/temp/Job-1.odb,Step-1,Increment      1: Step Time =    1.000,"P-1-1",         17576,   173.658E-03,   168.469E-03,            0.,NA,NA,"",   1.01147E+06,   1.00917E+06,   1.00917E+06
C:/temp/Job-1.odb,Step-1,Increment      1: Step Time =    1.000,"P-1-1",         17577,   156.526E-03,   173.423E-03,            0.,NA,NA,"",   1.01895E+06,   1.01392E+06,   1.01392E+06
C:/temp/Job-1.odb,Step-1,Increment      1: Step Time =    1.000,"P-1-1",         17578,   37.9450E-03,   176.820E-03,            0.,NA,NA,"",   1.04961E+06,   1.06359E+06,   1.06359E+06
C:/temp/Job-1.odb,Step-1,Increment      1: Step Time =    1.000,"P-1-1",         17579,   172.346E-03,   127.485E-03,            0.,NA,NA,"",   996.237E+03,   999.642E+03,   999.642E+03
C:/temp/Job-1.odb,Step-1,Increment      1: Step Time =    1.000,"P-1-1",         17580,   175.595E-03,   138.837E-03,            0.,NA,NA,"",   1.00738E+06,   1.00875E+06,   1.00875E+06
C:/temp/Job-1.odb,Step-1,Increment      1: Step Time =    1.000,"P-1-1",         17581,   14.9284E-03,   140.305E-03,            0.,NA,NA,"",   875.730E+03,   962.386E+03,   962.386E+03
C:/temp/Job-1.odb,Step-1,Increment      1: Step Time =    1.000,"P-1-1",         17582,   171.198E-03,   74.9905E-03,            0.,NA,NA,"",   992.321E+03,   996.115E+03,   996.115E+03
C:/temp/Job-1.odb,Step-1,Increment      1: Step Time =    1.000,"P-1-1",         17583,   58.5134E-03,   16.4940E-03,            0.,NA,NA,"",   1.01453E+06,   1.01561E+06,   1.01561E+06
C:/temp/Job-1.odb,Step-1,Increment      1: Step Time =    1.000,"P-1-1",         17584,   97.1334E-03,   139.203E-03,            0.,NA,NA,"",   1.04321E+06,   1.10281E+06,   1.10281E+06
C:/temp/Job-1.odb,Step-1,Increment      1: Step Time =    1.000,"P-1-1",         17585,   123.296E-03,   130.550E-03,            0.,NA,NA,"",   1.19807E+06,   1.15836E+06,   1.15836E+06
C:/temp/Job-1.odb,Step-1,Increment      1: Step Time =    1.000,"P-1-1",         17586,   55.1756E-03,   174.699E-03,            0.,NA,NA,"",   1.03896E+06,   1.04286E+06,   1.04286E+06
C:/temp/Job-1.odb,Step-1,Increment      1: Step Time =    1.000,"P-1-1",         17587,   175.883E-03,   65.5791E-03,            0.,NA,NA,"",   1.00265E+06,   1.00576E+06,   1.00576E+06
C:/temp/Job-1.odb,Step-1,Increment      1: Step Time =    1.000,"P-1-1",         17588,   178.252E-03,   64.5449E-03,            0.,NA,NA,"",   1.00093E+06,   1.00537E+06,   1.00537E+06
C:/temp/Job-1.odb,Step-1,Increment      1: Step Time =    1.000,"P-1-1",         17589,   171.431E-03,   81.9052E-03,            0.,NA,NA,"",   977.323E+03,   985.275E+03,   985.275E+03
C:/temp/Job-1.odb,Step-1,Increment      1: Step Time =    1.000,"P-1-1",         17590,   145.655E-03,   174.405E-03,            0.,NA,NA,"",   1.02042E+06,   1.01523E+06,   1.01523E+06
C:/temp/Job-1.odb,Step-1,Increment      1: Step Time =    1.000,"P-1-1",         17591,   159.528E-03,   22.6689E-03,            0.,NA,NA,"",   1.01231E+06,   1.00878E+06,   1.00878E+06
C:/temp/Job-1.odb,Step-1,Increment      1: Step Time =    1.000,"P-1-1",         17592,   65.6522E-03,   22.8582E-03,            0.,NA,NA,"",   1.02289E+06,   1.02487E+06,   1.02487E+06
C:/temp/Job-1.odb,Step-1,Increment      1: Step Time =    1.000,"P-1-1",         17593,   143.069E-03,   80.6902E-03,            0.,NA,NA,"",   1.00654E+06,   982.751E+03,   982.751E+03
C:/temp/Job-1.odb,Step-1,Increment      1: Step Time =    1.000,"P-1-1",         17594,   147.516E-03,   174.696E-03,            0.,NA,NA,"",   1.01969E+06,   1.01454E+06,   1.01454E+06
C:/temp/Job-1.odb,Step-1,Increment      1: Step Time =    1.000,"P-1-1",         17595,   16.5884E-03,   97.8153E-03,            0.,NA,NA,"",   800.837E+03,   891.343E+03,   891.343E+03
C:/temp/Job-1.odb,Step-1,Increment      1: Step Time =    1.000,"P-1-1",         17596,   99.8428E-03,   173.288E-03,            0.,NA,NA,"",   995.715E+03,   1.00661E+06,   1.00661E+06
C:/temp/Job-1.odb,Step-1,Increment      1: Step Time =    1.000,"P-1-1",         17597,   16.1627E-03,   42.1982E-03,            0.,NA,NA,"",   941.307E+03,   1.01870E+06,   1.01870E+06
C:/temp/Job-1.odb,Step-1,Increment      1: Step Time =    1.000,"P-1-1",         17598,   92.6985E-03,   16.5848E-03,            0.,NA,NA,"",   976.672E+03,   981.012E+03,   981.012E+03
C:/temp/Job-1.odb,Step-1,Increment      1: Step Time =    1.000,"P-1-1",         17599,   60.6673E-03,   84.7554E-03,            0.,NA,NA,"",   906.192E+03,   922.605E+03,   922.605E+03
C:/temp/Job-1.odb,Step-1,Increment      1: Step Time =    1.000,"P-1-1",         17600,   135.622E-03,   120.666E-03,            0.,NA,NA,"",   1.06735E+06,   1.02184E+06,   1.02184E+06
C:/temp/Job-1.odb,Step-1,Increment      1: Step Time =    1.000,"P-1-1",         17601,   172.777E-03,   159.031E-03,            0.,NA,NA,"",   1.01664E+06,   1.01348E+06,   1.01348E+06
C:/temp/Job-1.odb,Step-1,Increment      1: Step Time =    1.000,"P-1-1",         17602,   65.6482E-03,   77.2763E-03,            0.,NA,NA,"",   1.05017E+06,   1.03520E+06,   1.03520E+06
C:/temp/Job-1.odb,Step-1,Increment      1: Step Time =    1.000,"P-1-1",         17603,   20.5670E-03,   29.9822E-03,            0.,NA,NA,"",   1.01410E+06,   1.06934E+06,   1.06934E+06
C:/temp/Job-1.odb,Step-1,Increment      1: Step Time =    1.000,"P-1-1",         17604,   66.9015E-03,   170.315E-03,            0.,NA,NA,"",   1.03818E+06,   1.04144E+06,   1.04144E+06
C:/temp/Job-1.odb,Step-1,Increment      1: Step Time =    1.000,"P-1-1",         17605,   59.9720E-03,   20.4112E-03,            0.,NA,NA,"",   1.02337E+06,   1.02500E+06,   1.02500E+06
C:/temp/Job-1.odb,Step-1,Increment      1: Step Time =    1.000,"P-1-1",         17606,   171.513E-03,   156.719E-03,            0.,NA,NA,"",   1.01903E+06,   1.01523E+06,   1.01523E+06
C:/temp/Job-1.odb,Step-1,Increment      1: Step Time =    1.000,"P-1-1",         17607,   94.5182E-03,   138.414E-03,            0.,NA,NA,"",   1.05586E+06,   1.11238E+06,   1.11238E+06
C:/temp/Job-1.odb,Step-1,Increment      1: Step Time =    1.000,"P-1-1",         17608,   173.751E-03,   45.9846E-03,            0.,NA,NA,"",   1.01624E+06,   1.01362E+06,   1.01362E+06
C:/temp/Job-1.odb,Step-1,Increment      1: Step Time =    1.000,"P-1-1",         17609,   169.318E-03,   115.837E-03,            0.,NA,NA,"",   971.293E+03,   979.231E+03,   979.231E+03
C:/temp/Job-1.odb,Step-1,Increment      1: Step Time =    1.000,"P-1-1",         17610,   170.938E-03,   155.506E-03,            0.,NA,NA,"",   1.02011E+06,   1.01602E+06,   1.01602E+06
C:/temp/Job-1.odb,Step-1,Increment      1: Step Time =    1.000,"P-1-1",         17611,   33.1193E-03,   14.6539E-03,            0.,NA,NA,"",   1.05779E+06,   1.06676E+06,   1.06676E+06
C:/temp/Job-1.odb,Step-1,Increment      1: Step Time =    1.000,"P-1-1",         17612,   70.7176E-03,   75.4819E-03,            0.,NA,NA,"",   1.12315E+06,   1.09197E+06,   1.09197E+06
C:/temp/Job-1.odb,Step-1,Increment      1: Step Time =    1.000,"P-1-1",         17613,   70.4206E-03,   76.1298E-03,            0.,NA,NA,"",   1.11441E+06,   1.08346E+06,   1.08346E+06
C:/temp/Job-1.odb,Step-1,Increment      1: Step Time =    1.000,"P-1-1",         17614,   105.097E-03,   141.400E-03,            0.,NA,NA,"",   1.04565E+06,   1.09449E+06,   1.09449E+06
C:/temp/Job-1.odb,Step-1,Increment      1: Step Time =    1.000,"P-1-1",         17615,   93.2711E-03,   138.946E-03,            0.,NA,NA,"",   1.06040E+06,   1.11218E+06,   1.11218E+06
C:/temp/Job-1.odb,Step-1,Increment      1: Step Time =    1.000,"P-1-1",         17616,   62.6206E-03,   115.321E-03,            0.,NA,NA,"",   917.573E+03,   927.090E+03,   927.090E+03
C:/temp/Job-1.odb,Step-1,Increment      1: Step Time =    1.000,"P-1-1",         17617,   172.303E-03,   109.214E-03,            0.,NA,NA,"",   961.163E+03,   974.066E+03,   974.066E+03
C:/temp/Job-1.odb,Step-1,Increment      1: Step Time =    1.000,"P-1-1",         17618,   24.4034E-03,   21.0183E-03,            0.,NA,NA,"",   1.06337E+06,   1.09435E+06,   1.09435E+06
C:/temp/Job-1.odb,Step-1,Increment      1: Step Time =    1.000,"P-1-1",         17619,   68.9066E-03,   76.3713E-03,            0.,NA,NA,"",   1.09570E+06,   1.06873E+06,   1.06873E+06
C:/temp/Job-1.odb,Step-1,Increment      1: Step Time =    1.000,"P-1-1",         17620,   125.866E-03,   128.585E-03,            0.,NA,NA,"",   1.19505E+06,   1.14383E+06,   1.14383E+06
C:/temp/Job-1.odb,Step-1,Increment      1: Step Time =    1.000,"P-1-1",         17621,   16.2776E-03,   61.6236E-03,            0.,NA,NA,"",   874.594E+03,   959.624E+03,   959.624E+03
C:/temp/Job-1.odb,Step-1,Increment      1: Step Time =    1.000,"P-1-1",         17622,   172.645E-03,   125.213E-03,            0.,NA,NA,"",   991.658E+03,   996.469E+03,   996.469E+03
C:/temp/Job-1.odb,Step-1,Increment      1: Step Time =    1.000,"P-1-1",         17623,   139.893E-03,   16.3663E-03,            0.,NA,NA,"",   1.00001E+06,   997.963E+03,   997.963E+03
C:/temp/Job-1.odb,Step-1,Increment      1: Step Time =    1.000,"P-1-1",         17624,   29.7253E-03,   13.3744E-03,            0.,NA,NA,"",   1.06739E+06,   1.07748E+06,   1.07748E+06
C:/temp/Job-1.odb,Step-1,Increment      1: Step Time =    1.000,"P-1-1",         17625,   16.1039E-03,   77.5452E-03,            0.,NA,NA,"",   829.837E+03,   918.695E+03,   918.695E+03
C:/temp/Job-1.odb,Step-1,Increment      1: Step Time =    1.000,"P-1-1",         17626,   174.993E-03,   119.129E-03,            0.,NA,NA,"",   979.649E+03,   989.417E+03,   989.417E+03
C:/temp/Job-1.odb,Step-1,Increment      1: Step Time =    1.000,"P-1-1",         17627,   17.1696E-03,   63.7726E-03,            0.,NA,NA,"",   871.206E+03,   955.481E+03,   955.481E+03
C:/temp/Job-1.odb,Step-1,Increment      1: Step Time =    1.000,"P-1-1",         17628,   101.774E-03,   171.647E-03,            0.,NA,NA,"",   998.471E+03,   1.01035E+06,   1.01035E+06
C:/temp/Job-1.odb,Step-1,Increment      1: Step Time =    1.000,"P-1-1",         17629,   99.5456E-03,   170.809E-03,            0.,NA,NA,"",   999.725E+03,   1.01251E+06,   1.01251E+06
C:/temp/Job-1.odb,Step-1,Increment      1: Step Time =    1.000,"P-1-1",         17630,   147.440E-03,   172.863E-03,            0.,NA,NA,"",   1.02337E+06,   1.01754E+06,   1.01754E+06
C:/temp/Job-1.odb,Step-1,Increment      1: Step Time =    1.000,"P-1-1",         17631,   68.2730E-03,   121.279E-03,            0.,NA,NA,"",   1.06469E+06,   1.03992E+06,   1.03992E+06
C:/temp/Job-1.odb,Step-1,Increment      1: Step Time =    1.000,"P-1-1",         17632,   63.7353E-03,   118.777E-03,            0.,NA,NA,"",   981.702E+03,   978.748E+03,   978.748E+03
C:/temp/Job-1.odb,Step-1,Increment      1: Step Time =    1.000,"P-1-1",         17633,   170.377E-03,   128.820E-03,            0.,NA,NA,"",   1.00085E+06,   1.00196E+06,   1.00196E+06
C:/temp/Job-1.odb,Step-1,Increment      1: Step Time =    1.000,"P-1-1",         17634,   84.5004E-03,   66.3421E-03,            0.,NA,NA,"",   1.15250E+06,   1.16743E+06,   1.16743E+06
C:/temp/Job-1.odb,Step-1,Increment      1: Step Time =    1.000,"P-1-1",         17635,   69.3359E-03,   124.112E-03,            0.,NA,NA,"",   1.10281E+06,   1.07535E+06,   1.07535E+06
C:/temp/Job-1.odb,Step-1,Increment      1: Step Time =    1.000,"P-1-1",         17636,   179.087E-03,   59.8923E-03,            0.,NA,NA,"",   1.00389E+06,   1.00719E+06,   1.00719E+06
C:/temp/Job-1.odb,Step-1,Increment      1: Step Time =    1.000,"P-1-1",         17637,   62.9757E-03,   175.075E-03,            0.,NA,NA,"",   1.03101E+06,   1.03335E+06,   1.03335E+06
C:/temp/Job-1.odb,Step-1,Increment      1: Step Time =    1.000,"P-1-1",         17638,   113.781E-03,   62.1677E-03,            0.,NA,NA,"",   1.11474E+06,   1.13351E+06,   1.13351E+06
C:/temp/Job-1.odb,Step-1,Increment      1: Step Time =    1.000,"P-1-1",         17639,   83.2836E-03,   66.7230E-03,            0.,NA,NA,"",   1.16014E+06,   1.16860E+06,   1.16860E+06
C:/temp/Job-1.odb,Step-1,Increment      1: Step Time =    1.000,"P-1-1",         17640,   174.427E-03,   43.0721E-03,            0.,NA,NA,"",   1.01501E+06,   1.01259E+06,   1.01259E+06
C:/temp/Job-1.odb,Step-1,Increment      1: Step Time =    1.000,"P-1-1",         17641,   47.6333E-03,   175.282E-03,            0.,NA,NA,"",   1.04346E+06,   1.05070E+06,   1.05070E+06
C:/temp/Job-1.odb,Step-1,Increment      1: Step Time =    1.000,"P-1-1",         17642,   20.4397E-03,   133.012E-03,            0.,NA,NA,"",   872.493E+03,   952.832E+03,   952.832E+03
C:/temp/Job-1.odb,Step-1,Increment      1: Step Time =    1.000,"P-1-1",         17643,   55.9692E-03,   18.4572E-03,            0.,NA,NA,"",   1.02356E+06,   1.02529E+06,   1.02529E+06
C:/temp/Job-1.odb,Step-1,Increment      1: Step Time =    1.000,"P-1-1",         17644,   176.560E-03,   44.9258E-03,            0.,NA,NA,"",   1.01237E+06,   1.01107E+06,   1.01107E+06
C:/temp/Job-1.odb,Step-1,Increment      1: Step Time =    1.000,"P-1-1",         17645,   15.3790E-03,   142.801E-03,            0.,NA,NA,"",   885.362E+03,   970.438E+03,   970.438E+03
C:/temp/Job-1.odb,Step-1,Increment      1: Step Time =    1.000,"P-1-1",         17646,   169.739E-03,   87.8415E-03,            0.,NA,NA,"",   963.218E+03,   973.419E+03,   973.419E+03
C:/temp/Job-1.odb,Step-1,Increment      1: Step Time =    1.000,"P-1-1",         17647,   102.794E-03,   20.8501E-03,            0.,NA,NA,"",   984.693E+03,   991.432E+03,   991.432E+03
C:/temp/Job-1.odb,Step-1,Increment      1: Step Time =    1.000,"P-1-1",         17648,   172.538E-03,   24.5071E-03,            0.,NA,NA,"",   1.00813E+06,   1.00626E+06,   1.00626E+06
C:/temp/Job-1.odb,Step-1,Increment      1: Step Time =    1.000,"P-1-1",         17649,   153.171E-03,   16.2867E-03,            0.,NA,NA,"",   1.00414E+06,   1.00183E+06,   1.00183E+06
C:/temp/Job-1.odb,Step-1,Increment      1: Step Time =    1.000,"P-1-1",         17650,   141.576E-03,   106.111E-03,            0.,NA,NA,"",   844.309E+03,   850.131E+03,   850.131E+03
C:/temp/Job-1.odb,Step-1,Increment      1: Step Time =    1.000,"P-1-1",         17651,   134.141E-03,   19.4385E-03,            0.,NA,NA,"",   1.00345E+06,   1.00159E+06,   1.00159E+06
C:/temp/Job-1.odb,Step-1,Increment      1: Step Time =    1.000,"P-1-1",         17652,   104.903E-03,   172.194E-03,            0.,NA,NA,"",   998.139E+03,   1.00904E+06,   1.00904E+06
C:/temp/Job-1.odb,Step-1,Increment      1: Step Time =    1.000,"P-1-1",         17653,   120.844E-03,   129.254E-03,            0.,NA,NA,"",   1.21687E+06,   1.18035E+06,   1.18035E+06
C:/temp/Job-1.odb,Step-1,Increment      1: Step Time =    1.000,"P-1-1",         17654,   120.024E-03,   128.444E-03,            0.,NA,NA,"",   1.22608E+06,   1.18951E+06,   1.18951E+06
C:/temp/Job-1.odb,Step-1,Increment      1: Step Time =    1.000,"P-1-1",         17655,   98.6402E-03,   21.0981E-03,            0.,NA,NA,"",   985.278E+03,   992.403E+03,   992.403E+03
C:/temp/Job-1.odb,Step-1,Increment      1: Step Time =    1.000,"P-1-1",         17656,   18.0352E-03,   67.0500E-03,            0.,NA,NA,"",   864.608E+03,   948.449E+03,   948.449E+03
C:/temp/Job-1.odb,Step-1,Increment      1: Step Time =    1.000,"P-1-1",         17657,   18.7077E-03,   67.8150E-03,            0.,NA,NA,"",   863.948E+03,   947.291E+03,   947.291E+03
C:/temp/Job-1.odb,Step-1,Increment      1: Step Time =    1.000,"P-1-1",         17658,   141.661E-03,   178.615E-03,            0.,NA,NA,"",   1.01131E+06,   1.00782E+06,   1.00782E+06
C:/temp/Job-1.odb,Step-1,Increment      1: Step Time =    1.000,"P-1-1",         17659,   48.4602E-03,   173.045E-03,            0.,NA,NA,"",   1.04494E+06,   1.05277E+06,   1.05277E+06
C:/temp/Job-1.odb,Step-1,Increment      1: Step Time =    1.000,"P-1-1",         17660,   17.5046E-03,   84.1583E-03,            0.,NA,NA,"",   818.288E+03,   906.854E+03,   906.854E+03
C:/temp/Job-1.odb,Step-1,Increment      1: Step Time =    1.000,"P-1-1",         17661,   17.9100E-03,   85.6433E-03,            0.,NA,NA,"",   816.291E+03,   904.676E+03,   904.676E+03
C:/temp/Job-1.odb,Step-1,Increment      1: Step Time =    1.000,"P-1-1",         17662,   15.8304E-03,   172.944E-03,            0.,NA,NA,"",   1.01482E+06,   1.07898E+06,   1.07898E+06
C:/temp/Job-1.odb,Step-1,Increment      1: Step Time =    1.000,"P-1-1",         17663,   16.4138E-03,   174.156E-03,            0.,NA,NA,"",   1.02456E+06,   1.08518E+06,   1.08518E+06
C:/temp/Job-1.odb,Step-1,Increment      1: Step Time =    1.000,"P-1-1",         17664,   18.0708E-03,   123.727E-03,            0.,NA,NA,"",   838.035E+03,   924.375E+03,   924.375E+03
C:/temp/Job-1.odb,Step-1,Increment      1: Step Time =    1.000,"P-1-1",         17665,   94.6027E-03,   22.2456E-03,            0.,NA,NA,"",   989.043E+03,   996.676E+03,   996.676E+03
C:/temp/Job-1.odb,Step-1,Increment      1: Step Time =    1.000,"P-1-1",         17666,   100.323E-03,   55.5907E-03,            0.,NA,NA,"",   1.03041E+06,   1.07874E+06,   1.07874E+06
C:/temp/Job-1.odb,Step-1,Increment      1: Step Time =    1.000,"P-1-1",         17667,   98.1946E-03,   55.1448E-03,            0.,NA,NA,"",   1.03068E+06,   1.07800E+06,   1.07800E+06
C:/temp/Job-1.odb,Step-1,Increment      1: Step Time =    1.000,"P-1-1",         17668,   162.314E-03,   171.086E-03,            0.,NA,NA,"",   1.01851E+06,   1.01380E+06,   1.01380E+06
C:/temp/Job-1.odb,Step-1,Increment      1: Step Time =    1.000,"P-1-1",         17669,   174.408E-03,   136.013E-03,            0.,NA,NA,"",   1.00643E+06,   1.00778E+06,   1.00778E+06
C:/temp/Job-1.odb,Step-1,Increment      1: Step Time =    1.000,"P-1-1",         17670,   170.990E-03,   38.0569E-03,            0.,NA,NA,"",   1.01759E+06,   1.01389E+06,   1.01389E+06
C:/temp/Job-1.odb,Step-1,Increment      1: Step Time =    1.000,"P-1-1",         17671,   171.105E-03,   24.8154E-03,            0.,NA,NA,"",   1.00909E+06,   1.00694E+06,   1.00694E+06
C:/temp/Job-1.odb,Step-1,Increment      1: Step Time =    1.000,"P-1-1",         17672,   177.408E-03,   61.6362E-03,            0.,NA,NA,"",   1.00472E+06,   1.00742E+06,   1.00742E+06
C:/temp/Job-1.odb,Step-1,Increment      1: Step Time =    1.000,"P-1-1",         17673,   142.996E-03,   16.0187E-03,            0.,NA,NA,"",   1.00080E+06,   998.642E+03,   998.642E+03
C:/temp/Job-1.odb,Step-1,Increment      1: Step Time =    1.000,"P-1-1",         17674,   141.482E-03,   17.6033E-03,            0.,NA,NA,"",   1.00324E+06,   1.00079E+06,   1.00079E+06
C:/temp/Job-1.odb,Step-1,Increment      1: Step Time =    1.000,"P-1-1",         17675,   19.5337E-03,   33.6310E-03,            0.,NA,NA,"",   992.339E+03,   1.05475E+06,   1.05475E+06
C:/temp/Job-1.odb,Step-1,Increment      1: Step Time =    1.000,"P-1-1",         17676,   146.332E-03,   16.6868E-03,            0.,NA,NA,"",   1.00323E+06,   1.00079E+06,   1.00079E+06
C:/temp/Job-1.odb,Step-1,Increment      1: Step Time =    1.000,"P-1-1",         17677,   144.140E-03,   17.9754E-03,            0.,NA,NA,"",   1.00510E+06,   1.00237E+06,   1.00237E+06
C:/temp/Job-1.odb,Step-1,Increment      1: Step Time =    1.000,"P-1-1",         17678,   89.9896E-03,   60.9850E-03,            0.,NA,NA,"",   1.07976E+06,   1.12054E+06,   1.12054E+06
C:/temp/Job-1.odb,Step-1,Increment      1: Step Time =    1.000,"P-1-1",         17679,   91.0197E-03,   60.5318E-03,            0.,NA,NA,"",   1.07089E+06,   1.11493E+06,   1.11493E+06
C:/temp/Job-1.odb,Step-1,Increment      1: Step Time =    1.000,"P-1-1",         17680,   91.8442E-03,   60.1196E-03,            0.,NA,NA,"",   1.06436E+06,   1.11048E+06,   1.11048E+06
C:/temp/Job-1.odb,Step-1,Increment      1: Step Time =    1.000,"P-1-1",         17681,   59.0891E-03,   81.9963E-03,            0.,NA,NA,"",   935.177E+03,   950.739E+03,   950.739E+03
C:/temp/Job-1.odb,Step-1,Increment      1: Step Time =    1.000,"P-1-1",         17682,   94.9777E-03,   56.3626E-03,            0.,NA,NA,"",   1.03958E+06,   1.08635E+06,   1.08635E+06
C:/temp/Job-1.odb,Step-1,Increment      1: Step Time =    1.000,"P-1-1",         17683,   96.8985E-03,   54.8610E-03,            0.,NA,NA,"",   1.03233E+06,   1.07827E+06,   1.07827E+06
C:/temp/Job-1.odb,Step-1,Increment      1: Step Time =    1.000,"P-1-1",         17684,   97.8861E-03,   54.2406E-03,            0.,NA,NA,"",   1.02991E+06,   1.07538E+06,   1.07538E+06
C:/temp/Job-1.odb,Step-1,Increment      1: Step Time =    1.000,"P-1-1",         17685,   17.5407E-03,   98.0929E-03,            0.,NA,NA,"",   802.122E+03,   891.875E+03,   891.875E+03
C:/temp/Job-1.odb,Step-1,Increment      1: Step Time =    1.000,"P-1-1",         17686,   138.225E-03,   177.981E-03,            0.,NA,NA,"",   1.01152E+06,   1.00832E+06,   1.00832E+06
C:/temp/Job-1.odb,Step-1,Increment      1: Step Time =    1.000,"P-1-1",         17687,   15.8101E-03,   175.823E-03,            0.,NA,NA,"",   1.03475E+06,   1.09413E+06,   1.09413E+06
C:/temp/Job-1.odb,Step-1,Increment      1: Step Time =    1.000,"P-1-1",         17688,   18.7610E-03,   129.207E-03,            0.,NA,NA,"",   855.316E+03,   939.317E+03,   939.317E+03
C:/temp/Job-1.odb,Step-1,Increment      1: Step Time =    1.000,"P-1-1",         17689,   19.0598E-03,   126.326E-03,            0.,NA,NA,"",   848.039E+03,   932.464E+03,   932.464E+03
C:/temp/Job-1.odb,Step-1,Increment      1: Step Time =    1.000,"P-1-1",         17690,   169.734E-03,   130.543E-03,            0.,NA,NA,"",   1.00481E+06,   1.00453E+06,   1.00453E+06
C:/temp/Job-1.odb,Step-1,Increment      1: Step Time =    1.000,"P-1-1",         17691,   119.555E-03,   130.758E-03,            0.,NA,NA,"",   1.20204E+06,   1.17703E+06,   1.17703E+06
C:/temp/Job-1.odb,Step-1,Increment      1: Step Time =    1.000,"P-1-1",         17692,   119.939E-03,   63.7565E-03,            0.,NA,NA,"",   1.15383E+06,   1.14313E+06,   1.14313E+06
C:/temp/Job-1.odb,Step-1,Increment      1: Step Time =    1.000,"P-1-1",         17693,   171.800E-03,   94.6389E-03,            0.,NA,NA,"",   956.088E+03,   969.890E+03,   969.890E+03
C:/temp/Job-1.odb,Step-1,Increment      1: Step Time =    1.000,"P-1-1",         17694,   174.386E-03,   95.6744E-03,            0.,NA,NA,"",   959.427E+03,   974.642E+03,   974.642E+03
C:/temp/Job-1.odb,Step-1,Increment      1: Step Time =    1.000,"P-1-1",         17695,   174.371E-03,   96.9916E-03,            0.,NA,NA,"",   958.586E+03,   973.985E+03,   973.985E+03
C:/temp/Job-1.odb,Step-1,Increment      1: Step Time =    1.000,"P-1-1",         17696,   173.985E-03,   97.7136E-03,            0.,NA,NA,"",   957.555E+03,   972.818E+03,   972.818E+03
C:/temp/Job-1.odb,Step-1,Increment      1: Step Time =    1.000,"P-1-1",         17697,   174.970E-03,   54.4459E-03,            0.,NA,NA,"",   1.01301E+06,   1.01207E+06,   1.01207E+06
C:/temp/Job-1.odb,Step-1,Increment      1: Step Time =    1.000,"P-1-1",         17698,   119.149E-03,   16.0819E-03,            0.,NA,NA,"",   983.258E+03,   984.798E+03,   984.798E+03
C:/temp/Job-1.odb,Step-1,Increment      1: Step Time =    1.000,"P-1-1",         17699,   18.9913E-03,   71.6251E-03,            0.,NA,NA,"",   853.945E+03,   937.793E+03,   937.793E+03
C:/temp/Job-1.odb,Step-1,Increment      1: Step Time =    1.000,"P-1-1",         17700,   174.713E-03,   145.243E-03,            0.,NA,NA,"",   1.01317E+06,   1.01216E+06,   1.01216E+06
C:/temp/Job-1.odb,Step-1,Increment      1: Step Time =    1.000,"P-1-1",         17701,   174.599E-03,   144.304E-03,            0.,NA,NA,"",   1.01292E+06,   1.01201E+06,   1.01201E+06
C:/temp/Job-1.odb,Step-1,Increment      1: Step Time =    1.000,"P-1-1",         17702,   126.436E-03,   171.775E-03,            0.,NA,NA,"",   1.01909E+06,   1.01876E+06,   1.01876E+06
C:/temp/Job-1.odb,Step-1,Increment      1: Step Time =    1.000,"P-1-1",         17703,   174.475E-03,   149.976E-03,            0.,NA,NA,"",   1.01507E+06,   1.01315E+06,   1.01315E+06
C:/temp/Job-1.odb,Step-1,Increment      1: Step Time =    1.000,"P-1-1",         17704,   131.196E-03,   124.570E-03,            0.,NA,NA,"",   1.14397E+06,   1.08685E+06,   1.08685E+06
C:/temp/Job-1.odb,Step-1,Increment      1: Step Time =    1.000,"P-1-1",         17705,   131.918E-03,   125.325E-03,            0.,NA,NA,"",   1.14070E+06,   1.08600E+06,   1.08600E+06
C:/temp/Job-1.odb,Step-1,Increment      1: Step Time =    1.000,"P-1-1",         17706,   71.5102E-03,   133.658E-03,            0.,NA,NA,"",   1.13482E+06,   1.11959E+06,   1.11959E+06
C:/temp/Job-1.odb,Step-1,Increment      1: Step Time =    1.000,"P-1-1",         17707,   85.8694E-03,   173.026E-03,            0.,NA,NA,"",   1.00704E+06,   1.01555E+06,   1.01555E+06
C:/temp/Job-1.odb,Step-1,Increment      1: Step Time =    1.000,"P-1-1",         17708,   87.6728E-03,   172.737E-03,            0.,NA,NA,"",   1.00539E+06,   1.01475E+06,   1.01475E+06
C:/temp/Job-1.odb,Step-1,Increment      1: Step Time =    1.000,"P-1-1",         17709,   90.9282E-03,   172.354E-03,            0.,NA,NA,"",   1.00253E+06,   1.01306E+06,   1.01306E+06
C:/temp/Job-1.odb,Step-1,Increment      1: Step Time =    1.000,"P-1-1",         17710,   94.0359E-03,   170.714E-03,            0.,NA,NA,"",   1.00262E+06,   1.01512E+06,   1.01512E+06
C:/temp/Job-1.odb,Step-1,Increment      1: Step Time =    1.000,"P-1-1",         17711,   135.753E-03,   71.1597E-03,            0.,NA,NA,"",   1.12041E+06,   1.07689E+06,   1.07689E+06
C:/temp/Job-1.odb,Step-1,Increment      1: Step Time =    1.000,"P-1-1",         17712,   172.709E-03,   70.1250E-03,            0.,NA,NA,"",   999.933E+03,   1.00249E+06,   1.00249E+06
C:/temp/Job-1.odb,Step-1,Increment      1: Step Time =    1.000,"P-1-1",         17713,   19.8919E-03,   42.2680E-03,            0.,NA,NA,"",   956.864E+03,   1.02591E+06,   1.02591E+06
C:/temp/Job-1.odb,Step-1,Increment      1: Step Time =    1.000,"P-1-1",         17714,   18.9649E-03,   96.8062E-03,            0.,NA,NA,"",   804.566E+03,   893.050E+03,   893.050E+03
C:/temp/Job-1.odb,Step-1,Increment      1: Step Time =    1.000,"P-1-1",         17715,   172.411E-03,   47.2893E-03,            0.,NA,NA,"",   1.01837E+06,   1.01506E+06,   1.01506E+06
C:/temp/Job-1.odb,Step-1,Increment      1: Step Time =    1.000,"P-1-1",         17716,   80.8901E-03,   140.627E-03,            0.,NA,NA,"",   1.11271E+06,   1.12317E+06,   1.12317E+06
C:/temp/Job-1.odb,Step-1,Increment      1: Step Time =    1.000,"P-1-1",         17717,   79.9208E-03,   140.677E-03,            0.,NA,NA,"",   1.11480E+06,   1.12277E+06,   1.12277E+06
C:/temp/Job-1.odb,Step-1,Increment      1: Step Time =    1.000,"P-1-1",         17718,   145.077E-03,   86.8595E-03,            0.,NA,NA,"",   936.635E+03,   928.600E+03,   928.600E+03
C:/temp/Job-1.odb,Step-1,Increment      1: Step Time =    1.000,"P-1-1",         17719,   145.701E-03,   88.2031E-03,            0.,NA,NA,"",   922.654E+03,   918.409E+03,   918.409E+03
C:/temp/Job-1.odb,Step-1,Increment      1: Step Time =    1.000,"P-1-1",         17720,   107.787E-03,   142.153E-03,            0.,NA,NA,"",   1.05575E+06,   1.09627E+06,   1.09627E+06
C:/temp/Job-1.odb,Step-1,Increment      1: Step Time =    1.000,"P-1-1",         17721,   65.0996E-03,   76.0747E-03,            0.,NA,NA,"",   1.05350E+06,   1.04038E+06,   1.04038E+06
C:/temp/Job-1.odb,Step-1,Increment      1: Step Time =    1.000,"P-1-1",         17722,   60.1359E-03,   87.5762E-03,            0.,NA,NA,"",   860.630E+03,   886.273E+03,   886.273E+03
C:/temp/Job-1.odb,Step-1,Increment      1: Step Time =    1.000,"P-1-1",         17723,   101.795E-03,   141.214E-03,            0.,NA,NA,"",   1.03712E+06,   1.09160E+06,   1.09160E+06
C:/temp/Job-1.odb,Step-1,Increment      1: Step Time =    1.000,"P-1-1",         17724,   173.834E-03,   138.672E-03,            0.,NA,NA,"",   1.01011E+06,   1.01006E+06,   1.01006E+06
C:/temp/Job-1.odb,Step-1,Increment      1: Step Time =    1.000,"P-1-1",         17725,   172.249E-03,   126.000E-03,            0.,NA,NA,"",   993.547E+03,   997.624E+03,   997.624E+03
C:/temp/Job-1.odb,Step-1,Increment      1: Step Time =    1.000,"P-1-1",         17726,   171.363E-03,   124.266E-03,            0.,NA,NA,"",   990.745E+03,   995.059E+03,   995.059E+03
C:/temp/Job-1.odb,Step-1,Increment      1: Step Time =    1.000,"P-1-1",         17727,   173.234E-03,   29.7367E-03,            0.,NA,NA,"",   1.01075E+06,   1.00851E+06,   1.00851E+06
C:/temp/Job-1.odb,Step-1,Increment      1: Step Time =    1.000,"P-1-1",         17728,   32.3624E-03,   171.263E-03,            0.,NA,NA,"",   1.04104E+06,   1.06877E+06,   1.06877E+06
C:/temp/Job-1.odb,Step-1,Increment      1: Step Time =    1.000,"P-1-1",         17729,   39.7085E-03,   177.233E-03,            0.,NA,NA,"",   1.04872E+06,   1.06059E+06,   1.06059E+06
C:/temp/Job-1.odb,Step-1,Increment      1: Step Time =    1.000,"P-1-1",         17730,   35.0812E-03,   171.008E-03,            0.,NA,NA,"",   1.04250E+06,   1.06626E+06,   1.06626E+06
C:/temp/Job-1.odb,Step-1,Increment      1: Step Time =    1.000,"P-1-1",         17731,   145.641E-03,   172.454E-03,            0.,NA,NA,"",   1.02454E+06,   1.01862E+06,   1.01862E+06
C:/temp/Job-1.odb,Step-1,Increment      1: Step Time =    1.000,"P-1-1",         17732,   174.158E-03,   79.0608E-03,            0.,NA,NA,"",   983.016E+03,   991.281E+03,   991.281E+03
C:/temp/Job-1.odb,Step-1,Increment      1: Step Time =    1.000,"P-1-1",         17733,   87.4119E-03,   18.1527E-03,            0.,NA,NA,"",   984.596E+03,   989.075E+03,   989.075E+03
C:/temp/Job-1.odb,Step-1,Increment      1: Step Time =    1.000,"P-1-1",         17734,   84.8651E-03,   18.1148E-03,            0.,NA,NA,"",   986.653E+03,   990.674E+03,   990.674E+03
C:/temp/Job-1.odb,Step-1,Increment      1: Step Time =    1.000,"P-1-1",         17735,   83.5849E-03,   18.1668E-03,            0.,NA,NA,"",   988.055E+03,    991.81E+03,    991.81E+03
C:/temp/Job-1.odb,Step-1,Increment      1: Step Time =    1.000,"P-1-1",         17736,   75.3705E-03,   18.3076E-03,            0.,NA,NA,"",   998.182E+03,   1.00046E+06,   1.00046E+06
C:/temp/Job-1.odb,Step-1,Increment      1: Step Time =    1.000,"P-1-1",         17737,   74.2857E-03,   19.1544E-03,            0.,NA,NA,"",   1.00177E+06,   1.00414E+06,   1.00414E+06
C:/temp/Job-1.odb,Step-1,Increment      1: Step Time =    1.000,"P-1-1",         17738,   71.2242E-03,   23.3881E-03,            0.,NA,NA,"",   1.01765E+06,   1.02040E+06,   1.02040E+06
C:/temp/Job-1.odb,Step-1,Increment      1: Step Time =    1.000,"P-1-1",         17739,   17.4479E-03,   112.851E-03,            0.,NA,NA,"",    812.58E+03,   901.674E+03,   901.674E+03
C:/temp/Job-1.odb,Step-1,Increment      1: Step Time =    1.000,"P-1-1",         17740,   174.598E-03,   147.455E-03,            0.,NA,NA,"",   1.01431E+06,   1.01279E+06,   1.01279E+06
C:/temp/Job-1.odb,Step-1,Increment      1: Step Time =    1.000,"P-1-1",         17741,   17.2017E-03,   55.6485E-03,            0.,NA,NA,"",   897.363E+03,   978.979E+03,   978.979E+03
C:/temp/Job-1.odb,Step-1,Increment      1: Step Time =    1.000,"P-1-1",         17742,   177.645E-03,   58.9801E-03,            0.,NA,NA,"",   1.00650E+06,   1.00850E+06,   1.00850E+06
C:/temp/Job-1.odb,Step-1,Increment      1: Step Time =    1.000,"P-1-1",         17743,   169.715E-03,   109.659E-03,            0.,NA,NA,"",   958.741E+03,   970.081E+03,   970.081E+03
C:/temp/Job-1.odb,Step-1,Increment      1: Step Time =    1.000,"P-1-1",         17744,   168.390E-03,   114.761E-03,            0.,NA,NA,"",   968.054E+03,   976.077E+03,   976.077E+03
C:/temp/Job-1.odb,Step-1,Increment      1: Step Time =    1.000,"P-1-1",         17745,   62.7993E-03,   24.8967E-03,            0.,NA,NA,"",   1.03142E+06,   1.03379E+06,   1.03379E+06
C:/temp/Job-1.odb,Step-1,Increment      1: Step Time =    1.000,"P-1-1",         17746,   153.819E-03,   21.2607E-03,            0.,NA,NA,"",   1.01169E+06,   1.00804E+06,   1.00804E+06
C:/temp/Job-1.odb,Step-1,Increment      1: Step Time =    1.000,"P-1-1",         17747,   170.490E-03,   71.4280E-03,            0.,NA,NA,"",   1.00026E+06,   1.00154E+06,   1.00154E+06
C:/temp/Job-1.odb,Step-1,Increment      1: Step Time =    1.000,"P-1-1",         17748,   17.6904E-03,   42.9611E-03,            0.,NA,NA,"",   944.890E+03,   1.01917E+06,   1.01917E+06
C:/temp/Job-1.odb,Step-1,Increment      1: Step Time =    1.000,"P-1-1",         17749,   20.5545E-03,   100.436E-03,            0.,NA,NA,"",   806.138E+03,   893.220E+03,   893.220E+03
C:/temp/Job-1.odb,Step-1,Increment      1: Step Time =    1.000,"P-1-1",         17750,   169.677E-03,   81.5118E-03,            0.,NA,NA,"",   977.642E+03,   984.118E+03,   984.118E+03
C:/temp/Job-1.odb,Step-1,Increment      1: Step Time =    1.000,"P-1-1",         17751,   135.175E-03,   74.3336E-03,            0.,NA,NA,"",   1.11164E+06,   1.06478E+06,   1.06478E+06
C:/temp/Job-1.odb,Step-1,Increment      1: Step Time =    1.000,"P-1-1",         17752,   125.065E-03,   130.738E-03,            0.,NA,NA,"",   1.18884E+06,   1.14648E+06,   1.14648E+06
C:/temp/Job-1.odb,Step-1,Increment      1: Step Time =    1.000,"P-1-1",         17753,   123.094E-03,   132.444E-03,            0.,NA,NA,"",   1.18467E+06,   1.15231E+06,   1.15231E+06
C:/temp/Job-1.odb,Step-1,Increment      1: Step Time =    1.000,"P-1-1",         17754,   104.782E-03,   57.4740E-03,            0.,NA,NA,"",   1.04186E+06,   1.08917E+06,   1.08917E+06
C:/temp/Job-1.odb,Step-1,Increment      1: Step Time =    1.000,"P-1-1",         17755,   171.481E-03,   36.5271E-03,            0.,NA,NA,"",   1.01621E+06,   1.01283E+06,   1.01283E+06
C:/temp/Job-1.odb,Step-1,Increment      1: Step Time =    1.000,"P-1-1",         17756,   53.6247E-03,   109.246E-03,            0.,NA,NA,"",   823.880E+03,   869.757E+03,   869.757E+03
C:/temp/Job-1.odb,Step-1,Increment      1: Step Time =    1.000,"P-1-1",         17757,   54.3622E-03,   107.816E-03,            0.,NA,NA,"",   810.088E+03,   857.063E+03,   857.063E+03
C:/temp/Job-1.odb,Step-1,Increment      1: Step Time =    1.000,"P-1-1",         17758,   59.2324E-03,   84.0302E-03,            0.,NA,NA,"",   910.990E+03,   930.080E+03,   930.080E+03
C:/temp/Job-1.odb,Step-1,Increment      1: Step Time =    1.000,"P-1-1",         17759,   87.0360E-03,   62.4213E-03,            0.,NA,NA,"",   1.10648E+06,   1.13640E+06,   1.13640E+06
C:/temp/Job-1.odb,Step-1,Increment      1: Step Time =    1.000,"P-1-1",         17760,   23.2938E-03,   172.214E-03,            0.,NA,NA,"",   1.03187E+06,   1.07658E+06,   1.07658E+06
C:/temp/Job-1.odb,Step-1,Increment      1: Step Time =    1.000,"P-1-1",         17761,   118.784E-03,   171.657E-03,            0.,NA,NA,"",   1.01145E+06,   1.01564E+06,   1.01564E+06
C:/temp/Job-1.odb,Step-1,Increment      1: Step Time =    1.000,"P-1-1",         17762,   117.862E-03,   176.482E-03,            0.,NA,NA,"",   999.597E+03,   1.00314E+06,   1.00314E+06
C:/temp/Job-1.odb,Step-1,Increment      1: Step Time =    1.000,"P-1-1",         17763,   170.590E-03,   25.8404E-03,            0.,NA,NA,"",   1.01004E+06,   1.00767E+06,   1.00767E+06
C:/temp/Job-1.odb,Step-1,Increment      1: Step Time =    1.000,"P-1-1",         17764,   38.9178E-03,   18.2656E-03,            0.,NA,NA,"",   1.04793E+06,   1.05636E+06,   1.05636E+06
C:/temp/Job-1.odb,Step-1,Increment      1: Step Time =    1.000,"P-1-1",         17765,   105.990E-03,   142.375E-03,            0.,NA,NA,"",   1.04672E+06,   1.09172E+06,   1.09172E+06
C:/temp/Job-1.odb,Step-1,Increment      1: Step Time =    1.000,"P-1-1",         17766,   120.046E-03,   129.966E-03,            0.,NA,NA,"",   1.21077E+06,   1.18048E+06,   1.18048E+06
C:/temp/Job-1.odb,Step-1,Increment      1: Step Time =    1.000,"P-1-1",         17767,   104.209E-03,   171.477E-03,            0.,NA,NA,"",   999.106E+03,   1.01060E+06,   1.01060E+06
C:/temp/Job-1.odb,Step-1,Increment      1: Step Time =    1.000,"P-1-1",         17768,   93.8860E-03,   139.154E-03,            0.,NA,NA,"",   1.05717E+06,   1.10984E+06,   1.10984E+06
C:/temp/Job-1.odb,Step-1,Increment      1: Step Time =    1.000,"P-1-1",         17769,   171.482E-03,   166.927E-03,            0.,NA,NA,"",   1.01420E+06,   1.01117E+06,   1.01117E+06
C:/temp/Job-1.odb,Step-1,Increment      1: Step Time =    1.000,"P-1-1",         17770,   17.1250E-03,   77.4577E-03,            0.,NA,NA,"",   832.343E+03,   920.149E+03,   920.149E+03
C:/temp/Job-1.odb,Step-1,Increment      1: Step Time =    1.000,"P-1-1",         17771,   18.8757E-03,   98.4427E-03,            0.,NA,NA,"",   803.999E+03,   892.597E+03,   892.597E+03
C:/temp/Job-1.odb,Step-1,Increment      1: Step Time =    1.000,"P-1-1",         17772,   18.1429E-03,   97.5137E-03,            0.,NA,NA,"",   803.104E+03,   892.352E+03,   892.352E+03
C:/temp/Job-1.odb,Step-1,Increment      1: Step Time =    1.000,"P-1-1",         17773,   122.264E-03,   176.050E-03,            0.,NA,NA,"",   1.00457E+06,   1.00624E+06,   1.00624E+06
C:/temp/Job-1.odb,Step-1,Increment      1: Step Time =    1.000,"P-1-1",         17774,   171.754E-03,   154.326E-03,            0.,NA,NA,"",   1.01908E+06,   1.01542E+06,   1.01542E+06
C:/temp/Job-1.odb,Step-1,Increment      1: Step Time =    1.000,"P-1-1",         17775,   26.5326E-03,   171.214E-03,            0.,NA,NA,"",   1.03335E+06,   1.07272E+06,   1.07272E+06
C:/temp/Job-1.odb,Step-1,Increment      1: Step Time =    1.000,"P-1-1",         17776,   27.0416E-03,   170.106E-03,            0.,NA,NA,"",   1.03007E+06,   1.06972E+06,   1.06972E+06
C:/temp/Job-1.odb,Step-1,Increment      1: Step Time =    1.000,"P-1-1",         17777,   56.0369E-03,   19.7714E-03,            0.,NA,NA,"",   1.02658E+06,   1.02864E+06,   1.02864E+06
C:/temp/Job-1.odb,Step-1,Increment      1: Step Time =    1.000,"P-1-1",         17778,   69.4923E-03,   75.2131E-03,            0.,NA,NA,"",   1.10958E+06,   1.08246E+06,   1.08246E+06
C:/temp/Job-1.odb,Step-1,Increment      1: Step Time =    1.000,"P-1-1",         17779,   141.640E-03,   100.044E-03,            0.,NA,NA,"",   809.702E+03,   823.071E+03,   823.071E+03
C:/temp/Job-1.odb,Step-1,Increment      1: Step Time =    1.000,"P-1-1",         17780,   71.5114E-03,   128.429E-03,            0.,NA,NA,"",   1.14047E+06,   1.11477E+06,   1.11477E+06
C:/temp/Job-1.odb,Step-1,Increment      1: Step Time =    1.000,"P-1-1",         17781,   71.0959E-03,   171.285E-03,            0.,NA,NA,"",   1.03105E+06,   1.03488E+06,   1.03488E+06
C:/temp/Job-1.odb,Step-1,Increment      1: Step Time =    1.000,"P-1-1",         17782,   173.246E-03,   80.3695E-03,            0.,NA,NA,"",   980.625E+03,   988.992E+03,   988.992E+03
C:/temp/Job-1.odb,Step-1,Increment      1: Step Time =    1.000,"P-1-1",         17783,   61.6537E-03,   114.927E-03,            0.,NA,NA,"",   906.045E+03,   919.994E+03,   919.994E+03
C:/temp/Job-1.odb,Step-1,Increment      1: Step Time =    1.000,"P-1-1",         17784,   103.713E-03,   141.473E-03,            0.,NA,NA,"",   1.04055E+06,   1.09208E+06,   1.09208E+06
C:/temp/Job-1.odb,Step-1,Increment      1: Step Time =    1.000,"P-1-1",         17785,   169.659E-03,   38.5856E-03,            0.,NA,NA,"",   1.01940E+06,   1.01515E+06,   1.01515E+06
C:/temp/Job-1.odb,Step-1,Increment      1: Step Time =    1.000,"P-1-1",         17786,   161.713E-03,   169.786E-03,            0.,NA,NA,"",   1.02037E+06,   1.01521E+06,   1.01521E+06
C:/temp/Job-1.odb,Step-1,Increment      1: Step Time =    1.000,"P-1-1",         17787,   162.855E-03,   169.319E-03,            0.,NA,NA,"",   1.02006E+06,   1.01503E+06,   1.01503E+06
C:/temp/Job-1.odb,Step-1,Increment      1: Step Time =    1.000,"P-1-1",         17788,   170.945E-03,   164.258E-03,            0.,NA,NA,"",   1.01635E+06,   1.01286E+06,   1.01286E+06
C:/temp/Job-1.odb,Step-1,Increment      1: Step Time =    1.000,"P-1-1",         17789,   67.2448E-03,   124.435E-03,            0.,NA,NA,"",   1.08007E+06,   1.05989E+06,   1.05989E+06
C:/temp/Job-1.odb,Step-1,Increment      1: Step Time =    1.000,"P-1-1",         17790,   170.868E-03,   35.9490E-03,            0.,NA,NA,"",   1.01664E+06,   1.01307E+06,   1.01307E+06
C:/temp/Job-1.odb,Step-1,Increment      1: Step Time =    1.000,"P-1-1",         17791,   120.584E-03,   176.304E-03,            0.,NA,NA,"",   1.00253E+06,   1.00482E+06,   1.00482E+06
C:/temp/Job-1.odb,Step-1,Increment      1: Step Time =    1.000,"P-1-1",         17792,   168.867E-03,   36.4178E-03,            0.,NA,NA,"",   1.01891E+06,   1.01465E+06,   1.01465E+06
C:/temp/Job-1.odb,Step-1,Increment      1: Step Time =    1.000,"P-1-1",         17793,   58.2485E-03,   21.4112E-03,            0.,NA,NA,"",   1.02795E+06,   1.03002E+06,   1.03002E+06
C:/temp/Job-1.odb,Step-1,Increment      1: Step Time =    1.000,"P-1-1",         17794,   168.950E-03,   128.362E-03,            0.,NA,NA,"",   1.00137E+06,   1.00154E+06,   1.00154E+06
C:/temp/Job-1.odb,Step-1,Increment      1: Step Time =    1.000,"P-1-1",         17795,   30.4048E-03,   15.7330E-03,            0.,NA,NA,"",   1.06561E+06,   1.07831E+06,   1.07831E+06
C:/temp/Job-1.odb,Step-1,Increment      1: Step Time =    1.000,"P-1-1",         17796,   18.4416E-03,   81.1112E-03,            0.,NA,NA,"",   826.815E+03,   913.809E+03,   913.809E+03
C:/temp/Job-1.odb,Step-1,Increment      1: Step Time =    1.000,"P-1-1",         17797,   65.3439E-03,   120.999E-03,            0.,NA,NA,"",   1.02758E+06,   1.01501E+06,   1.01501E+06
C:/temp/Job-1.odb,Step-1,Increment      1: Step Time =    1.000,"P-1-1",         17798,   142.388E-03,   177.031E-03,            0.,NA,NA,"",   1.01490E+06,   1.01083E+06,   1.01083E+06
C:/temp/Job-1.odb,Step-1,Increment      1: Step Time =    1.000,"P-1-1",         17799,   153.188E-03,   171.108E-03,            0.,NA,NA,"",   1.02433E+06,   1.01812E+06,   1.01812E+06
C:/temp/Job-1.odb,Step-1,Increment      1: Step Time =    1.000,"P-1-1",         17800,   62.7922E-03,   171.492E-03,            0.,NA,NA,"",   1.03930E+06,   1.04235E+06,   1.04235E+06
C:/temp/Job-1.odb,Step-1,Increment      1: Step Time =    1.000,"P-1-1",         17801,   110.669E-03,   14.9309E-03,            0.,NA,NA,"",   974.146E+03,   976.955E+03,   976.955E+03
C:/temp/Job-1.odb,Step-1,Increment      1: Step Time =    1.000,"P-1-1",         17802,   17.8113E-03,   127.639E-03,            0.,NA,NA,"",   848.233E+03,   933.842E+03,   933.842E+03
C:/temp/Job-1.odb,Step-1,Increment      1: Step Time =    1.000,"P-1-1",         17803,   30.3167E-03,   17.2103E-03,            0.,NA,NA,"",   1.06437E+06,   1.07955E+06,   1.07955E+06
C:/temp/Job-1.odb,Step-1,Increment      1: Step Time =    1.000,"P-1-1",         17804,   129.164E-03,   66.8016E-03,            0.,NA,NA,"",   1.15901E+06,   1.11953E+06,   1.11953E+06
C:/temp/Job-1.odb,Step-1,Increment      1: Step Time =    1.000,"P-1-1",         17805,   57.2731E-03,   84.5205E-03,            0.,NA,NA,"",   894.554E+03,   920.765E+03,   920.765E+03
C:/temp/Job-1.odb,Step-1,Increment      1: Step Time =    1.000,"P-1-1",         17806,   173.354E-03,   145.182E-03,            0.,NA,NA,"",   1.01539E+06,   1.01343E+06,   1.01343E+06
C:/temp/Job-1.odb,Step-1,Increment      1: Step Time =    1.000,"P-1-1",         17807,   173.384E-03,   147.224E-03,            0.,NA,NA,"",   1.01632E+06,   1.01399E+06,   1.01399E+06
C:/temp/Job-1.odb,Step-1,Increment      1: Step Time =    1.000,"P-1-1",         17808,   86.3746E-03,   171.846E-03,            0.,NA,NA,"",   1.00880E+06,   1.01814E+06,   1.01814E+06
C:/temp/Job-1.odb,Step-1,Increment      1: Step Time =    1.000,"P-1-1",         17809,   88.7105E-03,   170.888E-03,            0.,NA,NA,"",   1.00773E+06,   1.01864E+06,   1.01864E+06
C:/temp/Job-1.odb,Step-1,Increment      1: Step Time =    1.000,"P-1-1",         17810,   170.221E-03,   157.168E-03,            0.,NA,NA,"",   1.02067E+06,   1.01628E+06,   1.01628E+06
C:/temp/Job-1.odb,Step-1,Increment      1: Step Time =    1.000,"P-1-1",         17811,   169.640E-03,   155.897E-03,            0.,NA,NA,"",   1.02193E+06,   1.01719E+06,   1.01719E+06
C:/temp/Job-1.odb,Step-1,Increment      1: Step Time =    1.000,"P-1-1",         17812,   145.956E-03,   18.1723E-03,            0.,NA,NA,"",   1.00620E+06,   1.00332E+06,   1.00332E+06
C:/temp/Job-1.odb,Step-1,Increment      1: Step Time =    1.000,"P-1-1",         17813,   171.846E-03,   29.7736E-03,            0.,NA,NA,"",   1.01188E+06,   1.00929E+06,   1.00929E+06
C:/temp/Job-1.odb,Step-1,Increment      1: Step Time =    1.000,"P-1-1",         17814,   102.129E-03,   169.773E-03,            0.,NA,NA,"",   1.00138E+06,   1.01457E+06,   1.01457E+06
C:/temp/Job-1.odb,Step-1,Increment      1: Step Time =    1.000,"P-1-1",         17815,   125.616E-03,   21.1763E-03,            0.,NA,NA,"",   1.00118E+06,   1.00142E+06,   1.00142E+06
C:/temp/Job-1.odb,Step-1,Increment      1: Step Time =    1.000,"P-1-1",         17816,   91.6896E-03,   171.151E-03,            0.,NA,NA,"",   1.00402E+06,   1.01567E+06,   1.01567E+06
C:/temp/Job-1.odb,Step-1,Increment      1: Step Time =    1.000,"P-1-1",         17817,   93.3307E-03,   169.490E-03,            0.,NA,NA,"",   1.00533E+06,   1.01855E+06,   1.01855E+06
C:/temp/Job-1.odb,Step-1,Increment      1: Step Time =    1.000,"P-1-1",         17818,   169.707E-03,   152.678E-03,            0.,NA,NA,"",   1.02259E+06,   1.01775E+06,   1.01775E+06
C:/temp/Job-1.odb,Step-1,Increment      1: Step Time =    1.000,"P-1-1",         17819,   28.5049E-03,   18.6436E-03,            0.,NA,NA,"",   1.06618E+06,   1.08564E+06,   1.08564E+06
C:/temp/Job-1.odb,Step-1,Increment      1: Step Time =    1.000,"P-1-1",         17820,   16.4093E-03,   170.417E-03,            0.,NA,NA,"",   1.00242E+06,   1.06807E+06,   1.06807E+06
C:/temp/Job-1.odb,Step-1,Increment      1: Step Time =    1.000,"P-1-1",         17821,   17.7818E-03,   173.711E-03,            0.,NA,NA,"",   1.02642E+06,   1.08373E+06,   1.08373E+06
C:/temp/Job-1.odb,Step-1,Increment      1: Step Time =    1.000,"P-1-1",         17822,   19.1964E-03,   85.1615E-03,            0.,NA,NA,"",   819.795E+03,   906.756E+03,   906.756E+03
C:/temp/Job-1.odb,Step-1,Increment      1: Step Time =    1.000,"P-1-1",         17823,   19.9297E-03,   86.1233E-03,            0.,NA,NA,"",   819.399E+03,   905.743E+03,   905.743E+03
C:/temp/Job-1.odb,Step-1,Increment      1: Step Time =    1.000,"P-1-1",         17824,   77.4467E-03,   141.223E-03,            0.,NA,NA,"",   1.11547E+06,   1.11882E+06,   1.11882E+06
C:/temp/Job-1.odb,Step-1,Increment      1: Step Time =    1.000,"P-1-1",         17825,   98.7607E-03,   22.3870E-03,            0.,NA,NA,"",   987.964E+03,   995.910E+03,   995.910E+03
C:/temp/Job-1.odb,Step-1,Increment      1: Step Time =    1.000,"P-1-1",         17826,   97.5149E-03,   22.6723E-03,            0.,NA,NA,"",   988.801E+03,   996.909E+03,   996.909E+03
C:/temp/Job-1.odb,Step-1,Increment      1: Step Time =    1.000,"P-1-1",         17827,   81.7532E-03,   65.4705E-03,            0.,NA,NA,"",   1.15258E+06,   1.15719E+06,   1.15719E+06
C:/temp/Job-1.odb,Step-1,Increment      1: Step Time =    1.000,"P-1-1",         17828,   149.951E-03,   172.990E-03,            0.,NA,NA,"",   1.02245E+06,   1.01669E+06,   1.01669E+06
C:/temp/Job-1.odb,Step-1,Increment      1: Step Time =    1.000,"P-1-1",         17829,   48.0648E-03,   171.529E-03,            0.,NA,NA,"",   1.04581E+06,   1.05483E+06,   1.05483E+06
C:/temp/Job-1.odb,Step-1,Increment      1: Step Time =    1.000,"P-1-1",         17830,   80.4579E-03,   141.591E-03,            0.,NA,NA,"",   1.10854E+06,   1.11863E+06,   1.11863E+06
C:/temp/Job-1.odb,Step-1,Increment      1: Step Time =    1.000,"P-1-1",         17831,   79.4713E-03,   142.353E-03,            0.,NA,NA,"",   1.10661E+06,   1.11523E+06,   1.11523E+06
C:/temp/Job-1.odb,Step-1,Increment      1: Step Time =    1.000,"P-1-1",         17832,   93.8496E-03,   24.1635E-03,            0.,NA,NA,"",   993.510E+03,   1.00226E+06,   1.00226E+06
C:/temp/Job-1.odb,Step-1,Increment      1: Step Time =    1.000,"P-1-1",         17833,   22.3225E-03,   131.870E-03,            0.,NA,NA,"",   875.157E+03,   953.040E+03,   953.040E+03
C:/temp/Job-1.odb,Step-1,Increment      1: Step Time =    1.000,"P-1-1",         17834,   173.433E-03,   96.6657E-03,            0.,NA,NA,"",   957.338E+03,   972.234E+03,   972.234E+03
C:/temp/Job-1.odb,Step-1,Increment      1: Step Time =    1.000,"P-1-1",         17835,   19.9314E-03,   96.0660E-03,            0.,NA,NA,"",   806.369E+03,   893.920E+03,   893.920E+03
C:/temp/Job-1.odb,Step-1,Increment      1: Step Time =    1.000,"P-1-1",         17836,   75.1774E-03,   20.7720E-03,            0.,NA,NA,"",   1.00491E+06,   1.00783E+06,   1.00783E+06
C:/temp/Job-1.odb,Step-1,Increment      1: Step Time =    1.000,"P-1-1",         17837,   18.6285E-03,   63.7309E-03,            0.,NA,NA,"",   876.772E+03,   958.717E+03,   958.717E+03
C:/temp/Job-1.odb,Step-1,Increment      1: Step Time =    1.000,"P-1-1",         17838,   18.6671E-03,   64.8483E-03,            0.,NA,NA,"",   873.149E+03,   955.417E+03,   955.417E+03
C:/temp/Job-1.odb,Step-1,Increment      1: Step Time =    1.000,"P-1-1",         17839,   18.8816E-03,   66.6705E-03,            0.,NA,NA,"",   868.162E+03,   950.794E+03,   950.794E+03
C:/temp/Job-1.odb,Step-1,Increment      1: Step Time =    1.000,"P-1-1",         17840,   168.891E-03,   40.1428E-03,            0.,NA,NA,"",   1.02130E+06,   1.01654E+06,   1.01654E+06
C:/temp/Job-1.odb,Step-1,Increment      1: Step Time =    1.000,"P-1-1",         17841,   160.100E-03,   168.809E-03,            0.,NA,NA,"",   1.02286E+06,   1.01707E+06,   1.01707E+06
C:/temp/Job-1.odb,Step-1,Increment      1: Step Time =    1.000,"P-1-1",         17842,   26.7344E-03,   18.9604E-03,            0.,NA,NA,"",   1.06809E+06,   1.09075E+06,   1.09075E+06
C:/temp/Job-1.odb,Step-1,Increment      1: Step Time =    1.000,"P-1-1",         17843,   120.713E-03,   136.025E-03,            0.,NA,NA,"",   1.15935E+06,   1.14468E+06,   1.14468E+06
C:/temp/Job-1.odb,Step-1,Increment      1: Step Time =    1.000,"P-1-1",         17844,   93.3119E-03,   55.7885E-03,            0.,NA,NA,"",   1.04429E+06,   1.08722E+06,   1.08722E+06
C:/temp/Job-1.odb,Step-1,Increment      1: Step Time =    1.000,"P-1-1",         17845,   95.2729E-03,   54.5062E-03,            0.,NA,NA,"",   1.03528E+06,   1.07905E+06,   1.07905E+06
C:/temp/Job-1.odb,Step-1,Increment      1: Step Time =    1.000,"P-1-1",         17846,   69.2486E-03,   133.926E-03,            0.,NA,NA,"",   1.12023E+06,   1.10695E+06,   1.10695E+06
C:/temp/Job-1.odb,Step-1,Increment      1: Step Time =    1.000,"P-1-1",         17847,   22.7508E-03,   168.972E-03,            0.,NA,NA,"",   1.01555E+06,   1.06655E+06,   1.06655E+06
C:/temp/Job-1.odb,Step-1,Increment      1: Step Time =    1.000,"P-1-1",         17848,   39.7165E-03,   174.140E-03,            0.,NA,NA,"",   1.04727E+06,   1.06198E+06,   1.06198E+06
C:/temp/Job-1.odb,Step-1,Increment      1: Step Time =    1.000,"P-1-1",         17849,   42.6882E-03,   171.558E-03,            0.,NA,NA,"",   1.04585E+06,   1.05960E+06,   1.05960E+06
C:/temp/Job-1.odb,Step-1,Increment      1: Step Time =    1.000,"P-1-1",         17850,   118.601E-03,   17.0297E-03,            0.,NA,NA,"",   985.288E+03,   987.088E+03,   987.088E+03
C:/temp/Job-1.odb,Step-1,Increment      1: Step Time =    1.000,"P-1-1",         17851,   88.3154E-03,   59.9776E-03,            0.,NA,NA,"",   1.08400E+06,   1.11815E+06,   1.11815E+06
C:/temp/Job-1.odb,Step-1,Increment      1: Step Time =    1.000,"P-1-1",         17852,   137.666E-03,   71.1298E-03,            0.,NA,NA,"",   1.10724E+06,   1.06678E+06,   1.06678E+06
C:/temp/Job-1.odb,Step-1,Increment      1: Step Time =    1.000,"P-1-1",         17853,   137.587E-03,   72.6917E-03,            0.,NA,NA,"",   1.10223E+06,   1.06073E+06,   1.06073E+06
C:/temp/Job-1.odb,Step-1,Increment      1: Step Time =    1.000,"P-1-1",         17854,   83.5063E-03,   19.3038E-03,            0.,NA,NA,"",   991.615E+03,   995.827E+03,   995.827E+03
C:/temp/Job-1.odb,Step-1,Increment      1: Step Time =    1.000,"P-1-1",         17855,   88.0802E-03,   19.3897E-03,            0.,NA,NA,"",   987.330E+03,   992.605E+03,   992.605E+03
C:/temp/Job-1.odb,Step-1,Increment      1: Step Time =    1.000,"P-1-1",         17856,   89.0776E-03,   20.7744E-03,            0.,NA,NA,"",   989.604E+03,   995.588E+03,   995.588E+03
C:/temp/Job-1.odb,Step-1,Increment      1: Step Time =    1.000,"P-1-1",         17857,   164.380E-03,   170.091E-03,            0.,NA,NA,"",   1.01789E+06,   1.01344E+06,   1.01344E+06
C:/temp/Job-1.odb,Step-1,Increment      1: Step Time =    1.000,"P-1-1",         17858,   169.690E-03,   166.919E-03,            0.,NA,NA,"",   1.01596E+06,   1.01236E+06,   1.01236E+06
C:/temp/Job-1.odb,Step-1,Increment      1: Step Time =    1.000,"P-1-1",         17859,   20.4253E-03,   125.957E-03,            0.,NA,NA,"",   850.785E+03,   933.498E+03,   933.498E+03
C:/temp/Job-1.odb,Step-1,Increment      1: Step Time =    1.000,"P-1-1",         17860,   18.7714E-03,   112.261E-03,            0.,NA,NA,"",   814.089E+03,   901.979E+03,   901.979E+03
C:/temp/Job-1.odb,Step-1,Increment      1: Step Time =    1.000,"P-1-1",         17861,   18.0942E-03,   111.232E-03,            0.,NA,NA,"",   811.208E+03,   899.861E+03,   899.861E+03
C:/temp/Job-1.odb,Step-1,Increment      1: Step Time =    1.000,"P-1-1",         17862,   21.4273E-03,   115.628E-03,            0.,NA,NA,"",   825.846E+03,   910.257E+03,   910.257E+03
C:/temp/Job-1.odb,Step-1,Increment      1: Step Time =    1.000,"P-1-1",         17863,   21.1024E-03,   59.6046E-03,            0.,NA,NA,"",   899.356E+03,   975.666E+03,   975.666E+03
C:/temp/Job-1.odb,Step-1,Increment      1: Step Time =    1.000,"P-1-1",         17864,   18.5563E-03,   56.6835E-03,            0.,NA,NA,"",   899.008E+03,   978.642E+03,   978.642E+03
C:/temp/Job-1.odb,Step-1,Increment      1: Step Time =    1.000,"P-1-1",         17865,   168.434E-03,   70.9794E-03,            0.,NA,NA,"",   1.00359E+06,   1.00290E+06,   1.00290E+06
C:/temp/Job-1.odb,Step-1,Increment      1: Step Time =    1.000,"P-1-1",         17866,   21.2067E-03,   73.6835E-03,            0.,NA,NA,"",   853.723E+03,   935.412E+03,   935.412E+03
C:/temp/Job-1.odb,Step-1,Increment      1: Step Time =    1.000,"P-1-1",         17867,   20.2707E-03,   70.3888E-03,            0.,NA,NA,"",   861.306E+03,   943.085E+03,   943.085E+03
C:/temp/Job-1.odb,Step-1,Increment      1: Step Time =    1.000,"P-1-1",         17868,   20.2292E-03,   69.4717E-03,            0.,NA,NA,"",   863.815E+03,   945.386E+03,   945.386E+03
C:/temp/Job-1.odb,Step-1,Increment      1: Step Time =    1.000,"P-1-1",         17869,   167.711E-03,   113.634E-03,            0.,NA,NA,"",   964.745E+03,   972.999E+03,   972.999E+03
C:/temp/Job-1.odb,Step-1,Increment      1: Step Time =    1.000,"P-1-1",         17870,   170.030E-03,   124.708E-03,            0.,NA,NA,"",   992.431E+03,   995.455E+03,   995.455E+03
C:/temp/Job-1.odb,Step-1,Increment      1: Step Time =    1.000,"P-1-1",         17871,   140.475E-03,   177.789E-03,            0.,NA,NA,"",   1.01279E+06,   1.00920E+06,   1.00920E+06
C:/temp/Job-1.odb,Step-1,Increment      1: Step Time =    1.000,"P-1-1",         17872,   173.024E-03,   54.4910E-03,            0.,NA,NA,"",   1.01602E+06,   1.01382E+06,   1.01382E+06
C:/temp/Job-1.odb,Step-1,Increment      1: Step Time =    1.000,"P-1-1",         17873,   175.590E-03,   62.4717E-03,            0.,NA,NA,"",   1.00640E+06,   1.00809E+06,   1.00809E+06
C:/temp/Job-1.odb,Step-1,Increment      1: Step Time =    1.000,"P-1-1",         17874,   99.3054E-03,   142.129E-03,            0.,NA,NA,"",   1.03396E+06,   1.08748E+06,   1.08748E+06
C:/temp/Job-1.odb,Step-1,Increment      1: Step Time =    1.000,"P-1-1",         17875,   89.7016E-03,   143.393E-03,            0.,NA,NA,"",   1.06213E+06,   1.09811E+06,   1.09811E+06
C:/temp/Job-1.odb,Step-1,Increment      1: Step Time =    1.000,"P-1-1",         17876,   61.2240E-03,   75.1808E-03,            0.,NA,NA,"",   1.02223E+06,   1.02211E+06,   1.02211E+06
C:/temp/Job-1.odb,Step-1,Increment      1: Step Time =    1.000,"P-1-1",         17877,   72.9333E-03,   63.4569E-03,            0.,NA,NA,"",   1.13163E+06,   1.12188E+06,   1.12188E+06
C:/temp/Job-1.odb,Step-1,Increment      1: Step Time =    1.000,"P-1-1",         17878,   122.315E-03,   174.258E-03,            0.,NA,NA,"",   1.00902E+06,   1.01089E+06,   1.01089E+06
C:/temp/Job-1.odb,Step-1,Increment      1: Step Time =    1.000,"P-1-1",         17879,   123.366E-03,   173.265E-03,            0.,NA,NA,"",   1.01245E+06,   1.01386E+06,   1.01386E+06
C:/temp/Job-1.odb,Step-1,Increment      1: Step Time =    1.000,"P-1-1",         17880,   143.068E-03,   17.5379E-03,            0.,NA,NA,"",   1.00408E+06,   1.00151E+06,   1.00151E+06
C:/temp/Job-1.odb,Step-1,Increment      1: Step Time =    1.000,"P-1-1",         17881,   171.245E-03,   47.1377E-03,            0.,NA,NA,"",   1.02016E+06,   1.01619E+06,   1.01619E+06
C:/temp/Job-1.odb,Step-1,Increment      1: Step Time =    1.000,"P-1-1",         17882,   135.067E-03,   20.5232E-03,            0.,NA,NA,"",   1.00643E+06,   1.00419E+06,   1.00419E+06
C:/temp/Job-1.odb,Step-1,Increment      1: Step Time =    1.000,"P-1-1",         17883,   133.110E-03,   22.7839E-03,            0.,NA,NA,"",   1.01063E+06,   1.00840E+06,   1.00840E+06
C:/temp/Job-1.odb,Step-1,Increment      1: Step Time =    1.000,"P-1-1",         17884,   59.0100E-03,   22.9222E-03,            0.,NA,NA,"",   1.03033E+06,   1.03261E+06,   1.03261E+06
C:/temp/Job-1.odb,Step-1,Increment      1: Step Time =    1.000,"P-1-1",         17885,   167.310E-03,   105.875E-03,            0.,NA,NA,"",   948.639E+03,   960.511E+03,   960.511E+03
C:/temp/Job-1.odb,Step-1,Increment      1: Step Time =    1.000,"P-1-1",         17886,   165.895E-03,   81.3724E-03,            0.,NA,NA,"",   977.868E+03,   981.587E+03,   981.587E+03
C:/temp/Job-1.odb,Step-1,Increment      1: Step Time =    1.000,"P-1-1",         17887,   21.0162E-03,   43.0615E-03,            0.,NA,NA,"",   958.053E+03,   1.02528E+06,   1.02528E+06
C:/temp/Job-1.odb,Step-1,Increment      1: Step Time =    1.000,"P-1-1",         17888,   145.863E-03,   82.7712E-03,            0.,NA,NA,"",   978.161E+03,   963.277E+03,   963.277E+03
C:/temp/Job-1.odb,Step-1,Increment      1: Step Time =    1.000,"P-1-1",         17889,   142.742E-03,   105.715E-03,            0.,NA,NA,"",   848.419E+03,   855.405E+03,   855.405E+03
C:/temp/Job-1.odb,Step-1,Increment      1: Step Time =    1.000,"P-1-1",         17890,   75.6124E-03,   63.0603E-03,            0.,NA,NA,"",   1.13717E+06,   1.13059E+06,   1.13059E+06
C:/temp/Job-1.odb,Step-1,Increment      1: Step Time =    1.000,"P-1-1",         17891,   121.594E-03,   62.3743E-03,            0.,NA,NA,"",   1.14653E+06,   1.13280E+06,   1.13280E+06
C:/temp/Job-1.odb,Step-1,Increment      1: Step Time =    1.000,"P-1-1",         17892,   20.8518E-03,   97.0024E-03,            0.,NA,NA,"",   807.170E+03,   893.929E+03,   893.929E+03
C:/temp/Job-1.odb,Step-1,Increment      1: Step Time =    1.000,"P-1-1",         17893,   120.031E-03,   22.2870E-03,            0.,NA,NA,"",   998.821E+03,   1.00116E+06,   1.00116E+06
C:/temp/Job-1.odb,Step-1,Increment      1: Step Time =    1.000,"P-1-1",         17894,   117.582E-03,   16.6649E-03,            0.,NA,NA,"",   983.376E+03,   985.391E+03,   985.391E+03
C:/temp/Job-1.odb,Step-1,Increment      1: Step Time =    1.000,"P-1-1",         17895,   145.896E-03,   170.528E-03,            0.,NA,NA,"",   1.02860E+06,   1.02189E+06,   1.02189E+06
C:/temp/Job-1.odb,Step-1,Increment      1: Step Time =    1.000,"P-1-1",         17896,   23.5791E-03,   137.586E-03,            0.,NA,NA,"",   899.157E+03,   972.438E+03,   972.438E+03
C:/temp/Job-1.odb,Step-1,Increment      1: Step Time =    1.000,"P-1-1",         17897,   69.6786E-03,   168.501E-03,            0.,NA,NA,"",   1.03958E+06,   1.04360E+06,   1.04360E+06
C:/temp/Job-1.odb,Step-1,Increment      1: Step Time =    1.000,"P-1-1",         17898,   18.6450E-03,   168.820E-03,            0.,NA,NA,"",   1.00205E+06,   1.06360E+06,   1.06360E+06
C:/temp/Job-1.odb,Step-1,Increment      1: Step Time =    1.000,"P-1-1",         17899,   110.117E-03,   16.1515E-03,            0.,NA,NA,"",   976.852E+03,   980.195E+03,   980.195E+03
C:/temp/Job-1.odb,Step-1,Increment      1: Step Time =    1.000,"P-1-1",         17900,   171.559E-03,   28.0577E-03,            0.,NA,NA,"",   1.01105E+06,   1.00858E+06,   1.00858E+06
C:/temp/Job-1.odb,Step-1,Increment      1: Step Time =    1.000,"P-1-1",         17901,   102.463E-03,   23.8336E-03,            0.,NA,NA,"",   990.518E+03,   999.116E+03,   999.116E+03
C:/temp/Job-1.odb,Step-1,Increment      1: Step Time =    1.000,"P-1-1",         17902,   20.5838E-03,   128.926E-03,            0.,NA,NA,"",   860.424E+03,   941.874E+03,   941.874E+03
C:/temp/Job-1.odb,Step-1,Increment      1: Step Time =    1.000,"P-1-1",         17903,   20.6012E-03,   98.6821E-03,            0.,NA,NA,"",   806.361E+03,   893.400E+03,   893.400E+03
C:/temp/Job-1.odb,Step-1,Increment      1: Step Time =    1.000,"P-1-1",         17904,   23.6269E-03,   101.021E-03,            0.,NA,NA,"",   810.206E+03,   894.325E+03,   894.325E+03
C:/temp/Job-1.odb,Step-1,Increment      1: Step Time =    1.000,"P-1-1",         17905,   46.1122E-03,   19.6142E-03,            0.,NA,NA,"",   1.03862E+06,   1.04378E+06,   1.04378E+06
C:/temp/Job-1.odb,Step-1,Increment      1: Step Time =    1.000,"P-1-1",         17906,   41.5531E-03,   21.1915E-03,            0.,NA,NA,"",   1.04620E+06,   1.05524E+06,   1.05524E+06
C:/temp/Job-1.odb,Step-1,Increment      1: Step Time =    1.000,"P-1-1",         17907,   18.3530E-03,   108.665E-03,            0.,NA,NA,"",   808.291E+03,   896.969E+03,   896.969E+03
C:/temp/Job-1.odb,Step-1,Increment      1: Step Time =    1.000,"P-1-1",         17908,   125.109E-03,   132.606E-03,            0.,NA,NA,"",   1.17839E+06,   1.14185E+06,   1.14185E+06
C:/temp/Job-1.odb,Step-1,Increment      1: Step Time =    1.000,"P-1-1",         17909,   120.877E-03,   132.177E-03,            0.,NA,NA,"",   1.18945E+06,   1.16349E+06,   1.16349E+06
C:/temp/Job-1.odb,Step-1,Increment      1: Step Time =    1.000,"P-1-1",         17910,   141.262E-03,   19.3021E-03,            0.,NA,NA,"",   1.00649E+06,   1.00364E+06,   1.00364E+06
C:/temp/Job-1.odb,Step-1,Increment      1: Step Time =    1.000,"P-1-1",         17911,   61.5315E-03,   26.7277E-03,            0.,NA,NA,"",   1.03638E+06,   1.03909E+06,   1.03909E+06
C:/temp/Job-1.odb,Step-1,Increment      1: Step Time =    1.000,"P-1-1",         17912,   169.891E-03,   141.269E-03,            0.,NA,NA,"",   1.01885E+06,   1.01511E+06,   1.01511E+06
C:/temp/Job-1.odb,Step-1,Increment      1: Step Time =    1.000,"P-1-1",         17913,   144.746E-03,   113.893E-03,            0.,NA,NA,"",   943.752E+03,   933.967E+03,   933.967E+03
C:/temp/Job-1.odb,Step-1,Increment      1: Step Time =    1.000,"P-1-1",         17914,   75.9575E-03,   140.399E-03,            0.,NA,NA,"",   1.12012E+06,   1.11974E+06,   1.11974E+06
C:/temp/Job-1.odb,Step-1,Increment      1: Step Time =    1.000,"P-1-1",         17915,   147.698E-03,   171.082E-03,            0.,NA,NA,"",   1.02692E+06,   1.02038E+06,   1.02038E+06
C:/temp/Job-1.odb,Step-1,Increment      1: Step Time =    1.000,"P-1-1",         17916,   149.999E-03,   19.4850E-03,            0.,NA,NA,"",   1.00902E+06,   1.00574E+06,   1.00574E+06
C:/temp/Job-1.odb,Step-1,Increment      1: Step Time =    1.000,"P-1-1",         17917,   104.869E-03,   143.418E-03,            0.,NA,NA,"",   1.04023E+06,   1.08561E+06,   1.08561E+06
C:/temp/Job-1.odb,Step-1,Increment      1: Step Time =    1.000,"P-1-1",         17918,   160.431E-03,   26.6811E-03,            0.,NA,NA,"",   1.01698E+06,   1.01251E+06,   1.01251E+06
C:/temp/Job-1.odb,Step-1,Increment      1: Step Time =    1.000,"P-1-1",         17919,   159.276E-03,   25.9151E-03,            0.,NA,NA,"",   1.01662E+06,   1.01217E+06,   1.01217E+06
C:/temp/Job-1.odb,Step-1,Increment      1: Step Time =    1.000,"P-1-1",         17920,   168.603E-03,   100.901E-03,            0.,NA,NA,"",   947.419E+03,   960.702E+03,   960.702E+03
C:/temp/Job-1.odb,Step-1,Increment      1: Step Time =    1.000,"P-1-1",         17921,   135.399E-03,   171.340E-03,            0.,NA,NA,"",   1.02627E+06,   1.02184E+06,   1.02184E+06
C:/temp/Job-1.odb,Step-1,Increment      1: Step Time =    1.000,"P-1-1",         17922,   69.8349E-03,   27.5354E-03,            0.,NA,NA,"",   1.02980E+06,   1.03310E+06,   1.03310E+06
C:/temp/Job-1.odb,Step-1,Increment      1: Step Time =    1.000,"P-1-1",         17923,   167.980E-03,   90.7042E-03,            0.,NA,NA,"",   955.420E+03,   966.107E+03,   966.107E+03
C:/temp/Job-1.odb,Step-1,Increment      1: Step Time =    1.000,"P-1-1",         17924,   167.101E-03,   91.8861E-03,            0.,NA,NA,"",   951.763E+03,   962.654E+03,   962.654E+03
C:/temp/Job-1.odb,Step-1,Increment      1: Step Time =    1.000,"P-1-1",         17925,   90.0801E-03,   57.0362E-03,            0.,NA,NA,"",   1.06254E+06,   1.09978E+06,   1.09978E+06
C:/temp/Job-1.odb,Step-1,Increment      1: Step Time =    1.000,"P-1-1",         17926,   111.926E-03,   141.616E-03,            0.,NA,NA,"",   1.08001E+06,   1.10683E+06,   1.10683E+06
C:/temp/Job-1.odb,Step-1,Increment      1: Step Time =    1.000,"P-1-1",         17927,   115.754E-03,   57.5358E-03,            0.,NA,NA,"",   1.09572E+06,   1.10831E+06,   1.10831E+06
C:/temp/Job-1.odb,Step-1,Increment      1: Step Time =    1.000,"P-1-1",         17928,   89.2486E-03,   24.8802E-03,            0.,NA,NA,"",   998.551E+03,   1.00686E+06,   1.00686E+06
C:/temp/Job-1.odb,Step-1,Increment      1: Step Time =    1.000,"P-1-1",         17929,   167.335E-03,   71.6515E-03,            0.,NA,NA,"",   1.00347E+06,   1.00218E+06,   1.00218E+06
C:/temp/Job-1.odb,Step-1,Increment      1: Step Time =    1.000,"P-1-1",         17930,   172.123E-03,   67.9209E-03,            0.,NA,NA,"",   1.00445E+06,   1.00544E+06,   1.00544E+06
C:/temp/Job-1.odb,Step-1,Increment      1: Step Time =    1.000,"P-1-1",         17931,   80.7613E-03,   65.3962E-03,            0.,NA,NA,"",   1.15465E+06,   1.15567E+06,   1.15567E+06
C:/temp/Job-1.odb,Step-1,Increment      1: Step Time =    1.000,"P-1-1",         17932,   114.201E-03,   15.6983E-03,            0.,NA,NA,"",   978.116E+03,   980.522E+03,   980.522E+03
C:/temp/Job-1.odb,Step-1,Increment      1: Step Time =    1.000,"P-1-1",         17933,   174.302E-03,   61.7973E-03,            0.,NA,NA,"",   1.00888E+06,   1.00938E+06,   1.00938E+06
C:/temp/Job-1.odb,Step-1,Increment      1: Step Time =    1.000,"P-1-1",         17934,   25.4816E-03,   23.2211E-03,            0.,NA,NA,"",   1.05423E+06,   1.08682E+06,   1.08682E+06
C:/temp/Job-1.odb,Step-1,Increment      1: Step Time =    1.000,"P-1-1",         17935,   17.5619E-03,   110.494E-03,            0.,NA,NA,"",   809.188E+03,   898.428E+03,   898.428E+03
C:/temp/Job-1.odb,Step-1,Increment      1: Step Time =    1.000,"P-1-1",         17936,   55.9545E-03,   21.0268E-03,            0.,NA,NA,"",   1.02962E+06,   1.03203E+06,   1.03203E+06
C:/temp/Job-1.odb,Step-1,Increment      1: Step Time =    1.000,"P-1-1",         17937,   86.9263E-03,   170.298E-03,            0.,NA,NA,"",   1.01098E+06,   1.02151E+06,   1.02151E+06
C:/temp/Job-1.odb,Step-1,Increment      1: Step Time =    1.000,"P-1-1",         17938,   110.931E-03,   16.0705E-03,            0.,NA,NA,"",   977.138E+03,   980.338E+03,   980.338E+03
C:/temp/Job-1.odb,Step-1,Increment      1: Step Time =    1.000,"P-1-1",         17939,   67.1386E-03,   26.5604E-03,            0.,NA,NA,"",   1.03060E+06,   1.03334E+06,   1.03334E+06
C:/temp/Job-1.odb,Step-1,Increment      1: Step Time =    1.000,"P-1-1",         17940,   162.363E-03,   168.309E-03,            0.,NA,NA,"",   1.02156E+06,   1.01616E+06,   1.01616E+06
C:/temp/Job-1.odb,Step-1,Increment      1: Step Time =    1.000,"P-1-1",         17941,   115.268E-03,   16.5861E-03,            0.,NA,NA,"",   981.282E+03,   983.765E+03,   983.765E+03
C:/temp/Job-1.odb,Step-1,Increment      1: Step Time =    1.000,"P-1-1",         17942,   70.3604E-03,   167.193E-03,            0.,NA,NA,"",   1.04184E+06,   1.04622E+06,   1.04622E+06
C:/temp/Job-1.odb,Step-1,Increment      1: Step Time =    1.000,"P-1-1",         17943,   138.506E-03,   175.872E-03,            0.,NA,NA,"",   1.01628E+06,   1.01246E+06,   1.01246E+06
C:/temp/Job-1.odb,Step-1,Increment      1: Step Time =    1.000,"P-1-1",         17944,   54.8469E-03,   21.0097E-03,            0.,NA,NA,"",   1.03090E+06,   1.03352E+06,   1.03352E+06
C:/temp/Job-1.odb,Step-1,Increment      1: Step Time =    1.000,"P-1-1",         17945,   21.3040E-03,   129.629E-03,            0.,NA,NA,"",   864.642E+03,   944.892E+03,   944.892E+03
C:/temp/Job-1.odb,Step-1,Increment      1: Step Time =    1.000,"P-1-1",         17946,   22.4232E-03,   130.591E-03,            0.,NA,NA,"",   871.150E+03,   949.465E+03,   949.465E+03
C:/temp/Job-1.odb,Step-1,Increment      1: Step Time =    1.000,"P-1-1",         17947,   122.488E-03,   172.406E-03,            0.,NA,NA,"",   1.01363E+06,   1.01559E+06,   1.01559E+06
C:/temp/Job-1.odb,Step-1,Increment      1: Step Time =    1.000,"P-1-1",         17948,   123.389E-03,   171.328E-03,            0.,NA,NA,"",   1.01721E+06,   1.01871E+06,   1.01871E+06
C:/temp/Job-1.odb,Step-1,Increment      1: Step Time =    1.000,"P-1-1",         17949,   172.834E-03,   148.991E-03,            0.,NA,NA,"",   1.01733E+06,   1.01456E+06,   1.01456E+06
C:/temp/Job-1.odb,Step-1,Increment      1: Step Time =    1.000,"P-1-1",         17950,   167.791E-03,   37.8017E-03,            0.,NA,NA,"",   1.02122E+06,   1.01633E+06,   1.01633E+06
C:/temp/Job-1.odb,Step-1,Increment      1: Step Time =    1.000,"P-1-1",         17951,   146.193E-03,   19.4045E-03,            0.,NA,NA,"",   1.00853E+06,   1.00529E+06,   1.00529E+06
C:/temp/Job-1.odb,Step-1,Increment      1: Step Time =    1.000,"P-1-1",         17952,   88.4073E-03,   22.9762E-03,            0.,NA,NA,"",   995.216E+03,   1.00218E+06,   1.00218E+06
C:/temp/Job-1.odb,Step-1,Increment      1: Step Time =    1.000,"P-1-1",         17953,   20.6605E-03,   168.827E-03,            0.,NA,NA,"",   1.00885E+06,   1.06510E+06,   1.06510E+06
C:/temp/Job-1.odb,Step-1,Increment      1: Step Time =    1.000,"P-1-1",         17954,   18.6841E-03,   144.805E-03,            0.,NA,NA,"",   904.646E+03,   983.416E+03,   983.416E+03
C:/temp/Job-1.odb,Step-1,Increment      1: Step Time =    1.000,"P-1-1",         17955,   70.3070E-03,   65.6612E-03,            0.,NA,NA,"",   1.12679E+06,   1.11326E+06,   1.11326E+06
C:/temp/Job-1.odb,Step-1,Increment      1: Step Time =    1.000,"P-1-1",         17956,   64.7862E-03,   121.944E-03,            0.,NA,NA,"",   1.03114E+06,   1.02005E+06,   1.02005E+06
C:/temp/Job-1.odb,Step-1,Increment      1: Step Time =    1.000,"P-1-1",         17957,   105.737E-03,   144.541E-03,            0.,NA,NA,"",   1.04058E+06,   1.08218E+06,   1.08218E+06
C:/temp/Job-1.odb,Step-1,Increment      1: Step Time =    1.000,"P-1-1",         17958,   62.6172E-03,   121.206E-03,            0.,NA,NA,"",   1.00207E+06,   999.837E+03,   999.837E+03
C:/temp/Job-1.odb,Step-1,Increment      1: Step Time =    1.000,"P-1-1",         17959,   116.614E-03,   61.2376E-03,            0.,NA,NA,"",   1.12334E+06,   1.13022E+06,   1.13022E+06
C:/temp/Job-1.odb,Step-1,Increment      1: Step Time =    1.000,"P-1-1",         17960,   138.126E-03,   74.8974E-03,            0.,NA,NA,"",   1.08626E+06,   1.04549E+06,   1.04549E+06
C:/temp/Job-1.odb,Step-1,Increment      1: Step Time =    1.000,"P-1-1",         17961,   71.1736E-03,   65.5984E-03,            0.,NA,NA,"",   1.13075E+06,   1.11712E+06,   1.11712E+06
C:/temp/Job-1.odb,Step-1,Increment      1: Step Time =    1.000,"P-1-1",         17962,   72.6077E-03,   61.4519E-03,            0.,NA,NA,"",   1.12344E+06,   1.11691E+06,   1.11691E+06
C:/temp/Job-1.odb,Step-1,Increment      1: Step Time =    1.000,"P-1-1",         17963,   143.640E-03,   123.493E-03,            0.,NA,NA,"",   1.04134E+06,   1.01329E+06,   1.01329E+06
C:/temp/Job-1.odb,Step-1,Increment      1: Step Time =    1.000,"P-1-1",         17964,   67.3268E-03,   167.000E-03,            0.,NA,NA,"",   1.04523E+06,   1.04904E+06,   1.04904E+06
C:/temp/Job-1.odb,Step-1,Increment      1: Step Time =    1.000,"P-1-1",         17965,   90.6483E-03,   59.3418E-03,            0.,NA,NA,"",   1.06817E+06,   1.10928E+06,   1.10928E+06
C:/temp/Job-1.odb,Step-1,Increment      1: Step Time =    1.000,"P-1-1",         17966,   119.833E-03,   168.416E-03,            0.,NA,NA,"",   1.02014E+06,   1.02426E+06,   1.02426E+06
C:/temp/Job-1.odb,Step-1,Increment      1: Step Time =    1.000,"P-1-1",         17967,   17.4713E-03,   147.029E-03,            0.,NA,NA,"",   907.469E+03,   987.440E+03,   987.440E+03
C:/temp/Job-1.odb,Step-1,Increment      1: Step Time =    1.000,"P-1-1",         17968,   171.356E-03,   66.8114E-03,            0.,NA,NA,"",   1.00700E+06,   1.00695E+06,   1.00695E+06
C:/temp/Job-1.odb,Step-1,Increment      1: Step Time =    1.000,"P-1-1",         17969,   76.4434E-03,   22.2073E-03,            0.,NA,NA,"",   1.00759E+06,   1.01126E+06,   1.01126E+06
C:/temp/Job-1.odb,Step-1,Increment      1: Step Time =    1.000,"P-1-1",         17970,   76.1787E-03,   23.4469E-03,            0.,NA,NA,"",   1.01133E+06,   1.01528E+06,   1.01528E+06
C:/temp/Job-1.odb,Step-1,Increment      1: Step Time =    1.000,"P-1-1",         17971,   140.015E-03,   176.397E-03,            0.,NA,NA,"",   1.01575E+06,   1.01181E+06,   1.01181E+06
C:/temp/Job-1.odb,Step-1,Increment      1: Step Time =    1.000,"P-1-1",         17972,   170.081E-03,   29.0664E-03,            0.,NA,NA,"",   1.01277E+06,   1.00983E+06,   1.00983E+06
C:/temp/Job-1.odb,Step-1,Increment      1: Step Time =    1.000,"P-1-1",         17973,   141.430E-03,   74.6754E-03,            0.,NA,NA,"",   1.06565E+06,   1.03192E+06,   1.03192E+06
C:/temp/Job-1.odb,Step-1,Increment      1: Step Time =    1.000,"P-1-1",         17974,   19.9559E-03,   65.9606E-03,            0.,NA,NA,"",   874.025E+03,   954.757E+03,   954.757E+03
C:/temp/Job-1.odb,Step-1,Increment      1: Step Time =    1.000,"P-1-1",         17975,   123.614E-03,   23.9880E-03,            0.,NA,NA,"",   1.00615E+06,   1.00723E+06,   1.00723E+06
C:/temp/Job-1.odb,Step-1,Increment      1: Step Time =    1.000,"P-1-1",         17976,   120.663E-03,   24.1227E-03,            0.,NA,NA,"",   1.00369E+06,   1.00610E+06,   1.00610E+06
C:/temp/Job-1.odb,Step-1,Increment      1: Step Time =    1.000,"P-1-1",         17977,   148.654E-03,   170.330E-03,            0.,NA,NA,"",   1.02796E+06,   1.02115E+06,   1.02115E+06
C:/temp/Job-1.odb,Step-1,Increment      1: Step Time =    1.000,"P-1-1",         17978,   147.990E-03,   169.286E-03,            0.,NA,NA,"",   1.03025E+06,   1.02301E+06,   1.02301E+06
C:/temp/Job-1.odb,Step-1,Increment      1: Step Time =    1.000,"P-1-1",         17979,   167.696E-03,   155.101E-03,            0.,NA,NA,"",   1.02525E+06,   1.01942E+06,   1.01942E+06
C:/temp/Job-1.odb,Step-1,Increment      1: Step Time =    1.000,"P-1-1",         17980,   95.5633E-03,   24.7187E-03,            0.,NA,NA,"",   993.664E+03,   1.00317E+06,   1.00317E+06
C:/temp/Job-1.odb,Step-1,Increment      1: Step Time =    1.000,"P-1-1",         17981,   25.7923E-03,   170.611E-03,            0.,NA,NA,"",   1.02984E+06,   1.07152E+06,   1.07152E+06
C:/temp/Job-1.odb,Step-1,Increment      1: Step Time =    1.000,"P-1-1",         17982,   25.8620E-03,   169.621E-03,            0.,NA,NA,"",   1.02578E+06,   1.06872E+06,   1.06872E+06
C:/temp/Job-1.odb,Step-1,Increment      1: Step Time =    1.000,"P-1-1",         17983,   46.5089E-03,   169.247E-03,            0.,NA,NA,"",   1.04607E+06,   1.05778E+06,   1.05778E+06
C:/temp/Job-1.odb,Step-1,Increment      1: Step Time =    1.000,"P-1-1",         17984,   121.886E-03,   134.972E-03,            0.,NA,NA,"",   1.16799E+06,   1.14623E+06,   1.14623E+06
C:/temp/Job-1.odb,Step-1,Increment      1: Step Time =    1.000,"P-1-1",         17985,   144.413E-03,   74.3173E-03,            0.,NA,NA,"",   1.05181E+06,   1.02360E+06,   1.02360E+06
C:/temp/Job-1.odb,Step-1,Increment      1: Step Time =    1.000,"P-1-1",         17986,   148.487E-03,   20.5672E-03,            0.,NA,NA,"",   1.01094E+06,   1.00731E+06,   1.00731E+06
C:/temp/Job-1.odb,Step-1,Increment      1: Step Time =    1.000,"P-1-1",         17987,   147.400E-03,   20.5712E-03,            0.,NA,NA,"",   1.01067E+06,   1.00709E+06,   1.00709E+06
C:/temp/Job-1.odb,Step-1,Increment      1: Step Time =    1.000,"P-1-1",         17988,   20.1420E-03,   62.5980E-03,            0.,NA,NA,"",   885.730E+03,   964.873E+03,   964.873E+03
C:/temp/Job-1.odb,Step-1,Increment      1: Step Time =    1.000,"P-1-1",         17989,   142.267E-03,   176.014E-03,            0.,NA,NA,"",   1.01681E+06,   1.01247E+06,   1.01247E+06
C:/temp/Job-1.odb,Step-1,Increment      1: Step Time =    1.000,"P-1-1",         17990,   140.575E-03,   175.316E-03,            0.,NA,NA,"",   1.01816E+06,   1.01382E+06,   1.01382E+06
C:/temp/Job-1.odb,Step-1,Increment      1: Step Time =    1.000,"P-1-1",         17991,   102.390E-03,   168.096E-03,            0.,NA,NA,"",   1.00405E+06,   1.01870E+06,   1.01870E+06
C:/temp/Job-1.odb,Step-1,Increment      1: Step Time =    1.000,"P-1-1",         17992,   106.098E-03,   166.419E-03,            0.,NA,NA,"",   1.00815E+06,   1.02287E+06,   1.02287E+06
C:/temp/Job-1.odb,Step-1,Increment      1: Step Time =    1.000,"P-1-1",         17993,   58.6343E-03,   23.6669E-03,            0.,NA,NA,"",   1.03236E+06,   1.03490E+06,   1.03490E+06
C:/temp/Job-1.odb,Step-1,Increment      1: Step Time =    1.000,"P-1-1",         17994,   57.8596E-03,   23.7420E-03,            0.,NA,NA,"",   1.03346E+06,   1.03617E+06,   1.03617E+06
C:/temp/Job-1.odb,Step-1,Increment      1: Step Time =    1.000,"P-1-1",         17995,   56.9074E-03,   24.0556E-03,            0.,NA,NA,"",   1.03511E+06,   1.03818E+06,   1.03818E+06
C:/temp/Job-1.odb,Step-1,Increment      1: Step Time =    1.000,"P-1-1",         17996,   83.8368E-03,   165.039E-03,            0.,NA,NA,"",   1.02645E+06,   1.03849E+06,   1.03849E+06
C:/temp/Job-1.odb,Step-1,Increment      1: Step Time =    1.000,"P-1-1",         17997,   118.216E-03,   17.7818E-03,            0.,NA,NA,"",   986.875E+03,   988.928E+03,   988.928E+03
C:/temp/Job-1.odb,Step-1,Increment      1: Step Time =    1.000,"P-1-1",         17998,   25.4581E-03,   27.1495E-03,            0.,NA,NA,"",   1.03862E+06,   1.07751E+06,   1.07751E+06
C:/temp/Job-1.odb,Step-1,Increment      1: Step Time =    1.000,"P-1-1",         17999,   25.3729E-03,   29.7487E-03,            0.,NA,NA,"",   1.02750E+06,   1.07049E+06,   1.07049E+06
C:/temp/Job-1.odb,Step-1,Increment      1: Step Time =    1.000,"P-1-1",         18000,   158.846E-03,   167.976E-03,            0.,NA,NA,"",   1.02505E+06,   1.01871E+06,   1.01871E+06
C:/temp/Job-1.odb,Step-1,Increment      1: Step Time =    1.000,"P-1-1",         18001,   19.3075E-03,   93.5932E-03,            0.,NA,NA,"",   807.397E+03,   895.377E+03,   895.377E+03
C:/temp/Job-1.odb,Step-1,Increment      1: Step Time =    1.000,"P-1-1",         18002,   19.9548E-03,   94.4756E-03,            0.,NA,NA,"",   807.670E+03,   895.088E+03,   895.088E+03
C:/temp/Job-1.odb,Step-1,Increment      1: Step Time =    1.000,"P-1-1",         18003,   135.061E-03,   128.199E-03,            0.,NA,NA,"",   1.12324E+06,   1.07790E+06,   1.07790E+06
C:/temp/Job-1.odb,Step-1,Increment      1: Step Time =    1.000,"P-1-1",         18004,   110.151E-03,   143.732E-03,            0.,NA,NA,"",   1.06235E+06,   1.09347E+06,   1.09347E+06
C:/temp/Job-1.odb,Step-1,Increment      1: Step Time =    1.000,"P-1-1",         18005,   111.945E-03,   142.597E-03,            0.,NA,NA,"",   1.07558E+06,   1.10181E+06,   1.10181E+06
C:/temp/Job-1.odb,Step-1,Increment      1: Step Time =    1.000,"P-1-1",         18006,   59.4698E-03,   74.8913E-03,            0.,NA,NA,"",   1.01210E+06,   1.01659E+06,   1.01659E+06
C:/temp/Job-1.odb,Step-1,Increment      1: Step Time =    1.000,"P-1-1",         18007,   64.8537E-03,   71.0305E-03,            0.,NA,NA,"",   1.08073E+06,   1.06963E+06,   1.06963E+06
C:/temp/Job-1.odb,Step-1,Increment      1: Step Time =    1.000,"P-1-1",         18008,   92.0537E-03,   55.2064E-03,            0.,NA,NA,"",   1.04792E+06,   1.08754E+06,   1.08754E+06
C:/temp/Job-1.odb,Step-1,Increment      1: Step Time =    1.000,"P-1-1",         18009,   93.6327E-03,   54.0839E-03,            0.,NA,NA,"",   1.03957E+06,   1.08020E+06,   1.08020E+06
C:/temp/Job-1.odb,Step-1,Increment      1: Step Time =    1.000,"P-1-1",         18010,   95.6034E-03,   52.6879E-03,            0.,NA,NA,"",   1.03155E+06,   1.07258E+06,   1.07258E+06
C:/temp/Job-1.odb,Step-1,Increment      1: Step Time =    1.000,"P-1-1",         18011,   89.0475E-03,   56.8618E-03,            0.,NA,NA,"",   1.06650E+06,   1.10110E+06,   1.10110E+06
C:/temp/Job-1.odb,Step-1,Increment      1: Step Time =    1.000,"P-1-1",         18012,   117.320E-03,   56.2083E-03,            0.,NA,NA,"",   1.09529E+06,   1.10346E+06,   1.10346E+06
C:/temp/Job-1.odb,Step-1,Increment      1: Step Time =    1.000,"P-1-1",         18013,   140.737E-03,   124.207E-03,            0.,NA,NA,"",   1.06207E+06,   1.02747E+06,   1.02747E+06
C:/temp/Job-1.odb,Step-1,Increment      1: Step Time =    1.000,"P-1-1",         18014,   165.507E-03,   104.968E-03,            0.,NA,NA,"",   943.365E+03,   954.941E+03,   954.941E+03
C:/temp/Job-1.odb,Step-1,Increment      1: Step Time =    1.000,"P-1-1",         18015,   164.924E-03,   103.667E-03,            0.,NA,NA,"",   940.590E+03,   952.370E+03,   952.370E+03
C:/temp/Job-1.odb,Step-1,Increment      1: Step Time =    1.000,"P-1-1",         18016,   165.973E-03,   92.8879E-03,            0.,NA,NA,"",   947.949E+03,   958.867E+03,   958.867E+03
C:/temp/Job-1.odb,Step-1,Increment      1: Step Time =    1.000,"P-1-1",         18017,   20.0793E-03,   84.7144E-03,            0.,NA,NA,"",   822.521E+03,   908.427E+03,   908.427E+03
C:/temp/Job-1.odb,Step-1,Increment      1: Step Time =    1.000,"P-1-1",         18018,   19.4421E-03,   79.6047E-03,            0.,NA,NA,"",   833.005E+03,   918.466E+03,   918.466E+03
C:/temp/Job-1.odb,Step-1,Increment      1: Step Time =    1.000,"P-1-1",         18019,   19.6268E-03,   77.4935E-03,            0.,NA,NA,"",   839.140E+03,   923.805E+03,   923.805E+03
C:/temp/Job-1.odb,Step-1,Increment      1: Step Time =    1.000,"P-1-1",         18020,   20.4423E-03,   75.8511E-03,            0.,NA,NA,"",   845.633E+03,   928.912E+03,   928.912E+03
C:/temp/Job-1.odb,Step-1,Increment      1: Step Time =    1.000,"P-1-1",         18021,   20.3990E-03,   154.157E-03,            0.,NA,NA,"",   944.753E+03,   1.01523E+06,   1.01523E+06
C:/temp/Job-1.odb,Step-1,Increment      1: Step Time =    1.000,"P-1-1",         18022,   41.7516E-03,   170.504E-03,            0.,NA,NA,"",   1.04499E+06,   1.06065E+06,   1.06065E+06
C:/temp/Job-1.odb,Step-1,Increment      1: Step Time =    1.000,"P-1-1",         18023,   167.945E-03,   122.488E-03,            0.,NA,NA,"",   988.169E+03,   990.869E+03,   990.869E+03
C:/temp/Job-1.odb,Step-1,Increment      1: Step Time =    1.000,"P-1-1",         18024,   165.796E-03,   118.939E-03,            0.,NA,NA,"",   978.707E+03,   982.125E+03,   982.125E+03
C:/temp/Job-1.odb,Step-1,Increment      1: Step Time =    1.000,"P-1-1",         18025,   173.100E-03,   56.2272E-03,            0.,NA,NA,"",   1.01491E+06,   1.01313E+06,   1.01313E+06
C:/temp/Job-1.odb,Step-1,Increment      1: Step Time =    1.000,"P-1-1",         18026,   140.103E-03,   19.5439E-03,            0.,NA,NA,"",   1.00671E+06,   1.00391E+06,   1.00391E+06
C:/temp/Job-1.odb,Step-1,Increment      1: Step Time =    1.000,"P-1-1",         18027,   165.496E-03,   89.4954E-03,            0.,NA,NA,"",   953.970E+03,   963.004E+03,   963.004E+03
C:/temp/Job-1.odb,Step-1,Increment      1: Step Time =    1.000,"P-1-1",         18028,   167.770E-03,   40.4995E-03,            0.,NA,NA,"",   1.02289E+06,   1.01764E+06,   1.01764E+06
C:/temp/Job-1.odb,Step-1,Increment      1: Step Time =    1.000,"P-1-1",         18029,   138.971E-03,   19.6874E-03,            0.,NA,NA,"",   1.00667E+06,   1.00395E+06,   1.00395E+06
C:/temp/Job-1.odb,Step-1,Increment      1: Step Time =    1.000,"P-1-1",         18030,   20.8774E-03,   44.8504E-03,            0.,NA,NA,"",   950.194E+03,   1.01911E+06,   1.01911E+06
C:/temp/Job-1.odb,Step-1,Increment      1: Step Time =    1.000,"P-1-1",         18031,   100.330E-03,   143.376E-03,            0.,NA,NA,"",   1.03195E+06,   1.08244E+06,   1.08244E+06
C:/temp/Job-1.odb,Step-1,Increment      1: Step Time =    1.000,"P-1-1",         18032,   89.9033E-03,   144.877E-03,            0.,NA,NA,"",   1.05626E+06,   1.09123E+06,   1.09123E+06
C:/temp/Job-1.odb,Step-1,Increment      1: Step Time =    1.000,"P-1-1",         18033,   146.067E-03,   115.314E-03,            0.,NA,NA,"",   958.235E+03,   947.456E+03,   947.456E+03
C:/temp/Job-1.odb,Step-1,Increment      1: Step Time =    1.000,"P-1-1",         18034,   146.266E-03,   116.683E-03,            0.,NA,NA,"",   971.581E+03,   958.472E+03,   958.472E+03
C:/temp/Job-1.odb,Step-1,Increment      1: Step Time =    1.000,"P-1-1",         18035,   146.818E-03,   112.794E-03,            0.,NA,NA,"",   934.682E+03,   929.533E+03,   929.533E+03
C:/temp/Job-1.odb,Step-1,Increment      1: Step Time =    1.000,"P-1-1",         18036,   143.237E-03,   104.410E-03,            0.,NA,NA,"",   841.837E+03,   851.160E+03,   851.160E+03
C:/temp/Job-1.odb,Step-1,Increment      1: Step Time =    1.000,"P-1-1",         18037,   146.653E-03,   109.992E-03,            0.,NA,NA,"",   906.589E+03,   907.168E+03,   907.168E+03
C:/temp/Job-1.odb,Step-1,Increment      1: Step Time =    1.000,"P-1-1",         18038,   138.146E-03,   69.3730E-03,            0.,NA,NA,"",   1.10866E+06,   1.07021E+06,   1.07021E+06
C:/temp/Job-1.odb,Step-1,Increment      1: Step Time =    1.000,"P-1-1",         18039,   139.432E-03,   71.4491E-03,            0.,NA,NA,"",   1.09490E+06,   1.05705E+06,   1.05705E+06
C:/temp/Job-1.odb,Step-1,Increment      1: Step Time =    1.000,"P-1-1",         18040,   52.1219E-03,   94.1627E-03,            0.,NA,NA,"",   802.611E+03,   854.872E+03,   854.872E+03
C:/temp/Job-1.odb,Step-1,Increment      1: Step Time =    1.000,"P-1-1",         18041,   149.050E-03,   88.4660E-03,            0.,NA,NA,"",   926.439E+03,   925.894E+03,   925.894E+03
C:/temp/Job-1.odb,Step-1,Increment      1: Step Time =    1.000,"P-1-1",         18042,   168.788E-03,   139.894E-03,            0.,NA,NA,"",   1.01969E+06,   1.01533E+06,   1.01533E+06
C:/temp/Job-1.odb,Step-1,Increment      1: Step Time =    1.000,"P-1-1",         18043,   170.341E-03,   67.5964E-03,            0.,NA,NA,"",   1.00723E+06,   1.00664E+06,   1.00664E+06
C:/temp/Job-1.odb,Step-1,Increment      1: Step Time =    1.000,"P-1-1",         18044,   165.442E-03,   71.0512E-03,            0.,NA,NA,"",   1.00738E+06,   1.00409E+06,   1.00409E+06
C:/temp/Job-1.odb,Step-1,Increment      1: Step Time =    1.000,"P-1-1",         18045,   21.1077E-03,   123.222E-03,            0.,NA,NA,"",   844.604E+03,   927.296E+03,   927.296E+03
C:/temp/Job-1.odb,Step-1,Increment      1: Step Time =    1.000,"P-1-1",         18046,   21.7796E-03,   125.584E-03,            0.,NA,NA,"",   853.493E+03,   934.521E+03,   934.521E+03
C:/temp/Job-1.odb,Step-1,Increment      1: Step Time =    1.000,"P-1-1",         18047,   25.2317E-03,   136.334E-03,            0.,NA,NA,"",   901.007E+03,   972.009E+03,   972.009E+03
C:/temp/Job-1.odb,Step-1,Increment      1: Step Time =    1.000,"P-1-1",         18048,   24.9915E-03,   139.172E-03,            0.,NA,NA,"",   909.899E+03,   979.944E+03,   979.944E+03
C:/temp/Job-1.odb,Step-1,Increment      1: Step Time =    1.000,"P-1-1",         18049,   72.1255E-03,   166.336E-03,            0.,NA,NA,"",   1.04180E+06,   1.04687E+06,   1.04687E+06
C:/temp/Job-1.odb,Step-1,Increment      1: Step Time =    1.000,"P-1-1",         18050,   115.702E-03,   167.293E-03,            0.,NA,NA,"",   1.01738E+06,   1.02506E+06,   1.02506E+06
C:/temp/Job-1.odb,Step-1,Increment      1: Step Time =    1.000,"P-1-1",         18051,   127.722E-03,   166.124E-03,            0.,NA,NA,"",   1.03513E+06,   1.03318E+06,   1.03318E+06
C:/temp/Job-1.odb,Step-1,Increment      1: Step Time =    1.000,"P-1-1",         18052,   146.350E-03,   168.713E-03,            0.,NA,NA,"",   1.03219E+06,   1.02470E+06,   1.02470E+06
C:/temp/Job-1.odb,Step-1,Increment      1: Step Time =    1.000,"P-1-1",         18053,   100.905E-03,   24.9795E-03,            0.,NA,NA,"",   992.625E+03,   1.00211E+06,   1.00211E+06
C:/temp/Job-1.odb,Step-1,Increment      1: Step Time =    1.000,"P-1-1",         18054,   107.606E-03,   25.4258E-03,            0.,NA,NA,"",   995.360E+03,   1.00376E+06,   1.00376E+06
C:/temp/Job-1.odb,Step-1,Increment      1: Step Time =    1.000,"P-1-1",         18055,   21.2287E-03,   155.414E-03,            0.,NA,NA,"",   952.942E+03,   1.02078E+06,   1.02078E+06
C:/temp/Job-1.odb,Step-1,Increment      1: Step Time =    1.000,"P-1-1",         18056,   164.966E-03,   91.9169E-03,            0.,NA,NA,"",   947.983E+03,   958.064E+03,   958.064E+03
C:/temp/Job-1.odb,Step-1,Increment      1: Step Time =    1.000,"P-1-1",         18057,   46.6572E-03,   20.8745E-03,            0.,NA,NA,"",   1.04002E+06,   1.04560E+06,   1.04560E+06
C:/temp/Job-1.odb,Step-1,Increment      1: Step Time =    1.000,"P-1-1",         18058,   76.0489E-03,   25.8219E-03,            0.,NA,NA,"",   1.01744E+06,   1.02199E+06,   1.02199E+06
C:/temp/Job-1.odb,Step-1,Increment      1: Step Time =    1.000,"P-1-1",         18059,   74.3443E-03,   27.7903E-03,            0.,NA,NA,"",   1.02471E+06,   1.02926E+06,   1.02926E+06
C:/temp/Job-1.odb,Step-1,Increment      1: Step Time =    1.000,"P-1-1",         18060,   21.2606E-03,   113.724E-03,            0.,NA,NA,"",   821.704E+03,   906.641E+03,   906.641E+03
C:/temp/Job-1.odb,Step-1,Increment      1: Step Time =    1.000,"P-1-1",         18061,   23.5347E-03,   115.219E-03,            0.,NA,NA,"",   828.996E+03,   911.098E+03,   911.098E+03
C:/temp/Job-1.odb,Step-1,Increment      1: Step Time =    1.000,"P-1-1",         18062,   26.0155E-03,   168.233E-03,            0.,NA,NA,"",   1.02074E+06,   1.06493E+06,   1.06493E+06
C:/temp/Job-1.odb,Step-1,Increment      1: Step Time =    1.000,"P-1-1",         18063,   169.421E-03,   64.7341E-03,            0.,NA,NA,"",   1.01309E+06,   1.01061E+06,   1.01061E+06
C:/temp/Job-1.odb,Step-1,Increment      1: Step Time =    1.000,"P-1-1",         18064,   53.5433E-03,   102.563E-03,            0.,NA,NA,"",   782.437E+03,   835.758E+03,   835.758E+03
C:/temp/Job-1.odb,Step-1,Increment      1: Step Time =    1.000,"P-1-1",         18065,   121.266E-03,   169.563E-03,            0.,NA,NA,"",   1.01903E+06,   1.02197E+06,   1.02197E+06
C:/temp/Job-1.odb,Step-1,Increment      1: Step Time =    1.000,"P-1-1",         18066,   134.870E-03,   166.670E-03,            0.,NA,NA,"",   1.03818E+06,   1.03228E+06,   1.03228E+06
C:/temp/Job-1.odb,Step-1,Increment      1: Step Time =    1.000,"P-1-1",         18067,   23.0197E-03,   103.887E-03,            0.,NA,NA,"",   810.732E+03,   895.327E+03,   895.327E+03
C:/temp/Job-1.odb,Step-1,Increment      1: Step Time =    1.000,"P-1-1",         18068,   22.1133E-03,   98.8039E-03,            0.,NA,NA,"",   808.304E+03,   893.947E+03,   893.947E+03
C:/temp/Job-1.odb,Step-1,Increment      1: Step Time =    1.000,"P-1-1",         18069,   25.6757E-03,   100.774E-03,            0.,NA,NA,"",   812.480E+03,   894.576E+03,   894.576E+03
C:/temp/Job-1.odb,Step-1,Increment      1: Step Time =    1.000,"P-1-1",         18070,   138.741E-03,   73.1709E-03,            0.,NA,NA,"",   1.09215E+06,   1.05257E+06,   1.05257E+06
C:/temp/Job-1.odb,Step-1,Increment      1: Step Time =    1.000,"P-1-1",         18071,   50.2944E-03,   167.794E-03,            0.,NA,NA,"",   1.04764E+06,   1.05686E+06,   1.05686E+06
C:/temp/Job-1.odb,Step-1,Increment      1: Step Time =    1.000,"P-1-1",         18072,   167.136E-03,   50.7254E-03,            0.,NA,NA,"",   1.02716E+06,   1.02071E+06,   1.02071E+06
C:/temp/Job-1.odb,Step-1,Increment      1: Step Time =    1.000,"P-1-1",         18073,   36.9646E-03,   21.6053E-03,            0.,NA,NA,"",   1.05137E+06,   1.06473E+06,   1.06473E+06
C:/temp/Job-1.odb,Step-1,Increment      1: Step Time =    1.000,"P-1-1",         18074,   20.3997E-03,   92.9040E-03,            0.,NA,NA,"",   809.644E+03,   896.561E+03,   896.561E+03
C:/temp/Job-1.odb,Step-1,Increment      1: Step Time =    1.000,"P-1-1",         18075,   22.0585E-03,   93.1674E-03,            0.,NA,NA,"",   811.948E+03,   897.236E+03,   897.236E+03
C:/temp/Job-1.odb,Step-1,Increment      1: Step Time =    1.000,"P-1-1",         18076,   88.8772E-03,   167.766E-03,            0.,NA,NA,"",   1.01313E+06,   1.02615E+06,   1.02615E+06
C:/temp/Job-1.odb,Step-1,Increment      1: Step Time =    1.000,"P-1-1",         18077,   106.545E-03,   145.763E-03,            0.,NA,NA,"",   1.04080E+06,   1.07877E+06,   1.07877E+06
C:/temp/Job-1.odb,Step-1,Increment      1: Step Time =    1.000,"P-1-1",         18078,   173.918E-03,   56.7641E-03,            0.,NA,NA,"",   1.01338E+06,   1.01225E+06,   1.01225E+06
C:/temp/Job-1.odb,Step-1,Increment      1: Step Time =    1.000,"P-1-1",         18079,   146.762E-03,   84.3887E-03,            0.,NA,NA,"",   961.920E+03,   951.285E+03,   951.285E+03
C:/temp/Job-1.odb,Step-1,Increment      1: Step Time =    1.000,"P-1-1",         18080,   54.8805E-03,   21.8171E-03,            0.,NA,NA,"",   1.03248E+06,   1.03529E+06,   1.03529E+06
C:/temp/Job-1.odb,Step-1,Increment      1: Step Time =    1.000,"P-1-1",         18081,   31.3118E-03,   19.5892E-03,            0.,NA,NA,"",   1.06012E+06,   1.07735E+06,   1.07735E+06
C:/temp/Job-1.odb,Step-1,Increment      1: Step Time =    1.000,"P-1-1",         18082,   30.1991E-03,   19.8075E-03,            0.,NA,NA,"",   1.06100E+06,   1.08019E+06,   1.08019E+06
C:/temp/Job-1.odb,Step-1,Increment      1: Step Time =    1.000,"P-1-1",         18083,   22.0556E-03,   87.3703E-03,            0.,NA,NA,"",   820.724E+03,   905.106E+03,   905.106E+03
C:/temp/Job-1.odb,Step-1,Increment      1: Step Time =    1.000,"P-1-1",         18084,   168.423E-03,   46.6198E-03,            0.,NA,NA,"",   1.02455E+06,   1.01901E+06,   1.01901E+06
C:/temp/Job-1.odb,Step-1,Increment      1: Step Time =    1.000,"P-1-1",         18085,   166.095E-03,   36.5485E-03,            0.,NA,NA,"",   1.02233E+06,   1.01701E+06,   1.01701E+06
C:/temp/Job-1.odb,Step-1,Increment      1: Step Time =    1.000,"P-1-1",         18086,   148.313E-03,   21.6257E-03,            0.,NA,NA,"",   1.01276E+06,   1.00883E+06,   1.00883E+06
C:/temp/Job-1.odb,Step-1,Increment      1: Step Time =    1.000,"P-1-1",         18087,   163.564E-03,   84.0983E-03,            0.,NA,NA,"",   968.367E+03,   972.516E+03,   972.516E+03
C:/temp/Job-1.odb,Step-1,Increment      1: Step Time =    1.000,"P-1-1",         18088,   19.5840E-03,   56.8736E-03,            0.,NA,NA,"",   902.271E+03,   980.170E+03,   980.170E+03
C:/temp/Job-1.odb,Step-1,Increment      1: Step Time =    1.000,"P-1-1",         18089,   113.008E-03,   15.5555E-03,            0.,NA,NA,"",   977.207E+03,   979.896E+03,   979.896E+03
C:/temp/Job-1.odb,Step-1,Increment      1: Step Time =    1.000,"P-1-1",         18090,   172.097E-03,   146.357E-03,            0.,NA,NA,"",   1.01795E+06,   1.01496E+06,   1.01496E+06
C:/temp/Job-1.odb,Step-1,Increment      1: Step Time =    1.000,"P-1-1",         18091,   172.420E-03,   147.119E-03,            0.,NA,NA,"",   1.01786E+06,   1.01491E+06,   1.01491E+06
C:/temp/Job-1.odb,Step-1,Increment      1: Step Time =    1.000,"P-1-1",         18092,   53.8426E-03,   21.3291E-03,            0.,NA,NA,"",   1.03248E+06,   1.03545E+06,   1.03545E+06
C:/temp/Job-1.odb,Step-1,Increment      1: Step Time =    1.000,"P-1-1",         18093,   69.1891E-03,   166.532E-03,            0.,NA,NA,"",   1.04454E+06,   1.04875E+06,   1.04875E+06
C:/temp/Job-1.odb,Step-1,Increment      1: Step Time =    1.000,"P-1-1",         18094,   167.165E-03,   28.5526E-03,            0.,NA,NA,"",   1.01450E+06,   1.01096E+06,   1.01096E+06
C:/temp/Job-1.odb,Step-1,Increment      1: Step Time =    1.000,"P-1-1",         18095,   51.4351E-03,   19.7344E-03,            0.,NA,NA,"",   1.03206E+06,   1.03529E+06,   1.03529E+06
C:/temp/Job-1.odb,Step-1,Increment      1: Step Time =    1.000,"P-1-1",         18096,   115.078E-03,   17.8136E-03,            0.,NA,NA,"",   984.265E+03,   987.142E+03,   987.142E+03
C:/temp/Job-1.odb,Step-1,Increment      1: Step Time =    1.000,"P-1-1",         18097,   113.943E-03,   17.5282E-03,            0.,NA,NA,"",   982.654E+03,   985.701E+03,   985.701E+03
C:/temp/Job-1.odb,Step-1,Increment      1: Step Time =    1.000,"P-1-1",         18098,   174.838E-03,   58.9323E-03,            0.,NA,NA,"",   1.01045E+06,   1.01053E+06,   1.01053E+06
C:/temp/Job-1.odb,Step-1,Increment      1: Step Time =    1.000,"P-1-1",         18099,   168.818E-03,   98.0248E-03,            0.,NA,NA,"",   948.638E+03,   961.872E+03,   961.872E+03
C:/temp/Job-1.odb,Step-1,Increment      1: Step Time =    1.000,"P-1-1",         18100,   97.0641E-03,   26.0713E-03,            0.,NA,NA,"",   995.329E+03,   1.00569E+06,   1.00569E+06
C:/temp/Job-1.odb,Step-1,Increment      1: Step Time =    1.000,"P-1-1",         18101,   107.801E-03,   166.985E-03,            0.,NA,NA,"",   1.00857E+06,   1.02204E+06,   1.02204E+06
C:/temp/Job-1.odb,Step-1,Increment      1: Step Time =    1.000,"P-1-1",         18102,   166.621E-03,   152.642E-03,            0.,NA,NA,"",   1.02760E+06,   1.02102E+06,   1.02102E+06
C:/temp/Job-1.odb,Step-1,Increment      1: Step Time =    1.000,"P-1-1",         18103,   20.9217E-03,   118.473E-03,            0.,NA,NA,"",   831.492E+03,   915.785E+03,   915.785E+03
C:/temp/Job-1.odb,Step-1,Increment      1: Step Time =    1.000,"P-1-1",         18104,   69.8308E-03,   165.316E-03,            0.,NA,NA,"",   1.04658E+06,   1.05111E+06,   1.05111E+06
C:/temp/Job-1.odb,Step-1,Increment      1: Step Time =    1.000,"P-1-1",         18105,   167.454E-03,   151.555E-03,            0.,NA,NA,"",   1.02640E+06,   1.02024E+06,   1.02024E+06
C:/temp/Job-1.odb,Step-1,Increment      1: Step Time =    1.000,"P-1-1",         18106,   59.6180E-03,   118.515E-03,            0.,NA,NA,"",   945.748E+03,   958.594E+03,   958.594E+03
C:/temp/Job-1.odb,Step-1,Increment      1: Step Time =    1.000,"P-1-1",         18107,   58.6599E-03,   119.326E-03,            0.,NA,NA,"",   948.854E+03,   963.278E+03,   963.278E+03
C:/temp/Job-1.odb,Step-1,Increment      1: Step Time =    1.000,"P-1-1",         18108,   132.669E-03,   62.3522E-03,            0.,NA,NA,"",   1.13183E+06,   1.09962E+06,   1.09962E+06
C:/temp/Job-1.odb,Step-1,Increment      1: Step Time =    1.000,"P-1-1",         18109,   67.0351E-03,   69.0967E-03,            0.,NA,NA,"",   1.10400E+06,   1.08963E+06,   1.08963E+06
C:/temp/Job-1.odb,Step-1,Increment      1: Step Time =    1.000,"P-1-1",         18110,   66.3841E-03,   67.9260E-03,            0.,NA,NA,"",   1.10058E+06,   1.08873E+06,   1.08873E+06
C:/temp/Job-1.odb,Step-1,Increment      1: Step Time =    1.000,"P-1-1",         18111,   38.0988E-03,   168.098E-03,            0.,NA,NA,"",   1.03974E+06,   1.06214E+06,   1.06214E+06
C:/temp/Job-1.odb,Step-1,Increment      1: Step Time =    1.000,"P-1-1",         18112,   128.444E-03,   24.3688E-03,            0.,NA,NA,"",   1.01125E+06,   1.01035E+06,   1.01035E+06
C:/temp/Job-1.odb,Step-1,Increment      1: Step Time =    1.000,"P-1-1",         18113,   105.864E-03,   26.3381E-03,            0.,NA,NA,"",   996.155E+03,   1.00569E+06,   1.00569E+06
C:/temp/Job-1.odb,Step-1,Increment      1: Step Time =    1.000,"P-1-1",         18114,   58.0696E-03,   24.6546E-03,            0.,NA,NA,"",   1.03556E+06,   1.03851E+06,   1.03851E+06
C:/temp/Job-1.odb,Step-1,Increment      1: Step Time =    1.000,"P-1-1",         18115,   19.9342E-03,   158.069E-03,            0.,NA,NA,"",   958.093E+03,   1.02682E+06,   1.02682E+06
C:/temp/Job-1.odb,Step-1,Increment      1: Step Time =    1.000,"P-1-1",         18116,   80.8126E-03,   62.6938E-03,            0.,NA,NA,"",   1.13425E+06,   1.14025E+06,   1.14025E+06
C:/temp/Job-1.odb,Step-1,Increment      1: Step Time =    1.000,"P-1-1",         18117,   148.123E-03,   79.2806E-03,            0.,NA,NA,"",   1.00375E+06,   986.915E+03,   986.915E+03
C:/temp/Job-1.odb,Step-1,Increment      1: Step Time =    1.000,"P-1-1",         18118,   149.392E-03,   80.0325E-03,            0.,NA,NA,"",   994.474E+03,   980.680E+03,   980.680E+03
C:/temp/Job-1.odb,Step-1,Increment      1: Step Time =    1.000,"P-1-1",         18119,   167.414E-03,   137.322E-03,            0.,NA,NA,"",   1.01933E+06,   1.01453E+06,   1.01453E+06
C:/temp/Job-1.odb,Step-1,Increment      1: Step Time =    1.000,"P-1-1",         18120,   16.5776E-03,   49.2362E-03,            0.,NA,NA,"",   917.235E+03,   997.178E+03,   997.178E+03
C:/temp/Job-1.odb,Step-1,Increment      1: Step Time =    1.000,"P-1-1",         18121,   77.8739E-03,   144.684E-03,            0.,NA,NA,"",   1.09834E+06,   1.10558E+06,   1.10558E+06
C:/temp/Job-1.odb,Step-1,Increment      1: Step Time =    1.000,"P-1-1",         18122,   172.518E-03,   57.2584E-03,            0.,NA,NA,"",   1.01533E+06,   1.01329E+06,   1.01329E+06
C:/temp/Job-1.odb,Step-1,Increment      1: Step Time =    1.000,"P-1-1",         18123,   170.239E-03,   55.9720E-03,            0.,NA,NA,"",   1.02009E+06,   1.01612E+06,   1.01612E+06
C:/temp/Job-1.odb,Step-1,Increment      1: Step Time =    1.000,"P-1-1",         18124,   21.1326E-03,   83.8807E-03,            0.,NA,NA,"",   826.587E+03,   911.056E+03,   911.056E+03
C:/temp/Job-1.odb,Step-1,Increment      1: Step Time =    1.000,"P-1-1",         18125,   19.9942E-03,   146.150E-03,            0.,NA,NA,"",   914.691E+03,   990.419E+03,   990.419E+03
C:/temp/Job-1.odb,Step-1,Increment      1: Step Time =    1.000,"P-1-1",         18126,   91.9665E-03,   53.8162E-03,            0.,NA,NA,"",   1.04477E+06,   1.08198E+06,   1.08198E+06
C:/temp/Job-1.odb,Step-1,Increment      1: Step Time =    1.000,"P-1-1",         18127,   168.836E-03,   35.4757E-03,            0.,NA,NA,"",   1.01837E+06,   1.01421E+06,   1.01421E+06
C:/temp/Job-1.odb,Step-1,Increment      1: Step Time =    1.000,"P-1-1",         18128,   158.896E-03,   166.508E-03,            0.,NA,NA,"",   1.02709E+06,   1.02027E+06,   1.02027E+06
C:/temp/Job-1.odb,Step-1,Increment      1: Step Time =    1.000,"P-1-1",         18129,   21.0394E-03,   159.134E-03,            0.,NA,NA,"",   967.258E+03,   1.03245E+06,   1.03245E+06
C:/temp/Job-1.odb,Step-1,Increment      1: Step Time =    1.000,"P-1-1",         18130,   152.363E-03,   169.803E-03,            0.,NA,NA,"",   1.02716E+06,   1.02035E+06,   1.02035E+06
C:/temp/Job-1.odb,Step-1,Increment      1: Step Time =    1.000,"P-1-1",         18131,   24.8980E-03,   42.6032E-03,            0.,NA,NA,"",   974.830E+03,   1.03295E+06,   1.03295E+06
C:/temp/Job-1.odb,Step-1,Increment      1: Step Time =    1.000,"P-1-1",         18132,   42.6059E-03,   167.528E-03,            0.,NA,NA,"",   1.04305E+06,   1.06011E+06,   1.06011E+06
C:/temp/Job-1.odb,Step-1,Increment      1: Step Time =    1.000,"P-1-1",         18133,   167.772E-03,   68.0124E-03,            0.,NA,NA,"",   1.01041E+06,   1.00773E+06,   1.00773E+06
C:/temp/Job-1.odb,Step-1,Increment      1: Step Time =    1.000,"P-1-1",         18134,   87.9786E-03,   55.1328E-03,            0.,NA,NA,"",   1.06496E+06,   1.09511E+06,   1.09511E+06
C:/temp/Job-1.odb,Step-1,Increment      1: Step Time =    1.000,"P-1-1",         18135,   173.946E-03,   59.9012E-03,            0.,NA,NA,"",   1.01113E+06,   1.01078E+06,   1.01078E+06
C:/temp/Job-1.odb,Step-1,Increment      1: Step Time =    1.000,"P-1-1",         18136,   164.912E-03,   75.8149E-03,            0.,NA,NA,"",   995.213E+03,   994.245E+03,   994.245E+03
C:/temp/Job-1.odb,Step-1,Increment      1: Step Time =    1.000,"P-1-1",         18137,   125.518E-03,   137.789E-03,            0.,NA,NA,"",   1.14790E+06,   1.12375E+06,   1.12375E+06
C:/temp/Job-1.odb,Step-1,Increment      1: Step Time =    1.000,"P-1-1",         18138,   22.6699E-03,   124.204E-03,            0.,NA,NA,"",   851.804E+03,   932.052E+03,   932.052E+03
C:/temp/Job-1.odb,Step-1,Increment      1: Step Time =    1.000,"P-1-1",         18139,   23.4919E-03,   126.264E-03,            0.,NA,NA,"",   860.183E+03,   938.717E+03,   938.717E+03
C:/temp/Job-1.odb,Step-1,Increment      1: Step Time =    1.000,"P-1-1",         18140,   166.961E-03,   156.871E-03,            0.,NA,NA,"",   1.02560E+06,   1.01959E+06,   1.01959E+06
C:/temp/Job-1.odb,Step-1,Increment      1: Step Time =    1.000,"P-1-1",         18141,   170.628E-03,   147.004E-03,            0.,NA,NA,"",   1.02061E+06,   1.01657E+06,   1.01657E+06
C:/temp/Job-1.odb,Step-1,Increment      1: Step Time =    1.000,"P-1-1",         18142,   60.3048E-03,   169.057E-03,            0.,NA,NA,"",   1.04550E+06,   1.04938E+06,   1.04938E+06
C:/temp/Job-1.odb,Step-1,Increment      1: Step Time =    1.000,"P-1-1",         18143,   26.5908E-03,   27.2979E-03,            0.,NA,NA,"",   1.03937E+06,   1.07628E+06,   1.07628E+06
C:/temp/Job-1.odb,Step-1,Increment      1: Step Time =    1.000,"P-1-1",         18144,   26.7649E-03,   28.3568E-03,            0.,NA,NA,"",   1.03613E+06,   1.07395E+06,   1.07395E+06
C:/temp/Job-1.odb,Step-1,Increment      1: Step Time =    1.000,"P-1-1",         18145,   142.811E-03,   73.0704E-03,            0.,NA,NA,"",   1.06728E+06,   1.03554E+06,   1.03554E+06
C:/temp/Job-1.odb,Step-1,Increment      1: Step Time =    1.000,"P-1-1",         18146,   145.632E-03,   72.6085E-03,            0.,NA,NA,"",   1.05535E+06,   1.02837E+06,   1.02837E+06
C:/temp/Job-1.odb,Step-1,Increment      1: Step Time =    1.000,"P-1-1",         18147,   166.947E-03,   163.172E-03,            0.,NA,NA,"",   1.02159E+06,   1.01652E+06,   1.01652E+06
C:/temp/Job-1.odb,Step-1,Increment      1: Step Time =    1.000,"P-1-1",         18148,   93.8551E-03,   52.3186E-03,            0.,NA,NA,"",   1.03557E+06,   1.07376E+06,   1.07376E+06
C:/temp/Job-1.odb,Step-1,Increment      1: Step Time =    1.000,"P-1-1",         18149,   95.7952E-03,   50.9232E-03,            0.,NA,NA,"",   1.02877E+06,   1.06685E+06,   1.06685E+06
C:/temp/Job-1.odb,Step-1,Increment      1: Step Time =    1.000,"P-1-1",         18150,   146.463E-03,   102.863E-03,            0.,NA,NA,"",   858.182E+03,   868.990E+03,   868.990E+03
C:/temp/Job-1.odb,Step-1,Increment      1: Step Time =    1.000,"P-1-1",         18151,   149.174E-03,   111.934E-03,            0.,NA,NA,"",   929.973E+03,   928.814E+03,   928.814E+03
C:/temp/Job-1.odb,Step-1,Increment      1: Step Time =    1.000,"P-1-1",         18152,   83.1255E-03,   56.5120E-03,            0.,NA,NA,"",   1.09022E+06,   1.10840E+06,   1.10840E+06
C:/temp/Job-1.odb,Step-1,Increment      1: Step Time =    1.000,"P-1-1",         18153,   58.1548E-03,   25.5418E-03,            0.,NA,NA,"",   1.03719E+06,   1.04034E+06,   1.04034E+06
C:/temp/Job-1.odb,Step-1,Increment      1: Step Time =    1.000,"P-1-1",         18154,   164.678E-03,   166.927E-03,            0.,NA,NA,"",   1.02072E+06,   1.01567E+06,   1.01567E+06
C:/temp/Job-1.odb,Step-1,Increment      1: Step Time =    1.000,"P-1-1",         18155,   119.995E-03,   25.3838E-03,            0.,NA,NA,"",   1.00598E+06,   1.00890E+06,   1.00890E+06
C:/temp/Job-1.odb,Step-1,Increment      1: Step Time =    1.000,"P-1-1",         18156,   117.750E-03,   24.4892E-03,            0.,NA,NA,"",   1.00167E+06,   1.00553E+06,   1.00553E+06
C:/temp/Job-1.odb,Step-1,Increment      1: Step Time =    1.000,"P-1-1",         18157,   105.548E-03,   165.023E-03,            0.,NA,NA,"",   1.00983E+06,   1.02604E+06,   1.02604E+06
C:/temp/Job-1.odb,Step-1,Increment      1: Step Time =    1.000,"P-1-1",         18158,   20.6592E-03,   93.9038E-03,            0.,NA,NA,"",   809.200E+03,   895.903E+03,   895.903E+03
C:/temp/Job-1.odb,Step-1,Increment      1: Step Time =    1.000,"P-1-1",         18159,   21.7223E-03,   94.3763E-03,            0.,NA,NA,"",   810.172E+03,   895.983E+03,   895.983E+03
C:/temp/Job-1.odb,Step-1,Increment      1: Step Time =    1.000,"P-1-1",         18160,   24.0386E-03,   96.8523E-03,            0.,NA,NA,"",   811.482E+03,   895.101E+03,   895.101E+03
C:/temp/Job-1.odb,Step-1,Increment      1: Step Time =    1.000,"P-1-1",         18161,   126.750E-03,   164.144E-03,            0.,NA,NA,"",   1.03977E+06,   1.03811E+06,   1.03811E+06
C:/temp/Job-1.odb,Step-1,Increment      1: Step Time =    1.000,"P-1-1",         18162,   16.4556E-03,   48.0140E-03,            0.,NA,NA,"",   921.293E+03,   1.00088E+06,   1.00088E+06
C:/temp/Job-1.odb,Step-1,Increment      1: Step Time =    1.000,"P-1-1",         18163,   77.2741E-03,   23.8413E-03,            0.,NA,NA,"",   1.01067E+06,   1.01504E+06,   1.01504E+06
C:/temp/Job-1.odb,Step-1,Increment      1: Step Time =    1.000,"P-1-1",         18164,   78.3255E-03,   61.4102E-03,            0.,NA,NA,"",   1.12820E+06,   1.13007E+06,   1.13007E+06
C:/temp/Job-1.odb,Step-1,Increment      1: Step Time =    1.000,"P-1-1",         18165,   117.537E-03,   54.8529E-03,            0.,NA,NA,"",   1.08876E+06,   1.09702E+06,   1.09702E+06
C:/temp/Job-1.odb,Step-1,Increment      1: Step Time =    1.000,"P-1-1",         18166,   55.0015E-03,   22.8069E-03,            0.,NA,NA,"",   1.03424E+06,   1.03734E+06,   1.03734E+06
C:/temp/Job-1.odb,Step-1,Increment      1: Step Time =    1.000,"P-1-1",         18167,   46.2257E-03,   22.3351E-03,            0.,NA,NA,"",   1.04243E+06,   1.04917E+06,   1.04917E+06
C:/temp/Job-1.odb,Step-1,Increment      1: Step Time =    1.000,"P-1-1",         18168,   45.2269E-03,   24.6057E-03,            0.,NA,NA,"",   1.04471E+06,   1.05344E+06,   1.05344E+06
C:/temp/Job-1.odb,Step-1,Increment      1: Step Time =    1.000,"P-1-1",         18169,   21.8379E-03,   51.9728E-03,            0.,NA,NA,"",   928.600E+03,   999.684E+03,   999.684E+03
C:/temp/Job-1.odb,Step-1,Increment      1: Step Time =    1.000,"P-1-1",         18170,   163.731E-03,   89.4412E-03,            0.,NA,NA,"",   950.986E+03,   959.267E+03,   959.267E+03
C:/temp/Job-1.odb,Step-1,Increment      1: Step Time =    1.000,"P-1-1",         18171,   92.8922E-03,   166.339E-03,            0.,NA,NA,"",   1.01047E+06,   1.02629E+06,   1.02629E+06
C:/temp/Job-1.odb,Step-1,Increment      1: Step Time =    1.000,"P-1-1",         18172,   96.7201E-03,   163.990E-03,            0.,NA,NA,"",   1.01046E+06,   1.02941E+06,   1.02941E+06
C:/temp/Job-1.odb,Step-1,Increment      1: Step Time =    1.000,"P-1-1",         18173,   74.8510E-03,   29.4165E-03,            0.,NA,NA,"",   1.02793E+06,   1.03305E+06,   1.03305E+06
C:/temp/Job-1.odb,Step-1,Increment      1: Step Time =    1.000,"P-1-1",         18174,   136.198E-03,   129.054E-03,            0.,NA,NA,"",   1.11748E+06,   1.07476E+06,   1.07476E+06
C:/temp/Job-1.odb,Step-1,Increment      1: Step Time =    1.000,"P-1-1",         18175,   135.501E-03,   130.242E-03,            0.,NA,NA,"",   1.12466E+06,   1.08219E+06,   1.08219E+06
C:/temp/Job-1.odb,Step-1,Increment      1: Step Time =    1.000,"P-1-1",         18176,   58.8986E-03,   73.7253E-03,            0.,NA,NA,"",   1.01535E+06,   1.02108E+06,   1.02108E+06
C:/temp/Job-1.odb,Step-1,Increment      1: Step Time =    1.000,"P-1-1",         18177,   124.612E-03,   140.699E-03,            0.,NA,NA,"",   1.13085E+06,   1.11449E+06,   1.11449E+06
C:/temp/Job-1.odb,Step-1,Increment      1: Step Time =    1.000,"P-1-1",         18178,   51.3898E-03,   98.3540E-03,            0.,NA,NA,"",   790.217E+03,   845.843E+03,   845.843E+03
C:/temp/Job-1.odb,Step-1,Increment      1: Step Time =    1.000,"P-1-1",         18179,   50.2819E-03,   97.4850E-03,            0.,NA,NA,"",   796.003E+03,   852.328E+03,   852.328E+03
C:/temp/Job-1.odb,Step-1,Increment      1: Step Time =    1.000,"P-1-1",         18180,   52.1976E-03,   102.090E-03,            0.,NA,NA,"",   787.542E+03,   842.301E+03,   842.301E+03
C:/temp/Job-1.odb,Step-1,Increment      1: Step Time =    1.000,"P-1-1",         18181,   50.7390E-03,   92.9273E-03,            0.,NA,NA,"",   813.553E+03,   866.293E+03,   866.293E+03
C:/temp/Job-1.odb,Step-1,Increment      1: Step Time =    1.000,"P-1-1",         18182,   50.3584E-03,   91.7793E-03,            0.,NA,NA,"",   821.710E+03,   873.627E+03,   873.627E+03
C:/temp/Job-1.odb,Step-1,Increment      1: Step Time =    1.000,"P-1-1",         18183,   143.348E-03,   127.035E-03,            0.,NA,NA,"",   1.06472E+06,   1.03397E+06,   1.03397E+06
C:/temp/Job-1.odb,Step-1,Increment      1: Step Time =    1.000,"P-1-1",         18184,   22.8070E-03,   89.0359E-03,            0.,NA,NA,"",   819.067E+03,   902.950E+03,   902.950E+03
C:/temp/Job-1.odb,Step-1,Increment      1: Step Time =    1.000,"P-1-1",         18185,   22.4765E-03,   154.641E-03,            0.,NA,NA,"",   955.177E+03,   1.02074E+06,   1.02074E+06
C:/temp/Job-1.odb,Step-1,Increment      1: Step Time =    1.000,"P-1-1",         18186,   23.4768E-03,   93.7451E-03,            0.,NA,NA,"",   813.558E+03,   897.434E+03,   897.434E+03
C:/temp/Job-1.odb,Step-1,Increment      1: Step Time =    1.000,"P-1-1",         18187,   167.407E-03,   64.6322E-03,            0.,NA,NA,"",   1.01670E+06,   1.01243E+06,   1.01243E+06
C:/temp/Job-1.odb,Step-1,Increment      1: Step Time =    1.000,"P-1-1",         18188,   163.955E-03,   92.8320E-03,            0.,NA,NA,"",   943.799E+03,   954.026E+03,   954.026E+03
C:/temp/Job-1.odb,Step-1,Increment      1: Step Time =    1.000,"P-1-1",         18189,   71.3630E-03,   164.566E-03,            0.,NA,NA,"",   1.04668E+06,   1.05171E+06,   1.05171E+06
C:/temp/Job-1.odb,Step-1,Increment      1: Step Time =    1.000,"P-1-1",         18190,   25.3965E-03,   114.577E-03,            0.,NA,NA,"",   831.139E+03,   911.223E+03,   911.223E+03
C:/temp/Job-1.odb,Step-1,Increment      1: Step Time =    1.000,"P-1-1",         18191,   163.102E-03,   91.9598E-03,            0.,NA,NA,"",   943.987E+03,   953.410E+03,   953.410E+03
C:/temp/Job-1.odb,Step-1,Increment      1: Step Time =    1.000,"P-1-1",         18192,   22.3888E-03,   53.9405E-03,            0.,NA,NA,"",   923.761E+03,   994.867E+03,   994.867E+03
C:/temp/Job-1.odb,Step-1,Increment      1: Step Time =    1.000,"P-1-1",         18193,   24.1626E-03,   57.7483E-03,            0.,NA,NA,"",   917.595E+03,   987.429E+03,   987.429E+03
C:/temp/Job-1.odb,Step-1,Increment      1: Step Time =    1.000,"P-1-1",         18194,   109.497E-03,   145.471E-03,            0.,NA,NA,"",   1.05295E+06,   1.08438E+06,   1.08438E+06
C:/temp/Job-1.odb,Step-1,Increment      1: Step Time =    1.000,"P-1-1",         18195,   112.006E-03,   144.087E-03,            0.,NA,NA,"",   1.06968E+06,   1.09490E+06,   1.09490E+06
C:/temp/Job-1.odb,Step-1,Increment      1: Step Time =    1.000,"P-1-1",         18196,   138.737E-03,   67.5163E-03,            0.,NA,NA,"",   1.10851E+06,   1.07225E+06,   1.07225E+06
C:/temp/Job-1.odb,Step-1,Increment      1: Step Time =    1.000,"P-1-1",         18197,   140.079E-03,   69.7178E-03,            0.,NA,NA,"",   1.09623E+06,   1.06028E+06,   1.06028E+06
C:/temp/Job-1.odb,Step-1,Increment      1: Step Time =    1.000,"P-1-1",         18198,   131.353E-03,   27.3856E-03,            0.,NA,NA,"",   1.02070E+06,   1.01818E+06,   1.01818E+06
C:/temp/Job-1.odb,Step-1,Increment      1: Step Time =    1.000,"P-1-1",         18199,   166.812E-03,   150.510E-03,            0.,NA,NA,"",   1.02776E+06,   1.02112E+06,   1.02112E+06
C:/temp/Job-1.odb,Step-1,Increment      1: Step Time =    1.000,"P-1-1",         18200,   167.163E-03,   148.168E-03,            0.,NA,NA,"",   1.02707E+06,   1.02062E+06,   1.02062E+06
C:/temp/Job-1.odb,Step-1,Increment      1: Step Time =    1.000,"P-1-1",         18201,   81.8495E-03,   163.288E-03,            0.,NA,NA,"",   1.03365E+06,   1.04512E+06,   1.04512E+06
C:/temp/Job-1.odb,Step-1,Increment      1: Step Time =    1.000,"P-1-1",         18202,   20.7887E-03,   109.963E-03,            0.,NA,NA,"",   814.144E+03,   900.241E+03,   900.241E+03
C:/temp/Job-1.odb,Step-1,Increment      1: Step Time =    1.000,"P-1-1",         18203,   25.8042E-03,   102.693E-03,            0.,NA,NA,"",   813.329E+03,   895.230E+03,   895.230E+03
C:/temp/Job-1.odb,Step-1,Increment      1: Step Time =    1.000,"P-1-1",         18204,   26.4934E-03,   139.470E-03,            0.,NA,NA,"",   916.782E+03,   983.903E+03,   983.903E+03
C:/temp/Job-1.odb,Step-1,Increment      1: Step Time =    1.000,"P-1-1",         18205,   26.2499E-03,   140.890E-03,            0.,NA,NA,"",   921.147E+03,   987.840E+03,   987.840E+03
C:/temp/Job-1.odb,Step-1,Increment      1: Step Time =    1.000,"P-1-1",         18206,   139.392E-03,   172.304E-03,            0.,NA,NA,"",   1.02494E+06,   1.01977E+06,   1.01977E+06
C:/temp/Job-1.odb,Step-1,Increment      1: Step Time =    1.000,"P-1-1",         18207,   84.6904E-03,   147.839E-03,            0.,NA,NA,"",   1.06685E+06,   1.08834E+06,   1.08834E+06
C:/temp/Job-1.odb,Step-1,Increment      1: Step Time =    1.000,"P-1-1",         18208,   102.692E-03,   145.703E-03,            0.,NA,NA,"",   1.03091E+06,   1.07492E+06,   1.07492E+06
C:/temp/Job-1.odb,Step-1,Increment      1: Step Time =    1.000,"P-1-1",         18209,   101.664E-03,   145.139E-03,            0.,NA,NA,"",   1.03046E+06,   1.07655E+06,   1.07655E+06
C:/temp/Job-1.odb,Step-1,Increment      1: Step Time =    1.000,"P-1-1",         18210,   148.385E-03,   113.612E-03,            0.,NA,NA,"",   943.513E+03,   938.586E+03,   938.586E+03
C:/temp/Job-1.odb,Step-1,Increment      1: Step Time =    1.000,"P-1-1",         18211,   148.883E-03,   82.9318E-03,            0.,NA,NA,"",   972.602E+03,   962.369E+03,   962.369E+03
C:/temp/Job-1.odb,Step-1,Increment      1: Step Time =    1.000,"P-1-1",         18212,   61.9054E-03,   125.355E-03,            0.,NA,NA,"",   1.03439E+06,   1.03135E+06,   1.03135E+06
C:/temp/Job-1.odb,Step-1,Increment      1: Step Time =    1.000,"P-1-1",         18213,   146.933E-03,   167.028E-03,            0.,NA,NA,"",   1.03552E+06,   1.02726E+06,   1.02726E+06
C:/temp/Job-1.odb,Step-1,Increment      1: Step Time =    1.000,"P-1-1",         18214,   150.525E-03,   93.6780E-03,            0.,NA,NA,"",   896.405E+03,   904.153E+03,   904.153E+03
C:/temp/Job-1.odb,Step-1,Increment      1: Step Time =    1.000,"P-1-1",         18215,   164.268E-03,   105.462E-03,            0.,NA,NA,"",   941.204E+03,   952.233E+03,   952.233E+03
C:/temp/Job-1.odb,Step-1,Increment      1: Step Time =    1.000,"P-1-1",         18216,   164.792E-03,   107.739E-03,            0.,NA,NA,"",   946.775E+03,   956.962E+03,   956.962E+03
C:/temp/Job-1.odb,Step-1,Increment      1: Step Time =    1.000,"P-1-1",         18217,   149.548E-03,   23.9106E-03,            0.,NA,NA,"",   1.01684E+06,   1.01217E+06,   1.01217E+06
C:/temp/Job-1.odb,Step-1,Increment      1: Step Time =    1.000,"P-1-1",         18218,   59.9738E-03,   167.663E-03,            0.,NA,NA,"",   1.04798E+06,   1.05220E+06,   1.05220E+06
C:/temp/Job-1.odb,Step-1,Increment      1: Step Time =    1.000,"P-1-1",         18219,   117.870E-03,   20.3493E-03,            0.,NA,NA,"",   992.363E+03,   995.200E+03,   995.200E+03
C:/temp/Job-1.odb,Step-1,Increment      1: Step Time =    1.000,"P-1-1",         18220,   47.2672E-03,   111.515E-03,            0.,NA,NA,"",   844.513E+03,   897.111E+03,   897.111E+03
C:/temp/Job-1.odb,Step-1,Increment      1: Step Time =    1.000,"P-1-1",         18221,   118.618E-03,   148.712E-03,            0.,NA,NA,"",   1.07643E+06,   1.08297E+06,   1.08297E+06
C:/temp/Job-1.odb,Step-1,Increment      1: Step Time =    1.000,"P-1-1",         18222,   25.2318E-03,   99.2044E-03,            0.,NA,NA,"",   811.983E+03,   894.561E+03,   894.561E+03
C:/temp/Job-1.odb,Step-1,Increment      1: Step Time =    1.000,"P-1-1",         18223,   27.8105E-03,   100.742E-03,            0.,NA,NA,"",   814.566E+03,   894.471E+03,   894.471E+03
C:/temp/Job-1.odb,Step-1,Increment      1: Step Time =    1.000,"P-1-1",         18224,   143.563E-03,   168.411E-03,            0.,NA,NA,"",   1.03375E+06,   1.02633E+06,   1.02633E+06
C:/temp/Job-1.odb,Step-1,Increment      1: Step Time =    1.000,"P-1-1",         18225,   148.314E-03,   167.713E-03,            0.,NA,NA,"",   1.03342E+06,   1.02546E+06,   1.02546E+06
C:/temp/Job-1.odb,Step-1,Increment      1: Step Time =    1.000,"P-1-1",         18226,   43.3784E-03,   25.2105E-03,            0.,NA,NA,"",   1.04625E+06,   1.05687E+06,   1.05687E+06
C:/temp/Job-1.odb,Step-1,Increment      1: Step Time =    1.000,"P-1-1",         18227,   85.8975E-03,   24.7363E-03,            0.,NA,NA,"",   1.00181E+06,   1.00915E+06,   1.00915E+06
C:/temp/Job-1.odb,Step-1,Increment      1: Step Time =    1.000,"P-1-1",         18228,   89.0597E-03,   30.3751E-03,            0.,NA,NA,"",   1.00954E+06,   1.02141E+06,   1.02141E+06
C:/temp/Job-1.odb,Step-1,Increment      1: Step Time =    1.000,"P-1-1",         18229,   102.992E-03,   26.9294E-03,            0.,NA,NA,"",   996.206E+03,   1.00692E+06,   1.00692E+06
C:/temp/Job-1.odb,Step-1,Increment      1: Step Time =    1.000,"P-1-1",         18230,   118.597E-03,   56.3258E-03,            0.,NA,NA,"",   1.10084E+06,   1.10480E+06,   1.10480E+06
C:/temp/Job-1.odb,Step-1,Increment      1: Step Time =    1.000,"P-1-1",         18231,   53.9937E-03,   81.9970E-03,            0.,NA,NA,"",   910.669E+03,   940.718E+03,   940.718E+03
C:/temp/Job-1.odb,Step-1,Increment      1: Step Time =    1.000,"P-1-1",         18232,   148.928E-03,   78.4836E-03,            0.,NA,NA,"",   1.00730E+06,   990.741E+03,   990.741E+03
C:/temp/Job-1.odb,Step-1,Increment      1: Step Time =    1.000,"P-1-1",         18233,   113.537E-03,   16.2017E-03,            0.,NA,NA,"",   978.947E+03,   981.674E+03,   981.674E+03
C:/temp/Job-1.odb,Step-1,Increment      1: Step Time =    1.000,"P-1-1",         18234,   126.523E-03,   136.907E-03,            0.,NA,NA,"",   1.15154E+06,   1.12357E+06,   1.12357E+06
C:/temp/Job-1.odb,Step-1,Increment      1: Step Time =    1.000,"P-1-1",         18235,   65.2795E-03,   68.3307E-03,            0.,NA,NA,"",   1.09163E+06,   1.08135E+06,   1.08135E+06
C:/temp/Job-1.odb,Step-1,Increment      1: Step Time =    1.000,"P-1-1",         18236,   144.528E-03,   127.315E-03,            0.,NA,NA,"",   1.06024E+06,   1.03143E+06,   1.03143E+06
C:/temp/Job-1.odb,Step-1,Increment      1: Step Time =    1.000,"P-1-1",         18237,   60.5595E-03,   124.234E-03,            0.,NA,NA,"",     1.013E+06,   1.01523E+06,   1.01523E+06
C:/temp/Job-1.odb,Step-1,Increment      1: Step Time =    1.000,"P-1-1",         18238,   113.483E-03,   18.6133E-03,            0.,NA,NA,"",   984.907E+03,   988.425E+03,   988.425E+03
C:/temp/Job-1.odb,Step-1,Increment      1: Step Time =    1.000,"P-1-1",         18239,   58.6956E-03,   167.924E-03,            0.,NA,NA,"",   1.04787E+06,   1.05240E+06,   1.05240E+06
C:/temp/Job-1.odb,Step-1,Increment      1: Step Time =    1.000,"P-1-1",         18240,   30.3401E-03,   20.7501E-03,            0.,NA,NA,"",   1.05917E+06,   1.07928E+06,   1.07928E+06
C:/temp/Job-1.odb,Step-1,Increment      1: Step Time =    1.000,"P-1-1",         18241,   49.6177E-03,   20.5387E-03,            0.,NA,NA,"",   1.03601E+06,   1.04010E+06,   1.04010E+06
C:/temp/Job-1.odb,Step-1,Increment      1: Step Time =    1.000,"P-1-1",         18242,   165.139E-03,   108.859E-03,            0.,NA,NA,"",   949.596E+03,   959.388E+03,   959.388E+03
C:/temp/Job-1.odb,Step-1,Increment      1: Step Time =    1.000,"P-1-1",         18243,   116.809E-03,   20.3530E-03,            0.,NA,NA,"",   991.554E+03,   994.718E+03,   994.718E+03
C:/temp/Job-1.odb,Step-1,Increment      1: Step Time =    1.000,"P-1-1",         18244,   164.783E-03,   35.2966E-03,            0.,NA,NA,"",   1.02263E+06,   1.01714E+06,   1.01714E+06
C:/temp/Job-1.odb,Step-1,Increment      1: Step Time =    1.000,"P-1-1",         18245,   66.5432E-03,   66.4121E-03,            0.,NA,NA,"",   1.10246E+06,   1.09201E+06,   1.09201E+06
C:/temp/Job-1.odb,Step-1,Increment      1: Step Time =    1.000,"P-1-1",         18246,   121.148E-03,   60.1832E-03,            0.,NA,NA,"",   1.13090E+06,   1.12258E+06,   1.12258E+06
C:/temp/Job-1.odb,Step-1,Increment      1: Step Time =    1.000,"P-1-1",         18247,   78.2005E-03,   24.3011E-03,            0.,NA,NA,"",   1.01062E+06,   1.01531E+06,   1.01531E+06
C:/temp/Job-1.odb,Step-1,Increment      1: Step Time =    1.000,"P-1-1",         18248,   68.8320E-03,   164.651E-03,            0.,NA,NA,"",   1.04906E+06,   1.05341E+06,   1.05341E+06
C:/temp/Job-1.odb,Step-1,Increment      1: Step Time =    1.000,"P-1-1",         18249,   102.822E-03,   165.444E-03,            0.,NA,NA,"",   1.00773E+06,   1.02449E+06,   1.02449E+06
C:/temp/Job-1.odb,Step-1,Increment      1: Step Time =    1.000,"P-1-1",         18250,   172.943E-03,   59.0498E-03,            0.,NA,NA,"",   1.01344E+06,   1.01209E+06,   1.01209E+06
C:/temp/Job-1.odb,Step-1,Increment      1: Step Time =    1.000,"P-1-1",         18251,   166.557E-03,   47.0754E-03,            0.,NA,NA,"",   1.02775E+06,   1.02112E+06,   1.02112E+06
C:/temp/Job-1.odb,Step-1,Increment      1: Step Time =    1.000,"P-1-1",         18252,   104.328E-03,   147.703E-03,            0.,NA,NA,"",   1.03122E+06,   1.06963E+06,   1.06963E+06
C:/temp/Job-1.odb,Step-1,Increment      1: Step Time =    1.000,"P-1-1",         18253,   40.8484E-03,   167.518E-03,            0.,NA,NA,"",   1.04148E+06,   1.06076E+06,   1.06076E+06
C:/temp/Job-1.odb,Step-1,Increment      1: Step Time =    1.000,"P-1-1",         18254,   165.686E-03,   148.179E-03,            0.,NA,NA,"",   1.02989E+06,   1.02243E+06,   1.02243E+06
C:/temp/Job-1.odb,Step-1,Increment      1: Step Time =    1.000,"P-1-1",         18255,   34.1864E-03,   23.6319E-03,            0.,NA,NA,"",   1.05132E+06,   1.07027E+06,   1.07027E+06
C:/temp/Job-1.odb,Step-1,Increment      1: Step Time =    1.000,"P-1-1",         18256,   165.844E-03,   150.331E-03,            0.,NA,NA,"",   1.02928E+06,   1.02211E+06,   1.02211E+06
C:/temp/Job-1.odb,Step-1,Increment      1: Step Time =    1.000,"P-1-1",         18257,   162.924E-03,   83.0651E-03,            0.,NA,NA,"",   971.625E+03,   974.577E+03,   974.577E+03
C:/temp/Job-1.odb,Step-1,Increment      1: Step Time =    1.000,"P-1-1",         18258,   159.054E-03,   164.993E-03,            0.,NA,NA,"",   1.02883E+06,   1.02159E+06,   1.02159E+06
C:/temp/Job-1.odb,Step-1,Increment      1: Step Time =    1.000,"P-1-1",         18259,   165.897E-03,   95.9128E-03,            0.,NA,NA,"",   943.449E+03,   955.393E+03,   955.393E+03
C:/temp/Job-1.odb,Step-1,Increment      1: Step Time =    1.000,"P-1-1",         18260,   150.096E-03,   90.8517E-03,            0.,NA,NA,"",   911.793E+03,   915.607E+03,   915.607E+03
C:/temp/Job-1.odb,Step-1,Increment      1: Step Time =    1.000,"P-1-1",         18261,   20.5075E-03,   79.4867E-03,            0.,NA,NA,"",   835.789E+03,   920.001E+03,   920.001E+03
C:/temp/Job-1.odb,Step-1,Increment      1: Step Time =    1.000,"P-1-1",         18262,   20.6165E-03,   77.6993E-03,            0.,NA,NA,"",   840.941E+03,   924.472E+03,   924.472E+03
C:/temp/Job-1.odb,Step-1,Increment      1: Step Time =    1.000,"P-1-1",         18263,   21.1438E-03,   76.9774E-03,            0.,NA,NA,"",   844.126E+03,   926.839E+03,   926.839E+03
C:/temp/Job-1.odb,Step-1,Increment      1: Step Time =    1.000,"P-1-1",         18264,   50.5770E-03,   96.0363E-03,            0.,NA,NA,"",   799.592E+03,   854.845E+03,   854.845E+03
C:/temp/Job-1.odb,Step-1,Increment      1: Step Time =    1.000,"P-1-1",         18265,   21.5614E-03,   75.9780E-03,            0.,NA,NA,"",   847.854E+03,   929.837E+03,   929.837E+03
C:/temp/Job-1.odb,Step-1,Increment      1: Step Time =    1.000,"P-1-1",         18266,   92.3398E-03,   165.252E-03,            0.,NA,NA,"",   1.01267E+06,   1.02937E+06,   1.02937E+06
C:/temp/Job-1.odb,Step-1,Increment      1: Step Time =    1.000,"P-1-1",         18267,   122.271E-03,   28.0089E-03,            0.,NA,NA,"",   1.01436E+06,   1.01640E+06,   1.01640E+06
C:/temp/Job-1.odb,Step-1,Increment      1: Step Time =    1.000,"P-1-1",         18268,   110.318E-03,   165.205E-03,            0.,NA,NA,"",   1.01418E+06,   1.02721E+06,   1.02721E+06
C:/temp/Job-1.odb,Step-1,Increment      1: Step Time =    1.000,"P-1-1",         18269,   146.725E-03,   23.2783E-03,            0.,NA,NA,"",   1.01566E+06,   1.01124E+06,   1.01124E+06
C:/temp/Job-1.odb,Step-1,Increment      1: Step Time =    1.000,"P-1-1",         18270,   21.2698E-03,   64.1805E-03,            0.,NA,NA,"",   884.354E+03,   962.426E+03,   962.426E+03
C:/temp/Job-1.odb,Step-1,Increment      1: Step Time =    1.000,"P-1-1",         18271,   149.034E-03,   167.315E-03,            0.,NA,NA,"",   1.03390E+06,   1.02577E+06,   1.02577E+06
C:/temp/Job-1.odb,Step-1,Increment      1: Step Time =    1.000,"P-1-1",         18272,   149.027E-03,   166.463E-03,            0.,NA,NA,"",   1.03526E+06,   1.02683E+06,   1.02683E+06
C:/temp/Job-1.odb,Step-1,Increment      1: Step Time =    1.000,"P-1-1",         18273,   137.645E-03,   21.7854E-03,            0.,NA,NA,"",   1.01071E+06,   1.00767E+06,   1.00767E+06
C:/temp/Job-1.odb,Step-1,Increment      1: Step Time =    1.000,"P-1-1",         18274,   44.1649E-03,   165.556E-03,            0.,NA,NA,"",   1.04293E+06,   1.05944E+06,   1.05944E+06
C:/temp/Job-1.odb,Step-1,Increment      1: Step Time =    1.000,"P-1-1",         18275,   45.7529E-03,   165.244E-03,            0.,NA,NA,"",   1.04430E+06,   1.05930E+06,   1.05930E+06
C:/temp/Job-1.odb,Step-1,Increment      1: Step Time =    1.000,"P-1-1",         18276,   162.899E-03,   71.2091E-03,            0.,NA,NA,"",   1.01094E+06,   1.00535E+06,   1.00535E+06
C:/temp/Job-1.odb,Step-1,Increment      1: Step Time =    1.000,"P-1-1",         18277,   42.5263E-03,   165.603E-03,            0.,NA,NA,"",   1.04101E+06,   1.05965E+06,   1.05965E+06
C:/temp/Job-1.odb,Step-1,Increment      1: Step Time =    1.000,"P-1-1",         18278,   48.4403E-03,   21.4261E-03,            0.,NA,NA,"",   1.03895E+06,   1.04402E+06,   1.04402E+06
C:/temp/Job-1.odb,Step-1,Increment      1: Step Time =    1.000,"P-1-1",         18279,   57.3477E-03,   73.5689E-03,            0.,NA,NA,"",   1.00443E+06,   1.01451E+06,   1.01451E+06
C:/temp/Job-1.odb,Step-1,Increment      1: Step Time =    1.000,"P-1-1",         18280,   110.547E-03,   21.8586E-03,            0.,NA,NA,"",   989.990E+03,   995.631E+03,   995.631E+03
C:/temp/Job-1.odb,Step-1,Increment      1: Step Time =    1.000,"P-1-1",         18281,   95.0353E-03,   26.4438E-03,            0.,NA,NA,"",   996.969E+03,   1.00754E+06,   1.00754E+06
C:/temp/Job-1.odb,Step-1,Increment      1: Step Time =    1.000,"P-1-1",         18282,   24.0285E-03,   88.9561E-03,            0.,NA,NA,"",   821.445E+03,   903.858E+03,   903.858E+03
C:/temp/Job-1.odb,Step-1,Increment      1: Step Time =    1.000,"P-1-1",         18283,   77.1534E-03,   28.5707E-03,            0.,NA,NA,"",   1.02258E+06,   1.02841E+06,   1.02841E+06
C:/temp/Job-1.odb,Step-1,Increment      1: Step Time =    1.000,"P-1-1",         18284,   46.9369E-03,   23.7073E-03,            0.,NA,NA,"",   1.04279E+06,   1.04986E+06,   1.04986E+06
C:/temp/Job-1.odb,Step-1,Increment      1: Step Time =    1.000,"P-1-1",         18285,   64.4771E-03,   30.0002E-03,            0.,NA,NA,"",   1.04101E+06,   1.04421E+06,   1.04421E+06
C:/temp/Job-1.odb,Step-1,Increment      1: Step Time =    1.000,"P-1-1",         18286,   162.640E-03,   73.7230E-03,            0.,NA,NA,"",   1.00400E+06,   999.645E+03,   999.645E+03
C:/temp/Job-1.odb,Step-1,Increment      1: Step Time =    1.000,"P-1-1",         18287,   166.989E-03,   55.9460E-03,            0.,NA,NA,"",   1.02607E+06,   1.01969E+06,   1.01969E+06
C:/temp/Job-1.odb,Step-1,Increment      1: Step Time =    1.000,"P-1-1",         18288,   166.263E-03,   158.656E-03,            0.,NA,NA,"",   1.02563E+06,   1.01954E+06,   1.01954E+06
C:/temp/Job-1.odb,Step-1,Increment      1: Step Time =    1.000,"P-1-1",         18289,   24.6927E-03,   126.155E-03,            0.,NA,NA,"",   863.879E+03,   940.638E+03,   940.638E+03
C:/temp/Job-1.odb,Step-1,Increment      1: Step Time =    1.000,"P-1-1",         18290,   166.904E-03,   124.159E-03,            0.,NA,NA,"",   993.365E+03,   994.156E+03,   994.156E+03
C:/temp/Job-1.odb,Step-1,Increment      1: Step Time =    1.000,"P-1-1",         18291,   107.688E-03,   28.7725E-03,            0.,NA,NA,"",   1.00137E+06,   1.01176E+06,   1.01176E+06
C:/temp/Job-1.odb,Step-1,Increment      1: Step Time =    1.000,"P-1-1",         18292,   92.1286E-03,   52.0259E-03,            0.,NA,NA,"",   1.04005E+06,   1.07538E+06,   1.07538E+06
C:/temp/Job-1.odb,Step-1,Increment      1: Step Time =    1.000,"P-1-1",         18293,   95.1988E-03,   49.9185E-03,            0.,NA,NA,"",   1.02858E+06,   1.06442E+06,   1.06442E+06
C:/temp/Job-1.odb,Step-1,Increment      1: Step Time =    1.000,"P-1-1",         18294,   146.990E-03,   71.1182E-03,            0.,NA,NA,"",   1.05584E+06,   1.03055E+06,   1.03055E+06
C:/temp/Job-1.odb,Step-1,Increment      1: Step Time =    1.000,"P-1-1",         18295,   109.745E-03,   146.402E-03,            0.,NA,NA,"",   1.05145E+06,   1.08125E+06,   1.08125E+06
C:/temp/Job-1.odb,Step-1,Increment      1: Step Time =    1.000,"P-1-1",         18296,   108.159E-03,   147.978E-03,            0.,NA,NA,"",   1.04150E+06,   1.07308E+06,   1.07308E+06
C:/temp/Job-1.odb,Step-1,Increment      1: Step Time =    1.000,"P-1-1",         18297,   107.148E-03,   149.007E-03,            0.,NA,NA,"",   1.03623E+06,   1.06838E+06,   1.06838E+06
C:/temp/Job-1.odb,Step-1,Increment      1: Step Time =    1.000,"P-1-1",         18298,   59.6286E-03,   32.3572E-03,            0.,NA,NA,"",   1.04803E+06,   1.05235E+06,   1.05235E+06
C:/temp/Job-1.odb,Step-1,Increment      1: Step Time =    1.000,"P-1-1",         18299,   47.3572E-03,   164.655E-03,            0.,NA,NA,"",   1.04570E+06,   1.05923E+06,   1.05923E+06
C:/temp/Job-1.odb,Step-1,Increment      1: Step Time =    1.000,"P-1-1",         18300,   55.3379E-03,   25.5486E-03,            0.,NA,NA,"",   1.03927E+06,   1.04303E+06,   1.04303E+06
C:/temp/Job-1.odb,Step-1,Increment      1: Step Time =    1.000,"P-1-1",         18301,   53.6535E-03,   24.6710E-03,            0.,NA,NA,"",   1.03913E+06,   1.04332E+06,   1.04332E+06
C:/temp/Job-1.odb,Step-1,Increment      1: Step Time =    1.000,"P-1-1",         18302,   24.8023E-03,   93.0893E-03,            0.,NA,NA,"",   816.004E+03,   898.428E+03,   898.428E+03
C:/temp/Job-1.odb,Step-1,Increment      1: Step Time =    1.000,"P-1-1",         18303,   25.6575E-03,   92.6783E-03,            0.,NA,NA,"",   817.427E+03,   898.987E+03,   898.987E+03
C:/temp/Job-1.odb,Step-1,Increment      1: Step Time =    1.000,"P-1-1",         18304,   25.7912E-03,   74.0426E-03,            0.,NA,NA,"",   866.256E+03,   941.495E+03,   941.495E+03
C:/temp/Job-1.odb,Step-1,Increment      1: Step Time =    1.000,"P-1-1",         18305,   130.554E-03,   28.1023E-03,            0.,NA,NA,"",   1.02185E+06,   1.01952E+06,   1.01952E+06
C:/temp/Job-1.odb,Step-1,Increment      1: Step Time =    1.000,"P-1-1",         18306,   27.2343E-03,   27.4740E-03,            0.,NA,NA,"",   1.03970E+06,   1.07562E+06,   1.07562E+06
C:/temp/Job-1.odb,Step-1,Increment      1: Step Time =    1.000,"P-1-1",         18307,   27.2415E-03,   27.9642E-03,            0.,NA,NA,"",   1.03909E+06,   1.07527E+06,   1.07527E+06
C:/temp/Job-1.odb,Step-1,Increment      1: Step Time =    1.000,"P-1-1",         18308,   136.645E-03,   131.012E-03,            0.,NA,NA,"",   1.11841E+06,   1.07822E+06,   1.07822E+06
C:/temp/Job-1.odb,Step-1,Increment      1: Step Time =    1.000,"P-1-1",         18309,   136.068E-03,   132.196E-03,            0.,NA,NA,"",   1.12305E+06,   1.08356E+06,   1.08356E+06
C:/temp/Job-1.odb,Step-1,Increment      1: Step Time =    1.000,"P-1-1",         18310,   149.958E-03,   110.178E-03,            0.,NA,NA,"",   918.355E+03,   920.647E+03,   920.647E+03
C:/temp/Job-1.odb,Step-1,Increment      1: Step Time =    1.000,"P-1-1",         18311,   112.284E-03,   18.0287E-03,            0.,NA,NA,"",   982.631E+03,   986.269E+03,   986.269E+03
C:/temp/Job-1.odb,Step-1,Increment      1: Step Time =    1.000,"P-1-1",         18312,   163.344E-03,   120.590E-03,            0.,NA,NA,"",   984.376E+03,   984.759E+03,   984.759E+03
C:/temp/Job-1.odb,Step-1,Increment      1: Step Time =    1.000,"P-1-1",         18313,   48.5707E-03,   91.1389E-03,            0.,NA,NA,"",   827.715E+03,   881.434E+03,   881.434E+03
C:/temp/Job-1.odb,Step-1,Increment      1: Step Time =    1.000,"P-1-1",         18314,   48.1053E-03,   90.1360E-03,            0.,NA,NA,"",   833.534E+03,   886.699E+03,   886.699E+03
C:/temp/Job-1.odb,Step-1,Increment      1: Step Time =    1.000,"P-1-1",         18315,   48.8730E-03,   87.1589E-03,            0.,NA,NA,"",   854.375E+03,    902.97E+03,    902.97E+03
C:/temp/Job-1.odb,Step-1,Increment      1: Step Time =    1.000,"P-1-1",         18316,   23.1784E-03,   110.843E-03,            0.,NA,NA,"",   819.777E+03,   903.146E+03,   903.146E+03
C:/temp/Job-1.odb,Step-1,Increment      1: Step Time =    1.000,"P-1-1",         18317,   101.081E-03,   146.299E-03,            0.,NA,NA,"",   1.02855E+06,   1.07251E+06,   1.07251E+06
C:/temp/Job-1.odb,Step-1,Increment      1: Step Time =    1.000,"P-1-1",         18318,   69.7242E-03,   139.969E-03,            0.,NA,NA,"",   1.11022E+06,   1.10487E+06,   1.10487E+06
C:/temp/Job-1.odb,Step-1,Increment      1: Step Time =    1.000,"P-1-1",         18319,   67.1616E-03,   139.926E-03,            0.,NA,NA,"",   1.10159E+06,   1.09688E+06,   1.09688E+06
C:/temp/Job-1.odb,Step-1,Increment      1: Step Time =    1.000,"P-1-1",         18320,   64.0475E-03,   135.471E-03,            0.,NA,NA,"",   1.08829E+06,   1.08294E+06,   1.08294E+06
C:/temp/Job-1.odb,Step-1,Increment      1: Step Time =    1.000,"P-1-1",         18321,   129.520E-03,   162.997E-03,            0.,NA,NA,"",   1.04554E+06,   1.04139E+06,   1.04139E+06
C:/temp/Job-1.odb,Step-1,Increment      1: Step Time =    1.000,"P-1-1",         18322,   23.5463E-03,   81.6376E-03,            0.,NA,NA,"",   837.275E+03,   918.417E+03,   918.417E+03
C:/temp/Job-1.odb,Step-1,Increment      1: Step Time =    1.000,"P-1-1",         18323,   160.930E-03,   164.043E-03,            0.,NA,NA,"",   1.02787E+06,   1.02090E+06,   1.02090E+06
C:/temp/Job-1.odb,Step-1,Increment      1: Step Time =    1.000,"P-1-1",         18324,   163.004E-03,   164.164E-03,            0.,NA,NA,"",   1.02541E+06,   1.01914E+06,   1.01914E+06
C:/temp/Job-1.odb,Step-1,Increment      1: Step Time =    1.000,"P-1-1",         18325,   52.8412E-03,   23.4060E-03,            0.,NA,NA,"",   1.03762E+06,   1.04166E+06,   1.04166E+06
C:/temp/Job-1.odb,Step-1,Increment      1: Step Time =    1.000,"P-1-1",         18326,   120.578E-03,   53.7045E-03,            0.,NA,NA,"",   1.09336E+06,   1.09381E+06,   1.09381E+06
C:/temp/Job-1.odb,Step-1,Increment      1: Step Time =    1.000,"P-1-1",         18327,   83.4014E-03,   55.5455E-03,            0.,NA,NA,"",   1.08481E+06,   1.10366E+06,   1.10366E+06
C:/temp/Job-1.odb,Step-1,Increment      1: Step Time =    1.000,"P-1-1",         18328,   84.6819E-03,   53.9631E-03,            0.,NA,NA,"",   1.07394E+06,   1.09553E+06,   1.09553E+06
C:/temp/Job-1.odb,Step-1,Increment      1: Step Time =    1.000,"P-1-1",         18329,   151.336E-03,   86.9880E-03,            0.,NA,NA,"",   942.649E+03,   941.372E+03,   941.372E+03
C:/temp/Job-1.odb,Step-1,Increment      1: Step Time =    1.000,"P-1-1",         18330,   150.818E-03,   84.8908E-03,            0.,NA,NA,"",   956.262E+03,   951.607E+03,   951.607E+03
C:/temp/Job-1.odb,Step-1,Increment      1: Step Time =    1.000,"P-1-1",         18331,   149.816E-03,   77.1673E-03,            0.,NA,NA,"",   1.01354E+06,   996.909E+03,   996.909E+03
C:/temp/Job-1.odb,Step-1,Increment      1: Step Time =    1.000,"P-1-1",         18332,   143.655E-03,   128.743E-03,            0.,NA,NA,"",   1.07142E+06,   1.04073E+06,   1.04073E+06
C:/temp/Job-1.odb,Step-1,Increment      1: Step Time =    1.000,"P-1-1",         18333,   82.2612E-03,   150.053E-03,            0.,NA,NA,"",   1.06689E+06,   1.08339E+06,   1.08339E+06
C:/temp/Job-1.odb,Step-1,Increment      1: Step Time =    1.000,"P-1-1",         18334,   92.6400E-03,   147.067E-03,            0.,NA,NA,"",   1.04001E+06,   1.07766E+06,   1.07766E+06
C:/temp/Job-1.odb,Step-1,Increment      1: Step Time =    1.000,"P-1-1",         18335,   97.6627E-03,   145.971E-03,            0.,NA,NA,"",   1.03006E+06,   1.07478E+06,   1.07478E+06
C:/temp/Job-1.odb,Step-1,Increment      1: Step Time =    1.000,"P-1-1",         18336,   122.080E-03,   148.495E-03,            0.,NA,NA,"",   1.08687E+06,   1.08535E+06,   1.08535E+06
C:/temp/Job-1.odb,Step-1,Increment      1: Step Time =    1.000,"P-1-1",         18337,   65.8123E-03,   66.8942E-03,            0.,NA,NA,"",   1.09742E+06,   1.08752E+06,   1.08752E+06
C:/temp/Job-1.odb,Step-1,Increment      1: Step Time =    1.000,"P-1-1",         18338,   149.195E-03,   124.929E-03,            0.,NA,NA,"",   1.02759E+06,   1.00812E+06,   1.00812E+06
C:/temp/Job-1.odb,Step-1,Increment      1: Step Time =    1.000,"P-1-1",         18339,   130.760E-03,   134.446E-03,            0.,NA,NA,"",   1.14875E+06,   1.11104E+06,   1.11104E+06
C:/temp/Job-1.odb,Step-1,Increment      1: Step Time =    1.000,"P-1-1",         18340,   41.7566E-03,   25.8254E-03,            0.,NA,NA,"",   1.04683E+06,   1.05953E+06,   1.05953E+06
C:/temp/Job-1.odb,Step-1,Increment      1: Step Time =    1.000,"P-1-1",         18341,   24.0176E-03,   51.9723E-03,            0.,NA,NA,"",   937.682E+03,   1.00437E+06,   1.00437E+06
C:/temp/Job-1.odb,Step-1,Increment      1: Step Time =    1.000,"P-1-1",         18342,   24.4197E-03,   155.132E-03,            0.,NA,NA,"",   964.739E+03,   1.02581E+06,   1.02581E+06
C:/temp/Job-1.odb,Step-1,Increment      1: Step Time =    1.000,"P-1-1",         18343,   35.2363E-03,   162.669E-03,            0.,NA,NA,"",   1.02339E+06,   1.05570E+06,   1.05570E+06
C:/temp/Job-1.odb,Step-1,Increment      1: Step Time =    1.000,"P-1-1",         18344,   58.2672E-03,   166.653E-03,            0.,NA,NA,"",   1.04982E+06,   1.05479E+06,   1.05479E+06
C:/temp/Job-1.odb,Step-1,Increment      1: Step Time =    1.000,"P-1-1",         18345,   62.3861E-03,   164.291E-03,            0.,NA,NA,"",   1.05302E+06,   1.05723E+06,   1.05723E+06
C:/temp/Job-1.odb,Step-1,Increment      1: Step Time =    1.000,"P-1-1",         18346,   146.595E-03,   165.855E-03,            0.,NA,NA,"",   1.03825E+06,   1.02943E+06,   1.02943E+06
C:/temp/Job-1.odb,Step-1,Increment      1: Step Time =    1.000,"P-1-1",         18347,   136.769E-03,   25.1598E-03,            0.,NA,NA,"",   1.01803E+06,   1.01431E+06,   1.01431E+06
C:/temp/Job-1.odb,Step-1,Increment      1: Step Time =    1.000,"P-1-1",         18348,   72.6441E-03,   163.724E-03,            0.,NA,NA,"",   1.04720E+06,   1.05288E+06,   1.05288E+06
C:/temp/Job-1.odb,Step-1,Increment      1: Step Time =    1.000,"P-1-1",         18349,   118.298E-03,   26.1101E-03,            0.,NA,NA,"",   1.00594E+06,   1.00993E+06,   1.00993E+06
C:/temp/Job-1.odb,Step-1,Increment      1: Step Time =    1.000,"P-1-1",         18350,   171.046E-03,   59.2571E-03,            0.,NA,NA,"",   1.01644E+06,   1.01370E+06,   1.01370E+06
C:/temp/Job-1.odb,Step-1,Increment      1: Step Time =    1.000,"P-1-1",         18351,   23.9108E-03,   65.4597E-03,            0.,NA,NA,"",   889.763E+03,   963.927E+03,   963.927E+03
C:/temp/Job-1.odb,Step-1,Increment      1: Step Time =    1.000,"P-1-1",         18352,   58.4083E-03,   123.537E-03,            0.,NA,NA,"",   991.324E+03,   1.00066E+06,   1.00066E+06
C:/temp/Job-1.odb,Step-1,Increment      1: Step Time =    1.000,"P-1-1",         18353,   45.8486E-03,   114.383E-03,            0.,NA,NA,"",   861.835E+03,   913.541E+03,   913.541E+03
C:/temp/Job-1.odb,Step-1,Increment      1: Step Time =    1.000,"P-1-1",         18354,   27.7035E-03,   102.668E-03,            0.,NA,NA,"",   815.263E+03,   895.173E+03,   895.173E+03
C:/temp/Job-1.odb,Step-1,Increment      1: Step Time =    1.000,"P-1-1",         18355,   165.930E-03,   137.561E-03,            0.,NA,NA,"",   1.02219E+06,   1.01612E+06,   1.01612E+06
C:/temp/Job-1.odb,Step-1,Increment      1: Step Time =    1.000,"P-1-1",         18356,   160.394E-03,   114.623E-03,            0.,NA,NA,"",   960.764E+03,   964.036E+03,   964.036E+03
C:/temp/Job-1.odb,Step-1,Increment      1: Step Time =    1.000,"P-1-1",         18357,   91.8366E-03,   161.561E-03,            0.,NA,NA,"",   1.01897E+06,   1.03861E+06,   1.03861E+06
C:/temp/Job-1.odb,Step-1,Increment      1: Step Time =    1.000,"P-1-1",         18358,   29.2114E-03,   41.9637E-03,            0.,NA,NA,"",   992.543E+03,   1.04090E+06,   1.04090E+06
C:/temp/Job-1.odb,Step-1,Increment      1: Step Time =    1.000,"P-1-1",         18359,   143.425E-03,   25.1978E-03,            0.,NA,NA,"",   1.01963E+06,   1.01475E+06,   1.01475E+06
C:/temp/Job-1.odb,Step-1,Increment      1: Step Time =    1.000,"P-1-1",         18360,   142.257E-03,   25.7882E-03,            0.,NA,NA,"",   1.02089E+06,   1.01592E+06,   1.01592E+06
C:/temp/Job-1.odb,Step-1,Increment      1: Step Time =    1.000,"P-1-1",         18361,   39.9154E-03,   25.2823E-03,            0.,NA,NA,"",   1.04776E+06,   1.06155E+06,   1.06155E+06
C:/temp/Job-1.odb,Step-1,Increment      1: Step Time =    1.000,"P-1-1",         18362,   84.4744E-03,   27.0739E-03,            0.,NA,NA,"",   1.00906E+06,   1.01713E+06,   1.01713E+06
C:/temp/Job-1.odb,Step-1,Increment      1: Step Time =    1.000,"P-1-1",         18363,   89.3032E-03,   31.9033E-03,            0.,NA,NA,"",   1.01208E+06,   1.02518E+06,   1.02518E+06
C:/temp/Job-1.odb,Step-1,Increment      1: Step Time =    1.000,"P-1-1",         18364,   88.0033E-03,   32.3311E-03,            0.,NA,NA,"",   1.01466E+06,   1.02741E+06,   1.02741E+06
C:/temp/Job-1.odb,Step-1,Increment      1: Step Time =    1.000,"P-1-1",         18365,   114.177E-03,   20.2968E-03,            0.,NA,NA,"",   989.258E+03,   993.178E+03,   993.178E+03
C:/temp/Job-1.odb,Step-1,Increment      1: Step Time =    1.000,"P-1-1",         18366,   84.2244E-03,   25.3117E-03,            0.,NA,NA,"",   1.00535E+06,   1.01240E+06,   1.01240E+06
C:/temp/Job-1.odb,Step-1,Increment      1: Step Time =    1.000,"P-1-1",         18367,   21.2269E-03,   147.787E-03,            0.,NA,NA,"",   925.479E+03,   997.915E+03,   997.915E+03
C:/temp/Job-1.odb,Step-1,Increment      1: Step Time =    1.000,"P-1-1",         18368,   38.3440E-03,   166.095E-03,            0.,NA,NA,"",   1.03661E+06,   1.06050E+06,   1.06050E+06
C:/temp/Job-1.odb,Step-1,Increment      1: Step Time =    1.000,"P-1-1",         18369,   24.2582E-03,   77.7798E-03,            0.,NA,NA,"",   849.975E+03,   928.844E+03,   928.844E+03
C:/temp/Job-1.odb,Step-1,Increment      1: Step Time =    1.000,"P-1-1",         18370,   23.0900E-03,   78.6576E-03,            0.,NA,NA,"",   844.372E+03,   925.134E+03,   925.134E+03
C:/temp/Job-1.odb,Step-1,Increment      1: Step Time =    1.000,"P-1-1",         18371,   164.220E-03,   144.338E-03,            0.,NA,NA,"",   1.03176E+06,   1.02325E+06,   1.02325E+06
C:/temp/Job-1.odb,Step-1,Increment      1: Step Time =    1.000,"P-1-1",         18372,   72.5157E-03,   143.911E-03,            0.,NA,NA,"",   1.10333E+06,   1.10322E+06,   1.10322E+06
C:/temp/Job-1.odb,Step-1,Increment      1: Step Time =    1.000,"P-1-1",         18373,   57.8019E-03,   32.0167E-03,            0.,NA,NA,"",   1.04793E+06,   1.05275E+06,   1.05275E+06
C:/temp/Job-1.odb,Step-1,Increment      1: Step Time =    1.000,"P-1-1",         18374,   62.0986E-03,   127.393E-03,            0.,NA,NA,"",   1.04930E+06,   1.04511E+06,   1.04511E+06
C:/temp/Job-1.odb,Step-1,Increment      1: Step Time =    1.000,"P-1-1",         18375,   109.075E-03,   47.4612E-03,            0.,NA,NA,"",   1.03474E+06,   1.05950E+06,   1.05950E+06
C:/temp/Job-1.odb,Step-1,Increment      1: Step Time =    1.000,"P-1-1",         18376,   109.506E-03,   45.9674E-03,            0.,NA,NA,"",   1.03283E+06,   1.05560E+06,   1.05560E+06
C:/temp/Job-1.odb,Step-1,Increment      1: Step Time =    1.000,"P-1-1",         18377,   26.7332E-03,   43.6096E-03,            0.,NA,NA,"",   977.669E+03,   1.03282E+06,   1.03282E+06
C:/temp/Job-1.odb,Step-1,Increment      1: Step Time =    1.000,"P-1-1",         18378,   48.9702E-03,   105.420E-03,            0.,NA,NA,"",   809.586E+03,   865.733E+03,   865.733E+03
C:/temp/Job-1.odb,Step-1,Increment      1: Step Time =    1.000,"P-1-1",         18379,   112.329E-03,   164.185E-03,            0.,NA,NA,"",   1.01885E+06,   1.03087E+06,   1.03087E+06
C:/temp/Job-1.odb,Step-1,Increment      1: Step Time =    1.000,"P-1-1",         18380,   70.4944E-03,   32.4643E-03,            0.,NA,NA,"",   1.04100E+06,   1.04537E+06,   1.04537E+06
C:/temp/Job-1.odb,Step-1,Increment      1: Step Time =    1.000,"P-1-1",         18381,   18.5637E-03,   46.8109E-03,            0.,NA,NA,"",   933.206E+03,   1.00831E+06,   1.00831E+06
C:/temp/Job-1.odb,Step-1,Increment      1: Step Time =    1.000,"P-1-1",         18382,   58.5295E-03,   125.464E-03,            0.,NA,NA,"",   1.00640E+06,   1.01370E+06,   1.01370E+06
C:/temp/Job-1.odb,Step-1,Increment      1: Step Time =    1.000,"P-1-1",         18383,   68.4965E-03,   32.9152E-03,            0.,NA,NA,"",   1.04380E+06,   1.04773E+06,   1.04773E+06
C:/temp/Job-1.odb,Step-1,Increment      1: Step Time =    1.000,"P-1-1",         18384,   29.1487E-03,   27.7566E-03,            0.,NA,NA,"",   1.04086E+06,   1.07311E+06,   1.07311E+06
C:/temp/Job-1.odb,Step-1,Increment      1: Step Time =    1.000,"P-1-1",         18385,   120.967E-03,   27.4896E-03,            0.,NA,NA,"",   1.01180E+06,   1.01452E+06,   1.01452E+06
C:/temp/Job-1.odb,Step-1,Increment      1: Step Time =    1.000,"P-1-1",         18386,   100.211E-03,   28.7291E-03,            0.,NA,NA,"",   999.072E+03,   1.01132E+06,   1.01132E+06
C:/temp/Job-1.odb,Step-1,Increment      1: Step Time =    1.000,"P-1-1",         18387,   151.619E-03,   164.160E-03,            0.,NA,NA,"",   1.03757E+06,   1.02837E+06,   1.02837E+06
C:/temp/Job-1.odb,Step-1,Increment      1: Step Time =    1.000,"P-1-1",         18388,   23.1691E-03,   157.533E-03,            0.,NA,NA,"",   969.199E+03,   1.03111E+06,   1.03111E+06
C:/temp/Job-1.odb,Step-1,Increment      1: Step Time =    1.000,"P-1-1",         18389,   90.6368E-03,   51.8886E-03,            0.,NA,NA,"",   1.04459E+06,   1.07740E+06,   1.07740E+06
C:/temp/Job-1.odb,Step-1,Increment      1: Step Time =    1.000,"P-1-1",         18390,   52.9181E-03,   24.3203E-03,            0.,NA,NA,"",   1.03916E+06,   1.04351E+06,   1.04351E+06
C:/temp/Job-1.odb,Step-1,Increment      1: Step Time =    1.000,"P-1-1",         18391,   50.6270E-03,   24.4385E-03,            0.,NA,NA,"",   1.04097E+06,   1.04637E+06,   1.04637E+06
C:/temp/Job-1.odb,Step-1,Increment      1: Step Time =    1.000,"P-1-1",         18392,   132.390E-03,   59.6638E-03,            0.,NA,NA,"",   1.12392E+06,   1.09633E+06,   1.09633E+06
C:/temp/Job-1.odb,Step-1,Increment      1: Step Time =    1.000,"P-1-1",         18393,   170.297E-03,   58.5272E-03,            0.,NA,NA,"",   1.01821E+06,   1.01477E+06,   1.01477E+06
C:/temp/Job-1.odb,Step-1,Increment      1: Step Time =    1.000,"P-1-1",         18394,   147.111E-03,   103.844E-03,            0.,NA,NA,"",   865.809E+03,   875.809E+03,   875.809E+03
C:/temp/Job-1.odb,Step-1,Increment      1: Step Time =    1.000,"P-1-1",         18395,   64.5618E-03,   65.9001E-03,            0.,NA,NA,"",   1.08991E+06,   1.08283E+06,   1.08283E+06
C:/temp/Job-1.odb,Step-1,Increment      1: Step Time =    1.000,"P-1-1",         18396,   111.773E-03,   49.5367E-03,            0.,NA,NA,"",   1.04727E+06,   1.06903E+06,   1.06903E+06
C:/temp/Job-1.odb,Step-1,Increment      1: Step Time =    1.000,"P-1-1",         18397,   72.2322E-03,   141.292E-03,            0.,NA,NA,"",   1.11326E+06,   1.10992E+06,   1.10992E+06
C:/temp/Job-1.odb,Step-1,Increment      1: Step Time =    1.000,"P-1-1",         18398,   99.0972E-03,   145.615E-03,            0.,NA,NA,"",   1.02935E+06,   1.07520E+06,   1.07520E+06
C:/temp/Job-1.odb,Step-1,Increment      1: Step Time =    1.000,"P-1-1",         18399,   110.382E-03,   47.7546E-03,            0.,NA,NA,"",   1.03896E+06,   1.06189E+06,   1.06189E+06
C:/temp/Job-1.odb,Step-1,Increment      1: Step Time =    1.000,"P-1-1",         18400,   64.6739E-03,   31.5750E-03,            0.,NA,NA,"",   1.04401E+06,   1.04745E+06,   1.04745E+06
C:/temp/Job-1.odb,Step-1,Increment      1: Step Time =    1.000,"P-1-1",         18401,   57.5090E-03,   27.0222E-03,            0.,NA,NA,"",   1.04019E+06,   1.04382E+06,   1.04382E+06
C:/temp/Job-1.odb,Step-1,Increment      1: Step Time =    1.000,"P-1-1",         18402,   28.9319E-03,   129.325E-03,            0.,NA,NA,"",   889.141E+03,   957.517E+03,   957.517E+03
C:/temp/Job-1.odb,Step-1,Increment      1: Step Time =    1.000,"P-1-1",         18403,   128.162E-03,   137.073E-03,            0.,NA,NA,"",   1.14688E+06,   1.11701E+06,   1.11701E+06
C:/temp/Job-1.odb,Step-1,Increment      1: Step Time =    1.000,"P-1-1",         18404,   52.1144E-03,   117.284E-03,            0.,NA,NA,"",   897.596E+03,   933.214E+03,   933.214E+03
C:/temp/Job-1.odb,Step-1,Increment      1: Step Time =    1.000,"P-1-1",         18405,   51.0312E-03,   116.522E-03,            0.,NA,NA,"",   888.068E+03,   927.228E+03,   927.228E+03
C:/temp/Job-1.odb,Step-1,Increment      1: Step Time =    1.000,"P-1-1",         18406,   80.6924E-03,   149.081E-03,            0.,NA,NA,"",   1.07451E+06,   1.08835E+06,   1.08835E+06
C:/temp/Job-1.odb,Step-1,Increment      1: Step Time =    1.000,"P-1-1",         18407,   48.1033E-03,   89.2381E-03,            0.,NA,NA,"",   839.630E+03,   891.813E+03,   891.813E+03
C:/temp/Job-1.odb,Step-1,Increment      1: Step Time =    1.000,"P-1-1",         18408,   23.6310E-03,   109.900E-03,            0.,NA,NA,"",   818.753E+03,   901.854E+03,   901.854E+03
C:/temp/Job-1.odb,Step-1,Increment      1: Step Time =    1.000,"P-1-1",         18409,   140.038E-03,   167.949E-03,            0.,NA,NA,"",   1.03538E+06,   1.02834E+06,   1.02834E+06
C:/temp/Job-1.odb,Step-1,Increment      1: Step Time =    1.000,"P-1-1",         18410,   140.682E-03,   166.939E-03,            0.,NA,NA,"",   1.03787E+06,   1.03023E+06,   1.03023E+06
C:/temp/Job-1.odb,Step-1,Increment      1: Step Time =    1.000,"P-1-1",         18411,   80.9175E-03,   161.237E-03,            0.,NA,NA,"",   1.04015E+06,   1.05165E+06,   1.05165E+06
C:/temp/Job-1.odb,Step-1,Increment      1: Step Time =    1.000,"P-1-1",         18412,   151.821E-03,   123.922E-03,            0.,NA,NA,"",   1.01436E+06,   999.561E+03,   999.561E+03
C:/temp/Job-1.odb,Step-1,Increment      1: Step Time =    1.000,"P-1-1",         18413,   65.7538E-03,   138.772E-03,            0.,NA,NA,"",   1.09683E+06,   1.09201E+06,   1.09201E+06
C:/temp/Job-1.odb,Step-1,Increment      1: Step Time =    1.000,"P-1-1",         18414,   27.6646E-03,   28.2095E-03,            0.,NA,NA,"",   1.03774E+06,   1.07367E+06,   1.07367E+06
C:/temp/Job-1.odb,Step-1,Increment      1: Step Time =    1.000,"P-1-1",         18415,   122.662E-03,   29.1997E-03,            0.,NA,NA,"",   1.01761E+06,   1.01955E+06,   1.01955E+06
C:/temp/Job-1.odb,Step-1,Increment      1: Step Time =    1.000,"P-1-1",         18416,   24.6381E-03,   110.436E-03,            0.,NA,NA,"",   821.039E+03,   902.949E+03,   902.949E+03
C:/temp/Job-1.odb,Step-1,Increment      1: Step Time =    1.000,"P-1-1",         18417,   57.6487E-03,   168.181E-03,            0.,NA,NA,"",   1.04774E+06,   1.05259E+06,   1.05259E+06
C:/temp/Job-1.odb,Step-1,Increment      1: Step Time =    1.000,"P-1-1",         18418,   124.709E-03,   161.871E-03,            0.,NA,NA,"",   1.04396E+06,   1.04367E+06,   1.04367E+06
C:/temp/Job-1.odb,Step-1,Increment      1: Step Time =    1.000,"P-1-1",         18419,   24.5549E-03,   106.440E-03,            0.,NA,NA,"",   815.011E+03,   897.793E+03,   897.793E+03
C:/temp/Job-1.odb,Step-1,Increment      1: Step Time =    1.000,"P-1-1",         18420,   22.4416E-03,   146.253E-03,            0.,NA,NA,"",   925.396E+03,   996.256E+03,   996.256E+03
C:/temp/Job-1.odb,Step-1,Increment      1: Step Time =    1.000,"P-1-1",         18421,   71.6900E-03,   163.351E-03,            0.,NA,NA,"",   1.04903E+06,   1.05434E+06,   1.05434E+06
C:/temp/Job-1.odb,Step-1,Increment      1: Step Time =    1.000,"P-1-1",         18422,   165.109E-03,   122.364E-03,            0.,NA,NA,"",   989.079E+03,   989.556E+03,   989.556E+03
C:/temp/Job-1.odb,Step-1,Increment      1: Step Time =    1.000,"P-1-1",         18423,   164.464E-03,   95.1875E-03,            0.,NA,NA,"",   940.782E+03,   952.103E+03,   952.103E+03
C:/temp/Job-1.odb,Step-1,Increment      1: Step Time =    1.000,"P-1-1",         18424,   101.847E-03,   29.2526E-03,            0.,NA,NA,"",   999.830E+03,   1.01231E+06,   1.01231E+06
C:/temp/Job-1.odb,Step-1,Increment      1: Step Time =    1.000,"P-1-1",         18425,   111.255E-03,   23.7318E-03,            0.,NA,NA,"",   994.362E+03,   1.00063E+06,   1.00063E+06
C:/temp/Job-1.odb,Step-1,Increment      1: Step Time =    1.000,"P-1-1",         18426,   77.1997E-03,   56.7649E-03,            0.,NA,NA,"",   1.10574E+06,   1.11063E+06,   1.11063E+06
C:/temp/Job-1.odb,Step-1,Increment      1: Step Time =    1.000,"P-1-1",         18427,   77.5648E-03,   55.1726E-03,            0.,NA,NA,"",   1.09806E+06,   1.10490E+06,   1.10490E+06
C:/temp/Job-1.odb,Step-1,Increment      1: Step Time =    1.000,"P-1-1",         18428,   136.535E-03,   163.942E-03,            0.,NA,NA,"",   1.04563E+06,   1.03780E+06,   1.03780E+06
C:/temp/Job-1.odb,Step-1,Increment      1: Step Time =    1.000,"P-1-1",         18429,   29.3979E-03,   166.552E-03,            0.,NA,NA,"",   1.02194E+06,   1.06120E+06,   1.06120E+06
C:/temp/Job-1.odb,Step-1,Increment      1: Step Time =    1.000,"P-1-1",         18430,   40.0354E-03,   166.527E-03,            0.,NA,NA,"",   1.03944E+06,   1.06058E+06,   1.06058E+06
C:/temp/Job-1.odb,Step-1,Increment      1: Step Time =    1.000,"P-1-1",         18431,   40.9058E-03,   165.697E-03,            0.,NA,NA,"",   1.03915E+06,   1.05993E+06,   1.05993E+06
C:/temp/Job-1.odb,Step-1,Increment      1: Step Time =    1.000,"P-1-1",         18432,   161.549E-03,   33.6801E-03,            0.,NA,NA,"",   1.02471E+06,   1.01854E+06,   1.01854E+06
C:/temp/Job-1.odb,Step-1,Increment      1: Step Time =    1.000,"P-1-1",         18433,   161.782E-03,   121.575E-03,            0.,NA,NA,"",   988.689E+03,   986.906E+03,   986.906E+03
C:/temp/Job-1.odb,Step-1,Increment      1: Step Time =    1.000,"P-1-1",         18434,   160.821E-03,   121.034E-03,            0.,NA,NA,"",   987.500E+03,   985.290E+03,   985.290E+03
C:/temp/Job-1.odb,Step-1,Increment      1: Step Time =    1.000,"P-1-1",         18435,   29.3079E-03,   26.7248E-03,            0.,NA,NA,"",   1.04433E+06,   1.07488E+06,   1.07488E+06
C:/temp/Job-1.odb,Step-1,Increment      1: Step Time =    1.000,"P-1-1",         18436,   25.4956E-03,   90.0802E-03,            0.,NA,NA,"",   821.567E+03,   902.655E+03,   902.655E+03
C:/temp/Job-1.odb,Step-1,Increment      1: Step Time =    1.000,"P-1-1",         18437,   54.5261E-03,   122.268E-03,            0.,NA,NA,"",   953.972E+03,   976.372E+03,   976.372E+03
C:/temp/Job-1.odb,Step-1,Increment      1: Step Time =    1.000,"P-1-1",         18438,   53.3624E-03,   122.139E-03,            0.,NA,NA,"",   945.518E+03,   971.141E+03,   971.141E+03
C:/temp/Job-1.odb,Step-1,Increment      1: Step Time =    1.000,"P-1-1",         18439,   83.0989E-03,   53.9532E-03,            0.,NA,NA,"",   1.07906E+06,   1.09710E+06,   1.09710E+06
C:/temp/Job-1.odb,Step-1,Increment      1: Step Time =    1.000,"P-1-1",         18440,   54.0643E-03,   26.3172E-03,            0.,NA,NA,"",   1.04134E+06,   1.04599E+06,   1.04599E+06
C:/temp/Job-1.odb,Step-1,Increment      1: Step Time =    1.000,"P-1-1",         18441,   24.8785E-03,   142.873E-03,            0.,NA,NA,"",   922.768E+03,   990.818E+03,   990.818E+03
C:/temp/Job-1.odb,Step-1,Increment      1: Step Time =    1.000,"P-1-1",         18442,   25.3611E-03,   111.089E-03,            0.,NA,NA,"",   823.424E+03,   904.434E+03,   904.434E+03
C:/temp/Job-1.odb,Step-1,Increment      1: Step Time =    1.000,"P-1-1",         18443,   166.147E-03,   45.6180E-03,            0.,NA,NA,"",   1.02784E+06,   1.02116E+06,   1.02116E+06
C:/temp/Job-1.odb,Step-1,Increment      1: Step Time =    1.000,"P-1-1",         18444,   163.265E-03,   161.488E-03,            0.,NA,NA,"",   1.02759E+06,   1.02079E+06,   1.02079E+06
C:/temp/Job-1.odb,Step-1,Increment      1: Step Time =    1.000,"P-1-1",         18445,   160.508E-03,   163.212E-03,            0.,NA,NA,"",   1.02926E+06,   1.02193E+06,   1.02193E+06
C:/temp/Job-1.odb,Step-1,Increment      1: Step Time =    1.000,"P-1-1",         18446,   160.123E-03,   162.330E-03,            0.,NA,NA,"",   1.03066E+06,   1.02296E+06,   1.02296E+06
C:/temp/Job-1.odb,Step-1,Increment      1: Step Time =    1.000,"P-1-1",         18447,   148.486E-03,   69.9889E-03,            0.,NA,NA,"",   1.05368E+06,   1.03031E+06,   1.03031E+06
C:/temp/Job-1.odb,Step-1,Increment      1: Step Time =    1.000,"P-1-1",         18448,   167.539E-03,   57.9465E-03,            0.,NA,NA,"",   1.02382E+06,   1.01808E+06,   1.01808E+06
C:/temp/Job-1.odb,Step-1,Increment      1: Step Time =    1.000,"P-1-1",         18449,   126.565E-03,   140.798E-03,            0.,NA,NA,"",   1.13049E+06,   1.11034E+06,   1.11034E+06
C:/temp/Job-1.odb,Step-1,Increment      1: Step Time =    1.000,"P-1-1",         18450,   25.7549E-03,   162.728E-03,            0.,NA,NA,"",   998.464E+03,   1.04958E+06,   1.04958E+06
C:/temp/Job-1.odb,Step-1,Increment      1: Step Time =    1.000,"P-1-1",         18451,   61.5144E-03,   163.229E-03,            0.,NA,NA,"",   1.05485E+06,   1.05937E+06,   1.05937E+06
C:/temp/Job-1.odb,Step-1,Increment      1: Step Time =    1.000,"P-1-1",         18452,   63.3117E-03,   161.368E-03,            0.,NA,NA,"",   1.05793E+06,   1.06222E+06,   1.06222E+06
C:/temp/Job-1.odb,Step-1,Increment      1: Step Time =    1.000,"P-1-1",         18453,   153.014E-03,   86.2975E-03,            0.,NA,NA,"",   949.043E+03,   948.161E+03,   948.161E+03
C:/temp/Job-1.odb,Step-1,Increment      1: Step Time =    1.000,"P-1-1",         18454,   47.5155E-03,   91.3182E-03,            0.,NA,NA,"",   827.219E+03,   882.319E+03,   882.319E+03
C:/temp/Job-1.odb,Step-1,Increment      1: Step Time =    1.000,"P-1-1",         18455,   161.422E-03,   145.134E-03,            0.,NA,NA,"",   1.03808E+06,   1.02742E+06,   1.02742E+06
C:/temp/Job-1.odb,Step-1,Increment      1: Step Time =    1.000,"P-1-1",         18456,   163.328E-03,   148.642E-03,            0.,NA,NA,"",   1.03432E+06,   1.02533E+06,   1.02533E+06
C:/temp/Job-1.odb,Step-1,Increment      1: Step Time =    1.000,"P-1-1",         18457,   162.122E-03,   35.7423E-03,            0.,NA,NA,"",   1.02621E+06,   1.01971E+06,   1.01971E+06
C:/temp/Job-1.odb,Step-1,Increment      1: Step Time =    1.000,"P-1-1",         18458,   161.629E-03,   36.5639E-03,            0.,NA,NA,"",   1.02746E+06,   1.02064E+06,   1.02064E+06
C:/temp/Job-1.odb,Step-1,Increment      1: Step Time =    1.000,"P-1-1",         18459,   162.239E-03,   55.2351E-03,            0.,NA,NA,"",   1.03613E+06,   1.02610E+06,   1.02610E+06
C:/temp/Job-1.odb,Step-1,Increment      1: Step Time =    1.000,"P-1-1",         18460,   137.972E-03,   26.6203E-03,            0.,NA,NA,"",   1.02199E+06,   1.01749E+06,   1.01749E+06
C:/temp/Job-1.odb,Step-1,Increment      1: Step Time =    1.000,"P-1-1",         18461,   80.2860E-03,   27.6826E-03,            0.,NA,NA,"",   1.01614E+06,   1.02280E+06,   1.02280E+06
C:/temp/Job-1.odb,Step-1,Increment      1: Step Time =    1.000,"P-1-1",         18462,   79.2674E-03,   27.9791E-03,            0.,NA,NA,"",   1.01831E+06,   1.02462E+06,   1.02462E+06
C:/temp/Job-1.odb,Step-1,Increment      1: Step Time =    1.000,"P-1-1",         18463,   23.0826E-03,   150.131E-03,            0.,NA,NA,"",   940.828E+03,   1.00835E+06,   1.00835E+06
C:/temp/Job-1.odb,Step-1,Increment      1: Step Time =    1.000,"P-1-1",         18464,   153.833E-03,   87.8701E-03,            0.,NA,NA,"",   940.683E+03,   942.302E+03,   942.302E+03
C:/temp/Job-1.odb,Step-1,Increment      1: Step Time =    1.000,"P-1-1",         18465,   154.524E-03,   95.5268E-03,            0.,NA,NA,"",   907.808E+03,   917.482E+03,   917.482E+03
C:/temp/Job-1.odb,Step-1,Increment      1: Step Time =    1.000,"P-1-1",         18466,   64.3111E-03,   138.065E-03,            0.,NA,NA,"",   1.09019E+06,   1.08626E+06,   1.08626E+06
C:/temp/Job-1.odb,Step-1,Increment      1: Step Time =    1.000,"P-1-1",         18467,   97.9371E-03,   148.032E-03,            0.,NA,NA,"",   1.02738E+06,   1.06807E+06,   1.06807E+06
C:/temp/Job-1.odb,Step-1,Increment      1: Step Time =    1.000,"P-1-1",         18468,   95.6375E-03,   150.095E-03,            0.,NA,NA,"",   1.02794E+06,   1.06410E+06,   1.06410E+06
C:/temp/Job-1.odb,Step-1,Increment      1: Step Time =    1.000,"P-1-1",         18469,   130.881E-03,   161.530E-03,            0.,NA,NA,"",   1.05088E+06,    1.0451E+06,    1.0451E+06
C:/temp/Job-1.odb,Step-1,Increment      1: Step Time =    1.000,"P-1-1",         18470,   133.456E-03,   161.279E-03,            0.,NA,NA,"",   1.05281E+06,   1.04514E+06,   1.04514E+06
C:/temp/Job-1.odb,Step-1,Increment      1: Step Time =    1.000,"P-1-1",         18471,   151.784E-03,   163.190E-03,            0.,NA,NA,"",   1.03902E+06,   1.02944E+06,   1.02944E+06
C:/temp/Job-1.odb,Step-1,Increment      1: Step Time =    1.000,"P-1-1",         18472,   160.476E-03,   104.313E-03,            0.,NA,NA,"",   928.969E+03,   939.543E+03,   939.543E+03
C:/temp/Job-1.odb,Step-1,Increment      1: Step Time =    1.000,"P-1-1",         18473,   29.3573E-03,   141.660E-03,            0.,NA,NA,"",   935.884E+03,   996.279E+03,   996.279E+03
C:/temp/Job-1.odb,Step-1,Increment      1: Step Time =    1.000,"P-1-1",         18474,   75.3793E-03,   34.1318E-03,            0.,NA,NA,"",   1.03844E+06,   1.04498E+06,   1.04498E+06
C:/temp/Job-1.odb,Step-1,Increment      1: Step Time =    1.000,"P-1-1",         18475,   66.5563E-03,   32.6518E-03,            0.,NA,NA,"",   1.04529E+06,   1.04902E+06,   1.04902E+06
C:/temp/Job-1.odb,Step-1,Increment      1: Step Time =    1.000,"P-1-1",         18476,   161.257E-03,   39.4607E-03,            0.,NA,NA,"",   1.03131E+06,   1.02346E+06,   1.02346E+06
C:/temp/Job-1.odb,Step-1,Increment      1: Step Time =    1.000,"P-1-1",         18477,   160.692E-03,   38.4877E-03,            0.,NA,NA,"",   1.03083E+06,   1.02309E+06,   1.02309E+06
C:/temp/Job-1.odb,Step-1,Increment      1: Step Time =    1.000,"P-1-1",         18478,   61.3575E-03,   33.0173E-03,            0.,NA,NA,"",   1.04869E+06,   1.05274E+06,   1.05274E+06
C:/temp/Job-1.odb,Step-1,Increment      1: Step Time =    1.000,"P-1-1",         18479,   140.934E-03,   64.5777E-03,            0.,NA,NA,"",   1.09957E+06,   1.06786E+06,   1.06786E+06
C:/temp/Job-1.odb,Step-1,Increment      1: Step Time =    1.000,"P-1-1",         18480,   137.745E-03,   131.744E-03,            0.,NA,NA,"",   1.11273E+06,   1.07459E+06,   1.07459E+06
C:/temp/Job-1.odb,Step-1,Increment      1: Step Time =    1.000,"P-1-1",         18481,   137.234E-03,   132.835E-03,            0.,NA,NA,"",   1.11666E+06,   1.07906E+06,   1.07906E+06
C:/temp/Job-1.odb,Step-1,Increment      1: Step Time =    1.000,"P-1-1",         18482,   101.660E-03,   147.709E-03,            0.,NA,NA,"",   1.02714E+06,   1.06820E+06,   1.06820E+06
C:/temp/Job-1.odb,Step-1,Increment      1: Step Time =    1.000,"P-1-1",         18483,   99.6268E-03,   147.040E-03,            0.,NA,NA,"",   1.02761E+06,   1.07012E+06,   1.07012E+06
C:/temp/Job-1.odb,Step-1,Increment      1: Step Time =    1.000,"P-1-1",         18484,   25.5348E-03,   154.374E-03,            0.,NA,NA,"",   965.757E+03,   1.02522E+06,   1.02522E+06
C:/temp/Job-1.odb,Step-1,Increment      1: Step Time =    1.000,"P-1-1",         18485,   68.4462E-03,   141.116E-03,            0.,NA,NA,"",   1.10353E+06,   1.09960E+06,   1.09960E+06
C:/temp/Job-1.odb,Step-1,Increment      1: Step Time =    1.000,"P-1-1",         18486,   74.6213E-03,   55.8722E-03,            0.,NA,NA,"",   1.10323E+06,   1.10523E+06,   1.10523E+06
C:/temp/Job-1.odb,Step-1,Increment      1: Step Time =    1.000,"P-1-1",         18487,   111.579E-03,   45.1992E-03,            0.,NA,NA,"",   1.03637E+06,   1.05546E+06,   1.05546E+06
C:/temp/Job-1.odb,Step-1,Increment      1: Step Time =    1.000,"P-1-1",         18488,   148.907E-03,   126.923E-03,            0.,NA,NA,"",   1.03903E+06,   1.01767E+06,   1.01767E+06
C:/temp/Job-1.odb,Step-1,Increment      1: Step Time =    1.000,"P-1-1",         18489,   152.319E-03,   125.337E-03,            0.,NA,NA,"",   1.02068E+06,   1.00522E+06,   1.00522E+06
C:/temp/Job-1.odb,Step-1,Increment      1: Step Time =    1.000,"P-1-1",         18490,   147.007E-03,   128.476E-03,            0.,NA,NA,"",   1.05371E+06,   1.02861E+06,   1.02861E+06
C:/temp/Job-1.odb,Step-1,Increment      1: Step Time =    1.000,"P-1-1",         18491,   26.4779E-03,   155.582E-03,            0.,NA,NA,"",   973.992E+03,   1.03040E+06,   1.03040E+06
C:/temp/Job-1.odb,Step-1,Increment      1: Step Time =    1.000,"P-1-1",         18492,   161.989E-03,   75.3488E-03,            0.,NA,NA,"",   999.405E+03,   995.600E+03,   995.600E+03
C:/temp/Job-1.odb,Step-1,Increment      1: Step Time =    1.000,"P-1-1",         18493,   48.0663E-03,   23.9971E-03,            0.,NA,NA,"",   1.04220E+06,   1.04874E+06,   1.04874E+06
C:/temp/Job-1.odb,Step-1,Increment      1: Step Time =    1.000,"P-1-1",         18494,   47.8562E-03,   25.4118E-03,            0.,NA,NA,"",   1.04377E+06,   1.05128E+06,   1.05128E+06
C:/temp/Job-1.odb,Step-1,Increment      1: Step Time =    1.000,"P-1-1",         18495,   45.5392E-03,   29.5767E-03,            0.,NA,NA,"",   1.04598E+06,   1.05776E+06,   1.05776E+06
C:/temp/Job-1.odb,Step-1,Increment      1: Step Time =    1.000,"P-1-1",         18496,   70.5815E-03,   33.7419E-03,            0.,NA,NA,"",   1.04384E+06,   1.04845E+06,   1.04845E+06
C:/temp/Job-1.odb,Step-1,Increment      1: Step Time =    1.000,"P-1-1",         18497,   144.798E-03,   26.0145E-03,            0.,NA,NA,"",   1.02122E+06,   1.01596E+06,   1.01596E+06
C:/temp/Job-1.odb,Step-1,Increment      1: Step Time =    1.000,"P-1-1",         18498,   124.154E-03,   30.1004E-03,            0.,NA,NA,"",   1.02141E+06,   1.02244E+06,   1.02244E+06
C:/temp/Job-1.odb,Step-1,Increment      1: Step Time =    1.000,"P-1-1",         18499,   26.8277E-03,   117.590E-03,            0.,NA,NA,"",   842.167E+03,   919.510E+03,   919.510E+03
C:/temp/Job-1.odb,Step-1,Increment      1: Step Time =    1.000,"P-1-1",         18500,   92.7431E-03,   33.2490E-03,            0.,NA,NA,"",   1.01020E+06,   1.02543E+06,   1.02543E+06
C:/temp/Job-1.odb,Step-1,Increment      1: Step Time =    1.000,"P-1-1",         18501,   47.2908E-03,   87.8862E-03,            0.,NA,NA,"",   848.945E+03,   900.931E+03,   900.931E+03
C:/temp/Job-1.odb,Step-1,Increment      1: Step Time =    1.000,"P-1-1",         18502,   47.9693E-03,   85.8820E-03,            0.,NA,NA,"",   862.945E+03,   911.397E+03,   911.397E+03
C:/temp/Job-1.odb,Step-1,Increment      1: Step Time =    1.000,"P-1-1",         18503,   61.4839E-03,   128.663E-03,            0.,NA,NA,"",   1.05088E+06,   1.04835E+06,   1.04835E+06
C:/temp/Job-1.odb,Step-1,Increment      1: Step Time =    1.000,"P-1-1",         18504,   41.2926E-03,   26.7076E-03,            0.,NA,NA,"",   1.04655E+06,   1.06041E+06,   1.06041E+06
C:/temp/Job-1.odb,Step-1,Increment      1: Step Time =    1.000,"P-1-1",         18505,   30.0122E-03,   38.0838E-03,            0.,NA,NA,"",   1.00773E+06,   1.05089E+06,   1.05089E+06
C:/temp/Job-1.odb,Step-1,Increment      1: Step Time =    1.000,"P-1-1",         18506,   27.8084E-03,   104.390E-03,            0.,NA,NA,"",   816.572E+03,   896.190E+03,   896.190E+03
C:/temp/Job-1.odb,Step-1,Increment      1: Step Time =    1.000,"P-1-1",         18507,   31.2888E-03,   100.686E-03,            0.,NA,NA,"",   816.970E+03,   893.256E+03,   893.256E+03
C:/temp/Job-1.odb,Step-1,Increment      1: Step Time =    1.000,"P-1-1",         18508,   112.946E-03,   162.973E-03,            0.,NA,NA,"",   1.02225E+06,   1.03442E+06,   1.03442E+06
C:/temp/Job-1.odb,Step-1,Increment      1: Step Time =    1.000,"P-1-1",         18509,   154.806E-03,   30.3377E-03,            0.,NA,NA,"",   1.02568E+06,   1.01916E+06,   1.01916E+06
C:/temp/Job-1.odb,Step-1,Increment      1: Step Time =    1.000,"P-1-1",         18510,   71.2998E-03,   146.251E-03,            0.,NA,NA,"",   1.09500E+06,   1.09602E+06,   1.09602E+06
C:/temp/Job-1.odb,Step-1,Increment      1: Step Time =    1.000,"P-1-1",         18511,   122.964E-03,   150.447E-03,            0.,NA,NA,"",   1.08042E+06,   1.07836E+06,   1.07836E+06
C:/temp/Job-1.odb,Step-1,Increment      1: Step Time =    1.000,"P-1-1",         18512,   78.4679E-03,   28.2327E-03,            0.,NA,NA,"",   1.01992E+06,   1.02597E+06,   1.02597E+06
C:/temp/Job-1.odb,Step-1,Increment      1: Step Time =    1.000,"P-1-1",         18513,   24.7191E-03,   80.8788E-03,            0.,NA,NA,"",   842.035E+03,   921.437E+03,   921.437E+03
C:/temp/Job-1.odb,Step-1,Increment      1: Step Time =    1.000,"P-1-1",         18514,   23.9241E-03,   145.691E-03,            0.,NA,NA,"",   928.729E+03,   997.234E+03,   997.234E+03
C:/temp/Job-1.odb,Step-1,Increment      1: Step Time =    1.000,"P-1-1",         18515,   114.756E-03,   22.0389E-03,            0.,NA,NA,"",   993.499E+03,   997.833E+03,   997.833E+03
C:/temp/Job-1.odb,Step-1,Increment      1: Step Time =    1.000,"P-1-1",         18516,   120.943E-03,   28.5782E-03,            0.,NA,NA,"",   1.01424E+06,   1.01714E+06,   1.01714E+06
C:/temp/Job-1.odb,Step-1,Increment      1: Step Time =    1.000,"P-1-1",         18517,   117.765E-03,   27.2359E-03,            0.,NA,NA,"",   1.00804E+06,   1.01261E+06,   1.01261E+06
C:/temp/Job-1.odb,Step-1,Increment      1: Step Time =    1.000,"P-1-1",         18518,   27.2581E-03,   73.7334E-03,            0.,NA,NA,"",   871.467E+03,   944.403E+03,   944.403E+03
C:/temp/Job-1.odb,Step-1,Increment      1: Step Time =    1.000,"P-1-1",         18519,   27.4141E-03,   74.7540E-03,            0.,NA,NA,"",   868.730E+03,   941.859E+03,   941.859E+03
C:/temp/Job-1.odb,Step-1,Increment      1: Step Time =    1.000,"P-1-1",         18520,   25.4810E-03,   81.9903E-03,            0.,NA,NA,"",   840.536E+03,   919.383E+03,   919.383E+03
C:/temp/Job-1.odb,Step-1,Increment      1: Step Time =    1.000,"P-1-1",         18521,   29.1752E-03,   112.714E-03,            0.,NA,NA,"",   833.080E+03,   909.221E+03,   909.221E+03
C:/temp/Job-1.odb,Step-1,Increment      1: Step Time =    1.000,"P-1-1",         18522,   119.311E-03,   52.1863E-03,            0.,NA,NA,"",   1.08226E+06,   1.08686E+06,   1.08686E+06
C:/temp/Job-1.odb,Step-1,Increment      1: Step Time =    1.000,"P-1-1",         18523,   122.079E-03,   52.2720E-03,            0.,NA,NA,"",   1.09002E+06,   1.08796E+06,   1.08796E+06
C:/temp/Job-1.odb,Step-1,Increment      1: Step Time =    1.000,"P-1-1",         18524,   84.5957E-03,   52.7142E-03,            0.,NA,NA,"",   1.06903E+06,   1.09039E+06,   1.09039E+06
C:/temp/Job-1.odb,Step-1,Increment      1: Step Time =    1.000,"P-1-1",         18525,   83.8166E-03,   151.176E-03,            0.,NA,NA,"",   1.05886E+06,   1.07764E+06,   1.07764E+06
C:/temp/Job-1.odb,Step-1,Increment      1: Step Time =    1.000,"P-1-1",         18526,   145.836E-03,   130.590E-03,            0.,NA,NA,"",   1.06756E+06,   1.03997E+06,   1.03997E+06
C:/temp/Job-1.odb,Step-1,Increment      1: Step Time =    1.000,"P-1-1",         18527,   147.853E-03,   104.509E-03,            0.,NA,NA,"",   874.043E+03,   883.340E+03,   883.340E+03
C:/temp/Job-1.odb,Step-1,Increment      1: Step Time =    1.000,"P-1-1",         18528,   72.5451E-03,   34.1993E-03,            0.,NA,NA,"",   1.04245E+06,   1.04775E+06,   1.04775E+06
C:/temp/Job-1.odb,Step-1,Increment      1: Step Time =    1.000,"P-1-1",         18529,   24.0395E-03,   53.5571E-03,            0.,NA,NA,"",   931.735E+03,   999.396E+03,   999.396E+03
C:/temp/Job-1.odb,Step-1,Increment      1: Step Time =    1.000,"P-1-1",         18530,   158.873E-03,   91.5094E-03,            0.,NA,NA,"",   935.091E+03,   942.868E+03,   942.868E+03
C:/temp/Job-1.odb,Step-1,Increment      1: Step Time =    1.000,"P-1-1",         18531,   158.402E-03,   119.682E-03,            0.,NA,NA,"",   982.779E+03,   979.652E+03,   979.652E+03
C:/temp/Job-1.odb,Step-1,Increment      1: Step Time =    1.000,"P-1-1",         18532,   94.8351E-03,   33.7930E-03,            0.,NA,NA,"",   1.00875E+06,   1.02535E+06,   1.02535E+06
C:/temp/Job-1.odb,Step-1,Increment      1: Step Time =    1.000,"P-1-1",         18533,   162.427E-03,   52.5154E-03,            0.,NA,NA,"",   1.03631E+06,   1.02655E+06,   1.02655E+06
C:/temp/Job-1.odb,Step-1,Increment      1: Step Time =    1.000,"P-1-1",         18534,   111.031E-03,   28.5053E-03,            0.,NA,NA,"",   1.00356E+06,   1.01243E+06,   1.01243E+06
C:/temp/Job-1.odb,Step-1,Increment      1: Step Time =    1.000,"P-1-1",         18535,   103.588E-03,   44.0426E-03,            0.,NA,NA,"",   1.01956E+06,   1.04654E+06,   1.04654E+06
C:/temp/Job-1.odb,Step-1,Increment      1: Step Time =    1.000,"P-1-1",         18536,   45.1395E-03,   108.749E-03,            0.,NA,NA,"",   829.918E+03,   888.029E+03,   888.029E+03
C:/temp/Job-1.odb,Step-1,Increment      1: Step Time =    1.000,"P-1-1",         18537,   43.6167E-03,   29.3721E-03,            0.,NA,NA,"",   1.04566E+06,   1.05921E+06,   1.05921E+06
C:/temp/Job-1.odb,Step-1,Increment      1: Step Time =    1.000,"P-1-1",         18538,   160.390E-03,   140.314E-03,            0.,NA,NA,"",   1.03764E+06,   1.02613E+06,   1.02613E+06
C:/temp/Job-1.odb,Step-1,Increment      1: Step Time =    1.000,"P-1-1",         18539,   61.4048E-03,   64.7834E-03,            0.,NA,NA,"",   1.07153E+06,   1.07038E+06,   1.07038E+06
C:/temp/Job-1.odb,Step-1,Increment      1: Step Time =    1.000,"P-1-1",         18540,   57.3103E-03,   34.0122E-03,            0.,NA,NA,"",   1.05067E+06,   1.05618E+06,   1.05618E+06
C:/temp/Job-1.odb,Step-1,Increment      1: Step Time =    1.000,"P-1-1",         18541,   58.0095E-03,   35.0133E-03,            0.,NA,NA,"",   1.05206E+06,   1.05753E+06,   1.05753E+06
C:/temp/Job-1.odb,Step-1,Increment      1: Step Time =    1.000,"P-1-1",         18542,   136.753E-03,   29.1761E-03,            0.,NA,NA,"",   1.02808E+06,   1.02304E+06,   1.02304E+06
C:/temp/Job-1.odb,Step-1,Increment      1: Step Time =    1.000,"P-1-1",         18543,   164.515E-03,   149.698E-03,            0.,NA,NA,"",   1.03191E+06,   1.02381E+06,   1.02381E+06
C:/temp/Job-1.odb,Step-1,Increment      1: Step Time =    1.000,"P-1-1",         18544,   163.154E-03,   149.810E-03,            0.,NA,NA,"",   1.03440E+06,   1.02546E+06,   1.02546E+06
C:/temp/Job-1.odb,Step-1,Increment      1: Step Time =    1.000,"P-1-1",         18545,   65.9317E-03,   33.1917E-03,            0.,NA,NA,"",   1.04649E+06,   1.05028E+06,   1.05028E+06
C:/temp/Job-1.odb,Step-1,Increment      1: Step Time =    1.000,"P-1-1",         18546,   151.041E-03,   162.524E-03,            0.,NA,NA,"",   1.04083E+06,   1.03085E+06,   1.03085E+06
C:/temp/Job-1.odb,Step-1,Increment      1: Step Time =    1.000,"P-1-1",         18547,   77.6290E-03,   148.169E-03,            0.,NA,NA,"",   1.08444E+06,   1.09331E+06,   1.09331E+06
C:/temp/Job-1.odb,Step-1,Increment      1: Step Time =    1.000,"P-1-1",         18548,   139.201E-03,   167.081E-03,            0.,NA,NA,"",   1.03749E+06,   1.03028E+06,   1.03028E+06
C:/temp/Job-1.odb,Step-1,Increment      1: Step Time =    1.000,"P-1-1",         18549,   139.942E-03,   165.829E-03,            0.,NA,NA,"",   1.04071E+06,   1.03271E+06,   1.03271E+06
C:/temp/Job-1.odb,Step-1,Increment      1: Step Time =    1.000,"P-1-1",         18550,   40.1857E-03,   165.026E-03,            0.,NA,NA,"",   1.03743E+06,   1.05961E+06,   1.05961E+06
C:/temp/Job-1.odb,Step-1,Increment      1: Step Time =    1.000,"P-1-1",         18551,   51.4029E-03,   25.5660E-03,            0.,NA,NA,"",   1.04190E+06,   1.04743E+06,   1.04743E+06
C:/temp/Job-1.odb,Step-1,Increment      1: Step Time =    1.000,"P-1-1",         18552,   24.9711E-03,   161.562E-03,            0.,NA,NA,"",   991.387E+03,   1.04544E+06,   1.04544E+06
C:/temp/Job-1.odb,Step-1,Increment      1: Step Time =    1.000,"P-1-1",         18553,   88.6867E-03,   158.729E-03,            0.,NA,NA,"",   1.02898E+06,   1.04896E+06,   1.04896E+06
C:/temp/Job-1.odb,Step-1,Increment      1: Step Time =    1.000,"P-1-1",         18554,   61.8667E-03,   134.233E-03,            0.,NA,NA,"",   1.07287E+06,   1.07036E+06,   1.07036E+06
C:/temp/Job-1.odb,Step-1,Increment      1: Step Time =    1.000,"P-1-1",         18555,   116.309E-03,   51.0575E-03,            0.,NA,NA,"",   1.06815E+06,   1.08013E+06,   1.08013E+06
C:/temp/Job-1.odb,Step-1,Increment      1: Step Time =    1.000,"P-1-1",         18556,   165.592E-03,   46.3483E-03,            0.,NA,NA,"",   1.02904E+06,   1.02197E+06,   1.02197E+06
C:/temp/Job-1.odb,Step-1,Increment      1: Step Time =    1.000,"P-1-1",         18557,   25.4349E-03,   145.773E-03,            0.,NA,NA,"",   935.271E+03,   1.00057E+06,   1.00057E+06
C:/temp/Job-1.odb,Step-1,Increment      1: Step Time =    1.000,"P-1-1",         18558,   63.5233E-03,   66.1268E-03,            0.,NA,NA,"",   1.08327E+06,   1.07777E+06,   1.07777E+06
C:/temp/Job-1.odb,Step-1,Increment      1: Step Time =    1.000,"P-1-1",         18559,   25.2364E-03,   109.679E-03,            0.,NA,NA,"",   820.527E+03,   902.046E+03,   902.046E+03
C:/temp/Job-1.odb,Step-1,Increment      1: Step Time =    1.000,"P-1-1",         18560,   23.8206E-03,   147.950E-03,            0.,NA,NA,"",   935.277E+03,   1.00276E+06,   1.00276E+06
C:/temp/Job-1.odb,Step-1,Increment      1: Step Time =    1.000,"P-1-1",         18561,   137.695E-03,   162.106E-03,            0.,NA,NA,"",   1.05056E+06,   1.04133E+06,   1.04133E+06
C:/temp/Job-1.odb,Step-1,Increment      1: Step Time =    1.000,"P-1-1",         18562,   41.7974E-03,   27.4960E-03,            0.,NA,NA,"",   1.04614E+06,   1.06002E+06,   1.06002E+06
C:/temp/Job-1.odb,Step-1,Increment      1: Step Time =    1.000,"P-1-1",         18563,   56.6127E-03,   70.5693E-03,            0.,NA,NA,"",   1.01822E+06,   1.02855E+06,   1.02855E+06
C:/temp/Job-1.odb,Step-1,Increment      1: Step Time =    1.000,"P-1-1",         18564,   50.4708E-03,   117.487E-03,            0.,NA,NA,"",   894.119E+03,   933.152E+03,   933.152E+03
C:/temp/Job-1.odb,Step-1,Increment      1: Step Time =    1.000,"P-1-1",         18565,   23.6807E-03,   147.161E-03,            0.,NA,NA,"",   932.253E+03,   1.00050E+06,   1.00050E+06
C:/temp/Job-1.odb,Step-1,Increment      1: Step Time =    1.000,"P-1-1",         18566,   110.091E-03,   160.830E-03,            0.,NA,NA,"",   1.02147E+06,   1.03785E+06,   1.03785E+06
C:/temp/Job-1.odb,Step-1,Increment      1: Step Time =    1.000,"P-1-1",         18567,   25.7062E-03,   107.263E-03,            0.,NA,NA,"",   817.416E+03,   898.889E+03,   898.889E+03
C:/temp/Job-1.odb,Step-1,Increment      1: Step Time =    1.000,"P-1-1",         18568,   161.744E-03,   155.783E-03,            0.,NA,NA,"",   1.03442E+06,   1.02566E+06,   1.02566E+06
C:/temp/Job-1.odb,Step-1,Increment      1: Step Time =    1.000,"P-1-1",         18569,   79.4523E-03,   149.464E-03,            0.,NA,NA,"",   1.07621E+06,   1.08811E+06,   1.08811E+06
C:/temp/Job-1.odb,Step-1,Increment      1: Step Time =    1.000,"P-1-1",         18570,   140.439E-03,   129.527E-03,            0.,NA,NA,"",   1.09181E+06,   1.05606E+06,   1.05606E+06
C:/temp/Job-1.odb,Step-1,Increment      1: Step Time =    1.000,"P-1-1",         18571,   139.380E-03,   131.510E-03,            0.,NA,NA,"",   1.10317E+06,   1.06679E+06,   1.06679E+06
C:/temp/Job-1.odb,Step-1,Increment      1: Step Time =    1.000,"P-1-1",         18572,   138.388E-03,   133.435E-03,            0.,NA,NA,"",   1.11076E+06,   1.07492E+06,   1.07492E+06
C:/temp/Job-1.odb,Step-1,Increment      1: Step Time =    1.000,"P-1-1",         18573,   138.012E-03,   134.452E-03,            0.,NA,NA,"",   1.11290E+06,   1.07780E+06,   1.07780E+06
C:/temp/Job-1.odb,Step-1,Increment      1: Step Time =    1.000,"P-1-1",         18574,   29.4750E-03,   102.936E-03,            0.,NA,NA,"",   816.915E+03,   895.004E+03,   895.004E+03
C:/temp/Job-1.odb,Step-1,Increment      1: Step Time =    1.000,"P-1-1",         18575,   49.0646E-03,   164.160E-03,            0.,NA,NA,"",   1.04722E+06,   1.05930E+06,   1.05930E+06
C:/temp/Job-1.odb,Step-1,Increment      1: Step Time =    1.000,"P-1-1",         18576,   83.3743E-03,   52.3083E-03,            0.,NA,NA,"",   1.07173E+06,   1.09030E+06,   1.09030E+06
C:/temp/Job-1.odb,Step-1,Increment      1: Step Time =    1.000,"P-1-1",         18577,   112.145E-03,   149.233E-03,            0.,NA,NA,"",   1.05215E+06,   1.07405E+06,   1.07405E+06
C:/temp/Job-1.odb,Step-1,Increment      1: Step Time =    1.000,"P-1-1",         18578,   31.4513E-03,   39.2524E-03,            0.,NA,NA,"",   1.00809E+06,   1.04950E+06,   1.04950E+06
C:/temp/Job-1.odb,Step-1,Increment      1: Step Time =    1.000,"P-1-1",         18579,   41.3799E-03,   162.833E-03,            0.,NA,NA,"",   1.03562E+06,   1.05797E+06,   1.05797E+06
C:/temp/Job-1.odb,Step-1,Increment      1: Step Time =    1.000,"P-1-1",         18580,   25.6765E-03,   49.8701E-03,            0.,NA,NA,"",   951.458E+03,   1.01353E+06,   1.01353E+06
C:/temp/Job-1.odb,Step-1,Increment      1: Step Time =    1.000,"P-1-1",         18581,   113.029E-03,   22.8700E-03,            0.,NA,NA,"",   993.922E+03,   999.174E+03,   999.174E+03
C:/temp/Job-1.odb,Step-1,Increment      1: Step Time =    1.000,"P-1-1",         18582,   66.5063E-03,   33.8422E-03,            0.,NA,NA,"",   1.04753E+06,   1.05145E+06,   1.05145E+06
C:/temp/Job-1.odb,Step-1,Increment      1: Step Time =    1.000,"P-1-1",         18583,   160.943E-03,   50.9462E-03,            0.,NA,NA,"",   1.03924E+06,   1.02866E+06,   1.02866E+06
C:/temp/Job-1.odb,Step-1,Increment      1: Step Time =    1.000,"P-1-1",         18584,   166.567E-03,   61.9674E-03,            0.,NA,NA,"",   1.02177E+06,   1.01605E+06,   1.01605E+06
C:/temp/Job-1.odb,Step-1,Increment      1: Step Time =    1.000,"P-1-1",         18585,   134.616E-03,   137.591E-03,            0.,NA,NA,"",   1.12499E+06,   1.09238E+06,   1.09238E+06
C:/temp/Job-1.odb,Step-1,Increment      1: Step Time =    1.000,"P-1-1",         18586,   52.2827E-03,   26.5825E-03,            0.,NA,NA,"",   1.04264E+06,   1.04815E+06,   1.04815E+06
C:/temp/Job-1.odb,Step-1,Increment      1: Step Time =    1.000,"P-1-1",         18587,   161.806E-03,   68.7206E-03,            0.,NA,NA,"",   1.01927E+06,   1.01137E+06,   1.01137E+06
C:/temp/Job-1.odb,Step-1,Increment      1: Step Time =    1.000,"P-1-1",         18588,   154.223E-03,   84.4508E-03,            0.,NA,NA,"",   960.978E+03,   958.775E+03,   958.775E+03
C:/temp/Job-1.odb,Step-1,Increment      1: Step Time =    1.000,"P-1-1",         18589,   61.9106E-03,   34.3284E-03,            0.,NA,NA,"",   1.05087E+06,   1.05502E+06,   1.05502E+06
C:/temp/Job-1.odb,Step-1,Increment      1: Step Time =    1.000,"P-1-1",         18590,   59.6255E-03,   35.6926E-03,            0.,NA,NA,"",   1.05314E+06,   1.05809E+06,   1.05809E+06
C:/temp/Job-1.odb,Step-1,Increment      1: Step Time =    1.000,"P-1-1",         18591,   126.338E-03,   161.056E-03,            0.,NA,NA,"",   1.04829E+06,   1.04617E+06,   1.04617E+06
C:/temp/Job-1.odb,Step-1,Increment      1: Step Time =    1.000,"P-1-1",         18592,   161.239E-03,   35.8914E-03,            0.,NA,NA,"",   1.02738E+06,   1.02056E+06,   1.02056E+06
C:/temp/Job-1.odb,Step-1,Increment      1: Step Time =    1.000,"P-1-1",         18593,   26.2332E-03,   83.1038E-03,            0.,NA,NA,"",   838.995E+03,    917.27E+03,    917.27E+03
C:/temp/Job-1.odb,Step-1,Increment      1: Step Time =    1.000,"P-1-1",         18594,   30.0032E-03,   130.681E-03,            0.,NA,NA,"",   897.358E+03,   963.297E+03,   963.297E+03
C:/temp/Job-1.odb,Step-1,Increment      1: Step Time =    1.000,"P-1-1",         18595,   32.7281E-03,   132.155E-03,            0.,NA,NA,"",   913.360E+03,   973.412E+03,   973.412E+03
C:/temp/Job-1.odb,Step-1,Increment      1: Step Time =    1.000,"P-1-1",         18596,   152.763E-03,   161.058E-03,            0.,NA,NA,"",   1.04155E+06,   1.03122E+06,   1.03122E+06
C:/temp/Job-1.odb,Step-1,Increment      1: Step Time =    1.000,"P-1-1",         18597,   153.488E-03,   160.004E-03,            0.,NA,NA,"",   1.04223E+06,   1.03164E+06,   1.03164E+06
C:/temp/Job-1.odb,Step-1,Increment      1: Step Time =    1.000,"P-1-1",         18598,   28.0362E-03,   72.4431E-03,            0.,NA,NA,"",   878.975E+03,   949.894E+03,   949.894E+03
C:/temp/Job-1.odb,Step-1,Increment      1: Step Time =    1.000,"P-1-1",         18599,   100.101E-03,   148.920E-03,            0.,NA,NA,"",   1.02546E+06,   1.06471E+06,   1.06471E+06
C:/temp/Job-1.odb,Step-1,Increment      1: Step Time =    1.000,"P-1-1",         18600,   46.5896E-03,   86.4333E-03,            0.,NA,NA,"",   858.016E+03,   909.451E+03,   909.451E+03
C:/temp/Job-1.odb,Step-1,Increment      1: Step Time =    1.000,"P-1-1",         18601,   164.055E-03,   57.8624E-03,            0.,NA,NA,"",   1.03087E+06,   1.02234E+06,   1.02234E+06
C:/temp/Job-1.odb,Step-1,Increment      1: Step Time =    1.000,"P-1-1",         18602,   28.1999E-03,   118.377E-03,            0.,NA,NA,"",   847.594E+03,   922.709E+03,   922.709E+03
C:/temp/Job-1.odb,Step-1,Increment      1: Step Time =    1.000,"P-1-1",         18603,   46.1102E-03,   91.6962E-03,            0.,NA,NA,"",   827.247E+03,   884.619E+03,   884.619E+03
C:/temp/Job-1.odb,Step-1,Increment      1: Step Time =    1.000,"P-1-1",         18604,   92.0682E-03,   148.661E-03,            0.,NA,NA,"",   1.03855E+06,   1.07291E+06,   1.07291E+06
C:/temp/Job-1.odb,Step-1,Increment      1: Step Time =    1.000,"P-1-1",         18605,   126.470E-03,   144.578E-03,            0.,NA,NA,"",   1.11154E+06,   1.09737E+06,   1.09737E+06
C:/temp/Job-1.odb,Step-1,Increment      1: Step Time =    1.000,"P-1-1",         18606,   164.110E-03,   132.750E-03,            0.,NA,NA,"",   1.01787E+06,   1.01164E+06,   1.01164E+06
C:/temp/Job-1.odb,Step-1,Increment      1: Step Time =    1.000,"P-1-1",         18607,   139.065E-03,   59.2800E-03,            0.,NA,NA,"",   1.10341E+06,   1.07559E+06,   1.07559E+06
C:/temp/Job-1.odb,Step-1,Increment      1: Step Time =    1.000,"P-1-1",         18608,   160.663E-03,   94.3711E-03,            0.,NA,NA,"",   932.695E+03,   942.690E+03,   942.690E+03
C:/temp/Job-1.odb,Step-1,Increment      1: Step Time =    1.000,"P-1-1",         18609,   26.6407E-03,   81.2752E-03,            0.,NA,NA,"",   845.233E+03,   922.290E+03,   922.290E+03
C:/temp/Job-1.odb,Step-1,Increment      1: Step Time =    1.000,"P-1-1",         18610,   50.5435E-03,   26.4282E-03,            0.,NA,NA,"",   1.04334E+06,   1.04967E+06,   1.04967E+06
C:/temp/Job-1.odb,Step-1,Increment      1: Step Time =    1.000,"P-1-1",         18611,   48.9551E-03,   26.9548E-03,            0.,NA,NA,"",   1.04455E+06,   1.05205E+06,   1.05205E+06
C:/temp/Job-1.odb,Step-1,Increment      1: Step Time =    1.000,"P-1-1",         18612,   48.9770E-03,   28.1811E-03,            0.,NA,NA,"",   1.04548E+06,   1.05354E+06,   1.05354E+06
C:/temp/Job-1.odb,Step-1,Increment      1: Step Time =    1.000,"P-1-1",         18613,   147.500E-03,   68.3771E-03,            0.,NA,NA,"",   1.06306E+06,   1.03802E+06,   1.03802E+06
C:/temp/Job-1.odb,Step-1,Increment      1: Step Time =    1.000,"P-1-1",         18614,   61.5625E-03,   161.273E-03,            0.,NA,NA,"",   1.05781E+06,   1.06250E+06,   1.06250E+06
C:/temp/Job-1.odb,Step-1,Increment      1: Step Time =    1.000,"P-1-1",         18615,   61.0307E-03,   137.111E-03,            0.,NA,NA,"",   1.07203E+06,   1.07227E+06,   1.07227E+06
C:/temp/Job-1.odb,Step-1,Increment      1: Step Time =    1.000,"P-1-1",         18616,   55.8009E-03,   124.688E-03,            0.,NA,NA,"",   981.780E+03,   997.654E+03,   997.654E+03
C:/temp/Job-1.odb,Step-1,Increment      1: Step Time =    1.000,"P-1-1",         18617,   54.0150E-03,   123.303E-03,            0.,NA,NA,"",   959.885E+03,   982.160E+03,   982.160E+03
C:/temp/Job-1.odb,Step-1,Increment      1: Step Time =    1.000,"P-1-1",         18618,   53.0450E-03,   123.274E-03,            0.,NA,NA,"",   954.185E+03,   978.859E+03,   978.859E+03
C:/temp/Job-1.odb,Step-1,Increment      1: Step Time =    1.000,"P-1-1",         18619,   119.183E-03,   29.2853E-03,            0.,NA,NA,"",   1.01403E+06,   1.01817E+06,   1.01817E+06
C:/temp/Job-1.odb,Step-1,Increment      1: Step Time =    1.000,"P-1-1",         18620,   117.361E-03,   28.1555E-03,            0.,NA,NA,"",   1.00946E+06,   1.01446E+06,   1.01446E+06
C:/temp/Job-1.odb,Step-1,Increment      1: Step Time =    1.000,"P-1-1",         18621,   115.223E-03,   27.8538E-03,            0.,NA,NA,"",   1.00644E+06,   1.01269E+06,   1.01269E+06
C:/temp/Job-1.odb,Step-1,Increment      1: Step Time =    1.000,"P-1-1",         18622,   114.069E-03,   27.6944E-03,            0.,NA,NA,"",   1.00485E+06,   1.01161E+06,   1.01161E+06
C:/temp/Job-1.odb,Step-1,Increment      1: Step Time =    1.000,"P-1-1",         18623,   160.991E-03,   122.645E-03,            0.,NA,NA,"",   993.500E+03,   990.132E+03,   990.132E+03
C:/temp/Job-1.odb,Step-1,Increment      1: Step Time =    1.000,"P-1-1",         18624,   44.7277E-03,   83.8997E-03,            0.,NA,NA,"",   870.741E+03,   922.614E+03,   922.614E+03
C:/temp/Job-1.odb,Step-1,Increment      1: Step Time =    1.000,"P-1-1",         18625,   70.0583E-03,   35.6642E-03,            0.,NA,NA,"",   1.04844E+06,   1.05315E+06,   1.05315E+06
C:/temp/Job-1.odb,Step-1,Increment      1: Step Time =    1.000,"P-1-1",         18626,   67.3196E-03,   36.1369E-03,            0.,NA,NA,"",    1.0518E+06,   1.05594E+06,   1.05594E+06
C:/temp/Job-1.odb,Step-1,Increment      1: Step Time =    1.000,"P-1-1",         18627,   148.777E-03,   26.5258E-03,            0.,NA,NA,"",   1.02164E+06,   1.01608E+06,   1.01608E+06
C:/temp/Job-1.odb,Step-1,Increment      1: Step Time =    1.000,"P-1-1",         18628,   56.2932E-03,   65.6640E-03,            0.,NA,NA,"",   1.03701E+06,   1.04626E+06,   1.04626E+06
C:/temp/Job-1.odb,Step-1,Increment      1: Step Time =    1.000,"P-1-1",         18629,   56.8812E-03,   64.3874E-03,            0.,NA,NA,"",   1.04465E+06,   1.05242E+06,   1.05242E+06
C:/temp/Job-1.odb,Step-1,Increment      1: Step Time =    1.000,"P-1-1",         18630,   30.8707E-03,   141.827E-03,            0.,NA,NA,"",   942.536E+03,   999.885E+03,   999.885E+03
C:/temp/Job-1.odb,Step-1,Increment      1: Step Time =    1.000,"P-1-1",         18631,   124.295E-03,   31.4533E-03,            0.,NA,NA,"",   1.02504E+06,   1.02594E+06,   1.02594E+06
C:/temp/Job-1.odb,Step-1,Increment      1: Step Time =    1.000,"P-1-1",         18632,   46.2857E-03,   30.9098E-03,            0.,NA,NA,"",   1.04596E+06,   1.05795E+06,   1.05795E+06
C:/temp/Job-1.odb,Step-1,Increment      1: Step Time =    1.000,"P-1-1",         18633,   120.936E-03,   162.831E-03,            0.,NA,NA,"",   1.03560E+06,   1.03955E+06,   1.03955E+06
C:/temp/Job-1.odb,Step-1,Increment      1: Step Time =    1.000,"P-1-1",         18634,   107.243E-03,   41.4400E-03,            0.,NA,NA,"",   1.02068E+06,   1.04180E+06,   1.04180E+06
C:/temp/Job-1.odb,Step-1,Increment      1: Step Time =    1.000,"P-1-1",         18635,   156.269E-03,   81.9417E-03,            0.,NA,NA,"",   975.578E+03,   972.168E+03,   972.168E+03
C:/temp/Job-1.odb,Step-1,Increment      1: Step Time =    1.000,"P-1-1",         18636,   160.605E-03,   41.5513E-03,            0.,NA,NA,"",   1.03410E+06,   1.02546E+06,   1.02546E+06
C:/temp/Job-1.odb,Step-1,Increment      1: Step Time =    1.000,"P-1-1",         18637,   159.220E-03,   43.2943E-03,            0.,NA,NA,"",   1.03772E+06,   1.02803E+06,   1.02803E+06
C:/temp/Job-1.odb,Step-1,Increment      1: Step Time =    1.000,"P-1-1",         18638,   153.556E-03,   124.928E-03,            0.,NA,NA,"",   1.01497E+06,   1.00153E+06,   1.00153E+06
C:/temp/Job-1.odb,Step-1,Increment      1: Step Time =    1.000,"P-1-1",         18639,   81.4137E-03,   28.7340E-03,            0.,NA,NA,"",   1.01693E+06,   1.02450E+06,   1.02450E+06
C:/temp/Job-1.odb,Step-1,Increment      1: Step Time =    1.000,"P-1-1",         18640,   43.5607E-03,   31.3230E-03,            0.,NA,NA,"",   1.04452E+06,   1.05958E+06,   1.05958E+06
C:/temp/Job-1.odb,Step-1,Increment      1: Step Time =    1.000,"P-1-1",         18641,   57.3370E-03,   128.050E-03,            0.,NA,NA,"",   1.01539E+06,   1.02434E+06,   1.02434E+06
C:/temp/Job-1.odb,Step-1,Increment      1: Step Time =    1.000,"P-1-1",         18642,   56.1034E-03,   127.720E-03,            0.,NA,NA,"",   1.00436E+06,   1.01696E+06,   1.01696E+06
C:/temp/Job-1.odb,Step-1,Increment      1: Step Time =    1.000,"P-1-1",         18643,   26.2905E-03,   67.2663E-03,            0.,NA,NA,"",   891.702E+03,   962.852E+03,   962.852E+03
C:/temp/Job-1.odb,Step-1,Increment      1: Step Time =    1.000,"P-1-1",         18644,   128.538E-03,   159.988E-03,            0.,NA,NA,"",   1.05363E+06,   1.04912E+06,   1.04912E+06
C:/temp/Job-1.odb,Step-1,Increment      1: Step Time =    1.000,"P-1-1",         18645,   133.311E-03,   159.786E-03,            0.,NA,NA,"",   1.05734E+06,   1.04895E+06,   1.04895E+06
C:/temp/Job-1.odb,Step-1,Increment      1: Step Time =    1.000,"P-1-1",         18646,   134.597E-03,   159.394E-03,            0.,NA,NA,"",   1.05847E+06,   1.04908E+06,   1.04908E+06
C:/temp/Job-1.odb,Step-1,Increment      1: Step Time =    1.000,"P-1-1",         18647,   157.732E-03,   111.808E-03,            0.,NA,NA,"",   945.906E+03,   950.251E+03,   950.251E+03
C:/temp/Job-1.odb,Step-1,Increment      1: Step Time =    1.000,"P-1-1",         18648,   32.8066E-03,   36.6753E-03,            0.,NA,NA,"",   1.01963E+06,   1.05576E+06,   1.05576E+06
C:/temp/Job-1.odb,Step-1,Increment      1: Step Time =    1.000,"P-1-1",         18649,   158.647E-03,   140.870E-03,            0.,NA,NA,"",   1.04244E+06,   1.02936E+06,   1.02936E+06
C:/temp/Job-1.odb,Step-1,Increment      1: Step Time =    1.000,"P-1-1",         18650,   159.413E-03,   137.362E-03,            0.,NA,NA,"",   1.03668E+06,   1.02452E+06,   1.02452E+06
C:/temp/Job-1.odb,Step-1,Increment      1: Step Time =    1.000,"P-1-1",         18651,   160.172E-03,   106.042E-03,            0.,NA,NA,"",   931.418E+03,   941.114E+03,   941.114E+03
C:/temp/Job-1.odb,Step-1,Increment      1: Step Time =    1.000,"P-1-1",         18652,   157.338E-03,   103.033E-03,            0.,NA,NA,"",   916.021E+03,   926.636E+03,   926.636E+03
C:/temp/Job-1.odb,Step-1,Increment      1: Step Time =    1.000,"P-1-1",         18653,   103.940E-03,   43.0842E-03,            0.,NA,NA,"",   1.01870E+06,   1.04425E+06,   1.04425E+06
C:/temp/Job-1.odb,Step-1,Increment      1: Step Time =    1.000,"P-1-1",         18654,   102.149E-03,   41.6280E-03,            0.,NA,NA,"",   1.01605E+06,   1.04080E+06,   1.04080E+06
C:/temp/Job-1.odb,Step-1,Increment      1: Step Time =    1.000,"P-1-1",         18655,   68.4958E-03,   142.108E-03,            0.,NA,NA,"",   1.10151E+06,   1.09847E+06,   1.09847E+06
C:/temp/Job-1.odb,Step-1,Increment      1: Step Time =    1.000,"P-1-1",         18656,   150.634E-03,   127.598E-03,            0.,NA,NA,"",   1.03615E+06,   1.01688E+06,   1.01688E+06
C:/temp/Job-1.odb,Step-1,Increment      1: Step Time =    1.000,"P-1-1",         18657,   147.093E-03,   130.018E-03,            0.,NA,NA,"",   1.05953E+06,   1.03408E+06,   1.03408E+06
C:/temp/Job-1.odb,Step-1,Increment      1: Step Time =    1.000,"P-1-1",         18658,   139.094E-03,   164.543E-03,            0.,NA,NA,"",   1.04407E+06,   1.03567E+06,   1.03567E+06
C:/temp/Job-1.odb,Step-1,Increment      1: Step Time =    1.000,"P-1-1",         18659,   112.105E-03,   43.8718E-03,            0.,NA,NA,"",   1.03466E+06,   1.05199E+06,   1.05199E+06
C:/temp/Job-1.odb,Step-1,Increment      1: Step Time =    1.000,"P-1-1",         18660,   113.314E-03,   44.1700E-03,            0.,NA,NA,"",   1.03831E+06,   1.05400E+06,   1.05400E+06
C:/temp/Job-1.odb,Step-1,Increment      1: Step Time =    1.000,"P-1-1",         18661,   93.5086E-03,   34.5182E-03,            0.,NA,NA,"",   1.01116E+06,   1.02789E+06,   1.02789E+06
C:/temp/Job-1.odb,Step-1,Increment      1: Step Time =    1.000,"P-1-1",         18662,   77.7055E-03,   51.9466E-03,            0.,NA,NA,"",   1.08490E+06,   1.09368E+06,   1.09368E+06
C:/temp/Job-1.odb,Step-1,Increment      1: Step Time =    1.000,"P-1-1",         18663,   81.8896E-03,   51.4868E-03,            0.,NA,NA,"",   1.07341E+06,   1.08935E+06,   1.08935E+06
C:/temp/Job-1.odb,Step-1,Increment      1: Step Time =    1.000,"P-1-1",         18664,   24.9061E-03,   150.103E-03,            0.,NA,NA,"",   948.433E+03,   1.01218E+06,   1.01218E+06
C:/temp/Job-1.odb,Step-1,Increment      1: Step Time =    1.000,"P-1-1",         18665,   127.939E-03,   31.2377E-03,            0.,NA,NA,"",   1.02823E+06,   1.02667E+06,   1.02667E+06
C:/temp/Job-1.odb,Step-1,Increment      1: Step Time =    1.000,"P-1-1",         18666,   154.120E-03,   77.9478E-03,            0.,NA,NA,"",   999.606E+03,   989.542E+03,   989.542E+03
C:/temp/Job-1.odb,Step-1,Increment      1: Step Time =    1.000,"P-1-1",         18667,   35.1080E-03,   29.1961E-03,            0.,NA,NA,"",   1.04150E+06,   1.06572E+06,   1.06572E+06
C:/temp/Job-1.odb,Step-1,Increment      1: Step Time =    1.000,"P-1-1",         18668,   57.1839E-03,   35.5798E-03,            0.,NA,NA,"",   1.05253E+06,   1.05846E+06,   1.05846E+06
C:/temp/Job-1.odb,Step-1,Increment      1: Step Time =    1.000,"P-1-1",         18669,   28.4516E-03,   106.106E-03,            0.,NA,NA,"",   819.117E+03,   897.860E+03,   897.860E+03
C:/temp/Job-1.odb,Step-1,Increment      1: Step Time =    1.000,"P-1-1",         18670,   29.2773E-03,   104.351E-03,            0.,NA,NA,"",   817.676E+03,   895.701E+03,   895.701E+03
C:/temp/Job-1.odb,Step-1,Increment      1: Step Time =    1.000,"P-1-1",         18671,   26.1270E-03,   160.725E-03,            0.,NA,NA,"",   992.095E+03,   1.04435E+06,   1.04435E+06
C:/temp/Job-1.odb,Step-1,Increment      1: Step Time =    1.000,"P-1-1",         18672,   124.116E-03,   150.613E-03,            0.,NA,NA,"",   1.08151E+06,   1.07759E+06,   1.07759E+06
C:/temp/Job-1.odb,Step-1,Increment      1: Step Time =    1.000,"P-1-1",         18673,   161.020E-03,   151.669E-03,            0.,NA,NA,"",   1.03821E+06,   1.02815E+06,   1.02815E+06
C:/temp/Job-1.odb,Step-1,Increment      1: Step Time =    1.000,"P-1-1",         18674,   73.1036E-03,   160.933E-03,            0.,NA,NA,"",   1.05335E+06,   1.05961E+06,   1.05961E+06
C:/temp/Job-1.odb,Step-1,Increment      1: Step Time =    1.000,"P-1-1",         18675,   94.0803E-03,   150.468E-03,            0.,NA,NA,"",   1.03057E+06,   1.06481E+06,   1.06481E+06
C:/temp/Job-1.odb,Step-1,Increment      1: Step Time =    1.000,"P-1-1",         18676,   51.9094E-03,   123.073E-03,            0.,NA,NA,"",   945.673E+03,   973.788E+03,   973.788E+03
C:/temp/Job-1.odb,Step-1,Increment      1: Step Time =    1.000,"P-1-1",         18677,   64.6046E-03,   33.9372E-03,            0.,NA,NA,"",   1.04896E+06,   1.05275E+06,   1.05275E+06
C:/temp/Job-1.odb,Step-1,Increment      1: Step Time =    1.000,"P-1-1",         18678,   33.0646E-03,   126.524E-03,            0.,NA,NA,"",   891.268E+03,   954.499E+03,   954.499E+03
C:/temp/Job-1.odb,Step-1,Increment      1: Step Time =    1.000,"P-1-1",         18679,   29.1757E-03,   115.579E-03,            0.,NA,NA,"",   840.668E+03,   915.889E+03,   915.889E+03
C:/temp/Job-1.odb,Step-1,Increment      1: Step Time =    1.000,"P-1-1",         18680,   62.5775E-03,   63.9720E-03,            0.,NA,NA,"",   1.08050E+06,   1.07754E+06,   1.07754E+06
C:/temp/Job-1.odb,Step-1,Increment      1: Step Time =    1.000,"P-1-1",         18681,   53.1451E-03,   162.813E-03,            0.,NA,NA,"",   1.05126E+06,   1.06022E+06,   1.06022E+06
C:/temp/Job-1.odb,Step-1,Increment      1: Step Time =    1.000,"P-1-1",         18682,   151.067E-03,   104.919E-03,            0.,NA,NA,"",   893.477E+03,   902.516E+03,   902.516E+03
C:/temp/Job-1.odb,Step-1,Increment      1: Step Time =    1.000,"P-1-1",         18683,   27.8391E-03,   86.9613E-03,            0.,NA,NA,"",   831.883E+03,   909.475E+03,   909.475E+03
C:/temp/Job-1.odb,Step-1,Increment      1: Step Time =    1.000,"P-1-1",         18684,   161.591E-03,   48.1260E-03,            0.,NA,NA,"",   1.03697E+06,   1.02731E+06,   1.02731E+06
C:/temp/Job-1.odb,Step-1,Increment      1: Step Time =    1.000,"P-1-1",         18685,   27.9326E-03,   123.421E-03,            0.,NA,NA,"",   863.850E+03,   937.025E+03,   937.025E+03
C:/temp/Job-1.odb,Step-1,Increment      1: Step Time =    1.000,"P-1-1",         18686,   31.2691E-03,   45.9210E-03,            0.,NA,NA,"",   986.020E+03,   1.03377E+06,   1.03377E+06
C:/temp/Job-1.odb,Step-1,Increment      1: Step Time =    1.000,"P-1-1",         18687,   106.120E-03,   33.3059E-03,            0.,NA,NA,"",   1.00777E+06,   1.02229E+06,   1.02229E+06
C:/temp/Job-1.odb,Step-1,Increment      1: Step Time =    1.000,"P-1-1",         18688,   104.616E-03,   33.2838E-03,            0.,NA,NA,"",   1.00677E+06,   1.02198E+06,   1.02198E+06
C:/temp/Job-1.odb,Step-1,Increment      1: Step Time =    1.000,"P-1-1",         18689,   55.7538E-03,   70.6049E-03,            0.,NA,NA,"",   1.01246E+06,   1.02474E+06,   1.02474E+06
C:/temp/Job-1.odb,Step-1,Increment      1: Step Time =    1.000,"P-1-1",         18690,   50.1914E-03,   28.3565E-03,            0.,NA,NA,"",   1.04531E+06,   1.05268E+06,   1.05268E+06
C:/temp/Job-1.odb,Step-1,Increment      1: Step Time =    1.000,"P-1-1",         18691,   109.192E-03,   159.939E-03,            0.,NA,NA,"",   1.02154E+06,   1.03953E+06,   1.03953E+06
C:/temp/Job-1.odb,Step-1,Increment      1: Step Time =    1.000,"P-1-1",         18692,   105.746E-03,   157.936E-03,            0.,NA,NA,"",   1.01976E+06,   1.04272E+06,   1.04272E+06
C:/temp/Job-1.odb,Step-1,Increment      1: Step Time =    1.000,"P-1-1",         18693,   72.1939E-03,   159.729E-03,            0.,NA,NA,"",   1.05724E+06,   1.06307E+06,   1.06307E+06
C:/temp/Job-1.odb,Step-1,Increment      1: Step Time =    1.000,"P-1-1",         18694,   78.3528E-03,   148.667E-03,            0.,NA,NA,"",   1.08132E+06,   1.09141E+06,   1.09141E+06
C:/temp/Job-1.odb,Step-1,Increment      1: Step Time =    1.000,"P-1-1",         18695,   165.546E-03,   44.6568E-03,            0.,NA,NA,"",   1.02869E+06,   1.02172E+06,   1.02172E+06
C:/temp/Job-1.odb,Step-1,Increment      1: Step Time =    1.000,"P-1-1",         18696,   29.8741E-03,   103.826E-03,            0.,NA,NA,"",   817.770E+03,   895.402E+03,   895.402E+03
C:/temp/Job-1.odb,Step-1,Increment      1: Step Time =    1.000,"P-1-1",         18697,   44.2892E-03,   32.1469E-03,            0.,NA,NA,"",   1.04463E+06,   1.05941E+06,   1.05941E+06
C:/temp/Job-1.odb,Step-1,Increment      1: Step Time =    1.000,"P-1-1",         18698,   139.764E-03,   134.069E-03,            0.,NA,NA,"",   1.10445E+06,   1.07048E+06,   1.07048E+06
C:/temp/Job-1.odb,Step-1,Increment      1: Step Time =    1.000,"P-1-1",         18699,   139.007E-03,   134.772E-03,            0.,NA,NA,"",   1.10850E+06,   1.07446E+06,   1.07446E+06
C:/temp/Job-1.odb,Step-1,Increment      1: Step Time =    1.000,"P-1-1",         18700,   139.178E-03,   135.811E-03,            0.,NA,NA,"",   1.10750E+06,   1.07460E+06,   1.07460E+06
C:/temp/Job-1.odb,Step-1,Increment      1: Step Time =    1.000,"P-1-1",         18701,   137.745E-03,   136.931E-03,            0.,NA,NA,"",   1.11354E+06,   1.08089E+06,   1.08089E+06
C:/temp/Job-1.odb,Step-1,Increment      1: Step Time =    1.000,"P-1-1",         18702,   165.028E-03,   45.4085E-03,            0.,NA,NA,"",   1.02960E+06,   1.02234E+06,   1.02234E+06
C:/temp/Job-1.odb,Step-1,Increment      1: Step Time =    1.000,"P-1-1",         18703,   78.2752E-03,   149.661E-03,            0.,NA,NA,"",   1.07814E+06,   1.08835E+06,   1.08835E+06
C:/temp/Job-1.odb,Step-1,Increment      1: Step Time =    1.000,"P-1-1",         18704,   98.4734E-03,   151.155E-03,            0.,NA,NA,"",   1.02356E+06,   1.05917E+06,   1.05917E+06
C:/temp/Job-1.odb,Step-1,Increment      1: Step Time =    1.000,"P-1-1",         18705,   141.645E-03,   30.7645E-03,            0.,NA,NA,"",   1.03213E+06,   1.02534E+06,   1.02534E+06
C:/temp/Job-1.odb,Step-1,Increment      1: Step Time =    1.000,"P-1-1",         18706,   41.9004E-03,   31.3757E-03,            0.,NA,NA,"",   1.04364E+06,   1.06060E+06,   1.06060E+06
C:/temp/Job-1.odb,Step-1,Increment      1: Step Time =    1.000,"P-1-1",         18707,   97.5777E-03,   152.201E-03,            0.,NA,NA,"",   1.02300E+06,   1.05681E+06,   1.05681E+06
C:/temp/Job-1.odb,Step-1,Increment      1: Step Time =    1.000,"P-1-1",         18708,   163.230E-03,   59.1858E-03,            0.,NA,NA,"",   1.03159E+06,   1.02250E+06,   1.02250E+06
C:/temp/Job-1.odb,Step-1,Increment      1: Step Time =    1.000,"P-1-1",         18709,   84.4420E-03,   30.9265E-03,            0.,NA,NA,"",   1.01723E+06,   1.02732E+06,   1.02732E+06
C:/temp/Job-1.odb,Step-1,Increment      1: Step Time =    1.000,"P-1-1",         18710,   157.682E-03,   118.249E-03,            0.,NA,NA,"",   976.130E+03,   973.842E+03,   973.842E+03
C:/temp/Job-1.odb,Step-1,Increment      1: Step Time =    1.000,"P-1-1",         18711,   153.968E-03,   117.417E-03,            0.,NA,NA,"",   972.613E+03,   967.707E+03,   967.707E+03
C:/temp/Job-1.odb,Step-1,Increment      1: Step Time =    1.000,"P-1-1",         18712,   141.452E-03,   164.811E-03,            0.,NA,NA,"",   1.04297E+06,   1.03412E+06,   1.03412E+06
C:/temp/Job-1.odb,Step-1,Increment      1: Step Time =    1.000,"P-1-1",         18713,   139.744E-03,   163.722E-03,            0.,NA,NA,"",   1.04599E+06,   1.03700E+06,   1.03700E+06
C:/temp/Job-1.odb,Step-1,Increment      1: Step Time =    1.000,"P-1-1",         18714,   48.2864E-03,   29.5162E-03,            0.,NA,NA,"",   1.04629E+06,   1.05571E+06,   1.05571E+06
C:/temp/Job-1.odb,Step-1,Increment      1: Step Time =    1.000,"P-1-1",         18715,   111.988E-03,   160.506E-03,            0.,NA,NA,"",   1.02533E+06,   1.03992E+06,   1.03992E+06
C:/temp/Job-1.odb,Step-1,Increment      1: Step Time =    1.000,"P-1-1",         18716,   100.375E-03,   156.800E-03,            0.,NA,NA,"",   1.01727E+06,   1.04456E+06,   1.04456E+06
C:/temp/Job-1.odb,Step-1,Increment      1: Step Time =    1.000,"P-1-1",         18717,   101.466E-03,   156.320E-03,            0.,NA,NA,"",   1.01784E+06,   1.04547E+06,   1.04547E+06
C:/temp/Job-1.odb,Step-1,Increment      1: Step Time =    1.000,"P-1-1",         18718,   114.833E-03,   161.045E-03,            0.,NA,NA,"",   1.02947E+06,   1.04055E+06,   1.04055E+06
C:/temp/Job-1.odb,Step-1,Increment      1: Step Time =    1.000,"P-1-1",         18719,   129.427E-03,   140.417E-03,            0.,NA,NA,"",   1.12971E+06,   1.10468E+06,   1.10468E+06
C:/temp/Job-1.odb,Step-1,Increment      1: Step Time =    1.000,"P-1-1",         18720,   68.1792E-03,   57.8341E-03,            0.,NA,NA,"",   1.10060E+06,   1.09757E+06,   1.09757E+06
C:/temp/Job-1.odb,Step-1,Increment      1: Step Time =    1.000,"P-1-1",         18721,   32.6249E-03,   40.2355E-03,            0.,NA,NA,"",   1.00841E+06,   1.04848E+06,   1.04848E+06
C:/temp/Job-1.odb,Step-1,Increment      1: Step Time =    1.000,"P-1-1",         18722,   157.879E-03,   56.1798E-03,            0.,NA,NA,"",   1.04597E+06,   1.03243E+06,   1.03243E+06
C:/temp/Job-1.odb,Step-1,Increment      1: Step Time =    1.000,"P-1-1",         18723,   28.5104E-03,   81.6930E-03,            0.,NA,NA,"",   848.119E+03,   922.853E+03,   922.853E+03
C:/temp/Job-1.odb,Step-1,Increment      1: Step Time =    1.000,"P-1-1",         18724,   161.986E-03,   66.7649E-03,            0.,NA,NA,"",   1.02329E+06,   1.01476E+06,   1.01476E+06
C:/temp/Job-1.odb,Step-1,Increment      1: Step Time =    1.000,"P-1-1",         18725,   29.2072E-03,   82.7307E-03,            0.,NA,NA,"",   846.281E+03,   920.548E+03,   920.548E+03
C:/temp/Job-1.odb,Step-1,Increment      1: Step Time =    1.000,"P-1-1",         18726,   28.8407E-03,   94.0911E-03,            0.,NA,NA,"",   819.175E+03,   897.517E+03,   897.517E+03
C:/temp/Job-1.odb,Step-1,Increment      1: Step Time =    1.000,"P-1-1",         18727,   29.6146E-03,   121.226E-03,            0.,NA,NA,"",   860.957E+03,   932.663E+03,   932.663E+03
C:/temp/Job-1.odb,Step-1,Increment      1: Step Time =    1.000,"P-1-1",         18728,   160.877E-03,   134.589E-03,            0.,NA,NA,"",   1.02823E+06,   1.01823E+06,   1.01823E+06
C:/temp/Job-1.odb,Step-1,Increment      1: Step Time =    1.000,"P-1-1",         18729,   28.3288E-03,   62.7111E-03,            0.,NA,NA,"",   915.871E+03,   980.925E+03,   980.925E+03
C:/temp/Job-1.odb,Step-1,Increment      1: Step Time =    1.000,"P-1-1",         18730,   126.623E-03,   146.378E-03,            0.,NA,NA,"",   1.10293E+06,   1.09079E+06,   1.09079E+06
C:/temp/Job-1.odb,Step-1,Increment      1: Step Time =    1.000,"P-1-1",         18731,   161.713E-03,   159.002E-03,            0.,NA,NA,"",   1.03183E+06,   1.02384E+06,   1.02384E+06
C:/temp/Job-1.odb,Step-1,Increment      1: Step Time =    1.000,"P-1-1",         18732,   40.2964E-03,   115.606E-03,            0.,NA,NA,"",   860.592E+03,   919.991E+03,   919.991E+03
C:/temp/Job-1.odb,Step-1,Increment      1: Step Time =    1.000,"P-1-1",         18733,   28.0384E-03,   161.328E-03,            0.,NA,NA,"",   1.00011E+06,   1.04786E+06,   1.04786E+06
C:/temp/Job-1.odb,Step-1,Increment      1: Step Time =    1.000,"P-1-1",         18734,   94.5917E-03,   152.996E-03,            0.,NA,NA,"",   1.02621E+06,   1.05728E+06,   1.05728E+06
C:/temp/Job-1.odb,Step-1,Increment      1: Step Time =    1.000,"P-1-1",         18735,   64.7619E-03,   145.015E-03,            0.,NA,NA,"",   1.08573E+06,   1.08603E+06,   1.08603E+06
C:/temp/Job-1.odb,Step-1,Increment      1: Step Time =    1.000,"P-1-1",         18736,   157.783E-03,   95.8027E-03,            0.,NA,NA,"",   919.787E+03,   929.965E+03,   929.965E+03
C:/temp/Job-1.odb,Step-1,Increment      1: Step Time =    1.000,"P-1-1",         18737,   141.293E-03,   163.292E-03,            0.,NA,NA,"",   1.04688E+06,   1.03724E+06,   1.03724E+06
C:/temp/Job-1.odb,Step-1,Increment      1: Step Time =    1.000,"P-1-1",         18738,   27.4903E-03,   66.2912E-03,            0.,NA,NA,"",   899.733E+03,   968.156E+03,   968.156E+03
C:/temp/Job-1.odb,Step-1,Increment      1: Step Time =    1.000,"P-1-1",         18739,   27.3756E-03,   67.3799E-03,            0.,NA,NA,"",   895.355E+03,   964.579E+03,   964.579E+03
C:/temp/Job-1.odb,Step-1,Increment      1: Step Time =    1.000,"P-1-1",         18740,   28.7837E-03,   67.6543E-03,            0.,NA,NA,"",   899.444E+03,   966.445E+03,   966.445E+03
C:/temp/Job-1.odb,Step-1,Increment      1: Step Time =    1.000,"P-1-1",         18741,   58.1722E-03,   162.876E-03,            0.,NA,NA,"",   1.05460E+06,   1.06044E+06,   1.06044E+06
C:/temp/Job-1.odb,Step-1,Increment      1: Step Time =    1.000,"P-1-1",         18742,   101.258E-03,   32.8393E-03,            0.,NA,NA,"",   1.00498E+06,   1.02076E+06,   1.02076E+06
C:/temp/Job-1.odb,Step-1,Increment      1: Step Time =    1.000,"P-1-1",         18743,   140.067E-03,   30.8861E-03,            0.,NA,NA,"",   1.03241E+06,   1.02588E+06,   1.02588E+06
C:/temp/Job-1.odb,Step-1,Increment      1: Step Time =    1.000,"P-1-1",         18744,   29.1995E-03,   90.7506E-03,            0.,NA,NA,"",   825.265E+03,   902.484E+03,   902.484E+03
C:/temp/Job-1.odb,Step-1,Increment      1: Step Time =    1.000,"P-1-1",         18745,   74.9342E-03,   156.888E-03,            0.,NA,NA,"",   1.06143E+06,   1.06888E+06,   1.06888E+06
C:/temp/Job-1.odb,Step-1,Increment      1: Step Time =    1.000,"P-1-1",         18746,   148.379E-03,   130.493E-03,            0.,NA,NA,"",   1.05565E+06,   1.03204E+06,   1.03204E+06
C:/temp/Job-1.odb,Step-1,Increment      1: Step Time =    1.000,"P-1-1",         18747,   151.247E-03,   161.012E-03,            0.,NA,NA,"",   1.04334E+06,   1.03267E+06,   1.03267E+06
C:/temp/Job-1.odb,Step-1,Increment      1: Step Time =    1.000,"P-1-1",         18748,   56.2589E-03,   36.7561E-03,            0.,NA,NA,"",   1.05322E+06,   1.05998E+06,   1.05998E+06
C:/temp/Job-1.odb,Step-1,Increment      1: Step Time =    1.000,"P-1-1",         18749,   26.8337E-03,   108.201E-03,            0.,NA,NA,"",   820.222E+03,   900.354E+03,   900.354E+03
C:/temp/Job-1.odb,Step-1,Increment      1: Step Time =    1.000,"P-1-1",         18750,   28.5810E-03,   49.7666E-03,            0.,NA,NA,"",   963.213E+03,   1.01931E+06,   1.01931E+06
C:/temp/Job-1.odb,Step-1,Increment      1: Step Time =    1.000,"P-1-1",         18751,   152.403E-03,   159.304E-03,            0.,NA,NA,"",   1.04465E+06,   1.03348E+06,   1.03348E+06
C:/temp/Job-1.odb,Step-1,Increment      1: Step Time =    1.000,"P-1-1",         18752,   152.644E-03,   158.134E-03,            0.,NA,NA,"",   1.04623E+06,   1.03457E+06,   1.03457E+06
C:/temp/Job-1.odb,Step-1,Increment      1: Step Time =    1.000,"P-1-1",         18753,   66.5011E-03,   159.822E-03,            0.,NA,NA,"",   1.06036E+06,   1.06454E+06,   1.06454E+06
C:/temp/Job-1.odb,Step-1,Increment      1: Step Time =    1.000,"P-1-1",         18754,   34.4178E-03,   45.7211E-03,            0.,NA,NA,"",   997.665E+03,   1.03886E+06,   1.03886E+06
C:/temp/Job-1.odb,Step-1,Increment      1: Step Time =    1.000,"P-1-1",         18755,   156.321E-03,   73.9985E-03,            0.,NA,NA,"",   1.01350E+06,   1.00274E+06,   1.00274E+06
C:/temp/Job-1.odb,Step-1,Increment      1: Step Time =    1.000,"P-1-1",         18756,   151.218E-03,   72.3068E-03,            0.,NA,NA,"",   1.03454E+06,   1.01602E+06,   1.01602E+06
C:/temp/Job-1.odb,Step-1,Increment      1: Step Time =    1.000,"P-1-1",         18757,   159.174E-03,   51.1519E-03,            0.,NA,NA,"",   1.04306E+06,   1.03127E+06,   1.03127E+06
C:/temp/Job-1.odb,Step-1,Increment      1: Step Time =    1.000,"P-1-1",         18758,   55.1313E-03,   36.9214E-03,            0.,NA,NA,"",   1.05261E+06,   1.06010E+06,   1.06010E+06
C:/temp/Job-1.odb,Step-1,Increment      1: Step Time =    1.000,"P-1-1",         18759,   159.355E-03,   107.444E-03,            0.,NA,NA,"",   932.733E+03,   941.418E+03,   941.418E+03
C:/temp/Job-1.odb,Step-1,Increment      1: Step Time =    1.000,"P-1-1",         18760,   159.788E-03,   109.011E-03,            0.,NA,NA,"",   938.452E+03,   946.267E+03,   946.267E+03
C:/temp/Job-1.odb,Step-1,Increment      1: Step Time =    1.000,"P-1-1",         18761,   48.9951E-03,   119.366E-03,            0.,NA,NA,"",   905.529E+03,   944.882E+03,   944.882E+03
C:/temp/Job-1.odb,Step-1,Increment      1: Step Time =    1.000,"P-1-1",         18762,   52.8670E-03,   125.846E-03,            0.,NA,NA,"",   971.275E+03,   994.019E+03,   994.019E+03
C:/temp/Job-1.odb,Step-1,Increment      1: Step Time =    1.000,"P-1-1",         18763,   140.659E-03,   55.9110E-03,            0.,NA,NA,"",   1.09330E+06,   1.06921E+06,   1.06921E+06
C:/temp/Job-1.odb,Step-1,Increment      1: Step Time =    1.000,"P-1-1",         18764,   67.6886E-03,   51.9610E-03,            0.,NA,NA,"",   1.08599E+06,   1.08726E+06,   1.08726E+06
C:/temp/Job-1.odb,Step-1,Increment      1: Step Time =    1.000,"P-1-1",         18765,   31.3838E-03,   79.0747E-03,            0.,NA,NA,"",   863.995E+03,   933.381E+03,   933.381E+03
C:/temp/Job-1.odb,Step-1,Increment      1: Step Time =    1.000,"P-1-1",         18766,   145.018E-03,   162.416E-03,            0.,NA,NA,"",   1.04661E+06,   1.03613E+06,   1.03613E+06
C:/temp/Job-1.odb,Step-1,Increment      1: Step Time =    1.000,"P-1-1",         18767,   87.9489E-03,   47.2754E-03,            0.,NA,NA,"",   1.04228E+06,   1.06670E+06,   1.06670E+06
C:/temp/Job-1.odb,Step-1,Increment      1: Step Time =    1.000,"P-1-1",         18768,   135.989E-03,   54.4877E-03,            0.,NA,NA,"",   1.10040E+06,   1.07817E+06,   1.07817E+06
C:/temp/Job-1.odb,Step-1,Increment      1: Step Time =    1.000,"P-1-1",         18769,   132.568E-03,   53.2336E-03,            0.,NA,NA,"",   1.10108E+06,   1.08210E+06,   1.08210E+06
C:/temp/Job-1.odb,Step-1,Increment      1: Step Time =    1.000,"P-1-1",         18770,   119.735E-03,   30.7064E-03,            0.,NA,NA,"",   1.01780E+06,   1.02183E+06,   1.02183E+06
C:/temp/Job-1.odb,Step-1,Increment      1: Step Time =    1.000,"P-1-1",         18771,   49.2929E-03,   29.1832E-03,            0.,NA,NA,"",   1.04610E+06,   1.05446E+06,   1.05446E+06
C:/temp/Job-1.odb,Step-1,Increment      1: Step Time =    1.000,"P-1-1",         18772,   28.9988E-03,   51.8039E-03,            0.,NA,NA,"",   957.988E+03,   1.01451E+06,   1.01451E+06
C:/temp/Job-1.odb,Step-1,Increment      1: Step Time =    1.000,"P-1-1",         18773,   30.5335E-03,   53.1496E-03,            0.,NA,NA,"",   959.261E+03,   1.01378E+06,   1.01378E+06
C:/temp/Job-1.odb,Step-1,Increment      1: Step Time =    1.000,"P-1-1",         18774,   32.3806E-03,   143.223E-03,            0.,NA,NA,"",   953.421E+03,   1.00685E+06,   1.00685E+06
C:/temp/Job-1.odb,Step-1,Increment      1: Step Time =    1.000,"P-1-1",         18775,   32.8409E-03,   144.524E-03,            0.,NA,NA,"",   960.082E+03,   1.01167E+06,   1.01167E+06
C:/temp/Job-1.odb,Step-1,Increment      1: Step Time =    1.000,"P-1-1",         18776,   33.4223E-03,   145.926E-03,            0.,NA,NA,"",   967.378E+03,   1.01677E+06,   1.01677E+06
C:/temp/Job-1.odb,Step-1,Increment      1: Step Time =    1.000,"P-1-1",         18777,   117.805E-03,   154.724E-03,            0.,NA,NA,"",   1.05249E+06,   1.06116E+06,   1.06116E+06
C:/temp/Job-1.odb,Step-1,Increment      1: Step Time =    1.000,"P-1-1",         18778,   150.868E-03,   68.2325E-03,            0.,NA,NA,"",   1.05025E+06,   1.02965E+06,   1.02965E+06
C:/temp/Job-1.odb,Step-1,Increment      1: Step Time =    1.000,"P-1-1",         18779,   28.8510E-03,   87.5318E-03,            0.,NA,NA,"",   831.981E+03,   908.615E+03,   908.615E+03
C:/temp/Job-1.odb,Step-1,Increment      1: Step Time =    1.000,"P-1-1",         18780,   29.8068E-03,   153.441E-03,            0.,NA,NA,"",   978.855E+03,   1.03000E+06,   1.03000E+06
C:/temp/Job-1.odb,Step-1,Increment      1: Step Time =    1.000,"P-1-1",         18781,   157.337E-03,   156.680E-03,            0.,NA,NA,"",   1.04089E+06,   1.03035E+06,   1.03035E+06
C:/temp/Job-1.odb,Step-1,Increment      1: Step Time =    1.000,"P-1-1",         18782,   122.854E-03,   156.811E-03,            0.,NA,NA,"",   1.05660E+06,   1.05754E+06,   1.05754E+06
C:/temp/Job-1.odb,Step-1,Increment      1: Step Time =    1.000,"P-1-1",         18783,   135.440E-03,   33.4496E-03,            0.,NA,NA,"",   1.03851E+06,   1.03233E+06,   1.03233E+06
C:/temp/Job-1.odb,Step-1,Increment      1: Step Time =    1.000,"P-1-1",         18784,   65.7865E-03,   35.2285E-03,            0.,NA,NA,"",   1.05090E+06,   1.05485E+06,   1.05485E+06
C:/temp/Job-1.odb,Step-1,Increment      1: Step Time =    1.000,"P-1-1",         18785,   62.3384E-03,   35.4868E-03,            0.,NA,NA,"",   1.05263E+06,   1.05683E+06,   1.05683E+06
C:/temp/Job-1.odb,Step-1,Increment      1: Step Time =    1.000,"P-1-1",         18786,   60.0567E-03,   37.0483E-03,            0.,NA,NA,"",   1.05507E+06,   1.06005E+06,   1.06005E+06
C:/temp/Job-1.odb,Step-1,Increment      1: Step Time =    1.000,"P-1-1",         18787,   82.2007E-03,   157.319E-03,            0.,NA,NA,"",   1.04627E+06,   1.06068E+06,   1.06068E+06
C:/temp/Job-1.odb,Step-1,Increment      1: Step Time =    1.000,"P-1-1",         18788,   128.449E-03,   32.4431E-03,            0.,NA,NA,"",   1.03180E+06,   1.02965E+06,   1.02965E+06
C:/temp/Job-1.odb,Step-1,Increment      1: Step Time =    1.000,"P-1-1",         18789,   124.400E-03,   32.7901E-03,            0.,NA,NA,"",   1.02875E+06,   1.02949E+06,   1.02949E+06
C:/temp/Job-1.odb,Step-1,Increment      1: Step Time =    1.000,"P-1-1",         18790,   149.151E-03,   27.8913E-03,            0.,NA,NA,"",   1.02416E+06,   1.01809E+06,   1.01809E+06
C:/temp/Job-1.odb,Step-1,Increment      1: Step Time =    1.000,"P-1-1",         18791,   33.8544E-03,   38.2776E-03,            0.,NA,NA,"",   1.01813E+06,   1.05364E+06,   1.05364E+06
C:/temp/Job-1.odb,Step-1,Increment      1: Step Time =    1.000,"P-1-1",         18792,   33.7768E-03,   128.231E-03,            0.,NA,NA,"",   901.384E+03,   962.045E+03,   962.045E+03
C:/temp/Job-1.odb,Step-1,Increment      1: Step Time =    1.000,"P-1-1",         18793,   70.3354E-03,   159.179E-03,            0.,NA,NA,"",   1.06029E+06,   1.06526E+06,   1.06526E+06
C:/temp/Job-1.odb,Step-1,Increment      1: Step Time =    1.000,"P-1-1",         18794,   106.791E-03,   157.279E-03,            0.,NA,NA,"",   1.02215E+06,   1.04490E+06,   1.04490E+06
C:/temp/Job-1.odb,Step-1,Increment      1: Step Time =    1.000,"P-1-1",         18795,   152.246E-03,   128.379E-03,            0.,NA,NA,"",   1.03426E+06,   1.01677E+06,   1.01677E+06
C:/temp/Job-1.odb,Step-1,Increment      1: Step Time =    1.000,"P-1-1",         18796,   54.0495E-03,   128.725E-03,            0.,NA,NA,"",   996.863E+03,   1.01411E+06,   1.01411E+06
C:/temp/Job-1.odb,Step-1,Increment      1: Step Time =    1.000,"P-1-1",         18797,   58.8877E-03,   129.723E-03,            0.,NA,NA,"",   1.03588E+06,   1.04011E+06,   1.04011E+06
C:/temp/Job-1.odb,Step-1,Increment      1: Step Time =    1.000,"P-1-1",         18798,   110.337E-03,   40.6745E-03,            0.,NA,NA,"",   1.02478E+06,   1.04202E+06,   1.04202E+06
C:/temp/Job-1.odb,Step-1,Increment      1: Step Time =    1.000,"P-1-1",         18799,   114.897E-03,   43.2332E-03,            0.,NA,NA,"",   1.03977E+06,   1.05251E+06,   1.05251E+06
C:/temp/Job-1.odb,Step-1,Increment      1: Step Time =    1.000,"P-1-1",         18800,   34.5477E-03,   30.8028E-03,            0.,NA,NA,"",   1.03797E+06,   1.06471E+06,   1.06471E+06
C:/temp/Job-1.odb,Step-1,Increment      1: Step Time =    1.000,"P-1-1",         18801,   68.7322E-03,   37.3002E-03,            0.,NA,NA,"",   1.05337E+06,   1.05786E+06,   1.05786E+06
C:/temp/Job-1.odb,Step-1,Increment      1: Step Time =    1.000,"P-1-1",         18802,   82.0061E-03,   50.0569E-03,            0.,NA,NA,"",   1.06813E+06,   1.08409E+06,   1.08409E+06
C:/temp/Job-1.odb,Step-1,Increment      1: Step Time =    1.000,"P-1-1",         18803,   26.9117E-03,   149.929E-03,            0.,NA,NA,"",   955.648E+03,   1.01532E+06,   1.01532E+06
C:/temp/Job-1.odb,Step-1,Increment      1: Step Time =    1.000,"P-1-1",         18804,   80.1729E-03,   154.477E-03,            0.,NA,NA,"",   1.05835E+06,   1.07124E+06,   1.07124E+06
C:/temp/Job-1.odb,Step-1,Increment      1: Step Time =    1.000,"P-1-1",         18805,   99.3077E-03,   37.0519E-03,            0.,NA,NA,"",   1.01057E+06,   1.03079E+06,   1.03079E+06
C:/temp/Job-1.odb,Step-1,Increment      1: Step Time =    1.000,"P-1-1",         18806,   98.3764E-03,   38.0783E-03,            0.,NA,NA,"",   1.01216E+06,   1.03337E+06,   1.03337E+06
C:/temp/Job-1.odb,Step-1,Increment      1: Step Time =    1.000,"P-1-1",         18807,   118.797E-03,   49.4945E-03,            0.,NA,NA,"",   1.06959E+06,   1.07595E+06,   1.07595E+06
C:/temp/Job-1.odb,Step-1,Increment      1: Step Time =    1.000,"P-1-1",         18808,   121.532E-03,   48.1375E-03,            0.,NA,NA,"",   1.07146E+06,   1.07282E+06,   1.07282E+06
C:/temp/Job-1.odb,Step-1,Increment      1: Step Time =    1.000,"P-1-1",         18809,   29.8607E-03,   105.093E-03,            0.,NA,NA,"",   819.067E+03,   896.408E+03,   896.408E+03
C:/temp/Job-1.odb,Step-1,Increment      1: Step Time =    1.000,"P-1-1",         18810,   111.086E-03,   159.706E-03,            0.,NA,NA,"",   1.02532E+06,   1.04145E+06,   1.04145E+06
C:/temp/Job-1.odb,Step-1,Increment      1: Step Time =    1.000,"P-1-1",         18811,   42.9977E-03,   100.586E-03,            0.,NA,NA,"",   812.437E+03,   876.341E+03,   876.341E+03
C:/temp/Job-1.odb,Step-1,Increment      1: Step Time =    1.000,"P-1-1",         18812,   54.6158E-03,   161.812E-03,            0.,NA,NA,"",   1.05300E+06,   1.06118E+06,   1.06118E+06
C:/temp/Job-1.odb,Step-1,Increment      1: Step Time =    1.000,"P-1-1",         18813,   120.737E-03,   160.390E-03,            0.,NA,NA,"",   1.04222E+06,   1.04634E+06,   1.04634E+06
C:/temp/Job-1.odb,Step-1,Increment      1: Step Time =    1.000,"P-1-1",         18814,   107.413E-03,   154.671E-03,            0.,NA,NA,"",   1.02699E+06,   1.05193E+06,   1.05193E+06
C:/temp/Job-1.odb,Step-1,Increment      1: Step Time =    1.000,"P-1-1",         18815,   104.768E-03,   155.276E-03,            0.,NA,NA,"",   1.02181E+06,   1.04874E+06,   1.04874E+06
C:/temp/Job-1.odb,Step-1,Increment      1: Step Time =    1.000,"P-1-1",         18816,   124.717E-03,   158.724E-03,            0.,NA,NA,"",   1.05359E+06,   1.05258E+06,   1.05258E+06
C:/temp/Job-1.odb,Step-1,Increment      1: Step Time =    1.000,"P-1-1",         18817,   70.9571E-03,   150.842E-03,            0.,NA,NA,"",   1.08104E+06,   1.08458E+06,   1.08458E+06
C:/temp/Job-1.odb,Step-1,Increment      1: Step Time =    1.000,"P-1-1",         18818,   73.7742E-03,   151.666E-03,            0.,NA,NA,"",   1.07739E+06,   1.08308E+06,   1.08308E+06
C:/temp/Job-1.odb,Step-1,Increment      1: Step Time =    1.000,"P-1-1",         18819,   66.3884E-03,   37.7768E-03,            0.,NA,NA,"",   1.05569E+06,   1.05983E+06,   1.05983E+06
C:/temp/Job-1.odb,Step-1,Increment      1: Step Time =    1.000,"P-1-1",         18820,   135.981E-03,   139.202E-03,            0.,NA,NA,"",   1.11673E+06,   1.08641E+06,   1.08641E+06
C:/temp/Job-1.odb,Step-1,Increment      1: Step Time =    1.000,"P-1-1",         18821,   156.701E-03,   110.555E-03,            0.,NA,NA,"",   937.742E+03,   942.925E+03,   942.925E+03
C:/temp/Job-1.odb,Step-1,Increment      1: Step Time =    1.000,"P-1-1",         18822,   101.676E-03,   39.8868E-03,            0.,NA,NA,"",   1.01368E+06,   1.03627E+06,   1.03627E+06
C:/temp/Job-1.odb,Step-1,Increment      1: Step Time =    1.000,"P-1-1",         18823,   43.9138E-03,   87.5343E-03,            0.,NA,NA,"",   848.907E+03,   905.467E+03,   905.467E+03
C:/temp/Job-1.odb,Step-1,Increment      1: Step Time =    1.000,"P-1-1",         18824,   140.234E-03,   132.435E-03,            0.,NA,NA,"",   1.09978E+06,   1.06513E+06,   1.06513E+06
C:/temp/Job-1.odb,Step-1,Increment      1: Step Time =    1.000,"P-1-1",         18825,   157.045E-03,   43.6184E-03,            0.,NA,NA,"",   1.04175E+06,   1.03096E+06,   1.03096E+06
C:/temp/Job-1.odb,Step-1,Increment      1: Step Time =    1.000,"P-1-1",         18826,   44.6978E-03,   104.498E-03,            0.,NA,NA,"",   815.154E+03,   876.387E+03,   876.387E+03
C:/temp/Job-1.odb,Step-1,Increment      1: Step Time =    1.000,"P-1-1",         18827,   43.8374E-03,   92.7195E-03,            0.,NA,NA,"",   825.005E+03,   885.682E+03,   885.682E+03
C:/temp/Job-1.odb,Step-1,Increment      1: Step Time =    1.000,"P-1-1",         18828,   38.9811E-03,   31.1818E-03,            0.,NA,NA,"",   1.04143E+06,   1.06203E+06,   1.06203E+06
C:/temp/Job-1.odb,Step-1,Increment      1: Step Time =    1.000,"P-1-1",         18829,   154.251E-03,   106.157E-03,            0.,NA,NA,"",   911.889E+03,   920.315E+03,   920.315E+03
C:/temp/Job-1.odb,Step-1,Increment      1: Step Time =    1.000,"P-1-1",         18830,   74.7465E-03,   38.5869E-03,            0.,NA,NA,"",   1.05003E+06,   1.05707E+06,   1.05707E+06
C:/temp/Job-1.odb,Step-1,Increment      1: Step Time =    1.000,"P-1-1",         18831,   63.2523E-03,   143.681E-03,            0.,NA,NA,"",   1.08245E+06,   1.08306E+06,   1.08306E+06
C:/temp/Job-1.odb,Step-1,Increment      1: Step Time =    1.000,"P-1-1",         18832,   41.5218E-03,   109.425E-03,            0.,NA,NA,"",   833.597E+03,   895.896E+03,   895.896E+03
C:/temp/Job-1.odb,Step-1,Increment      1: Step Time =    1.000,"P-1-1",         18833,   41.0492E-03,   110.739E-03,            0.,NA,NA,"",   838.855E+03,   900.880E+03,   900.880E+03
C:/temp/Job-1.odb,Step-1,Increment      1: Step Time =    1.000,"P-1-1",         18834,   157.229E-03,   54.3075E-03,            0.,NA,NA,"",   1.04792E+06,   1.03415E+06,   1.03415E+06
C:/temp/Job-1.odb,Step-1,Increment      1: Step Time =    1.000,"P-1-1",         18835,   94.1285E-03,   36.5273E-03,            0.,NA,NA,"",   1.01333E+06,   1.03216E+06,   1.03216E+06
C:/temp/Job-1.odb,Step-1,Increment      1: Step Time =    1.000,"P-1-1",         18836,   121.040E-03,   156.709E-03,            0.,NA,NA,"",   1.05366E+06,   1.05715E+06,   1.05715E+06
C:/temp/Job-1.odb,Step-1,Increment      1: Step Time =    1.000,"P-1-1",         18837,   124.767E-03,   51.0337E-03,            0.,NA,NA,"",   1.08961E+06,   1.08331E+06,   1.08331E+06
C:/temp/Job-1.odb,Step-1,Increment      1: Step Time =    1.000,"P-1-1",         18838,   125.023E-03,   49.8406E-03,            0.,NA,NA,"",   1.08470E+06,   1.07907E+06,   1.07907E+06
C:/temp/Job-1.odb,Step-1,Increment      1: Step Time =    1.000,"P-1-1",         18839,   71.3458E-03,   52.2748E-03,            0.,NA,NA,"",   1.08974E+06,   1.09193E+06,   1.09193E+06
C:/temp/Job-1.odb,Step-1,Increment      1: Step Time =    1.000,"P-1-1",         18840,   58.3939E-03,   60.3538E-03,            0.,NA,NA,"",   1.06141E+06,   1.06646E+06,   1.06646E+06
C:/temp/Job-1.odb,Step-1,Increment      1: Step Time =    1.000,"P-1-1",         18841,   49.5987E-03,   122.094E-03,            0.,NA,NA,"",   927.694E+03,   962.588E+03,   962.588E+03
C:/temp/Job-1.odb,Step-1,Increment      1: Step Time =    1.000,"P-1-1",         18842,   157.032E-03,   94.9264E-03,            0.,NA,NA,"",   918.921E+03,   928.560E+03,   928.560E+03
C:/temp/Job-1.odb,Step-1,Increment      1: Step Time =    1.000,"P-1-1",         18843,   32.3643E-03,   96.8821E-03,            0.,NA,NA,"",   818.758E+03,   893.649E+03,   893.649E+03
C:/temp/Job-1.odb,Step-1,Increment      1: Step Time =    1.000,"P-1-1",         18844,   120.703E-03,   30.9083E-03,            0.,NA,NA,"",   1.01929E+06,   1.02265E+06,   1.02265E+06
C:/temp/Job-1.odb,Step-1,Increment      1: Step Time =    1.000,"P-1-1",         18845,   155.811E-03,   109.640E-03,            0.,NA,NA,"",   931.208E+03,   936.848E+03,   936.848E+03
C:/temp/Job-1.odb,Step-1,Increment      1: Step Time =    1.000,"P-1-1",         18846,   131.986E-03,   139.275E-03,            0.,NA,NA,"",   1.12915E+06,   1.09975E+06,   1.09975E+06
C:/temp/Job-1.odb,Step-1,Increment      1: Step Time =    1.000,"P-1-1",         18847,   108.450E-03,   34.7825E-03,            0.,NA,NA,"",   1.01203E+06,   1.02630E+06,   1.02630E+06
C:/temp/Job-1.odb,Step-1,Increment      1: Step Time =    1.000,"P-1-1",         18848,   157.558E-03,   140.638E-03,            0.,NA,NA,"",   1.04490E+06,   1.03085E+06,   1.03085E+06
C:/temp/Job-1.odb,Step-1,Increment      1: Step Time =    1.000,"P-1-1",         18849,   108.472E-03,   154.777E-03,            0.,NA,NA,"",   1.02902E+06,   1.05264E+06,   1.05264E+06
C:/temp/Job-1.odb,Step-1,Increment      1: Step Time =    1.000,"P-1-1",         18850,   156.468E-03,   41.5636E-03,            0.,NA,NA,"",   1.04023E+06,   1.02995E+06,   1.02995E+06
C:/temp/Job-1.odb,Step-1,Increment      1: Step Time =    1.000,"P-1-1",         18851,   154.182E-03,   107.207E-03,            0.,NA,NA,"",   915.523E+03,   923.126E+03,   923.126E+03
C:/temp/Job-1.odb,Step-1,Increment      1: Step Time =    1.000,"P-1-1",         18852,   153.856E-03,   108.639E-03,            0.,NA,NA,"",   921.494E+03,   927.407E+03,   927.407E+03
C:/temp/Job-1.odb,Step-1,Increment      1: Step Time =    1.000,"P-1-1",         18853,   156.690E-03,   106.912E-03,            0.,NA,NA,"",   923.198E+03,   931.533E+03,   931.533E+03
C:/temp/Job-1.odb,Step-1,Increment      1: Step Time =    1.000,"P-1-1",         18854,   156.471E-03,   107.910E-03,            0.,NA,NA,"",   925.241E+03,   932.834E+03,   932.834E+03
C:/temp/Job-1.odb,Step-1,Increment      1: Step Time =    1.000,"P-1-1",         18855,   55.1164E-03,   38.2820E-03,            0.,NA,NA,"",   1.05350E+06,   1.06129E+06,   1.06129E+06
C:/temp/Job-1.odb,Step-1,Increment      1: Step Time =    1.000,"P-1-1",         18856,   72.3432E-03,   157.674E-03,            0.,NA,NA,"",   1.06228E+06,   1.06811E+06,   1.06811E+06
C:/temp/Job-1.odb,Step-1,Increment      1: Step Time =    1.000,"P-1-1",         18857,   74.0330E-03,   155.935E-03,            0.,NA,NA,"",   1.06497E+06,   1.07167E+06,   1.07167E+06
C:/temp/Job-1.odb,Step-1,Increment      1: Step Time =    1.000,"P-1-1",         18858,   126.336E-03,   158.162E-03,            0.,NA,NA,"",   1.05743E+06,   1.05435E+06,   1.05435E+06
C:/temp/Job-1.odb,Step-1,Increment      1: Step Time =    1.000,"P-1-1",         18859,   150.753E-03,   160.352E-03,            0.,NA,NA,"",   1.04506E+06,   1.03397E+06,   1.03397E+06
C:/temp/Job-1.odb,Step-1,Increment      1: Step Time =    1.000,"P-1-1",         18860,   151.497E-03,   159.000E-03,            0.,NA,NA,"",   1.04619E+06,   1.03469E+06,   1.03469E+06
C:/temp/Job-1.odb,Step-1,Increment      1: Step Time =    1.000,"P-1-1",         18861,   151.021E-03,   157.951E-03,            0.,NA,NA,"",   1.04864E+06,   1.03651E+06,   1.03651E+06
C:/temp/Job-1.odb,Step-1,Increment      1: Step Time =    1.000,"P-1-1",         18862,   151.337E-03,   156.350E-03,            0.,NA,NA,"",   1.05089E+06,   1.03801E+06,   1.03801E+06
C:/temp/Job-1.odb,Step-1,Increment      1: Step Time =    1.000,"P-1-1",         18863,   127.453E-03,   147.099E-03,            0.,NA,NA,"",   1.10053E+06,   1.08792E+06,   1.08792E+06
C:/temp/Job-1.odb,Step-1,Increment      1: Step Time =    1.000,"P-1-1",         18864,   136.986E-03,   32.9282E-03,            0.,NA,NA,"",   1.03747E+06,   1.03093E+06,   1.03093E+06
C:/temp/Job-1.odb,Step-1,Increment      1: Step Time =    1.000,"P-1-1",         18865,   107.455E-03,   35.6097E-03,            0.,NA,NA,"",   1.01222E+06,   1.02776E+06,   1.02776E+06
C:/temp/Job-1.odb,Step-1,Increment      1: Step Time =    1.000,"P-1-1",         18866,   144.500E-03,   134.058E-03,            0.,NA,NA,"",   1.08183E+06,   1.05321E+06,   1.05321E+06
C:/temp/Job-1.odb,Step-1,Increment      1: Step Time =    1.000,"P-1-1",         18867,   158.206E-03,   149.158E-03,            0.,NA,NA,"",   1.04500E+06,   1.03264E+06,   1.03264E+06
C:/temp/Job-1.odb,Step-1,Increment      1: Step Time =    1.000,"P-1-1",         18868,   159.355E-03,   52.5476E-03,            0.,NA,NA,"",   1.04303E+06,   1.03108E+06,   1.03108E+06
C:/temp/Job-1.odb,Step-1,Increment      1: Step Time =    1.000,"P-1-1",         18869,   158.916E-03,   49.5027E-03,            0.,NA,NA,"",   1.04286E+06,   1.03131E+06,   1.03131E+06
C:/temp/Job-1.odb,Step-1,Increment      1: Step Time =    1.000,"P-1-1",         18870,   158.132E-03,   71.1395E-03,            0.,NA,NA,"",   1.02037E+06,   1.00977E+06,   1.00977E+06
C:/temp/Job-1.odb,Step-1,Increment      1: Step Time =    1.000,"P-1-1",         18871,   129.020E-03,   34.0337E-03,            0.,NA,NA,"",   1.03642E+06,   1.03365E+06,   1.03365E+06
C:/temp/Job-1.odb,Step-1,Increment      1: Step Time =    1.000,"P-1-1",         18872,   48.7008E-03,   30.4124E-03,            0.,NA,NA,"",   1.04666E+06,   1.05625E+06,   1.05625E+06
C:/temp/Job-1.odb,Step-1,Increment      1: Step Time =    1.000,"P-1-1",         18873,   154.381E-03,   109.627E-03,            0.,NA,NA,"",   927.226E+03,   932.359E+03,   932.359E+03
C:/temp/Job-1.odb,Step-1,Increment      1: Step Time =    1.000,"P-1-1",         18874,   30.4664E-03,   86.1899E-03,            0.,NA,NA,"",   837.956E+03,   912.138E+03,   912.138E+03
C:/temp/Job-1.odb,Step-1,Increment      1: Step Time =    1.000,"P-1-1",         18875,   57.6846E-03,   162.047E-03,            0.,NA,NA,"",   1.05515E+06,   1.06135E+06,   1.06135E+06
C:/temp/Job-1.odb,Step-1,Increment      1: Step Time =    1.000,"P-1-1",         18876,   58.1611E-03,   161.220E-03,            0.,NA,NA,"",   1.05627E+06,   1.06233E+06,   1.06233E+06
C:/temp/Job-1.odb,Step-1,Increment      1: Step Time =    1.000,"P-1-1",         18877,   58.8870E-03,   160.294E-03,            0.,NA,NA,"",   1.05774E+06,   1.06357E+06,   1.06357E+06
C:/temp/Job-1.odb,Step-1,Increment      1: Step Time =    1.000,"P-1-1",         18878,   139.178E-03,   138.655E-03,            0.,NA,NA,"",   1.10617E+06,   1.07608E+06,   1.07608E+06
C:/temp/Job-1.odb,Step-1,Increment      1: Step Time =    1.000,"P-1-1",         18879,   129.312E-03,   143.899E-03,            0.,NA,NA,"",   1.11428E+06,   1.09492E+06,   1.09492E+06
C:/temp/Job-1.odb,Step-1,Increment      1: Step Time =    1.000,"P-1-1",         18880,   109.295E-03,   157.948E-03,            0.,NA,NA,"",   1.02504E+06,   1.04471E+06,   1.04471E+06
C:/temp/Job-1.odb,Step-1,Increment      1: Step Time =    1.000,"P-1-1",         18881,   157.714E-03,   131.312E-03,            0.,NA,NA,"",   1.02851E+06,   1.01621E+06,   1.01621E+06
C:/temp/Job-1.odb,Step-1,Increment      1: Step Time =    1.000,"P-1-1",         18882,   89.7030E-03,   150.985E-03,            0.,NA,NA,"",   1.04126E+06,   1.06957E+06,   1.06957E+06
C:/temp/Job-1.odb,Step-1,Increment      1: Step Time =    1.000,"P-1-1",         18883,   33.1159E-03,   54.7035E-03,            0.,NA,NA,"",   964.076E+03,   1.01456E+06,   1.01456E+06
C:/temp/Job-1.odb,Step-1,Increment      1: Step Time =    1.000,"P-1-1",         18884,   156.419E-03,   155.392E-03,            0.,NA,NA,"",   1.04379E+06,   1.03240E+06,   1.03240E+06
C:/temp/Job-1.odb,Step-1,Increment      1: Step Time =    1.000,"P-1-1",         18885,   30.0539E-03,   64.9017E-03,            0.,NA,NA,"",   914.794E+03,   977.811E+03,   977.811E+03
C:/temp/Job-1.odb,Step-1,Increment      1: Step Time =    1.000,"P-1-1",         18886,   144.530E-03,   58.8943E-03,            0.,NA,NA,"",   1.08471E+06,   1.06002E+06,   1.06002E+06
C:/temp/Job-1.odb,Step-1,Increment      1: Step Time =    1.000,"P-1-1",         18887,   145.588E-03,   59.6495E-03,            0.,NA,NA,"",   1.08180E+06,   1.05727E+06,   1.05727E+06
C:/temp/Job-1.odb,Step-1,Increment      1: Step Time =    1.000,"P-1-1",         18888,   28.9596E-03,   48.9583E-03,            0.,NA,NA,"",   967.241E+03,   1.02209E+06,   1.02209E+06
C:/temp/Job-1.odb,Step-1,Increment      1: Step Time =    1.000,"P-1-1",         18889,   30.2856E-03,   51.4785E-03,            0.,NA,NA,"",   963.836E+03,   1.01767E+06,   1.01767E+06
C:/temp/Job-1.odb,Step-1,Increment      1: Step Time =    1.000,"P-1-1",         18890,   100.978E-03,   154.219E-03,            0.,NA,NA,"",   1.01995E+06,   1.05040E+06,   1.05040E+06
C:/temp/Job-1.odb,Step-1,Increment      1: Step Time =    1.000,"P-1-1",         18891,   74.9760E-03,   155.177E-03,            0.,NA,NA,"",   1.06594E+06,   1.07328E+06,   1.07328E+06
C:/temp/Job-1.odb,Step-1,Increment      1: Step Time =    1.000,"P-1-1",         18892,   32.4836E-03,   52.6559E-03,            0.,NA,NA,"",   968.419E+03,   1.01872E+06,   1.01872E+06
C:/temp/Job-1.odb,Step-1,Increment      1: Step Time =    1.000,"P-1-1",         18893,   30.6217E-03,   84.6815E-03,            0.,NA,NA,"",   842.862E+03,   916.126E+03,   916.126E+03
C:/temp/Job-1.odb,Step-1,Increment      1: Step Time =    1.000,"P-1-1",         18894,   105.188E-03,   156.677E-03,            0.,NA,NA,"",   1.02073E+06,   1.04552E+06,   1.04552E+06
C:/temp/Job-1.odb,Step-1,Increment      1: Step Time =    1.000,"P-1-1",         18895,   158.991E-03,   65.7145E-03,            0.,NA,NA,"",   1.03239E+06,   1.02048E+06,   1.02048E+06
C:/temp/Job-1.odb,Step-1,Increment      1: Step Time =    1.000,"P-1-1",         18896,   42.8684E-03,   90.9195E-03,            0.,NA,NA,"",   832.379E+03,   893.152E+03,   893.152E+03
C:/temp/Job-1.odb,Step-1,Increment      1: Step Time =    1.000,"P-1-1",         18897,   150.750E-03,   69.6336E-03,            0.,NA,NA,"",   1.04583E+06,   1.02561E+06,   1.02561E+06
C:/temp/Job-1.odb,Step-1,Increment      1: Step Time =    1.000,"P-1-1",         18898,   154.982E-03,   44.0473E-03,            0.,NA,NA,"",   1.04551E+06,   1.03375E+06,   1.03375E+06
C:/temp/Job-1.odb,Step-1,Increment      1: Step Time =    1.000,"P-1-1",         18899,   159.739E-03,   58.8122E-03,            0.,NA,NA,"",   1.04008E+06,   1.02792E+06,   1.02792E+06
C:/temp/Job-1.odb,Step-1,Increment      1: Step Time =    1.000,"P-1-1",         18900,   36.8653E-03,   34.4485E-03,            0.,NA,NA,"",   1.03319E+06,   1.06005E+06,   1.06005E+06
C:/temp/Job-1.odb,Step-1,Increment      1: Step Time =    1.000,"P-1-1",         18901,   135.690E-03,   35.7634E-03,            0.,NA,NA,"",   1.04487E+06,   1.03758E+06,   1.03758E+06
C:/temp/Job-1.odb,Step-1,Increment      1: Step Time =    1.000,"P-1-1",         18902,   117.522E-03,   31.1937E-03,            0.,NA,NA,"",   1.01646E+06,   1.02228E+06,   1.02228E+06
C:/temp/Job-1.odb,Step-1,Increment      1: Step Time =    1.000,"P-1-1",         18903,   61.3918E-03,   157.437E-03,            0.,NA,NA,"",   1.06313E+06,   1.06802E+06,   1.06802E+06
C:/temp/Job-1.odb,Step-1,Increment      1: Step Time =    1.000,"P-1-1",         18904,   78.3665E-03,   48.8441E-03,            0.,NA,NA,"",   1.07255E+06,   1.08320E+06,   1.08320E+06
C:/temp/Job-1.odb,Step-1,Increment      1: Step Time =    1.000,"P-1-1",         18905,   80.3240E-03,   47.4539E-03,            0.,NA,NA,"",   1.06436E+06,   1.07752E+06,   1.07752E+06
C:/temp/Job-1.odb,Step-1,Increment      1: Step Time =    1.000,"P-1-1",         18906,   77.2562E-03,   48.9919E-03,            0.,NA,NA,"",   1.07481E+06,   1.08404E+06,   1.08404E+06
C:/temp/Job-1.odb,Step-1,Increment      1: Step Time =    1.000,"P-1-1",         18907,   143.511E-03,   32.8290E-03,            0.,NA,NA,"",   1.03657E+06,   1.02860E+06,   1.02860E+06
C:/temp/Job-1.odb,Step-1,Increment      1: Step Time =    1.000,"P-1-1",         18908,   142.452E-03,   33.8202E-03,            0.,NA,NA,"",   1.03922E+06,   1.03092E+06,   1.03092E+06
C:/temp/Job-1.odb,Step-1,Increment      1: Step Time =    1.000,"P-1-1",         18909,   109.328E-03,   37.8239E-03,            0.,NA,NA,"",   1.01813E+06,   1.03420E+06,   1.03420E+06
C:/temp/Job-1.odb,Step-1,Increment      1: Step Time =    1.000,"P-1-1",         18910,   30.7120E-03,   149.168E-03,            0.,NA,NA,"",   967.555E+03,   1.02024E+06,   1.02024E+06
C:/temp/Job-1.odb,Step-1,Increment      1: Step Time =    1.000,"P-1-1",         18911,   27.9501E-03,   150.951E-03,            0.,NA,NA,"",   963.340E+03,   1.02011E+06,   1.02011E+06
C:/temp/Job-1.odb,Step-1,Increment      1: Step Time =    1.000,"P-1-1",         18912,   156.350E-03,   140.834E-03,            0.,NA,NA,"",   1.04809E+06,   1.03304E+06,   1.03304E+06
C:/temp/Job-1.odb,Step-1,Increment      1: Step Time =    1.000,"P-1-1",         18913,   60.2978E-03,   38.2379E-03,            0.,NA,NA,"",   1.05662E+06,   1.06162E+06,   1.06162E+06
C:/temp/Job-1.odb,Step-1,Increment      1: Step Time =    1.000,"P-1-1",         18914,   57.8944E-03,   39.4545E-03,            0.,NA,NA,"",   1.05674E+06,   1.06303E+06,   1.06303E+06
C:/temp/Job-1.odb,Step-1,Increment      1: Step Time =    1.000,"P-1-1",         18915,   36.0960E-03,   124.779E-03,            0.,NA,NA,"",   893.757E+03,   952.943E+03,   952.943E+03
C:/temp/Job-1.odb,Step-1,Increment      1: Step Time =    1.000,"P-1-1",         18916,   150.148E-03,   159.190E-03,            0.,NA,NA,"",   1.04778E+06,   1.03603E+06,   1.03603E+06
C:/temp/Job-1.odb,Step-1,Increment      1: Step Time =    1.000,"P-1-1",         18917,   106.303E-03,   35.9482E-03,            0.,NA,NA,"",   1.01167E+06,   1.02845E+06,   1.02845E+06
C:/temp/Job-1.odb,Step-1,Increment      1: Step Time =    1.000,"P-1-1",         18918,   151.458E-03,   67.0060E-03,            0.,NA,NA,"",   1.05188E+06,   1.03172E+06,   1.03172E+06
C:/temp/Job-1.odb,Step-1,Increment      1: Step Time =    1.000,"P-1-1",         18919,   34.9845E-03,   145.343E-03,            0.,NA,NA,"",   971.574E+03,   1.01829E+06,   1.01829E+06
C:/temp/Job-1.odb,Step-1,Increment      1: Step Time =    1.000,"P-1-1",         18920,   88.2344E-03,   46.3079E-03,            0.,NA,NA,"",   1.03964E+06,   1.06354E+06,   1.06354E+06
C:/temp/Job-1.odb,Step-1,Increment      1: Step Time =    1.000,"P-1-1",         18921,   32.3330E-03,   77.8727E-03,            0.,NA,NA,"",   870.603E+03,   938.017E+03,   938.017E+03
C:/temp/Job-1.odb,Step-1,Increment      1: Step Time =    1.000,"P-1-1",         18922,   125.741E-03,   33.6722E-03,            0.,NA,NA,"",   1.03272E+06,   1.03233E+06,   1.03233E+06
C:/temp/Job-1.odb,Step-1,Increment      1: Step Time =    1.000,"P-1-1",         18923,   68.2245E-03,   159.052E-03,            0.,NA,NA,"",   1.06157E+06,   1.06596E+06,   1.06596E+06
C:/temp/Job-1.odb,Step-1,Increment      1: Step Time =    1.000,"P-1-1",         18924,   70.6342E-03,   157.308E-03,            0.,NA,NA,"",   1.06455E+06,   1.06952E+06,   1.06952E+06
C:/temp/Job-1.odb,Step-1,Increment      1: Step Time =    1.000,"P-1-1",         18925,   50.4459E-03,   69.2196E-03,            0.,NA,NA,"",   986.698E+03,   1.01122E+06,   1.01122E+06
C:/temp/Job-1.odb,Step-1,Increment      1: Step Time =    1.000,"P-1-1",         18926,   39.8571E-03,   110.197E-03,            0.,NA,NA,"",   836.501E+03,   900.458E+03,   900.458E+03
C:/temp/Job-1.odb,Step-1,Increment      1: Step Time =    1.000,"P-1-1",         18927,   52.3697E-03,   69.4497E-03,            0.,NA,NA,"",   997.442E+03,   1.01718E+06,   1.01718E+06
C:/temp/Job-1.odb,Step-1,Increment      1: Step Time =    1.000,"P-1-1",         18928,   71.1354E-03,   38.9212E-03,            0.,NA,NA,"",   1.05504E+06,   1.06034E+06,   1.06034E+06
C:/temp/Job-1.odb,Step-1,Increment      1: Step Time =    1.000,"P-1-1",         18929,   64.4681E-03,   146.557E-03,            0.,NA,NA,"",   1.08290E+06,   1.08410E+06,   1.08410E+06
C:/temp/Job-1.odb,Step-1,Increment      1: Step Time =    1.000,"P-1-1",         18930,   63.0219E-03,   146.335E-03,            0.,NA,NA,"",   1.07956E+06,   1.08143E+06,   1.08143E+06
C:/temp/Job-1.odb,Step-1,Increment      1: Step Time =    1.000,"P-1-1",         18931,   61.7716E-03,   142.796E-03,            0.,NA,NA,"",   1.07745E+06,   1.07910E+06,   1.07910E+06
C:/temp/Job-1.odb,Step-1,Increment      1: Step Time =    1.000,"P-1-1",         18932,   62.0836E-03,   144.995E-03,            0.,NA,NA,"",   1.07771E+06,   1.07981E+06,   1.07981E+06
C:/temp/Job-1.odb,Step-1,Increment      1: Step Time =    1.000,"P-1-1",         18933,   31.9319E-03,   119.836E-03,            0.,NA,NA,"",   860.984E+03,   930.225E+03,   930.225E+03
C:/temp/Job-1.odb,Step-1,Increment      1: Step Time =    1.000,"P-1-1",         18934,   110.479E-03,   38.6883E-03,            0.,NA,NA,"",   1.02136E+06,   1.03687E+06,   1.03687E+06
C:/temp/Job-1.odb,Step-1,Increment      1: Step Time =    1.000,"P-1-1",         18935,   127.949E-03,   151.979E-03,            0.,NA,NA,"",   1.08086E+06,   1.07223E+06,   1.07223E+06
C:/temp/Job-1.odb,Step-1,Increment      1: Step Time =    1.000,"P-1-1",         18936,   111.984E-03,   158.719E-03,            0.,NA,NA,"",   1.02887E+06,   1.04462E+06,   1.04462E+06
C:/temp/Job-1.odb,Step-1,Increment      1: Step Time =    1.000,"P-1-1",         18937,   124.670E-03,   156.851E-03,            0.,NA,NA,"",   1.05943E+06,   1.05783E+06,   1.05783E+06
C:/temp/Job-1.odb,Step-1,Increment      1: Step Time =    1.000,"P-1-1",         18938,   33.0140E-03,   150.085E-03,            0.,NA,NA,"",   979.483E+03,   1.02674E+06,   1.02674E+06
C:/temp/Job-1.odb,Step-1,Increment      1: Step Time =    1.000,"P-1-1",         18939,   49.8097E-03,   32.6217E-03,            0.,NA,NA,"",   1.04765E+06,   1.05745E+06,   1.05745E+06
C:/temp/Job-1.odb,Step-1,Increment      1: Step Time =    1.000,"P-1-1",         18940,   33.6199E-03,   92.6985E-03,            0.,NA,NA,"",   825.601E+03,   898.203E+03,   898.203E+03
C:/temp/Job-1.odb,Step-1,Increment      1: Step Time =    1.000,"P-1-1",         18941,   65.9743E-03,   150.591E-03,            0.,NA,NA,"",   1.07861E+06,   1.08111E+06,   1.08111E+06
C:/temp/Job-1.odb,Step-1,Increment      1: Step Time =    1.000,"P-1-1",         18942,   81.3116E-03,   155.743E-03,            0.,NA,NA,"",   1.05294E+06,   1.06685E+06,   1.06685E+06
C:/temp/Job-1.odb,Step-1,Increment      1: Step Time =    1.000,"P-1-1",         18943,   79.0960E-03,   153.540E-03,            0.,NA,NA,"",   1.06360E+06,   1.07522E+06,   1.07522E+06
C:/temp/Job-1.odb,Step-1,Increment      1: Step Time =    1.000,"P-1-1",         18944,   32.9846E-03,   48.3180E-03,            0.,NA,NA,"",   984.763E+03,   1.03080E+06,   1.03080E+06
C:/temp/Job-1.odb,Step-1,Increment      1: Step Time =    1.000,"P-1-1",         18945,   134.662E-03,   140.358E-03,            0.,NA,NA,"",   1.11791E+06,   1.08936E+06,   1.08936E+06
C:/temp/Job-1.odb,Step-1,Increment      1: Step Time =    1.000,"P-1-1",         18946,   119.713E-03,   47.7522E-03,            0.,NA,NA,"",   1.06564E+06,   1.07058E+06,   1.07058E+06
C:/temp/Job-1.odb,Step-1,Increment      1: Step Time =    1.000,"P-1-1",         18947,   121.973E-03,   46.2346E-03,            0.,NA,NA,"",   1.06531E+06,   1.06660E+06,   1.06660E+06
C:/temp/Job-1.odb,Step-1,Increment      1: Step Time =    1.000,"P-1-1",         18948,   133.572E-03,   52.8920E-03,            0.,NA,NA,"",   1.09873E+06,   1.07945E+06,   1.07945E+06
C:/temp/Job-1.odb,Step-1,Increment      1: Step Time =    1.000,"P-1-1",         18949,   156.715E-03,   151.993E-03,            0.,NA,NA,"",   1.04654E+06,   1.03408E+06,   1.03408E+06
C:/temp/Job-1.odb,Step-1,Increment      1: Step Time =    1.000,"P-1-1",         18950,   93.8294E-03,   38.2523E-03,            0.,NA,NA,"",   1.01595E+06,   1.03644E+06,   1.03644E+06
C:/temp/Job-1.odb,Step-1,Increment      1: Step Time =    1.000,"P-1-1",         18951,   158.738E-03,   69.2949E-03,            0.,NA,NA,"",   1.02453E+06,   1.01369E+06,   1.01369E+06
C:/temp/Job-1.odb,Step-1,Increment      1: Step Time =    1.000,"P-1-1",         18952,   112.902E-03,   155.558E-03,            0.,NA,NA,"",   1.03791E+06,   1.05438E+06,   1.05438E+06
C:/temp/Job-1.odb,Step-1,Increment      1: Step Time =    1.000,"P-1-1",         18953,   52.5716E-03,   128.921E-03,            0.,NA,NA,"",   989.255E+03,   1.00997E+06,   1.00997E+06
C:/temp/Job-1.odb,Step-1,Increment      1: Step Time =    1.000,"P-1-1",         18954,   31.9624E-03,   67.7464E-03,            0.,NA,NA,"",   910.940E+03,   972.375E+03,   972.375E+03
C:/temp/Job-1.odb,Step-1,Increment      1: Step Time =    1.000,"P-1-1",         18955,   157.178E-03,   150.110E-03,            0.,NA,NA,"",   1.04657E+06,   1.03387E+06,   1.03387E+06
C:/temp/Job-1.odb,Step-1,Increment      1: Step Time =    1.000,"P-1-1",         18956,   157.181E-03,   154.574E-03,            0.,NA,NA,"",   1.04334E+06,   1.03200E+06,   1.03200E+06
C:/temp/Job-1.odb,Step-1,Increment      1: Step Time =    1.000,"P-1-1",         18957,   31.2933E-03,   58.2279E-03,            0.,NA,NA,"",   944.095E+03,   1.00067E+06,   1.00067E+06
C:/temp/Job-1.odb,Step-1,Increment      1: Step Time =    1.000,"P-1-1",         18958,   61.8427E-03,   156.616E-03,            0.,NA,NA,"",   1.06448E+06,   1.06917E+06,   1.06917E+06
C:/temp/Job-1.odb,Step-1,Increment      1: Step Time =    1.000,"P-1-1",         18959,   116.215E-03,   30.7555E-03,            0.,NA,NA,"",   1.01362E+06,   1.02017E+06,   1.02017E+06
C:/temp/Job-1.odb,Step-1,Increment      1: Step Time =    1.000,"P-1-1",         18960,   151.133E-03,   69.0800E-03,            0.,NA,NA,"",   1.04631E+06,   1.02639E+06,   1.02639E+06
C:/temp/Job-1.odb,Step-1,Increment      1: Step Time =    1.000,"P-1-1",         18961,   154.571E-03,   144.911E-03,            0.,NA,NA,"",   1.05448E+06,   1.03859E+06,   1.03859E+06
C:/temp/Job-1.odb,Step-1,Increment      1: Step Time =    1.000,"P-1-1",         18962,   52.7434E-03,   160.190E-03,            0.,NA,NA,"",   1.05148E+06,   1.06168E+06,   1.06168E+06
C:/temp/Job-1.odb,Step-1,Increment      1: Step Time =    1.000,"P-1-1",         18963,   146.052E-03,   61.2794E-03,            0.,NA,NA,"",   1.07963E+06,   1.05465E+06,   1.05465E+06
C:/temp/Job-1.odb,Step-1,Increment      1: Step Time =    1.000,"P-1-1",         18964,   156.192E-03,   149.151E-03,            0.,NA,NA,"",   1.04927E+06,   1.03569E+06,   1.03569E+06
C:/temp/Job-1.odb,Step-1,Increment      1: Step Time =    1.000,"P-1-1",         18965,   149.778E-03,   153.728E-03,            0.,NA,NA,"",   1.05758E+06,   1.04287E+06,   1.04287E+06
C:/temp/Job-1.odb,Step-1,Increment      1: Step Time =    1.000,"P-1-1",         18966,   131.848E-03,   154.903E-03,            0.,NA,NA,"",   1.07246E+06,   1.06201E+06,   1.06201E+06
C:/temp/Job-1.odb,Step-1,Increment      1: Step Time =    1.000,"P-1-1",         18967,   39.8751E-03,   103.275E-03,            0.,NA,NA,"",   818.080E+03,   884.862E+03,   884.862E+03
C:/temp/Job-1.odb,Step-1,Increment      1: Step Time =    1.000,"P-1-1",         18968,   39.1971E-03,   105.925E-03,            0.,NA,NA,"",   823.550E+03,   890.407E+03,   890.407E+03
C:/temp/Job-1.odb,Step-1,Increment      1: Step Time =    1.000,"P-1-1",         18969,   31.6750E-03,   84.0672E-03,            0.,NA,NA,"",   846.799E+03,   918.406E+03,   918.406E+03
C:/temp/Job-1.odb,Step-1,Increment      1: Step Time =    1.000,"P-1-1",         18970,   72.3498E-03,   155.738E-03,            0.,NA,NA,"",   1.06712E+06,   1.07277E+06,   1.07277E+06
C:/temp/Job-1.odb,Step-1,Increment      1: Step Time =    1.000,"P-1-1",         18971,   42.0040E-03,   32.9762E-03,            0.,NA,NA,"",   1.04234E+06,   1.06034E+06,   1.06034E+06
C:/temp/Job-1.odb,Step-1,Increment      1: Step Time =    1.000,"P-1-1",         18972,   93.5534E-03,   153.752E-03,            0.,NA,NA,"",   1.02710E+06,   1.05638E+06,   1.05638E+06
C:/temp/Job-1.odb,Step-1,Increment      1: Step Time =    1.000,"P-1-1",         18973,   74.3055E-03,   154.433E-03,            0.,NA,NA,"",   1.06870E+06,   1.07554E+06,   1.07554E+06
C:/temp/Job-1.odb,Step-1,Increment      1: Step Time =    1.000,"P-1-1",         18974,   35.5295E-03,   138.968E-03,            0.,NA,NA,"",   951.314E+03,   1.00145E+06,   1.00145E+06
C:/temp/Job-1.odb,Step-1,Increment      1: Step Time =    1.000,"P-1-1",         18975,   88.3280E-03,   153.231E-03,            0.,NA,NA,"",   1.04021E+06,   1.06445E+06,   1.06445E+06
C:/temp/Job-1.odb,Step-1,Increment      1: Step Time =    1.000,"P-1-1",         18976,   115.765E-03,   158.575E-03,            0.,NA,NA,"",   1.03707E+06,   1.04800E+06,   1.04800E+06
C:/temp/Job-1.odb,Step-1,Increment      1: Step Time =    1.000,"P-1-1",         18977,   78.2186E-03,   152.739E-03,            0.,NA,NA,"",   1.06777E+06,   1.07840E+06,   1.07840E+06
C:/temp/Job-1.odb,Step-1,Increment      1: Step Time =    1.000,"P-1-1",         18978,   76.8858E-03,   150.907E-03,            0.,NA,NA,"",   1.07617E+06,   1.08481E+06,   1.08481E+06
C:/temp/Job-1.odb,Step-1,Increment      1: Step Time =    1.000,"P-1-1",         18979,   150.390E-03,   131.768E-03,            0.,NA,NA,"",   1.05215E+06,   1.03087E+06,   1.03087E+06
C:/temp/Job-1.odb,Step-1,Increment      1: Step Time =    1.000,"P-1-1",         18980,   35.4870E-03,   36.7082E-03,            0.,NA,NA,"",   1.02536E+06,   1.05664E+06,   1.05664E+06
C:/temp/Job-1.odb,Step-1,Increment      1: Step Time =    1.000,"P-1-1",         18981,   33.3952E-03,   90.8509E-03,            0.,NA,NA,"",   829.364E+03,   901.672E+03,   901.672E+03
C:/temp/Job-1.odb,Step-1,Increment      1: Step Time =    1.000,"P-1-1",         18982,   57.8651E-03,   159.429E-03,            0.,NA,NA,"",   1.05778E+06,   1.06427E+06,   1.06427E+06
C:/temp/Job-1.odb,Step-1,Increment      1: Step Time =    1.000,"P-1-1",         18983,   59.6256E-03,   157.457E-03,            0.,NA,NA,"",   1.06143E+06,   1.06713E+06,   1.06713E+06
C:/temp/Job-1.odb,Step-1,Increment      1: Step Time =    1.000,"P-1-1",         18984,   151.470E-03,   70.0274E-03,            0.,NA,NA,"",   1.04233E+06,   1.02312E+06,   1.02312E+06
C:/temp/Job-1.odb,Step-1,Increment      1: Step Time =    1.000,"P-1-1",         18985,   158.269E-03,   68.3464E-03,            0.,NA,NA,"",   1.02805E+06,   1.01628E+06,   1.01628E+06
C:/temp/Job-1.odb,Step-1,Increment      1: Step Time =    1.000,"P-1-1",         18986,   98.6166E-03,   154.882E-03,            0.,NA,NA,"",   1.01950E+06,   1.04937E+06,   1.04937E+06
C:/temp/Job-1.odb,Step-1,Increment      1: Step Time =    1.000,"P-1-1",         18987,   49.6207E-03,   68.1719E-03,            0.,NA,NA,"",   987.354E+03,   1.01292E+06,   1.01292E+06
C:/temp/Job-1.odb,Step-1,Increment      1: Step Time =    1.000,"P-1-1",         18988,   146.546E-03,   32.2219E-03,            0.,NA,NA,"",   1.03405E+06,   1.02616E+06,   1.02616E+06
C:/temp/Job-1.odb,Step-1,Increment      1: Step Time =    1.000,"P-1-1",         18989,   145.484E-03,   33.0651E-03,            0.,NA,NA,"",   1.03635E+06,   1.02810E+06,   1.02810E+06
C:/temp/Job-1.odb,Step-1,Increment      1: Step Time =    1.000,"P-1-1",         18990,   143.378E-03,   34.9449E-03,            0.,NA,NA,"",   1.04153E+06,   1.03255E+06,   1.03255E+06
C:/temp/Job-1.odb,Step-1,Increment      1: Step Time =    1.000,"P-1-1",         18991,   32.4457E-03,   80.9847E-03,            0.,NA,NA,"",   859.398E+03,   928.327E+03,   928.327E+03
C:/temp/Job-1.odb,Step-1,Increment      1: Step Time =    1.000,"P-1-1",         18992,   32.0043E-03,   82.4909E-03,            0.,NA,NA,"",   852.897E+03,   923.236E+03,   923.236E+03
C:/temp/Job-1.odb,Step-1,Increment      1: Step Time =    1.000,"P-1-1",         18993,   152.581E-03,   71.0265E-03,            0.,NA,NA,"",   1.03567E+06,   1.01826E+06,   1.01826E+06
C:/temp/Job-1.odb,Step-1,Increment      1: Step Time =    1.000,"P-1-1",         18994,   87.8475E-03,   44.7414E-03,            0.,NA,NA,"",   1.03767E+06,   1.05969E+06,   1.05969E+06
C:/temp/Job-1.odb,Step-1,Increment      1: Step Time =    1.000,"P-1-1",         18995,   88.2549E-03,   43.6845E-03,            0.,NA,NA,"",   1.03483E+06,   1.05630E+06,   1.05630E+06
C:/temp/Job-1.odb,Step-1,Increment      1: Step Time =    1.000,"P-1-1",         18996,   117.925E-03,   157.306E-03,            0.,NA,NA,"",   1.04521E+06,   1.05338E+06,   1.05338E+06
C:/temp/Job-1.odb,Step-1,Increment      1: Step Time =    1.000,"P-1-1",         18997,   33.5797E-03,   119.682E-03,            0.,NA,NA,"",   864.642E+03,   931.467E+03,   931.467E+03
C:/temp/Job-1.odb,Step-1,Increment      1: Step Time =    1.000,"P-1-1",         18998,   118.052E-03,   31.9260E-03,            0.,NA,NA,"",   1.01857E+06,   1.02420E+06,   1.02420E+06
C:/temp/Job-1.odb,Step-1,Increment      1: Step Time =    1.000,"P-1-1",         18999,   111.888E-03,   35.2119E-03,            0.,NA,NA,"",   1.01704E+06,   1.02919E+06,   1.02919E+06
C:/temp/Job-1.odb,Step-1,Increment      1: Step Time =    1.000,"P-1-1",         19000,   64.6023E-03,   50.5520E-03,            0.,NA,NA,"",   1.07854E+06,   1.08094E+06,   1.08094E+06
C:/temp/Job-1.odb,Step-1,Increment      1: Step Time =    1.000,"P-1-1",         19001,   156.411E-03,   58.5539E-03,            0.,NA,NA,"",   1.04880E+06,   1.03375E+06,   1.03375E+06
C:/temp/Job-1.odb,Step-1,Increment      1: Step Time =    1.000,"P-1-1",         19002,   153.886E-03,   57.5831E-03,            0.,NA,NA,"",   1.05597E+06,   1.03893E+06,   1.03893E+06
C:/temp/Job-1.odb,Step-1,Increment      1: Step Time =    1.000,"P-1-1",         19003,   128.364E-03,   155.602E-03,            0.,NA,NA,"",   1.06804E+06,   1.06148E+06,   1.06148E+06
C:/temp/Job-1.odb,Step-1,Increment      1: Step Time =    1.000,"P-1-1",         19004,   157.096E-03,   65.5960E-03,            0.,NA,NA,"",   1.03759E+06,   1.02359E+06,   1.02359E+06
C:/temp/Job-1.odb,Step-1,Increment      1: Step Time =    1.000,"P-1-1",         19005,   157.061E-03,   47.4275E-03,            0.,NA,NA,"",   1.04526E+06,   1.03322E+06,   1.03322E+06
C:/temp/Job-1.odb,Step-1,Increment      1: Step Time =    1.000,"P-1-1",         19006,   80.0701E-03,   36.7966E-03,            0.,NA,NA,"",   1.03706E+06,   1.04728E+06,   1.04728E+06
C:/temp/Job-1.odb,Step-1,Increment      1: Step Time =    1.000,"P-1-1",         19007,   79.8218E-03,   38.0034E-03,            0.,NA,NA,"",   1.04021E+06,   1.05057E+06,   1.05057E+06
C:/temp/Job-1.odb,Step-1,Increment      1: Step Time =    1.000,"P-1-1",         19008,   35.6556E-03,   95.8496E-03,            0.,NA,NA,"",   820.910E+03,   892.068E+03,   892.068E+03
C:/temp/Job-1.odb,Step-1,Increment      1: Step Time =    1.000,"P-1-1",         19009,   35.4940E-03,   92.3632E-03,            0.,NA,NA,"",   827.210E+03,   897.657E+03,   897.657E+03
C:/temp/Job-1.odb,Step-1,Increment      1: Step Time =    1.000,"P-1-1",         19010,   33.5542E-03,   88.9770E-03,            0.,NA,NA,"",   834.235E+03,   905.660E+03,   905.660E+03
C:/temp/Job-1.odb,Step-1,Increment      1: Step Time =    1.000,"P-1-1",         19011,   142.312E-03,   35.9030E-03,            0.,NA,NA,"",   1.04427E+06,   1.03494E+06,   1.03494E+06
C:/temp/Job-1.odb,Step-1,Increment      1: Step Time =    1.000,"P-1-1",         19012,   156.045E-03,   133.316E-03,            0.,NA,NA,"",   1.03829E+06,   1.02338E+06,   1.02338E+06
C:/temp/Job-1.odb,Step-1,Increment      1: Step Time =    1.000,"P-1-1",         19013,   143.578E-03,   159.089E-03,            0.,NA,NA,"",   1.05507E+06,   1.04280E+06,   1.04280E+06
C:/temp/Job-1.odb,Step-1,Increment      1: Step Time =    1.000,"P-1-1",         19014,   117.185E-03,   40.7863E-03,            0.,NA,NA,"",   1.03848E+06,   1.04724E+06,   1.04724E+06
C:/temp/Job-1.odb,Step-1,Increment      1: Step Time =    1.000,"P-1-1",         19015,   147.015E-03,   158.585E-03,            0.,NA,NA,"",   1.05263E+06,   1.04012E+06,   1.04012E+06
C:/temp/Job-1.odb,Step-1,Increment      1: Step Time =    1.000,"P-1-1",         19016,   133.522E-03,   40.4116E-03,            0.,NA,NA,"",   1.05774E+06,   1.04912E+06,   1.04912E+06
C:/temp/Job-1.odb,Step-1,Increment      1: Step Time =    1.000,"P-1-1",         19017,   119.268E-03,   46.6454E-03,            0.,NA,NA,"",   1.06076E+06,   1.06682E+06,   1.06682E+06
C:/temp/Job-1.odb,Step-1,Increment      1: Step Time =    1.000,"P-1-1",         19018,   119.026E-03,   44.2680E-03,            0.,NA,NA,"",   1.05259E+06,   1.05906E+06,   1.05906E+06
C:/temp/Job-1.odb,Step-1,Increment      1: Step Time =    1.000,"P-1-1",         19019,   153.869E-03,   36.0575E-03,            0.,NA,NA,"",   1.03576E+06,   1.02687E+06,   1.02687E+06
C:/temp/Job-1.odb,Step-1,Increment      1: Step Time =    1.000,"P-1-1",         19020,   152.122E-03,   34.3167E-03,            0.,NA,NA,"",   1.03445E+06,   1.02599E+06,   1.02599E+06
C:/temp/Job-1.odb,Step-1,Increment      1: Step Time =    1.000,"P-1-1",         19021,   151.087E-03,   33.5728E-03,            0.,NA,NA,"",   1.03406E+06,   1.02576E+06,   1.02576E+06
C:/temp/Job-1.odb,Step-1,Increment      1: Step Time =    1.000,"P-1-1",         19022,   126.203E-03,   34.5844E-03,            0.,NA,NA,"",   1.03553E+06,   1.03462E+06,   1.03462E+06
C:/temp/Job-1.odb,Step-1,Increment      1: Step Time =    1.000,"P-1-1",         19023,   36.4282E-03,   144.954E-03,            0.,NA,NA,"",   975.643E+03,   1.01986E+06,   1.01986E+06
C:/temp/Job-1.odb,Step-1,Increment      1: Step Time =    1.000,"P-1-1",         19024,   37.0710E-03,   146.110E-03,            0.,NA,NA,"",   982.271E+03,   1.02439E+06,   1.02439E+06
C:/temp/Job-1.odb,Step-1,Increment      1: Step Time =    1.000,"P-1-1",         19025,   149.441E-03,   64.8217E-03,            0.,NA,NA,"",    1.0643E+06,   1.04160E+06,   1.04160E+06
C:/temp/Job-1.odb,Step-1,Increment      1: Step Time =    1.000,"P-1-1",         19026,   152.088E-03,   65.7736E-03,            0.,NA,NA,"",   1.05260E+06,   1.03303E+06,   1.03303E+06
C:/temp/Job-1.odb,Step-1,Increment      1: Step Time =    1.000,"P-1-1",         19027,   38.6821E-03,   106.994E-03,            0.,NA,NA,"",   826.528E+03,   893.495E+03,   893.495E+03
C:/temp/Job-1.odb,Step-1,Increment      1: Step Time =    1.000,"P-1-1",         19028,   150.770E-03,   136.213E-03,            0.,NA,NA,"",   1.06032E+06,   1.03937E+06,   1.03937E+06
C:/temp/Job-1.odb,Step-1,Increment      1: Step Time =    1.000,"P-1-1",         19029,   53.7333E-03,   59.9467E-03,            0.,NA,NA,"",   1.03824E+06,   1.05155E+06,   1.05155E+06
C:/temp/Job-1.odb,Step-1,Increment      1: Step Time =    1.000,"P-1-1",         19030,   33.5790E-03,   78.1401E-03,            0.,NA,NA,"",   873.562E+03,   938.980E+03,   938.980E+03
C:/temp/Job-1.odb,Step-1,Increment      1: Step Time =    1.000,"P-1-1",         19031,   38.5184E-03,   104.151E-03,            0.,NA,NA,"",   819.969E+03,   887.941E+03,   887.941E+03
C:/temp/Job-1.odb,Step-1,Increment      1: Step Time =    1.000,"P-1-1",         19032,   78.7298E-03,   47.2659E-03,            0.,NA,NA,"",   1.06674E+06,   1.07784E+06,   1.07784E+06
C:/temp/Job-1.odb,Step-1,Increment      1: Step Time =    1.000,"P-1-1",         19033,   70.7569E-03,   155.627E-03,            0.,NA,NA,"",   1.06855E+06,   1.07337E+06,   1.07337E+06
C:/temp/Job-1.odb,Step-1,Increment      1: Step Time =    1.000,"P-1-1",         19034,   33.8839E-03,   150.940E-03,            0.,NA,NA,"",   985.578E+03,   1.03042E+06,   1.03042E+06
C:/temp/Job-1.odb,Step-1,Increment      1: Step Time =    1.000,"P-1-1",         19035,   33.2923E-03,   152.010E-03,            0.,NA,NA,"",   987.099E+03,   1.03218E+06,   1.03218E+06
C:/temp/Job-1.odb,Step-1,Increment      1: Step Time =    1.000,"P-1-1",         19036,   46.7336E-03,   123.832E-03,            0.,NA,NA,"",   927.720E+03,   966.943E+03,   966.943E+03
C:/temp/Job-1.odb,Step-1,Increment      1: Step Time =    1.000,"P-1-1",         19037,   113.217E-03,   158.154E-03,            0.,NA,NA,"",   1.03269E+06,   1.04722E+06,   1.04722E+06
C:/temp/Job-1.odb,Step-1,Increment      1: Step Time =    1.000,"P-1-1",         19038,   114.815E-03,   160.029E-03,            0.,NA,NA,"",   1.03175E+06,   1.04335E+06,   1.04335E+06
C:/temp/Job-1.odb,Step-1,Increment      1: Step Time =    1.000,"P-1-1",         19039,   114.175E-03,   157.308E-03,            0.,NA,NA,"",   1.03664E+06,   1.05033E+06,   1.05033E+06
C:/temp/Job-1.odb,Step-1,Increment      1: Step Time =    1.000,"P-1-1",         19040,   53.9440E-03,   41.4503E-03,            0.,NA,NA,"",   1.05345E+06,   1.06299E+06,   1.06299E+06
C:/temp/Job-1.odb,Step-1,Increment      1: Step Time =    1.000,"P-1-1",         19041,   68.4472E-03,   39.8875E-03,            0.,NA,NA,"",   1.05918E+06,   1.06366E+06,   1.06366E+06
C:/temp/Job-1.odb,Step-1,Increment      1: Step Time =    1.000,"P-1-1",         19042,   131.171E-03,   144.147E-03,            0.,NA,NA,"",   1.11196E+06,   1.09103E+06,   1.09103E+06
C:/temp/Job-1.odb,Step-1,Increment      1: Step Time =    1.000,"P-1-1",         19043,   134.809E-03,   141.484E-03,            0.,NA,NA,"",   1.11481E+06,   1.08767E+06,   1.08767E+06
C:/temp/Job-1.odb,Step-1,Increment      1: Step Time =    1.000,"P-1-1",         19044,   34.3249E-03,   56.6142E-03,            0.,NA,NA,"",   962.057E+03,   1.01155E+06,   1.01155E+06
C:/temp/Job-1.odb,Step-1,Increment      1: Step Time =    1.000,"P-1-1",         19045,   153.152E-03,   69.3951E-03,            0.,NA,NA,"",   1.03976E+06,   1.02219E+06,   1.02219E+06
C:/temp/Job-1.odb,Step-1,Increment      1: Step Time =    1.000,"P-1-1",         19046,   122.200E-03,   44.3198E-03,            0.,NA,NA,"",   1.05938E+06,   1.06079E+06,   1.06079E+06
C:/temp/Job-1.odb,Step-1,Increment      1: Step Time =    1.000,"P-1-1",         19047,   125.818E-03,   47.4229E-03,            0.,NA,NA,"",   1.07604E+06,   1.07092E+06,   1.07092E+06
C:/temp/Job-1.odb,Step-1,Increment      1: Step Time =    1.000,"P-1-1",         19048,   111.918E-03,   36.3007E-03,            0.,NA,NA,"",   1.01897E+06,   1.03176E+06,   1.03176E+06
C:/temp/Job-1.odb,Step-1,Increment      1: Step Time =    1.000,"P-1-1",         19049,   34.8982E-03,   116.923E-03,            0.,NA,NA,"",   856.644E+03,   923.112E+03,   923.112E+03
C:/temp/Job-1.odb,Step-1,Increment      1: Step Time =    1.000,"P-1-1",         19050,   79.6208E-03,   45.8709E-03,            0.,NA,NA,"",   1.06107E+06,   1.07322E+06,   1.07322E+06
C:/temp/Job-1.odb,Step-1,Increment      1: Step Time =    1.000,"P-1-1",         19051,   156.461E-03,   50.7457E-03,            0.,NA,NA,"",   1.04869E+06,   1.03529E+06,   1.03529E+06
C:/temp/Job-1.odb,Step-1,Increment      1: Step Time =    1.000,"P-1-1",         19052,   146.335E-03,   58.6580E-03,            0.,NA,NA,"",   1.07919E+06,   1.05578E+06,   1.05578E+06
C:/temp/Job-1.odb,Step-1,Increment      1: Step Time =    1.000,"P-1-1",         19053,   144.937E-03,   55.9398E-03,            0.,NA,NA,"",   1.08119E+06,   1.05869E+06,   1.05869E+06
C:/temp/Job-1.odb,Step-1,Increment      1: Step Time =    1.000,"P-1-1",         19054,   33.0482E-03,   66.0409E-03,            0.,NA,NA,"",   921.372E+03,   979.812E+03,   979.812E+03
C:/temp/Job-1.odb,Step-1,Increment      1: Step Time =    1.000,"P-1-1",         19055,   71.0404E-03,   40.2028E-03,            0.,NA,NA,"",   1.05817E+06,   1.06345E+06,   1.06345E+06
C:/temp/Job-1.odb,Step-1,Increment      1: Step Time =    1.000,"P-1-1",         19056,   111.802E-03,   156.664E-03,            0.,NA,NA,"",   1.03285E+06,   1.05019E+06,   1.05019E+06
C:/temp/Job-1.odb,Step-1,Increment      1: Step Time =    1.000,"P-1-1",         19057,   56.1081E-03,   140.493E-03,            0.,NA,NA,"",   1.05054E+06,   1.05962E+06,   1.05962E+06
C:/temp/Job-1.odb,Step-1,Increment      1: Step Time =    1.000,"P-1-1",         19058,   39.4429E-03,   102.269E-03,            0.,NA,NA,"",   817.522E+03,   884.904E+03,   884.904E+03
C:/temp/Job-1.odb,Step-1,Increment      1: Step Time =    1.000,"P-1-1",         19059,   154.746E-03,   141.702E-03,            0.,NA,NA,"",   1.05336E+06,   1.03690E+06,   1.03690E+06
C:/temp/Job-1.odb,Step-1,Increment      1: Step Time =    1.000,"P-1-1",         19060,   146.705E-03,   60.2366E-03,            0.,NA,NA,"",   1.07808E+06,   1.05410E+06,   1.05410E+06
C:/temp/Job-1.odb,Step-1,Increment      1: Step Time =    1.000,"P-1-1",         19061,   37.2638E-03,   128.203E-03,            0.,NA,NA,"",   913.628E+03,   968.049E+03,   968.049E+03
C:/temp/Job-1.odb,Step-1,Increment      1: Step Time =    1.000,"P-1-1",         19062,   152.999E-03,   56.0586E-03,            0.,NA,NA,"",   1.05876E+06,   1.04142E+06,   1.04142E+06
C:/temp/Job-1.odb,Step-1,Increment      1: Step Time =    1.000,"P-1-1",         19063,   52.2472E-03,   157.507E-03,            0.,NA,NA,"",   1.05069E+06,   1.06218E+06,   1.06218E+06
C:/temp/Job-1.odb,Step-1,Increment      1: Step Time =    1.000,"P-1-1",         19064,   61.6384E-03,   53.7793E-03,            0.,NA,NA,"",   1.07556E+06,   1.07846E+06,   1.07846E+06
C:/temp/Job-1.odb,Step-1,Increment      1: Step Time =    1.000,"P-1-1",         19065,   67.6785E-03,   159.011E-03,            0.,NA,NA,"",   1.06187E+06,   1.06620E+06,   1.06620E+06
C:/temp/Job-1.odb,Step-1,Increment      1: Step Time =    1.000,"P-1-1",         19066,   153.750E-03,   70.4693E-03,            0.,NA,NA,"",   1.03395E+06,   1.01780E+06,   1.01780E+06
C:/temp/Job-1.odb,Step-1,Increment      1: Step Time =    1.000,"P-1-1",         19067,   155.524E-03,   149.970E-03,            0.,NA,NA,"",   1.05004E+06,   1.03637E+06,   1.03637E+06
C:/temp/Job-1.odb,Step-1,Increment      1: Step Time =    1.000,"P-1-1",         19068,   59.2926E-03,   143.263E-03,            0.,NA,NA,"",   1.06812E+06,   1.07257E+06,   1.07257E+06
C:/temp/Job-1.odb,Step-1,Increment      1: Step Time =    1.000,"P-1-1",         19069,   38.3075E-03,   105.451E-03,            0.,NA,NA,"",   822.415E+03,   890.397E+03,   890.397E+03
C:/temp/Job-1.odb,Step-1,Increment      1: Step Time =    1.000,"P-1-1",         19070,   134.749E-03,   40.7484E-03,            0.,NA,NA,"",   1.05877E+06,   1.04922E+06,   1.04922E+06
C:/temp/Job-1.odb,Step-1,Increment      1: Step Time =    1.000,"P-1-1",         19071,   36.1504E-03,   142.634E-03,            0.,NA,NA,"",   967.955E+03,   1.01401E+06,   1.01401E+06
C:/temp/Job-1.odb,Step-1,Increment      1: Step Time =    1.000,"P-1-1",         19072,   33.8529E-03,   87.1007E-03,            0.,NA,NA,"",   840.457E+03,   910.648E+03,   910.648E+03
C:/temp/Job-1.odb,Step-1,Increment      1: Step Time =    1.000,"P-1-1",         19073,   68.3931E-03,   155.398E-03,            0.,NA,NA,"",   1.06964E+06,   1.07367E+06,   1.07367E+06
C:/temp/Job-1.odb,Step-1,Increment      1: Step Time =    1.000,"P-1-1",         19074,   63.3000E-03,   53.0275E-03,            0.,NA,NA,"",   1.07904E+06,   1.08115E+06,   1.08115E+06
C:/temp/Job-1.odb,Step-1,Increment      1: Step Time =    1.000,"P-1-1",         19075,   147.048E-03,   61.5702E-03,            0.,NA,NA,"",   1.07580E+06,   1.05162E+06,   1.05162E+06
C:/temp/Job-1.odb,Step-1,Increment      1: Step Time =    1.000,"P-1-1",         19076,   148.605E-03,   59.8211E-03,            0.,NA,NA,"",   1.07185E+06,   1.04960E+06,   1.04960E+06
C:/temp/Job-1.odb,Step-1,Increment      1: Step Time =    1.000,"P-1-1",         19077,   154.609E-03,   69.8028E-03,            0.,NA,NA,"",   1.03362E+06,   1.01821E+06,   1.01821E+06
C:/temp/Job-1.odb,Step-1,Increment      1: Step Time =    1.000,"P-1-1",         19078,   33.4685E-03,   84.3347E-03,            0.,NA,NA,"",   848.954E+03,   918.308E+03,   918.308E+03
C:/temp/Job-1.odb,Step-1,Increment      1: Step Time =    1.000,"P-1-1",         19079,   37.2507E-03,   111.254E-03,            0.,NA,NA,"",   838.122E+03,   904.850E+03,   904.850E+03
C:/temp/Job-1.odb,Step-1,Increment      1: Step Time =    1.000,"P-1-1",         19080,   85.0231E-03,   41.9581E-03,            0.,NA,NA,"",   1.03858E+06,   1.05555E+06,   1.05555E+06
C:/temp/Job-1.odb,Step-1,Increment      1: Step Time =    1.000,"P-1-1",         19081,   33.7053E-03,   82.6995E-03,            0.,NA,NA,"",   855.400E+03,   923.462E+03,   923.462E+03
C:/temp/Job-1.odb,Step-1,Increment      1: Step Time =    1.000,"P-1-1",         19082,   61.2149E-03,   144.919E-03,            0.,NA,NA,"",   1.07500E+06,   1.07780E+06,   1.07780E+06
C:/temp/Job-1.odb,Step-1,Increment      1: Step Time =    1.000,"P-1-1",         19083,   53.7027E-03,   158.970E-03,            0.,NA,NA,"",   1.05304E+06,   1.06272E+06,   1.06272E+06
C:/temp/Job-1.odb,Step-1,Increment      1: Step Time =    1.000,"P-1-1",         19084,   80.5179E-03,   39.9650E-03,            0.,NA,NA,"",   1.04368E+06,   1.05534E+06,   1.05534E+06
C:/temp/Job-1.odb,Step-1,Increment      1: Step Time =    1.000,"P-1-1",         19085,   62.7344E-03,   40.5666E-03,            0.,NA,NA,"",   1.06100E+06,   1.06548E+06,   1.06548E+06
C:/temp/Job-1.odb,Step-1,Increment      1: Step Time =    1.000,"P-1-1",         19086,   63.7133E-03,   41.0601E-03,            0.,NA,NA,"",   1.06193E+06,   1.06619E+06,   1.06619E+06
C:/temp/Job-1.odb,Step-1,Increment      1: Step Time =    1.000,"P-1-1",         19087,   75.4028E-03,   42.5637E-03,            0.,NA,NA,"",   1.05917E+06,   1.06703E+06,   1.06703E+06
C:/temp/Job-1.odb,Step-1,Increment      1: Step Time =    1.000,"P-1-1",         19088,   155.089E-03,   48.4212E-03,            0.,NA,NA,"",   1.04970E+06,   1.03636E+06,   1.03636E+06
C:/temp/Job-1.odb,Step-1,Increment      1: Step Time =    1.000,"P-1-1",         19089,   155.376E-03,   45.5606E-03,            0.,NA,NA,"",   1.04662E+06,   1.03441E+06,   1.03441E+06
C:/temp/Job-1.odb,Step-1,Increment      1: Step Time =    1.000,"P-1-1",         19090,   39.4349E-03,   126.716E-03,            0.,NA,NA,"",   914.682E+03,   966.189E+03,   966.189E+03
C:/temp/Job-1.odb,Step-1,Increment      1: Step Time =    1.000,"P-1-1",         19091,   119.832E-03,   45.4470E-03,            0.,NA,NA,"",   1.05788E+06,   1.06299E+06,   1.06299E+06
C:/temp/Job-1.odb,Step-1,Increment      1: Step Time =    1.000,"P-1-1",         19092,   146.342E-03,   34.2802E-03,            0.,NA,NA,"",   1.03855E+06,   1.02970E+06,   1.02970E+06
C:/temp/Job-1.odb,Step-1,Increment      1: Step Time =    1.000,"P-1-1",         19093,   144.352E-03,   36.1121E-03,            0.,NA,NA,"",   1.04371E+06,   1.03405E+06,   1.03405E+06
C:/temp/Job-1.odb,Step-1,Increment      1: Step Time =    1.000,"P-1-1",         19094,   36.1354E-03,   37.9962E-03,            0.,NA,NA,"",   1.02378E+06,   1.05509E+06,   1.05509E+06
C:/temp/Job-1.odb,Step-1,Increment      1: Step Time =    1.000,"P-1-1",         19095,   62.1498E-03,   148.935E-03,            0.,NA,NA,"",   1.07459E+06,   1.07791E+06,   1.07791E+06
C:/temp/Job-1.odb,Step-1,Increment      1: Step Time =    1.000,"P-1-1",         19096,   40.0350E-03,   154.530E-03,            0.,NA,NA,"",   1.01658E+06,   1.04705E+06,   1.04705E+06
C:/temp/Job-1.odb,Step-1,Increment      1: Step Time =    1.000,"P-1-1",         19097,   116.125E-03,   39.6877E-03,            0.,NA,NA,"",   1.03363E+06,   1.04352E+06,   1.04352E+06
C:/temp/Job-1.odb,Step-1,Increment      1: Step Time =    1.000,"P-1-1",         19098,   156.843E-03,   60.3436E-03,            0.,NA,NA,"",   1.04626E+06,   1.03148E+06,   1.03148E+06
C:/temp/Job-1.odb,Step-1,Increment      1: Step Time =    1.000,"P-1-1",         19099,   154.506E-03,   59.1579E-03,            0.,NA,NA,"",   1.05378E+06,   1.03695E+06,   1.03695E+06
C:/temp/Job-1.odb,Step-1,Increment      1: Step Time =    1.000,"P-1-1",         19100,   63.3335E-03,   50.5959E-03,            0.,NA,NA,"",   1.07652E+06,   1.07935E+06,   1.07935E+06
C:/temp/Job-1.odb,Step-1,Increment      1: Step Time =    1.000,"P-1-1",         19101,   56.8801E-03,   156.513E-03,            0.,NA,NA,"",   1.05855E+06,   1.06612E+06,   1.06612E+06
C:/temp/Job-1.odb,Step-1,Increment      1: Step Time =    1.000,"P-1-1",         19102,   60.0648E-03,   144.525E-03,            0.,NA,NA,"",   1.07093E+06,   1.07485E+06,   1.07485E+06
C:/temp/Job-1.odb,Step-1,Increment      1: Step Time =    1.000,"P-1-1",         19103,   59.7109E-03,   155.603E-03,            0.,NA,NA,"",   1.06337E+06,   1.06904E+06,   1.06904E+06
C:/temp/Job-1.odb,Step-1,Increment      1: Step Time =    1.000,"P-1-1",         19104,   60.7324E-03,   154.825E-03,            0.,NA,NA,"",   1.06556E+06,   1.07062E+06,   1.07062E+06
C:/temp/Job-1.odb,Step-1,Increment      1: Step Time =    1.000,"P-1-1",         19105,   39.8224E-03,   97.7518E-03,            0.,NA,NA,"",   817.431E+03,   884.428E+03,   884.428E+03
C:/temp/Job-1.odb,Step-1,Increment      1: Step Time =    1.000,"P-1-1",         19106,   35.6047E-03,   89.2013E-03,            0.,NA,NA,"",   835.591E+03,   904.530E+03,   904.530E+03
C:/temp/Job-1.odb,Step-1,Increment      1: Step Time =    1.000,"P-1-1",         19107,   35.2281E-03,   90.8430E-03,            0.,NA,NA,"",   830.657E+03,   900.836E+03,   900.836E+03
C:/temp/Job-1.odb,Step-1,Increment      1: Step Time =    1.000,"P-1-1",         19108,   38.9833E-03,   95.1696E-03,            0.,NA,NA,"",   821.151E+03,   888.490E+03,   888.490E+03
C:/temp/Job-1.odb,Step-1,Increment      1: Step Time =    1.000,"P-1-1",         19109,   118.610E-03,   34.4813E-03,            0.,NA,NA,"",   1.02535E+06,   1.03107E+06,   1.03107E+06
C:/temp/Job-1.odb,Step-1,Increment      1: Step Time =    1.000,"P-1-1",         19110,   152.297E-03,   142.901E-03,            0.,NA,NA,"",   1.06046E+06,   1.04228E+06,   1.04228E+06
C:/temp/Job-1.odb,Step-1,Increment      1: Step Time =    1.000,"P-1-1",         19111,   152.986E-03,   146.847E-03,            0.,NA,NA,"",   1.05772E+06,   1.04142E+06,   1.04142E+06
C:/temp/Job-1.odb,Step-1,Increment      1: Step Time =    1.000,"P-1-1",         19112,   156.328E-03,   66.1884E-03,            0.,NA,NA,"",   1.03847E+06,   1.02378E+06,   1.02378E+06
C:/temp/Job-1.odb,Step-1,Increment      1: Step Time =    1.000,"P-1-1",         19113,   155.389E-03,   65.8288E-03,            0.,NA,NA,"",   1.04195E+06,   1.02622E+06,   1.02622E+06
C:/temp/Job-1.odb,Step-1,Increment      1: Step Time =    1.000,"P-1-1",         19114,   120.634E-03,   37.9449E-03,            0.,NA,NA,"",   1.03717E+06,   1.04130E+06,   1.04130E+06
C:/temp/Job-1.odb,Step-1,Increment      1: Step Time =    1.000,"P-1-1",         19115,   44.7359E-03,   124.214E-03,            0.,NA,NA,"",   921.607E+03,   964.863E+03,   964.863E+03
C:/temp/Job-1.odb,Step-1,Increment      1: Step Time =    1.000,"P-1-1",         19116,   40.3811E-03,   122.749E-03,            0.,NA,NA,"",   897.626E+03,   950.730E+03,   950.730E+03
C:/temp/Job-1.odb,Step-1,Increment      1: Step Time =    1.000,"P-1-1",         19117,   37.9859E-03,   120.938E-03,            0.,NA,NA,"",   881.256E+03,   940.103E+03,   940.103E+03
C:/temp/Job-1.odb,Step-1,Increment      1: Step Time =    1.000,"P-1-1",         19118,   78.4698E-03,   46.1539E-03,            0.,NA,NA,"",   1.06386E+06,   1.07451E+06,   1.07451E+06
C:/temp/Job-1.odb,Step-1,Increment      1: Step Time =    1.000,"P-1-1",         19119,   130.901E-03,   146.219E-03,            0.,NA,NA,"",   1.10403E+06,   1.08605E+06,   1.08605E+06
C:/temp/Job-1.odb,Step-1,Increment      1: Step Time =    1.000,"P-1-1",         19120,   145.110E-03,   156.743E-03,            0.,NA,NA,"",   1.05906E+06,   1.04525E+06,   1.04525E+06
C:/temp/Job-1.odb,Step-1,Increment      1: Step Time =    1.000,"P-1-1",         19121,   66.5250E-03,   41.9773E-03,            0.,NA,NA,"",   1.06423E+06,   1.06833E+06,   1.06833E+06
C:/temp/Job-1.odb,Step-1,Increment      1: Step Time =    1.000,"P-1-1",         19122,   35.8351E-03,   58.2761E-03,            0.,NA,NA,"",   962.193E+03,   1.00994E+06,   1.00994E+06
C:/temp/Job-1.odb,Step-1,Increment      1: Step Time =    1.000,"P-1-1",         19123,   82.0814E-03,   44.5003E-03,            0.,NA,NA,"",   1.05125E+06,   1.06613E+06,   1.06613E+06
C:/temp/Job-1.odb,Step-1,Increment      1: Step Time =    1.000,"P-1-1",         19124,   64.2640E-03,   49.6506E-03,            0.,NA,NA,"",   1.07669E+06,   1.07948E+06,   1.07948E+06
C:/temp/Job-1.odb,Step-1,Increment      1: Step Time =    1.000,"P-1-1",         19125,   65.3506E-03,   46.4112E-03,            0.,NA,NA,"",   1.07247E+06,   1.07588E+06,   1.07588E+06
C:/temp/Job-1.odb,Step-1,Increment      1: Step Time =    1.000,"P-1-1",         19126,   139.722E-03,   142.633E-03,            0.,NA,NA,"",   1.09898E+06,   1.07319E+06,   1.07319E+06
C:/temp/Job-1.odb,Step-1,Increment      1: Step Time =    1.000,"P-1-1",         19127,   153.450E-03,   37.0582E-03,            0.,NA,NA,"",   1.03774E+06,   1.02837E+06,   1.02837E+06
C:/temp/Job-1.odb,Step-1,Increment      1: Step Time =    1.000,"P-1-1",         19128,   126.304E-03,   46.1936E-03,            0.,NA,NA,"",   1.07195E+06,   1.06684E+06,   1.06684E+06
C:/temp/Job-1.odb,Step-1,Increment      1: Step Time =    1.000,"P-1-1",         19129,   127.268E-03,   46.5666E-03,            0.,NA,NA,"",   1.07441E+06,   1.06783E+06,   1.06783E+06
C:/temp/Job-1.odb,Step-1,Increment      1: Step Time =    1.000,"P-1-1",         19130,   35.7789E-03,   150.724E-03,            0.,NA,NA,"",   991.712E+03,   1.03306E+06,   1.03306E+06
C:/temp/Job-1.odb,Step-1,Increment      1: Step Time =    1.000,"P-1-1",         19131,   38.7512E-03,   149.563E-03,            0.,NA,NA,"",   999.370E+03,   1.03587E+06,   1.03587E+06
C:/temp/Job-1.odb,Step-1,Increment      1: Step Time =    1.000,"P-1-1",         19132,   37.9218E-03,   151.181E-03,            0.,NA,NA,"",   1.00130E+06,   1.03801E+06,   1.03801E+06
C:/temp/Job-1.odb,Step-1,Increment      1: Step Time =    1.000,"P-1-1",         19133,   54.7641E-03,   140.209E-03,            0.,NA,NA,"",   1.04340E+06,   1.05488E+06,   1.05488E+06
C:/temp/Job-1.odb,Step-1,Increment      1: Step Time =    1.000,"P-1-1",         19134,   134.589E-03,   42.1268E-03,            0.,NA,NA,"",   1.06307E+06,   1.05274E+06,   1.05274E+06
C:/temp/Job-1.odb,Step-1,Increment      1: Step Time =    1.000,"P-1-1",         19135,   69.7512E-03,   41.2694E-03,            0.,NA,NA,"",   1.06153E+06,   1.06633E+06,   1.06633E+06
C:/temp/Job-1.odb,Step-1,Increment      1: Step Time =    1.000,"P-1-1",         19136,   74.4119E-03,   43.5480E-03,            0.,NA,NA,"",   1.06282E+06,   1.06989E+06,   1.06989E+06
C:/temp/Job-1.odb,Step-1,Increment      1: Step Time =    1.000,"P-1-1",         19137,   49.4824E-03,   64.2934E-03,            0.,NA,NA,"",   1.00383E+06,   1.02715E+06,   1.02715E+06
C:/temp/Job-1.odb,Step-1,Increment      1: Step Time =    1.000,"P-1-1",         19138,   52.1051E-03,   60.8317E-03,            0.,NA,NA,"",   1.02805E+06,   1.04466E+06,   1.04466E+06
C:/temp/Job-1.odb,Step-1,Increment      1: Step Time =    1.000,"P-1-1",         19139,   52.1889E-03,   55.5035E-03,            0.,NA,NA,"",   1.03972E+06,   1.05472E+06,   1.05472E+06
C:/temp/Job-1.odb,Step-1,Increment      1: Step Time =    1.000,"P-1-1",         19140,   59.4528E-03,   51.5206E-03,            0.,NA,NA,"",   1.06806E+06,   1.07332E+06,   1.07332E+06
C:/temp/Job-1.odb,Step-1,Increment      1: Step Time =    1.000,"P-1-1",         19141,   60.4421E-03,   50.5442E-03,            0.,NA,NA,"",   1.07023E+06,   1.07478E+06,   1.07478E+06
C:/temp/Job-1.odb,Step-1,Increment      1: Step Time =    1.000,"P-1-1",         19142,   145.941E-03,   57.2376E-03,            0.,NA,NA,"",   1.07919E+06,   1.05649E+06,   1.05649E+06
C:/temp/Job-1.odb,Step-1,Increment      1: Step Time =    1.000,"P-1-1",         19143,   122.820E-03,   42.4793E-03,            0.,NA,NA,"",   1.05410E+06,   1.05515E+06,   1.05515E+06
C:/temp/Job-1.odb,Step-1,Increment      1: Step Time =    1.000,"P-1-1",         19144,   154.540E-03,   50.5882E-03,            0.,NA,NA,"",   1.05254E+06,   1.03812E+06,   1.03812E+06
C:/temp/Job-1.odb,Step-1,Increment      1: Step Time =    1.000,"P-1-1",         19145,   153.411E-03,   135.306E-03,            0.,NA,NA,"",   1.05032E+06,   1.03219E+06,   1.03219E+06
C:/temp/Job-1.odb,Step-1,Increment      1: Step Time =    1.000,"P-1-1",         19146,   143.497E-03,   140.439E-03,            0.,NA,NA,"",   1.08868E+06,   1.06278E+06,   1.06278E+06
C:/temp/Job-1.odb,Step-1,Increment      1: Step Time =    1.000,"P-1-1",         19147,   36.0986E-03,   69.2312E-03,            0.,NA,NA,"",   920.711E+03,   975.410E+03,   975.410E+03
C:/temp/Job-1.odb,Step-1,Increment      1: Step Time =    1.000,"P-1-1",         19148,   37.2853E-03,   70.1928E-03,            0.,NA,NA,"",   921.182E+03,   974.299E+03,   974.299E+03
C:/temp/Job-1.odb,Step-1,Increment      1: Step Time =    1.000,"P-1-1",         19149,   34.9771E-03,   80.6807E-03,            0.,NA,NA,"",   866.378E+03,   931.429E+03,   931.429E+03
C:/temp/Job-1.odb,Step-1,Increment      1: Step Time =    1.000,"P-1-1",         19150,   66.8788E-03,   45.4291E-03,            0.,NA,NA,"",   1.07128E+06,   1.07489E+06,   1.07489E+06
C:/temp/Job-1.odb,Step-1,Increment      1: Step Time =    1.000,"P-1-1",         19151,   72.2301E-03,   45.8538E-03,            0.,NA,NA,"",   1.07163E+06,   1.07690E+06,   1.07690E+06
C:/temp/Job-1.odb,Step-1,Increment      1: Step Time =    1.000,"P-1-1",         19152,   73.2275E-03,   46.1804E-03,            0.,NA,NA,"",   1.07171E+06,   1.07748E+06,   1.07748E+06
C:/temp/Job-1.odb,Step-1,Increment      1: Step Time =    1.000,"P-1-1",         19153,   39.2611E-03,   44.6740E-03,            0.,NA,NA,"",   1.01604E+06,   1.04737E+06,   1.04737E+06
C:/temp/Job-1.odb,Step-1,Increment      1: Step Time =    1.000,"P-1-1",         19154,   53.6502E-03,   138.715E-03,            0.,NA,NA,"",   1.03474E+06,   1.04844E+06,   1.04844E+06
C:/temp/Job-1.odb,Step-1,Increment      1: Step Time =    1.000,"P-1-1",         19155,   49.5320E-03,   130.211E-03,            0.,NA,NA,"",   979.134E+03,   1.00604E+06,   1.00604E+06
C:/temp/Job-1.odb,Step-1,Increment      1: Step Time =    1.000,"P-1-1",         19156,   56.7558E-03,   42.1394E-03,            0.,NA,NA,"",   1.05771E+06,   1.06508E+06,   1.06508E+06
C:/temp/Job-1.odb,Step-1,Increment      1: Step Time =    1.000,"P-1-1",         19157,   134.646E-03,   50.0745E-03,            0.,NA,NA,"",   1.08833E+06,   1.07140E+06,   1.07140E+06
C:/temp/Job-1.odb,Step-1,Increment      1: Step Time =    1.000,"P-1-1",         19158,   129.236E-03,   149.972E-03,            0.,NA,NA,"",   1.08922E+06,   1.07727E+06,   1.07727E+06
C:/temp/Job-1.odb,Step-1,Increment      1: Step Time =    1.000,"P-1-1",         19159,   37.8241E-03,   37.4316E-03,            0.,NA,NA,"",   1.02830E+06,   1.05645E+06,   1.05645E+06
C:/temp/Job-1.odb,Step-1,Increment      1: Step Time =    1.000,"P-1-1",         19160,   38.1442E-03,   39.2924E-03,            0.,NA,NA,"",   1.02526E+06,   1.05436E+06,   1.05436E+06
C:/temp/Job-1.odb,Step-1,Increment      1: Step Time =    1.000,"P-1-1",         19161,   53.8010E-03,   156.082E-03,            0.,NA,NA,"",   1.05351E+06,   1.06380E+06,   1.06380E+06
C:/temp/Job-1.odb,Step-1,Increment      1: Step Time =    1.000,"P-1-1",         19162,   33.7118E-03,   81.4113E-03,            0.,NA,NA,"",   860.622E+03,   927.945E+03,   927.945E+03
C:/temp/Job-1.odb,Step-1,Increment      1: Step Time =    1.000,"P-1-1",         19163,   39.6232E-03,   37.8851E-03,            0.,NA,NA,"",   1.03115E+06,   1.05675E+06,   1.05675E+06
C:/temp/Job-1.odb,Step-1,Increment      1: Step Time =    1.000,"P-1-1",         19164,   36.7028E-03,   91.3957E-03,            0.,NA,NA,"",   830.067E+03,   898.730E+03,   898.730E+03
C:/temp/Job-1.odb,Step-1,Increment      1: Step Time =    1.000,"P-1-1",         19165,   149.113E-03,   150.163E-03,            0.,NA,NA,"",   1.06375E+06,   1.04693E+06,   1.04693E+06
C:/temp/Job-1.odb,Step-1,Increment      1: Step Time =    1.000,"P-1-1",         19166,   36.5346E-03,   142.116E-03,            0.,NA,NA,"",   967.270E+03,   1.01303E+06,   1.01303E+06
C:/temp/Job-1.odb,Step-1,Increment      1: Step Time =    1.000,"P-1-1",         19167,   122.583E-03,   41.2919E-03,            0.,NA,NA,"",   1.05016E+06,   1.05181E+06,   1.05181E+06
C:/temp/Job-1.odb,Step-1,Increment      1: Step Time =    1.000,"P-1-1",         19168,   147.355E-03,   53.7688E-03,            0.,NA,NA,"",   1.07241E+06,   1.05247E+06,   1.05247E+06
C:/temp/Job-1.odb,Step-1,Increment      1: Step Time =    1.000,"P-1-1",         19169,   35.7201E-03,   151.578E-03,            0.,NA,NA,"",    994.61E+03,   1.03523E+06,   1.03523E+06
C:/temp/Job-1.odb,Step-1,Increment      1: Step Time =    1.000,"P-1-1",         19170,   38.5431E-03,   38.1896E-03,            0.,NA,NA,"",   1.02836E+06,   1.05592E+06,   1.05592E+06
C:/temp/Job-1.odb,Step-1,Increment      1: Step Time =    1.000,"P-1-1",         19171,   34.5486E-03,   81.8148E-03,            0.,NA,NA,"",   860.776E+03,   927.103E+03,   927.103E+03
C:/temp/Job-1.odb,Step-1,Increment      1: Step Time =    1.000,"P-1-1",         19172,   122.079E-03,   40.3278E-03,            0.,NA,NA,"",   1.04634E+06,   1.04877E+06,   1.04877E+06
C:/temp/Job-1.odb,Step-1,Increment      1: Step Time =    1.000,"P-1-1",         19173,   37.0983E-03,   142.448E-03,            0.,NA,NA,"",   971.183E+03,   1.01560E+06,   1.01560E+06
C:/temp/Job-1.odb,Step-1,Increment      1: Step Time =    1.000,"P-1-1",         19174,   38.1490E-03,   152.412E-03,            0.,NA,NA,"",   1.00501E+06,   1.04064E+06,   1.04064E+06
C:/temp/Job-1.odb,Step-1,Increment      1: Step Time =    1.000,"P-1-1",         19175,   39.4460E-03,   151.982E-03,            0.,NA,NA,"",   1.00831E+06,   1.04181E+06,   1.04181E+06
C:/temp/Job-1.odb,Step-1,Increment      1: Step Time =    1.000,"P-1-1",         19176,   138.713E-03,   142.785E-03,            0.,NA,NA,"",   1.10137E+06,   1.07562E+06,   1.07562E+06
C:/temp/Job-1.odb,Step-1,Increment      1: Step Time =    1.000,"P-1-1",         19177,   58.9205E-03,   144.540E-03,            0.,NA,NA,"",   1.06670E+06,   1.07193E+06,   1.07193E+06
C:/temp/Job-1.odb,Step-1,Increment      1: Step Time =    1.000,"P-1-1",         19178,   60.7104E-03,   149.845E-03,            0.,NA,NA,"",   1.07038E+06,   1.07491E+06,   1.07491E+06
C:/temp/Job-1.odb,Step-1,Increment      1: Step Time =    1.000,"P-1-1",         19179,   33.9645E-03,   64.7113E-03,            0.,NA,NA,"",   930.241E+03,   986.034E+03,   986.034E+03
C:/temp/Job-1.odb,Step-1,Increment      1: Step Time =    1.000,"P-1-1",         19180,   35.2989E-03,   75.1277E-03,            0.,NA,NA,"",   891.515E+03,   952.027E+03,   952.027E+03
C:/temp/Job-1.odb,Step-1,Increment      1: Step Time =    1.000,"P-1-1",         19181,   39.1654E-03,   40.5711E-03,            0.,NA,NA,"",   1.02493E+06,   1.05331E+06,   1.05331E+06
C:/temp/Job-1.odb,Step-1,Increment      1: Step Time =    1.000,"P-1-1",         19182,   39.5872E-03,   41.5155E-03,            0.,NA,NA,"",   1.02403E+06,   1.05246E+06,   1.05246E+06
C:/temp/Job-1.odb,Step-1,Increment      1: Step Time =    1.000,"P-1-1",         19183,   35.3477E-03,   84.4199E-03,            0.,NA,NA,"",   851.794E+03,   918.638E+03,   918.638E+03
C:/temp/Job-1.odb,Step-1,Increment      1: Step Time =    1.000,"P-1-1",         19184,   47.1728E-03,   66.6391E-03,            0.,NA,NA,"",   981.165E+03,   1.01129E+06,   1.01129E+06
C:/temp/Job-1.odb,Step-1,Increment      1: Step Time =    1.000,"P-1-1",         19185,   46.9247E-03,   65.2480E-03,            0.,NA,NA,"",   986.204E+03,   1.01582E+06,   1.01582E+06
C:/temp/Job-1.odb,Step-1,Increment      1: Step Time =    1.000,"P-1-1",         19186,   134.375E-03,   142.589E-03,            0.,NA,NA,"",   1.11251E+06,   1.08714E+06,   1.08714E+06
C:/temp/Job-1.odb,Step-1,Increment      1: Step Time =    1.000,"P-1-1",         19187,   148.708E-03,   150.941E-03,            0.,NA,NA,"",   1.06335E+06,   1.04684E+06,   1.04684E+06
C:/temp/Job-1.odb,Step-1,Increment      1: Step Time =    1.000,"P-1-1",         19188,   54.6644E-03,   52.7247E-03,            0.,NA,NA,"",   1.05232E+06,   1.06320E+06,   1.06320E+06
C:/temp/Job-1.odb,Step-1,Increment      1: Step Time =    1.000,"P-1-1",         19189,   126.844E-03,   44.8855E-03,            0.,NA,NA,"",   1.06774E+06,   1.06276E+06,   1.06276E+06
C:/temp/Job-1.odb,Step-1,Increment      1: Step Time =    1.000,"P-1-1",         19190,   153.660E-03,   60.1856E-03,            0.,NA,NA,"",   1.05513E+06,   1.03748E+06,   1.03748E+06
C:/temp/Job-1.odb,Step-1,Increment      1: Step Time =    1.000,"P-1-1",         19191,   63.4810E-03,   48.4614E-03,            0.,NA,NA,"",   1.07356E+06,   1.07696E+06,   1.07696E+06
C:/temp/Job-1.odb,Step-1,Increment      1: Step Time =    1.000,"P-1-1",         19192,   62.5806E-03,   49.4328E-03,            0.,NA,NA,"",   1.07368E+06,   1.07717E+06,   1.07717E+06
C:/temp/Job-1.odb,Step-1,Increment      1: Step Time =    1.000,"P-1-1",         19193,   38.9491E-03,   150.862E-03,            0.,NA,NA,"",   1.00425E+06,   1.03921E+06,   1.03921E+06
C:/temp/Job-1.odb,Step-1,Increment      1: Step Time =    1.000,"P-1-1",         19194,   80.8315E-03,   41.6824E-03,            0.,NA,NA,"",   1.04707E+06,   1.05957E+06,   1.05957E+06
C:/temp/Job-1.odb,Step-1,Increment      1: Step Time =    1.000,"P-1-1",         19195,   56.2563E-03,   155.486E-03,            0.,NA,NA,"",   1.05793E+06,   1.06614E+06,   1.06614E+06
C:/temp/Job-1.odb,Step-1,Increment      1: Step Time =    1.000,"P-1-1",         19196,   57.1818E-03,   154.605E-03,            0.,NA,NA,"",   1.05997E+06,   1.06748E+06,   1.06748E+06
C:/temp/Job-1.odb,Step-1,Increment      1: Step Time =    1.000,"P-1-1",         19197,   149.555E-03,   57.7500E-03,            0.,NA,NA,"",   1.06848E+06,   1.04796E+06,   1.04796E+06
C:/temp/Job-1.odb,Step-1,Increment      1: Step Time =    1.000,"P-1-1",         19198,   63.3379E-03,   42.2337E-03,            0.,NA,NA,"",   1.06394E+06,   1.06822E+06,   1.06822E+06
C:/temp/Job-1.odb,Step-1,Increment      1: Step Time =    1.000,"P-1-1",         19199,   146.991E-03,   35.2783E-03,            0.,NA,NA,"",   1.04021E+06,   1.03089E+06,   1.03089E+06
C:/temp/Job-1.odb,Step-1,Increment      1: Step Time =    1.000,"P-1-1",         19200,   145.353E-03,   37.3128E-03,            0.,NA,NA,"",   1.04579E+06,   1.03544E+06,   1.03544E+06
C:/temp/Job-1.odb,Step-1,Increment      1: Step Time =    1.000,"P-1-1",         19201,   142.106E-03,   39.9887E-03,            0.,NA,NA,"",   1.05422E+06,   1.04265E+06,   1.04265E+06
C:/temp/Job-1.odb,Step-1,Increment      1: Step Time =    1.000,"P-1-1",         19202,   40.4776E-03,   146.820E-03,            0.,NA,NA,"",   998.062E+03,   1.03311E+06,   1.03311E+06
C:/temp/Job-1.odb,Step-1,Increment      1: Step Time =    1.000,"P-1-1",         19203,   144.084E-03,   153.904E-03,            0.,NA,NA,"",   1.06637E+06,   1.05063E+06,   1.05063E+06
C:/temp/Job-1.odb,Step-1,Increment      1: Step Time =    1.000,"P-1-1",         19204,   145.976E-03,   151.993E-03,            0.,NA,NA,"",   1.06679E+06,   1.05011E+06,   1.05011E+06
C:/temp/Job-1.odb,Step-1,Increment      1: Step Time =    1.000,"P-1-1",         19205,   44.6529E-03,   67.1610E-03,            0.,NA,NA,"",   966.815E+03,   1.00269E+06,   1.00269E+06
C:/temp/Job-1.odb,Step-1,Increment      1: Step Time =    1.000,"P-1-1",         19206,   133.155E-03,   146.466E-03,            0.,NA,NA,"",   1.10094E+06,   1.08133E+06,   1.08133E+06
C:/temp/Job-1.odb,Step-1,Increment      1: Step Time =    1.000,"P-1-1",         19207,   141.445E-03,   143.337E-03,            0.,NA,NA,"",   1.09212E+06,   1.06757E+06,   1.06757E+06
C:/temp/Job-1.odb,Step-1,Increment      1: Step Time =    1.000,"P-1-1",         19208,   40.0610E-03,   42.7115E-03,            0.,NA,NA,"",   1.02283E+06,   1.05127E+06,   1.05127E+06
C:/temp/Job-1.odb,Step-1,Increment      1: Step Time =    1.000,"P-1-1",         19209,   37.7413E-03,   85.7444E-03,            0.,NA,NA,"",   850.670E+03,   914.838E+03,   914.838E+03
C:/temp/Job-1.odb,Step-1,Increment      1: Step Time =    1.000,"P-1-1",         19210,   36.5240E-03,   83.5252E-03,            0.,NA,NA,"",   857.634E+03,   922.141E+03,   922.141E+03
C:/temp/Job-1.odb,Step-1,Increment      1: Step Time =    1.000,"P-1-1",         19211,   59.5456E-03,   49.4137E-03,            0.,NA,NA,"",   1.06710E+06,   1.07259E+06,   1.07259E+06
C:/temp/Job-1.odb,Step-1,Increment      1: Step Time =    1.000,"P-1-1",         19212,   52.5290E-03,   135.744E-03,            0.,NA,NA,"",   1.02000E+06,   1.03691E+06,   1.03691E+06
C:/temp/Job-1.odb,Step-1,Increment      1: Step Time =    1.000,"P-1-1",         19213,   48.7486E-03,   134.723E-03,            0.,NA,NA,"",   995.571E+03,   1.02124E+06,   1.02124E+06
C:/temp/Job-1.odb,Step-1,Increment      1: Step Time =    1.000,"P-1-1",         19214,   50.2719E-03,   153.794E-03,            0.,NA,NA,"",   1.04456E+06,   1.05959E+06,   1.05959E+06
C:/temp/Job-1.odb,Step-1,Increment      1: Step Time =    1.000,"P-1-1",         19215,   151.277E-03,   146.863E-03,            0.,NA,NA,"",   1.06196E+06,   1.04456E+06,   1.04456E+06
C:/temp/Job-1.odb,Step-1,Increment      1: Step Time =    1.000,"P-1-1",         19216,   152.148E-03,   139.995E-03,            0.,NA,NA,"",   1.06019E+06,   1.04103E+06,   1.04103E+06
C:/temp/Job-1.odb,Step-1,Increment      1: Step Time =    1.000,"P-1-1",         19217,   68.9848E-03,   42.6902E-03,            0.,NA,NA,"",   1.06523E+06,   1.06969E+06,   1.06969E+06
C:/temp/Job-1.odb,Step-1,Increment      1: Step Time =    1.000,"P-1-1",         19218,   66.9073E-03,   43.1707E-03,            0.,NA,NA,"",   1.06660E+06,   1.07060E+06,   1.07060E+06
C:/temp/Job-1.odb,Step-1,Increment      1: Step Time =    1.000,"P-1-1",         19219,   38.6493E-03,   53.6031E-03,            0.,NA,NA,"",   989.385E+03,   1.02827E+06,   1.02827E+06
C:/temp/Job-1.odb,Step-1,Increment      1: Step Time =    1.000,"P-1-1",         19220,   60.3832E-03,   48.5141E-03,            0.,NA,NA,"",   1.06847E+06,   1.07339E+06,   1.07339E+06
C:/temp/Job-1.odb,Step-1,Increment      1: Step Time =    1.000,"P-1-1",         19221,   51.2063E-03,   59.4186E-03,            0.,NA,NA,"",   1.02716E+06,   1.04509E+06,   1.04509E+06
C:/temp/Job-1.odb,Step-1,Increment      1: Step Time =    1.000,"P-1-1",         19222,   71.1133E-03,   44.3835E-03,            0.,NA,NA,"",   1.06838E+06,   1.07339E+06,   1.07339E+06
C:/temp/Job-1.odb,Step-1,Increment      1: Step Time =    1.000,"P-1-1",         19223,   36.5844E-03,   74.9274E-03,            0.,NA,NA,"",   896.812E+03,   954.910E+03,   954.910E+03
C:/temp/Job-1.odb,Step-1,Increment      1: Step Time =    1.000,"P-1-1",         19224,   35.6134E-03,   65.1258E-03,            0.,NA,NA,"",   935.379E+03,   988.220E+03,   988.220E+03
C:/temp/Job-1.odb,Step-1,Increment      1: Step Time =    1.000,"P-1-1",         19225,   150.808E-03,   54.2833E-03,            0.,NA,NA,"",   1.06381E+06,   1.04565E+06,   1.04565E+06
C:/temp/Job-1.odb,Step-1,Increment      1: Step Time =    1.000,"P-1-1",         19226,   150.234E-03,   52.6698E-03,            0.,NA,NA,"",   1.06418E+06,   1.04639E+06,   1.04639E+06
C:/temp/Job-1.odb,Step-1,Increment      1: Step Time =    1.000,"P-1-1",         19227,   150.227E-03,   40.3817E-03,            0.,NA,NA,"",   1.04706E+06,   1.03552E+06,   1.03552E+06
C:/temp/Job-1.odb,Step-1,Increment      1: Step Time =    1.000,"P-1-1",         19228,   51.7440E-03,   139.806E-03,            0.,NA,NA,"",   1.02734E+06,   1.04460E+06,   1.04460E+06
C:/temp/Job-1.odb,Step-1,Increment      1: Step Time =    1.000,"P-1-1",         19229,   60.4100E-03,   42.9427E-03,            0.,NA,NA,"",   1.06258E+06,   1.06789E+06,   1.06789E+06
C:/temp/Job-1.odb,Step-1,Increment      1: Step Time =    1.000,"P-1-1",         19230,   136.309E-03,   143.045E-03,            0.,NA,NA,"",   1.10684E+06,   1.08145E+06,   1.08145E+06
C:/temp/Job-1.odb,Step-1,Increment      1: Step Time =    1.000,"P-1-1",         19231,   55.8312E-03,   154.706E-03,            0.,NA,NA,"",   1.05742E+06,   1.06610E+06,   1.06610E+06
C:/temp/Job-1.odb,Step-1,Increment      1: Step Time =    1.000,"P-1-1",         19232,   155.376E-03,   62.5039E-03,            0.,NA,NA,"",   1.04798E+06,   1.03175E+06,   1.03175E+06
C:/temp/Job-1.odb,Step-1,Increment      1: Step Time =    1.000,"P-1-1",         19233,   152.999E-03,   61.3852E-03,            0.,NA,NA,"",   1.05615E+06,   1.03775E+06,   1.03775E+06
C:/temp/Job-1.odb,Step-1,Increment      1: Step Time =    1.000,"P-1-1",         19234,   61.1485E-03,   47.9100E-03,            0.,NA,NA,"",   1.06925E+06,   1.07381E+06,   1.07381E+06
C:/temp/Job-1.odb,Step-1,Increment      1: Step Time =    1.000,"P-1-1",         19235,   46.0368E-03,   154.148E-03,            0.,NA,NA,"",   1.03341E+06,   1.05433E+06,   1.05433E+06
C:/temp/Job-1.odb,Step-1,Increment      1: Step Time =    1.000,"P-1-1",         19236,   71.3750E-03,   43.1386E-03,            0.,NA,NA,"",   1.06492E+06,   1.07018E+06,   1.07018E+06
C:/temp/Job-1.odb,Step-1,Increment      1: Step Time =    1.000,"P-1-1",         19237,   148.248E-03,   54.3784E-03,            0.,NA,NA,"",   1.07076E+06,   1.05094E+06,   1.05094E+06
C:/temp/Job-1.odb,Step-1,Increment      1: Step Time =    1.000,"P-1-1",         19238,   125.571E-03,   44.7749E-03,            0.,NA,NA,"",   1.06623E+06,   1.06287E+06,   1.06287E+06
C:/temp/Job-1.odb,Step-1,Increment      1: Step Time =    1.000,"P-1-1",         19239,   55.6501E-03,   51.6901E-03,            0.,NA,NA,"",   1.05663E+06,   1.06599E+06,   1.06599E+06
C:/temp/Job-1.odb,Step-1,Increment      1: Step Time =    1.000,"P-1-1",         19240,   70.2606E-03,   43.2261E-03,            0.,NA,NA,"",   1.06586E+06,   1.07070E+06,   1.07070E+06
C:/temp/Job-1.odb,Step-1,Increment      1: Step Time =    1.000,"P-1-1",         19241,   147.313E-03,   143.000E-03,            0.,NA,NA,"",   1.07522E+06,   1.05339E+06,   1.05339E+06
C:/temp/Job-1.odb,Step-1,Increment      1: Step Time =    1.000,"P-1-1",         19242,   42.0132E-03,   129.878E-03,            0.,NA,NA,"",   940.482E+03,   984.302E+03,   984.302E+03
C:/temp/Job-1.odb,Step-1,Increment      1: Step Time =    1.000,"P-1-1",         19243,   148.042E-03,   36.5322E-03,            0.,NA,NA,"",   1.04209E+06,   1.03218E+06,   1.03218E+06
C:/temp/Job-1.odb,Step-1,Increment      1: Step Time =    1.000,"P-1-1",         19244,   42.3870E-03,   144.251E-03,            0.,NA,NA,"",   998.596E+03,   1.03142E+06,   1.03142E+06
C:/temp/Job-1.odb,Step-1,Increment      1: Step Time =    1.000,"P-1-1",         19245,   64.3295E-03,   44.7208E-03,            0.,NA,NA,"",   1.06859E+06,   1.07246E+06,   1.07246E+06
C:/temp/Job-1.odb,Step-1,Increment      1: Step Time =    1.000,"P-1-1",         19246,   42.6215E-03,   44.3195E-03,            0.,NA,NA,"",   1.02647E+06,   1.05184E+06,   1.05184E+06
C:/temp/Job-1.odb,Step-1,Increment      1: Step Time =    1.000,"P-1-1",         19247,   43.3696E-03,   45.4356E-03,            0.,NA,NA,"",   1.02650E+06,   1.05137E+06,   1.05137E+06
C:/temp/Job-1.odb,Step-1,Increment      1: Step Time =    1.000,"P-1-1",         19248,   132.058E-03,   150.463E-03,            0.,NA,NA,"",   1.08760E+06,   1.07303E+06,   1.07303E+06
C:/temp/Job-1.odb,Step-1,Increment      1: Step Time =    1.000,"P-1-1",         19249,   41.8099E-03,   147.051E-03,            0.,NA,NA,"",   1.00390E+06,   1.03622E+06,   1.03622E+06
C:/temp/Job-1.odb,Step-1,Increment      1: Step Time =    1.000,"P-1-1",         19250,   134.119E-03,   147.410E-03,            0.,NA,NA,"",   1.09699E+06,   1.07775E+06,   1.07775E+06
C:/temp/Job-1.odb,Step-1,Increment      1: Step Time =    1.000,"P-1-1",         19251,   135.804E-03,   145.528E-03,            0.,NA,NA,"",   1.10056E+06,   1.07841E+06,   1.07841E+06
C:/temp/Job-1.odb,Step-1,Increment      1: Step Time =    1.000,"P-1-1",         19252,   42.6246E-03,   50.4714E-03,            0.,NA,NA,"",   1.01337E+06,   1.04264E+06,   1.04264E+06
C:/temp/Job-1.odb,Step-1,Increment      1: Step Time =    1.000,"P-1-1",         19253,   42.1837E-03,   51.7011E-03,            0.,NA,NA,"",   1.00880E+06,   1.03960E+06,   1.03960E+06
C:/temp/Job-1.odb,Step-1,Increment      1: Step Time =    1.000,"P-1-1",         19254,   135.794E-03,   144.023E-03,            0.,NA,NA,"",   1.10525E+06,   1.08117E+06,   1.08117E+06
C:/temp/Job-1.odb,Step-1,Increment      1: Step Time =    1.000,"P-1-1",         19255,   142.037E-03,   144.799E-03,            0.,NA,NA,"",   1.08801E+06,   1.06492E+06,   1.06492E+06
C:/temp/Job-1.odb,Step-1,Increment      1: Step Time =    1.000,"P-1-1",         19256,   47.9134E-03,   55.1704E-03,            0.,NA,NA,"",   1.02262E+06,   1.04494E+06,   1.04494E+06
C:/temp/Job-1.odb,Step-1,Increment      1: Step Time =    1.000,"P-1-1",         19257,   50.0181E-03,   58.4957E-03,            0.,NA,NA,"",   1.02424E+06,   1.04388E+06,   1.04388E+06
C:/temp/Job-1.odb,Step-1,Increment      1: Step Time =    1.000,"P-1-1",         19258,   45.4822E-03,   42.2743E-03,            0.,NA,NA,"",   1.03678E+06,   1.05663E+06,   1.05663E+06
C:/temp/Job-1.odb,Step-1,Increment      1: Step Time =    1.000,"P-1-1",         19259,   55.2344E-03,   153.507E-03,            0.,NA,NA,"",   1.05641E+06,   1.06580E+06,   1.06580E+06
C:/temp/Job-1.odb,Step-1,Increment      1: Step Time =    1.000,"P-1-1",         19260,   134.884E-03,   151.554E-03,            0.,NA,NA,"",   1.08292E+06,   1.06744E+06,   1.06744E+06
C:/temp/Job-1.odb,Step-1,Increment      1: Step Time =    1.000,"P-1-1",         19261,   38.7695E-03,   61.8984E-03,            0.,NA,NA,"",   961.870E+03,   1.00601E+06,   1.00601E+06
C:/temp/Job-1.odb,Step-1,Increment      1: Step Time =    1.000,"P-1-1",         19262,   51.6547E-03,   46.5226E-03,            0.,NA,NA,"",   1.04765E+06,   1.06111E+06,   1.06111E+06
C:/temp/Job-1.odb,Step-1,Increment      1: Step Time =    1.000,"P-1-1",         19263,   144.305E-03,   150.880E-03,            0.,NA,NA,"",   1.07201E+06,   1.05425E+06,   1.05425E+06
C:/temp/Job-1.odb,Step-1,Increment      1: Step Time =    1.000,"P-1-1",         19264,   145.073E-03,   39.3437E-03,            0.,NA,NA,"",   1.05041E+06,   1.03899E+06,   1.03899E+06
C:/temp/Job-1.odb,Step-1,Increment      1: Step Time =    1.000,"P-1-1",         19265,   142.853E-03,   149.548E-03,            0.,NA,NA,"",   1.07714E+06,   1.05824E+06,   1.05824E+06
C:/temp/Job-1.odb,Step-1,Increment      1: Step Time =    1.000,"P-1-1",         19266,   146.706E-03,   148.266E-03,            0.,NA,NA,"",   1.07142E+06,   1.05254E+06,   1.05254E+06
C:/temp/Job-1.odb,Step-1,Increment      1: Step Time =    1.000,"P-1-1",         19267,   148.792E-03,   46.2499E-03,            0.,NA,NA,"",   1.05921E+06,   1.04422E+06,   1.04422E+06
C:/temp/Job-1.odb,Step-1,Increment      1: Step Time =    1.000,"P-1-1",         19268,   148.867E-03,   45.0395E-03,            0.,NA,NA,"",   1.05701E+06,   1.04275E+06,   1.04275E+06
C:/temp/Job-1.odb,Step-1,Increment      1: Step Time =    1.000,"P-1-1",         19269,   43.5861E-03,   41.8742E-03,            0.,NA,NA,"",   1.03306E+06,   1.05536E+06,   1.05536E+06
C:/temp/Job-1.odb,Step-1,Increment      1: Step Time =    1.000,"P-1-1",         19270,   58.1954E-03,   46.6759E-03,            0.,NA,NA,"",   1.06255E+06,   1.06930E+06,   1.06930E+06
C:/temp/Job-1.odb,Step-1,Increment      1: Step Time =    1.000,"P-1-1",         19271,   42.9033E-03,   42.5094E-03,            0.,NA,NA,"",   1.03053E+06,   1.05421E+06,   1.05421E+06
C:/temp/Job-1.odb,Step-1,Increment      1: Step Time =    1.000,"P-1-1",         19272,   43.6332E-03,   130.372E-03,            0.,NA,NA,"",   950.430E+03,   990.382E+03,   990.382E+03
C:/temp/Job-1.odb,Step-1,Increment      1: Step Time =    1.000,"P-1-1",         19273,   133.286E-03,   151.054E-03,            0.,NA,NA,"",   1.08547E+06,   1.07040E+06,   1.07040E+06
C:/temp/Job-1.odb,Step-1,Increment      1: Step Time =    1.000,"P-1-1",         19274,   44.8441E-03,   132.690E-03,            0.,NA,NA,"",   966.585E+03,   1.00234E+06,   1.00234E+06
C:/temp/Job-1.odb,Step-1,Increment      1: Step Time =    1.000,"P-1-1",         19275,   57.3380E-03,   49.7830E-03,            0.,NA,NA,"",   1.06166E+06,   1.06917E+06,   1.06917E+06
C:/temp/Job-1.odb,Step-1,Increment      1: Step Time =    1.000,"P-1-1",         19276,   138.297E-03,   43.9839E-03,            0.,NA,NA,"",   1.06715E+06,   1.05380E+06,   1.05380E+06
C:/temp/Job-1.odb,Step-1,Increment      1: Step Time =    1.000,"P-1-1",         19277,   140.048E-03,   43.7369E-03,            0.,NA,NA,"",   1.06513E+06,   1.05150E+06,   1.05150E+06
C:/temp/Job-1.odb,Step-1,Increment      1: Step Time =    1.000,"P-1-1",         19278,   134.264E-03,   150.228E-03,            0.,NA,NA,"",   1.08760E+06,   1.07111E+06,   1.07111E+06
C:/temp/Job-1.odb,Step-1,Increment      1: Step Time =    1.000,"P-1-1",         19279,   146.085E-03,   144.927E-03,            0.,NA,NA,"",   1.07731E+06,   1.05592E+06,   1.05592E+06
C:/temp/Job-1.odb,Step-1,Increment      1: Step Time =    1.000,"P-1-1",         19280,   148.150E-03,   42.4596E-03,            0.,NA,NA,"",   1.05361E+06,   1.04061E+06,   1.04061E+06
C:/temp/Job-1.odb,Step-1,Increment      1: Step Time =    1.000,"P-1-1",         19281,   44.5739E-03,   44.6458E-03,            0.,NA,NA,"",   1.03124E+06,   1.05374E+06,   1.05374E+06
C:/temp/Job-1.odb,Step-1,Increment      1: Step Time =    1.000,"P-1-1",         19282,   45.3399E-03,   45.6776E-03,            0.,NA,NA,"",   1.03164E+06,   1.05359E+06,   1.05359E+06
C:/temp/Job-1.odb,Step-1,Increment      1: Step Time =    1.000,"P-1-1",         19283,   40.6951E-03,   59.1244E-03,            0.,NA,NA,"",   980.073E+03,   1.01855E+06,   1.01855E+06
C:/temp/Job-1.odb,Step-1,Increment      1: Step Time =    1.000,"P-1-1",         19284,   40.7613E-03,   65.4319E-03,            0.,NA,NA,"",   956.525E+03,   999.203E+03,   999.203E+03
C:/temp/Job-1.odb,Step-1,Increment      1: Step Time =    1.000,"P-1-1",         19285,   52.9471E-03,   148.531E-03,            0.,NA,NA,"",   1.04763E+06,   1.06062E+06,   1.06062E+06
C:/temp/Job-1.odb,Step-1,Increment      1: Step Time =    1.000,"P-1-1",         19286,   143.395E-03,   148.248E-03,            0.,NA,NA,"",   1.07919E+06,   1.05921E+06,   1.05921E+06
C:/temp/Job-1.odb,Step-1,Increment      1: Step Time =    1.000,"P-1-1",         19287,   45.0594E-03,   43.2237E-03,            0.,NA,NA,"",   1.03467E+06,   1.05558E+06,   1.05558E+06
C:/temp/Job-1.odb,Step-1,Increment      1: Step Time =    1.000,"P-1-1",         19288,   56.9184E-03,   48.0886E-03,            0.,NA,NA,"",   1.06044E+06,   1.06830E+06,   1.06830E+06
C:/temp/Job-1.odb,Step-1,Increment      1: Step Time =    1.000,"P-1-1",         19289,   144.844E-03,   41.3160E-03,            0.,NA,NA,"",   1.05498E+06,   1.04242E+06,   1.04242E+06
C:/temp/Job-1.odb,Step-1,Increment      1: Step Time =    1.000,"P-1-1",         19290,   43.4058E-03,   52.0150E-03,            0.,NA,NA,"",   1.01219E+06,   1.04110E+06,   1.04110E+06
C:/temp/Job-1.odb,Step-1,Increment      1: Step Time =    1.000,"P-1-1",         19291,   43.4075E-03,   53.2411E-03,            0.,NA,NA,"",   1.00937E+06,   1.03895E+06,   1.03895E+06
C:/temp/Job-1.odb,Step-1,Increment      1: Step Time =    1.000,"P-1-1",         19292,   45.6782E-03,   48.2076E-03,            0.,NA,NA,"",   1.02830E+06,   1.05111E+06,   1.05111E+06
C:/temp/Job-1.odb,Step-1,Increment      1: Step Time =    1.000,"P-1-1",         19293,   55.5769E-03,   152.245E-03,            0.,NA,NA,"",   1.05731E+06,   1.06646E+06,   1.06646E+06
C:/temp/Job-1.odb,Step-1,Increment      1: Step Time =    1.000,"P-1-1",         19294,   45.8539E-03,   55.1454E-03,            0.,NA,NA,"",   1.01423E+06,   1.04024E+06,   1.04024E+06
C:/temp/Job-1.odb,Step-1,Increment      1: Step Time =    1.000,"P-1-1",         19295,   49.4180E-03,   150.229E-03,            0.,NA,NA,"",   1.03805E+06,   1.05563E+06,   1.05563E+06
C:/temp/Job-1.odb,Step-1,Increment      1: Step Time =    1.000,"P-1-1",         19296,   48.9895E-03,   49.7334E-03,            0.,NA,NA,"",   1.03651E+06,   1.05481E+06,   1.05481E+06
C:/temp/Job-1.odb,Step-1,Increment      1: Step Time =    1.000,"P-1-1",         19297,   143.460E-03,   43.9931E-03,            0.,NA,NA,"",   1.06261E+06,   1.04838E+06,   1.04838E+06
C:/temp/Job-1.odb,Step-1,Increment      1: Step Time =    1.000,"P-1-1",         19298,   38.0518E-03,   66.6365E-03,            0.,NA,NA,"",   939.598E+03,   988.644E+03,   988.644E+03
C:/temp/Job-1.odb,Step-1,Increment      1: Step Time =    1.000,"P-1-1",         19299,   54.4008E-03,   48.8296E-03,            0.,NA,NA,"",   1.05404E+06,   1.06460E+06,   1.06460E+06
C:/temp/Job-1.odb,Step-1,Increment      1: Step Time =    1.000,"P-1-1",         19300,   47.0129E-03,   57.5962E-03,            0.,NA,NA,"",   1.01244E+06,   1.03765E+06,   1.03765E+06
C:/temp/Job-1.odb,Step-1,Increment      1: Step Time =    1.000,"P-1-1",         19301,   47.5411E-03,   47.6221E-03,            0.,NA,NA,"",   1.03516E+06,   1.05470E+06,   1.05470E+06
C:/temp/Job-1.odb,Step-1,Increment      1: Step Time =    1.000,"P-1-1",         19302,   51.6796E-03,   149.017E-03,            0.,NA,NA,"",   1.04375E+06,   1.05849E+06,   1.05849E+06
C:/temp/Job-1.odb,Step-1,Increment      1: Step Time =    1.000,"P-1-1",         19303,   52.0891E-03,   149.962E-03,            0.,NA,NA,"",   1.04593E+06,   1.05989E+06,   1.05989E+06
C:/temp/Job-1.odb,Step-1,Increment      1: Step Time =    1.000,"P-1-1",         19304,   50.5521E-03,   149.638E-03,            0.,NA,NA,"",   1.04062E+06,   1.05687E+06,   1.05687E+06
C:/temp/Job-1.odb,Step-1,Increment      1: Step Time =    1.000,"P-1-1",         19305,   44.4678E-03,   57.8688E-03,            0.,NA,NA,"",   1.00039E+06,   1.03071E+06,   1.03071E+06
C:/temp/Job-1.odb,Step-1,Increment      1: Step Time =    1.000,"P-1-1",         19306,   45.4231E-03,   146.416E-03,            0.,NA,NA,"",   1.01647E+06,   1.04245E+06,   1.04245E+06
C:/temp/Job-1.odb,Step-1,Increment      1: Step Time =    1.000,"P-1-1",         19307,   45.6716E-03,   139.857E-03,            0.,NA,NA,"",   999.287E+03,   1.02835E+06,   1.02835E+06
C:/temp/Job-1.odb,Step-1,Increment      1: Step Time =    1.000,"P-1-1",         19308,   45.2821E-03,   140.916E-03,            0.,NA,NA,"",   1.00073E+06,   1.02999E+06,   1.02999E+06
C:/temp/Job-1.odb,Step-1,Increment      1: Step Time =    1.000,"P-1-1",         19309,   47.5756E-03,   48.6830E-03,            0.,NA,NA,"",   1.03341E+06,   1.05351E+06,   1.05351E+06
C:/temp/Job-1.odb,Step-1,Increment      1: Step Time =    1.000,"P-1-1",         19310,   45.0520E-03,   54.1565E-03,            0.,NA,NA,"",   1.01381E+06,   1.04067E+06,   1.04067E+06
