ODB Name,Step,Frame,Part Instance Name,    Node Label,X,Y,Z,Section Name,Material Name,Section Point,       S-Mises,S-Max. In-Plane Principal (Abs),S-Max. Principal (Abs)
C:/temp/Job-8.odb,Step-1,Increment      1: Step Time =    1.000,"P-8-1",             1,   91.9652E-03,   109.576E-03,            0.,NA,NA,"",   1.19564E+06,   1.15681E+06,   1.15681E+06
C:/temp/Job-8.odb,Step-1,Increment      1: Step Time =    1.000,"P-8-1",             2,   87.6899E-03,   102.171E-03,            0.,NA,NA,"",   505.800E+03,   111.898E+03,   111.898E+03
C:/temp/Job-8.odb,Step-1,Increment      1: Step Time =    1.000,"P-8-1",             3,   89.1747E-03,     93.75E-03,            0.,NA,NA,"",   923.419E+03,   676.962E+03,   676.962E+03
C:/temp/Job-8.odb,Step-1,Increment      1: Step Time =    1.000,"P-8-1",             4,   95.7247E-03,   88.2538E-03,            0.,NA,NA,"",   1.65739E+06,   1.72971E+06,   1.72971E+06
C:/temp/Job-8.odb,Step-1,Increment      1: Step Time =    1.000,"P-8-1",             5,   104.275E-03,   88.2538E-03,            0.,NA,NA,"",   1.54431E+06,   1.60886E+06,   1.60886E+06
C:/temp/Job-8.odb,Step-1,Increment      1: Step Time =    1.000,"P-8-1",             6,   110.825E-03,     93.75E-03,            0.,NA,NA,"",   824.243E+03,   400.952E+03,   400.952E+03
C:/temp/Job-8.odb,Step-1,Increment      1: Step Time =    1.000,"P-8-1",             7,   112.310E-03,   102.171E-03,            0.,NA,NA,"",   586.226E+03,   222.513E+03,   222.513E+03
C:/temp/Job-8.odb,Step-1,Increment      1: Step Time =    1.000,"P-8-1",             8,   108.035E-03,   109.576E-03,            0.,NA,NA,"",   1.34978E+06,   1.34387E+06,   1.34387E+06
C:/temp/Job-8.odb,Step-1,Increment      1: Step Time =    1.000,"P-8-1",             9,   100.000E-03,   112.500E-03,            0.,NA,NA,"",   1.72868E+06,   1.84884E+06,   1.84884E+06
C:/temp/Job-8.odb,Step-1,Increment      1: Step Time =    1.000,"P-8-1",            10,   200.000E-03,            0.,            0.,NA,NA,"",   999.999E+03,   999.965E+03,   999.965E+03
C:/temp/Job-8.odb,Step-1,Increment      1: Step Time =    1.000,"P-8-1",            11,            0.,            0.,            0.,NA,NA,"",   1.37025E+06,   1.43828E+06,   1.43828E+06
C:/temp/Job-8.odb,Step-1,Increment      1: Step Time =    1.000,"P-8-1",            12,   200.000E-03,   200.000E-03,            0.,NA,NA,"",   999.997E+03,   999.943E+03,   999.943E+03
C:/temp/Job-8.odb,Step-1,Increment      1: Step Time =    1.000,"P-8-1",            13,            0.,   200.000E-03,            0.,NA,NA,"",   1.36874E+06,   1.43645E+06,   1.43645E+06
C:/temp/Job-8.odb,Step-1,Increment      1: Step Time =    1.000,"P-8-1",            14,   190.909E-03,            0.,            0.,NA,NA,"",   999.798E+03,   999.735E+03,   999.735E+03
C:/temp/Job-8.odb,Step-1,Increment      1: Step Time =    1.000,"P-8-1",            15,   181.818E-03,            0.,            0.,NA,NA,"",   999.148E+03,   999.089E+03,   999.089E+03
C:/temp/Job-8.odb,Step-1,Increment      1: Step Time =    1.000,"P-8-1",            16,   172.727E-03,            0.,            0.,NA,NA,"",   997.903E+03,   997.753E+03,   997.753E+03
C:/temp/Job-8.odb,Step-1,Increment      1: Step Time =    1.000,"P-8-1",            17,   163.636E-03,            0.,            0.,NA,NA,"",   995.337E+03,   994.994E+03,   994.994E+03
C:/temp/Job-8.odb,Step-1,Increment      1: Step Time =    1.000,"P-8-1",            18,   154.545E-03,            0.,            0.,NA,NA,"",   990.334E+03,   990.059E+03,   990.059E+03
C:/temp/Job-8.odb,Step-1,Increment      1: Step Time =    1.000,"P-8-1",            19,   145.455E-03,            0.,            0.,NA,NA,"",   983.106E+03,   982.654E+03,   982.654E+03
C:/temp/Job-8.odb,Step-1,Increment      1: Step Time =    1.000,"P-8-1",            20,   136.364E-03,            0.,            0.,NA,NA,"",   972.972E+03,   972.886E+03,   972.886E+03
C:/temp/Job-8.odb,Step-1,Increment      1: Step Time =    1.000,"P-8-1",            21,   127.273E-03,            0.,            0.,NA,NA,"",   961.818E+03,   961.735E+03,   961.735E+03
C:/temp/Job-8.odb,Step-1,Increment      1: Step Time =    1.000,"P-8-1",            22,   118.182E-03,            0.,            0.,NA,NA,"",   950.157E+03,   950.686E+03,   950.686E+03
C:/temp/Job-8.odb,Step-1,Increment      1: Step Time =    1.000,"P-8-1",            23,   109.091E-03,            0.,            0.,NA,NA,"",   941.680E+03,   942.002E+03,   942.002E+03
C:/temp/Job-8.odb,Step-1,Increment      1: Step Time =    1.000,"P-8-1",            24,   100.000E-03,            0.,            0.,NA,NA,"",   936.807E+03,   937.403E+03,   937.403E+03
C:/temp/Job-8.odb,Step-1,Increment      1: Step Time =    1.000,"P-8-1",            25,   90.9091E-03,            0.,            0.,NA,NA,"",   937.086E+03,   937.525E+03,   937.525E+03
C:/temp/Job-8.odb,Step-1,Increment      1: Step Time =    1.000,"P-8-1",            26,   81.8182E-03,            0.,            0.,NA,NA,"",   942.007E+03,   942.273E+03,   942.273E+03
C:/temp/Job-8.odb,Step-1,Increment      1: Step Time =    1.000,"P-8-1",            27,   72.7273E-03,            0.,            0.,NA,NA,"",   950.257E+03,   950.613E+03,   950.613E+03
C:/temp/Job-8.odb,Step-1,Increment      1: Step Time =    1.000,"P-8-1",            28,   63.6364E-03,            0.,            0.,NA,NA,"",   961.593E+03,   961.518E+03,   961.518E+03
C:/temp/Job-8.odb,Step-1,Increment      1: Step Time =    1.000,"P-8-1",            29,   54.5455E-03,            0.,            0.,NA,NA,"",   973.421E+03,   973.754E+03,   973.754E+03
C:/temp/Job-8.odb,Step-1,Increment      1: Step Time =    1.000,"P-8-1",            30,   45.4545E-03,            0.,            0.,NA,NA,"",   988.050E+03,   988.993E+03,   988.993E+03
C:/temp/Job-8.odb,Step-1,Increment      1: Step Time =    1.000,"P-8-1",            31,   36.3636E-03,            0.,            0.,NA,NA,"",   1.00937E+06,   1.00960E+06,   1.00960E+06
C:/temp/Job-8.odb,Step-1,Increment      1: Step Time =    1.000,"P-8-1",            32,   27.2727E-03,            0.,            0.,NA,NA,"",   1.03933E+06,   1.04418E+06,   1.04418E+06
C:/temp/Job-8.odb,Step-1,Increment      1: Step Time =    1.000,"P-8-1",            33,   18.1818E-03,            0.,            0.,NA,NA,"",   1.10486E+06,   1.10660E+06,   1.10660E+06
C:/temp/Job-8.odb,Step-1,Increment      1: Step Time =    1.000,"P-8-1",            34,   9.09091E-03,            0.,            0.,NA,NA,"",   1.26225E+06,   1.29220E+06,   1.29220E+06
C:/temp/Job-8.odb,Step-1,Increment      1: Step Time =    1.000,"P-8-1",            35,   200.000E-03,   190.909E-03,            0.,NA,NA,"",   1.00004E+06,   999.930E+03,   999.930E+03
C:/temp/Job-8.odb,Step-1,Increment      1: Step Time =    1.000,"P-8-1",            36,   200.000E-03,   181.818E-03,            0.,NA,NA,"",   1.00041E+06,   1.00030E+06,   1.00030E+06
C:/temp/Job-8.odb,Step-1,Increment      1: Step Time =    1.000,"P-8-1",            37,   200.000E-03,   172.727E-03,            0.,NA,NA,"",   999.987E+03,   1.00030E+06,   1.00030E+06
C:/temp/Job-8.odb,Step-1,Increment      1: Step Time =    1.000,"P-8-1",            38,   200.000E-03,   163.636E-03,            0.,NA,NA,"",   999.196E+03,   1.00084E+06,   1.00084E+06
C:/temp/Job-8.odb,Step-1,Increment      1: Step Time =    1.000,"P-8-1",            39,   200.000E-03,   154.545E-03,            0.,NA,NA,"",   996.395E+03,   1.00071E+06,   1.00071E+06
C:/temp/Job-8.odb,Step-1,Increment      1: Step Time =    1.000,"P-8-1",            40,   200.000E-03,   145.455E-03,            0.,NA,NA,"",   992.249E+03,   1.00075E+06,   1.00075E+06
C:/temp/Job-8.odb,Step-1,Increment      1: Step Time =    1.000,"P-8-1",            41,   200.000E-03,   136.364E-03,            0.,NA,NA,"",   986.423E+03,   1.00049E+06,   1.00049E+06
C:/temp/Job-8.odb,Step-1,Increment      1: Step Time =    1.000,"P-8-1",            42,   200.000E-03,   127.273E-03,            0.,NA,NA,"",   979.308E+03,   999.677E+03,   999.677E+03
C:/temp/Job-8.odb,Step-1,Increment      1: Step Time =    1.000,"P-8-1",            43,   200.000E-03,   118.182E-03,            0.,NA,NA,"",   973.270E+03,   999.408E+03,   999.408E+03
C:/temp/Job-8.odb,Step-1,Increment      1: Step Time =    1.000,"P-8-1",            44,   200.000E-03,   109.091E-03,            0.,NA,NA,"",   968.419E+03,   998.518E+03,   998.518E+03
C:/temp/Job-8.odb,Step-1,Increment      1: Step Time =    1.000,"P-8-1",            45,   200.000E-03,   100.000E-03,            0.,NA,NA,"",   967.534E+03,   998.872E+03,   998.872E+03
C:/temp/Job-8.odb,Step-1,Increment      1: Step Time =    1.000,"P-8-1",            46,   200.000E-03,   90.9091E-03,            0.,NA,NA,"",   969.061E+03,   998.735E+03,   998.735E+03
C:/temp/Job-8.odb,Step-1,Increment      1: Step Time =    1.000,"P-8-1",            47,   200.000E-03,   81.8182E-03,            0.,NA,NA,"",   973.975E+03,   999.451E+03,   999.451E+03
C:/temp/Job-8.odb,Step-1,Increment      1: Step Time =    1.000,"P-8-1",            48,   200.000E-03,   72.7273E-03,            0.,NA,NA,"",   980.229E+03,   999.895E+03,   999.895E+03
C:/temp/Job-8.odb,Step-1,Increment      1: Step Time =    1.000,"P-8-1",            49,   200.000E-03,   63.6364E-03,            0.,NA,NA,"",   986.917E+03,   1.00036E+06,   1.00036E+06
C:/temp/Job-8.odb,Step-1,Increment      1: Step Time =    1.000,"P-8-1",            50,   200.000E-03,   54.5455E-03,            0.,NA,NA,"",   992.783E+03,   1.00073E+06,   1.00073E+06
C:/temp/Job-8.odb,Step-1,Increment      1: Step Time =    1.000,"P-8-1",            51,   200.000E-03,   45.4545E-03,            0.,NA,NA,"",   996.714E+03,   1.00061E+06,   1.00061E+06
C:/temp/Job-8.odb,Step-1,Increment      1: Step Time =    1.000,"P-8-1",            52,   200.000E-03,   36.3636E-03,            0.,NA,NA,"",   999.304E+03,   1.00070E+06,   1.00070E+06
C:/temp/Job-8.odb,Step-1,Increment      1: Step Time =    1.000,"P-8-1",            53,   200.000E-03,   27.2727E-03,            0.,NA,NA,"",   1.00009E+06,   1.00029E+06,   1.00029E+06
C:/temp/Job-8.odb,Step-1,Increment      1: Step Time =    1.000,"P-8-1",            54,   200.000E-03,   18.1818E-03,            0.,NA,NA,"",   1.00040E+06,   1.00025E+06,   1.00025E+06
C:/temp/Job-8.odb,Step-1,Increment      1: Step Time =    1.000,"P-8-1",            55,   200.000E-03,   9.09091E-03,            0.,NA,NA,"",   1.00000E+06,   999.906E+03,   999.906E+03
C:/temp/Job-8.odb,Step-1,Increment      1: Step Time =    1.000,"P-8-1",            56,   9.09091E-03,   200.000E-03,            0.,NA,NA,"",   1.26081E+06,   1.29069E+06,   1.29069E+06
C:/temp/Job-8.odb,Step-1,Increment      1: Step Time =    1.000,"P-8-1",            57,   18.1818E-03,   200.000E-03,            0.,NA,NA,"",   1.10376E+06,   1.10595E+06,   1.10595E+06
C:/temp/Job-8.odb,Step-1,Increment      1: Step Time =    1.000,"P-8-1",            58,   27.2727E-03,   200.000E-03,            0.,NA,NA,"",   1.03928E+06,   1.04395E+06,   1.04395E+06
C:/temp/Job-8.odb,Step-1,Increment      1: Step Time =    1.000,"P-8-1",            59,   36.3636E-03,   200.000E-03,            0.,NA,NA,"",   1.00857E+06,   1.00899E+06,   1.00899E+06
C:/temp/Job-8.odb,Step-1,Increment      1: Step Time =    1.000,"P-8-1",            60,   45.4545E-03,   200.000E-03,            0.,NA,NA,"",   986.715E+03,   987.876E+03,   987.876E+03
C:/temp/Job-8.odb,Step-1,Increment      1: Step Time =    1.000,"P-8-1",            61,   54.5455E-03,   200.000E-03,            0.,NA,NA,"",   972.145E+03,   972.204E+03,   972.204E+03
C:/temp/Job-8.odb,Step-1,Increment      1: Step Time =    1.000,"P-8-1",            62,   63.6364E-03,   200.000E-03,            0.,NA,NA,"",   959.432E+03,   959.769E+03,   959.769E+03
C:/temp/Job-8.odb,Step-1,Increment      1: Step Time =    1.000,"P-8-1",            63,   72.7273E-03,   200.000E-03,            0.,NA,NA,"",   949.033E+03,   949.122E+03,   949.122E+03
C:/temp/Job-8.odb,Step-1,Increment      1: Step Time =    1.000,"P-8-1",            64,   81.8182E-03,   200.000E-03,            0.,NA,NA,"",   940.370E+03,   940.921E+03,   940.921E+03
C:/temp/Job-8.odb,Step-1,Increment      1: Step Time =    1.000,"P-8-1",            65,   90.9091E-03,   200.000E-03,            0.,NA,NA,"",   936.097E+03,   936.426E+03,   936.426E+03
C:/temp/Job-8.odb,Step-1,Increment      1: Step Time =    1.000,"P-8-1",            66,   100.000E-03,   200.000E-03,            0.,NA,NA,"",   936.009E+03,   936.618E+03,   936.618E+03
C:/temp/Job-8.odb,Step-1,Increment      1: Step Time =    1.000,"P-8-1",            67,   109.091E-03,   200.000E-03,            0.,NA,NA,"",   941.366E+03,   941.680E+03,   941.680E+03
C:/temp/Job-8.odb,Step-1,Increment      1: Step Time =    1.000,"P-8-1",            68,   118.182E-03,   200.000E-03,            0.,NA,NA,"",   950.661E+03,   950.878E+03,   950.878E+03
C:/temp/Job-8.odb,Step-1,Increment      1: Step Time =    1.000,"P-8-1",            69,   127.273E-03,   200.000E-03,            0.,NA,NA,"",   962.260E+03,   962.228E+03,   962.228E+03
C:/temp/Job-8.odb,Step-1,Increment      1: Step Time =    1.000,"P-8-1",            70,   136.364E-03,   200.000E-03,            0.,NA,NA,"",   973.940E+03,   973.744E+03,   973.744E+03
C:/temp/Job-8.odb,Step-1,Increment      1: Step Time =    1.000,"P-8-1",            71,   145.455E-03,   200.000E-03,            0.,NA,NA,"",   983.856E+03,   983.601E+03,   983.601E+03
C:/temp/Job-8.odb,Step-1,Increment      1: Step Time =    1.000,"P-8-1",            72,   154.545E-03,   200.000E-03,            0.,NA,NA,"",   991.181E+03,   990.874E+03,   990.874E+03
C:/temp/Job-8.odb,Step-1,Increment      1: Step Time =    1.000,"P-8-1",            73,   163.636E-03,   200.000E-03,            0.,NA,NA,"",   995.638E+03,   995.451E+03,   995.451E+03
C:/temp/Job-8.odb,Step-1,Increment      1: Step Time =    1.000,"P-8-1",            74,   172.727E-03,   200.000E-03,            0.,NA,NA,"",   998.125E+03,   997.962E+03,   997.962E+03
C:/temp/Job-8.odb,Step-1,Increment      1: Step Time =    1.000,"P-8-1",            75,   181.818E-03,   200.000E-03,            0.,NA,NA,"",   999.201E+03,   999.161E+03,   999.161E+03
C:/temp/Job-8.odb,Step-1,Increment      1: Step Time =    1.000,"P-8-1",            76,   190.909E-03,   200.000E-03,            0.,NA,NA,"",   999.764E+03,   999.724E+03,   999.724E+03
C:/temp/Job-8.odb,Step-1,Increment      1: Step Time =    1.000,"P-8-1",            77,            0.,   9.09091E-03,            0.,NA,NA,"",   1.21568E+06,   1.29637E+06,   1.29637E+06
C:/temp/Job-8.odb,Step-1,Increment      1: Step Time =    1.000,"P-8-1",            78,            0.,   18.1818E-03,            0.,NA,NA,"",   1.02078E+06,   1.11664E+06,   1.11664E+06
C:/temp/Job-8.odb,Step-1,Increment      1: Step Time =    1.000,"P-8-1",            79,            0.,   27.2727E-03,            0.,NA,NA,"",   952.485E+03,   1.05161E+06,   1.05161E+06
C:/temp/Job-8.odb,Step-1,Increment      1: Step Time =    1.000,"P-8-1",            80,            0.,   36.3636E-03,            0.,NA,NA,"",   907.252E+03,   1.00796E+06,   1.00796E+06
C:/temp/Job-8.odb,Step-1,Increment      1: Step Time =    1.000,"P-8-1",            81,            0.,   45.4545E-03,            0.,NA,NA,"",   875.889E+03,   977.261E+03,   977.261E+03
C:/temp/Job-8.odb,Step-1,Increment      1: Step Time =    1.000,"P-8-1",            82,            0.,   54.5455E-03,            0.,NA,NA,"",   850.721E+03,   952.035E+03,   952.035E+03
C:/temp/Job-8.odb,Step-1,Increment      1: Step Time =    1.000,"P-8-1",            83,            0.,   63.6364E-03,            0.,NA,NA,"",   829.465E+03,   930.563E+03,   930.563E+03
C:/temp/Job-8.odb,Step-1,Increment      1: Step Time =    1.000,"P-8-1",            84,            0.,   72.7273E-03,            0.,NA,NA,"",   811.617E+03,   912.163E+03,   912.163E+03
C:/temp/Job-8.odb,Step-1,Increment      1: Step Time =    1.000,"P-8-1",            85,            0.,   81.8182E-03,            0.,NA,NA,"",   797.758E+03,   897.837E+03,   897.837E+03
C:/temp/Job-8.odb,Step-1,Increment      1: Step Time =    1.000,"P-8-1",            86,            0.,   90.9091E-03,            0.,NA,NA,"",   788.896E+03,   888.630E+03,   888.630E+03
C:/temp/Job-8.odb,Step-1,Increment      1: Step Time =    1.000,"P-8-1",            87,            0.,   100.000E-03,            0.,NA,NA,"",   786.311E+03,   885.924E+03,   885.924E+03
C:/temp/Job-8.odb,Step-1,Increment      1: Step Time =    1.000,"P-8-1",            88,            0.,   109.091E-03,            0.,NA,NA,"",   789.458E+03,   889.231E+03,   889.231E+03
C:/temp/Job-8.odb,Step-1,Increment      1: Step Time =    1.000,"P-8-1",            89,            0.,   118.182E-03,            0.,NA,NA,"",   798.311E+03,   898.577E+03,   898.577E+03
C:/temp/Job-8.odb,Step-1,Increment      1: Step Time =    1.000,"P-8-1",            90,            0.,   127.273E-03,            0.,NA,NA,"",   811.914E+03,   912.673E+03,   912.673E+03
C:/temp/Job-8.odb,Step-1,Increment      1: Step Time =    1.000,"P-8-1",            91,            0.,   136.364E-03,            0.,NA,NA,"",   829.738E+03,   931.081E+03,   931.081E+03
C:/temp/Job-8.odb,Step-1,Increment      1: Step Time =    1.000,"P-8-1",            92,            0.,   145.455E-03,            0.,NA,NA,"",   850.557E+03,   952.165E+03,   952.165E+03
C:/temp/Job-8.odb,Step-1,Increment      1: Step Time =    1.000,"P-8-1",            93,            0.,   154.545E-03,            0.,NA,NA,"",   876.046E+03,   977.575E+03,   977.575E+03
C:/temp/Job-8.odb,Step-1,Increment      1: Step Time =    1.000,"P-8-1",            94,            0.,   163.636E-03,            0.,NA,NA,"",   907.037E+03,   1.00777E+06,   1.00777E+06
C:/temp/Job-8.odb,Step-1,Increment      1: Step Time =    1.000,"P-8-1",            95,            0.,   172.727E-03,            0.,NA,NA,"",   952.166E+03,   1.05120E+06,   1.05120E+06
C:/temp/Job-8.odb,Step-1,Increment      1: Step Time =    1.000,"P-8-1",            96,            0.,   181.818E-03,            0.,NA,NA,"",   1.01951E+06,   1.11503E+06,   1.11503E+06
C:/temp/Job-8.odb,Step-1,Increment      1: Step Time =    1.000,"P-8-1",            97,            0.,   190.909E-03,            0.,NA,NA,"",   1.21339E+06,   1.29366E+06,   1.29366E+06
C:/temp/Job-8.odb,Step-1,Increment      1: Step Time =    1.000,"P-8-1",            98,   106.182E-03,   117.637E-03,            0.,NA,NA,"",   1.50723E+06,   1.58109E+06,   1.58109E+06
C:/temp/Job-8.odb,Step-1,Increment      1: Step Time =    1.000,"P-8-1",            99,   86.8743E-03,   83.7393E-03,            0.,NA,NA,"",   1.28331E+06,   1.24382E+06,   1.24382E+06
C:/temp/Job-8.odb,Step-1,Increment      1: Step Time =    1.000,"P-8-1",           100,   80.1239E-03,   94.2072E-03,            0.,NA,NA,"",   689.620E+03,   495.092E+03,   495.092E+03
C:/temp/Job-8.odb,Step-1,Increment      1: Step Time =    1.000,"P-8-1",           101,   120.688E-03,   97.4513E-03,            0.,NA,NA,"",   592.081E+03,   345.412E+03,   345.412E+03
C:/temp/Job-8.odb,Step-1,Increment      1: Step Time =    1.000,"P-8-1",           102,   115.155E-03,   114.602E-03,            0.,NA,NA,"",   1.22688E+06,   1.13356E+06,   1.13356E+06
C:/temp/Job-8.odb,Step-1,Increment      1: Step Time =    1.000,"P-8-1",           103,   102.961E-03,   79.9689E-03,            0.,NA,NA,"",   1.42586E+06,   1.53430E+06,   1.53430E+06
C:/temp/Job-8.odb,Step-1,Increment      1: Step Time =    1.000,"P-8-1",           104,   112.565E-03,   84.9098E-03,            0.,NA,NA,"",   1.33697E+06,   1.27866E+06,   1.27866E+06
C:/temp/Job-8.odb,Step-1,Increment      1: Step Time =    1.000,"P-8-1",           105,   84.5610E-03,   109.689E-03,            0.,NA,NA,"",   950.583E+03,   824.986E+03,   824.986E+03
C:/temp/Job-8.odb,Step-1,Increment      1: Step Time =    1.000,"P-8-1",           106,   89.7844E-03,   117.490E-03,            0.,NA,NA,"",   1.41196E+06,   1.41575E+06,   1.41575E+06
C:/temp/Job-8.odb,Step-1,Increment      1: Step Time =    1.000,"P-8-1",           107,   191.844E-03,   118.294E-03,            0.,NA,NA,"",   975.598E+03,   997.877E+03,   997.877E+03
C:/temp/Job-8.odb,Step-1,Increment      1: Step Time =    1.000,"P-8-1",           108,   98.7995E-03,   8.25584E-03,            0.,NA,NA,"",   950.302E+03,   951.788E+03,   951.788E+03
C:/temp/Job-8.odb,Step-1,Increment      1: Step Time =    1.000,"P-8-1",           109,   8.15564E-03,   136.342E-03,            0.,NA,NA,"",   842.229E+03,   938.729E+03,   938.729E+03
C:/temp/Job-8.odb,Step-1,Increment      1: Step Time =    1.000,"P-8-1",           110,   154.907E-03,   9.20553E-03,            0.,NA,NA,"",   995.079E+03,   994.076E+03,   994.076E+03
C:/temp/Job-8.odb,Step-1,Increment      1: Step Time =    1.000,"P-8-1",           111,   145.566E-03,   9.29619E-03,            0.,NA,NA,"",   989.501E+03,   988.536E+03,   988.536E+03
C:/temp/Job-8.odb,Step-1,Increment      1: Step Time =    1.000,"P-8-1",           112,   135.982E-03,   9.27833E-03,            0.,NA,NA,"",   981.421E+03,   980.853E+03,   980.853E+03
C:/temp/Job-8.odb,Step-1,Increment      1: Step Time =    1.000,"P-8-1",           113,   126.370E-03,   9.01020E-03,            0.,NA,NA,"",   971.355E+03,   971.514E+03,   971.514E+03
C:/temp/Job-8.odb,Step-1,Increment      1: Step Time =    1.000,"P-8-1",           114,   116.940E-03,   8.67740E-03,            0.,NA,NA,"",   961.378E+03,   962.331E+03,   962.331E+03
C:/temp/Job-8.odb,Step-1,Increment      1: Step Time =    1.000,"P-8-1",           115,   107.776E-03,   8.40892E-03,            0.,NA,NA,"",   953.830E+03,   955.155E+03,   955.155E+03
C:/temp/Job-8.odb,Step-1,Increment      1: Step Time =    1.000,"P-8-1",           116,   89.8207E-03,   8.13523E-03,            0.,NA,NA,"",   951.479E+03,   952.704E+03,   952.704E+03
C:/temp/Job-8.odb,Step-1,Increment      1: Step Time =    1.000,"P-8-1",           117,   80.8047E-03,   8.04348E-03,            0.,NA,NA,"",   956.551E+03,   957.481E+03,   957.481E+03
C:/temp/Job-8.odb,Step-1,Increment      1: Step Time =    1.000,"P-8-1",           118,   71.7915E-03,   8.02636E-03,            0.,NA,NA,"",   965.149E+03,   965.810E+03,   965.810E+03
C:/temp/Job-8.odb,Step-1,Increment      1: Step Time =    1.000,"P-8-1",           119,   62.8749E-03,   8.16010E-03,            0.,NA,NA,"",   976.458E+03,   976.665E+03,   976.665E+03
C:/temp/Job-8.odb,Step-1,Increment      1: Step Time =    1.000,"P-8-1",           120,   53.9281E-03,   8.41468E-03,            0.,NA,NA,"",   989.751E+03,   990.616E+03,   990.616E+03
C:/temp/Job-8.odb,Step-1,Increment      1: Step Time =    1.000,"P-8-1",           121,   45.0232E-03,   8.71678E-03,            0.,NA,NA,"",   1.00499E+06,   1.00667E+06,   1.00667E+06
C:/temp/Job-8.odb,Step-1,Increment      1: Step Time =    1.000,"P-8-1",           122,   36.0345E-03,   8.86399E-03,            0.,NA,NA,"",   1.02626E+06,   1.02992E+06,   1.02992E+06
C:/temp/Job-8.odb,Step-1,Increment      1: Step Time =    1.000,"P-8-1",           123,   26.9809E-03,   8.88523E-03,            0.,NA,NA,"",   1.05690E+06,   1.06501E+06,   1.06501E+06
C:/temp/Job-8.odb,Step-1,Increment      1: Step Time =    1.000,"P-8-1",           124,   191.204E-03,   145.631E-03,            0.,NA,NA,"",   995.100E+03,   1.00213E+06,   1.00213E+06
C:/temp/Job-8.odb,Step-1,Increment      1: Step Time =    1.000,"P-8-1",           125,   191.489E-03,   136.476E-03,            0.,NA,NA,"",   989.609E+03,   1.00138E+06,   1.00138E+06
C:/temp/Job-8.odb,Step-1,Increment      1: Step Time =    1.000,"P-8-1",           126,   191.736E-03,   127.399E-03,            0.,NA,NA,"",   982.565E+03,   999.743E+03,   999.743E+03
C:/temp/Job-8.odb,Step-1,Increment      1: Step Time =    1.000,"P-8-1",           127,   191.906E-03,   109.173E-03,            0.,NA,NA,"",   970.703E+03,   996.487E+03,   996.487E+03
C:/temp/Job-8.odb,Step-1,Increment      1: Step Time =    1.000,"P-8-1",           128,   191.945E-03,   100.082E-03,            0.,NA,NA,"",   969.244E+03,   996.174E+03,   996.174E+03
C:/temp/Job-8.odb,Step-1,Increment      1: Step Time =    1.000,"P-8-1",           129,   191.991E-03,   91.0799E-03,            0.,NA,NA,"",   971.402E+03,   996.886E+03,   996.886E+03
C:/temp/Job-8.odb,Step-1,Increment      1: Step Time =    1.000,"P-8-1",           130,   192.045E-03,   82.0592E-03,            0.,NA,NA,"",   976.264E+03,   998.170E+03,   998.170E+03
C:/temp/Job-8.odb,Step-1,Increment      1: Step Time =    1.000,"P-8-1",           131,   192.075E-03,   72.9722E-03,            0.,NA,NA,"",   982.903E+03,   999.802E+03,   999.802E+03
C:/temp/Job-8.odb,Step-1,Increment      1: Step Time =    1.000,"P-8-1",           132,   192.015E-03,   63.8369E-03,            0.,NA,NA,"",   989.647E+03,   1.00117E+06,   1.00117E+06
C:/temp/Job-8.odb,Step-1,Increment      1: Step Time =    1.000,"P-8-1",           133,   191.853E-03,   54.6862E-03,            0.,NA,NA,"",   995.110E+03,   1.00193E+06,   1.00193E+06
C:/temp/Job-8.odb,Step-1,Increment      1: Step Time =    1.000,"P-8-1",           134,   191.631E-03,   45.5215E-03,            0.,NA,NA,"",   998.680E+03,   1.00202E+06,   1.00202E+06
C:/temp/Job-8.odb,Step-1,Increment      1: Step Time =    1.000,"P-8-1",           135,   191.428E-03,   36.3304E-03,            0.,NA,NA,"",   1.00055E+06,   1.00175E+06,   1.00175E+06
C:/temp/Job-8.odb,Step-1,Increment      1: Step Time =    1.000,"P-8-1",           136,   191.285E-03,   27.1556E-03,            0.,NA,NA,"",   1.00099E+06,   1.00114E+06,   1.00114E+06
C:/temp/Job-8.odb,Step-1,Increment      1: Step Time =    1.000,"P-8-1",           137,   191.171E-03,   18.0319E-03,            0.,NA,NA,"",   1.00063E+06,   1.00049E+06,   1.00049E+06
C:/temp/Job-8.odb,Step-1,Increment      1: Step Time =    1.000,"P-8-1",           138,   191.057E-03,   8.97276E-03,            0.,NA,NA,"",   1.00002E+06,   999.918E+03,   999.918E+03
C:/temp/Job-8.odb,Step-1,Increment      1: Step Time =    1.000,"P-8-1",           139,   46.2073E-03,   190.881E-03,            0.,NA,NA,"",   1.00280E+06,   1.00467E+06,   1.00467E+06
C:/temp/Job-8.odb,Step-1,Increment      1: Step Time =    1.000,"P-8-1",           140,   55.5161E-03,   191.314E-03,            0.,NA,NA,"",   987.037E+03,   987.723E+03,   987.723E+03
C:/temp/Job-8.odb,Step-1,Increment      1: Step Time =    1.000,"P-8-1",           141,   64.7275E-03,   191.658E-03,            0.,NA,NA,"",   973.609E+03,   974.015E+03,   974.015E+03
C:/temp/Job-8.odb,Step-1,Increment      1: Step Time =    1.000,"P-8-1",           142,   73.8804E-03,   191.846E-03,            0.,NA,NA,"",   962.621E+03,   963.327E+03,   963.327E+03
C:/temp/Job-8.odb,Step-1,Increment      1: Step Time =    1.000,"P-8-1",           143,   82.9393E-03,   191.909E-03,            0.,NA,NA,"",   954.344E+03,   955.423E+03,   955.423E+03
C:/temp/Job-8.odb,Step-1,Increment      1: Step Time =    1.000,"P-8-1",           144,   91.9631E-03,   191.961E-03,            0.,NA,NA,"",   949.608E+03,   950.967E+03,   950.967E+03
C:/temp/Job-8.odb,Step-1,Increment      1: Step Time =    1.000,"P-8-1",           145,   100.984E-03,   192.016E-03,            0.,NA,NA,"",   949.277E+03,   950.656E+03,   950.656E+03
C:/temp/Job-8.odb,Step-1,Increment      1: Step Time =    1.000,"P-8-1",           146,   109.987E-03,   192.066E-03,            0.,NA,NA,"",   953.583E+03,   954.649E+03,   954.649E+03
C:/temp/Job-8.odb,Step-1,Increment      1: Step Time =    1.000,"P-8-1",           147,   118.980E-03,   192.088E-03,            0.,NA,NA,"",   961.549E+03,   962.020E+03,   962.020E+03
C:/temp/Job-8.odb,Step-1,Increment      1: Step Time =    1.000,"P-8-1",           148,   127.990E-03,   192.073E-03,            0.,NA,NA,"",   971.407E+03,   971.322E+03,   971.322E+03
C:/temp/Job-8.odb,Step-1,Increment      1: Step Time =    1.000,"P-8-1",           149,   136.973E-03,   192.039E-03,            0.,NA,NA,"",   981.131E+03,   980.547E+03,   980.547E+03
C:/temp/Job-8.odb,Step-1,Increment      1: Step Time =    1.000,"P-8-1",           150,   145.967E-03,   191.939E-03,            0.,NA,NA,"",   989.201E+03,   988.396E+03,   988.396E+03
C:/temp/Job-8.odb,Step-1,Increment      1: Step Time =    1.000,"P-8-1",           151,   154.972E-03,   191.772E-03,            0.,NA,NA,"",   994.866E+03,   994.031E+03,   994.031E+03
C:/temp/Job-8.odb,Step-1,Increment      1: Step Time =    1.000,"P-8-1",           152,   163.988E-03,   191.581E-03,            0.,NA,NA,"",   998.107E+03,   997.469E+03,   997.469E+03
C:/temp/Job-8.odb,Step-1,Increment      1: Step Time =    1.000,"P-8-1",           153,   173.002E-03,   191.394E-03,            0.,NA,NA,"",   999.510E+03,   999.122E+03,   999.122E+03
C:/temp/Job-8.odb,Step-1,Increment      1: Step Time =    1.000,"P-8-1",           154,   182.012E-03,   191.221E-03,            0.,NA,NA,"",   999.936E+03,   999.776E+03,   999.776E+03
C:/temp/Job-8.odb,Step-1,Increment      1: Step Time =    1.000,"P-8-1",           155,   191.025E-03,   191.068E-03,            0.,NA,NA,"",   1.00003E+06,   999.951E+03,   999.951E+03
C:/temp/Job-8.odb,Step-1,Increment      1: Step Time =    1.000,"P-8-1",           156,   8.56776E-03,   54.5191E-03,            0.,NA,NA,"",   866.783E+03,   961.949E+03,   961.949E+03
C:/temp/Job-8.odb,Step-1,Increment      1: Step Time =    1.000,"P-8-1",           157,   8.49666E-03,   63.7166E-03,            0.,NA,NA,"",   842.757E+03,   938.750E+03,   938.750E+03
C:/temp/Job-8.odb,Step-1,Increment      1: Step Time =    1.000,"P-8-1",           158,   8.40764E-03,   72.9210E-03,            0.,NA,NA,"",   822.490E+03,   918.948E+03,   918.948E+03
C:/temp/Job-8.odb,Step-1,Increment      1: Step Time =    1.000,"P-8-1",           159,   8.32767E-03,   82.1347E-03,            0.,NA,NA,"",   806.107E+03,   902.843E+03,   902.843E+03
C:/temp/Job-8.odb,Step-1,Increment      1: Step Time =    1.000,"P-8-1",           160,   8.30849E-03,   91.1989E-03,            0.,NA,NA,"",   796.233E+03,   893.050E+03,   893.050E+03
C:/temp/Job-8.odb,Step-1,Increment      1: Step Time =    1.000,"P-8-1",           161,   8.32871E-03,   100.220E-03,            0.,NA,NA,"",   793.056E+03,   889.934E+03,   889.934E+03
C:/temp/Job-8.odb,Step-1,Increment      1: Step Time =    1.000,"P-8-1",           162,   8.30763E-03,   109.247E-03,            0.,NA,NA,"",   797.010E+03,   893.899E+03,   893.899E+03
C:/temp/Job-8.odb,Step-1,Increment      1: Step Time =    1.000,"P-8-1",           163,   8.23396E-03,   118.257E-03,            0.,NA,NA,"",   807.056E+03,   903.946E+03,   903.946E+03
C:/temp/Job-8.odb,Step-1,Increment      1: Step Time =    1.000,"P-8-1",           164,   8.15338E-03,   127.260E-03,            0.,NA,NA,"",   822.689E+03,   919.510E+03,   919.510E+03
C:/temp/Job-8.odb,Step-1,Increment      1: Step Time =    1.000,"P-8-1",           165,   8.21850E-03,   145.404E-03,            0.,NA,NA,"",   866.162E+03,   961.796E+03,   961.796E+03
C:/temp/Job-8.odb,Step-1,Increment      1: Step Time =    1.000,"P-8-1",           166,   8.39783E-03,   154.504E-03,            0.,NA,NA,"",   892.730E+03,   986.906E+03,   986.906E+03
C:/temp/Job-8.odb,Step-1,Increment      1: Step Time =    1.000,"P-8-1",           167,   8.65016E-03,   163.611E-03,            0.,NA,NA,"",   928.626E+03,   1.01975E+06,   1.01975E+06
C:/temp/Job-8.odb,Step-1,Increment      1: Step Time =    1.000,"P-8-1",           168,   8.87491E-03,   172.690E-03,            0.,NA,NA,"",   972.044E+03,   1.05858E+06,   1.05858E+06
C:/temp/Job-8.odb,Step-1,Increment      1: Step Time =    1.000,"P-8-1",           169,   9.02894E-03,   181.740E-03,            0.,NA,NA,"",   1.05390E+06,   1.12913E+06,   1.12913E+06
C:/temp/Job-8.odb,Step-1,Increment      1: Step Time =    1.000,"P-8-1",           170,   9.09784E-03,   190.853E-03,            0.,NA,NA,"",   1.18805E+06,   1.23614E+06,   1.23614E+06
C:/temp/Job-8.odb,Step-1,Increment      1: Step Time =    1.000,"P-8-1",           171,   110.886E-03,   121.717E-03,            0.,NA,NA,"",   1.31416E+06,   1.32453E+06,   1.32453E+06
C:/temp/Job-8.odb,Step-1,Increment      1: Step Time =    1.000,"P-8-1",           172,   82.1373E-03,   114.884E-03,            0.,NA,NA,"",   1.19327E+06,   1.09997E+06,   1.09997E+06
C:/temp/Job-8.odb,Step-1,Increment      1: Step Time =    1.000,"P-8-1",           173,   94.5680E-03,   81.5263E-03,            0.,NA,NA,"",   1.43454E+06,   1.50341E+06,   1.50341E+06
C:/temp/Job-8.odb,Step-1,Increment      1: Step Time =    1.000,"P-8-1",           174,   116.906E-03,   90.7761E-03,            0.,NA,NA,"",   975.459E+03,   701.417E+03,   701.417E+03
C:/temp/Job-8.odb,Step-1,Increment      1: Step Time =    1.000,"P-8-1",           175,   110.887E-03,   78.0681E-03,            0.,NA,NA,"",   1.33568E+06,   1.35039E+06,   1.35039E+06
C:/temp/Job-8.odb,Step-1,Increment      1: Step Time =    1.000,"P-8-1",           176,   79.9263E-03,   103.654E-03,            0.,NA,NA,"",   631.622E+03,   456.225E+03,   456.225E+03
C:/temp/Job-8.odb,Step-1,Increment      1: Step Time =    1.000,"P-8-1",           177,   119.356E-03,   108.567E-03,            0.,NA,NA,"",   871.260E+03,   755.965E+03,   755.965E+03
C:/temp/Job-8.odb,Step-1,Increment      1: Step Time =    1.000,"P-8-1",           178,   98.8003E-03,   120.683E-03,            0.,NA,NA,"",   1.41091E+06,   1.50980E+06,   1.50980E+06
C:/temp/Job-8.odb,Step-1,Increment      1: Step Time =    1.000,"P-8-1",           179,   163.985E-03,   9.10682E-03,            0.,NA,NA,"",   998.135E+03,   997.341E+03,   997.341E+03
C:/temp/Job-8.odb,Step-1,Increment      1: Step Time =    1.000,"P-8-1",           180,   8.60802E-03,   45.2944E-03,            0.,NA,NA,"",   893.607E+03,   987.412E+03,   987.412E+03
C:/temp/Job-8.odb,Step-1,Increment      1: Step Time =    1.000,"P-8-1",           181,   191.033E-03,   154.782E-03,            0.,NA,NA,"",   998.871E+03,   1.00238E+06,   1.00238E+06
C:/temp/Job-8.odb,Step-1,Increment      1: Step Time =    1.000,"P-8-1",           182,   36.9527E-03,   190.517E-03,            0.,NA,NA,"",   1.02503E+06,   1.02864E+06,   1.02864E+06
C:/temp/Job-8.odb,Step-1,Increment      1: Step Time =    1.000,"P-8-1",           183,   8.84161E-03,   17.9801E-03,            0.,NA,NA,"",   1.05724E+06,    1.1326E+06,    1.1326E+06
C:/temp/Job-8.odb,Step-1,Increment      1: Step Time =    1.000,"P-8-1",           184,   18.3055E-03,   190.685E-03,            0.,NA,NA,"",   1.11683E+06,   1.13061E+06,   1.13061E+06
C:/temp/Job-8.odb,Step-1,Increment      1: Step Time =    1.000,"P-8-1",           185,   183.932E-03,   118.515E-03,            0.,NA,NA,"",   979.009E+03,   994.396E+03,   994.396E+03
C:/temp/Job-8.odb,Step-1,Increment      1: Step Time =    1.000,"P-8-1",           186,   88.6103E-03,   16.1591E-03,            0.,NA,NA,"",   976.704E+03,   980.276E+03,   980.276E+03
C:/temp/Job-8.odb,Step-1,Increment      1: Step Time =    1.000,"P-8-1",           187,   17.9493E-03,   8.90072E-03,            0.,NA,NA,"",   1.12083E+06,   1.13392E+06,   1.13392E+06
C:/temp/Job-8.odb,Step-1,Increment      1: Step Time =    1.000,"P-8-1",           188,   182.522E-03,   27.2595E-03,            0.,NA,NA,"",   1.00381E+06,   1.00331E+06,   1.00331E+06
C:/temp/Job-8.odb,Step-1,Increment      1: Step Time =    1.000,"P-8-1",           189,   182.831E-03,   36.5773E-03,            0.,NA,NA,"",   1.00498E+06,   1.00497E+06,   1.00497E+06
C:/temp/Job-8.odb,Step-1,Increment      1: Step Time =    1.000,"P-8-1",           190,   145.598E-03,   18.3752E-03,            0.,NA,NA,"",   1.00417E+06,   1.00149E+06,   1.00149E+06
C:/temp/Job-8.odb,Step-1,Increment      1: Step Time =    1.000,"P-8-1",           191,   135.381E-03,   18.3162E-03,            0.,NA,NA,"",   998.836E+03,   997.321E+03,   997.321E+03
C:/temp/Job-8.odb,Step-1,Increment      1: Step Time =    1.000,"P-8-1",           192,   70.9968E-03,   15.8768E-03,            0.,NA,NA,"",   992.519E+03,   994.145E+03,   994.145E+03
C:/temp/Job-8.odb,Step-1,Increment      1: Step Time =    1.000,"P-8-1",           193,   173.057E-03,   182.625E-03,            0.,NA,NA,"",   1.00334E+06,   1.00227E+06,   1.00227E+06
C:/temp/Job-8.odb,Step-1,Increment      1: Step Time =    1.000,"P-8-1",           194,   164.098E-03,   182.997E-03,            0.,NA,NA,"",   1.00434E+06,   1.00252E+06,   1.00252E+06
C:/temp/Job-8.odb,Step-1,Increment      1: Step Time =    1.000,"P-8-1",           195,   190.986E-03,   163.884E-03,            0.,NA,NA,"",   1.00058E+06,   1.00193E+06,   1.00193E+06
C:/temp/Job-8.odb,Step-1,Increment      1: Step Time =    1.000,"P-8-1",           196,   182.519E-03,   145.621E-03,            0.,NA,NA,"",   1.00305E+06,   1.00632E+06,   1.00632E+06
C:/temp/Job-8.odb,Step-1,Increment      1: Step Time =    1.000,"P-8-1",           197,   184.244E-03,   82.4565E-03,            0.,NA,NA,"",   979.212E+03,   994.741E+03,   994.741E+03
C:/temp/Job-8.odb,Step-1,Increment      1: Step Time =    1.000,"P-8-1",           198,   18.0489E-03,   172.287E-03,            0.,NA,NA,"",   1.01209E+06,   1.07253E+06,   1.07253E+06
C:/temp/Job-8.odb,Step-1,Increment      1: Step Time =    1.000,"P-8-1",           199,   27.6509E-03,   190.476E-03,            0.,NA,NA,"",   1.05491E+06,   1.06310E+06,   1.06310E+06
C:/temp/Job-8.odb,Step-1,Increment      1: Step Time =    1.000,"P-8-1",           200,   47.4642E-03,   181.886E-03,            0.,NA,NA,"",   1.02794E+06,   1.03229E+06,   1.03229E+06
C:/temp/Job-8.odb,Step-1,Increment      1: Step Time =    1.000,"P-8-1",           201,   26.6894E-03,   17.8942E-03,            0.,NA,NA,"",   1.07144E+06,   1.09066E+06,   1.09066E+06
C:/temp/Job-8.odb,Step-1,Increment      1: Step Time =    1.000,"P-8-1",           202,   44.9132E-03,   17.7628E-03,            0.,NA,NA,"",   1.03073E+06,   1.03617E+06,   1.03617E+06
C:/temp/Job-8.odb,Step-1,Increment      1: Step Time =    1.000,"P-8-1",           203,   53.6847E-03,   16.8584E-03,            0.,NA,NA,"",   1.01614E+06,   1.01822E+06,   1.01822E+06
C:/temp/Job-8.odb,Step-1,Increment      1: Step Time =    1.000,"P-8-1",           204,   62.4163E-03,   16.2506E-03,            0.,NA,NA,"",   1.00431E+06,   1.00540E+06,   1.00540E+06
C:/temp/Job-8.odb,Step-1,Increment      1: Step Time =    1.000,"P-8-1",           205,   16.9485E-03,   54.5067E-03,            0.,NA,NA,"",   898.274E+03,   980.022E+03,   980.022E+03
C:/temp/Job-8.odb,Step-1,Increment      1: Step Time =    1.000,"P-8-1",           206,   16.7216E-03,   109.352E-03,            0.,NA,NA,"",   812.166E+03,   902.255E+03,   902.255E+03
C:/temp/Job-8.odb,Step-1,Increment      1: Step Time =    1.000,"P-8-1",           207,   16.6673E-03,   91.4382E-03,            0.,NA,NA,"",   810.327E+03,   900.531E+03,   900.531E+03
C:/temp/Job-8.odb,Step-1,Increment      1: Step Time =    1.000,"P-8-1",           208,   84.0411E-03,   184.081E-03,            0.,NA,NA,"",   978.581E+03,   981.657E+03,   981.657E+03
C:/temp/Job-8.odb,Step-1,Increment      1: Step Time =    1.000,"P-8-1",           209,   184.398E-03,   73.3943E-03,            0.,NA,NA,"",   987.955E+03,   999.447E+03,   999.447E+03
C:/temp/Job-8.odb,Step-1,Increment      1: Step Time =    1.000,"P-8-1",           210,   97.3995E-03,   16.4555E-03,            0.,NA,NA,"",   974.246E+03,   978.331E+03,   978.331E+03
C:/temp/Job-8.odb,Step-1,Increment      1: Step Time =    1.000,"P-8-1",           211,   125.087E-03,   17.6018E-03,            0.,NA,NA,"",   990.219E+03,   990.858E+03,   990.858E+03
C:/temp/Job-8.odb,Step-1,Increment      1: Step Time =    1.000,"P-8-1",           212,   115.377E-03,   17.0406E-03,            0.,NA,NA,"",   981.042E+03,   983.799E+03,   983.799E+03
C:/temp/Job-8.odb,Step-1,Increment      1: Step Time =    1.000,"P-8-1",           213,   106.214E-03,   16.7053E-03,            0.,NA,NA,"",   975.580E+03,   979.500E+03,   979.500E+03
C:/temp/Job-8.odb,Step-1,Increment      1: Step Time =    1.000,"P-8-1",           214,   79.7832E-03,   15.8903E-03,            0.,NA,NA,"",   983.409E+03,   985.850E+03,   985.850E+03
C:/temp/Job-8.odb,Step-1,Increment      1: Step Time =    1.000,"P-8-1",           215,   8.66080E-03,   36.1282E-03,            0.,NA,NA,"",   929.594E+03,   1.02062E+06,   1.02062E+06
C:/temp/Job-8.odb,Step-1,Increment      1: Step Time =    1.000,"P-8-1",           216,   35.8046E-03,   17.9635E-03,            0.,NA,NA,"",   1.04765E+06,   1.05874E+06,   1.05874E+06
C:/temp/Job-8.odb,Step-1,Increment      1: Step Time =    1.000,"P-8-1",           217,   8.74094E-03,   27.0352E-03,            0.,NA,NA,"",   973.109E+03,   1.05988E+06,   1.05988E+06
C:/temp/Job-8.odb,Step-1,Increment      1: Step Time =    1.000,"P-8-1",           218,   128.421E-03,   184.283E-03,            0.,NA,NA,"",   989.198E+03,   988.870E+03,   988.870E+03
C:/temp/Job-8.odb,Step-1,Increment      1: Step Time =    1.000,"P-8-1",           219,   183.639E-03,   127.465E-03,            0.,NA,NA,"",   988.464E+03,   999.598E+03,   999.598E+03
C:/temp/Job-8.odb,Step-1,Increment      1: Step Time =    1.000,"P-8-1",           220,   183.181E-03,   136.416E-03,            0.,NA,NA,"",   996.973E+03,   1.00376E+06,   1.00376E+06
C:/temp/Job-8.odb,Step-1,Increment      1: Step Time =    1.000,"P-8-1",           221,   184.025E-03,   109.392E-03,            0.,NA,NA,"",   971.541E+03,   990.122E+03,   990.122E+03
C:/temp/Job-8.odb,Step-1,Increment      1: Step Time =    1.000,"P-8-1",           222,   183.992E-03,   100.299E-03,            0.,NA,NA,"",   969.765E+03,   989.286E+03,   989.286E+03
C:/temp/Job-8.odb,Step-1,Increment      1: Step Time =    1.000,"P-8-1",           223,   184.043E-03,   91.4008E-03,            0.,NA,NA,"",   972.544E+03,   990.977E+03,   990.977E+03
C:/temp/Job-8.odb,Step-1,Increment      1: Step Time =    1.000,"P-8-1",           224,   184.249E-03,   64.2864E-03,            0.,NA,NA,"",   995.909E+03,   1.00328E+06,   1.00328E+06
C:/temp/Job-8.odb,Step-1,Increment      1: Step Time =    1.000,"P-8-1",           225,   183.832E-03,   55.1431E-03,            0.,NA,NA,"",   1.00141E+06,   1.00528E+06,   1.00528E+06
C:/temp/Job-8.odb,Step-1,Increment      1: Step Time =    1.000,"P-8-1",           226,   183.288E-03,   45.9123E-03,            0.,NA,NA,"",   1.00432E+06,   1.00574E+06,   1.00574E+06
C:/temp/Job-8.odb,Step-1,Increment      1: Step Time =    1.000,"P-8-1",           227,   173.039E-03,   9.00708E-03,            0.,NA,NA,"",   999.458E+03,   999.014E+03,   999.014E+03
C:/temp/Job-8.odb,Step-1,Increment      1: Step Time =    1.000,"P-8-1",           228,   182.062E-03,   8.95789E-03,            0.,NA,NA,"",   999.949E+03,   999.751E+03,   999.751E+03
C:/temp/Job-8.odb,Step-1,Increment      1: Step Time =    1.000,"P-8-1",           229,   16.2941E-03,   145.049E-03,            0.,NA,NA,"",   895.328E+03,   978.375E+03,   978.375E+03
C:/temp/Job-8.odb,Step-1,Increment      1: Step Time =    1.000,"P-8-1",           230,   56.8772E-03,   183.026E-03,            0.,NA,NA,"",   1.01203E+06,   1.01383E+06,   1.01383E+06
C:/temp/Job-8.odb,Step-1,Increment      1: Step Time =    1.000,"P-8-1",           231,   66.0127E-03,   183.760E-03,            0.,NA,NA,"",   999.228E+03,   1.00037E+06,   1.00037E+06
C:/temp/Job-8.odb,Step-1,Increment      1: Step Time =    1.000,"P-8-1",           232,   75.0890E-03,   184.091E-03,            0.,NA,NA,"",   987.235E+03,   989.309E+03,   989.309E+03
C:/temp/Job-8.odb,Step-1,Increment      1: Step Time =    1.000,"P-8-1",           233,   92.9793E-03,   184.200E-03,            0.,NA,NA,"",   973.209E+03,   977.043E+03,   977.043E+03
C:/temp/Job-8.odb,Step-1,Increment      1: Step Time =    1.000,"P-8-1",           234,   101.881E-03,   184.311E-03,            0.,NA,NA,"",   971.900E+03,   975.745E+03,   975.745E+03
C:/temp/Job-8.odb,Step-1,Increment      1: Step Time =    1.000,"P-8-1",           235,   110.722E-03,   184.383E-03,            0.,NA,NA,"",   975.156E+03,   977.970E+03,   977.970E+03
C:/temp/Job-8.odb,Step-1,Increment      1: Step Time =    1.000,"P-8-1",           236,   119.517E-03,   184.421E-03,            0.,NA,NA,"",   981.535E+03,   982.865E+03,   982.865E+03
C:/temp/Job-8.odb,Step-1,Increment      1: Step Time =    1.000,"P-8-1",           237,   137.291E-03,   184.124E-03,            0.,NA,NA,"",   996.395E+03,   994.751E+03,   994.751E+03
C:/temp/Job-8.odb,Step-1,Increment      1: Step Time =    1.000,"P-8-1",           238,   146.205E-03,   183.824E-03,            0.,NA,NA,"",   1.00146E+06,   999.115E+03,   999.115E+03
C:/temp/Job-8.odb,Step-1,Increment      1: Step Time =    1.000,"P-8-1",           239,   155.143E-03,   183.408E-03,            0.,NA,NA,"",   1.00401E+06,   1.00168E+06,   1.00168E+06
C:/temp/Job-8.odb,Step-1,Increment      1: Step Time =    1.000,"P-8-1",           240,   191.013E-03,   172.979E-03,            0.,NA,NA,"",   1.00104E+06,   1.00127E+06,   1.00127E+06
C:/temp/Job-8.odb,Step-1,Increment      1: Step Time =    1.000,"P-8-1",           241,   191.043E-03,   182.050E-03,            0.,NA,NA,"",   1.00067E+06,   1.00056E+06,   1.00056E+06
C:/temp/Job-8.odb,Step-1,Increment      1: Step Time =    1.000,"P-8-1",           242,   16.8809E-03,   63.8247E-03,            0.,NA,NA,"",   870.338E+03,   955.211E+03,   955.211E+03
C:/temp/Job-8.odb,Step-1,Increment      1: Step Time =    1.000,"P-8-1",           243,   16.6581E-03,   73.1415E-03,            0.,NA,NA,"",   844.603E+03,   931.880E+03,   931.880E+03
C:/temp/Job-8.odb,Step-1,Increment      1: Step Time =    1.000,"P-8-1",           244,   16.5450E-03,   82.4312E-03,            0.,NA,NA,"",   823.362E+03,   912.471E+03,   912.471E+03
C:/temp/Job-8.odb,Step-1,Increment      1: Step Time =    1.000,"P-8-1",           245,   16.7719E-03,   100.362E-03,            0.,NA,NA,"",   807.000E+03,   897.411E+03,   897.411E+03
C:/temp/Job-8.odb,Step-1,Increment      1: Step Time =    1.000,"P-8-1",           246,   16.5191E-03,   118.296E-03,            0.,NA,NA,"",   825.132E+03,   914.400E+03,   914.400E+03
C:/temp/Job-8.odb,Step-1,Increment      1: Step Time =    1.000,"P-8-1",           247,   16.2579E-03,   127.176E-03,            0.,NA,NA,"",   844.642E+03,   932.465E+03,   932.465E+03
C:/temp/Job-8.odb,Step-1,Increment      1: Step Time =    1.000,"P-8-1",           248,   16.1834E-03,   136.118E-03,            0.,NA,NA,"",   868.592E+03,   954.493E+03,   954.493E+03
C:/temp/Job-8.odb,Step-1,Increment      1: Step Time =    1.000,"P-8-1",           249,   16.7406E-03,   154.076E-03,            0.,NA,NA,"",   927.225E+03,   1.00556E+06,   1.00556E+06
C:/temp/Job-8.odb,Step-1,Increment      1: Step Time =    1.000,"P-8-1",           250,   17.4417E-03,   163.172E-03,            0.,NA,NA,"",   965.116E+03,   1.03631E+06,   1.03631E+06
C:/temp/Job-8.odb,Step-1,Increment      1: Step Time =    1.000,"P-8-1",           251,   18.3377E-03,   181.385E-03,            0.,NA,NA,"",   1.08445E+06,   1.12409E+06,   1.12409E+06
C:/temp/Job-8.odb,Step-1,Increment      1: Step Time =    1.000,"P-8-1",           252,   182.039E-03,   182.301E-03,            0.,NA,NA,"",   1.00176E+06,   1.00138E+06,   1.00138E+06
C:/temp/Job-8.odb,Step-1,Increment      1: Step Time =    1.000,"P-8-1",           253,   182.274E-03,   18.0500E-03,            0.,NA,NA,"",   1.00176E+06,   1.00132E+06,   1.00132E+06
C:/temp/Job-8.odb,Step-1,Increment      1: Step Time =    1.000,"P-8-1",           254,   128.106E-03,   93.3060E-03,            0.,NA,NA,"",   813.002E+03,   786.426E+03,   786.426E+03
C:/temp/Job-8.odb,Step-1,Increment      1: Step Time =    1.000,"P-8-1",           255,   98.6188E-03,   133.166E-03,            0.,NA,NA,"",   1.05758E+06,   1.12773E+06,   1.12773E+06
C:/temp/Job-8.odb,Step-1,Increment      1: Step Time =    1.000,"P-8-1",           256,   105.005E-03,   127.812E-03,            0.,NA,NA,"",   1.14525E+06,   1.22140E+06,   1.22140E+06
C:/temp/Job-8.odb,Step-1,Increment      1: Step Time =    1.000,"P-8-1",           257,   75.5797E-03,   111.212E-03,            0.,NA,NA,"",   924.556E+03,   867.717E+03,   867.717E+03
C:/temp/Job-8.odb,Step-1,Increment      1: Step Time =    1.000,"P-8-1",           258,   77.7401E-03,   76.1601E-03,            0.,NA,NA,"",   1.21545E+06,   1.17373E+06,   1.17373E+06
C:/temp/Job-8.odb,Step-1,Increment      1: Step Time =    1.000,"P-8-1",           259,   110.357E-03,   70.7298E-03,            0.,NA,NA,"",   1.16868E+06,   1.21119E+06,   1.21119E+06
C:/temp/Job-8.odb,Step-1,Increment      1: Step Time =    1.000,"P-8-1",           260,   85.8248E-03,   74.9459E-03,            0.,NA,NA,"",   1.25583E+06,   1.25235E+06,   1.25235E+06
C:/temp/Job-8.odb,Step-1,Increment      1: Step Time =    1.000,"P-8-1",           261,   68.9397E-03,   108.223E-03,            0.,NA,NA,"",   783.216E+03,   798.297E+03,   798.297E+03
C:/temp/Job-8.odb,Step-1,Increment      1: Step Time =    1.000,"P-8-1",           262,   93.8991E-03,   73.6178E-03,            0.,NA,NA,"",   1.16036E+06,   1.22197E+06,   1.22197E+06
C:/temp/Job-8.odb,Step-1,Increment      1: Step Time =    1.000,"P-8-1",           263,   71.3866E-03,   101.662E-03,            0.,NA,NA,"",   655.204E+03,   686.093E+03,   686.093E+03
C:/temp/Job-8.odb,Step-1,Increment      1: Step Time =    1.000,"P-8-1",           264,   72.0586E-03,   94.2128E-03,            0.,NA,NA,"",   717.133E+03,   723.649E+03,   723.649E+03
C:/temp/Job-8.odb,Step-1,Increment      1: Step Time =    1.000,"P-8-1",           265,   125.432E-03,   113.421E-03,            0.,NA,NA,"",   1.08339E+06,   1.00463E+06,   1.00463E+06
C:/temp/Job-8.odb,Step-1,Increment      1: Step Time =    1.000,"P-8-1",           266,   121.510E-03,   119.391E-03,            0.,NA,NA,"",   1.23288E+06,   1.14708E+06,   1.14708E+06
C:/temp/Job-8.odb,Step-1,Increment      1: Step Time =    1.000,"P-8-1",           267,   85.9361E-03,   124.417E-03,            0.,NA,NA,"",   1.25920E+06,   1.25640E+06,   1.25640E+06
C:/temp/Job-8.odb,Step-1,Increment      1: Step Time =    1.000,"P-8-1",           268,   118.231E-03,   77.0857E-03,            0.,NA,NA,"",   1.26884E+06,   1.20119E+06,   1.20119E+06
C:/temp/Job-8.odb,Step-1,Increment      1: Step Time =    1.000,"P-8-1",           269,   92.8574E-03,   128.180E-03,            0.,NA,NA,"",   1.13841E+06,   1.19536E+06,   1.19536E+06
C:/temp/Job-8.odb,Step-1,Increment      1: Step Time =    1.000,"P-8-1",           270,   111.767E-03,   135.393E-03,            0.,NA,NA,"",   1.11930E+06,   1.14412E+06,   1.14412E+06
C:/temp/Job-8.odb,Step-1,Increment      1: Step Time =    1.000,"P-8-1",           271,   71.8638E-03,   117.742E-03,            0.,NA,NA,"",   1.06145E+06,   1.02204E+06,   1.02204E+06
C:/temp/Job-8.odb,Step-1,Increment      1: Step Time =    1.000,"P-8-1",           272,   101.655E-03,   64.5297E-03,            0.,NA,NA,"",   1.06194E+06,   1.12212E+06,   1.12212E+06
C:/temp/Job-8.odb,Step-1,Increment      1: Step Time =    1.000,"P-8-1",           273,   76.8327E-03,   67.3346E-03,            0.,NA,NA,"",   1.14978E+06,   1.14143E+06,   1.14143E+06
C:/temp/Job-8.odb,Step-1,Increment      1: Step Time =    1.000,"P-8-1",           274,   87.5875E-03,   134.602E-03,            0.,NA,NA,"",   1.11554E+06,   1.14196E+06,   1.14196E+06
C:/temp/Job-8.odb,Step-1,Increment      1: Step Time =    1.000,"P-8-1",           275,   131.790E-03,   116.591E-03,            0.,NA,NA,"",   1.06131E+06,   1.00964E+06,   1.00964E+06
C:/temp/Job-8.odb,Step-1,Increment      1: Step Time =    1.000,"P-8-1",           276,   64.5114E-03,   94.2557E-03,            0.,NA,NA,"",   771.808E+03,   806.402E+03,   806.402E+03
C:/temp/Job-8.odb,Step-1,Increment      1: Step Time =    1.000,"P-8-1",           277,   124.127E-03,   85.9249E-03,            0.,NA,NA,"",   1.11080E+06,   1.02247E+06,   1.02247E+06
C:/temp/Job-8.odb,Step-1,Increment      1: Step Time =    1.000,"P-8-1",           278,   125.164E-03,   103.582E-03,            0.,NA,NA,"",   637.180E+03,   595.055E+03,   595.055E+03
C:/temp/Job-8.odb,Step-1,Increment      1: Step Time =    1.000,"P-8-1",           279,   17.0422E-03,   45.1639E-03,            0.,NA,NA,"",   930.523E+03,   1.00794E+06,   1.00794E+06
C:/temp/Job-8.odb,Step-1,Increment      1: Step Time =    1.000,"P-8-1",           280,   155.114E-03,   18.5136E-03,            0.,NA,NA,"",   1.00587E+06,   1.00311E+06,   1.00311E+06
C:/temp/Job-8.odb,Step-1,Increment      1: Step Time =    1.000,"P-8-1",           281,   37.8663E-03,   180.715E-03,            0.,NA,NA,"",   1.04425E+06,   1.05477E+06,   1.05477E+06
C:/temp/Job-8.odb,Step-1,Increment      1: Step Time =    1.000,"P-8-1",           282,   182.008E-03,   154.895E-03,            0.,NA,NA,"",   1.00529E+06,   1.00640E+06,   1.00640E+06
C:/temp/Job-8.odb,Step-1,Increment      1: Step Time =    1.000,"P-8-1",           283,   17.7286E-03,   17.8889E-03,            0.,NA,NA,"",   1.09084E+06,   1.13001E+06,   1.13001E+06
C:/temp/Job-8.odb,Step-1,Increment      1: Step Time =    1.000,"P-8-1",           284,   173.316E-03,   18.2134E-03,            0.,NA,NA,"",   1.00379E+06,   1.00254E+06,   1.00254E+06
C:/temp/Job-8.odb,Step-1,Increment      1: Step Time =    1.000,"P-8-1",           285,   181.955E-03,   173.261E-03,            0.,NA,NA,"",   1.00408E+06,   1.00358E+06,   1.00358E+06
C:/temp/Job-8.odb,Step-1,Increment      1: Step Time =    1.000,"P-8-1",           286,   17.4849E-03,   26.8983E-03,            0.,NA,NA,"",   1.01589E+06,   1.07644E+06,   1.07644E+06
C:/temp/Job-8.odb,Step-1,Increment      1: Step Time =    1.000,"P-8-1",           287,   176.070E-03,   100.671E-03,            0.,NA,NA,"",   962.860E+03,   977.718E+03,   977.718E+03
C:/temp/Job-8.odb,Step-1,Increment      1: Step Time =    1.000,"P-8-1",           288,   111.308E-03,   176.857E-03,            0.,NA,NA,"",   992.103E+03,   997.516E+03,   997.516E+03
C:/temp/Job-8.odb,Step-1,Increment      1: Step Time =    1.000,"P-8-1",           289,   87.0452E-03,   24.1671E-03,            0.,NA,NA,"",   998.072E+03,   1.00469E+06,   1.00469E+06
C:/temp/Job-8.odb,Step-1,Increment      1: Step Time =    1.000,"P-8-1",           290,   176.469E-03,   109.718E-03,            0.,NA,NA,"",   967.293E+03,   980.943E+03,   980.943E+03
C:/temp/Job-8.odb,Step-1,Increment      1: Step Time =    1.000,"P-8-1",           291,   25.3396E-03,   109.475E-03,            0.,NA,NA,"",   826.663E+03,   908.112E+03,   908.112E+03
C:/temp/Job-8.odb,Step-1,Increment      1: Step Time =    1.000,"P-8-1",           292,   24.9523E-03,   118.465E-03,            0.,NA,NA,"",   844.126E+03,   923.722E+03,   923.722E+03
C:/temp/Job-8.odb,Step-1,Increment      1: Step Time =    1.000,"P-8-1",           293,   25.1773E-03,   91.4278E-03,            0.,NA,NA,"",   823.865E+03,   905.666E+03,   905.666E+03
C:/temp/Job-8.odb,Step-1,Increment      1: Step Time =    1.000,"P-8-1",           294,   25.4614E-03,   100.416E-03,            0.,NA,NA,"",   819.453E+03,   901.667E+03,   901.667E+03
C:/temp/Job-8.odb,Step-1,Increment      1: Step Time =    1.000,"P-8-1",           295,   102.693E-03,   176.860E-03,            0.,NA,NA,"",   988.515E+03,   995.849E+03,   995.849E+03
C:/temp/Job-8.odb,Step-1,Increment      1: Step Time =    1.000,"P-8-1",           296,   175.874E-03,   91.7129E-03,            0.,NA,NA,"",   968.537E+03,   981.729E+03,   981.729E+03
C:/temp/Job-8.odb,Step-1,Increment      1: Step Time =    1.000,"P-8-1",           297,   176.336E-03,   118.703E-03,            0.,NA,NA,"",   979.703E+03,   989.497E+03,   989.497E+03
C:/temp/Job-8.odb,Step-1,Increment      1: Step Time =    1.000,"P-8-1",           298,   93.9734E-03,   176.721E-03,            0.,NA,NA,"",   990.155E+03,   997.891E+03,   997.891E+03
C:/temp/Job-8.odb,Step-1,Increment      1: Step Time =    1.000,"P-8-1",           299,   95.6590E-03,   24.8936E-03,            0.,NA,NA,"",   992.869E+03,   1.00125E+06,   1.00125E+06
C:/temp/Job-8.odb,Step-1,Increment      1: Step Time =    1.000,"P-8-1",           300,   24.4689E-03,   82.5906E-03,            0.,NA,NA,"",   839.959E+03,   920.121E+03,   920.121E+03
C:/temp/Job-8.odb,Step-1,Increment      1: Step Time =    1.000,"P-8-1",           301,   85.1170E-03,   176.485E-03,            0.,NA,NA,"",   997.779E+03,   1.00395E+06,   1.00395E+06
C:/temp/Job-8.odb,Step-1,Increment      1: Step Time =    1.000,"P-8-1",           302,   163.960E-03,   174.157E-03,            0.,NA,NA,"",   1.01287E+06,   1.00932E+06,   1.00932E+06
C:/temp/Job-8.odb,Step-1,Increment      1: Step Time =    1.000,"P-8-1",           303,   174.082E-03,   37.1452E-03,            0.,NA,NA,"",   1.01244E+06,   1.01001E+06,   1.01001E+06
C:/temp/Job-8.odb,Step-1,Increment      1: Step Time =    1.000,"P-8-1",           304,   76.2925E-03,   176.764E-03,            0.,NA,NA,"",   1.00776E+06,   1.01169E+06,   1.01169E+06
C:/temp/Job-8.odb,Step-1,Increment      1: Step Time =    1.000,"P-8-1",           305,   35.4744E-03,   27.1042E-03,            0.,NA,NA,"",   1.04555E+06,   1.06622E+06,   1.06622E+06
C:/temp/Job-8.odb,Step-1,Increment      1: Step Time =    1.000,"P-8-1",           306,   24.6465E-03,   73.3633E-03,            0.,NA,NA,"",   867.417E+03,   943.913E+03,   943.913E+03
C:/temp/Job-8.odb,Step-1,Increment      1: Step Time =    1.000,"P-8-1",           307,   134.484E-03,   27.4892E-03,            0.,NA,NA,"",   1.02026E+06,   1.01723E+06,   1.01723E+06
C:/temp/Job-8.odb,Step-1,Increment      1: Step Time =    1.000,"P-8-1",           308,   104.460E-03,   25.0068E-03,            0.,NA,NA,"",   992.334E+03,   1.00051E+06,   1.00051E+06
C:/temp/Job-8.odb,Step-1,Increment      1: Step Time =    1.000,"P-8-1",           309,   123.283E-03,   25.6110E-03,            0.,NA,NA,"",   1.00663E+06,   1.00857E+06,   1.00857E+06
C:/temp/Job-8.odb,Step-1,Increment      1: Step Time =    1.000,"P-8-1",           310,   113.572E-03,   25.0997E-03,            0.,NA,NA,"",   996.974E+03,   1.00286E+06,   1.00286E+06
C:/temp/Job-8.odb,Step-1,Increment      1: Step Time =    1.000,"P-8-1",           311,   174.937E-03,   46.6763E-03,            0.,NA,NA,"",   1.01352E+06,   1.01154E+06,   1.01154E+06
C:/temp/Job-8.odb,Step-1,Increment      1: Step Time =    1.000,"P-8-1",           312,   155.029E-03,   174.916E-03,            0.,NA,NA,"",   1.01585E+06,   1.01123E+06,   1.01123E+06
C:/temp/Job-8.odb,Step-1,Increment      1: Step Time =    1.000,"P-8-1",           313,   45.6669E-03,   27.6505E-03,            0.,NA,NA,"",   1.04435E+06,   1.05424E+06,   1.05424E+06
C:/temp/Job-8.odb,Step-1,Increment      1: Step Time =    1.000,"P-8-1",           314,   67.5143E-03,   176.392E-03,            0.,NA,NA,"",   1.01820E+06,   1.02087E+06,   1.02087E+06
C:/temp/Job-8.odb,Step-1,Increment      1: Step Time =    1.000,"P-8-1",           315,   26.3360E-03,   162.100E-03,            0.,NA,NA,"",   992.388E+03,   1.04430E+06,   1.04430E+06
C:/temp/Job-8.odb,Step-1,Increment      1: Step Time =    1.000,"P-8-1",           316,   54.1827E-03,   24.8575E-03,            0.,NA,NA,"",   1.03895E+06,   1.04175E+06,   1.04175E+06
C:/temp/Job-8.odb,Step-1,Increment      1: Step Time =    1.000,"P-8-1",           317,   175.943E-03,   55.9935E-03,            0.,NA,NA,"",   1.01026E+06,   1.01011E+06,   1.01011E+06
C:/temp/Job-8.odb,Step-1,Increment      1: Step Time =    1.000,"P-8-1",           318,   146.091E-03,   175.722E-03,            0.,NA,NA,"",   1.01628E+06,   1.01158E+06,   1.01158E+06
C:/temp/Job-8.odb,Step-1,Increment      1: Step Time =    1.000,"P-8-1",           319,   24.2182E-03,   127.102E-03,            0.,NA,NA,"",   868.267E+03,   945.305E+03,   945.305E+03
C:/temp/Job-8.odb,Step-1,Increment      1: Step Time =    1.000,"P-8-1",           320,   25.3146E-03,   63.9709E-03,            0.,NA,NA,"",   899.461E+03,   971.067E+03,   971.067E+03
C:/temp/Job-8.odb,Step-1,Increment      1: Step Time =    1.000,"P-8-1",           321,   119.852E-03,   176.872E-03,            0.,NA,NA,"",   998.727E+03,   1.00122E+06,   1.00122E+06
C:/temp/Job-8.odb,Step-1,Increment      1: Step Time =    1.000,"P-8-1",           322,   78.5103E-03,   23.6990E-03,            0.,NA,NA,"",   1.00440E+06,   1.00914E+06,   1.00914E+06
C:/temp/Job-8.odb,Step-1,Increment      1: Step Time =    1.000,"P-8-1",           323,   175.586E-03,   127.409E-03,            0.,NA,NA,"",   994.937E+03,   999.916E+03,   999.916E+03
C:/temp/Job-8.odb,Step-1,Increment      1: Step Time =    1.000,"P-8-1",           324,   24.9046E-03,   153.096E-03,            0.,NA,NA,"",   956.604E+03,   1.01918E+06,   1.01918E+06
C:/temp/Job-8.odb,Step-1,Increment      1: Step Time =    1.000,"P-8-1",           325,   176.734E-03,   82.8212E-03,            0.,NA,NA,"",   979.720E+03,   989.913E+03,   989.913E+03
C:/temp/Job-8.odb,Step-1,Increment      1: Step Time =    1.000,"P-8-1",           326,   58.8761E-03,   175.217E-03,            0.,NA,NA,"",   1.03031E+06,   1.03306E+06,   1.03306E+06
C:/temp/Job-8.odb,Step-1,Increment      1: Step Time =    1.000,"P-8-1",           327,   176.762E-03,   65.0093E-03,            0.,NA,NA,"",   1.00324E+06,   1.00603E+06,   1.00603E+06
C:/temp/Job-8.odb,Step-1,Increment      1: Step Time =    1.000,"P-8-1",           328,   62.3184E-03,   24.3958E-03,            0.,NA,NA,"",   1.02498E+06,   1.02787E+06,   1.02787E+06
C:/temp/Job-8.odb,Step-1,Increment      1: Step Time =    1.000,"P-8-1",           329,   24.1306E-03,   144.356E-03,            0.,NA,NA,"",   924.612E+03,   993.728E+03,   993.728E+03
C:/temp/Job-8.odb,Step-1,Increment      1: Step Time =    1.000,"P-8-1",           330,   137.230E-03,   176.327E-03,            0.,NA,NA,"",   1.01304E+06,   1.00969E+06,   1.00969E+06
C:/temp/Job-8.odb,Step-1,Increment      1: Step Time =    1.000,"P-8-1",           331,   25.1716E-03,   54.4796E-03,            0.,NA,NA,"",   931.307E+03,   997.833E+03,   997.833E+03
C:/temp/Job-8.odb,Step-1,Increment      1: Step Time =    1.000,"P-8-1",           332,   177.128E-03,   73.8775E-03,            0.,NA,NA,"",   992.733E+03,   999.201E+03,   999.201E+03
C:/temp/Job-8.odb,Step-1,Increment      1: Step Time =    1.000,"P-8-1",           333,   70.3758E-03,   23.3234E-03,            0.,NA,NA,"",   1.01430E+06,   1.01727E+06,   1.01727E+06
C:/temp/Job-8.odb,Step-1,Increment      1: Step Time =    1.000,"P-8-1",           334,   49.7859E-03,   173.252E-03,            0.,NA,NA,"",   1.03912E+06,   1.04679E+06,   1.04679E+06
C:/temp/Job-8.odb,Step-1,Increment      1: Step Time =    1.000,"P-8-1",           335,   24.1885E-03,   135.860E-03,            0.,NA,NA,"",   895.932E+03,   969.372E+03,   969.372E+03
C:/temp/Job-8.odb,Step-1,Increment      1: Step Time =    1.000,"P-8-1",           336,   128.467E-03,   176.714E-03,            0.,NA,NA,"",   1.00667E+06,   1.00596E+06,   1.00596E+06
C:/temp/Job-8.odb,Step-1,Increment      1: Step Time =    1.000,"P-8-1",           337,   173.988E-03,   145.205E-03,            0.,NA,NA,"",   1.01317E+06,   1.01184E+06,   1.01184E+06
C:/temp/Job-8.odb,Step-1,Increment      1: Step Time =    1.000,"P-8-1",           338,   175.101E-03,   136.028E-03,            0.,NA,NA,"",   1.00681E+06,   1.00804E+06,   1.00804E+06
C:/temp/Job-8.odb,Step-1,Increment      1: Step Time =    1.000,"P-8-1",           339,   181.877E-03,   164.093E-03,            0.,NA,NA,"",   1.00562E+06,   1.00548E+06,   1.00548E+06
C:/temp/Job-8.odb,Step-1,Increment      1: Step Time =    1.000,"P-8-1",           340,   28.0032E-03,   180.857E-03,            0.,NA,NA,"",   1.06556E+06,   1.08525E+06,   1.08525E+06
C:/temp/Job-8.odb,Step-1,Increment      1: Step Time =    1.000,"P-8-1",           341,   164.231E-03,   18.4585E-03,            0.,NA,NA,"",   1.00537E+06,   1.00326E+06,   1.00326E+06
C:/temp/Job-8.odb,Step-1,Increment      1: Step Time =    1.000,"P-8-1",           342,   17.2363E-03,   35.9636E-03,            0.,NA,NA,"",   967.752E+03,   1.03875E+06,   1.03875E+06
C:/temp/Job-8.odb,Step-1,Increment      1: Step Time =    1.000,"P-8-1",           343,   172.895E-03,   173.606E-03,            0.,NA,NA,"",   1.00844E+06,   1.00647E+06,   1.00647E+06
C:/temp/Job-8.odb,Step-1,Increment      1: Step Time =    1.000,"P-8-1",           344,   173.575E-03,   27.6467E-03,            0.,NA,NA,"",   1.00877E+06,   1.00669E+06,   1.00669E+06
C:/temp/Job-8.odb,Step-1,Increment      1: Step Time =    1.000,"P-8-1",           345,   27.8858E-03,   171.316E-03,            0.,NA,NA,"",   1.03562E+06,   1.07225E+06,   1.07225E+06
C:/temp/Job-8.odb,Step-1,Increment      1: Step Time =    1.000,"P-8-1",           346,   117.107E-03,   126.589E-03,            0.,NA,NA,"",   1.22818E+06,   1.19401E+06,   1.19401E+06
C:/temp/Job-8.odb,Step-1,Increment      1: Step Time =    1.000,"P-8-1",           347,   71.4934E-03,   86.1346E-03,            0.,NA,NA,"",   937.060E+03,   907.202E+03,   907.202E+03
C:/temp/Job-8.odb,Step-1,Increment      1: Step Time =    1.000,"P-8-1",           348,   64.1897E-03,   100.498E-03,            0.,NA,NA,"",   742.341E+03,   781.446E+03,   781.446E+03
C:/temp/Job-8.odb,Step-1,Increment      1: Step Time =    1.000,"P-8-1",           349,   78.7493E-03,   121.105E-03,            0.,NA,NA,"",   1.23743E+06,   1.18399E+06,   1.18399E+06
C:/temp/Job-8.odb,Step-1,Increment      1: Step Time =    1.000,"P-8-1",           350,   85.4861E-03,   66.6709E-03,            0.,NA,NA,"",   1.12550E+06,   1.14704E+06,   1.14704E+06
C:/temp/Job-8.odb,Step-1,Increment      1: Step Time =    1.000,"P-8-1",           351,   135.543E-03,   108.611E-03,            0.,NA,NA,"",   866.941E+03,   850.628E+03,   850.628E+03
C:/temp/Job-8.odb,Step-1,Increment      1: Step Time =    1.000,"P-8-1",           352,   92.8638E-03,   138.431E-03,            0.,NA,NA,"",   1.06582E+06,   1.11034E+06,   1.11034E+06
C:/temp/Job-8.odb,Step-1,Increment      1: Step Time =    1.000,"P-8-1",           353,   172.653E-03,   164.286E-03,            0.,NA,NA,"",   1.01365E+06,   1.01081E+06,   1.01081E+06
C:/temp/Job-8.odb,Step-1,Increment      1: Step Time =    1.000,"P-8-1",           354,   164.396E-03,   28.1265E-03,            0.,NA,NA,"",   1.01518E+06,   1.01105E+06,   1.01105E+06
C:/temp/Job-8.odb,Step-1,Increment      1: Step Time =    1.000,"P-8-1",           355,   39.3251E-03,   169.595E-03,            0.,NA,NA,"",   1.03966E+06,   1.05936E+06,   1.05936E+06
C:/temp/Job-8.odb,Step-1,Increment      1: Step Time =    1.000,"P-8-1",           356,   145.517E-03,   27.1743E-03,            0.,NA,NA,"",   1.02166E+06,   1.01624E+06,   1.01624E+06
C:/temp/Job-8.odb,Step-1,Increment      1: Step Time =    1.000,"P-8-1",           357,   172.721E-03,   154.744E-03,            0.,NA,NA,"",   1.01612E+06,   1.01319E+06,   1.01319E+06
C:/temp/Job-8.odb,Step-1,Increment      1: Step Time =    1.000,"P-8-1",           358,   25.3018E-03,   45.0760E-03,            0.,NA,NA,"",   964.140E+03,   1.02407E+06,   1.02407E+06
C:/temp/Job-8.odb,Step-1,Increment      1: Step Time =    1.000,"P-8-1",           359,   26.3264E-03,   26.8980E-03,            0.,NA,NA,"",   1.04246E+06,   1.07893E+06,   1.07893E+06
C:/temp/Job-8.odb,Step-1,Increment      1: Step Time =    1.000,"P-8-1",           360,   111.726E-03,   169.444E-03,            0.,NA,NA,"",   1.00630E+06,   1.01505E+06,   1.01505E+06
C:/temp/Job-8.odb,Step-1,Increment      1: Step Time =    1.000,"P-8-1",           361,   31.4754E-03,   127.202E-03,            0.,NA,NA,"",   888.450E+03,   955.175E+03,   955.175E+03
C:/temp/Job-8.odb,Step-1,Increment      1: Step Time =    1.000,"P-8-1",           362,   169.949E-03,   82.5165E-03,            0.,NA,NA,"",   979.953E+03,   985.471E+03,   985.471E+03
C:/temp/Job-8.odb,Step-1,Increment      1: Step Time =    1.000,"P-8-1",           363,   85.1427E-03,   31.6716E-03,            0.,NA,NA,"",   1.01662E+06,   1.02616E+06,   1.02616E+06
C:/temp/Job-8.odb,Step-1,Increment      1: Step Time =    1.000,"P-8-1",           364,   169.406E-03,   118.445E-03,            0.,NA,NA,"",   977.091E+03,   982.929E+03,   982.929E+03
C:/temp/Job-8.odb,Step-1,Increment      1: Step Time =    1.000,"P-8-1",           365,   166.847E-03,   127.117E-03,            0.,NA,NA,"",   1.00324E+06,   1.00152E+06,   1.00152E+06
C:/temp/Job-8.odb,Step-1,Increment      1: Step Time =    1.000,"P-8-1",           366,   32.7163E-03,   135.742E-03,            0.,NA,NA,"",   928.577E+03,   986.717E+03,   986.717E+03
C:/temp/Job-8.odb,Step-1,Increment      1: Step Time =    1.000,"P-8-1",           367,   119.968E-03,   169.390E-03,            0.,NA,NA,"",   1.01546E+06,   1.01930E+06,   1.01930E+06
C:/temp/Job-8.odb,Step-1,Increment      1: Step Time =    1.000,"P-8-1",           368,   76.3032E-03,   32.0767E-03,            0.,NA,NA,"",   1.02844E+06,   1.03512E+06,   1.03512E+06
C:/temp/Job-8.odb,Step-1,Increment      1: Step Time =    1.000,"P-8-1",           369,   53.8783E-03,   165.375E-03,            0.,NA,NA,"",   1.04457E+06,   1.05372E+06,   1.05372E+06
C:/temp/Job-8.odb,Step-1,Increment      1: Step Time =    1.000,"P-8-1",           370,   170.383E-03,   74.3133E-03,            0.,NA,NA,"",   997.442E+03,   999.285E+03,   999.285E+03
C:/temp/Job-8.odb,Step-1,Increment      1: Step Time =    1.000,"P-8-1",           371,   34.6110E-03,   64.3215E-03,            0.,NA,NA,"",   934.622E+03,   989.193E+03,   989.193E+03
C:/temp/Job-8.odb,Step-1,Increment      1: Step Time =    1.000,"P-8-1",           372,   134.778E-03,   38.4987E-03,            0.,NA,NA,"",   1.04642E+06,   1.03944E+06,   1.03944E+06
C:/temp/Job-8.odb,Step-1,Increment      1: Step Time =    1.000,"P-8-1",           373,   61.9323E-03,   167.497E-03,            0.,NA,NA,"",   1.04270E+06,   1.04718E+06,   1.04718E+06
C:/temp/Job-8.odb,Step-1,Increment      1: Step Time =    1.000,"P-8-1",           374,   102.863E-03,   33.3981E-03,            0.,NA,NA,"",   1.00598E+06,   1.01990E+06,   1.01990E+06
C:/temp/Job-8.odb,Step-1,Increment      1: Step Time =    1.000,"P-8-1",           375,   93.5381E-03,   34.1587E-03,            0.,NA,NA,"",   1.01017E+06,   1.02447E+06,   1.02447E+06
C:/temp/Job-8.odb,Step-1,Increment      1: Step Time =    1.000,"P-8-1",           376,   32.0560E-03,   74.0134E-03,            0.,NA,NA,"",   886.963E+03,   952.745E+03,   952.745E+03
C:/temp/Job-8.odb,Step-1,Increment      1: Step Time =    1.000,"P-8-1",           377,   31.4940E-03,   82.2628E-03,            0.,NA,NA,"",   853.842E+03,   925.318E+03,   925.318E+03
C:/temp/Job-8.odb,Step-1,Increment      1: Step Time =    1.000,"P-8-1",           378,   166.655E-03,   91.6550E-03,            0.,NA,NA,"",   957.239E+03,   966.126E+03,   966.126E+03
C:/temp/Job-8.odb,Step-1,Increment      1: Step Time =    1.000,"P-8-1",           379,   69.3993E-03,   169.407E-03,            0.,NA,NA,"",   1.03418E+06,   1.03778E+06,   1.03778E+06
C:/temp/Job-8.odb,Step-1,Increment      1: Step Time =    1.000,"P-8-1",           380,   34.1678E-03,   90.5685E-03,            0.,NA,NA,"",   836.767E+03,   907.633E+03,   907.633E+03
C:/temp/Job-8.odb,Step-1,Increment      1: Step Time =    1.000,"P-8-1",           381,   86.1405E-03,   168.416E-03,            0.,NA,NA,"",   1.01418E+06,   1.02501E+06,   1.02501E+06
C:/temp/Job-8.odb,Step-1,Increment      1: Step Time =    1.000,"P-8-1",           382,   77.1499E-03,   170.160E-03,            0.,NA,NA,"",   1.02266E+06,   1.02885E+06,   1.02885E+06
C:/temp/Job-8.odb,Step-1,Increment      1: Step Time =    1.000,"P-8-1",           383,   95.1255E-03,   169.518E-03,            0.,NA,NA,"",   1.00204E+06,   1.01488E+06,   1.01488E+06
C:/temp/Job-8.odb,Step-1,Increment      1: Step Time =    1.000,"P-8-1",           384,   169.394E-03,   110.185E-03,            0.,NA,NA,"",   959.999E+03,   970.256E+03,   970.256E+03
C:/temp/Job-8.odb,Step-1,Increment      1: Step Time =    1.000,"P-8-1",           385,   103.441E-03,   169.576E-03,            0.,NA,NA,"",   1.00136E+06,   1.01312E+06,   1.01312E+06
C:/temp/Job-8.odb,Step-1,Increment      1: Step Time =    1.000,"P-8-1",           386,   168.292E-03,   101.504E-03,            0.,NA,NA,"",   950.403E+03,   962.251E+03,   962.251E+03
C:/temp/Job-8.odb,Step-1,Increment      1: Step Time =    1.000,"P-8-1",           387,   34.4193E-03,   100.437E-03,            0.,NA,NA,"",   826.412E+03,   899.342E+03,   899.342E+03
C:/temp/Job-8.odb,Step-1,Increment      1: Step Time =    1.000,"P-8-1",           388,   34.0417E-03,   109.598E-03,            0.,NA,NA,"",   839.213E+03,   910.356E+03,   910.356E+03
C:/temp/Job-8.odb,Step-1,Increment      1: Step Time =    1.000,"P-8-1",           389,   120.576E-03,   33.4204E-03,            0.,NA,NA,"",   1.02127E+06,   1.02580E+06,   1.02580E+06
C:/temp/Job-8.odb,Step-1,Increment      1: Step Time =    1.000,"P-8-1",           390,   111.749E-03,   33.0632E-03,            0.,NA,NA,"",   1.01008E+06,   1.02041E+06,   1.02041E+06
C:/temp/Job-8.odb,Step-1,Increment      1: Step Time =    1.000,"P-8-1",           391,   33.9666E-03,   119.309E-03,            0.,NA,NA,"",   867.416E+03,   934.933E+03,   934.933E+03
C:/temp/Job-8.odb,Step-1,Increment      1: Step Time =    1.000,"P-8-1",           392,   167.510E-03,   135.409E-03,            0.,NA,NA,"",   1.01479E+06,   1.01067E+06,   1.01067E+06
C:/temp/Job-8.odb,Step-1,Increment      1: Step Time =    1.000,"P-8-1",           393,   42.8365E-03,   37.2383E-03,            0.,NA,NA,"",   1.03368E+06,   1.05446E+06,   1.05446E+06
C:/temp/Job-8.odb,Step-1,Increment      1: Step Time =    1.000,"P-8-1",           394,   164.779E-03,   38.1270E-03,            0.,NA,NA,"",   1.02328E+06,   1.01738E+06,   1.01738E+06
C:/temp/Job-8.odb,Step-1,Increment      1: Step Time =    1.000,"P-8-1",           395,   166.507E-03,   48.0462E-03,            0.,NA,NA,"",   1.02583E+06,   1.01949E+06,   1.01949E+06
C:/temp/Job-8.odb,Step-1,Increment      1: Step Time =    1.000,"P-8-1",           396,   163.504E-03,   164.765E-03,            0.,NA,NA,"",   1.02190E+06,   1.01633E+06,   1.01633E+06
C:/temp/Job-8.odb,Step-1,Increment      1: Step Time =    1.000,"P-8-1",           397,   32.6717E-03,   151.362E-03,            0.,NA,NA,"",   977.795E+03,   1.02669E+06,   1.02669E+06
C:/temp/Job-8.odb,Step-1,Increment      1: Step Time =    1.000,"P-8-1",           398,   145.476E-03,   167.871E-03,            0.,NA,NA,"",   1.03262E+06,   1.02481E+06,   1.02481E+06
C:/temp/Job-8.odb,Step-1,Increment      1: Step Time =    1.000,"P-8-1",           399,   34.9576E-03,   159.738E-03,            0.,NA,NA,"",   1.01314E+06,   1.04951E+06,   1.04951E+06
C:/temp/Job-8.odb,Step-1,Increment      1: Step Time =    1.000,"P-8-1",           400,   168.226E-03,   57.4006E-03,            0.,NA,NA,"",   1.02160E+06,   1.01648E+06,   1.01648E+06
C:/temp/Job-8.odb,Step-1,Increment      1: Step Time =    1.000,"P-8-1",           401,   53.6525E-03,   31.8829E-03,            0.,NA,NA,"",   1.04931E+06,   1.05562E+06,   1.05562E+06
C:/temp/Job-8.odb,Step-1,Increment      1: Step Time =    1.000,"P-8-1",           402,   136.786E-03,   168.766E-03,            0.,NA,NA,"",   1.03077E+06,   1.02518E+06,   1.02518E+06
C:/temp/Job-8.odb,Step-1,Increment      1: Step Time =    1.000,"P-8-1",           403,   169.556E-03,   66.0873E-03,            0.,NA,NA,"",   1.01050E+06,   1.00860E+06,   1.00860E+06
C:/temp/Job-8.odb,Step-1,Increment      1: Step Time =    1.000,"P-8-1",           404,   31.4479E-03,   143.650E-03,            0.,NA,NA,"",   950.927E+03,   1.00712E+06,   1.00712E+06
C:/temp/Job-8.odb,Step-1,Increment      1: Step Time =    1.000,"P-8-1",           405,   128.276E-03,   169.221E-03,            0.,NA,NA,"",   1.02463E+06,   1.02308E+06,   1.02308E+06
C:/temp/Job-8.odb,Step-1,Increment      1: Step Time =    1.000,"P-8-1",           406,   62.9127E-03,   33.6485E-03,            0.,NA,NA,"",   1.04416E+06,   1.04859E+06,   1.04859E+06
C:/temp/Job-8.odb,Step-1,Increment      1: Step Time =    1.000,"P-8-1",           407,   25.7909E-03,   35.9213E-03,            0.,NA,NA,"",   998.738E+03,   1.04967E+06,   1.04967E+06
C:/temp/Job-8.odb,Step-1,Increment      1: Step Time =    1.000,"P-8-1",           408,   155.029E-03,   28.2487E-03,            0.,NA,NA,"",   1.01992E+06,   1.01447E+06,   1.01447E+06
C:/temp/Job-8.odb,Step-1,Increment      1: Step Time =    1.000,"P-8-1",           409,   132.709E-03,   82.8611E-03,            0.,NA,NA,"",   1.03299E+06,   989.196E+03,   989.196E+03
C:/temp/Job-8.odb,Step-1,Increment      1: Step Time =    1.000,"P-8-1",           410,   135.834E-03,   89.5340E-03,            0.,NA,NA,"",   919.453E+03,   897.902E+03,   897.902E+03
C:/temp/Job-8.odb,Step-1,Increment      1: Step Time =    1.000,"P-8-1",           411,   126.313E-03,   72.7608E-03,            0.,NA,NA,"",   1.18996E+06,   1.13282E+06,   1.13282E+06
C:/temp/Job-8.odb,Step-1,Increment      1: Step Time =    1.000,"P-8-1",           412,   69.8762E-03,   77.5331E-03,            0.,NA,NA,"",   1.08783E+06,   1.05605E+06,   1.05605E+06
C:/temp/Job-8.odb,Step-1,Increment      1: Step Time =    1.000,"P-8-1",           413,   93.6496E-03,   65.7220E-03,            0.,NA,NA,"",   1.08486E+06,   1.13631E+06,   1.13631E+06
C:/temp/Job-8.odb,Step-1,Increment      1: Step Time =    1.000,"P-8-1",           414,   138.110E-03,   120.231E-03,            0.,NA,NA,"",   1.04597E+06,   1.01159E+06,   1.01159E+06
C:/temp/Job-8.odb,Step-1,Increment      1: Step Time =    1.000,"P-8-1",           415,   143.029E-03,   103.517E-03,            0.,NA,NA,"",   838.331E+03,   848.306E+03,   848.306E+03
C:/temp/Job-8.odb,Step-1,Increment      1: Step Time =    1.000,"P-8-1",           416,   57.6987E-03,   94.6097E-03,            0.,NA,NA,"",   805.107E+03,   848.434E+03,   848.434E+03
C:/temp/Job-8.odb,Step-1,Increment      1: Step Time =    1.000,"P-8-1",           417,   57.2203E-03,   88.0882E-03,            0.,NA,NA,"",   854.902E+03,   890.624E+03,   890.624E+03
C:/temp/Job-8.odb,Step-1,Increment      1: Step Time =    1.000,"P-8-1",           418,   77.7855E-03,   58.7312E-03,            0.,NA,NA,"",   1.09757E+06,   1.10522E+06,   1.10522E+06
C:/temp/Job-8.odb,Step-1,Increment      1: Step Time =    1.000,"P-8-1",           419,   88.6389E-03,   144.410E-03,            0.,NA,NA,"",   1.06063E+06,   1.09030E+06,   1.09030E+06
C:/temp/Job-8.odb,Step-1,Increment      1: Step Time =    1.000,"P-8-1",           420,   143.453E-03,   85.4952E-03,            0.,NA,NA,"",   958.728E+03,   946.727E+03,   946.727E+03
C:/temp/Job-8.odb,Step-1,Increment      1: Step Time =    1.000,"P-8-1",           421,   130.237E-03,   76.7327E-03,            0.,NA,NA,"",   1.12770E+06,   1.07365E+06,   1.07365E+06
C:/temp/Job-8.odb,Step-1,Increment      1: Step Time =    1.000,"P-8-1",           422,   137.929E-03,   33.8047E-03,            0.,NA,NA,"",   1.03679E+06,   1.03014E+06,   1.03014E+06
C:/temp/Job-8.odb,Step-1,Increment      1: Step Time =    1.000,"P-8-1",           423,   32.9989E-03,   54.2151E-03,            0.,NA,NA,"",   963.502E+03,   1.01447E+06,   1.01447E+06
C:/temp/Job-8.odb,Step-1,Increment      1: Step Time =    1.000,"P-8-1",           424,   166.061E-03,   143.872E-03,            0.,NA,NA,"",   1.02381E+06,   1.01769E+06,   1.01769E+06
C:/temp/Job-8.odb,Step-1,Increment      1: Step Time =    1.000,"P-8-1",           425,   46.7674E-03,   161.755E-03,            0.,NA,NA,"",   1.03919E+06,   1.05571E+06,   1.05571E+06
C:/temp/Job-8.odb,Step-1,Increment      1: Step Time =    1.000,"P-8-1",           426,   119.970E-03,   161.785E-03,            0.,NA,NA,"",   1.03335E+06,   1.03808E+06,   1.03808E+06
C:/temp/Job-8.odb,Step-1,Increment      1: Step Time =    1.000,"P-8-1",           427,   160.208E-03,   121.744E-03,            0.,NA,NA,"",   994.084E+03,   990.661E+03,   990.661E+03
C:/temp/Job-8.odb,Step-1,Increment      1: Step Time =    1.000,"P-8-1",           428,   163.843E-03,   75.2630E-03,            0.,NA,NA,"",   1.00026E+06,   997.521E+03,   997.521E+03
C:/temp/Job-8.odb,Step-1,Increment      1: Step Time =    1.000,"P-8-1",           429,   160.663E-03,   85.0510E-03,            0.,NA,NA,"",   969.610E+03,   971.338E+03,   971.338E+03
C:/temp/Job-8.odb,Step-1,Increment      1: Step Time =    1.000,"P-8-1",           430,   78.3968E-03,   37.2123E-03,            0.,NA,NA,"",   1.03483E+06,   1.04494E+06,   1.04494E+06
C:/temp/Job-8.odb,Step-1,Increment      1: Step Time =    1.000,"P-8-1",           431,   162.512E-03,   111.543E-03,            0.,NA,NA,"",   954.331E+03,   960.854E+03,   960.854E+03
C:/temp/Job-8.odb,Step-1,Increment      1: Step Time =    1.000,"P-8-1",           432,   83.2940E-03,   37.7664E-03,            0.,NA,NA,"",   1.03199E+06,   1.04438E+06,   1.04438E+06
C:/temp/Job-8.odb,Step-1,Increment      1: Step Time =    1.000,"P-8-1",           433,   39.6289E-03,   131.211E-03,            0.,NA,NA,"",   937.224E+03,   985.101E+03,   985.101E+03
C:/temp/Job-8.odb,Step-1,Increment      1: Step Time =    1.000,"P-8-1",           434,   102.248E-03,   41.4486E-03,            0.,NA,NA,"",   1.01643E+06,   1.03787E+06,   1.03787E+06
C:/temp/Job-8.odb,Step-1,Increment      1: Step Time =    1.000,"P-8-1",           435,   136.081E-03,   161.473E-03,            0.,NA,NA,"",   1.05044E+06,   1.04147E+06,   1.04147E+06
C:/temp/Job-8.odb,Step-1,Increment      1: Step Time =    1.000,"P-8-1",           436,   82.2616E-03,   161.919E-03,            0.,NA,NA,"",   1.03414E+06,   1.04605E+06,   1.04605E+06
C:/temp/Job-8.odb,Step-1,Increment      1: Step Time =    1.000,"P-8-1",           437,   39.4612E-03,   85.8466E-03,            0.,NA,NA,"",   857.458E+03,   919.619E+03,   919.619E+03
C:/temp/Job-8.odb,Step-1,Increment      1: Step Time =    1.000,"P-8-1",           438,   77.1311E-03,   165.149E-03,            0.,NA,NA,"",   1.03364E+06,   1.04142E+06,   1.04142E+06
C:/temp/Job-8.odb,Step-1,Increment      1: Step Time =    1.000,"P-8-1",           439,   112.003E-03,   161.848E-03,            0.,NA,NA,"",   1.02037E+06,   1.03334E+06,   1.03334E+06
C:/temp/Job-8.odb,Step-1,Increment      1: Step Time =    1.000,"P-8-1",           440,   36.9441E-03,   125.752E-03,            0.,NA,NA,"",   901.000E+03,   959.168E+03,   959.168E+03
C:/temp/Job-8.odb,Step-1,Increment      1: Step Time =    1.000,"P-8-1",           441,   57.5732E-03,   158.470E-03,            0.,NA,NA,"",   1.05180E+06,   1.06025E+06,   1.06025E+06
C:/temp/Job-8.odb,Step-1,Increment      1: Step Time =    1.000,"P-8-1",           442,   42.2357E-03,   91.1812E-03,            0.,NA,NA,"",   843.962E+03,   905.196E+03,   905.196E+03
C:/temp/Job-8.odb,Step-1,Increment      1: Step Time =    1.000,"P-8-1",           443,   131.653E-03,   43.0395E-03,            0.,NA,NA,"",   1.05953E+06,   1.05208E+06,   1.05208E+06
C:/temp/Job-8.odb,Step-1,Increment      1: Step Time =    1.000,"P-8-1",           444,   44.2052E-03,   100.773E-03,            0.,NA,NA,"",   826.871E+03,   887.654E+03,   887.654E+03
C:/temp/Job-8.odb,Step-1,Increment      1: Step Time =    1.000,"P-8-1",           445,   160.180E-03,   133.276E-03,            0.,NA,NA,"",   1.02787E+06,   1.01811E+06,   1.01811E+06
C:/temp/Job-8.odb,Step-1,Increment      1: Step Time =    1.000,"P-8-1",           446,   42.3008E-03,   70.0947E-03,            0.,NA,NA,"",   939.541E+03,   983.933E+03,   983.933E+03
C:/temp/Job-8.odb,Step-1,Increment      1: Step Time =    1.000,"P-8-1",           447,   75.2931E-03,   42.3086E-03,            0.,NA,NA,"",   1.04995E+06,   1.05920E+06,   1.05920E+06
C:/temp/Job-8.odb,Step-1,Increment      1: Step Time =    1.000,"P-8-1",           448,   110.414E-03,   40.8514E-03,            0.,NA,NA,"",   1.02234E+06,   1.03859E+06,   1.03859E+06
C:/temp/Job-8.odb,Step-1,Increment      1: Step Time =    1.000,"P-8-1",           449,   38.6755E-03,   76.5630E-03,            0.,NA,NA,"",   895.722E+03,   952.183E+03,   952.183E+03
C:/temp/Job-8.odb,Step-1,Increment      1: Step Time =    1.000,"P-8-1",           450,   65.9824E-03,   159.528E-03,            0.,NA,NA,"",   1.05561E+06,   1.06115E+06,   1.06115E+06
C:/temp/Job-8.odb,Step-1,Increment      1: Step Time =    1.000,"P-8-1",           451,   37.9047E-03,   141.488E-03,            0.,NA,NA,"",   971.171E+03,   1.01558E+06,   1.01558E+06
C:/temp/Job-8.odb,Step-1,Increment      1: Step Time =    1.000,"P-8-1",           452,   90.4049E-03,   162.524E-03,            0.,NA,NA,"",   1.01773E+06,   1.03457E+06,   1.03457E+06
C:/temp/Job-8.odb,Step-1,Increment      1: Step Time =    1.000,"P-8-1",           453,   157.912E-03,   95.9979E-03,            0.,NA,NA,"",   927.932E+03,    936.23E+03,    936.23E+03
C:/temp/Job-8.odb,Step-1,Increment      1: Step Time =    1.000,"P-8-1",           454,   104.036E-03,   162.105E-03,            0.,NA,NA,"",   1.01213E+06,   1.02997E+06,   1.02997E+06
C:/temp/Job-8.odb,Step-1,Increment      1: Step Time =    1.000,"P-8-1",           455,   160.580E-03,   103.783E-03,            0.,NA,NA,"",   932.781E+03,   942.484E+03,   942.484E+03
C:/temp/Job-8.odb,Step-1,Increment      1: Step Time =    1.000,"P-8-1",           456,   162.372E-03,   67.7958E-03,            0.,NA,NA,"",   1.01842E+06,   1.01124E+06,   1.01124E+06
C:/temp/Job-8.odb,Step-1,Increment      1: Step Time =    1.000,"P-8-1",           457,   118.489E-03,   40.9559E-03,            0.,NA,NA,"",   1.03509E+06,   1.04324E+06,   1.04324E+06
C:/temp/Job-8.odb,Step-1,Increment      1: Step Time =    1.000,"P-8-1",           458,   125.902E-03,   41.9314E-03,            0.,NA,NA,"",   1.05164E+06,   1.05042E+06,   1.05042E+06
C:/temp/Job-8.odb,Step-1,Increment      1: Step Time =    1.000,"P-8-1",           459,   40.9600E-03,   45.6514E-03,            0.,NA,NA,"",   1.01489E+06,   1.04525E+06,   1.04525E+06
C:/temp/Job-8.odb,Step-1,Increment      1: Step Time =    1.000,"P-8-1",           460,   40.1158E-03,   148.442E-03,            0.,NA,NA,"",   1.00001E+06,   1.03510E+06,   1.03510E+06
C:/temp/Job-8.odb,Step-1,Increment      1: Step Time =    1.000,"P-8-1",           461,   50.8722E-03,   39.7174E-03,            0.,NA,NA,"",   1.04390E+06,   1.05661E+06,   1.05661E+06
C:/temp/Job-8.odb,Step-1,Increment      1: Step Time =    1.000,"P-8-1",           462,   158.358E-03,   50.4114E-03,            0.,NA,NA,"",   1.04167E+06,   1.03007E+06,   1.03007E+06
C:/temp/Job-8.odb,Step-1,Increment      1: Step Time =    1.000,"P-8-1",           463,   42.1752E-03,   155.623E-03,            0.,NA,NA,"",   1.02521E+06,   1.05071E+06,   1.05071E+06
C:/temp/Job-8.odb,Step-1,Increment      1: Step Time =    1.000,"P-8-1",           464,   152.840E-03,   158.346E-03,            0.,NA,NA,"",   1.04259E+06,   1.03151E+06,   1.03151E+06
C:/temp/Job-8.odb,Step-1,Increment      1: Step Time =    1.000,"P-8-1",           465,   160.626E-03,   59.5558E-03,            0.,NA,NA,"",   1.03375E+06,   1.02330E+06,   1.02330E+06
C:/temp/Job-8.odb,Step-1,Increment      1: Step Time =    1.000,"P-8-1",           466,   144.315E-03,   160.495E-03,            0.,NA,NA,"",   1.04913E+06,   1.03766E+06,   1.03766E+06
C:/temp/Job-8.odb,Step-1,Increment      1: Step Time =    1.000,"P-8-1",           467,   58.7287E-03,   42.6905E-03,            0.,NA,NA,"",   1.05678E+06,   1.06322E+06,   1.06322E+06
C:/temp/Job-8.odb,Step-1,Increment      1: Step Time =    1.000,"P-8-1",           468,   154.122E-03,   39.6340E-03,            0.,NA,NA,"",   1.03803E+06,   1.02831E+06,   1.02831E+06
C:/temp/Job-8.odb,Step-1,Increment      1: Step Time =    1.000,"P-8-1",           469,   162.393E-03,   154.067E-03,            0.,NA,NA,"",   1.03171E+06,   1.02347E+06,   1.02347E+06
C:/temp/Job-8.odb,Step-1,Increment      1: Step Time =    1.000,"P-8-1",           470,   34.3756E-03,   36.1832E-03,            0.,NA,NA,"",   1.02174E+06,   1.05497E+06,   1.05497E+06
C:/temp/Job-8.odb,Step-1,Increment      1: Step Time =    1.000,"P-8-1",           471,   33.3231E-03,   45.1396E-03,            0.,NA,NA,"",   991.453E+03,   1.03555E+06,   1.03555E+06
C:/temp/Job-8.odb,Step-1,Increment      1: Step Time =    1.000,"P-8-1",           472,   144.723E-03,   35.4297E-03,            0.,NA,NA,"",   1.03960E+06,   1.03084E+06,   1.03084E+06
C:/temp/Job-8.odb,Step-1,Increment      1: Step Time =    1.000,"P-8-1",           473,   119.312E-03,   69.6134E-03,            0.,NA,NA,"",   1.20305E+06,   1.17822E+06,   1.17822E+06
C:/temp/Job-8.odb,Step-1,Increment      1: Step Time =    1.000,"P-8-1",           474,   121.321E-03,   137.742E-03,            0.,NA,NA,"",   1.14038E+06,   1.12363E+06,   1.12363E+06
C:/temp/Job-8.odb,Step-1,Increment      1: Step Time =    1.000,"P-8-1",           475,   67.8365E-03,   123.822E-03,            0.,NA,NA,"",   1.08909E+06,   1.06829E+06,   1.06829E+06
C:/temp/Job-8.odb,Step-1,Increment      1: Step Time =    1.000,"P-8-1",           476,   93.8212E-03,   57.9727E-03,            0.,NA,NA,"",   1.05035E+06,   1.09015E+06,   1.09015E+06
C:/temp/Job-8.odb,Step-1,Increment      1: Step Time =    1.000,"P-8-1",           477,   109.688E-03,   63.2922E-03,            0.,NA,NA,"",   1.07576E+06,   1.11755E+06,   1.11755E+06
C:/temp/Job-8.odb,Step-1,Increment      1: Step Time =    1.000,"P-8-1",           478,   85.9983E-03,   58.6825E-03,            0.,NA,NA,"",   1.08234E+06,   1.10576E+06,   1.10576E+06
C:/temp/Job-8.odb,Step-1,Increment      1: Step Time =    1.000,"P-8-1",           479,   62.8753E-03,   80.1691E-03,            0.,NA,NA,"",   962.023E+03,   966.435E+03,   966.435E+03
C:/temp/Job-8.odb,Step-1,Increment      1: Step Time =    1.000,"P-8-1",           480,   149.926E-03,   114.208E-03,            0.,NA,NA,"",   957.673E+03,   951.705E+03,   951.705E+03
C:/temp/Job-8.odb,Step-1,Increment      1: Step Time =    1.000,"P-8-1",           481,   134.802E-03,   126.493E-03,            0.,NA,NA,"",   1.11098E+06,   1.06864E+06,   1.06864E+06
C:/temp/Job-8.odb,Step-1,Increment      1: Step Time =    1.000,"P-8-1",           482,   66.8927E-03,   67.5899E-03,            0.,NA,NA,"",   1.10278E+06,   1.09166E+06,   1.09166E+06
C:/temp/Job-8.odb,Step-1,Increment      1: Step Time =    1.000,"P-8-1",           483,   57.0342E-03,   101.379E-03,            0.,NA,NA,"",   791.796E+03,   837.815E+03,   837.815E+03
C:/temp/Job-8.odb,Step-1,Increment      1: Step Time =    1.000,"P-8-1",           484,   82.8172E-03,   141.028E-03,            0.,NA,NA,"",   1.09470E+06,   1.10876E+06,   1.10876E+06
C:/temp/Job-8.odb,Step-1,Increment      1: Step Time =    1.000,"P-8-1",           485,   96.6615E-03,   141.915E-03,            0.,NA,NA,"",   1.03363E+06,   1.08293E+06,   1.08293E+06
C:/temp/Job-8.odb,Step-1,Increment      1: Step Time =    1.000,"P-8-1",           486,   146.862E-03,   92.6561E-03,            0.,NA,NA,"",   906.062E+03,   907.920E+03,   907.920E+03
C:/temp/Job-8.odb,Step-1,Increment      1: Step Time =    1.000,"P-8-1",           487,   140.170E-03,   78.4478E-03,            0.,NA,NA,"",   1.03437E+06,   1.00454E+06,   1.00454E+06
C:/temp/Job-8.odb,Step-1,Increment      1: Step Time =    1.000,"P-8-1",           488,   124.829E-03,   65.3177E-03,            0.,NA,NA,"",   1.17025E+06,   1.13955E+06,   1.13955E+06
C:/temp/Job-8.odb,Step-1,Increment      1: Step Time =    1.000,"P-8-1",           489,   131.183E-03,   66.7268E-03,            0.,NA,NA,"",   1.14051E+06,   1.10424E+06,   1.10424E+06
C:/temp/Job-8.odb,Step-1,Increment      1: Step Time =    1.000,"P-8-1",           490,   41.9616E-03,   59.4455E-03,            0.,NA,NA,"",   983.877E+03,   1.02031E+06,   1.02031E+06
C:/temp/Job-8.odb,Step-1,Increment      1: Step Time =    1.000,"P-8-1",           491,   51.6186E-03,   155.711E-03,            0.,NA,NA,"",   1.04307E+06,   1.05755E+06,   1.05755E+06
C:/temp/Job-8.odb,Step-1,Increment      1: Step Time =    1.000,"P-8-1",           492,   155.906E-03,   114.817E-03,            0.,NA,NA,"",   963.633E+03,   961.807E+03,   961.807E+03
C:/temp/Job-8.odb,Step-1,Increment      1: Step Time =    1.000,"P-8-1",           493,   94.6902E-03,   42.7019E-03,            0.,NA,NA,"",   1.02193E+06,   1.04382E+06,   1.04382E+06
C:/temp/Job-8.odb,Step-1,Increment      1: Step Time =    1.000,"P-8-1",           494,   157.430E-03,   77.9519E-03,            0.,NA,NA,"",   995.837E+03,   989.650E+03,   989.650E+03
C:/temp/Job-8.odb,Step-1,Increment      1: Step Time =    1.000,"P-8-1",           495,   87.9541E-03,   44.1593E-03,            0.,NA,NA,"",   1.03487E+06,   1.05365E+06,   1.05365E+06
C:/temp/Job-8.odb,Step-1,Increment      1: Step Time =    1.000,"P-8-1",           496,   119.972E-03,   154.005E-03,            0.,NA,NA,"",   1.05580E+06,   1.06080E+06,   1.06080E+06
C:/temp/Job-8.odb,Step-1,Increment      1: Step Time =    1.000,"P-8-1",           497,   153.539E-03,   126.646E-03,            0.,NA,NA,"",   1.02120E+06,   1.00759E+06,   1.00759E+06
C:/temp/Job-8.odb,Step-1,Increment      1: Step Time =    1.000,"P-8-1",           498,   127.759E-03,   154.333E-03,            0.,NA,NA,"",   1.06931E+06,   1.06246E+06,   1.06246E+06
C:/temp/Job-8.odb,Step-1,Increment      1: Step Time =    1.000,"P-8-1",           499,   154.168E-03,   88.8587E-03,            0.,NA,NA,"",   946.617E+03,   948.034E+03,   948.034E+03
C:/temp/Job-8.odb,Step-1,Increment      1: Step Time =    1.000,"P-8-1",           500,   49.5162E-03,   87.3974E-03,            0.,NA,NA,"",   857.680E+03,   906.849E+03,   906.849E+03
C:/temp/Job-8.odb,Step-1,Increment      1: Step Time =    1.000,"P-8-1",           501,   78.1086E-03,   157.288E-03,            0.,NA,NA,"",   1.05006E+06,   1.06064E+06,   1.06064E+06
C:/temp/Job-8.odb,Step-1,Increment      1: Step Time =    1.000,"P-8-1",           502,   42.4004E-03,   125.124E-03,            0.,NA,NA,"",   919.731E+03,   967.257E+03,   967.257E+03
C:/temp/Job-8.odb,Step-1,Increment      1: Step Time =    1.000,"P-8-1",           503,   153.526E-03,   106.588E-03,            0.,NA,NA,"",   909.169E+03,   917.323E+03,   917.323E+03
C:/temp/Job-8.odb,Step-1,Increment      1: Step Time =    1.000,"P-8-1",           504,   46.1388E-03,   136.286E-03,            0.,NA,NA,"",   989.423E+03,   1.02070E+06,   1.02070E+06
C:/temp/Job-8.odb,Step-1,Increment      1: Step Time =    1.000,"P-8-1",           505,   81.3622E-03,   43.9303E-03,            0.,NA,NA,"",   1.04459E+06,   1.05914E+06,   1.05914E+06
C:/temp/Job-8.odb,Step-1,Increment      1: Step Time =    1.000,"P-8-1",           506,   51.7778E-03,   96.0195E-03,            0.,NA,NA,"",   819.616E+03,   870.475E+03,   870.475E+03
C:/temp/Job-8.odb,Step-1,Increment      1: Step Time =    1.000,"P-8-1",           507,   101.818E-03,   49.2678E-03,            0.,NA,NA,"",   1.02651E+06,   1.05738E+06,   1.05738E+06
C:/temp/Job-8.odb,Step-1,Increment      1: Step Time =    1.000,"P-8-1",           508,   88.3545E-03,   157.641E-03,            0.,NA,NA,"",   1.03208E+06,   1.04987E+06,   1.04987E+06
C:/temp/Job-8.odb,Step-1,Increment      1: Step Time =    1.000,"P-8-1",           509,   44.1524E-03,   81.2751E-03,            0.,NA,NA,"",   883.682E+03,   935.937E+03,   935.937E+03
C:/temp/Job-8.odb,Step-1,Increment      1: Step Time =    1.000,"P-8-1",           510,   73.1620E-03,   153.416E-03,            0.,NA,NA,"",   1.06508E+06,   1.07162E+06,   1.07162E+06
C:/temp/Job-8.odb,Step-1,Increment      1: Step Time =    1.000,"P-8-1",           511,   51.1240E-03,   108.606E-03,            0.,NA,NA,"",   833.255E+03,   883.259E+03,   883.259E+03
C:/temp/Job-8.odb,Step-1,Increment      1: Step Time =    1.000,"P-8-1",           512,   155.036E-03,   70.4782E-03,            0.,NA,NA,"",   1.02761E+06,   1.01421E+06,   1.01421E+06
C:/temp/Job-8.odb,Step-1,Increment      1: Step Time =    1.000,"P-8-1",           513,   42.5197E-03,   117.905E-03,            0.,NA,NA,"",   880.782E+03,   935.480E+03,   935.480E+03
C:/temp/Job-8.odb,Step-1,Increment      1: Step Time =    1.000,"P-8-1",           514,   112.137E-03,   153.969E-03,            0.,NA,NA,"",   1.03702E+06,   1.05400E+06,   1.05400E+06
C:/temp/Job-8.odb,Step-1,Increment      1: Step Time =    1.000,"P-8-1",           515,   124.983E-03,   48.2397E-03,            0.,NA,NA,"",   1.07126E+06,   1.06881E+06,   1.06881E+06
C:/temp/Job-8.odb,Step-1,Increment      1: Step Time =    1.000,"P-8-1",           516,   64.6683E-03,   154.183E-03,            0.,NA,NA,"",   1.06208E+06,   1.06870E+06,   1.06870E+06
C:/temp/Job-8.odb,Step-1,Increment      1: Step Time =    1.000,"P-8-1",           517,   48.4212E-03,   75.1559E-03,            0.,NA,NA,"",   936.496E+03,   972.280E+03,   972.280E+03
C:/temp/Job-8.odb,Step-1,Increment      1: Step Time =    1.000,"P-8-1",           518,   150.332E-03,   99.5694E-03,            0.,NA,NA,"",   886.550E+03,   896.768E+03,   896.768E+03
C:/temp/Job-8.odb,Step-1,Increment      1: Step Time =    1.000,"P-8-1",           519,   95.9810E-03,   155.389E-03,            0.,NA,NA,"",   1.02032E+06,   1.04729E+06,   1.04729E+06
C:/temp/Job-8.odb,Step-1,Increment      1: Step Time =    1.000,"P-8-1",           520,   142.814E-03,   153.765E-03,            0.,NA,NA,"",   1.06523E+06,   1.04942E+06,   1.04942E+06
C:/temp/Job-8.odb,Step-1,Increment      1: Step Time =    1.000,"P-8-1",           521,   109.637E-03,   48.4777E-03,            0.,NA,NA,"",   1.03336E+06,   1.05737E+06,   1.05737E+06
C:/temp/Job-8.odb,Step-1,Increment      1: Step Time =    1.000,"P-8-1",           522,   48.5956E-03,   145.634E-03,            0.,NA,NA,"",   1.02732E+06,   1.04832E+06,   1.04832E+06
C:/temp/Job-8.odb,Step-1,Increment      1: Step Time =    1.000,"P-8-1",           523,   65.7577E-03,   46.3158E-03,            0.,NA,NA,"",   1.06733E+06,   1.07155E+06,   1.07155E+06
C:/temp/Job-8.odb,Step-1,Increment      1: Step Time =    1.000,"P-8-1",           524,   48.2496E-03,   47.4961E-03,            0.,NA,NA,"",   1.03414E+06,   1.05306E+06,   1.05306E+06
C:/temp/Job-8.odb,Step-1,Increment      1: Step Time =    1.000,"P-8-1",           525,   117.346E-03,   48.1443E-03,            0.,NA,NA,"",   1.05192E+06,   1.06336E+06,   1.06336E+06
C:/temp/Job-8.odb,Step-1,Increment      1: Step Time =    1.000,"P-8-1",           526,   150.896E-03,   54.4406E-03,            0.,NA,NA,"",   1.06096E+06,   1.04332E+06,   1.04332E+06
C:/temp/Job-8.odb,Step-1,Increment      1: Step Time =    1.000,"P-8-1",           527,   149.845E-03,   151.613E-03,            0.,NA,NA,"",   1.05628E+06,   1.04134E+06,   1.04134E+06
C:/temp/Job-8.odb,Step-1,Increment      1: Step Time =    1.000,"P-8-1",           528,   152.900E-03,   62.6075E-03,            0.,NA,NA,"",   1.05011E+06,   1.03267E+06,   1.03267E+06
C:/temp/Job-8.odb,Step-1,Increment      1: Step Time =    1.000,"P-8-1",           529,   55.3599E-03,   50.6130E-03,            0.,NA,NA,"",   1.05262E+06,   1.06271E+06,   1.06271E+06
C:/temp/Job-8.odb,Step-1,Increment      1: Step Time =    1.000,"P-8-1",           530,   47.4872E-03,   152.542E-03,            0.,NA,NA,"",   1.03336E+06,   1.05306E+06,   1.05306E+06
C:/temp/Job-8.odb,Step-1,Increment      1: Step Time =    1.000,"P-8-1",           531,   155.716E-03,   147.573E-03,            0.,NA,NA,"",   1.04449E+06,   1.03140E+06,   1.03140E+06
C:/temp/Job-8.odb,Step-1,Increment      1: Step Time =    1.000,"P-8-1",           532,   112.128E-03,   145.593E-03,            0.,NA,NA,"",   1.06003E+06,   1.08307E+06,   1.08307E+06
C:/temp/Job-8.odb,Step-1,Increment      1: Step Time =    1.000,"P-8-1",           533,   131.629E-03,   132.944E-03,            0.,NA,NA,"",   1.12787E+06,   1.09219E+06,   1.09219E+06
C:/temp/Job-8.odb,Step-1,Increment      1: Step Time =    1.000,"P-8-1",           534,   146.354E-03,   47.4133E-03,            0.,NA,NA,"",   1.06278E+06,   1.04705E+06,   1.04705E+06
C:/temp/Job-8.odb,Step-1,Increment      1: Step Time =    1.000,"P-8-1",           535,   70.5487E-03,   133.821E-03,            0.,NA,NA,"",   1.11243E+06,   1.10376E+06,   1.10376E+06
C:/temp/Job-8.odb,Step-1,Increment      1: Step Time =    1.000,"P-8-1",           536,   59.9165E-03,   119.400E-03,            0.,NA,NA,"",   962.040E+03,   973.379E+03,   973.379E+03
C:/temp/Job-8.odb,Step-1,Increment      1: Step Time =    1.000,"P-8-1",           537,   140.479E-03,   42.7148E-03,            0.,NA,NA,"",   1.05712E+06,   1.04506E+06,   1.04506E+06
C:/temp/Job-8.odb,Step-1,Increment      1: Step Time =    1.000,"P-8-1",           538,   159.462E-03,   141.168E-03,            0.,NA,NA,"",   1.04008E+06,   1.02848E+06,   1.02848E+06
C:/temp/Job-8.odb,Step-1,Increment      1: Step Time =    1.000,"P-8-1",           539,   146.924E-03,   145.923E-03,            0.,NA,NA,"",   1.06893E+06,   1.04793E+06,   1.04793E+06
C:/temp/Job-8.odb,Step-1,Increment      1: Step Time =    1.000,"P-8-1",           540,   139.935E-03,   53.9439E-03,            0.,NA,NA,"",   1.09042E+06,   1.06836E+06,   1.06836E+06
C:/temp/Job-8.odb,Step-1,Increment      1: Step Time =    1.000,"P-8-1",           541,   117.323E-03,   61.9235E-03,            0.,NA,NA,"",   1.12367E+06,   1.13051E+06,   1.13051E+06
C:/temp/Job-8.odb,Step-1,Increment      1: Step Time =    1.000,"P-8-1",           542,   124.003E-03,   60.3611E-03,            0.,NA,NA,"",   1.13923E+06,   1.12180E+06,   1.12180E+06
C:/temp/Job-8.odb,Step-1,Increment      1: Step Time =    1.000,"P-8-1",           543,   147.184E-03,   118.321E-03,            0.,NA,NA,"",   994.450E+03,   979.623E+03,   979.623E+03
C:/temp/Job-8.odb,Step-1,Increment      1: Step Time =    1.000,"P-8-1",           544,   147.059E-03,   109.453E-03,            0.,NA,NA,"",   907.765E+03,   908.117E+03,   908.117E+03
C:/temp/Job-8.odb,Step-1,Increment      1: Step Time =    1.000,"P-8-1",           545,   136.454E-03,   71.9954E-03,            0.,NA,NA,"",   1.10262E+06,   1.06135E+06,   1.06135E+06
C:/temp/Job-8.odb,Step-1,Increment      1: Step Time =    1.000,"P-8-1",           546,   101.640E-03,   56.9292E-03,            0.,NA,NA,"",   1.03645E+06,   1.07997E+06,   1.07997E+06
C:/temp/Job-8.odb,Step-1,Increment      1: Step Time =    1.000,"P-8-1",           547,   69.8333E-03,   57.4792E-03,            0.,NA,NA,"",   1.09422E+06,   1.09432E+06,   1.09432E+06
C:/temp/Job-8.odb,Step-1,Increment      1: Step Time =    1.000,"P-8-1",           548,   144.916E-03,   123.907E-03,            0.,NA,NA,"",   1.03913E+06,   1.01460E+06,   1.01460E+06
C:/temp/Job-8.odb,Step-1,Increment      1: Step Time =    1.000,"P-8-1",           549,   65.5848E-03,   114.170E-03,            0.,NA,NA,"",   914.278E+03,   916.493E+03,   916.493E+03
C:/temp/Job-8.odb,Step-1,Increment      1: Step Time =    1.000,"P-8-1",           550,   85.3989E-03,   151.365E-03,            0.,NA,NA,"",   1.04955E+06,   1.07005E+06,   1.07005E+06
C:/temp/Job-8.odb,Step-1,Increment      1: Step Time =    1.000,"P-8-1",           551,   102.837E-03,   139.433E-03,            0.,NA,NA,"",   1.04140E+06,   1.09637E+06,   1.09637E+06
C:/temp/Job-8.odb,Step-1,Increment      1: Step Time =    1.000,"P-8-1",           552,   120.209E-03,   145.984E-03,            0.,NA,NA,"",   1.09124E+06,   1.09087E+06,   1.09087E+06
C:/temp/Job-8.odb,Step-1,Increment      1: Step Time =    1.000,"P-8-1",           553,   64.3870E-03,   130.170E-03,            0.,NA,NA,"",   1.07453E+06,   1.06963E+06,   1.06963E+06
C:/temp/Job-8.odb,Step-1,Increment      1: Step Time =    1.000,"P-8-1",           554,   129.167E-03,   139.704E-03,            0.,NA,NA,"",   1.12157E+06,   1.09661E+06,   1.09661E+06
C:/temp/Job-8.odb,Step-1,Increment      1: Step Time =    1.000,"P-8-1",           555,   61.7495E-03,   135.393E-03,            0.,NA,NA,"",   1.06866E+06,   1.07037E+06,   1.07037E+06
C:/temp/Job-8.odb,Step-1,Increment      1: Step Time =    1.000,"P-8-1",           556,   81.4050E-03,   130.962E-03,            0.,NA,NA,"",   1.15388E+06,   1.15395E+06,   1.15395E+06
C:/temp/Job-8.odb,Step-1,Increment      1: Step Time =    1.000,"P-8-1",           557,   47.3340E-03,   64.1565E-03,            0.,NA,NA,"",   990.038E+03,   1.01975E+06,   1.01975E+06
C:/temp/Job-8.odb,Step-1,Increment      1: Step Time =    1.000,"P-8-1",           558,   154.492E-03,   137.719E-03,            0.,NA,NA,"",   1.04892E+06,   1.03354E+06,   1.03354E+06
C:/temp/Job-8.odb,Step-1,Increment      1: Step Time =    1.000,"P-8-1",           559,   133.988E-03,   49.2058E-03,            0.,NA,NA,"",   1.08050E+06,   1.06578E+06,   1.06578E+06
C:/temp/Job-8.odb,Step-1,Increment      1: Step Time =    1.000,"P-8-1",           560,   59.9004E-03,   152.692E-03,            0.,NA,NA,"",   1.05905E+06,   1.06671E+06,   1.06671E+06
C:/temp/Job-8.odb,Step-1,Increment      1: Step Time =    1.000,"P-8-1",           561,   40.0934E-03,   53.2680E-03,            0.,NA,NA,"",   992.582E+03,   1.02899E+06,   1.02899E+06
C:/temp/Job-8.odb,Step-1,Increment      1: Step Time =    1.000,"P-8-1",           562,   79.5454E-03,   50.8048E-03,            0.,NA,NA,"",   1.06678E+06,   1.07978E+06,   1.07978E+06
C:/temp/Job-8.odb,Step-1,Increment      1: Step Time =    1.000,"P-8-1",           563,   147.561E-03,   73.8915E-03,            0.,NA,NA,"",   1.03297E+06,   1.01268E+06,   1.01268E+06
C:/temp/Job-8.odb,Step-1,Increment      1: Step Time =    1.000,"P-8-1",           564,   49.1832E-03,   126.708E-03,            0.,NA,NA,"",   960.112E+03,   991.343E+03,   991.343E+03
C:/temp/Job-8.odb,Step-1,Increment      1: Step Time =    1.000,"P-8-1",           565,   78.5090E-03,   147.302E-03,            0.,NA,NA,"",   1.08082E+06,   1.08885E+06,   1.08885E+06
C:/temp/Job-8.odb,Step-1,Increment      1: Step Time =    1.000,"P-8-1",           566,   53.5475E-03,   79.6532E-03,            0.,NA,NA,"",   922.967E+03,   951.917E+03,   951.917E+03
C:/temp/Job-8.odb,Step-1,Increment      1: Step Time =    1.000,"P-8-1",           567,   65.0814E-03,   140.365E-03,            0.,NA,NA,"",   1.07972E+06,   1.08112E+06,   1.08112E+06
C:/temp/Job-8.odb,Step-1,Increment      1: Step Time =    1.000,"P-8-1",           568,   135.100E-03,   147.756E-03,            0.,NA,NA,"",   1.08961E+06,   1.07038E+06,   1.07038E+06
C:/temp/Job-8.odb,Step-1,Increment      1: Step Time =    1.000,"P-8-1",           569,   59.6597E-03,   111.615E-03,            0.,NA,NA,"",   850.350E+03,   881.426E+03,   881.426E+03
C:/temp/Job-8.odb,Step-1,Increment      1: Step Time =    1.000,"P-8-1",           570,   103.820E-03,   146.963E-03,            0.,NA,NA,"",   1.03013E+06,   1.06907E+06,   1.06907E+06
C:/temp/Job-8.odb,Step-1,Increment      1: Step Time =    1.000,"P-8-1",           571,   72.5132E-03,   49.2078E-03,            0.,NA,NA,"",   1.07202E+06,   1.07848E+06,   1.07848E+06
C:/temp/Job-8.odb,Step-1,Increment      1: Step Time =    1.000,"P-8-1",           572,   56.5053E-03,   141.768E-03,            0.,NA,NA,"",   1.04737E+06,   1.05881E+06,   1.05881E+06
C:/temp/Job-8.odb,Step-1,Increment      1: Step Time =    1.000,"P-8-1",           573,   144.096E-03,   65.6185E-03,            0.,NA,NA,"",   1.07541E+06,   1.04936E+06,   1.04936E+06
C:/temp/Job-8.odb,Step-1,Increment      1: Step Time =    1.000,"P-8-1",           574,   124.070E-03,   54.1741E-03,            0.,NA,NA,"",   1.09660E+06,   1.09051E+06,   1.09051E+06
C:/temp/Job-8.odb,Step-1,Increment      1: Step Time =    1.000,"P-8-1",           575,   141.514E-03,   147.694E-03,            0.,NA,NA,"",   1.07703E+06,   1.05677E+06,   1.05677E+06
C:/temp/Job-8.odb,Step-1,Increment      1: Step Time =    1.000,"P-8-1",           576,   45.8661E-03,   54.3896E-03,            0.,NA,NA,"",   1.01498E+06,   1.04046E+06,   1.04046E+06
C:/temp/Job-8.odb,Step-1,Increment      1: Step Time =    1.000,"P-8-1",           577,   62.4489E-03,   54.2765E-03,            0.,NA,NA,"",   1.07564E+06,   1.07806E+06,   1.07806E+06
C:/temp/Job-8.odb,Step-1,Increment      1: Step Time =    1.000,"P-8-1",           578,   145.005E-03,   57.7044E-03,            0.,NA,NA,"",   1.07376E+06,   1.05290E+06,   1.05290E+06
C:/temp/Job-8.odb,Step-1,Increment      1: Step Time =    1.000,"P-8-1",           579,   135.909E-03,   141.429E-03,            0.,NA,NA,"",   1.10382E+06,   1.07758E+06,   1.07758E+06
C:/temp/Job-8.odb,Step-1,Increment      1: Step Time =    1.000,"P-8-1",           580,   137.539E-03,   61.4445E-03,            0.,NA,NA,"",   1.10804E+06,   1.07722E+06,   1.07722E+06
C:/temp/Job-8.odb,Step-1,Increment      1: Step Time =    1.000,"P-8-1",           581,   134.138E-03,   58.7844E-03,            0.,NA,NA,"",   1.11599E+06,   1.08894E+06,   1.08894E+06
C:/temp/Job-8.odb,Step-1,Increment      1: Step Time =    1.000,"P-8-1",           582,   58.6894E-03,   62.1267E-03,            0.,NA,NA,"",   1.05731E+06,   1.06278E+06,   1.06278E+06
C:/temp/Job-8.odb,Step-1,Increment      1: Step Time =    1.000,"P-8-1",           583,   141.879E-03,   129.870E-03,            0.,NA,NA,"",   1.07500E+06,   1.04550E+06,   1.04550E+06
C:/temp/Job-8.odb,Step-1,Increment      1: Step Time =    1.000,"P-8-1",           584,   145.101E-03,   139.748E-03,            0.,NA,NA,"",   1.07709E+06,   1.05319E+06,   1.05319E+06
C:/temp/Job-8.odb,Step-1,Increment      1: Step Time =    1.000,"P-8-1",           585,   87.0197E-03,   51.0454E-03,            0.,NA,NA,"",   1.04963E+06,   1.07256E+06,   1.07256E+06
C:/temp/Job-8.odb,Step-1,Increment      1: Step Time =    1.000,"P-8-1",           586,   150.671E-03,   81.4487E-03,            0.,NA,NA,"",   986.038E+03,   976.033E+03,   976.033E+03
C:/temp/Job-8.odb,Step-1,Increment      1: Step Time =    1.000,"P-8-1",           587,   130.325E-03,   54.4205E-03,            0.,NA,NA,"",   1.10101E+06,   1.08222E+06,   1.08222E+06
C:/temp/Job-8.odb,Step-1,Increment      1: Step Time =    1.000,"P-8-1",           588,   63.0105E-03,   147.230E-03,            0.,NA,NA,"",   1.06675E+06,   1.07326E+06,   1.07326E+06
C:/temp/Job-8.odb,Step-1,Increment      1: Step Time =    1.000,"P-8-1",           589,   53.5706E-03,   68.8264E-03,            0.,NA,NA,"",   1.00589E+06,   1.02336E+06,   1.02336E+06
C:/temp/Job-8.odb,Step-1,Increment      1: Step Time =    1.000,"P-8-1",           590,   55.2598E-03,   135.522E-03,            0.,NA,NA,"",   1.03607E+06,   1.04834E+06,   1.04834E+06
C:/temp/Job-8.odb,Step-1,Increment      1: Step Time =    1.000,"P-8-1",           591,   94.6301E-03,   148.427E-03,            0.,NA,NA,"",   1.03238E+06,   1.06899E+06,   1.06899E+06
C:/temp/Job-8.odb,Step-1,Increment      1: Step Time =    1.000,"P-8-1",           592,   148.882E-03,   133.439E-03,            0.,NA,NA,"",   1.05602E+06,   1.03511E+06,   1.03511E+06
C:/temp/Job-8.odb,Step-1,Increment      1: Step Time =    1.000,"P-8-1",           593,   128.033E-03,   123.143E-03,            0.,NA,NA,"",   1.14601E+06,   1.09284E+06,   1.09284E+06
C:/temp/Job-8.odb,Step-1,Increment      1: Step Time =    1.000,"P-8-1",           594,   59.2219E-03,   73.7988E-03,            0.,NA,NA,"",   1.00744E+06,   1.01451E+06,   1.01451E+06
C:/temp/Job-8.odb,Step-1,Increment      1: Step Time =    1.000,"P-8-1",           595,   51.8814E-03,   57.8428E-03,            0.,NA,NA,"",   1.03112E+06,   1.04843E+06,   1.04843E+06
C:/temp/Job-8.odb,Step-1,Increment      1: Step Time =    1.000,"P-8-1",           596,   109.435E-03,   55.9024E-03,            0.,NA,NA,"",   1.05106E+06,   1.08331E+06,   1.08331E+06
C:/temp/Job-8.odb,Step-1,Increment      1: Step Time =    1.000,"P-8-1",           597,   76.7267E-03,   137.416E-03,            0.,NA,NA,"",   1.11807E+06,   1.11765E+06,   1.11765E+06
C:/temp/Job-8.odb,Step-1,Increment      1: Step Time =    1.000,"P-8-1",           598,   8.95118E-03,   8.96533E-03,            0.,NA,NA,"",   1.19151E+06,   1.23958E+06,   1.23958E+06
C:/temp/Job-8.odb,Step-1,Increment      1: Step Time =    1.000,"P-8-1",           599,   79.1660E-03,   85.0674E-03,            0.,NA,NA,"",   1.09421E+06,   1.01746E+06,   1.01746E+06
C:/temp/Job-8.odb,Step-1,Increment      1: Step Time =    1.000,"P-8-1",           600,   132.048E-03,   100.259E-03,            0.,NA,NA,"",   684.847E+03,   693.757E+03,   693.757E+03
C:/temp/Job-8.odb,Step-1,Increment      1: Step Time =    1.000,"P-8-1",           601,   102.187E-03,   72.2365E-03,            0.,NA,NA,"",   1.10714E+06,   1.19403E+06,   1.19403E+06
C:/temp/Job-8.odb,Step-1,Increment      1: Step Time =    1.000,"P-8-1",           602,   118.212E-03,   82.5289E-03,            0.,NA,NA,"",   1.29418E+06,   1.16872E+06,   1.16872E+06
C:/temp/Job-8.odb,Step-1,Increment      1: Step Time =    1.000,"P-8-1",           603,   128.590E-03,   108.548E-03,            0.,NA,NA,"",   875.392E+03,   833.620E+03,   833.620E+03
C:/temp/Job-8.odb,Step-1,Increment      1: Step Time =    1.000,"P-8-1",           604,   124.513E-03,   78.2150E-03,            0.,NA,NA,"",   1.18544E+06,   1.11734E+06,   1.11734E+06
C:/temp/Job-8.odb,Step-1,Increment      1: Step Time =    1.000,"P-8-1",           605,   62.5440E-03,   105.736E-03,            0.,NA,NA,"",   772.605E+03,   810.082E+03,   810.082E+03
C:/temp/Job-8.odb,Step-1,Increment      1: Step Time =    1.000,"P-8-1",           606,   64.2687E-03,   87.2233E-03,            0.,NA,NA,"",   862.479E+03,   880.079E+03,   880.079E+03
C:/temp/Job-8.odb,Step-1,Increment      1: Step Time =    1.000,"P-8-1",           607,   74.7680E-03,   127.410E-03,            0.,NA,NA,"",   1.16187E+06,   1.13822E+06,   1.13822E+06
C:/temp/Job-8.odb,Step-1,Increment      1: Step Time =    1.000,"P-8-1",           608,   139.366E-03,   96.5272E-03,            0.,NA,NA,"",   828.405E+03,   834.304E+03,   834.304E+03
C:/temp/Job-8.odb,Step-1,Increment      1: Step Time =    1.000,"P-8-1",           609,   124.319E-03,   130.111E-03,            0.,NA,NA,"",   1.17372E+06,   1.13561E+06,   1.13561E+06
C:/temp/Job-8.odb,Step-1,Increment      1: Step Time =    1.000,"P-8-1",           610,   57.7398E-03,   82.5756E-03,            0.,NA,NA,"",   900.856E+03,   928.880E+03,   928.880E+03
C:/temp/Job-8.odb,Step-1,Increment      1: Step Time =    1.000,"P-8-1",           611,   56.9244E-03,   127.825E-03,            0.,NA,NA,"",   1.01776E+06,   1.02882E+06,   1.02882E+06
C:/temp/Job-8.odb,Step-1,Increment      1: Step Time =    1.000,"P-8-1",           612,   116.964E-03,   54.9750E-03,            0.,NA,NA,"",   1.07331E+06,   1.08719E+06,   1.08719E+06
C:/temp/Job-8.odb,Step-1,Increment      1: Step Time =    1.000,"P-8-1",           613,   127.964E-03,   146.965E-03,            0.,NA,NA,"",   1.09968E+06,   1.08457E+06,   1.08457E+06
C:/temp/Job-8.odb,Step-1,Increment      1: Step Time =    1.000,"P-8-1",           614,   141.753E-03,   114.183E-03,            0.,NA,NA,"",   958.582E+03,   942.362E+03,   942.362E+03
C:/temp/Job-8.odb,Step-1,Increment      1: Step Time =    1.000,"P-8-1",           615,   104.096E-03,   154.481E-03,            0.,NA,NA,"",   1.01958E+06,   1.04674E+06,   1.04674E+06
C:/temp/Job-8.odb,Step-1,Increment      1: Step Time =    1.000,"P-8-1",           616,   50.6279E-03,   118.108E-03,            0.,NA,NA,"",   903.249E+03,   941.238E+03,   941.238E+03
C:/temp/Job-8.odb,Step-1,Increment      1: Step Time =    1.000,"P-8-1",           617,   129.845E-03,   60.0727E-03,            0.,NA,NA,"",   1.12542E+06,   1.10152E+06,   1.10152E+06
C:/temp/Job-8.odb,Step-1,Increment      1: Step Time =    1.000,"P-8-1",           618,   42.5027E-03,   109.607E-03,            0.,NA,NA,"",   844.811E+03,   905.539E+03,   905.539E+03
C:/temp/Job-8.odb,Step-1,Increment      1: Step Time =    1.000,"P-8-1",           619,   72.2911E-03,   143.688E-03,            0.,NA,NA,"",   1.09012E+06,   1.09227E+06,   1.09227E+06
C:/temp/Job-8.odb,Step-1,Increment      1: Step Time =    1.000,"P-8-1",           620,   94.3659E-03,   50.3242E-03,            0.,NA,NA,"",   1.03368E+06,   1.06383E+06,   1.06383E+06
C:/temp/Job-8.odb,Step-1,Increment      1: Step Time =    1.000,"P-8-1",           621,   96.3981E-03,   162.508E-03,            0.,NA,NA,"",   1.01033E+06,   1.02964E+06,   1.02964E+06
C:/temp/Job-8.odb,Step-1,Increment      1: Step Time =    1.000,"P-8-1",           622,   138.568E-03,   135.767E-03,            0.,NA,NA,"",   1.10101E+06,   1.07036E+06,   1.07036E+06
C:/temp/Job-8.odb,Step-1,Increment      1: Step Time =    1.000,"P-8-1",           623,   135.359E-03,   154.446E-03,            0.,NA,NA,"",   1.07098E+06,   1.05733E+06,   1.05733E+06
C:/temp/Job-8.odb,Step-1,Increment      1: Step Time =    1.000,"P-8-1",           624,   154.409E-03,   166.348E-03,            0.,NA,NA,"",   1.02926E+06,   1.02158E+06,   1.02158E+06
C:/temp/Job-8.odb,Step-1,Increment      1: Step Time =    1.000,"P-8-1",           625,   134.616E-03,   54.6330E-03,            0.,NA,NA,"",   1.10306E+06,   1.07929E+06,   1.07929E+06
C:/temp/Job-8.odb,Step-1,Increment      1: Step Time =    1.000,"P-8-1",           626,   127.955E-03,   161.780E-03,            0.,NA,NA,"",   1.04427E+06,   1.04131E+06,   1.04131E+06
C:/temp/Job-8.odb,Step-1,Increment      1: Step Time =    1.000,"P-8-1",           627,   152.146E-03,   120.020E-03,            0.,NA,NA,"",   997.476E+03,   986.146E+03,   986.146E+03
C:/temp/Job-8.odb,Step-1,Increment      1: Step Time =    1.000,"P-8-1",           628,   164.179E-03,   117.366E-03,            0.,NA,NA,"",   975.837E+03,   978.686E+03,   978.686E+03
C:/temp/Job-8.odb,Step-1,Increment      1: Step Time =    1.000,"P-8-1",           629,   69.7614E-03,   38.8242E-03,            0.,NA,NA,"",   1.04988E+06,   1.05575E+06,   1.05575E+06
C:/temp/Job-8.odb,Step-1,Increment      1: Step Time =    1.000,"P-8-1",           630,   128.711E-03,   35.2591E-03,            0.,NA,NA,"",   1.03349E+06,   1.03210E+06,   1.03210E+06
C:/temp/Job-8.odb,Step-1,Increment      1: Step Time =    1.000,"P-8-1",           631,   36.3855E-03,   81.6113E-03,            0.,NA,NA,"",   864.994E+03,   929.183E+03,   929.183E+03
C:/temp/Job-8.odb,Step-1,Increment      1: Step Time =    1.000,"P-8-1",           632,   140.827E-03,   143.002E-03,            0.,NA,NA,"",   1.08512E+06,   1.06279E+06,   1.06279E+06
C:/temp/Job-8.odb,Step-1,Increment      1: Step Time =    1.000,"P-8-1",           633,   68.4795E-03,   149.680E-03,            0.,NA,NA,"",   1.07210E+06,   1.07656E+06,   1.07656E+06
C:/temp/Job-8.odb,Step-1,Increment      1: Step Time =    1.000,"P-8-1",           634,   72.4638E-03,   162.803E-03,            0.,NA,NA,"",   1.04629E+06,   1.05135E+06,   1.05135E+06
C:/temp/Job-8.odb,Step-1,Increment      1: Step Time =    1.000,"P-8-1",           635,   70.1498E-03,   29.4917E-03,            0.,NA,NA,"",   1.03190E+06,   1.03546E+06,   1.03546E+06
C:/temp/Job-8.odb,Step-1,Increment      1: Step Time =    1.000,"P-8-1",           636,   150.886E-03,   142.779E-03,            0.,NA,NA,"",   1.06183E+06,   1.04201E+06,   1.04201E+06
C:/temp/Job-8.odb,Step-1,Increment      1: Step Time =    1.000,"P-8-1",           637,   164.983E-03,   81.1066E-03,            0.,NA,NA,"",   981.789E+03,   984.001E+03,   984.001E+03
C:/temp/Job-8.odb,Step-1,Increment      1: Step Time =    1.000,"P-8-1",           638,   54.5864E-03,   150.133E-03,            0.,NA,NA,"",   1.05003E+06,   1.06178E+06,   1.06178E+06
C:/temp/Job-8.odb,Step-1,Increment      1: Step Time =    1.000,"P-8-1",           639,   57.9734E-03,   146.166E-03,            0.,NA,NA,"",   1.05560E+06,   1.06543E+06,   1.06543E+06
C:/temp/Job-8.odb,Step-1,Increment      1: Step Time =    1.000,"P-8-1",           640,   88.0127E-03,   38.8729E-03,            0.,NA,NA,"",   1.02393E+06,   1.03970E+06,   1.03970E+06
