ODB Name,Step,Frame,Part Instance Name,    Node Label,X,Y,Z,Section Name,Material Name,Section Point,       S-Mises,S-Max. In-Plane Principal (Abs),S-Max. Principal (Abs)
C:/temp/Job-7.odb,Step-1,Increment      1: Step Time =    1.000,"P-7-1",             1,   92.6527E-03,   110.113E-03,            0.,NA,NA,"",   1.35198E+06,   1.35873E+06,   1.35873E+06
C:/temp/Job-7.odb,Step-1,Increment      1: Step Time =    1.000,"P-7-1",             2,   88.1118E-03,   103.863E-03,            0.,NA,NA,"",   691.624E+03,   418.358E+03,   418.358E+03
C:/temp/Job-7.odb,Step-1,Increment      1: Step Time =    1.000,"P-7-1",             3,   88.1118E-03,   96.1373E-03,            0.,NA,NA,"",   724.862E+03,   450.299E+03,   450.299E+03
C:/temp/Job-7.odb,Step-1,Increment      1: Step Time =    1.000,"P-7-1",             4,   92.6527E-03,   89.8873E-03,            0.,NA,NA,"",   1.35208E+06,   1.36798E+06,   1.36798E+06
C:/temp/Job-7.odb,Step-1,Increment      1: Step Time =    1.000,"P-7-1",             5,   100.000E-03,   87.5000E-03,            0.,NA,NA,"",   1.59497E+06,   1.71126E+06,   1.71126E+06
C:/temp/Job-7.odb,Step-1,Increment      1: Step Time =    1.000,"P-7-1",             6,   107.347E-03,   89.8873E-03,            0.,NA,NA,"",   1.23146E+06,   1.19945E+06,   1.19945E+06
C:/temp/Job-7.odb,Step-1,Increment      1: Step Time =    1.000,"P-7-1",             7,   111.888E-03,   96.1373E-03,            0.,NA,NA,"",   589.364E+03,   169.489E+03,   169.489E+03
C:/temp/Job-7.odb,Step-1,Increment      1: Step Time =    1.000,"P-7-1",             8,   111.888E-03,   103.863E-03,            0.,NA,NA,"",   735.601E+03,   412.959E+03,   412.959E+03
C:/temp/Job-7.odb,Step-1,Increment      1: Step Time =    1.000,"P-7-1",             9,   107.347E-03,   110.113E-03,            0.,NA,NA,"",   1.36520E+06,   1.36760E+06,   1.36760E+06
C:/temp/Job-7.odb,Step-1,Increment      1: Step Time =    1.000,"P-7-1",            10,   100.000E-03,   112.500E-03,            0.,NA,NA,"",   1.64063E+06,   1.76225E+06,   1.76225E+06
C:/temp/Job-7.odb,Step-1,Increment      1: Step Time =    1.000,"P-7-1",            11,   200.000E-03,            0.,            0.,NA,NA,"",   999.914E+03,   999.883E+03,   999.883E+03
C:/temp/Job-7.odb,Step-1,Increment      1: Step Time =    1.000,"P-7-1",            12,            0.,            0.,            0.,NA,NA,"",   1.41033E+06,   1.47921E+06,   1.47921E+06
C:/temp/Job-7.odb,Step-1,Increment      1: Step Time =    1.000,"P-7-1",            13,   200.000E-03,   200.000E-03,            0.,NA,NA,"",   999.933E+03,   999.892E+03,   999.892E+03
C:/temp/Job-7.odb,Step-1,Increment      1: Step Time =    1.000,"P-7-1",            14,            0.,   200.000E-03,            0.,NA,NA,"",   1.40998E+06,   1.47812E+06,   1.47812E+06
C:/temp/Job-7.odb,Step-1,Increment      1: Step Time =    1.000,"P-7-1",            15,   192.000E-03,            0.,            0.,NA,NA,"",   999.802E+03,   999.751E+03,   999.751E+03
C:/temp/Job-7.odb,Step-1,Increment      1: Step Time =    1.000,"P-7-1",            16,   184.000E-03,            0.,            0.,NA,NA,"",     999.3E+03,   999.280E+03,   999.280E+03
C:/temp/Job-7.odb,Step-1,Increment      1: Step Time =    1.000,"P-7-1",            17,   176.000E-03,            0.,            0.,NA,NA,"",   998.506E+03,   998.381E+03,   998.381E+03
C:/temp/Job-7.odb,Step-1,Increment      1: Step Time =    1.000,"P-7-1",            18,   168.000E-03,            0.,            0.,NA,NA,"",   996.795E+03,   996.636E+03,   996.636E+03
C:/temp/Job-7.odb,Step-1,Increment      1: Step Time =    1.000,"P-7-1",            19,   160.000E-03,            0.,            0.,NA,NA,"",   993.814E+03,   993.559E+03,   993.559E+03
C:/temp/Job-7.odb,Step-1,Increment      1: Step Time =    1.000,"P-7-1",            20,   152.000E-03,            0.,            0.,NA,NA,"",   988.904E+03,   988.522E+03,   988.522E+03
C:/temp/Job-7.odb,Step-1,Increment      1: Step Time =    1.000,"P-7-1",            21,   144.000E-03,            0.,            0.,NA,NA,"",   981.457E+03,   981.322E+03,   981.322E+03
C:/temp/Job-7.odb,Step-1,Increment      1: Step Time =    1.000,"P-7-1",            22,   136.000E-03,            0.,            0.,NA,NA,"",   972.546E+03,   972.194E+03,   972.194E+03
C:/temp/Job-7.odb,Step-1,Increment      1: Step Time =    1.000,"P-7-1",            23,   128.000E-03,            0.,            0.,NA,NA,"",   961.309E+03,   961.521E+03,   961.521E+03
C:/temp/Job-7.odb,Step-1,Increment      1: Step Time =    1.000,"P-7-1",            24,   120.000E-03,            0.,            0.,NA,NA,"",   950.754E+03,   950.737E+03,   950.737E+03
C:/temp/Job-7.odb,Step-1,Increment      1: Step Time =    1.000,"P-7-1",            25,   112.000E-03,            0.,            0.,NA,NA,"",   940.851E+03,   941.342E+03,   941.342E+03
C:/temp/Job-7.odb,Step-1,Increment      1: Step Time =    1.000,"P-7-1",            26,   104.000E-03,            0.,            0.,NA,NA,"",   934.582E+03,   935.311E+03,   935.311E+03
C:/temp/Job-7.odb,Step-1,Increment      1: Step Time =    1.000,"P-7-1",            27,   96.0000E-03,            0.,            0.,NA,NA,"",   933.774E+03,   933.893E+03,   933.893E+03
C:/temp/Job-7.odb,Step-1,Increment      1: Step Time =    1.000,"P-7-1",            28,   88.0000E-03,            0.,            0.,NA,NA,"",   935.291E+03,   936.102E+03,   936.102E+03
C:/temp/Job-7.odb,Step-1,Increment      1: Step Time =    1.000,"P-7-1",            29,   80.0000E-03,            0.,            0.,NA,NA,"",   941.993E+03,   941.851E+03,   941.851E+03
C:/temp/Job-7.odb,Step-1,Increment      1: Step Time =    1.000,"P-7-1",            30,   72.0000E-03,            0.,            0.,NA,NA,"",   949.789E+03,   950.199E+03,   950.199E+03
C:/temp/Job-7.odb,Step-1,Increment      1: Step Time =    1.000,"P-7-1",            31,   64.0000E-03,            0.,            0.,NA,NA,"",   960.213E+03,   959.951E+03,   959.951E+03
C:/temp/Job-7.odb,Step-1,Increment      1: Step Time =    1.000,"P-7-1",            32,   56.0000E-03,            0.,            0.,NA,NA,"",   970.362E+03,   970.713E+03,   970.713E+03
C:/temp/Job-7.odb,Step-1,Increment      1: Step Time =    1.000,"P-7-1",            33,   48.0000E-03,            0.,            0.,NA,NA,"",   982.736E+03,   982.818E+03,   982.818E+03
C:/temp/Job-7.odb,Step-1,Increment      1: Step Time =    1.000,"P-7-1",            34,   40.0000E-03,            0.,            0.,NA,NA,"",   997.719E+03,   998.773E+03,   998.773E+03
C:/temp/Job-7.odb,Step-1,Increment      1: Step Time =    1.000,"P-7-1",            35,   32.0000E-03,            0.,            0.,NA,NA,"",   1.02097E+06,   1.02165E+06,   1.02165E+06
C:/temp/Job-7.odb,Step-1,Increment      1: Step Time =    1.000,"P-7-1",            36,   24.0000E-03,            0.,            0.,NA,NA,"",   1.05646E+06,   1.06094E+06,   1.06094E+06
C:/temp/Job-7.odb,Step-1,Increment      1: Step Time =    1.000,"P-7-1",            37,   16.0000E-03,            0.,            0.,NA,NA,"",   1.12744E+06,   1.12960E+06,   1.12960E+06
C:/temp/Job-7.odb,Step-1,Increment      1: Step Time =    1.000,"P-7-1",            38,   8.00000E-03,            0.,            0.,NA,NA,"",   1.29557E+06,   1.32589E+06,   1.32589E+06
C:/temp/Job-7.odb,Step-1,Increment      1: Step Time =    1.000,"P-7-1",            39,   200.000E-03,   192.000E-03,            0.,NA,NA,"",   1.00010E+06,   999.997E+03,   999.997E+03
C:/temp/Job-7.odb,Step-1,Increment      1: Step Time =    1.000,"P-7-1",            40,   200.000E-03,   184.000E-03,            0.,NA,NA,"",   1.00027E+06,   1.00013E+06,   1.00013E+06
C:/temp/Job-7.odb,Step-1,Increment      1: Step Time =    1.000,"P-7-1",            41,   200.000E-03,   176.000E-03,            0.,NA,NA,"",   1.00019E+06,   1.00025E+06,   1.00025E+06
C:/temp/Job-7.odb,Step-1,Increment      1: Step Time =    1.000,"P-7-1",            42,   200.000E-03,   168.000E-03,            0.,NA,NA,"",   999.785E+03,   1.00067E+06,   1.00067E+06
C:/temp/Job-7.odb,Step-1,Increment      1: Step Time =    1.000,"P-7-1",            43,   200.000E-03,   160.000E-03,            0.,NA,NA,"",   997.709E+03,   1.00037E+06,   1.00037E+06
C:/temp/Job-7.odb,Step-1,Increment      1: Step Time =    1.000,"P-7-1",            44,   200.000E-03,   152.000E-03,            0.,NA,NA,"",   995.336E+03,   1.00094E+06,   1.00094E+06
C:/temp/Job-7.odb,Step-1,Increment      1: Step Time =    1.000,"P-7-1",            45,   200.000E-03,   144.000E-03,            0.,NA,NA,"",    990.32E+03,   1.00019E+06,   1.00019E+06
C:/temp/Job-7.odb,Step-1,Increment      1: Step Time =    1.000,"P-7-1",            46,   200.000E-03,   136.000E-03,            0.,NA,NA,"",   985.318E+03,   1.00055E+06,   1.00055E+06
C:/temp/Job-7.odb,Step-1,Increment      1: Step Time =    1.000,"P-7-1",            47,   200.000E-03,   128.000E-03,            0.,NA,NA,"",   978.537E+03,   999.671E+03,   999.671E+03
C:/temp/Job-7.odb,Step-1,Increment      1: Step Time =    1.000,"P-7-1",            48,   200.000E-03,   120.000E-03,            0.,NA,NA,"",   972.960E+03,   999.549E+03,   999.549E+03
C:/temp/Job-7.odb,Step-1,Increment      1: Step Time =    1.000,"P-7-1",            49,   200.000E-03,   112.000E-03,            0.,NA,NA,"",   968.468E+03,   999.155E+03,   999.155E+03
C:/temp/Job-7.odb,Step-1,Increment      1: Step Time =    1.000,"P-7-1",            50,   200.000E-03,   104.000E-03,            0.,NA,NA,"",   965.963E+03,   998.859E+03,   998.859E+03
C:/temp/Job-7.odb,Step-1,Increment      1: Step Time =    1.000,"P-7-1",            51,   200.000E-03,   96.0000E-03,            0.,NA,NA,"",   966.213E+03,   999.071E+03,   999.071E+03
C:/temp/Job-7.odb,Step-1,Increment      1: Step Time =    1.000,"P-7-1",            52,   200.000E-03,   88.0000E-03,            0.,NA,NA,"",   968.448E+03,   998.982E+03,   998.982E+03
C:/temp/Job-7.odb,Step-1,Increment      1: Step Time =    1.000,"P-7-1",            53,   200.000E-03,   80.0000E-03,            0.,NA,NA,"",   973.526E+03,   999.698E+03,   999.698E+03
C:/temp/Job-7.odb,Step-1,Increment      1: Step Time =    1.000,"P-7-1",            54,   200.000E-03,   72.0000E-03,            0.,NA,NA,"",   979.224E+03,   999.742E+03,   999.742E+03
C:/temp/Job-7.odb,Step-1,Increment      1: Step Time =    1.000,"P-7-1",            55,   200.000E-03,   64.0000E-03,            0.,NA,NA,"",   986.029E+03,   1.00058E+06,   1.00058E+06
C:/temp/Job-7.odb,Step-1,Increment      1: Step Time =    1.000,"P-7-1",            56,   200.000E-03,   56.0000E-03,            0.,NA,NA,"",   991.114E+03,   1.00030E+06,   1.00030E+06
C:/temp/Job-7.odb,Step-1,Increment      1: Step Time =    1.000,"P-7-1",            57,   200.000E-03,   48.0000E-03,            0.,NA,NA,"",   995.866E+03,   1.00082E+06,   1.00082E+06
C:/temp/Job-7.odb,Step-1,Increment      1: Step Time =    1.000,"P-7-1",            58,   200.000E-03,   40.0000E-03,            0.,NA,NA,"",   998.330E+03,   1.00043E+06,   1.00043E+06
C:/temp/Job-7.odb,Step-1,Increment      1: Step Time =    1.000,"P-7-1",            59,   200.000E-03,   32.0000E-03,            0.,NA,NA,"",   999.990E+03,   1.00050E+06,   1.00050E+06
C:/temp/Job-7.odb,Step-1,Increment      1: Step Time =    1.000,"P-7-1",            60,   200.000E-03,   24.0000E-03,            0.,NA,NA,"",   1.00035E+06,   1.00023E+06,   1.00023E+06
C:/temp/Job-7.odb,Step-1,Increment      1: Step Time =    1.000,"P-7-1",            61,   200.000E-03,   16.0000E-03,            0.,NA,NA,"",   1.00027E+06,   1.00006E+06,   1.00006E+06
C:/temp/Job-7.odb,Step-1,Increment      1: Step Time =    1.000,"P-7-1",            62,   200.000E-03,   8.00000E-03,            0.,NA,NA,"",   1.00010E+06,   999.991E+03,   999.991E+03
C:/temp/Job-7.odb,Step-1,Increment      1: Step Time =    1.000,"P-7-1",            63,   8.00000E-03,   200.000E-03,            0.,NA,NA,"",   1.29494E+06,   1.32533E+06,   1.32533E+06
C:/temp/Job-7.odb,Step-1,Increment      1: Step Time =    1.000,"P-7-1",            64,   16.0000E-03,   200.000E-03,            0.,NA,NA,"",   1.12724E+06,   1.12966E+06,   1.12966E+06
C:/temp/Job-7.odb,Step-1,Increment      1: Step Time =    1.000,"P-7-1",            65,   24.0000E-03,   200.000E-03,            0.,NA,NA,"",   1.05672E+06,   1.06138E+06,   1.06138E+06
C:/temp/Job-7.odb,Step-1,Increment      1: Step Time =    1.000,"P-7-1",            66,   32.0000E-03,   200.000E-03,            0.,NA,NA,"",   1.02170E+06,   1.02238E+06,   1.02238E+06
C:/temp/Job-7.odb,Step-1,Increment      1: Step Time =    1.000,"P-7-1",            67,   40.0000E-03,   200.000E-03,            0.,NA,NA,"",   998.094E+03,   999.256E+03,   999.256E+03
C:/temp/Job-7.odb,Step-1,Increment      1: Step Time =    1.000,"P-7-1",            68,   48.0000E-03,   200.000E-03,            0.,NA,NA,"",   982.686E+03,   982.822E+03,   982.822E+03
C:/temp/Job-7.odb,Step-1,Increment      1: Step Time =    1.000,"P-7-1",            69,   56.0000E-03,   200.000E-03,            0.,NA,NA,"",   969.685E+03,   969.984E+03,   969.984E+03
C:/temp/Job-7.odb,Step-1,Increment      1: Step Time =    1.000,"P-7-1",            70,   64.0000E-03,   200.000E-03,            0.,NA,NA,"",   958.607E+03,   958.557E+03,   958.557E+03
C:/temp/Job-7.odb,Step-1,Increment      1: Step Time =    1.000,"P-7-1",            71,   72.0000E-03,   200.000E-03,            0.,NA,NA,"",   948.035E+03,   948.364E+03,   948.364E+03
C:/temp/Job-7.odb,Step-1,Increment      1: Step Time =    1.000,"P-7-1",            72,   80.0000E-03,   200.000E-03,            0.,NA,NA,"",   939.945E+03,   940.001E+03,   940.001E+03
C:/temp/Job-7.odb,Step-1,Increment      1: Step Time =    1.000,"P-7-1",            73,   88.0000E-03,   200.000E-03,            0.,NA,NA,"",   933.777E+03,   934.383E+03,   934.383E+03
C:/temp/Job-7.odb,Step-1,Increment      1: Step Time =    1.000,"P-7-1",            74,   96.0000E-03,   200.000E-03,            0.,NA,NA,"",   932.413E+03,   932.795E+03,   932.795E+03
C:/temp/Job-7.odb,Step-1,Increment      1: Step Time =    1.000,"P-7-1",            75,   104.000E-03,   200.000E-03,            0.,NA,NA,"",   934.918E+03,   935.322E+03,   935.322E+03
C:/temp/Job-7.odb,Step-1,Increment      1: Step Time =    1.000,"P-7-1",            76,   112.000E-03,   200.000E-03,            0.,NA,NA,"",   941.186E+03,   941.661E+03,   941.661E+03
C:/temp/Job-7.odb,Step-1,Increment      1: Step Time =    1.000,"P-7-1",            77,   120.000E-03,   200.000E-03,            0.,NA,NA,"",   951.205E+03,   951.169E+03,   951.169E+03
C:/temp/Job-7.odb,Step-1,Increment      1: Step Time =    1.000,"P-7-1",            78,   128.000E-03,   200.000E-03,            0.,NA,NA,"",   961.950E+03,   962.014E+03,   962.014E+03
C:/temp/Job-7.odb,Step-1,Increment      1: Step Time =    1.000,"P-7-1",            79,   136.000E-03,   200.000E-03,            0.,NA,NA,"",   973.069E+03,   972.856E+03,   972.856E+03
C:/temp/Job-7.odb,Step-1,Increment      1: Step Time =    1.000,"P-7-1",            80,   144.000E-03,   200.000E-03,            0.,NA,NA,"",   982.539E+03,   982.236E+03,   982.236E+03
C:/temp/Job-7.odb,Step-1,Increment      1: Step Time =    1.000,"P-7-1",            81,   152.000E-03,   200.000E-03,            0.,NA,NA,"",   989.421E+03,   989.275E+03,   989.275E+03
C:/temp/Job-7.odb,Step-1,Increment      1: Step Time =    1.000,"P-7-1",            82,   160.000E-03,   200.000E-03,            0.,NA,NA,"",   994.429E+03,   994.096E+03,   994.096E+03
C:/temp/Job-7.odb,Step-1,Increment      1: Step Time =    1.000,"P-7-1",            83,   168.000E-03,   200.000E-03,            0.,NA,NA,"",   996.976E+03,   996.941E+03,   996.941E+03
C:/temp/Job-7.odb,Step-1,Increment      1: Step Time =    1.000,"P-7-1",            84,   176.000E-03,   200.000E-03,            0.,NA,NA,"",   998.681E+03,   998.527E+03,   998.527E+03
C:/temp/Job-7.odb,Step-1,Increment      1: Step Time =    1.000,"P-7-1",            85,   184.000E-03,   200.000E-03,            0.,NA,NA,"",   999.365E+03,   999.358E+03,   999.358E+03
C:/temp/Job-7.odb,Step-1,Increment      1: Step Time =    1.000,"P-7-1",            86,   192.000E-03,   200.000E-03,            0.,NA,NA,"",   999.795E+03,   999.759E+03,   999.759E+03
C:/temp/Job-7.odb,Step-1,Increment      1: Step Time =    1.000,"P-7-1",            87,            0.,   8.00000E-03,            0.,NA,NA,"",   1.24935E+06,   1.33093E+06,   1.33093E+06
C:/temp/Job-7.odb,Step-1,Increment      1: Step Time =    1.000,"P-7-1",            88,            0.,   16.0000E-03,            0.,NA,NA,"",   1.04444E+06,   1.14120E+06,   1.14120E+06
C:/temp/Job-7.odb,Step-1,Increment      1: Step Time =    1.000,"P-7-1",            89,            0.,   24.0000E-03,            0.,NA,NA,"",   971.708E+03,   1.07143E+06,   1.07143E+06
C:/temp/Job-7.odb,Step-1,Increment      1: Step Time =    1.000,"P-7-1",            90,            0.,   32.0000E-03,            0.,NA,NA,"",   924.942E+03,   1.02634E+06,   1.02634E+06
C:/temp/Job-7.odb,Step-1,Increment      1: Step Time =    1.000,"P-7-1",            91,            0.,   40.0000E-03,            0.,NA,NA,"",   892.570E+03,   994.696E+03,   994.696E+03
C:/temp/Job-7.odb,Step-1,Increment      1: Step Time =    1.000,"P-7-1",            92,            0.,   48.0000E-03,            0.,NA,NA,"",   867.094E+03,   969.348E+03,   969.348E+03
C:/temp/Job-7.odb,Step-1,Increment      1: Step Time =    1.000,"P-7-1",            93,            0.,   56.0000E-03,            0.,NA,NA,"",   845.374E+03,   947.601E+03,   947.601E+03
C:/temp/Job-7.odb,Step-1,Increment      1: Step Time =    1.000,"P-7-1",            94,            0.,   64.0000E-03,            0.,NA,NA,"",   826.455E+03,   928.093E+03,   928.093E+03
C:/temp/Job-7.odb,Step-1,Increment      1: Step Time =    1.000,"P-7-1",            95,            0.,   72.0000E-03,            0.,NA,NA,"",   810.361E+03,   911.494E+03,   911.494E+03
C:/temp/Job-7.odb,Step-1,Increment      1: Step Time =    1.000,"P-7-1",            96,            0.,   80.0000E-03,            0.,NA,NA,"",   797.338E+03,   897.714E+03,   897.714E+03
C:/temp/Job-7.odb,Step-1,Increment      1: Step Time =    1.000,"P-7-1",            97,            0.,   88.0000E-03,            0.,NA,NA,"",   788.193E+03,   888.147E+03,   888.147E+03
C:/temp/Job-7.odb,Step-1,Increment      1: Step Time =    1.000,"P-7-1",            98,            0.,   96.0000E-03,            0.,NA,NA,"",   783.577E+03,   883.181E+03,   883.181E+03
C:/temp/Job-7.odb,Step-1,Increment      1: Step Time =    1.000,"P-7-1",            99,            0.,   104.000E-03,            0.,NA,NA,"",   783.885E+03,   883.469E+03,   883.469E+03
C:/temp/Job-7.odb,Step-1,Increment      1: Step Time =    1.000,"P-7-1",           100,            0.,   112.000E-03,            0.,NA,NA,"",   788.830E+03,   888.779E+03,   888.779E+03
C:/temp/Job-7.odb,Step-1,Increment      1: Step Time =    1.000,"P-7-1",           101,            0.,   120.000E-03,            0.,NA,NA,"",   798.263E+03,   898.628E+03,   898.628E+03
C:/temp/Job-7.odb,Step-1,Increment      1: Step Time =    1.000,"P-7-1",           102,            0.,   128.000E-03,            0.,NA,NA,"",   811.169E+03,   912.184E+03,   912.184E+03
C:/temp/Job-7.odb,Step-1,Increment      1: Step Time =    1.000,"P-7-1",           103,            0.,   136.000E-03,            0.,NA,NA,"",   826.789E+03,   928.446E+03,   928.446E+03
C:/temp/Job-7.odb,Step-1,Increment      1: Step Time =    1.000,"P-7-1",           104,            0.,   144.000E-03,            0.,NA,NA,"",   845.381E+03,   947.456E+03,   947.456E+03
C:/temp/Job-7.odb,Step-1,Increment      1: Step Time =    1.000,"P-7-1",           105,            0.,   152.000E-03,            0.,NA,NA,"",   866.775E+03,   969.119E+03,   969.119E+03
C:/temp/Job-7.odb,Step-1,Increment      1: Step Time =    1.000,"P-7-1",           106,            0.,   160.000E-03,            0.,NA,NA,"",   892.272E+03,   994.429E+03,   994.429E+03
C:/temp/Job-7.odb,Step-1,Increment      1: Step Time =    1.000,"P-7-1",           107,            0.,   168.000E-03,            0.,NA,NA,"",   924.676E+03,   1.02612E+06,   1.02612E+06
C:/temp/Job-7.odb,Step-1,Increment      1: Step Time =    1.000,"P-7-1",           108,            0.,   176.000E-03,            0.,NA,NA,"",   971.480E+03,   1.07131E+06,   1.07131E+06
C:/temp/Job-7.odb,Step-1,Increment      1: Step Time =    1.000,"P-7-1",           109,            0.,   184.000E-03,            0.,NA,NA,"",   1.04359E+06,   1.14024E+06,   1.14024E+06
C:/temp/Job-7.odb,Step-1,Increment      1: Step Time =    1.000,"P-7-1",           110,            0.,   192.000E-03,            0.,NA,NA,"",   1.24839E+06,   1.32973E+06,   1.32973E+06
C:/temp/Job-7.odb,Step-1,Increment      1: Step Time =    1.000,"P-7-1",           111,   105.379E-03,   120.896E-03,            0.,NA,NA,"",   1.38445E+06,   1.47037E+06,   1.47037E+06
C:/temp/Job-7.odb,Step-1,Increment      1: Step Time =    1.000,"P-7-1",           112,   121.429E-03,   102.752E-03,            0.,NA,NA,"",   601.278E+03,   384.025E+03,   384.025E+03
C:/temp/Job-7.odb,Step-1,Increment      1: Step Time =    1.000,"P-7-1",           113,   115.853E-03,   89.0363E-03,            0.,NA,NA,"",   1.04879E+06,   923.574E+03,   923.574E+03
C:/temp/Job-7.odb,Step-1,Increment      1: Step Time =    1.000,"P-7-1",           114,   82.9921E-03,   85.8068E-03,            0.,NA,NA,"",   1.14744E+06,   1.05039E+06,   1.05039E+06
C:/temp/Job-7.odb,Step-1,Increment      1: Step Time =    1.000,"P-7-1",           115,   82.8497E-03,   112.734E-03,            0.,NA,NA,"",   1.09957E+06,   1.00066E+06,   1.00066E+06
C:/temp/Job-7.odb,Step-1,Increment      1: Step Time =    1.000,"P-7-1",           116,   106.289E-03,   77.5465E-03,            0.,NA,NA,"",   1.33985E+06,   1.41757E+06,   1.41757E+06
C:/temp/Job-7.odb,Step-1,Increment      1: Step Time =    1.000,"P-7-1",           117,   94.9382E-03,   78.5527E-03,            0.,NA,NA,"",   1.35614E+06,   1.44388E+06,   1.44388E+06
C:/temp/Job-7.odb,Step-1,Increment      1: Step Time =    1.000,"P-7-1",           118,   117.063E-03,   113.275E-03,            0.,NA,NA,"",   1.14893E+06,   1.02862E+06,   1.02862E+06
C:/temp/Job-7.odb,Step-1,Increment      1: Step Time =    1.000,"P-7-1",           119,   78.0716E-03,   102.881E-03,            0.,NA,NA,"",   567.294E+03,   400.365E+03,   400.365E+03
C:/temp/Job-7.odb,Step-1,Increment      1: Step Time =    1.000,"P-7-1",           120,   94.5062E-03,   120.434E-03,            0.,NA,NA,"",   1.39460E+06,   1.47983E+06,   1.47983E+06
C:/temp/Job-7.odb,Step-1,Increment      1: Step Time =    1.000,"P-7-1",           121,   160.140E-03,   8.17776E-03,            0.,NA,NA,"",   996.641E+03,   995.893E+03,   995.893E+03
C:/temp/Job-7.odb,Step-1,Increment      1: Step Time =    1.000,"P-7-1",           122,   192.172E-03,   151.805E-03,            0.,NA,NA,"",   996.983E+03,   1.00194E+06,   1.00194E+06
C:/temp/Job-7.odb,Step-1,Increment      1: Step Time =    1.000,"P-7-1",           123,   47.9333E-03,   192.367E-03,            0.,NA,NA,"",   997.374E+03,   998.382E+03,   998.382E+03
C:/temp/Job-7.odb,Step-1,Increment      1: Step Time =    1.000,"P-7-1",           124,   55.9467E-03,   192.637E-03,            0.,NA,NA,"",   983.431E+03,   983.854E+03,   983.854E+03
C:/temp/Job-7.odb,Step-1,Increment      1: Step Time =    1.000,"P-7-1",           125,   63.9739E-03,   192.842E-03,            0.,NA,NA,"",   971.820E+03,   972.017E+03,   972.017E+03
C:/temp/Job-7.odb,Step-1,Increment      1: Step Time =    1.000,"P-7-1",           126,   7.40662E-03,   47.7819E-03,            0.,NA,NA,"",   882.939E+03,   979.100E+03,   979.100E+03
C:/temp/Job-7.odb,Step-1,Increment      1: Step Time =    1.000,"P-7-1",           127,   7.21046E-03,   55.7866E-03,            0.,NA,NA,"",   858.737E+03,   955.876E+03,   955.876E+03
C:/temp/Job-7.odb,Step-1,Increment      1: Step Time =    1.000,"P-7-1",           128,   7.10680E-03,   63.8073E-03,            0.,NA,NA,"",   838.175E+03,   935.729E+03,   935.729E+03
C:/temp/Job-7.odb,Step-1,Increment      1: Step Time =    1.000,"P-7-1",           129,   7.56581E-03,   112.124E-03,            0.,NA,NA,"",   796.005E+03,   893.212E+03,   893.212E+03
C:/temp/Job-7.odb,Step-1,Increment      1: Step Time =    1.000,"P-7-1",           130,   192.955E-03,   87.6860E-03,            0.,NA,NA,"",   970.840E+03,   997.437E+03,   997.437E+03
C:/temp/Job-7.odb,Step-1,Increment      1: Step Time =    1.000,"P-7-1",           131,   168.174E-03,   8.11124E-03,            0.,NA,NA,"",   998.605E+03,   998.115E+03,   998.115E+03
C:/temp/Job-7.odb,Step-1,Increment      1: Step Time =    1.000,"P-7-1",           132,   151.927E-03,   8.22423E-03,            0.,NA,NA,"",   992.984E+03,   992.128E+03,   992.128E+03
C:/temp/Job-7.odb,Step-1,Increment      1: Step Time =    1.000,"P-7-1",           133,   143.586E-03,   8.17179E-03,            0.,NA,NA,"",   987.168E+03,   986.376E+03,   986.376E+03
C:/temp/Job-7.odb,Step-1,Increment      1: Step Time =    1.000,"P-7-1",           134,   135.248E-03,   7.95881E-03,            0.,NA,NA,"",   979.037E+03,   978.591E+03,   978.591E+03
C:/temp/Job-7.odb,Step-1,Increment      1: Step Time =    1.000,"P-7-1",           135,   127.079E-03,   7.75791E-03,            0.,NA,NA,"",   970.022E+03,   969.919E+03,   969.919E+03
C:/temp/Job-7.odb,Step-1,Increment      1: Step Time =    1.000,"P-7-1",           136,   119.052E-03,   7.66637E-03,            0.,NA,NA,"",   960.464E+03,   960.912E+03,   960.912E+03
C:/temp/Job-7.odb,Step-1,Increment      1: Step Time =    1.000,"P-7-1",           137,   111.000E-03,   7.69223E-03,            0.,NA,NA,"",   952.405E+03,   953.698E+03,   953.698E+03
C:/temp/Job-7.odb,Step-1,Increment      1: Step Time =    1.000,"P-7-1",           138,   102.959E-03,   7.90456E-03,            0.,NA,NA,"",   948.081E+03,   949.686E+03,   949.686E+03
C:/temp/Job-7.odb,Step-1,Increment      1: Step Time =    1.000,"P-7-1",           139,   94.8763E-03,   8.07324E-03,            0.,NA,NA,"",   947.505E+03,   949.014E+03,   949.014E+03
C:/temp/Job-7.odb,Step-1,Increment      1: Step Time =    1.000,"P-7-1",           140,   86.9388E-03,   7.91819E-03,            0.,NA,NA,"",   950.866E+03,   951.991E+03,   951.991E+03
C:/temp/Job-7.odb,Step-1,Increment      1: Step Time =    1.000,"P-7-1",           141,   78.9555E-03,   7.61140E-03,            0.,NA,NA,"",   956.414E+03,   957.104E+03,   957.104E+03
C:/temp/Job-7.odb,Step-1,Increment      1: Step Time =    1.000,"P-7-1",           142,   70.9879E-03,   7.32964E-03,            0.,NA,NA,"",   964.283E+03,   964.538E+03,   964.538E+03
C:/temp/Job-7.odb,Step-1,Increment      1: Step Time =    1.000,"P-7-1",           143,   63.0574E-03,   7.14814E-03,            0.,NA,NA,"",   973.702E+03,   973.838E+03,   973.838E+03
C:/temp/Job-7.odb,Step-1,Increment      1: Step Time =    1.000,"P-7-1",           144,   55.1430E-03,   7.09071E-03,            0.,NA,NA,"",   984.316E+03,   984.702E+03,   984.702E+03
C:/temp/Job-7.odb,Step-1,Increment      1: Step Time =    1.000,"P-7-1",           145,   47.2475E-03,   7.14733E-03,            0.,NA,NA,"",   997.352E+03,   998.354E+03,   998.354E+03
C:/temp/Job-7.odb,Step-1,Increment      1: Step Time =    1.000,"P-7-1",           146,   39.3862E-03,   7.28474E-03,            0.,NA,NA,"",   1.01374E+06,   1.01581E+06,   1.01581E+06
C:/temp/Job-7.odb,Step-1,Increment      1: Step Time =    1.000,"P-7-1",           147,   31.5256E-03,   7.45106E-03,            0.,NA,NA,"",   1.03851E+06,   1.04238E+06,   1.04238E+06
C:/temp/Job-7.odb,Step-1,Increment      1: Step Time =    1.000,"P-7-1",           148,   23.6581E-03,   7.60207E-03,            0.,NA,NA,"",   1.07316E+06,   1.08128E+06,   1.08128E+06
C:/temp/Job-7.odb,Step-1,Increment      1: Step Time =    1.000,"P-7-1",           149,   191.917E-03,   167.953E-03,            0.,NA,NA,"",   1.00067E+06,   1.00148E+06,   1.00148E+06
C:/temp/Job-7.odb,Step-1,Increment      1: Step Time =    1.000,"P-7-1",           150,   191.978E-03,   159.883E-03,            0.,NA,NA,"",   999.476E+03,   1.00181E+06,   1.00181E+06
C:/temp/Job-7.odb,Step-1,Increment      1: Step Time =    1.000,"P-7-1",           151,   192.468E-03,   143.712E-03,            0.,NA,NA,"",   992.927E+03,   1.00158E+06,   1.00158E+06
C:/temp/Job-7.odb,Step-1,Increment      1: Step Time =    1.000,"P-7-1",           152,   192.759E-03,   135.740E-03,            0.,NA,NA,"",   987.571E+03,   1.00091E+06,   1.00091E+06
C:/temp/Job-7.odb,Step-1,Increment      1: Step Time =    1.000,"P-7-1",           153,   192.918E-03,   127.806E-03,            0.,NA,NA,"",   981.197E+03,   999.668E+03,   999.668E+03
C:/temp/Job-7.odb,Step-1,Increment      1: Step Time =    1.000,"P-7-1",           154,   192.887E-03,   119.785E-03,            0.,NA,NA,"",   975.233E+03,   998.477E+03,   998.477E+03
C:/temp/Job-7.odb,Step-1,Increment      1: Step Time =    1.000,"P-7-1",           155,   192.777E-03,   111.750E-03,            0.,NA,NA,"",   970.764E+03,   997.556E+03,   997.556E+03
C:/temp/Job-7.odb,Step-1,Increment      1: Step Time =    1.000,"P-7-1",           156,   192.729E-03,   103.728E-03,            0.,NA,NA,"",   968.307E+03,   996.936E+03,   996.936E+03
C:/temp/Job-7.odb,Step-1,Increment      1: Step Time =    1.000,"P-7-1",           157,   192.828E-03,   95.7178E-03,            0.,NA,NA,"",   968.358E+03,   997.001E+03,   997.001E+03
C:/temp/Job-7.odb,Step-1,Increment      1: Step Time =    1.000,"P-7-1",           158,   193.001E-03,   79.7220E-03,            0.,NA,NA,"",   976.018E+03,   998.745E+03,   998.745E+03
C:/temp/Job-7.odb,Step-1,Increment      1: Step Time =    1.000,"P-7-1",           159,   192.966E-03,   71.8294E-03,            0.,NA,NA,"",   982.187E+03,   999.983E+03,   999.983E+03
C:/temp/Job-7.odb,Step-1,Increment      1: Step Time =    1.000,"P-7-1",           160,   192.894E-03,   63.9639E-03,            0.,NA,NA,"",   988.311E+03,   1.00101E+06,   1.00101E+06
C:/temp/Job-7.odb,Step-1,Increment      1: Step Time =    1.000,"P-7-1",           161,   192.815E-03,   56.0475E-03,            0.,NA,NA,"",   993.601E+03,   1.00166E+06,   1.00166E+06
C:/temp/Job-7.odb,Step-1,Increment      1: Step Time =    1.000,"P-7-1",           162,   192.715E-03,   48.0330E-03,            0.,NA,NA,"",    997.39E+03,   1.00181E+06,   1.00181E+06
C:/temp/Job-7.odb,Step-1,Increment      1: Step Time =    1.000,"P-7-1",           163,   192.583E-03,   39.9991E-03,            0.,NA,NA,"",   999.734E+03,   1.00167E+06,   1.00167E+06
C:/temp/Job-7.odb,Step-1,Increment      1: Step Time =    1.000,"P-7-1",           164,   192.434E-03,   31.9766E-03,            0.,NA,NA,"",   1.00065E+06,   1.00121E+06,   1.00121E+06
C:/temp/Job-7.odb,Step-1,Increment      1: Step Time =    1.000,"P-7-1",           165,   192.295E-03,   23.9616E-03,            0.,NA,NA,"",   1.00077E+06,   1.00074E+06,   1.00074E+06
C:/temp/Job-7.odb,Step-1,Increment      1: Step Time =    1.000,"P-7-1",           166,   192.181E-03,   15.9493E-03,            0.,NA,NA,"",   1.00039E+06,   1.00023E+06,   1.00023E+06
C:/temp/Job-7.odb,Step-1,Increment      1: Step Time =    1.000,"P-7-1",           167,   192.089E-03,   7.95358E-03,            0.,NA,NA,"",   999.988E+03,   999.904E+03,   999.904E+03
C:/temp/Job-7.odb,Step-1,Increment      1: Step Time =    1.000,"P-7-1",           168,   71.9817E-03,   192.900E-03,            0.,NA,NA,"",   961.402E+03,   961.841E+03,   961.841E+03
C:/temp/Job-7.odb,Step-1,Increment      1: Step Time =    1.000,"P-7-1",           169,   79.9635E-03,   192.813E-03,            0.,NA,NA,"",   953.111E+03,   953.867E+03,   953.867E+03
C:/temp/Job-7.odb,Step-1,Increment      1: Step Time =    1.000,"P-7-1",           170,   87.9751E-03,   192.659E-03,            0.,NA,NA,"",   947.760E+03,   948.939E+03,   948.939E+03
C:/temp/Job-7.odb,Step-1,Increment      1: Step Time =    1.000,"P-7-1",           171,   96.0109E-03,   192.533E-03,            0.,NA,NA,"",   945.588E+03,   947.008E+03,   947.008E+03
C:/temp/Job-7.odb,Step-1,Increment      1: Step Time =    1.000,"P-7-1",           172,   104.049E-03,   192.475E-03,            0.,NA,NA,"",   947.616E+03,   948.883E+03,   948.883E+03
C:/temp/Job-7.odb,Step-1,Increment      1: Step Time =    1.000,"P-7-1",           173,   112.067E-03,   192.492E-03,            0.,NA,NA,"",   953.169E+03,   954.147E+03,   954.147E+03
C:/temp/Job-7.odb,Step-1,Increment      1: Step Time =    1.000,"P-7-1",           174,   120.078E-03,   192.595E-03,            0.,NA,NA,"",   961.082E+03,   961.420E+03,   961.420E+03
C:/temp/Job-7.odb,Step-1,Increment      1: Step Time =    1.000,"P-7-1",           175,   128.124E-03,   192.721E-03,            0.,NA,NA,"",   970.413E+03,   970.317E+03,   970.317E+03
C:/temp/Job-7.odb,Step-1,Increment      1: Step Time =    1.000,"P-7-1",           176,   136.156E-03,   192.778E-03,            0.,NA,NA,"",   979.607E+03,   979.055E+03,   979.055E+03
C:/temp/Job-7.odb,Step-1,Increment      1: Step Time =    1.000,"P-7-1",           177,   144.141E-03,   192.725E-03,            0.,NA,NA,"",    987.28E+03,   986.538E+03,   986.538E+03
C:/temp/Job-7.odb,Step-1,Increment      1: Step Time =    1.000,"P-7-1",           178,   152.126E-03,   192.600E-03,            0.,NA,NA,"",   992.987E+03,   992.285E+03,   992.285E+03
C:/temp/Job-7.odb,Step-1,Increment      1: Step Time =    1.000,"P-7-1",           179,   160.106E-03,   192.450E-03,            0.,NA,NA,"",   996.650E+03,    996.01E+03,    996.01E+03
C:/temp/Job-7.odb,Step-1,Increment      1: Step Time =    1.000,"P-7-1",           180,   168.074E-03,   192.312E-03,            0.,NA,NA,"",   998.695E+03,   998.282E+03,   998.282E+03
C:/temp/Job-7.odb,Step-1,Increment      1: Step Time =    1.000,"P-7-1",           181,   176.038E-03,   192.195E-03,            0.,NA,NA,"",   999.585E+03,   999.334E+03,   999.334E+03
C:/temp/Job-7.odb,Step-1,Increment      1: Step Time =    1.000,"P-7-1",           182,   184.019E-03,   192.105E-03,            0.,NA,NA,"",   999.860E+03,   999.757E+03,   999.757E+03
C:/temp/Job-7.odb,Step-1,Increment      1: Step Time =    1.000,"P-7-1",           183,   192.012E-03,   192.044E-03,            0.,NA,NA,"",   1.00002E+06,   999.955E+03,   999.955E+03
C:/temp/Job-7.odb,Step-1,Increment      1: Step Time =    1.000,"P-7-1",           184,   7.14346E-03,   71.8484E-03,            0.,NA,NA,"",   819.780E+03,   917.450E+03,   917.450E+03
C:/temp/Job-7.odb,Step-1,Increment      1: Step Time =    1.000,"P-7-1",           185,   7.27307E-03,   79.8688E-03,            0.,NA,NA,"",   805.430E+03,   902.970E+03,   902.970E+03
C:/temp/Job-7.odb,Step-1,Increment      1: Step Time =    1.000,"P-7-1",           186,   7.42386E-03,   87.8735E-03,            0.,NA,NA,"",   795.033E+03,   892.375E+03,   892.375E+03
C:/temp/Job-7.odb,Step-1,Increment      1: Step Time =    1.000,"P-7-1",           187,   7.53614E-03,   95.9385E-03,            0.,NA,NA,"",   789.639E+03,   886.878E+03,   886.878E+03
C:/temp/Job-7.odb,Step-1,Increment      1: Step Time =    1.000,"P-7-1",           188,   7.59213E-03,   104.059E-03,            0.,NA,NA,"",   789.927E+03,   887.133E+03,   887.133E+03
C:/temp/Job-7.odb,Step-1,Increment      1: Step Time =    1.000,"P-7-1",           189,   7.52128E-03,   120.091E-03,            0.,NA,NA,"",   806.731E+03,   904.053E+03,   904.053E+03
C:/temp/Job-7.odb,Step-1,Increment      1: Step Time =    1.000,"P-7-1",           190,   7.45529E-03,   128.065E-03,            0.,NA,NA,"",   821.021E+03,   918.414E+03,   918.414E+03
C:/temp/Job-7.odb,Step-1,Increment      1: Step Time =    1.000,"P-7-1",           191,   7.38428E-03,   136.072E-03,            0.,NA,NA,"",   838.886E+03,   936.161E+03,   936.161E+03
C:/temp/Job-7.odb,Step-1,Increment      1: Step Time =    1.000,"P-7-1",           192,   7.35101E-03,   144.139E-03,            0.,NA,NA,"",   858.783E+03,   955.792E+03,   955.792E+03
C:/temp/Job-7.odb,Step-1,Increment      1: Step Time =    1.000,"P-7-1",           193,   7.39736E-03,   152.178E-03,            0.,NA,NA,"",   882.730E+03,   978.872E+03,   978.872E+03
C:/temp/Job-7.odb,Step-1,Increment      1: Step Time =    1.000,"P-7-1",           194,   7.51019E-03,   160.166E-03,            0.,NA,NA,"",   909.423E+03,   1.00415E+06,   1.00415E+06
C:/temp/Job-7.odb,Step-1,Increment      1: Step Time =    1.000,"P-7-1",           195,   7.63736E-03,   168.125E-03,            0.,NA,NA,"",   945.803E+03,   1.03764E+06,   1.03764E+06
C:/temp/Job-7.odb,Step-1,Increment      1: Step Time =    1.000,"P-7-1",           196,   7.75337E-03,   176.084E-03,            0.,NA,NA,"",   990.933E+03,   1.07843E+06,   1.07843E+06
C:/temp/Job-7.odb,Step-1,Increment      1: Step Time =    1.000,"P-7-1",           197,   7.85268E-03,   184.057E-03,            0.,NA,NA,"",   1.07844E+06,   1.15453E+06,   1.15453E+06
C:/temp/Job-7.odb,Step-1,Increment      1: Step Time =    1.000,"P-7-1",           198,   7.92994E-03,   192.038E-03,            0.,NA,NA,"",   1.21984E+06,   1.26845E+06,   1.26845E+06
C:/temp/Job-7.odb,Step-1,Increment      1: Step Time =    1.000,"P-7-1",           199,   39.9496E-03,   192.147E-03,            0.,NA,NA,"",   1.01424E+06,   1.01639E+06,   1.01639E+06
C:/temp/Job-7.odb,Step-1,Increment      1: Step Time =    1.000,"P-7-1",           200,   191.927E-03,   176.006E-03,            0.,NA,NA,"",   1.00082E+06,   1.00091E+06,   1.00091E+06
C:/temp/Job-7.odb,Step-1,Increment      1: Step Time =    1.000,"P-7-1",           201,   7.60092E-03,   39.8198E-03,            0.,NA,NA,"",   909.901E+03,   1.00448E+06,   1.00448E+06
C:/temp/Job-7.odb,Step-1,Increment      1: Step Time =    1.000,"P-7-1",           202,   176.168E-03,   8.04089E-03,            0.,NA,NA,"",   999.416E+03,   999.156E+03,   999.156E+03
C:/temp/Job-7.odb,Step-1,Increment      1: Step Time =    1.000,"P-7-1",           203,   160.231E-03,   16.3316E-03,            0.,NA,NA,"",   1.00369E+06,   1.00171E+06,   1.00171E+06
C:/temp/Job-7.odb,Step-1,Increment      1: Step Time =    1.000,"P-7-1",           204,   183.875E-03,   159.573E-03,            0.,NA,NA,"",   1.00437E+06,   1.00530E+06,   1.00530E+06
C:/temp/Job-7.odb,Step-1,Increment      1: Step Time =    1.000,"P-7-1",           205,   56.1151E-03,   185.541E-03,            0.,NA,NA,"",   1.00805E+06,   1.00916E+06,   1.00916E+06
C:/temp/Job-7.odb,Step-1,Increment      1: Step Time =    1.000,"P-7-1",           206,   14.2704E-03,   55.6924E-03,            0.,NA,NA,"",   886.074E+03,   972.342E+03,   972.342E+03
C:/temp/Job-7.odb,Step-1,Increment      1: Step Time =    1.000,"P-7-1",           207,   31.9521E-03,   192.021E-03,            0.,NA,NA,"",   1.03853E+06,   1.04257E+06,   1.04257E+06
C:/temp/Job-7.odb,Step-1,Increment      1: Step Time =    1.000,"P-7-1",           208,   7.73332E-03,   31.8534E-03,            0.,NA,NA,"",   946.318E+03,   1.03793E+06,   1.03793E+06
C:/temp/Job-7.odb,Step-1,Increment      1: Step Time =    1.000,"P-7-1",           209,   7.79123E-03,   23.8310E-03,            0.,NA,NA,"",   991.677E+03,   1.07901E+06,   1.07901E+06
C:/temp/Job-7.odb,Step-1,Increment      1: Step Time =    1.000,"P-7-1",           210,   7.82039E-03,   15.8124E-03,            0.,NA,NA,"",   1.08043E+06,   1.15632E+06,   1.15632E+06
C:/temp/Job-7.odb,Step-1,Increment      1: Step Time =    1.000,"P-7-1",           211,   23.9209E-03,   191.997E-03,            0.,NA,NA,"",   1.07254E+06,   1.08102E+06,   1.08102E+06
C:/temp/Job-7.odb,Step-1,Increment      1: Step Time =    1.000,"P-7-1",           212,   15.9067E-03,   192.022E-03,            0.,NA,NA,"",   1.14137E+06,   1.15518E+06,   1.15518E+06
C:/temp/Job-7.odb,Step-1,Increment      1: Step Time =    1.000,"P-7-1",           213,   15.7717E-03,   7.73376E-03,            0.,NA,NA,"",   1.14319E+06,   1.15640E+06,   1.15640E+06
C:/temp/Job-7.odb,Step-1,Increment      1: Step Time =    1.000,"P-7-1",           214,   15.2524E-03,   112.224E-03,            0.,NA,NA,"",   810.359E+03,   901.461E+03,   901.461E+03
C:/temp/Job-7.odb,Step-1,Increment      1: Step Time =    1.000,"P-7-1",           215,   185.828E-03,   71.7882E-03,            0.,NA,NA,"",   987.598E+03,   1.00004E+06,   1.00004E+06
C:/temp/Job-7.odb,Step-1,Increment      1: Step Time =    1.000,"P-7-1",           216,   110.157E-03,   15.1704E-03,            0.,NA,NA,"",   972.444E+03,   975.943E+03,   975.943E+03
C:/temp/Job-7.odb,Step-1,Increment      1: Step Time =    1.000,"P-7-1",           217,   14.8122E-03,   47.7309E-03,            0.,NA,NA,"",   913.805E+03,   996.538E+03,   996.538E+03
C:/temp/Job-7.odb,Step-1,Increment      1: Step Time =    1.000,"P-7-1",           218,   152.035E-03,   185.137E-03,            0.,NA,NA,"",   1.00136E+06,   999.305E+03,   999.305E+03
C:/temp/Job-7.odb,Step-1,Increment      1: Step Time =    1.000,"P-7-1",           219,   128.214E-03,   185.546E-03,            0.,NA,NA,"",   987.244E+03,   986.802E+03,   986.802E+03
C:/temp/Job-7.odb,Step-1,Increment      1: Step Time =    1.000,"P-7-1",           220,   185.649E-03,   135.206E-03,            0.,NA,NA,"",   993.037E+03,   1.00234E+06,   1.00234E+06
C:/temp/Job-7.odb,Step-1,Increment      1: Step Time =    1.000,"P-7-1",           221,   186.080E-03,   127.545E-03,            0.,NA,NA,"",   986.046E+03,   999.389E+03,   999.389E+03
C:/temp/Job-7.odb,Step-1,Increment      1: Step Time =    1.000,"P-7-1",           222,   185.972E-03,   87.4117E-03,            0.,NA,NA,"",   973.514E+03,   993.155E+03,   993.155E+03
C:/temp/Job-7.odb,Step-1,Increment      1: Step Time =    1.000,"P-7-1",           223,   151.850E-03,   16.2199E-03,            0.,NA,NA,"",   1.00283E+06,   1.00047E+06,   1.00047E+06
C:/temp/Job-7.odb,Step-1,Increment      1: Step Time =    1.000,"P-7-1",           224,   185.638E-03,   64.0440E-03,            0.,NA,NA,"",   994.612E+03,   1.00306E+06,   1.00306E+06
C:/temp/Job-7.odb,Step-1,Increment      1: Step Time =    1.000,"P-7-1",           225,   185.445E-03,   48.1649E-03,            0.,NA,NA,"",   1.00270E+06,   1.00525E+06,   1.00525E+06
C:/temp/Job-7.odb,Step-1,Increment      1: Step Time =    1.000,"P-7-1",           226,   15.6386E-03,   176.037E-03,            0.,NA,NA,"",   1.03046E+06,   1.09182E+06,   1.09182E+06
C:/temp/Job-7.odb,Step-1,Increment      1: Step Time =    1.000,"P-7-1",           227,   15.4145E-03,   168.105E-03,            0.,NA,NA,"",   981.495E+03,   1.05340E+06,   1.05340E+06
C:/temp/Job-7.odb,Step-1,Increment      1: Step Time =    1.000,"P-7-1",           228,   14.9941E-03,   128.158E-03,            0.,NA,NA,"",   842.551E+03,   931.615E+03,   931.615E+03
C:/temp/Job-7.odb,Step-1,Increment      1: Step Time =    1.000,"P-7-1",           229,   120.152E-03,   185.211E-03,            0.,NA,NA,"",   980.563E+03,   981.692E+03,   981.692E+03
C:/temp/Job-7.odb,Step-1,Increment      1: Step Time =    1.000,"P-7-1",           230,   184.357E-03,   151.297E-03,            0.,NA,NA,"",   1.00281E+06,   1.00550E+06,   1.00550E+06
C:/temp/Job-7.odb,Step-1,Increment      1: Step Time =    1.000,"P-7-1",           231,   136.203E-03,   185.628E-03,            0.,NA,NA,"",   993.526E+03,   991.981E+03,   991.981E+03
C:/temp/Job-7.odb,Step-1,Increment      1: Step Time =    1.000,"P-7-1",           232,   23.4869E-03,   15.4153E-03,            0.,NA,NA,"",   1.08664E+06,   1.10604E+06,   1.10604E+06
C:/temp/Job-7.odb,Step-1,Increment      1: Step Time =    1.000,"P-7-1",           233,   31.2631E-03,   15.1041E-03,            0.,NA,NA,"",   1.05777E+06,   1.06936E+06,   1.06936E+06
C:/temp/Job-7.odb,Step-1,Increment      1: Step Time =    1.000,"P-7-1",           234,   69.8636E-03,   14.4859E-03,            0.,NA,NA,"",   990.718E+03,   991.471E+03,   991.471E+03
C:/temp/Job-7.odb,Step-1,Increment      1: Step Time =    1.000,"P-7-1",           235,   13.9992E-03,   63.6122E-03,            0.,NA,NA,"",   861.036E+03,   949.743E+03,   949.743E+03
C:/temp/Job-7.odb,Step-1,Increment      1: Step Time =    1.000,"P-7-1",           236,   48.1437E-03,   184.855E-03,            0.,NA,NA,"",   1.02135E+06,   1.02441E+06,   1.02441E+06
C:/temp/Job-7.odb,Step-1,Increment      1: Step Time =    1.000,"P-7-1",           237,   77.6876E-03,   15.0934E-03,            0.,NA,NA,"",   983.547E+03,   985.349E+03,   985.349E+03
C:/temp/Job-7.odb,Step-1,Increment      1: Step Time =    1.000,"P-7-1",           238,   87.7551E-03,   185.320E-03,            0.,NA,NA,"",   971.862E+03,   975.188E+03,   975.188E+03
C:/temp/Job-7.odb,Step-1,Increment      1: Step Time =    1.000,"P-7-1",           239,   64.0523E-03,   186.000E-03,            0.,NA,NA,"",   995.811E+03,   996.502E+03,   996.502E+03
C:/temp/Job-7.odb,Step-1,Increment      1: Step Time =    1.000,"P-7-1",           240,   143.081E-03,   16.1455E-03,            0.,NA,NA,"",   999.708E+03,   997.571E+03,   997.571E+03
C:/temp/Job-7.odb,Step-1,Increment      1: Step Time =    1.000,"P-7-1",           241,   134.325E-03,   15.6299E-03,            0.,NA,NA,"",   994.009E+03,   992.703E+03,   992.703E+03
C:/temp/Job-7.odb,Step-1,Increment      1: Step Time =    1.000,"P-7-1",           242,   126.044E-03,   15.3515E-03,            0.,NA,NA,"",   986.037E+03,   986.117E+03,   986.117E+03
C:/temp/Job-7.odb,Step-1,Increment      1: Step Time =    1.000,"P-7-1",           243,   118.090E-03,   15.2411E-03,            0.,NA,NA,"",   979.726E+03,   980.880E+03,   980.880E+03
C:/temp/Job-7.odb,Step-1,Increment      1: Step Time =    1.000,"P-7-1",           244,   102.239E-03,   15.7387E-03,            0.,NA,NA,"",   970.294E+03,   975.266E+03,   975.266E+03
C:/temp/Job-7.odb,Step-1,Increment      1: Step Time =    1.000,"P-7-1",           245,   93.7780E-03,   16.4928E-03,            0.,NA,NA,"",   975.121E+03,   979.100E+03,   979.100E+03
C:/temp/Job-7.odb,Step-1,Increment      1: Step Time =    1.000,"P-7-1",           246,   85.6685E-03,   15.9099E-03,            0.,NA,NA,"",   978.181E+03,   981.399E+03,   981.399E+03
C:/temp/Job-7.odb,Step-1,Increment      1: Step Time =    1.000,"P-7-1",           247,   62.1372E-03,   14.1335E-03,            0.,NA,NA,"",   998.917E+03,   999.573E+03,   999.573E+03
C:/temp/Job-7.odb,Step-1,Increment      1: Step Time =    1.000,"P-7-1",           248,   54.4218E-03,   14.0719E-03,            0.,NA,NA,"",   1.00949E+06,   1.01072E+06,   1.01072E+06
C:/temp/Job-7.odb,Step-1,Increment      1: Step Time =    1.000,"P-7-1",           249,   46.6955E-03,   14.2982E-03,            0.,NA,NA,"",   1.02164E+06,   1.02477E+06,   1.02477E+06
C:/temp/Job-7.odb,Step-1,Increment      1: Step Time =    1.000,"P-7-1",           250,   39.0075E-03,   14.6921E-03,            0.,NA,NA,"",   1.03862E+06,   1.04452E+06,   1.04452E+06
C:/temp/Job-7.odb,Step-1,Increment      1: Step Time =    1.000,"P-7-1",           251,   185.025E-03,   143.054E-03,            0.,NA,NA,"",   998.852E+03,   1.00451E+06,   1.00451E+06
C:/temp/Job-7.odb,Step-1,Increment      1: Step Time =    1.000,"P-7-1",           252,   185.432E-03,   103.495E-03,            0.,NA,NA,"",   969.903E+03,   991.380E+03,   991.380E+03
C:/temp/Job-7.odb,Step-1,Increment      1: Step Time =    1.000,"P-7-1",           253,   185.970E-03,   119.634E-03,            0.,NA,NA,"",   978.635E+03,   995.782E+03,   995.782E+03
C:/temp/Job-7.odb,Step-1,Increment      1: Step Time =    1.000,"P-7-1",           254,   185.643E-03,   111.610E-03,            0.,NA,NA,"",   972.924E+03,   992.889E+03,   992.889E+03
C:/temp/Job-7.odb,Step-1,Increment      1: Step Time =    1.000,"P-7-1",           255,   185.707E-03,   95.4138E-03,            0.,NA,NA,"",   969.649E+03,   991.062E+03,   991.062E+03
C:/temp/Job-7.odb,Step-1,Increment      1: Step Time =    1.000,"P-7-1",           256,   185.973E-03,   79.5887E-03,            0.,NA,NA,"",   979.936E+03,   996.369E+03,   996.369E+03
C:/temp/Job-7.odb,Step-1,Increment      1: Step Time =    1.000,"P-7-1",           257,   185.575E-03,   56.1995E-03,            0.,NA,NA,"",   999.547E+03,   1.00468E+06,   1.00468E+06
C:/temp/Job-7.odb,Step-1,Increment      1: Step Time =    1.000,"P-7-1",           258,   168.302E-03,   16.3113E-03,            0.,NA,NA,"",   1.00304E+06,   1.00172E+06,   1.00172E+06
C:/temp/Job-7.odb,Step-1,Increment      1: Step Time =    1.000,"P-7-1",           259,   185.154E-03,   40.1306E-03,            0.,NA,NA,"",   1.00362E+06,   1.00457E+06,   1.00457E+06
C:/temp/Job-7.odb,Step-1,Increment      1: Step Time =    1.000,"P-7-1",           260,   184.807E-03,   32.1100E-03,            0.,NA,NA,"",   1.00340E+06,   1.00348E+06,   1.00348E+06
C:/temp/Job-7.odb,Step-1,Increment      1: Step Time =    1.000,"P-7-1",           261,   184.510E-03,   24.0772E-03,            0.,NA,NA,"",   1.00239E+06,   1.00211E+06,   1.00211E+06
C:/temp/Job-7.odb,Step-1,Increment      1: Step Time =    1.000,"P-7-1",           262,   184.141E-03,   7.98128E-03,            0.,NA,NA,"",   999.793E+03,   999.677E+03,   999.677E+03
C:/temp/Job-7.odb,Step-1,Increment      1: Step Time =    1.000,"P-7-1",           263,   71.9202E-03,   186.027E-03,            0.,NA,NA,"",   986.098E+03,   987.145E+03,   987.145E+03
C:/temp/Job-7.odb,Step-1,Increment      1: Step Time =    1.000,"P-7-1",           264,   79.7576E-03,   185.734E-03,            0.,NA,NA,"",   977.875E+03,   980.089E+03,   980.089E+03
C:/temp/Job-7.odb,Step-1,Increment      1: Step Time =    1.000,"P-7-1",           265,   95.8806E-03,   185.009E-03,            0.,NA,NA,"",   969.419E+03,   973.405E+03,   973.405E+03
C:/temp/Job-7.odb,Step-1,Increment      1: Step Time =    1.000,"P-7-1",           266,   104.019E-03,   184.893E-03,            0.,NA,NA,"",   969.963E+03,   973.860E+03,   973.860E+03
C:/temp/Job-7.odb,Step-1,Increment      1: Step Time =    1.000,"P-7-1",           267,   112.114E-03,   184.909E-03,            0.,NA,NA,"",   974.071E+03,   976.685E+03,   976.685E+03
C:/temp/Job-7.odb,Step-1,Increment      1: Step Time =    1.000,"P-7-1",           268,   144.088E-03,   185.440E-03,            0.,NA,NA,"",   998.308E+03,   996.313E+03,   996.313E+03
C:/temp/Job-7.odb,Step-1,Increment      1: Step Time =    1.000,"P-7-1",           269,   183.733E-03,   167.791E-03,            0.,NA,NA,"",   1.00411E+06,   1.00414E+06,   1.00414E+06
C:/temp/Job-7.odb,Step-1,Increment      1: Step Time =    1.000,"P-7-1",           270,   160.011E-03,   184.775E-03,            0.,NA,NA,"",   1.00297E+06,   1.00123E+06,   1.00123E+06
C:/temp/Job-7.odb,Step-1,Increment      1: Step Time =    1.000,"P-7-1",           271,   167.981E-03,   184.466E-03,            0.,NA,NA,"",   1.00300E+06,   1.00174E+06,   1.00174E+06
C:/temp/Job-7.odb,Step-1,Increment      1: Step Time =    1.000,"P-7-1",           272,   175.934E-03,   184.241E-03,            0.,NA,NA,"",   1.00222E+06,   1.00154E+06,   1.00154E+06
C:/temp/Job-7.odb,Step-1,Increment      1: Step Time =    1.000,"P-7-1",           273,   191.973E-03,   184.044E-03,            0.,NA,NA,"",   1.00044E+06,   1.00033E+06,   1.00033E+06
C:/temp/Job-7.odb,Step-1,Increment      1: Step Time =    1.000,"P-7-1",           274,   14.1217E-03,   71.5928E-03,            0.,NA,NA,"",   839.996E+03,   930.060E+03,   930.060E+03
C:/temp/Job-7.odb,Step-1,Increment      1: Step Time =    1.000,"P-7-1",           275,   15.1805E-03,   104.070E-03,            0.,NA,NA,"",   802.317E+03,   893.835E+03,   893.835E+03
C:/temp/Job-7.odb,Step-1,Increment      1: Step Time =    1.000,"P-7-1",           276,   14.4928E-03,   79.5802E-03,            0.,NA,NA,"",   821.915E+03,   912.880E+03,   912.880E+03
C:/temp/Job-7.odb,Step-1,Increment      1: Step Time =    1.000,"P-7-1",           277,   14.8605E-03,   87.5774E-03,            0.,NA,NA,"",   809.116E+03,   900.642E+03,   900.642E+03
C:/temp/Job-7.odb,Step-1,Increment      1: Step Time =    1.000,"P-7-1",           278,   15.0356E-03,   95.7430E-03,            0.,NA,NA,"",   801.957E+03,   893.616E+03,   893.616E+03
C:/temp/Job-7.odb,Step-1,Increment      1: Step Time =    1.000,"P-7-1",           279,   15.1836E-03,   120.175E-03,            0.,NA,NA,"",   824.292E+03,   914.470E+03,   914.470E+03
C:/temp/Job-7.odb,Step-1,Increment      1: Step Time =    1.000,"P-7-1",           280,   14.7324E-03,   136.152E-03,            0.,NA,NA,"",   862.848E+03,   950.685E+03,   950.685E+03
C:/temp/Job-7.odb,Step-1,Increment      1: Step Time =    1.000,"P-7-1",           281,   14.6016E-03,   144.251E-03,            0.,NA,NA,"",   886.933E+03,   972.696E+03,   972.696E+03
C:/temp/Job-7.odb,Step-1,Increment      1: Step Time =    1.000,"P-7-1",           282,   14.7667E-03,   152.249E-03,            0.,NA,NA,"",   913.651E+03,   996.487E+03,   996.487E+03
C:/temp/Job-7.odb,Step-1,Increment      1: Step Time =    1.000,"P-7-1",           283,   15.1076E-03,   160.184E-03,            0.,NA,NA,"",   944.443E+03,   1.02293E+06,   1.02293E+06
C:/temp/Job-7.odb,Step-1,Increment      1: Step Time =    1.000,"P-7-1",           284,   183.938E-03,   184.104E-03,            0.,NA,NA,"",   1.00117E+06,   1.00094E+06,   1.00094E+06
C:/temp/Job-7.odb,Step-1,Increment      1: Step Time =    1.000,"P-7-1",           285,   184.294E-03,   16.0212E-03,            0.,NA,NA,"",   1.00097E+06,   1.00073E+06,   1.00073E+06
C:/temp/Job-7.odb,Step-1,Increment      1: Step Time =    1.000,"P-7-1",           286,   15.8069E-03,   184.017E-03,            0.,NA,NA,"",   1.10792E+06,   1.14780E+06,   1.14780E+06
C:/temp/Job-7.odb,Step-1,Increment      1: Step Time =    1.000,"P-7-1",           287,   15.3615E-03,   39.8077E-03,            0.,NA,NA,"",   945.289E+03,   1.02330E+06,   1.02330E+06
C:/temp/Job-7.odb,Step-1,Increment      1: Step Time =    1.000,"P-7-1",           288,   40.1385E-03,   184.208E-03,            0.,NA,NA,"",   1.03809E+06,   1.04405E+06,   1.04405E+06
C:/temp/Job-7.odb,Step-1,Increment      1: Step Time =    1.000,"P-7-1",           289,   176.332E-03,   16.1763E-03,            0.,NA,NA,"",   1.00212E+06,   1.00141E+06,   1.00141E+06
C:/temp/Job-7.odb,Step-1,Increment      1: Step Time =    1.000,"P-7-1",           290,   183.804E-03,   175.995E-03,            0.,NA,NA,"",   1.00284E+06,   1.00254E+06,   1.00254E+06
C:/temp/Job-7.odb,Step-1,Increment      1: Step Time =    1.000,"P-7-1",           291,   15.6669E-03,   15.6405E-03,            0.,NA,NA,"",   1.11150E+06,   1.15053E+06,   1.15053E+06
C:/temp/Job-7.odb,Step-1,Increment      1: Step Time =    1.000,"P-7-1",           292,   23.8713E-03,   183.932E-03,            0.,NA,NA,"",   1.08368E+06,   1.10396E+06,   1.10396E+06
C:/temp/Job-7.odb,Step-1,Increment      1: Step Time =    1.000,"P-7-1",           293,   15.6518E-03,   23.6947E-03,            0.,NA,NA,"",   1.03278E+06,   1.09348E+06,   1.09348E+06
C:/temp/Job-7.odb,Step-1,Increment      1: Step Time =    1.000,"P-7-1",           294,   23.2312E-03,   112.267E-03,            0.,NA,NA,"",   825.101E+03,   907.896E+03,   907.896E+03
C:/temp/Job-7.odb,Step-1,Increment      1: Step Time =    1.000,"P-7-1",           295,   83.7995E-03,   23.7886E-03,            0.,NA,NA,"",   1.00023E+06,   1.00614E+06,   1.00614E+06
C:/temp/Job-7.odb,Step-1,Increment      1: Step Time =    1.000,"P-7-1",           296,   92.8760E-03,   26.2394E-03,            0.,NA,NA,"",   996.830E+03,   1.00651E+06,   1.00651E+06
C:/temp/Job-7.odb,Step-1,Increment      1: Step Time =    1.000,"P-7-1",           297,   102.562E-03,   23.0249E-03,            0.,NA,NA,"",   989.756E+03,   997.422E+03,   997.422E+03
C:/temp/Job-7.odb,Step-1,Increment      1: Step Time =    1.000,"P-7-1",           298,   109.412E-03,   22.2459E-03,            0.,NA,NA,"",   991.754E+03,   996.896E+03,   996.896E+03
C:/temp/Job-7.odb,Step-1,Increment      1: Step Time =    1.000,"P-7-1",           299,   103.873E-03,   177.258E-03,            0.,NA,NA,"",   987.859E+03,   995.590E+03,   995.590E+03
C:/temp/Job-7.odb,Step-1,Increment      1: Step Time =    1.000,"P-7-1",           300,   112.197E-03,   177.012E-03,            0.,NA,NA,"",   992.508E+03,   998.113E+03,   998.113E+03
C:/temp/Job-7.odb,Step-1,Increment      1: Step Time =    1.000,"P-7-1",           301,   178.521E-03,   95.0855E-03,            0.,NA,NA,"",   965.910E+03,   982.240E+03,   982.240E+03
C:/temp/Job-7.odb,Step-1,Increment      1: Step Time =    1.000,"P-7-1",           302,   179.075E-03,   87.1817E-03,            0.,NA,NA,"",   971.644E+03,   986.257E+03,   986.257E+03
C:/temp/Job-7.odb,Step-1,Increment      1: Step Time =    1.000,"P-7-1",           303,   22.7083E-03,   103.953E-03,            0.,NA,NA,"",   813.673E+03,   898.188E+03,   898.188E+03
C:/temp/Job-7.odb,Step-1,Increment      1: Step Time =    1.000,"P-7-1",           304,   95.5786E-03,   177.336E-03,            0.,NA,NA,"",   986.780E+03,   995.034E+03,   995.034E+03
C:/temp/Job-7.odb,Step-1,Increment      1: Step Time =    1.000,"P-7-1",           305,   116.980E-03,   22.9883E-03,            0.,NA,NA,"",   994.524E+03,   998.100E+03,   998.100E+03
C:/temp/Job-7.odb,Step-1,Increment      1: Step Time =    1.000,"P-7-1",           306,   87.2056E-03,   177.983E-03,            0.,NA,NA,"",   991.631E+03,   998.305E+03,   998.305E+03
C:/temp/Job-7.odb,Step-1,Increment      1: Step Time =    1.000,"P-7-1",           307,   21.6929E-03,   79.0097E-03,            0.,NA,NA,"",   840.820E+03,   923.532E+03,   923.532E+03
C:/temp/Job-7.odb,Step-1,Increment      1: Step Time =    1.000,"P-7-1",           308,   20.8385E-03,   71.1482E-03,            0.,NA,NA,"",   861.116E+03,   942.351E+03,   942.351E+03
C:/temp/Job-7.odb,Step-1,Increment      1: Step Time =    1.000,"P-7-1",           309,   22.3816E-03,   95.4316E-03,            0.,NA,NA,"",   813.389E+03,   898.251E+03,   898.251E+03
C:/temp/Job-7.odb,Step-1,Increment      1: Step Time =    1.000,"P-7-1",           310,   22.4970E-03,   87.0689E-03,            0.,NA,NA,"",   823.742E+03,   907.597E+03,   907.597E+03
C:/temp/Job-7.odb,Step-1,Increment      1: Step Time =    1.000,"P-7-1",           311,   79.2318E-03,   178.752E-03,            0.,NA,NA,"",   999.092E+03,   1.00299E+06,   1.00299E+06
C:/temp/Job-7.odb,Step-1,Increment      1: Step Time =    1.000,"P-7-1",           312,   177.881E-03,   103.352E-03,            0.,NA,NA,"",   965.506E+03,   981.520E+03,   981.520E+03
C:/temp/Job-7.odb,Step-1,Increment      1: Step Time =    1.000,"P-7-1",           313,   179.370E-03,   119.716E-03,            0.,NA,NA,"",   980.423E+03,   992.613E+03,   992.613E+03
C:/temp/Job-7.odb,Step-1,Increment      1: Step Time =    1.000,"P-7-1",           314,   178.527E-03,   111.758E-03,            0.,NA,NA,"",   971.602E+03,   986.122E+03,   986.122E+03
C:/temp/Job-7.odb,Step-1,Increment      1: Step Time =    1.000,"P-7-1",           315,   179.692E-03,   127.202E-03,            0.,NA,NA,"",   989.369E+03,   998.264E+03,   998.264E+03
C:/temp/Job-7.odb,Step-1,Increment      1: Step Time =    1.000,"P-7-1",           316,   71.7053E-03,   179.461E-03,            0.,NA,NA,"",   1.00665E+06,   1.00877E+06,   1.00877E+06
C:/temp/Job-7.odb,Step-1,Increment      1: Step Time =    1.000,"P-7-1",           317,   124.978E-03,   22.8319E-03,            0.,NA,NA,"",   1.00288E+06,   1.00330E+06,   1.00330E+06
C:/temp/Job-7.odb,Step-1,Increment      1: Step Time =    1.000,"P-7-1",           318,   31.3454E-03,   23.0285E-03,            0.,NA,NA,"",   1.05468E+06,   1.07580E+06,   1.07580E+06
C:/temp/Job-7.odb,Step-1,Increment      1: Step Time =    1.000,"P-7-1",           319,   23.4667E-03,   167.890E-03,            0.,NA,NA,"",   1.00976E+06,   1.06131E+06,   1.06131E+06
C:/temp/Job-7.odb,Step-1,Increment      1: Step Time =    1.000,"P-7-1",           320,   167.689E-03,   176.366E-03,            0.,NA,NA,"",   1.00933E+06,   1.00682E+06,   1.00682E+06
C:/temp/Job-7.odb,Step-1,Increment      1: Step Time =    1.000,"P-7-1",           321,   177.000E-03,   32.4457E-03,            0.,NA,NA,"",   1.00839E+06,   1.00694E+06,   1.00694E+06
C:/temp/Job-7.odb,Step-1,Increment      1: Step Time =    1.000,"P-7-1",           322,   20.5440E-03,   63.4416E-03,            0.,NA,NA,"",   884.698E+03,   963.500E+03,   963.500E+03
C:/temp/Job-7.odb,Step-1,Increment      1: Step Time =    1.000,"P-7-1",           323,   39.0225E-03,   22.2154E-03,            0.,NA,NA,"",   1.04559E+06,   1.05796E+06,   1.05796E+06
C:/temp/Job-7.odb,Step-1,Increment      1: Step Time =    1.000,"P-7-1",           324,   22.8452E-03,   159.959E-03,            0.,NA,NA,"",   975.312E+03,   1.03631E+06,   1.03631E+06
C:/temp/Job-7.odb,Step-1,Increment      1: Step Time =    1.000,"P-7-1",           325,   159.649E-03,   176.926E-03,            0.,NA,NA,"",   1.01173E+06,   1.00821E+06,   1.00821E+06
C:/temp/Job-7.odb,Step-1,Increment      1: Step Time =    1.000,"P-7-1",           326,   177.671E-03,   40.4466E-03,            0.,NA,NA,"",   1.01019E+06,   1.00901E+06,   1.00901E+06
C:/temp/Job-7.odb,Step-1,Increment      1: Step Time =    1.000,"P-7-1",           327,   160.142E-03,   24.7103E-03,            0.,NA,NA,"",   1.01266E+06,   1.00887E+06,   1.00887E+06
C:/temp/Job-7.odb,Step-1,Increment      1: Step Time =    1.000,"P-7-1",           328,   178.516E-03,   134.138E-03,            0.,NA,NA,"",   998.753E+03,   1.00376E+06,   1.00376E+06
C:/temp/Job-7.odb,Step-1,Increment      1: Step Time =    1.000,"P-7-1",           329,   46.5322E-03,   21.3533E-03,            0.,NA,NA,"",   1.03714E+06,   1.04327E+06,   1.04327E+06
C:/temp/Job-7.odb,Step-1,Increment      1: Step Time =    1.000,"P-7-1",           330,   64.2353E-03,   179.664E-03,            0.,NA,NA,"",   1.01585E+06,   1.01716E+06,   1.01716E+06
C:/temp/Job-7.odb,Step-1,Increment      1: Step Time =    1.000,"P-7-1",           331,   22.0874E-03,   152.100E-03,            0.,NA,NA,"",   943.258E+03,   1.01154E+06,   1.01154E+06
C:/temp/Job-7.odb,Step-1,Increment      1: Step Time =    1.000,"P-7-1",           332,   151.596E-03,   177.552E-03,            0.,NA,NA,"",   1.01281E+06,   1.00875E+06,   1.00875E+06
C:/temp/Job-7.odb,Step-1,Increment      1: Step Time =    1.000,"P-7-1",           333,   133.154E-03,   22.8171E-03,            0.,NA,NA,"",   1.00987E+06,   1.00741E+06,   1.00741E+06
C:/temp/Job-7.odb,Step-1,Increment      1: Step Time =    1.000,"P-7-1",           334,   178.263E-03,   48.3749E-03,            0.,NA,NA,"",   1.01044E+06,   1.01005E+06,   1.01005E+06
C:/temp/Job-7.odb,Step-1,Increment      1: Step Time =    1.000,"P-7-1",           335,   53.9830E-03,   20.8104E-03,            0.,NA,NA,"",   1.02786E+06,   1.03079E+06,   1.03079E+06
C:/temp/Job-7.odb,Step-1,Increment      1: Step Time =    1.000,"P-7-1",           336,   143.749E-03,   178.128E-03,            0.,NA,NA,"",   1.01142E+06,   1.00749E+06,   1.00749E+06
C:/temp/Job-7.odb,Step-1,Increment      1: Step Time =    1.000,"P-7-1",           337,   21.6216E-03,   144.355E-03,            0.,NA,NA,"",   915.391E+03,   988.546E+03,   988.546E+03
C:/temp/Job-7.odb,Step-1,Increment      1: Step Time =    1.000,"P-7-1",           338,   178.379E-03,   56.3669E-03,            0.,NA,NA,"",   1.00858E+06,   1.00962E+06,   1.00962E+06
C:/temp/Job-7.odb,Step-1,Increment      1: Step Time =    1.000,"P-7-1",           339,   76.0284E-03,   22.3828E-03,            0.,NA,NA,"",   1.00683E+06,   1.00979E+06,   1.00979E+06
C:/temp/Job-7.odb,Step-1,Increment      1: Step Time =    1.000,"P-7-1",           340,   56.6807E-03,   178.916E-03,            0.,NA,NA,"",   1.02545E+06,   1.02776E+06,   1.02776E+06
C:/temp/Job-7.odb,Step-1,Increment      1: Step Time =    1.000,"P-7-1",           341,   21.1006E-03,   55.8959E-03,            0.,NA,NA,"",   910.942E+03,   985.748E+03,   985.748E+03
C:/temp/Job-7.odb,Step-1,Increment      1: Step Time =    1.000,"P-7-1",           342,   23.0356E-03,   120.270E-03,            0.,NA,NA,"",   844.168E+03,   925.239E+03,   925.239E+03
C:/temp/Job-7.odb,Step-1,Increment      1: Step Time =    1.000,"P-7-1",           343,   142.450E-03,   24.1834E-03,            0.,NA,NA,"",   1.01623E+06,   1.01189E+06,   1.01189E+06
C:/temp/Job-7.odb,Step-1,Increment      1: Step Time =    1.000,"P-7-1",           344,   178.879E-03,   79.6221E-03,            0.,NA,NA,"",   982.175E+03,   993.091E+03,   993.091E+03
C:/temp/Job-7.odb,Step-1,Increment      1: Step Time =    1.000,"P-7-1",           345,   177.666E-03,   141.885E-03,            0.,NA,NA,"",   1.00702E+06,   1.00848E+06,   1.00848E+06
C:/temp/Job-7.odb,Step-1,Increment      1: Step Time =    1.000,"P-7-1",           346,   120.326E-03,   177.789E-03,            0.,NA,NA,"",   998.445E+03,   1.00033E+06,   1.00033E+06
C:/temp/Job-7.odb,Step-1,Increment      1: Step Time =    1.000,"P-7-1",           347,   175.454E-03,   158.964E-03,            0.,NA,NA,"",   1.01282E+06,   1.01086E+06,   1.01086E+06
C:/temp/Job-7.odb,Step-1,Increment      1: Step Time =    1.000,"P-7-1",           348,   136.074E-03,   178.585E-03,            0.,NA,NA,"",   1.00820E+06,   1.00538E+06,   1.00538E+06
C:/temp/Job-7.odb,Step-1,Increment      1: Step Time =    1.000,"P-7-1",           349,   151.810E-03,   23.8471E-03,            0.,NA,NA,"",   1.01486E+06,   1.01028E+06,   1.01028E+06
C:/temp/Job-7.odb,Step-1,Increment      1: Step Time =    1.000,"P-7-1",           350,   61.2984E-03,   20.8878E-03,            0.,NA,NA,"",   1.02013E+06,   1.02160E+06,   1.02160E+06
C:/temp/Job-7.odb,Step-1,Increment      1: Step Time =    1.000,"P-7-1",           351,   178.082E-03,   64.2162E-03,            0.,NA,NA,"",   1.00236E+06,   1.00599E+06,   1.00599E+06
C:/temp/Job-7.odb,Step-1,Increment      1: Step Time =    1.000,"P-7-1",           352,   21.9784E-03,   136.355E-03,            0.,NA,NA,"",   888.724E+03,   965.325E+03,   965.325E+03
C:/temp/Job-7.odb,Step-1,Increment      1: Step Time =    1.000,"P-7-1",           353,   176.562E-03,   150.365E-03,            0.,NA,NA,"",   1.01219E+06,   1.01127E+06,   1.01127E+06
C:/temp/Job-7.odb,Step-1,Increment      1: Step Time =    1.000,"P-7-1",           354,   48.9093E-03,   177.461E-03,            0.,NA,NA,"",   1.03603E+06,   1.04159E+06,   1.04159E+06
C:/temp/Job-7.odb,Step-1,Increment      1: Step Time =    1.000,"P-7-1",           355,   22.2622E-03,   48.0851E-03,            0.,NA,NA,"",   942.983E+03,   1.01101E+06,   1.01101E+06
C:/temp/Job-7.odb,Step-1,Increment      1: Step Time =    1.000,"P-7-1",           356,   128.255E-03,   178.550E-03,            0.,NA,NA,"",   1.00421E+06,   1.00309E+06,   1.00309E+06
C:/temp/Job-7.odb,Step-1,Increment      1: Step Time =    1.000,"P-7-1",           357,   68.6283E-03,   21.3739E-03,            0.,NA,NA,"",   1.01255E+06,   1.01443E+06,   1.01443E+06
C:/temp/Job-7.odb,Step-1,Increment      1: Step Time =    1.000,"P-7-1",           358,   178.554E-03,   72.0041E-03,            0.,NA,NA,"",   993.312E+03,   1.00024E+06,   1.00024E+06
C:/temp/Job-7.odb,Step-1,Increment      1: Step Time =    1.000,"P-7-1",           359,   22.7660E-03,   128.371E-03,            0.,NA,NA,"",   865.032E+03,   944.288E+03,   944.288E+03
C:/temp/Job-7.odb,Step-1,Increment      1: Step Time =    1.000,"P-7-1",           360,   32.0391E-03,   183.928E-03,            0.,NA,NA,"",   1.05653E+06,   1.06839E+06,   1.06839E+06
C:/temp/Job-7.odb,Step-1,Increment      1: Step Time =    1.000,"P-7-1",           361,   15.6247E-03,   31.8134E-03,            0.,NA,NA,"",   982.538E+03,   1.05394E+06,   1.05394E+06
C:/temp/Job-7.odb,Step-1,Increment      1: Step Time =    1.000,"P-7-1",           362,   23.7859E-03,   175.851E-03,            0.,NA,NA,"",   1.05306E+06,   1.09038E+06,   1.09038E+06
C:/temp/Job-7.odb,Step-1,Increment      1: Step Time =    1.000,"P-7-1",           363,   175.689E-03,   176.060E-03,            0.,NA,NA,"",   1.00603E+06,   1.00472E+06,   1.00472E+06
C:/temp/Job-7.odb,Step-1,Increment      1: Step Time =    1.000,"P-7-1",           364,   176.556E-03,   24.3479E-03,            0.,NA,NA,"",   1.00542E+06,   1.00425E+06,   1.00425E+06
C:/temp/Job-7.odb,Step-1,Increment      1: Step Time =    1.000,"P-7-1",           365,   32.2163E-03,   175.667E-03,            0.,NA,NA,"",   1.05147E+06,   1.07324E+06,   1.07324E+06
C:/temp/Job-7.odb,Step-1,Increment      1: Step Time =    1.000,"P-7-1",           366,   175.400E-03,   167.596E-03,            0.,NA,NA,"",   1.01008E+06,   1.00819E+06,   1.00819E+06
C:/temp/Job-7.odb,Step-1,Increment      1: Step Time =    1.000,"P-7-1",           367,   168.379E-03,   24.6818E-03,            0.,NA,NA,"",   1.00957E+06,   1.00699E+06,   1.00699E+06
C:/temp/Job-7.odb,Step-1,Increment      1: Step Time =    1.000,"P-7-1",           368,   23.5973E-03,   40.1127E-03,            0.,NA,NA,"",   977.782E+03,   1.03730E+06,   1.03730E+06
C:/temp/Job-7.odb,Step-1,Increment      1: Step Time =    1.000,"P-7-1",           369,   40.7609E-03,   175.943E-03,            0.,NA,NA,"",   1.04484E+06,   1.05683E+06,   1.05683E+06
C:/temp/Job-7.odb,Step-1,Increment      1: Step Time =    1.000,"P-7-1",           370,   23.5658E-03,   23.4896E-03,            0.,NA,NA,"",   1.05713E+06,   1.09318E+06,   1.09318E+06
C:/temp/Job-7.odb,Step-1,Increment      1: Step Time =    1.000,"P-7-1",           371,   121.097E-03,   170.489E-03,            0.,NA,NA,"",   1.01660E+06,   1.01827E+06,   1.01827E+06
C:/temp/Job-7.odb,Step-1,Increment      1: Step Time =    1.000,"P-7-1",           372,   30.8291E-03,   120.409E-03,            0.,NA,NA,"",    862.63E+03,   933.424E+03,   933.424E+03
C:/temp/Job-7.odb,Step-1,Increment      1: Step Time =    1.000,"P-7-1",           373,   80.5309E-03,   31.1330E-03,            0.,NA,NA,"",   1.02271E+06,   1.02998E+06,   1.02998E+06
C:/temp/Job-7.odb,Step-1,Increment      1: Step Time =    1.000,"P-7-1",           374,   171.482E-03,   79.9441E-03,            0.,NA,NA,"",   981.886E+03,   988.396E+03,   988.396E+03
C:/temp/Job-7.odb,Step-1,Increment      1: Step Time =    1.000,"P-7-1",           375,   31.1469E-03,   128.999E-03,            0.,NA,NA,"",   895.213E+03,   960.683E+03,   960.683E+03
C:/temp/Job-7.odb,Step-1,Increment      1: Step Time =    1.000,"P-7-1",           376,   73.7158E-03,   29.6497E-03,            0.,NA,NA,"",   1.02755E+06,   1.03163E+06,   1.03163E+06
C:/temp/Job-7.odb,Step-1,Increment      1: Step Time =    1.000,"P-7-1",           377,   171.505E-03,   72.5921E-03,            0.,NA,NA,"",   999.147E+03,   1.00130E+06,   1.00130E+06
C:/temp/Job-7.odb,Step-1,Increment      1: Step Time =    1.000,"P-7-1",           378,   128.420E-03,   172.109E-03,            0.,NA,NA,"",   1.02076E+06,   1.01868E+06,   1.01868E+06
C:/temp/Job-7.odb,Step-1,Increment      1: Step Time =    1.000,"P-7-1",           379,   27.6161E-03,   56.6915E-03,            0.,NA,NA,"",   932.774E+03,   996.524E+03,   996.524E+03
C:/temp/Job-7.odb,Step-1,Increment      1: Step Time =    1.000,"P-7-1",           380,   57.8890E-03,   172.914E-03,            0.,NA,NA,"",   1.03732E+06,   1.04054E+06,   1.04054E+06
C:/temp/Job-7.odb,Step-1,Increment      1: Step Time =    1.000,"P-7-1",           381,   26.5401E-03,   63.3383E-03,            0.,NA,NA,"",   908.205E+03,   976.667E+03,   976.667E+03
C:/temp/Job-7.odb,Step-1,Increment      1: Step Time =    1.000,"P-7-1",           382,   170.288E-03,   131.525E-03,            0.,NA,NA,"",   1.00364E+06,   1.00375E+06,   1.00375E+06
C:/temp/Job-7.odb,Step-1,Increment      1: Step Time =    1.000,"P-7-1",           383,   170.685E-03,   140.423E-03,            0.,NA,NA,"",   1.01765E+06,   1.01416E+06,   1.01416E+06
C:/temp/Job-7.odb,Step-1,Increment      1: Step Time =    1.000,"P-7-1",           384,   64.4752E-03,   174.074E-03,            0.,NA,NA,"",   1.02995E+06,   1.03217E+06,   1.03217E+06
C:/temp/Job-7.odb,Step-1,Increment      1: Step Time =    1.000,"P-7-1",           385,   174.490E-03,   126.513E-03,            0.,NA,NA,"",   991.377E+03,   997.178E+03,   997.178E+03
C:/temp/Job-7.odb,Step-1,Increment      1: Step Time =    1.000,"P-7-1",           386,   27.1783E-03,   70.3295E-03,            0.,NA,NA,"",   884.283E+03,   955.746E+03,   955.746E+03
C:/temp/Job-7.odb,Step-1,Increment      1: Step Time =    1.000,"P-7-1",           387,   131.684E-03,   29.5989E-03,            0.,NA,NA,"",   1.02447E+06,   1.02119E+06,   1.02119E+06
C:/temp/Job-7.odb,Step-1,Increment      1: Step Time =    1.000,"P-7-1",           388,   71.0747E-03,   173.269E-03,            0.,NA,NA,"",   1.02479E+06,   1.02786E+06,   1.02786E+06
C:/temp/Job-7.odb,Step-1,Increment      1: Step Time =    1.000,"P-7-1",           389,   171.390E-03,   94.2261E-03,            0.,NA,NA,"",   958.702E+03,   971.116E+03,   971.116E+03
C:/temp/Job-7.odb,Step-1,Increment      1: Step Time =    1.000,"P-7-1",           390,   124.326E-03,   30.2656E-03,            0.,NA,NA,"",   1.02061E+06,   1.02105E+06,   1.02105E+06
C:/temp/Job-7.odb,Step-1,Increment      1: Step Time =    1.000,"P-7-1",           391,   172.649E-03,   86.9125E-03,            0.,NA,NA,"",   969.066E+03,   979.979E+03,   979.979E+03
C:/temp/Job-7.odb,Step-1,Increment      1: Step Time =    1.000,"P-7-1",           392,   112.314E-03,   167.905E-03,            0.,NA,NA,"",   1.01094E+06,   1.02017E+06,   1.02017E+06
C:/temp/Job-7.odb,Step-1,Increment      1: Step Time =    1.000,"P-7-1",           393,   115.650E-03,   31.4032E-03,            0.,NA,NA,"",   1.01304E+06,   1.02009E+06,   1.02009E+06
C:/temp/Job-7.odb,Step-1,Increment      1: Step Time =    1.000,"P-7-1",           394,   32.1984E-03,   112.177E-03,            0.,NA,NA,"",   839.115E+03,   912.000E+03,   912.000E+03
C:/temp/Job-7.odb,Step-1,Increment      1: Step Time =    1.000,"P-7-1",           395,   29.8252E-03,   103.349E-03,            0.,NA,NA,"",   820.616E+03,   898.505E+03,   898.505E+03
C:/temp/Job-7.odb,Step-1,Increment      1: Step Time =    1.000,"P-7-1",           396,   78.1253E-03,   171.784E-03,            0.,NA,NA,"",   1.01899E+06,   1.02455E+06,   1.02455E+06
C:/temp/Job-7.odb,Step-1,Increment      1: Step Time =    1.000,"P-7-1",           397,   95.2311E-03,   169.097E-03,            0.,NA,NA,"",   1.00149E+06,   1.01670E+06,   1.01670E+06
C:/temp/Job-7.odb,Step-1,Increment      1: Step Time =    1.000,"P-7-1",           398,   103.456E-03,   169.969E-03,            0.,NA,NA,"",   1.00065E+06,   1.01375E+06,   1.01375E+06
C:/temp/Job-7.odb,Step-1,Increment      1: Step Time =    1.000,"P-7-1",           399,   86.1318E-03,   170.835E-03,            0.,NA,NA,"",   1.01025E+06,   1.02008E+06,   1.02008E+06
C:/temp/Job-7.odb,Step-1,Increment      1: Step Time =    1.000,"P-7-1",           400,   86.8343E-03,   33.8980E-03,            0.,NA,NA,"",   1.02012E+06,   1.03241E+06,   1.03241E+06
C:/temp/Job-7.odb,Step-1,Increment      1: Step Time =    1.000,"P-7-1",           401,   106.262E-03,   29.1705E-03,            0.,NA,NA,"",   1.00428E+06,   1.01447E+06,   1.01447E+06
C:/temp/Job-7.odb,Step-1,Increment      1: Step Time =    1.000,"P-7-1",           402,   97.5850E-03,   33.7406E-03,            0.,NA,NA,"",   1.00355E+06,   1.02081E+06,   1.02081E+06
C:/temp/Job-7.odb,Step-1,Increment      1: Step Time =    1.000,"P-7-1",           403,   29.0835E-03,   95.3359E-03,            0.,NA,NA,"",   821.353E+03,   899.609E+03,   899.609E+03
C:/temp/Job-7.odb,Step-1,Increment      1: Step Time =    1.000,"P-7-1",           404,   28.7859E-03,   77.7716E-03,            0.,NA,NA,"",   863.378E+03,   936.131E+03,   936.131E+03
C:/temp/Job-7.odb,Step-1,Increment      1: Step Time =    1.000,"P-7-1",           405,   31.1589E-03,   86.4642E-03,            0.,NA,NA,"",   840.472E+03,   913.844E+03,   913.844E+03
C:/temp/Job-7.odb,Step-1,Increment      1: Step Time =    1.000,"P-7-1",           406,   169.133E-03,   103.206E-03,            0.,NA,NA,"",   953.939E+03,   965.683E+03,   965.683E+03
C:/temp/Job-7.odb,Step-1,Increment      1: Step Time =    1.000,"P-7-1",           407,   171.578E-03,   112.675E-03,            0.,NA,NA,"",    969.34E+03,   979.314E+03,   979.314E+03
C:/temp/Job-7.odb,Step-1,Increment      1: Step Time =    1.000,"P-7-1",           408,   173.022E-03,   120.491E-03,            0.,NA,NA,"",   983.697E+03,   990.901E+03,   990.901E+03
C:/temp/Job-7.odb,Step-1,Increment      1: Step Time =    1.000,"P-7-1",           409,   158.923E-03,   168.987E-03,            0.,NA,NA,"",   1.02252E+06,   1.01661E+06,   1.01661E+06
C:/temp/Job-7.odb,Step-1,Increment      1: Step Time =    1.000,"P-7-1",           410,   170.157E-03,   41.1811E-03,            0.,NA,NA,"",   1.01897E+06,   1.01486E+06,   1.01486E+06
C:/temp/Job-7.odb,Step-1,Increment      1: Step Time =    1.000,"P-7-1",           411,   47.0387E-03,   28.1195E-03,            0.,NA,NA,"",   1.04328E+06,   1.05278E+06,   1.05278E+06
C:/temp/Job-7.odb,Step-1,Increment      1: Step Time =    1.000,"P-7-1",           412,   39.7997E-03,   29.8560E-03,            0.,NA,NA,"",   1.04156E+06,   1.06002E+06,   1.06002E+06
C:/temp/Job-7.odb,Step-1,Increment      1: Step Time =    1.000,"P-7-1",           413,   30.8481E-03,   159.227E-03,            0.,NA,NA,"",   999.487E+03,   1.04399E+06,   1.04399E+06
C:/temp/Job-7.odb,Step-1,Increment      1: Step Time =    1.000,"P-7-1",           414,   32.1419E-03,   167.404E-03,            0.,NA,NA,"",   1.02959E+06,   1.06283E+06,   1.06283E+06
C:/temp/Job-7.odb,Step-1,Increment      1: Step Time =    1.000,"P-7-1",           415,   167.118E-03,   167.747E-03,            0.,NA,NA,"",   1.01656E+06,   1.01253E+06,   1.01253E+06
C:/temp/Job-7.odb,Step-1,Increment      1: Step Time =    1.000,"P-7-1",           416,   168.729E-03,   33.0924E-03,            0.,NA,NA,"",   1.01568E+06,   1.01204E+06,   1.01204E+06
C:/temp/Job-7.odb,Step-1,Increment      1: Step Time =    1.000,"P-7-1",           417,   150.755E-03,   169.915E-03,            0.,NA,NA,"",   1.02584E+06,   1.01912E+06,   1.01912E+06
C:/temp/Job-7.odb,Step-1,Increment      1: Step Time =    1.000,"P-7-1",           418,   171.421E-03,   48.7442E-03,            0.,NA,NA,"",   1.01924E+06,   1.01556E+06,   1.01556E+06
C:/temp/Job-7.odb,Step-1,Increment      1: Step Time =    1.000,"P-7-1",           419,   53.8917E-03,   27.0920E-03,            0.,NA,NA,"",   1.04055E+06,   1.04500E+06,   1.04500E+06
C:/temp/Job-7.odb,Step-1,Increment      1: Step Time =    1.000,"P-7-1",           420,   29.3551E-03,   151.385E-03,            0.,NA,NA,"",   969.467E+03,   1.02351E+06,   1.02351E+06
C:/temp/Job-7.odb,Step-1,Increment      1: Step Time =    1.000,"P-7-1",           421,   169.195E-03,   148.762E-03,            0.,NA,NA,"",   1.02263E+06,   1.01774E+06,   1.01774E+06
C:/temp/Job-7.odb,Step-1,Increment      1: Step Time =    1.000,"P-7-1",           422,   145.453E-03,   29.6372E-03,            0.,NA,NA,"",   1.02586E+06,   1.01958E+06,   1.01958E+06
C:/temp/Job-7.odb,Step-1,Increment      1: Step Time =    1.000,"P-7-1",           423,   142.908E-03,   170.641E-03,            0.,NA,NA,"",   1.02631E+06,   1.02023E+06,   1.02023E+06
C:/temp/Job-7.odb,Step-1,Increment      1: Step Time =    1.000,"P-7-1",           424,   171.685E-03,   56.1751E-03,            0.,NA,NA,"",   1.01985E+06,   1.01636E+06,   1.01636E+06
C:/temp/Job-7.odb,Step-1,Increment      1: Step Time =    1.000,"P-7-1",           425,   60.4146E-03,   27.5836E-03,            0.,NA,NA,"",   1.03631E+06,   1.03900E+06,   1.03900E+06
C:/temp/Job-7.odb,Step-1,Increment      1: Step Time =    1.000,"P-7-1",           426,   28.0833E-03,   144.404E-03,            0.,NA,NA,"",   940.655E+03,   1.00190E+06,   1.00190E+06
C:/temp/Job-7.odb,Step-1,Increment      1: Step Time =    1.000,"P-7-1",           427,   67.1693E-03,   28.0554E-03,            0.,NA,NA,"",   1.03270E+06,   1.03513E+06,   1.03513E+06
C:/temp/Job-7.odb,Step-1,Increment      1: Step Time =    1.000,"P-7-1",           428,   28.7879E-03,   137.039E-03,            0.,NA,NA,"",   916.856E+03,   981.234E+03,   981.234E+03
C:/temp/Job-7.odb,Step-1,Increment      1: Step Time =    1.000,"P-7-1",           429,   135.583E-03,   171.738E-03,            0.,NA,NA,"",   1.02438E+06,   1.01949E+06,   1.01949E+06
C:/temp/Job-7.odb,Step-1,Increment      1: Step Time =    1.000,"P-7-1",           430,   169.490E-03,   64.3312E-03,            0.,NA,NA,"",   1.01510E+06,   1.01188E+06,   1.01188E+06
C:/temp/Job-7.odb,Step-1,Increment      1: Step Time =    1.000,"P-7-1",           431,   23.7678E-03,   31.8184E-03,            0.,NA,NA,"",   1.01230E+06,   1.06247E+06,   1.06247E+06
C:/temp/Job-7.odb,Step-1,Increment      1: Step Time =    1.000,"P-7-1",           432,   151.232E-03,   30.8718E-03,            0.,NA,NA,"",   1.02725E+06,   1.02026E+06,   1.02026E+06
C:/temp/Job-7.odb,Step-1,Increment      1: Step Time =    1.000,"P-7-1",           433,   29.3218E-03,   49.4136E-03,            0.,NA,NA,"",   965.955E+03,   1.02089E+06,   1.02089E+06
C:/temp/Job-7.odb,Step-1,Increment      1: Step Time =    1.000,"P-7-1",           434,   50.8115E-03,   170.532E-03,            0.,NA,NA,"",   1.04333E+06,   1.05104E+06,   1.05104E+06
C:/temp/Job-7.odb,Step-1,Increment      1: Step Time =    1.000,"P-7-1",           435,   123.819E-03,   163.205E-03,            0.,NA,NA,"",   1.03666E+06,   1.03828E+06,   1.03828E+06
C:/temp/Job-7.odb,Step-1,Increment      1: Step Time =    1.000,"P-7-1",           436,   165.026E-03,   75.4196E-03,            0.,NA,NA,"",   994.341E+03,   993.038E+03,   993.038E+03
C:/temp/Job-7.odb,Step-1,Increment      1: Step Time =    1.000,"P-7-1",           437,   78.0342E-03,   37.7456E-03,            0.,NA,NA,"",   1.04341E+06,   1.05136E+06,   1.05136E+06
C:/temp/Job-7.odb,Step-1,Increment      1: Step Time =    1.000,"P-7-1",           438,   31.3632E-03,   63.5046E-03,            0.,NA,NA,"",   924.091E+03,   984.006E+03,   984.006E+03
C:/temp/Job-7.odb,Step-1,Increment      1: Step Time =    1.000,"P-7-1",           439,   165.135E-03,   139.974E-03,            0.,NA,NA,"",   1.02634E+06,   1.01913E+06,   1.01913E+06
C:/temp/Job-7.odb,Step-1,Increment      1: Step Time =    1.000,"P-7-1",           440,   60.3893E-03,   167.490E-03,            0.,NA,NA,"",   1.04543E+06,   1.04935E+06,   1.04935E+06
C:/temp/Job-7.odb,Step-1,Increment      1: Step Time =    1.000,"P-7-1",           441,   167.297E-03,   85.2235E-03,            0.,NA,NA,"",   969.471E+03,   976.282E+03,   976.282E+03
C:/temp/Job-7.odb,Step-1,Increment      1: Step Time =    1.000,"P-7-1",           442,   128.828E-03,   167.029E-03,            0.,NA,NA,"",   1.03079E+06,   1.02868E+06,   1.02868E+06
C:/temp/Job-7.odb,Step-1,Increment      1: Step Time =    1.000,"P-7-1",           443,   117.131E-03,   160.880E-03,            0.,NA,NA,"",   1.03402E+06,   1.04235E+06,   1.04235E+06
C:/temp/Job-7.odb,Step-1,Increment      1: Step Time =    1.000,"P-7-1",           444,   118.690E-03,   37.5396E-03,            0.,NA,NA,"",   1.03267E+06,   1.03765E+06,   1.03765E+06
C:/temp/Job-7.odb,Step-1,Increment      1: Step Time =    1.000,"P-7-1",           445,   70.5257E-03,   37.7959E-03,            0.,NA,NA,"",   1.04988E+06,   1.05473E+06,   1.05473E+06
C:/temp/Job-7.odb,Step-1,Increment      1: Step Time =    1.000,"P-7-1",           446,   110.742E-03,   38.6362E-03,            0.,NA,NA,"",   1.01976E+06,   1.03505E+06,   1.03505E+06
C:/temp/Job-7.odb,Step-1,Increment      1: Step Time =    1.000,"P-7-1",           447,   142.712E-03,   33.7554E-03,            0.,NA,NA,"",   1.03397E+06,   1.02636E+06,   1.02636E+06
C:/temp/Job-7.odb,Step-1,Increment      1: Step Time =    1.000,"P-7-1",           448,   162.636E-03,   68.6098E-03,            0.,NA,NA,"",   1.01511E+06,   1.00800E+06,   1.00800E+06
C:/temp/Job-7.odb,Step-1,Increment      1: Step Time =    1.000,"P-7-1",           449,   83.0254E-03,   38.2529E-03,            0.,NA,NA,"",   1.03341E+06,   1.04563E+06,   1.04563E+06
C:/temp/Job-7.odb,Step-1,Increment      1: Step Time =    1.000,"P-7-1",           450,   36.9117E-03,   132.750E-03,            0.,NA,NA,"",   934.963E+03,   987.282E+03,   987.282E+03
C:/temp/Job-7.odb,Step-1,Increment      1: Step Time =    1.000,"P-7-1",           451,   164.682E-03,   91.5331E-03,            0.,NA,NA,"",   951.389E+03,   960.006E+03,   960.006E+03
C:/temp/Job-7.odb,Step-1,Increment      1: Step Time =    1.000,"P-7-1",           452,   33.2801E-03,   68.5179E-03,            0.,NA,NA,"",   913.873E+03,   973.923E+03,   973.923E+03
C:/temp/Job-7.odb,Step-1,Increment      1: Step Time =    1.000,"P-7-1",           453,   139.129E-03,   37.9610E-03,            0.,NA,NA,"",   1.04542E+06,   1.03611E+06,   1.03611E+06
C:/temp/Job-7.odb,Step-1,Increment      1: Step Time =    1.000,"P-7-1",           454,   39.4576E-03,   107.314E-03,            0.,NA,NA,"",   833.578E+03,   899.020E+03,   899.020E+03
C:/temp/Job-7.odb,Step-1,Increment      1: Step Time =    1.000,"P-7-1",           455,   136.364E-03,   34.7224E-03,            0.,NA,NA,"",   1.03696E+06,   1.03038E+06,   1.03038E+06
C:/temp/Job-7.odb,Step-1,Increment      1: Step Time =    1.000,"P-7-1",           456,   69.1532E-03,   167.438E-03,            0.,NA,NA,"",   1.04060E+06,   1.04414E+06,   1.04414E+06
C:/temp/Job-7.odb,Step-1,Increment      1: Step Time =    1.000,"P-7-1",           457,   83.9194E-03,   159.217E-03,            0.,NA,NA,"",   1.03733E+06,   1.05196E+06,   1.05196E+06
C:/temp/Job-7.odb,Step-1,Increment      1: Step Time =    1.000,"P-7-1",           458,   91.4814E-03,   161.954E-03,            0.,NA,NA,"",   1.01618E+06,   1.03513E+06,   1.03513E+06
C:/temp/Job-7.odb,Step-1,Increment      1: Step Time =    1.000,"P-7-1",           459,   167.011E-03,   122.723E-03,            0.,NA,NA,"",   988.354E+03,   990.409E+03,   990.409E+03
C:/temp/Job-7.odb,Step-1,Increment      1: Step Time =    1.000,"P-7-1",           460,   131.709E-03,   35.7984E-03,            0.,NA,NA,"",   1.04054E+06,   1.03501E+06,   1.03501E+06
C:/temp/Job-7.odb,Step-1,Increment      1: Step Time =    1.000,"P-7-1",           461,   35.6359E-03,   74.9661E-03,            0.,NA,NA,"",   894.715E+03,   954.677E+03,   954.677E+03
C:/temp/Job-7.odb,Step-1,Increment      1: Step Time =    1.000,"P-7-1",           462,   76.0134E-03,   163.901E-03,            0.,NA,NA,"",   1.04051E+06,   1.04722E+06,   1.04722E+06
C:/temp/Job-7.odb,Step-1,Increment      1: Step Time =    1.000,"P-7-1",           463,   107.146E-03,   160.404E-03,            0.,NA,NA,"",   1.01726E+06,   1.03639E+06,   1.03639E+06
C:/temp/Job-7.odb,Step-1,Increment      1: Step Time =    1.000,"P-7-1",           464,   161.578E-03,   97.9150E-03,            0.,NA,NA,"",   935.615E+03,   945.481E+03,   945.481E+03
C:/temp/Job-7.odb,Step-1,Increment      1: Step Time =    1.000,"P-7-1",           465,   101.040E-03,   164.056E-03,            0.,NA,NA,"",   1.00605E+06,   1.02616E+06,   1.02616E+06
C:/temp/Job-7.odb,Step-1,Increment      1: Step Time =    1.000,"P-7-1",           466,   36.1937E-03,   101.161E-03,            0.,NA,NA,"",   824.108E+03,   894.927E+03,   894.927E+03
C:/temp/Job-7.odb,Step-1,Increment      1: Step Time =    1.000,"P-7-1",           467,   162.519E-03,   145.546E-03,            0.,NA,NA,"",   1.03512E+06,   1.02546E+06,   1.02546E+06
C:/temp/Job-7.odb,Step-1,Increment      1: Step Time =    1.000,"P-7-1",           468,   91.1286E-03,   40.0983E-03,            0.,NA,NA,"",   1.02345E+06,   1.04275E+06,   1.04275E+06
C:/temp/Job-7.odb,Step-1,Increment      1: Step Time =    1.000,"P-7-1",           469,   106.385E-03,   35.8639E-03,            0.,NA,NA,"",   1.01156E+06,   1.02783E+06,   1.02783E+06
C:/temp/Job-7.odb,Step-1,Increment      1: Step Time =    1.000,"P-7-1",           470,   37.5594E-03,   91.6601E-03,            0.,NA,NA,"",   832.472E+03,   900.321E+03,   900.321E+03
C:/temp/Job-7.odb,Step-1,Increment      1: Step Time =    1.000,"P-7-1",           471,   38.7683E-03,   81.5325E-03,            0.,NA,NA,"",   872.819E+03,   932.389E+03,   932.389E+03
C:/temp/Job-7.odb,Step-1,Increment      1: Step Time =    1.000,"P-7-1",           472,   165.261E-03,   114.924E-03,            0.,NA,NA,"",   968.491E+03,   973.814E+03,   973.814E+03
C:/temp/Job-7.odb,Step-1,Increment      1: Step Time =    1.000,"P-7-1",           473,   162.523E-03,   107.974E-03,            0.,NA,NA,"",   947.549E+03,   955.099E+03,   955.099E+03
C:/temp/Job-7.odb,Step-1,Increment      1: Step Time =    1.000,"P-7-1",           474,   166.014E-03,   157.882E-03,            0.,NA,NA,"",   1.02509E+06,   1.01898E+06,   1.01898E+06
C:/temp/Job-7.odb,Step-1,Increment      1: Step Time =    1.000,"P-7-1",           475,   48.8037E-03,   34.4718E-03,            0.,NA,NA,"",   1.04530E+06,   1.05666E+06,   1.05666E+06
C:/temp/Job-7.odb,Step-1,Increment      1: Step Time =    1.000,"P-7-1",           476,   38.7505E-03,   157.656E-03,            0.,NA,NA,"",   1.01895E+06,   1.04986E+06,   1.04986E+06
C:/temp/Job-7.odb,Step-1,Increment      1: Step Time =    1.000,"P-7-1",           477,   59.1193E-03,   35.2713E-03,            0.,NA,NA,"",   1.04839E+06,   1.05380E+06,   1.05380E+06
C:/temp/Job-7.odb,Step-1,Increment      1: Step Time =    1.000,"P-7-1",           478,   159.368E-03,   34.3054E-03,            0.,NA,NA,"",   1.02587E+06,   1.01923E+06,   1.01923E+06
C:/temp/Job-7.odb,Step-1,Increment      1: Step Time =    1.000,"P-7-1",           479,   37.0114E-03,   148.913E-03,            0.,NA,NA,"",   990.029E+03,   1.03088E+06,   1.03088E+06
C:/temp/Job-7.odb,Step-1,Increment      1: Step Time =    1.000,"P-7-1",           480,   42.1820E-03,   166.565E-03,            0.,NA,NA,"",   1.03932E+06,   1.05794E+06,   1.05794E+06
C:/temp/Job-7.odb,Step-1,Increment      1: Step Time =    1.000,"P-7-1",           481,   65.7622E-03,   33.6950E-03,            0.,NA,NA,"",   1.04647E+06,   1.05003E+06,   1.05003E+06
C:/temp/Job-7.odb,Step-1,Increment      1: Step Time =    1.000,"P-7-1",           482,   40.1723E-03,   141.185E-03,            0.,NA,NA,"",   979.926E+03,   1.01930E+06,   1.01930E+06
C:/temp/Job-7.odb,Step-1,Increment      1: Step Time =    1.000,"P-7-1",           483,   41.9070E-03,   37.3506E-03,            0.,NA,NA,"",   1.03631E+06,   1.05770E+06,   1.05770E+06
C:/temp/Job-7.odb,Step-1,Increment      1: Step Time =    1.000,"P-7-1",           484,   162.816E-03,   42.9612E-03,            0.,NA,NA,"",   1.03009E+06,   1.02250E+06,   1.02250E+06
C:/temp/Job-7.odb,Step-1,Increment      1: Step Time =    1.000,"P-7-1",           485,   164.973E-03,   49.8985E-03,            0.,NA,NA,"",   1.02901E+06,   1.02179E+06,   1.02179E+06
C:/temp/Job-7.odb,Step-1,Increment      1: Step Time =    1.000,"P-7-1",           486,   162.987E-03,   59.0455E-03,            0.,NA,NA,"",   1.03320E+06,   1.02348E+06,   1.02348E+06
C:/temp/Job-7.odb,Step-1,Increment      1: Step Time =    1.000,"P-7-1",           487,   147.657E-03,   37.0388E-03,            0.,NA,NA,"",   1.03835E+06,   1.02938E+06,   1.02938E+06
C:/temp/Job-7.odb,Step-1,Increment      1: Step Time =    1.000,"P-7-1",           488,   157.533E-03,   161.527E-03,            0.,NA,NA,"",   1.03436E+06,   1.02566E+06,   1.02566E+06
C:/temp/Job-7.odb,Step-1,Increment      1: Step Time =    1.000,"P-7-1",           489,   149.766E-03,   162.457E-03,            0.,NA,NA,"",   1.04074E+06,   1.03055E+06,   1.03055E+06
C:/temp/Job-7.odb,Step-1,Increment      1: Step Time =    1.000,"P-7-1",           490,   31.9785E-03,   31.4733E-03,            0.,NA,NA,"",   1.03342E+06,   1.06491E+06,   1.06491E+06
C:/temp/Job-7.odb,Step-1,Increment      1: Step Time =    1.000,"P-7-1",           491,   159.238E-03,   151.686E-03,            0.,NA,NA,"",   1.04068E+06,   1.02937E+06,   1.02937E+06
C:/temp/Job-7.odb,Step-1,Increment      1: Step Time =    1.000,"P-7-1",           492,   33.2812E-03,   41.1867E-03,            0.,NA,NA,"",   1.00639E+06,   1.04655E+06,   1.04655E+06
C:/temp/Job-7.odb,Step-1,Increment      1: Step Time =    1.000,"P-7-1",           493,   34.6014E-03,   52.0486E-03,            0.,NA,NA,"",   976.926E+03,   1.02213E+06,   1.02213E+06
C:/temp/Job-7.odb,Step-1,Increment      1: Step Time =    1.000,"P-7-1",           494,   54.7756E-03,   164.488E-03,            0.,NA,NA,"",   1.04778E+06,   1.05582E+06,   1.05582E+06
C:/temp/Job-7.odb,Step-1,Increment      1: Step Time =    1.000,"P-7-1",           495,   121.350E-03,   156.917E-03,            0.,NA,NA,"",   1.05364E+06,   1.05685E+06,   1.05685E+06
C:/temp/Job-7.odb,Step-1,Increment      1: Step Time =    1.000,"P-7-1",           496,   161.462E-03,   81.7849E-03,            0.,NA,NA,"",   978.341E+03,   978.671E+03,   978.671E+03
C:/temp/Job-7.odb,Step-1,Increment      1: Step Time =    1.000,"P-7-1",           497,   38.8266E-03,   118.956E-03,            0.,NA,NA,"",   875.719E+03,   934.931E+03,   934.931E+03
C:/temp/Job-7.odb,Step-1,Increment      1: Step Time =    1.000,"P-7-1",           498,   130.201E-03,   159.503E-03,            0.,NA,NA,"",   1.05433E+06,   1.04756E+06,   1.04756E+06
C:/temp/Job-7.odb,Step-1,Increment      1: Step Time =    1.000,"P-7-1",           499,   78.4684E-03,   44.2269E-03,            0.,NA,NA,"",   1.05561E+06,   1.06542E+06,   1.06542E+06
C:/temp/Job-7.odb,Step-1,Increment      1: Step Time =    1.000,"P-7-1",           500,   161.298E-03,   133.514E-03,            0.,NA,NA,"",   1.02304E+06,   1.01399E+06,   1.01399E+06
C:/temp/Job-7.odb,Step-1,Increment      1: Step Time =    1.000,"P-7-1",           501,   158.180E-03,   87.9107E-03,            0.,NA,NA,"",   948.538E+03,   952.599E+03,   952.599E+03
C:/temp/Job-7.odb,Step-1,Increment      1: Step Time =    1.000,"P-7-1",           502,   160.402E-03,   124.177E-03,            0.,NA,NA,"",   996.113E+03,   991.650E+03,   991.650E+03
C:/temp/Job-7.odb,Step-1,Increment      1: Step Time =    1.000,"P-7-1",           503,   44.2957E-03,   112.527E-03,            0.,NA,NA,"",   852.461E+03,   908.209E+03,   908.209E+03
C:/temp/Job-7.odb,Step-1,Increment      1: Step Time =    1.000,"P-7-1",           504,   158.586E-03,   72.8407E-03,            0.,NA,NA,"",   1.01144E+06,   1.00219E+06,   1.00219E+06
C:/temp/Job-7.odb,Step-1,Increment      1: Step Time =    1.000,"P-7-1",           505,   112.392E-03,   155.643E-03,            0.,NA,NA,"",   1.03678E+06,   1.05166E+06,   1.05166E+06
C:/temp/Job-7.odb,Step-1,Increment      1: Step Time =    1.000,"P-7-1",           506,   38.2614E-03,   127.119E-03,            0.,NA,NA,"",   912.057E+03,   966.408E+03,   966.408E+03
C:/temp/Job-7.odb,Step-1,Increment      1: Step Time =    1.000,"P-7-1",           507,   115.129E-03,   42.7023E-03,            0.,NA,NA,"",   1.03597E+06,   1.04724E+06,   1.04724E+06
C:/temp/Job-7.odb,Step-1,Increment      1: Step Time =    1.000,"P-7-1",           508,   38.6756E-03,   65.2472E-03,            0.,NA,NA,"",   948.427E+03,   995.663E+03,   995.663E+03
C:/temp/Job-7.odb,Step-1,Increment      1: Step Time =    1.000,"P-7-1",           509,   124.900E-03,   38.6394E-03,            0.,NA,NA,"",   1.04546E+06,   1.04403E+06,   1.04403E+06
C:/temp/Job-7.odb,Step-1,Increment      1: Step Time =    1.000,"P-7-1",           510,   41.8092E-03,   71.4778E-03,            0.,NA,NA,"",   934.453E+03,   979.632E+03,   979.632E+03
C:/temp/Job-7.odb,Step-1,Increment      1: Step Time =    1.000,"P-7-1",           511,   64.7163E-03,   163.001E-03,            0.,NA,NA,"",   1.05152E+06,   1.05589E+06,   1.05589E+06
C:/temp/Job-7.odb,Step-1,Increment      1: Step Time =    1.000,"P-7-1",           512,   156.769E-03,   141.285E-03,            0.,NA,NA,"",   1.04843E+06,   1.03328E+06,   1.03328E+06
C:/temp/Job-7.odb,Step-1,Increment      1: Step Time =    1.000,"P-7-1",           513,   89.8129E-03,   46.5897E-03,            0.,NA,NA,"",   1.03743E+06,   1.06100E+06,   1.06100E+06
C:/temp/Job-7.odb,Step-1,Increment      1: Step Time =    1.000,"P-7-1",           514,   79.2425E-03,   156.886E-03,            0.,NA,NA,"",   1.05317E+06,   1.06376E+06,   1.06376E+06
C:/temp/Job-7.odb,Step-1,Increment      1: Step Time =    1.000,"P-7-1",           515,   106.107E-03,   44.5337E-03,            0.,NA,NA,"",   1.01909E+06,   1.04540E+06,   1.04540E+06
C:/temp/Job-7.odb,Step-1,Increment      1: Step Time =    1.000,"P-7-1",           516,   159.126E-03,   116.688E-03,            0.,NA,NA,"",   965.535E+03,   966.668E+03,   966.668E+03
C:/temp/Job-7.odb,Step-1,Increment      1: Step Time =    1.000,"P-7-1",           517,   142.819E-03,   43.1069E-03,            0.,NA,NA,"",   1.05601E+06,   1.04304E+06,   1.04304E+06
C:/temp/Job-7.odb,Step-1,Increment      1: Step Time =    1.000,"P-7-1",           518,   69.6622E-03,   158.469E-03,            0.,NA,NA,"",   1.05895E+06,   1.06380E+06,   1.06380E+06
C:/temp/Job-7.odb,Step-1,Increment      1: Step Time =    1.000,"P-7-1",           519,   154.926E-03,   93.7391E-03,            0.,NA,NA,"",   921.443E+03,   928.405E+03,   928.405E+03
C:/temp/Job-7.odb,Step-1,Increment      1: Step Time =    1.000,"P-7-1",           520,   45.2368E-03,   77.5374E-03,            0.,NA,NA,"",   915.143E+03,   958.692E+03,   958.692E+03
C:/temp/Job-7.odb,Step-1,Increment      1: Step Time =    1.000,"P-7-1",           521,   134.297E-03,   40.5803E-03,            0.,NA,NA,"",   1.05681E+06,   1.04748E+06,   1.04748E+06
C:/temp/Job-7.odb,Step-1,Increment      1: Step Time =    1.000,"P-7-1",           522,   88.1198E-03,   156.195E-03,            0.,NA,NA,"",   1.03558E+06,   1.05613E+06,   1.05613E+06
C:/temp/Job-7.odb,Step-1,Increment      1: Step Time =    1.000,"P-7-1",           523,   137.153E-03,   44.1394E-03,            0.,NA,NA,"",   1.06125E+06,   1.04972E+06,   1.04972E+06
C:/temp/Job-7.odb,Step-1,Increment      1: Step Time =    1.000,"P-7-1",           524,   45.4059E-03,   102.671E-03,            0.,NA,NA,"",   821.361E+03,   880.828E+03,   880.828E+03
C:/temp/Job-7.odb,Step-1,Increment      1: Step Time =    1.000,"P-7-1",           525,   135.464E-03,   156.244E-03,            0.,NA,NA,"",   1.06284E+06,   1.05185E+06,   1.05185E+06
C:/temp/Job-7.odb,Step-1,Increment      1: Step Time =    1.000,"P-7-1",           526,   97.1291E-03,   158.143E-03,            0.,NA,NA,"",   1.01256E+06,   1.03925E+06,   1.03925E+06
C:/temp/Job-7.odb,Step-1,Increment      1: Step Time =    1.000,"P-7-1",           527,   102.667E-03,   153.981E-03,            0.,NA,NA,"",   1.01691E+06,   1.04794E+06,   1.04794E+06
C:/temp/Job-7.odb,Step-1,Increment      1: Step Time =    1.000,"P-7-1",           528,   96.9485E-03,   45.0042E-03,            0.,NA,NA,"",   1.01509E+06,   1.04567E+06,   1.04567E+06
C:/temp/Job-7.odb,Step-1,Increment      1: Step Time =    1.000,"P-7-1",           529,   62.9376E-03,   41.8497E-03,            0.,NA,NA,"",   1.05991E+06,   1.06490E+06,   1.06490E+06
C:/temp/Job-7.odb,Step-1,Increment      1: Step Time =    1.000,"P-7-1",           530,   157.436E-03,   103.238E-03,            0.,NA,NA,"",   925.834E+03,   934.519E+03,   934.519E+03
C:/temp/Job-7.odb,Step-1,Increment      1: Step Time =    1.000,"P-7-1",           531,   42.6351E-03,   134.767E-03,            0.,NA,NA,"",   967.570E+03,   1.00639E+06,   1.00639E+06
C:/temp/Job-7.odb,Step-1,Increment      1: Step Time =    1.000,"P-7-1",           532,   157.647E-03,   63.4061E-03,            0.,NA,NA,"",   1.04043E+06,   1.02728E+06,   1.02728E+06
C:/temp/Job-7.odb,Step-1,Increment      1: Step Time =    1.000,"P-7-1",           533,   43.0396E-03,   87.3693E-03,            0.,NA,NA,"",   850.874E+03,   908.899E+03,   908.899E+03
C:/temp/Job-7.odb,Step-1,Increment      1: Step Time =    1.000,"P-7-1",           534,   41.7568E-03,   97.2374E-03,            0.,NA,NA,"",   824.293E+03,   888.110E+03,   888.110E+03
C:/temp/Job-7.odb,Step-1,Increment      1: Step Time =    1.000,"P-7-1",           535,   158.142E-03,   111.130E-03,            0.,NA,NA,"",   944.843E+03,   950.332E+03,   950.332E+03
C:/temp/Job-7.odb,Step-1,Increment      1: Step Time =    1.000,"P-7-1",           536,   148.321E-03,   44.7630E-03,            0.,NA,NA,"",   1.05627E+06,   1.04237E+06,   1.04237E+06
C:/temp/Job-7.odb,Step-1,Increment      1: Step Time =    1.000,"P-7-1",           537,   52.5394E-03,   39.9439E-03,            0.,NA,NA,"",   1.04983E+06,   1.06074E+06,   1.06074E+06
C:/temp/Job-7.odb,Step-1,Increment      1: Step Time =    1.000,"P-7-1",           538,   44.0403E-03,   149.014E-03,            0.,NA,NA,"",   1.01896E+06,   1.04560E+06,   1.04560E+06
C:/temp/Job-7.odb,Step-1,Increment      1: Step Time =    1.000,"P-7-1",           539,   45.6673E-03,   142.778E-03,            0.,NA,NA,"",   1.00923E+06,   1.03691E+06,   1.03691E+06
C:/temp/Job-7.odb,Step-1,Increment      1: Step Time =    1.000,"P-7-1",           540,   45.6046E-03,   155.145E-03,            0.,NA,NA,"",   1.03272E+06,   1.05383E+06,   1.05383E+06
C:/temp/Job-7.odb,Step-1,Increment      1: Step Time =    1.000,"P-7-1",           541,   46.1116E-03,   43.8208E-03,            0.,NA,NA,"",   1.03217E+06,   1.05296E+06,   1.05296E+06
C:/temp/Job-7.odb,Step-1,Increment      1: Step Time =    1.000,"P-7-1",           542,   158.869E-03,   53.0905E-03,            0.,NA,NA,"",   1.04352E+06,   1.03139E+06,   1.03139E+06
C:/temp/Job-7.odb,Step-1,Increment      1: Step Time =    1.000,"P-7-1",           543,   156.190E-03,   46.5958E-03,            0.,NA,NA,"",   1.04382E+06,   1.03212E+06,   1.03212E+06
C:/temp/Job-7.odb,Step-1,Increment      1: Step Time =    1.000,"P-7-1",           544,   143.413E-03,   156.634E-03,            0.,NA,NA,"",   1.05767E+06,   1.04471E+06,   1.04471E+06
C:/temp/Job-7.odb,Step-1,Increment      1: Step Time =    1.000,"P-7-1",           545,   149.221E-03,   154.540E-03,            0.,NA,NA,"",   1.05376E+06,   1.03997E+06,   1.03997E+06
C:/temp/Job-7.odb,Step-1,Increment      1: Step Time =    1.000,"P-7-1",           546,   49.2672E-03,   160.525E-03,            0.,NA,NA,"",   1.04302E+06,   1.05722E+06,   1.05722E+06
C:/temp/Job-7.odb,Step-1,Increment      1: Step Time =    1.000,"P-7-1",           547,   155.493E-03,   155.922E-03,            0.,NA,NA,"",   1.04166E+06,   1.03076E+06,   1.03076E+06
C:/temp/Job-7.odb,Step-1,Increment      1: Step Time =    1.000,"P-7-1",           548,   152.867E-03,   40.6759E-03,            0.,NA,NA,"",   1.04178E+06,   1.03132E+06,   1.03132E+06
C:/temp/Job-7.odb,Step-1,Increment      1: Step Time =    1.000,"P-7-1",           549,   41.0556E-03,   56.1215E-03,            0.,NA,NA,"",   996.028E+03,   1.03192E+06,   1.03192E+06
C:/temp/Job-7.odb,Step-1,Increment      1: Step Time =    1.000,"P-7-1",           550,   54.8721E-03,   155.704E-03,            0.,NA,NA,"",   1.05160E+06,   1.06186E+06,   1.06186E+06
C:/temp/Job-7.odb,Step-1,Increment      1: Step Time =    1.000,"P-7-1",           551,   40.0894E-03,   48.8272E-03,            0.,NA,NA,"",   1.00761E+06,   1.04140E+06,   1.04140E+06
C:/temp/Job-7.odb,Step-1,Increment      1: Step Time =    1.000,"P-7-1",           552,   117.408E-03,   151.340E-03,            0.,NA,NA,"",   1.06278E+06,   1.06936E+06,   1.06936E+06
C:/temp/Job-7.odb,Step-1,Increment      1: Step Time =    1.000,"P-7-1",           553,   126.465E-03,   153.684E-03,            0.,NA,NA,"",   1.06987E+06,   1.06434E+06,   1.06434E+06
C:/temp/Job-7.odb,Step-1,Increment      1: Step Time =    1.000,"P-7-1",           554,   151.761E-03,   84.2381E-03,            0.,NA,NA,"",   962.219E+03,   957.467E+03,   957.467E+03
C:/temp/Job-7.odb,Step-1,Increment      1: Step Time =    1.000,"P-7-1",           555,   50.5121E-03,   116.460E-03,            0.,NA,NA,"",   882.049E+03,   923.616E+03,   923.616E+03
C:/temp/Job-7.odb,Step-1,Increment      1: Step Time =    1.000,"P-7-1",           556,   155.240E-03,   78.4184E-03,            0.,NA,NA,"",   997.267E+03,   988.583E+03,   988.583E+03
C:/temp/Job-7.odb,Step-1,Increment      1: Step Time =    1.000,"P-7-1",           557,   153.449E-03,   131.316E-03,            0.,NA,NA,"",   1.03951E+06,   1.02177E+06,   1.02177E+06
C:/temp/Job-7.odb,Step-1,Increment      1: Step Time =    1.000,"P-7-1",           558,   47.0797E-03,   122.267E-03,            0.,NA,NA,"",   919.673E+03,   959.784E+03,   959.784E+03
C:/temp/Job-7.odb,Step-1,Increment      1: Step Time =    1.000,"P-7-1",           559,   72.4091E-03,   45.7700E-03,            0.,NA,NA,"",   1.06957E+06,   1.07442E+06,   1.07442E+06
C:/temp/Job-7.odb,Step-1,Increment      1: Step Time =    1.000,"P-7-1",           560,   80.2815E-03,   50.7366E-03,            0.,NA,NA,"",   1.07582E+06,   1.08657E+06,   1.08657E+06
C:/temp/Job-7.odb,Step-1,Increment      1: Step Time =    1.000,"P-7-1",           561,   148.265E-03,   90.0519E-03,            0.,NA,NA,"",   912.886E+03,   915.101E+03,   915.101E+03
C:/temp/Job-7.odb,Step-1,Increment      1: Step Time =    1.000,"P-7-1",           562,   120.171E-03,   46.1410E-03,            0.,NA,NA,"",   1.05883E+06,   1.06217E+06,   1.06217E+06
C:/temp/Job-7.odb,Step-1,Increment      1: Step Time =    1.000,"P-7-1",           563,   47.4978E-03,   67.9669E-03,            0.,NA,NA,"",   977.063E+03,   1.00748E+06,   1.00748E+06
C:/temp/Job-7.odb,Step-1,Increment      1: Step Time =    1.000,"P-7-1",           564,   147.112E-03,   135.294E-03,            0.,NA,NA,"",   1.06688E+06,   1.04268E+06,   1.04268E+06
C:/temp/Job-7.odb,Step-1,Increment      1: Step Time =    1.000,"P-7-1",           565,   153.427E-03,   124.020E-03,            0.,NA,NA,"",   1.00647E+06,   994.431E+03,   994.431E+03
C:/temp/Job-7.odb,Step-1,Increment      1: Step Time =    1.000,"P-7-1",           566,   110.759E-03,   48.7508E-03,            0.,NA,NA,"",   1.04293E+06,   1.06442E+06,   1.06442E+06
C:/temp/Job-7.odb,Step-1,Increment      1: Step Time =    1.000,"P-7-1",           567,   49.3536E-03,   107.426E-03,            0.,NA,NA,"",   826.077E+03,   879.813E+03,   879.813E+03
C:/temp/Job-7.odb,Step-1,Increment      1: Step Time =    1.000,"P-7-1",           568,   51.0875E-03,   73.8401E-03,            0.,NA,NA,"",   966.028E+03,   992.658E+03,   992.658E+03
C:/temp/Job-7.odb,Step-1,Increment      1: Step Time =    1.000,"P-7-1",           569,   74.0719E-03,   153.002E-03,            0.,NA,NA,"",   1.06943E+06,   1.07548E+06,   1.07548E+06
C:/temp/Job-7.odb,Step-1,Increment      1: Step Time =    1.000,"P-7-1",           570,   129.621E-03,   44.4071E-03,            0.,NA,NA,"",   1.06560E+06,   1.05788E+06,   1.05788E+06
C:/temp/Job-7.odb,Step-1,Increment      1: Step Time =    1.000,"P-7-1",           571,   64.4085E-03,   154.381E-03,            0.,NA,NA,"",   1.06542E+06,   1.07007E+06,   1.07007E+06
C:/temp/Job-7.odb,Step-1,Increment      1: Step Time =    1.000,"P-7-1",           572,   107.990E-03,   149.577E-03,            0.,NA,NA,"",   1.03942E+06,   1.06697E+06,   1.06697E+06
C:/temp/Job-7.odb,Step-1,Increment      1: Step Time =    1.000,"P-7-1",           573,   131.389E-03,   150.406E-03,            0.,NA,NA,"",   1.08509E+06,   1.07112E+06,   1.07112E+06
C:/temp/Job-7.odb,Step-1,Increment      1: Step Time =    1.000,"P-7-1",           574,   83.6557E-03,   151.564E-03,            0.,NA,NA,"",   1.05809E+06,   1.07542E+06,   1.07542E+06
C:/temp/Job-7.odb,Step-1,Increment      1: Step Time =    1.000,"P-7-1",           575,   134.818E-03,   48.5558E-03,            0.,NA,NA,"",   1.07660E+06,   1.06287E+06,   1.06287E+06
C:/temp/Job-7.odb,Step-1,Increment      1: Step Time =    1.000,"P-7-1",           576,   151.798E-03,   99.0778E-03,            0.,NA,NA,"",   901.035E+03,   908.947E+03,   908.947E+03
C:/temp/Job-7.odb,Step-1,Increment      1: Step Time =    1.000,"P-7-1",           577,   66.1908E-03,   48.4974E-03,            0.,NA,NA,"",   1.07314E+06,   1.07673E+06,   1.07673E+06
C:/temp/Job-7.odb,Step-1,Increment      1: Step Time =    1.000,"P-7-1",           578,   153.070E-03,   68.7949E-03,            0.,NA,NA,"",   1.04307E+06,   1.02525E+06,   1.02525E+06
C:/temp/Job-7.odb,Step-1,Increment      1: Step Time =    1.000,"P-7-1",           579,   93.0899E-03,   50.2921E-03,            0.,NA,NA,"",   1.03633E+06,   1.06802E+06,   1.06802E+06
C:/temp/Job-7.odb,Step-1,Increment      1: Step Time =    1.000,"P-7-1",           580,   48.3281E-03,   136.855E-03,            0.,NA,NA,"",   1.00258E+06,   1.02838E+06,   1.02838E+06
C:/temp/Job-7.odb,Step-1,Increment      1: Step Time =    1.000,"P-7-1",           581,   101.603E-03,   50.0845E-03,            0.,NA,NA,"",   1.01551E+06,   1.05567E+06,   1.05567E+06
C:/temp/Job-7.odb,Step-1,Increment      1: Step Time =    1.000,"P-7-1",           582,   141.586E-03,   51.3180E-03,            0.,NA,NA,"",   1.07558E+06,   1.05758E+06,   1.05758E+06
C:/temp/Job-7.odb,Step-1,Increment      1: Step Time =    1.000,"P-7-1",           583,   152.663E-03,   116.665E-03,            0.,NA,NA,"",   963.578E+03,   959.511E+03,   959.511E+03
C:/temp/Job-7.odb,Step-1,Increment      1: Step Time =    1.000,"P-7-1",           584,   49.1276E-03,   83.4255E-03,            0.,NA,NA,"",   881.114E+03,   925.131E+03,   925.131E+03
C:/temp/Job-7.odb,Step-1,Increment      1: Step Time =    1.000,"P-7-1",           585,   93.0662E-03,   152.260E-03,            0.,NA,NA,"",   1.02831E+06,   1.05879E+06,   1.05879E+06
C:/temp/Job-7.odb,Step-1,Increment      1: Step Time =    1.000,"P-7-1",           586,   51.1925E-03,   98.4666E-03,            0.,NA,NA,"",   804.331E+03,   858.796E+03,   858.796E+03
C:/temp/Job-7.odb,Step-1,Increment      1: Step Time =    1.000,"P-7-1",           587,   98.3143E-03,   147.916E-03,            0.,NA,NA,"",   1.01960E+06,   1.06359E+06,   1.06359E+06
C:/temp/Job-7.odb,Step-1,Increment      1: Step Time =    1.000,"P-7-1",           588,   149.567E-03,   50.0129E-03,            0.,NA,NA,"",   1.06043E+06,   1.04483E+06,   1.04483E+06
C:/temp/Job-7.odb,Step-1,Increment      1: Step Time =    1.000,"P-7-1",           589,   152.518E-03,   108.889E-03,            0.,NA,NA,"",   921.111E+03,   926.492E+03,   926.492E+03
C:/temp/Job-7.odb,Step-1,Increment      1: Step Time =    1.000,"P-7-1",           590,   47.3017E-03,   93.0791E-03,            0.,NA,NA,"",    826.49E+03,   882.662E+03,   882.662E+03
C:/temp/Job-7.odb,Step-1,Increment      1: Step Time =    1.000,"P-7-1",           591,   152.973E-03,   147.679E-03,            0.,NA,NA,"",   1.05895E+06,   1.04271E+06,   1.04271E+06
C:/temp/Job-7.odb,Step-1,Increment      1: Step Time =    1.000,"P-7-1",           592,   56.5115E-03,   45.5789E-03,            0.,NA,NA,"",   1.05585E+06,   1.06480E+06,   1.06480E+06
C:/temp/Job-7.odb,Step-1,Increment      1: Step Time =    1.000,"P-7-1",           593,   50.8836E-03,   144.484E-03,            0.,NA,NA,"",   1.03494E+06,   1.05236E+06,   1.05236E+06
C:/temp/Job-7.odb,Step-1,Increment      1: Step Time =    1.000,"P-7-1",           594,   139.697E-03,   152.509E-03,            0.,NA,NA,"",   1.07126E+06,   1.05594E+06,   1.05594E+06
C:/temp/Job-7.odb,Step-1,Increment      1: Step Time =    1.000,"P-7-1",           595,   151.692E-03,   57.4916E-03,            0.,NA,NA,"",   1.06129E+06,   1.04342E+06,   1.04342E+06
C:/temp/Job-7.odb,Step-1,Increment      1: Step Time =    1.000,"P-7-1",           596,   50.6522E-03,   49.3724E-03,            0.,NA,NA,"",   1.03839E+06,   1.05535E+06,   1.05535E+06
C:/temp/Job-7.odb,Step-1,Increment      1: Step Time =    1.000,"P-7-1",           597,   48.7070E-03,   148.614E-03,            0.,NA,NA,"",   1.03482E+06,   1.05344E+06,   1.05344E+06
C:/temp/Job-7.odb,Step-1,Increment      1: Step Time =    1.000,"P-7-1",           598,   45.7004E-03,   53.2903E-03,            0.,NA,NA,"",   1.02063E+06,   1.04690E+06,   1.04690E+06
C:/temp/Job-7.odb,Step-1,Increment      1: Step Time =    1.000,"P-7-1",           599,   51.1952E-03,   151.906E-03,            0.,NA,NA,"",   1.04325E+06,   1.05803E+06,   1.05803E+06
C:/temp/Job-7.odb,Step-1,Increment      1: Step Time =    1.000,"P-7-1",           600,   44.1242E-03,   62.0822E-03,            0.,NA,NA,"",   983.748E+03,   1.01749E+06,   1.01749E+06
C:/temp/Job-7.odb,Step-1,Increment      1: Step Time =    1.000,"P-7-1",           601,   59.7579E-03,   150.734E-03,            0.,NA,NA,"",   1.06324E+06,   1.06963E+06,   1.06963E+06
C:/temp/Job-7.odb,Step-1,Increment      1: Step Time =    1.000,"P-7-1",           602,   122.535E-03,   147.621E-03,            0.,NA,NA,"",   1.08991E+06,   1.08581E+06,   1.08581E+06
C:/temp/Job-7.odb,Step-1,Increment      1: Step Time =    1.000,"P-7-1",           603,   145.418E-03,   80.5689E-03,            0.,NA,NA,"",   999.304E+03,   980.018E+03,   980.018E+03
C:/temp/Job-7.odb,Step-1,Increment      1: Step Time =    1.000,"P-7-1",           604,   56.9962E-03,   119.268E-03,            0.,NA,NA,"",   937.301E+03,   956.493E+03,   956.493E+03
C:/temp/Job-7.odb,Step-1,Increment      1: Step Time =    1.000,"P-7-1",           605,   74.8659E-03,   53.0218E-03,            0.,NA,NA,"",   1.08574E+06,   1.09101E+06,   1.09101E+06
C:/temp/Job-7.odb,Step-1,Increment      1: Step Time =    1.000,"P-7-1",           606,   141.966E-03,   86.3798E-03,            0.,NA,NA,"",   936.460E+03,   924.409E+03,   924.409E+03
C:/temp/Job-7.odb,Step-1,Increment      1: Step Time =    1.000,"P-7-1",           607,   147.162E-03,   130.210E-03,            0.,NA,NA,"",   1.06309E+06,   1.03731E+06,   1.03731E+06
C:/temp/Job-7.odb,Step-1,Increment      1: Step Time =    1.000,"P-7-1",           608,   143.121E-03,   137.136E-03,            0.,NA,NA,"",   1.08848E+06,   1.05996E+06,   1.05996E+06
C:/temp/Job-7.odb,Step-1,Increment      1: Step Time =    1.000,"P-7-1",           609,   54.0576E-03,   111.256E-03,            0.,NA,NA,"",   838.747E+03,   882.561E+03,   882.561E+03
C:/temp/Job-7.odb,Step-1,Increment      1: Step Time =    1.000,"P-7-1",           610,   113.260E-03,   145.294E-03,            0.,NA,NA,"",   1.07248E+06,   1.08995E+06,   1.08995E+06
C:/temp/Job-7.odb,Step-1,Increment      1: Step Time =    1.000,"P-7-1",           611,   127.601E-03,   144.229E-03,            0.,NA,NA,"",   1.10507E+06,   1.09004E+06,   1.09004E+06
C:/temp/Job-7.odb,Step-1,Increment      1: Step Time =    1.000,"P-7-1",           612,   115.637E-03,   52.6272E-03,            0.,NA,NA,"",   1.07094E+06,   1.08311E+06,   1.08311E+06
C:/temp/Job-7.odb,Step-1,Increment      1: Step Time =    1.000,"P-7-1",           613,   125.194E-03,   50.0606E-03,            0.,NA,NA,"",   1.08335E+06,   1.07658E+06,   1.07658E+06
C:/temp/Job-7.odb,Step-1,Increment      1: Step Time =    1.000,"P-7-1",           614,   56.3902E-03,   70.3301E-03,            0.,NA,NA,"",   1.01657E+06,   1.02740E+06,   1.02740E+06
C:/temp/Job-7.odb,Step-1,Increment      1: Step Time =    1.000,"P-7-1",           615,   69.3122E-03,   55.5461E-03,            0.,NA,NA,"",   1.09039E+06,   1.09093E+06,   1.09093E+06
C:/temp/Job-7.odb,Step-1,Increment      1: Step Time =    1.000,"P-7-1",           616,   149.103E-03,   74.7038E-03,            0.,NA,NA,"",   1.03271E+06,   1.01207E+06,   1.01207E+06
C:/temp/Job-7.odb,Step-1,Increment      1: Step Time =    1.000,"P-7-1",           617,   51.0990E-03,   130.958E-03,            0.,NA,NA,"",   994.207E+03,   1.01674E+06,   1.01674E+06
C:/temp/Job-7.odb,Step-1,Increment      1: Step Time =    1.000,"P-7-1",           618,   144.473E-03,   96.1198E-03,            0.,NA,NA,"",   865.998E+03,   871.979E+03,   871.979E+03
C:/temp/Job-7.odb,Step-1,Increment      1: Step Time =    1.000,"P-7-1",           619,   78.8091E-03,   147.224E-03,            0.,NA,NA,"",   1.08109E+06,   1.09089E+06,   1.09089E+06
C:/temp/Job-7.odb,Step-1,Increment      1: Step Time =    1.000,"P-7-1",           620,   69.0715E-03,   149.006E-03,            0.,NA,NA,"",   1.07954E+06,   1.08244E+06,   1.08244E+06
C:/temp/Job-7.odb,Step-1,Increment      1: Step Time =    1.000,"P-7-1",           621,   88.2276E-03,   54.3715E-03,            0.,NA,NA,"",   1.06277E+06,   1.08994E+06,   1.08994E+06
C:/temp/Job-7.odb,Step-1,Increment      1: Step Time =    1.000,"P-7-1",           622,   146.530E-03,   123.798E-03,            0.,NA,NA,"",   1.03106E+06,   1.00715E+06,   1.00715E+06
C:/temp/Job-7.odb,Step-1,Increment      1: Step Time =    1.000,"P-7-1",           623,   130.587E-03,   54.0622E-03,            0.,NA,NA,"",   1.09702E+06,   1.08055E+06,   1.08055E+06
C:/temp/Job-7.odb,Step-1,Increment      1: Step Time =    1.000,"P-7-1",           624,   54.6730E-03,   103.382E-03,            0.,NA,NA,"",   798.027E+03,   846.701E+03,   846.701E+03
C:/temp/Job-7.odb,Step-1,Increment      1: Step Time =    1.000,"P-7-1",           625,   55.1100E-03,   79.7238E-03,            0.,NA,NA,"",   940.029E+03,   962.438E+03,   962.438E+03
C:/temp/Job-7.odb,Step-1,Increment      1: Step Time =    1.000,"P-7-1",           626,   106.241E-03,   54.7965E-03,            0.,NA,NA,"",   1.03502E+06,   1.07456E+06,   1.07456E+06
C:/temp/Job-7.odb,Step-1,Increment      1: Step Time =    1.000,"P-7-1",           627,   88.5897E-03,   146.855E-03,            0.,NA,NA,"",   1.05812E+06,   1.08566E+06,   1.08566E+06
C:/temp/Job-7.odb,Step-1,Increment      1: Step Time =    1.000,"P-7-1",           628,   103.645E-03,   143.387E-03,            0.,NA,NA,"",   1.03154E+06,   1.07954E+06,   1.07954E+06
C:/temp/Job-7.odb,Step-1,Increment      1: Step Time =    1.000,"P-7-1",           629,   136.045E-03,   57.7592E-03,            0.,NA,NA,"",   1.10421E+06,   1.07936E+06,   1.07936E+06
C:/temp/Job-7.odb,Step-1,Increment      1: Step Time =    1.000,"P-7-1",           630,   140.765E-03,   144.755E-03,            0.,NA,NA,"",   1.08348E+06,   1.06142E+06,   1.06142E+06
C:/temp/Job-7.odb,Step-1,Increment      1: Step Time =    1.000,"P-7-1",           631,   97.0643E-03,   55.4370E-03,            0.,NA,NA,"",   1.02768E+06,   1.07540E+06,   1.07540E+06
C:/temp/Job-7.odb,Step-1,Increment      1: Step Time =    1.000,"P-7-1",           632,   149.455E-03,   103.516E-03,            0.,NA,NA,"",   888.382E+03,   897.855E+03,   897.855E+03
C:/temp/Job-7.odb,Step-1,Increment      1: Step Time =    1.000,"P-7-1",           633,   93.8252E-03,   142.186E-03,            0.,NA,NA,"",   1.04608E+06,   1.09261E+06,   1.09261E+06
C:/temp/Job-7.odb,Step-1,Increment      1: Step Time =    1.000,"P-7-1",           634,   136.093E-03,   147.319E-03,            0.,NA,NA,"",   1.09002E+06,   1.07068E+06,   1.07068E+06
C:/temp/Job-7.odb,Step-1,Increment      1: Step Time =    1.000,"P-7-1",           635,   145.040E-03,   109.697E-03,            0.,NA,NA,"",   898.745E+03,   899.238E+03,   899.238E+03
C:/temp/Job-7.odb,Step-1,Increment      1: Step Time =    1.000,"P-7-1",           636,   56.9867E-03,   94.8044E-03,            0.,NA,NA,"",   794.276E+03,   840.976E+03,   840.976E+03
C:/temp/Job-7.odb,Step-1,Increment      1: Step Time =    1.000,"P-7-1",           637,   53.1388E-03,   89.1595E-03,            0.,NA,NA,"",   840.648E+03,   885.472E+03,   885.472E+03
C:/temp/Job-7.odb,Step-1,Increment      1: Step Time =    1.000,"P-7-1",           638,   60.2804E-03,   51.7479E-03,            0.,NA,NA,"",   1.06563E+06,   1.07145E+06,   1.07145E+06
C:/temp/Job-7.odb,Step-1,Increment      1: Step Time =    1.000,"P-7-1",           639,   144.713E-03,   56.7902E-03,            0.,NA,NA,"",   1.07817E+06,   1.05668E+06,   1.05668E+06
C:/temp/Job-7.odb,Step-1,Increment      1: Step Time =    1.000,"P-7-1",           640,   53.8917E-03,   139.242E-03,            0.,NA,NA,"",   1.03849E+06,   1.05196E+06,   1.05196E+06
C:/temp/Job-7.odb,Step-1,Increment      1: Step Time =    1.000,"P-7-1",           641,   147.307E-03,   64.8989E-03,            0.,NA,NA,"",   1.06996E+06,   1.04579E+06,   1.04579E+06
C:/temp/Job-7.odb,Step-1,Increment      1: Step Time =    1.000,"P-7-1",           642,   54.6964E-03,   55.2211E-03,            0.,NA,NA,"",   1.04961E+06,   1.06095E+06,   1.06095E+06
C:/temp/Job-7.odb,Step-1,Increment      1: Step Time =    1.000,"P-7-1",           643,   59.1695E-03,   142.135E-03,            0.,NA,NA,"",   1.06433E+06,   1.06988E+06,   1.06988E+06
C:/temp/Job-7.odb,Step-1,Increment      1: Step Time =    1.000,"P-7-1",           644,   64.1713E-03,   145.380E-03,            0.,NA,NA,"",   1.07732E+06,   1.07985E+06,   1.07985E+06
C:/temp/Job-7.odb,Step-1,Increment      1: Step Time =    1.000,"P-7-1",           645,   52.9062E-03,   64.5480E-03,            0.,NA,NA,"",   1.01952E+06,   1.03619E+06,   1.03619E+06
C:/temp/Job-7.odb,Step-1,Increment      1: Step Time =    1.000,"P-7-1",           646,   143.993E-03,   149.104E-03,            0.,NA,NA,"",   1.06864E+06,   1.05061E+06,   1.05061E+06
C:/temp/Job-7.odb,Step-1,Increment      1: Step Time =    1.000,"P-7-1",           647,   49.3892E-03,   58.8177E-03,            0.,NA,NA,"",   1.01938E+06,   1.04043E+06,   1.04043E+06
C:/temp/Job-7.odb,Step-1,Increment      1: Step Time =    1.000,"P-7-1",           648,   118.517E-03,   141.388E-03,            0.,NA,NA,"",   1.10733E+06,   1.10769E+06,   1.10769E+06
C:/temp/Job-7.odb,Step-1,Increment      1: Step Time =    1.000,"P-7-1",           649,   135.383E-03,   83.1287E-03,            0.,NA,NA,"",   1.01172E+06,   971.595E+03,   971.595E+03
C:/temp/Job-7.odb,Step-1,Increment      1: Step Time =    1.000,"P-7-1",           650,   123.778E-03,   137.844E-03,            0.,NA,NA,"",   1.14195E+06,   1.12203E+06,   1.12203E+06
C:/temp/Job-7.odb,Step-1,Increment      1: Step Time =    1.000,"P-7-1",           651,   59.8615E-03,   113.504E-03,            0.,NA,NA,"",   863.935E+03,   890.069E+03,   890.069E+03
C:/temp/Job-7.odb,Step-1,Increment      1: Step Time =    1.000,"P-7-1",           652,   60.2763E-03,   127.710E-03,            0.,NA,NA,"",   1.04160E+06,   1.04212E+06,   1.04212E+06
C:/temp/Job-7.odb,Step-1,Increment      1: Step Time =    1.000,"P-7-1",           653,   139.115E-03,   77.0682E-03,            0.,NA,NA,"",   1.06827E+06,   1.02983E+06,   1.02983E+06
C:/temp/Job-7.odb,Step-1,Increment      1: Step Time =    1.000,"P-7-1",           654,   141.481E-03,   130.798E-03,            0.,NA,NA,"",   1.08161E+06,   1.04971E+06,   1.04971E+06
C:/temp/Job-7.odb,Step-1,Increment      1: Step Time =    1.000,"P-7-1",           655,   72.4482E-03,   62.8581E-03,            0.,NA,NA,"",   1.12399E+06,   1.11668E+06,   1.11668E+06
C:/temp/Job-7.odb,Step-1,Increment      1: Step Time =    1.000,"P-7-1",           656,   120.696E-03,   56.3753E-03,            0.,NA,NA,"",   1.09944E+06,   1.09665E+06,   1.09665E+06
C:/temp/Job-7.odb,Step-1,Increment      1: Step Time =    1.000,"P-7-1",           657,   83.1292E-03,   57.4700E-03,            0.,NA,NA,"",   1.08979E+06,   1.10544E+06,   1.10544E+06
C:/temp/Job-7.odb,Step-1,Increment      1: Step Time =    1.000,"P-7-1",           658,   138.879E-03,   91.8826E-03,            0.,NA,NA,"",   860.867E+03,   857.709E+03,   857.709E+03
C:/temp/Job-7.odb,Step-1,Increment      1: Step Time =    1.000,"P-7-1",           659,   111.092E-03,   59.0560E-03,            0.,NA,NA,"",   1.08410E+06,   1.10864E+06,   1.10864E+06
C:/temp/Job-7.odb,Step-1,Increment      1: Step Time =    1.000,"P-7-1",           660,   139.467E-03,   124.462E-03,            0.,NA,NA,"",   1.07849E+06,   1.03869E+06,   1.03869E+06
C:/temp/Job-7.odb,Step-1,Increment      1: Step Time =    1.000,"P-7-1",           661,   56.7839E-03,   107.284E-03,            0.,NA,NA,"",   807.483E+03,   850.105E+03,   850.105E+03
C:/temp/Job-7.odb,Step-1,Increment      1: Step Time =    1.000,"P-7-1",           662,   73.8052E-03,   143.051E-03,            0.,NA,NA,"",   1.09733E+06,   1.09867E+06,   1.09867E+06
C:/temp/Job-7.odb,Step-1,Increment      1: Step Time =    1.000,"P-7-1",           663,   60.4138E-03,   76.0453E-03,            0.,NA,NA,"",   1.01999E+06,   1.01937E+06,   1.01937E+06
C:/temp/Job-7.odb,Step-1,Increment      1: Step Time =    1.000,"P-7-1",           664,   137.990E-03,   138.657E-03,            0.,NA,NA,"",   1.11294E+06,   1.08215E+06,   1.08215E+06
C:/temp/Job-7.odb,Step-1,Increment      1: Step Time =    1.000,"P-7-1",           665,   109.000E-03,   138.963E-03,            0.,NA,NA,"",   1.08421E+06,   1.11719E+06,   1.11719E+06
C:/temp/Job-7.odb,Step-1,Increment      1: Step Time =    1.000,"P-7-1",           666,   126.007E-03,   60.1327E-03,            0.,NA,NA,"",   1.12978E+06,   1.10939E+06,   1.10939E+06
C:/temp/Job-7.odb,Step-1,Increment      1: Step Time =    1.000,"P-7-1",           667,   83.8984E-03,   141.783E-03,            0.,NA,NA,"",   1.09619E+06,   1.11369E+06,   1.11369E+06
C:/temp/Job-7.odb,Step-1,Increment      1: Step Time =    1.000,"P-7-1",           668,   132.709E-03,   141.130E-03,            0.,NA,NA,"",   1.11266E+06,   1.08775E+06,   1.08775E+06
C:/temp/Job-7.odb,Step-1,Increment      1: Step Time =    1.000,"P-7-1",           669,   144.067E-03,   103.190E-03,            0.,NA,NA,"",   858.621E+03,   867.940E+03,   867.940E+03
C:/temp/Job-7.odb,Step-1,Increment      1: Step Time =    1.000,"P-7-1",           670,   63.7852E-03,   58.2750E-03,            0.,NA,NA,"",   1.08481E+06,   1.08439E+06,   1.08439E+06
C:/temp/Job-7.odb,Step-1,Increment      1: Step Time =    1.000,"P-7-1",           671,   91.9408E-03,   60.2821E-03,            0.,NA,NA,"",   1.07462E+06,   1.11333E+06,   1.11333E+06
C:/temp/Job-7.odb,Step-1,Increment      1: Step Time =    1.000,"P-7-1",           672,   143.113E-03,   71.0693E-03,            0.,NA,NA,"",   1.07815E+06,   1.04656E+06,   1.04656E+06
C:/temp/Job-7.odb,Step-1,Increment      1: Step Time =    1.000,"P-7-1",           673,   57.0847E-03,   133.565E-03,            0.,NA,NA,"",   1.04024E+06,   1.04845E+06,   1.04845E+06
C:/temp/Job-7.odb,Step-1,Increment      1: Step Time =    1.000,"P-7-1",           674,   131.489E-03,   63.8377E-03,            0.,NA,NA,"",   1.13164E+06,   1.10048E+06,   1.10048E+06
C:/temp/Job-7.odb,Step-1,Increment      1: Step Time =    1.000,"P-7-1",           675,   139.110E-03,   116.625E-03,            0.,NA,NA,"",   973.177E+03,   946.979E+03,   946.979E+03
C:/temp/Job-7.odb,Step-1,Increment      1: Step Time =    1.000,"P-7-1",           676,   101.491E-03,   60.7358E-03,            0.,NA,NA,"",   1.03202E+06,   1.09790E+06,   1.09790E+06
C:/temp/Job-7.odb,Step-1,Increment      1: Step Time =    1.000,"P-7-1",           677,   59.2552E-03,   85.3882E-03,            0.,NA,NA,"",   879.733E+03,   904.524E+03,   904.524E+03
C:/temp/Job-7.odb,Step-1,Increment      1: Step Time =    1.000,"P-7-1",           678,   61.6894E-03,   100.809E-03,            0.,NA,NA,"",   750.062E+03,   791.808E+03,   791.808E+03
C:/temp/Job-7.odb,Step-1,Increment      1: Step Time =    1.000,"P-7-1",           679,   89.2832E-03,   136.965E-03,            0.,NA,NA,"",   1.10755E+06,   1.13866E+06,   1.13866E+06
C:/temp/Job-7.odb,Step-1,Increment      1: Step Time =    1.000,"P-7-1",           680,   99.1699E-03,   137.317E-03,            0.,NA,NA,"",   1.04085E+06,   1.11227E+06,   1.11227E+06
C:/temp/Job-7.odb,Step-1,Increment      1: Step Time =    1.000,"P-7-1",           681,   138.126E-03,   109.727E-03,            0.,NA,NA,"",   860.471E+03,   856.967E+03,   856.967E+03
C:/temp/Job-7.odb,Step-1,Increment      1: Step Time =    1.000,"P-7-1",           682,   141.310E-03,   61.7012E-03,            0.,NA,NA,"",   1.09461E+06,   1.06711E+06,   1.06711E+06
C:/temp/Job-7.odb,Step-1,Increment      1: Step Time =    1.000,"P-7-1",           683,   62.4980E-03,   91.2335E-03,            0.,NA,NA,"",   795.320E+03,   829.558E+03,   829.558E+03
C:/temp/Job-7.odb,Step-1,Increment      1: Step Time =    1.000,"P-7-1",           684,   62.8278E-03,   136.429E-03,            0.,NA,NA,"",   1.08066E+06,   1.07909E+06,   1.07909E+06
C:/temp/Job-7.odb,Step-1,Increment      1: Step Time =    1.000,"P-7-1",           685,   68.3997E-03,   139.553E-03,            0.,NA,NA,"",   1.10072E+06,   1.09709E+06,   1.09709E+06
C:/temp/Job-7.odb,Step-1,Increment      1: Step Time =    1.000,"P-7-1",           686,   63.8461E-03,   72.3960E-03,            0.,NA,NA,"",   1.07271E+06,   1.06221E+06,   1.06221E+06
C:/temp/Job-7.odb,Step-1,Increment      1: Step Time =    1.000,"P-7-1",           687,   61.5309E-03,   67.2087E-03,            0.,NA,NA,"",   1.06375E+06,   1.06193E+06,   1.06193E+06
C:/temp/Job-7.odb,Step-1,Increment      1: Step Time =    1.000,"P-7-1",           688,   119.715E-03,   131.255E-03,            0.,NA,NA,"",   1.17392E+06,   1.15441E+06,   1.15441E+06
C:/temp/Job-7.odb,Step-1,Increment      1: Step Time =    1.000,"P-7-1",           689,   63.3671E-03,   121.665E-03,            0.,NA,NA,"",   1.02968E+06,   1.02070E+06,   1.02070E+06
C:/temp/Job-7.odb,Step-1,Increment      1: Step Time =    1.000,"P-7-1",           690,   128.919E-03,   79.9547E-03,            0.,NA,NA,"",   1.14067E+06,   1.07128E+06,   1.07128E+06
C:/temp/Job-7.odb,Step-1,Increment      1: Step Time =    1.000,"P-7-1",           691,   132.107E-03,   89.4511E-03,            0.,NA,NA,"",   892.261E+03,   865.532E+03,   865.532E+03
C:/temp/Job-7.odb,Step-1,Increment      1: Step Time =    1.000,"P-7-1",           692,   66.2572E-03,   115.353E-03,            0.,NA,NA,"",   940.806E+03,   932.224E+03,   932.224E+03
C:/temp/Job-7.odb,Step-1,Increment      1: Step Time =    1.000,"P-7-1",           693,   114.352E-03,   134.901E-03,            0.,NA,NA,"",   1.14743E+06,   1.15490E+06,   1.15490E+06
C:/temp/Job-7.odb,Step-1,Increment      1: Step Time =    1.000,"P-7-1",           694,   81.2325E-03,   67.4596E-03,            0.,NA,NA,"",   1.14736E+06,   1.14932E+06,   1.14932E+06
C:/temp/Job-7.odb,Step-1,Increment      1: Step Time =    1.000,"P-7-1",           695,   116.159E-03,   62.9048E-03,            0.,NA,NA,"",   1.13807E+06,   1.14113E+06,   1.14113E+06
C:/temp/Job-7.odb,Step-1,Increment      1: Step Time =    1.000,"P-7-1",           696,   135.319E-03,   131.035E-03,            0.,NA,NA,"",   1.12051E+06,   1.08078E+06,   1.08078E+06
C:/temp/Job-7.odb,Step-1,Increment      1: Step Time =    1.000,"P-7-1",           697,   121.443E-03,   66.5325E-03,            0.,NA,NA,"",   1.15859E+06,   1.13903E+06,   1.13903E+06
C:/temp/Job-7.odb,Step-1,Increment      1: Step Time =    1.000,"P-7-1",           698,   80.8074E-03,   129.257E-03,            0.,NA,NA,"",   1.16758E+06,   1.15838E+06,   1.15838E+06
C:/temp/Job-7.odb,Step-1,Increment      1: Step Time =    1.000,"P-7-1",           699,   67.0004E-03,   65.1895E-03,            0.,NA,NA,"",   1.10043E+06,   1.09288E+06,   1.09288E+06
C:/temp/Job-7.odb,Step-1,Increment      1: Step Time =    1.000,"P-7-1",           700,   66.2846E-03,   130.414E-03,            0.,NA,NA,"",   1.09173E+06,   1.08152E+06,   1.08152E+06
C:/temp/Job-7.odb,Step-1,Increment      1: Step Time =    1.000,"P-7-1",           701,   132.969E-03,   73.6212E-03,            0.,NA,NA,"",   1.14254E+06,   1.09172E+06,   1.09172E+06
C:/temp/Job-7.odb,Step-1,Increment      1: Step Time =    1.000,"P-7-1",           702,   86.6390E-03,   64.1864E-03,            0.,NA,NA,"",   1.13006E+06,   1.15068E+06,   1.15068E+06
C:/temp/Job-7.odb,Step-1,Increment      1: Step Time =    1.000,"P-7-1",           703,   137.478E-03,   97.0006E-03,            0.,NA,NA,"",   810.157E+03,   814.104E+03,   814.104E+03
C:/temp/Job-7.odb,Step-1,Increment      1: Step Time =    1.000,"P-7-1",           704,   106.328E-03,   65.6301E-03,            0.,NA,NA,"",   1.07238E+06,   1.13188E+06,   1.13188E+06
C:/temp/Job-7.odb,Step-1,Increment      1: Step Time =    1.000,"P-7-1",           705,   130.066E-03,   125.008E-03,            0.,NA,NA,"",   1.17700E+06,   1.11437E+06,   1.11437E+06
C:/temp/Job-7.odb,Step-1,Increment      1: Step Time =    1.000,"P-7-1",           706,   66.1743E-03,   81.2069E-03,            0.,NA,NA,"",   1.00984E+06,   992.589E+03,   992.589E+03
C:/temp/Job-7.odb,Step-1,Increment      1: Step Time =    1.000,"P-7-1",           707,   61.8321E-03,   107.541E-03,            0.,NA,NA,"",   785.709E+03,   823.097E+03,   823.097E+03
C:/temp/Job-7.odb,Step-1,Increment      1: Step Time =    1.000,"P-7-1",           708,   85.0524E-03,   132.362E-03,            0.,NA,NA,"",   1.16178E+06,   1.17023E+06,   1.17023E+06
C:/temp/Job-7.odb,Step-1,Increment      1: Step Time =    1.000,"P-7-1",           709,   104.553E-03,   132.499E-03,            0.,NA,NA,"",   1.07893E+06,   1.15002E+06,   1.15002E+06
C:/temp/Job-7.odb,Step-1,Increment      1: Step Time =    1.000,"P-7-1",           710,   96.2217E-03,   66.3646E-03,            0.,NA,NA,"",   1.06923E+06,   1.14034E+06,   1.14034E+06
C:/temp/Job-7.odb,Step-1,Increment      1: Step Time =    1.000,"P-7-1",           711,   137.458E-03,   103.079E-03,            0.,NA,NA,"",   803.443E+03,   811.116E+03,   811.116E+03
C:/temp/Job-7.odb,Step-1,Increment      1: Step Time =    1.000,"P-7-1",           712,   69.0721E-03,   88.9903E-03,            0.,NA,NA,"",   826.761E+03,   826.795E+03,   826.795E+03
C:/temp/Job-7.odb,Step-1,Increment      1: Step Time =    1.000,"P-7-1",           713,   132.619E-03,   116.683E-03,            0.,NA,NA,"",   1.03753E+06,   981.381E+03,   981.381E+03
C:/temp/Job-7.odb,Step-1,Increment      1: Step Time =    1.000,"P-7-1",           714,   94.5229E-03,   131.643E-03,            0.,NA,NA,"",   1.09382E+06,   1.16372E+06,   1.16372E+06
C:/temp/Job-7.odb,Step-1,Increment      1: Step Time =    1.000,"P-7-1",           715,   64.8647E-03,   95.9889E-03,            0.,NA,NA,"",   738.179E+03,   772.529E+03,   772.529E+03
C:/temp/Job-7.odb,Step-1,Increment      1: Step Time =    1.000,"P-7-1",           716,   55.4623E-03,   147.337E-03,            0.,NA,NA,"",   1.05316E+06,   1.06345E+06,   1.06345E+06
C:/temp/Job-7.odb,Step-1,Increment      1: Step Time =    1.000,"P-7-1",           717,   69.4891E-03,   73.3626E-03,            0.,NA,NA,"",   1.13206E+06,   1.10591E+06,   1.10591E+06
C:/temp/Job-7.odb,Step-1,Increment      1: Step Time =    1.000,"P-7-1",           718,   115.523E-03,   124.286E-03,            0.,NA,NA,"",   1.28465E+06,   1.24593E+06,   1.24593E+06
C:/temp/Job-7.odb,Step-1,Increment      1: Step Time =    1.000,"P-7-1",           719,   72.7863E-03,   117.450E-03,            0.,NA,NA,"",   1.10293E+06,   1.05248E+06,   1.05248E+06
C:/temp/Job-7.odb,Step-1,Increment      1: Step Time =    1.000,"P-7-1",           720,   125.080E-03,   86.6979E-03,            0.,NA,NA,"",   1.03929E+06,   946.584E+03,   946.584E+03
C:/temp/Job-7.odb,Step-1,Increment      1: Step Time =    1.000,"P-7-1",           721,   116.759E-03,   73.3064E-03,            0.,NA,NA,"",   1.24981E+06,   1.21777E+06,   1.21777E+06
C:/temp/Job-7.odb,Step-1,Increment      1: Step Time =    1.000,"P-7-1",           722,   75.3856E-03,   126.746E-03,            0.,NA,NA,"",   1.15779E+06,   1.13280E+06,   1.13280E+06
C:/temp/Job-7.odb,Step-1,Increment      1: Step Time =    1.000,"P-7-1",           723,   122.714E-03,   76.6407E-03,            0.,NA,NA,"",   1.25854E+06,   1.18799E+06,   1.18799E+06
C:/temp/Job-7.odb,Step-1,Increment      1: Step Time =    1.000,"P-7-1",           724,   130.012E-03,   95.9278E-03,            0.,NA,NA,"",   730.024E+03,   731.591E+03,   731.591E+03
C:/temp/Job-7.odb,Step-1,Increment      1: Step Time =    1.000,"P-7-1",           725,   75.6380E-03,   70.3550E-03,            0.,NA,NA,"",   1.15066E+06,   1.13250E+06,   1.13250E+06
C:/temp/Job-7.odb,Step-1,Increment      1: Step Time =    1.000,"P-7-1",           726,   84.9225E-03,   74.7042E-03,            0.,NA,NA,"",   1.25898E+06,   1.23989E+06,   1.23989E+06
C:/temp/Job-7.odb,Step-1,Increment      1: Step Time =    1.000,"P-7-1",           727,   111.467E-03,   69.7858E-03,            0.,NA,NA,"",   1.15105E+06,   1.17191E+06,   1.17191E+06
C:/temp/Job-7.odb,Step-1,Increment      1: Step Time =    1.000,"P-7-1",           728,   75.8432E-03,   110.328E-03,            0.,NA,NA,"",   871.625E+03,   813.695E+03,   813.695E+03
C:/temp/Job-7.odb,Step-1,Increment      1: Step Time =    1.000,"P-7-1",           729,   110.000E-03,   128.096E-03,            0.,NA,NA,"",   1.17457E+06,   1.20052E+06,   1.20052E+06
C:/temp/Job-7.odb,Step-1,Increment      1: Step Time =    1.000,"P-7-1",           730,   125.047E-03,   128.025E-03,            0.,NA,NA,"",   1.18135E+06,   1.13557E+06,   1.13557E+06
C:/temp/Job-7.odb,Step-1,Increment      1: Step Time =    1.000,"P-7-1",           731,   84.5442E-03,   123.036E-03,            0.,NA,NA,"",   1.28441E+06,   1.25269E+06,   1.25269E+06
C:/temp/Job-7.odb,Step-1,Increment      1: Step Time =    1.000,"P-7-1",           732,   129.872E-03,   102.743E-03,            0.,NA,NA,"",   690.136E+03,   692.547E+03,   692.547E+03
C:/temp/Job-7.odb,Step-1,Increment      1: Step Time =    1.000,"P-7-1",           733,   90.5945E-03,   71.0810E-03,            0.,NA,NA,"",   1.15514E+06,   1.19029E+06,   1.19029E+06
C:/temp/Job-7.odb,Step-1,Increment      1: Step Time =    1.000,"P-7-1",           734,   101.043E-03,   72.3860E-03,            0.,NA,NA,"",   1.15715E+06,   1.26113E+06,   1.26113E+06
C:/temp/Job-7.odb,Step-1,Increment      1: Step Time =    1.000,"P-7-1",           735,   73.3661E-03,   80.1108E-03,            0.,NA,NA,"",   1.15913E+06,   1.10365E+06,   1.10365E+06
C:/temp/Job-7.odb,Step-1,Increment      1: Step Time =    1.000,"P-7-1",           736,   126.556E-03,   118.390E-03,            0.,NA,NA,"",   1.17987E+06,   1.09299E+06,   1.09299E+06
C:/temp/Job-7.odb,Step-1,Increment      1: Step Time =    1.000,"P-7-1",           737,   69.8705E-03,   102.189E-03,            0.,NA,NA,"",   653.988E+03,   687.077E+03,   687.077E+03
C:/temp/Job-7.odb,Step-1,Increment      1: Step Time =    1.000,"P-7-1",           738,   89.6727E-03,   126.782E-03,            0.,NA,NA,"",   1.18903E+06,   1.21703E+06,   1.21703E+06
C:/temp/Job-7.odb,Step-1,Increment      1: Step Time =    1.000,"P-7-1",           739,   127.089E-03,   70.1183E-03,            0.,NA,NA,"",   1.16488E+06,   1.12319E+06,   1.12319E+06
C:/temp/Job-7.odb,Step-1,Increment      1: Step Time =    1.000,"P-7-1",           740,   99.7839E-03,   126.113E-03,            0.,NA,NA,"",   1.18340E+06,   1.29591E+06,   1.29591E+06
C:/temp/Job-7.odb,Step-1,Increment      1: Step Time =    1.000,"P-7-1",           741,   123.683E-03,   110.995E-03,            0.,NA,NA,"",   940.744E+03,   845.078E+03,   845.078E+03
C:/temp/Job-7.odb,Step-1,Increment      1: Step Time =    1.000,"P-7-1",           742,   70.5773E-03,   95.9752E-03,            0.,NA,NA,"",   676.336E+03,   703.161E+03,   703.161E+03
C:/temp/Job-7.odb,Step-1,Increment      1: Step Time =    1.000,"P-7-1",           743,   88.8012E-03,   82.3764E-03,            0.,NA,NA,"",   1.36064E+06,   1.34537E+06,   1.34537E+06
C:/temp/Job-7.odb,Step-1,Increment      1: Step Time =    1.000,"P-7-1",           744,   111.333E-03,   117.004E-03,            0.,NA,NA,"",   1.38025E+06,   1.34918E+06,   1.34918E+06
C:/temp/Job-7.odb,Step-1,Increment      1: Step Time =    1.000,"P-7-1",           745,   129.208E-03,   134.533E-03,            0.,NA,NA,"",   1.14523E+06,   1.11227E+06,   1.11227E+06
C:/temp/Job-7.odb,Step-1,Increment      1: Step Time =    1.000,"P-7-1",           746,   118.699E-03,   83.3231E-03,            0.,NA,NA,"",   1.26037E+06,   1.15225E+06,   1.15225E+06
C:/temp/Job-7.odb,Step-1,Increment      1: Step Time =    1.000,"P-7-1",           747,   111.941E-03,   80.7195E-03,            0.,NA,NA,"",   1.40119E+06,   1.38384E+06,   1.38384E+06
C:/temp/Job-7.odb,Step-1,Increment      1: Step Time =    1.000,"P-7-1",           748,   121.008E-03,   121.028E-03,            0.,NA,NA,"",   1.29964E+06,   1.21562E+06,   1.21562E+06
C:/temp/Job-7.odb,Step-1,Increment      1: Step Time =    1.000,"P-7-1",           749,   88.6383E-03,   116.452E-03,            0.,NA,NA,"",   1.36819E+06,   1.34272E+06,   1.34272E+06
C:/temp/Job-7.odb,Step-1,Increment      1: Step Time =    1.000,"P-7-1",           750,   79.2230E-03,   77.6349E-03,            0.,NA,NA,"",   1.27513E+06,   1.21952E+06,   1.21952E+06
C:/temp/Job-7.odb,Step-1,Increment      1: Step Time =    1.000,"P-7-1",           751,   78.9078E-03,   119.989E-03,            0.,NA,NA,"",   1.26084E+06,   1.19644E+06,   1.19644E+06
C:/temp/Job-7.odb,Step-1,Increment      1: Step Time =    1.000,"P-7-1",           752,   72.2495E-03,   133.273E-03,            0.,NA,NA,"",   1.13064E+06,   1.11937E+06,   1.11937E+06
C:/temp/Job-7.odb,Step-1,Increment      1: Step Time =    1.000,"P-7-1",           753,   7.87867E-03,   7.86005E-03,            0.,NA,NA,"",   1.22161E+06,   1.27008E+06,   1.27008E+06
C:/temp/Job-7.odb,Step-1,Increment      1: Step Time =    1.000,"P-7-1",           754,   120.661E-03,   94.3114E-03,            0.,NA,NA,"",   725.921E+03,   521.460E+03,   521.460E+03
C:/temp/Job-7.odb,Step-1,Increment      1: Step Time =    1.000,"P-7-1",           755,   78.3127E-03,   95.9992E-03,            0.,NA,NA,"",   598.381E+03,   425.381E+03,   425.381E+03
C:/temp/Job-7.odb,Step-1,Increment      1: Step Time =    1.000,"P-7-1",           756,   76.2072E-03,   87.7392E-03,            0.,NA,NA,"",   940.563E+03,   873.393E+03,   873.393E+03
C:/temp/Job-7.odb,Step-1,Increment      1: Step Time =    1.000,"P-7-1",           757,   130.976E-03,   109.931E-03,            0.,NA,NA,"",   848.703E+03,   816.611E+03,   816.611E+03
C:/temp/Job-7.odb,Step-1,Increment      1: Step Time =    1.000,"P-7-1",           758,   68.5417E-03,   108.698E-03,            0.,NA,NA,"",   777.927E+03,   788.425E+03,   788.425E+03
C:/temp/Job-7.odb,Step-1,Increment      1: Step Time =    1.000,"P-7-1",           759,   69.5121E-03,   124.129E-03,            0.,NA,NA,"",   1.11971E+06,   1.09151E+06,   1.09151E+06
C:/temp/Job-7.odb,Step-1,Increment      1: Step Time =    1.000,"P-7-1",           760,   133.889E-03,   122.210E-03,            0.,NA,NA,"",   1.12985E+06,   1.07048E+06,   1.07048E+06
C:/temp/Job-7.odb,Step-1,Increment      1: Step Time =    1.000,"P-7-1",           761,   77.8602E-03,   60.2260E-03,            0.,NA,NA,"",   1.11927E+06,   1.12003E+06,   1.12003E+06
C:/temp/Job-7.odb,Step-1,Increment      1: Step Time =    1.000,"P-7-1",           762,   145.843E-03,   116.648E-03,            0.,NA,NA,"",   963.596E+03,   951.690E+03,   951.690E+03
C:/temp/Job-7.odb,Step-1,Increment      1: Step Time =    1.000,"P-7-1",           763,   53.9217E-03,   125.053E-03,            0.,NA,NA,"",   978.920E+03,   997.933E+03,   997.933E+03
C:/temp/Job-7.odb,Step-1,Increment      1: Step Time =    1.000,"P-7-1",           764,   137.188E-03,   67.5331E-03,            0.,NA,NA,"",   1.10954E+06,   1.07489E+06,   1.07489E+06
C:/temp/Job-7.odb,Step-1,Increment      1: Step Time =    1.000,"P-7-1",           765,   78.9218E-03,   136.274E-03,            0.,NA,NA,"",   1.12897E+06,   1.12762E+06,   1.12762E+06
C:/temp/Job-7.odb,Step-1,Increment      1: Step Time =    1.000,"P-7-1",           766,   85.5309E-03,   48.4432E-03,            0.,NA,NA,"",   1.05176E+06,   1.07053E+06,   1.07053E+06
C:/temp/Job-7.odb,Step-1,Increment      1: Step Time =    1.000,"P-7-1",           767,   44.7913E-03,   128.612E-03,            0.,NA,NA,"",   948.344E+03,   987.397E+03,   987.397E+03
C:/temp/Job-7.odb,Step-1,Increment      1: Step Time =    1.000,"P-7-1",           768,   58.2938E-03,   61.2452E-03,            0.,NA,NA,"",   1.05770E+06,   1.06336E+06,   1.06336E+06
C:/temp/Job-7.odb,Step-1,Increment      1: Step Time =    1.000,"P-7-1",           769,   101.594E-03,   39.6781E-03,            0.,NA,NA,"",   1.00775E+06,   1.03204E+06,   1.03204E+06
C:/temp/Job-7.odb,Step-1,Increment      1: Step Time =    1.000,"P-7-1",           770,   34.1221E-03,   95.9671E-03,            0.,NA,NA,"",   824.429E+03,   897.449E+03,   897.449E+03
C:/temp/Job-7.odb,Step-1,Increment      1: Step Time =    1.000,"P-7-1",           771,   151.214E-03,   137.940E-03,            0.,NA,NA,"",   1.05999E+06,   1.03915E+06,   1.03915E+06
C:/temp/Job-7.odb,Step-1,Increment      1: Step Time =    1.000,"P-7-1",           772,   138.127E-03,   30.4732E-03,            0.,NA,NA,"",   1.02995E+06,   1.02369E+06,   1.02369E+06
C:/temp/Job-7.odb,Step-1,Increment      1: Step Time =    1.000,"P-7-1",           773,   146.656E-03,   143.459E-03,            0.,NA,NA,"",   1.07288E+06,   1.05123E+06,   1.05123E+06
C:/temp/Job-7.odb,Step-1,Increment      1: Step Time =    1.000,"P-7-1",           774,   84.4285E-03,   42.6782E-03,            0.,NA,NA,"",   1.03915E+06,   1.05433E+06,   1.05433E+06
C:/temp/Job-7.odb,Step-1,Increment      1: Step Time =    1.000,"P-7-1",           775,   84.4784E-03,   164.200E-03,            0.,NA,NA,"",   1.02492E+06,   1.03741E+06,   1.03741E+06
C:/temp/Job-7.odb,Step-1,Increment      1: Step Time =    1.000,"P-7-1",           776,   166.611E-03,   55.1475E-03,            0.,NA,NA,"",   1.02705E+06,   1.02005E+06,   1.02005E+06
C:/temp/Job-7.odb,Step-1,Increment      1: Step Time =    1.000,"P-7-1",           777,   34.7633E-03,   138.729E-03,            0.,NA,NA,"",   948.320E+03,   1.00011E+06,   1.00011E+06
C:/temp/Job-7.odb,Step-1,Increment      1: Step Time =    1.000,"P-7-1",           778,   34.7402E-03,   58.6333E-03,            0.,NA,NA,"",   956.308E+03,   1.00646E+06,   1.00646E+06
C:/temp/Job-7.odb,Step-1,Increment      1: Step Time =    1.000,"P-7-1",           779,   53.9334E-03,   32.1787E-03,            0.,NA,NA,"",   1.04700E+06,   1.05361E+06,   1.05361E+06
C:/temp/Job-7.odb,Step-1,Increment      1: Step Time =    1.000,"P-7-1",           780,   134.037E-03,   165.189E-03,            0.,NA,NA,"",   1.03742E+06,   1.03138E+06,   1.03138E+06
C:/temp/Job-7.odb,Step-1,Increment      1: Step Time =    1.000,"P-7-1",           781,   141.283E-03,   162.467E-03,            0.,NA,NA,"",   1.04721E+06,   1.03734E+06,   1.03734E+06
C:/temp/Job-7.odb,Step-1,Increment      1: Step Time =    1.000,"P-7-1",           782,   33.1161E-03,   144.030E-03,            0.,NA,NA,"",   959.626E+03,   1.01144E+06,   1.01144E+06
C:/temp/Job-7.odb,Step-1,Increment      1: Step Time =    1.000,"P-7-1",           783,   64.6321E-03,   169.814E-03,            0.,NA,NA,"",   1.03921E+06,   1.04203E+06,   1.04203E+06
C:/temp/Job-7.odb,Step-1,Increment      1: Step Time =    1.000,"P-7-1",           784,   59.6096E-03,   159.335E-03,            0.,NA,NA,"",   1.05532E+06,   1.06188E+06,   1.06188E+06
