ODB Name,Step,Frame,Part Instance Name,    Node Label,X,Y,Z,Section Name,Material Name,Section Point,       S-Mises,S-Max. In-Plane Principal (Abs),S-Max. Principal (Abs)
C:/temp/Job-9.odb,Step-1,Increment      1: Step Time =    1.000,"P-9-1",             1,   91.1612E-03,   108.839E-03,            0.,NA,NA,"",   1.20708E+06,   1.14402E+06,   1.14402E+06
C:/temp/Job-9.odb,Step-1,Increment      1: Step Time =    1.000,"P-9-1",             2,   87.5000E-03,   100.000E-03,            0.,NA,NA,"",   620.877E+03,   393.661E+03,   393.661E+03
C:/temp/Job-9.odb,Step-1,Increment      1: Step Time =    1.000,"P-9-1",             3,   91.1612E-03,   91.1612E-03,            0.,NA,NA,"",   1.18271E+06,   1.12068E+06,   1.12068E+06
C:/temp/Job-9.odb,Step-1,Increment      1: Step Time =    1.000,"P-9-1",             4,   100.000E-03,   87.5000E-03,            0.,NA,NA,"",   1.70514E+06,   1.79569E+06,   1.79569E+06
C:/temp/Job-9.odb,Step-1,Increment      1: Step Time =    1.000,"P-9-1",             5,   108.839E-03,   91.1612E-03,            0.,NA,NA,"",   1.16466E+06,   871.423E+03,   871.423E+03
C:/temp/Job-9.odb,Step-1,Increment      1: Step Time =    1.000,"P-9-1",             6,   112.500E-03,   100.000E-03,            0.,NA,NA,"",   603.956E+03,   37.9431E+03,   37.9431E+03
C:/temp/Job-9.odb,Step-1,Increment      1: Step Time =    1.000,"P-9-1",             7,   108.839E-03,   108.839E-03,            0.,NA,NA,"",   1.23733E+06,   1.17245E+06,   1.17245E+06
C:/temp/Job-9.odb,Step-1,Increment      1: Step Time =    1.000,"P-9-1",             8,   100.000E-03,   112.500E-03,            0.,NA,NA,"",   1.72667E+06,   1.81664E+06,   1.81664E+06
C:/temp/Job-9.odb,Step-1,Increment      1: Step Time =    1.000,"P-9-1",             9,   200.000E-03,            0.,            0.,NA,NA,"",   999.972E+03,   999.931E+03,   999.931E+03
C:/temp/Job-9.odb,Step-1,Increment      1: Step Time =    1.000,"P-9-1",            10,            0.,            0.,            0.,NA,NA,"",   1.33922E+06,   1.40692E+06,   1.40692E+06
C:/temp/Job-9.odb,Step-1,Increment      1: Step Time =    1.000,"P-9-1",            11,   200.000E-03,   200.000E-03,            0.,NA,NA,"",   999.969E+03,   999.911E+03,   999.911E+03
C:/temp/Job-9.odb,Step-1,Increment      1: Step Time =    1.000,"P-9-1",            12,            0.,   200.000E-03,            0.,NA,NA,"",   1.33912E+06,   1.40656E+06,   1.40656E+06
C:/temp/Job-9.odb,Step-1,Increment      1: Step Time =    1.000,"P-9-1",            13,   190.000E-03,            0.,            0.,NA,NA,"",   999.796E+03,   999.745E+03,   999.745E+03
C:/temp/Job-9.odb,Step-1,Increment      1: Step Time =    1.000,"P-9-1",            14,   180.000E-03,            0.,            0.,NA,NA,"",   999.166E+03,   999.025E+03,   999.025E+03
C:/temp/Job-9.odb,Step-1,Increment      1: Step Time =    1.000,"P-9-1",            15,   170.000E-03,            0.,            0.,NA,NA,"",   997.499E+03,   997.197E+03,   997.197E+03
C:/temp/Job-9.odb,Step-1,Increment      1: Step Time =    1.000,"P-9-1",            16,   160.000E-03,            0.,            0.,NA,NA,"",   993.948E+03,   993.708E+03,   993.708E+03
C:/temp/Job-9.odb,Step-1,Increment      1: Step Time =    1.000,"P-9-1",            17,   150.000E-03,            0.,            0.,NA,NA,"",   988.277E+03,   987.861E+03,   987.861E+03
C:/temp/Job-9.odb,Step-1,Increment      1: Step Time =    1.000,"P-9-1",            18,   140.000E-03,            0.,            0.,NA,NA,"",   979.109E+03,   978.803E+03,   978.803E+03
C:/temp/Job-9.odb,Step-1,Increment      1: Step Time =    1.000,"P-9-1",            19,   130.000E-03,            0.,            0.,NA,NA,"",   967.276E+03,   967.350E+03,   967.350E+03
C:/temp/Job-9.odb,Step-1,Increment      1: Step Time =    1.000,"P-9-1",            20,   120.000E-03,            0.,            0.,NA,NA,"",   955.776E+03,   955.944E+03,   955.944E+03
C:/temp/Job-9.odb,Step-1,Increment      1: Step Time =    1.000,"P-9-1",            21,   110.000E-03,            0.,            0.,NA,NA,"",   946.177E+03,   946.696E+03,   946.696E+03
C:/temp/Job-9.odb,Step-1,Increment      1: Step Time =    1.000,"P-9-1",            22,   100.000E-03,            0.,            0.,NA,NA,"",   940.668E+03,   941.225E+03,   941.225E+03
C:/temp/Job-9.odb,Step-1,Increment      1: Step Time =    1.000,"P-9-1",            23,   90.0000E-03,            0.,            0.,NA,NA,"",   940.194E+03,   940.862E+03,   940.862E+03
C:/temp/Job-9.odb,Step-1,Increment      1: Step Time =    1.000,"P-9-1",            24,   80.0000E-03,            0.,            0.,NA,NA,"",   945.446E+03,   945.601E+03,   945.601E+03
C:/temp/Job-9.odb,Step-1,Increment      1: Step Time =    1.000,"P-9-1",            25,   70.0000E-03,            0.,            0.,NA,NA,"",   953.761E+03,   954.200E+03,   954.200E+03
C:/temp/Job-9.odb,Step-1,Increment      1: Step Time =    1.000,"P-9-1",            26,   60.0000E-03,            0.,            0.,NA,NA,"",   965.403E+03,   965.179E+03,   965.179E+03
C:/temp/Job-9.odb,Step-1,Increment      1: Step Time =    1.000,"P-9-1",            27,   50.0000E-03,            0.,            0.,NA,NA,"",   977.817E+03,   978.943E+03,   978.943E+03
C:/temp/Job-9.odb,Step-1,Increment      1: Step Time =    1.000,"P-9-1",            28,   40.0000E-03,            0.,            0.,NA,NA,"",   997.813E+03,   997.818E+03,   997.818E+03
C:/temp/Job-9.odb,Step-1,Increment      1: Step Time =    1.000,"P-9-1",            29,   30.0000E-03,            0.,            0.,NA,NA,"",   1.02569E+06,   1.03001E+06,   1.03001E+06
C:/temp/Job-9.odb,Step-1,Increment      1: Step Time =    1.000,"P-9-1",            30,   20.0000E-03,            0.,            0.,NA,NA,"",   1.08639E+06,   1.08807E+06,   1.08807E+06
C:/temp/Job-9.odb,Step-1,Increment      1: Step Time =    1.000,"P-9-1",            31,  10.00000E-03,            0.,            0.,NA,NA,"",   1.23683E+06,   1.26593E+06,   1.26593E+06
C:/temp/Job-9.odb,Step-1,Increment      1: Step Time =    1.000,"P-9-1",            32,   200.000E-03,   190.000E-03,            0.,NA,NA,"",   1.00008E+06,   999.960E+03,   999.960E+03
C:/temp/Job-9.odb,Step-1,Increment      1: Step Time =    1.000,"P-9-1",            33,   200.000E-03,   180.000E-03,            0.,NA,NA,"",   1.00045E+06,   1.00037E+06,   1.00037E+06
C:/temp/Job-9.odb,Step-1,Increment      1: Step Time =    1.000,"P-9-1",            34,   200.000E-03,   170.000E-03,            0.,NA,NA,"",   999.901E+03,   1.00050E+06,   1.00050E+06
C:/temp/Job-9.odb,Step-1,Increment      1: Step Time =    1.000,"P-9-1",            35,   200.000E-03,   160.000E-03,            0.,NA,NA,"",   998.521E+03,   1.00095E+06,   1.00095E+06
C:/temp/Job-9.odb,Step-1,Increment      1: Step Time =    1.000,"P-9-1",            36,   200.000E-03,   150.000E-03,            0.,NA,NA,"",   994.994E+03,   1.00082E+06,   1.00082E+06
C:/temp/Job-9.odb,Step-1,Increment      1: Step Time =    1.000,"P-9-1",            37,   200.000E-03,   140.000E-03,            0.,NA,NA,"",   989.792E+03,   1.00050E+06,   1.00050E+06
C:/temp/Job-9.odb,Step-1,Increment      1: Step Time =    1.000,"P-9-1",            38,   200.000E-03,   130.000E-03,            0.,NA,NA,"",   983.627E+03,   1.00022E+06,   1.00022E+06
C:/temp/Job-9.odb,Step-1,Increment      1: Step Time =    1.000,"P-9-1",            39,   200.000E-03,   120.000E-03,            0.,NA,NA,"",   976.530E+03,   999.013E+03,   999.013E+03
C:/temp/Job-9.odb,Step-1,Increment      1: Step Time =    1.000,"P-9-1",            40,   200.000E-03,   110.000E-03,            0.,NA,NA,"",   972.002E+03,   998.844E+03,   998.844E+03
C:/temp/Job-9.odb,Step-1,Increment      1: Step Time =    1.000,"P-9-1",            41,   200.000E-03,   100.000E-03,            0.,NA,NA,"",   969.589E+03,   998.085E+03,   998.085E+03
C:/temp/Job-9.odb,Step-1,Increment      1: Step Time =    1.000,"P-9-1",            42,   200.000E-03,   90.0000E-03,            0.,NA,NA,"",   972.076E+03,   999.071E+03,   999.071E+03
C:/temp/Job-9.odb,Step-1,Increment      1: Step Time =    1.000,"P-9-1",            43,   200.000E-03,   80.0000E-03,            0.,NA,NA,"",   976.505E+03,   999.326E+03,   999.326E+03
C:/temp/Job-9.odb,Step-1,Increment      1: Step Time =    1.000,"P-9-1",            44,   200.000E-03,   70.0000E-03,            0.,NA,NA,"",   982.986E+03,   999.923E+03,   999.923E+03
C:/temp/Job-9.odb,Step-1,Increment      1: Step Time =    1.000,"P-9-1",            45,   200.000E-03,   60.0000E-03,            0.,NA,NA,"",   990.182E+03,   1.00083E+06,   1.00083E+06
C:/temp/Job-9.odb,Step-1,Increment      1: Step Time =    1.000,"P-9-1",            46,   200.000E-03,   50.0000E-03,            0.,NA,NA,"",   995.073E+03,   1.00055E+06,   1.00055E+06
C:/temp/Job-9.odb,Step-1,Increment      1: Step Time =    1.000,"P-9-1",            47,   200.000E-03,   40.0000E-03,            0.,NA,NA,"",   998.802E+03,   1.00091E+06,   1.00091E+06
C:/temp/Job-9.odb,Step-1,Increment      1: Step Time =    1.000,"P-9-1",            48,   200.000E-03,   30.0000E-03,            0.,NA,NA,"",   999.895E+03,   1.00035E+06,   1.00035E+06
C:/temp/Job-9.odb,Step-1,Increment      1: Step Time =    1.000,"P-9-1",            49,   200.000E-03,   20.0000E-03,            0.,NA,NA,"",   1.00035E+06,   1.00029E+06,   1.00029E+06
C:/temp/Job-9.odb,Step-1,Increment      1: Step Time =    1.000,"P-9-1",            50,   200.000E-03,  10.00000E-03,            0.,NA,NA,"",   1.00005E+06,   999.966E+03,   999.966E+03
C:/temp/Job-9.odb,Step-1,Increment      1: Step Time =    1.000,"P-9-1",            51,  10.00000E-03,   200.000E-03,            0.,NA,NA,"",   1.23680E+06,   1.26609E+06,   1.26609E+06
C:/temp/Job-9.odb,Step-1,Increment      1: Step Time =    1.000,"P-9-1",            52,   20.0000E-03,   200.000E-03,            0.,NA,NA,"",   1.08701E+06,   1.08883E+06,   1.08883E+06
C:/temp/Job-9.odb,Step-1,Increment      1: Step Time =    1.000,"P-9-1",            53,   30.0000E-03,   200.000E-03,            0.,NA,NA,"",   1.02662E+06,   1.03116E+06,   1.03116E+06
C:/temp/Job-9.odb,Step-1,Increment      1: Step Time =    1.000,"P-9-1",            54,   40.0000E-03,   200.000E-03,            0.,NA,NA,"",   999.398E+03,   999.515E+03,   999.515E+03
C:/temp/Job-9.odb,Step-1,Increment      1: Step Time =    1.000,"P-9-1",            55,   50.0000E-03,   200.000E-03,            0.,NA,NA,"",   979.649E+03,   980.756E+03,   980.756E+03
C:/temp/Job-9.odb,Step-1,Increment      1: Step Time =    1.000,"P-9-1",            56,   60.0000E-03,   200.000E-03,            0.,NA,NA,"",   966.739E+03,   966.666E+03,   966.666E+03
C:/temp/Job-9.odb,Step-1,Increment      1: Step Time =    1.000,"P-9-1",            57,   70.0000E-03,   200.000E-03,            0.,NA,NA,"",   954.757E+03,   955.192E+03,   955.192E+03
C:/temp/Job-9.odb,Step-1,Increment      1: Step Time =    1.000,"P-9-1",            58,   80.0000E-03,   200.000E-03,            0.,NA,NA,"",   945.826E+03,   946.171E+03,   946.171E+03
C:/temp/Job-9.odb,Step-1,Increment      1: Step Time =    1.000,"P-9-1",            59,   90.0000E-03,   200.000E-03,            0.,NA,NA,"",   940.577E+03,   941.247E+03,   941.247E+03
C:/temp/Job-9.odb,Step-1,Increment      1: Step Time =    1.000,"P-9-1",            60,   100.000E-03,   200.000E-03,            0.,NA,NA,"",   940.907E+03,   941.434E+03,   941.434E+03
C:/temp/Job-9.odb,Step-1,Increment      1: Step Time =    1.000,"P-9-1",            61,   110.000E-03,   200.000E-03,            0.,NA,NA,"",   946.290E+03,   946.777E+03,   946.777E+03
C:/temp/Job-9.odb,Step-1,Increment      1: Step Time =    1.000,"P-9-1",            62,   120.000E-03,   200.000E-03,            0.,NA,NA,"",   956.200E+03,   956.402E+03,   956.402E+03
C:/temp/Job-9.odb,Step-1,Increment      1: Step Time =    1.000,"P-9-1",            63,   130.000E-03,   200.000E-03,            0.,NA,NA,"",   968.319E+03,   968.216E+03,   968.216E+03
C:/temp/Job-9.odb,Step-1,Increment      1: Step Time =    1.000,"P-9-1",            64,   140.000E-03,   200.000E-03,            0.,NA,NA,"",   979.644E+03,   979.312E+03,   979.312E+03
C:/temp/Job-9.odb,Step-1,Increment      1: Step Time =    1.000,"P-9-1",            65,   150.000E-03,   200.000E-03,            0.,NA,NA,"",   988.211E+03,   987.916E+03,   987.916E+03
C:/temp/Job-9.odb,Step-1,Increment      1: Step Time =    1.000,"P-9-1",            66,   160.000E-03,   200.000E-03,            0.,NA,NA,"",   994.055E+03,   993.748E+03,   993.748E+03
C:/temp/Job-9.odb,Step-1,Increment      1: Step Time =    1.000,"P-9-1",            67,   170.000E-03,   200.000E-03,            0.,NA,NA,"",   997.370E+03,   997.178E+03,   997.178E+03
C:/temp/Job-9.odb,Step-1,Increment      1: Step Time =    1.000,"P-9-1",            68,   180.000E-03,   200.000E-03,            0.,NA,NA,"",   998.984E+03,   998.889E+03,   998.889E+03
C:/temp/Job-9.odb,Step-1,Increment      1: Step Time =    1.000,"P-9-1",            69,   190.000E-03,   200.000E-03,            0.,NA,NA,"",   999.718E+03,   999.664E+03,   999.664E+03
C:/temp/Job-9.odb,Step-1,Increment      1: Step Time =    1.000,"P-9-1",            70,            0.,  10.00000E-03,            0.,NA,NA,"",   1.19123E+06,   1.27104E+06,   1.27104E+06
C:/temp/Job-9.odb,Step-1,Increment      1: Step Time =    1.000,"P-9-1",            71,            0.,   20.0000E-03,            0.,NA,NA,"",   1.00445E+06,   1.09931E+06,   1.09931E+06
C:/temp/Job-9.odb,Step-1,Increment      1: Step Time =    1.000,"P-9-1",            72,            0.,   30.0000E-03,            0.,NA,NA,"",   939.093E+03,   1.03740E+06,   1.03740E+06
C:/temp/Job-9.odb,Step-1,Increment      1: Step Time =    1.000,"P-9-1",            73,            0.,   40.0000E-03,            0.,NA,NA,"",   895.658E+03,   995.423E+03,   995.423E+03
C:/temp/Job-9.odb,Step-1,Increment      1: Step Time =    1.000,"P-9-1",            74,            0.,   50.0000E-03,            0.,NA,NA,"",   865.421E+03,   965.881E+03,   965.881E+03
C:/temp/Job-9.odb,Step-1,Increment      1: Step Time =    1.000,"P-9-1",            75,            0.,   60.0000E-03,            0.,NA,NA,"",   841.051E+03,   941.279E+03,   941.279E+03
C:/temp/Job-9.odb,Step-1,Increment      1: Step Time =    1.000,"P-9-1",            76,            0.,   70.0000E-03,            0.,NA,NA,"",   820.518E+03,   920.858E+03,   920.858E+03
C:/temp/Job-9.odb,Step-1,Increment      1: Step Time =    1.000,"P-9-1",            77,            0.,   80.0000E-03,            0.,NA,NA,"",   804.698E+03,   904.466E+03,   904.466E+03
C:/temp/Job-9.odb,Step-1,Increment      1: Step Time =    1.000,"P-9-1",            78,            0.,   90.0000E-03,            0.,NA,NA,"",   794.424E+03,   894.180E+03,   894.180E+03
C:/temp/Job-9.odb,Step-1,Increment      1: Step Time =    1.000,"P-9-1",            79,            0.,   100.000E-03,            0.,NA,NA,"",   790.729E+03,   890.340E+03,   890.340E+03
C:/temp/Job-9.odb,Step-1,Increment      1: Step Time =    1.000,"P-9-1",            80,            0.,   110.000E-03,            0.,NA,NA,"",   794.526E+03,   894.388E+03,   894.388E+03
C:/temp/Job-9.odb,Step-1,Increment      1: Step Time =    1.000,"P-9-1",            81,            0.,   120.000E-03,            0.,NA,NA,"",   804.098E+03,   904.411E+03,   904.411E+03
C:/temp/Job-9.odb,Step-1,Increment      1: Step Time =    1.000,"P-9-1",            82,            0.,   130.000E-03,            0.,NA,NA,"",   819.706E+03,   920.337E+03,   920.337E+03
C:/temp/Job-9.odb,Step-1,Increment      1: Step Time =    1.000,"P-9-1",            83,            0.,   140.000E-03,            0.,NA,NA,"",   839.285E+03,   940.388E+03,   940.388E+03
C:/temp/Job-9.odb,Step-1,Increment      1: Step Time =    1.000,"P-9-1",            84,            0.,   150.000E-03,            0.,NA,NA,"",   863.868E+03,   964.869E+03,   964.869E+03
C:/temp/Job-9.odb,Step-1,Increment      1: Step Time =    1.000,"P-9-1",            85,            0.,   160.000E-03,            0.,NA,NA,"",   894.492E+03,   994.884E+03,   994.884E+03
C:/temp/Job-9.odb,Step-1,Increment      1: Step Time =    1.000,"P-9-1",            86,            0.,   170.000E-03,            0.,NA,NA,"",   937.794E+03,   1.03655E+06,   1.03655E+06
C:/temp/Job-9.odb,Step-1,Increment      1: Step Time =    1.000,"P-9-1",            87,            0.,   180.000E-03,            0.,NA,NA,"",   1.00308E+06,   1.09820E+06,   1.09820E+06
C:/temp/Job-9.odb,Step-1,Increment      1: Step Time =    1.000,"P-9-1",            88,            0.,   190.000E-03,            0.,NA,NA,"",   1.19013E+06,   1.26993E+06,   1.26993E+06
C:/temp/Job-9.odb,Step-1,Increment      1: Step Time =    1.000,"P-9-1",            89,   108.123E-03,   119.902E-03,            0.,NA,NA,"",   1.35124E+06,   1.39641E+06,   1.39641E+06
C:/temp/Job-9.odb,Step-1,Increment      1: Step Time =    1.000,"P-9-1",            90,   117.142E-03,   110.770E-03,            0.,NA,NA,"",   1.00408E+06,   880.342E+03,   880.342E+03
C:/temp/Job-9.odb,Step-1,Increment      1: Step Time =    1.000,"P-9-1",            91,   110.598E-03,   82.0935E-03,            0.,NA,NA,"",   1.38100E+06,   1.38370E+06,   1.38370E+06
C:/temp/Job-9.odb,Step-1,Increment      1: Step Time =    1.000,"P-9-1",            92,   90.6292E-03,   79.5486E-03,            0.,NA,NA,"",   1.31923E+06,   1.34589E+06,   1.34589E+06
C:/temp/Job-9.odb,Step-1,Increment      1: Step Time =    1.000,"P-9-1",            93,   80.6306E-03,   90.5500E-03,            0.,NA,NA,"",   874.223E+03,   786.921E+03,   786.921E+03
C:/temp/Job-9.odb,Step-1,Increment      1: Step Time =    1.000,"P-9-1",            94,   79.8323E-03,   110.058E-03,            0.,NA,NA,"",   914.888E+03,   833.469E+03,   833.469E+03
C:/temp/Job-9.odb,Step-1,Increment      1: Step Time =    1.000,"P-9-1",            95,   119.237E-03,   92.1469E-03,            0.,NA,NA,"",   816.354E+03,     552.4E+03,     552.4E+03
C:/temp/Job-9.odb,Step-1,Increment      1: Step Time =    1.000,"P-9-1",            96,   90.9032E-03,   118.883E-03,            0.,NA,NA,"",   1.36477E+06,   1.39924E+06,   1.39924E+06
C:/temp/Job-9.odb,Step-1,Increment      1: Step Time =    1.000,"P-9-1",            97,   149.243E-03,   9.80502E-03,            0.,NA,NA,"",   993.754E+03,   992.624E+03,   992.624E+03
C:/temp/Job-9.odb,Step-1,Increment      1: Step Time =    1.000,"P-9-1",            98,   190.235E-03,   139.671E-03,            0.,NA,NA,"",   993.006E+03,   1.00171E+06,   1.00171E+06
C:/temp/Job-9.odb,Step-1,Increment      1: Step Time =    1.000,"P-9-1",            99,   190.686E-03,   119.265E-03,            0.,NA,NA,"",   979.041E+03,   997.956E+03,   997.956E+03
C:/temp/Job-9.odb,Step-1,Increment      1: Step Time =    1.000,"P-9-1",           100,   129.228E-03,   9.33087E-03,            0.,NA,NA,"",   976.665E+03,   976.568E+03,   976.568E+03
C:/temp/Job-9.odb,Step-1,Increment      1: Step Time =    1.000,"P-9-1",           101,   9.64707E-03,   80.3236E-03,            0.,NA,NA,"",   815.186E+03,   910.878E+03,   910.878E+03
C:/temp/Job-9.odb,Step-1,Increment      1: Step Time =    1.000,"P-9-1",           102,   79.9677E-03,   190.728E-03,            0.,NA,NA,"",   961.200E+03,   962.467E+03,   962.467E+03
C:/temp/Job-9.odb,Step-1,Increment      1: Step Time =    1.000,"P-9-1",           103,   119.212E-03,   9.51464E-03,            0.,NA,NA,"",   967.073E+03,   967.844E+03,   967.844E+03
C:/temp/Job-9.odb,Step-1,Increment      1: Step Time =    1.000,"P-9-1",           104,   109.161E-03,   9.62530E-03,            0.,NA,NA,"",   959.450E+03,   960.803E+03,   960.803E+03
C:/temp/Job-9.odb,Step-1,Increment      1: Step Time =    1.000,"P-9-1",           105,   99.0395E-03,   9.41902E-03,            0.,NA,NA,"",   955.034E+03,   956.889E+03,   956.889E+03
C:/temp/Job-9.odb,Step-1,Increment      1: Step Time =    1.000,"P-9-1",           106,   88.9159E-03,   9.14112E-03,            0.,NA,NA,"",   955.731E+03,   957.260E+03,   957.260E+03
C:/temp/Job-9.odb,Step-1,Increment      1: Step Time =    1.000,"P-9-1",           107,   78.9868E-03,   8.94256E-03,            0.,NA,NA,"",   961.385E+03,   962.291E+03,   962.291E+03
C:/temp/Job-9.odb,Step-1,Increment      1: Step Time =    1.000,"P-9-1",           108,   190.729E-03,   109.022E-03,            0.,NA,NA,"",   973.276E+03,   996.020E+03,   996.020E+03
C:/temp/Job-9.odb,Step-1,Increment      1: Step Time =    1.000,"P-9-1",           109,   190.680E-03,   98.8417E-03,            0.,NA,NA,"",   971.497E+03,   995.449E+03,   995.449E+03
C:/temp/Job-9.odb,Step-1,Increment      1: Step Time =    1.000,"P-9-1",           110,   190.726E-03,   88.8663E-03,            0.,NA,NA,"",   974.057E+03,   996.592E+03,   996.592E+03
C:/temp/Job-9.odb,Step-1,Increment      1: Step Time =    1.000,"P-9-1",           111,   190.970E-03,   79.0742E-03,            0.,NA,NA,"",   979.411E+03,   998.294E+03,   998.294E+03
C:/temp/Job-9.odb,Step-1,Increment      1: Step Time =    1.000,"P-9-1",           112,   191.238E-03,   69.3432E-03,            0.,NA,NA,"",   986.422E+03,   1.00029E+06,   1.00029E+06
C:/temp/Job-9.odb,Step-1,Increment      1: Step Time =    1.000,"P-9-1",           113,   90.1947E-03,   190.653E-03,            0.,NA,NA,"",   955.556E+03,   957.217E+03,   957.217E+03
C:/temp/Job-9.odb,Step-1,Increment      1: Step Time =    1.000,"P-9-1",           114,   100.334E-03,   190.584E-03,            0.,NA,NA,"",   955.083E+03,   956.755E+03,   956.755E+03
C:/temp/Job-9.odb,Step-1,Increment      1: Step Time =    1.000,"P-9-1",           115,   110.476E-03,   190.802E-03,            0.,NA,NA,"",   959.245E+03,   960.539E+03,   960.539E+03
C:/temp/Job-9.odb,Step-1,Increment      1: Step Time =    1.000,"P-9-1",           116,   120.654E-03,   190.983E-03,            0.,NA,NA,"",   967.591E+03,   968.091E+03,   968.091E+03
C:/temp/Job-9.odb,Step-1,Increment      1: Step Time =    1.000,"P-9-1",           117,   130.565E-03,   190.881E-03,            0.,NA,NA,"",   977.770E+03,   977.337E+03,   977.337E+03
C:/temp/Job-9.odb,Step-1,Increment      1: Step Time =    1.000,"P-9-1",           118,   9.38506E-03,   90.5148E-03,            0.,NA,NA,"",   802.609E+03,   898.824E+03,   898.824E+03
C:/temp/Job-9.odb,Step-1,Increment      1: Step Time =    1.000,"P-9-1",           119,   9.18675E-03,   100.619E-03,            0.,NA,NA,"",   798.931E+03,   895.332E+03,   895.332E+03
C:/temp/Job-9.odb,Step-1,Increment      1: Step Time =    1.000,"P-9-1",           120,   9.07869E-03,   110.605E-03,            0.,NA,NA,"",   803.214E+03,   899.649E+03,   899.649E+03
C:/temp/Job-9.odb,Step-1,Increment      1: Step Time =    1.000,"P-9-1",           121,   9.02546E-03,   120.500E-03,            0.,NA,NA,"",   815.315E+03,   911.564E+03,   911.564E+03
C:/temp/Job-9.odb,Step-1,Increment      1: Step Time =    1.000,"P-9-1",           122,   9.01491E-03,   130.386E-03,            0.,NA,NA,"",   832.288E+03,   928.234E+03,   928.234E+03
C:/temp/Job-9.odb,Step-1,Increment      1: Step Time =    1.000,"P-9-1",           123,   49.7356E-03,   189.942E-03,            0.,NA,NA,"",   998.073E+03,   999.669E+03,   999.669E+03
C:/temp/Job-9.odb,Step-1,Increment      1: Step Time =    1.000,"P-9-1",           124,   59.7733E-03,   190.215E-03,            0.,NA,NA,"",   983.836E+03,   984.579E+03,   984.579E+03
C:/temp/Job-9.odb,Step-1,Increment      1: Step Time =    1.000,"P-9-1",           125,   69.8477E-03,   190.563E-03,            0.,NA,NA,"",   971.266E+03,   971.888E+03,   971.888E+03
C:/temp/Job-9.odb,Step-1,Increment      1: Step Time =    1.000,"P-9-1",           126,   10.1082E-03,   49.6765E-03,            0.,NA,NA,"",   885.121E+03,   977.233E+03,   977.233E+03
C:/temp/Job-9.odb,Step-1,Increment      1: Step Time =    1.000,"P-9-1",           127,   10.1320E-03,   59.8686E-03,            0.,NA,NA,"",   858.151E+03,   951.862E+03,   951.862E+03
C:/temp/Job-9.odb,Step-1,Increment      1: Step Time =    1.000,"P-9-1",           128,   9.90564E-03,   70.0388E-03,            0.,NA,NA,"",   834.287E+03,   929.101E+03,   929.101E+03
C:/temp/Job-9.odb,Step-1,Increment      1: Step Time =    1.000,"P-9-1",           129,   169.748E-03,   10.6682E-03,            0.,NA,NA,"",   1.00014E+06,   999.428E+03,   999.428E+03
C:/temp/Job-9.odb,Step-1,Increment      1: Step Time =    1.000,"P-9-1",           130,   159.426E-03,   10.7937E-03,            0.,NA,NA,"",   998.595E+03,   997.507E+03,   997.507E+03
C:/temp/Job-9.odb,Step-1,Increment      1: Step Time =    1.000,"P-9-1",           131,   139.160E-03,   9.35879E-03,            0.,NA,NA,"",   985.892E+03,   985.171E+03,   985.171E+03
C:/temp/Job-9.odb,Step-1,Increment      1: Step Time =    1.000,"P-9-1",           132,   69.1437E-03,   8.83192E-03,            0.,NA,NA,"",   970.022E+03,   970.527E+03,   970.527E+03
C:/temp/Job-9.odb,Step-1,Increment      1: Step Time =    1.000,"P-9-1",           133,   59.2787E-03,   8.84845E-03,            0.,NA,NA,"",   981.288E+03,   981.953E+03,   981.953E+03
C:/temp/Job-9.odb,Step-1,Increment      1: Step Time =    1.000,"P-9-1",           134,   49.3833E-03,   8.97459E-03,            0.,NA,NA,"",   995.436E+03,   996.832E+03,   996.832E+03
C:/temp/Job-9.odb,Step-1,Increment      1: Step Time =    1.000,"P-9-1",           135,   39.4766E-03,   9.15543E-03,            0.,NA,NA,"",   1.01569E+06,   1.01859E+06,   1.01859E+06
C:/temp/Job-9.odb,Step-1,Increment      1: Step Time =    1.000,"P-9-1",           136,   29.5901E-03,   9.35885E-03,            0.,NA,NA,"",   1.04357E+06,   1.05082E+06,   1.05082E+06
C:/temp/Job-9.odb,Step-1,Increment      1: Step Time =    1.000,"P-9-1",           137,   190.157E-03,   170.051E-03,            0.,NA,NA,"",   1.00140E+06,   1.00173E+06,   1.00173E+06
C:/temp/Job-9.odb,Step-1,Increment      1: Step Time =    1.000,"P-9-1",           138,   190.098E-03,   159.915E-03,            0.,NA,NA,"",   1.00055E+06,   1.00239E+06,   1.00239E+06
C:/temp/Job-9.odb,Step-1,Increment      1: Step Time =    1.000,"P-9-1",           139,   190.081E-03,   149.786E-03,            0.,NA,NA,"",   997.885E+03,   1.00249E+06,   1.00249E+06
C:/temp/Job-9.odb,Step-1,Increment      1: Step Time =    1.000,"P-9-1",           140,   190.460E-03,   129.503E-03,            0.,NA,NA,"",   986.443E+03,   1.00024E+06,   1.00024E+06
C:/temp/Job-9.odb,Step-1,Increment      1: Step Time =    1.000,"P-9-1",           141,   191.362E-03,   59.6059E-03,            0.,NA,NA,"",   993.049E+03,   1.00183E+06,   1.00183E+06
C:/temp/Job-9.odb,Step-1,Increment      1: Step Time =    1.000,"P-9-1",           142,   191.257E-03,   49.7710E-03,            0.,NA,NA,"",   997.672E+03,   1.00219E+06,   1.00219E+06
C:/temp/Job-9.odb,Step-1,Increment      1: Step Time =    1.000,"P-9-1",           143,   190.977E-03,   39.8943E-03,            0.,NA,NA,"",   1.00041E+06,   1.00214E+06,   1.00214E+06
C:/temp/Job-9.odb,Step-1,Increment      1: Step Time =    1.000,"P-9-1",           144,   190.613E-03,   29.9845E-03,            0.,NA,NA,"",   1.00113E+06,   1.00146E+06,   1.00146E+06
C:/temp/Job-9.odb,Step-1,Increment      1: Step Time =    1.000,"P-9-1",           145,   190.278E-03,   20.0670E-03,            0.,NA,NA,"",   1.00073E+06,   1.00063E+06,   1.00063E+06
C:/temp/Job-9.odb,Step-1,Increment      1: Step Time =    1.000,"P-9-1",           146,   190.066E-03,   10.0801E-03,            0.,NA,NA,"",   1.00008E+06,   999.998E+03,   999.998E+03
C:/temp/Job-9.odb,Step-1,Increment      1: Step Time =    1.000,"P-9-1",           147,   140.468E-03,   190.633E-03,            0.,NA,NA,"",   986.728E+03,   985.875E+03,   985.875E+03
C:/temp/Job-9.odb,Step-1,Increment      1: Step Time =    1.000,"P-9-1",           148,   150.442E-03,   190.457E-03,            0.,NA,NA,"",   993.421E+03,   992.475E+03,   992.475E+03
C:/temp/Job-9.odb,Step-1,Increment      1: Step Time =    1.000,"P-9-1",           149,   160.422E-03,   190.362E-03,            0.,NA,NA,"",   997.591E+03,   996.745E+03,   996.745E+03
C:/temp/Job-9.odb,Step-1,Increment      1: Step Time =    1.000,"P-9-1",           150,   170.330E-03,   190.292E-03,            0.,NA,NA,"",   999.505E+03,   998.937E+03,   998.937E+03
C:/temp/Job-9.odb,Step-1,Increment      1: Step Time =    1.000,"P-9-1",           151,   180.214E-03,   190.207E-03,            0.,NA,NA,"",   1.00003E+06,   999.774E+03,   999.774E+03
C:/temp/Job-9.odb,Step-1,Increment      1: Step Time =    1.000,"P-9-1",           152,   190.118E-03,   190.114E-03,            0.,NA,NA,"",   1.00007E+06,   999.958E+03,   999.958E+03
C:/temp/Job-9.odb,Step-1,Increment      1: Step Time =    1.000,"P-9-1",           153,   9.03707E-03,   140.371E-03,            0.,NA,NA,"",   855.391E+03,   950.451E+03,   950.451E+03
C:/temp/Job-9.odb,Step-1,Increment      1: Step Time =    1.000,"P-9-1",           154,   9.11353E-03,   150.416E-03,            0.,NA,NA,"",   881.873E+03,   975.546E+03,   975.546E+03
C:/temp/Job-9.odb,Step-1,Increment      1: Step Time =    1.000,"P-9-1",           155,   9.25622E-03,   160.400E-03,            0.,NA,NA,"",    917.14E+03,   1.00798E+06,   1.00798E+06
C:/temp/Job-9.odb,Step-1,Increment      1: Step Time =    1.000,"P-9-1",           156,   9.45034E-03,   170.318E-03,            0.,NA,NA,"",   959.223E+03,   1.04565E+06,   1.04565E+06
C:/temp/Job-9.odb,Step-1,Increment      1: Step Time =    1.000,"P-9-1",           157,   9.64514E-03,   180.215E-03,            0.,NA,NA,"",   1.03953E+06,   1.11456E+06,   1.11456E+06
C:/temp/Job-9.odb,Step-1,Increment      1: Step Time =    1.000,"P-9-1",           158,   9.82661E-03,   190.134E-03,            0.,NA,NA,"",   1.16862E+06,   1.21624E+06,   1.21624E+06
C:/temp/Job-9.odb,Step-1,Increment      1: Step Time =    1.000,"P-9-1",           159,   116.042E-03,   120.631E-03,            0.,NA,NA,"",   1.27593E+06,   1.22375E+06,   1.22375E+06
C:/temp/Job-9.odb,Step-1,Increment      1: Step Time =    1.000,"P-9-1",           160,   100.878E-03,   80.3011E-03,            0.,NA,NA,"",   1.41178E+06,   1.50110E+06,   1.50110E+06
C:/temp/Job-9.odb,Step-1,Increment      1: Step Time =    1.000,"P-9-1",           161,   80.0248E-03,   99.9172E-03,            0.,NA,NA,"",   617.388E+03,   520.120E+03,   520.120E+03
C:/temp/Job-9.odb,Step-1,Increment      1: Step Time =    1.000,"P-9-1",           162,   118.824E-03,   101.121E-03,            0.,NA,NA,"",   628.737E+03,   338.206E+03,   338.206E+03
C:/temp/Job-9.odb,Step-1,Increment      1: Step Time =    1.000,"P-9-1",           163,   80.1169E-03,   81.4434E-03,            0.,NA,NA,"",   1.19454E+06,   1.14050E+06,   1.14050E+06
C:/temp/Job-9.odb,Step-1,Increment      1: Step Time =    1.000,"P-9-1",           164,   120.427E-03,   83.6633E-03,            0.,NA,NA,"",   1.19989E+06,   1.11358E+06,   1.11358E+06
C:/temp/Job-9.odb,Step-1,Increment      1: Step Time =    1.000,"P-9-1",           165,   82.2220E-03,   119.879E-03,            0.,NA,NA,"",   1.24483E+06,   1.20134E+06,   1.20134E+06
C:/temp/Job-9.odb,Step-1,Increment      1: Step Time =    1.000,"P-9-1",           166,   99.5537E-03,   119.623E-03,            0.,NA,NA,"",   1.41031E+06,   1.50214E+06,   1.50214E+06
C:/temp/Job-9.odb,Step-1,Increment      1: Step Time =    1.000,"P-9-1",           167,   9.93646E-03,   39.5524E-03,            0.,NA,NA,"",   920.431E+03,   1.00976E+06,   1.00976E+06
C:/temp/Job-9.odb,Step-1,Increment      1: Step Time =    1.000,"P-9-1",           168,   39.7450E-03,   189.928E-03,            0.,NA,NA,"",   1.01729E+06,   1.02070E+06,   1.02070E+06
C:/temp/Job-9.odb,Step-1,Increment      1: Step Time =    1.000,"P-9-1",           169,   180.006E-03,   10.3308E-03,            0.,NA,NA,"",   1.00029E+06,   999.943E+03,   999.943E+03
C:/temp/Job-9.odb,Step-1,Increment      1: Step Time =    1.000,"P-9-1",           170,   190.147E-03,   180.122E-03,            0.,NA,NA,"",   1.00099E+06,   1.00084E+06,   1.00084E+06
C:/temp/Job-9.odb,Step-1,Increment      1: Step Time =    1.000,"P-9-1",           171,   18.9698E-03,   80.7612E-03,            0.,NA,NA,"",   835.040E+03,   921.629E+03,   921.629E+03
C:/temp/Job-9.odb,Step-1,Increment      1: Step Time =    1.000,"P-9-1",           172,   79.8841E-03,   181.971E-03,            0.,NA,NA,"",   988.699E+03,   991.865E+03,   991.865E+03
C:/temp/Job-9.odb,Step-1,Increment      1: Step Time =    1.000,"P-9-1",           173,   181.847E-03,   118.403E-03,            0.,NA,NA,"",   981.713E+03,   994.413E+03,   994.413E+03
C:/temp/Job-9.odb,Step-1,Increment      1: Step Time =    1.000,"P-9-1",           174,   118.626E-03,   19.1050E-03,            0.,NA,NA,"",   989.413E+03,   991.411E+03,   991.411E+03
C:/temp/Job-9.odb,Step-1,Increment      1: Step Time =    1.000,"P-9-1",           175,   97.9092E-03,   18.7496E-03,            0.,NA,NA,"",   980.187E+03,   985.369E+03,   985.369E+03
C:/temp/Job-9.odb,Step-1,Increment      1: Step Time =    1.000,"P-9-1",           176,   77.8379E-03,   17.9862E-03,            0.,NA,NA,"",   990.175E+03,   992.650E+03,   992.650E+03
C:/temp/Job-9.odb,Step-1,Increment      1: Step Time =    1.000,"P-9-1",           177,   181.570E-03,   97.7425E-03,            0.,NA,NA,"",   970.476E+03,   987.221E+03,   987.221E+03
C:/temp/Job-9.odb,Step-1,Increment      1: Step Time =    1.000,"P-9-1",           178,   181.765E-03,   77.8170E-03,            0.,NA,NA,"",   984.826E+03,   996.217E+03,   996.217E+03
C:/temp/Job-9.odb,Step-1,Increment      1: Step Time =    1.000,"P-9-1",           179,   100.624E-03,   181.126E-03,            0.,NA,NA,"",   979.716E+03,   984.592E+03,   984.592E+03
C:/temp/Job-9.odb,Step-1,Increment      1: Step Time =    1.000,"P-9-1",           180,   121.239E-03,   182.387E-03,            0.,NA,NA,"",   988.563E+03,   989.563E+03,   989.563E+03
C:/temp/Job-9.odb,Step-1,Increment      1: Step Time =    1.000,"P-9-1",           181,   18.3665E-03,   101.264E-03,            0.,NA,NA,"",   814.600E+03,   903.438E+03,   903.438E+03
C:/temp/Job-9.odb,Step-1,Increment      1: Step Time =    1.000,"P-9-1",           182,   18.3123E-03,   121.045E-03,            0.,NA,NA,"",   837.639E+03,   924.622E+03,   924.622E+03
C:/temp/Job-9.odb,Step-1,Increment      1: Step Time =    1.000,"P-9-1",           183,   138.230E-03,   18.4390E-03,            0.,NA,NA,"",   1.00055E+06,   998.671E+03,   998.671E+03
C:/temp/Job-9.odb,Step-1,Increment      1: Step Time =    1.000,"P-9-1",           184,   180.373E-03,   139.103E-03,            0.,NA,NA,"",   1.00098E+06,   1.00503E+06,   1.00503E+06
C:/temp/Job-9.odb,Step-1,Increment      1: Step Time =    1.000,"P-9-1",           185,   59.9544E-03,   180.492E-03,            0.,NA,NA,"",   1.01277E+06,   1.01516E+06,   1.01516E+06
C:/temp/Job-9.odb,Step-1,Increment      1: Step Time =    1.000,"P-9-1",           186,   20.2363E-03,   59.8485E-03,            0.,NA,NA,"",   893.758E+03,   972.158E+03,   972.158E+03
C:/temp/Job-9.odb,Step-1,Increment      1: Step Time =    1.000,"P-9-1",           187,   9.77118E-03,   19.6356E-03,            0.,NA,NA,"",   1.04233E+06,   1.11651E+06,   1.11651E+06
C:/temp/Job-9.odb,Step-1,Increment      1: Step Time =    1.000,"P-9-1",           188,   19.7377E-03,   190.135E-03,            0.,NA,NA,"",   1.10344E+06,   1.11656E+06,   1.11656E+06
C:/temp/Job-9.odb,Step-1,Increment      1: Step Time =    1.000,"P-9-1",           189,   29.7176E-03,   190.037E-03,            0.,NA,NA,"",   1.04437E+06,   1.05224E+06,   1.05224E+06
C:/temp/Job-9.odb,Step-1,Increment      1: Step Time =    1.000,"P-9-1",           190,   9.80708E-03,   29.5472E-03,            0.,NA,NA,"",   962.001E+03,   1.04729E+06,   1.04729E+06
C:/temp/Job-9.odb,Step-1,Increment      1: Step Time =    1.000,"P-9-1",           191,   147.737E-03,   18.8311E-03,            0.,NA,NA,"",   1.00529E+06,   1.00256E+06,   1.00256E+06
C:/temp/Job-9.odb,Step-1,Increment      1: Step Time =    1.000,"P-9-1",           192,   19.7089E-03,   9.56409E-03,            0.,NA,NA,"",   1.10395E+06,   1.11631E+06,   1.11631E+06
C:/temp/Job-9.odb,Step-1,Increment      1: Step Time =    1.000,"P-9-1",           193,   108.309E-03,   19.5507E-03,            0.,NA,NA,"",   982.997E+03,   987.522E+03,   987.522E+03
C:/temp/Job-9.odb,Step-1,Increment      1: Step Time =    1.000,"P-9-1",           194,   150.584E-03,   180.849E-03,            0.,NA,NA,"",   1.00587E+06,   1.00312E+06,   1.00312E+06
C:/temp/Job-9.odb,Step-1,Increment      1: Step Time =    1.000,"P-9-1",           195,   181.946E-03,   108.148E-03,            0.,NA,NA,"",   973.021E+03,   989.019E+03,   989.019E+03
C:/temp/Job-9.odb,Step-1,Increment      1: Step Time =    1.000,"P-9-1",           196,   182.599E-03,   49.7467E-03,            0.,NA,NA,"",   1.00465E+06,   1.00643E+06,   1.00643E+06
C:/temp/Job-9.odb,Step-1,Increment      1: Step Time =    1.000,"P-9-1",           197,   18.9658E-03,   170.432E-03,            0.,NA,NA,"",   1.00332E+06,   1.06371E+06,   1.06371E+06
C:/temp/Job-9.odb,Step-1,Increment      1: Step Time =    1.000,"P-9-1",           198,   49.6853E-03,   179.546E-03,            0.,NA,NA,"",   1.02616E+06,   1.03116E+06,   1.03116E+06
C:/temp/Job-9.odb,Step-1,Increment      1: Step Time =    1.000,"P-9-1",           199,   180.010E-03,   149.487E-03,            0.,NA,NA,"",   1.00568E+06,   1.00691E+06,   1.00691E+06
C:/temp/Job-9.odb,Step-1,Increment      1: Step Time =    1.000,"P-9-1",           200,   180.094E-03,   159.837E-03,            0.,NA,NA,"",   1.00738E+06,   1.00690E+06,   1.00690E+06
C:/temp/Job-9.odb,Step-1,Increment      1: Step Time =    1.000,"P-9-1",           201,   29.3196E-03,   18.8109E-03,            0.,NA,NA,"",   1.06169E+06,   1.07881E+06,   1.07881E+06
C:/temp/Job-9.odb,Step-1,Increment      1: Step Time =    1.000,"P-9-1",           202,   20.0614E-03,   49.2240E-03,            0.,NA,NA,"",   927.591E+03,   1.00121E+06,   1.00121E+06
C:/temp/Job-9.odb,Step-1,Increment      1: Step Time =    1.000,"P-9-1",           203,   18.5830E-03,   91.0909E-03,            0.,NA,NA,"",   819.260E+03,   907.565E+03,   907.565E+03
C:/temp/Job-9.odb,Step-1,Increment      1: Step Time =    1.000,"P-9-1",           204,   90.1887E-03,   181.627E-03,            0.,NA,NA,"",   981.490E+03,   986.275E+03,   986.275E+03
C:/temp/Job-9.odb,Step-1,Increment      1: Step Time =    1.000,"P-9-1",           205,   87.6491E-03,   18.1926E-03,            0.,NA,NA,"",   983.292E+03,   987.334E+03,   987.334E+03
C:/temp/Job-9.odb,Step-1,Increment      1: Step Time =    1.000,"P-9-1",           206,   181.246E-03,   87.5162E-03,            0.,NA,NA,"",   975.711E+03,   990.387E+03,   990.387E+03
C:/temp/Job-9.odb,Step-1,Increment      1: Step Time =    1.000,"P-9-1",           207,   111.026E-03,   181.975E-03,            0.,NA,NA,"",   982.245E+03,   985.698E+03,   985.698E+03
C:/temp/Job-9.odb,Step-1,Increment      1: Step Time =    1.000,"P-9-1",           208,   18.3718E-03,   111.234E-03,            0.,NA,NA,"",   821.993E+03,   910.269E+03,   910.269E+03
C:/temp/Job-9.odb,Step-1,Increment      1: Step Time =    1.000,"P-9-1",           209,   17.9849E-03,   140.717E-03,            0.,NA,NA,"",   887.592E+03,   969.436E+03,   969.436E+03
C:/temp/Job-9.odb,Step-1,Increment      1: Step Time =    1.000,"P-9-1",           210,   69.9964E-03,   181.444E-03,            0.,NA,NA,"",   1.00036E+06,   1.00206E+06,   1.00206E+06
C:/temp/Job-9.odb,Step-1,Increment      1: Step Time =    1.000,"P-9-1",           211,   58.6325E-03,   17.7275E-03,            0.,NA,NA,"",   1.01032E+06,   1.01244E+06,   1.01244E+06
C:/temp/Job-9.odb,Step-1,Increment      1: Step Time =    1.000,"P-9-1",           212,   19.5026E-03,   70.2042E-03,            0.,NA,NA,"",   861.764E+03,   944.884E+03,   944.884E+03
C:/temp/Job-9.odb,Step-1,Increment      1: Step Time =    1.000,"P-9-1",           213,   158.242E-03,   22.7233E-03,            0.,NA,NA,"",   1.01075E+06,   1.00738E+06,   1.00738E+06
C:/temp/Job-9.odb,Step-1,Increment      1: Step Time =    1.000,"P-9-1",           214,   182.808E-03,   59.2199E-03,            0.,NA,NA,"",   1.00038E+06,   1.00488E+06,   1.00488E+06
C:/temp/Job-9.odb,Step-1,Increment      1: Step Time =    1.000,"P-9-1",           215,   128.629E-03,   18.5907E-03,            0.,NA,NA,"",   995.588E+03,   995.136E+03,   995.136E+03
C:/temp/Job-9.odb,Step-1,Increment      1: Step Time =    1.000,"P-9-1",           216,   68.2648E-03,   17.7408E-03,            0.,NA,NA,"",   999.485E+03,   1.00119E+06,   1.00119E+06
C:/temp/Job-9.odb,Step-1,Increment      1: Step Time =    1.000,"P-9-1",           217,   48.8599E-03,   17.9981E-03,            0.,NA,NA,"",   1.02392E+06,   1.02783E+06,   1.02783E+06
C:/temp/Job-9.odb,Step-1,Increment      1: Step Time =    1.000,"P-9-1",           218,   39.0748E-03,   18.3805E-03,            0.,NA,NA,"",   1.03868E+06,   1.04800E+06,   1.04800E+06
C:/temp/Job-9.odb,Step-1,Increment      1: Step Time =    1.000,"P-9-1",           219,   140.554E-03,   181.200E-03,            0.,NA,NA,"",   1.00236E+06,   1.00004E+06,   1.00004E+06
C:/temp/Job-9.odb,Step-1,Increment      1: Step Time =    1.000,"P-9-1",           220,   181.140E-03,   128.759E-03,            0.,NA,NA,"",   992.293E+03,   1.00040E+06,   1.00040E+06
C:/temp/Job-9.odb,Step-1,Increment      1: Step Time =    1.000,"P-9-1",           221,   182.411E-03,   68.4505E-03,            0.,NA,NA,"",   993.652E+03,   1.00157E+06,   1.00157E+06
C:/temp/Job-9.odb,Step-1,Increment      1: Step Time =    1.000,"P-9-1",           222,   169.942E-03,   21.2419E-03,            0.,NA,NA,"",   1.00591E+06,   1.00416E+06,   1.00416E+06
C:/temp/Job-9.odb,Step-1,Increment      1: Step Time =    1.000,"P-9-1",           223,   181.952E-03,   40.1533E-03,            0.,NA,NA,"",   1.00582E+06,   1.00594E+06,   1.00594E+06
C:/temp/Job-9.odb,Step-1,Increment      1: Step Time =    1.000,"P-9-1",           224,   181.092E-03,   30.3681E-03,            0.,NA,NA,"",   1.00475E+06,   1.00421E+06,   1.00421E+06
C:/temp/Job-9.odb,Step-1,Increment      1: Step Time =    1.000,"P-9-1",           225,   130.767E-03,   181.880E-03,            0.,NA,NA,"",   996.273E+03,   995.146E+03,   995.146E+03
C:/temp/Job-9.odb,Step-1,Increment      1: Step Time =    1.000,"P-9-1",           226,   180.234E-03,   170.113E-03,            0.,NA,NA,"",   1.00584E+06,   1.00494E+06,   1.00494E+06
C:/temp/Job-9.odb,Step-1,Increment      1: Step Time =    1.000,"P-9-1",           227,   160.615E-03,   180.605E-03,            0.,NA,NA,"",   1.00645E+06,   1.00404E+06,   1.00404E+06
C:/temp/Job-9.odb,Step-1,Increment      1: Step Time =    1.000,"P-9-1",           228,   170.454E-03,   180.405E-03,            0.,NA,NA,"",   1.00488E+06,   1.00335E+06,   1.00335E+06
C:/temp/Job-9.odb,Step-1,Increment      1: Step Time =    1.000,"P-9-1",           229,   18.1566E-03,   130.791E-03,            0.,NA,NA,"",   860.360E+03,   945.101E+03,   945.101E+03
C:/temp/Job-9.odb,Step-1,Increment      1: Step Time =    1.000,"P-9-1",           230,   18.0871E-03,   150.751E-03,            0.,NA,NA,"",   919.689E+03,   997.225E+03,   997.225E+03
C:/temp/Job-9.odb,Step-1,Increment      1: Step Time =    1.000,"P-9-1",           231,   18.4606E-03,   160.636E-03,            0.,NA,NA,"",   956.884E+03,   1.02777E+06,   1.02777E+06
C:/temp/Job-9.odb,Step-1,Increment      1: Step Time =    1.000,"P-9-1",           232,   180.335E-03,   20.4639E-03,            0.,NA,NA,"",   1.00264E+06,   1.00203E+06,   1.00203E+06
C:/temp/Job-9.odb,Step-1,Increment      1: Step Time =    1.000,"P-9-1",           233,   180.260E-03,   180.231E-03,            0.,NA,NA,"",   1.00263E+06,   1.00201E+06,   1.00201E+06
C:/temp/Job-9.odb,Step-1,Increment      1: Step Time =    1.000,"P-9-1",           234,   19.3942E-03,   180.248E-03,            0.,NA,NA,"",   1.07538E+06,   1.11449E+06,   1.11449E+06
C:/temp/Job-9.odb,Step-1,Increment      1: Step Time =    1.000,"P-9-1",           235,   107.372E-03,   30.7423E-03,            0.,NA,NA,"",   1.00387E+06,   1.01413E+06,   1.01413E+06
C:/temp/Job-9.odb,Step-1,Increment      1: Step Time =    1.000,"P-9-1",           236,   169.438E-03,   149.154E-03,            0.,NA,NA,"",   1.01930E+06,   1.01498E+06,   1.01498E+06
C:/temp/Job-9.odb,Step-1,Increment      1: Step Time =    1.000,"P-9-1",           237,   173.799E-03,   107.573E-03,            0.,NA,NA,"",   967.573E+03,   979.491E+03,   979.491E+03
C:/temp/Job-9.odb,Step-1,Increment      1: Step Time =    1.000,"P-9-1",           238,   174.628E-03,   58.7938E-03,            0.,NA,NA,"",   1.01072E+06,   1.01004E+06,   1.01004E+06
C:/temp/Job-9.odb,Step-1,Increment      1: Step Time =    1.000,"P-9-1",           239,   150.021E-03,   30.1755E-03,            0.,NA,NA,"",   1.02380E+06,   1.01810E+06,   1.01810E+06
C:/temp/Job-9.odb,Step-1,Increment      1: Step Time =    1.000,"P-9-1",           240,   169.954E-03,   159.907E-03,            0.,NA,NA,"",   1.01832E+06,   1.01409E+06,   1.01409E+06
C:/temp/Job-9.odb,Step-1,Increment      1: Step Time =    1.000,"P-9-1",           241,   60.9518E-03,   171.148E-03,            0.,NA,NA,"",   1.03449E+06,   1.03831E+06,   1.03831E+06
C:/temp/Job-9.odb,Step-1,Increment      1: Step Time =    1.000,"P-9-1",           242,   31.0415E-03,   60.2375E-03,            0.,NA,NA,"",   933.244E+03,   992.605E+03,   992.605E+03
C:/temp/Job-9.odb,Step-1,Increment      1: Step Time =    1.000,"P-9-1",           243,   29.7104E-03,   48.3854E-03,            0.,NA,NA,"",   967.598E+03,   1.02154E+06,   1.02154E+06
C:/temp/Job-9.odb,Step-1,Increment      1: Step Time =    1.000,"P-9-1",           244,   58.0250E-03,   26.5264E-03,            0.,NA,NA,"",   1.03172E+06,   1.03574E+06,   1.03574E+06
C:/temp/Job-9.odb,Step-1,Increment      1: Step Time =    1.000,"P-9-1",           245,   170.110E-03,   137.967E-03,            0.,NA,NA,"",   1.01162E+06,   1.00978E+06,   1.00978E+06
C:/temp/Job-9.odb,Step-1,Increment      1: Step Time =    1.000,"P-9-1",           246,   145.545E-03,   25.5740E-03,            0.,NA,NA,"",   1.01670E+06,   1.01252E+06,   1.01252E+06
C:/temp/Job-9.odb,Step-1,Increment      1: Step Time =    1.000,"P-9-1",           247,   173.029E-03,   41.0149E-03,            0.,NA,NA,"",   1.01454E+06,   1.01179E+06,   1.01179E+06
C:/temp/Job-9.odb,Step-1,Increment      1: Step Time =    1.000,"P-9-1",           248,   140.259E-03,   171.420E-03,            0.,NA,NA,"",   1.02124E+06,   1.01649E+06,   1.01649E+06
C:/temp/Job-9.odb,Step-1,Increment      1: Step Time =    1.000,"P-9-1",           249,   160.544E-03,   170.741E-03,            0.,NA,NA,"",   1.01746E+06,   1.01281E+06,   1.01281E+06
C:/temp/Job-9.odb,Step-1,Increment      1: Step Time =    1.000,"P-9-1",           250,   49.9865E-03,   168.091E-03,            0.,NA,NA,"",   1.03823E+06,   1.04963E+06,   1.04963E+06
C:/temp/Job-9.odb,Step-1,Increment      1: Step Time =    1.000,"P-9-1",           251,   26.8080E-03,   141.233E-03,            0.,NA,NA,"",   922.367E+03,   988.796E+03,   988.796E+03
C:/temp/Job-9.odb,Step-1,Increment      1: Step Time =    1.000,"P-9-1",           252,   124.964E-03,   112.264E-03,            0.,NA,NA,"",   973.952E+03,   909.489E+03,   909.489E+03
C:/temp/Job-9.odb,Step-1,Increment      1: Step Time =    1.000,"P-9-1",           253,   27.9342E-03,   111.713E-03,            0.,NA,NA,"",   840.410E+03,   918.031E+03,   918.031E+03
C:/temp/Job-9.odb,Step-1,Increment      1: Step Time =    1.000,"P-9-1",           254,   70.5303E-03,   82.0691E-03,            0.,NA,NA,"",   1.02563E+06,   990.000E+03,   990.000E+03
C:/temp/Job-9.odb,Step-1,Increment      1: Step Time =    1.000,"P-9-1",           255,   112.204E-03,   73.2654E-03,            0.,NA,NA,"",   1.19998E+06,   1.21532E+06,   1.21532E+06
C:/temp/Job-9.odb,Step-1,Increment      1: Step Time =    1.000,"P-9-1",           256,   83.7208E-03,   128.831E-03,            0.,NA,NA,"",   1.19834E+06,   1.20487E+06,   1.20487E+06
C:/temp/Job-9.odb,Step-1,Increment      1: Step Time =    1.000,"P-9-1",           257,   112.093E-03,   173.897E-03,            0.,NA,NA,"",   999.588E+03,   1.00523E+06,   1.00523E+06
C:/temp/Job-9.odb,Step-1,Increment      1: Step Time =    1.000,"P-9-1",           258,   71.2937E-03,   90.7718E-03,            0.,NA,NA,"",   810.990E+03,   808.373E+03,   808.373E+03
C:/temp/Job-9.odb,Step-1,Increment      1: Step Time =    1.000,"P-9-1",           259,   91.5267E-03,   127.362E-03,            0.,NA,NA,"",   1.15482E+06,   1.20606E+06,   1.20606E+06
C:/temp/Job-9.odb,Step-1,Increment      1: Step Time =    1.000,"P-9-1",           260,   94.3426E-03,   71.0174E-03,            0.,NA,NA,"",   1.12846E+06,   1.18307E+06,   1.18307E+06
C:/temp/Job-9.odb,Step-1,Increment      1: Step Time =    1.000,"P-9-1",           261,   87.2264E-03,   71.7220E-03,            0.,NA,NA,"",   1.21282E+06,   1.22428E+06,   1.22428E+06
C:/temp/Job-9.odb,Step-1,Increment      1: Step Time =    1.000,"P-9-1",           262,   128.014E-03,   94.2502E-03,            0.,NA,NA,"",   757.915E+03,   739.638E+03,   739.638E+03
C:/temp/Job-9.odb,Step-1,Increment      1: Step Time =    1.000,"P-9-1",           263,   130.011E-03,   85.5460E-03,            0.,NA,NA,"",   994.033E+03,   937.922E+03,   937.922E+03
C:/temp/Job-9.odb,Step-1,Increment      1: Step Time =    1.000,"P-9-1",           264,   106.750E-03,   129.844E-03,            0.,NA,NA,"",   1.12781E+06,   1.18113E+06,   1.18113E+06
C:/temp/Job-9.odb,Step-1,Increment      1: Step Time =    1.000,"P-9-1",           265,   115.404E-03,   130.226E-03,            0.,NA,NA,"",   1.19679E+06,   1.19598E+06,   1.19598E+06
C:/temp/Job-9.odb,Step-1,Increment      1: Step Time =    1.000,"P-9-1",           266,   71.4615E-03,   107.365E-03,            0.,NA,NA,"",   776.380E+03,   781.707E+03,   781.707E+03
C:/temp/Job-9.odb,Step-1,Increment      1: Step Time =    1.000,"P-9-1",           267,   72.2275E-03,   113.955E-03,            0.,NA,NA,"",   976.330E+03,   934.134E+03,   934.134E+03
C:/temp/Job-9.odb,Step-1,Increment      1: Step Time =    1.000,"P-9-1",           268,   137.917E-03,   27.9002E-03,            0.,NA,NA,"",   1.01875E+06,   1.01474E+06,   1.01474E+06
C:/temp/Job-9.odb,Step-1,Increment      1: Step Time =    1.000,"P-9-1",           269,   172.099E-03,   127.426E-03,            0.,NA,NA,"",   997.516E+03,   1.00019E+06,   1.00019E+06
C:/temp/Job-9.odb,Step-1,Increment      1: Step Time =    1.000,"P-9-1",           270,   70.5042E-03,   172.669E-03,            0.,NA,NA,"",   1.02273E+06,   1.02618E+06,   1.02618E+06
C:/temp/Job-9.odb,Step-1,Increment      1: Step Time =    1.000,"P-9-1",           271,   28.5457E-03,   70.7155E-03,            0.,NA,NA,"",   887.870E+03,   957.860E+03,   957.860E+03
C:/temp/Job-9.odb,Step-1,Increment      1: Step Time =    1.000,"P-9-1",           272,   28.6057E-03,   170.239E-03,            0.,NA,NA,"",   1.03242E+06,   1.06874E+06,   1.06874E+06
C:/temp/Job-9.odb,Step-1,Increment      1: Step Time =    1.000,"P-9-1",           273,   19.5583E-03,   19.2256E-03,            0.,NA,NA,"",   1.07918E+06,   1.11638E+06,   1.11638E+06
C:/temp/Job-9.odb,Step-1,Increment      1: Step Time =    1.000,"P-9-1",           274,   118.747E-03,   28.5901E-03,            0.,NA,NA,"",   1.01019E+06,   1.01294E+06,   1.01294E+06
C:/temp/Job-9.odb,Step-1,Increment      1: Step Time =    1.000,"P-9-1",           275,   173.696E-03,   117.307E-03,            0.,NA,NA,"",   980.081E+03,   988.144E+03,   988.144E+03
C:/temp/Job-9.odb,Step-1,Increment      1: Step Time =    1.000,"P-9-1",           276,   29.2908E-03,   180.061E-03,            0.,NA,NA,"",   1.06007E+06,   1.07913E+06,   1.07913E+06
C:/temp/Job-9.odb,Step-1,Increment      1: Step Time =    1.000,"P-9-1",           277,   39.4298E-03,   179.691E-03,            0.,NA,NA,"",   1.03955E+06,   1.05030E+06,   1.05030E+06
C:/temp/Job-9.odb,Step-1,Increment      1: Step Time =    1.000,"P-9-1",           278,   19.5532E-03,   28.9848E-03,            0.,NA,NA,"",   1.00900E+06,   1.06686E+06,   1.06686E+06
C:/temp/Job-9.odb,Step-1,Increment      1: Step Time =    1.000,"P-9-1",           279,   19.7155E-03,   38.9320E-03,            0.,NA,NA,"",   963.594E+03,   1.03132E+06,   1.03132E+06
C:/temp/Job-9.odb,Step-1,Increment      1: Step Time =    1.000,"P-9-1",           280,   27.9681E-03,   81.1943E-03,            0.,NA,NA,"",   855.010E+03,   930.674E+03,   930.674E+03
C:/temp/Job-9.odb,Step-1,Increment      1: Step Time =    1.000,"P-9-1",           281,   27.5484E-03,   91.5585E-03,            0.,NA,NA,"",   833.229E+03,   912.254E+03,   912.254E+03
C:/temp/Job-9.odb,Step-1,Increment      1: Step Time =    1.000,"P-9-1",           282,   79.7236E-03,   173.536E-03,            0.,NA,NA,"",   1.01084E+06,   1.01632E+06,   1.01632E+06
C:/temp/Job-9.odb,Step-1,Increment      1: Step Time =    1.000,"P-9-1",           283,   89.4756E-03,   172.977E-03,            0.,NA,NA,"",   1.00102E+06,   1.00995E+06,   1.00995E+06
C:/temp/Job-9.odb,Step-1,Increment      1: Step Time =    1.000,"P-9-1",           284,   96.3157E-03,   27.5540E-03,            0.,NA,NA,"",   998.047E+03,   1.00768E+06,   1.00768E+06
C:/temp/Job-9.odb,Step-1,Increment      1: Step Time =    1.000,"P-9-1",           285,   86.4289E-03,   26.8436E-03,            0.,NA,NA,"",   1.00361E+06,   1.01113E+06,   1.01113E+06
C:/temp/Job-9.odb,Step-1,Increment      1: Step Time =    1.000,"P-9-1",           286,   173.145E-03,   97.2605E-03,            0.,NA,NA,"",   962.498E+03,   975.101E+03,   975.101E+03
C:/temp/Job-9.odb,Step-1,Increment      1: Step Time =    1.000,"P-9-1",           287,   170.977E-03,   86.0938E-03,            0.,NA,NA,"",   971.852E+03,   980.249E+03,   980.249E+03
C:/temp/Job-9.odb,Step-1,Increment      1: Step Time =    1.000,"P-9-1",           288,   100.943E-03,   170.539E-03,            0.,NA,NA,"",   1.00043E+06,   1.01122E+06,   1.01122E+06
C:/temp/Job-9.odb,Step-1,Increment      1: Step Time =    1.000,"P-9-1",           289,   27.5803E-03,   101.659E-03,            0.,NA,NA,"",   828.016E+03,   907.757E+03,   907.757E+03
C:/temp/Job-9.odb,Step-1,Increment      1: Step Time =    1.000,"P-9-1",           290,   27.5222E-03,   131.475E-03,            0.,NA,NA,"",   892.026E+03,   962.730E+03,   962.730E+03
C:/temp/Job-9.odb,Step-1,Increment      1: Step Time =    1.000,"P-9-1",           291,   67.2284E-03,   26.7105E-03,            0.,NA,NA,"",   1.02384E+06,   1.02712E+06,   1.02712E+06
C:/temp/Job-9.odb,Step-1,Increment      1: Step Time =    1.000,"P-9-1",           292,   162.090E-03,   33.4364E-03,            0.,NA,NA,"",   1.02170E+06,   1.01611E+06,   1.01611E+06
C:/temp/Job-9.odb,Step-1,Increment      1: Step Time =    1.000,"P-9-1",           293,   173.366E-03,   67.0573E-03,            0.,NA,NA,"",   1.00379E+06,   1.00506E+06,   1.00506E+06
C:/temp/Job-9.odb,Step-1,Increment      1: Step Time =    1.000,"P-9-1",           294,   128.390E-03,   27.5588E-03,            0.,NA,NA,"",   1.01569E+06,   1.01450E+06,   1.01450E+06
C:/temp/Job-9.odb,Step-1,Increment      1: Step Time =    1.000,"P-9-1",           295,   76.8128E-03,   27.1976E-03,            0.,NA,NA,"",   1.01458E+06,   1.01951E+06,   1.01951E+06
C:/temp/Job-9.odb,Step-1,Increment      1: Step Time =    1.000,"P-9-1",           296,   48.4695E-03,   27.0164E-03,            0.,NA,NA,"",   1.03789E+06,   1.04668E+06,   1.04668E+06
C:/temp/Job-9.odb,Step-1,Increment      1: Step Time =    1.000,"P-9-1",           297,   38.8125E-03,   27.6795E-03,            0.,NA,NA,"",   1.04209E+06,   1.05930E+06,   1.05930E+06
C:/temp/Job-9.odb,Step-1,Increment      1: Step Time =    1.000,"P-9-1",           298,   130.273E-03,   173.001E-03,            0.,NA,NA,"",   1.01465E+06,   1.01281E+06,   1.01281E+06
C:/temp/Job-9.odb,Step-1,Increment      1: Step Time =    1.000,"P-9-1",           299,   172.596E-03,   76.0060E-03,            0.,NA,NA,"",   991.080E+03,   995.672E+03,   995.672E+03
C:/temp/Job-9.odb,Step-1,Increment      1: Step Time =    1.000,"P-9-1",           300,   174.245E-03,   50.0775E-03,            0.,NA,NA,"",   1.01400E+06,   1.01209E+06,   1.01209E+06
C:/temp/Job-9.odb,Step-1,Increment      1: Step Time =    1.000,"P-9-1",           301,   171.454E-03,   31.3711E-03,            0.,NA,NA,"",   1.01176E+06,   1.00900E+06,   1.00900E+06
C:/temp/Job-9.odb,Step-1,Increment      1: Step Time =    1.000,"P-9-1",           302,   121.550E-03,   174.719E-03,            0.,NA,NA,"",   1.00573E+06,   1.00717E+06,   1.00717E+06
C:/temp/Job-9.odb,Step-1,Increment      1: Step Time =    1.000,"P-9-1",           303,   150.445E-03,   171.264E-03,            0.,NA,NA,"",   1.02158E+06,   1.01603E+06,   1.01603E+06
C:/temp/Job-9.odb,Step-1,Increment      1: Step Time =    1.000,"P-9-1",           304,   170.303E-03,   170.311E-03,            0.,NA,NA,"",   1.01176E+06,   1.00891E+06,   1.00891E+06
C:/temp/Job-9.odb,Step-1,Increment      1: Step Time =    1.000,"P-9-1",           305,   28.3001E-03,   121.723E-03,            0.,NA,NA,"",   864.237E+03,   938.314E+03,   938.314E+03
C:/temp/Job-9.odb,Step-1,Increment      1: Step Time =    1.000,"P-9-1",           306,   26.8074E-03,   151.037E-03,            0.,NA,NA,"",   955.900E+03,   1.01571E+06,   1.01571E+06
C:/temp/Job-9.odb,Step-1,Increment      1: Step Time =    1.000,"P-9-1",           307,   27.6255E-03,   160.622E-03,            0.,NA,NA,"",   990.071E+03,   1.04083E+06,   1.04083E+06
C:/temp/Job-9.odb,Step-1,Increment      1: Step Time =    1.000,"P-9-1",           308,   64.5751E-03,   115.117E-03,            0.,NA,NA,"",   912.352E+03,   925.748E+03,   925.748E+03
C:/temp/Job-9.odb,Step-1,Increment      1: Step Time =    1.000,"P-9-1",           309,   115.463E-03,   139.341E-03,            0.,NA,NA,"",   1.09077E+06,   1.10497E+06,   1.10497E+06
C:/temp/Job-9.odb,Step-1,Increment      1: Step Time =    1.000,"P-9-1",           310,   114.296E-03,   64.4065E-03,            0.,NA,NA,"",   1.10697E+06,   1.12221E+06,   1.12221E+06
C:/temp/Job-9.odb,Step-1,Increment      1: Step Time =    1.000,"P-9-1",           311,   132.540E-03,   113.836E-03,            0.,NA,NA,"",   950.291E+03,   924.596E+03,   924.596E+03
C:/temp/Job-9.odb,Step-1,Increment      1: Step Time =    1.000,"P-9-1",           312,   138.924E-03,   88.4036E-03,            0.,NA,NA,"",   899.077E+03,   892.960E+03,   892.960E+03
C:/temp/Job-9.odb,Step-1,Increment      1: Step Time =    1.000,"P-9-1",           313,   85.6632E-03,   136.548E-03,            0.,NA,NA,"",   1.09554E+06,   1.12613E+06,   1.12613E+06
C:/temp/Job-9.odb,Step-1,Increment      1: Step Time =    1.000,"P-9-1",           314,   61.6763E-03,   82.6745E-03,            0.,NA,NA,"",   918.734E+03,   936.427E+03,   936.427E+03
C:/temp/Job-9.odb,Step-1,Increment      1: Step Time =    1.000,"P-9-1",           315,   86.2936E-03,   64.4737E-03,            0.,NA,NA,"",   1.09855E+06,   1.12765E+06,   1.12765E+06
C:/temp/Job-9.odb,Step-1,Increment      1: Step Time =    1.000,"P-9-1",           316,   102.953E-03,   71.5556E-03,            0.,NA,NA,"",   1.09875E+06,   1.16817E+06,   1.16817E+06
C:/temp/Job-9.odb,Step-1,Increment      1: Step Time =    1.000,"P-9-1",           317,   124.035E-03,   121.426E-03,            0.,NA,NA,"",   1.17673E+06,   1.09960E+06,   1.09960E+06
C:/temp/Job-9.odb,Step-1,Increment      1: Step Time =    1.000,"P-9-1",           318,   78.8857E-03,   73.1502E-03,            0.,NA,NA,"",   1.20748E+06,   1.18670E+06,   1.18670E+06
C:/temp/Job-9.odb,Step-1,Increment      1: Step Time =    1.000,"P-9-1",           319,   71.6226E-03,   99.4019E-03,            0.,NA,NA,"",   681.005E+03,   713.649E+03,   713.649E+03
C:/temp/Job-9.odb,Step-1,Increment      1: Step Time =    1.000,"P-9-1",           320,   74.1030E-03,   121.776E-03,            0.,NA,NA,"",   1.13099E+06,   1.08309E+06,   1.08309E+06
C:/temp/Job-9.odb,Step-1,Increment      1: Step Time =    1.000,"P-9-1",           321,   126.398E-03,   103.112E-03,            0.,NA,NA,"",   725.160E+03,   713.955E+03,   713.955E+03
C:/temp/Job-9.odb,Step-1,Increment      1: Step Time =    1.000,"P-9-1",           322,   98.5028E-03,   127.799E-03,            0.,NA,NA,"",   1.09462E+06,   1.17065E+06,   1.17065E+06
C:/temp/Job-9.odb,Step-1,Increment      1: Step Time =    1.000,"P-9-1",           323,   121.954E-03,   75.1193E-03,            0.,NA,NA,"",   1.23048E+06,   1.18331E+06,   1.18331E+06
C:/temp/Job-9.odb,Step-1,Increment      1: Step Time =    1.000,"P-9-1",           324,   38.6969E-03,   169.541E-03,            0.,NA,NA,"",   1.03913E+06,   1.05949E+06,   1.05949E+06
C:/temp/Job-9.odb,Step-1,Increment      1: Step Time =    1.000,"P-9-1",           325,   29.1864E-03,   28.3534E-03,            0.,NA,NA,"",   1.03891E+06,   1.07166E+06,   1.07166E+06
C:/temp/Job-9.odb,Step-1,Increment      1: Step Time =    1.000,"P-9-1",           326,   142.610E-03,   34.4466E-03,            0.,NA,NA,"",   1.03249E+06,   1.02550E+06,   1.02550E+06
C:/temp/Job-9.odb,Step-1,Increment      1: Step Time =    1.000,"P-9-1",           327,   86.2187E-03,   34.2111E-03,            0.,NA,NA,"",   1.01641E+06,   1.02724E+06,   1.02724E+06
C:/temp/Job-9.odb,Step-1,Increment      1: Step Time =    1.000,"P-9-1",           328,   159.102E-03,   135.473E-03,            0.,NA,NA,"",   1.02614E+06,   1.01618E+06,   1.01618E+06
C:/temp/Job-9.odb,Step-1,Increment      1: Step Time =    1.000,"P-9-1",           329,   157.927E-03,   149.284E-03,            0.,NA,NA,"",   1.04037E+06,   1.02901E+06,   1.02901E+06
C:/temp/Job-9.odb,Step-1,Increment      1: Step Time =    1.000,"P-9-1",           330,   37.8150E-03,   69.9916E-03,            0.,NA,NA,"",   922.108E+03,   975.329E+03,   975.329E+03
C:/temp/Job-9.odb,Step-1,Increment      1: Step Time =    1.000,"P-9-1",           331,   71.3900E-03,   162.694E-03,            0.,NA,NA,"",   1.04503E+06,   1.05055E+06,   1.05055E+06
C:/temp/Job-9.odb,Step-1,Increment      1: Step Time =    1.000,"P-9-1",           332,   114.927E-03,   166.798E-03,            0.,NA,NA,"",   1.01569E+06,   1.02187E+06,   1.02187E+06
C:/temp/Job-9.odb,Step-1,Increment      1: Step Time =    1.000,"P-9-1",           333,   80.0830E-03,   165.572E-03,            0.,NA,NA,"",   1.02704E+06,   1.03591E+06,   1.03591E+06
C:/temp/Job-9.odb,Step-1,Increment      1: Step Time =    1.000,"P-9-1",           334,   163.650E-03,   80.7007E-03,            0.,NA,NA,"",   983.308E+03,   984.430E+03,   984.430E+03
C:/temp/Job-9.odb,Step-1,Increment      1: Step Time =    1.000,"P-9-1",           335,   36.8980E-03,   133.028E-03,            0.,NA,NA,"",   930.212E+03,   984.020E+03,   984.020E+03
C:/temp/Job-9.odb,Step-1,Increment      1: Step Time =    1.000,"P-9-1",           336,   76.1786E-03,   37.3200E-03,            0.,NA,NA,"",   1.03680E+06,   1.04490E+06,   1.04490E+06
C:/temp/Job-9.odb,Step-1,Increment      1: Step Time =    1.000,"P-9-1",           337,   127.763E-03,   163.906E-03,            0.,NA,NA,"",   1.03331E+06,   1.03203E+06,   1.03203E+06
C:/temp/Job-9.odb,Step-1,Increment      1: Step Time =    1.000,"P-9-1",           338,   163.500E-03,   73.8034E-03,            0.,NA,NA,"",   999.959E+03,   997.525E+03,   997.525E+03
C:/temp/Job-9.odb,Step-1,Increment      1: Step Time =    1.000,"P-9-1",           339,   166.593E-03,   115.979E-03,            0.,NA,NA,"",   977.384E+03,   981.511E+03,   981.511E+03
C:/temp/Job-9.odb,Step-1,Increment      1: Step Time =    1.000,"P-9-1",           340,   95.0773E-03,   161.310E-03,            0.,NA,NA,"",   1.01557E+06,   1.03335E+06,   1.03335E+06
C:/temp/Job-9.odb,Step-1,Increment      1: Step Time =    1.000,"P-9-1",           341,   166.022E-03,   107.388E-03,            0.,NA,NA,"",   960.888E+03,   968.698E+03,   968.698E+03
C:/temp/Job-9.odb,Step-1,Increment      1: Step Time =    1.000,"P-9-1",           342,   107.865E-03,   162.701E-03,            0.,NA,NA,"",   1.01535E+06,   1.02901E+06,   1.02901E+06
C:/temp/Job-9.odb,Step-1,Increment      1: Step Time =    1.000,"P-9-1",           343,   120.630E-03,   37.8991E-03,            0.,NA,NA,"",   1.03191E+06,   1.03703E+06,   1.03703E+06
C:/temp/Job-9.odb,Step-1,Increment      1: Step Time =    1.000,"P-9-1",           344,   36.5327E-03,   101.590E-03,            0.,NA,NA,"",   835.751E+03,   905.750E+03,   905.750E+03
C:/temp/Job-9.odb,Step-1,Increment      1: Step Time =    1.000,"P-9-1",           345,   112.320E-03,   39.9497E-03,            0.,NA,NA,"",   1.02612E+06,   1.03849E+06,   1.03849E+06
C:/temp/Job-9.odb,Step-1,Increment      1: Step Time =    1.000,"P-9-1",           346,   37.5094E-03,   111.460E-03,            0.,NA,NA,"",   852.449E+03,   918.745E+03,   918.745E+03
C:/temp/Job-9.odb,Step-1,Increment      1: Step Time =    1.000,"P-9-1",           347,   163.664E-03,   124.795E-03,            0.,NA,NA,"",   995.605E+03,   994.491E+03,   994.491E+03
C:/temp/Job-9.odb,Step-1,Increment      1: Step Time =    1.000,"P-9-1",           348,   128.562E-03,   35.7591E-03,            0.,NA,NA,"",   1.03267E+06,   1.03136E+06,   1.03136E+06
C:/temp/Job-9.odb,Step-1,Increment      1: Step Time =    1.000,"P-9-1",           349,   62.7192E-03,   162.871E-03,            0.,NA,NA,"",   1.04895E+06,   1.05450E+06,   1.05450E+06
C:/temp/Job-9.odb,Step-1,Increment      1: Step Time =    1.000,"P-9-1",           350,   160.048E-03,   160.576E-03,            0.,NA,NA,"",   1.02945E+06,   1.02185E+06,   1.02185E+06
C:/temp/Job-9.odb,Step-1,Increment      1: Step Time =    1.000,"P-9-1",           351,   93.5987E-03,   34.8770E-03,            0.,NA,NA,"",   1.01047E+06,   1.02461E+06,   1.02461E+06
C:/temp/Job-9.odb,Step-1,Increment      1: Step Time =    1.000,"P-9-1",           352,   100.355E-03,   39.2307E-03,            0.,NA,NA,"",   1.01398E+06,   1.03245E+06,   1.03245E+06
C:/temp/Job-9.odb,Step-1,Increment      1: Step Time =    1.000,"P-9-1",           353,   36.2346E-03,   91.8025E-03,            0.,NA,NA,"",   841.739E+03,   911.075E+03,   911.075E+03
C:/temp/Job-9.odb,Step-1,Increment      1: Step Time =    1.000,"P-9-1",           354,   162.984E-03,   89.9909E-03,            0.,NA,NA,"",   951.796E+03,   959.543E+03,   959.543E+03
C:/temp/Job-9.odb,Step-1,Increment      1: Step Time =    1.000,"P-9-1",           355,   166.141E-03,   97.9760E-03,            0.,NA,NA,"",   952.342E+03,   961.984E+03,   961.984E+03
C:/temp/Job-9.odb,Step-1,Increment      1: Step Time =    1.000,"P-9-1",           356,   87.5011E-03,   165.171E-03,            0.,NA,NA,"",   1.01735E+06,   1.03012E+06,   1.03012E+06
C:/temp/Job-9.odb,Step-1,Increment      1: Step Time =    1.000,"P-9-1",           357,   166.110E-03,   51.2873E-03,            0.,NA,NA,"",   1.02519E+06,   1.01904E+06,   1.01904E+06
C:/temp/Job-9.odb,Step-1,Increment      1: Step Time =    1.000,"P-9-1",           358,   139.903E-03,   160.599E-03,            0.,NA,NA,"",   1.04656E+06,   1.03728E+06,   1.03728E+06
C:/temp/Job-9.odb,Step-1,Increment      1: Step Time =    1.000,"P-9-1",           359,   167.972E-03,   58.0351E-03,            0.,NA,NA,"",   1.01962E+06,   1.01520E+06,   1.01520E+06
C:/temp/Job-9.odb,Step-1,Increment      1: Step Time =    1.000,"P-9-1",           360,   34.9568E-03,   151.188E-03,            0.,NA,NA,"",   985.615E+03,   1.02952E+06,   1.02952E+06
C:/temp/Job-9.odb,Step-1,Increment      1: Step Time =    1.000,"P-9-1",           361,   48.4478E-03,   35.9871E-03,            0.,NA,NA,"",   1.04161E+06,   1.05479E+06,   1.05479E+06
C:/temp/Job-9.odb,Step-1,Increment      1: Step Time =    1.000,"P-9-1",           362,   36.8267E-03,   160.013E-03,            0.,NA,NA,"",   1.01621E+06,   1.04916E+06,   1.04916E+06
C:/temp/Job-9.odb,Step-1,Increment      1: Step Time =    1.000,"P-9-1",           363,   38.7831E-03,   37.0767E-03,            0.,NA,NA,"",   1.02762E+06,   1.05437E+06,   1.05437E+06
C:/temp/Job-9.odb,Step-1,Increment      1: Step Time =    1.000,"P-9-1",           364,   164.408E-03,   42.7804E-03,            0.,NA,NA,"",   1.02678E+06,   1.01994E+06,   1.01994E+06
C:/temp/Job-9.odb,Step-1,Increment      1: Step Time =    1.000,"P-9-1",           365,   35.3238E-03,   142.237E-03,            0.,NA,NA,"",   959.053E+03,   1.00900E+06,   1.00900E+06
C:/temp/Job-9.odb,Step-1,Increment      1: Step Time =    1.000,"P-9-1",           366,   57.9601E-03,   34.7861E-03,            0.,NA,NA,"",   1.04568E+06,   1.05285E+06,   1.05285E+06
C:/temp/Job-9.odb,Step-1,Increment      1: Step Time =    1.000,"P-9-1",           367,   29.2601E-03,   38.1315E-03,            0.,NA,NA,"",   999.774E+03,   1.04581E+06,   1.04581E+06
C:/temp/Job-9.odb,Step-1,Increment      1: Step Time =    1.000,"P-9-1",           368,   40.7239E-03,   55.5162E-03,            0.,NA,NA,"",   988.062E+03,   1.02548E+06,   1.02548E+06
C:/temp/Job-9.odb,Step-1,Increment      1: Step Time =    1.000,"P-9-1",           369,   153.591E-03,   37.3226E-03,            0.,NA,NA,"",   1.03351E+06,   1.02507E+06,   1.02507E+06
C:/temp/Job-9.odb,Step-1,Increment      1: Step Time =    1.000,"P-9-1",           370,   145.338E-03,   41.2645E-03,            0.,NA,NA,"",   1.04742E+06,   1.03735E+06,   1.03735E+06
C:/temp/Job-9.odb,Step-1,Increment      1: Step Time =    1.000,"P-9-1",           371,   39.6232E-03,   122.620E-03,            0.,NA,NA,"",   898.279E+03,   954.089E+03,   954.089E+03
C:/temp/Job-9.odb,Step-1,Increment      1: Step Time =    1.000,"P-9-1",           372,   79.1780E-03,   48.3289E-03,            0.,NA,NA,"",   1.06197E+06,   1.07550E+06,   1.07550E+06
C:/temp/Job-9.odb,Step-1,Increment      1: Step Time =    1.000,"P-9-1",           373,   127.098E-03,   155.023E-03,            0.,NA,NA,"",   1.05905E+06,   1.05581E+06,   1.05581E+06
C:/temp/Job-9.odb,Step-1,Increment      1: Step Time =    1.000,"P-9-1",           374,   46.8791E-03,   74.2858E-03,            0.,NA,NA,"",   934.695E+03,   974.153E+03,   974.153E+03
C:/temp/Job-9.odb,Step-1,Increment      1: Step Time =    1.000,"P-9-1",           375,   152.232E-03,   126.969E-03,            0.,NA,NA,"",   1.01682E+06,   1.00438E+06,   1.00438E+06
C:/temp/Job-9.odb,Step-1,Increment      1: Step Time =    1.000,"P-9-1",           376,   157.802E-03,   83.1830E-03,            0.,NA,NA,"",   971.270E+03,   971.365E+03,   971.365E+03
C:/temp/Job-9.odb,Step-1,Increment      1: Step Time =    1.000,"P-9-1",           377,   77.0316E-03,   154.663E-03,            0.,NA,NA,"",   1.05413E+06,   1.06439E+06,   1.06439E+06
C:/temp/Job-9.odb,Step-1,Increment      1: Step Time =    1.000,"P-9-1",           378,   82.9944E-03,   43.5290E-03,            0.,NA,NA,"",   1.03803E+06,   1.05332E+06,   1.05332E+06
C:/temp/Job-9.odb,Step-1,Increment      1: Step Time =    1.000,"P-9-1",           379,   113.491E-03,   157.381E-03,            0.,NA,NA,"",   1.03299E+06,   1.04565E+06,   1.04565E+06
C:/temp/Job-9.odb,Step-1,Increment      1: Step Time =    1.000,"P-9-1",           380,   135.969E-03,   36.1685E-03,            0.,NA,NA,"",   1.03490E+06,   1.02848E+06,   1.02848E+06
C:/temp/Job-9.odb,Step-1,Increment      1: Step Time =    1.000,"P-9-1",           381,   157.128E-03,   93.3667E-03,            0.,NA,NA,"",   930.951E+03,   939.392E+03,   939.392E+03
C:/temp/Job-9.odb,Step-1,Increment      1: Step Time =    1.000,"P-9-1",           382,   45.0740E-03,   82.9353E-03,            0.,NA,NA,"",   881.499E+03,   933.344E+03,   933.344E+03
C:/temp/Job-9.odb,Step-1,Increment      1: Step Time =    1.000,"P-9-1",           383,   44.6850E-03,   62.8760E-03,            0.,NA,NA,"",   981.520E+03,   1.01613E+06,   1.01613E+06
C:/temp/Job-9.odb,Step-1,Increment      1: Step Time =    1.000,"P-9-1",           384,   65.5634E-03,   156.322E-03,            0.,NA,NA,"",   1.05841E+06,   1.06441E+06,   1.06441E+06
C:/temp/Job-9.odb,Step-1,Increment      1: Step Time =    1.000,"P-9-1",           385,   83.4896E-03,   159.531E-03,            0.,NA,NA,"",   1.03258E+06,   1.04675E+06,   1.04675E+06
C:/temp/Job-9.odb,Step-1,Increment      1: Step Time =    1.000,"P-9-1",           386,   134.733E-03,   153.248E-03,            0.,NA,NA,"",   1.06532E+06,   1.05405E+06,   1.05405E+06
C:/temp/Job-9.odb,Step-1,Increment      1: Step Time =    1.000,"P-9-1",           387,   163.023E-03,   64.0317E-03,            0.,NA,NA,"",   1.02092E+06,   1.01414E+06,   1.01414E+06
C:/temp/Job-9.odb,Step-1,Increment      1: Step Time =    1.000,"P-9-1",           388,   153.197E-03,   112.313E-03,            0.,NA,NA,"",   953.879E+03,   954.333E+03,   954.333E+03
C:/temp/Job-9.odb,Step-1,Increment      1: Step Time =    1.000,"P-9-1",           389,   155.658E-03,   119.333E-03,            0.,NA,NA,"",   983.349E+03,   979.247E+03,   979.247E+03
C:/temp/Job-9.odb,Step-1,Increment      1: Step Time =    1.000,"P-9-1",           390,   117.017E-03,   45.3394E-03,            0.,NA,NA,"",   1.04615E+06,   1.05443E+06,   1.05443E+06
C:/temp/Job-9.odb,Step-1,Increment      1: Step Time =    1.000,"P-9-1",           391,   127.550E-03,   42.7818E-03,            0.,NA,NA,"",   1.05037E+06,   1.04782E+06,   1.04782E+06
C:/temp/Job-9.odb,Step-1,Increment      1: Step Time =    1.000,"P-9-1",           392,   102.157E-03,   155.656E-03,            0.,NA,NA,"",   1.02301E+06,   1.04526E+06,   1.04526E+06
C:/temp/Job-9.odb,Step-1,Increment      1: Step Time =    1.000,"P-9-1",           393,   44.8807E-03,   91.9562E-03,            0.,NA,NA,"",   844.554E+03,   903.491E+03,   903.491E+03
C:/temp/Job-9.odb,Step-1,Increment      1: Step Time =    1.000,"P-9-1",           394,   105.851E-03,   45.7781E-03,            0.,NA,NA,"",   1.02516E+06,   1.04677E+06,   1.04677E+06
C:/temp/Job-9.odb,Step-1,Increment      1: Step Time =    1.000,"P-9-1",           395,   158.950E-03,   103.149E-03,            0.,NA,NA,"",   937.679E+03,   946.067E+03,   946.067E+03
C:/temp/Job-9.odb,Step-1,Increment      1: Step Time =    1.000,"P-9-1",           396,   88.3066E-03,   48.9483E-03,            0.,NA,NA,"",   1.04019E+06,   1.06332E+06,   1.06332E+06
C:/temp/Job-9.odb,Step-1,Increment      1: Step Time =    1.000,"P-9-1",           397,   160.984E-03,   98.3919E-03,            0.,NA,NA,"",   938.634E+03,   948.140E+03,   948.140E+03
C:/temp/Job-9.odb,Step-1,Increment      1: Step Time =    1.000,"P-9-1",           398,   46.0066E-03,   136.526E-03,            0.,NA,NA,"",    983.92E+03,   1.01611E+06,   1.01611E+06
C:/temp/Job-9.odb,Step-1,Increment      1: Step Time =    1.000,"P-9-1",           399,   60.4648E-03,   43.0323E-03,            0.,NA,NA,"",   1.05559E+06,   1.06338E+06,   1.06338E+06
C:/temp/Job-9.odb,Step-1,Increment      1: Step Time =    1.000,"P-9-1",           400,   46.4625E-03,   157.485E-03,            0.,NA,NA,"",   1.03071E+06,   1.05163E+06,   1.05163E+06
C:/temp/Job-9.odb,Step-1,Increment      1: Step Time =    1.000,"P-9-1",           401,   39.2471E-03,   46.4235E-03,            0.,NA,NA,"",   1.00442E+06,   1.03905E+06,   1.03905E+06
C:/temp/Job-9.odb,Step-1,Increment      1: Step Time =    1.000,"P-9-1",           402,   158.695E-03,   54.2432E-03,            0.,NA,NA,"",   1.04094E+06,   1.02892E+06,   1.02892E+06
C:/temp/Job-9.odb,Step-1,Increment      1: Step Time =    1.000,"P-9-1",           403,   156.319E-03,   45.5308E-03,            0.,NA,NA,"",   1.04331E+06,   1.03178E+06,   1.03178E+06
C:/temp/Job-9.odb,Step-1,Increment      1: Step Time =    1.000,"P-9-1",           404,   43.5857E-03,   144.455E-03,            0.,NA,NA,"",   999.828E+03,   1.03226E+06,   1.03226E+06
C:/temp/Job-9.odb,Step-1,Increment      1: Step Time =    1.000,"P-9-1",           405,   49.0741E-03,   44.4282E-03,            0.,NA,NA,"",   1.03766E+06,   1.05435E+06,   1.05435E+06
C:/temp/Job-9.odb,Step-1,Increment      1: Step Time =    1.000,"P-9-1",           406,   148.936E-03,   155.683E-03,            0.,NA,NA,"",   1.05245E+06,   1.03965E+06,   1.03965E+06
C:/temp/Job-9.odb,Step-1,Increment      1: Step Time =    1.000,"P-9-1",           407,   49.8601E-03,   58.7264E-03,            0.,NA,NA,"",   1.01965E+06,   1.04191E+06,   1.04191E+06
C:/temp/Job-9.odb,Step-1,Increment      1: Step Time =    1.000,"P-9-1",           408,   58.3486E-03,   152.307E-03,            0.,NA,NA,"",   1.05389E+06,   1.06243E+06,   1.06243E+06
C:/temp/Job-9.odb,Step-1,Increment      1: Step Time =    1.000,"P-9-1",           409,   48.5863E-03,   117.923E-03,            0.,NA,NA,"",   899.792E+03,   943.834E+03,   943.834E+03
C:/temp/Job-9.odb,Step-1,Increment      1: Step Time =    1.000,"P-9-1",           410,   119.431E-03,   155.170E-03,            0.,NA,NA,"",   1.04858E+06,   1.05491E+06,   1.05491E+06
C:/temp/Job-9.odb,Step-1,Increment      1: Step Time =    1.000,"P-9-1",           411,   148.897E-03,   137.485E-03,            0.,NA,NA,"",   1.05917E+06,   1.03898E+06,   1.03898E+06
C:/temp/Job-9.odb,Step-1,Increment      1: Step Time =    1.000,"P-9-1",           412,   141.929E-03,   50.5190E-03,            0.,NA,NA,"",   1.06985E+06,   1.05375E+06,   1.05375E+06
C:/temp/Job-9.odb,Step-1,Increment      1: Step Time =    1.000,"P-9-1",           413,   51.5813E-03,   67.7514E-03,            0.,NA,NA,"",   992.254E+03,   1.01680E+06,   1.01680E+06
C:/temp/Job-9.odb,Step-1,Increment      1: Step Time =    1.000,"P-9-1",           414,   70.4707E-03,   149.219E-03,            0.,NA,NA,"",   1.07554E+06,   1.07990E+06,   1.07990E+06
C:/temp/Job-9.odb,Step-1,Increment      1: Step Time =    1.000,"P-9-1",           415,   73.5198E-03,   52.4728E-03,            0.,NA,NA,"",   1.07930E+06,   1.08623E+06,   1.08623E+06
C:/temp/Job-9.odb,Step-1,Increment      1: Step Time =    1.000,"P-9-1",           416,   53.3166E-03,   77.0800E-03,            0.,NA,NA,"",   937.747E+03,   968.725E+03,   968.725E+03
C:/temp/Job-9.odb,Step-1,Increment      1: Step Time =    1.000,"P-9-1",           417,   46.4681E-03,   109.828E-03,            0.,NA,NA,"",   853.271E+03,   908.233E+03,   908.233E+03
C:/temp/Job-9.odb,Step-1,Increment      1: Step Time =    1.000,"P-9-1",           418,   109.348E-03,   150.361E-03,            0.,NA,NA,"",   1.03874E+06,   1.06027E+06,   1.06027E+06
C:/temp/Job-9.odb,Step-1,Increment      1: Step Time =    1.000,"P-9-1",           419,   151.289E-03,   87.0905E-03,            0.,NA,NA,"",   940.567E+03,   942.435E+03,   942.435E+03
C:/temp/Job-9.odb,Step-1,Increment      1: Step Time =    1.000,"P-9-1",           420,   83.1321E-03,   147.979E-03,            0.,NA,NA,"",   1.05551E+06,   1.07573E+06,   1.07573E+06
C:/temp/Job-9.odb,Step-1,Increment      1: Step Time =    1.000,"P-9-1",           421,   83.1659E-03,   52.0590E-03,            0.,NA,NA,"",   1.06507E+06,   1.08317E+06,   1.08317E+06
C:/temp/Job-9.odb,Step-1,Increment      1: Step Time =    1.000,"P-9-1",           422,   125.513E-03,   146.658E-03,            0.,NA,NA,"",   1.08635E+06,   1.08031E+06,   1.08031E+06
C:/temp/Job-9.odb,Step-1,Increment      1: Step Time =    1.000,"P-9-1",           423,   153.125E-03,   98.3204E-03,            0.,NA,NA,"",   913.996E+03,   923.058E+03,   923.058E+03
C:/temp/Job-9.odb,Step-1,Increment      1: Step Time =    1.000,"P-9-1",           424,   146.636E-03,   129.979E-03,            0.,NA,NA,"",   1.04428E+06,   1.02357E+06,   1.02357E+06
C:/temp/Job-9.odb,Step-1,Increment      1: Step Time =    1.000,"P-9-1",           425,   51.8279E-03,   123.830E-03,            0.,NA,NA,"",   944.793E+03,   977.046E+03,   977.046E+03
C:/temp/Job-9.odb,Step-1,Increment      1: Step Time =    1.000,"P-9-1",           426,   154.037E-03,   74.9754E-03,            0.,NA,NA,"",   1.00920E+06,   998.509E+03,   998.509E+03
C:/temp/Job-9.odb,Step-1,Increment      1: Step Time =    1.000,"P-9-1",           427,   70.5848E-03,   47.0448E-03,            0.,NA,NA,"",   1.06134E+06,   1.06829E+06,   1.06829E+06
C:/temp/Job-9.odb,Step-1,Increment      1: Step Time =    1.000,"P-9-1",           428,   136.314E-03,   45.4449E-03,            0.,NA,NA,"",   1.06022E+06,   1.05003E+06,   1.05003E+06
C:/temp/Job-9.odb,Step-1,Increment      1: Step Time =    1.000,"P-9-1",           429,   99.2441E-03,   51.7360E-03,            0.,NA,NA,"",   1.02949E+06,   1.06203E+06,   1.06203E+06
C:/temp/Job-9.odb,Step-1,Increment      1: Step Time =    1.000,"P-9-1",           430,   143.424E-03,   100.304E-03,            0.,NA,NA,"",   870.096E+03,   877.654E+03,   877.654E+03
C:/temp/Job-9.odb,Step-1,Increment      1: Step Time =    1.000,"P-9-1",           431,   53.6407E-03,   91.8392E-03,            0.,NA,NA,"",   840.887E+03,   887.242E+03,   887.242E+03
C:/temp/Job-9.odb,Step-1,Increment      1: Step Time =    1.000,"P-9-1",           432,   89.6091E-03,   154.236E-03,            0.,NA,NA,"",   1.03222E+06,   1.05384E+06,   1.05384E+06
C:/temp/Job-9.odb,Step-1,Increment      1: Step Time =    1.000,"P-9-1",           433,   111.445E-03,   51.9741E-03,            0.,NA,NA,"",   1.04943E+06,   1.06736E+06,   1.06736E+06
C:/temp/Job-9.odb,Step-1,Increment      1: Step Time =    1.000,"P-9-1",           434,   147.896E-03,   110.579E-03,            0.,NA,NA,"",   934.886E+03,   934.669E+03,   934.669E+03
C:/temp/Job-9.odb,Step-1,Increment      1: Step Time =    1.000,"P-9-1",           435,   146.151E-03,   123.942E-03,            0.,NA,NA,"",   1.01677E+06,   999.396E+03,   999.396E+03
C:/temp/Job-9.odb,Step-1,Increment      1: Step Time =    1.000,"P-9-1",           436,   123.632E-03,   49.8494E-03,            0.,NA,NA,"",   1.06645E+06,   1.06558E+06,   1.06558E+06
C:/temp/Job-9.odb,Step-1,Increment      1: Step Time =    1.000,"P-9-1",           437,   96.5486E-03,   148.296E-03,            0.,NA,NA,"",   1.03221E+06,   1.06244E+06,   1.06244E+06
C:/temp/Job-9.odb,Step-1,Increment      1: Step Time =    1.000,"P-9-1",           438,   54.2207E-03,   100.246E-03,            0.,NA,NA,"",   811.929E+03,   863.066E+03,   863.066E+03
C:/temp/Job-9.odb,Step-1,Increment      1: Step Time =    1.000,"P-9-1",           439,   150.401E-03,   56.7002E-03,            0.,NA,NA,"",   1.06389E+06,   1.04503E+06,   1.04503E+06
C:/temp/Job-9.odb,Step-1,Increment      1: Step Time =    1.000,"P-9-1",           440,   140.457E-03,   145.057E-03,            0.,NA,NA,"",   1.08670E+06,   1.06450E+06,   1.06450E+06
C:/temp/Job-9.odb,Step-1,Increment      1: Step Time =    1.000,"P-9-1",           441,   57.9958E-03,   52.7268E-03,            0.,NA,NA,"",   1.06179E+06,   1.06978E+06,   1.06978E+06
C:/temp/Job-9.odb,Step-1,Increment      1: Step Time =    1.000,"P-9-1",           442,   49.3477E-03,   52.5983E-03,            0.,NA,NA,"",   1.02972E+06,   1.04911E+06,   1.04911E+06
C:/temp/Job-9.odb,Step-1,Increment      1: Step Time =    1.000,"P-9-1",           443,   54.6797E-03,   140.531E-03,            0.,NA,NA,"",   1.03882E+06,   1.05207E+06,   1.05207E+06
C:/temp/Job-9.odb,Step-1,Increment      1: Step Time =    1.000,"P-9-1",           444,   148.505E-03,   48.3510E-03,            0.,NA,NA,"",   1.05966E+06,   1.04517E+06,   1.04517E+06
C:/temp/Job-9.odb,Step-1,Increment      1: Step Time =    1.000,"P-9-1",           445,   51.0661E-03,   148.535E-03,            0.,NA,NA,"",   1.03690E+06,   1.05353E+06,   1.05353E+06
C:/temp/Job-9.odb,Step-1,Increment      1: Step Time =    1.000,"P-9-1",           446,   150.413E-03,   162.225E-03,            0.,NA,NA,"",   1.03894E+06,   1.02957E+06,   1.02957E+06
C:/temp/Job-9.odb,Step-1,Increment      1: Step Time =    1.000,"P-9-1",           447,   148.569E-03,   145.535E-03,            0.,NA,NA,"",   1.06455E+06,   1.04588E+06,   1.04588E+06
C:/temp/Job-9.odb,Step-1,Increment      1: Step Time =    1.000,"P-9-1",           448,   55.6294E-03,   60.9492E-03,            0.,NA,NA,"",   1.04030E+06,   1.05245E+06,   1.05245E+06
C:/temp/Job-9.odb,Step-1,Increment      1: Step Time =    1.000,"P-9-1",           449,   62.5495E-03,   144.803E-03,            0.,NA,NA,"",   1.07245E+06,   1.07669E+06,   1.07669E+06
C:/temp/Job-9.odb,Step-1,Increment      1: Step Time =    1.000,"P-9-1",           450,   59.9164E-03,   72.9266E-03,            0.,NA,NA,"",   1.01462E+06,   1.02088E+06,   1.02088E+06
C:/temp/Job-9.odb,Step-1,Increment      1: Step Time =    1.000,"P-9-1",           451,   58.4431E-03,   123.863E-03,            0.,NA,NA,"",   974.410E+03,   992.479E+03,   992.479E+03
C:/temp/Job-9.odb,Step-1,Increment      1: Step Time =    1.000,"P-9-1",           452,   124.264E-03,   138.579E-03,            0.,NA,NA,"",   1.13349E+06,   1.11722E+06,   1.11722E+06
C:/temp/Job-9.odb,Step-1,Increment      1: Step Time =    1.000,"P-9-1",           453,   76.2374E-03,   140.540E-03,            0.,NA,NA,"",   1.10491E+06,   1.11031E+06,   1.11031E+06
C:/temp/Job-9.odb,Step-1,Increment      1: Step Time =    1.000,"P-9-1",           454,   139.473E-03,   130.428E-03,            0.,NA,NA,"",   1.07957E+06,   1.04839E+06,   1.04839E+06
C:/temp/Job-9.odb,Step-1,Increment      1: Step Time =    1.000,"P-9-1",           455,   78.4349E-03,   58.6317E-03,            0.,NA,NA,"",   1.09363E+06,   1.10431E+06,   1.10431E+06
C:/temp/Job-9.odb,Step-1,Increment      1: Step Time =    1.000,"P-9-1",           456,   143.501E-03,   78.6683E-03,            0.,NA,NA,"",   1.01291E+06,   990.956E+03,   990.956E+03
C:/temp/Job-9.odb,Step-1,Increment      1: Step Time =    1.000,"P-9-1",           457,   94.3560E-03,   62.8512E-03,            0.,NA,NA,"",   1.06126E+06,   1.11045E+06,   1.11045E+06
C:/temp/Job-9.odb,Step-1,Increment      1: Step Time =    1.000,"P-9-1",           458,   104.523E-03,   60.5880E-03,            0.,NA,NA,"",   1.06015E+06,   1.09914E+06,   1.09914E+06
C:/temp/Job-9.odb,Step-1,Increment      1: Step Time =    1.000,"P-9-1",           459,   63.4937E-03,   107.584E-03,            0.,NA,NA,"",   801.443E+03,   834.120E+03,   834.120E+03
C:/temp/Job-9.odb,Step-1,Increment      1: Step Time =    1.000,"P-9-1",           460,   104.563E-03,   140.684E-03,            0.,NA,NA,"",   1.05371E+06,   1.09242E+06,   1.09242E+06
C:/temp/Job-9.odb,Step-1,Increment      1: Step Time =    1.000,"P-9-1",           461,   136.015E-03,   97.0013E-03,            0.,NA,NA,"",   808.704E+03,   816.311E+03,   816.311E+03
C:/temp/Job-9.odb,Step-1,Increment      1: Step Time =    1.000,"P-9-1",           462,   141.185E-03,   107.980E-03,            0.,NA,NA,"",    895.41E+03,   895.365E+03,   895.365E+03
C:/temp/Job-9.odb,Step-1,Increment      1: Step Time =    1.000,"P-9-1",           463,   139.208E-03,   123.035E-03,            0.,NA,NA,"",   1.03345E+06,   1.00623E+06,   1.00623E+06
C:/temp/Job-9.odb,Step-1,Increment      1: Step Time =    1.000,"P-9-1",           464,   124.220E-03,   59.8187E-03,            0.,NA,NA,"",   1.10528E+06,   1.09762E+06,   1.09762E+06
C:/temp/Job-9.odb,Step-1,Increment      1: Step Time =    1.000,"P-9-1",           465,   62.4024E-03,   91.2590E-03,            0.,NA,NA,"",   818.809E+03,   853.402E+03,   853.402E+03
C:/temp/Job-9.odb,Step-1,Increment      1: Step Time =    1.000,"P-9-1",           466,   94.4395E-03,   135.142E-03,            0.,NA,NA,"",   1.07700E+06,   1.12726E+06,   1.12726E+06
C:/temp/Job-9.odb,Step-1,Increment      1: Step Time =    1.000,"P-9-1",           467,   65.3514E-03,   55.2229E-03,            0.,NA,NA,"",   1.08433E+06,   1.08642E+06,   1.08642E+06
C:/temp/Job-9.odb,Step-1,Increment      1: Step Time =    1.000,"P-9-1",           468,   58.6450E-03,   132.639E-03,            0.,NA,NA,"",   1.03471E+06,   1.04113E+06,   1.04113E+06
C:/temp/Job-9.odb,Step-1,Increment      1: Step Time =    1.000,"P-9-1",           469,   118.316E-03,   56.3910E-03,            0.,NA,NA,"",   1.08260E+06,   1.08832E+06,   1.08832E+06
C:/temp/Job-9.odb,Step-1,Increment      1: Step Time =    1.000,"P-9-1",           470,   139.864E-03,   115.539E-03,            0.,NA,NA,"",   966.267E+03,   949.767E+03,   949.767E+03
C:/temp/Job-9.odb,Step-1,Increment      1: Step Time =    1.000,"P-9-1",           471,   89.8271E-03,   142.351E-03,            0.,NA,NA,"",   1.05810E+06,   1.09276E+06,   1.09276E+06
C:/temp/Job-9.odb,Step-1,Increment      1: Step Time =    1.000,"P-9-1",           472,   62.7082E-03,   63.6781E-03,            0.,NA,NA,"",   1.07981E+06,   1.07858E+06,   1.07858E+06
C:/temp/Job-9.odb,Step-1,Increment      1: Step Time =    1.000,"P-9-1",           473,   66.2244E-03,   137.681E-03,            0.,NA,NA,"",   1.09412E+06,   1.08759E+06,   1.08759E+06
C:/temp/Job-9.odb,Step-1,Increment      1: Step Time =    1.000,"P-9-1",           474,   142.171E-03,   67.3045E-03,            0.,NA,NA,"",   1.08724E+06,   1.05733E+06,   1.05733E+06
C:/temp/Job-9.odb,Step-1,Increment      1: Step Time =    1.000,"P-9-1",           475,   67.0166E-03,   130.797E-03,            0.,NA,NA,"",   1.09475E+06,   1.07910E+06,   1.07910E+06
C:/temp/Job-9.odb,Step-1,Increment      1: Step Time =    1.000,"P-9-1",           476,   70.3203E-03,   65.1876E-03,            0.,NA,NA,"",   1.11784E+06,   1.11099E+06,   1.11099E+06
C:/temp/Job-9.odb,Step-1,Increment      1: Step Time =    1.000,"P-9-1",           477,   132.513E-03,   67.0737E-03,            0.,NA,NA,"",   1.13573E+06,   1.10114E+06,   1.10114E+06
C:/temp/Job-9.odb,Step-1,Increment      1: Step Time =    1.000,"P-9-1",           478,   56.7850E-03,   116.133E-03,            0.,NA,NA,"",   903.931E+03,   933.760E+03,   933.760E+03
C:/temp/Job-9.odb,Step-1,Increment      1: Step Time =    1.000,"P-9-1",           479,   117.347E-03,   147.719E-03,            0.,NA,NA,"",   1.06181E+06,   1.07235E+06,   1.07235E+06
C:/temp/Job-9.odb,Step-1,Increment      1: Step Time =    1.000,"P-9-1",           480,   146.645E-03,   93.2545E-03,            0.,NA,NA,"",   899.479E+03,   904.367E+03,   904.367E+03
C:/temp/Job-9.odb,Step-1,Increment      1: Step Time =    1.000,"P-9-1",           481,   85.0692E-03,   57.8718E-03,            0.,NA,NA,"",   1.06989E+06,   1.09461E+06,   1.09461E+06
C:/temp/Job-9.odb,Step-1,Increment      1: Step Time =    1.000,"P-9-1",           482,   131.820E-03,   130.339E-03,            0.,NA,NA,"",   1.13767E+06,   1.09156E+06,   1.09156E+06
C:/temp/Job-9.odb,Step-1,Increment      1: Step Time =    1.000,"P-9-1",           483,   132.322E-03,   138.102E-03,            0.,NA,NA,"",   1.12948E+06,   1.09828E+06,   1.09828E+06
C:/temp/Job-9.odb,Step-1,Increment      1: Step Time =    1.000,"P-9-1",           484,   78.4225E-03,   65.4908E-03,            0.,NA,NA,"",   1.13254E+06,   1.13275E+06,   1.13275E+06
C:/temp/Job-9.odb,Step-1,Increment      1: Step Time =    1.000,"P-9-1",           485,   66.0077E-03,   122.954E-03,            0.,NA,NA,"",   1.03479E+06,   1.02666E+06,   1.02666E+06
C:/temp/Job-9.odb,Step-1,Increment      1: Step Time =    1.000,"P-9-1",           486,   123.767E-03,   130.244E-03,            0.,NA,NA,"",   1.19637E+06,   1.15356E+06,   1.15356E+06
C:/temp/Job-9.odb,Step-1,Increment      1: Step Time =    1.000,"P-9-1",           487,   132.037E-03,   76.6561E-03,            0.,NA,NA,"",   1.12848E+06,   1.07448E+06,   1.07448E+06
C:/temp/Job-9.odb,Step-1,Increment      1: Step Time =    1.000,"P-9-1",           488,   75.3809E-03,   130.503E-03,            0.,NA,NA,"",   1.16449E+06,   1.14396E+06,   1.14396E+06
C:/temp/Job-9.odb,Step-1,Increment      1: Step Time =    1.000,"P-9-1",           489,   131.759E-03,   122.227E-03,            0.,NA,NA,"",   1.07715E+06,   1.03169E+06,   1.03169E+06
C:/temp/Job-9.odb,Step-1,Increment      1: Step Time =    1.000,"P-9-1",           490,   69.8498E-03,   73.4336E-03,            0.,NA,NA,"",   1.12671E+06,   1.10075E+06,   1.10075E+06
C:/temp/Job-9.odb,Step-1,Increment      1: Step Time =    1.000,"P-9-1",           491,   123.398E-03,   66.7973E-03,            0.,NA,NA,"",   1.14591E+06,   1.12835E+06,   1.12835E+06
C:/temp/Job-9.odb,Step-1,Increment      1: Step Time =    1.000,"P-9-1",           492,   9.82597E-03,   9.76814E-03,            0.,NA,NA,"",   1.16999E+06,   1.21715E+06,   1.21715E+06
C:/temp/Job-9.odb,Step-1,Increment      1: Step Time =    1.000,"P-9-1",           493,   62.9360E-03,   99.5770E-03,            0.,NA,NA,"",   771.184E+03,   810.997E+03,   810.997E+03
C:/temp/Job-9.odb,Step-1,Increment      1: Step Time =    1.000,"P-9-1",           494,   133.920E-03,   105.448E-03,            0.,NA,NA,"",   831.397E+03,   828.664E+03,   828.664E+03
C:/temp/Job-9.odb,Step-1,Increment      1: Step Time =    1.000,"P-9-1",           495,   71.5426E-03,   57.8403E-03,            0.,NA,NA,"",   1.09788E+06,   1.09970E+06,   1.09970E+06
C:/temp/Job-9.odb,Step-1,Increment      1: Step Time =    1.000,"P-9-1",           496,   91.9998E-03,   55.5071E-03,            0.,NA,NA,"",   1.04606E+06,   1.07912E+06,   1.07912E+06
C:/temp/Job-9.odb,Step-1,Increment      1: Step Time =    1.000,"P-9-1",           497,   55.2324E-03,   108.402E-03,            0.,NA,NA,"",   838.871E+03,   883.177E+03,   883.177E+03
C:/temp/Job-9.odb,Step-1,Increment      1: Step Time =    1.000,"P-9-1",           498,   140.212E-03,   137.835E-03,            0.,NA,NA,"",   1.09591E+06,   1.06648E+06,   1.06648E+06
C:/temp/Job-9.odb,Step-1,Increment      1: Step Time =    1.000,"P-9-1",           499,   133.160E-03,   145.639E-03,            0.,NA,NA,"",   1.09665E+06,   1.07839E+06,   1.07839E+06
C:/temp/Job-9.odb,Step-1,Increment      1: Step Time =    1.000,"P-9-1",           500,   131.670E-03,   56.0719E-03,            0.,NA,NA,"",   1.09377E+06,   1.07830E+06,   1.07830E+06
C:/temp/Job-9.odb,Step-1,Increment      1: Step Time =    1.000,"P-9-1",           501,   141.324E-03,   57.7194E-03,            0.,NA,NA,"",   1.08753E+06,   1.06475E+06,   1.06475E+06
C:/temp/Job-9.odb,Step-1,Increment      1: Step Time =    1.000,"P-9-1",           502,   152.341E-03,   65.9230E-03,            0.,NA,NA,"",   1.04587E+06,   1.02761E+06,   1.02761E+06
C:/temp/Job-9.odb,Step-1,Increment      1: Step Time =    1.000,"P-9-1",           503,   53.4927E-03,   83.6871E-03,            0.,NA,NA,"",   894.426E+03,   931.452E+03,   931.452E+03
C:/temp/Job-9.odb,Step-1,Increment      1: Step Time =    1.000,"P-9-1",           504,   150.051E-03,   104.036E-03,            0.,NA,NA,"",   912.837E+03,   919.235E+03,   919.235E+03
C:/temp/Job-9.odb,Step-1,Increment      1: Step Time =    1.000,"P-9-1",           505,   78.4112E-03,   52.9748E-03,            0.,NA,NA,"",   1.07746E+06,   1.09026E+06,   1.09026E+06
C:/temp/Job-9.odb,Step-1,Increment      1: Step Time =    1.000,"P-9-1",           506,   94.2656E-03,   44.9555E-03,            0.,NA,NA,"",   1.02504E+06,   1.04777E+06,   1.04777E+06
C:/temp/Job-9.odb,Step-1,Increment      1: Step Time =    1.000,"P-9-1",           507,   45.3761E-03,   100.953E-03,            0.,NA,NA,"",   833.568E+03,   893.697E+03,   893.697E+03
C:/temp/Job-9.odb,Step-1,Increment      1: Step Time =    1.000,"P-9-1",           508,   147.226E-03,   117.486E-03,            0.,NA,NA,"",   974.128E+03,   965.407E+03,   965.407E+03
C:/temp/Job-9.odb,Step-1,Increment      1: Step Time =    1.000,"P-9-1",           509,   146.127E-03,   151.380E-03,            0.,NA,NA,"",   1.06183E+06,   1.04603E+06,   1.04603E+06
C:/temp/Job-9.odb,Step-1,Increment      1: Step Time =    1.000,"P-9-1",           510,   36.5820E-03,   81.5950E-03,            0.,NA,NA,"",   872.346E+03,   936.084E+03,   936.084E+03
C:/temp/Job-9.odb,Step-1,Increment      1: Step Time =    1.000,"P-9-1",           511,   48.8897E-03,   129.174E-03,            0.,NA,NA,"",   962.535E+03,   994.185E+03,   994.185E+03
C:/temp/Job-9.odb,Step-1,Increment      1: Step Time =    1.000,"P-9-1",           512,   118.816E-03,   160.960E-03,            0.,NA,NA,"",   1.03438E+06,   1.04023E+06,   1.04023E+06
C:/temp/Job-9.odb,Step-1,Increment      1: Step Time =    1.000,"P-9-1",           513,   121.334E-03,   168.830E-03,            0.,NA,NA,"",   1.01838E+06,   1.02053E+06,   1.02053E+06
C:/temp/Job-9.odb,Step-1,Increment      1: Step Time =    1.000,"P-9-1",           514,   89.1278E-03,   39.5676E-03,            0.,NA,NA,"",   1.02413E+06,   1.03996E+06,   1.03996E+06
C:/temp/Job-9.odb,Step-1,Increment      1: Step Time =    1.000,"P-9-1",           515,   65.9417E-03,   35.0403E-03,            0.,NA,NA,"",   1.04323E+06,   1.04883E+06,   1.04883E+06
C:/temp/Job-9.odb,Step-1,Increment      1: Step Time =    1.000,"P-9-1",           516,   54.7867E-03,   159.996E-03,            0.,NA,NA,"",   1.04370E+06,   1.05462E+06,   1.05462E+06
C:/temp/Job-9.odb,Step-1,Increment      1: Step Time =    1.000,"P-9-1",           517,   41.4765E-03,   150.889E-03,            0.,NA,NA,"",   1.00846E+06,   1.04115E+06,   1.04115E+06
C:/temp/Job-9.odb,Step-1,Increment      1: Step Time =    1.000,"P-9-1",           518,   156.064E-03,   108.163E-03,            0.,NA,NA,"",   945.356E+03,   950.159E+03,   950.159E+03
C:/temp/Job-9.odb,Step-1,Increment      1: Step Time =    1.000,"P-9-1",           519,   140.483E-03,   152.117E-03,            0.,NA,NA,"",   1.06593E+06,   1.05063E+06,   1.05063E+06
C:/temp/Job-9.odb,Step-1,Increment      1: Step Time =    1.000,"P-9-1",           520,   161.055E-03,   112.970E-03,            0.,NA,NA,"",   968.334E+03,   971.519E+03,   971.519E+03
