ODB Name,Step,Frame,Part Instance Name,    Node Label,X,Y,Z,Section Name,Material Name,Section Point,       S-Mises,S-Max. In-Plane Principal (Abs),S-Max. Principal (Abs)
C:/temp/Job-5.odb,Step-1,Increment      1: Step Time =    1.000,"P-5-1",             1,       85.2622,       147.779,            0.,NA,NA,"",   2.91794E+06,   2.98290E+06,   2.98290E+06
C:/temp/Job-5.odb,Step-1,Increment      1: Step Time =    1.000,"P-5-1",             2,       71.8340,       141.312,            0.,NA,NA,"",   1.14120E+06,   1.14147E+06,   1.14147E+06
C:/temp/Job-5.odb,Step-1,Increment      1: Step Time =    1.000,"P-5-1",             3,       60.9084,       131.174,            0.,NA,NA,"",   401.101E+03,  -359.959E+03,  -359.959E+03
C:/temp/Job-5.odb,Step-1,Increment      1: Step Time =    1.000,"P-5-1",             4,       53.4563,       118.267,            0.,NA,NA,"",   828.336E+03,  -841.216E+03,  -841.216E+03
C:/temp/Job-5.odb,Step-1,Increment      1: Step Time =    1.000,"P-5-1",             5,       50.1398,       103.737,            0.,NA,NA,"",   861.212E+03,  -879.168E+03,  -879.168E+03
C:/temp/Job-5.odb,Step-1,Increment      1: Step Time =    1.000,"P-5-1",             6,       51.2536,       88.8740,            0.,NA,NA,"",   829.534E+03,  -849.383E+03,  -849.383E+03
C:/temp/Job-5.odb,Step-1,Increment      1: Step Time =    1.000,"P-5-1",             7,       56.6987,           75.,            0.,NA,NA,"",   644.931E+03,  -637.881E+03,  -637.881E+03
C:/temp/Job-5.odb,Step-1,Increment      1: Step Time =    1.000,"P-5-1",             8,       65.9914,       63.3474,            0.,NA,NA,"",   486.864E+03,   436.259E+03,   436.259E+03
C:/temp/Job-5.odb,Step-1,Increment      1: Step Time =    1.000,"P-5-1",             9,       78.3058,       54.9516,            0.,NA,NA,"",   2.07775E+06,   2.10545E+06,   2.10545E+06
C:/temp/Job-5.odb,Step-1,Increment      1: Step Time =    1.000,"P-5-1",            10,       92.5479,       50.5585,            0.,NA,NA,"",   3.69787E+06,   3.75879E+06,   3.75879E+06
C:/temp/Job-5.odb,Step-1,Increment      1: Step Time =    1.000,"P-5-1",            11,       107.452,       50.5585,            0.,NA,NA,"",   4.29982E+06,   4.38417E+06,   4.38417E+06
C:/temp/Job-5.odb,Step-1,Increment      1: Step Time =    1.000,"P-5-1",            12,       121.694,       54.9516,            0.,NA,NA,"",   3.64414E+06,   3.70266E+06,   3.70266E+06
C:/temp/Job-5.odb,Step-1,Increment      1: Step Time =    1.000,"P-5-1",            13,       134.009,       63.3474,            0.,NA,NA,"",   2.00147E+06,   2.02073E+06,   2.02073E+06
C:/temp/Job-5.odb,Step-1,Increment      1: Step Time =    1.000,"P-5-1",            14,       143.301,           75.,            0.,NA,NA,"",   666.634E+03,       859.969,       859.969
C:/temp/Job-5.odb,Step-1,Increment      1: Step Time =    1.000,"P-5-1",            15,       148.746,       88.8740,            0.,NA,NA,"",   1.63715E+06,  -1.65857E+06,  -1.65857E+06
C:/temp/Job-5.odb,Step-1,Increment      1: Step Time =    1.000,"P-5-1",            16,       149.860,       103.737,            0.,NA,NA,"",   2.04066E+06,  -2.06603E+06,  -2.06603E+06
C:/temp/Job-5.odb,Step-1,Increment      1: Step Time =    1.000,"P-5-1",            17,       146.544,       118.267,            0.,NA,NA,"",   1.03010E+06,  -1.01164E+06,  -1.01164E+06
C:/temp/Job-5.odb,Step-1,Increment      1: Step Time =    1.000,"P-5-1",            18,       139.092,       131.174,            0.,NA,NA,"",   1.05578E+06,   1.03652E+06,   1.03652E+06
C:/temp/Job-5.odb,Step-1,Increment      1: Step Time =    1.000,"P-5-1",            19,       128.166,       141.312,            0.,NA,NA,"",   2.83257E+06,   2.87456E+06,   2.87456E+06
C:/temp/Job-5.odb,Step-1,Increment      1: Step Time =    1.000,"P-5-1",            20,       114.738,       147.779,            0.,NA,NA,"",   3.96514E+06,   4.06379E+06,   4.06379E+06
C:/temp/Job-5.odb,Step-1,Increment      1: Step Time =    1.000,"P-5-1",            21,          100.,          150.,            0.,NA,NA,"",   4.35321E+06,   4.41808E+06,   4.41808E+06
C:/temp/Job-5.odb,Step-1,Increment      1: Step Time =    1.000,"P-5-1",            22,          190.,            0.,            0.,NA,NA,"",   989.991E+03,   989.846E+03,   989.846E+03
C:/temp/Job-5.odb,Step-1,Increment      1: Step Time =    1.000,"P-5-1",            23,          180.,            0.,            0.,NA,NA,"",   974.961E+03,   974.878E+03,   974.878E+03
C:/temp/Job-5.odb,Step-1,Increment      1: Step Time =    1.000,"P-5-1",            24,          170.,            0.,            0.,NA,NA,"",   955.100E+03,   954.181E+03,   954.181E+03
C:/temp/Job-5.odb,Step-1,Increment      1: Step Time =    1.000,"P-5-1",            25,          160.,            0.,            0.,NA,NA,"",   905.353E+03,   903.767E+03,   903.767E+03
C:/temp/Job-5.odb,Step-1,Increment      1: Step Time =    1.000,"P-5-1",            26,          150.,            0.,            0.,NA,NA,"",   806.502E+03,   804.410E+03,   804.410E+03
C:/temp/Job-5.odb,Step-1,Increment      1: Step Time =    1.000,"P-5-1",            27,          140.,            0.,            0.,NA,NA,"",   661.624E+03,   659.769E+03,   659.769E+03
C:/temp/Job-5.odb,Step-1,Increment      1: Step Time =    1.000,"P-5-1",            28,          130.,            0.,            0.,NA,NA,"",   499.343E+03,   499.109E+03,   499.109E+03
C:/temp/Job-5.odb,Step-1,Increment      1: Step Time =    1.000,"P-5-1",            29,          120.,            0.,            0.,NA,NA,"",   375.867E+03,   378.663E+03,   378.663E+03
C:/temp/Job-5.odb,Step-1,Increment      1: Step Time =    1.000,"P-5-1",            30,          110.,            0.,            0.,NA,NA,"",   357.779E+03,   362.008E+03,   362.008E+03
C:/temp/Job-5.odb,Step-1,Increment      1: Step Time =    1.000,"P-5-1",            31,          100.,            0.,            0.,NA,NA,"",   483.008E+03,   484.849E+03,   484.849E+03
C:/temp/Job-5.odb,Step-1,Increment      1: Step Time =    1.000,"P-5-1",            32,           90.,            0.,            0.,NA,NA,"",   739.782E+03,   738.167E+03,   738.167E+03
C:/temp/Job-5.odb,Step-1,Increment      1: Step Time =    1.000,"P-5-1",            33,           80.,            0.,            0.,NA,NA,"",   1.07973E+06,   1.07672E+06,   1.07672E+06
C:/temp/Job-5.odb,Step-1,Increment      1: Step Time =    1.000,"P-5-1",            34,           70.,            0.,            0.,NA,NA,"",   1.44258E+06,   1.43952E+06,   1.43952E+06
C:/temp/Job-5.odb,Step-1,Increment      1: Step Time =    1.000,"P-5-1",            35,           60.,            0.,            0.,NA,NA,"",   1.76533E+06,   1.76334E+06,   1.76334E+06
C:/temp/Job-5.odb,Step-1,Increment      1: Step Time =    1.000,"P-5-1",            36,           50.,            0.,            0.,NA,NA,"",   2.00991E+06,   2.00216E+06,   2.00216E+06
C:/temp/Job-5.odb,Step-1,Increment      1: Step Time =    1.000,"P-5-1",            37,           40.,            0.,            0.,NA,NA,"",   2.17485E+06,   2.17223E+06,   2.17223E+06
C:/temp/Job-5.odb,Step-1,Increment      1: Step Time =    1.000,"P-5-1",            38,           30.,            0.,            0.,NA,NA,"",   2.26369E+06,   2.26158E+06,   2.26158E+06
C:/temp/Job-5.odb,Step-1,Increment      1: Step Time =    1.000,"P-5-1",            39,           20.,            0.,            0.,NA,NA,"",   2.31659E+06,   2.31632E+06,   2.31632E+06
C:/temp/Job-5.odb,Step-1,Increment      1: Step Time =    1.000,"P-5-1",            40,           10.,            0.,            0.,NA,NA,"",   2.44107E+06,   2.44526E+06,   2.44526E+06
C:/temp/Job-5.odb,Step-1,Increment      1: Step Time =    1.000,"P-5-1",            41,          200.,            0.,            0.,NA,NA,"",   999.244E+03,   998.489E+03,   998.489E+03
C:/temp/Job-5.odb,Step-1,Increment      1: Step Time =    1.000,"P-5-1",            42,            0.,            0.,            0.,NA,NA,"",   2.85707E+06,   2.99440E+06,   2.99440E+06
C:/temp/Job-5.odb,Step-1,Increment      1: Step Time =    1.000,"P-5-1",            43,          200.,          190.,            0.,NA,NA,"",   1.00532E+06,   1.00039E+06,   1.00039E+06
C:/temp/Job-5.odb,Step-1,Increment      1: Step Time =    1.000,"P-5-1",            44,          200.,          180.,            0.,NA,NA,"",   1.00906E+06,   1.00364E+06,   1.00364E+06
C:/temp/Job-5.odb,Step-1,Increment      1: Step Time =    1.000,"P-5-1",            45,          200.,          170.,            0.,NA,NA,"",   990.101E+03,   1.00865E+06,   1.00865E+06
C:/temp/Job-5.odb,Step-1,Increment      1: Step Time =    1.000,"P-5-1",            46,          200.,          160.,            0.,NA,NA,"",   937.135E+03,   1.01034E+06,   1.01034E+06
C:/temp/Job-5.odb,Step-1,Increment      1: Step Time =    1.000,"P-5-1",            47,          200.,          150.,            0.,NA,NA,"",   887.179E+03,   1.01494E+06,   1.01494E+06
C:/temp/Job-5.odb,Step-1,Increment      1: Step Time =    1.000,"P-5-1",            48,          200.,          140.,            0.,NA,NA,"",   937.571E+03,   1.04645E+06,   1.04645E+06
C:/temp/Job-5.odb,Step-1,Increment      1: Step Time =    1.000,"P-5-1",            49,          200.,          130.,            0.,NA,NA,"",   1.14496E+06,   1.26830E+06,   1.26830E+06
C:/temp/Job-5.odb,Step-1,Increment      1: Step Time =    1.000,"P-5-1",            50,          200.,          120.,            0.,NA,NA,"",   1.43623E+06,   1.64746E+06,   1.64746E+06
C:/temp/Job-5.odb,Step-1,Increment      1: Step Time =    1.000,"P-5-1",            51,          200.,          110.,            0.,NA,NA,"",   1.67815E+06,   1.93746E+06,   1.93746E+06
C:/temp/Job-5.odb,Step-1,Increment      1: Step Time =    1.000,"P-5-1",            52,          200.,          100.,            0.,NA,NA,"",   1.77217E+06,   2.04587E+06,   2.04587E+06
C:/temp/Job-5.odb,Step-1,Increment      1: Step Time =    1.000,"P-5-1",            53,          200.,           90.,            0.,NA,NA,"",   1.68105E+06,   1.94080E+06,   1.94080E+06
C:/temp/Job-5.odb,Step-1,Increment      1: Step Time =    1.000,"P-5-1",            54,          200.,           80.,            0.,NA,NA,"",   1.44164E+06,   1.65408E+06,   1.65408E+06
C:/temp/Job-5.odb,Step-1,Increment      1: Step Time =    1.000,"P-5-1",            55,          200.,           70.,            0.,NA,NA,"",   1.14808E+06,   1.27623E+06,   1.27623E+06
C:/temp/Job-5.odb,Step-1,Increment      1: Step Time =    1.000,"P-5-1",            56,          200.,           60.,            0.,NA,NA,"",   939.656E+03,   1.06177E+06,   1.06177E+06
C:/temp/Job-5.odb,Step-1,Increment      1: Step Time =    1.000,"P-5-1",            57,          200.,           50.,            0.,NA,NA,"",   909.703E+03,   1.03829E+06,   1.03829E+06
C:/temp/Job-5.odb,Step-1,Increment      1: Step Time =    1.000,"P-5-1",            58,          200.,           40.,            0.,NA,NA,"",   939.842E+03,   1.00784E+06,   1.00784E+06
C:/temp/Job-5.odb,Step-1,Increment      1: Step Time =    1.000,"P-5-1",            59,          200.,           30.,            0.,NA,NA,"",   989.505E+03,   1.00383E+06,   1.00383E+06
C:/temp/Job-5.odb,Step-1,Increment      1: Step Time =    1.000,"P-5-1",            60,          200.,           20.,            0.,NA,NA,"",   1.00910E+06,   1.00261E+06,   1.00261E+06
C:/temp/Job-5.odb,Step-1,Increment      1: Step Time =    1.000,"P-5-1",            61,          200.,           10.,            0.,NA,NA,"",   1.00526E+06,   1.00026E+06,   1.00026E+06
C:/temp/Job-5.odb,Step-1,Increment      1: Step Time =    1.000,"P-5-1",            62,          200.,          200.,            0.,NA,NA,"",   999.257E+03,   998.517E+03,   998.517E+03
C:/temp/Job-5.odb,Step-1,Increment      1: Step Time =    1.000,"P-5-1",            63,           10.,          200.,            0.,NA,NA,"",   2.44345E+06,   2.44621E+06,   2.44621E+06
C:/temp/Job-5.odb,Step-1,Increment      1: Step Time =    1.000,"P-5-1",            64,           20.,          200.,            0.,NA,NA,"",   2.31512E+06,   2.31468E+06,   2.31468E+06
C:/temp/Job-5.odb,Step-1,Increment      1: Step Time =    1.000,"P-5-1",            65,           30.,          200.,            0.,NA,NA,"",   2.25546E+06,   2.25380E+06,   2.25380E+06
C:/temp/Job-5.odb,Step-1,Increment      1: Step Time =    1.000,"P-5-1",            66,           40.,          200.,            0.,NA,NA,"",   2.16695E+06,   2.16444E+06,   2.16444E+06
C:/temp/Job-5.odb,Step-1,Increment      1: Step Time =    1.000,"P-5-1",            67,           50.,          200.,            0.,NA,NA,"",   2.00987E+06,   2.00652E+06,   2.00652E+06
C:/temp/Job-5.odb,Step-1,Increment      1: Step Time =    1.000,"P-5-1",            68,           60.,          200.,            0.,NA,NA,"",   1.76729E+06,   1.76328E+06,   1.76328E+06
C:/temp/Job-5.odb,Step-1,Increment      1: Step Time =    1.000,"P-5-1",            69,           70.,          200.,            0.,NA,NA,"",   1.45022E+06,   1.44604E+06,   1.44604E+06
C:/temp/Job-5.odb,Step-1,Increment      1: Step Time =    1.000,"P-5-1",            70,           80.,          200.,            0.,NA,NA,"",   1.09061E+06,   1.08721E+06,   1.08721E+06
C:/temp/Job-5.odb,Step-1,Increment      1: Step Time =    1.000,"P-5-1",            71,           90.,          200.,            0.,NA,NA,"",   749.583E+03,   748.163E+03,   748.163E+03
C:/temp/Job-5.odb,Step-1,Increment      1: Step Time =    1.000,"P-5-1",            72,          100.,          200.,            0.,NA,NA,"",   491.784E+03,   493.533E+03,   493.533E+03
C:/temp/Job-5.odb,Step-1,Increment      1: Step Time =    1.000,"P-5-1",            73,          110.,          200.,            0.,NA,NA,"",   356.646E+03,   361.053E+03,   361.053E+03
C:/temp/Job-5.odb,Step-1,Increment      1: Step Time =    1.000,"P-5-1",            74,          120.,          200.,            0.,NA,NA,"",   371.312E+03,   373.961E+03,   373.961E+03
C:/temp/Job-5.odb,Step-1,Increment      1: Step Time =    1.000,"P-5-1",            75,          130.,          200.,            0.,NA,NA,"",   502.479E+03,   502.603E+03,   502.603E+03
C:/temp/Job-5.odb,Step-1,Increment      1: Step Time =    1.000,"P-5-1",            76,          140.,          200.,            0.,NA,NA,"",   689.177E+03,   687.309E+03,   687.309E+03
C:/temp/Job-5.odb,Step-1,Increment      1: Step Time =    1.000,"P-5-1",            77,          150.,          200.,            0.,NA,NA,"",   833.226E+03,   827.425E+03,   827.425E+03
C:/temp/Job-5.odb,Step-1,Increment      1: Step Time =    1.000,"P-5-1",            78,          160.,          200.,            0.,NA,NA,"",   913.090E+03,   911.829E+03,   911.829E+03
C:/temp/Job-5.odb,Step-1,Increment      1: Step Time =    1.000,"P-5-1",            79,          170.,          200.,            0.,NA,NA,"",   955.017E+03,   954.348E+03,   954.348E+03
C:/temp/Job-5.odb,Step-1,Increment      1: Step Time =    1.000,"P-5-1",            80,          180.,          200.,            0.,NA,NA,"",   974.162E+03,   974.004E+03,   974.004E+03
C:/temp/Job-5.odb,Step-1,Increment      1: Step Time =    1.000,"P-5-1",            81,          190.,          200.,            0.,NA,NA,"",   989.308E+03,   989.295E+03,   989.295E+03
C:/temp/Job-5.odb,Step-1,Increment      1: Step Time =    1.000,"P-5-1",            82,            0.,          200.,            0.,NA,NA,"",   2.86423E+06,   3.00547E+06,   3.00547E+06
C:/temp/Job-5.odb,Step-1,Increment      1: Step Time =    1.000,"P-5-1",            83,            0.,           10.,            0.,NA,NA,"",   2.02707E+06,   2.22223E+06,   2.22223E+06
C:/temp/Job-5.odb,Step-1,Increment      1: Step Time =    1.000,"P-5-1",            84,            0.,           20.,            0.,NA,NA,"",   1.60504E+06,   1.78618E+06,   1.78618E+06
C:/temp/Job-5.odb,Step-1,Increment      1: Step Time =    1.000,"P-5-1",            85,            0.,           30.,            0.,NA,NA,"",   1.30162E+06,   1.45691E+06,   1.45691E+06
C:/temp/Job-5.odb,Step-1,Increment      1: Step Time =    1.000,"P-5-1",            86,            0.,           40.,            0.,NA,NA,"",   1.03920E+06,   1.16363E+06,   1.16363E+06
C:/temp/Job-5.odb,Step-1,Increment      1: Step Time =    1.000,"P-5-1",            87,            0.,           50.,            0.,NA,NA,"",   795.639E+03,   886.941E+03,   886.941E+03
C:/temp/Job-5.odb,Step-1,Increment      1: Step Time =    1.000,"P-5-1",            88,            0.,           60.,            0.,NA,NA,"",   569.039E+03,   626.614E+03,   626.614E+03
C:/temp/Job-5.odb,Step-1,Increment      1: Step Time =    1.000,"P-5-1",            89,            0.,           70.,            0.,NA,NA,"",   370.901E+03,   395.840E+03,   395.840E+03
C:/temp/Job-5.odb,Step-1,Increment      1: Step Time =    1.000,"P-5-1",            90,            0.,           80.,            0.,NA,NA,"",   211.520E+03,   207.172E+03,   207.172E+03
C:/temp/Job-5.odb,Step-1,Increment      1: Step Time =    1.000,"P-5-1",            91,            0.,           90.,            0.,NA,NA,"",   102.513E+03,   75.9345E+03,   75.9345E+03
C:/temp/Job-5.odb,Step-1,Increment      1: Step Time =    1.000,"P-5-1",            92,            0.,          100.,            0.,NA,NA,"",   59.7080E+03,  -44.0237E+03,  -44.0237E+03
C:/temp/Job-5.odb,Step-1,Increment      1: Step Time =    1.000,"P-5-1",            93,            0.,          110.,            0.,NA,NA,"",   105.234E+03,   78.3204E+03,   78.3204E+03
C:/temp/Job-5.odb,Step-1,Increment      1: Step Time =    1.000,"P-5-1",            94,            0.,          120.,            0.,NA,NA,"",   212.801E+03,   207.720E+03,   207.720E+03
C:/temp/Job-5.odb,Step-1,Increment      1: Step Time =    1.000,"P-5-1",            95,            0.,          130.,            0.,NA,NA,"",   368.801E+03,   392.772E+03,   392.772E+03
C:/temp/Job-5.odb,Step-1,Increment      1: Step Time =    1.000,"P-5-1",            96,            0.,          140.,            0.,NA,NA,"",   575.257E+03,   630.082E+03,   630.082E+03
C:/temp/Job-5.odb,Step-1,Increment      1: Step Time =    1.000,"P-5-1",            97,            0.,          150.,            0.,NA,NA,"",   806.665E+03,   900.473E+03,   900.473E+03
C:/temp/Job-5.odb,Step-1,Increment      1: Step Time =    1.000,"P-5-1",            98,            0.,          160.,            0.,NA,NA,"",   1.05317E+06,   1.18022E+06,   1.18022E+06
C:/temp/Job-5.odb,Step-1,Increment      1: Step Time =    1.000,"P-5-1",            99,            0.,          170.,            0.,NA,NA,"",   1.31828E+06,   1.47530E+06,   1.47530E+06
C:/temp/Job-5.odb,Step-1,Increment      1: Step Time =    1.000,"P-5-1",           100,            0.,          180.,            0.,NA,NA,"",   1.61649E+06,   1.79966E+06,   1.79966E+06
C:/temp/Job-5.odb,Step-1,Increment      1: Step Time =    1.000,"P-5-1",           101,            0.,          190.,            0.,NA,NA,"",   2.03105E+06,   2.22966E+06,   2.22966E+06
C:/temp/Job-5.odb,Step-1,Increment      1: Step Time =    1.000,"P-5-1",           102,       95.4820,       40.2299,            0.,NA,NA,"",   2.83418E+06,   2.97954E+06,   2.97954E+06
C:/temp/Job-5.odb,Step-1,Increment      1: Step Time =    1.000,"P-5-1",           103,       187.730,       158.461,            0.,NA,NA,"",   1.08285E+06,   1.13347E+06,   1.13347E+06
C:/temp/Job-5.odb,Step-1,Increment      1: Step Time =    1.000,"P-5-1",           104,       179.176,       156.458,            0.,NA,NA,"",   1.29576E+06,   1.28212E+06,   1.28212E+06
C:/temp/Job-5.odb,Step-1,Increment      1: Step Time =    1.000,"P-5-1",           105,       167.521,       157.378,            0.,NA,NA,"",   1.58448E+06,   1.46969E+06,   1.46969E+06
C:/temp/Job-5.odb,Step-1,Increment      1: Step Time =    1.000,"P-5-1",           106,       154.439,       161.937,            0.,NA,NA,"",   1.76523E+06,   1.64019E+06,   1.64019E+06
C:/temp/Job-5.odb,Step-1,Increment      1: Step Time =    1.000,"P-5-1",           107,       147.735,       158.359,            0.,NA,NA,"",   1.93809E+06,   1.81556E+06,   1.81556E+06
C:/temp/Job-5.odb,Step-1,Increment      1: Step Time =    1.000,"P-5-1",           108,       135.481,       158.896,            0.,NA,NA,"",   2.09917E+06,   2.10980E+06,   2.10980E+06
C:/temp/Job-5.odb,Step-1,Increment      1: Step Time =    1.000,"P-5-1",           109,       126.171,       159.179,            0.,NA,NA,"",   2.30725E+06,   2.41877E+06,   2.41877E+06
C:/temp/Job-5.odb,Step-1,Increment      1: Step Time =    1.000,"P-5-1",           110,       116.049,       156.486,            0.,NA,NA,"",   3.05386E+06,   3.21804E+06,   3.21804E+06
C:/temp/Job-5.odb,Step-1,Increment      1: Step Time =    1.000,"P-5-1",           111,       105.276,       157.325,            0.,NA,NA,"",   3.24042E+06,   3.40961E+06,   3.40961E+06
C:/temp/Job-5.odb,Step-1,Increment      1: Step Time =    1.000,"P-5-1",           112,       95.3734,       158.101,            0.,NA,NA,"",   3.00822E+06,   3.14971E+06,   3.14971E+06
C:/temp/Job-5.odb,Step-1,Increment      1: Step Time =    1.000,"P-5-1",           113,       85.7816,       160.278,            0.,NA,NA,"",   2.48876E+06,   2.55615E+06,   2.55615E+06
C:/temp/Job-5.odb,Step-1,Increment      1: Step Time =    1.000,"P-5-1",           114,       64.5440,       157.997,            0.,NA,NA,"",   1.98506E+06,   1.82258E+06,   1.82258E+06
C:/temp/Job-5.odb,Step-1,Increment      1: Step Time =    1.000,"P-5-1",           115,       52.1788,       159.240,            0.,NA,NA,"",   1.78428E+06,   1.60149E+06,   1.60149E+06
C:/temp/Job-5.odb,Step-1,Increment      1: Step Time =    1.000,"P-5-1",           116,       42.2837,       157.495,            0.,NA,NA,"",   1.54775E+06,   1.41028E+06,   1.41028E+06
C:/temp/Job-5.odb,Step-1,Increment      1: Step Time =    1.000,"P-5-1",           117,       29.9348,       157.718,            0.,NA,NA,"",   1.33927E+06,   1.29129E+06,   1.29129E+06
C:/temp/Job-5.odb,Step-1,Increment      1: Step Time =    1.000,"P-5-1",           118,       23.8893,       159.093,            0.,NA,NA,"",   1.29663E+06,   1.29534E+06,   1.29534E+06
C:/temp/Job-5.odb,Step-1,Increment      1: Step Time =    1.000,"P-5-1",           119,       9.90828,       156.950,            0.,NA,NA,"",   1.04104E+06,   1.12561E+06,   1.12561E+06
C:/temp/Job-5.odb,Step-1,Increment      1: Step Time =    1.000,"P-5-1",           120,       12.9375,       149.285,            0.,NA,NA,"",   851.665E+03,   908.040E+03,   908.040E+03
C:/temp/Job-5.odb,Step-1,Increment      1: Step Time =    1.000,"P-5-1",           121,       22.5682,       147.328,            0.,NA,NA,"",   879.698E+03,   882.944E+03,   882.944E+03
C:/temp/Job-5.odb,Step-1,Increment      1: Step Time =    1.000,"P-5-1",           122,       32.1497,       146.513,            0.,NA,NA,"",   982.500E+03,   913.526E+03,   913.526E+03
C:/temp/Job-5.odb,Step-1,Increment      1: Step Time =    1.000,"P-5-1",           123,       40.0611,       146.055,            0.,NA,NA,"",   1.08792E+06,   944.769E+03,   944.769E+03
C:/temp/Job-5.odb,Step-1,Increment      1: Step Time =    1.000,"P-5-1",           124,       53.3282,       149.656,            0.,NA,NA,"",   1.47471E+06,   1.26892E+06,   1.26892E+06
C:/temp/Job-5.odb,Step-1,Increment      1: Step Time =    1.000,"P-5-1",           125,       66.4902,       147.994,            0.,NA,NA,"",   1.54020E+06,   1.43169E+06,   1.43169E+06
C:/temp/Job-5.odb,Step-1,Increment      1: Step Time =    1.000,"P-5-1",           126,       73.5344,       147.666,            0.,NA,NA,"",   1.76871E+06,   1.76047E+06,   1.76047E+06
C:/temp/Job-5.odb,Step-1,Increment      1: Step Time =    1.000,"P-5-1",           127,       126.908,       147.341,            0.,NA,NA,"",   3.02500E+06,   3.09265E+06,   3.09265E+06
C:/temp/Job-5.odb,Step-1,Increment      1: Step Time =    1.000,"P-5-1",           128,       134.316,       148.026,            0.,NA,NA,"",   2.34154E+06,   2.36540E+06,   2.36540E+06
C:/temp/Job-5.odb,Step-1,Increment      1: Step Time =    1.000,"P-5-1",           129,       157.191,       145.563,            0.,NA,NA,"",   1.92537E+06,   1.65772E+06,   1.65772E+06
C:/temp/Job-5.odb,Step-1,Increment      1: Step Time =    1.000,"P-5-1",           130,       168.414,       144.786,            0.,NA,NA,"",   1.69389E+06,   1.50841E+06,   1.50841E+06
C:/temp/Job-5.odb,Step-1,Increment      1: Step Time =    1.000,"P-5-1",           131,       181.393,       143.625,            0.,NA,NA,"",   1.33440E+06,   1.34301E+06,   1.34301E+06
C:/temp/Job-5.odb,Step-1,Increment      1: Step Time =    1.000,"P-5-1",           132,       191.034,       148.959,            0.,NA,NA,"",   1.02430E+06,   1.13363E+06,   1.13363E+06
C:/temp/Job-5.odb,Step-1,Increment      1: Step Time =    1.000,"P-5-1",           133,       145.680,       137.034,            0.,NA,NA,"",   1.64581E+06,   1.44763E+06,   1.44763E+06
C:/temp/Job-5.odb,Step-1,Increment      1: Step Time =    1.000,"P-5-1",           134,       158.974,       134.449,            0.,NA,NA,"",   1.76279E+06,   1.37732E+06,   1.37732E+06
C:/temp/Job-5.odb,Step-1,Increment      1: Step Time =    1.000,"P-5-1",           135,       167.758,       137.254,            0.,NA,NA,"",   1.70783E+06,   1.46186E+06,   1.46186E+06
C:/temp/Job-5.odb,Step-1,Increment      1: Step Time =    1.000,"P-5-1",           136,       180.856,       134.660,            0.,NA,NA,"",   1.34729E+06,   1.36032E+06,   1.36032E+06
C:/temp/Job-5.odb,Step-1,Increment      1: Step Time =    1.000,"P-5-1",           137,       190.417,       134.824,            0.,NA,NA,"",   1.10732E+06,   1.25749E+06,   1.25749E+06
C:/temp/Job-5.odb,Step-1,Increment      1: Step Time =    1.000,"P-5-1",           138,       145.348,       129.732,            0.,NA,NA,"",   929.139E+03,   597.714E+03,   597.714E+03
C:/temp/Job-5.odb,Step-1,Increment      1: Step Time =    1.000,"P-5-1",           139,       158.808,       126.910,            0.,NA,NA,"",   1.49920E+06,   1.01937E+06,   1.01937E+06
C:/temp/Job-5.odb,Step-1,Increment      1: Step Time =    1.000,"P-5-1",           140,       169.704,       125.576,            0.,NA,NA,"",   1.42156E+06,   1.18114E+06,   1.18114E+06
C:/temp/Job-5.odb,Step-1,Increment      1: Step Time =    1.000,"P-5-1",           141,       180.473,       124.793,            0.,NA,NA,"",   1.23584E+06,   1.27863E+06,   1.27863E+06
C:/temp/Job-5.odb,Step-1,Increment      1: Step Time =    1.000,"P-5-1",           142,       190.286,       125.046,            0.,NA,NA,"",   1.16987E+06,   1.34107E+06,   1.34107E+06
C:/temp/Job-5.odb,Step-1,Increment      1: Step Time =    1.000,"P-5-1",           143,       158.771,       117.576,            0.,NA,NA,"",   1.15065E+06,  -229.200E+03,  -229.200E+03
C:/temp/Job-5.odb,Step-1,Increment      1: Step Time =    1.000,"P-5-1",           144,       169.544,       113.646,            0.,NA,NA,"",   905.181E+03,   724.369E+03,   724.369E+03
C:/temp/Job-5.odb,Step-1,Increment      1: Step Time =    1.000,"P-5-1",           145,       180.571,       115.548,            0.,NA,NA,"",   1.00405E+06,   1.10317E+06,   1.10317E+06
C:/temp/Job-5.odb,Step-1,Increment      1: Step Time =    1.000,"P-5-1",           146,       190.207,       115.222,            0.,NA,NA,"",   1.20453E+06,   1.38618E+06,   1.38618E+06
C:/temp/Job-5.odb,Step-1,Increment      1: Step Time =    1.000,"P-5-1",           147,       159.464,       94.1030,            0.,NA,NA,"",   959.404E+03,  -934.503E+03,  -934.503E+03
C:/temp/Job-5.odb,Step-1,Increment      1: Step Time =    1.000,"P-5-1",           148,       169.341,       95.6539,            0.,NA,NA,"",   449.004E+03,   235.149E+03,   235.149E+03
C:/temp/Job-5.odb,Step-1,Increment      1: Step Time =    1.000,"P-5-1",           149,       180.236,       95.9407,            0.,NA,NA,"",   713.594E+03,   797.722E+03,   797.722E+03
C:/temp/Job-5.odb,Step-1,Increment      1: Step Time =    1.000,"P-5-1",           150,       190.111,       95.3639,            0.,NA,NA,"",   1.21529E+06,   1.38744E+06,   1.38744E+06
C:/temp/Job-5.odb,Step-1,Increment      1: Step Time =    1.000,"P-5-1",           151,       190.131,       105.379,            0.,NA,NA,"",   1.21760E+06,   1.39147E+06,   1.39147E+06
C:/temp/Job-5.odb,Step-1,Increment      1: Step Time =    1.000,"P-5-1",           152,       180.391,       105.718,            0.,NA,NA,"",   753.221E+03,   853.757E+03,   853.757E+03
C:/temp/Job-5.odb,Step-1,Increment      1: Step Time =    1.000,"P-5-1",           153,       167.192,       104.765,            0.,NA,NA,"",   478.941E+03,  -1.91952E+03,  -1.91952E+03
C:/temp/Job-5.odb,Step-1,Increment      1: Step Time =    1.000,"P-5-1",           154,       158.803,       104.647,            0.,NA,NA,"",   1.02201E+06,  -1.01773E+06,  -1.01773E+06
C:/temp/Job-5.odb,Step-1,Increment      1: Step Time =    1.000,"P-5-1",           155,       161.166,       84.8753,            0.,NA,NA,"",   1.04378E+06,  -404.227E+03,  -404.227E+03
C:/temp/Job-5.odb,Step-1,Increment      1: Step Time =    1.000,"P-5-1",           156,       170.635,       85.9719,            0.,NA,NA,"",    933.45E+03,   783.240E+03,   783.240E+03
C:/temp/Job-5.odb,Step-1,Increment      1: Step Time =    1.000,"P-5-1",           157,       180.204,       85.6930,            0.,NA,NA,"",   969.155E+03,   1.06595E+06,   1.06595E+06
C:/temp/Job-5.odb,Step-1,Increment      1: Step Time =    1.000,"P-5-1",           158,       190.214,       85.4153,            0.,NA,NA,"",   1.20675E+06,   1.38860E+06,   1.38860E+06
C:/temp/Job-5.odb,Step-1,Increment      1: Step Time =    1.000,"P-5-1",           159,       150.202,       77.5383,            0.,NA,NA,"",   1.00474E+06,  -780.886E+03,  -780.886E+03
C:/temp/Job-5.odb,Step-1,Increment      1: Step Time =    1.000,"P-5-1",           160,       159.071,       75.5266,            0.,NA,NA,"",   1.43249E+06,   552.917E+03,   552.917E+03
C:/temp/Job-5.odb,Step-1,Increment      1: Step Time =    1.000,"P-5-1",           161,       167.378,       72.7062,            0.,NA,NA,"",   1.49188E+06,   1.20191E+06,   1.20191E+06
C:/temp/Job-5.odb,Step-1,Increment      1: Step Time =    1.000,"P-5-1",           162,       180.776,       75.9028,            0.,NA,NA,"",   1.21467E+06,   1.26723E+06,   1.26723E+06
C:/temp/Job-5.odb,Step-1,Increment      1: Step Time =    1.000,"P-5-1",           163,       190.415,       75.7247,            0.,NA,NA,"",   1.17000E+06,   1.34295E+06,   1.34295E+06
C:/temp/Job-5.odb,Step-1,Increment      1: Step Time =    1.000,"P-5-1",           164,       147.071,       62.8159,            0.,NA,NA,"",   1.69120E+06,   1.44904E+06,   1.44904E+06
C:/temp/Job-5.odb,Step-1,Increment      1: Step Time =    1.000,"P-5-1",           165,       157.800,       63.1755,            0.,NA,NA,"",   1.81379E+06,   1.45445E+06,   1.45445E+06
C:/temp/Job-5.odb,Step-1,Increment      1: Step Time =    1.000,"P-5-1",           166,       168.244,       63.0050,            0.,NA,NA,"",   1.67615E+06,   1.43653E+06,   1.43653E+06
C:/temp/Job-5.odb,Step-1,Increment      1: Step Time =    1.000,"P-5-1",           167,       178.554,       65.8670,            0.,NA,NA,"",   1.39409E+06,   1.36571E+06,   1.36571E+06
C:/temp/Job-5.odb,Step-1,Increment      1: Step Time =    1.000,"P-5-1",           168,       189.768,       66.4300,            0.,NA,NA,"",   1.12419E+06,   1.27266E+06,   1.27266E+06
C:/temp/Job-5.odb,Step-1,Increment      1: Step Time =    1.000,"P-5-1",           169,       128.082,       53.8355,            0.,NA,NA,"",   2.92152E+06,   2.98626E+06,   2.98626E+06
C:/temp/Job-5.odb,Step-1,Increment      1: Step Time =    1.000,"P-5-1",           170,       134.683,       53.1861,            0.,NA,NA,"",   2.29501E+06,   2.31761E+06,   2.31761E+06
C:/temp/Job-5.odb,Step-1,Increment      1: Step Time =    1.000,"P-5-1",           171,       147.598,       51.6446,            0.,NA,NA,"",   2.04424E+06,   1.85749E+06,   1.85749E+06
C:/temp/Job-5.odb,Step-1,Increment      1: Step Time =    1.000,"P-5-1",           172,       157.746,       52.6013,            0.,NA,NA,"",   1.91729E+06,   1.67007E+06,   1.67007E+06
C:/temp/Job-5.odb,Step-1,Increment      1: Step Time =    1.000,"P-5-1",           173,       168.366,       54.1596,            0.,NA,NA,"",   1.69244E+06,   1.51506E+06,   1.51506E+06
C:/temp/Job-5.odb,Step-1,Increment      1: Step Time =    1.000,"P-5-1",           174,       177.159,       52.9410,            0.,NA,NA,"",   1.43685E+06,   1.38479E+06,   1.38479E+06
C:/temp/Job-5.odb,Step-1,Increment      1: Step Time =    1.000,"P-5-1",           175,       187.249,       50.9762,            0.,NA,NA,"",   1.13375E+06,   1.20819E+06,   1.20819E+06
C:/temp/Job-5.odb,Step-1,Increment      1: Step Time =    1.000,"P-5-1",           176,       106.706,       39.3910,            0.,NA,NA,"",   2.77451E+06,   2.96086E+06,   2.96086E+06
C:/temp/Job-5.odb,Step-1,Increment      1: Step Time =    1.000,"P-5-1",           177,       9.56618,       40.9358,            0.,NA,NA,"",   1.09851E+06,   1.18956E+06,   1.18956E+06
C:/temp/Job-5.odb,Step-1,Increment      1: Step Time =    1.000,"P-5-1",           178,       19.4503,       41.5591,            0.,NA,NA,"",   1.21020E+06,   1.24014E+06,   1.24014E+06
C:/temp/Job-5.odb,Step-1,Increment      1: Step Time =    1.000,"P-5-1",           179,       29.9450,       41.8665,            0.,NA,NA,"",   1.35429E+06,   1.30602E+06,   1.30602E+06
C:/temp/Job-5.odb,Step-1,Increment      1: Step Time =    1.000,"P-5-1",           180,       40.7197,       42.1923,            0.,NA,NA,"",   1.52654E+06,   1.39845E+06,   1.39845E+06
C:/temp/Job-5.odb,Step-1,Increment      1: Step Time =    1.000,"P-5-1",           181,       50.6022,       44.5531,            0.,NA,NA,"",   1.64048E+06,   1.45095E+06,   1.45095E+06
C:/temp/Job-5.odb,Step-1,Increment      1: Step Time =    1.000,"P-5-1",           182,       63.0001,       40.3957,            0.,NA,NA,"",   1.97539E+06,   1.80420E+06,   1.80420E+06
C:/temp/Job-5.odb,Step-1,Increment      1: Step Time =    1.000,"P-5-1",           183,       73.7908,       38.1133,            0.,NA,NA,"",   2.19146E+06,   2.11122E+06,   2.11122E+06
C:/temp/Job-5.odb,Step-1,Increment      1: Step Time =    1.000,"P-5-1",           184,       85.2673,       42.2574,            0.,NA,NA,"",   2.60445E+06,   2.67029E+06,   2.67029E+06
C:/temp/Job-5.odb,Step-1,Increment      1: Step Time =    1.000,"P-5-1",           185,       115.772,       43.3273,            0.,NA,NA,"",   3.00783E+06,   3.17290E+06,   3.17290E+06
C:/temp/Job-5.odb,Step-1,Increment      1: Step Time =    1.000,"P-5-1",           186,       128.071,       43.0997,            0.,NA,NA,"",   2.36076E+06,   2.45552E+06,   2.45552E+06
C:/temp/Job-5.odb,Step-1,Increment      1: Step Time =    1.000,"P-5-1",           187,       135.294,       42.7484,            0.,NA,NA,"",   2.14731E+06,   2.15625E+06,   2.15625E+06
C:/temp/Job-5.odb,Step-1,Increment      1: Step Time =    1.000,"P-5-1",           188,       146.116,       44.9523,            0.,NA,NA,"",   2.02727E+06,   1.89815E+06,   1.89815E+06
C:/temp/Job-5.odb,Step-1,Increment      1: Step Time =    1.000,"P-5-1",           189,       158.413,       43.7514,            0.,NA,NA,"",   1.81517E+06,   1.64817E+06,   1.64817E+06
C:/temp/Job-5.odb,Step-1,Increment      1: Step Time =    1.000,"P-5-1",           190,       167.790,       44.5873,            0.,NA,NA,"",   1.60931E+06,   1.48526E+06,   1.48526E+06
C:/temp/Job-5.odb,Step-1,Increment      1: Step Time =    1.000,"P-5-1",           191,       176.358,       42.2059,            0.,NA,NA,"",   1.36189E+06,   1.32090E+06,   1.32090E+06
C:/temp/Job-5.odb,Step-1,Increment      1: Step Time =    1.000,"P-5-1",           192,       190.693,       43.1363,            0.,NA,NA,"",   1.01523E+06,   1.09272E+06,   1.09272E+06
C:/temp/Job-5.odb,Step-1,Increment      1: Step Time =    1.000,"P-5-1",           193,       76.0372,       50.2761,            0.,NA,NA,"",   2.06745E+06,   2.07248E+06,   2.07248E+06
C:/temp/Job-5.odb,Step-1,Increment      1: Step Time =    1.000,"P-5-1",           194,       64.3264,       52.7874,            0.,NA,NA,"",   1.43654E+06,   1.30538E+06,   1.30538E+06
C:/temp/Job-5.odb,Step-1,Increment      1: Step Time =    1.000,"P-5-1",           195,       51.0349,       51.1761,            0.,NA,NA,"",   1.39528E+06,   1.19500E+06,   1.19500E+06
C:/temp/Job-5.odb,Step-1,Increment      1: Step Time =    1.000,"P-5-1",           196,       41.6529,       51.4739,            0.,NA,NA,"",   1.22781E+06,   1.07616E+06,   1.07616E+06
C:/temp/Job-5.odb,Step-1,Increment      1: Step Time =    1.000,"P-5-1",           197,       33.5757,       54.6020,            0.,NA,NA,"",   974.570E+03,   892.954E+03,   892.954E+03
C:/temp/Job-5.odb,Step-1,Increment      1: Step Time =    1.000,"P-5-1",           198,       19.4586,       50.9209,            0.,NA,NA,"",   912.758E+03,   934.796E+03,   934.796E+03
C:/temp/Job-5.odb,Step-1,Increment      1: Step Time =    1.000,"P-5-1",           199,       9.62197,       50.5748,            0.,NA,NA,"",   827.253E+03,   897.268E+03,   897.268E+03
C:/temp/Job-5.odb,Step-1,Increment      1: Step Time =    1.000,"P-5-1",           200,       52.5414,       61.5037,            0.,NA,NA,"",   829.563E+03,   600.270E+03,   600.270E+03
C:/temp/Job-5.odb,Step-1,Increment      1: Step Time =    1.000,"P-5-1",           201,       40.4527,       61.3509,            0.,NA,NA,"",   789.497E+03,   636.837E+03,   636.837E+03
C:/temp/Job-5.odb,Step-1,Increment      1: Step Time =    1.000,"P-5-1",           202,       25.1347,       65.0219,            0.,NA,NA,"",   514.257E+03,   494.567E+03,   494.567E+03
C:/temp/Job-5.odb,Step-1,Increment      1: Step Time =    1.000,"P-5-1",           203,       9.66979,       65.1417,            0.,NA,NA,"",   446.395E+03,   485.786E+03,   485.786E+03
C:/temp/Job-5.odb,Step-1,Increment      1: Step Time =    1.000,"P-5-1",           204,       52.1934,       72.5211,            0.,NA,NA,"",   570.665E+03,  -532.670E+03,  -532.670E+03
C:/temp/Job-5.odb,Step-1,Increment      1: Step Time =    1.000,"P-5-1",           205,       41.7954,       71.5985,            0.,NA,NA,"",   441.845E+03,  -7.51342E+03,  -7.51342E+03
C:/temp/Job-5.odb,Step-1,Increment      1: Step Time =    1.000,"P-5-1",           206,       31.6882,       74.0153,            0.,NA,NA,"",   294.499E+03,   126.702E+03,   126.702E+03
C:/temp/Job-5.odb,Step-1,Increment      1: Step Time =    1.000,"P-5-1",           207,       19.8939,       74.5857,            0.,NA,NA,"",   234.346E+03,   235.859E+03,   235.859E+03
C:/temp/Job-5.odb,Step-1,Increment      1: Step Time =    1.000,"P-5-1",           208,       9.84511,       74.8362,            0.,NA,NA,"",   248.419E+03,   267.995E+03,   267.995E+03
C:/temp/Job-5.odb,Step-1,Increment      1: Step Time =    1.000,"P-5-1",           209,       40.6581,       83.4454,            0.,NA,NA,"",   354.129E+03,  -378.709E+03,  -378.709E+03
C:/temp/Job-5.odb,Step-1,Increment      1: Step Time =    1.000,"P-5-1",           210,       31.0472,       86.2643,            0.,NA,NA,"",   132.436E+03,  -148.794E+03,  -148.794E+03
C:/temp/Job-5.odb,Step-1,Increment      1: Step Time =    1.000,"P-5-1",           211,       19.8832,       86.5867,            0.,NA,NA,"",   98.6093E+03,  -17.7642E+03,  -17.7642E+03
C:/temp/Job-5.odb,Step-1,Increment      1: Step Time =    1.000,"P-5-1",           212,       10.3834,       85.0128,            0.,NA,NA,"",   133.524E+03,   122.237E+03,   122.237E+03
C:/temp/Job-5.odb,Step-1,Increment      1: Step Time =    1.000,"P-5-1",           213,       38.9401,       93.9562,            0.,NA,NA,"",   376.247E+03,  -417.880E+03,  -417.880E+03
C:/temp/Job-5.odb,Step-1,Increment      1: Step Time =    1.000,"P-5-1",           214,       30.8206,       94.2406,            0.,NA,NA,"",   160.168E+03,  -178.906E+03,  -178.906E+03
C:/temp/Job-5.odb,Step-1,Increment      1: Step Time =    1.000,"P-5-1",           215,       20.5712,       96.1212,            0.,NA,NA,"",   126.176E+03,  -113.372E+03,  -113.372E+03
C:/temp/Job-5.odb,Step-1,Increment      1: Step Time =    1.000,"P-5-1",           216,       10.3086,       95.2517,            0.,NA,NA,"",   123.108E+03,  -40.4672E+03,  -40.4672E+03
C:/temp/Job-5.odb,Step-1,Increment      1: Step Time =    1.000,"P-5-1",           217,       41.4823,       104.909,            0.,NA,NA,"",   489.631E+03,  -533.605E+03,  -533.605E+03
C:/temp/Job-5.odb,Step-1,Increment      1: Step Time =    1.000,"P-5-1",           218,       32.8057,       105.821,            0.,NA,NA,"",   188.542E+03,  -212.479E+03,  -212.479E+03
C:/temp/Job-5.odb,Step-1,Increment      1: Step Time =    1.000,"P-5-1",           219,       19.7718,       105.838,            0.,NA,NA,"",   120.519E+03,  -101.876E+03,  -101.876E+03
C:/temp/Job-5.odb,Step-1,Increment      1: Step Time =    1.000,"P-5-1",           220,       10.1366,       105.407,            0.,NA,NA,"",   123.200E+03,      -436.518,      -436.518
C:/temp/Job-5.odb,Step-1,Increment      1: Step Time =    1.000,"P-5-1",           221,       51.3642,       124.704,            0.,NA,NA,"",   618.238E+03,  -613.122E+03,  -613.122E+03
C:/temp/Job-5.odb,Step-1,Increment      1: Step Time =    1.000,"P-5-1",           222,       40.2096,       123.245,            0.,NA,NA,"",   335.821E+03,  -292.128E+03,  -292.128E+03
C:/temp/Job-5.odb,Step-1,Increment      1: Step Time =    1.000,"P-5-1",           223,       30.1165,       126.058,            0.,NA,NA,"",   291.217E+03,   156.566E+03,   156.566E+03
C:/temp/Job-5.odb,Step-1,Increment      1: Step Time =    1.000,"P-5-1",           224,       19.0805,       125.213,            0.,NA,NA,"",   235.045E+03,   240.674E+03,   240.674E+03
C:/temp/Job-5.odb,Step-1,Increment      1: Step Time =    1.000,"P-5-1",           225,       9.55358,       124.779,            0.,NA,NA,"",   244.059E+03,   262.432E+03,   262.432E+03
C:/temp/Job-5.odb,Step-1,Increment      1: Step Time =    1.000,"P-5-1",           226,       9.94744,       115.348,            0.,NA,NA,"",   136.044E+03,   127.766E+03,   127.766E+03
C:/temp/Job-5.odb,Step-1,Increment      1: Step Time =    1.000,"P-5-1",           227,       21.2147,       116.569,            0.,NA,NA,"",   111.977E+03,   60.9102E+03,   60.9102E+03
C:/temp/Job-5.odb,Step-1,Increment      1: Step Time =    1.000,"P-5-1",           228,       32.7223,       114.844,            0.,NA,NA,"",   167.472E+03,  -182.861E+03,  -182.861E+03
C:/temp/Job-5.odb,Step-1,Increment      1: Step Time =    1.000,"P-5-1",           229,       42.2492,       115.861,            0.,NA,NA,"",   423.181E+03,  -450.302E+03,  -450.302E+03
C:/temp/Job-5.odb,Step-1,Increment      1: Step Time =    1.000,"P-5-1",           230,       52.1829,       137.648,            0.,NA,NA,"",   789.210E+03,   427.589E+03,   427.589E+03
C:/temp/Job-5.odb,Step-1,Increment      1: Step Time =    1.000,"P-5-1",           231,       39.7829,       134.427,            0.,NA,NA,"",   634.660E+03,   478.138E+03,   478.138E+03
C:/temp/Job-5.odb,Step-1,Increment      1: Step Time =    1.000,"P-5-1",           232,       29.9357,       137.134,            0.,NA,NA,"",   625.936E+03,   574.868E+03,   574.868E+03
C:/temp/Job-5.odb,Step-1,Increment      1: Step Time =    1.000,"P-5-1",           233,       20.7998,       135.420,            0.,NA,NA,"",   496.170E+03,   503.462E+03,   503.462E+03
C:/temp/Job-5.odb,Step-1,Increment      1: Step Time =    1.000,"P-5-1",           234,       10.1632,       133.964,            0.,NA,NA,"",   425.536E+03,   463.003E+03,   463.003E+03
C:/temp/Job-5.odb,Step-1,Increment      1: Step Time =    1.000,"P-5-1",           235,       190.024,       10.2785,            0.,NA,NA,"",   1.00417E+06,   1.00448E+06,   1.00448E+06
C:/temp/Job-5.odb,Step-1,Increment      1: Step Time =    1.000,"P-5-1",           236,       179.394,       11.5287,            0.,NA,NA,"",   1.03035E+06,   1.02896E+06,   1.02896E+06
C:/temp/Job-5.odb,Step-1,Increment      1: Step Time =    1.000,"P-5-1",           237,       168.964,       9.72925,            0.,NA,NA,"",   1.03654E+06,   1.02853E+06,   1.02853E+06
C:/temp/Job-5.odb,Step-1,Increment      1: Step Time =    1.000,"P-5-1",           238,       159.324,       9.29261,            0.,NA,NA,"",   1.02950E+06,   1.01656E+06,   1.01656E+06
C:/temp/Job-5.odb,Step-1,Increment      1: Step Time =    1.000,"P-5-1",           239,       149.739,       9.50186,            0.,NA,NA,"",   1.00763E+06,   991.941E+03,   991.941E+03
C:/temp/Job-5.odb,Step-1,Increment      1: Step Time =    1.000,"P-5-1",           240,       135.232,       9.96313,            0.,NA,NA,"",   934.014E+03,   927.126E+03,   927.126E+03
C:/temp/Job-5.odb,Step-1,Increment      1: Step Time =    1.000,"P-5-1",           241,       125.344,       10.1143,            0.,NA,NA,"",   862.643E+03,   876.047E+03,   876.047E+03
C:/temp/Job-5.odb,Step-1,Increment      1: Step Time =    1.000,"P-5-1",           242,       115.271,       10.4023,            0.,NA,NA,"",   837.125E+03,   868.073E+03,   868.073E+03
C:/temp/Job-5.odb,Step-1,Increment      1: Step Time =    1.000,"P-5-1",           243,       105.019,       10.4552,            0.,NA,NA,"",   910.213E+03,   940.327E+03,   940.327E+03
C:/temp/Job-5.odb,Step-1,Increment      1: Step Time =    1.000,"P-5-1",           244,       94.7901,       10.1794,            0.,NA,NA,"",   1.08993E+06,   1.09469E+06,   1.09469E+06
C:/temp/Job-5.odb,Step-1,Increment      1: Step Time =    1.000,"P-5-1",           245,       84.9305,       9.67264,            0.,NA,NA,"",   1.30143E+06,   1.27992E+06,   1.27992E+06
C:/temp/Job-5.odb,Step-1,Increment      1: Step Time =    1.000,"P-5-1",           246,       75.5160,       9.25527,            0.,NA,NA,"",   1.51129E+06,   1.47858E+06,   1.47858E+06
C:/temp/Job-5.odb,Step-1,Increment      1: Step Time =    1.000,"P-5-1",           247,       66.4336,       10.1243,            0.,NA,NA,"",   1.72066E+06,   1.68162E+06,   1.68162E+06
C:/temp/Job-5.odb,Step-1,Increment      1: Step Time =    1.000,"P-5-1",           248,       51.6357,       11.7975,            0.,NA,NA,"",   1.93656E+06,   1.89473E+06,   1.89473E+06
C:/temp/Job-5.odb,Step-1,Increment      1: Step Time =    1.000,"P-5-1",           249,       43.7291,       9.38924,            0.,NA,NA,"",   2.01526E+06,   1.99412E+06,   1.99412E+06
C:/temp/Job-5.odb,Step-1,Increment      1: Step Time =    1.000,"P-5-1",           250,       30.1580,       8.66649,            0.,NA,NA,"",   2.13573E+06,   2.12810E+06,   2.12810E+06
C:/temp/Job-5.odb,Step-1,Increment      1: Step Time =    1.000,"P-5-1",           251,       21.1893,       8.73248,            0.,NA,NA,"",   2.19555E+06,   2.20107E+06,   2.20107E+06
C:/temp/Job-5.odb,Step-1,Increment      1: Step Time =    1.000,"P-5-1",           252,       11.9154,       11.6167,            0.,NA,NA,"",   2.15471E+06,   2.21539E+06,   2.21539E+06
C:/temp/Job-5.odb,Step-1,Increment      1: Step Time =    1.000,"P-5-1",           253,       190.224,       20.5178,            0.,NA,NA,"",   1.01907E+06,   1.02639E+06,   1.02639E+06
C:/temp/Job-5.odb,Step-1,Increment      1: Step Time =    1.000,"P-5-1",           254,       178.744,       22.2561,            0.,NA,NA,"",   1.10870E+06,   1.10514E+06,   1.10514E+06
C:/temp/Job-5.odb,Step-1,Increment      1: Step Time =    1.000,"P-5-1",           255,       166.748,       22.5621,            0.,NA,NA,"",   1.25319E+06,   1.21648E+06,   1.21648E+06
C:/temp/Job-5.odb,Step-1,Increment      1: Step Time =    1.000,"P-5-1",           256,       159.246,       22.8556,            0.,NA,NA,"",   1.33538E+06,   1.28430E+06,   1.28430E+06
C:/temp/Job-5.odb,Step-1,Increment      1: Step Time =    1.000,"P-5-1",           257,       145.431,       19.8220,            0.,NA,NA,"",   1.33775E+06,   1.30194E+06,   1.30194E+06
C:/temp/Job-5.odb,Step-1,Increment      1: Step Time =    1.000,"P-5-1",           258,       135.538,       20.6316,            0.,NA,NA,"",   1.37399E+06,   1.37015E+06,   1.37015E+06
C:/temp/Job-5.odb,Step-1,Increment      1: Step Time =    1.000,"P-5-1",           259,       125.793,       20.0481,            0.,NA,NA,"",   1.34088E+06,   1.38838E+06,   1.38838E+06
C:/temp/Job-5.odb,Step-1,Increment      1: Step Time =    1.000,"P-5-1",           260,       115.726,       21.0108,            0.,NA,NA,"",   1.37859E+06,   1.46583E+06,   1.46583E+06
C:/temp/Job-5.odb,Step-1,Increment      1: Step Time =    1.000,"P-5-1",           261,       104.671,       21.1392,            0.,NA,NA,"",   1.47299E+06,   1.56744E+06,   1.56744E+06
C:/temp/Job-5.odb,Step-1,Increment      1: Step Time =    1.000,"P-5-1",           262,       94.0075,       20.4656,            0.,NA,NA,"",   1.62426E+06,   1.66412E+06,   1.66412E+06
C:/temp/Job-5.odb,Step-1,Increment      1: Step Time =    1.000,"P-5-1",           263,       83.7022,       19.8255,            0.,NA,NA,"",   1.76826E+06,   1.73736E+06,   1.73736E+06
C:/temp/Job-5.odb,Step-1,Increment      1: Step Time =    1.000,"P-5-1",           264,       75.7725,       17.8585,            0.,NA,NA,"",   1.81249E+06,   1.74573E+06,   1.74573E+06
C:/temp/Job-5.odb,Step-1,Increment      1: Step Time =    1.000,"P-5-1",           265,       64.8115,       21.1264,            0.,NA,NA,"",   1.96246E+06,   1.86013E+06,   1.86013E+06
C:/temp/Job-5.odb,Step-1,Increment      1: Step Time =    1.000,"P-5-1",           266,       51.6898,       21.2643,            0.,NA,NA,"",   1.95088E+06,   1.85837E+06,   1.85837E+06
C:/temp/Job-5.odb,Step-1,Increment      1: Step Time =    1.000,"P-5-1",           267,       42.7338,       22.6765,            0.,NA,NA,"",   1.92000E+06,   1.84133E+06,   1.84133E+06
C:/temp/Job-5.odb,Step-1,Increment      1: Step Time =    1.000,"P-5-1",           268,       30.0221,       21.5446,            0.,NA,NA,"",   1.87577E+06,   1.84965E+06,   1.84965E+06
C:/temp/Job-5.odb,Step-1,Increment      1: Step Time =    1.000,"P-5-1",           269,       25.7685,       17.2022,            0.,NA,NA,"",   1.97200E+06,   1.96964E+06,   1.96964E+06
C:/temp/Job-5.odb,Step-1,Increment      1: Step Time =    1.000,"P-5-1",           270,       10.1223,       21.8764,            0.,NA,NA,"",   1.69745E+06,   1.81075E+06,   1.81075E+06
C:/temp/Job-5.odb,Step-1,Increment      1: Step Time =    1.000,"P-5-1",           271,       191.626,       34.6965,            0.,NA,NA,"",   1.00458E+06,   1.04823E+06,   1.04823E+06
C:/temp/Job-5.odb,Step-1,Increment      1: Step Time =    1.000,"P-5-1",           272,       181.637,       32.4259,            0.,NA,NA,"",   1.15182E+06,   1.15693E+06,   1.15693E+06
C:/temp/Job-5.odb,Step-1,Increment      1: Step Time =    1.000,"P-5-1",           273,       170.180,       34.1414,            0.,NA,NA,"",   1.39918E+06,   1.33791E+06,   1.33791E+06
C:/temp/Job-5.odb,Step-1,Increment      1: Step Time =    1.000,"P-5-1",           274,       158.343,       33.6448,            0.,NA,NA,"",   1.59086E+06,   1.49408E+06,   1.49408E+06
C:/temp/Job-5.odb,Step-1,Increment      1: Step Time =    1.000,"P-5-1",           275,       147.225,       29.9271,            0.,NA,NA,"",   1.64038E+06,   1.57272E+06,   1.57272E+06
C:/temp/Job-5.odb,Step-1,Increment      1: Step Time =    1.000,"P-5-1",           276,       138.361,       32.4795,            0.,NA,NA,"",   1.80482E+06,   1.78430E+06,   1.78430E+06
C:/temp/Job-5.odb,Step-1,Increment      1: Step Time =    1.000,"P-5-1",           277,       127.768,       28.3353,            0.,NA,NA,"",   1.68553E+06,   1.74758E+06,   1.74758E+06
C:/temp/Job-5.odb,Step-1,Increment      1: Step Time =    1.000,"P-5-1",           278,       114.642,       30.7072,            0.,NA,NA,"",   1.89406E+06,   2.03928E+06,   2.03928E+06
C:/temp/Job-5.odb,Step-1,Increment      1: Step Time =    1.000,"P-5-1",           279,       106.242,       32.4439,            0.,NA,NA,"",   2.15320E+06,   2.32192E+06,   2.32192E+06
C:/temp/Job-5.odb,Step-1,Increment      1: Step Time =    1.000,"P-5-1",           280,       93.5772,       30.3566,            0.,NA,NA,"",   2.09730E+06,   2.18975E+06,   2.18975E+06
C:/temp/Job-5.odb,Step-1,Increment      1: Step Time =    1.000,"P-5-1",           281,       83.6966,       31.6908,            0.,NA,NA,"",   2.18247E+06,   2.18631E+06,   2.18631E+06
C:/temp/Job-5.odb,Step-1,Increment      1: Step Time =    1.000,"P-5-1",           282,       63.2547,       31.7293,            0.,NA,NA,"",   2.05383E+06,   1.90183E+06,   1.90183E+06
C:/temp/Job-5.odb,Step-1,Increment      1: Step Time =    1.000,"P-5-1",           283,       54.5784,       32.8145,            0.,NA,NA,"",   1.93868E+06,   1.78009E+06,   1.78009E+06
C:/temp/Job-5.odb,Step-1,Increment      1: Step Time =    1.000,"P-5-1",           284,       41.9008,       32.4022,            0.,NA,NA,"",   1.77008E+06,   1.66038E+06,   1.66038E+06
C:/temp/Job-5.odb,Step-1,Increment      1: Step Time =    1.000,"P-5-1",           285,       29.5001,       31.6635,            0.,NA,NA,"",   1.64343E+06,   1.60771E+06,   1.60771E+06
C:/temp/Job-5.odb,Step-1,Increment      1: Step Time =    1.000,"P-5-1",           286,       23.2816,       29.2899,            0.,NA,NA,"",   1.63275E+06,   1.64045E+06,   1.64045E+06
C:/temp/Job-5.odb,Step-1,Increment      1: Step Time =    1.000,"P-5-1",           287,       9.58081,       31.3740,            0.,NA,NA,"",   1.37745E+06,   1.48683E+06,   1.48683E+06
C:/temp/Job-5.odb,Step-1,Increment      1: Step Time =    1.000,"P-5-1",           288,       188.998,       169.284,            0.,NA,NA,"",   1.03851E+06,   1.06375E+06,   1.06375E+06
C:/temp/Job-5.odb,Step-1,Increment      1: Step Time =    1.000,"P-5-1",           289,       179.879,       171.821,            0.,NA,NA,"",   1.14614E+06,   1.14395E+06,   1.14395E+06
C:/temp/Job-5.odb,Step-1,Increment      1: Step Time =    1.000,"P-5-1",           290,       171.647,       171.417,            0.,NA,NA,"",   1.29584E+06,   1.25654E+06,   1.25654E+06
C:/temp/Job-5.odb,Step-1,Increment      1: Step Time =    1.000,"P-5-1",           291,       160.436,       170.877,            0.,NA,NA,"",   1.46538E+06,   1.39265E+06,   1.39265E+06
C:/temp/Job-5.odb,Step-1,Increment      1: Step Time =    1.000,"P-5-1",           292,       145.499,       169.174,            0.,NA,NA,"",   1.68334E+06,   1.61894E+06,   1.61894E+06
C:/temp/Job-5.odb,Step-1,Increment      1: Step Time =    1.000,"P-5-1",           293,       135.388,       170.494,            0.,NA,NA,"",   1.71462E+06,   1.72198E+06,   1.72198E+06
C:/temp/Job-5.odb,Step-1,Increment      1: Step Time =    1.000,"P-5-1",           294,       126.689,       171.186,            0.,NA,NA,"",   1.72856E+06,   1.80522E+06,   1.80522E+06
C:/temp/Job-5.odb,Step-1,Increment      1: Step Time =    1.000,"P-5-1",           295,       114.717,       168.856,            0.,NA,NA,"",   1.94320E+06,   2.09385E+06,   2.09385E+06
C:/temp/Job-5.odb,Step-1,Increment      1: Step Time =    1.000,"P-5-1",           296,       105.254,       165.799,            0.,NA,NA,"",   2.28180E+06,   2.45245E+06,   2.45245E+06
C:/temp/Job-5.odb,Step-1,Increment      1: Step Time =    1.000,"P-5-1",           297,       96.2544,       166.533,            0.,NA,NA,"",   2.26984E+06,   2.39618E+06,   2.39618E+06
C:/temp/Job-5.odb,Step-1,Increment      1: Step Time =    1.000,"P-5-1",           298,       84.9165,       168.576,            0.,NA,NA,"",   2.17993E+06,   2.20151E+06,   2.20151E+06
C:/temp/Job-5.odb,Step-1,Increment      1: Step Time =    1.000,"P-5-1",           299,       72.4723,       168.265,            0.,NA,NA,"",   2.13943E+06,   2.03858E+06,   2.03858E+06
C:/temp/Job-5.odb,Step-1,Increment      1: Step Time =    1.000,"P-5-1",           300,       61.9998,       169.279,            0.,NA,NA,"",   2.04095E+06,   1.89060E+06,   1.89060E+06
C:/temp/Job-5.odb,Step-1,Increment      1: Step Time =    1.000,"P-5-1",           301,       52.0724,       167.675,            0.,NA,NA,"",   1.91655E+06,   1.76646E+06,   1.76646E+06
C:/temp/Job-5.odb,Step-1,Increment      1: Step Time =    1.000,"P-5-1",           302,       41.3857,       170.261,            0.,NA,NA,"",   1.81609E+06,   1.72026E+06,   1.72026E+06
C:/temp/Job-5.odb,Step-1,Increment      1: Step Time =    1.000,"P-5-1",           303,       30.0128,       165.951,            0.,NA,NA,"",   1.57504E+06,   1.53395E+06,   1.53395E+06
C:/temp/Job-5.odb,Step-1,Increment      1: Step Time =    1.000,"P-5-1",           304,       17.6081,       165.218,            0.,NA,NA,"",   1.38679E+06,   1.43571E+06,   1.43571E+06
C:/temp/Job-5.odb,Step-1,Increment      1: Step Time =    1.000,"P-5-1",           305,       9.23168,       165.757,            0.,NA,NA,"",    1.2889E+06,   1.39499E+06,   1.39499E+06
C:/temp/Job-5.odb,Step-1,Increment      1: Step Time =    1.000,"P-5-1",           306,       188.444,       179.822,            0.,NA,NA,"",   1.02871E+06,   1.03512E+06,   1.03512E+06
C:/temp/Job-5.odb,Step-1,Increment      1: Step Time =    1.000,"P-5-1",           307,       178.368,       179.029,            0.,NA,NA,"",   1.10694E+06,   1.10248E+06,   1.10248E+06
C:/temp/Job-5.odb,Step-1,Increment      1: Step Time =    1.000,"P-5-1",           308,       168.736,       179.787,            0.,NA,NA,"",   1.19275E+06,   1.16681E+06,   1.16681E+06
C:/temp/Job-5.odb,Step-1,Increment      1: Step Time =    1.000,"P-5-1",           309,       159.489,       175.529,            0.,NA,NA,"",   1.37191E+06,   1.31635E+06,   1.31635E+06
C:/temp/Job-5.odb,Step-1,Increment      1: Step Time =    1.000,"P-5-1",           310,       147.136,       177.377,            0.,NA,NA,"",   1.42787E+06,   1.38118E+06,   1.38118E+06
C:/temp/Job-5.odb,Step-1,Increment      1: Step Time =    1.000,"P-5-1",           311,       136.532,       179.949,            0.,NA,NA,"",   1.34944E+06,   1.34110E+06,   1.34110E+06
C:/temp/Job-5.odb,Step-1,Increment      1: Step Time =    1.000,"P-5-1",           312,       125.249,       180.658,            0.,NA,NA,"",   1.30093E+06,   1.34830E+06,   1.34830E+06
C:/temp/Job-5.odb,Step-1,Increment      1: Step Time =    1.000,"P-5-1",           313,       116.200,       180.161,            0.,NA,NA,"",   1.31286E+06,   1.39479E+06,   1.39479E+06
C:/temp/Job-5.odb,Step-1,Increment      1: Step Time =    1.000,"P-5-1",           314,       106.287,       179.786,            0.,NA,NA,"",   1.41646E+06,   1.50272E+06,   1.50272E+06
C:/temp/Job-5.odb,Step-1,Increment      1: Step Time =    1.000,"P-5-1",           315,       94.3899,       177.990,            0.,NA,NA,"",   1.68674E+06,   1.73585E+06,   1.73585E+06
C:/temp/Job-5.odb,Step-1,Increment      1: Step Time =    1.000,"P-5-1",           316,       84.0200,       179.914,            0.,NA,NA,"",   1.76456E+06,   1.73893E+06,   1.73893E+06
C:/temp/Job-5.odb,Step-1,Increment      1: Step Time =    1.000,"P-5-1",           317,       75.7536,       178.692,            0.,NA,NA,"",   1.91229E+06,   1.84300E+06,   1.84300E+06
C:/temp/Job-5.odb,Step-1,Increment      1: Step Time =    1.000,"P-5-1",           318,       64.0978,       179.997,            0.,NA,NA,"",   1.94475E+06,   1.84668E+06,   1.84668E+06
C:/temp/Job-5.odb,Step-1,Increment      1: Step Time =    1.000,"P-5-1",           319,       54.6411,       181.192,            0.,NA,NA,"",   1.94313E+06,   1.85740E+06,   1.85740E+06
C:/temp/Job-5.odb,Step-1,Increment      1: Step Time =    1.000,"P-5-1",           320,       40.9588,       177.096,            0.,NA,NA,"",   1.89811E+06,   1.82595E+06,   1.82595E+06
C:/temp/Job-5.odb,Step-1,Increment      1: Step Time =    1.000,"P-5-1",           321,       31.2942,       180.519,            0.,NA,NA,"",   1.92474E+06,   1.89808E+06,   1.89808E+06
C:/temp/Job-5.odb,Step-1,Increment      1: Step Time =    1.000,"P-5-1",           322,       21.0609,       179.416,            0.,NA,NA,"",   1.87216E+06,   1.89392E+06,   1.89392E+06
C:/temp/Job-5.odb,Step-1,Increment      1: Step Time =    1.000,"P-5-1",           323,       9.96631,       175.037,            0.,NA,NA,"",   1.58705E+06,   1.70099E+06,   1.70099E+06
C:/temp/Job-5.odb,Step-1,Increment      1: Step Time =    1.000,"P-5-1",           324,       189.767,       190.126,            0.,NA,NA,"",   1.00329E+06,   1.00370E+06,   1.00370E+06
C:/temp/Job-5.odb,Step-1,Increment      1: Step Time =    1.000,"P-5-1",           325,       179.640,       190.411,            0.,NA,NA,"",   1.01492E+06,   1.01435E+06,   1.01435E+06
C:/temp/Job-5.odb,Step-1,Increment      1: Step Time =    1.000,"P-5-1",           326,       165.670,       190.720,            0.,NA,NA,"",   1.02839E+06,   1.01993E+06,   1.01993E+06
C:/temp/Job-5.odb,Step-1,Increment      1: Step Time =    1.000,"P-5-1",           327,       157.143,       190.098,            0.,NA,NA,"",   1.02869E+06,   1.01443E+06,   1.01443E+06
C:/temp/Job-5.odb,Step-1,Increment      1: Step Time =    1.000,"P-5-1",           328,       149.546,       186.945,            0.,NA,NA,"",   1.11602E+06,   1.09089E+06,   1.09089E+06
C:/temp/Job-5.odb,Step-1,Increment      1: Step Time =    1.000,"P-5-1",           329,       134.242,       189.730,            0.,NA,NA,"",   936.883E+03,   932.693E+03,   932.693E+03
C:/temp/Job-5.odb,Step-1,Increment      1: Step Time =    1.000,"P-5-1",           330,       125.050,       190.225,            0.,NA,NA,"",   840.556E+03,   854.153E+03,   854.153E+03
C:/temp/Job-5.odb,Step-1,Increment      1: Step Time =    1.000,"P-5-1",           331,       115.377,       190.071,            0.,NA,NA,"",    812.37E+03,   841.648E+03,   841.648E+03
C:/temp/Job-5.odb,Step-1,Increment      1: Step Time =    1.000,"P-5-1",           332,       105.331,       189.691,            0.,NA,NA,"",   903.913E+03,   933.087E+03,   933.087E+03
C:/temp/Job-5.odb,Step-1,Increment      1: Step Time =    1.000,"P-5-1",           333,       94.9825,       189.544,            0.,NA,NA,"",   1.10035E+06,   1.10536E+06,   1.10536E+06
C:/temp/Job-5.odb,Step-1,Increment      1: Step Time =    1.000,"P-5-1",           334,       84.7731,       189.974,            0.,NA,NA,"",   1.32211E+06,   1.30195E+06,   1.30195E+06
C:/temp/Job-5.odb,Step-1,Increment      1: Step Time =    1.000,"P-5-1",           335,       74.7857,       189.992,            0.,NA,NA,"",   1.54989E+06,   1.51323E+06,   1.51323E+06
C:/temp/Job-5.odb,Step-1,Increment      1: Step Time =    1.000,"P-5-1",           336,       64.8596,       190.163,            0.,NA,NA,"",   1.73969E+06,   1.70123E+06,   1.70123E+06
C:/temp/Job-5.odb,Step-1,Increment      1: Step Time =    1.000,"P-5-1",           337,       50.1094,       186.013,            0.,NA,NA,"",   1.94233E+06,   1.89237E+06,   1.89237E+06
C:/temp/Job-5.odb,Step-1,Increment      1: Step Time =    1.000,"P-5-1",           338,       40.3209,       190.548,            0.,NA,NA,"",   2.04419E+06,   2.02592E+06,   2.02592E+06
C:/temp/Job-5.odb,Step-1,Increment      1: Step Time =    1.000,"P-5-1",           339,       30.4698,       190.154,            0.,NA,NA,"",   2.10676E+06,   2.09812E+06,   2.09812E+06
C:/temp/Job-5.odb,Step-1,Increment      1: Step Time =    1.000,"P-5-1",           340,       20.4793,       189.807,            0.,NA,NA,"",   2.15880E+06,   2.16905E+06,   2.16905E+06
C:/temp/Job-5.odb,Step-1,Increment      1: Step Time =    1.000,"P-5-1",           341,       10.2591,       189.802,            0.,NA,NA,"",   2.21433E+06,   2.28321E+06,   2.28321E+06
C:/temp/Job-5.odb,Step-1,Increment      1: Step Time =    1.000,"P-5-1",           342,       95.0216,       149.752,            0.,NA,NA,"",   4.00187E+06,   4.05705E+06,   4.05705E+06
C:/temp/Job-5.odb,Step-1,Increment      1: Step Time =    1.000,"P-5-1",           343,       90.0927,       149.009,            0.,NA,NA,"",   3.48936E+06,   3.54142E+06,   3.54142E+06
C:/temp/Job-5.odb,Step-1,Increment      1: Step Time =    1.000,"P-5-1",           344,       80.5783,       146.074,            0.,NA,NA,"",   2.32830E+06,   2.37918E+06,   2.37918E+06
C:/temp/Job-5.odb,Step-1,Increment      1: Step Time =    1.000,"P-5-1",           345,       76.0873,       143.911,            0.,NA,NA,"",   1.71684E+06,   1.73707E+06,   1.73707E+06
C:/temp/Job-5.odb,Step-1,Increment      1: Step Time =    1.000,"P-5-1",           346,       67.8606,       138.302,            0.,NA,NA,"",   644.417E+03,   616.147E+03,   616.147E+03
C:/temp/Job-5.odb,Step-1,Increment      1: Step Time =    1.000,"P-5-1",           347,       64.2067,       134.912,            0.,NA,NA,"",   367.010E+03,   68.3117E+03,   68.3117E+03
C:/temp/Job-5.odb,Step-1,Increment      1: Step Time =    1.000,"P-5-1",           348,       57.9987,       127.127,            0.,NA,NA,"",   585.871E+03,  -579.494E+03,  -579.494E+03
C:/temp/Job-5.odb,Step-1,Increment      1: Step Time =    1.000,"P-5-1",           349,       55.5064,       122.811,            0.,NA,NA,"",   739.067E+03,  -745.177E+03,  -745.177E+03
C:/temp/Job-5.odb,Step-1,Increment      1: Step Time =    1.000,"P-5-1",           350,       51.8688,       113.542,            0.,NA,NA,"",   866.657E+03,  -882.041E+03,  -882.041E+03
C:/temp/Job-5.odb,Step-1,Increment      1: Step Time =    1.000,"P-5-1",           351,       50.7596,       108.682,            0.,NA,NA,"",   871.087E+03,  -887.834E+03,  -887.834E+03
C:/temp/Job-5.odb,Step-1,Increment      1: Step Time =    1.000,"P-5-1",           352,       50.0155,       98.7535,            0.,NA,NA,"",   852.795E+03,  -871.939E+03,  -871.939E+03
C:/temp/Job-5.odb,Step-1,Increment      1: Step Time =    1.000,"P-5-1",           353,       50.3880,       93.7828,            0.,NA,NA,"",   846.684E+03,  -865.408E+03,  -865.408E+03
C:/temp/Job-5.odb,Step-1,Increment      1: Step Time =    1.000,"P-5-1",           354,       52.6036,       84.0757,            0.,NA,NA,"",   798.930E+03,  -820.188E+03,  -820.188E+03
C:/temp/Job-5.odb,Step-1,Increment      1: Step Time =    1.000,"P-5-1",           355,       54.4247,       79.4356,            0.,NA,NA,"",   751.642E+03,  -761.846E+03,  -761.846E+03
C:/temp/Job-5.odb,Step-1,Increment      1: Step Time =    1.000,"P-5-1",           356,       59.4031,       70.8128,            0.,NA,NA,"",   475.995E+03,  -451.326E+03,  -451.326E+03
C:/temp/Job-5.odb,Step-1,Increment      1: Step Time =    1.000,"P-5-1",           357,       62.5109,       66.9157,            0.,NA,NA,"",   350.541E+03,  -55.0644E+03,  -55.0644E+03
C:/temp/Job-5.odb,Step-1,Increment      1: Step Time =    1.000,"P-5-1",           358,       69.8098,       60.1434,            0.,NA,NA,"",   917.264E+03,   909.783E+03,   909.783E+03
C:/temp/Job-5.odb,Step-1,Increment      1: Step Time =    1.000,"P-5-1",           359,       73.9282,       57.3355,            0.,NA,NA,"",   1.48141E+06,   1.49398E+06,   1.49398E+06
C:/temp/Job-5.odb,Step-1,Increment      1: Step Time =    1.000,"P-5-1",           360,       82.8990,       53.0154,            0.,NA,NA,"",   2.66631E+06,   2.70702E+06,   2.70702E+06
C:/temp/Job-5.odb,Step-1,Increment      1: Step Time =    1.000,"P-5-1",           361,       87.6621,       51.5461,            0.,NA,NA,"",   3.22698E+06,   3.27892E+06,   3.27892E+06
C:/temp/Job-5.odb,Step-1,Increment      1: Step Time =    1.000,"P-5-1",           362,       97.5077,       50.0622,            0.,NA,NA,"",   4.02140E+06,   4.10583E+06,   4.10583E+06
C:/temp/Job-5.odb,Step-1,Increment      1: Step Time =    1.000,"P-5-1",           363,       102.492,       50.0622,            0.,NA,NA,"",   4.20583E+06,   4.31098E+06,   4.31098E+06
C:/temp/Job-5.odb,Step-1,Increment      1: Step Time =    1.000,"P-5-1",           364,       112.338,       51.5461,            0.,NA,NA,"",   4.24799E+06,   4.31757E+06,   4.31757E+06
C:/temp/Job-5.odb,Step-1,Increment      1: Step Time =    1.000,"P-5-1",           365,       117.101,       53.0154,            0.,NA,NA,"",   4.01526E+06,   4.08298E+06,   4.08298E+06
C:/temp/Job-5.odb,Step-1,Increment      1: Step Time =    1.000,"P-5-1",           366,       126.072,       57.3355,            0.,NA,NA,"",   3.16431E+06,   3.21260E+06,   3.21260E+06
C:/temp/Job-5.odb,Step-1,Increment      1: Step Time =    1.000,"P-5-1",           367,       130.190,       60.1434,            0.,NA,NA,"",   2.60469E+06,   2.64007E+06,   2.64007E+06
C:/temp/Job-5.odb,Step-1,Increment      1: Step Time =    1.000,"P-5-1",           368,       137.489,       66.9157,            0.,NA,NA,"",   1.39498E+06,    1.3873E+06,    1.3873E+06
C:/temp/Job-5.odb,Step-1,Increment      1: Step Time =    1.000,"P-5-1",           369,       140.597,       70.8128,            0.,NA,NA,"",   881.853E+03,   794.745E+03,   794.745E+03
C:/temp/Job-5.odb,Step-1,Increment      1: Step Time =    1.000,"P-5-1",           370,       145.575,       79.4356,            0.,NA,NA,"",   847.896E+03,  -760.816E+03,  -760.816E+03
C:/temp/Job-5.odb,Step-1,Increment      1: Step Time =    1.000,"P-5-1",           371,       147.396,       84.0757,            0.,NA,NA,"",   1.25027E+06,  -1.24681E+06,  -1.24681E+06
C:/temp/Job-5.odb,Step-1,Increment      1: Step Time =    1.000,"P-5-1",           372,       149.612,       93.7828,            0.,NA,NA,"",   1.93200E+06,  -1.95331E+06,  -1.95331E+06
C:/temp/Job-5.odb,Step-1,Increment      1: Step Time =    1.000,"P-5-1",           373,       149.984,       98.7535,            0.,NA,NA,"",   2.08392E+06,  -2.10892E+06,  -2.10892E+06
C:/temp/Job-5.odb,Step-1,Increment      1: Step Time =    1.000,"P-5-1",           374,       149.240,       108.682,            0.,NA,NA,"",   1.81930E+06,  -1.83787E+06,  -1.83787E+06
C:/temp/Job-5.odb,Step-1,Increment      1: Step Time =    1.000,"P-5-1",           375,       148.131,       113.542,            0.,NA,NA,"",   1.46656E+06,  -1.47414E+06,  -1.47414E+06
C:/temp/Job-5.odb,Step-1,Increment      1: Step Time =    1.000,"P-5-1",           376,       144.494,       122.811,            0.,NA,NA,"",   623.084E+03,  -519.229E+03,  -519.229E+03
C:/temp/Job-5.odb,Step-1,Increment      1: Step Time =    1.000,"P-5-1",           377,       142.001,       127.127,            0.,NA,NA,"",   606.010E+03,   221.761E+03,   221.761E+03
C:/temp/Job-5.odb,Step-1,Increment      1: Step Time =    1.000,"P-5-1",           378,       135.793,       134.912,            0.,NA,NA,"",   1.65800E+06,   1.66693E+06,   1.66693E+06
C:/temp/Job-5.odb,Step-1,Increment      1: Step Time =    1.000,"P-5-1",           379,       132.139,       138.302,            0.,NA,NA,"",   2.26294E+06,   2.28972E+06,   2.28972E+06
C:/temp/Job-5.odb,Step-1,Increment      1: Step Time =    1.000,"P-5-1",           380,       123.913,       143.911,            0.,NA,NA,"",   3.32900E+06,   3.37988E+06,   3.37988E+06
C:/temp/Job-5.odb,Step-1,Increment      1: Step Time =    1.000,"P-5-1",           381,       119.422,       146.074,            0.,NA,NA,"",   3.72444E+06,   3.79732E+06,   3.79732E+06
C:/temp/Job-5.odb,Step-1,Increment      1: Step Time =    1.000,"P-5-1",           382,       109.907,       149.009,            0.,NA,NA,"",   4.44230E+06,   4.50409E+06,   4.50409E+06
C:/temp/Job-5.odb,Step-1,Increment      1: Step Time =    1.000,"P-5-1",           383,       104.978,       149.752,            0.,NA,NA,"",   4.51272E+06,   4.57306E+06,   4.57306E+06
C:/temp/Job-5.odb,Step-1,Increment      1: Step Time =    1.000,"P-5-1",           384,          195.,            0.,            0.,NA,NA,"",   996.538E+03,   996.010E+03,   996.010E+03
C:/temp/Job-5.odb,Step-1,Increment      1: Step Time =    1.000,"P-5-1",           385,          185.,            0.,            0.,NA,NA,"",   982.368E+03,   982.381E+03,   982.381E+03
C:/temp/Job-5.odb,Step-1,Increment      1: Step Time =    1.000,"P-5-1",           386,          175.,            0.,            0.,NA,NA,"",   966.869E+03,   966.422E+03,   966.422E+03
C:/temp/Job-5.odb,Step-1,Increment      1: Step Time =    1.000,"P-5-1",           387,          165.,            0.,            0.,NA,NA,"",   935.698E+03,   934.409E+03,   934.409E+03
C:/temp/Job-5.odb,Step-1,Increment      1: Step Time =    1.000,"P-5-1",           388,          155.,            0.,            0.,NA,NA,"",   862.250E+03,   860.502E+03,   860.502E+03
C:/temp/Job-5.odb,Step-1,Increment      1: Step Time =    1.000,"P-5-1",           389,          145.,            0.,            0.,NA,NA,"",   738.563E+03,   736.527E+03,   736.527E+03
C:/temp/Job-5.odb,Step-1,Increment      1: Step Time =    1.000,"P-5-1",           390,          135.,            0.,            0.,NA,NA,"",   580.046E+03,   578.573E+03,   578.573E+03
C:/temp/Job-5.odb,Step-1,Increment      1: Step Time =    1.000,"P-5-1",           391,          125.,            0.,            0.,NA,NA,"",   428.479E+03,   429.627E+03,   429.627E+03
C:/temp/Job-5.odb,Step-1,Increment      1: Step Time =    1.000,"P-5-1",           392,          115.,            0.,            0.,NA,NA,"",   350.019E+03,   354.135E+03,   354.135E+03
C:/temp/Job-5.odb,Step-1,Increment      1: Step Time =    1.000,"P-5-1",           393,          105.,            0.,            0.,NA,NA,"",   401.785E+03,   405.462E+03,   405.462E+03
C:/temp/Job-5.odb,Step-1,Increment      1: Step Time =    1.000,"P-5-1",           394,           95.,            0.,            0.,NA,NA,"",   597.387E+03,   597.381E+03,   597.381E+03
C:/temp/Job-5.odb,Step-1,Increment      1: Step Time =    1.000,"P-5-1",           395,           85.,            0.,            0.,NA,NA,"",   903.276E+03,   900.415E+03,   900.415E+03
C:/temp/Job-5.odb,Step-1,Increment      1: Step Time =    1.000,"P-5-1",           396,           75.,            0.,            0.,NA,NA,"",   1.26261E+06,   1.25954E+06,   1.25954E+06
C:/temp/Job-5.odb,Step-1,Increment      1: Step Time =    1.000,"P-5-1",           397,           65.,            0.,            0.,NA,NA,"",   1.61118E+06,   1.60913E+06,   1.60913E+06
C:/temp/Job-5.odb,Step-1,Increment      1: Step Time =    1.000,"P-5-1",           398,           55.,            0.,            0.,NA,NA,"",   1.89703E+06,   1.89129E+06,   1.89129E+06
C:/temp/Job-5.odb,Step-1,Increment      1: Step Time =    1.000,"P-5-1",           399,           45.,            0.,            0.,NA,NA,"",   2.10370E+06,   2.09982E+06,   2.09982E+06
C:/temp/Job-5.odb,Step-1,Increment      1: Step Time =    1.000,"P-5-1",           400,           35.,            0.,            0.,NA,NA,"",   2.22591E+06,   2.22491E+06,   2.22491E+06
C:/temp/Job-5.odb,Step-1,Increment      1: Step Time =    1.000,"P-5-1",           401,           25.,            0.,            0.,NA,NA,"",   2.28787E+06,   2.28903E+06,   2.28903E+06
C:/temp/Job-5.odb,Step-1,Increment      1: Step Time =    1.000,"P-5-1",           402,           15.,            0.,            0.,NA,NA,"",   2.35629E+06,   2.36320E+06,   2.36320E+06
C:/temp/Job-5.odb,Step-1,Increment      1: Step Time =    1.000,"P-5-1",           403,            5.,            0.,            0.,NA,NA,"",   2.68335E+06,   2.74446E+06,   2.74446E+06
C:/temp/Job-5.odb,Step-1,Increment      1: Step Time =    1.000,"P-5-1",           404,          200.,          195.,            0.,NA,NA,"",   1.00092E+06,   998.899E+03,   998.899E+03
C:/temp/Job-5.odb,Step-1,Increment      1: Step Time =    1.000,"P-5-1",           405,          200.,          185.,            0.,NA,NA,"",   1.00922E+06,   1.00226E+06,   1.00226E+06
C:/temp/Job-5.odb,Step-1,Increment      1: Step Time =    1.000,"P-5-1",           406,          200.,          175.,            0.,NA,NA,"",   1.00450E+06,   1.00673E+06,   1.00673E+06
C:/temp/Job-5.odb,Step-1,Increment      1: Step Time =    1.000,"P-5-1",           407,          200.,          165.,            0.,NA,NA,"",   965.270E+03,   1.00867E+06,   1.00867E+06
C:/temp/Job-5.odb,Step-1,Increment      1: Step Time =    1.000,"P-5-1",           408,          200.,          155.,            0.,NA,NA,"",   908.614E+03,   1.01275E+06,   1.01275E+06
C:/temp/Job-5.odb,Step-1,Increment      1: Step Time =    1.000,"P-5-1",           409,          200.,          145.,            0.,NA,NA,"",   892.689E+03,   1.02309E+06,   1.02309E+06
C:/temp/Job-5.odb,Step-1,Increment      1: Step Time =    1.000,"P-5-1",           410,          200.,          135.,            0.,NA,NA,"",   1.02324E+06,   1.11904E+06,   1.11904E+06
C:/temp/Job-5.odb,Step-1,Increment      1: Step Time =    1.000,"P-5-1",           411,          200.,          125.,            0.,NA,NA,"",   1.28817E+06,   1.45916E+06,   1.45916E+06
C:/temp/Job-5.odb,Step-1,Increment      1: Step Time =    1.000,"P-5-1",           412,          200.,          115.,            0.,NA,NA,"",   1.57098E+06,   1.81124E+06,   1.81124E+06
C:/temp/Job-5.odb,Step-1,Increment      1: Step Time =    1.000,"P-5-1",           413,          200.,          105.,            0.,NA,NA,"",   1.74779E+06,   2.01791E+06,   2.01791E+06
C:/temp/Job-5.odb,Step-1,Increment      1: Step Time =    1.000,"P-5-1",           414,          200.,           95.,            0.,NA,NA,"",   1.74889E+06,   2.01922E+06,   2.01922E+06
C:/temp/Job-5.odb,Step-1,Increment      1: Step Time =    1.000,"P-5-1",           415,          200.,           85.,            0.,NA,NA,"",   1.57510E+06,   1.81609E+06,   1.81609E+06
C:/temp/Job-5.odb,Step-1,Increment      1: Step Time =    1.000,"P-5-1",           416,          200.,           75.,            0.,NA,NA,"",   1.29375E+06,   1.46693E+06,   1.46693E+06
C:/temp/Job-5.odb,Step-1,Increment      1: Step Time =    1.000,"P-5-1",           417,          200.,           65.,            0.,NA,NA,"",   1.02222E+06,   1.12920E+06,   1.12920E+06
C:/temp/Job-5.odb,Step-1,Increment      1: Step Time =    1.000,"P-5-1",           418,          200.,           55.,            0.,NA,NA,"",   912.813E+03,   1.05042E+06,   1.05042E+06
C:/temp/Job-5.odb,Step-1,Increment      1: Step Time =    1.000,"P-5-1",           419,          200.,           45.,            0.,NA,NA,"",   914.969E+03,   1.01618E+06,   1.01618E+06
C:/temp/Job-5.odb,Step-1,Increment      1: Step Time =    1.000,"P-5-1",           420,          200.,           35.,            0.,NA,NA,"",   968.311E+03,   1.00569E+06,   1.00569E+06
C:/temp/Job-5.odb,Step-1,Increment      1: Step Time =    1.000,"P-5-1",           421,          200.,           25.,            0.,NA,NA,"",   1.00328E+06,   1.00340E+06,   1.00340E+06
C:/temp/Job-5.odb,Step-1,Increment      1: Step Time =    1.000,"P-5-1",           422,          200.,           15.,            0.,NA,NA,"",   1.00926E+06,   1.00184E+06,   1.00184E+06
C:/temp/Job-5.odb,Step-1,Increment      1: Step Time =    1.000,"P-5-1",           423,          200.,            5.,            0.,NA,NA,"",   1.00099E+06,   998.967E+03,   998.967E+03
C:/temp/Job-5.odb,Step-1,Increment      1: Step Time =    1.000,"P-5-1",           424,            5.,          200.,            0.,NA,NA,"",   2.69099E+06,   2.75257E+06,   2.75257E+06
C:/temp/Job-5.odb,Step-1,Increment      1: Step Time =    1.000,"P-5-1",           425,           15.,          200.,            0.,NA,NA,"",   2.35398E+06,   2.36149E+06,   2.36149E+06
C:/temp/Job-5.odb,Step-1,Increment      1: Step Time =    1.000,"P-5-1",           426,           25.,          200.,            0.,NA,NA,"",   2.28365E+06,   2.28448E+06,   2.28448E+06
C:/temp/Job-5.odb,Step-1,Increment      1: Step Time =    1.000,"P-5-1",           427,           35.,          200.,            0.,NA,NA,"",   2.21703E+06,   2.21589E+06,   2.21589E+06
C:/temp/Job-5.odb,Step-1,Increment      1: Step Time =    1.000,"P-5-1",           428,           45.,          200.,            0.,NA,NA,"",   2.09777E+06,   2.09561E+06,   2.09561E+06
C:/temp/Job-5.odb,Step-1,Increment      1: Step Time =    1.000,"P-5-1",           429,           55.,          200.,            0.,NA,NA,"",   1.89881E+06,   1.89553E+06,   1.89553E+06
C:/temp/Job-5.odb,Step-1,Increment      1: Step Time =    1.000,"P-5-1",           430,           65.,          200.,            0.,NA,NA,"",   1.61645E+06,   1.61233E+06,   1.61233E+06
C:/temp/Job-5.odb,Step-1,Increment      1: Step Time =    1.000,"P-5-1",           431,           75.,          200.,            0.,NA,NA,"",   1.27296E+06,   1.26892E+06,   1.26892E+06
C:/temp/Job-5.odb,Step-1,Increment      1: Step Time =    1.000,"P-5-1",           432,           85.,          200.,            0.,NA,NA,"",   912.780E+03,   910.324E+03,   910.324E+03
C:/temp/Job-5.odb,Step-1,Increment      1: Step Time =    1.000,"P-5-1",           433,           95.,          200.,            0.,NA,NA,"",   607.845E+03,   607.713E+03,   607.713E+03
C:/temp/Job-5.odb,Step-1,Increment      1: Step Time =    1.000,"P-5-1",           434,          105.,          200.,            0.,NA,NA,"",   406.606E+03,   409.883E+03,   409.883E+03
C:/temp/Job-5.odb,Step-1,Increment      1: Step Time =    1.000,"P-5-1",           435,          115.,          200.,            0.,NA,NA,"",   345.748E+03,   349.819E+03,   349.819E+03
C:/temp/Job-5.odb,Step-1,Increment      1: Step Time =    1.000,"P-5-1",           436,          125.,          200.,            0.,NA,NA,"",   425.690E+03,   427.368E+03,   427.368E+03
C:/temp/Job-5.odb,Step-1,Increment      1: Step Time =    1.000,"P-5-1",           437,          135.,          200.,            0.,NA,NA,"",   592.328E+03,   592.815E+03,   592.815E+03
C:/temp/Job-5.odb,Step-1,Increment      1: Step Time =    1.000,"P-5-1",           438,          145.,          200.,            0.,NA,NA,"",   773.391E+03,   766.147E+03,   766.147E+03
C:/temp/Job-5.odb,Step-1,Increment      1: Step Time =    1.000,"P-5-1",           439,          155.,          200.,            0.,NA,NA,"",   878.521E+03,   876.401E+03,   876.401E+03
C:/temp/Job-5.odb,Step-1,Increment      1: Step Time =    1.000,"P-5-1",           440,          165.,          200.,            0.,NA,NA,"",   938.338E+03,   937.393E+03,   937.393E+03
C:/temp/Job-5.odb,Step-1,Increment      1: Step Time =    1.000,"P-5-1",           441,          175.,          200.,            0.,NA,NA,"",   965.641E+03,   965.528E+03,   965.528E+03
C:/temp/Job-5.odb,Step-1,Increment      1: Step Time =    1.000,"P-5-1",           442,          185.,          200.,            0.,NA,NA,"",   981.495E+03,   981.614E+03,   981.614E+03
C:/temp/Job-5.odb,Step-1,Increment      1: Step Time =    1.000,"P-5-1",           443,          195.,          200.,            0.,NA,NA,"",   996.477E+03,   995.875E+03,   995.875E+03
C:/temp/Job-5.odb,Step-1,Increment      1: Step Time =    1.000,"P-5-1",           444,            0.,            5.,            0.,NA,NA,"",   2.49755E+06,   2.66415E+06,   2.66415E+06
C:/temp/Job-5.odb,Step-1,Increment      1: Step Time =    1.000,"P-5-1",           445,            0.,           15.,            0.,NA,NA,"",   1.80013E+06,   1.99061E+06,   1.99061E+06
C:/temp/Job-5.odb,Step-1,Increment      1: Step Time =    1.000,"P-5-1",           446,            0.,           25.,            0.,NA,NA,"",   1.44681E+06,   1.61603E+06,   1.61603E+06
C:/temp/Job-5.odb,Step-1,Increment      1: Step Time =    1.000,"P-5-1",           447,            0.,           35.,            0.,NA,NA,"",   1.16794E+06,   1.30813E+06,   1.30813E+06
C:/temp/Job-5.odb,Step-1,Increment      1: Step Time =    1.000,"P-5-1",           448,            0.,           45.,            0.,NA,NA,"",   915.814E+03,   1.02388E+06,   1.02388E+06
C:/temp/Job-5.odb,Step-1,Increment      1: Step Time =    1.000,"P-5-1",           449,            0.,           55.,            0.,NA,NA,"",   679.750E+03,   754.193E+03,   754.193E+03
C:/temp/Job-5.odb,Step-1,Increment      1: Step Time =    1.000,"P-5-1",           450,            0.,           65.,            0.,NA,NA,"",   465.720E+03,    506.79E+03,    506.79E+03
C:/temp/Job-5.odb,Step-1,Increment      1: Step Time =    1.000,"P-5-1",           451,            0.,           75.,            0.,NA,NA,"",   285.742E+03,   295.333E+03,   295.333E+03
C:/temp/Job-5.odb,Step-1,Increment      1: Step Time =    1.000,"P-5-1",           452,            0.,           85.,            0.,NA,NA,"",   149.955E+03,   133.391E+03,   133.391E+03
C:/temp/Job-5.odb,Step-1,Increment      1: Step Time =    1.000,"P-5-1",           453,            0.,           95.,            0.,NA,NA,"",   71.4163E+03,   4.16370E+03,   4.16370E+03
C:/temp/Job-5.odb,Step-1,Increment      1: Step Time =    1.000,"P-5-1",           454,            0.,          105.,            0.,NA,NA,"",   72.3484E+03,   4.89878E+03,   4.89878E+03
C:/temp/Job-5.odb,Step-1,Increment      1: Step Time =    1.000,"P-5-1",           455,            0.,          115.,            0.,NA,NA,"",   152.737E+03,   135.660E+03,   135.660E+03
C:/temp/Job-5.odb,Step-1,Increment      1: Step Time =    1.000,"P-5-1",           456,            0.,          125.,            0.,NA,NA,"",   285.278E+03,   294.244E+03,   294.244E+03
C:/temp/Job-5.odb,Step-1,Increment      1: Step Time =    1.000,"P-5-1",           457,            0.,          135.,            0.,NA,NA,"",   464.443E+03,   503.373E+03,   503.373E+03
C:/temp/Job-5.odb,Step-1,Increment      1: Step Time =    1.000,"P-5-1",           458,            0.,          145.,            0.,NA,NA,"",   689.794E+03,   763.076E+03,   763.076E+03
C:/temp/Job-5.odb,Step-1,Increment      1: Step Time =    1.000,"P-5-1",           459,            0.,          155.,            0.,NA,NA,"",   929.234E+03,   1.04067E+06,   1.04067E+06
C:/temp/Job-5.odb,Step-1,Increment      1: Step Time =    1.000,"P-5-1",           460,            0.,          165.,            0.,NA,NA,"",   1.18326E+06,   1.32569E+06,   1.32569E+06
C:/temp/Job-5.odb,Step-1,Increment      1: Step Time =    1.000,"P-5-1",           461,            0.,          175.,            0.,NA,NA,"",   1.46167E+06,   1.63249E+06,   1.63249E+06
C:/temp/Job-5.odb,Step-1,Increment      1: Step Time =    1.000,"P-5-1",           462,            0.,          185.,            0.,NA,NA,"",   1.80284E+06,   1.99577E+06,   1.99577E+06
C:/temp/Job-5.odb,Step-1,Increment      1: Step Time =    1.000,"P-5-1",           463,            0.,          195.,            0.,NA,NA,"",   2.50821E+06,   2.67905E+06,   2.67905E+06
C:/temp/Job-5.odb,Step-1,Increment      1: Step Time =    1.000,"P-5-1",           464,       49.1627,       119.778,            0.,NA,NA,"",   676.392E+03,  -690.969E+03,  -690.969E+03
C:/temp/Job-5.odb,Step-1,Increment      1: Step Time =    1.000,"P-5-1",           465,       100.049,       153.764,            0.,NA,NA,"",   3.91254E+06,   4.01800E+06,   4.01800E+06
C:/temp/Job-5.odb,Step-1,Increment      1: Step Time =    1.000,"P-5-1",           466,       65.0008,       141.462,            0.,NA,NA,"",   867.864E+03,   793.321E+03,   793.321E+03
C:/temp/Job-5.odb,Step-1,Increment      1: Step Time =    1.000,"P-5-1",           467,       53.8862,       129.502,            0.,NA,NA,"",   553.937E+03,  -493.868E+03,  -493.868E+03
C:/temp/Job-5.odb,Step-1,Increment      1: Step Time =    1.000,"P-5-1",           468,       46.4732,       109.507,            0.,NA,NA,"",   726.564E+03,  -753.472E+03,  -753.472E+03
C:/temp/Job-5.odb,Step-1,Increment      1: Step Time =    1.000,"P-5-1",           469,       136.482,       60.0029,            0.,NA,NA,"",   2.00126E+06,   2.00419E+06,   2.00419E+06
C:/temp/Job-5.odb,Step-1,Increment      1: Step Time =    1.000,"P-5-1",           470,       45.1007,       93.6829,            0.,NA,NA,"",   684.539E+03,  -715.665E+03,  -715.665E+03
C:/temp/Job-5.odb,Step-1,Increment      1: Step Time =    1.000,"P-5-1",           471,       59.1724,       63.2620,            0.,NA,NA,"",   571.218E+03,   265.668E+03,   265.668E+03
C:/temp/Job-5.odb,Step-1,Increment      1: Step Time =    1.000,"P-5-1",           472,       45.3189,       98.9705,            0.,NA,NA,"",   705.914E+03,  -737.220E+03,  -737.220E+03
C:/temp/Job-5.odb,Step-1,Increment      1: Step Time =    1.000,"P-5-1",           473,       63.1658,       59.8022,            0.,NA,NA,"",   744.648E+03,   645.725E+03,   645.725E+03
C:/temp/Job-5.odb,Step-1,Increment      1: Step Time =    1.000,"P-5-1",           474,       94.9532,       153.896,            0.,NA,NA,"",   3.63125E+06,   3.72437E+06,   3.72437E+06
C:/temp/Job-5.odb,Step-1,Increment      1: Step Time =    1.000,"P-5-1",           475,       49.6020,       77.2338,            0.,NA,NA,"",   614.894E+03,  -617.068E+03,  -617.068E+03
C:/temp/Job-5.odb,Step-1,Increment      1: Step Time =    1.000,"P-5-1",           476,       46.3573,       82.2480,            0.,NA,NA,"",   584.049E+03,  -605.769E+03,  -605.769E+03
C:/temp/Job-5.odb,Step-1,Increment      1: Step Time =    1.000,"P-5-1",           477,       67.1735,       56.4798,            0.,NA,NA,"",   1.10909E+06,   1.05626E+06,   1.05626E+06
C:/temp/Job-5.odb,Step-1,Increment      1: Step Time =    1.000,"P-5-1",           478,       83.3568,       154.308,            0.,NA,NA,"",   2.65445E+06,   2.71239E+06,   2.71239E+06
C:/temp/Job-5.odb,Step-1,Increment      1: Step Time =    1.000,"P-5-1",           479,       56.8854,       134.104,            0.,NA,NA,"",   522.450E+03,  -144.819E+03,  -144.819E+03
C:/temp/Job-5.odb,Step-1,Increment      1: Step Time =    1.000,"P-5-1",           480,       45.8223,       104.256,            0.,NA,NA,"",   726.424E+03,  -755.929E+03,  -755.929E+03
C:/temp/Job-5.odb,Step-1,Increment      1: Step Time =    1.000,"P-5-1",           481,       45.7343,       88.2733,            0.,NA,NA,"",   660.365E+03,  -690.113E+03,  -690.113E+03
C:/temp/Job-5.odb,Step-1,Increment      1: Step Time =    1.000,"P-5-1",           482,       89.6274,       153.995,            0.,NA,NA,"",   3.20482E+06,   3.28551E+06,   3.28551E+06
C:/temp/Job-5.odb,Step-1,Increment      1: Step Time =    1.000,"P-5-1",           483,       60.8189,       138.020,            0.,NA,NA,"",   600.356E+03,   361.310E+03,   361.310E+03
C:/temp/Job-5.odb,Step-1,Increment      1: Step Time =    1.000,"P-5-1",           484,       118.810,       49.1561,            0.,NA,NA,"",   3.59972E+06,   3.70332E+06,   3.70332E+06
C:/temp/Job-5.odb,Step-1,Increment      1: Step Time =    1.000,"P-5-1",           485,       148.200,       125.243,            0.,NA,NA,"",   878.964E+03,  -241.128E+03,  -241.128E+03
C:/temp/Job-5.odb,Step-1,Increment      1: Step Time =    1.000,"P-5-1",           486,       108.761,       45.9244,            0.,NA,NA,"",   3.80270E+06,   3.93117E+06,   3.93117E+06
C:/temp/Job-5.odb,Step-1,Increment      1: Step Time =    1.000,"P-5-1",           487,       47.4165,       114.694,            0.,NA,NA,"",   709.032E+03,  -732.108E+03,  -732.108E+03
C:/temp/Job-5.odb,Step-1,Increment      1: Step Time =    1.000,"P-5-1",           488,       135.124,       141.356,            0.,NA,NA,"",   2.18892E+06,   2.20074E+06,   2.20074E+06
C:/temp/Job-5.odb,Step-1,Increment      1: Step Time =    1.000,"P-5-1",           489,       71.4246,       53.2247,            0.,NA,NA,"",   1.57983E+06,   1.55639E+06,   1.55639E+06
C:/temp/Job-5.odb,Step-1,Increment      1: Step Time =    1.000,"P-5-1",           490,       153.952,       109.810,            0.,NA,NA,"",   1.49143E+06,  -1.48406E+06,  -1.48406E+06
C:/temp/Job-5.odb,Step-1,Increment      1: Step Time =    1.000,"P-5-1",           491,       86.4021,       47.0181,            0.,NA,NA,"",   2.98134E+06,   3.04620E+06,   3.04620E+06
C:/temp/Job-5.odb,Step-1,Increment      1: Step Time =    1.000,"P-5-1",           492,       154.488,       98.9015,            0.,NA,NA,"",   1.67689E+06,  -1.70725E+06,  -1.70725E+06
C:/temp/Job-5.odb,Step-1,Increment      1: Step Time =    1.000,"P-5-1",           493,       102.938,       43.8895,            0.,NA,NA,"",   3.51914E+06,   3.66832E+06,   3.66832E+06
C:/temp/Job-5.odb,Step-1,Increment      1: Step Time =    1.000,"P-5-1",           494,       154.473,       93.5856,            0.,NA,NA,"",   1.55648E+06,  -1.57472E+06,  -1.57472E+06
C:/temp/Job-5.odb,Step-1,Increment      1: Step Time =    1.000,"P-5-1",           495,       151.910,       82.5639,            0.,NA,NA,"",   1.19465E+06,  -1.10915E+06,  -1.10915E+06
C:/temp/Job-5.odb,Step-1,Increment      1: Step Time =    1.000,"P-5-1",           496,       81.1637,       48.3569,            0.,NA,NA,"",   2.53524E+06,   2.57226E+06,   2.57226E+06
C:/temp/Job-5.odb,Step-1,Increment      1: Step Time =    1.000,"P-5-1",           497,       119.293,       152.627,            0.,NA,NA,"",   3.30238E+06,   3.43695E+06,   3.43695E+06
C:/temp/Job-5.odb,Step-1,Increment      1: Step Time =    1.000,"P-5-1",           498,       138.852,       137.832,            0.,NA,NA,"",   1.72352E+06,   1.69507E+06,   1.69507E+06
C:/temp/Job-5.odb,Step-1,Increment      1: Step Time =    1.000,"P-5-1",           499,       109.420,       152.971,            0.,NA,NA,"",   3.98524E+06,   4.09903E+06,   4.09903E+06
C:/temp/Job-5.odb,Step-1,Increment      1: Step Time =    1.000,"P-5-1",           500,       140.360,       63.4834,            0.,NA,NA,"",   1.54756E+06,   1.49521E+06,   1.49521E+06
C:/temp/Job-5.odb,Step-1,Increment      1: Step Time =    1.000,"P-5-1",           501,       154.351,       104.280,            0.,NA,NA,"",   1.64531E+06,  -1.67071E+06,  -1.67071E+06
C:/temp/Job-5.odb,Step-1,Increment      1: Step Time =    1.000,"P-5-1",           502,       91.5952,       45.9706,            0.,NA,NA,"",   3.35396E+06,   3.44060E+06,   3.44060E+06
C:/temp/Job-5.odb,Step-1,Increment      1: Step Time =    1.000,"P-5-1",           503,       154.431,       87.8535,            0.,NA,NA,"",   1.31148E+06,  -1.27218E+06,  -1.27218E+06
C:/temp/Job-5.odb,Step-1,Increment      1: Step Time =    1.000,"P-5-1",           504,       150.829,       120.468,            0.,NA,NA,"",   1.07285E+06,  -914.407E+03,  -914.407E+03
C:/temp/Job-5.odb,Step-1,Increment      1: Step Time =    1.000,"P-5-1",           505,       112.758,       153.594,            0.,NA,NA,"",   3.63848E+06,   3.77445E+06,   3.77445E+06
C:/temp/Job-5.odb,Step-1,Increment      1: Step Time =    1.000,"P-5-1",           506,       131.077,       144.531,            0.,NA,NA,"",   2.62916E+06,   2.67380E+06,   2.67380E+06
C:/temp/Job-5.odb,Step-1,Increment      1: Step Time =    1.000,"P-5-1",           507,       96.9011,       45.0510,            0.,NA,NA,"",   3.57103E+06,   3.68746E+06,   3.68746E+06
C:/temp/Job-5.odb,Step-1,Increment      1: Step Time =    1.000,"P-5-1",           508,       152.987,       115.389,            0.,NA,NA,"",   1.29265E+06,  -1.22167E+06,  -1.22167E+06
C:/temp/Job-5.odb,Step-1,Increment      1: Step Time =    1.000,"P-5-1",           509,       113.903,       47.4814,            0.,NA,NA,"",   3.79028E+06,   3.90263E+06,   3.90263E+06
C:/temp/Job-5.odb,Step-1,Increment      1: Step Time =    1.000,"P-5-1",           510,       132.391,       56.7861,            0.,NA,NA,"",   2.47580E+06,   2.51387E+06,   2.51387E+06
C:/temp/Job-5.odb,Step-1,Increment      1: Step Time =    1.000,"P-5-1",           511,       142.244,       133.955,            0.,NA,NA,"",   1.27079E+06,   1.18656E+06,   1.18656E+06
C:/temp/Job-5.odb,Step-1,Increment      1: Step Time =    1.000,"P-5-1",           512,       104.980,       153.419,            0.,NA,NA,"",   4.04950E+06,   4.15671E+06,   4.15671E+06
C:/temp/Job-5.odb,Step-1,Increment      1: Step Time =    1.000,"P-5-1",           513,       144.221,       67.1999,            0.,NA,NA,"",   1.20031E+06,   1.04583E+06,   1.04583E+06
C:/temp/Job-5.odb,Step-1,Increment      1: Step Time =    1.000,"P-5-1",           514,       195.203,       75.3607,            0.,NA,NA,"",   1.23805E+06,   1.41375E+06,   1.41375E+06
C:/temp/Job-5.odb,Step-1,Increment      1: Step Time =    1.000,"P-5-1",           515,       125.149,       5.05584,            0.,NA,NA,"",   579.719E+03,   583.609E+03,   583.609E+03
C:/temp/Job-5.odb,Step-1,Increment      1: Step Time =    1.000,"P-5-1",           516,       135.090,       4.92290,            0.,NA,NA,"",   699.667E+03,   695.865E+03,   695.865E+03
C:/temp/Job-5.odb,Step-1,Increment      1: Step Time =    1.000,"P-5-1",           517,       134.803,       194.712,            0.,NA,NA,"",   709.583E+03,   707.683E+03,   707.683E+03
C:/temp/Job-5.odb,Step-1,Increment      1: Step Time =    1.000,"P-5-1",           518,       195.236,       134.899,            0.,NA,NA,"",   1.03999E+06,   1.16944E+06,   1.16944E+06
C:/temp/Job-5.odb,Step-1,Increment      1: Step Time =    1.000,"P-5-1",           519,       195.398,       144.697,            0.,NA,NA,"",   935.887E+03,   1.07169E+06,   1.07169E+06
C:/temp/Job-5.odb,Step-1,Increment      1: Step Time =    1.000,"P-5-1",           520,       194.865,       154.560,            0.,NA,NA,"",   947.298E+03,   1.04717E+06,   1.04717E+06
C:/temp/Job-5.odb,Step-1,Increment      1: Step Time =    1.000,"P-5-1",           521,       145.636,       192.483,            0.,NA,NA,"",   917.734E+03,   904.081E+03,   904.081E+03
C:/temp/Job-5.odb,Step-1,Increment      1: Step Time =    1.000,"P-5-1",           522,       195.130,       85.2292,            0.,NA,NA,"",   1.43679E+06,   1.65380E+06,   1.65380E+06
C:/temp/Job-5.odb,Step-1,Increment      1: Step Time =    1.000,"P-5-1",           523,       105.034,       5.21547,            0.,NA,NA,"",   581.234E+03,   591.582E+03,   591.582E+03
C:/temp/Job-5.odb,Step-1,Increment      1: Step Time =    1.000,"P-5-1",           524,       115.117,       5.18823,            0.,NA,NA,"",   521.314E+03,   532.672E+03,   532.672E+03
C:/temp/Job-5.odb,Step-1,Increment      1: Step Time =    1.000,"P-5-1",           525,       94.9555,       5.07088,            0.,NA,NA,"",   769.637E+03,    769.34E+03,    769.34E+03
C:/temp/Job-5.odb,Step-1,Increment      1: Step Time =    1.000,"P-5-1",           526,       7.49023,       145.465,            0.,NA,NA,"",   712.362E+03,   778.327E+03,   778.327E+03
C:/temp/Job-5.odb,Step-1,Increment      1: Step Time =    1.000,"P-5-1",           527,       4.92316,       115.114,            0.,NA,NA,"",   145.983E+03,   133.533E+03,   133.533E+03
C:/temp/Job-5.odb,Step-1,Increment      1: Step Time =    1.000,"P-5-1",           528,       5.16702,       95.0983,            0.,NA,NA,"",   91.9834E+03,   3.23583E+03,   3.23583E+03
C:/temp/Job-5.odb,Step-1,Increment      1: Step Time =    1.000,"P-5-1",           529,       5.16874,       85.0316,            0.,NA,NA,"",   143.251E+03,   130.633E+03,   130.633E+03
C:/temp/Job-5.odb,Step-1,Increment      1: Step Time =    1.000,"P-5-1",           530,       85.0376,       4.80938,            0.,NA,NA,"",   1.03856E+06,   1.02887E+06,   1.02887E+06
C:/temp/Job-5.odb,Step-1,Increment      1: Step Time =    1.000,"P-5-1",           531,       5.48571,       5.43262,            0.,NA,NA,"",   2.47057E+06,   2.56775E+06,   2.56775E+06
C:/temp/Job-5.odb,Step-1,Increment      1: Step Time =    1.000,"P-5-1",           532,       5.46022,       15.8418,            0.,NA,NA,"",   1.83575E+06,   1.99455E+06,   1.99455E+06
C:/temp/Job-5.odb,Step-1,Increment      1: Step Time =    1.000,"P-5-1",           533,       4.90358,       25.7504,            0.,NA,NA,"",   1.47468E+06,   1.62638E+06,   1.62638E+06
C:/temp/Job-5.odb,Step-1,Increment      1: Step Time =    1.000,"P-5-1",           534,       4.74581,       35.5757,            0.,NA,NA,"",   1.18891E+06,   1.31707E+06,   1.31707E+06
C:/temp/Job-5.odb,Step-1,Increment      1: Step Time =    1.000,"P-5-1",           535,       4.75972,       45.3874,            0.,NA,NA,"",   929.288E+03,   1.02910E+06,   1.02910E+06
C:/temp/Job-5.odb,Step-1,Increment      1: Step Time =    1.000,"P-5-1",           536,       4.92671,       74.9686,            0.,NA,NA,"",   270.926E+03,   285.270E+03,   285.270E+03
C:/temp/Job-5.odb,Step-1,Increment      1: Step Time =    1.000,"P-5-1",           537,       15.5895,       4.87038,            0.,NA,NA,"",   2.30582E+06,   2.31695E+06,   2.31695E+06
C:/temp/Job-5.odb,Step-1,Increment      1: Step Time =    1.000,"P-5-1",           538,       25.2983,       4.29990,            0.,NA,NA,"",   2.24890E+06,   2.24851E+06,   2.24851E+06
C:/temp/Job-5.odb,Step-1,Increment      1: Step Time =    1.000,"P-5-1",           539,       34.9016,       4.34330,            0.,NA,NA,"",   2.18172E+06,   2.17741E+06,   2.17741E+06
C:/temp/Job-5.odb,Step-1,Increment      1: Step Time =    1.000,"P-5-1",           540,       44.5272,       4.78858,            0.,NA,NA,"",   2.06938E+06,   2.06056E+06,   2.06056E+06
C:/temp/Job-5.odb,Step-1,Increment      1: Step Time =    1.000,"P-5-1",           541,       54.9803,       7.01343,            0.,NA,NA,"",   1.89239E+06,   1.87151E+06,   1.87151E+06
C:/temp/Job-5.odb,Step-1,Increment      1: Step Time =    1.000,"P-5-1",           542,       65.5038,       5.13624,            0.,NA,NA,"",   1.64299E+06,   1.62967E+06,   1.62967E+06
C:/temp/Job-5.odb,Step-1,Increment      1: Step Time =    1.000,"P-5-1",           543,       75.2486,       4.65471,            0.,NA,NA,"",   1.34387E+06,   1.33134E+06,   1.33134E+06
C:/temp/Job-5.odb,Step-1,Increment      1: Step Time =    1.000,"P-5-1",           544,       144.917,       4.78526,            0.,NA,NA,"",   819.965E+03,   813.802E+03,   813.802E+03
C:/temp/Job-5.odb,Step-1,Increment      1: Step Time =    1.000,"P-5-1",           545,       154.736,       4.65489,            0.,NA,NA,"",   911.800E+03,   906.316E+03,   906.316E+03
C:/temp/Job-5.odb,Step-1,Increment      1: Step Time =    1.000,"P-5-1",           546,       164.598,       4.74076,            0.,NA,NA,"",   965.900E+03,   962.076E+03,   962.076E+03
C:/temp/Job-5.odb,Step-1,Increment      1: Step Time =    1.000,"P-5-1",           547,       174.621,       5.27201,            0.,NA,NA,"",   988.320E+03,   986.727E+03,   986.727E+03
C:/temp/Job-5.odb,Step-1,Increment      1: Step Time =    1.000,"P-5-1",           548,       184.858,       5.38141,            0.,NA,NA,"",   992.249E+03,   992.502E+03,   992.502E+03
C:/temp/Job-5.odb,Step-1,Increment      1: Step Time =    1.000,"P-5-1",           549,       192.547,       54.7592,            0.,NA,NA,"",   1.00651E+06,   1.13120E+06,   1.13120E+06
C:/temp/Job-5.odb,Step-1,Increment      1: Step Time =    1.000,"P-5-1",           550,       194.719,       65.5136,            0.,NA,NA,"",   1.04790E+06,   1.18357E+06,   1.18357E+06
C:/temp/Job-5.odb,Step-1,Increment      1: Step Time =    1.000,"P-5-1",           551,       194.962,       5.09051,            0.,NA,NA,"",   998.761E+03,   997.459E+03,   997.459E+03
C:/temp/Job-5.odb,Step-1,Increment      1: Step Time =    1.000,"P-5-1",           552,       195.048,       15.1701,            0.,NA,NA,"",   1.00847E+06,   1.00539E+06,   1.00539E+06
C:/temp/Job-5.odb,Step-1,Increment      1: Step Time =    1.000,"P-5-1",           553,       195.371,       25.1558,            0.,NA,NA,"",   1.00361E+06,   1.01086E+06,   1.01086E+06
C:/temp/Job-5.odb,Step-1,Increment      1: Step Time =    1.000,"P-5-1",           554,       195.781,       34.8125,            0.,NA,NA,"",   975.036E+03,   1.01676E+06,   1.01676E+06
C:/temp/Job-5.odb,Step-1,Increment      1: Step Time =    1.000,"P-5-1",           555,       195.200,       44.3450,            0.,NA,NA,"",   943.435E+03,   1.03985E+06,   1.03985E+06
C:/temp/Job-5.odb,Step-1,Increment      1: Step Time =    1.000,"P-5-1",           556,       195.152,       125.023,            0.,NA,NA,"",   1.23219E+06,   1.40674E+06,   1.40674E+06
C:/temp/Job-5.odb,Step-1,Increment      1: Step Time =    1.000,"P-5-1",           557,       195.102,       115.107,            0.,NA,NA,"",   1.43136E+06,   1.64761E+06,   1.64761E+06
C:/temp/Job-5.odb,Step-1,Increment      1: Step Time =    1.000,"P-5-1",           558,       194.322,       164.481,            0.,NA,NA,"",   987.378E+03,   1.03241E+06,   1.03241E+06
C:/temp/Job-5.odb,Step-1,Increment      1: Step Time =    1.000,"P-5-1",           559,       155.809,       194.903,            0.,NA,NA,"",   925.929E+03,   920.369E+03,   920.369E+03
C:/temp/Job-5.odb,Step-1,Increment      1: Step Time =    1.000,"P-5-1",           560,       194.435,       174.683,            0.,NA,NA,"",   1.00911E+06,   1.01794E+06,   1.01794E+06
C:/temp/Job-5.odb,Step-1,Increment      1: Step Time =    1.000,"P-5-1",           561,       165.317,       195.468,            0.,NA,NA,"",   964.983E+03,   962.177E+03,   962.177E+03
C:/temp/Job-5.odb,Step-1,Increment      1: Step Time =    1.000,"P-5-1",           562,       194.627,       184.943,            0.,NA,NA,"",   1.00895E+06,   1.00606E+06,   1.00606E+06
C:/temp/Job-5.odb,Step-1,Increment      1: Step Time =    1.000,"P-5-1",           563,       174.945,       195.406,            0.,NA,NA,"",   983.573E+03,   982.655E+03,   982.655E+03
C:/temp/Job-5.odb,Step-1,Increment      1: Step Time =    1.000,"P-5-1",           564,       194.930,       194.990,            0.,NA,NA,"",   998.827E+03,   997.462E+03,   997.462E+03
C:/temp/Job-5.odb,Step-1,Increment      1: Step Time =    1.000,"P-5-1",           565,       184.883,       195.123,            0.,NA,NA,"",   990.048E+03,   990.393E+03,   990.393E+03
C:/temp/Job-5.odb,Step-1,Increment      1: Step Time =    1.000,"P-5-1",           566,       5.08067,       194.922,            0.,NA,NA,"",   2.49078E+06,   2.59037E+06,   2.59037E+06
C:/temp/Job-5.odb,Step-1,Increment      1: Step Time =    1.000,"P-5-1",           567,       15.2001,       194.866,            0.,NA,NA,"",   2.31020E+06,   2.32232E+06,   2.32232E+06
C:/temp/Job-5.odb,Step-1,Increment      1: Step Time =    1.000,"P-5-1",           568,       25.2209,       194.973,            0.,NA,NA,"",   2.23467E+06,   2.23426E+06,   2.23426E+06
C:/temp/Job-5.odb,Step-1,Increment      1: Step Time =    1.000,"P-5-1",           569,       35.1705,       195.174,            0.,NA,NA,"",   2.16776E+06,   2.16279E+06,   2.16279E+06
C:/temp/Job-5.odb,Step-1,Increment      1: Step Time =    1.000,"P-5-1",           570,       45.1113,       195.320,            0.,NA,NA,"",   2.06033E+06,   2.05245E+06,   2.05245E+06
C:/temp/Job-5.odb,Step-1,Increment      1: Step Time =    1.000,"P-5-1",           571,       125.026,       195.117,            0.,NA,NA,"",   569.789E+03,   574.107E+03,   574.107E+03
C:/temp/Job-5.odb,Step-1,Increment      1: Step Time =    1.000,"P-5-1",           572,       105.122,       194.833,            0.,NA,NA,"",   582.808E+03,   592.572E+03,   592.572E+03
C:/temp/Job-5.odb,Step-1,Increment      1: Step Time =    1.000,"P-5-1",           573,       95.0124,       194.787,            0.,NA,NA,"",   780.625E+03,   780.250E+03,   780.250E+03
C:/temp/Job-5.odb,Step-1,Increment      1: Step Time =    1.000,"P-5-1",           574,       84.9170,       194.953,            0.,NA,NA,"",   1.05398E+06,   1.04487E+06,   1.04487E+06
C:/temp/Job-5.odb,Step-1,Increment      1: Step Time =    1.000,"P-5-1",           575,       74.8882,       195.030,            0.,NA,NA,"",   1.36445E+06,   1.34997E+06,   1.34997E+06
C:/temp/Job-5.odb,Step-1,Increment      1: Step Time =    1.000,"P-5-1",           576,       64.9695,       195.125,            0.,NA,NA,"",   1.65121E+06,   1.63720E+06,   1.63720E+06
C:/temp/Job-5.odb,Step-1,Increment      1: Step Time =    1.000,"P-5-1",           577,       55.0323,       195.302,            0.,NA,NA,"",   1.88925E+06,   1.87803E+06,   1.87803E+06
C:/temp/Job-5.odb,Step-1,Increment      1: Step Time =    1.000,"P-5-1",           578,       5.11105,       184.905,            0.,NA,NA,"",   1.85550E+06,   2.01840E+06,   2.01840E+06
C:/temp/Job-5.odb,Step-1,Increment      1: Step Time =    1.000,"P-5-1",           579,       4.89658,       175.098,            0.,NA,NA,"",   1.50371E+06,   1.65698E+06,   1.65698E+06
C:/temp/Job-5.odb,Step-1,Increment      1: Step Time =    1.000,"P-5-1",           580,       4.64223,       165.412,            0.,NA,NA,"",   1.21781E+06,   1.34927E+06,   1.34927E+06
C:/temp/Job-5.odb,Step-1,Increment      1: Step Time =    1.000,"P-5-1",           581,       5.11429,       155.746,            0.,NA,NA,"",   962.744E+03,   1.06620E+06,   1.06620E+06
C:/temp/Job-5.odb,Step-1,Increment      1: Step Time =    1.000,"P-5-1",           582,       5.24777,       134.687,            0.,NA,NA,"",   450.206E+03,   489.779E+03,   489.779E+03
C:/temp/Job-5.odb,Step-1,Increment      1: Step Time =    1.000,"P-5-1",           583,       4.78303,       124.886,            0.,NA,NA,"",   269.363E+03,   282.758E+03,   282.758E+03
C:/temp/Job-5.odb,Step-1,Increment      1: Step Time =    1.000,"P-5-1",           584,       4.79471,       65.0807,            0.,NA,NA,"",   456.489E+03,   498.185E+03,   498.185E+03
C:/temp/Job-5.odb,Step-1,Increment      1: Step Time =    1.000,"P-5-1",           585,       4.77113,       55.2183,            0.,NA,NA,"",   682.049E+03,   752.467E+03,   752.467E+03
C:/temp/Job-5.odb,Step-1,Increment      1: Step Time =    1.000,"P-5-1",           586,       195.051,       95.1849,            0.,NA,NA,"",   1.55713E+06,   1.79374E+06,   1.79374E+06
C:/temp/Job-5.odb,Step-1,Increment      1: Step Time =    1.000,"P-5-1",           587,       195.059,       105.180,            0.,NA,NA,"",   1.55529E+06,   1.79143E+06,   1.79143E+06
C:/temp/Job-5.odb,Step-1,Increment      1: Step Time =    1.000,"P-5-1",           588,       115.146,       195.030,            0.,NA,NA,"",   510.494E+03,   521.446E+03,   521.446E+03
C:/temp/Job-5.odb,Step-1,Increment      1: Step Time =    1.000,"P-5-1",           589,       5.08296,       105.174,            0.,NA,NA,"",   92.8291E+03,   4.32310E+03,   4.32310E+03
C:/temp/Job-5.odb,Step-1,Increment      1: Step Time =    1.000,"P-5-1",           590,       189.949,       5.19675,            0.,NA,NA,"",   994.540E+03,   994.455E+03,   994.455E+03
C:/temp/Job-5.odb,Step-1,Increment      1: Step Time =    1.000,"P-5-1",           591,       179.711,       5.55539,            0.,NA,NA,"",   991.364E+03,   990.967E+03,   990.967E+03
C:/temp/Job-5.odb,Step-1,Increment      1: Step Time =    1.000,"P-5-1",           592,       169.585,       4.94237,            0.,NA,NA,"",   980.432E+03,   977.572E+03,   977.572E+03
C:/temp/Job-5.odb,Step-1,Increment      1: Step Time =    1.000,"P-5-1",           593,       159.666,       4.65228,            0.,NA,NA,"",   943.543E+03,   938.817E+03,   938.817E+03
C:/temp/Job-5.odb,Step-1,Increment      1: Step Time =    1.000,"P-5-1",           594,       149.834,       4.70734,            0.,NA,NA,"",   870.202E+03,   864.193E+03,   864.193E+03
C:/temp/Job-5.odb,Step-1,Increment      1: Step Time =    1.000,"P-5-1",           595,       140.003,       4.86062,            0.,NA,NA,"",   762.278E+03,   756.725E+03,   756.725E+03
C:/temp/Job-5.odb,Step-1,Increment      1: Step Time =    1.000,"P-5-1",           596,       130.142,       4.99123,            0.,NA,NA,"",   636.603E+03,   636.115E+03,   636.115E+03
C:/temp/Job-5.odb,Step-1,Increment      1: Step Time =    1.000,"P-5-1",           597,       120.137,       5.12776,            0.,NA,NA,"",   538.360E+03,   546.633E+03,   546.633E+03
C:/temp/Job-5.odb,Step-1,Increment      1: Step Time =    1.000,"P-5-1",           598,       110.084,       5.22885,            0.,NA,NA,"",   534.515E+03,   546.681E+03,   546.681E+03
C:/temp/Job-5.odb,Step-1,Increment      1: Step Time =    1.000,"P-5-1",           599,       99.9844,       5.16537,            0.,NA,NA,"",   661.319E+03,   667.068E+03,   667.068E+03
C:/temp/Job-5.odb,Step-1,Increment      1: Step Time =    1.000,"P-5-1",           600,       89.9735,       4.94719,            0.,NA,NA,"",   897.624E+03,   891.820E+03,   891.820E+03
C:/temp/Job-5.odb,Step-1,Increment      1: Step Time =    1.000,"P-5-1",           601,       80.1332,       4.68163,            0.,NA,NA,"",   1.18863E+06,   1.17706E+06,   1.17706E+06
C:/temp/Job-5.odb,Step-1,Increment      1: Step Time =    1.000,"P-5-1",           602,       70.3525,       4.78175,            0.,NA,NA,"",   1.49831E+06,   1.48512E+06,   1.48512E+06
C:/temp/Job-5.odb,Step-1,Increment      1: Step Time =    1.000,"P-5-1",           603,       60.5502,       5.79257,            0.,NA,NA,"",   1.77259E+06,   1.75792E+06,   1.75792E+06
C:/temp/Job-5.odb,Step-1,Increment      1: Step Time =    1.000,"P-5-1",           604,       49.4545,       5.46628,            0.,NA,NA,"",   1.99012E+06,   1.97697E+06,   1.97697E+06
C:/temp/Job-5.odb,Step-1,Increment      1: Step Time =    1.000,"P-5-1",           605,       39.7120,       4.47986,            0.,NA,NA,"",   2.13264E+06,    2.1267E+06,    2.1267E+06
C:/temp/Job-5.odb,Step-1,Increment      1: Step Time =    1.000,"P-5-1",           606,       30.0930,       4.27080,            0.,NA,NA,"",   2.22039E+06,   2.21709E+06,   2.21709E+06
C:/temp/Job-5.odb,Step-1,Increment      1: Step Time =    1.000,"P-5-1",           607,       20.4993,       4.43248,            0.,NA,NA,"",   2.27704E+06,   2.27904E+06,   2.27904E+06
C:/temp/Job-5.odb,Step-1,Increment      1: Step Time =    1.000,"P-5-1",           608,       10.7140,       5.46087,            0.,NA,NA,"",   2.38037E+06,   2.40437E+06,   2.40437E+06
C:/temp/Job-5.odb,Step-1,Increment      1: Step Time =    1.000,"P-5-1",           609,       194.829,       190.001,            0.,NA,NA,"",   1.00395E+06,   1.00115E+06,   1.00115E+06
C:/temp/Job-5.odb,Step-1,Increment      1: Step Time =    1.000,"P-5-1",           610,       194.363,       179.841,            0.,NA,NA,"",   1.01142E+06,   1.01180E+06,   1.01180E+06
C:/temp/Job-5.odb,Step-1,Increment      1: Step Time =    1.000,"P-5-1",           611,       194.421,       169.588,            0.,NA,NA,"",   1.00065E+06,   1.02418E+06,   1.02418E+06
C:/temp/Job-5.odb,Step-1,Increment      1: Step Time =    1.000,"P-5-1",           612,       194.293,       159.428,            0.,NA,NA,"",   970.486E+03,   1.04171E+06,   1.04171E+06
C:/temp/Job-5.odb,Step-1,Increment      1: Step Time =    1.000,"P-5-1",           613,       195.342,       149.564,            0.,NA,NA,"",   929.015E+03,   1.05392E+06,   1.05392E+06
C:/temp/Job-5.odb,Step-1,Increment      1: Step Time =    1.000,"P-5-1",           614,       195.320,       139.825,            0.,NA,NA,"",   973.525E+03,   1.10486E+06,   1.10486E+06
C:/temp/Job-5.odb,Step-1,Increment      1: Step Time =    1.000,"P-5-1",           615,       195.191,       129.962,            0.,NA,NA,"",   1.12962E+06,   1.27670E+06,   1.27670E+06
C:/temp/Job-5.odb,Step-1,Increment      1: Step Time =    1.000,"P-5-1",           616,       195.135,       120.071,            0.,NA,NA,"",   1.33638E+06,   1.53457E+06,   1.53457E+06
C:/temp/Job-5.odb,Step-1,Increment      1: Step Time =    1.000,"P-5-1",           617,       195.086,       110.147,            0.,NA,NA,"",   1.50706E+06,   1.73597E+06,   1.73597E+06
C:/temp/Job-5.odb,Step-1,Increment      1: Step Time =    1.000,"P-5-1",           618,       195.053,       100.185,            0.,NA,NA,"",   1.57247E+06,   1.81120E+06,   1.81120E+06
C:/temp/Job-5.odb,Step-1,Increment      1: Step Time =    1.000,"P-5-1",           619,       195.082,       90.1967,            0.,NA,NA,"",   1.51018E+06,   1.73951E+06,   1.73951E+06
C:/temp/Job-5.odb,Step-1,Increment      1: Step Time =    1.000,"P-5-1",           620,       195.188,       80.2802,            0.,NA,NA,"",   1.34349E+06,   1.54268E+06,   1.54268E+06
C:/temp/Job-5.odb,Step-1,Increment      1: Step Time =    1.000,"P-5-1",           621,       195.077,       70.4484,            0.,NA,NA,"",   1.13418E+06,   1.28401E+06,   1.28401E+06
C:/temp/Job-5.odb,Step-1,Increment      1: Step Time =    1.000,"P-5-1",           622,       193.965,       60.4824,            0.,NA,NA,"",   998.337E+03,   1.13431E+06,   1.13431E+06
C:/temp/Job-5.odb,Step-1,Increment      1: Step Time =    1.000,"P-5-1",           623,       194.271,       49.2155,            0.,NA,NA,"",   955.893E+03,   1.07362E+06,   1.07362E+06
C:/temp/Job-5.odb,Step-1,Increment      1: Step Time =    1.000,"P-5-1",           624,       195.681,       39.5789,            0.,NA,NA,"",   955.201E+03,   1.02349E+06,   1.02349E+06
C:/temp/Job-5.odb,Step-1,Increment      1: Step Time =    1.000,"P-5-1",           625,       195.634,       30.0140,            0.,NA,NA,"",   992.166E+03,   1.01318E+06,   1.01318E+06
C:/temp/Job-5.odb,Step-1,Increment      1: Step Time =    1.000,"P-5-1",           626,       195.160,       20.1895,            0.,NA,NA,"",   1.00863E+06,   1.00838E+06,   1.00838E+06
C:/temp/Job-5.odb,Step-1,Increment      1: Step Time =    1.000,"P-5-1",           627,       194.996,       10.1244,            0.,NA,NA,"",   1.00408E+06,   1.00129E+06,   1.00129E+06
C:/temp/Job-5.odb,Step-1,Increment      1: Step Time =    1.000,"P-5-1",           628,       10.1426,       194.879,            0.,NA,NA,"",   2.40214E+06,   2.42575E+06,   2.42575E+06
C:/temp/Job-5.odb,Step-1,Increment      1: Step Time =    1.000,"P-5-1",           629,       20.2176,       194.906,            0.,NA,NA,"",   2.26900E+06,   2.27227E+06,   2.27227E+06
C:/temp/Job-5.odb,Step-1,Increment      1: Step Time =    1.000,"P-5-1",           630,       30.1934,       195.080,            0.,NA,NA,"",   2.20430E+06,   2.20116E+06,   2.20116E+06
C:/temp/Job-5.odb,Step-1,Increment      1: Step Time =    1.000,"P-5-1",           631,       40.1350,       195.267,            0.,NA,NA,"",   2.12114E+06,   2.11465E+06,   2.11465E+06
C:/temp/Job-5.odb,Step-1,Increment      1: Step Time =    1.000,"P-5-1",           632,       50.0683,       195.335,            0.,NA,NA,"",   1.98338E+06,   1.97389E+06,   1.97389E+06
C:/temp/Job-5.odb,Step-1,Increment      1: Step Time =    1.000,"P-5-1",           633,       59.9968,       195.219,            0.,NA,NA,"",   1.77774E+06,   1.76505E+06,   1.76505E+06
C:/temp/Job-5.odb,Step-1,Increment      1: Step Time =    1.000,"P-5-1",           634,       69.9325,       195.053,            0.,NA,NA,"",   1.51291E+06,   1.49815E+06,   1.49815E+06
C:/temp/Job-5.odb,Step-1,Increment      1: Step Time =    1.000,"P-5-1",           635,       79.8778,       195.011,            0.,NA,NA,"",   1.20884E+06,   1.19634E+06,   1.19634E+06
C:/temp/Job-5.odb,Step-1,Increment      1: Step Time =    1.000,"P-5-1",           636,       89.9628,       194.863,            0.,NA,NA,"",   909.570E+03,   904.373E+03,   904.373E+03
C:/temp/Job-5.odb,Step-1,Increment      1: Step Time =    1.000,"P-5-1",           637,       100.062,       194.773,            0.,NA,NA,"",   669.901E+03,   674.994E+03,   674.994E+03
C:/temp/Job-5.odb,Step-1,Increment      1: Step Time =    1.000,"P-5-1",           638,       110.156,       194.932,            0.,NA,NA,"",   528.066E+03,   540.140E+03,   540.140E+03
C:/temp/Job-5.odb,Step-1,Increment      1: Step Time =    1.000,"P-5-1",           639,       120.101,       195.102,            0.,NA,NA,"",   526.586E+03,   534.500E+03,   534.500E+03
C:/temp/Job-5.odb,Step-1,Increment      1: Step Time =    1.000,"P-5-1",           640,       129.916,       195.017,            0.,NA,NA,"",   633.725E+03,   634.198E+03,   634.198E+03
C:/temp/Job-5.odb,Step-1,Increment      1: Step Time =    1.000,"P-5-1",           641,       139.850,       193.983,            0.,NA,NA,"",   798.310E+03,    792.17E+03,    792.17E+03
C:/temp/Job-5.odb,Step-1,Increment      1: Step Time =    1.000,"P-5-1",           642,       150.992,       194.052,            0.,NA,NA,"",   908.572E+03,   898.517E+03,   898.517E+03
C:/temp/Job-5.odb,Step-1,Increment      1: Step Time =    1.000,"P-5-1",           643,       160.602,       195.359,            0.,NA,NA,"",   947.902E+03,   944.290E+03,   944.290E+03
C:/temp/Job-5.odb,Step-1,Increment      1: Step Time =    1.000,"P-5-1",           644,       170.072,       195.501,            0.,NA,NA,"",   976.625E+03,   974.710E+03,   974.710E+03
C:/temp/Job-5.odb,Step-1,Increment      1: Step Time =    1.000,"P-5-1",           645,       179.891,       195.244,            0.,NA,NA,"",   987.256E+03,   987.013E+03,   987.013E+03
C:/temp/Job-5.odb,Step-1,Increment      1: Step Time =    1.000,"P-5-1",           646,       189.909,       195.051,            0.,NA,NA,"",   994.165E+03,   994.122E+03,   994.122E+03
C:/temp/Job-5.odb,Step-1,Increment      1: Step Time =    1.000,"P-5-1",           647,       5.75286,       10.7789,            0.,NA,NA,"",   2.09817E+06,   2.24335E+06,   2.24335E+06
C:/temp/Job-5.odb,Step-1,Increment      1: Step Time =    1.000,"P-5-1",           648,       5.13072,       20.8172,            0.,NA,NA,"",   1.64131E+06,   1.79988E+06,   1.79988E+06
C:/temp/Job-5.odb,Step-1,Increment      1: Step Time =    1.000,"P-5-1",           649,       4.78249,       30.6625,            0.,NA,NA,"",   1.32749E+06,   1.46833E+06,   1.46833E+06
C:/temp/Job-5.odb,Step-1,Increment      1: Step Time =    1.000,"P-5-1",           650,       4.73896,       40.4727,            0.,NA,NA,"",   1.05745E+06,   1.17170E+06,   1.17170E+06
C:/temp/Job-5.odb,Step-1,Increment      1: Step Time =    1.000,"P-5-1",           651,       4.76095,       50.2896,            0.,NA,NA,"",   804.047E+03,   889.185E+03,   889.185E+03
C:/temp/Job-5.odb,Step-1,Increment      1: Step Time =    1.000,"P-5-1",           652,       4.77630,       60.1518,            0.,NA,NA,"",   565.437E+03,   621.296E+03,   621.296E+03
C:/temp/Job-5.odb,Step-1,Increment      1: Step Time =    1.000,"P-5-1",           653,       4.84190,       70.0138,            0.,NA,NA,"",   357.855E+03,   385.726E+03,   385.726E+03
C:/temp/Job-5.odb,Step-1,Increment      1: Step Time =    1.000,"P-5-1",           654,       5.05230,       79.9751,            0.,NA,NA,"",   197.697E+03,   198.801E+03,   198.801E+03
C:/temp/Job-5.odb,Step-1,Increment      1: Step Time =    1.000,"P-5-1",           655,       5.19570,       90.0681,            0.,NA,NA,"",   109.719E+03,   82.4368E+03,   82.4368E+03
C:/temp/Job-5.odb,Step-1,Increment      1: Step Time =    1.000,"P-5-1",           656,       5.12588,       100.134,            0.,NA,NA,"",   86.6164E+03,  -56.5773E+03,  -56.5773E+03
C:/temp/Job-5.odb,Step-1,Increment      1: Step Time =    1.000,"P-5-1",           657,       5.01683,       110.179,            0.,NA,NA,"",   111.259E+03,   84.9551E+03,   84.9551E+03
C:/temp/Job-5.odb,Step-1,Increment      1: Step Time =    1.000,"P-5-1",           658,       4.81920,       120.002,            0.,NA,NA,"",   199.020E+03,   199.748E+03,   199.748E+03
C:/temp/Job-5.odb,Step-1,Increment      1: Step Time =    1.000,"P-5-1",           659,       4.89330,       129.773,            0.,NA,NA,"",   353.892E+03,   380.371E+03,   380.371E+03
C:/temp/Job-5.odb,Step-1,Increment      1: Step Time =    1.000,"P-5-1",           660,       6.00643,       139.719,            0.,NA,NA,"",   563.032E+03,   615.906E+03,   615.906E+03
C:/temp/Job-5.odb,Step-1,Increment      1: Step Time =    1.000,"P-5-1",           661,       5.91409,       150.888,            0.,NA,NA,"",   844.426E+03,   931.122E+03,   931.122E+03
C:/temp/Job-5.odb,Step-1,Increment      1: Step Time =    1.000,"P-5-1",           662,       4.72161,       160.569,            0.,NA,NA,"",   1.08659E+06,   1.20461E+06,   1.20461E+06
C:/temp/Job-5.odb,Step-1,Increment      1: Step Time =    1.000,"P-5-1",           663,       4.73035,       170.250,            0.,NA,NA,"",   1.35760E+06,   1.50082E+06,   1.50082E+06
C:/temp/Job-5.odb,Step-1,Increment      1: Step Time =    1.000,"P-5-1",           664,       5.02890,       179.971,            0.,NA,NA,"",   1.66907E+06,   1.82913E+06,   1.82913E+06
C:/temp/Job-5.odb,Step-1,Increment      1: Step Time =    1.000,"P-5-1",           665,       5.11502,       189.894,            0.,NA,NA,"",   2.11980E+06,   2.27047E+06,   2.27047E+06
C:/temp/Job-5.odb,Step-1,Increment      1: Step Time =    1.000,"P-5-1",           666,       123.530,       51.2743,            0.,NA,NA,"",   3.30570E+06,   3.39234E+06,   3.39234E+06
C:/temp/Job-5.odb,Step-1,Increment      1: Step Time =    1.000,"P-5-1",           667,       40.5789,       99.6700,            0.,NA,NA,"",   456.879E+03,  -502.033E+03,  -502.033E+03
C:/temp/Job-5.odb,Step-1,Increment      1: Step Time =    1.000,"P-5-1",           668,       100.292,       157.730,            0.,NA,NA,"",   3.17132E+06,   3.32951E+06,   3.32951E+06
C:/temp/Job-5.odb,Step-1,Increment      1: Step Time =    1.000,"P-5-1",           669,       151.880,       128.026,            0.,NA,NA,"",   1.32277E+06,   544.793E+03,   544.793E+03
C:/temp/Job-5.odb,Step-1,Increment      1: Step Time =    1.000,"P-5-1",           670,       47.0123,       126.486,            0.,NA,NA,"",   467.150E+03,  -415.694E+03,  -415.694E+03
C:/temp/Job-5.odb,Step-1,Increment      1: Step Time =    1.000,"P-5-1",           671,       130.250,       50.1284,            0.,NA,NA,"",   2.53794E+06,   2.61048E+06,   2.61048E+06
C:/temp/Job-5.odb,Step-1,Increment      1: Step Time =    1.000,"P-5-1",           672,       54.5798,       67.0142,            0.,NA,NA,"",   565.298E+03,  -80.5677E+03,  -80.5677E+03
C:/temp/Job-5.odb,Step-1,Increment      1: Step Time =    1.000,"P-5-1",           673,       69.2287,       144.647,            0.,NA,NA,"",   1.28252E+06,   1.24506E+06,   1.24506E+06
C:/temp/Job-5.odb,Step-1,Increment      1: Step Time =    1.000,"P-5-1",           674,       122.808,       149.975,            0.,NA,NA,"",   3.29006E+06,   3.38653E+06,   3.38653E+06
C:/temp/Job-5.odb,Step-1,Increment      1: Step Time =    1.000,"P-5-1",           675,       140.071,       9.85514,            0.,NA,NA,"",   964.821E+03,   952.255E+03,   952.255E+03
C:/temp/Job-5.odb,Step-1,Increment      1: Step Time =    1.000,"P-5-1",           676,       130.325,       10.0330,            0.,NA,NA,"",   897.355E+03,   899.585E+03,   899.585E+03
C:/temp/Job-5.odb,Step-1,Increment      1: Step Time =    1.000,"P-5-1",           677,       110.155,       10.4885,            0.,NA,NA,"",   859.410E+03,   893.021E+03,   893.021E+03
C:/temp/Job-5.odb,Step-1,Increment      1: Step Time =    1.000,"P-5-1",           678,       70.8694,       9.49334,            0.,NA,NA,"",   1.62140E+06,   1.58491E+06,   1.58491E+06
C:/temp/Job-5.odb,Step-1,Increment      1: Step Time =    1.000,"P-5-1",           679,       62.0387,       11.0860,            0.,NA,NA,"",   1.80891E+06,   1.76517E+06,   1.76517E+06
C:/temp/Job-5.odb,Step-1,Increment      1: Step Time =    1.000,"P-5-1",           680,       190.574,       139.711,            0.,NA,NA,"",   1.07395E+06,   1.21149E+06,   1.21149E+06
C:/temp/Job-5.odb,Step-1,Increment      1: Step Time =    1.000,"P-5-1",           681,       190.138,       100.378,            0.,NA,NA,"",    1.2176E+06,   1.38736E+06,   1.38736E+06
C:/temp/Job-5.odb,Step-1,Increment      1: Step Time =    1.000,"P-5-1",           682,       190.141,       90.3803,            0.,NA,NA,"",   1.21271E+06,   1.39114E+06,   1.39114E+06
C:/temp/Job-5.odb,Step-1,Increment      1: Step Time =    1.000,"P-5-1",           683,       190.332,       80.5252,            0.,NA,NA,"",   1.19311E+06,   1.37278E+06,   1.37278E+06
C:/temp/Job-5.odb,Step-1,Increment      1: Step Time =    1.000,"P-5-1",           684,       188.639,       62.0111,            0.,NA,NA,"",   1.13142E+06,   1.25653E+06,   1.25653E+06
C:/temp/Job-5.odb,Step-1,Increment      1: Step Time =    1.000,"P-5-1",           685,       59.9032,       190.391,            0.,NA,NA,"",   1.81897E+06,   1.78342E+06,   1.78342E+06
C:/temp/Job-5.odb,Step-1,Increment      1: Step Time =    1.000,"P-5-1",           686,       69.8413,       189.992,            0.,NA,NA,"",   1.65027E+06,   1.61082E+06,   1.61082E+06
C:/temp/Job-5.odb,Step-1,Increment      1: Step Time =    1.000,"P-5-1",           687,       79.7335,       190.075,            0.,NA,NA,"",   1.43818E+06,   1.40821E+06,   1.40821E+06
C:/temp/Job-5.odb,Step-1,Increment      1: Step Time =    1.000,"P-5-1",           688,       89.8469,       189.764,            0.,NA,NA,"",   1.20851E+06,   1.20062E+06,   1.20062E+06
C:/temp/Job-5.odb,Step-1,Increment      1: Step Time =    1.000,"P-5-1",           689,       100.150,       189.533,            0.,NA,NA,"",   995.646E+03,   1.01439E+06,   1.01439E+06
C:/temp/Job-5.odb,Step-1,Increment      1: Step Time =    1.000,"P-5-1",           690,       120.247,       190.200,            0.,NA,NA,"",   813.075E+03,   836.087E+03,   836.087E+03
C:/temp/Job-5.odb,Step-1,Increment      1: Step Time =    1.000,"P-5-1",           691,       129.715,       190.099,            0.,NA,NA,"",   883.421E+03,   887.689E+03,   887.689E+03
C:/temp/Job-5.odb,Step-1,Increment      1: Step Time =    1.000,"P-5-1",           692,       9.64168,       60.2946,            0.,NA,NA,"",   565.854E+03,   615.115E+03,   615.115E+03
C:/temp/Job-5.odb,Step-1,Increment      1: Step Time =    1.000,"P-5-1",           693,       9.73751,       69.9759,            0.,NA,NA,"",   339.290E+03,   369.099E+03,   369.099E+03
C:/temp/Job-5.odb,Step-1,Increment      1: Step Time =    1.000,"P-5-1",           694,       10.0631,       79.8339,            0.,NA,NA,"",   176.712E+03,   183.644E+03,   183.644E+03
C:/temp/Job-5.odb,Step-1,Increment      1: Step Time =    1.000,"P-5-1",           695,       10.4046,       90.1726,            0.,NA,NA,"",   121.096E+03,   49.1084E+03,   49.1084E+03
C:/temp/Job-5.odb,Step-1,Increment      1: Step Time =    1.000,"P-5-1",           696,       10.0820,       110.465,            0.,NA,NA,"",   121.926E+03,   91.9698E+03,   91.9698E+03
C:/temp/Job-5.odb,Step-1,Increment      1: Step Time =    1.000,"P-5-1",           697,       9.65852,       129.388,            0.,NA,NA,"",   327.993E+03,   356.243E+03,   356.243E+03
C:/temp/Job-5.odb,Step-1,Increment      1: Step Time =    1.000,"P-5-1",           698,       11.2249,       138.383,            0.,NA,NA,"",   536.736E+03,   580.946E+03,   580.946E+03
C:/temp/Job-5.odb,Step-1,Increment      1: Step Time =    1.000,"P-5-1",           699,       120.327,       10.2623,            0.,NA,NA,"",   839.909E+03,   863.656E+03,   863.656E+03
C:/temp/Job-5.odb,Step-1,Increment      1: Step Time =    1.000,"P-5-1",           700,       99.8730,       10.3546,            0.,NA,NA,"",   989.827E+03,   1.00968E+06,   1.00968E+06
C:/temp/Job-5.odb,Step-1,Increment      1: Step Time =    1.000,"P-5-1",           701,       89.7896,       9.95592,            0.,NA,NA,"",   1.19714E+06,   1.18672E+06,   1.18672E+06
C:/temp/Job-5.odb,Step-1,Increment      1: Step Time =    1.000,"P-5-1",           702,       80.1638,       9.35777,            0.,NA,NA,"",   1.40326E+06,   1.37515E+06,   1.37515E+06
C:/temp/Job-5.odb,Step-1,Increment      1: Step Time =    1.000,"P-5-1",           703,       190.343,       129.914,            0.,NA,NA,"",   1.14032E+06,   1.30189E+06,   1.30189E+06
C:/temp/Job-5.odb,Step-1,Increment      1: Step Time =    1.000,"P-5-1",           704,       190.278,       120.147,            0.,NA,NA,"",   1.19121E+06,   1.36984E+06,   1.36984E+06
C:/temp/Job-5.odb,Step-1,Increment      1: Step Time =    1.000,"P-5-1",           705,       190.170,       110.308,            0.,NA,NA,"",   1.21297E+06,   1.39249E+06,   1.39249E+06
C:/temp/Job-5.odb,Step-1,Increment      1: Step Time =    1.000,"P-5-1",           706,       190.281,       71.0359,            0.,NA,NA,"",   1.14252E+06,   1.30545E+06,   1.30545E+06
C:/temp/Job-5.odb,Step-1,Increment      1: Step Time =    1.000,"P-5-1",           707,       110.426,       189.896,            0.,NA,NA,"",   842.135E+03,   873.936E+03,   873.936E+03
C:/temp/Job-5.odb,Step-1,Increment      1: Step Time =    1.000,"P-5-1",           708,       138.676,       188.807,            0.,NA,NA,"",   1.01188E+06,   999.774E+03,   999.774E+03
C:/temp/Job-5.odb,Step-1,Increment      1: Step Time =    1.000,"P-5-1",           709,       10.1977,       100.331,            0.,NA,NA,"",   125.245E+03,  -79.8395E+03,  -79.8395E+03
C:/temp/Job-5.odb,Step-1,Increment      1: Step Time =    1.000,"P-5-1",           710,       9.70543,       120.087,            0.,NA,NA,"",   177.781E+03,   184.654E+03,   184.654E+03
C:/temp/Job-5.odb,Step-1,Increment      1: Step Time =    1.000,"P-5-1",           711,       90.4920,       158.715,            0.,NA,NA,"",   2.75361E+06,   2.86636E+06,   2.86636E+06
C:/temp/Job-5.odb,Step-1,Increment      1: Step Time =    1.000,"P-5-1",           712,       109.791,       156.423,            0.,NA,NA,"",   3.26582E+06,   3.43797E+06,   3.43797E+06
C:/temp/Job-5.odb,Step-1,Increment      1: Step Time =    1.000,"P-5-1",           713,       155.048,       123.177,            0.,NA,NA,"",   1.25307E+06,   20.6016E+03,   20.6016E+03
C:/temp/Job-5.odb,Step-1,Increment      1: Step Time =    1.000,"P-5-1",           714,       44.6956,       121.367,            0.,NA,NA,"",   446.964E+03,  -448.369E+03,  -448.369E+03
C:/temp/Job-5.odb,Step-1,Increment      1: Step Time =    1.000,"P-5-1",           715,       159.068,       99.2356,            0.,NA,NA,"",   1.00218E+06,  -1.01532E+06,  -1.01532E+06
C:/temp/Job-5.odb,Step-1,Increment      1: Step Time =    1.000,"P-5-1",           716,       138.895,       56.3910,            0.,NA,NA,"",   2.04049E+06,   1.99825E+06,   1.99825E+06
C:/temp/Job-5.odb,Step-1,Increment      1: Step Time =    1.000,"P-5-1",           717,       156.214,       80.8719,            0.,NA,NA,"",   1.17347E+06,  -868.158E+03,  -868.158E+03
C:/temp/Job-5.odb,Step-1,Increment      1: Step Time =    1.000,"P-5-1",           718,       56.4409,       59.0040,            0.,NA,NA,"",   967.413E+03,   759.905E+03,   759.905E+03
C:/temp/Job-5.odb,Step-1,Increment      1: Step Time =    1.000,"P-5-1",           719,       42.4643,       77.6105,            0.,NA,NA,"",   376.827E+03,  -360.260E+03,  -360.260E+03
C:/temp/Job-5.odb,Step-1,Increment      1: Step Time =    1.000,"P-5-1",           720,       42.0125,       110.119,            0.,NA,NA,"",   477.848E+03,  -516.733E+03,  -516.733E+03
C:/temp/Job-5.odb,Step-1,Increment      1: Step Time =    1.000,"P-5-1",           721,       57.7003,       141.488,            0.,NA,NA,"",   994.715E+03,   802.230E+03,   802.230E+03
C:/temp/Job-5.odb,Step-1,Increment      1: Step Time =    1.000,"P-5-1",           722,       60.3770,       55.9588,            0.,NA,NA,"",   1.17440E+06,   1.00307E+06,   1.00307E+06
C:/temp/Job-5.odb,Step-1,Increment      1: Step Time =    1.000,"P-5-1",           723,       142.962,       59.6390,            0.,NA,NA,"",   1.82411E+06,   1.69318E+06,   1.69318E+06
C:/temp/Job-5.odb,Step-1,Increment      1: Step Time =    1.000,"P-5-1",           724,       158.736,       110.532,            0.,NA,NA,"",   1.03462E+06,  -938.490E+03,  -938.490E+03
C:/temp/Job-5.odb,Step-1,Increment      1: Step Time =    1.000,"P-5-1",           725,       73.1921,       44.6329,            0.,NA,NA,"",   2.09058E+06,   2.03105E+06,   2.03105E+06
C:/temp/Job-5.odb,Step-1,Increment      1: Step Time =    1.000,"P-5-1",           726,       125.613,       47.2834,            0.,NA,NA,"",   2.73598E+06,   2.84887E+06,   2.84887E+06
C:/temp/Job-5.odb,Step-1,Increment      1: Step Time =    1.000,"P-5-1",           727,       120.828,       44.8950,            0.,NA,NA,"",   2.89242E+06,   3.03573E+06,   3.03573E+06
C:/temp/Job-5.odb,Step-1,Increment      1: Step Time =    1.000,"P-5-1",           728,       79.6975,       43.3301,            0.,NA,NA,"",   2.36483E+06,   2.37845E+06,   2.37845E+06
C:/temp/Job-5.odb,Step-1,Increment      1: Step Time =    1.000,"P-5-1",           729,       160.121,       89.3596,            0.,NA,NA,"",   950.241E+03,  -827.108E+03,  -827.108E+03
C:/temp/Job-5.odb,Step-1,Increment      1: Step Time =    1.000,"P-5-1",           730,       40.3382,       88.1596,            0.,NA,NA,"",   386.568E+03,  -423.711E+03,  -423.711E+03
C:/temp/Job-5.odb,Step-1,Increment      1: Step Time =    1.000,"P-5-1",           731,       59.5976,       17.3502,            0.,NA,NA,"",   1.92425E+06,   1.84037E+06,   1.84037E+06
C:/temp/Job-5.odb,Step-1,Increment      1: Step Time =    1.000,"P-5-1",           732,       14.6049,       60.4103,            0.,NA,NA,"",   581.558E+03,   617.408E+03,   617.408E+03
C:/temp/Job-5.odb,Step-1,Increment      1: Step Time =    1.000,"P-5-1",           733,       182.097,       60.0793,            0.,NA,NA,"",   1.32473E+06,   1.34669E+06,   1.34669E+06
C:/temp/Job-5.odb,Step-1,Increment      1: Step Time =    1.000,"P-5-1",           734,       59.6613,       185.538,            0.,NA,NA,"",   1.88338E+06,   1.81873E+06,   1.81873E+06
C:/temp/Job-5.odb,Step-1,Increment      1: Step Time =    1.000,"P-5-1",           735,       140.223,       15.0155,            0.,NA,NA,"",   1.16717E+06,   1.14894E+06,   1.14894E+06
C:/temp/Job-5.odb,Step-1,Increment      1: Step Time =    1.000,"P-5-1",           736,       15.9913,       136.891,            0.,NA,NA,"",   510.542E+03,   539.290E+03,   539.290E+03
C:/temp/Job-5.odb,Step-1,Increment      1: Step Time =    1.000,"P-5-1",           737,       185.867,       139.640,            0.,NA,NA,"",   1.20742E+06,   1.29464E+06,   1.29464E+06
C:/temp/Job-5.odb,Step-1,Increment      1: Step Time =    1.000,"P-5-1",           738,       137.426,       184.166,            0.,NA,NA,"",   1.19592E+06,   1.18341E+06,   1.18341E+06
C:/temp/Job-5.odb,Step-1,Increment      1: Step Time =    1.000,"P-5-1",           739,       161.475,       79.7186,            0.,NA,NA,"",   1.25813E+06,   214.087E+03,   214.087E+03
C:/temp/Job-5.odb,Step-1,Increment      1: Step Time =    1.000,"P-5-1",           740,       39.9599,       79.8812,            0.,NA,NA,"",   322.179E+03,  -323.159E+03,  -323.159E+03
C:/temp/Job-5.odb,Step-1,Increment      1: Step Time =    1.000,"P-5-1",           741,       53.7337,       54.8931,            0.,NA,NA,"",   1.24013E+06,   1.03302E+06,   1.03302E+06
C:/temp/Job-5.odb,Step-1,Increment      1: Step Time =    1.000,"P-5-1",           742,       149.452,       58.4378,            0.,NA,NA,"",   1.92254E+06,   1.66378E+06,   1.66378E+06
C:/temp/Job-5.odb,Step-1,Increment      1: Step Time =    1.000,"P-5-1",           743,       70.6309,       151.196,            0.,NA,NA,"",   1.87373E+06,   1.80148E+06,   1.80148E+06
C:/temp/Job-5.odb,Step-1,Increment      1: Step Time =    1.000,"P-5-1",           744,       122.844,       156.149,            0.,NA,NA,"",   2.63888E+06,   2.78145E+06,   2.78145E+06
C:/temp/Job-5.odb,Step-1,Increment      1: Step Time =    1.000,"P-5-1",           745,       34.0508,       97.3972,            0.,NA,NA,"",   226.672E+03,  -256.187E+03,  -256.187E+03
C:/temp/Job-5.odb,Step-1,Increment      1: Step Time =    1.000,"P-5-1",           746,       126.159,       153.473,            0.,NA,NA,"",   2.64718E+06,   2.75930E+06,   2.75930E+06
C:/temp/Job-5.odb,Step-1,Increment      1: Step Time =    1.000,"P-5-1",           747,       14.7402,       69.9275,            0.,NA,NA,"",   335.432E+03,   358.556E+03,   358.556E+03
C:/temp/Job-5.odb,Step-1,Increment      1: Step Time =    1.000,"P-5-1",           748,       71.5344,       13.9811,            0.,NA,NA,"",   1.74640E+06,   1.68646E+06,   1.68646E+06
C:/temp/Job-5.odb,Step-1,Increment      1: Step Time =    1.000,"P-5-1",           749,       130.518,       15.1144,            0.,NA,NA,"",   1.13393E+06,   1.14444E+06,   1.14444E+06
C:/temp/Job-5.odb,Step-1,Increment      1: Step Time =    1.000,"P-5-1",           750,       14.2375,       128.980,            0.,NA,NA,"",   314.269E+03,   337.526E+03,   337.526E+03
C:/temp/Job-5.odb,Step-1,Increment      1: Step Time =    1.000,"P-5-1",           751,       185.470,       129.825,            0.,NA,NA,"",   1.21240E+06,   1.32709E+06,   1.32709E+06
C:/temp/Job-5.odb,Step-1,Increment      1: Step Time =    1.000,"P-5-1",           752,       69.7418,       184.735,            0.,NA,NA,"",   1.80161E+06,   1.73415E+06,   1.73415E+06
C:/temp/Job-5.odb,Step-1,Increment      1: Step Time =    1.000,"P-5-1",           753,       129.561,       185.192,            0.,NA,NA,"",   1.11112E+06,   1.12372E+06,   1.12372E+06
C:/temp/Job-5.odb,Step-1,Increment      1: Step Time =    1.000,"P-5-1",           754,       185.660,       71.5735,            0.,NA,NA,"",   1.19979E+06,   1.32195E+06,   1.32195E+06
C:/temp/Job-5.odb,Step-1,Increment      1: Step Time =    1.000,"P-5-1",           755,       49.0023,       66.4979,            0.,NA,NA,"",   617.030E+03,   44.2797E+03,   44.2797E+03
C:/temp/Job-5.odb,Step-1,Increment      1: Step Time =    1.000,"P-5-1",           756,       37.1917,       105.575,            0.,NA,NA,"",   310.039E+03,  -351.410E+03,  -351.410E+03
C:/temp/Job-5.odb,Step-1,Increment      1: Step Time =    1.000,"P-5-1",           757,       163.439,       110.192,            0.,NA,NA,"",   819.340E+03,  -334.887E+03,  -334.887E+03
C:/temp/Job-5.odb,Step-1,Increment      1: Step Time =    1.000,"P-5-1",           758,       148.839,       132.627,            0.,NA,NA,"",   1.44930E+06,   1.13457E+06,   1.13457E+06
C:/temp/Job-5.odb,Step-1,Increment      1: Step Time =    1.000,"P-5-1",           759,       49.4557,       131.620,            0.,NA,NA,"",   551.864E+03,  -178.312E+03,  -178.312E+03
C:/temp/Job-5.odb,Step-1,Increment      1: Step Time =    1.000,"P-5-1",           760,       14.8349,       79.4650,            0.,NA,NA,"",   163.950E+03,   169.398E+03,   169.398E+03
C:/temp/Job-5.odb,Step-1,Increment      1: Step Time =    1.000,"P-5-1",           761,       120.556,       15.3936,            0.,NA,NA,"",   1.10698E+06,   1.15192E+06,   1.15192E+06
C:/temp/Job-5.odb,Step-1,Increment      1: Step Time =    1.000,"P-5-1",           762,       79.9479,       13.9656,            0.,NA,NA,"",   1.60976E+06,   1.56794E+06,   1.56794E+06
C:/temp/Job-5.odb,Step-1,Increment      1: Step Time =    1.000,"P-5-1",           763,       14.6744,       120.370,            0.,NA,NA,"",   164.459E+03,   170.677E+03,   170.677E+03
C:/temp/Job-5.odb,Step-1,Increment      1: Step Time =    1.000,"P-5-1",           764,       185.494,       120.219,            0.,NA,NA,"",   1.13333E+06,   1.27875E+06,   1.27875E+06
C:/temp/Job-5.odb,Step-1,Increment      1: Step Time =    1.000,"P-5-1",           765,       79.6480,       185.329,            0.,NA,NA,"",   1.64149E+06,   1.59911E+06,   1.59911E+06
C:/temp/Job-5.odb,Step-1,Increment      1: Step Time =    1.000,"P-5-1",           766,       185.402,       80.6853,            0.,NA,NA,"",   1.12168E+06,   1.27016E+06,   1.27016E+06
C:/temp/Job-5.odb,Step-1,Increment      1: Step Time =    1.000,"P-5-1",           767,       120.453,       185.344,            0.,NA,NA,"",   1.06475E+06,   1.10943E+06,   1.10943E+06
C:/temp/Job-5.odb,Step-1,Increment      1: Step Time =    1.000,"P-5-1",           768,       91.7554,       162.796,            0.,NA,NA,"",   2.49119E+06,   2.60379E+06,   2.60379E+06
C:/temp/Job-5.odb,Step-1,Increment      1: Step Time =    1.000,"P-5-1",           769,       105.705,       161.438,            0.,NA,NA,"",   2.67543E+06,   2.85764E+06,   2.85764E+06
C:/temp/Job-5.odb,Step-1,Increment      1: Step Time =    1.000,"P-5-1",           770,       163.165,       104.788,            0.,NA,NA,"",   656.563E+03,  -567.104E+03,  -567.104E+03
C:/temp/Job-5.odb,Step-1,Increment      1: Step Time =    1.000,"P-5-1",           771,       100.554,       161.766,            0.,NA,NA,"",   2.65731E+06,   2.82547E+06,   2.82547E+06
C:/temp/Job-5.odb,Step-1,Increment      1: Step Time =    1.000,"P-5-1",           772,       45.3810,       74.4338,            0.,NA,NA,"",   441.662E+03,  -389.310E+03,  -389.310E+03
C:/temp/Job-5.odb,Step-1,Increment      1: Step Time =    1.000,"P-5-1",           773,       154.818,       76.5812,            0.,NA,NA,"",   1.27395E+06,  -359.439E+03,  -359.439E+03
C:/temp/Job-5.odb,Step-1,Increment      1: Step Time =    1.000,"P-5-1",           774,       68.4728,       49.2667,            0.,NA,NA,"",   1.75390E+06,   1.65848E+06,   1.65848E+06
C:/temp/Job-5.odb,Step-1,Increment      1: Step Time =    1.000,"P-5-1",           775,       123.152,       39.6542,            0.,NA,NA,"",   2.34529E+06,   2.47973E+06,   2.47973E+06
C:/temp/Job-5.odb,Step-1,Increment      1: Step Time =    1.000,"P-5-1",           776,       110.192,       15.8017,            0.,NA,NA,"",   1.14058E+06,   1.20498E+06,   1.20498E+06
C:/temp/Job-5.odb,Step-1,Increment      1: Step Time =    1.000,"P-5-1",           777,       15.6152,       90.4163,            0.,NA,NA,"",   121.759E+03,  -35.7291E+03,  -35.7291E+03
C:/temp/Job-5.odb,Step-1,Increment      1: Step Time =    1.000,"P-5-1",           778,       15.2093,       110.827,            0.,NA,NA,"",   118.807E+03,   43.9538E+03,   43.9538E+03
C:/temp/Job-5.odb,Step-1,Increment      1: Step Time =    1.000,"P-5-1",           779,       89.3917,       15.0611,            0.,NA,NA,"",   1.46482E+06,   1.45748E+06,   1.45748E+06
C:/temp/Job-5.odb,Step-1,Increment      1: Step Time =    1.000,"P-5-1",           780,       185.243,       110.482,            0.,NA,NA,"",   1.00808E+06,   1.15767E+06,   1.15767E+06
C:/temp/Job-5.odb,Step-1,Increment      1: Step Time =    1.000,"P-5-1",           781,       89.5582,       184.753,            0.,NA,NA,"",   1.47073E+06,   1.46788E+06,   1.46788E+06
C:/temp/Job-5.odb,Step-1,Increment      1: Step Time =    1.000,"P-5-1",           782,       185.161,       90.5849,            0.,NA,NA,"",   990.018E+03,   1.13515E+06,   1.13515E+06
C:/temp/Job-5.odb,Step-1,Increment      1: Step Time =    1.000,"P-5-1",           783,       110.849,       184.925,            0.,NA,NA,"",   1.10641E+06,   1.16493E+06,   1.16493E+06
C:/temp/Job-5.odb,Step-1,Increment      1: Step Time =    1.000,"P-5-1",           784,       34.1386,       91.1498,            0.,NA,NA,"",   203.643E+03,  -232.607E+03,  -232.607E+03
C:/temp/Job-5.odb,Step-1,Increment      1: Step Time =    1.000,"P-5-1",           785,       164.389,       94.8061,            0.,NA,NA,"",   612.419E+03,  -319.990E+03,  -319.990E+03
C:/temp/Job-5.odb,Step-1,Increment      1: Step Time =    1.000,"P-5-1",           786,       141.261,       52.6538,            0.,NA,NA,"",   2.09514E+06,   2.00420E+06,   2.00420E+06
C:/temp/Job-5.odb,Step-1,Increment      1: Step Time =    1.000,"P-5-1",           787,       57.4872,       51.9433,            0.,NA,NA,"",   1.44686E+06,   1.24630E+06,   1.24630E+06
C:/temp/Job-5.odb,Step-1,Increment      1: Step Time =    1.000,"P-5-1",           788,       62.2496,       144.813,            0.,NA,NA,"",   1.24053E+06,   1.09178E+06,   1.09178E+06
C:/temp/Job-5.odb,Step-1,Increment      1: Step Time =    1.000,"P-5-1",           789,       132.638,       46.3652,            0.,NA,NA,"",   2.30750E+06,   2.35361E+06,   2.35361E+06
C:/temp/Job-5.odb,Step-1,Increment      1: Step Time =    1.000,"P-5-1",           790,       67.5750,       42.0547,            0.,NA,NA,"",   2.02392E+06,   1.88747E+06,   1.88747E+06
C:/temp/Job-5.odb,Step-1,Increment      1: Step Time =    1.000,"P-5-1",           791,       99.6428,       15.5681,            0.,NA,NA,"",   1.27673E+06,   1.32034E+06,   1.32034E+06
C:/temp/Job-5.odb,Step-1,Increment      1: Step Time =    1.000,"P-5-1",           792,       15.1617,       100.608,            0.,NA,NA,"",   138.151E+03,  -100.331E+03,  -100.331E+03
C:/temp/Job-5.odb,Step-1,Increment      1: Step Time =    1.000,"P-5-1",           793,       185.317,       100.574,            0.,NA,NA,"",   931.071E+03,   1.03978E+06,   1.03978E+06
C:/temp/Job-5.odb,Step-1,Increment      1: Step Time =    1.000,"P-5-1",           794,       100.316,       184.254,            0.,NA,NA,"",   1.27881E+06,   1.32293E+06,   1.32293E+06
C:/temp/Job-5.odb,Step-1,Increment      1: Step Time =    1.000,"P-5-1",           795,       95.9500,       162.230,            0.,NA,NA,"",   2.58302E+06,   2.72829E+06,   2.72829E+06
C:/temp/Job-5.odb,Step-1,Increment      1: Step Time =    1.000,"P-5-1",           796,       111.797,       160.930,            0.,NA,NA,"",   2.66663E+06,   2.84683E+06,   2.84683E+06
C:/temp/Job-5.odb,Step-1,Increment      1: Step Time =    1.000,"P-5-1",           797,       88.3255,       164.498,            0.,NA,NA,"",   2.36467E+06,   2.43594E+06,   2.43594E+06
C:/temp/Job-5.odb,Step-1,Increment      1: Step Time =    1.000,"P-5-1",           798,       59.6873,       148.402,            0.,NA,NA,"",   1.49018E+06,   1.30067E+06,   1.30067E+06
C:/temp/Job-5.odb,Step-1,Increment      1: Step Time =    1.000,"P-5-1",           799,       14.6858,       65.1793,            0.,NA,NA,"",   451.932E+03,   481.318E+03,   481.318E+03
C:/temp/Job-5.odb,Step-1,Increment      1: Step Time =    1.000,"P-5-1",           800,       63.6458,       16.1527,            0.,NA,NA,"",   1.87962E+06,   1.80507E+06,   1.80507E+06
C:/temp/Job-5.odb,Step-1,Increment      1: Step Time =    1.000,"P-5-1",           801,       183.739,       63.7356,            0.,NA,NA,"",   1.26840E+06,   1.33140E+06,   1.33140E+06
C:/temp/Job-5.odb,Step-1,Increment      1: Step Time =    1.000,"P-5-1",           802,       64.6204,       185.089,            0.,NA,NA,"",   1.84802E+06,   1.77928E+06,   1.77928E+06
C:/temp/Job-5.odb,Step-1,Increment      1: Step Time =    1.000,"P-5-1",           803,       135.408,       15.1555,            0.,NA,NA,"",   1.15675E+06,   1.14976E+06,   1.14976E+06
C:/temp/Job-5.odb,Step-1,Increment      1: Step Time =    1.000,"P-5-1",           804,       14.7981,       133.101,            0.,NA,NA,"",   409.591E+03,   437.895E+03,   437.895E+03
C:/temp/Job-5.odb,Step-1,Increment      1: Step Time =    1.000,"P-5-1",           805,       185.659,       134.707,            0.,NA,NA,"",   1.21982E+06,   1.31939E+06,   1.31939E+06
C:/temp/Job-5.odb,Step-1,Increment      1: Step Time =    1.000,"P-5-1",           806,       133.667,       184.906,            0.,NA,NA,"",   1.14857E+06,   1.14812E+06,   1.14812E+06
C:/temp/Job-5.odb,Step-1,Increment      1: Step Time =    1.000,"P-5-1",           807,       166.439,       81.2759,            0.,NA,NA,"",   1.18679E+06,   858.515E+03,   858.515E+03
C:/temp/Job-5.odb,Step-1,Increment      1: Step Time =    1.000,"P-5-1",           808,       35.9615,       83.0228,            0.,NA,NA,"",   231.938E+03,  -247.003E+03,  -247.003E+03
C:/temp/Job-5.odb,Step-1,Increment      1: Step Time =    1.000,"P-5-1",           809,       45.5310,       60.4900,            0.,NA,NA,"",   870.452E+03,   672.125E+03,   672.125E+03
C:/temp/Job-5.odb,Step-1,Increment      1: Step Time =    1.000,"P-5-1",           810,       153.608,       60.9610,            0.,NA,NA,"",   1.86682E+06,   1.54340E+06,   1.54340E+06
C:/temp/Job-5.odb,Step-1,Increment      1: Step Time =    1.000,"P-5-1",           811,       145.331,       55.6441,            0.,NA,NA,"",   1.99716E+06,   1.82094E+06,   1.82094E+06
C:/temp/Job-5.odb,Step-1,Increment      1: Step Time =    1.000,"P-5-1",           812,       74.6919,       154.574,            0.,NA,NA,"",   2.14830E+06,   2.11317E+06,   2.11317E+06
C:/temp/Job-5.odb,Step-1,Increment      1: Step Time =    1.000,"P-5-1",           813,       36.3082,       101.165,            0.,NA,NA,"",   286.624E+03,  -326.355E+03,  -326.355E+03
C:/temp/Job-5.odb,Step-1,Increment      1: Step Time =    1.000,"P-5-1",           814,       130.091,       150.879,            0.,NA,NA,"",   2.54445E+06,   2.61772E+06,   2.61772E+06
C:/temp/Job-5.odb,Step-1,Increment      1: Step Time =    1.000,"P-5-1",           815,       14.2995,       124.795,            0.,NA,NA,"",   230.152E+03,   246.787E+03,   246.787E+03
C:/temp/Job-5.odb,Step-1,Increment      1: Step Time =    1.000,"P-5-1",           816,       125.552,       15.1674,            0.,NA,NA,"",   1.11297E+06,   1.14222E+06,   1.14222E+06
C:/temp/Job-5.odb,Step-1,Increment      1: Step Time =    1.000,"P-5-1",           817,       14.7680,       74.6434,            0.,NA,NA,"",   238.075E+03,   254.538E+03,   254.538E+03
C:/temp/Job-5.odb,Step-1,Increment      1: Step Time =    1.000,"P-5-1",           818,       75.7554,       13.6611,            0.,NA,NA,"",   1.67332E+06,   1.62138E+06,   1.62138E+06
C:/temp/Job-5.odb,Step-1,Increment      1: Step Time =    1.000,"P-5-1",           819,       185.465,       124.990,            0.,NA,NA,"",   1.18376E+06,   1.31512E+06,   1.31512E+06
C:/temp/Job-5.odb,Step-1,Increment      1: Step Time =    1.000,"P-5-1",           820,       185.597,       75.9868,            0.,NA,NA,"",   1.16957E+06,   1.30659E+06,   1.30659E+06
C:/temp/Job-5.odb,Step-1,Increment      1: Step Time =    1.000,"P-5-1",           821,       74.8463,       184.760,            0.,NA,NA,"",   1.73362E+06,   1.67536E+06,   1.67536E+06
C:/temp/Job-5.odb,Step-1,Increment      1: Step Time =    1.000,"P-5-1",           822,       125.116,       185.363,            0.,NA,NA,"",   1.08130E+06,   1.11055E+06,   1.11055E+06
C:/temp/Job-5.odb,Step-1,Increment      1: Step Time =    1.000,"P-5-1",           823,       47.7229,       70.6011,            0.,NA,NA,"",   509.115E+03,  -380.613E+03,  -380.613E+03
C:/temp/Job-5.odb,Step-1,Increment      1: Step Time =    1.000,"P-5-1",           824,       37.4889,       110.210,            0.,NA,NA,"",   296.915E+03,  -333.265E+03,  -333.265E+03
C:/temp/Job-5.odb,Step-1,Increment      1: Step Time =    1.000,"P-5-1",           825,       155.491,       131.196,            0.,NA,NA,"",   1.61846E+06,   1.18025E+06,   1.18025E+06
C:/temp/Job-5.odb,Step-1,Increment      1: Step Time =    1.000,"P-5-1",           826,       84.5419,       14.6084,            0.,NA,NA,"",   1.54332E+06,   1.51496E+06,   1.51496E+06
C:/temp/Job-5.odb,Step-1,Increment      1: Step Time =    1.000,"P-5-1",           827,       15.1949,       115.785,            0.,NA,NA,"",   125.452E+03,   112.688E+03,   112.688E+03
C:/temp/Job-5.odb,Step-1,Increment      1: Step Time =    1.000,"P-5-1",           828,       15.7829,       84.9082,            0.,NA,NA,"",   119.388E+03,   74.1738E+03,   74.1738E+03
C:/temp/Job-5.odb,Step-1,Increment      1: Step Time =    1.000,"P-5-1",           829,       115.424,       15.6734,            0.,NA,NA,"",   1.11406E+06,   1.17198E+06,   1.17198E+06
C:/temp/Job-5.odb,Step-1,Increment      1: Step Time =    1.000,"P-5-1",           830,       185.237,       85.5892,            0.,NA,NA,"",   1.05653E+06,   1.21023E+06,   1.21023E+06
C:/temp/Job-5.odb,Step-1,Increment      1: Step Time =    1.000,"P-5-1",           831,       115.714,       185.155,            0.,NA,NA,"",   1.07156E+06,   1.12562E+06,   1.12562E+06
C:/temp/Job-5.odb,Step-1,Increment      1: Step Time =    1.000,"P-5-1",           832,       185.389,       115.332,            0.,NA,NA,"",   1.06908E+06,   1.22278E+06,   1.22278E+06
C:/temp/Job-5.odb,Step-1,Increment      1: Step Time =    1.000,"P-5-1",           833,       84.5521,       185.073,            0.,NA,NA,"",   1.55248E+06,   1.52716E+06,   1.52716E+06
C:/temp/Job-5.odb,Step-1,Increment      1: Step Time =    1.000,"P-5-1",           834,       64.8623,       46.0984,            0.,NA,NA,"",   1.85988E+06,   1.70681E+06,   1.70681E+06
C:/temp/Job-5.odb,Step-1,Increment      1: Step Time =    1.000,"P-5-1",           835,       163.613,       99.6787,            0.,NA,NA,"",   578.038E+03,  -517.285E+03,  -517.285E+03
C:/temp/Job-5.odb,Step-1,Increment      1: Step Time =    1.000,"P-5-1",           836,       15.0858,       105.694,            0.,NA,NA,"",   130.291E+03,  -50.1423E+03,  -50.1423E+03
C:/temp/Job-5.odb,Step-1,Increment      1: Step Time =    1.000,"P-5-1",           837,       94.4417,       15.3403,            0.,NA,NA,"",   1.37093E+06,   1.39040E+06,   1.39040E+06
C:/temp/Job-5.odb,Step-1,Increment      1: Step Time =    1.000,"P-5-1",           838,       185.217,       95.5822,            0.,NA,NA,"",   944.106E+03,   1.06408E+06,   1.06408E+06
C:/temp/Job-5.odb,Step-1,Increment      1: Step Time =    1.000,"P-5-1",           839,       105.701,       184.628,            0.,NA,NA,"",   1.17726E+06,   1.23416E+06,   1.23416E+06
C:/temp/Job-5.odb,Step-1,Increment      1: Step Time =    1.000,"P-5-1",           840,       35.5107,       87.1646,            0.,NA,NA,"",   226.466E+03,  -255.105E+03,  -255.105E+03
C:/temp/Job-5.odb,Step-1,Increment      1: Step Time =    1.000,"P-5-1",           841,       137.023,       49.5761,            0.,NA,NA,"",   2.20795E+06,   2.19176E+06,   2.19176E+06
C:/temp/Job-5.odb,Step-1,Increment      1: Step Time =    1.000,"P-5-1",           842,       61.1574,       49.0279,            0.,NA,NA,"",   1.65577E+06,   1.47556E+06,   1.47556E+06
C:/temp/Job-5.odb,Step-1,Increment      1: Step Time =    1.000,"P-5-1",           843,       131.225,       39.1773,            0.,NA,NA,"",   2.11704E+06,   2.17297E+06,   2.17297E+06
C:/temp/Job-5.odb,Step-1,Increment      1: Step Time =    1.000,"P-5-1",           844,       68.6438,       37.1925,            0.,NA,NA,"",   2.11079E+06,   1.97973E+06,   1.97973E+06
C:/temp/Job-5.odb,Step-1,Increment      1: Step Time =    1.000,"P-5-1",           845,       104.889,       15.7694,            0.,NA,NA,"",   1.19648E+06,   1.25609E+06,   1.25609E+06
C:/temp/Job-5.odb,Step-1,Increment      1: Step Time =    1.000,"P-5-1",           846,       15.4275,       95.5531,            0.,NA,NA,"",   133.290E+03,  -93.4528E+03,  -93.4528E+03
C:/temp/Job-5.odb,Step-1,Increment      1: Step Time =    1.000,"P-5-1",           847,       185.273,       105.580,            0.,NA,NA,"",   957.117E+03,   1.08571E+06,   1.08571E+06
C:/temp/Job-5.odb,Step-1,Increment      1: Step Time =    1.000,"P-5-1",           848,       94.8617,       184.124,            0.,NA,NA,"",   1.38063E+06,   1.40336E+06,   1.40336E+06
C:/temp/Job-5.odb,Step-1,Increment      1: Step Time =    1.000,"P-5-1",           849,       116.660,       163.503,            0.,NA,NA,"",   2.29190E+06,   2.45865E+06,   2.45865E+06
C:/temp/Job-5.odb,Step-1,Increment      1: Step Time =    1.000,"P-5-1",           850,       81.4999,       163.236,            0.,NA,NA,"",   2.29735E+06,   2.30674E+06,   2.30674E+06
C:/temp/Job-5.odb,Step-1,Increment      1: Step Time =    1.000,"P-5-1",           851,       117.811,       35.0395,            0.,NA,NA,"",   2.12716E+06,   2.27784E+06,   2.27784E+06
C:/temp/Job-5.odb,Step-1,Increment      1: Step Time =    1.000,"P-5-1",           852,       42.3424,       128.141,            0.,NA,NA,"",   437.408E+03,  -150.997E+03,  -150.997E+03
C:/temp/Job-5.odb,Step-1,Increment      1: Step Time =    1.000,"P-5-1",           853,       164.619,       115.589,            0.,NA,NA,"",   1.03237E+06,   346.622E+03,   346.622E+03
C:/temp/Job-5.odb,Step-1,Increment      1: Step Time =    1.000,"P-5-1",           854,       91.9220,       166.351,            0.,NA,NA,"",   2.28467E+06,   2.37819E+06,   2.37819E+06
C:/temp/Job-5.odb,Step-1,Increment      1: Step Time =    1.000,"P-5-1",           855,       123.399,       162.260,            0.,NA,NA,"",   2.20210E+06,   2.33194E+06,   2.33194E+06
C:/temp/Job-5.odb,Step-1,Increment      1: Step Time =    1.000,"P-5-1",           856,       128.960,       156.937,            0.,NA,NA,"",   2.31961E+06,   2.40613E+06,   2.40613E+06
C:/temp/Job-5.odb,Step-1,Increment      1: Step Time =    1.000,"P-5-1",           857,       148.616,       71.4211,            0.,NA,NA,"",   1.09834E+06,   314.301E+03,   314.301E+03
C:/temp/Job-5.odb,Step-1,Increment      1: Step Time =    1.000,"P-5-1",           858,       127.416,       35.4486,            0.,NA,NA,"",   2.02365E+06,   2.11245E+06,   2.11245E+06
C:/temp/Job-5.odb,Step-1,Increment      1: Step Time =    1.000,"P-5-1",           859,       38.2093,       118.562,            0.,NA,NA,"",   280.013E+03,  -286.398E+03,  -286.398E+03
C:/temp/Job-5.odb,Step-1,Increment      1: Step Time =    1.000,"P-5-1",           860,       123.845,       168.179,            0.,NA,NA,"",   1.87335E+06,   1.98235E+06,   1.98235E+06
C:/temp/Job-5.odb,Step-1,Increment      1: Step Time =    1.000,"P-5-1",           861,       110.183,       21.1322,            0.,NA,NA,"",   1.41751E+06,   1.51754E+06,   1.51754E+06
C:/temp/Job-5.odb,Step-1,Increment      1: Step Time =    1.000,"P-5-1",           862,       21.2922,       90.6656,            0.,NA,NA,"",   105.343E+03,  -89.3584E+03,  -89.3584E+03
C:/temp/Job-5.odb,Step-1,Increment      1: Step Time =    1.000,"P-5-1",           863,       180.196,       110.680,            0.,NA,NA,"",   867.161E+03,   978.942E+03,   978.942E+03
C:/temp/Job-5.odb,Step-1,Increment      1: Step Time =    1.000,"P-5-1",           864,       88.9305,       180.228,            0.,NA,NA,"",   1.67631E+06,   1.67918E+06,   1.67918E+06
C:/temp/Job-5.odb,Step-1,Increment      1: Step Time =    1.000,"P-5-1",           865,       99.2689,       20.7302,            0.,NA,NA,"",   1.54274E+06,   1.61452E+06,   1.61452E+06
C:/temp/Job-5.odb,Step-1,Increment      1: Step Time =    1.000,"P-5-1",           866,       19.9336,       101.050,            0.,NA,NA,"",   131.511E+03,  -117.578E+03,  -117.578E+03
C:/temp/Job-5.odb,Step-1,Increment      1: Step Time =    1.000,"P-5-1",           867,       180.769,       100.766,            0.,NA,NA,"",   696.250E+03,   767.157E+03,   767.157E+03
C:/temp/Job-5.odb,Step-1,Increment      1: Step Time =    1.000,"P-5-1",           868,       100.795,       179.088,            0.,NA,NA,"",   1.52740E+06,   1.60244E+06,   1.60244E+06
C:/temp/Job-5.odb,Step-1,Increment      1: Step Time =    1.000,"P-5-1",           869,       63.7338,       151.451,            0.,NA,NA,"",   1.72611E+06,   1.56530E+06,   1.56530E+06
C:/temp/Job-5.odb,Step-1,Increment      1: Step Time =    1.000,"P-5-1",           870,       32.7686,       110.217,            0.,NA,NA,"",   172.824E+03,  -197.066E+03,  -197.066E+03
C:/temp/Job-5.odb,Step-1,Increment      1: Step Time =    1.000,"P-5-1",           871,       167.936,       109.300,            0.,NA,NA,"",   681.291E+03,   305.670E+03,   305.670E+03
C:/temp/Job-5.odb,Step-1,Increment      1: Step Time =    1.000,"P-5-1",           872,       154.199,       71.9046,            0.,NA,NA,"",   1.43791E+06,   615.133E+03,   615.133E+03
C:/temp/Job-5.odb,Step-1,Increment      1: Step Time =    1.000,"P-5-1",           873,       37.4787,       114.671,            0.,NA,NA,"",   273.644E+03,  -301.476E+03,  -301.476E+03
C:/temp/Job-5.odb,Step-1,Increment      1: Step Time =    1.000,"P-5-1",           874,       152.456,       135.680,            0.,NA,NA,"",   1.74157E+06,   1.38600E+06,   1.38600E+06
C:/temp/Job-5.odb,Step-1,Increment      1: Step Time =    1.000,"P-5-1",           875,       44.5294,       132.991,            0.,NA,NA,"",   601.005E+03,   243.179E+03,   243.179E+03
C:/temp/Job-5.odb,Step-1,Increment      1: Step Time =    1.000,"P-5-1",           876,       19.6582,       60.4399,            0.,NA,NA,"",   612.186E+03,   626.704E+03,   626.704E+03
C:/temp/Job-5.odb,Step-1,Increment      1: Step Time =    1.000,"P-5-1",           877,       61.0843,       21.0793,            0.,NA,NA,"",   1.96884E+06,   1.86333E+06,   1.86333E+06
C:/temp/Job-5.odb,Step-1,Increment      1: Step Time =    1.000,"P-5-1",           878,       59.1815,       180.720,            0.,NA,NA,"",   1.94506E+06,   1.85037E+06,   1.85037E+06
C:/temp/Job-5.odb,Step-1,Increment      1: Step Time =    1.000,"P-5-1",           879,       178.414,       61.8502,            0.,NA,NA,"",   1.42361E+06,   1.38560E+06,   1.38560E+06
C:/temp/Job-5.odb,Step-1,Increment      1: Step Time =    1.000,"P-5-1",           880,       140.523,       20.3640,            0.,NA,NA,"",   1.36537E+06,   1.34239E+06,   1.34239E+06
C:/temp/Job-5.odb,Step-1,Increment      1: Step Time =    1.000,"P-5-1",           881,       20.9998,       138.996,            0.,NA,NA,"",   608.722E+03,   615.040E+03,   615.040E+03
C:/temp/Job-5.odb,Step-1,Increment      1: Step Time =    1.000,"P-5-1",           882,       181.267,       139.391,            0.,NA,NA,"",   1.34727E+06,   1.35817E+06,   1.35817E+06
C:/temp/Job-5.odb,Step-1,Increment      1: Step Time =    1.000,"P-5-1",           883,       139.402,       179.332,            0.,NA,NA,"",   1.36954E+06,   1.34873E+06,   1.34873E+06
C:/temp/Job-5.odb,Step-1,Increment      1: Step Time =    1.000,"P-5-1",           884,       164.672,       75.8674,            0.,NA,NA,"",   1.41954E+06,   1.04674E+06,   1.04674E+06
C:/temp/Job-5.odb,Step-1,Increment      1: Step Time =    1.000,"P-5-1",           885,       36.3593,       78.7392,            0.,NA,NA,"",   258.467E+03,  -232.094E+03,  -232.094E+03
C:/temp/Job-5.odb,Step-1,Increment      1: Step Time =    1.000,"P-5-1",           886,       49.1706,       62.9078,            0.,NA,NA,"",   761.130E+03,   527.829E+03,   527.829E+03
C:/temp/Job-5.odb,Step-1,Increment      1: Step Time =    1.000,"P-5-1",           887,       151.572,       54.3077,            0.,NA,NA,"",   1.98715E+06,   1.74212E+06,   1.74212E+06
C:/temp/Job-5.odb,Step-1,Increment      1: Step Time =    1.000,"P-5-1",           888,       162.136,       130.747,            0.,NA,NA,"",   1.65164E+06,   1.26567E+06,   1.26567E+06
C:/temp/Job-5.odb,Step-1,Increment      1: Step Time =    1.000,"P-5-1",           889,       37.3064,       129.841,            0.,NA,NA,"",   447.379E+03,   199.972E+03,   199.972E+03
C:/temp/Job-5.odb,Step-1,Increment      1: Step Time =    1.000,"P-5-1",           890,       19.9861,       69.9304,            0.,NA,NA,"",   345.102E+03,   350.862E+03,   350.862E+03
C:/temp/Job-5.odb,Step-1,Increment      1: Step Time =    1.000,"P-5-1",           891,       70.0036,       20.6868,            0.,NA,NA,"",   1.93177E+06,   1.84200E+06,   1.84200E+06
C:/temp/Job-5.odb,Step-1,Increment      1: Step Time =    1.000,"P-5-1",           892,       180.541,       129.681,            0.,NA,NA,"",   1.31136E+06,   1.33308E+06,   1.33308E+06
C:/temp/Job-5.odb,Step-1,Increment      1: Step Time =    1.000,"P-5-1",           893,       129.611,       180.198,            0.,NA,NA,"",   1.32491E+06,   1.34893E+06,   1.34893E+06
C:/temp/Job-5.odb,Step-1,Increment      1: Step Time =    1.000,"P-5-1",           894,       18.4800,       128.764,            0.,NA,NA,"",   318.505E+03,   331.617E+03,   331.617E+03
C:/temp/Job-5.odb,Step-1,Increment      1: Step Time =    1.000,"P-5-1",           895,       130.600,       20.1759,            0.,NA,NA,"",   1.35775E+06,   1.37937E+06,   1.37937E+06
C:/temp/Job-5.odb,Step-1,Increment      1: Step Time =    1.000,"P-5-1",           896,       69.4953,       179.357,            0.,NA,NA,"",   1.93848E+06,   1.84530E+06,   1.84530E+06
C:/temp/Job-5.odb,Step-1,Increment      1: Step Time =    1.000,"P-5-1",           897,       181.603,       68.4126,            0.,NA,NA,"",   1.30404E+06,   1.34574E+06,   1.34574E+06
C:/temp/Job-5.odb,Step-1,Increment      1: Step Time =    1.000,"P-5-1",           898,       19.1415,       82.5398,            0.,NA,NA,"",   114.829E+03,   103.724E+03,   103.724E+03
C:/temp/Job-5.odb,Step-1,Increment      1: Step Time =    1.000,"P-5-1",           899,       120.883,       20.5104,            0.,NA,NA,"",   1.35057E+06,   1.41861E+06,   1.41861E+06
C:/temp/Job-5.odb,Step-1,Increment      1: Step Time =    1.000,"P-5-1",           900,       180.942,       120.265,            0.,NA,NA,"",   1.12926E+06,   1.20304E+06,   1.20304E+06
C:/temp/Job-5.odb,Step-1,Increment      1: Step Time =    1.000,"P-5-1",           901,       79.8318,       181.397,            0.,NA,NA,"",   1.77830E+06,   1.73184E+06,   1.73184E+06
C:/temp/Job-5.odb,Step-1,Increment      1: Step Time =    1.000,"P-5-1",           902,       31.0591,       89.3191,            0.,NA,NA,"",   132.278E+03,  -150.647E+03,  -150.647E+03
C:/temp/Job-5.odb,Step-1,Increment      1: Step Time =    1.000,"P-5-1",           903,       143.625,       48.8859,            0.,NA,NA,"",   2.09233E+06,   1.97244E+06,   1.97244E+06
C:/temp/Job-5.odb,Step-1,Increment      1: Step Time =    1.000,"P-5-1",           904,       54.3370,       47.9218,            0.,NA,NA,"",   1.59376E+06,   1.39153E+06,   1.39153E+06
C:/temp/Job-5.odb,Step-1,Increment      1: Step Time =    1.000,"P-5-1",           905,       73.9854,       32.5976,            0.,NA,NA,"",   2.16950E+06,   2.08118E+06,   2.08118E+06
C:/temp/Job-5.odb,Step-1,Increment      1: Step Time =    1.000,"P-5-1",           906,       78.4711,       158.436,            0.,NA,NA,"",   2.29016E+06,   2.28432E+06,   2.28432E+06
C:/temp/Job-5.odb,Step-1,Increment      1: Step Time =    1.000,"P-5-1",           907,       112.904,       37.9087,            0.,NA,NA,"",   2.48219E+06,   2.66577E+06,   2.66577E+06
C:/temp/Job-5.odb,Step-1,Increment      1: Step Time =    1.000,"P-5-1",           908,       130.386,       161.325,            0.,NA,NA,"",   2.09803E+06,   2.16388E+06,   2.16388E+06
C:/temp/Job-5.odb,Step-1,Increment      1: Step Time =    1.000,"P-5-1",           909,       151.262,       65.6021,            0.,NA,NA,"",   1.64742E+06,   1.30259E+06,   1.30259E+06
C:/temp/Job-5.odb,Step-1,Increment      1: Step Time =    1.000,"P-5-1",           910,       123.437,       31.1468,            0.,NA,NA,"",   1.85640E+06,   1.96287E+06,   1.96287E+06
C:/temp/Job-5.odb,Step-1,Increment      1: Step Time =    1.000,"P-5-1",           911,       138.501,       144.779,            0.,NA,NA,"",   2.11091E+06,   2.07191E+06,   2.07191E+06
C:/temp/Job-5.odb,Step-1,Increment      1: Step Time =    1.000,"P-5-1",           912,       90.8861,       170.489,            0.,NA,NA,"",   2.07675E+06,   2.14115E+06,   2.14115E+06
C:/temp/Job-5.odb,Step-1,Increment      1: Step Time =    1.000,"P-5-1",           913,       35.2569,       124.794,            0.,NA,NA,"",   297.805E+03,  -80.3255E+03,  -80.3255E+03
C:/temp/Job-5.odb,Step-1,Increment      1: Step Time =    1.000,"P-5-1",           914,       142.323,       141.126,            0.,NA,NA,"",   1.87739E+06,   1.76636E+06,   1.76636E+06
C:/temp/Job-5.odb,Step-1,Increment      1: Step Time =    1.000,"P-5-1",           915,       24.6625,       110.252,            0.,NA,NA,"",   93.7689E+03,  -94.0511E+03,  -94.0511E+03
C:/temp/Job-5.odb,Step-1,Increment      1: Step Time =    1.000,"P-5-1",           916,       175.072,       91.0940,            0.,NA,NA,"",   703.062E+03,   744.935E+03,   744.935E+03
C:/temp/Job-5.odb,Step-1,Increment      1: Step Time =    1.000,"P-5-1",           917,       111.894,       175.428,            0.,NA,NA,"",   1.58809E+06,   1.70662E+06,   1.70662E+06
C:/temp/Job-5.odb,Step-1,Increment      1: Step Time =    1.000,"P-5-1",           918,       142.164,       148.686,            0.,NA,NA,"",   2.09922E+06,   1.99897E+06,   1.99897E+06
C:/temp/Job-5.odb,Step-1,Increment      1: Step Time =    1.000,"P-5-1",           919,       23.6383,       80.0434,            0.,NA,NA,"",   136.925E+03,   85.3750E+03,   85.3750E+03
C:/temp/Job-5.odb,Step-1,Increment      1: Step Time =    1.000,"P-5-1",           920,       121.643,       25.6571,            0.,NA,NA,"",   1.58244E+06,   1.67251E+06,   1.67251E+06
C:/temp/Job-5.odb,Step-1,Increment      1: Step Time =    1.000,"P-5-1",           921,       23.8366,       121.335,            0.,NA,NA,"",   162.974E+03,   135.673E+03,   135.673E+03
C:/temp/Job-5.odb,Step-1,Increment      1: Step Time =    1.000,"P-5-1",           922,       177.206,       120.113,            0.,NA,NA,"",   1.14194E+06,   1.14150E+06,   1.14150E+06
C:/temp/Job-5.odb,Step-1,Increment      1: Step Time =    1.000,"P-5-1",           923,       81.0232,       175.590,            0.,NA,NA,"",   1.97441E+06,   1.93896E+06,   1.93896E+06
C:/temp/Job-5.odb,Step-1,Increment      1: Step Time =    1.000,"P-5-1",           924,       175.040,       80.4505,            0.,NA,NA,"",   1.14850E+06,   1.08735E+06,   1.08735E+06
C:/temp/Job-5.odb,Step-1,Increment      1: Step Time =    1.000,"P-5-1",           925,       121.385,       176.528,            0.,NA,NA,"",   1.48169E+06,   1.56401E+06,   1.56401E+06
C:/temp/Job-5.odb,Step-1,Increment      1: Step Time =    1.000,"P-5-1",           926,       177.135,       100.995,            0.,NA,NA,"",   542.436E+03,   601.075E+03,   601.075E+03
C:/temp/Job-5.odb,Step-1,Increment      1: Step Time =    1.000,"P-5-1",           927,       102.216,       174.368,            0.,NA,NA,"",   1.74073E+06,   1.85039E+06,   1.85039E+06
C:/temp/Job-5.odb,Step-1,Increment      1: Step Time =    1.000,"P-5-1",           928,       98.6745,       25.5933,            0.,NA,NA,"",   1.79880E+06,   1.89718E+06,   1.89718E+06
C:/temp/Job-5.odb,Step-1,Increment      1: Step Time =    1.000,"P-5-1",           929,       24.3445,       101.938,            0.,NA,NA,"",   120.647E+03,  -129.536E+03,  -129.536E+03
C:/temp/Job-5.odb,Step-1,Increment      1: Step Time =    1.000,"P-5-1",           930,       141.145,       25.7561,            0.,NA,NA,"",   1.54968E+06,   1.51802E+06,   1.51802E+06
C:/temp/Job-5.odb,Step-1,Increment      1: Step Time =    1.000,"P-5-1",           931,       24.8489,       141.370,            0.,NA,NA,"",   718.947E+03,   703.420E+03,   703.420E+03
C:/temp/Job-5.odb,Step-1,Increment      1: Step Time =    1.000,"P-5-1",           932,       24.7406,       60.3085,            0.,NA,NA,"",   660.262E+03,   644.747E+03,   644.747E+03
C:/temp/Job-5.odb,Step-1,Increment      1: Step Time =    1.000,"P-5-1",           933,       58.5490,       24.7024,            0.,NA,NA,"",   1.99227E+06,   1.86730E+06,   1.86730E+06
C:/temp/Job-5.odb,Step-1,Increment      1: Step Time =    1.000,"P-5-1",           934,       58.2758,       176.006,            0.,NA,NA,"",   1.98648E+06,   1.86420E+06,   1.86420E+06
C:/temp/Job-5.odb,Step-1,Increment      1: Step Time =    1.000,"P-5-1",           935,       174.534,       59.2066,            0.,NA,NA,"",   1.53306E+06,   1.42801E+06,   1.42801E+06
C:/temp/Job-5.odb,Step-1,Increment      1: Step Time =    1.000,"P-5-1",           936,       176.747,       139.587,            0.,NA,NA,"",   1.48044E+06,   1.40893E+06,   1.40893E+06
C:/temp/Job-5.odb,Step-1,Increment      1: Step Time =    1.000,"P-5-1",           937,       141.020,       175.294,            0.,NA,NA,"",   1.50884E+06,   1.47933E+06,   1.47933E+06
C:/temp/Job-5.odb,Step-1,Increment      1: Step Time =    1.000,"P-5-1",           938,       22.0639,       132.088,            0.,NA,NA,"",   403.187E+03,   403.599E+03,   403.599E+03
C:/temp/Job-5.odb,Step-1,Increment      1: Step Time =    1.000,"P-5-1",           939,       176.758,       70.6152,            0.,NA,NA,"",   1.38705E+06,   1.32476E+06,   1.32476E+06
C:/temp/Job-5.odb,Step-1,Increment      1: Step Time =    1.000,"P-5-1",           940,       76.2475,       22.2049,            0.,NA,NA,"",   1.93863E+06,   1.86735E+06,   1.86735E+06
C:/temp/Job-5.odb,Step-1,Increment      1: Step Time =    1.000,"P-5-1",           941,       129.780,       175.048,            0.,NA,NA,"",   1.55684E+06,   1.59628E+06,   1.59628E+06
C:/temp/Job-5.odb,Step-1,Increment      1: Step Time =    1.000,"P-5-1",           942,       89.6457,       174.622,            0.,NA,NA,"",   1.92201E+06,   1.95869E+06,   1.95869E+06
C:/temp/Job-5.odb,Step-1,Increment      1: Step Time =    1.000,"P-5-1",           943,       28.2309,       90.8045,            0.,NA,NA,"",   110.730E+03,  -124.363E+03,  -124.363E+03
C:/temp/Job-5.odb,Step-1,Increment      1: Step Time =    1.000,"P-5-1",           944,       126.881,       165.016,            0.,NA,NA,"",   1.98289E+06,   2.07696E+06,   2.07696E+06
C:/temp/Job-5.odb,Step-1,Increment      1: Step Time =    1.000,"P-5-1",           945,       33.5883,       119.641,            0.,NA,NA,"",   202.845E+03,  -177.255E+03,  -177.255E+03
C:/temp/Job-5.odb,Step-1,Increment      1: Step Time =    1.000,"P-5-1",           946,       43.8535,       68.8385,            0.,NA,NA,"",   536.451E+03,   5.64116E+03,   5.64116E+03
C:/temp/Job-5.odb,Step-1,Increment      1: Step Time =    1.000,"P-5-1",           947,       67.5897,       154.602,            0.,NA,NA,"",   1.94978E+06,   1.81989E+06,   1.81989E+06
C:/temp/Job-5.odb,Step-1,Increment      1: Step Time =    1.000,"P-5-1",           948,       57.2016,       152.156,            0.,NA,NA,"",   1.64839E+06,   1.44574E+06,   1.44574E+06
C:/temp/Job-5.odb,Step-1,Increment      1: Step Time =    1.000,"P-5-1",           949,       155.733,       67.4484,            0.,NA,NA,"",   1.65466E+06,   1.24471E+06,   1.24471E+06
C:/temp/Job-5.odb,Step-1,Increment      1: Step Time =    1.000,"P-5-1",           950,       14.5608,       55.5983,            0.,NA,NA,"",   720.077E+03,   762.488E+03,   762.488E+03
C:/temp/Job-5.odb,Step-1,Increment      1: Step Time =    1.000,"P-5-1",           951,       54.0377,       14.9343,            0.,NA,NA,"",   1.92883E+06,   1.86698E+06,   1.86698E+06
C:/temp/Job-5.odb,Step-1,Increment      1: Step Time =    1.000,"P-5-1",           952,       185.914,       144.803,            0.,NA,NA,"",   1.18613E+06,   1.25831E+06,   1.25831E+06
C:/temp/Job-5.odb,Step-1,Increment      1: Step Time =    1.000,"P-5-1",           953,       146.579,       183.778,            0.,NA,NA,"",   1.21253E+06,   1.18214E+06,   1.18214E+06
C:/temp/Job-5.odb,Step-1,Increment      1: Step Time =    1.000,"P-5-1",           954,       54.8750,       185.856,            0.,NA,NA,"",   1.91435E+06,   1.85662E+06,   1.85662E+06
C:/temp/Job-5.odb,Step-1,Increment      1: Step Time =    1.000,"P-5-1",           955,       183.726,       54.0402,            0.,NA,NA,"",   1.24650E+06,   1.28814E+06,   1.28814E+06
C:/temp/Job-5.odb,Step-1,Increment      1: Step Time =    1.000,"P-5-1",           956,       145.061,       14.7112,            0.,NA,NA,"",   1.16565E+06,   1.14076E+06,   1.14076E+06
C:/temp/Job-5.odb,Step-1,Increment      1: Step Time =    1.000,"P-5-1",           957,       16.1962,       146.304,            0.,NA,NA,"",   790.179E+03,   828.554E+03,   828.554E+03
C:/temp/Job-5.odb,Step-1,Increment      1: Step Time =    1.000,"P-5-1",           958,       162.239,       73.2487,            0.,NA,NA,"",   1.51599E+06,   1.09882E+06,   1.09882E+06
C:/temp/Job-5.odb,Step-1,Increment      1: Step Time =    1.000,"P-5-1",           959,       78.0784,       150.739,            0.,NA,NA,"",   2.25360E+06,   2.27955E+06,   2.27955E+06
C:/temp/Job-5.odb,Step-1,Increment      1: Step Time =    1.000,"P-5-1",           960,       165.669,       127.758,            0.,NA,NA,"",   1.53884E+06,   1.20111E+06,   1.20111E+06
C:/temp/Job-5.odb,Step-1,Increment      1: Step Time =    1.000,"P-5-1",           961,       139.473,       45.9806,            0.,NA,NA,"",   2.13016E+06,   2.07852E+06,   2.07852E+06
C:/temp/Job-5.odb,Step-1,Increment      1: Step Time =    1.000,"P-5-1",           962,       68.9086,       32.0286,            0.,NA,NA,"",   2.12410E+06,   1.99856E+06,   1.99856E+06
C:/temp/Job-5.odb,Step-1,Increment      1: Step Time =    1.000,"P-5-1",           963,       74.3512,       161.633,            0.,NA,NA,"",   2.18996E+06,   2.11948E+06,   2.11948E+06
C:/temp/Job-5.odb,Step-1,Increment      1: Step Time =    1.000,"P-5-1",           964,       110.957,       41.6929,            0.,NA,NA,"",   2.98153E+06,   3.16256E+06,   3.16256E+06
C:/temp/Job-5.odb,Step-1,Increment      1: Step Time =    1.000,"P-5-1",           965,       96.8668,       171.929,            0.,NA,NA,"",   1.96116E+06,   2.06302E+06,   2.06302E+06
C:/temp/Job-5.odb,Step-1,Increment      1: Step Time =    1.000,"P-5-1",           966,       79.1717,       37.9334,            0.,NA,NA,"",   2.28623E+06,   2.26447E+06,   2.26447E+06
C:/temp/Job-5.odb,Step-1,Increment      1: Step Time =    1.000,"P-5-1",           967,       114.204,       34.3636,            0.,NA,NA,"",   2.14952E+06,   2.31728E+06,   2.31728E+06
C:/temp/Job-5.odb,Step-1,Increment      1: Step Time =    1.000,"P-5-1",           968,       134.656,       35.5555,            0.,NA,NA,"",   1.93749E+06,   1.95158E+06,   1.95158E+06
C:/temp/Job-5.odb,Step-1,Increment      1: Step Time =    1.000,"P-5-1",           969,       153.456,       50.5467,            0.,NA,NA,"",   1.97145E+06,   1.74809E+06,   1.74809E+06
C:/temp/Job-5.odb,Step-1,Increment      1: Step Time =    1.000,"P-5-1",           970,       180.333,       80.6968,            0.,NA,NA,"",   1.10975E+06,   1.18201E+06,   1.18201E+06
C:/temp/Job-5.odb,Step-1,Increment      1: Step Time =    1.000,"P-5-1",           971,       19.5732,       121.104,            0.,NA,NA,"",   163.324E+03,   159.236E+03,   159.236E+03
C:/temp/Job-5.odb,Step-1,Increment      1: Step Time =    1.000,"P-5-1",           972,       120.745,       180.669,            0.,NA,NA,"",   1.29462E+06,   1.36189E+06,   1.36189E+06
C:/temp/Job-5.odb,Step-1,Increment      1: Step Time =    1.000,"P-5-1",           973,       79.1454,       18.4181,            0.,NA,NA,"",   1.79529E+06,   1.74180E+06,   1.74180E+06
C:/temp/Job-5.odb,Step-1,Increment      1: Step Time =    1.000,"P-5-1",           974,       28.3275,       109.858,            0.,NA,NA,"",   108.576E+03,  -122.732E+03,  -122.732E+03
C:/temp/Job-5.odb,Step-1,Increment      1: Step Time =    1.000,"P-5-1",           975,       55.3638,       145.573,            0.,NA,NA,"",   1.28021E+06,   1.07263E+06,   1.07263E+06
C:/temp/Job-5.odb,Step-1,Increment      1: Step Time =    1.000,"P-5-1",           976,       156.146,       138.619,            0.,NA,NA,"",   1.86638E+06,   1.52122E+06,   1.52122E+06
C:/temp/Job-5.odb,Step-1,Increment      1: Step Time =    1.000,"P-5-1",           977,       46.0956,       137.903,            0.,NA,NA,"",   807.033E+03,   603.330E+03,   603.330E+03
C:/temp/Job-5.odb,Step-1,Increment      1: Step Time =    1.000,"P-5-1",           978,       149.917,       47.7437,            0.,NA,NA,"",   2.00490E+06,   1.82426E+06,   1.82426E+06
C:/temp/Job-5.odb,Step-1,Increment      1: Step Time =    1.000,"P-5-1",           979,       48.2538,       48.1779,            0.,NA,NA,"",   1.47270E+06,   1.28539E+06,   1.28539E+06
C:/temp/Job-5.odb,Step-1,Increment      1: Step Time =    1.000,"P-5-1",           980,       47.4613,       53.7857,            0.,NA,NA,"",   1.22039E+06,   1.02899E+06,   1.02899E+06
C:/temp/Job-5.odb,Step-1,Increment      1: Step Time =    1.000,"P-5-1",           981,       174.638,       110.966,            0.,NA,NA,"",   785.043E+03,   798.795E+03,   798.795E+03
C:/temp/Job-5.odb,Step-1,Increment      1: Step Time =    1.000,"P-5-1",           982,       167.997,       100.336,            0.,NA,NA,"",   372.840E+03,   6.86160E+03,   6.86160E+03
C:/temp/Job-5.odb,Step-1,Increment      1: Step Time =    1.000,"P-5-1",           983,       170.747,       81.7962,            0.,NA,NA,"",   1.12982E+06,   953.994E+03,   953.994E+03
C:/temp/Job-5.odb,Step-1,Increment      1: Step Time =    1.000,"P-5-1",           984,       28.3804,       78.3829,            0.,NA,NA,"",   176.580E+03,   53.1920E+03,   53.1920E+03
C:/temp/Job-5.odb,Step-1,Increment      1: Step Time =    1.000,"P-5-1",           985,       162.631,       123.191,            0.,NA,NA,"",   1.37503E+06,   935.407E+03,   935.407E+03
C:/temp/Job-5.odb,Step-1,Increment      1: Step Time =    1.000,"P-5-1",           986,       49.1899,       147.841,            0.,NA,NA,"",   1.33562E+06,   1.14265E+06,   1.14265E+06
C:/temp/Job-5.odb,Step-1,Increment      1: Step Time =    1.000,"P-5-1",           987,       51.1554,       153.387,            0.,NA,NA,"",   1.58006E+06,   1.38593E+06,   1.38593E+06
C:/temp/Job-5.odb,Step-1,Increment      1: Step Time =    1.000,"P-5-1",           988,       155.083,       47.6638,            0.,NA,NA,"",   1.93203E+06,   1.72780E+06,   1.72780E+06
C:/temp/Job-5.odb,Step-1,Increment      1: Step Time =    1.000,"P-5-1",           989,       170.293,       104.750,            0.,NA,NA,"",   448.387E+03,   414.429E+03,   414.429E+03
C:/temp/Job-5.odb,Step-1,Increment      1: Step Time =    1.000,"P-5-1",           990,       67.7950,       160.983,            0.,NA,NA,"",   2.09147E+06,   1.95359E+06,   1.95359E+06
C:/temp/Job-5.odb,Step-1,Increment      1: Step Time =    1.000,"P-5-1",           991,       109.231,       35.8782,            0.,NA,NA,"",   2.36564E+06,   2.54934E+06,   2.54934E+06
C:/temp/Job-5.odb,Step-1,Increment      1: Step Time =    1.000,"P-5-1",           992,       167.072,       120.669,            0.,NA,NA,"",   1.25034E+06,   931.723E+03,   931.723E+03
C:/temp/Job-5.odb,Step-1,Increment      1: Step Time =    1.000,"P-5-1",           993,       110.505,       30.6032,            0.,NA,NA,"",   1.95759E+06,   2.11765E+06,   2.11765E+06
C:/temp/Job-5.odb,Step-1,Increment      1: Step Time =    1.000,"P-5-1",           994,       9.62677,       55.4203,            0.,NA,NA,"",   694.077E+03,   753.601E+03,   753.601E+03
C:/temp/Job-5.odb,Step-1,Increment      1: Step Time =    1.000,"P-5-1",           995,       54.9987,       190.571,            0.,NA,NA,"",   1.88873E+06,   1.85750E+06,   1.85750E+06
C:/temp/Job-5.odb,Step-1,Increment      1: Step Time =    1.000,"P-5-1",           996,       144.924,       9.68813,            0.,NA,NA,"",   988.884E+03,   973.822E+03,   973.822E+03
C:/temp/Job-5.odb,Step-1,Increment      1: Step Time =    1.000,"P-5-1",           997,       190.820,       144.442,            0.,NA,NA,"",   1.04262E+06,   1.16748E+06,   1.16748E+06
C:/temp/Job-5.odb,Step-1,Increment      1: Step Time =    1.000,"P-5-1",           998,       93.5947,       25.4419,            0.,NA,NA,"",   1.85709E+06,   1.92024E+06,   1.92024E+06
C:/temp/Job-5.odb,Step-1,Increment      1: Step Time =    1.000,"P-5-1",           999,       28.0758,       104.768,            0.,NA,NA,"",   123.798E+03,  -138.014E+03,  -138.014E+03
C:/temp/Job-5.odb,Step-1,Increment      1: Step Time =    1.000,"P-5-1",          1000,       107.083,       175.277,            0.,NA,NA,"",   1.62815E+06,   1.74287E+06,   1.74287E+06
C:/temp/Job-5.odb,Step-1,Increment      1: Step Time =    1.000,"P-5-1",          1001,       174.699,       97.0436,            0.,NA,NA,"",   494.424E+03,   543.989E+03,   543.989E+03
C:/temp/Job-5.odb,Step-1,Increment      1: Step Time =    1.000,"P-5-1",          1002,       137.513,       151.939,            0.,NA,NA,"",   2.19754E+06,   2.17639E+06,   2.17639E+06
C:/temp/Job-5.odb,Step-1,Increment      1: Step Time =    1.000,"P-5-1",          1003,       25.9831,       86.5964,            0.,NA,NA,"",   90.4780E+03,  -86.1467E+03,  -86.1467E+03
C:/temp/Job-5.odb,Step-1,Increment      1: Step Time =    1.000,"P-5-1",          1004,       116.137,       26.6895,            0.,NA,NA,"",   1.67097E+06,   1.78850E+06,   1.78850E+06
C:/temp/Job-5.odb,Step-1,Increment      1: Step Time =    1.000,"P-5-1",          1005,       82.2282,       25.5114,            0.,NA,NA,"",   1.99579E+06,   1.96538E+06,   1.96538E+06
C:/temp/Job-5.odb,Step-1,Increment      1: Step Time =    1.000,"P-5-1",          1006,       27.0730,       114.664,            0.,NA,NA,"",   104.697E+03,  -73.2378E+03,  -73.2378E+03
C:/temp/Job-5.odb,Step-1,Increment      1: Step Time =    1.000,"P-5-1",          1007,       116.963,       174.587,            0.,NA,NA,"",   1.59426E+06,   1.70716E+06,   1.70716E+06
C:/temp/Job-5.odb,Step-1,Increment      1: Step Time =    1.000,"P-5-1",          1008,       175.872,       116.289,            0.,NA,NA,"",   1.01765E+06,   1.01761E+06,   1.01761E+06
C:/temp/Job-5.odb,Step-1,Increment      1: Step Time =    1.000,"P-5-1",          1009,       85.3499,       173.893,            0.,NA,NA,"",   1.99870E+06,   2.00545E+06,   2.00545E+06
C:/temp/Job-5.odb,Step-1,Increment      1: Step Time =    1.000,"P-5-1",          1010,       175.294,       85.8462,            0.,NA,NA,"",   931.437E+03,   928.778E+03,   928.778E+03
C:/temp/Job-5.odb,Step-1,Increment      1: Step Time =    1.000,"P-5-1",          1011,       135.359,       27.0519,            0.,NA,NA,"",   1.61731E+06,   1.62034E+06,   1.62034E+06
C:/temp/Job-5.odb,Step-1,Increment      1: Step Time =    1.000,"P-5-1",          1012,       25.6212,       136.440,            0.,NA,NA,"",   563.435E+03,   537.500E+03,   537.500E+03
C:/temp/Job-5.odb,Step-1,Increment      1: Step Time =    1.000,"P-5-1",          1013,       30.5468,       64.5449,            0.,NA,NA,"",   575.675E+03,   515.299E+03,   515.299E+03
C:/temp/Job-5.odb,Step-1,Increment      1: Step Time =    1.000,"P-5-1",          1014,       64.2355,       26.0830,            0.,NA,NA,"",   2.03452E+06,   1.90716E+06,   1.90716E+06
C:/temp/Job-5.odb,Step-1,Increment      1: Step Time =    1.000,"P-5-1",          1015,       63.1554,       174.805,            0.,NA,NA,"",   2.01092E+06,   1.88615E+06,   1.88615E+06
C:/temp/Job-5.odb,Step-1,Increment      1: Step Time =    1.000,"P-5-1",          1016,       173.090,       64.5008,            0.,NA,NA,"",   1.54750E+06,   1.39900E+06,   1.39900E+06
C:/temp/Job-5.odb,Step-1,Increment      1: Step Time =    1.000,"P-5-1",          1017,       176.162,       134.763,            0.,NA,NA,"",   1.47488E+06,   1.39007E+06,   1.39007E+06
C:/temp/Job-5.odb,Step-1,Increment      1: Step Time =    1.000,"P-5-1",          1018,       135.273,       175.886,            0.,NA,NA,"",   1.50680E+06,   1.50863E+06,   1.50863E+06
C:/temp/Job-5.odb,Step-1,Increment      1: Step Time =    1.000,"P-5-1",          1019,       26.1876,       97.1905,            0.,NA,NA,"",   125.023E+03,  -134.610E+03,  -134.610E+03
C:/temp/Job-5.odb,Step-1,Increment      1: Step Time =    1.000,"P-5-1",          1020,       160.341,       69.5308,            0.,NA,NA,"",   1.62504E+06,   1.20891E+06,   1.20891E+06
C:/temp/Job-5.odb,Step-1,Increment      1: Step Time =    1.000,"P-5-1",          1021,       58.2336,       158.581,            0.,NA,NA,"",   1.88230E+06,   1.69143E+06,   1.69143E+06
C:/temp/Job-5.odb,Step-1,Increment      1: Step Time =    1.000,"P-5-1",          1022,       168.185,       131.782,            0.,NA,NA,"",   1.61157E+06,   1.34433E+06,   1.34433E+06
C:/temp/Job-5.odb,Step-1,Increment      1: Step Time =    1.000,"P-5-1",          1023,       100.632,       169.201,            0.,NA,NA,"",   2.06684E+06,   2.20630E+06,   2.20630E+06
C:/temp/Job-5.odb,Step-1,Increment      1: Step Time =    1.000,"P-5-1",          1024,       63.8284,       36.4496,            0.,NA,NA,"",   2.04409E+06,   1.88113E+06,   1.88113E+06
C:/temp/Job-5.odb,Step-1,Increment      1: Step Time =    1.000,"P-5-1",          1025,       130.144,       24.8911,            0.,NA,NA,"",   1.54345E+06,   1.57885E+06,   1.57885E+06
C:/temp/Job-5.odb,Step-1,Increment      1: Step Time =    1.000,"P-5-1",          1026,       84.4242,       37.1189,            0.,NA,NA,"",   2.37214E+06,   2.40958E+06,   2.40958E+06
C:/temp/Job-5.odb,Step-1,Increment      1: Step Time =    1.000,"P-5-1",          1027,       129.698,       168.232,            0.,NA,NA,"",   1.81861E+06,   1.87585E+06,   1.87585E+06
C:/temp/Job-5.odb,Step-1,Increment      1: Step Time =    1.000,"P-5-1",          1028,       138.128,       39.3923,            0.,NA,NA,"",   2.01619E+06,   1.99132E+06,   1.99132E+06
C:/temp/Job-5.odb,Step-1,Increment      1: Step Time =    1.000,"P-5-1",          1029,       77.0028,       166.020,            0.,NA,NA,"",   2.19336E+06,   2.14033E+06,   2.14033E+06
C:/temp/Job-5.odb,Step-1,Increment      1: Step Time =    1.000,"P-5-1",          1030,       159.795,       141.359,            0.,NA,NA,"",   1.87313E+06,   1.56838E+06,   1.56838E+06
C:/temp/Job-5.odb,Step-1,Increment      1: Step Time =    1.000,"P-5-1",          1031,       41.6197,       138.467,            0.,NA,NA,"",   805.936E+03,   639.479E+03,   639.479E+03
C:/temp/Job-5.odb,Step-1,Increment      1: Step Time =    1.000,"P-5-1",          1032,       45.4902,       50.2571,            0.,NA,NA,"",   1.34261E+06,   1.16795E+06,   1.16795E+06
C:/temp/Job-5.odb,Step-1,Increment      1: Step Time =    1.000,"P-5-1",          1033,       70.6174,       164.222,            0.,NA,NA,"",   2.14301E+06,   2.02707E+06,   2.02707E+06
C:/temp/Job-5.odb,Step-1,Increment      1: Step Time =    1.000,"P-5-1",          1034,       40.6337,       64.8021,            0.,NA,NA,"",   650.381E+03,   485.843E+03,   485.843E+03
C:/temp/Job-5.odb,Step-1,Increment      1: Step Time =    1.000,"P-5-1",          1035,       43.4421,       55.8182,            0.,NA,NA,"",   1.07184E+06,   900.776E+03,   900.776E+03
C:/temp/Job-5.odb,Step-1,Increment      1: Step Time =    1.000,"P-5-1",          1036,       125.106,       176.615,            0.,NA,NA,"",   1.47962E+06,   1.54255E+06,   1.54255E+06
C:/temp/Job-5.odb,Step-1,Increment      1: Step Time =    1.000,"P-5-1",          1037,       24.3981,       126.723,            0.,NA,NA,"",   285.173E+03,   263.926E+03,   263.926E+03
C:/temp/Job-5.odb,Step-1,Increment      1: Step Time =    1.000,"P-5-1",          1038,       176.193,       75.2795,            0.,NA,NA,"",   1.29973E+06,   1.23392E+06,   1.23392E+06
C:/temp/Job-5.odb,Step-1,Increment      1: Step Time =    1.000,"P-5-1",          1039,       120.751,       171.247,            0.,NA,NA,"",   1.76075E+06,   1.87681E+06,   1.87681E+06
C:/temp/Job-5.odb,Step-1,Increment      1: Step Time =    1.000,"P-5-1",          1040,       64.7052,       164.411,            0.,NA,NA,"",   2.07423E+06,   1.91980E+06,   1.91980E+06
C:/temp/Job-5.odb,Step-1,Increment      1: Step Time =    1.000,"P-5-1",          1041,       44.9561,       46.8358,            0.,NA,NA,"",   1.46284E+06,   1.29609E+06,   1.29609E+06
C:/temp/Job-5.odb,Step-1,Increment      1: Step Time =    1.000,"P-5-1",          1042,       68.5416,       174.211,            0.,NA,NA,"",   2.04119E+06,   1.92557E+06,   1.92557E+06
C:/temp/Job-5.odb,Step-1,Increment      1: Step Time =    1.000,"P-5-1",          1043,       25.4933,       69.8966,            0.,NA,NA,"",   372.758E+03,   347.475E+03,   347.475E+03
C:/temp/Job-5.odb,Step-1,Increment      1: Step Time =    1.000,"P-5-1",          1044,       175.673,       129.672,            0.,NA,NA,"",   1.41968E+06,   1.32840E+06,   1.32840E+06
C:/temp/Job-5.odb,Step-1,Increment      1: Step Time =    1.000,"P-5-1",          1045,       110.155,       26.2389,            0.,NA,NA,"",   1.69696E+06,   1.82982E+06,   1.82982E+06
C:/temp/Job-5.odb,Step-1,Increment      1: Step Time =    1.000,"P-5-1",          1046,       133.448,       165.775,            0.,NA,NA,"",   1.88730E+06,   1.91474E+06,   1.91474E+06
C:/temp/Job-5.odb,Step-1,Increment      1: Step Time =    1.000,"P-5-1",          1047,       48.2701,       151.263,            0.,NA,NA,"",   1.45952E+06,   1.27245E+06,   1.27245E+06
C:/temp/Job-5.odb,Step-1,Increment      1: Step Time =    1.000,"P-5-1",          1048,       30.3242,       100.426,            0.,NA,NA,"",   155.199E+03,  -170.867E+03,  -170.867E+03
C:/temp/Job-5.odb,Step-1,Increment      1: Step Time =    1.000,"P-5-1",          1049,       172.008,       101.819,            0.,NA,NA,"",   389.368E+03,   411.627E+03,   411.627E+03
C:/temp/Job-5.odb,Step-1,Increment      1: Step Time =    1.000,"P-5-1",          1050,       131.705,       171.184,            0.,NA,NA,"",   1.70465E+06,   1.73759E+06,   1.73759E+06
C:/temp/Job-5.odb,Step-1,Increment      1: Step Time =    1.000,"P-5-1",          1051,       162.083,       65.2242,            0.,NA,NA,"",   1.74106E+06,   1.39034E+06,   1.39034E+06
C:/temp/Job-5.odb,Step-1,Increment      1: Step Time =    1.000,"P-5-1",          1052,       175.476,       105.331,            0.,NA,NA,"",   573.760E+03,   637.508E+03,   637.508E+03
C:/temp/Job-5.odb,Step-1,Increment      1: Step Time =    1.000,"P-5-1",          1053,       59.7664,       35.4291,            0.,NA,NA,"",   1.99207E+06,   1.82030E+06,   1.82030E+06
C:/temp/Job-5.odb,Step-1,Increment      1: Step Time =    1.000,"P-5-1",          1054,       88.3156,       25.5147,            0.,NA,NA,"",   1.92911E+06,   1.95108E+06,   1.95108E+06
C:/temp/Job-5.odb,Step-1,Increment      1: Step Time =    1.000,"P-5-1",          1055,       170.148,       90.7478,            0.,NA,NA,"",   681.246E+03,   567.304E+03,   567.304E+03
C:/temp/Job-5.odb,Step-1,Increment      1: Step Time =    1.000,"P-5-1",          1056,       78.5090,       28.4922,            0.,NA,NA,"",   2.10308E+06,   2.04664E+06,   2.04664E+06
C:/temp/Job-5.odb,Step-1,Increment      1: Step Time =    1.000,"P-5-1",          1057,       171.604,       118.458,            0.,NA,NA,"",   1.11745E+06,   966.810E+03,   966.810E+03
C:/temp/Job-5.odb,Step-1,Increment      1: Step Time =    1.000,"P-5-1",          1058,       79.2108,       170.820,            0.,NA,NA,"",   2.11936E+06,   2.07628E+06,   2.07628E+06
C:/temp/Job-5.odb,Step-1,Increment      1: Step Time =    1.000,"P-5-1",          1059,       29.9212,       141.199,            0.,NA,NA,"",   761.278E+03,   711.551E+03,   711.551E+03
C:/temp/Job-5.odb,Step-1,Increment      1: Step Time =    1.000,"P-5-1",          1060,       142.639,       30.7815,            0.,NA,NA,"",   1.71157E+06,   1.66279E+06,   1.66279E+06
C:/temp/Job-5.odb,Step-1,Increment      1: Step Time =    1.000,"P-5-1",          1061,       29.1199,       55.3806,            0.,NA,NA,"",   877.553E+03,    831.49E+03,    831.49E+03
C:/temp/Job-5.odb,Step-1,Increment      1: Step Time =    1.000,"P-5-1",          1062,       58.8164,       29.6930,            0.,NA,NA,"",   2.01167E+06,   1.86092E+06,   1.86092E+06
C:/temp/Job-5.odb,Step-1,Increment      1: Step Time =    1.000,"P-5-1",          1063,       169.104,       58.6386,            0.,NA,NA,"",   1.69221E+06,   1.48947E+06,   1.48947E+06
C:/temp/Job-5.odb,Step-1,Increment      1: Step Time =    1.000,"P-5-1",          1064,       55.4066,       171.561,            0.,NA,NA,"",   1.97294E+06,   1.83131E+06,   1.83131E+06
C:/temp/Job-5.odb,Step-1,Increment      1: Step Time =    1.000,"P-5-1",          1065,       140.594,       168.799,            0.,NA,NA,"",   1.74133E+06,   1.70595E+06,   1.70595E+06
C:/temp/Job-5.odb,Step-1,Increment      1: Step Time =    1.000,"P-5-1",          1066,       172.641,       140.158,            0.,NA,NA,"",   1.59476E+06,   1.45027E+06,   1.45027E+06
C:/temp/Job-5.odb,Step-1,Increment      1: Step Time =    1.000,"P-5-1",          1067,       126.105,       24.6167,            0.,NA,NA,"",   1.53379E+06,   1.59624E+06,   1.59624E+06
C:/temp/Job-5.odb,Step-1,Increment      1: Step Time =    1.000,"P-5-1",          1068,       154.542,       9.34764,            0.,NA,NA,"",   1.02074E+06,   1.00590E+06,   1.00590E+06
C:/temp/Job-5.odb,Step-1,Increment      1: Step Time =    1.000,"P-5-1",          1069,       189.961,       153.506,            0.,NA,NA,"",   1.03708E+06,   1.12233E+06,   1.12233E+06
C:/temp/Job-5.odb,Step-1,Increment      1: Step Time =    1.000,"P-5-1",          1070,       45.2266,       190.654,            0.,NA,NA,"",   2.00157E+06,   1.97918E+06,   1.97918E+06
C:/temp/Job-5.odb,Step-1,Increment      1: Step Time =    1.000,"P-5-1",          1071,       9.58985,       45.7375,            0.,NA,NA,"",   962.726E+03,   1.04330E+06,   1.04330E+06
C:/temp/Job-5.odb,Step-1,Increment      1: Step Time =    1.000,"P-5-1",          1072,       89.4504,       36.2274,            0.,NA,NA,"",   2.40796E+06,   2.49520E+06,   2.49520E+06
C:/temp/Job-5.odb,Step-1,Increment      1: Step Time =    1.000,"P-5-1",          1073,       78.9177,       32.6853,            0.,NA,NA,"",   2.19244E+06,   2.14696E+06,   2.14696E+06
C:/temp/Job-5.odb,Step-1,Increment      1: Step Time =    1.000,"P-5-1",          1074,       45.8838,       142.586,            0.,NA,NA,"",   1.01857E+06,   830.645E+03,   830.645E+03
C:/temp/Job-5.odb,Step-1,Increment      1: Step Time =    1.000,"P-5-1",          1075,       38.6016,       140.120,            0.,NA,NA,"",   838.671E+03,   702.219E+03,   702.219E+03
C:/temp/Job-5.odb,Step-1,Increment      1: Step Time =    1.000,"P-5-1",          1076,       165.483,       139.834,            0.,NA,NA,"",   1.77394E+06,   1.50836E+06,   1.50836E+06
C:/temp/Job-5.odb,Step-1,Increment      1: Step Time =    1.000,"P-5-1",          1077,       69.4331,       26.5282,            0.,NA,NA,"",   2.06070E+06,   1.94795E+06,   1.94795E+06
C:/temp/Job-5.odb,Step-1,Increment      1: Step Time =    1.000,"P-5-1",          1078,       26.1154,       131.978,            0.,NA,NA,"",   427.572E+03,   397.851E+03,   397.851E+03
C:/temp/Job-5.odb,Step-1,Increment      1: Step Time =    1.000,"P-5-1",          1079,       171.357,       69.6789,            0.,NA,NA,"",   1.50387E+06,   1.31226E+06,   1.31226E+06
C:/temp/Job-5.odb,Step-1,Increment      1: Step Time =    1.000,"P-5-1",          1080,       39.0742,       57.3287,            0.,NA,NA,"",   941.455E+03,   804.255E+03,   804.255E+03
C:/temp/Job-5.odb,Step-1,Increment      1: Step Time =    1.000,"P-5-1",          1081,       28.5995,       120.402,            0.,NA,NA,"",   165.806E+03,  -6.20157E+03,  -6.20157E+03
C:/temp/Job-5.odb,Step-1,Increment      1: Step Time =    1.000,"P-5-1",          1082,       104.254,       26.9017,            0.,NA,NA,"",   1.81079E+06,   1.94365E+06,   1.94365E+06
C:/temp/Job-5.odb,Step-1,Increment      1: Step Time =    1.000,"P-5-1",          1083,       111.535,       171.792,            0.,NA,NA,"",   1.77818E+06,   1.91728E+06,   1.91728E+06
C:/temp/Job-5.odb,Step-1,Increment      1: Step Time =    1.000,"P-5-1",          1084,       146.414,       144.882,            0.,NA,NA,"",   1.99468E+06,   1.81061E+06,   1.81061E+06
C:/temp/Job-5.odb,Step-1,Increment      1: Step Time =    1.000,"P-5-1",          1085,       37.6762,       74.0782,            0.,NA,NA,"",   345.449E+03,  -42.1636E+03,  -42.1636E+03
C:/temp/Job-5.odb,Step-1,Increment      1: Step Time =    1.000,"P-5-1",          1086,       25.8110,       75.1825,            0.,NA,NA,"",   233.145E+03,   198.614E+03,   198.614E+03
C:/temp/Job-5.odb,Step-1,Increment      1: Step Time =    1.000,"P-5-1",          1087,       141.939,       42.4133,            0.,NA,NA,"",   2.03797E+06,   1.96376E+06,   1.96376E+06
C:/temp/Job-5.odb,Step-1,Increment      1: Step Time =    1.000,"P-5-1",          1088,       45.9472,       42.7572,            0.,NA,NA,"",   1.60699E+06,   1.44352E+06,   1.44352E+06
C:/temp/Job-5.odb,Step-1,Increment      1: Step Time =    1.000,"P-5-1",          1089,       145.552,       153.120,            0.,NA,NA,"",   2.04686E+06,   1.91803E+06,   1.91803E+06
C:/temp/Job-5.odb,Step-1,Increment      1: Step Time =    1.000,"P-5-1",          1090,       140.908,       36.5716,            0.,NA,NA,"",   1.91098E+06,   1.86285E+06,   1.86285E+06
C:/temp/Job-5.odb,Step-1,Increment      1: Step Time =    1.000,"P-5-1",          1091,       153.515,       143.145,            0.,NA,NA,"",   1.95156E+06,   1.66491E+06,   1.66491E+06
C:/temp/Job-5.odb,Step-1,Increment      1: Step Time =    1.000,"P-5-1",          1092,       148.313,       34.9274,            0.,NA,NA,"",   1.78158E+06,   1.68933E+06,   1.68933E+06
C:/temp/Job-5.odb,Step-1,Increment      1: Step Time =    1.000,"P-5-1",          1093,       154.487,       14.0521,            0.,NA,NA,"",   1.14286E+06,   1.11592E+06,   1.11592E+06
C:/temp/Job-5.odb,Step-1,Increment      1: Step Time =    1.000,"P-5-1",          1094,       14.4961,       46.0125,            0.,NA,NA,"",   1.00776E+06,   1.06364E+06,   1.06364E+06
C:/temp/Job-5.odb,Step-1,Increment      1: Step Time =    1.000,"P-5-1",          1095,       186.028,       151.258,            0.,NA,NA,"",   1.14888E+06,   1.20841E+06,   1.20841E+06
C:/temp/Job-5.odb,Step-1,Increment      1: Step Time =    1.000,"P-5-1",          1096,       45.3339,       186.030,            0.,NA,NA,"",   1.96794E+06,   1.92553E+06,   1.92553E+06
C:/temp/Job-5.odb,Step-1,Increment      1: Step Time =    1.000,"P-5-1",          1097,       44.3032,       152.659,            0.,NA,NA,"",   1.43441E+06,   1.27186E+06,   1.27186E+06
C:/temp/Job-5.odb,Step-1,Increment      1: Step Time =    1.000,"P-5-1",          1098,       152.085,       149.396,            0.,NA,NA,"",   1.97820E+06,   1.76418E+06,   1.76418E+06
C:/temp/Job-5.odb,Step-1,Increment      1: Step Time =    1.000,"P-5-1",          1099,       166.558,       67.0082,            0.,NA,NA,"",   1.64059E+06,   1.35174E+06,   1.35174E+06
C:/temp/Job-5.odb,Step-1,Increment      1: Step Time =    1.000,"P-5-1",          1100,       159.949,       58.9668,            0.,NA,NA,"",   1.86222E+06,   1.55662E+06,   1.55662E+06
C:/temp/Job-5.odb,Step-1,Increment      1: Step Time =    1.000,"P-5-1",          1101,       67.5844,       166.114,            0.,NA,NA,"",   2.11170E+06,   1.97317E+06,   1.97317E+06
C:/temp/Job-5.odb,Step-1,Increment      1: Step Time =    1.000,"P-5-1",          1102,       19.3058,       79.0748,            0.,NA,NA,"",   154.100E+03,   149.676E+03,   149.676E+03
C:/temp/Job-5.odb,Step-1,Increment      1: Step Time =    1.000,"P-5-1",          1103,       174.778,       123.756,            0.,NA,NA,"",   1.28059E+06,   1.19220E+06,   1.19220E+06
C:/temp/Job-5.odb,Step-1,Increment      1: Step Time =    1.000,"P-5-1",          1104,       74.0261,       173.009,            0.,NA,NA,"",   2.07384E+06,   1.98516E+06,   1.98516E+06
C:/temp/Job-5.odb,Step-1,Increment      1: Step Time =    1.000,"P-5-1",          1105,       57.8349,       44.4038,            0.,NA,NA,"",   1.79077E+06,   1.59777E+06,   1.59777E+06
C:/temp/Job-5.odb,Step-1,Increment      1: Step Time =    1.000,"P-5-1",          1106,       140.293,       156.195,            0.,NA,NA,"",   2.08167E+06,   2.02750E+06,   2.02750E+06
C:/temp/Job-5.odb,Step-1,Increment      1: Step Time =    1.000,"P-5-1",          1107,       26.6745,       146.087,            0.,NA,NA,"",   895.149E+03,   870.736E+03,   870.736E+03
C:/temp/Job-5.odb,Step-1,Increment      1: Step Time =    1.000,"P-5-1",          1108,       146.153,       24.9061,            0.,NA,NA,"",   1.49494E+06,   1.44549E+06,   1.44549E+06
C:/temp/Job-5.odb,Step-1,Increment      1: Step Time =    1.000,"P-5-1",          1109,       53.1136,       26.5890,            0.,NA,NA,"",   1.95321E+06,   1.82762E+06,   1.82762E+06
C:/temp/Job-5.odb,Step-1,Increment      1: Step Time =    1.000,"P-5-1",          1110,       24.4169,       55.6306,            0.,NA,NA,"",   812.371E+03,   800.138E+03,   800.138E+03
C:/temp/Job-5.odb,Step-1,Increment      1: Step Time =    1.000,"P-5-1",          1111,       173.050,       54.0833,            0.,NA,NA,"",   1.56392E+06,   1.45075E+06,   1.45075E+06
C:/temp/Job-5.odb,Step-1,Increment      1: Step Time =    1.000,"P-5-1",          1112,       145.490,       173.406,            0.,NA,NA,"",   1.55435E+06,   1.50090E+06,   1.50090E+06
C:/temp/Job-5.odb,Step-1,Increment      1: Step Time =    1.000,"P-5-1",          1113,       173.263,       145.218,            0.,NA,NA,"",   1.56128E+06,   1.44900E+06,   1.44900E+06
C:/temp/Job-5.odb,Step-1,Increment      1: Step Time =    1.000,"P-5-1",          1114,       165.126,       134.243,            0.,NA,NA,"",   1.70213E+06,   1.39511E+06,   1.39511E+06
C:/temp/Job-5.odb,Step-1,Increment      1: Step Time =    1.000,"P-5-1",          1115,       88.6803,       30.8888,            0.,NA,NA,"",   2.14550E+06,   2.19771E+06,   2.19771E+06
C:/temp/Job-5.odb,Step-1,Increment      1: Step Time =    1.000,"P-5-1",          1116,       35.9211,       143.202,            0.,NA,NA,"",   914.506E+03,   806.530E+03,   806.530E+03
C:/temp/Job-5.odb,Step-1,Increment      1: Step Time =    1.000,"P-5-1",          1117,       163.866,       143.726,            0.,NA,NA,"",   1.80423E+06,   1.55343E+06,   1.55343E+06
C:/temp/Job-5.odb,Step-1,Increment      1: Step Time =    1.000,"P-5-1",          1118,       34.6925,       58.9090,            0.,NA,NA,"",   820.730E+03,   727.626E+03,   727.626E+03
C:/temp/Job-5.odb,Step-1,Increment      1: Step Time =    1.000,"P-5-1",          1119,       33.1238,       102.490,            0.,NA,NA,"",   196.915E+03,  -221.628E+03,  -221.628E+03
C:/temp/Job-5.odb,Step-1,Increment      1: Step Time =    1.000,"P-5-1",          1120,       50.6201,       143.357,            0.,NA,NA,"",   1.11949E+06,   914.304E+03,   914.304E+03
C:/temp/Job-5.odb,Step-1,Increment      1: Step Time =    1.000,"P-5-1",          1121,       36.2975,       68.9313,            0.,NA,NA,"",   481.202E+03,   354.811E+03,   354.811E+03
C:/temp/Job-5.odb,Step-1,Increment      1: Step Time =    1.000,"P-5-1",          1122,       47.2691,       38.0237,            0.,NA,NA,"",   1.74310E+06,   1.58861E+06,   1.58861E+06
C:/temp/Job-5.odb,Step-1,Increment      1: Step Time =    1.000,"P-5-1",          1123,       109.997,       166.537,            0.,NA,NA,"",   2.17217E+06,   2.34165E+06,   2.34165E+06
C:/temp/Job-5.odb,Step-1,Increment      1: Step Time =    1.000,"P-5-1",          1124,       101.482,       30.1246,            0.,NA,NA,"",   2.03377E+06,   2.17975E+06,   2.17975E+06
C:/temp/Job-5.odb,Step-1,Increment      1: Step Time =    1.000,"P-5-1",          1125,       47.2976,       22.3909,            0.,NA,NA,"",   1.93898E+06,   1.84933E+06,   1.84933E+06
C:/temp/Job-5.odb,Step-1,Increment      1: Step Time =    1.000,"P-5-1",          1126,       24.3016,       50.9258,            0.,NA,NA,"",   972.874E+03,   962.669E+03,   962.669E+03
C:/temp/Job-5.odb,Step-1,Increment      1: Step Time =    1.000,"P-5-1",          1127,       151.750,       177.245,            0.,NA,NA,"",   1.40111E+06,   1.34903E+06,   1.34903E+06
C:/temp/Job-5.odb,Step-1,Increment      1: Step Time =    1.000,"P-5-1",          1128,       175.560,       148.813,            0.,NA,NA,"",   1.47200E+06,   1.40330E+06,   1.40330E+06
C:/temp/Job-5.odb,Step-1,Increment      1: Step Time =    1.000,"P-5-1",          1129,       21.7071,       151.476,            0.,NA,NA,"",   1.01527E+06,   1.02422E+06,   1.02422E+06
C:/temp/Job-5.odb,Step-1,Increment      1: Step Time =    1.000,"P-5-1",          1130,       150.799,       24.2051,            0.,NA,NA,"",   1.44083E+06,   1.38496E+06,   1.38496E+06
C:/temp/Job-5.odb,Step-1,Increment      1: Step Time =    1.000,"P-5-1",          1131,       177.191,       47.5605,            0.,NA,NA,"",   1.39966E+06,   1.35462E+06,   1.35462E+06
C:/temp/Job-5.odb,Step-1,Increment      1: Step Time =    1.000,"P-5-1",          1132,       45.4161,       177.098,            0.,NA,NA,"",   1.91969E+06,   1.83306E+06,   1.83306E+06
C:/temp/Job-5.odb,Step-1,Increment      1: Step Time =    1.000,"P-5-1",          1133,       67.6903,       169.614,            0.,NA,NA,"",   2.09676E+06,   1.96527E+06,   1.96527E+06
C:/temp/Job-5.odb,Step-1,Increment      1: Step Time =    1.000,"P-5-1",          1134,       152.722,       156.658,            0.,NA,NA,"",   1.89798E+06,   1.73815E+06,   1.73815E+06
C:/temp/Job-5.odb,Step-1,Increment      1: Step Time =    1.000,"P-5-1",          1135,       149.451,       140.350,            0.,NA,NA,"",   1.87428E+06,   1.60581E+06,   1.60581E+06
C:/temp/Job-5.odb,Step-1,Increment      1: Step Time =    1.000,"P-5-1",          1136,       48.4651,       156.493,            0.,NA,NA,"",   1.63935E+06,   1.46194E+06,   1.46194E+06
C:/temp/Job-5.odb,Step-1,Increment      1: Step Time =    1.000,"P-5-1",          1137,       158.508,       152.562,            0.,NA,NA,"",   1.85435E+06,   1.65476E+06,   1.65476E+06
C:/temp/Job-5.odb,Step-1,Increment      1: Step Time =    1.000,"P-5-1",          1138,       155.799,       56.6907,            0.,NA,NA,"",   1.92759E+06,   1.63949E+06,   1.63949E+06
C:/temp/Job-5.odb,Step-1,Increment      1: Step Time =    1.000,"P-5-1",          1139,       171.432,       130.305,            0.,NA,NA,"",   1.52044E+06,   1.32593E+06,   1.32593E+06
C:/temp/Job-5.odb,Step-1,Increment      1: Step Time =    1.000,"P-5-1",          1140,       33.0551,       139.487,            0.,NA,NA,"",   738.610E+03,   662.817E+03,   662.817E+03
C:/temp/Job-5.odb,Step-1,Increment      1: Step Time =    1.000,"P-5-1",          1141,       168.783,       140.652,            0.,NA,NA,"",   1.70066E+06,   1.49172E+06,   1.49172E+06
C:/temp/Job-5.odb,Step-1,Increment      1: Step Time =    1.000,"P-5-1",          1142,       37.5073,       52.8787,            0.,NA,NA,"",   1.10089E+06,   982.240E+03,   982.240E+03
C:/temp/Job-5.odb,Step-1,Increment      1: Step Time =    1.000,"P-5-1",          1143,       142.636,       160.825,            0.,NA,NA,"",   1.94957E+06,   1.88035E+06,   1.88035E+06
C:/temp/Job-5.odb,Step-1,Increment      1: Step Time =    1.000,"P-5-1",          1144,       41.3151,       37.2811,            0.,NA,NA,"",   1.66239E+06,   1.54255E+06,   1.54255E+06
C:/temp/Job-5.odb,Step-1,Increment      1: Step Time =    1.000,"P-5-1",          1145,       53.4968,       39.7116,            0.,NA,NA,"",   1.81630E+06,   1.63428E+06,   1.63428E+06
C:/temp/Job-5.odb,Step-1,Increment      1: Step Time =    1.000,"P-5-1",          1146,       102.377,       33.3020,            0.,NA,NA,"",   2.22313E+06,   2.38479E+06,   2.38479E+06
C:/temp/Job-5.odb,Step-1,Increment      1: Step Time =    1.000,"P-5-1",          1147,       165.134,       90.1342,            0.,NA,NA,"",   765.851E+03,  -86.9323E+03,  -86.9323E+03
C:/temp/Job-5.odb,Step-1,Increment      1: Step Time =    1.000,"P-5-1",          1148,       158.661,       48.2200,            0.,NA,NA,"",   1.87430E+06,   1.66895E+06,   1.66895E+06
C:/temp/Job-5.odb,Step-1,Increment      1: Step Time =    1.000,"P-5-1",          1149,       162.144,       148.683,            0.,NA,NA,"",   1.81182E+06,   1.59630E+06,   1.59630E+06
C:/temp/Job-5.odb,Step-1,Increment      1: Step Time =    1.000,"P-5-1",          1150,       31.8886,       132.162,            0.,NA,NA,"",   483.126E+03,   408.914E+03,   408.914E+03
C:/temp/Job-5.odb,Step-1,Increment      1: Step Time =    1.000,"P-5-1",          1151,       31.0634,       69.3916,            0.,NA,NA,"",   423.757E+03,   350.431E+03,   350.431E+03
C:/temp/Job-5.odb,Step-1,Increment      1: Step Time =    1.000,"P-5-1",          1152,       133.034,       154.721,            0.,NA,NA,"",   2.27483E+06,   2.31840E+06,   2.31840E+06
C:/temp/Job-5.odb,Step-1,Increment      1: Step Time =    1.000,"P-5-1",          1153,       152.906,       34.3097,            0.,NA,NA,"",   1.69973E+06,   1.59753E+06,   1.59753E+06
C:/temp/Job-5.odb,Step-1,Increment      1: Step Time =    1.000,"P-5-1",          1154,       58.9115,       165.088,            0.,NA,NA,"",   1.99091E+06,   1.81852E+06,   1.81852E+06
C:/temp/Job-5.odb,Step-1,Increment      1: Step Time =    1.000,"P-5-1",          1155,       100.544,       165.776,            0.,NA,NA,"",   2.29368E+06,   2.44927E+06,   2.44927E+06
C:/temp/Job-5.odb,Step-1,Increment      1: Step Time =    1.000,"P-5-1",          1156,       49.9073,       162.786,            0.,NA,NA,"",   1.81475E+06,   1.64969E+06,   1.64969E+06
C:/temp/Job-5.odb,Step-1,Increment      1: Step Time =    1.000,"P-5-1",          1157,       47.8525,       27.4632,            0.,NA,NA,"",   1.90655E+06,   1.79041E+06,   1.79041E+06
C:/temp/Job-5.odb,Step-1,Increment      1: Step Time =    1.000,"P-5-1",          1158,       19.4479,       46.1715,            0.,NA,NA,"",   1.06449E+06,   1.09027E+06,   1.09027E+06
C:/temp/Job-5.odb,Step-1,Increment      1: Step Time =    1.000,"P-5-1",          1159,       149.935,       175.321,            0.,NA,NA,"",   1.48016E+06,   1.42205E+06,   1.42205E+06
C:/temp/Job-5.odb,Step-1,Increment      1: Step Time =    1.000,"P-5-1",          1160,       180.560,       150.877,            0.,NA,NA,"",   1.31066E+06,   1.30810E+06,   1.30810E+06
C:/temp/Job-5.odb,Step-1,Increment      1: Step Time =    1.000,"P-5-1",          1161,       149.501,       180.384,            0.,NA,NA,"",   1.31685E+06,   1.27578E+06,   1.27578E+06
C:/temp/Job-5.odb,Step-1,Increment      1: Step Time =    1.000,"P-5-1",          1162,       19.3246,       149.301,            0.,NA,NA,"",   917.021E+03,   941.236E+03,   941.236E+03
C:/temp/Job-5.odb,Step-1,Increment      1: Step Time =    1.000,"P-5-1",          1163,       154.658,       18.7659,            0.,NA,NA,"",   1.26650E+06,   1.22623E+06,   1.22623E+06
C:/temp/Job-5.odb,Step-1,Increment      1: Step Time =    1.000,"P-5-1",          1164,       24.3577,       150.680,            0.,NA,NA,"",   1.02111E+06,   1.01100E+06,   1.01100E+06
C:/temp/Job-5.odb,Step-1,Increment      1: Step Time =    1.000,"P-5-1",          1165,       172.198,       49.5607,            0.,NA,NA,"",   1.54894E+06,   1.44299E+06,   1.44299E+06
C:/temp/Job-5.odb,Step-1,Increment      1: Step Time =    1.000,"P-5-1",          1166,       45.4140,       181.493,            0.,NA,NA,"",   1.94480E+06,   1.87977E+06,   1.87977E+06
C:/temp/Job-5.odb,Step-1,Increment      1: Step Time =    1.000,"P-5-1",          1167,       179.423,       45.1445,            0.,NA,NA,"",   1.31942E+06,   1.30125E+06,   1.30125E+06
C:/temp/Job-5.odb,Step-1,Increment      1: Step Time =    1.000,"P-5-1",          1168,       162.895,       54.5444,            0.,NA,NA,"",   1.82222E+06,   1.58130E+06,   1.58130E+06
C:/temp/Job-5.odb,Step-1,Increment      1: Step Time =    1.000,"P-5-1",          1169,       55.6779,       161.866,            0.,NA,NA,"",   1.90259E+06,   1.72009E+06,   1.72009E+06
C:/temp/Job-5.odb,Step-1,Increment      1: Step Time =    1.000,"P-5-1",          1170,       163.097,       44.2480,            0.,NA,NA,"",   1.71703E+06,   1.56462E+06,   1.56462E+06
C:/temp/Job-5.odb,Step-1,Increment      1: Step Time =    1.000,"P-5-1",          1171,       37.8430,       150.996,            0.,NA,NA,"",   1.25573E+06,   1.13786E+06,   1.13786E+06
C:/temp/Job-5.odb,Step-1,Increment      1: Step Time =    1.000,"P-5-1",          1172,       151.815,       29.2396,            0.,NA,NA,"",   1.57500E+06,   1.49918E+06,   1.49918E+06
C:/temp/Job-5.odb,Step-1,Increment      1: Step Time =    1.000,"P-5-1",          1173,       153.467,       39.2268,            0.,NA,NA,"",   1.80927E+06,   1.67613E+06,   1.67613E+06
C:/temp/Job-5.odb,Step-1,Increment      1: Step Time =    1.000,"P-5-1",          1174,       137.951,       163.521,            0.,NA,NA,"",   1.92792E+06,   1.91303E+06,   1.91303E+06
C:/temp/Job-5.odb,Step-1,Increment      1: Step Time =    1.000,"P-5-1",          1175,       56.0813,       167.052,            0.,NA,NA,"",   1.97507E+06,   1.80998E+06,   1.80998E+06
C:/temp/Job-5.odb,Step-1,Increment      1: Step Time =    1.000,"P-5-1",          1176,       144.712,       165.331,            0.,NA,NA,"",   1.81249E+06,   1.74035E+06,   1.74035E+06
C:/temp/Job-5.odb,Step-1,Increment      1: Step Time =    1.000,"P-5-1",          1177,       162.545,       155.737,            0.,NA,NA,"",   1.71922E+06,   1.55990E+06,   1.55990E+06
C:/temp/Job-5.odb,Step-1,Increment      1: Step Time =    1.000,"P-5-1",          1178,       149.567,       163.645,            0.,NA,NA,"",   1.79809E+06,   1.69502E+06,   1.69502E+06
C:/temp/Job-5.odb,Step-1,Increment      1: Step Time =    1.000,"P-5-1",          1179,       164.219,       152.685,            0.,NA,NA,"",   1.72148E+06,   1.55351E+06,   1.55351E+06
C:/temp/Job-5.odb,Step-1,Increment      1: Step Time =    1.000,"P-5-1",          1180,       29.8196,       151.245,            0.,NA,NA,"",   1.12769E+06,   1.07799E+06,   1.07799E+06
C:/temp/Job-5.odb,Step-1,Increment      1: Step Time =    1.000,"P-5-1",          1181,       98.5492,       34.4760,            0.,NA,NA,"",   2.32557E+06,   2.47581E+06,   2.47581E+06
C:/temp/Job-5.odb,Step-1,Increment      1: Step Time =    1.000,"P-5-1",          1182,       25.9867,       154.727,            0.,NA,NA,"",   1.18623E+06,   1.16656E+06,   1.16656E+06
C:/temp/Job-5.odb,Step-1,Increment      1: Step Time =    1.000,"P-5-1",          1183,       155.647,       174.472,            0.,NA,NA,"",   1.44059E+06,   1.37776E+06,   1.37776E+06
C:/temp/Job-5.odb,Step-1,Increment      1: Step Time =    1.000,"P-5-1",          1184,       172.831,       44.5798,            0.,NA,NA,"",   1.48143E+06,   1.40039E+06,   1.40039E+06
C:/temp/Job-5.odb,Step-1,Increment      1: Step Time =    1.000,"P-5-1",          1185,       42.5114,       27.5244,            0.,NA,NA,"",   1.85825E+06,   1.76160E+06,   1.76160E+06
C:/temp/Job-5.odb,Step-1,Increment      1: Step Time =    1.000,"P-5-1",          1186,       156.175,       28.3629,            0.,NA,NA,"",   1.50272E+06,   1.42772E+06,   1.42772E+06
C:/temp/Job-5.odb,Step-1,Increment      1: Step Time =    1.000,"P-5-1",          1187,       167.886,       49.3849,            0.,NA,NA,"",   1.66412E+06,   1.51221E+06,   1.51221E+06
C:/temp/Job-5.odb,Step-1,Increment      1: Step Time =    1.000,"P-5-1",          1188,       151.114,       169.137,            0.,NA,NA,"",   1.61844E+06,   1.53800E+06,   1.53800E+06
C:/temp/Job-5.odb,Step-1,Increment      1: Step Time =    1.000,"P-5-1",          1189,       35.3306,       42.1390,            0.,NA,NA,"",   1.43662E+06,   1.34696E+06,   1.34696E+06
C:/temp/Job-5.odb,Step-1,Increment      1: Step Time =    1.000,"P-5-1",          1190,       53.4242,       164.880,            0.,NA,NA,"",   1.90941E+06,   1.74418E+06,   1.74418E+06
C:/temp/Job-5.odb,Step-1,Increment      1: Step Time =    1.000,"P-5-1",          1191,       50.1028,       16.2262,            0.,NA,NA,"",   1.95292E+06,   1.88863E+06,   1.88863E+06
C:/temp/Job-5.odb,Step-1,Increment      1: Step Time =    1.000,"P-5-1",          1192,       14.5217,       50.7711,            0.,NA,NA,"",   863.641E+03,   912.726E+03,   912.726E+03
C:/temp/Job-5.odb,Step-1,Increment      1: Step Time =    1.000,"P-5-1",          1193,       152.358,       182.530,            0.,NA,NA,"",   1.24093E+06,   1.20492E+06,   1.20492E+06
C:/temp/Job-5.odb,Step-1,Increment      1: Step Time =    1.000,"P-5-1",          1194,       187.756,       148.449,            0.,NA,NA,"",   1.11129E+06,   1.19654E+06,   1.19654E+06
C:/temp/Job-5.odb,Step-1,Increment      1: Step Time =    1.000,"P-5-1",          1195,       149.829,       14.3571,            0.,NA,NA,"",   1.15599E+06,   1.12828E+06,   1.12828E+06
C:/temp/Job-5.odb,Step-1,Increment      1: Step Time =    1.000,"P-5-1",          1196,       17.1762,       152.029,            0.,NA,NA,"",   976.464E+03,   1.01663E+06,   1.01663E+06
C:/temp/Job-5.odb,Step-1,Increment      1: Step Time =    1.000,"P-5-1",          1197,       50.0307,       181.398,            0.,NA,NA,"",   1.94266E+06,   1.86777E+06,   1.86777E+06
C:/temp/Job-5.odb,Step-1,Increment      1: Step Time =    1.000,"P-5-1",          1198,       183.087,       47.9307,            0.,NA,NA,"",   1.23893E+06,   1.26059E+06,   1.26059E+06
C:/temp/Job-5.odb,Step-1,Increment      1: Step Time =    1.000,"P-5-1",          1199,       163.180,       49.0808,            0.,NA,NA,"",   1.78000E+06,   1.59033E+06,   1.59033E+06
C:/temp/Job-5.odb,Step-1,Increment      1: Step Time =    1.000,"P-5-1",          1200,       162.976,       39.6717,            0.,NA,NA,"",   1.63905E+06,   1.51691E+06,   1.51691E+06
C:/temp/Job-5.odb,Step-1,Increment      1: Step Time =    1.000,"P-5-1",          1201,       158.276,       39.1350,            0.,NA,NA,"",   1.72387E+06,   1.59158E+06,   1.59158E+06
C:/temp/Job-5.odb,Step-1,Increment      1: Step Time =    1.000,"P-5-1",          1202,       172.352,       149.348,            0.,NA,NA,"",   1.56001E+06,   1.44940E+06,   1.44940E+06
C:/temp/Job-5.odb,Step-1,Increment      1: Step Time =    1.000,"P-5-1",          1203,       33.3040,       154.462,            0.,NA,NA,"",   1.28583E+06,   1.20873E+06,   1.20873E+06
C:/temp/Job-5.odb,Step-1,Increment      1: Step Time =    1.000,"P-5-1",          1204,       100.088,       38.7749,            0.,NA,NA,"",   2.72662E+06,   2.89565E+06,   2.89565E+06
C:/temp/Job-5.odb,Step-1,Increment      1: Step Time =    1.000,"P-5-1",          1205,       155.718,       166.581,            0.,NA,NA,"",   1.63783E+06,   1.53860E+06,   1.53860E+06
C:/temp/Job-5.odb,Step-1,Increment      1: Step Time =    1.000,"P-5-1",          1206,       163.467,       35.2067,            0.,NA,NA,"",   1.54360E+06,   1.44919E+06,   1.44919E+06
C:/temp/Job-5.odb,Step-1,Increment      1: Step Time =    1.000,"P-5-1",          1207,       47.9987,       32.7729,            0.,NA,NA,"",   1.84541E+06,   1.70615E+06,   1.70615E+06
C:/temp/Job-5.odb,Step-1,Increment      1: Step Time =    1.000,"P-5-1",          1208,       40.5532,       46.9780,            0.,NA,NA,"",   1.37803E+06,   1.24065E+06,   1.24065E+06
C:/temp/Job-5.odb,Step-1,Increment      1: Step Time =    1.000,"P-5-1",          1209,       35.4909,       36.9031,            0.,NA,NA,"",   1.58418E+06,   1.50130E+06,   1.50130E+06
C:/temp/Job-5.odb,Step-1,Increment      1: Step Time =    1.000,"P-5-1",          1210,       46.5213,       17.9386,            0.,NA,NA,"",   1.95611E+06,   1.88866E+06,   1.88866E+06
C:/temp/Job-5.odb,Step-1,Increment      1: Step Time =    1.000,"P-5-1",          1211,       154.496,       178.523,            0.,NA,NA,"",   1.34289E+06,   1.29428E+06,   1.29428E+06
C:/temp/Job-5.odb,Step-1,Increment      1: Step Time =    1.000,"P-5-1",          1212,       21.1392,       153.997,            0.,NA,NA,"",   1.08765E+06,   1.10291E+06,   1.10291E+06
C:/temp/Job-5.odb,Step-1,Increment      1: Step Time =    1.000,"P-5-1",          1213,       181.502,       42.4862,            0.,NA,NA,"",   1.23993E+06,   1.24319E+06,   1.24319E+06
C:/temp/Job-5.odb,Step-1,Increment      1: Step Time =    1.000,"P-5-1",          1214,       160.090,       160.338,            0.,NA,NA,"",   1.70520E+06,   1.56869E+06,   1.56869E+06
C:/temp/Job-5.odb,Step-1,Increment      1: Step Time =    1.000,"P-5-1",          1215,       160.003,       27.1543,            0.,NA,NA,"",   1.42373E+06,   1.35785E+06,   1.35785E+06
C:/temp/Job-5.odb,Step-1,Increment      1: Step Time =    1.000,"P-5-1",          1216,       27.4387,       161.020,            0.,NA,NA,"",   1.40982E+06,   1.38204E+06,   1.38204E+06
C:/temp/Job-5.odb,Step-1,Increment      1: Step Time =    1.000,"P-5-1",          1217,       165.456,       171.838,            0.,NA,NA,"",   1.37426E+06,   1.31664E+06,   1.31664E+06
C:/temp/Job-5.odb,Step-1,Increment      1: Step Time =    1.000,"P-5-1",          1218,       171.326,       39.3654,            0.,NA,NA,"",   1.44802E+06,   1.37525E+06,   1.37525E+06
C:/temp/Job-5.odb,Step-1,Increment      1: Step Time =    1.000,"P-5-1",          1219,       37.6096,       26.8349,            0.,NA,NA,"",   1.82764E+06,   1.75564E+06,   1.75564E+06
C:/temp/Job-5.odb,Step-1,Increment      1: Step Time =    1.000,"P-5-1",          1220,       163.613,       26.5166,            0.,NA,NA,"",   1.35740E+06,   1.30210E+06,   1.30210E+06
C:/temp/Job-5.odb,Step-1,Increment      1: Step Time =    1.000,"P-5-1",          1221,       167.380,       40.0315,            0.,NA,NA,"",   1.54414E+06,   1.44397E+06,   1.44397E+06
C:/temp/Job-5.odb,Step-1,Increment      1: Step Time =    1.000,"P-5-1",          1222,       30.1850,       162.696,            0.,NA,NA,"",   1.49882E+06,   1.45179E+06,   1.45179E+06
C:/temp/Job-5.odb,Step-1,Increment      1: Step Time =    1.000,"P-5-1",          1223,       165.252,       166.262,            0.,NA,NA,"",   1.48518E+06,   1.40290E+06,   1.40290E+06
C:/temp/Job-5.odb,Step-1,Increment      1: Step Time =    1.000,"P-5-1",          1224,       35.5285,       31.5839,            0.,NA,NA,"",   1.71267E+06,   1.64060E+06,   1.64060E+06
C:/temp/Job-5.odb,Step-1,Increment      1: Step Time =    1.000,"P-5-1",          1225,       173.706,       158.512,            0.,NA,NA,"",   1.41712E+06,   1.35640E+06,   1.35640E+06
C:/temp/Job-5.odb,Step-1,Increment      1: Step Time =    1.000,"P-5-1",          1226,       47.9729,       167.244,            0.,NA,NA,"",   1.85079E+06,   1.71074E+06,   1.71074E+06
C:/temp/Job-5.odb,Step-1,Increment      1: Step Time =    1.000,"P-5-1",          1227,       163.127,       22.4591,            0.,NA,NA,"",   1.28848E+06,   1.24425E+06,   1.24425E+06
C:/temp/Job-5.odb,Step-1,Increment      1: Step Time =    1.000,"P-5-1",          1228,       21.6559,       163.272,            0.,NA,NA,"",   1.39599E+06,   1.41444E+06,   1.41444E+06
C:/temp/Job-5.odb,Step-1,Increment      1: Step Time =    1.000,"P-5-1",          1229,       38.3385,       22.3172,            0.,NA,NA,"",   1.90219E+06,   1.84039E+06,   1.84039E+06
C:/temp/Job-5.odb,Step-1,Increment      1: Step Time =    1.000,"P-5-1",          1230,       178.810,       37.0958,            0.,NA,NA,"",   1.25273E+06,   1.23868E+06,   1.23868E+06
C:/temp/Job-5.odb,Step-1,Increment      1: Step Time =    1.000,"P-5-1",          1231,       163.772,       177.231,            0.,NA,NA,"",   1.28833E+06,   1.24527E+06,   1.24527E+06
C:/temp/Job-5.odb,Step-1,Increment      1: Step Time =    1.000,"P-5-1",          1232,       46.7112,       14.3980,            0.,NA,NA,"",   1.96285E+06,   1.91443E+06,   1.91443E+06
C:/temp/Job-5.odb,Step-1,Increment      1: Step Time =    1.000,"P-5-1",          1233,       155.563,       184.175,            0.,NA,NA,"",   1.18318E+06,   1.15253E+06,   1.15253E+06
C:/temp/Job-5.odb,Step-1,Increment      1: Step Time =    1.000,"P-5-1",          1234,       185.079,       44.8249,            0.,NA,NA,"",   1.16214E+06,   1.20089E+06,   1.20089E+06
C:/temp/Job-5.odb,Step-1,Increment      1: Step Time =    1.000,"P-5-1",          1235,       15.6154,       155.090,            0.,NA,NA,"",   1.04914E+06,   1.10051E+06,   1.10051E+06
C:/temp/Job-5.odb,Step-1,Increment      1: Step Time =    1.000,"P-5-1",          1236,       166.064,       161.596,            0.,NA,NA,"",   1.54870E+06,   1.44829E+06,   1.44829E+06
C:/temp/Job-5.odb,Step-1,Increment      1: Step Time =    1.000,"P-5-1",          1237,       44.0036,       163.652,            0.,NA,NA,"",   1.73181E+06,   1.59589E+06,   1.59589E+06
C:/temp/Job-5.odb,Step-1,Increment      1: Step Time =    1.000,"P-5-1",          1238,       35.1451,       47.8050,            0.,NA,NA,"",   1.24313E+06,   1.14915E+06,   1.14915E+06
C:/temp/Job-5.odb,Step-1,Increment      1: Step Time =    1.000,"P-5-1",          1239,       166.272,       25.6151,            0.,NA,NA,"",   1.31284E+06,   1.26612E+06,   1.26612E+06
C:/temp/Job-5.odb,Step-1,Increment      1: Step Time =    1.000,"P-5-1",          1240,       49.5400,       172.318,            0.,NA,NA,"",   1.91883E+06,   1.79662E+06,   1.79662E+06
C:/temp/Job-5.odb,Step-1,Increment      1: Step Time =    1.000,"P-5-1",          1241,       29.5468,       46.5759,            0.,NA,NA,"",   1.19829E+06,   1.15016E+06,   1.15016E+06
C:/temp/Job-5.odb,Step-1,Increment      1: Step Time =    1.000,"P-5-1",          1242,       32.9176,       161.102,            0.,NA,NA,"",   1.49067E+06,   1.42100E+06,   1.42100E+06
C:/temp/Job-5.odb,Step-1,Increment      1: Step Time =    1.000,"P-5-1",          1243,       177.765,       162.152,            0.,NA,NA,"",   1.27719E+06,   1.25614E+06,   1.25614E+06
C:/temp/Job-5.odb,Step-1,Increment      1: Step Time =    1.000,"P-5-1",          1244,       163.253,       18.3092,            0.,NA,NA,"",   1.20446E+06,   1.17261E+06,   1.17261E+06
C:/temp/Job-5.odb,Step-1,Increment      1: Step Time =    1.000,"P-5-1",          1245,       25.9246,       164.773,            0.,NA,NA,"",   1.49631E+06,   1.48233E+06,   1.48233E+06
C:/temp/Job-5.odb,Step-1,Increment      1: Step Time =    1.000,"P-5-1",          1246,       18.2147,       160.235,            0.,NA,NA,"",   1.24655E+06,   1.28706E+06,   1.28706E+06
C:/temp/Job-5.odb,Step-1,Increment      1: Step Time =    1.000,"P-5-1",          1247,       33.7716,       25.5998,            0.,NA,NA,"",   1.82122E+06,   1.77325E+06,   1.77325E+06
C:/temp/Job-5.odb,Step-1,Increment      1: Step Time =    1.000,"P-5-1",          1248,       42.6864,       18.0982,            0.,NA,NA,"",   1.95397E+06,   1.89631E+06,   1.89631E+06
C:/temp/Job-5.odb,Step-1,Increment      1: Step Time =    1.000,"P-5-1",          1249,       184.795,       36.2823,            0.,NA,NA,"",   1.11156E+06,   1.13812E+06,   1.13812E+06
C:/temp/Job-5.odb,Step-1,Increment      1: Step Time =    1.000,"P-5-1",          1250,       175.014,       34.9449,            0.,NA,NA,"",   1.31040E+06,   1.27475E+06,   1.27475E+06
C:/temp/Job-5.odb,Step-1,Increment      1: Step Time =    1.000,"P-5-1",          1251,       161.551,       181.772,            0.,NA,NA,"",   1.21204E+06,   1.17928E+06,   1.17928E+06
C:/temp/Job-5.odb,Step-1,Increment      1: Step Time =    1.000,"P-5-1",          1252,       169.731,       174.757,            0.,NA,NA,"",   1.26603E+06,   1.23000E+06,   1.23000E+06
C:/temp/Job-5.odb,Step-1,Increment      1: Step Time =    1.000,"P-5-1",          1253,       24.6213,       41.6917,            0.,NA,NA,"",   1.27876E+06,   1.27167E+06,   1.27167E+06
C:/temp/Job-5.odb,Step-1,Increment      1: Step Time =    1.000,"P-5-1",          1254,       182.057,       160.347,            0.,NA,NA,"",   1.20020E+06,   1.20850E+06,   1.20850E+06
C:/temp/Job-5.odb,Step-1,Increment      1: Step Time =    1.000,"P-5-1",          1255,       176.823,       169.902,            0.,NA,NA,"",   1.21774E+06,   1.20071E+06,   1.20071E+06
C:/temp/Job-5.odb,Step-1,Increment      1: Step Time =    1.000,"P-5-1",          1256,       159.019,       18.4039,            0.,NA,NA,"",   1.23348E+06,   1.19663E+06,   1.19663E+06
C:/temp/Job-5.odb,Step-1,Increment      1: Step Time =    1.000,"P-5-1",          1257,       171.081,       162.871,            0.,NA,NA,"",   1.41586E+06,   1.35141E+06,   1.35141E+06
C:/temp/Job-5.odb,Step-1,Increment      1: Step Time =    1.000,"P-5-1",          1258,       167.412,       18.6520,            0.,NA,NA,"",   1.17853E+06,   1.15295E+06,   1.15295E+06
C:/temp/Job-5.odb,Step-1,Increment      1: Step Time =    1.000,"P-5-1",          1259,       38.7402,       168.485,            0.,NA,NA,"",   1.76150E+06,   1.67091E+06,   1.67091E+06
C:/temp/Job-5.odb,Step-1,Increment      1: Step Time =    1.000,"P-5-1",          1260,       34.9401,       165.800,            0.,NA,NA,"",   1.64791E+06,   1.57243E+06,   1.57243E+06
C:/temp/Job-5.odb,Step-1,Increment      1: Step Time =    1.000,"P-5-1",          1261,       168.607,       27.5282,            0.,NA,NA,"",   1.31099E+06,   1.26623E+06,   1.26623E+06
C:/temp/Job-5.odb,Step-1,Increment      1: Step Time =    1.000,"P-5-1",          1262,       37.2400,       172.390,            0.,NA,NA,"",   1.80728E+06,   1.73487E+06,   1.73487E+06
C:/temp/Job-5.odb,Step-1,Increment      1: Step Time =    1.000,"P-5-1",          1263,       163.647,       13.9320,            0.,NA,NA,"",   1.11633E+06,   1.09614E+06,   1.09614E+06
C:/temp/Job-5.odb,Step-1,Increment      1: Step Time =    1.000,"P-5-1",          1264,       171.387,       19.5670,            0.,NA,NA,"",   1.15628E+06,   1.13746E+06,   1.13746E+06
C:/temp/Job-5.odb,Step-1,Increment      1: Step Time =    1.000,"P-5-1",          1265,       29.9475,       36.8781,            0.,NA,NA,"",   1.50357E+06,   1.45931E+06,   1.45931E+06
C:/temp/Job-5.odb,Step-1,Increment      1: Step Time =    1.000,"P-5-1",          1266,       183.366,       154.239,            0.,NA,NA,"",   1.20832E+06,   1.23414E+06,   1.23414E+06
C:/temp/Job-5.odb,Step-1,Increment      1: Step Time =    1.000,"P-5-1",          1267,       39.6233,       162.125,            0.,NA,NA,"",   1.63157E+06,   1.51762E+06,   1.51762E+06
C:/temp/Job-5.odb,Step-1,Increment      1: Step Time =    1.000,"P-5-1",          1268,       180.024,       164.778,            0.,NA,NA,"",   1.20092E+06,   1.19856E+06,   1.19856E+06
C:/temp/Job-5.odb,Step-1,Increment      1: Step Time =    1.000,"P-5-1",          1269,       174.858,       172.808,            0.,NA,NA,"",   1.22053E+06,   1.19767E+06,   1.19767E+06
C:/temp/Job-5.odb,Step-1,Increment      1: Step Time =    1.000,"P-5-1",          1270,       175.135,       20.8482,            0.,NA,NA,"",   1.13373E+06,   1.12226E+06,   1.12226E+06
C:/temp/Job-5.odb,Step-1,Increment      1: Step Time =    1.000,"P-5-1",          1271,       32.0110,       175.898,            0.,NA,NA,"",   1.83868E+06,   1.80018E+06,   1.80018E+06
C:/temp/Job-5.odb,Step-1,Increment      1: Step Time =    1.000,"P-5-1",          1272,       183.619,       164.562,            0.,NA,NA,"",   1.13564E+06,   1.15249E+06,   1.15249E+06
C:/temp/Job-5.odb,Step-1,Increment      1: Step Time =    1.000,"P-5-1",          1273,       24.5635,       37.0980,            0.,NA,NA,"",   1.42136E+06,   1.41723E+06,   1.41723E+06
C:/temp/Job-5.odb,Step-1,Increment      1: Step Time =    1.000,"P-5-1",          1274,       181.557,       173.887,            0.,NA,NA,"",   1.10679E+06,   1.11121E+06,   1.11121E+06
C:/temp/Job-5.odb,Step-1,Increment      1: Step Time =    1.000,"P-5-1",          1275,       173.815,       25.1219,            0.,NA,NA,"",   1.20068E+06,   1.17966E+06,   1.17966E+06
C:/temp/Job-5.odb,Step-1,Increment      1: Step Time =    1.000,"P-5-1",          1276,       164.137,       9.39319,            0.,NA,NA,"",   1.03477E+06,   1.02415E+06,   1.02415E+06
C:/temp/Job-5.odb,Step-1,Increment      1: Step Time =    1.000,"P-5-1",          1277,       180.350,       176.272,            0.,NA,NA,"",   1.10553E+06,   1.10616E+06,   1.10616E+06
C:/temp/Job-5.odb,Step-1,Increment      1: Step Time =    1.000,"P-5-1",          1278,       19.3402,       36.9961,            0.,NA,NA,"",   1.34846E+06,   1.38255E+06,   1.38255E+06
C:/temp/Job-5.odb,Step-1,Increment      1: Step Time =    1.000,"P-5-1",          1279,       36.4974,       176.646,            0.,NA,NA,"",   1.87163E+06,   1.81554E+06,   1.81554E+06
C:/temp/Job-5.odb,Step-1,Increment      1: Step Time =    1.000,"P-5-1",          1280,       28.7625,       170.315,            0.,NA,NA,"",   1.67526E+06,   1.64724E+06,   1.64724E+06
C:/temp/Job-5.odb,Step-1,Increment      1: Step Time =    1.000,"P-5-1",          1281,       24.1979,       32.7929,            0.,NA,NA,"",   1.54659E+06,   1.54739E+06,   1.54739E+06
C:/temp/Job-5.odb,Step-1,Increment      1: Step Time =    1.000,"P-5-1",          1282,       175.878,       176.911,            0.,NA,NA,"",   1.15373E+06,   1.14095E+06,   1.14095E+06
C:/temp/Job-5.odb,Step-1,Increment      1: Step Time =    1.000,"P-5-1",          1283,       188.659,       164.178,            0.,NA,NA,"",   1.05105E+06,   1.08895E+06,   1.08895E+06
C:/temp/Job-5.odb,Step-1,Increment      1: Step Time =    1.000,"P-5-1",          1284,       176.580,       30.8594,            0.,NA,NA,"",   1.23706E+06,   1.21584E+06,   1.21584E+06
C:/temp/Job-5.odb,Step-1,Increment      1: Step Time =    1.000,"P-5-1",          1285,       14.4349,       41.2842,            0.,NA,NA,"",   1.14971E+06,   1.21239E+06,   1.21239E+06
C:/temp/Job-5.odb,Step-1,Increment      1: Step Time =    1.000,"P-5-1",          1286,       41.1741,       173.255,            0.,NA,NA,"",   1.85003E+06,   1.76355E+06,   1.76355E+06
C:/temp/Job-5.odb,Step-1,Increment      1: Step Time =    1.000,"P-5-1",          1287,       27.1389,       175.032,            0.,NA,NA,"",   1.78747E+06,   1.77285E+06,   1.77285E+06
C:/temp/Job-5.odb,Step-1,Increment      1: Step Time =    1.000,"P-5-1",          1288,       25.8261,       26.4341,            0.,NA,NA,"",   1.73835E+06,   1.73093E+06,   1.73093E+06
C:/temp/Job-5.odb,Step-1,Increment      1: Step Time =    1.000,"P-5-1",          1289,       173.392,       175.670,            0.,NA,NA,"",   1.20123E+06,   1.17862E+06,   1.17862E+06
C:/temp/Job-5.odb,Step-1,Increment      1: Step Time =    1.000,"P-5-1",          1290,       45.1925,       173.008,            0.,NA,NA,"",   1.88364E+06,   1.77992E+06,   1.77992E+06
C:/temp/Job-5.odb,Step-1,Increment      1: Step Time =    1.000,"P-5-1",          1291,       21.3840,       173.624,            0.,NA,NA,"",   1.69198E+06,   1.71469E+06,   1.71469E+06
C:/temp/Job-5.odb,Step-1,Increment      1: Step Time =    1.000,"P-5-1",          1292,       26.2878,       179.924,            0.,NA,NA,"",   1.90194E+06,   1.89530E+06,   1.89530E+06
C:/temp/Job-5.odb,Step-1,Increment      1: Step Time =    1.000,"P-5-1",          1293,       14.3687,       36.6278,            0.,NA,NA,"",   1.28833E+06,   1.35723E+06,   1.35723E+06
C:/temp/Job-5.odb,Step-1,Increment      1: Step Time =    1.000,"P-5-1",          1294,       20.1338,       24.5534,            0.,NA,NA,"",   1.74574E+06,   1.77595E+06,   1.77595E+06
C:/temp/Job-5.odb,Step-1,Increment      1: Step Time =    1.000,"P-5-1",          1295,       24.4618,       46.2778,            0.,NA,NA,"",   1.13078E+06,   1.12187E+06,   1.12187E+06
C:/temp/Job-5.odb,Step-1,Increment      1: Step Time =    1.000,"P-5-1",          1296,       30.8037,       185.298,            0.,NA,NA,"",   2.01565E+06,   1.99848E+06,   1.99848E+06
C:/temp/Job-5.odb,Step-1,Increment      1: Step Time =    1.000,"P-5-1",          1297,       25.6415,       21.4584,            0.,NA,NA,"",   1.86657E+06,   1.86389E+06,   1.86389E+06
C:/temp/Job-5.odb,Step-1,Increment      1: Step Time =    1.000,"P-5-1",          1298,       19.2960,       28.4374,            0.,NA,NA,"",   1.60996E+06,   1.64588E+06,   1.64588E+06
C:/temp/Job-5.odb,Step-1,Increment      1: Step Time =    1.000,"P-5-1",          1299,       9.52330,       36.1213,            0.,NA,NA,"",   1.23537E+06,   1.33640E+06,   1.33640E+06
C:/temp/Job-5.odb,Step-1,Increment      1: Step Time =    1.000,"P-5-1",          1300,       25.8119,       184.948,            0.,NA,NA,"",   2.02143E+06,   2.01871E+06,   2.01871E+06
C:/temp/Job-5.odb,Step-1,Increment      1: Step Time =    1.000,"P-5-1",          1301,       36.0325,       181.061,            0.,NA,NA,"",   1.93765E+06,   1.89633E+06,   1.89633E+06
C:/temp/Job-5.odb,Step-1,Increment      1: Step Time =    1.000,"P-5-1",          1302,       30.2218,       25.3893,            0.,NA,NA,"",   1.79789E+06,   1.76791E+06,   1.76791E+06
C:/temp/Job-5.odb,Step-1,Increment      1: Step Time =    1.000,"P-5-1",          1303,       14.3748,       32.0519,            0.,NA,NA,"",   1.42730E+06,   1.50092E+06,   1.50092E+06
C:/temp/Job-5.odb,Step-1,Increment      1: Step Time =    1.000,"P-5-1",          1304,       15.0441,       23.1468,            0.,NA,NA,"",   1.73028E+06,   1.80019E+06,   1.80019E+06
C:/temp/Job-5.odb,Step-1,Increment      1: Step Time =    1.000,"P-5-1",          1305,       14.5650,       27.5081,            0.,NA,NA,"",   1.57619E+06,   1.65064E+06,   1.65064E+06
C:/temp/Job-5.odb,Step-1,Increment      1: Step Time =    1.000,"P-5-1",          1306,       20.7564,       20.5110,            0.,NA,NA,"",   1.87121E+06,   1.89414E+06,   1.89414E+06
C:/temp/Job-5.odb,Step-1,Increment      1: Step Time =    1.000,"P-5-1",          1307,       20.7327,       184.698,            0.,NA,NA,"",   2.02551E+06,   2.04201E+06,   2.04201E+06
C:/temp/Job-5.odb,Step-1,Increment      1: Step Time =    1.000,"P-5-1",          1308,       35.6730,       185.661,            0.,NA,NA,"",   2.00453E+06,   1.97778E+06,   1.97778E+06
C:/temp/Job-5.odb,Step-1,Increment      1: Step Time =    1.000,"P-5-1",          1309,       15.6036,       179.575,            0.,NA,NA,"",   1.82513E+06,   1.88734E+06,   1.88734E+06
C:/temp/Job-5.odb,Step-1,Increment      1: Step Time =    1.000,"P-5-1",          1310,       40.7316,       181.408,            0.,NA,NA,"",   1.94348E+06,   1.88976E+06,   1.88976E+06
C:/temp/Job-5.odb,Step-1,Increment      1: Step Time =    1.000,"P-5-1",          1311,       35.3864,       190.388,            0.,NA,NA,"",   2.07912E+06,   2.06490E+06,   2.06490E+06
C:/temp/Job-5.odb,Step-1,Increment      1: Step Time =    1.000,"P-5-1",          1312,       25.8382,       12.9313,            0.,NA,NA,"",   2.07549E+06,   2.07242E+06,   2.07242E+06
C:/temp/Job-5.odb,Step-1,Increment      1: Step Time =    1.000,"P-5-1",          1313,       9.75541,       26.5918,            0.,NA,NA,"",   1.52994E+06,   1.64423E+06,   1.64423E+06
C:/temp/Job-5.odb,Step-1,Increment      1: Step Time =    1.000,"P-5-1",          1314,       16.8086,       15.1425,            0.,NA,NA,"",   2.04133E+06,   2.07825E+06,   2.07825E+06
C:/temp/Job-5.odb,Step-1,Increment      1: Step Time =    1.000,"P-5-1",          1315,       15.2866,       174.670,            0.,NA,NA,"",   1.65376E+06,   1.72295E+06,   1.72295E+06
C:/temp/Job-5.odb,Step-1,Increment      1: Step Time =    1.000,"P-5-1",          1316,       15.7271,       18.8821,            0.,NA,NA,"",   1.88974E+06,   1.94681E+06,   1.94681E+06
C:/temp/Job-5.odb,Step-1,Increment      1: Step Time =    1.000,"P-5-1",          1317,       25.6355,       8.59533,            0.,NA,NA,"",   2.16833E+06,   2.16573E+06,   2.16573E+06
C:/temp/Job-5.odb,Step-1,Increment      1: Step Time =    1.000,"P-5-1",          1318,       15.5377,       184.671,            0.,NA,NA,"",   2.01814E+06,   2.06599E+06,   2.06599E+06
C:/temp/Job-5.odb,Step-1,Increment      1: Step Time =    1.000,"P-5-1",          1319,       15.3758,       189.770,            0.,NA,NA,"",   2.19439E+06,   2.22134E+06,   2.22134E+06
C:/temp/Job-5.odb,Step-1,Increment      1: Step Time =    1.000,"P-5-1",          1320,       18.7276,       169.052,            0.,NA,NA,"",   1.52044E+06,   1.56141E+06,   1.56141E+06
C:/temp/Job-5.odb,Step-1,Increment      1: Step Time =    1.000,"P-5-1",          1321,       10.7280,       16.9992,            0.,NA,NA,"",   1.88602E+06,   1.98857E+06,   1.98857E+06
C:/temp/Job-5.odb,Step-1,Increment      1: Step Time =    1.000,"P-5-1",          1322,       14.3127,       170.082,            0.,NA,NA,"",   1.49128E+06,   1.56623E+06,   1.56623E+06
C:/temp/Job-5.odb,Step-1,Increment      1: Step Time =    1.000,"P-5-1",          1323,       10.2939,       184.778,            0.,NA,NA,"",   1.95743E+06,   2.05858E+06,   2.05858E+06
C:/temp/Job-5.odb,Step-1,Increment      1: Step Time =    1.000,"P-5-1",          1324,       176.738,       16.5254,            0.,NA,NA,"",   1.08034E+06,   1.07446E+06,   1.07446E+06
C:/temp/Job-5.odb,Step-1,Increment      1: Step Time =    1.000,"P-5-1",          1325,       183.728,       177.660,            0.,NA,NA,"",   1.06408E+06,   1.07036E+06,   1.07036E+06
C:/temp/Job-5.odb,Step-1,Increment      1: Step Time =    1.000,"P-5-1",          1326,       20.2616,       110.992,            0.,NA,NA,"",   103.453E+03,  -44.5193E+03,  -44.5193E+03
C:/temp/Job-5.odb,Step-1,Increment      1: Step Time =    1.000,"P-5-1",          1327,       88.7898,       20.2814,            0.,NA,NA,"",   1.70746E+06,   1.71082E+06,   1.71082E+06
C:/temp/Job-5.odb,Step-1,Increment      1: Step Time =    1.000,"P-5-1",          1328,       180.107,       90.8676,            0.,NA,NA,"",   817.705E+03,   927.965E+03,   927.965E+03
C:/temp/Job-5.odb,Step-1,Increment      1: Step Time =    1.000,"P-5-1",          1329,       111.423,       180.070,            0.,NA,NA,"",   1.34993E+06,   1.43934E+06,   1.43934E+06
C:/temp/Job-5.odb,Step-1,Increment      1: Step Time =    1.000,"P-5-1",          1330,       165.267,       58.3210,            0.,NA,NA,"",   1.77824E+06,   1.52499E+06,   1.52499E+06
C:/temp/Job-5.odb,Step-1,Increment      1: Step Time =    1.000,"P-5-1",          1331,       30.1739,       13.0396,            0.,NA,NA,"",   2.05333E+06,   2.03942E+06,   2.03942E+06
C:/temp/Job-5.odb,Step-1,Increment      1: Step Time =    1.000,"P-5-1",          1332,       103.823,       36.3024,            0.,NA,NA,"",   2.49437E+06,   2.67168E+06,   2.67168E+06
C:/temp/Job-5.odb,Step-1,Increment      1: Step Time =    1.000,"P-5-1",          1333,       28.8553,       50.9179,            0.,NA,NA,"",   1.03602E+06,   990.109E+03,   990.109E+03
C:/temp/Job-5.odb,Step-1,Increment      1: Step Time =    1.000,"P-5-1",          1334,       9.26044,       161.272,            0.,NA,NA,"",   1.15842E+06,   1.25515E+06,   1.25515E+06
C:/temp/Job-5.odb,Step-1,Increment      1: Step Time =    1.000,"P-5-1",          1335,       39.2909,       8.97665,            0.,NA,NA,"",   2.06068E+06,   2.04468E+06,   2.04468E+06
C:/temp/Job-5.odb,Step-1,Increment      1: Step Time =    1.000,"P-5-1",          1336,       161.395,       190.863,            0.,NA,NA,"",   1.02447E+06,   1.01399E+06,   1.01399E+06
C:/temp/Job-5.odb,Step-1,Increment      1: Step Time =    1.000,"P-5-1",          1337,       191.531,       38.9392,            0.,NA,NA,"",   1.00167E+06,   1.06352E+06,   1.06352E+06
C:/temp/Job-5.odb,Step-1,Increment      1: Step Time =    1.000,"P-5-1",          1338,       159.005,       185.671,            0.,NA,NA,"",   1.13013E+06,   1.10612E+06,   1.10612E+06
C:/temp/Job-5.odb,Step-1,Increment      1: Step Time =    1.000,"P-5-1",          1339,       14.2597,       158.391,            0.,NA,NA,"",   1.13421E+06,   1.19663E+06,   1.19663E+06
C:/temp/Job-5.odb,Step-1,Increment      1: Step Time =    1.000,"P-5-1",          1340,       186.589,       41.4334,            0.,NA,NA,"",   1.09740E+06,   1.14473E+06,   1.14473E+06
C:/temp/Job-5.odb,Step-1,Increment      1: Step Time =    1.000,"P-5-1",          1341,       42.9745,       13.8245,            0.,NA,NA,"",   1.98134E+06,   1.94354E+06,   1.94354E+06
C:/temp/Job-5.odb,Step-1,Increment      1: Step Time =    1.000,"P-5-1",          1342,       35.8914,       136.525,            0.,NA,NA,"",   678.375E+03,   569.908E+03,   569.908E+03
C:/temp/Job-5.odb,Step-1,Increment      1: Step Time =    1.000,"P-5-1",          1343,       181.812,       23.4360,            0.,NA,NA,"",   1.08904E+06,   1.09160E+06,   1.09160E+06
C:/temp/Job-5.odb,Step-1,Increment      1: Step Time =    1.000,"P-5-1",          1344,       184.555,       173.742,            0.,NA,NA,"",   1.07300E+06,   1.08370E+06,   1.08370E+06
C:/temp/Job-5.odb,Step-1,Increment      1: Step Time =    1.000,"P-5-1",          1345,       9.51919,       170.346,            0.,NA,NA,"",   1.43141E+06,   1.54344E+06,   1.54344E+06
C:/temp/Job-5.odb,Step-1,Increment      1: Step Time =    1.000,"P-5-1",          1346,       173.943,       10.3675,            0.,NA,NA,"",   1.03512E+06,   1.03013E+06,   1.03013E+06
C:/temp/Job-5.odb,Step-1,Increment      1: Step Time =    1.000,"P-5-1",          1347,       190.711,       25.5349,            0.,NA,NA,"",   1.01739E+06,   1.03345E+06,   1.03345E+06
C:/temp/Job-5.odb,Step-1,Increment      1: Step Time =    1.000,"P-5-1",          1348,       25.4746,       189.965,            0.,NA,NA,"",   2.13362E+06,   2.13188E+06,   2.13188E+06
C:/temp/Job-5.odb,Step-1,Increment      1: Step Time =    1.000,"P-5-1",          1349,       174.771,       190.898,            0.,NA,NA,"",   1.02176E+06,   1.01861E+06,   1.01861E+06
C:/temp/Job-5.odb,Step-1,Increment      1: Step Time =    1.000,"P-5-1",          1350,       189.161,       174.279,            0.,NA,NA,"",   1.03277E+06,   1.04738E+06,   1.04738E+06
C:/temp/Job-5.odb,Step-1,Increment      1: Step Time =    1.000,"P-5-1",          1351,       172.655,       15.1365,            0.,NA,NA,"",   1.09124E+06,   1.08059E+06,   1.08059E+06
C:/temp/Job-5.odb,Step-1,Increment      1: Step Time =    1.000,"P-5-1",          1352,       175.739,       181.661,            0.,NA,NA,"",   1.11028E+06,   1.10087E+06,   1.10087E+06
C:/temp/Job-5.odb,Step-1,Increment      1: Step Time =    1.000,"P-5-1",          1353,       185.054,       10.5131,            0.,NA,NA,"",   1.01023E+06,   1.01126E+06,   1.01126E+06
C:/temp/Job-5.odb,Step-1,Increment      1: Step Time =    1.000,"P-5-1",          1354,       16.6606,       9.34912,            0.,NA,NA,"",   2.20807E+06,   2.22494E+06,   2.22494E+06
C:/temp/Job-5.odb,Step-1,Increment      1: Step Time =    1.000,"P-5-1",          1355,       184.733,       190.330,            0.,NA,NA,"",   1.00773E+06,   1.00885E+06,   1.00885E+06
C:/temp/Job-5.odb,Step-1,Increment      1: Step Time =    1.000,"P-5-1",          1356,       189.513,       185.252,            0.,NA,NA,"",   1.01235E+06,   1.01470E+06,   1.01470E+06
C:/temp/Job-5.odb,Step-1,Increment      1: Step Time =    1.000,"P-5-1",          1357,       190.178,       15.3437,            0.,NA,NA,"",   1.01365E+06,   1.01596E+06,   1.01596E+06
C:/temp/Job-5.odb,Step-1,Increment      1: Step Time =    1.000,"P-5-1",          1358,       90.4800,       41.2235,            0.,NA,NA,"",   2.78455E+06,   2.89245E+06,   2.89245E+06
C:/temp/Job-5.odb,Step-1,Increment      1: Step Time =    1.000,"P-5-1",          1359,       94.2391,       35.3594,            0.,NA,NA,"",   2.38638E+06,   2.51227E+06,   2.51227E+06
C:/temp/Job-5.odb,Step-1,Increment      1: Step Time =    1.000,"P-5-1",          1360,       13.5382,       165.821,            0.,NA,NA,"",   1.35169E+06,   1.42857E+06,   1.42857E+06
C:/temp/Job-5.odb,Step-1,Increment      1: Step Time =    1.000,"P-5-1",          1361,       186.805,       57.8117,            0.,NA,NA,"",   1.17399E+06,   1.26323E+06,   1.26323E+06
C:/temp/Job-5.odb,Step-1,Increment      1: Step Time =    1.000,"P-5-1",          1362,       57.7983,       12.5753,            0.,NA,NA,"",   1.88054E+06,   1.82843E+06,   1.82843E+06
C:/temp/Job-5.odb,Step-1,Increment      1: Step Time =    1.000,"P-5-1",          1363,       142.939,       186.983,            0.,NA,NA,"",   1.10709E+06,   1.08659E+06,   1.08659E+06
C:/temp/Job-5.odb,Step-1,Increment      1: Step Time =    1.000,"P-5-1",          1364,       13.0561,       142.602,            0.,NA,NA,"",   660.700E+03,   705.323E+03,   705.323E+03
C:/temp/Job-5.odb,Step-1,Increment      1: Step Time =    1.000,"P-5-1",          1365,       187.797,       34.8532,            0.,NA,NA,"",   1.05623E+06,   1.09221E+06,   1.09221E+06
C:/temp/Job-5.odb,Step-1,Increment      1: Step Time =    1.000,"P-5-1",          1366,       165.658,       185.059,            0.,NA,NA,"",   1.12092E+06,   1.10164E+06,   1.10164E+06
C:/temp/Job-5.odb,Step-1,Increment      1: Step Time =    1.000,"P-5-1",          1367,       13.3469,       161.951,            0.,NA,NA,"",   1.23532E+06,   1.30765E+06,   1.30765E+06
C:/temp/Job-5.odb,Step-1,Increment      1: Step Time =    1.000,"P-5-1",          1368,       161.890,       187.173,            0.,NA,NA,"",   1.09153E+06,   1.07348E+06,   1.07348E+06
C:/temp/Job-5.odb,Step-1,Increment      1: Step Time =    1.000,"P-5-1",          1369,       187.794,       38.1264,            0.,NA,NA,"",   1.06162E+06,   1.10765E+06,   1.10765E+06
C:/temp/Job-5.odb,Step-1,Increment      1: Step Time =    1.000,"P-5-1",          1370,       38.8730,       13.4533,            0.,NA,NA,"",   2.00657E+06,   1.97578E+06,   1.97578E+06
C:/temp/Job-5.odb,Step-1,Increment      1: Step Time =    1.000,"P-5-1",          1371,       186.173,       26.2703,            0.,NA,NA,"",   1.05717E+06,   1.07103E+06,   1.07103E+06
C:/temp/Job-5.odb,Step-1,Increment      1: Step Time =    1.000,"P-5-1",          1372,       174.335,       186.847,            0.,NA,NA,"",   1.05646E+06,   1.05054E+06,   1.05054E+06
C:/temp/Job-5.odb,Step-1,Increment      1: Step Time =    1.000,"P-5-1",          1373,       47.9797,       10.2324,            0.,NA,NA,"",   1.96762E+06,   1.93882E+06,   1.93882E+06
C:/temp/Job-5.odb,Step-1,Increment      1: Step Time =    1.000,"P-5-1",          1374,       189.344,       47.1829,            0.,NA,NA,"",   1.05925E+06,   1.14265E+06,   1.14265E+06
C:/temp/Job-5.odb,Step-1,Increment      1: Step Time =    1.000,"P-5-1",          1375,       153.179,       188.826,            0.,NA,NA,"",   1.05787E+06,   1.03797E+06,   1.03797E+06
C:/temp/Job-5.odb,Step-1,Increment      1: Step Time =    1.000,"P-5-1",          1376,       11.0634,       152.914,            0.,NA,NA,"",   936.998E+03,   1.00768E+06,   1.00768E+06
C:/temp/Job-5.odb,Step-1,Increment      1: Step Time =    1.000,"P-5-1",          1377,       185.616,       15.3815,            0.,NA,NA,"",   1.02779E+06,   1.03059E+06,   1.03059E+06
C:/temp/Job-5.odb,Step-1,Increment      1: Step Time =    1.000,"P-5-1",          1378,       184.680,       185.879,            0.,NA,NA,"",   1.02551E+06,   1.02772E+06,   1.02772E+06
C:/temp/Job-5.odb,Step-1,Increment      1: Step Time =    1.000,"P-5-1",          1379,       179.155,       185.301,            0.,NA,NA,"",   1.05225E+06,   1.05014E+06,   1.05014E+06
C:/temp/Job-5.odb,Step-1,Increment      1: Step Time =    1.000,"P-5-1",          1380,       185.057,       20.9035,            0.,NA,NA,"",   1.05108E+06,   1.05690E+06,   1.05690E+06
C:/temp/Job-5.odb,Step-1,Increment      1: Step Time =    1.000,"P-5-1",          1381,       186.744,       30.8782,            0.,NA,NA,"",   1.05995E+06,   1.08363E+06,   1.08363E+06
C:/temp/Job-5.odb,Step-1,Increment      1: Step Time =    1.000,"P-5-1",          1382,       170.419,       186.678,            0.,NA,NA,"",   1.07658E+06,   1.06584E+06,   1.06584E+06
C:/temp/Job-5.odb,Step-1,Increment      1: Step Time =    1.000,"P-5-1",          1383,       34.3964,       17.5906,            0.,NA,NA,"",   1.96236E+06,   1.92742E+06,   1.92742E+06
C:/temp/Job-5.odb,Step-1,Increment      1: Step Time =    1.000,"P-5-1",          1384,       181.533,       181.029,            0.,NA,NA,"",   1.06420E+06,   1.06535E+06,   1.06535E+06
C:/temp/Job-5.odb,Step-1,Increment      1: Step Time =    1.000,"P-5-1",          1385,       34.7462,       8.75189,            0.,NA,NA,"",   2.10140E+06,   2.08913E+06,   2.08913E+06
C:/temp/Job-5.odb,Step-1,Increment      1: Step Time =    1.000,"P-5-1",          1386,       50.1078,       190.659,            0.,NA,NA,"",   1.94979E+06,   1.92311E+06,   1.92311E+06
C:/temp/Job-5.odb,Step-1,Increment      1: Step Time =    1.000,"P-5-1",          1387,       191.241,       30.2350,            0.,NA,NA,"",   1.01082E+06,   1.03906E+06,   1.03906E+06
C:/temp/Job-5.odb,Step-1,Increment      1: Step Time =    1.000,"P-5-1",          1388,       170.124,       190.966,            0.,NA,NA,"",   1.02748E+06,   1.02151E+06,   1.02151E+06
C:/temp/Job-5.odb,Step-1,Increment      1: Step Time =    1.000,"P-5-1",          1389,       10.2069,       179.829,            0.,NA,NA,"",    1.7581E+06,   1.86946E+06,   1.86946E+06
C:/temp/Job-5.odb,Step-1,Increment      1: Step Time =    1.000,"P-5-1",          1390,       119.653,       159.495,            0.,NA,NA,"",   2.52697E+06,   2.68923E+06,   2.68923E+06
C:/temp/Job-5.odb,Step-1,Increment      1: Step Time =    1.000,"P-5-1",          1391,       181.914,       15.2658,            0.,NA,NA,"",   1.04220E+06,   1.04301E+06,   1.04301E+06
C:/temp/Job-5.odb,Step-1,Increment      1: Step Time =    1.000,"P-5-1",          1392,       184.782,       182.389,            0.,NA,NA,"",   1.03884E+06,   1.04228E+06,   1.04228E+06
C:/temp/Job-5.odb,Step-1,Increment      1: Step Time =    1.000,"P-5-1",          1393,       40.5073,       185.925,            0.,NA,NA,"",   1.98946E+06,   1.95439E+06,   1.95439E+06
C:/temp/Job-5.odb,Step-1,Increment      1: Step Time =    1.000,"P-5-1",          1394,       157.299,       84.4581,            0.,NA,NA,"",   1.09543E+06,  -899.206E+03,  -899.206E+03
C:/temp/Job-5.odb,Step-1,Increment      1: Step Time =    1.000,"P-5-1",          1395,       168.208,       14.3131,            0.,NA,NA,"",   1.10387E+06,   1.08813E+06,   1.08813E+06
C:/temp/Job-5.odb,Step-1,Increment      1: Step Time =    1.000,"P-5-1",          1396,       159.100,       13.8758,            0.,NA,NA,"",   1.12929E+06,   1.10520E+06,   1.10520E+06
C:/temp/Job-5.odb,Step-1,Increment      1: Step Time =    1.000,"P-5-1",          1397,       55.8174,       19.5543,            0.,NA,NA,"",   1.94928E+06,   1.85802E+06,   1.85802E+06
C:/temp/Job-5.odb,Step-1,Increment      1: Step Time =    1.000,"P-5-1",          1398,       67.7173,       15.1517,            0.,NA,NA,"",   1.82137E+06,   1.75417E+06,   1.75417E+06
C:/temp/Job-5.odb,Step-1,Increment      1: Step Time =    1.000,"P-5-1",          1399,       183.341,       169.272,            0.,NA,NA,"",   1.11095E+06,   1.12250E+06,   1.12250E+06
C:/temp/Job-5.odb,Step-1,Increment      1: Step Time =    1.000,"P-5-1",          1400,       179.417,       56.5286,            0.,NA,NA,"",   1.38718E+06,   1.36748E+06,   1.36748E+06
C:/temp/Job-5.odb,Step-1,Increment      1: Step Time =    1.000,"P-5-1",          1401,       185.177,       67.4288,            0.,NA,NA,"",   1.22821E+06,   1.32569E+06,   1.32569E+06
C:/temp/Job-5.odb,Step-1,Increment      1: Step Time =    1.000,"P-5-1",          1402,       17.6027,       140.600,            0.,NA,NA,"",   628.728E+03,   651.726E+03,   651.726E+03
C:/temp/Job-5.odb,Step-1,Increment      1: Step Time =    1.000,"P-5-1",          1403,       20.2832,       143.957,            0.,NA,NA,"",   755.990E+03,   770.508E+03,   770.508E+03
C:/temp/Job-5.odb,Step-1,Increment      1: Step Time =    1.000,"P-5-1",          1404,       141.051,       182.526,            0.,NA,NA,"",   1.26354E+06,   1.24115E+06,   1.24115E+06
C:/temp/Job-5.odb,Step-1,Increment      1: Step Time =    1.000,"P-5-1",          1405,       144.075,       179.817,            0.,NA,NA,"",   1.34904E+06,   1.31582E+06,   1.31582E+06
C:/temp/Job-5.odb,Step-1,Increment      1: Step Time =    1.000,"P-5-1",          1406,       71.1743,       157.916,            0.,NA,NA,"",   2.10778E+06,   2.01057E+06,   2.01057E+06
C:/temp/Job-5.odb,Step-1,Increment      1: Step Time =    1.000,"P-5-1",          1407,       120.603,       165.557,            0.,NA,NA,"",   2.04184E+06,   2.17968E+06,   2.17968E+06
C:/temp/Job-5.odb,Step-1,Increment      1: Step Time =    1.000,"P-5-1",          1408,       180.488,       18.6056,            0.,NA,NA,"",   1.06788E+06,   1.06724E+06,   1.06724E+06
C:/temp/Job-5.odb,Step-1,Increment      1: Step Time =    1.000,"P-5-1",          1409,       18.2957,       12.5289,            0.,NA,NA,"",   2.12648E+06,   2.14695E+06,   2.14695E+06
C:/temp/Job-5.odb,Step-1,Increment      1: Step Time =    1.000,"P-5-1",          1410,       180.507,       50.6296,            0.,NA,NA,"",   1.32411E+06,   1.31883E+06,   1.31883E+06
C:/temp/Job-5.odb,Step-1,Increment      1: Step Time =    1.000,"P-5-1",          1411,       157.830,       72.3430,            0.,NA,NA,"",   1.53299E+06,   1.04750E+06,   1.04750E+06
C:/temp/Job-5.odb,Step-1,Increment      1: Step Time =    1.000,"P-5-1",          1412,       44.7304,       65.1769,            0.,NA,NA,"",   657.018E+03,   272.737E+03,   272.737E+03
C:/temp/Job-5.odb,Step-1,Increment      1: Step Time =    1.000,"P-5-1",          1413,       49.8290,       57.5419,            0.,NA,NA,"",   1.06097E+06,   853.304E+03,   853.304E+03
C:/temp/Job-5.odb,Step-1,Increment      1: Step Time =    1.000,"P-5-1",          1414,       19.8467,       157.147,            0.,NA,NA,"",   1.17309E+06,   1.19953E+06,   1.19953E+06
C:/temp/Job-5.odb,Step-1,Increment      1: Step Time =    1.000,"P-5-1",          1415,       157.816,       179.945,            0.,NA,NA,"",   1.28191E+06,   1.23983E+06,   1.23983E+06
C:/temp/Job-5.odb,Step-1,Increment      1: Step Time =    1.000,"P-5-1",          1416,       44.7742,       147.247,            0.,NA,NA,"",   1.22146E+06,   1.04968E+06,   1.04968E+06
C:/temp/Job-5.odb,Step-1,Increment      1: Step Time =    1.000,"P-5-1",          1417,       21.3376,       16.5741,            0.,NA,NA,"",   1.98581E+06,   2.00222E+06,   2.00222E+06
C:/temp/Job-5.odb,Step-1,Increment      1: Step Time =    1.000,"P-5-1",          1418,       19.2010,       32.6258,            0.,NA,NA,"",   1.47831E+06,   1.51515E+06,   1.51515E+06
C:/temp/Job-5.odb,Step-1,Increment      1: Step Time =    1.000,"P-5-1",          1419,       19.5169,       55.6621,            0.,NA,NA,"",   759.707E+03,   778.172E+03,   778.172E+03
C:/temp/Job-5.odb,Step-1,Increment      1: Step Time =    1.000,"P-5-1",          1420,       19.8577,       65.1737,            0.,NA,NA,"",   473.743E+03,   483.883E+03,   483.883E+03
C:/temp/Job-5.odb,Step-1,Increment      1: Step Time =    1.000,"P-5-1",          1421,       117.311,       39.1481,            0.,NA,NA,"",   2.48608E+06,   2.65555E+06,   2.65555E+06
C:/temp/Job-5.odb,Step-1,Increment      1: Step Time =    1.000,"P-5-1",          1422,       133.495,       180.259,            0.,NA,NA,"",   1.33621E+06,   1.34379E+06,   1.34379E+06
C:/temp/Job-5.odb,Step-1,Increment      1: Step Time =    1.000,"P-5-1",          1423,       182.960,       39.2550,            0.,NA,NA,"",   1.17038E+06,   1.18738E+06,   1.18738E+06
C:/temp/Job-5.odb,Step-1,Increment      1: Step Time =    1.000,"P-5-1",          1424,       34.5654,       13.1807,            0.,NA,NA,"",   2.03092E+06,   2.00798E+06,   2.00798E+06
C:/temp/Job-5.odb,Step-1,Increment      1: Step Time =    1.000,"P-5-1",          1425,       18.8385,       132.220,            0.,NA,NA,"",   398.831E+03,   417.196E+03,   417.196E+03
C:/temp/Job-5.odb,Step-1,Increment      1: Step Time =    1.000,"P-5-1",          1426,       118.707,       168.619,            0.,NA,NA,"",   1.90018E+06,   2.03791E+06,   2.03791E+06
C:/temp/Job-5.odb,Step-1,Increment      1: Step Time =    1.000,"P-5-1",          1427,       165.787,       85.5691,            0.,NA,NA,"",   981.810E+03,   365.229E+03,   365.229E+03
C:/temp/Job-5.odb,Step-1,Increment      1: Step Time =    1.000,"P-5-1",          1428,       177.094,       152.594,            0.,NA,NA,"",   1.39280E+06,   1.35189E+06,   1.35189E+06
C:/temp/Job-5.odb,Step-1,Increment      1: Step Time =    1.000,"P-5-1",          1429,       172.875,       153.535,            0.,NA,NA,"",   1.50788E+06,   1.41833E+06,   1.41833E+06
C:/temp/Job-5.odb,Step-1,Increment      1: Step Time =    1.000,"P-5-1",          1430,       178.800,       167.230,            0.,NA,NA,"",   1.20617E+06,   1.19761E+06,   1.19761E+06
C:/temp/Job-5.odb,Step-1,Increment      1: Step Time =    1.000,"P-5-1",          1431,       87.0176,       177.145,            0.,NA,NA,"",   1.84307E+06,   1.84701E+06,   1.84701E+06
C:/temp/Job-5.odb,Step-1,Increment      1: Step Time =    1.000,"P-5-1",          1432,       16.4811,       162.446,            0.,NA,NA,"",   1.29497E+06,   1.34770E+06,   1.34770E+06
C:/temp/Job-5.odb,Step-1,Increment      1: Step Time =    1.000,"P-5-1",          1433,       21.7065,       12.6971,            0.,NA,NA,"",   2.09768E+06,   2.10763E+06,   2.10763E+06
C:/temp/Job-5.odb,Step-1,Increment      1: Step Time =    1.000,"P-5-1",          1434,       41.6622,       141.995,            0.,NA,NA,"",   941.450E+03,   779.331E+03,   779.331E+03
C:/temp/Job-5.odb,Step-1,Increment      1: Step Time =    1.000,"P-5-1",          1435,       175.538,       49.9006,            0.,NA,NA,"",   1.46413E+06,   1.39453E+06,   1.39453E+06
C:/temp/Job-5.odb,Step-1,Increment      1: Step Time =    1.000,"P-5-1",          1436,       183.344,       148.442,            0.,NA,NA,"",   1.25255E+06,   1.28282E+06,   1.28282E+06
C:/temp/Job-5.odb,Step-1,Increment      1: Step Time =    1.000,"P-5-1",          1437,       148.705,       172.738,            0.,NA,NA,"",   1.55308E+06,   1.48812E+06,   1.48812E+06
C:/temp/Job-5.odb,Step-1,Increment      1: Step Time =    1.000,"P-5-1",          1438,       26.9346,       149.336,            0.,NA,NA,"",   1.01619E+06,   987.004E+03,   987.004E+03
C:/temp/Job-5.odb,Step-1,Increment      1: Step Time =    1.000,"P-5-1",          1439,       172.351,       183.665,            0.,NA,NA,"",   1.10399E+06,   1.09180E+06,   1.09180E+06
C:/temp/Job-5.odb,Step-1,Increment      1: Step Time =    1.000,"P-5-1",          1440,       175.141,       165.023,            0.,NA,NA,"",   1.30626E+06,   1.27203E+06,   1.27203E+06
C:/temp/Job-5.odb,Step-1,Increment      1: Step Time =    1.000,"P-5-1",          1441,       150.158,       19.2611,            0.,NA,NA,"",   1.30293E+06,   1.26192E+06,   1.26192E+06
C:/temp/Job-5.odb,Step-1,Increment      1: Step Time =    1.000,"P-5-1",          1442,       60.9780,       155.022,            0.,NA,NA,"",   1.83082E+06,   1.64476E+06,   1.64476E+06
C:/temp/Job-5.odb,Step-1,Increment      1: Step Time =    1.000,"P-5-1",          1443,       177.681,       174.450,            0.,NA,NA,"",   1.15708E+06,   1.14761E+06,   1.14761E+06
C:/temp/Job-5.odb,Step-1,Increment      1: Step Time =    1.000,"P-5-1",          1444,       181.907,       27.1464,            0.,NA,NA,"",   1.11251E+06,   1.11611E+06,   1.11611E+06
C:/temp/Job-5.odb,Step-1,Increment      1: Step Time =    1.000,"P-5-1",          1445,       72.4818,       17.5816,            0.,NA,NA,"",   1.83077E+06,   1.75749E+06,   1.75749E+06
C:/temp/Job-5.odb,Step-1,Increment      1: Step Time =    1.000,"P-5-1",          1446,       181.129,       71.6571,            0.,NA,NA,"",   1.28018E+06,   1.32315E+06,   1.32315E+06
C:/temp/Job-5.odb,Step-1,Increment      1: Step Time =    1.000,"P-5-1",          1447,       108.165,       170.911,            0.,NA,NA,"",   1.86154E+06,   2.00504E+06,   2.00504E+06
C:/temp/Job-5.odb,Step-1,Increment      1: Step Time =    1.000,"P-5-1",          1448,       104.049,       170.188,            0.,NA,NA,"",   1.97417E+06,   2.11895E+06,   2.11895E+06
C:/temp/Job-5.odb,Step-1,Increment      1: Step Time =    1.000,"P-5-1",          1449,       173.438,       178.644,            0.,NA,NA,"",   1.16397E+06,   1.14648E+06,   1.14648E+06
C:/temp/Job-5.odb,Step-1,Increment      1: Step Time =    1.000,"P-5-1",          1450,       168.128,       153.176,            0.,NA,NA,"",   1.63127E+06,   1.49466E+06,   1.49466E+06
C:/temp/Job-5.odb,Step-1,Increment      1: Step Time =    1.000,"P-5-1",          1451,       31.5524,       82.4174,            0.,NA,NA,"",   153.063E+03,  -150.516E+03,  -150.516E+03
C:/temp/Job-5.odb,Step-1,Increment      1: Step Time =    1.000,"P-5-1",          1452,       32.0143,       78.2277,            0.,NA,NA,"",   206.057E+03,  -82.0172E+03,  -82.0172E+03
C:/temp/Job-5.odb,Step-1,Increment      1: Step Time =    1.000,"P-5-1",          1453,       38.5942,       17.8697,            0.,NA,NA,"",   1.95615E+06,   1.90914E+06,   1.90914E+06
C:/temp/Job-5.odb,Step-1,Increment      1: Step Time =    1.000,"P-5-1",          1454,       30.0995,       17.3471,            0.,NA,NA,"",   1.96753E+06,   1.94748E+06,   1.94748E+06
C:/temp/Job-5.odb,Step-1,Increment      1: Step Time =    1.000,"P-5-1",          1455,       178.816,       40.6455,            0.,NA,NA,"",   1.28548E+06,   1.26841E+06,   1.26841E+06
C:/temp/Job-5.odb,Step-1,Increment      1: Step Time =    1.000,"P-5-1",          1456,       152.435,       174.045,            0.,NA,NA,"",   1.48409E+06,   1.41998E+06,   1.41998E+06
C:/temp/Job-5.odb,Step-1,Increment      1: Step Time =    1.000,"P-5-1",          1457,       22.1701,       84.0205,            0.,NA,NA,"",   98.2815E+03,   16.1823E+03,   16.1823E+03
C:/temp/Job-5.odb,Step-1,Increment      1: Step Time =    1.000,"P-5-1",          1458,       178.547,       147.585,            0.,NA,NA,"",   1.39243E+06,   1.36277E+06,   1.36277E+06
C:/temp/Job-5.odb,Step-1,Increment      1: Step Time =    1.000,"P-5-1",          1459,       167.883,       148.903,            0.,NA,NA,"",   1.67823E+06,   1.51485E+06,   1.51485E+06
C:/temp/Job-5.odb,Step-1,Increment      1: Step Time =    1.000,"P-5-1",          1460,       181.083,       146.534,            0.,NA,NA,"",   1.32561E+06,   1.33027E+06,   1.33027E+06
C:/temp/Job-5.odb,Step-1,Increment      1: Step Time =    1.000,"P-5-1",          1461,       61.9799,       43.5639,            0.,NA,NA,"",   1.88908E+06,   1.71117E+06,   1.71117E+06
C:/temp/Job-5.odb,Step-1,Increment      1: Step Time =    1.000,"P-5-1",          1462,       40.4572,       68.3875,            0.,NA,NA,"",   529.183E+03,   350.782E+03,   350.782E+03
C:/temp/Job-5.odb,Step-1,Increment      1: Step Time =    1.000,"P-5-1",          1463,       98.0312,       29.9688,            0.,NA,NA,"",   2.05314E+06,   2.17804E+06,   2.17804E+06
C:/temp/Job-5.odb,Step-1,Increment      1: Step Time =    1.000,"P-5-1",          1464,       54.6840,       155.843,            0.,NA,NA,"",   1.73648E+06,   1.53953E+06,   1.53953E+06
C:/temp/Job-5.odb,Step-1,Increment      1: Step Time =    1.000,"P-5-1",          1465,       170.253,       23.6669,            0.,NA,NA,"",   1.22634E+06,   1.19691E+06,   1.19691E+06
C:/temp/Job-5.odb,Step-1,Increment      1: Step Time =    1.000,"P-5-1",          1466,       155.166,       23.5066,            0.,NA,NA,"",   1.38804E+06,   1.33244E+06,   1.33244E+06
C:/temp/Job-5.odb,Step-1,Increment      1: Step Time =    1.000,"P-5-1",          1467,       123.471,       173.725,            0.,NA,NA,"",   1.62091E+06,   1.70617E+06,   1.70617E+06
C:/temp/Job-5.odb,Step-1,Increment      1: Step Time =    1.000,"P-5-1",          1468,       163.778,       61.3634,            0.,NA,NA,"",   1.78195E+06,   1.48920E+06,   1.48920E+06
C:/temp/Job-5.odb,Step-1,Increment      1: Step Time =    1.000,"P-5-1",          1469,       111.277,       33.6193,            0.,NA,NA,"",   2.15138E+06,   2.32744E+06,   2.32744E+06
C:/temp/Job-5.odb,Step-1,Increment      1: Step Time =    1.000,"P-5-1",          1470,       121.407,       35.2892,            0.,NA,NA,"",   2.09609E+06,   2.23194E+06,   2.23194E+06
C:/temp/Job-5.odb,Step-1,Increment      1: Step Time =    1.000,"P-5-1",          1471,       61.6410,       161.637,            0.,NA,NA,"",   1.99720E+06,   1.82334E+06,   1.82334E+06
C:/temp/Job-5.odb,Step-1,Increment      1: Step Time =    1.000,"P-5-1",          1472,       164.470,       70.5639,            0.,NA,NA,"",   1.58399E+06,   1.23668E+06,   1.23668E+06
C:/temp/Job-5.odb,Step-1,Increment      1: Step Time =    1.000,"P-5-1",          1473,       24.5669,       168.945,            0.,NA,NA,"",   1.58820E+06,   1.58781E+06,   1.58781E+06
C:/temp/Job-5.odb,Step-1,Increment      1: Step Time =    1.000,"P-5-1",          1474,       173.333,       168.136,            0.,NA,NA,"",   1.30565E+06,   1.26747E+06,   1.26747E+06
C:/temp/Job-5.odb,Step-1,Increment      1: Step Time =    1.000,"P-5-1",          1475,       169.498,       166.709,            0.,NA,NA,"",   1.39280E+06,   1.33217E+06,   1.33217E+06
C:/temp/Job-5.odb,Step-1,Increment      1: Step Time =    1.000,"P-5-1",          1476,       49.8829,       176.786,            0.,NA,NA,"",   1.93939E+06,   1.83949E+06,   1.83949E+06
C:/temp/Job-5.odb,Step-1,Increment      1: Step Time =    1.000,"P-5-1",          1477,       54.3676,       176.597,            0.,NA,NA,"",   1.96353E+06,   1.85006E+06,   1.85006E+06
C:/temp/Job-5.odb,Step-1,Increment      1: Step Time =    1.000,"P-5-1",          1478,       25.3084,       92.8280,            0.,NA,NA,"",   107.899E+03,  -117.167E+03,  -117.167E+03
C:/temp/Job-5.odb,Step-1,Increment      1: Step Time =    1.000,"P-5-1",          1479,       177.705,       26.4367,            0.,NA,NA,"",   1.16416E+06,   1.15470E+06,   1.15470E+06
C:/temp/Job-5.odb,Step-1,Increment      1: Step Time =    1.000,"P-5-1",          1480,       21.6984,       167.225,            0.,NA,NA,"",   1.51516E+06,   1.53448E+06,   1.53448E+06
C:/temp/Job-5.odb,Step-1,Increment      1: Step Time =    1.000,"P-5-1",          1481,       33.1829,       171.203,            0.,NA,NA,"",   1.75057E+06,   1.69621E+06,   1.69621E+06
C:/temp/Job-5.odb,Step-1,Increment      1: Step Time =    1.000,"P-5-1",          1482,       118.170,       30.9806,            0.,NA,NA,"",   1.87031E+06,   1.99940E+06,   1.99940E+06
C:/temp/Job-5.odb,Step-1,Increment      1: Step Time =    1.000,"P-5-1",          1483,       177.378,       143.920,            0.,NA,NA,"",   1.45324E+06,   1.39957E+06,   1.39957E+06
C:/temp/Job-5.odb,Step-1,Increment      1: Step Time =    1.000,"P-5-1",          1484,       175.025,       38.5517,            0.,NA,NA,"",   1.35602E+06,   1.31138E+06,   1.31138E+06
C:/temp/Job-5.odb,Step-1,Increment      1: Step Time =    1.000,"P-5-1",          1485,       58.6279,       39.6366,            0.,NA,NA,"",   1.91704E+06,   1.73427E+06,   1.73427E+06
C:/temp/Job-5.odb,Step-1,Increment      1: Step Time =    1.000,"P-5-1",          1486,       167.809,       77.7076,            0.,NA,NA,"",   1.33416E+06,   1.04920E+06,   1.04920E+06
C:/temp/Job-5.odb,Step-1,Increment      1: Step Time =    1.000,"P-5-1",          1487,       171.363,       78.5436,            0.,NA,NA,"",   1.26312E+06,   1.08424E+06,   1.08424E+06
C:/temp/Job-5.odb,Step-1,Increment      1: Step Time =    1.000,"P-5-1",          1488,       34.1861,       21.7484,            0.,NA,NA,"",   1.88868E+06,   1.84344E+06,   1.84344E+06
C:/temp/Job-5.odb,Step-1,Increment      1: Step Time =    1.000,"P-5-1",          1489,       27.2850,       81.8028,            0.,NA,NA,"",   122.949E+03,  -37.1917E+03,  -37.1917E+03
C:/temp/Job-5.odb,Step-1,Increment      1: Step Time =    1.000,"P-5-1",          1490,       32.2019,       28.5275,            0.,NA,NA,"",   1.75211E+06,   1.70756E+06,   1.70756E+06
C:/temp/Job-5.odb,Step-1,Increment      1: Step Time =    1.000,"P-5-1",          1491,       74.5200,       27.2980,            0.,NA,NA,"",   2.08359E+06,   1.99922E+06,   1.99922E+06
C:/temp/Job-5.odb,Step-1,Increment      1: Step Time =    1.000,"P-5-1",          1492,       29.7924,       59.8640,            0.,NA,NA,"",   727.777E+03,   676.252E+03,   676.252E+03
C:/temp/Job-5.odb,Step-1,Increment      1: Step Time =    1.000,"P-5-1",          1493,       21.6903,       129.239,            0.,NA,NA,"",   336.643E+03,   337.071E+03,   337.071E+03
C:/temp/Job-5.odb,Step-1,Increment      1: Step Time =    1.000,"P-5-1",          1494,       23.9870,       105.807,            0.,NA,NA,"",   110.130E+03,  -114.820E+03,  -114.820E+03
C:/temp/Job-5.odb,Step-1,Increment      1: Step Time =    1.000,"P-5-1",          1495,       156.020,       170.417,            0.,NA,NA,"",   1.53421E+06,   1.45568E+06,   1.45568E+06
C:/temp/Job-5.odb,Step-1,Increment      1: Step Time =    1.000,"P-5-1",          1496,       38.7969,       155.761,            0.,NA,NA,"",   1.44169E+06,   1.32064E+06,   1.32064E+06
C:/temp/Job-5.odb,Step-1,Increment      1: Step Time =    1.000,"P-5-1",          1497,       46.1129,       160.063,            0.,NA,NA,"",   1.69177E+06,   1.53483E+06,   1.53483E+06
C:/temp/Job-5.odb,Step-1,Increment      1: Step Time =    1.000,"P-5-1",          1498,       36.1004,       158.361,            0.,NA,NA,"",   1.46724E+06,   1.36832E+06,   1.36832E+06
C:/temp/Job-5.odb,Step-1,Increment      1: Step Time =    1.000,"P-5-1",          1499,       36.2461,       63.7435,            0.,NA,NA,"",   657.917E+03,   545.781E+03,   545.781E+03
C:/temp/Job-5.odb,Step-1,Increment      1: Step Time =    1.000,"P-5-1",          1500,       172.235,       29.4608,            0.,NA,NA,"",   1.28928E+06,   1.25173E+06,   1.25173E+06
C:/temp/Job-5.odb,Step-1,Increment      1: Step Time =    1.000,"P-5-1",          1501,       131.252,       31.6545,            0.,NA,NA,"",   1.81797E+06,   1.86153E+06,   1.86153E+06
C:/temp/Job-5.odb,Step-1,Increment      1: Step Time =    1.000,"P-5-1",          1502,       160.453,       165.990,            0.,NA,NA,"",   1.57458E+06,   1.47708E+06,   1.47708E+06
C:/temp/Job-5.odb,Step-1,Increment      1: Step Time =    1.000,"P-5-1",          1503,       169.106,       74.9132,            0.,NA,NA,"",   1.41368E+06,   1.16419E+06,   1.16419E+06
C:/temp/Job-5.odb,Step-1,Increment      1: Step Time =    1.000,"P-5-1",          1504,       172.149,       74.6298,            0.,NA,NA,"",   1.37760E+06,   1.20054E+06,   1.20054E+06
C:/temp/Job-5.odb,Step-1,Increment      1: Step Time =    1.000,"P-5-1",          1505,       165.413,       30.9352,            0.,NA,NA,"",   1.42332E+06,   1.35608E+06,   1.35608E+06
C:/temp/Job-5.odb,Step-1,Increment      1: Step Time =    1.000,"P-5-1",          1506,       32.4897,       51.1493,            0.,NA,NA,"",   1.08048E+06,   1.00691E+06,   1.00691E+06
C:/temp/Job-5.odb,Step-1,Increment      1: Step Time =    1.000,"P-5-1",          1507,       168.919,       169.957,            0.,NA,NA,"",   1.35972E+06,   1.30614E+06,   1.30614E+06
C:/temp/Job-5.odb,Step-1,Increment      1: Step Time =    1.000,"P-5-1",          1508,       44.1420,       169.074,            0.,NA,NA,"",   1.82904E+06,   1.71666E+06,   1.71666E+06
C:/temp/Job-5.odb,Step-1,Increment      1: Step Time =    1.000,"P-5-1",          1509,       171.880,       107.662,            0.,NA,NA,"",   589.247E+03,   562.710E+03,   562.710E+03
C:/temp/Job-5.odb,Step-1,Increment      1: Step Time =    1.000,"P-5-1",          1510,       156.961,       156.347,            0.,NA,NA,"",   1.84466E+06,   1.67054E+06,   1.67054E+06
C:/temp/Job-5.odb,Step-1,Increment      1: Step Time =    1.000,"P-5-1",          1511,       162.288,       137.437,            0.,NA,NA,"",   1.79631E+06,   1.47475E+06,   1.47475E+06
C:/temp/Job-5.odb,Step-1,Increment      1: Step Time =    1.000,"P-5-1",          1512,       161.177,       30.5737,            0.,NA,NA,"",   1.47778E+06,   1.40130E+06,   1.40130E+06
C:/temp/Job-5.odb,Step-1,Increment      1: Step Time =    1.000,"P-5-1",          1513,       153.144,       43.8890,            0.,NA,NA,"",   1.91128E+06,   1.74335E+06,   1.74335E+06
C:/temp/Job-5.odb,Step-1,Increment      1: Step Time =    1.000,"P-5-1",          1514,       148.838,       40.4186,            0.,NA,NA,"",   1.91127E+06,   1.78772E+06,   1.78772E+06
C:/temp/Job-5.odb,Step-1,Increment      1: Step Time =    1.000,"P-5-1",          1515,       41.6082,       165.922,            0.,NA,NA,"",   1.74454E+06,   1.63140E+06,   1.63140E+06
C:/temp/Job-5.odb,Step-1,Increment      1: Step Time =    1.000,"P-5-1",          1516,       167.023,       36.4389,            0.,NA,NA,"",   1.49854E+06,   1.41217E+06,   1.41217E+06
C:/temp/Job-5.odb,Step-1,Increment      1: Step Time =    1.000,"P-5-1",          1517,       171.452,       135.060,            0.,NA,NA,"",   1.59761E+06,   1.41089E+06,   1.41089E+06
C:/temp/Job-5.odb,Step-1,Increment      1: Step Time =    1.000,"P-5-1",          1518,       144.082,       35.2082,            0.,NA,NA,"",   1.84085E+06,   1.77062E+06,   1.77062E+06
C:/temp/Job-5.odb,Step-1,Increment      1: Step Time =    1.000,"P-5-1",          1519,       143.966,       38.9446,            0.,NA,NA,"",   1.94161E+06,   1.86022E+06,   1.86022E+06
