ODB Name,Step,Frame,Part Instance Name,    Node Label,X,Y,Z,Section Name,Material Name,Section Point,       S-Mises,S-Max. In-Plane Principal (Abs),S-Max. Principal (Abs)
C:/temp/Job-3.odb,Step-1,Increment      1: Step Time =    1.000,"P-3-1",             1,       85.1039,       172.485,            0.,NA,NA,"",   4.84704E+06,   4.86591E+06,   4.86591E+06
C:/temp/Job-3.odb,Step-1,Increment      1: Step Time =    1.000,"P-3-1",             2,       70.8177,       168.003,            0.,NA,NA,"",   1.10118E+06,   263.911E+03,   263.911E+03
C:/temp/Job-3.odb,Step-1,Increment      1: Step Time =    1.000,"P-3-1",             3,       57.7262,       160.736,            0.,NA,NA,"",   2.41245E+06,  -2.41576E+06,  -2.41576E+06
C:/temp/Job-3.odb,Step-1,Increment      1: Step Time =    1.000,"P-3-1",             4,       46.3653,       150.984,            0.,NA,NA,"",   3.10817E+06,  -3.14376E+06,  -3.14376E+06
C:/temp/Job-3.odb,Step-1,Increment      1: Step Time =    1.000,"P-3-1",             5,       37.2003,       139.143,            0.,NA,NA,"",   2.59742E+06,  -2.62515E+06,  -2.62515E+06
C:/temp/Job-3.odb,Step-1,Increment      1: Step Time =    1.000,"P-3-1",             6,       30.6063,       125.701,            0.,NA,NA,"",   1.53941E+06,  -1.55755E+06,  -1.55755E+06
C:/temp/Job-3.odb,Step-1,Increment      1: Step Time =    1.000,"P-3-1",             7,       26.8533,       111.206,            0.,NA,NA,"",   831.971E+03,  -852.313E+03,  -852.313E+03
C:/temp/Job-3.odb,Step-1,Increment      1: Step Time =    1.000,"P-3-1",             8,       26.0950,       96.2520,            0.,NA,NA,"",   700.389E+03,  -711.433E+03,  -711.433E+03
C:/temp/Job-3.odb,Step-1,Increment      1: Step Time =    1.000,"P-3-1",             9,       28.3623,       81.4517,            0.,NA,NA,"",   1.08233E+06,  -1.10247E+06,  -1.10247E+06
C:/temp/Job-3.odb,Step-1,Increment      1: Step Time =    1.000,"P-3-1",            10,       33.5625,       67.4108,            0.,NA,NA,"",   2.05782E+06,  -2.08018E+06,  -2.08018E+06
C:/temp/Job-3.odb,Step-1,Increment      1: Step Time =    1.000,"P-3-1",            11,       41.4826,       54.7042,            0.,NA,NA,"",   3.06782E+06,  -3.10214E+06,  -3.10214E+06
C:/temp/Job-3.odb,Step-1,Increment      1: Step Time =    1.000,"P-3-1",            12,       51.7984,       43.8519,            0.,NA,NA,"",   3.09809E+06,  -3.12320E+06,  -3.12320E+06
C:/temp/Job-3.odb,Step-1,Increment      1: Step Time =    1.000,"P-3-1",            13,       64.0877,       35.2984,            0.,NA,NA,"",   1.54465E+06,  -1.44098E+06,  -1.44098E+06
C:/temp/Job-3.odb,Step-1,Increment      1: Step Time =    1.000,"P-3-1",            14,       77.8471,       29.3937,            0.,NA,NA,"",   2.55931E+06,   2.51870E+06,   2.51870E+06
C:/temp/Job-3.odb,Step-1,Increment      1: Step Time =    1.000,"P-3-1",            15,       92.5135,       26.3797,            0.,NA,NA,"",   6.85116E+06,   6.93771E+06,   6.93771E+06
C:/temp/Job-3.odb,Step-1,Increment      1: Step Time =    1.000,"P-3-1",            16,       107.486,       26.3797,            0.,NA,NA,"",   10.0512E+06,   10.1298E+06,   10.1298E+06
C:/temp/Job-3.odb,Step-1,Increment      1: Step Time =    1.000,"P-3-1",            17,       122.153,       29.3937,            0.,NA,NA,"",   9.81087E+06,   9.95448E+06,   9.95448E+06
C:/temp/Job-3.odb,Step-1,Increment      1: Step Time =    1.000,"P-3-1",            18,       135.912,       35.2984,            0.,NA,NA,"",   7.63522E+06,   7.72044E+06,   7.72044E+06
C:/temp/Job-3.odb,Step-1,Increment      1: Step Time =    1.000,"P-3-1",            19,       148.202,       43.8519,            0.,NA,NA,"",   4.87841E+06,   4.96001E+06,   4.96001E+06
C:/temp/Job-3.odb,Step-1,Increment      1: Step Time =    1.000,"P-3-1",            20,       158.517,       54.7042,            0.,NA,NA,"",   2.51438E+06,   2.51108E+06,   2.51108E+06
C:/temp/Job-3.odb,Step-1,Increment      1: Step Time =    1.000,"P-3-1",            21,       166.438,       67.4108,            0.,NA,NA,"",   1.13386E+06,  -390.569E+03,  -390.569E+03
C:/temp/Job-3.odb,Step-1,Increment      1: Step Time =    1.000,"P-3-1",            22,       171.638,       81.4517,            0.,NA,NA,"",   4.16677E+06,  -4.18360E+06,  -4.18360E+06
C:/temp/Job-3.odb,Step-1,Increment      1: Step Time =    1.000,"P-3-1",            23,       173.905,       96.2520,            0.,NA,NA,"",   6.10569E+06,  -6.20057E+06,  -6.20057E+06
C:/temp/Job-3.odb,Step-1,Increment      1: Step Time =    1.000,"P-3-1",            24,       173.147,       111.206,            0.,NA,NA,"",   5.61349E+06,  -5.64124E+06,  -5.64124E+06
C:/temp/Job-3.odb,Step-1,Increment      1: Step Time =    1.000,"P-3-1",            25,       169.394,       125.701,            0.,NA,NA,"",   2.54159E+06,  -2.50613E+06,  -2.50613E+06
C:/temp/Job-3.odb,Step-1,Increment      1: Step Time =    1.000,"P-3-1",            26,       162.800,       139.143,            0.,NA,NA,"",   1.38804E+06,   1.26711E+06,   1.26711E+06
C:/temp/Job-3.odb,Step-1,Increment      1: Step Time =    1.000,"P-3-1",            27,       153.635,       150.984,            0.,NA,NA,"",   3.70527E+06,   3.74630E+06,   3.74630E+06
C:/temp/Job-3.odb,Step-1,Increment      1: Step Time =    1.000,"P-3-1",            28,       142.274,       160.736,            0.,NA,NA,"",   6.31407E+06,   6.39605E+06,   6.39605E+06
C:/temp/Job-3.odb,Step-1,Increment      1: Step Time =    1.000,"P-3-1",            29,       129.182,       168.003,            0.,NA,NA,"",   9.17789E+06,   9.28753E+06,   9.28753E+06
C:/temp/Job-3.odb,Step-1,Increment      1: Step Time =    1.000,"P-3-1",            30,       114.896,       172.485,            0.,NA,NA,"",   10.6526E+06,   10.7690E+06,   10.7690E+06
C:/temp/Job-3.odb,Step-1,Increment      1: Step Time =    1.000,"P-3-1",            31,          100.,          174.,            0.,NA,NA,"",   9.01032E+06,   9.10354E+06,   9.10354E+06
C:/temp/Job-3.odb,Step-1,Increment      1: Step Time =    1.000,"P-3-1",            32,          190.,            0.,            0.,NA,NA,"",   902.185E+03,   894.105E+03,   894.105E+03
C:/temp/Job-3.odb,Step-1,Increment      1: Step Time =    1.000,"P-3-1",            33,          180.,            0.,            0.,NA,NA,"",   648.447E+03,   635.257E+03,   635.257E+03
C:/temp/Job-3.odb,Step-1,Increment      1: Step Time =    1.000,"P-3-1",            34,          170.,            0.,            0.,NA,NA,"",   348.294E+03,   292.753E+03,   292.753E+03
C:/temp/Job-3.odb,Step-1,Increment      1: Step Time =    1.000,"P-3-1",            35,          160.,            0.,            0.,NA,NA,"",   463.310E+03,  -415.562E+03,  -415.562E+03
C:/temp/Job-3.odb,Step-1,Increment      1: Step Time =    1.000,"P-3-1",            36,          150.,            0.,            0.,NA,NA,"",   1.08806E+06,  -1.07030E+06,  -1.07030E+06
C:/temp/Job-3.odb,Step-1,Increment      1: Step Time =    1.000,"P-3-1",            37,          140.,            0.,            0.,NA,NA,"",   1.85426E+06,  -1.84322E+06,  -1.84322E+06
C:/temp/Job-3.odb,Step-1,Increment      1: Step Time =    1.000,"P-3-1",            38,          130.,            0.,            0.,NA,NA,"",   2.45821E+06,  -2.44781E+06,  -2.44781E+06
C:/temp/Job-3.odb,Step-1,Increment      1: Step Time =    1.000,"P-3-1",            39,          120.,            0.,            0.,NA,NA,"",   2.63435E+06,  -2.61084E+06,  -2.61084E+06
C:/temp/Job-3.odb,Step-1,Increment      1: Step Time =    1.000,"P-3-1",            40,          110.,            0.,            0.,NA,NA,"",   2.15140E+06,  -2.11774E+06,  -2.11774E+06
C:/temp/Job-3.odb,Step-1,Increment      1: Step Time =    1.000,"P-3-1",            41,          100.,            0.,            0.,NA,NA,"",   1.11483E+06,  -1.00140E+06,  -1.00140E+06
C:/temp/Job-3.odb,Step-1,Increment      1: Step Time =    1.000,"P-3-1",            42,           90.,            0.,            0.,NA,NA,"",   1.32513E+06,   1.19039E+06,   1.19039E+06
C:/temp/Job-3.odb,Step-1,Increment      1: Step Time =    1.000,"P-3-1",            43,           80.,            0.,            0.,NA,NA,"",   3.04938E+06,   3.00496E+06,   3.00496E+06
C:/temp/Job-3.odb,Step-1,Increment      1: Step Time =    1.000,"P-3-1",            44,           70.,            0.,            0.,NA,NA,"",   4.59474E+06,   4.56324E+06,   4.56324E+06
C:/temp/Job-3.odb,Step-1,Increment      1: Step Time =    1.000,"P-3-1",            45,           60.,            0.,            0.,NA,NA,"",   5.60287E+06,   5.58274E+06,   5.58274E+06
C:/temp/Job-3.odb,Step-1,Increment      1: Step Time =    1.000,"P-3-1",            46,           50.,            0.,            0.,NA,NA,"",   6.05768E+06,   6.04354E+06,   6.04354E+06
C:/temp/Job-3.odb,Step-1,Increment      1: Step Time =    1.000,"P-3-1",            47,           40.,            0.,            0.,NA,NA,"",   6.10162E+06,   6.09044E+06,   6.09044E+06
C:/temp/Job-3.odb,Step-1,Increment      1: Step Time =    1.000,"P-3-1",            48,           30.,            0.,            0.,NA,NA,"",   5.92017E+06,   5.91811E+06,   5.91811E+06
C:/temp/Job-3.odb,Step-1,Increment      1: Step Time =    1.000,"P-3-1",            49,           20.,            0.,            0.,NA,NA,"",   5.69878E+06,   5.69669E+06,   5.69669E+06
C:/temp/Job-3.odb,Step-1,Increment      1: Step Time =    1.000,"P-3-1",            50,           10.,            0.,            0.,NA,NA,"",   5.56940E+06,   5.56816E+06,   5.56816E+06
C:/temp/Job-3.odb,Step-1,Increment      1: Step Time =    1.000,"P-3-1",            51,          200.,            0.,            0.,NA,NA,"",   994.858E+03,   989.389E+03,   989.389E+03
C:/temp/Job-3.odb,Step-1,Increment      1: Step Time =    1.000,"P-3-1",            52,            0.,            0.,            0.,NA,NA,"",   5.94060E+06,   6.24175E+06,   6.24175E+06
C:/temp/Job-3.odb,Step-1,Increment      1: Step Time =    1.000,"P-3-1",            53,          200.,          190.,            0.,NA,NA,"",   1.05453E+06,   993.312E+03,   993.312E+03
C:/temp/Job-3.odb,Step-1,Increment      1: Step Time =    1.000,"P-3-1",            54,          200.,          180.,            0.,NA,NA,"",   1.19360E+06,   1.01318E+06,   1.01318E+06
C:/temp/Job-3.odb,Step-1,Increment      1: Step Time =    1.000,"P-3-1",            55,          200.,          170.,            0.,NA,NA,"",   1.23162E+06,   1.03543E+06,   1.03543E+06
C:/temp/Job-3.odb,Step-1,Increment      1: Step Time =    1.000,"P-3-1",            56,          200.,          160.,            0.,NA,NA,"",   1.06058E+06,   1.06397E+06,   1.06397E+06
C:/temp/Job-3.odb,Step-1,Increment      1: Step Time =    1.000,"P-3-1",            57,          200.,          150.,            0.,NA,NA,"",   1.13494E+06,   1.30792E+06,   1.30792E+06
C:/temp/Job-3.odb,Step-1,Increment      1: Step Time =    1.000,"P-3-1",            58,          200.,          140.,            0.,NA,NA,"",   2.13327E+06,   2.43418E+06,   2.43418E+06
C:/temp/Job-3.odb,Step-1,Increment      1: Step Time =    1.000,"P-3-1",            59,          200.,          130.,            0.,NA,NA,"",   3.77036E+06,   4.15227E+06,   4.15227E+06
C:/temp/Job-3.odb,Step-1,Increment      1: Step Time =    1.000,"P-3-1",            60,          200.,          120.,            0.,NA,NA,"",   5.53812E+06,   5.95298E+06,   5.95298E+06
C:/temp/Job-3.odb,Step-1,Increment      1: Step Time =    1.000,"P-3-1",            61,          200.,          110.,            0.,NA,NA,"",   6.87419E+06,   7.28885E+06,   7.28885E+06
C:/temp/Job-3.odb,Step-1,Increment      1: Step Time =    1.000,"P-3-1",            62,          200.,          100.,            0.,NA,NA,"",   7.41869E+06,   7.83987E+06,   7.83987E+06
C:/temp/Job-3.odb,Step-1,Increment      1: Step Time =    1.000,"P-3-1",            63,          200.,           90.,            0.,NA,NA,"",   6.99497E+06,   7.40825E+06,   7.40825E+06
C:/temp/Job-3.odb,Step-1,Increment      1: Step Time =    1.000,"P-3-1",            64,          200.,           80.,            0.,NA,NA,"",   5.56263E+06,   5.97493E+06,   5.97493E+06
C:/temp/Job-3.odb,Step-1,Increment      1: Step Time =    1.000,"P-3-1",            65,          200.,           70.,            0.,NA,NA,"",   3.83583E+06,   4.21532E+06,   4.21532E+06
C:/temp/Job-3.odb,Step-1,Increment      1: Step Time =    1.000,"P-3-1",            66,          200.,           60.,            0.,NA,NA,"",   2.16666E+06,   2.45980E+06,   2.45980E+06
C:/temp/Job-3.odb,Step-1,Increment      1: Step Time =    1.000,"P-3-1",            67,          200.,           50.,            0.,NA,NA,"",   1.17103E+06,   1.34880E+06,   1.34880E+06
C:/temp/Job-3.odb,Step-1,Increment      1: Step Time =    1.000,"P-3-1",            68,          200.,           40.,            0.,NA,NA,"",   1.06709E+06,   1.06078E+06,   1.06078E+06
C:/temp/Job-3.odb,Step-1,Increment      1: Step Time =    1.000,"P-3-1",            69,          200.,           30.,            0.,NA,NA,"",   1.22844E+06,   1.03043E+06,   1.03043E+06
C:/temp/Job-3.odb,Step-1,Increment      1: Step Time =    1.000,"P-3-1",            70,          200.,           20.,            0.,NA,NA,"",   1.19163E+06,   1.01084E+06,   1.01084E+06
C:/temp/Job-3.odb,Step-1,Increment      1: Step Time =    1.000,"P-3-1",            71,          200.,           10.,            0.,NA,NA,"",   1.04885E+06,   992.442E+03,   992.442E+03
C:/temp/Job-3.odb,Step-1,Increment      1: Step Time =    1.000,"P-3-1",            72,          200.,          200.,            0.,NA,NA,"",   993.827E+03,   987.113E+03,   987.113E+03
C:/temp/Job-3.odb,Step-1,Increment      1: Step Time =    1.000,"P-3-1",            73,           10.,          200.,            0.,NA,NA,"",   5.55895E+06,   5.55835E+06,   5.55835E+06
C:/temp/Job-3.odb,Step-1,Increment      1: Step Time =    1.000,"P-3-1",            74,           20.,          200.,            0.,NA,NA,"",   5.70388E+06,   5.70048E+06,   5.70048E+06
C:/temp/Job-3.odb,Step-1,Increment      1: Step Time =    1.000,"P-3-1",            75,           30.,          200.,            0.,NA,NA,"",   5.93929E+06,   5.93782E+06,   5.93782E+06
C:/temp/Job-3.odb,Step-1,Increment      1: Step Time =    1.000,"P-3-1",            76,           40.,          200.,            0.,NA,NA,"",   6.15442E+06,   6.14396E+06,   6.14396E+06
C:/temp/Job-3.odb,Step-1,Increment      1: Step Time =    1.000,"P-3-1",            77,           50.,          200.,            0.,NA,NA,"",   6.12507E+06,   6.11533E+06,   6.11533E+06
C:/temp/Job-3.odb,Step-1,Increment      1: Step Time =    1.000,"P-3-1",            78,           60.,          200.,            0.,NA,NA,"",   5.67446E+06,   5.65539E+06,   5.65539E+06
C:/temp/Job-3.odb,Step-1,Increment      1: Step Time =    1.000,"P-3-1",            79,           70.,          200.,            0.,NA,NA,"",   4.66969E+06,   4.63661E+06,   4.63661E+06
C:/temp/Job-3.odb,Step-1,Increment      1: Step Time =    1.000,"P-3-1",            80,           80.,          200.,            0.,NA,NA,"",   3.11000E+06,   3.05851E+06,   3.05851E+06
C:/temp/Job-3.odb,Step-1,Increment      1: Step Time =    1.000,"P-3-1",            81,           90.,          200.,            0.,NA,NA,"",   1.43721E+06,   1.29452E+06,   1.29452E+06
C:/temp/Job-3.odb,Step-1,Increment      1: Step Time =    1.000,"P-3-1",            82,          100.,          200.,            0.,NA,NA,"",   1.13321E+06,  -975.257E+03,  -975.257E+03
C:/temp/Job-3.odb,Step-1,Increment      1: Step Time =    1.000,"P-3-1",            83,          110.,          200.,            0.,NA,NA,"",   2.15883E+06,  -2.10892E+06,  -2.10892E+06
C:/temp/Job-3.odb,Step-1,Increment      1: Step Time =    1.000,"P-3-1",            84,          120.,          200.,            0.,NA,NA,"",   2.54578E+06,  -2.52861E+06,  -2.52861E+06
C:/temp/Job-3.odb,Step-1,Increment      1: Step Time =    1.000,"P-3-1",            85,          130.,          200.,            0.,NA,NA,"",   2.34236E+06,  -2.31958E+06,  -2.31958E+06
C:/temp/Job-3.odb,Step-1,Increment      1: Step Time =    1.000,"P-3-1",            86,          140.,          200.,            0.,NA,NA,"",   1.67870E+06,  -1.66206E+06,  -1.66206E+06
C:/temp/Job-3.odb,Step-1,Increment      1: Step Time =    1.000,"P-3-1",            87,          150.,          200.,            0.,NA,NA,"",   962.303E+03,  -953.958E+03,  -953.958E+03
C:/temp/Job-3.odb,Step-1,Increment      1: Step Time =    1.000,"P-3-1",            88,          160.,          200.,            0.,NA,NA,"",   401.484E+03,  -372.791E+03,  -372.791E+03
C:/temp/Job-3.odb,Step-1,Increment      1: Step Time =    1.000,"P-3-1",            89,          170.,          200.,            0.,NA,NA,"",   281.534E+03,   253.523E+03,   253.523E+03
C:/temp/Job-3.odb,Step-1,Increment      1: Step Time =    1.000,"P-3-1",            90,          180.,          200.,            0.,NA,NA,"",   623.077E+03,   614.654E+03,   614.654E+03
C:/temp/Job-3.odb,Step-1,Increment      1: Step Time =    1.000,"P-3-1",            91,          190.,          200.,            0.,NA,NA,"",   894.658E+03,   886.711E+03,   886.711E+03
C:/temp/Job-3.odb,Step-1,Increment      1: Step Time =    1.000,"P-3-1",            92,            0.,          200.,            0.,NA,NA,"",   5.93276E+06,   6.24307E+06,   6.24307E+06
C:/temp/Job-3.odb,Step-1,Increment      1: Step Time =    1.000,"P-3-1",            93,            0.,           10.,            0.,NA,NA,"",   4.05021E+06,   4.46527E+06,   4.46527E+06
C:/temp/Job-3.odb,Step-1,Increment      1: Step Time =    1.000,"P-3-1",            94,            0.,           20.,            0.,NA,NA,"",   2.66857E+06,   2.97948E+06,   2.97948E+06
C:/temp/Job-3.odb,Step-1,Increment      1: Step Time =    1.000,"P-3-1",            95,            0.,           30.,            0.,NA,NA,"",   1.50190E+06,   1.68415E+06,   1.68415E+06
C:/temp/Job-3.odb,Step-1,Increment      1: Step Time =    1.000,"P-3-1",            96,            0.,           40.,            0.,NA,NA,"",   537.224E+03,   608.687E+03,   608.687E+03
C:/temp/Job-3.odb,Step-1,Increment      1: Step Time =    1.000,"P-3-1",            97,            0.,           50.,            0.,NA,NA,"",   235.268E+03,  -142.713E+03,  -142.713E+03
C:/temp/Job-3.odb,Step-1,Increment      1: Step Time =    1.000,"P-3-1",            98,            0.,           60.,            0.,NA,NA,"",   641.550E+03,  -666.739E+03,  -666.739E+03
C:/temp/Job-3.odb,Step-1,Increment      1: Step Time =    1.000,"P-3-1",            99,            0.,           70.,            0.,NA,NA,"",   778.612E+03,  -810.852E+03,  -810.852E+03
C:/temp/Job-3.odb,Step-1,Increment      1: Step Time =    1.000,"P-3-1",           100,            0.,           80.,            0.,NA,NA,"",   689.494E+03,  -728.244E+03,  -728.244E+03
C:/temp/Job-3.odb,Step-1,Increment      1: Step Time =    1.000,"P-3-1",           101,            0.,           90.,            0.,NA,NA,"",   484.963E+03,  -539.199E+03,  -539.199E+03
C:/temp/Job-3.odb,Step-1,Increment      1: Step Time =    1.000,"P-3-1",           102,            0.,          100.,            0.,NA,NA,"",   346.586E+03,  -399.703E+03,  -399.703E+03
C:/temp/Job-3.odb,Step-1,Increment      1: Step Time =    1.000,"P-3-1",           103,            0.,          110.,            0.,NA,NA,"",   470.908E+03,  -526.105E+03,  -526.105E+03
C:/temp/Job-3.odb,Step-1,Increment      1: Step Time =    1.000,"P-3-1",           104,            0.,          120.,            0.,NA,NA,"",   682.608E+03,  -720.804E+03,  -720.804E+03
C:/temp/Job-3.odb,Step-1,Increment      1: Step Time =    1.000,"P-3-1",           105,            0.,          130.,            0.,NA,NA,"",   778.494E+03,  -811.699E+03,  -811.699E+03
C:/temp/Job-3.odb,Step-1,Increment      1: Step Time =    1.000,"P-3-1",           106,            0.,          140.,            0.,NA,NA,"",   654.667E+03,  -677.832E+03,  -677.832E+03
C:/temp/Job-3.odb,Step-1,Increment      1: Step Time =    1.000,"P-3-1",           107,            0.,          150.,            0.,NA,NA,"",   243.354E+03,  -143.746E+03,  -143.746E+03
C:/temp/Job-3.odb,Step-1,Increment      1: Step Time =    1.000,"P-3-1",           108,            0.,          160.,            0.,NA,NA,"",   542.733E+03,   613.145E+03,   613.145E+03
C:/temp/Job-3.odb,Step-1,Increment      1: Step Time =    1.000,"P-3-1",           109,            0.,          170.,            0.,NA,NA,"",   1.48608E+06,   1.66571E+06,   1.66571E+06
C:/temp/Job-3.odb,Step-1,Increment      1: Step Time =    1.000,"P-3-1",           110,            0.,          180.,            0.,NA,NA,"",   2.64789E+06,   2.95806E+06,   2.95806E+06
C:/temp/Job-3.odb,Step-1,Increment      1: Step Time =    1.000,"P-3-1",           111,            0.,          190.,            0.,NA,NA,"",   4.05134E+06,   4.46783E+06,   4.46783E+06
C:/temp/Job-3.odb,Step-1,Increment      1: Step Time =    1.000,"P-3-1",           112,       96.5558,       19.7469,            0.,NA,NA,"",   6.60496E+06,   6.65257E+06,   6.65257E+06
C:/temp/Job-3.odb,Step-1,Increment      1: Step Time =    1.000,"P-3-1",           113,       190.170,       24.2477,            0.,NA,NA,"",   1.23175E+06,   1.14140E+06,   1.14140E+06
C:/temp/Job-3.odb,Step-1,Increment      1: Step Time =    1.000,"P-3-1",           114,       181.102,       82.9092,            0.,NA,NA,"",   2.58804E+06,  -765.368E+03,  -765.368E+03
C:/temp/Job-3.odb,Step-1,Increment      1: Step Time =    1.000,"P-3-1",           115,       189.482,       179.759,            0.,NA,NA,"",   1.19629E+06,   1.10767E+06,   1.10767E+06
C:/temp/Job-3.odb,Step-1,Increment      1: Step Time =    1.000,"P-3-1",           116,       177.934,       179.332,            0.,NA,NA,"",   1.47237E+06,   1.39740E+06,   1.39740E+06
C:/temp/Job-3.odb,Step-1,Increment      1: Step Time =    1.000,"P-3-1",           117,       169.596,       178.497,            0.,NA,NA,"",   1.78232E+06,   1.69734E+06,   1.69734E+06
C:/temp/Job-3.odb,Step-1,Increment      1: Step Time =    1.000,"P-3-1",           118,       159.270,       180.552,            0.,NA,NA,"",   2.04269E+06,   1.98485E+06,   1.98485E+06
C:/temp/Job-3.odb,Step-1,Increment      1: Step Time =    1.000,"P-3-1",           119,       148.530,       181.534,            0.,NA,NA,"",   2.35923E+06,   2.36313E+06,   2.36313E+06
C:/temp/Job-3.odb,Step-1,Increment      1: Step Time =    1.000,"P-3-1",           120,       136.062,       179.871,            0.,NA,NA,"",   3.88980E+06,   4.07444E+06,   4.07444E+06
C:/temp/Job-3.odb,Step-1,Increment      1: Step Time =    1.000,"P-3-1",           121,       126.916,       177.370,            0.,NA,NA,"",   6.19038E+06,   6.42623E+06,   6.42623E+06
C:/temp/Job-3.odb,Step-1,Increment      1: Step Time =    1.000,"P-3-1",           122,       117.606,       180.672,            0.,NA,NA,"",   6.13955E+06,   6.38292E+06,   6.38292E+06
C:/temp/Job-3.odb,Step-1,Increment      1: Step Time =    1.000,"P-3-1",           123,       105.761,       178.688,            0.,NA,NA,"",   8.25593E+06,   8.39991E+06,   8.39991E+06
C:/temp/Job-3.odb,Step-1,Increment      1: Step Time =    1.000,"P-3-1",           124,       94.9093,       178.848,            0.,NA,NA,"",   6.82499E+06,   6.86822E+06,   6.86822E+06
C:/temp/Job-3.odb,Step-1,Increment      1: Step Time =    1.000,"P-3-1",           125,       84.0716,       177.640,            0.,NA,NA,"",   4.80672E+06,   4.71367E+06,   4.71367E+06
C:/temp/Job-3.odb,Step-1,Increment      1: Step Time =    1.000,"P-3-1",           126,       72.1714,       178.149,            0.,NA,NA,"",   3.53666E+06,   3.10690E+06,   3.10690E+06
C:/temp/Job-3.odb,Step-1,Increment      1: Step Time =    1.000,"P-3-1",           127,       60.9244,       178.434,            0.,NA,NA,"",   3.19585E+06,   2.66802E+06,   2.66802E+06
C:/temp/Job-3.odb,Step-1,Increment      1: Step Time =    1.000,"P-3-1",           128,       54.9829,       181.790,            0.,NA,NA,"",   3.52029E+06,   3.15216E+06,   3.15216E+06
C:/temp/Job-3.odb,Step-1,Increment      1: Step Time =    1.000,"P-3-1",           129,       38.8013,       176.488,            0.,NA,NA,"",   2.57047E+06,   2.38144E+06,   2.38144E+06
C:/temp/Job-3.odb,Step-1,Increment      1: Step Time =    1.000,"P-3-1",           130,       32.4021,       176.286,            0.,NA,NA,"",   2.48781E+06,   2.39987E+06,   2.39987E+06
C:/temp/Job-3.odb,Step-1,Increment      1: Step Time =    1.000,"P-3-1",           131,       19.2296,       179.700,            0.,NA,NA,"",   3.02081E+06,   3.09995E+06,   3.09995E+06
C:/temp/Job-3.odb,Step-1,Increment      1: Step Time =    1.000,"P-3-1",           132,       9.83524,       179.434,            0.,NA,NA,"",   2.76776E+06,   2.96741E+06,   2.96741E+06
C:/temp/Job-3.odb,Step-1,Increment      1: Step Time =    1.000,"P-3-1",           133,       8.52434,       169.708,            0.,NA,NA,"",   1.44988E+06,   1.61878E+06,   1.61878E+06
C:/temp/Job-3.odb,Step-1,Increment      1: Step Time =    1.000,"P-3-1",           134,       22.5313,       170.131,            0.,NA,NA,"",   1.51210E+06,   1.55604E+06,   1.55604E+06
C:/temp/Job-3.odb,Step-1,Increment      1: Step Time =    1.000,"P-3-1",           135,       35.5819,       168.230,            0.,NA,NA,"",   1.27774E+06,   1.00015E+06,   1.00015E+06
C:/temp/Job-3.odb,Step-1,Increment      1: Step Time =    1.000,"P-3-1",           136,       41.7388,       167.259,            0.,NA,NA,"",   1.35440E+06,   35.1347E+03,   35.1347E+03
C:/temp/Job-3.odb,Step-1,Increment      1: Step Time =    1.000,"P-3-1",           137,       52.8806,       169.531,            0.,NA,NA,"",   1.83079E+06,  -30.2425E+03,  -30.2425E+03
C:/temp/Job-3.odb,Step-1,Increment      1: Step Time =    1.000,"P-3-1",           138,       59.7479,       167.537,            0.,NA,NA,"",   1.77676E+06,  -1.49330E+06,  -1.49330E+06
C:/temp/Job-3.odb,Step-1,Increment      1: Step Time =    1.000,"P-3-1",           139,       135.247,       169.532,            0.,NA,NA,"",   7.33481E+06,   7.47933E+06,   7.47933E+06
C:/temp/Job-3.odb,Step-1,Increment      1: Step Time =    1.000,"P-3-1",           140,       146.257,       168.806,            0.,NA,NA,"",   4.64400E+06,   4.78882E+06,   4.78882E+06
C:/temp/Job-3.odb,Step-1,Increment      1: Step Time =    1.000,"P-3-1",           141,       157.584,       169.310,            0.,NA,NA,"",   3.09933E+06,   3.11171E+06,   3.11171E+06
C:/temp/Job-3.odb,Step-1,Increment      1: Step Time =    1.000,"P-3-1",           142,       165.469,       168.284,            0.,NA,NA,"",   2.63889E+06,   2.56126E+06,   2.56126E+06
C:/temp/Job-3.odb,Step-1,Increment      1: Step Time =    1.000,"P-3-1",           143,       180.278,       169.871,            0.,NA,NA,"",   1.70382E+06,   1.62853E+06,   1.62853E+06
C:/temp/Job-3.odb,Step-1,Increment      1: Step Time =    1.000,"P-3-1",           144,       189.563,       169.846,            0.,NA,NA,"",   1.31191E+06,   1.24086E+06,   1.24086E+06
C:/temp/Job-3.odb,Step-1,Increment      1: Step Time =    1.000,"P-3-1",           145,       160.305,       157.937,            0.,NA,NA,"",   3.23363E+06,   3.21689E+06,   3.21689E+06
C:/temp/Job-3.odb,Step-1,Increment      1: Step Time =    1.000,"P-3-1",           146,       167.348,       157.814,            0.,NA,NA,"",   2.88661E+06,   2.72340E+06,   2.72340E+06
C:/temp/Job-3.odb,Step-1,Increment      1: Step Time =    1.000,"P-3-1",           147,       181.086,       157.524,            0.,NA,NA,"",   2.22102E+06,   2.03741E+06,   2.03741E+06
C:/temp/Job-3.odb,Step-1,Increment      1: Step Time =    1.000,"P-3-1",           148,       188.339,       159.053,            0.,NA,NA,"",   1.67236E+06,   1.60736E+06,   1.60736E+06
C:/temp/Job-3.odb,Step-1,Increment      1: Step Time =    1.000,"P-3-1",           149,       168.571,       150.116,            0.,NA,NA,"",   2.73515E+06,   2.47181E+06,   2.47181E+06
C:/temp/Job-3.odb,Step-1,Increment      1: Step Time =    1.000,"P-3-1",           150,       180.968,       148.835,            0.,NA,NA,"",   2.67305E+06,   2.31685E+06,   2.31685E+06
C:/temp/Job-3.odb,Step-1,Increment      1: Step Time =    1.000,"P-3-1",           151,       185.670,       148.595,            0.,NA,NA,"",   2.39871E+06,   2.18100E+06,   2.18100E+06
C:/temp/Job-3.odb,Step-1,Increment      1: Step Time =    1.000,"P-3-1",           152,       169.902,       137.147,            0.,NA,NA,"",   1.66741E+06,   793.670E+03,   793.670E+03
C:/temp/Job-3.odb,Step-1,Increment      1: Step Time =    1.000,"P-3-1",           153,       176.220,       133.768,            0.,NA,NA,"",   2.48381E+06,   888.140E+03,   888.140E+03
C:/temp/Job-3.odb,Step-1,Increment      1: Step Time =    1.000,"P-3-1",           154,       190.687,       135.224,            0.,NA,NA,"",   2.76564E+06,   2.79658E+06,   2.79658E+06
C:/temp/Job-3.odb,Step-1,Increment      1: Step Time =    1.000,"P-3-1",           155,       190.543,       125.756,            0.,NA,NA,"",   3.20326E+06,   3.23793E+06,   3.23793E+06
C:/temp/Job-3.odb,Step-1,Increment      1: Step Time =    1.000,"P-3-1",           156,       179.825,       123.984,            0.,NA,NA,"",   2.48714E+06,  -474.899E+03,  -474.899E+03
C:/temp/Job-3.odb,Step-1,Increment      1: Step Time =    1.000,"P-3-1",           157,       178.120,       115.067,            0.,NA,NA,"",   3.46134E+06,  -3.37253E+06,  -3.37253E+06
C:/temp/Job-3.odb,Step-1,Increment      1: Step Time =    1.000,"P-3-1",           158,       188.926,       115.810,            0.,NA,NA,"",   2.84946E+06,   2.82587E+06,   2.82587E+06
C:/temp/Job-3.odb,Step-1,Increment      1: Step Time =    1.000,"P-3-1",           159,       178.700,       106.150,            0.,NA,NA,"",   4.43260E+06,  -4.44988E+06,  -4.44988E+06
C:/temp/Job-3.odb,Step-1,Increment      1: Step Time =    1.000,"P-3-1",           160,       189.737,       105.655,            0.,NA,NA,"",   2.83705E+06,   3.01524E+06,   3.01524E+06
C:/temp/Job-3.odb,Step-1,Increment      1: Step Time =    1.000,"P-3-1",           161,       179.969,       95.1399,            0.,NA,NA,"",   3.54184E+06,  -3.55453E+06,  -3.55453E+06
C:/temp/Job-3.odb,Step-1,Increment      1: Step Time =    1.000,"P-3-1",           162,       188.715,       94.9358,            0.,NA,NA,"",   2.29711E+06,   2.10983E+06,   2.10983E+06
C:/temp/Job-3.odb,Step-1,Increment      1: Step Time =    1.000,"P-3-1",           163,       178.091,       73.8269,            0.,NA,NA,"",   2.45972E+06,  -984.928E+03,  -984.928E+03
C:/temp/Job-3.odb,Step-1,Increment      1: Step Time =    1.000,"P-3-1",           164,       190.057,       75.4709,            0.,NA,NA,"",   3.22077E+06,   3.23081E+06,   3.23081E+06
C:/temp/Job-3.odb,Step-1,Increment      1: Step Time =    1.000,"P-3-1",           165,       190.720,       85.1155,            0.,NA,NA,"",   3.42629E+06,   3.58248E+06,   3.58248E+06
C:/temp/Job-3.odb,Step-1,Increment      1: Step Time =    1.000,"P-3-1",           166,       170.649,       65.1981,            0.,NA,NA,"",   1.63909E+06,  -153.088E+03,  -153.088E+03
C:/temp/Job-3.odb,Step-1,Increment      1: Step Time =    1.000,"P-3-1",           167,       181.635,       64.9795,            0.,NA,NA,"",   2.87505E+06,   2.21835E+06,   2.21835E+06
C:/temp/Job-3.odb,Step-1,Increment      1: Step Time =    1.000,"P-3-1",           168,       190.399,       65.8025,            0.,NA,NA,"",   2.81966E+06,   2.82090E+06,   2.82090E+06
C:/temp/Job-3.odb,Step-1,Increment      1: Step Time =    1.000,"P-3-1",           169,       170.334,       51.9066,            0.,NA,NA,"",   2.66961E+06,   2.33002E+06,   2.33002E+06
C:/temp/Job-3.odb,Step-1,Increment      1: Step Time =    1.000,"P-3-1",           170,       182.021,       55.3658,            0.,NA,NA,"",   2.77449E+06,   2.37107E+06,   2.37107E+06
C:/temp/Job-3.odb,Step-1,Increment      1: Step Time =    1.000,"P-3-1",           171,       190.007,       52.6975,            0.,NA,NA,"",   2.09010E+06,   2.06596E+06,   2.06596E+06
C:/temp/Job-3.odb,Step-1,Increment      1: Step Time =    1.000,"P-3-1",           172,       158.601,       40.5250,            0.,NA,NA,"",   3.43716E+06,   3.44268E+06,   3.44268E+06
C:/temp/Job-3.odb,Step-1,Increment      1: Step Time =    1.000,"P-3-1",           173,       170.454,       40.3866,            0.,NA,NA,"",   2.75610E+06,   2.56391E+06,   2.56391E+06
C:/temp/Job-3.odb,Step-1,Increment      1: Step Time =    1.000,"P-3-1",           174,       178.468,       42.7210,            0.,NA,NA,"",   2.43001E+06,   2.19690E+06,   2.19690E+06
C:/temp/Job-3.odb,Step-1,Increment      1: Step Time =    1.000,"P-3-1",           175,       189.637,       44.7970,            0.,NA,NA,"",   1.74306E+06,   1.70080E+06,   1.70080E+06
C:/temp/Job-3.odb,Step-1,Increment      1: Step Time =    1.000,"P-3-1",           176,       138.207,       31.3295,            0.,NA,NA,"",   6.74637E+06,   6.87922E+06,   6.87922E+06
C:/temp/Job-3.odb,Step-1,Increment      1: Step Time =    1.000,"P-3-1",           177,       149.193,       30.5967,            0.,NA,NA,"",   4.07106E+06,   4.19648E+06,   4.19648E+06
C:/temp/Job-3.odb,Step-1,Increment      1: Step Time =    1.000,"P-3-1",           178,       159.346,       32.4703,            0.,NA,NA,"",   3.06083E+06,   3.06152E+06,   3.06152E+06
C:/temp/Job-3.odb,Step-1,Increment      1: Step Time =    1.000,"P-3-1",           179,       172.085,       30.8364,            0.,NA,NA,"",   2.19286E+06,   2.08856E+06,   2.08856E+06
C:/temp/Job-3.odb,Step-1,Increment      1: Step Time =    1.000,"P-3-1",           180,       179.966,       30.6170,            0.,NA,NA,"",   1.77049E+06,   1.68142E+06,   1.68142E+06
C:/temp/Job-3.odb,Step-1,Increment      1: Step Time =    1.000,"P-3-1",           181,       188.166,       33.9594,            0.,NA,NA,"",   1.45541E+06,   1.39169E+06,   1.39169E+06
C:/temp/Job-3.odb,Step-1,Increment      1: Step Time =    1.000,"P-3-1",           182,       107.904,       21.9058,            0.,NA,NA,"",   8.64692E+06,   8.77766E+06,   8.77766E+06
C:/temp/Job-3.odb,Step-1,Increment      1: Step Time =    1.000,"P-3-1",           183,       10.0754,       20.0108,            0.,NA,NA,"",   2.88878E+06,   3.09034E+06,   3.09034E+06
C:/temp/Job-3.odb,Step-1,Increment      1: Step Time =    1.000,"P-3-1",           184,       19.7284,       19.6284,            0.,NA,NA,"",   3.11754E+06,   3.18502E+06,   3.18502E+06
C:/temp/Job-3.odb,Step-1,Increment      1: Step Time =    1.000,"P-3-1",           185,       31.9352,       19.2695,            0.,NA,NA,"",   3.18989E+06,   3.12635E+06,   3.12635E+06
C:/temp/Job-3.odb,Step-1,Increment      1: Step Time =    1.000,"P-3-1",           186,       41.1026,       21.4959,            0.,NA,NA,"",   2.87735E+06,   2.67853E+06,   2.67853E+06
C:/temp/Job-3.odb,Step-1,Increment      1: Step Time =    1.000,"P-3-1",           187,       51.5008,       22.3361,            0.,NA,NA,"",   2.81166E+06,   2.35772E+06,   2.35772E+06
C:/temp/Job-3.odb,Step-1,Increment      1: Step Time =    1.000,"P-3-1",           188,       74.5577,       20.8225,            0.,NA,NA,"",   3.83511E+06,   3.43839E+06,   3.43839E+06
C:/temp/Job-3.odb,Step-1,Increment      1: Step Time =    1.000,"P-3-1",           189,       85.9920,       22.8241,            0.,NA,NA,"",   5.23740E+06,   5.18315E+06,   5.18315E+06
C:/temp/Job-3.odb,Step-1,Increment      1: Step Time =    1.000,"P-3-1",           190,       118.962,       22.2183,            0.,NA,NA,"",   7.67772E+06,   7.90877E+06,   7.90877E+06
C:/temp/Job-3.odb,Step-1,Increment      1: Step Time =    1.000,"P-3-1",           191,       127.143,       19.7680,            0.,NA,NA,"",   4.92075E+06,   5.15061E+06,   5.15061E+06
C:/temp/Job-3.odb,Step-1,Increment      1: Step Time =    1.000,"P-3-1",           192,       134.013,       19.6201,            0.,NA,NA,"",   3.89697E+06,   4.08463E+06,   4.08463E+06
C:/temp/Job-3.odb,Step-1,Increment      1: Step Time =    1.000,"P-3-1",           193,       145.993,       20.2436,            0.,NA,NA,"",   2.85330E+06,   2.92312E+06,   2.92312E+06
C:/temp/Job-3.odb,Step-1,Increment      1: Step Time =    1.000,"P-3-1",           194,       158.015,       22.7951,            0.,NA,NA,"",   2.44955E+06,   2.41618E+06,   2.41618E+06
C:/temp/Job-3.odb,Step-1,Increment      1: Step Time =    1.000,"P-3-1",           195,       167.378,       22.0386,            0.,NA,NA,"",   1.95159E+06,   1.86352E+06,   1.86352E+06
C:/temp/Job-3.odb,Step-1,Increment      1: Step Time =    1.000,"P-3-1",           196,       178.216,       21.5977,            0.,NA,NA,"",   1.47701E+06,   1.40411E+06,   1.40411E+06
C:/temp/Job-3.odb,Step-1,Increment      1: Step Time =    1.000,"P-3-1",           197,       65.9011,       28.1648,            0.,NA,NA,"",   1.88529E+06,   1.01694E+06,   1.01694E+06
C:/temp/Job-3.odb,Step-1,Increment      1: Step Time =    1.000,"P-3-1",           198,       54.2695,       31.2133,            0.,NA,NA,"",   1.75774E+06,  -654.457E+03,  -654.457E+03
C:/temp/Job-3.odb,Step-1,Increment      1: Step Time =    1.000,"P-3-1",           199,       41.1159,       29.0005,            0.,NA,NA,"",   1.72463E+06,   1.34920E+06,   1.34920E+06
C:/temp/Job-3.odb,Step-1,Increment      1: Step Time =    1.000,"P-3-1",           200,       30.6338,       32.8797,            0.,NA,NA,"",   1.08974E+06,    957.16E+03,    957.16E+03
C:/temp/Job-3.odb,Step-1,Increment      1: Step Time =    1.000,"P-3-1",           201,       20.9222,       29.5198,            0.,NA,NA,"",   1.53846E+06,   1.60519E+06,   1.60519E+06
C:/temp/Job-3.odb,Step-1,Increment      1: Step Time =    1.000,"P-3-1",           202,       10.2512,       29.8386,            0.,NA,NA,"",   1.51685E+06,   1.67979E+06,   1.67979E+06
C:/temp/Job-3.odb,Step-1,Increment      1: Step Time =    1.000,"P-3-1",           203,       41.9891,       40.4642,            0.,NA,NA,"",   1.64261E+06,  -1.62504E+06,  -1.62504E+06
C:/temp/Job-3.odb,Step-1,Increment      1: Step Time =    1.000,"P-3-1",           204,       21.4386,       42.5112,            0.,NA,NA,"",   438.768E+03,  -30.8291E+03,  -30.8291E+03
C:/temp/Job-3.odb,Step-1,Increment      1: Step Time =    1.000,"P-3-1",           205,       10.6165,       39.8136,            0.,NA,NA,"",   450.197E+03,   511.186E+03,   511.186E+03
C:/temp/Job-3.odb,Step-1,Increment      1: Step Time =    1.000,"P-3-1",           206,       29.7643,       53.4325,            0.,NA,NA,"",   1.58964E+06,  -1.61165E+06,  -1.61165E+06
C:/temp/Job-3.odb,Step-1,Increment      1: Step Time =    1.000,"P-3-1",           207,       18.9493,       50.3638,            0.,NA,NA,"",   799.836E+03,  -708.168E+03,  -708.168E+03
C:/temp/Job-3.odb,Step-1,Increment      1: Step Time =    1.000,"P-3-1",           208,       9.53407,       54.6507,            0.,NA,NA,"",   698.275E+03,  -629.108E+03,  -629.108E+03
C:/temp/Job-3.odb,Step-1,Increment      1: Step Time =    1.000,"P-3-1",           209,       32.0504,       60.9593,            0.,NA,NA,"",   2.16005E+06,  -2.19091E+06,  -2.19091E+06
C:/temp/Job-3.odb,Step-1,Increment      1: Step Time =    1.000,"P-3-1",           210,       21.7575,       66.8972,            0.,NA,NA,"",   1.29467E+06,  -1.31012E+06,  -1.31012E+06
C:/temp/Job-3.odb,Step-1,Increment      1: Step Time =    1.000,"P-3-1",           211,       9.44710,       64.3038,            0.,NA,NA,"",   889.996E+03,  -883.533E+03,  -883.533E+03
C:/temp/Job-3.odb,Step-1,Increment      1: Step Time =    1.000,"P-3-1",           212,       20.1727,       73.4124,            0.,NA,NA,"",   1.11659E+06,  -1.14840E+06,  -1.14840E+06
C:/temp/Job-3.odb,Step-1,Increment      1: Step Time =    1.000,"P-3-1",           213,       9.77121,       74.1833,            0.,NA,NA,"",   824.409E+03,  -860.149E+03,  -860.149E+03
C:/temp/Job-3.odb,Step-1,Increment      1: Step Time =    1.000,"P-3-1",           214,       11.1946,       83.8165,            0.,NA,NA,"",   660.124E+03,  -721.405E+03,  -721.405E+03
C:/temp/Job-3.odb,Step-1,Increment      1: Step Time =    1.000,"P-3-1",           215,       22.5991,       101.579,            0.,NA,NA,"",   674.714E+03,  -694.753E+03,  -694.753E+03
C:/temp/Job-3.odb,Step-1,Increment      1: Step Time =    1.000,"P-3-1",           216,       10.0495,       104.551,            0.,NA,NA,"",   433.896E+03,  -494.849E+03,  -494.849E+03
C:/temp/Job-3.odb,Step-1,Increment      1: Step Time =    1.000,"P-3-1",           217,       9.54247,       94.2689,            0.,NA,NA,"",   433.152E+03,  -495.203E+03,  -495.203E+03
C:/temp/Job-3.odb,Step-1,Increment      1: Step Time =    1.000,"P-3-1",           218,       22.3170,       91.4966,            0.,NA,NA,"",   730.290E+03,  -757.080E+03,  -757.080E+03
C:/temp/Job-3.odb,Step-1,Increment      1: Step Time =    1.000,"P-3-1",           219,       21.3047,       112.371,            0.,NA,NA,"",   778.051E+03,  -813.939E+03,  -813.939E+03
C:/temp/Job-3.odb,Step-1,Increment      1: Step Time =    1.000,"P-3-1",           220,       9.86947,       115.003,            0.,NA,NA,"",   605.325E+03,  -669.537E+03,  -669.537E+03
C:/temp/Job-3.odb,Step-1,Increment      1: Step Time =    1.000,"P-3-1",           221,       21.1221,       124.989,            0.,NA,NA,"",   1.11084E+06,  -1.14131E+06,  -1.14131E+06
C:/temp/Job-3.odb,Step-1,Increment      1: Step Time =    1.000,"P-3-1",           222,       9.38169,       124.578,            0.,NA,NA,"",   809.117E+03,  -848.170E+03,  -848.170E+03
C:/temp/Job-3.odb,Step-1,Increment      1: Step Time =    1.000,"P-3-1",           223,       31.2688,       147.460,            0.,NA,NA,"",   1.69649E+06,  -1.72860E+06,  -1.72860E+06
C:/temp/Job-3.odb,Step-1,Increment      1: Step Time =    1.000,"P-3-1",           224,       20.2957,       148.334,            0.,NA,NA,"",   904.485E+03,  -830.790E+03,  -830.790E+03
C:/temp/Job-3.odb,Step-1,Increment      1: Step Time =    1.000,"P-3-1",           225,       10.1014,       149.146,            0.,NA,NA,"",   536.261E+03,  -416.465E+03,  -416.465E+03
C:/temp/Job-3.odb,Step-1,Increment      1: Step Time =    1.000,"P-3-1",           226,       9.54846,       134.098,            0.,NA,NA,"",   898.176E+03,  -896.859E+03,  -896.859E+03
C:/temp/Job-3.odb,Step-1,Increment      1: Step Time =    1.000,"P-3-1",           227,       21.5849,       135.920,            0.,NA,NA,"",   1.31629E+06,  -1.31697E+06,  -1.31697E+06
C:/temp/Job-3.odb,Step-1,Increment      1: Step Time =    1.000,"P-3-1",           228,       31.1594,       136.698,            0.,NA,NA,"",   2.05279E+06,  -2.07893E+06,  -2.07893E+06
C:/temp/Job-3.odb,Step-1,Increment      1: Step Time =    1.000,"P-3-1",           229,       40.3415,       159.962,            0.,NA,NA,"",   1.42475E+06,  -1.38169E+06,  -1.38169E+06
C:/temp/Job-3.odb,Step-1,Increment      1: Step Time =    1.000,"P-3-1",           230,       31.8875,       156.584,            0.,NA,NA,"",   988.652E+03,  -966.993E+03,  -966.993E+03
C:/temp/Job-3.odb,Step-1,Increment      1: Step Time =    1.000,"P-3-1",           231,       22.5409,       158.696,            0.,NA,NA,"",   465.421E+03,   25.7755E+03,   25.7755E+03
C:/temp/Job-3.odb,Step-1,Increment      1: Step Time =    1.000,"P-3-1",           232,       10.0603,       160.067,            0.,NA,NA,"",   448.400E+03,   508.360E+03,   508.360E+03
C:/temp/Job-3.odb,Step-1,Increment      1: Step Time =    1.000,"P-3-1",           233,       190.268,       10.1589,            0.,NA,NA,"",   1.02416E+06,   971.587E+03,   971.587E+03
C:/temp/Job-3.odb,Step-1,Increment      1: Step Time =    1.000,"P-3-1",           234,       180.422,       11.1053,            0.,NA,NA,"",   1.04032E+06,   978.168E+03,   978.168E+03
C:/temp/Job-3.odb,Step-1,Increment      1: Step Time =    1.000,"P-3-1",           235,       169.823,       12.0560,            0.,NA,NA,"",   1.17266E+06,   1.06926E+06,   1.06926E+06
C:/temp/Job-3.odb,Step-1,Increment      1: Step Time =    1.000,"P-3-1",           236,       158.441,       11.9314,            0.,NA,NA,"",   1.26918E+06,   1.13957E+06,   1.13957E+06
C:/temp/Job-3.odb,Step-1,Increment      1: Step Time =    1.000,"P-3-1",           237,       148.558,       9.04119,            0.,NA,NA,"",   960.578E+03,   506.826E+03,   506.826E+03
C:/temp/Job-3.odb,Step-1,Increment      1: Step Time =    1.000,"P-3-1",           238,       134.877,       8.55064,            0.,NA,NA,"",   933.788E+03,   177.619E+03,   177.619E+03
C:/temp/Job-3.odb,Step-1,Increment      1: Step Time =    1.000,"P-3-1",           239,       125.462,       9.47630,            0.,NA,NA,"",   1.03745E+06,   818.113E+03,   818.113E+03
C:/temp/Job-3.odb,Step-1,Increment      1: Step Time =    1.000,"P-3-1",           240,       115.076,       10.9891,            0.,NA,NA,"",   2.17964E+06,   2.24746E+06,   2.24746E+06
C:/temp/Job-3.odb,Step-1,Increment      1: Step Time =    1.000,"P-3-1",           241,       105.004,       8.91990,            0.,NA,NA,"",   2.19398E+06,   2.00946E+06,   2.00946E+06
C:/temp/Job-3.odb,Step-1,Increment      1: Step Time =    1.000,"P-3-1",           242,       95.4834,       10.7083,            0.,NA,NA,"",   3.62894E+06,   3.43165E+06,   3.43165E+06
C:/temp/Job-3.odb,Step-1,Increment      1: Step Time =    1.000,"P-3-1",           243,       85.7213,       9.06945,            0.,NA,NA,"",   3.73725E+06,   3.41770E+06,   3.41770E+06
C:/temp/Job-3.odb,Step-1,Increment      1: Step Time =    1.000,"P-3-1",           244,       75.5403,       10.6466,            0.,NA,NA,"",   4.34189E+06,   4.02094E+06,   4.02094E+06
C:/temp/Job-3.odb,Step-1,Increment      1: Step Time =    1.000,"P-3-1",           245,       66.9129,       10.8543,            0.,NA,NA,"",   4.46129E+06,   4.20044E+06,   4.20044E+06
C:/temp/Job-3.odb,Step-1,Increment      1: Step Time =    1.000,"P-3-1",           246,       55.9767,       9.61343,            0.,NA,NA,"",   4.72728E+06,   4.59281E+06,   4.59281E+06
C:/temp/Job-3.odb,Step-1,Increment      1: Step Time =    1.000,"P-3-1",           247,       40.5335,       12.6008,            0.,NA,NA,"",   4.29607E+06,   4.21328E+06,   4.21328E+06
C:/temp/Job-3.odb,Step-1,Increment      1: Step Time =    1.000,"P-3-1",           248,       29.6238,       10.4118,            0.,NA,NA,"",   4.63921E+06,   4.62732E+06,   4.62732E+06
C:/temp/Job-3.odb,Step-1,Increment      1: Step Time =    1.000,"P-3-1",           249,       19.8369,       10.0257,            0.,NA,NA,"",   4.65528E+06,   4.67566E+06,   4.67566E+06
C:/temp/Job-3.odb,Step-1,Increment      1: Step Time =    1.000,"P-3-1",           250,       10.0342,       10.0620,            0.,NA,NA,"",   4.57367E+06,   4.70519E+06,   4.70519E+06
C:/temp/Job-3.odb,Step-1,Increment      1: Step Time =    1.000,"P-3-1",           251,       189.672,       189.824,            0.,NA,NA,"",   1.02787E+06,   974.734E+03,   974.734E+03
C:/temp/Job-3.odb,Step-1,Increment      1: Step Time =    1.000,"P-3-1",           252,       179.631,       190.198,            0.,NA,NA,"",   980.279E+03,   923.784E+03,   923.784E+03
C:/temp/Job-3.odb,Step-1,Increment      1: Step Time =    1.000,"P-3-1",           253,       170.250,       191.114,            0.,NA,NA,"",   891.005E+03,   805.652E+03,   805.652E+03
C:/temp/Job-3.odb,Step-1,Increment      1: Step Time =    1.000,"P-3-1",           254,       157.016,       188.794,            0.,NA,NA,"",   1.18325E+06,   1.03651E+06,   1.03651E+06
C:/temp/Job-3.odb,Step-1,Increment      1: Step Time =    1.000,"P-3-1",           255,       147.665,       189.471,            0.,NA,NA,"",   1.13030E+06,   960.195E+03,   960.195E+03
C:/temp/Job-3.odb,Step-1,Increment      1: Step Time =    1.000,"P-3-1",           256,       135.303,       189.850,            0.,NA,NA,"",   1.07070E+06,   789.092E+03,   789.092E+03
C:/temp/Job-3.odb,Step-1,Increment      1: Step Time =    1.000,"P-3-1",           257,       125.032,       189.596,            0.,NA,NA,"",   1.24776E+06,   1.28220E+06,   1.28220E+06
C:/temp/Job-3.odb,Step-1,Increment      1: Step Time =    1.000,"P-3-1",           258,       114.811,       190.424,            0.,NA,NA,"",   1.54737E+06,   1.54255E+06,   1.54255E+06
C:/temp/Job-3.odb,Step-1,Increment      1: Step Time =    1.000,"P-3-1",           259,       105.429,       189.727,            0.,NA,NA,"",   2.68033E+06,   2.60536E+06,   2.60536E+06
C:/temp/Job-3.odb,Step-1,Increment      1: Step Time =    1.000,"P-3-1",           260,       94.9058,       189.083,            0.,NA,NA,"",   3.70152E+06,   3.49084E+06,   3.49084E+06
C:/temp/Job-3.odb,Step-1,Increment      1: Step Time =    1.000,"P-3-1",           261,       84.2414,       189.367,            0.,NA,NA,"",   4.10230E+06,   3.78166E+06,   3.78166E+06
C:/temp/Job-3.odb,Step-1,Increment      1: Step Time =    1.000,"P-3-1",           262,       74.4354,       190.196,            0.,NA,NA,"",   4.27696E+06,   3.98262E+06,   3.98262E+06
C:/temp/Job-3.odb,Step-1,Increment      1: Step Time =    1.000,"P-3-1",           263,       64.4944,       190.464,            0.,NA,NA,"",   4.55353E+06,   4.34547E+06,   4.34547E+06
C:/temp/Job-3.odb,Step-1,Increment      1: Step Time =    1.000,"P-3-1",           264,       50.5148,       190.968,            0.,NA,NA,"",   4.86928E+06,   4.77208E+06,   4.77208E+06
C:/temp/Job-3.odb,Step-1,Increment      1: Step Time =    1.000,"P-3-1",           265,       40.9275,       189.030,            0.,NA,NA,"",   4.56634E+06,   4.49254E+06,   4.49254E+06
C:/temp/Job-3.odb,Step-1,Increment      1: Step Time =    1.000,"P-3-1",           266,       30.5343,       189.482,            0.,NA,NA,"",   4.61904E+06,   4.60112E+06,   4.60112E+06
C:/temp/Job-3.odb,Step-1,Increment      1: Step Time =    1.000,"P-3-1",           267,       20.1348,       187.639,            0.,NA,NA,"",   4.26030E+06,   4.29294E+06,   4.29294E+06
C:/temp/Job-3.odb,Step-1,Increment      1: Step Time =    1.000,"P-3-1",           268,       9.73583,       189.744,            0.,NA,NA,"",   4.54680E+06,   4.69249E+06,   4.69249E+06
C:/temp/Job-3.odb,Step-1,Increment      1: Step Time =    1.000,"P-3-1",           269,       95.0043,       173.831,            0.,NA,NA,"",   7.77676E+06,   7.84889E+06,   7.84889E+06
C:/temp/Job-3.odb,Step-1,Increment      1: Step Time =    1.000,"P-3-1",           270,       90.0313,       173.325,            0.,NA,NA,"",   6.34476E+06,   6.39264E+06,   6.39264E+06
C:/temp/Job-3.odb,Step-1,Increment      1: Step Time =    1.000,"P-3-1",           271,       80.2444,       171.314,            0.,NA,NA,"",   3.33694E+06,   3.32393E+06,   3.32393E+06
C:/temp/Job-3.odb,Step-1,Increment      1: Step Time =    1.000,"P-3-1",           272,       75.4751,       169.818,            0.,NA,NA,"",   1.94507E+06,   1.86818E+06,   1.86818E+06
C:/temp/Job-3.odb,Step-1,Increment      1: Step Time =    1.000,"P-3-1",           273,       66.2934,       165.878,            0.,NA,NA,"",   1.19263E+06,  -1.05170E+06,  -1.05170E+06
C:/temp/Job-3.odb,Step-1,Increment      1: Step Time =    1.000,"P-3-1",           274,       61.9229,       163.452,            0.,NA,NA,"",   1.82610E+06,  -1.79735E+06,  -1.79735E+06
C:/temp/Job-3.odb,Step-1,Increment      1: Step Time =    1.000,"P-3-1",           275,       53.7223,       157.744,            0.,NA,NA,"",   2.83449E+06,  -2.85325E+06,  -2.85325E+06
C:/temp/Job-3.odb,Step-1,Increment      1: Step Time =    1.000,"P-3-1",           276,       49.9296,       154.488,            0.,NA,NA,"",   3.06995E+06,  -3.09406E+06,  -3.09406E+06
C:/temp/Job-3.odb,Step-1,Increment      1: Step Time =    1.000,"P-3-1",           277,       43.0458,       147.246,            0.,NA,NA,"",   3.01095E+06,  -3.06257E+06,  -3.06257E+06
C:/temp/Job-3.odb,Step-1,Increment      1: Step Time =    1.000,"P-3-1",           278,       39.9862,       143.294,            0.,NA,NA,"",   2.84643E+06,  -2.88708E+06,  -2.88708E+06
C:/temp/Job-3.odb,Step-1,Increment      1: Step Time =    1.000,"P-3-1",           279,       34.7010,       134.814,            0.,NA,NA,"",   2.26990E+06,  -2.29300E+06,  -2.29300E+06
C:/temp/Job-3.odb,Step-1,Increment      1: Step Time =    1.000,"P-3-1",           280,       32.4997,       130.327,            0.,NA,NA,"",   1.89930E+06,  -1.91867E+06,  -1.91867E+06
C:/temp/Job-3.odb,Step-1,Increment      1: Step Time =    1.000,"P-3-1",           281,       29.0296,       120.957,            0.,NA,NA,"",   1.23427E+06,  -1.24887E+06,  -1.24887E+06
C:/temp/Job-3.odb,Step-1,Increment      1: Step Time =    1.000,"P-3-1",           282,       27.7767,       116.118,            0.,NA,NA,"",   992.869E+03,  -1.01119E+06,  -1.01119E+06
C:/temp/Job-3.odb,Step-1,Increment      1: Step Time =    1.000,"P-3-1",           283,       26.2637,       106.242,            0.,NA,NA,"",   733.971E+03,  -748.287E+03,  -748.287E+03
C:/temp/Job-3.odb,Step-1,Increment      1: Step Time =    1.000,"P-3-1",           284,       26.0106,       101.250,            0.,NA,NA,"",   688.947E+03,  -698.435E+03,  -698.435E+03
C:/temp/Job-3.odb,Step-1,Increment      1: Step Time =    1.000,"P-3-1",           285,       26.5166,       91.2712,            0.,NA,NA,"",   765.175E+03,  -779.446E+03,  -779.446E+03
C:/temp/Job-3.odb,Step-1,Increment      1: Step Time =    1.000,"P-3-1",           286,       27.2735,       86.3303,            0.,NA,NA,"",   890.353E+03,  -908.385E+03,  -908.385E+03
C:/temp/Job-3.odb,Step-1,Increment      1: Step Time =    1.000,"P-3-1",           287,       29.7779,       76.6578,            0.,NA,NA,"",   1.34099E+06,  -1.36010E+06,  -1.36010E+06
C:/temp/Job-3.odb,Step-1,Increment      1: Step Time =    1.000,"P-3-1",           288,       31.5139,       71.9704,            0.,NA,NA,"",   1.66860E+06,  -1.68807E+06,  -1.68807E+06
C:/temp/Job-3.odb,Step-1,Increment      1: Step Time =    1.000,"P-3-1",           289,       35.9141,           63.,            0.,NA,NA,"",   2.45257E+06,  -2.48022E+06,  -2.48022E+06
C:/temp/Job-3.odb,Step-1,Increment      1: Step Time =    1.000,"P-3-1",           290,       38.5582,       58.7580,            0.,NA,NA,"",   2.79525E+06,  -2.82947E+06,  -2.82947E+06
C:/temp/Job-3.odb,Step-1,Increment      1: Step Time =    1.000,"P-3-1",           291,       44.6740,       50.8570,            0.,NA,NA,"",   3.23431E+06,  -3.26647E+06,  -3.26647E+06
C:/temp/Job-3.odb,Step-1,Increment      1: Step Time =    1.000,"P-3-1",           292,       48.1179,       47.2341,            0.,NA,NA,"",   3.24832E+06,  -3.28073E+06,  -3.28073E+06
C:/temp/Job-3.odb,Step-1,Increment      1: Step Time =    1.000,"P-3-1",           293,       55.6989,       40.7259,            0.,NA,NA,"",   2.75688E+06,  -2.76953E+06,  -2.76953E+06
C:/temp/Job-3.odb,Step-1,Increment      1: Step Time =    1.000,"P-3-1",           294,       59.8016,       37.8704,            0.,NA,NA,"",   2.21144E+06,  -2.19709E+06,  -2.19709E+06
C:/temp/Job-3.odb,Step-1,Increment      1: Step Time =    1.000,"P-3-1",           295,       68.5376,       33.0215,            0.,NA,NA,"",   1.11481E+06,  -149.268E+03,  -149.268E+03
C:/temp/Job-3.odb,Step-1,Increment      1: Step Time =    1.000,"P-3-1",           296,       73.1311,       31.0503,            0.,NA,NA,"",   1.46258E+06,   1.27796E+06,   1.27796E+06
C:/temp/Job-3.odb,Step-1,Increment      1: Step Time =    1.000,"P-3-1",           297,       82.6643,       28.0592,            0.,NA,NA,"",   3.96060E+06,   3.96374E+06,   3.96374E+06
C:/temp/Job-3.odb,Step-1,Increment      1: Step Time =    1.000,"P-3-1",           298,       87.5605,       27.0530,            0.,NA,NA,"",   5.42506E+06,   5.45647E+06,   5.45647E+06
C:/temp/Job-3.odb,Step-1,Increment      1: Step Time =    1.000,"P-3-1",           299,       97.5007,       26.0422,            0.,NA,NA,"",   8.12943E+06,   8.24271E+06,   8.24271E+06
C:/temp/Job-3.odb,Step-1,Increment      1: Step Time =    1.000,"P-3-1",           300,       102.499,       26.0422,            0.,NA,NA,"",   9.24365E+06,   9.33132E+06,   9.33132E+06
C:/temp/Job-3.odb,Step-1,Increment      1: Step Time =    1.000,"P-3-1",           301,       112.439,       27.0530,            0.,NA,NA,"",   10.2784E+06,   10.4026E+06,   10.4026E+06
C:/temp/Job-3.odb,Step-1,Increment      1: Step Time =    1.000,"P-3-1",           302,       117.336,       28.0592,            0.,NA,NA,"",   10.1102E+06,   10.2874E+06,   10.2874E+06
C:/temp/Job-3.odb,Step-1,Increment      1: Step Time =    1.000,"P-3-1",           303,       126.869,       31.0503,            0.,NA,NA,"",   9.29634E+06,   9.40634E+06,   9.40634E+06
C:/temp/Job-3.odb,Step-1,Increment      1: Step Time =    1.000,"P-3-1",           304,       131.462,       33.0215,            0.,NA,NA,"",   8.53572E+06,   8.63949E+06,   8.63949E+06
C:/temp/Job-3.odb,Step-1,Increment      1: Step Time =    1.000,"P-3-1",           305,       140.198,       37.8704,            0.,NA,NA,"",   6.65768E+06,   6.74296E+06,   6.74296E+06
C:/temp/Job-3.odb,Step-1,Increment      1: Step Time =    1.000,"P-3-1",           306,       144.301,       40.7259,            0.,NA,NA,"",   5.72138E+06,   5.82345E+06,   5.82345E+06
C:/temp/Job-3.odb,Step-1,Increment      1: Step Time =    1.000,"P-3-1",           307,       151.882,       47.2341,            0.,NA,NA,"",   4.09204E+06,   4.13349E+06,   4.13349E+06
C:/temp/Job-3.odb,Step-1,Increment      1: Step Time =    1.000,"P-3-1",           308,       155.326,       50.8570,            0.,NA,NA,"",   3.31362E+06,   3.33674E+06,   3.33674E+06
C:/temp/Job-3.odb,Step-1,Increment      1: Step Time =    1.000,"P-3-1",           309,       161.442,       58.7580,            0.,NA,NA,"",   1.73861E+06,   1.68462E+06,   1.68462E+06
C:/temp/Job-3.odb,Step-1,Increment      1: Step Time =    1.000,"P-3-1",           310,       164.086,           63.,            0.,NA,NA,"",   1.11332E+06,   903.146E+03,   903.146E+03
C:/temp/Job-3.odb,Step-1,Increment      1: Step Time =    1.000,"P-3-1",           311,       168.486,       71.9704,            0.,NA,NA,"",   1.94241E+06,  -1.87803E+06,  -1.87803E+06
C:/temp/Job-3.odb,Step-1,Increment      1: Step Time =    1.000,"P-3-1",           312,       170.222,       76.6578,            0.,NA,NA,"",     3.064E+06,  -3.04439E+06,  -3.04439E+06
C:/temp/Job-3.odb,Step-1,Increment      1: Step Time =    1.000,"P-3-1",           313,       172.726,       86.3303,            0.,NA,NA,"",   5.08903E+06,  -5.12182E+06,  -5.12182E+06
C:/temp/Job-3.odb,Step-1,Increment      1: Step Time =    1.000,"P-3-1",           314,       173.483,       91.2712,            0.,NA,NA,"",   5.72655E+06,  -5.78865E+06,  -5.78865E+06
C:/temp/Job-3.odb,Step-1,Increment      1: Step Time =    1.000,"P-3-1",           315,       173.989,       101.250,            0.,NA,NA,"",   6.31279E+06,  -6.38569E+06,  -6.38569E+06
C:/temp/Job-3.odb,Step-1,Increment      1: Step Time =    1.000,"P-3-1",           316,       173.736,       106.242,            0.,NA,NA,"",   6.21356E+06,  -6.24670E+06,  -6.24670E+06
C:/temp/Job-3.odb,Step-1,Increment      1: Step Time =    1.000,"P-3-1",           317,       172.223,       116.118,            0.,NA,NA,"",   4.38366E+06,  -4.41458E+06,  -4.41458E+06
C:/temp/Job-3.odb,Step-1,Increment      1: Step Time =    1.000,"P-3-1",           318,       170.970,       120.957,            0.,NA,NA,"",   3.70397E+06,  -3.70569E+06,  -3.70569E+06
C:/temp/Job-3.odb,Step-1,Increment      1: Step Time =    1.000,"P-3-1",           319,       167.500,       130.327,            0.,NA,NA,"",   1.50417E+06,  -1.38036E+06,  -1.38036E+06
C:/temp/Job-3.odb,Step-1,Increment      1: Step Time =    1.000,"P-3-1",           320,       165.299,       134.814,            0.,NA,NA,"",   1.05546E+06,   8.51003E+03,   8.51003E+03
C:/temp/Job-3.odb,Step-1,Increment      1: Step Time =    1.000,"P-3-1",           321,       160.014,       143.294,            0.,NA,NA,"",   2.10883E+06,   2.07475E+06,   2.07475E+06
C:/temp/Job-3.odb,Step-1,Increment      1: Step Time =    1.000,"P-3-1",           322,       156.954,       147.246,            0.,NA,NA,"",   2.89658E+06,   2.90480E+06,   2.90480E+06
C:/temp/Job-3.odb,Step-1,Increment      1: Step Time =    1.000,"P-3-1",           323,       150.070,       154.488,            0.,NA,NA,"",   4.55554E+06,   4.61598E+06,   4.61598E+06
C:/temp/Job-3.odb,Step-1,Increment      1: Step Time =    1.000,"P-3-1",           324,       146.278,       157.744,            0.,NA,NA,"",   5.42727E+06,   5.49338E+06,   5.49338E+06
C:/temp/Job-3.odb,Step-1,Increment      1: Step Time =    1.000,"P-3-1",           325,       138.077,       163.452,            0.,NA,NA,"",   7.29382E+06,   7.37568E+06,   7.37568E+06
C:/temp/Job-3.odb,Step-1,Increment      1: Step Time =    1.000,"P-3-1",           326,       133.707,       165.878,            0.,NA,NA,"",   8.27891E+06,   8.37176E+06,   8.37176E+06
C:/temp/Job-3.odb,Step-1,Increment      1: Step Time =    1.000,"P-3-1",           327,       124.525,       169.818,            0.,NA,NA,"",   9.95913E+06,   10.0582E+06,   10.0582E+06
C:/temp/Job-3.odb,Step-1,Increment      1: Step Time =    1.000,"P-3-1",           328,       119.756,       171.314,            0.,NA,NA,"",   10.4638E+06,   10.5762E+06,   10.5762E+06
C:/temp/Job-3.odb,Step-1,Increment      1: Step Time =    1.000,"P-3-1",           329,       109.969,       173.325,            0.,NA,NA,"",   10.4871E+06,   10.5978E+06,   10.5978E+06
C:/temp/Job-3.odb,Step-1,Increment      1: Step Time =    1.000,"P-3-1",           330,       104.996,       173.831,            0.,NA,NA,"",   9.92740E+06,   10.0366E+06,   10.0366E+06
C:/temp/Job-3.odb,Step-1,Increment      1: Step Time =    1.000,"P-3-1",           331,          195.,            0.,            0.,NA,NA,"",   972.985E+03,   965.694E+03,   965.694E+03
C:/temp/Job-3.odb,Step-1,Increment      1: Step Time =    1.000,"P-3-1",           332,          185.,            0.,            0.,NA,NA,"",   788.573E+03,   780.166E+03,   780.166E+03
C:/temp/Job-3.odb,Step-1,Increment      1: Step Time =    1.000,"P-3-1",           333,          175.,            0.,            0.,NA,NA,"",   490.530E+03,   467.358E+03,   467.358E+03
C:/temp/Job-3.odb,Step-1,Increment      1: Step Time =    1.000,"P-3-1",           334,          165.,            0.,            0.,NA,NA,"",   318.432E+03,  -38.7179E+03,  -38.7179E+03
C:/temp/Job-3.odb,Step-1,Increment      1: Step Time =    1.000,"P-3-1",           335,          155.,            0.,            0.,NA,NA,"",   739.351E+03,  -713.168E+03,  -713.168E+03
C:/temp/Job-3.odb,Step-1,Increment      1: Step Time =    1.000,"P-3-1",           336,          145.,            0.,            0.,NA,NA,"",   1.47094E+06,  -1.45823E+06,  -1.45823E+06
C:/temp/Job-3.odb,Step-1,Increment      1: Step Time =    1.000,"P-3-1",           337,          135.,            0.,            0.,NA,NA,"",   2.19705E+06,  -2.18513E+06,  -2.18513E+06
C:/temp/Job-3.odb,Step-1,Increment      1: Step Time =    1.000,"P-3-1",           338,          125.,            0.,            0.,NA,NA,"",   2.61834E+06,  -2.60098E+06,  -2.60098E+06
C:/temp/Job-3.odb,Step-1,Increment      1: Step Time =    1.000,"P-3-1",           339,          115.,            0.,            0.,NA,NA,"",   2.48610E+06,  -2.45559E+06,  -2.45559E+06
C:/temp/Job-3.odb,Step-1,Increment      1: Step Time =    1.000,"P-3-1",           340,          105.,            0.,            0.,NA,NA,"",   1.64629E+06,  -1.60594E+06,  -1.60594E+06
C:/temp/Job-3.odb,Step-1,Increment      1: Step Time =    1.000,"P-3-1",           341,           95.,            0.,            0.,NA,NA,"",   900.298E+03,   29.3691E+03,   29.3691E+03
C:/temp/Job-3.odb,Step-1,Increment      1: Step Time =    1.000,"P-3-1",           342,           85.,            0.,            0.,NA,NA,"",   2.17701E+06,   2.10421E+06,   2.10421E+06
C:/temp/Job-3.odb,Step-1,Increment      1: Step Time =    1.000,"P-3-1",           343,           75.,            0.,            0.,NA,NA,"",   3.84801E+06,   3.82151E+06,   3.82151E+06
C:/temp/Job-3.odb,Step-1,Increment      1: Step Time =    1.000,"P-3-1",           344,           65.,            0.,            0.,NA,NA,"",   5.19042E+06,   5.16116E+06,   5.16116E+06
C:/temp/Job-3.odb,Step-1,Increment      1: Step Time =    1.000,"P-3-1",           345,           55.,            0.,            0.,NA,NA,"",   5.89005E+06,   5.87358E+06,   5.87358E+06
C:/temp/Job-3.odb,Step-1,Increment      1: Step Time =    1.000,"P-3-1",           346,           45.,            0.,            0.,NA,NA,"",   6.11923E+06,   6.10741E+06,   6.10741E+06
C:/temp/Job-3.odb,Step-1,Increment      1: Step Time =    1.000,"P-3-1",           347,           35.,            0.,            0.,NA,NA,"",   6.02168E+06,   6.01904E+06,   6.01904E+06
C:/temp/Job-3.odb,Step-1,Increment      1: Step Time =    1.000,"P-3-1",           348,           25.,            0.,            0.,NA,NA,"",   5.80478E+06,   5.80716E+06,   5.80716E+06
C:/temp/Job-3.odb,Step-1,Increment      1: Step Time =    1.000,"P-3-1",           349,           15.,            0.,            0.,NA,NA,"",   5.59657E+06,    5.6091E+06,    5.6091E+06
C:/temp/Job-3.odb,Step-1,Increment      1: Step Time =    1.000,"P-3-1",           350,            5.,            0.,            0.,NA,NA,"",   5.77419E+06,   5.90108E+06,   5.90108E+06
C:/temp/Job-3.odb,Step-1,Increment      1: Step Time =    1.000,"P-3-1",           351,          200.,          195.,            0.,NA,NA,"",   1.00798E+06,   987.470E+03,   987.470E+03
C:/temp/Job-3.odb,Step-1,Increment      1: Step Time =    1.000,"P-3-1",           352,          200.,          185.,            0.,NA,NA,"",   1.12554E+06,   1.00455E+06,   1.00455E+06
C:/temp/Job-3.odb,Step-1,Increment      1: Step Time =    1.000,"P-3-1",           353,          200.,          175.,            0.,NA,NA,"",   1.23552E+06,   1.02161E+06,   1.02161E+06
C:/temp/Job-3.odb,Step-1,Increment      1: Step Time =    1.000,"P-3-1",           354,          200.,          165.,            0.,NA,NA,"",   1.16224E+06,   1.04558E+06,   1.04558E+06
C:/temp/Job-3.odb,Step-1,Increment      1: Step Time =    1.000,"P-3-1",           355,          200.,          155.,            0.,NA,NA,"",   1.01154E+06,   1.12248E+06,   1.12248E+06
C:/temp/Job-3.odb,Step-1,Increment      1: Step Time =    1.000,"P-3-1",           356,          200.,          145.,            0.,NA,NA,"",   1.51943E+06,   1.75110E+06,   1.75110E+06
C:/temp/Job-3.odb,Step-1,Increment      1: Step Time =    1.000,"P-3-1",           357,          200.,          135.,            0.,NA,NA,"",   2.90262E+06,   3.25348E+06,   3.25348E+06
C:/temp/Job-3.odb,Step-1,Increment      1: Step Time =    1.000,"P-3-1",           358,          200.,          125.,            0.,NA,NA,"",   4.67074E+06,   5.07207E+06,   5.07207E+06
C:/temp/Job-3.odb,Step-1,Increment      1: Step Time =    1.000,"P-3-1",           359,          200.,          115.,            0.,NA,NA,"",   6.30522E+06,   6.71483E+06,   6.71483E+06
C:/temp/Job-3.odb,Step-1,Increment      1: Step Time =    1.000,"P-3-1",           360,          200.,          105.,            0.,NA,NA,"",   7.23445E+06,   7.66422E+06,   7.66422E+06
C:/temp/Job-3.odb,Step-1,Increment      1: Step Time =    1.000,"P-3-1",           361,          200.,           95.,            0.,NA,NA,"",   7.36440E+06,   7.77468E+06,   7.77468E+06
C:/temp/Job-3.odb,Step-1,Increment      1: Step Time =    1.000,"P-3-1",           362,          200.,           85.,            0.,NA,NA,"",   6.34480E+06,   6.76767E+06,   6.76767E+06
C:/temp/Job-3.odb,Step-1,Increment      1: Step Time =    1.000,"P-3-1",           363,          200.,           75.,            0.,NA,NA,"",   4.71755E+06,   5.11533E+06,   5.11533E+06
C:/temp/Job-3.odb,Step-1,Increment      1: Step Time =    1.000,"P-3-1",           364,          200.,           65.,            0.,NA,NA,"",   2.96548E+06,   3.30749E+06,   3.30749E+06
C:/temp/Job-3.odb,Step-1,Increment      1: Step Time =    1.000,"P-3-1",           365,          200.,           55.,            0.,NA,NA,"",   1.56132E+06,   1.79558E+06,   1.79558E+06
C:/temp/Job-3.odb,Step-1,Increment      1: Step Time =    1.000,"P-3-1",           366,          200.,           45.,            0.,NA,NA,"",   1.01470E+06,   1.11938E+06,   1.11938E+06
C:/temp/Job-3.odb,Step-1,Increment      1: Step Time =    1.000,"P-3-1",           367,          200.,           35.,            0.,NA,NA,"",   1.16510E+06,   1.04261E+06,   1.04261E+06
C:/temp/Job-3.odb,Step-1,Increment      1: Step Time =    1.000,"P-3-1",           368,          200.,           25.,            0.,NA,NA,"",   1.23480E+06,   1.01899E+06,   1.01899E+06
C:/temp/Job-3.odb,Step-1,Increment      1: Step Time =    1.000,"P-3-1",           369,          200.,           15.,            0.,NA,NA,"",   1.12134E+06,   1.00378E+06,   1.00378E+06
C:/temp/Job-3.odb,Step-1,Increment      1: Step Time =    1.000,"P-3-1",           370,          200.,            5.,            0.,NA,NA,"",   1.00661E+06,    988.91E+03,    988.91E+03
C:/temp/Job-3.odb,Step-1,Increment      1: Step Time =    1.000,"P-3-1",           371,            5.,          200.,            0.,NA,NA,"",   5.76586E+06,   5.89688E+06,   5.89688E+06
C:/temp/Job-3.odb,Step-1,Increment      1: Step Time =    1.000,"P-3-1",           372,           15.,          200.,            0.,NA,NA,"",   5.58745E+06,   5.60413E+06,   5.60413E+06
C:/temp/Job-3.odb,Step-1,Increment      1: Step Time =    1.000,"P-3-1",           373,           25.,          200.,            0.,NA,NA,"",   5.81602E+06,   5.81726E+06,   5.81726E+06
C:/temp/Job-3.odb,Step-1,Increment      1: Step Time =    1.000,"P-3-1",           374,           35.,          200.,            0.,NA,NA,"",   6.05928E+06,   6.05557E+06,   6.05557E+06
C:/temp/Job-3.odb,Step-1,Increment      1: Step Time =    1.000,"P-3-1",           375,           45.,          200.,            0.,NA,NA,"",   6.18078E+06,   6.17125E+06,   6.17125E+06
C:/temp/Job-3.odb,Step-1,Increment      1: Step Time =    1.000,"P-3-1",           376,           55.,          200.,            0.,NA,NA,"",   5.96900E+06,     5.953E+06,     5.953E+06
C:/temp/Job-3.odb,Step-1,Increment      1: Step Time =    1.000,"P-3-1",           377,           65.,          200.,            0.,NA,NA,"",   5.23818E+06,   5.21631E+06,   5.21631E+06
C:/temp/Job-3.odb,Step-1,Increment      1: Step Time =    1.000,"P-3-1",           378,           75.,          200.,            0.,NA,NA,"",   3.95120E+06,   3.90934E+06,   3.90934E+06
C:/temp/Job-3.odb,Step-1,Increment      1: Step Time =    1.000,"P-3-1",           379,           85.,          200.,            0.,NA,NA,"",   2.23740E+06,   2.15607E+06,   2.15607E+06
C:/temp/Job-3.odb,Step-1,Increment      1: Step Time =    1.000,"P-3-1",           380,           95.,          200.,            0.,NA,NA,"",   983.016E+03,   108.461E+03,   108.461E+03
C:/temp/Job-3.odb,Step-1,Increment      1: Step Time =    1.000,"P-3-1",           381,          105.,          200.,            0.,NA,NA,"",   1.65645E+06,  -1.58623E+06,  -1.58623E+06
C:/temp/Job-3.odb,Step-1,Increment      1: Step Time =    1.000,"P-3-1",           382,          115.,          200.,            0.,NA,NA,"",   2.45738E+06,  -2.42446E+06,  -2.42446E+06
C:/temp/Job-3.odb,Step-1,Increment      1: Step Time =    1.000,"P-3-1",           383,          125.,          200.,            0.,NA,NA,"",   2.49969E+06,  -2.48356E+06,  -2.48356E+06
C:/temp/Job-3.odb,Step-1,Increment      1: Step Time =    1.000,"P-3-1",           384,          135.,          200.,            0.,NA,NA,"",   2.05909E+06,  -2.03470E+06,  -2.03470E+06
C:/temp/Job-3.odb,Step-1,Increment      1: Step Time =    1.000,"P-3-1",           385,          145.,          200.,            0.,NA,NA,"",   1.29903E+06,  -1.29106E+06,  -1.29106E+06
C:/temp/Job-3.odb,Step-1,Increment      1: Step Time =    1.000,"P-3-1",           386,          155.,          200.,            0.,NA,NA,"",   664.794E+03,  -647.085E+03,  -647.085E+03
C:/temp/Job-3.odb,Step-1,Increment      1: Step Time =    1.000,"P-3-1",           387,          165.,          200.,            0.,NA,NA,"",   239.921E+03,  -39.1205E+03,  -39.1205E+03
C:/temp/Job-3.odb,Step-1,Increment      1: Step Time =    1.000,"P-3-1",           388,          175.,          200.,            0.,NA,NA,"",   449.947E+03,   438.431E+03,   438.431E+03
C:/temp/Job-3.odb,Step-1,Increment      1: Step Time =    1.000,"P-3-1",           389,          185.,          200.,            0.,NA,NA,"",   774.465E+03,   767.519E+03,   767.519E+03
C:/temp/Job-3.odb,Step-1,Increment      1: Step Time =    1.000,"P-3-1",           390,          195.,          200.,            0.,NA,NA,"",   969.232E+03,   961.777E+03,   961.777E+03
C:/temp/Job-3.odb,Step-1,Increment      1: Step Time =    1.000,"P-3-1",           391,            0.,            5.,            0.,NA,NA,"",   5.17022E+06,   5.53990E+06,   5.53990E+06
C:/temp/Job-3.odb,Step-1,Increment      1: Step Time =    1.000,"P-3-1",           392,            0.,           15.,            0.,NA,NA,"",   3.33237E+06,   3.70086E+06,   3.70086E+06
C:/temp/Job-3.odb,Step-1,Increment      1: Step Time =    1.000,"P-3-1",           393,            0.,           25.,            0.,NA,NA,"",   2.06844E+06,   2.31331E+06,   2.31331E+06
C:/temp/Job-3.odb,Step-1,Increment      1: Step Time =    1.000,"P-3-1",           394,            0.,           35.,            0.,NA,NA,"",   989.446E+03,   1.11333E+06,   1.11333E+06
C:/temp/Job-3.odb,Step-1,Increment      1: Step Time =    1.000,"P-3-1",           395,            0.,           45.,            0.,NA,NA,"",   223.333E+03,   228.579E+03,   228.579E+03
C:/temp/Job-3.odb,Step-1,Increment      1: Step Time =    1.000,"P-3-1",           396,            0.,           55.,            0.,NA,NA,"",   467.399E+03,  -478.500E+03,  -478.500E+03
C:/temp/Job-3.odb,Step-1,Increment      1: Step Time =    1.000,"P-3-1",           397,            0.,           65.,            0.,NA,NA,"",   742.357E+03,  -773.251E+03,  -773.251E+03
C:/temp/Job-3.odb,Step-1,Increment      1: Step Time =    1.000,"P-3-1",           398,            0.,           75.,            0.,NA,NA,"",   758.010E+03,  -792.110E+03,  -792.110E+03
C:/temp/Job-3.odb,Step-1,Increment      1: Step Time =    1.000,"P-3-1",           399,            0.,           85.,            0.,NA,NA,"",   593.223E+03,  -638.839E+03,  -638.839E+03
C:/temp/Job-3.odb,Step-1,Increment      1: Step Time =    1.000,"P-3-1",           400,            0.,           95.,            0.,NA,NA,"",   385.866E+03,  -441.543E+03,  -441.543E+03
C:/temp/Job-3.odb,Step-1,Increment      1: Step Time =    1.000,"P-3-1",           401,            0.,          105.,            0.,NA,NA,"",   382.470E+03,  -438.372E+03,  -438.372E+03
C:/temp/Job-3.odb,Step-1,Increment      1: Step Time =    1.000,"P-3-1",           402,            0.,          115.,            0.,NA,NA,"",   582.416E+03,  -628.985E+03,  -628.985E+03
C:/temp/Job-3.odb,Step-1,Increment      1: Step Time =    1.000,"P-3-1",           403,            0.,          125.,            0.,NA,NA,"",   753.476E+03,  -788.109E+03,  -788.109E+03
C:/temp/Job-3.odb,Step-1,Increment      1: Step Time =    1.000,"P-3-1",           404,            0.,          135.,            0.,NA,NA,"",   752.089E+03,  -784.610E+03,  -784.610E+03
C:/temp/Job-3.odb,Step-1,Increment      1: Step Time =    1.000,"P-3-1",           405,            0.,          145.,            0.,NA,NA,"",   480.373E+03,  -484.301E+03,  -484.301E+03
C:/temp/Job-3.odb,Step-1,Increment      1: Step Time =    1.000,"P-3-1",           406,            0.,          155.,            0.,NA,NA,"",   229.026E+03,   243.890E+03,   243.890E+03
C:/temp/Job-3.odb,Step-1,Increment      1: Step Time =    1.000,"P-3-1",           407,            0.,          165.,            0.,NA,NA,"",   979.193E+03,   1.09957E+06,   1.09957E+06
C:/temp/Job-3.odb,Step-1,Increment      1: Step Time =    1.000,"P-3-1",           408,            0.,          175.,            0.,NA,NA,"",   2.05079E+06,   2.29697E+06,   2.29697E+06
C:/temp/Job-3.odb,Step-1,Increment      1: Step Time =    1.000,"P-3-1",           409,            0.,          185.,            0.,NA,NA,"",   3.32166E+06,   3.68955E+06,   3.68955E+06
C:/temp/Job-3.odb,Step-1,Increment      1: Step Time =    1.000,"P-3-1",           410,            0.,          195.,            0.,NA,NA,"",   5.16697E+06,   5.53977E+06,   5.53977E+06
C:/temp/Job-3.odb,Step-1,Increment      1: Step Time =    1.000,"P-3-1",           411,       29.8632,       65.7469,            0.,NA,NA,"",   1.88508E+06,  -1.91083E+06,  -1.91083E+06
C:/temp/Job-3.odb,Step-1,Increment      1: Step Time =    1.000,"P-3-1",           412,       139.881,       167.124,            0.,NA,NA,"",   6.56295E+06,   6.68860E+06,   6.68860E+06
C:/temp/Job-3.odb,Step-1,Increment      1: Step Time =    1.000,"P-3-1",           413,       120.990,       175.113,            0.,NA,NA,"",   9.01174E+06,   9.18404E+06,   9.18404E+06
C:/temp/Job-3.odb,Step-1,Increment      1: Step Time =    1.000,"P-3-1",           414,       164.399,       146.512,            0.,NA,NA,"",   2.36603E+06,   2.23567E+06,   2.23567E+06
C:/temp/Job-3.odb,Step-1,Increment      1: Step Time =    1.000,"P-3-1",           415,       173.428,       127.417,            0.,NA,NA,"",   2.42550E+06,  -2.14679E+06,  -2.14679E+06
C:/temp/Job-3.odb,Step-1,Increment      1: Step Time =    1.000,"P-3-1",           416,       160.774,       150.595,            0.,NA,NA,"",   2.90784E+06,   2.87410E+06,   2.87410E+06
C:/temp/Job-3.odb,Step-1,Increment      1: Step Time =    1.000,"P-3-1",           417,       113.134,       22.2473,            0.,NA,NA,"",   8.59259E+06,   8.76423E+06,   8.76423E+06
C:/temp/Job-3.odb,Step-1,Increment      1: Step Time =    1.000,"P-3-1",           418,       81.0933,       23.9930,            0.,NA,NA,"",   4.10053E+06,   3.99148E+06,   3.99148E+06
C:/temp/Job-3.odb,Step-1,Increment      1: Step Time =    1.000,"P-3-1",           419,       175.577,       119.558,            0.,NA,NA,"",   3.49275E+06,  -3.41470E+06,  -3.41470E+06
C:/temp/Job-3.odb,Step-1,Increment      1: Step Time =    1.000,"P-3-1",           420,       158.590,       47.6119,            0.,NA,NA,"",   3.22728E+06,   3.22843E+06,   3.22843E+06
C:/temp/Job-3.odb,Step-1,Increment      1: Step Time =    1.000,"P-3-1",           421,       129.020,       26.9290,            0.,NA,NA,"",   7.94269E+06,   8.11002E+06,   8.11002E+06
C:/temp/Job-3.odb,Step-1,Increment      1: Step Time =    1.000,"P-3-1",           422,       133.658,       29.1410,            0.,NA,NA,"",   7.43163E+06,   7.58382E+06,   7.58382E+06
C:/temp/Job-3.odb,Step-1,Increment      1: Step Time =    1.000,"P-3-1",           423,       53.0455,       37.4750,            0.,NA,NA,"",   2.26766E+06,  -2.23763E+06,  -2.23763E+06
C:/temp/Job-3.odb,Step-1,Increment      1: Step Time =    1.000,"P-3-1",           424,       157.040,       154.509,            0.,NA,NA,"",   3.52037E+06,   3.54847E+06,   3.54847E+06
C:/temp/Job-3.odb,Step-1,Increment      1: Step Time =    1.000,"P-3-1",           425,       57.1570,       34.5204,            0.,NA,NA,"",   1.93832E+06,  -1.81003E+06,  -1.81003E+06
C:/temp/Job-3.odb,Step-1,Increment      1: Step Time =    1.000,"P-3-1",           426,       149.117,       161.897,            0.,NA,NA,"",   4.89256E+06,   4.98230E+06,   4.98230E+06
C:/temp/Job-3.odb,Step-1,Increment      1: Step Time =    1.000,"P-3-1",           427,       165.594,       55.5813,            0.,NA,NA,"",   2.09849E+06,   1.93011E+06,   1.93011E+06
C:/temp/Job-3.odb,Step-1,Increment      1: Step Time =    1.000,"P-3-1",           428,       90.9887,       21.5823,            0.,NA,NA,"",   6.20737E+06,   6.21478E+06,   6.21478E+06
C:/temp/Job-3.odb,Step-1,Increment      1: Step Time =    1.000,"P-3-1",           429,       76.2917,       25.3154,            0.,NA,NA,"",   3.02757E+06,   2.84475E+06,   2.84475E+06
C:/temp/Job-3.odb,Step-1,Increment      1: Step Time =    1.000,"P-3-1",           430,       162.163,       51.4796,            0.,NA,NA,"",   2.62703E+06,   2.56441E+06,   2.56441E+06
C:/temp/Job-3.odb,Step-1,Increment      1: Step Time =    1.000,"P-3-1",           431,       71.5240,       26.8568,            0.,NA,NA,"",   2.16249E+06,   1.84714E+06,   1.84714E+06
C:/temp/Job-3.odb,Step-1,Increment      1: Step Time =    1.000,"P-3-1",           432,       151.622,       40.3980,            0.,NA,NA,"",   4.47956E+06,   4.56101E+06,   4.56101E+06
C:/temp/Job-3.odb,Step-1,Increment      1: Step Time =    1.000,"P-3-1",           433,       148.012,       36.0736,            0.,NA,NA,"",   4.89750E+06,   5.01672E+06,   5.01672E+06
C:/temp/Job-3.odb,Step-1,Increment      1: Step Time =    1.000,"P-3-1",           434,       174.134,       75.1096,            0.,NA,NA,"",   2.75188E+06,  -2.53861E+06,  -2.53861E+06
C:/temp/Job-3.odb,Step-1,Increment      1: Step Time =    1.000,"P-3-1",           435,       175.546,       79.9758,            0.,NA,NA,"",   3.45236E+06,  -3.34737E+06,  -3.34737E+06
C:/temp/Job-3.odb,Step-1,Increment      1: Step Time =    1.000,"P-3-1",           436,       168.306,       60.3056,            0.,NA,NA,"",   1.67805E+06,   1.32464E+06,   1.32464E+06
C:/temp/Job-3.odb,Step-1,Increment      1: Step Time =    1.000,"P-3-1",           437,       179.173,       101.088,            0.,NA,NA,"",   4.37323E+06,  -4.43641E+06,  -4.43641E+06
C:/temp/Job-3.odb,Step-1,Increment      1: Step Time =    1.000,"P-3-1",           438,       178.132,       89.7304,            0.,NA,NA,"",   4.23326E+06,  -4.23648E+06,  -4.23648E+06
C:/temp/Job-3.odb,Step-1,Increment      1: Step Time =    1.000,"P-3-1",           439,       116.114,       176.476,            0.,NA,NA,"",   9.08409E+06,   9.26568E+06,   9.26568E+06
C:/temp/Job-3.odb,Step-1,Increment      1: Step Time =    1.000,"P-3-1",           440,       124.292,       24.6655,            0.,NA,NA,"",   8.16345E+06,   8.36330E+06,   8.36330E+06
C:/temp/Job-3.odb,Step-1,Increment      1: Step Time =    1.000,"P-3-1",           441,       155.110,       43.9560,            0.,NA,NA,"",   3.87251E+06,   3.91056E+06,   3.91056E+06
C:/temp/Job-3.odb,Step-1,Increment      1: Step Time =    1.000,"P-3-1",           442,       73.9099,       174.036,            0.,NA,NA,"",   2.56074E+06,   2.33871E+06,   2.33871E+06
C:/temp/Job-3.odb,Step-1,Increment      1: Step Time =    1.000,"P-3-1",           443,       102.664,       21.1561,            0.,NA,NA,"",   7.96039E+06,   8.07811E+06,   8.07811E+06
C:/temp/Job-3.odb,Step-1,Increment      1: Step Time =    1.000,"P-3-1",           444,       125.765,       173.541,            0.,NA,NA,"",   8.60987E+06,   8.76970E+06,   8.76970E+06
C:/temp/Job-3.odb,Step-1,Increment      1: Step Time =    1.000,"P-3-1",           445,       64.3727,       169.889,            0.,NA,NA,"",   1.59462E+06,  -399.739E+03,  -399.739E+03
C:/temp/Job-3.odb,Step-1,Increment      1: Step Time =    1.000,"P-3-1",           446,       172.688,       70.1005,            0.,NA,NA,"",   2.07416E+06,  -1.71217E+06,  -1.71217E+06
C:/temp/Job-3.odb,Step-1,Increment      1: Step Time =    1.000,"P-3-1",           447,       130.605,       171.843,            0.,NA,NA,"",   7.99990E+06,   8.17026E+06,   8.17026E+06
C:/temp/Job-3.odb,Step-1,Increment      1: Step Time =    1.000,"P-3-1",           448,       174.826,       122.921,            0.,NA,NA,"",   3.08278E+06,  -2.91019E+06,  -2.91019E+06
C:/temp/Job-3.odb,Step-1,Increment      1: Step Time =    1.000,"P-3-1",           449,       69.0915,       172.028,            0.,NA,NA,"",   1.78989E+06,   1.12065E+06,   1.12065E+06
C:/temp/Job-3.odb,Step-1,Increment      1: Step Time =    1.000,"P-3-1",           450,       41.4116,       47.7401,            0.,NA,NA,"",   2.66216E+06,  -2.70441E+06,  -2.70441E+06
C:/temp/Job-3.odb,Step-1,Increment      1: Step Time =    1.000,"P-3-1",           451,       42.9558,       155.259,            0.,NA,NA,"",   2.45401E+06,  -2.48914E+06,  -2.48914E+06
C:/temp/Job-3.odb,Step-1,Increment      1: Step Time =    1.000,"P-3-1",           452,       153.229,       158.332,            0.,NA,NA,"",   4.17668E+06,   4.24484E+06,   4.24484E+06
C:/temp/Job-3.odb,Step-1,Increment      1: Step Time =    1.000,"P-3-1",           453,       78.8526,       175.960,            0.,NA,NA,"",   3.66979E+06,   3.52230E+06,   3.52230E+06
C:/temp/Job-3.odb,Step-1,Increment      1: Step Time =    1.000,"P-3-1",           454,       144.503,       164.650,            0.,NA,NA,"",   5.70416E+06,   5.81906E+06,   5.81906E+06
C:/temp/Job-3.odb,Step-1,Increment      1: Step Time =    1.000,"P-3-1",           455,       51.1124,       161.911,            0.,NA,NA,"",   2.26545E+06,  -2.23114E+06,  -2.23114E+06
C:/temp/Job-3.odb,Step-1,Increment      1: Step Time =    1.000,"P-3-1",           456,       38.1769,       151.590,            0.,NA,NA,"",   2.22281E+06,  -2.27019E+06,  -2.27019E+06
C:/temp/Job-3.odb,Step-1,Increment      1: Step Time =    1.000,"P-3-1",           457,       22.4806,       106.386,            0.,NA,NA,"",   713.851E+03,  -738.116E+03,  -738.116E+03
C:/temp/Job-3.odb,Step-1,Increment      1: Step Time =    1.000,"P-3-1",           458,       47.0663,       158.654,            0.,NA,NA,"",   2.43543E+06,  -2.44476E+06,  -2.44476E+06
C:/temp/Job-3.odb,Step-1,Increment      1: Step Time =    1.000,"P-3-1",           459,       26.9773,       127.455,            0.,NA,NA,"",   1.46046E+06,  -1.48329E+06,  -1.48329E+06
C:/temp/Job-3.odb,Step-1,Increment      1: Step Time =    1.000,"P-3-1",           460,       37.8267,       51.8014,            0.,NA,NA,"",   2.55350E+06,  -2.59760E+06,  -2.59760E+06
C:/temp/Job-3.odb,Step-1,Increment      1: Step Time =    1.000,"P-3-1",           461,       25.1292,       75.3487,            0.,NA,NA,"",   1.25972E+06,  -1.28628E+06,  -1.28628E+06
C:/temp/Job-3.odb,Step-1,Increment      1: Step Time =    1.000,"P-3-1",           462,       23.1730,       117.854,            0.,NA,NA,"",   964.525E+03,  -993.075E+03,  -993.075E+03
C:/temp/Job-3.odb,Step-1,Increment      1: Step Time =    1.000,"P-3-1",           463,       25.0647,       122.736,            0.,NA,NA,"",   1.19227E+06,  -1.21479E+06,  -1.21479E+06
C:/temp/Job-3.odb,Step-1,Increment      1: Step Time =    1.000,"P-3-1",           464,       45.1094,       43.9905,            0.,NA,NA,"",   2.65054E+06,  -2.68634E+06,  -2.68634E+06
C:/temp/Job-3.odb,Step-1,Increment      1: Step Time =    1.000,"P-3-1",           465,       27.5619,       70.5156,            0.,NA,NA,"",   1.56221E+06,  -1.58608E+06,  -1.58608E+06
C:/temp/Job-3.odb,Step-1,Increment      1: Step Time =    1.000,"P-3-1",           466,       22.4293,       86.1594,            0.,NA,NA,"",   835.984E+03,  -866.863E+03,  -866.863E+03
C:/temp/Job-3.odb,Step-1,Increment      1: Step Time =    1.000,"P-3-1",           467,       49.0158,       40.5957,            0.,NA,NA,"",   2.51947E+06,  -2.53264E+06,  -2.53264E+06
C:/temp/Job-3.odb,Step-1,Increment      1: Step Time =    1.000,"P-3-1",           468,       55.3421,       164.911,            0.,NA,NA,"",   2.02818E+06,  -1.90883E+06,  -1.90883E+06
C:/temp/Job-3.odb,Step-1,Increment      1: Step Time =    1.000,"P-3-1",           469,       33.3793,       141.223,            0.,NA,NA,"",   2.30563E+06,  -2.33802E+06,  -2.33802E+06
C:/temp/Job-3.odb,Step-1,Increment      1: Step Time =    1.000,"P-3-1",           470,       35.7295,       145.888,            0.,NA,NA,"",   2.42696E+06,  -2.47147E+06,  -2.47147E+06
C:/temp/Job-3.odb,Step-1,Increment      1: Step Time =    1.000,"P-3-1",           471,       34.5010,       56.1837,            0.,NA,NA,"",   2.37403E+06,  -2.41447E+06,  -2.41447E+06
C:/temp/Job-3.odb,Step-1,Increment      1: Step Time =    1.000,"P-3-1",           472,       125.040,       194.819,            0.,NA,NA,"",   1.40707E+06,  -1.13088E+06,  -1.13088E+06
C:/temp/Job-3.odb,Step-1,Increment      1: Step Time =    1.000,"P-3-1",           473,       195.238,       125.304,            0.,NA,NA,"",   4.08412E+06,   4.39117E+06,   4.39117E+06
C:/temp/Job-3.odb,Step-1,Increment      1: Step Time =    1.000,"P-3-1",           474,       195.402,       135.118,            0.,NA,NA,"",   2.80642E+06,   3.07591E+06,   3.07591E+06
C:/temp/Job-3.odb,Step-1,Increment      1: Step Time =    1.000,"P-3-1",           475,       135.146,       194.821,            0.,NA,NA,"",   1.32101E+06,  -1.03667E+06,  -1.03667E+06
C:/temp/Job-3.odb,Step-1,Increment      1: Step Time =    1.000,"P-3-1",           476,       194.729,       115.414,            0.,NA,NA,"",   5.03702E+06,   5.36034E+06,   5.36034E+06
C:/temp/Job-3.odb,Step-1,Increment      1: Step Time =    1.000,"P-3-1",           477,       195.065,       65.3531,            0.,NA,NA,"",   2.87636E+06,   3.12488E+06,   3.12488E+06
C:/temp/Job-3.odb,Step-1,Increment      1: Step Time =    1.000,"P-3-1",           478,       195.109,       75.2109,            0.,NA,NA,"",   4.14888E+06,   4.45467E+06,   4.45467E+06
C:/temp/Job-3.odb,Step-1,Increment      1: Step Time =    1.000,"P-3-1",           479,       94.9423,       194.515,            0.,NA,NA,"",   1.94118E+06,   1.36601E+06,   1.36601E+06
C:/temp/Job-3.odb,Step-1,Increment      1: Step Time =    1.000,"P-3-1",           480,       84.7656,       194.720,            0.,NA,NA,"",   2.94382E+06,   2.75561E+06,   2.75561E+06
C:/temp/Job-3.odb,Step-1,Increment      1: Step Time =    1.000,"P-3-1",           481,       193.632,       55.1624,            0.,NA,NA,"",   1.89629E+06,   2.01506E+06,   2.01506E+06
C:/temp/Job-3.odb,Step-1,Increment      1: Step Time =    1.000,"P-3-1",           482,       164.639,       5.86871,            0.,NA,NA,"",   613.775E+03,   371.362E+03,   371.362E+03
C:/temp/Job-3.odb,Step-1,Increment      1: Step Time =    1.000,"P-3-1",           483,       175.047,       5.71657,            0.,NA,NA,"",   699.495E+03,   652.627E+03,   652.627E+03
C:/temp/Job-3.odb,Step-1,Increment      1: Step Time =    1.000,"P-3-1",           484,       134.893,       4.28279,            0.,NA,NA,"",   1.51030E+06,  -1.44504E+06,  -1.44504E+06
C:/temp/Job-3.odb,Step-1,Increment      1: Step Time =    1.000,"P-3-1",           485,       95.2185,       4.95069,            0.,NA,NA,"",   1.77771E+06,   1.21109E+06,   1.21109E+06
C:/temp/Job-3.odb,Step-1,Increment      1: Step Time =    1.000,"P-3-1",           486,       105.036,       4.61579,            0.,NA,NA,"",   1.55297E+06,  -213.987E+03,  -213.987E+03
C:/temp/Job-3.odb,Step-1,Increment      1: Step Time =    1.000,"P-3-1",           487,       85.3314,       4.64467,            0.,NA,NA,"",   2.75310E+06,   2.57848E+06,   2.57848E+06
C:/temp/Job-3.odb,Step-1,Increment      1: Step Time =    1.000,"P-3-1",           488,       4.88586,       114.918,            0.,NA,NA,"",   576.277E+03,  -631.357E+03,  -631.357E+03
C:/temp/Job-3.odb,Step-1,Increment      1: Step Time =    1.000,"P-3-1",           489,       25.1440,       194.393,            0.,NA,NA,"",   5.36298E+06,   5.36337E+06,   5.36337E+06
C:/temp/Job-3.odb,Step-1,Increment      1: Step Time =    1.000,"P-3-1",           490,       15.0563,       194.511,            0.,NA,NA,"",   5.23369E+06,   5.25852E+06,   5.25852E+06
C:/temp/Job-3.odb,Step-1,Increment      1: Step Time =    1.000,"P-3-1",           491,       5.26536,       84.4450,            0.,NA,NA,"",   603.282E+03,  -656.876E+03,  -656.876E+03
C:/temp/Job-3.odb,Step-1,Increment      1: Step Time =    1.000,"P-3-1",           492,       35.2907,       194.737,            0.,NA,NA,"",    5.5701E+06,   5.55611E+06,   5.55611E+06
C:/temp/Job-3.odb,Step-1,Increment      1: Step Time =    1.000,"P-3-1",           493,       55.0455,       195.533,            0.,NA,NA,"",   5.55102E+06,   5.50940E+06,   5.50940E+06
C:/temp/Job-3.odb,Step-1,Increment      1: Step Time =    1.000,"P-3-1",           494,       45.3046,       195.178,            0.,NA,NA,"",   5.69257E+06,   5.66322E+06,   5.66322E+06
C:/temp/Job-3.odb,Step-1,Increment      1: Step Time =    1.000,"P-3-1",           495,       64.8239,       195.299,            0.,NA,NA,"",   4.98846E+06,   4.91373E+06,   4.91373E+06
C:/temp/Job-3.odb,Step-1,Increment      1: Step Time =    1.000,"P-3-1",           496,       74.7569,       195.095,            0.,NA,NA,"",   4.06942E+06,   3.94232E+06,   3.94232E+06
C:/temp/Job-3.odb,Step-1,Increment      1: Step Time =    1.000,"P-3-1",           497,       5.03487,       10.0397,            0.,NA,NA,"",   4.27936E+06,   4.58743E+06,   4.58743E+06
C:/temp/Job-3.odb,Step-1,Increment      1: Step Time =    1.000,"P-3-1",           498,       5.05252,       20.0276,            0.,NA,NA,"",   2.74735E+06,   3.02255E+06,   3.02255E+06
C:/temp/Job-3.odb,Step-1,Increment      1: Step Time =    1.000,"P-3-1",           499,       5.12179,       29.9653,            0.,NA,NA,"",   1.50033E+06,   1.67819E+06,   1.67819E+06
C:/temp/Job-3.odb,Step-1,Increment      1: Step Time =    1.000,"P-3-1",           500,       5.19639,       39.8946,            0.,NA,NA,"",   501.201E+03,   565.882E+03,   565.882E+03
C:/temp/Job-3.odb,Step-1,Increment      1: Step Time =    1.000,"P-3-1",           501,       4.92014,       49.8279,            0.,NA,NA,"",   330.245E+03,  -140.332E+03,  -140.332E+03
C:/temp/Job-3.odb,Step-1,Increment      1: Step Time =    1.000,"P-3-1",           502,       14.9943,       5.04197,            0.,NA,NA,"",   5.29676E+06,   5.31608E+06,   5.31608E+06
C:/temp/Job-3.odb,Step-1,Increment      1: Step Time =    1.000,"P-3-1",           503,       24.9240,       5.14633,            0.,NA,NA,"",   5.42426E+06,   5.42498E+06,   5.42498E+06
C:/temp/Job-3.odb,Step-1,Increment      1: Step Time =    1.000,"P-3-1",           504,       35.1043,       5.67747,            0.,NA,NA,"",   5.48812E+06,   5.47368E+06,   5.47368E+06
C:/temp/Job-3.odb,Step-1,Increment      1: Step Time =    1.000,"P-3-1",           505,       45.3281,       5.45794,            0.,NA,NA,"",   5.56590E+06,   5.53036E+06,   5.53036E+06
C:/temp/Job-3.odb,Step-1,Increment      1: Step Time =    1.000,"P-3-1",           506,       55.5151,       4.91494,            0.,NA,NA,"",   5.46981E+06,   5.42064E+06,   5.42064E+06
C:/temp/Job-3.odb,Step-1,Increment      1: Step Time =    1.000,"P-3-1",           507,       65.7455,       5.03719,            0.,NA,NA,"",   4.90549E+06,   4.81495E+06,   4.81495E+06
C:/temp/Job-3.odb,Step-1,Increment      1: Step Time =    1.000,"P-3-1",           508,       75.4363,       4.96282,            0.,NA,NA,"",   3.98609E+06,   3.87172E+06,   3.87172E+06
C:/temp/Job-3.odb,Step-1,Increment      1: Step Time =    1.000,"P-3-1",           509,       115.111,       5.21320,            0.,NA,NA,"",   1.61299E+06,  -884.477E+03,  -884.477E+03
C:/temp/Job-3.odb,Step-1,Increment      1: Step Time =    1.000,"P-3-1",           510,       125.099,       4.74038,            0.,NA,NA,"",   1.51935E+06,  -1.37365E+06,  -1.37365E+06
C:/temp/Job-3.odb,Step-1,Increment      1: Step Time =    1.000,"P-3-1",           511,       185.056,       5.28647,            0.,NA,NA,"",    864.95E+03,   840.836E+03,   840.836E+03
C:/temp/Job-3.odb,Step-1,Increment      1: Step Time =    1.000,"P-3-1",           512,       194.370,       34.6210,            0.,NA,NA,"",   1.22770E+06,   1.14062E+06,   1.14062E+06
C:/temp/Job-3.odb,Step-1,Increment      1: Step Time =    1.000,"P-3-1",           513,       194.687,       44.7590,            0.,NA,NA,"",   1.25186E+06,   1.32190E+06,   1.32190E+06
C:/temp/Job-3.odb,Step-1,Increment      1: Step Time =    1.000,"P-3-1",           514,       195.055,       5.01689,            0.,NA,NA,"",   990.422E+03,   969.759E+03,   969.759E+03
C:/temp/Job-3.odb,Step-1,Increment      1: Step Time =    1.000,"P-3-1",           515,       195.294,       14.9415,            0.,NA,NA,"",   1.11341E+06,   1.01035E+06,   1.01035E+06
C:/temp/Job-3.odb,Step-1,Increment      1: Step Time =    1.000,"P-3-1",           516,       195.099,       24.7500,            0.,NA,NA,"",   1.21354E+06,   1.05006E+06,   1.05006E+06
C:/temp/Job-3.odb,Step-1,Increment      1: Step Time =    1.000,"P-3-1",           517,       195.247,       85.0631,            0.,NA,NA,"",   5.24887E+06,   5.60305E+06,   5.60305E+06
C:/temp/Job-3.odb,Step-1,Increment      1: Step Time =    1.000,"P-3-1",           518,       194.622,       95.1262,            0.,NA,NA,"",   5.62702E+06,   5.95796E+06,   5.95796E+06
C:/temp/Job-3.odb,Step-1,Increment      1: Step Time =    1.000,"P-3-1",           519,       194.817,       105.269,            0.,NA,NA,"",   5.69982E+06,   6.06114E+06,   6.06114E+06
C:/temp/Job-3.odb,Step-1,Increment      1: Step Time =    1.000,"P-3-1",           520,       195.309,       144.785,            0.,NA,NA,"",   1.74415E+06,   1.92183E+06,   1.92183E+06
C:/temp/Job-3.odb,Step-1,Increment      1: Step Time =    1.000,"P-3-1",           521,       194.843,       154.608,            0.,NA,NA,"",   1.26683E+06,   1.33966E+06,   1.33966E+06
C:/temp/Job-3.odb,Step-1,Increment      1: Step Time =    1.000,"P-3-1",           522,       145.642,       193.857,            0.,NA,NA,"",   1.02381E+06,  -164.472E+03,  -164.472E+03
C:/temp/Job-3.odb,Step-1,Increment      1: Step Time =    1.000,"P-3-1",           523,       194.537,       164.716,            0.,NA,NA,"",   1.23148E+06,   1.14823E+06,   1.14823E+06
C:/temp/Job-3.odb,Step-1,Increment      1: Step Time =    1.000,"P-3-1",           524,       155.809,       194.719,            0.,NA,NA,"",   730.325E+03,  -27.1572E+03,  -27.1572E+03
C:/temp/Job-3.odb,Step-1,Increment      1: Step Time =    1.000,"P-3-1",           525,       194.744,       174.883,            0.,NA,NA,"",   1.21900E+06,   1.06048E+06,   1.06048E+06
C:/temp/Job-3.odb,Step-1,Increment      1: Step Time =    1.000,"P-3-1",           526,       165.364,       195.550,            0.,NA,NA,"",   447.140E+03,   252.540E+03,   252.540E+03
C:/temp/Job-3.odb,Step-1,Increment      1: Step Time =    1.000,"P-3-1",           527,       194.768,       184.848,            0.,NA,NA,"",   1.12080E+06,   1.01636E+06,   1.01636E+06
C:/temp/Job-3.odb,Step-1,Increment      1: Step Time =    1.000,"P-3-1",           528,       175.025,       195.372,            0.,NA,NA,"",   616.091E+03,   583.801E+03,   583.801E+03
C:/temp/Job-3.odb,Step-1,Increment      1: Step Time =    1.000,"P-3-1",           529,       194.901,       194.926,            0.,NA,NA,"",   988.835E+03,   966.889E+03,   966.889E+03
C:/temp/Job-3.odb,Step-1,Increment      1: Step Time =    1.000,"P-3-1",           530,       184.841,       194.992,            0.,NA,NA,"",   848.159E+03,   825.887E+03,   825.887E+03
C:/temp/Job-3.odb,Step-1,Increment      1: Step Time =    1.000,"P-3-1",           531,       105.061,       194.879,            0.,NA,NA,"",   1.67171E+06,  -46.3792E+03,  -46.3792E+03
C:/temp/Job-3.odb,Step-1,Increment      1: Step Time =    1.000,"P-3-1",           532,       114.969,       195.115,            0.,NA,NA,"",   1.56513E+06,  -930.999E+03,  -930.999E+03
C:/temp/Job-3.odb,Step-1,Increment      1: Step Time =    1.000,"P-3-1",           533,       4.98529,       194.934,            0.,NA,NA,"",   5.25817E+06,   5.47334E+06,   5.47334E+06
C:/temp/Job-3.odb,Step-1,Increment      1: Step Time =    1.000,"P-3-1",           534,       4.83408,       184.863,            0.,NA,NA,"",   3.42439E+06,   3.73701E+06,   3.73701E+06
C:/temp/Job-3.odb,Step-1,Increment      1: Step Time =    1.000,"P-3-1",           535,       4.50438,       174.774,            0.,NA,NA,"",   2.04128E+06,   2.27171E+06,   2.27171E+06
C:/temp/Job-3.odb,Step-1,Increment      1: Step Time =    1.000,"P-3-1",           536,       4.43238,       164.918,            0.,NA,NA,"",   945.317E+03,   1.06869E+06,   1.06869E+06
C:/temp/Job-3.odb,Step-1,Increment      1: Step Time =    1.000,"P-3-1",           537,       4.39653,       155.253,            0.,NA,NA,"",   236.563E+03,   233.436E+03,   233.436E+03
C:/temp/Job-3.odb,Step-1,Increment      1: Step Time =    1.000,"P-3-1",           538,       6.09358,       145.264,            0.,NA,NA,"",   581.150E+03,  -540.916E+03,  -540.916E+03
C:/temp/Job-3.odb,Step-1,Increment      1: Step Time =    1.000,"P-3-1",           539,       4.80428,       134.604,            0.,NA,NA,"",   796.092E+03,  -815.293E+03,  -815.293E+03
C:/temp/Job-3.odb,Step-1,Increment      1: Step Time =    1.000,"P-3-1",           540,       4.67289,       124.800,            0.,NA,NA,"",   765.594E+03,  -801.729E+03,  -801.729E+03
C:/temp/Job-3.odb,Step-1,Increment      1: Step Time =    1.000,"P-3-1",           541,       5.04757,       104.809,            0.,NA,NA,"",   386.841E+03,  -441.290E+03,  -441.290E+03
C:/temp/Job-3.odb,Step-1,Increment      1: Step Time =    1.000,"P-3-1",           542,       4.93130,       94.5995,            0.,NA,NA,"",   390.689E+03,  -445.834E+03,  -445.834E+03
C:/temp/Job-3.odb,Step-1,Increment      1: Step Time =    1.000,"P-3-1",           543,       4.81873,       69.6673,            0.,NA,NA,"",   808.554E+03,  -834.402E+03,  -834.402E+03
C:/temp/Job-3.odb,Step-1,Increment      1: Step Time =    1.000,"P-3-1",           544,       4.73304,       59.7245,            0.,NA,NA,"",     703.2E+03,  -704.667E+03,  -704.667E+03
C:/temp/Job-3.odb,Step-1,Increment      1: Step Time =    1.000,"P-3-1",           545,       144.585,       4.32398,            0.,NA,NA,"",   1.12603E+06,  -1.03059E+06,  -1.03059E+06
C:/temp/Job-3.odb,Step-1,Increment      1: Step Time =    1.000,"P-3-1",           546,       154.402,       5.14542,            0.,NA,NA,"",   763.420E+03,  -82.1552E+03,  -82.1552E+03
C:/temp/Job-3.odb,Step-1,Increment      1: Step Time =    1.000,"P-3-1",           547,       190.070,       5.11915,            0.,NA,NA,"",   939.543E+03,   917.242E+03,   917.242E+03
C:/temp/Job-3.odb,Step-1,Increment      1: Step Time =    1.000,"P-3-1",           548,       180.101,       5.51412,            0.,NA,NA,"",   781.371E+03,   749.775E+03,   749.775E+03
C:/temp/Job-3.odb,Step-1,Increment      1: Step Time =    1.000,"P-3-1",           549,       169.869,       5.94180,            0.,NA,NA,"",   631.662E+03,   554.846E+03,   554.846E+03
C:/temp/Job-3.odb,Step-1,Increment      1: Step Time =    1.000,"P-3-1",           550,       159.413,       5.74593,            0.,NA,NA,"",   667.544E+03,   144.219E+03,   144.219E+03
C:/temp/Job-3.odb,Step-1,Increment      1: Step Time =    1.000,"P-3-1",           551,       149.438,       4.60599,            0.,NA,NA,"",   914.106E+03,  -558.469E+03,  -558.469E+03
C:/temp/Job-3.odb,Step-1,Increment      1: Step Time =    1.000,"P-3-1",           552,       139.756,       4.22561,            0.,NA,NA,"",   1.34334E+06,  -1.26853E+06,  -1.26853E+06
C:/temp/Job-3.odb,Step-1,Increment      1: Step Time =    1.000,"P-3-1",           553,       130.009,       4.46133,            0.,NA,NA,"",   1.57214E+06,  -1.51597E+06,  -1.51597E+06
C:/temp/Job-3.odb,Step-1,Increment      1: Step Time =    1.000,"P-3-1",           554,       120.114,       5.03684,            0.,NA,NA,"",   1.52087E+06,  -1.12198E+06,  -1.12198E+06
C:/temp/Job-3.odb,Step-1,Increment      1: Step Time =    1.000,"P-3-1",           555,       110.049,       4.85500,            0.,NA,NA,"",   1.61528E+06,  -612.044E+03,  -612.044E+03
C:/temp/Job-3.odb,Step-1,Increment      1: Step Time =    1.000,"P-3-1",           556,       100.047,       4.68446,            0.,NA,NA,"",   1.58578E+06,   392.815E+03,   392.815E+03
C:/temp/Job-3.odb,Step-1,Increment      1: Step Time =    1.000,"P-3-1",           557,       90.3336,       4.71300,            0.,NA,NA,"",   2.16919E+06,   1.95976E+06,   1.95976E+06
C:/temp/Job-3.odb,Step-1,Increment      1: Step Time =    1.000,"P-3-1",           558,       80.3599,       4.82600,            0.,NA,NA,"",   3.40111E+06,   3.25479E+06,   3.25479E+06
C:/temp/Job-3.odb,Step-1,Increment      1: Step Time =    1.000,"P-3-1",           559,       70.5019,       4.67948,            0.,NA,NA,"",   4.49580E+06,   4.39423E+06,   4.39423E+06
C:/temp/Job-3.odb,Step-1,Increment      1: Step Time =    1.000,"P-3-1",           560,       60.6456,       4.95434,            0.,NA,NA,"",   5.22894E+06,   5.15954E+06,   5.15954E+06
C:/temp/Job-3.odb,Step-1,Increment      1: Step Time =    1.000,"P-3-1",           561,       50.4625,       5.04627,            0.,NA,NA,"",   5.57764E+06,   5.53914E+06,   5.53914E+06
C:/temp/Job-3.odb,Step-1,Increment      1: Step Time =    1.000,"P-3-1",           562,       40.2116,       5.90699,            0.,NA,NA,"",   5.50663E+06,   5.48064E+06,   5.48064E+06
C:/temp/Job-3.odb,Step-1,Increment      1: Step Time =    1.000,"P-3-1",           563,       29.9518,       5.34137,            0.,NA,NA,"",   5.47358E+06,   5.46894E+06,   5.46894E+06
C:/temp/Job-3.odb,Step-1,Increment      1: Step Time =    1.000,"P-3-1",           564,       19.9375,       5.04714,            0.,NA,NA,"",   5.36211E+06,   5.36685E+06,   5.36685E+06
C:/temp/Job-3.odb,Step-1,Increment      1: Step Time =    1.000,"P-3-1",           565,       10.0173,       5.03260,            0.,NA,NA,"",   5.31041E+06,   5.35031E+06,   5.35031E+06
C:/temp/Job-3.odb,Step-1,Increment      1: Step Time =    1.000,"P-3-1",           566,       194.823,       189.882,            0.,NA,NA,"",   1.04707E+06,   988.017E+03,   988.017E+03
C:/temp/Job-3.odb,Step-1,Increment      1: Step Time =    1.000,"P-3-1",           567,       194.756,       179.877,            0.,NA,NA,"",   1.18160E+06,   1.03894E+06,   1.03894E+06
C:/temp/Job-3.odb,Step-1,Increment      1: Step Time =    1.000,"P-3-1",           568,       194.688,       169.856,            0.,NA,NA,"",   1.23335E+06,   1.09361E+06,   1.09361E+06
C:/temp/Job-3.odb,Step-1,Increment      1: Step Time =    1.000,"P-3-1",           569,       194.448,       159.613,            0.,NA,NA,"",   1.23106E+06,   1.22715E+06,   1.22715E+06
C:/temp/Job-3.odb,Step-1,Increment      1: Step Time =    1.000,"P-3-1",           570,       195.160,       149.641,            0.,NA,NA,"",   1.41698E+06,   1.54504E+06,   1.54504E+06
C:/temp/Job-3.odb,Step-1,Increment      1: Step Time =    1.000,"P-3-1",           571,       195.372,       139.962,            0.,NA,NA,"",   2.22229E+06,   2.45299E+06,   2.45299E+06
C:/temp/Job-3.odb,Step-1,Increment      1: Step Time =    1.000,"P-3-1",           572,       195.372,       130.240,            0.,NA,NA,"",   3.45319E+06,   3.74604E+06,   3.74604E+06
C:/temp/Job-3.odb,Step-1,Increment      1: Step Time =    1.000,"P-3-1",           573,       194.970,       120.346,            0.,NA,NA,"",   4.59839E+06,   4.91843E+06,   4.91843E+06
C:/temp/Job-3.odb,Step-1,Increment      1: Step Time =    1.000,"P-3-1",           574,       194.861,       110.335,            0.,NA,NA,"",   5.45923E+06,   5.79358E+06,   5.79358E+06
C:/temp/Job-3.odb,Step-1,Increment      1: Step Time =    1.000,"P-3-1",           575,       194.671,       100.215,            0.,NA,NA,"",   5.69573E+06,   6.05209E+06,   6.05209E+06
C:/temp/Job-3.odb,Step-1,Increment      1: Step Time =    1.000,"P-3-1",           576,       195.048,       90.1010,            0.,NA,NA,"",   5.53069E+06,   5.87285E+06,   5.87285E+06
C:/temp/Job-3.odb,Step-1,Increment      1: Step Time =    1.000,"P-3-1",           577,       195.198,       80.1266,            0.,NA,NA,"",   4.75248E+06,   5.08320E+06,   5.08320E+06
C:/temp/Job-3.odb,Step-1,Increment      1: Step Time =    1.000,"P-3-1",           578,       195.125,       70.2702,            0.,NA,NA,"",   3.51446E+06,   3.79408E+06,   3.79408E+06
C:/temp/Job-3.odb,Step-1,Increment      1: Step Time =    1.000,"P-3-1",           579,       194.680,       60.3999,            0.,NA,NA,"",   2.30708E+06,   2.50784E+06,   2.50784E+06
C:/temp/Job-3.odb,Step-1,Increment      1: Step Time =    1.000,"P-3-1",           580,       194.683,       49.6982,            0.,NA,NA,"",   1.43496E+06,   1.55598E+06,   1.55598E+06
C:/temp/Job-3.odb,Step-1,Increment      1: Step Time =    1.000,"P-3-1",           581,       194.467,       39.7348,            0.,NA,NA,"",   1.22072E+06,   1.21150E+06,   1.21150E+06
C:/temp/Job-3.odb,Step-1,Increment      1: Step Time =    1.000,"P-3-1",           582,       194.788,       29.6959,            0.,NA,NA,"",   1.22548E+06,   1.08279E+06,   1.08279E+06
C:/temp/Job-3.odb,Step-1,Increment      1: Step Time =    1.000,"P-3-1",           583,       195.326,       19.8759,            0.,NA,NA,"",   1.18002E+06,   1.03397E+06,   1.03397E+06
C:/temp/Job-3.odb,Step-1,Increment      1: Step Time =    1.000,"P-3-1",           584,       195.165,       10.0082,            0.,NA,NA,"",   1.04058E+06,   984.812E+03,   984.812E+03
C:/temp/Job-3.odb,Step-1,Increment      1: Step Time =    1.000,"P-3-1",           585,       9.96650,       194.791,            0.,NA,NA,"",   5.28858E+06,   5.33475E+06,   5.33475E+06
C:/temp/Job-3.odb,Step-1,Increment      1: Step Time =    1.000,"P-3-1",           586,       20.1178,       194.181,            0.,NA,NA,"",   5.26891E+06,   5.27792E+06,   5.27792E+06
C:/temp/Job-3.odb,Step-1,Increment      1: Step Time =    1.000,"P-3-1",           587,       30.1989,       194.633,            0.,NA,NA,"",   5.48333E+06,   5.47781E+06,   5.47781E+06
C:/temp/Job-3.odb,Step-1,Increment      1: Step Time =    1.000,"P-3-1",           588,       40.3526,       194.759,            0.,NA,NA,"",   5.63328E+06,   5.60959E+06,   5.60959E+06
C:/temp/Job-3.odb,Step-1,Increment      1: Step Time =    1.000,"P-3-1",           589,       50.1896,       195.463,            0.,NA,NA,"",   5.68222E+06,   5.64919E+06,   5.64919E+06
C:/temp/Job-3.odb,Step-1,Increment      1: Step Time =    1.000,"P-3-1",           590,       59.9310,       195.457,            0.,NA,NA,"",   5.31851E+06,   5.26220E+06,   5.26220E+06
C:/temp/Job-3.odb,Step-1,Increment      1: Step Time =    1.000,"P-3-1",           591,       69.7911,       195.194,            0.,NA,NA,"",   4.56535E+06,   4.46561E+06,   4.46561E+06
C:/temp/Job-3.odb,Step-1,Increment      1: Step Time =    1.000,"P-3-1",           592,       79.7783,       194.983,            0.,NA,NA,"",   3.51689E+06,   3.36245E+06,   3.36245E+06
C:/temp/Job-3.odb,Step-1,Increment      1: Step Time =    1.000,"P-3-1",           593,       89.8068,       194.541,            0.,NA,NA,"",   2.38850E+06,   2.16403E+06,   2.16403E+06
C:/temp/Job-3.odb,Step-1,Increment      1: Step Time =    1.000,"P-3-1",           594,       100.055,       194.635,            0.,NA,NA,"",   1.72771E+06,   551.321E+03,   551.321E+03
C:/temp/Job-3.odb,Step-1,Increment      1: Step Time =    1.000,"P-3-1",           595,       109.969,       195.133,            0.,NA,NA,"",   1.62820E+06,  -571.739E+03,  -571.739E+03
C:/temp/Job-3.odb,Step-1,Increment      1: Step Time =    1.000,"P-3-1",           596,       119.982,       194.954,            0.,NA,NA,"",   1.46360E+06,  -1.11318E+06,  -1.11318E+06
C:/temp/Job-3.odb,Step-1,Increment      1: Step Time =    1.000,"P-3-1",           597,       130.121,       194.827,            0.,NA,NA,"",   1.40488E+06,  -1.01577E+06,  -1.01577E+06
C:/temp/Job-3.odb,Step-1,Increment      1: Step Time =    1.000,"P-3-1",           598,       140.169,       194.629,            0.,NA,NA,"",   1.18238E+06,  -807.593E+03,  -807.593E+03
C:/temp/Job-3.odb,Step-1,Increment      1: Step Time =    1.000,"P-3-1",           599,       150.886,       194.539,            0.,NA,NA,"",   907.697E+03,  -170.911E+03,  -170.911E+03
C:/temp/Job-3.odb,Step-1,Increment      1: Step Time =    1.000,"P-3-1",           600,       160.513,       195.267,            0.,NA,NA,"",   551.472E+03,   89.8145E+03,   89.8145E+03
C:/temp/Job-3.odb,Step-1,Increment      1: Step Time =    1.000,"P-3-1",           601,       170.188,       195.556,            0.,NA,NA,"",   489.757E+03,   438.742E+03,   438.742E+03
C:/temp/Job-3.odb,Step-1,Increment      1: Step Time =    1.000,"P-3-1",           602,       179.910,       195.166,            0.,NA,NA,"",   742.427E+03,   716.467E+03,   716.467E+03
C:/temp/Job-3.odb,Step-1,Increment      1: Step Time =    1.000,"P-3-1",           603,       189.849,       194.925,            0.,NA,NA,"",    932.69E+03,   910.335E+03,   910.335E+03
C:/temp/Job-3.odb,Step-1,Increment      1: Step Time =    1.000,"P-3-1",           604,       5.03614,       15.0397,            0.,NA,NA,"",   3.45038E+06,   3.75997E+06,   3.75997E+06
C:/temp/Job-3.odb,Step-1,Increment      1: Step Time =    1.000,"P-3-1",           605,       5.07455,       25.0039,            0.,NA,NA,"",   2.09431E+06,   2.32416E+06,   2.32416E+06
C:/temp/Job-3.odb,Step-1,Increment      1: Step Time =    1.000,"P-3-1",           606,       5.17589,       34.9446,            0.,NA,NA,"",   954.755E+03,   1.07981E+06,   1.07981E+06
C:/temp/Job-3.odb,Step-1,Increment      1: Step Time =    1.000,"P-3-1",           607,       5.07977,       44.8399,            0.,NA,NA,"",   254.437E+03,   235.051E+03,   235.051E+03
C:/temp/Job-3.odb,Step-1,Increment      1: Step Time =    1.000,"P-3-1",           608,       4.78249,       54.7812,            0.,NA,NA,"",   548.783E+03,  -526.477E+03,  -526.477E+03
C:/temp/Job-3.odb,Step-1,Increment      1: Step Time =    1.000,"P-3-1",           609,       4.74373,       64.6768,            0.,NA,NA,"",   789.052E+03,  -804.847E+03,  -804.847E+03
C:/temp/Job-3.odb,Step-1,Increment      1: Step Time =    1.000,"P-3-1",           610,       4.89676,       74.6301,            0.,NA,NA,"",   774.816E+03,  -809.425E+03,  -809.425E+03
C:/temp/Job-3.odb,Step-1,Increment      1: Step Time =    1.000,"P-3-1",           611,       5.01913,       79.6061,            0.,NA,NA,"",   702.225E+03,  -746.126E+03,  -746.126E+03
C:/temp/Job-3.odb,Step-1,Increment      1: Step Time =    1.000,"P-3-1",           612,       5.06650,       89.4567,            0.,NA,NA,"",   488.866E+03,  -549.126E+03,  -549.126E+03
C:/temp/Job-3.odb,Step-1,Increment      1: Step Time =    1.000,"P-3-1",           613,       4.96439,       99.7004,            0.,NA,NA,"",   353.313E+03,  -400.793E+03,  -400.793E+03
C:/temp/Job-3.odb,Step-1,Increment      1: Step Time =    1.000,"P-3-1",           614,       5.00914,       109.920,            0.,NA,NA,"",   470.117E+03,  -531.017E+03,  -531.017E+03
C:/temp/Job-3.odb,Step-1,Increment      1: Step Time =    1.000,"P-3-1",           615,       4.69966,       119.856,            0.,NA,NA,"",   684.047E+03,  -729.209E+03,  -729.209E+03
C:/temp/Job-3.odb,Step-1,Increment      1: Step Time =    1.000,"P-3-1",           616,       4.69567,       129.697,            0.,NA,NA,"",   803.904E+03,  -832.356E+03,  -832.356E+03
C:/temp/Job-3.odb,Step-1,Increment      1: Step Time =    1.000,"P-3-1",           617,       5.11329,       139.608,            0.,NA,NA,"",   729.190E+03,  -729.994E+03,  -729.994E+03
C:/temp/Job-3.odb,Step-1,Increment      1: Step Time =    1.000,"P-3-1",           618,       4.43502,       150.460,            0.,NA,NA,"",   295.363E+03,  -126.858E+03,  -126.858E+03
C:/temp/Job-3.odb,Step-1,Increment      1: Step Time =    1.000,"P-3-1",           619,       4.65548,       160.056,            0.,NA,NA,"",   497.801E+03,   560.904E+03,   560.904E+03
C:/temp/Job-3.odb,Step-1,Increment      1: Step Time =    1.000,"P-3-1",           620,       4.33290,       169.857,            0.,NA,NA,"",   1.46905E+06,   1.64749E+06,   1.64749E+06
C:/temp/Job-3.odb,Step-1,Increment      1: Step Time =    1.000,"P-3-1",           621,       4.79945,       179.796,            0.,NA,NA,"",   2.69787E+06,   2.97458E+06,   2.97458E+06
C:/temp/Job-3.odb,Step-1,Increment      1: Step Time =    1.000,"P-3-1",           622,       4.89599,       189.913,            0.,NA,NA,"",   4.27583E+06,   4.58923E+06,   4.58923E+06
C:/temp/Job-3.odb,Step-1,Increment      1: Step Time =    1.000,"P-3-1",           623,       22.4047,       96.6108,            0.,NA,NA,"",   680.578E+03,  -702.342E+03,  -702.342E+03
C:/temp/Job-3.odb,Step-1,Increment      1: Step Time =    1.000,"P-3-1",           624,       178.024,       110.841,            0.,NA,NA,"",   4.09290E+06,  -4.08984E+06,  -4.08984E+06
C:/temp/Job-3.odb,Step-1,Increment      1: Step Time =    1.000,"P-3-1",           625,       122.487,       179.234,            0.,NA,NA,"",   6.23270E+06,   6.47533E+06,   6.47533E+06
C:/temp/Job-3.odb,Step-1,Increment      1: Step Time =    1.000,"P-3-1",           626,       77.0062,       180.411,            0.,NA,NA,"",   4.18706E+06,   3.82901E+06,   3.82901E+06
C:/temp/Job-3.odb,Step-1,Increment      1: Step Time =    1.000,"P-3-1",           627,       16.8668,       86.3364,            0.,NA,NA,"",   705.561E+03,  -760.604E+03,  -760.604E+03
C:/temp/Job-3.odb,Step-1,Increment      1: Step Time =    1.000,"P-3-1",           628,       182.454,       87.4687,            0.,NA,NA,"",   2.26488E+06,  -757.575E+03,  -757.575E+03
C:/temp/Job-3.odb,Step-1,Increment      1: Step Time =    1.000,"P-3-1",           629,       18.4723,       97.3523,            0.,NA,NA,"",   617.453E+03,  -662.304E+03,  -662.304E+03
C:/temp/Job-3.odb,Step-1,Increment      1: Step Time =    1.000,"P-3-1",           630,       184.259,       97.2911,            0.,NA,NA,"",   1.34751E+06,  -646.187E+03,  -646.187E+03
C:/temp/Job-3.odb,Step-1,Increment      1: Step Time =    1.000,"P-3-1",           631,       136.842,       173.101,            0.,NA,NA,"",   5.68372E+06,   5.88288E+06,   5.88288E+06
C:/temp/Job-3.odb,Step-1,Increment      1: Step Time =    1.000,"P-3-1",           632,       62.5375,       174.094,            0.,NA,NA,"",   2.43187E+06,   1.26674E+06,   1.26674E+06
C:/temp/Job-3.odb,Step-1,Increment      1: Step Time =    1.000,"P-3-1",           633,       19.0167,       105.684,            0.,NA,NA,"",   643.283E+03,  -688.625E+03,  -688.625E+03
C:/temp/Job-3.odb,Step-1,Increment      1: Step Time =    1.000,"P-3-1",           634,       184.190,       106.652,            0.,NA,NA,"",   1.99139E+06,  -668.275E+03,  -668.275E+03
C:/temp/Job-3.odb,Step-1,Increment      1: Step Time =    1.000,"P-3-1",           635,       172.673,       57.9719,            0.,NA,NA,"",   2.50468E+06,   1.96206E+06,   1.96206E+06
C:/temp/Job-3.odb,Step-1,Increment      1: Step Time =    1.000,"P-3-1",           636,       27.9914,       59.3944,            0.,NA,NA,"",   1.67435E+06,  -1.69698E+06,  -1.69698E+06
C:/temp/Job-3.odb,Step-1,Increment      1: Step Time =    1.000,"P-3-1",           637,       155.492,       37.2273,            0.,NA,NA,"",   3.72132E+06,   3.77849E+06,   3.77849E+06
C:/temp/Job-3.odb,Step-1,Increment      1: Step Time =    1.000,"P-3-1",           638,       46.1865,       37.0632,            0.,NA,NA,"",   1.63607E+06,  -1.53502E+06,  -1.53502E+06
C:/temp/Job-3.odb,Step-1,Increment      1: Step Time =    1.000,"P-3-1",           639,       167.643,       142.050,            0.,NA,NA,"",   1.91667E+06,   1.63991E+06,   1.63991E+06
C:/temp/Job-3.odb,Step-1,Increment      1: Step Time =    1.000,"P-3-1",           640,       142.824,       33.6311,            0.,NA,NA,"",   5.91295E+06,   6.03785E+06,   6.03785E+06
C:/temp/Job-3.odb,Step-1,Increment      1: Step Time =    1.000,"P-3-1",           641,       28.9991,       132.094,            0.,NA,NA,"",   1.75779E+06,  -1.78203E+06,  -1.78203E+06
C:/temp/Job-3.odb,Step-1,Increment      1: Step Time =    1.000,"P-3-1",           642,       176.848,       84.8066,            0.,NA,NA,"",   4.02600E+06,  -3.98475E+06,  -3.98475E+06
C:/temp/Job-3.odb,Step-1,Increment      1: Step Time =    1.000,"P-3-1",           643,       111.045,       177.660,            0.,NA,NA,"",   8.80018E+06,   8.96549E+06,   8.96549E+06
C:/temp/Job-3.odb,Step-1,Increment      1: Step Time =    1.000,"P-3-1",           644,       139.491,       8.44874,            0.,NA,NA,"",   925.447E+03,   134.364E+03,   134.364E+03
C:/temp/Job-3.odb,Step-1,Increment      1: Step Time =    1.000,"P-3-1",           645,       120.508,       10.1001,            0.,NA,NA,"",   1.37907E+06,   1.44645E+06,   1.44645E+06
C:/temp/Job-3.odb,Step-1,Increment      1: Step Time =    1.000,"P-3-1",           646,       109.677,       9.40345,            0.,NA,NA,"",   1.91501E+06,   1.83543E+06,   1.83543E+06
C:/temp/Job-3.odb,Step-1,Increment      1: Step Time =    1.000,"P-3-1",           647,       100.387,       9.10259,            0.,NA,NA,"",   2.76051E+06,   2.55784E+06,   2.55784E+06
C:/temp/Job-3.odb,Step-1,Increment      1: Step Time =    1.000,"P-3-1",           648,       70.8406,       8.70415,            0.,NA,NA,"",   4.40093E+06,   4.17979E+06,   4.17979E+06
C:/temp/Job-3.odb,Step-1,Increment      1: Step Time =    1.000,"P-3-1",           649,       190.585,       139.892,            0.,NA,NA,"",   2.48800E+06,   2.49541E+06,   2.49541E+06
C:/temp/Job-3.odb,Step-1,Increment      1: Step Time =    1.000,"P-3-1",           650,       190.734,       130.515,            0.,NA,NA,"",   3.02386E+06,   3.06826E+06,   3.06826E+06
C:/temp/Job-3.odb,Step-1,Increment      1: Step Time =    1.000,"P-3-1",           651,       189.419,       100.636,            0.,NA,NA,"",   2.53913E+06,   2.73109E+06,   2.73109E+06
C:/temp/Job-3.odb,Step-1,Increment      1: Step Time =    1.000,"P-3-1",           652,       190.500,       89.8342,            0.,NA,NA,"",   3.17166E+06,   3.34008E+06,   3.34008E+06
C:/temp/Job-3.odb,Step-1,Increment      1: Step Time =    1.000,"P-3-1",           653,       190.375,       80.4040,            0.,NA,NA,"",   3.35371E+06,   3.42375E+06,   3.42375E+06
C:/temp/Job-3.odb,Step-1,Increment      1: Step Time =    1.000,"P-3-1",           654,       190.305,       70.4695,            0.,NA,NA,"",   3.03918E+06,   3.04393E+06,   3.04393E+06
C:/temp/Job-3.odb,Step-1,Increment      1: Step Time =    1.000,"P-3-1",           655,       79.3992,       190.173,            0.,NA,NA,"",   4.17471E+06,   3.85629E+06,   3.85629E+06
C:/temp/Job-3.odb,Step-1,Increment      1: Step Time =    1.000,"P-3-1",           656,       89.4687,       189.053,            0.,NA,NA,"",   3.96781E+06,   3.68197E+06,   3.68197E+06
C:/temp/Job-3.odb,Step-1,Increment      1: Step Time =    1.000,"P-3-1",           657,       119.773,       189.971,            0.,NA,NA,"",   1.36214E+06,   1.40274E+06,   1.40274E+06
C:/temp/Job-3.odb,Step-1,Increment      1: Step Time =    1.000,"P-3-1",           658,       9.57975,       69.2602,            0.,NA,NA,"",   885.391E+03,  -901.978E+03,  -901.978E+03
C:/temp/Job-3.odb,Step-1,Increment      1: Step Time =    1.000,"P-3-1",           659,       9.85119,       78.9932,            0.,NA,NA,"",   739.214E+03,  -790.105E+03,  -790.105E+03
C:/temp/Job-3.odb,Step-1,Increment      1: Step Time =    1.000,"P-3-1",           660,       9.73982,       99.2831,            0.,NA,NA,"",   408.555E+03,  -463.754E+03,  -463.754E+03
C:/temp/Job-3.odb,Step-1,Increment      1: Step Time =    1.000,"P-3-1",           661,       9.98896,       109.919,            0.,NA,NA,"",   509.089E+03,  -576.533E+03,  -576.533E+03
C:/temp/Job-3.odb,Step-1,Increment      1: Step Time =    1.000,"P-3-1",           662,       9.39358,       129.335,            0.,NA,NA,"",   873.980E+03,  -894.743E+03,  -894.743E+03
C:/temp/Job-3.odb,Step-1,Increment      1: Step Time =    1.000,"P-3-1",           663,       9.64996,       138.586,            0.,NA,NA,"",   872.178E+03,  -843.804E+03,  -843.804E+03
C:/temp/Job-3.odb,Step-1,Increment      1: Step Time =    1.000,"P-3-1",           664,       130.190,       8.90811,            0.,NA,NA,"",   961.869E+03,   370.123E+03,   370.123E+03
C:/temp/Job-3.odb,Step-1,Increment      1: Step Time =    1.000,"P-3-1",           665,       90.3982,       9.16343,            0.,NA,NA,"",   3.52757E+06,   3.23344E+06,   3.23344E+06
C:/temp/Job-3.odb,Step-1,Increment      1: Step Time =    1.000,"P-3-1",           666,       80.9819,       9.63095,            0.,NA,NA,"",   4.06681E+06,   3.74727E+06,   3.74727E+06
C:/temp/Job-3.odb,Step-1,Increment      1: Step Time =    1.000,"P-3-1",           667,       189.933,       120.953,            0.,NA,NA,"",   3.19208E+06,   3.20827E+06,   3.20827E+06
C:/temp/Job-3.odb,Step-1,Increment      1: Step Time =    1.000,"P-3-1",           668,       190.033,       110.421,            0.,NA,NA,"",   2.99731E+06,   3.14785E+06,   3.14785E+06
C:/temp/Job-3.odb,Step-1,Increment      1: Step Time =    1.000,"P-3-1",           669,       189.968,       61.4569,            0.,NA,NA,"",   2.62018E+06,   2.57567E+06,   2.57567E+06
C:/temp/Job-3.odb,Step-1,Increment      1: Step Time =    1.000,"P-3-1",           670,       59.7542,       190.873,            0.,NA,NA,"",   4.70422E+06,   4.54658E+06,   4.54658E+06
C:/temp/Job-3.odb,Step-1,Increment      1: Step Time =    1.000,"P-3-1",           671,       69.5231,       190.371,            0.,NA,NA,"",   4.41106E+06,   4.15883E+06,   4.15883E+06
C:/temp/Job-3.odb,Step-1,Increment      1: Step Time =    1.000,"P-3-1",           672,       110.026,       190.568,            0.,NA,NA,"",   2.00173E+06,   1.96894E+06,   1.96894E+06
C:/temp/Job-3.odb,Step-1,Increment      1: Step Time =    1.000,"P-3-1",           673,       130.334,       189.773,            0.,NA,NA,"",   1.12289E+06,   1.09451E+06,   1.09451E+06
C:/temp/Job-3.odb,Step-1,Increment      1: Step Time =    1.000,"P-3-1",           674,       139.981,       189.796,            0.,NA,NA,"",   1.11005E+06,   792.747E+03,   792.747E+03
C:/temp/Job-3.odb,Step-1,Increment      1: Step Time =    1.000,"P-3-1",           675,       9.81704,       89.1991,            0.,NA,NA,"",   517.753E+03,  -585.277E+03,  -585.277E+03
C:/temp/Job-3.odb,Step-1,Increment      1: Step Time =    1.000,"P-3-1",           676,       9.24735,       119.795,            0.,NA,NA,"",   710.690E+03,  -764.477E+03,  -764.477E+03
C:/temp/Job-3.odb,Step-1,Increment      1: Step Time =    1.000,"P-3-1",           677,       132.212,       176.293,            0.,NA,NA,"",   5.68220E+06,   5.91354E+06,   5.91354E+06
C:/temp/Job-3.odb,Step-1,Increment      1: Step Time =    1.000,"P-3-1",           678,       67.3393,       176.127,            0.,NA,NA,"",   2.91884E+06,   2.39336E+06,   2.39336E+06
C:/temp/Job-3.odb,Step-1,Increment      1: Step Time =    1.000,"P-3-1",           679,       29.2007,       143.037,            0.,NA,NA,"",   1.75482E+06,  -1.77868E+06,  -1.77868E+06
C:/temp/Job-3.odb,Step-1,Increment      1: Step Time =    1.000,"P-3-1",           680,       70.2330,       22.5843,            0.,NA,NA,"",   3.28316E+06,   2.81193E+06,   2.81193E+06
C:/temp/Job-3.odb,Step-1,Increment      1: Step Time =    1.000,"P-3-1",           681,       165.577,       47.9917,            0.,NA,NA,"",   2.81055E+06,   2.64990E+06,   2.64990E+06
C:/temp/Job-3.odb,Step-1,Increment      1: Step Time =    1.000,"P-3-1",           682,       34.3360,       48.7761,            0.,NA,NA,"",   1.69773E+06,  -1.73848E+06,  -1.73848E+06
C:/temp/Job-3.odb,Step-1,Increment      1: Step Time =    1.000,"P-3-1",           683,       179.313,       119.099,            0.,NA,NA,"",   2.75347E+06,  -2.40203E+06,  -2.40203E+06
C:/temp/Job-3.odb,Step-1,Increment      1: Step Time =    1.000,"P-3-1",           684,       103.706,       16.9304,            0.,NA,NA,"",   5.71465E+06,   5.81842E+06,   5.81842E+06
C:/temp/Job-3.odb,Step-1,Increment      1: Step Time =    1.000,"P-3-1",           685,       26.2899,       64.2944,            0.,NA,NA,"",   1.58552E+06,  -1.60947E+06,  -1.60947E+06
C:/temp/Job-3.odb,Step-1,Increment      1: Step Time =    1.000,"P-3-1",           686,       174.905,       63.1853,            0.,NA,NA,"",   2.44406E+06,   1.04028E+06,   1.04028E+06
C:/temp/Job-3.odb,Step-1,Increment      1: Step Time =    1.000,"P-3-1",           687,       131.458,       22.9927,            0.,NA,NA,"",   5.60906E+06,   5.82873E+06,   5.82873E+06
C:/temp/Job-3.odb,Step-1,Increment      1: Step Time =    1.000,"P-3-1",           688,       152.241,       166.885,            0.,NA,NA,"",   3.87721E+06,   3.96746E+06,   3.96746E+06
C:/temp/Job-3.odb,Step-1,Increment      1: Step Time =    1.000,"P-3-1",           689,       161.814,       44.2211,            0.,NA,NA,"",   3.09376E+06,   3.03551E+06,   3.03551E+06
C:/temp/Job-3.odb,Step-1,Increment      1: Step Time =    1.000,"P-3-1",           690,       38.1594,       44.5220,            0.,NA,NA,"",   1.68511E+06,  -1.71529E+06,  -1.71529E+06
C:/temp/Job-3.odb,Step-1,Increment      1: Step Time =    1.000,"P-3-1",           691,       164.303,       154.081,            0.,NA,NA,"",   2.92672E+06,   2.81244E+06,   2.81244E+06
C:/temp/Job-3.odb,Step-1,Increment      1: Step Time =    1.000,"P-3-1",           692,       48.4958,       166.330,            0.,NA,NA,"",   1.63758E+06,  -785.709E+03,  -785.709E+03
C:/temp/Job-3.odb,Step-1,Increment      1: Step Time =    1.000,"P-3-1",           693,       32.6665,       151.916,            0.,NA,NA,"",   1.43046E+06,  -1.45374E+06,  -1.45374E+06
C:/temp/Job-3.odb,Step-1,Increment      1: Step Time =    1.000,"P-3-1",           694,       92.6273,       15.0248,            0.,NA,NA,"",   4.86177E+06,   4.70498E+06,   4.70498E+06
C:/temp/Job-3.odb,Step-1,Increment      1: Step Time =    1.000,"P-3-1",           695,       108.277,       17.6649,            0.,NA,NA,"",   6.04515E+06,   6.22445E+06,   6.22445E+06
C:/temp/Job-3.odb,Step-1,Increment      1: Step Time =    1.000,"P-3-1",           696,       99.2127,       15.0543,            0.,NA,NA,"",   4.88299E+06,   4.86051E+06,   4.86051E+06
C:/temp/Job-3.odb,Step-1,Increment      1: Step Time =    1.000,"P-3-1",           697,       141.469,       170.951,            0.,NA,NA,"",   5.28941E+06,   5.46247E+06,   5.46247E+06
C:/temp/Job-3.odb,Step-1,Increment      1: Step Time =    1.000,"P-3-1",           698,       24.1223,       68.8345,            0.,NA,NA,"",   1.38913E+06,  -1.41378E+06,  -1.41378E+06
C:/temp/Job-3.odb,Step-1,Increment      1: Step Time =    1.000,"P-3-1",           699,       177.492,       68.3226,            0.,NA,NA,"",   2.50461E+06,   455.551E+03,   455.551E+03
C:/temp/Job-3.odb,Step-1,Increment      1: Step Time =    1.000,"P-3-1",           700,       18.6156,       79.9767,            0.,NA,NA,"",   895.905E+03,  -941.723E+03,  -941.723E+03
C:/temp/Job-3.odb,Step-1,Increment      1: Step Time =    1.000,"P-3-1",           701,       179.739,       78.2825,            0.,NA,NA,"",   2.56723E+06,  -1.25369E+06,  -1.25369E+06
C:/temp/Job-3.odb,Step-1,Increment      1: Step Time =    1.000,"P-3-1",           702,       60.6031,       12.9960,            0.,NA,NA,"",   4.27026E+06,   3.99095E+06,   3.99095E+06
C:/temp/Job-3.odb,Step-1,Increment      1: Step Time =    1.000,"P-3-1",           703,       14.0402,       59.1703,            0.,NA,NA,"",   955.176E+03,  -909.061E+03,  -909.061E+03
C:/temp/Job-3.odb,Step-1,Increment      1: Step Time =    1.000,"P-3-1",           704,       186.465,       62.5087,            0.,NA,NA,"",   2.83153E+06,   2.54745E+06,   2.54745E+06
C:/temp/Job-3.odb,Step-1,Increment      1: Step Time =    1.000,"P-3-1",           705,       59.3619,       186.452,            0.,NA,NA,"",   4.21725E+06,   3.93228E+06,   3.93228E+06
C:/temp/Job-3.odb,Step-1,Increment      1: Step Time =    1.000,"P-3-1",           706,       15.0272,       140.826,            0.,NA,NA,"",   989.015E+03,  -939.366E+03,  -939.366E+03
C:/temp/Job-3.odb,Step-1,Increment      1: Step Time =    1.000,"P-3-1",           707,       139.211,       12.6275,            0.,NA,NA,"",   1.48333E+06,   1.48498E+06,   1.48498E+06
C:/temp/Job-3.odb,Step-1,Increment      1: Step Time =    1.000,"P-3-1",           708,       185.553,       139.790,            0.,NA,NA,"",   2.78648E+06,   2.47416E+06,   2.47416E+06
C:/temp/Job-3.odb,Step-1,Increment      1: Step Time =    1.000,"P-3-1",           709,       140.292,       185.013,            0.,NA,NA,"",   2.05372E+06,   2.10189E+06,   2.10189E+06
C:/temp/Job-3.odb,Step-1,Increment      1: Step Time =    1.000,"P-3-1",           710,       174.850,       138.963,            0.,NA,NA,"",   2.55592E+06,   1.85799E+06,   1.85799E+06
C:/temp/Job-3.odb,Step-1,Increment      1: Step Time =    1.000,"P-3-1",           711,       25.3303,       133.948,            0.,NA,NA,"",   1.50926E+06,  -1.53169E+06,  -1.53169E+06
C:/temp/Job-3.odb,Step-1,Increment      1: Step Time =    1.000,"P-3-1",           712,       112.485,       181.919,            0.,NA,NA,"",   5.87316E+06,   6.08279E+06,   6.08279E+06
C:/temp/Job-3.odb,Step-1,Increment      1: Step Time =    1.000,"P-3-1",           713,       179.022,       61.1500,            0.,NA,NA,"",   2.85120E+06,   2.20050E+06,   2.20050E+06
C:/temp/Job-3.odb,Step-1,Increment      1: Step Time =    1.000,"P-3-1",           714,       27.4065,       138.517,            0.,NA,NA,"",   1.66990E+06,  -1.68943E+06,  -1.68943E+06
C:/temp/Job-3.odb,Step-1,Increment      1: Step Time =    1.000,"P-3-1",           715,       101.381,       12.3802,            0.,NA,NA,"",   3.84157E+06,   3.74996E+06,   3.74996E+06
C:/temp/Job-3.odb,Step-1,Increment      1: Step Time =    1.000,"P-3-1",           716,       131.544,       17.1351,            0.,NA,NA,"",   3.26660E+06,   3.44553E+06,   3.44553E+06
C:/temp/Job-3.odb,Step-1,Increment      1: Step Time =    1.000,"P-3-1",           717,       67.7538,       18.5537,            0.,NA,NA,"",   3.87052E+06,   3.39236E+06,   3.39236E+06
C:/temp/Job-3.odb,Step-1,Increment      1: Step Time =    1.000,"P-3-1",           718,       66.7317,       24.0522,            0.,NA,NA,"",   2.88099E+06,   2.35347E+06,   2.35347E+06
C:/temp/Job-3.odb,Step-1,Increment      1: Step Time =    1.000,"P-3-1",           719,       135.908,       25.1645,            0.,NA,NA,"",   5.49048E+06,   5.68662E+06,   5.68662E+06
C:/temp/Job-3.odb,Step-1,Increment      1: Step Time =    1.000,"P-3-1",           720,       114.154,       185.994,            0.,NA,NA,"",   3.52745E+06,   3.67752E+06,   3.67752E+06
C:/temp/Job-3.odb,Step-1,Increment      1: Step Time =    1.000,"P-3-1",           721,       82.7246,       183.330,            0.,NA,NA,"",   4.64098E+06,   4.33746E+06,   4.33746E+06
C:/temp/Job-3.odb,Step-1,Increment      1: Step Time =    1.000,"P-3-1",           722,       130.614,       13.2527,            0.,NA,NA,"",   2.00665E+06,   2.13381E+06,   2.13381E+06
C:/temp/Job-3.odb,Step-1,Increment      1: Step Time =    1.000,"P-3-1",           723,       14.1976,       68.8091,            0.,NA,NA,"",   1.00600E+06,  -1.01831E+06,  -1.01831E+06
C:/temp/Job-3.odb,Step-1,Increment      1: Step Time =    1.000,"P-3-1",           724,       13.8067,       128.965,            0.,NA,NA,"",   951.149E+03,  -972.153E+03,  -972.153E+03
C:/temp/Job-3.odb,Step-1,Increment      1: Step Time =    1.000,"P-3-1",           725,       186.173,       130.693,            0.,NA,NA,"",   2.88881E+06,   2.57284E+06,   2.57284E+06
C:/temp/Job-3.odb,Step-1,Increment      1: Step Time =    1.000,"P-3-1",           726,       130.850,       185.036,            0.,NA,NA,"",   2.61451E+06,   2.76869E+06,   2.76869E+06
C:/temp/Job-3.odb,Step-1,Increment      1: Step Time =    1.000,"P-3-1",           727,       69.3165,       185.804,            0.,NA,NA,"",   4.29423E+06,   3.89597E+06,   3.89597E+06
C:/temp/Job-3.odb,Step-1,Increment      1: Step Time =    1.000,"P-3-1",           728,       185.781,       70.2034,            0.,NA,NA,"",   2.89362E+06,   2.48743E+06,   2.48743E+06
C:/temp/Job-3.odb,Step-1,Increment      1: Step Time =    1.000,"P-3-1",           729,       172.245,       46.2551,            0.,NA,NA,"",   2.77651E+06,   2.48846E+06,   2.48846E+06
C:/temp/Job-3.odb,Step-1,Increment      1: Step Time =    1.000,"P-3-1",           730,       140.380,       27.0455,            0.,NA,NA,"",   5.07385E+06,   5.25033E+06,   5.25033E+06
C:/temp/Job-3.odb,Step-1,Increment      1: Step Time =    1.000,"P-3-1",           731,       18.0641,       92.2730,            0.,NA,NA,"",   644.933E+03,  -694.727E+03,  -694.727E+03
C:/temp/Job-3.odb,Step-1,Increment      1: Step Time =    1.000,"P-3-1",           732,       34.8404,       41.3899,            0.,NA,NA,"",   1.03868E+06,  -990.886E+03,  -990.886E+03
C:/temp/Job-3.odb,Step-1,Increment      1: Step Time =    1.000,"P-3-1",           733,       164.906,       40.9062,            0.,NA,NA,"",   2.96640E+06,   2.84773E+06,   2.84773E+06
C:/temp/Job-3.odb,Step-1,Increment      1: Step Time =    1.000,"P-3-1",           734,       19.0993,       101.995,            0.,NA,NA,"",   624.068E+03,  -666.553E+03,  -666.553E+03
C:/temp/Job-3.odb,Step-1,Increment      1: Step Time =    1.000,"P-3-1",           735,       184.529,       91.5663,            0.,NA,NA,"",   1.67966E+06,  -15.8662E+03,  -15.8662E+03
C:/temp/Job-3.odb,Step-1,Increment      1: Step Time =    1.000,"P-3-1",           736,       18.1806,       109.429,            0.,NA,NA,"",   658.161E+03,  -709.541E+03,  -709.541E+03
C:/temp/Job-3.odb,Step-1,Increment      1: Step Time =    1.000,"P-3-1",           737,       152.640,       34.8140,            0.,NA,NA,"",   3.90753E+06,   4.00337E+06,   4.00337E+06
C:/temp/Job-3.odb,Step-1,Increment      1: Step Time =    1.000,"P-3-1",           738,       162.439,       37.0100,            0.,NA,NA,"",   3.02909E+06,   2.97628E+06,   2.97628E+06
C:/temp/Job-3.odb,Step-1,Increment      1: Step Time =    1.000,"P-3-1",           739,       38.5129,       36.4578,            0.,NA,NA,"",   1.12696E+06,  -280.615E+03,  -280.615E+03
C:/temp/Job-3.odb,Step-1,Increment      1: Step Time =    1.000,"P-3-1",           740,       13.9551,       79.0899,            0.,NA,NA,"",   804.863E+03,  -856.152E+03,  -856.152E+03
C:/temp/Job-3.odb,Step-1,Increment      1: Step Time =    1.000,"P-3-1",           741,       121.544,       14.9798,            0.,NA,NA,"",   3.49639E+06,   3.71225E+06,   3.71225E+06
C:/temp/Job-3.odb,Step-1,Increment      1: Step Time =    1.000,"P-3-1",           742,       82.3333,       14.1433,            0.,NA,NA,"",   4.60660E+06,   4.23032E+06,   4.23032E+06
C:/temp/Job-3.odb,Step-1,Increment      1: Step Time =    1.000,"P-3-1",           743,       12.9955,       119.927,            0.,NA,NA,"",   753.473E+03,  -808.727E+03,  -808.727E+03
C:/temp/Job-3.odb,Step-1,Increment      1: Step Time =    1.000,"P-3-1",           744,       185.615,       81.1657,            0.,NA,NA,"",   2.48910E+06,   1.98648E+06,   1.98648E+06
C:/temp/Job-3.odb,Step-1,Increment      1: Step Time =    1.000,"P-3-1",           745,       183.871,       118.108,            0.,NA,NA,"",   2.34745E+06,   66.2793E+03,   66.2793E+03
C:/temp/Job-3.odb,Step-1,Increment      1: Step Time =    1.000,"P-3-1",           746,       78.8528,       186.213,            0.,NA,NA,"",   4.47154E+06,   4.08016E+06,   4.08016E+06
C:/temp/Job-3.odb,Step-1,Increment      1: Step Time =    1.000,"P-3-1",           747,       119.109,       185.170,            0.,NA,NA,"",   3.55318E+06,   3.75335E+06,   3.75335E+06
C:/temp/Job-3.odb,Step-1,Increment      1: Step Time =    1.000,"P-3-1",           748,       23.4690,       80.6986,            0.,NA,NA,"",   1.01394E+06,  -1.04491E+06,  -1.04491E+06
C:/temp/Job-3.odb,Step-1,Increment      1: Step Time =    1.000,"P-3-1",           749,       24.3173,       144.820,            0.,NA,NA,"",   1.28219E+06,  -1.26252E+06,  -1.26252E+06
C:/temp/Job-3.odb,Step-1,Increment      1: Step Time =    1.000,"P-3-1",           750,       36.1895,       157.647,            0.,NA,NA,"",   1.23885E+06,  -1.22078E+06,  -1.22078E+06
C:/temp/Job-3.odb,Step-1,Increment      1: Step Time =    1.000,"P-3-1",           751,       88.6141,       17.1886,            0.,NA,NA,"",   5.20037E+06,   5.01717E+06,   5.01717E+06
C:/temp/Job-3.odb,Step-1,Increment      1: Step Time =    1.000,"P-3-1",           752,       181.820,       69.3233,            0.,NA,NA,"",   2.79460E+06,   1.99043E+06,   1.99043E+06
C:/temp/Job-3.odb,Step-1,Increment      1: Step Time =    1.000,"P-3-1",           753,       14.5547,       73.8550,            0.,NA,NA,"",   927.295E+03,  -962.605E+03,  -962.605E+03
C:/temp/Job-3.odb,Step-1,Increment      1: Step Time =    1.000,"P-3-1",           754,       184.581,       75.7326,            0.,NA,NA,"",   2.67346E+06,   1.50129E+06,   1.50129E+06
C:/temp/Job-3.odb,Step-1,Increment      1: Step Time =    1.000,"P-3-1",           755,       13.3489,       89.7587,            0.,NA,NA,"",   566.022E+03,  -632.652E+03,  -632.652E+03
C:/temp/Job-3.odb,Step-1,Increment      1: Step Time =    1.000,"P-3-1",           756,       15.1637,       104.096,            0.,NA,NA,"",   542.156E+03,  -603.555E+03,  -603.555E+03
C:/temp/Job-3.odb,Step-1,Increment      1: Step Time =    1.000,"P-3-1",           757,       108.737,       13.4761,            0.,NA,NA,"",   3.79927E+06,   3.90028E+06,   3.90028E+06
C:/temp/Job-3.odb,Step-1,Increment      1: Step Time =    1.000,"P-3-1",           758,       131.551,       180.796,            0.,NA,NA,"",   4.17809E+06,   4.39305E+06,   4.39305E+06
C:/temp/Job-3.odb,Step-1,Increment      1: Step Time =    1.000,"P-3-1",           759,       18.4544,       68.1236,            0.,NA,NA,"",   1.15746E+06,  -1.16961E+06,  -1.16961E+06
C:/temp/Job-3.odb,Step-1,Increment      1: Step Time =    1.000,"P-3-1",           760,       156.541,       162.039,            0.,NA,NA,"",   3.57589E+06,   3.62272E+06,   3.62272E+06
C:/temp/Job-3.odb,Step-1,Increment      1: Step Time =    1.000,"P-3-1",           761,       184.248,       101.423,            0.,NA,NA,"",   1.76958E+06,  -644.626E+03,  -644.626E+03
C:/temp/Job-3.odb,Step-1,Increment      1: Step Time =    1.000,"P-3-1",           762,       100.275,       189.263,            0.,NA,NA,"",   3.27881E+06,   3.13773E+06,   3.13773E+06
C:/temp/Job-3.odb,Step-1,Increment      1: Step Time =    1.000,"P-3-1",           763,       112.899,       17.6818,            0.,NA,NA,"",   5.61542E+06,   5.81958E+06,   5.81958E+06
C:/temp/Job-3.odb,Step-1,Increment      1: Step Time =    1.000,"P-3-1",           764,       22.4941,       63.3228,            0.,NA,NA,"",   1.35167E+06,  -1.35805E+06,  -1.35805E+06
C:/temp/Job-3.odb,Step-1,Increment      1: Step Time =    1.000,"P-3-1",           765,       182.419,       114.500,            0.,NA,NA,"",   2.24687E+06,  -1.12786E+06,  -1.12786E+06
C:/temp/Job-3.odb,Step-1,Increment      1: Step Time =    1.000,"P-3-1",           766,       45.6831,       170.621,            0.,NA,NA,"",   1.77567E+06,    805.69E+03,    805.69E+03
C:/temp/Job-3.odb,Step-1,Increment      1: Step Time =    1.000,"P-3-1",           767,       151.552,       173.014,            0.,NA,NA,"",   3.37110E+06,   3.44298E+06,   3.44298E+06
C:/temp/Job-3.odb,Step-1,Increment      1: Step Time =    1.000,"P-3-1",           768,       57.6397,       171.949,            0.,NA,NA,"",   2.08561E+06,   312.312E+03,   312.312E+03
C:/temp/Job-3.odb,Step-1,Increment      1: Step Time =    1.000,"P-3-1",           769,       167.696,       34.4391,            0.,NA,NA,"",   2.62608E+06,   2.51779E+06,   2.51779E+06
C:/temp/Job-3.odb,Step-1,Increment      1: Step Time =    1.000,"P-3-1",           770,       33.6263,       34.9193,            0.,NA,NA,"",   954.488E+03,   422.116E+03,   422.116E+03
C:/temp/Job-3.odb,Step-1,Increment      1: Step Time =    1.000,"P-3-1",           771,       153.845,       31.2144,            0.,NA,NA,"",   3.54089E+06,   3.61644E+06,   3.61644E+06
C:/temp/Job-3.odb,Step-1,Increment      1: Step Time =    1.000,"P-3-1",           772,       38.0510,       164.385,            0.,NA,NA,"",   1.06002E+06,  -113.777E+03,  -113.777E+03
C:/temp/Job-3.odb,Step-1,Increment      1: Step Time =    1.000,"P-3-1",           773,       15.5987,       115.664,            0.,NA,NA,"",   714.598E+03,  -771.998E+03,  -771.998E+03
C:/temp/Job-3.odb,Step-1,Increment      1: Step Time =    1.000,"P-3-1",           774,       117.181,       16.4922,            0.,NA,NA,"",   4.61642E+06,   4.83654E+06,   4.83654E+06
C:/temp/Job-3.odb,Step-1,Increment      1: Step Time =    1.000,"P-3-1",           775,       84.0966,       18.5049,            0.,NA,NA,"",   4.94107E+06,   4.69027E+06,   4.69027E+06
C:/temp/Job-3.odb,Step-1,Increment      1: Step Time =    1.000,"P-3-1",           776,       61.3290,       24.8666,            0.,NA,NA,"",    2.5835E+06,   1.96133E+06,   1.96133E+06
C:/temp/Job-3.odb,Step-1,Increment      1: Step Time =    1.000,"P-3-1",           777,       64.0731,       15.2075,            0.,NA,NA,"",   4.11832E+06,   3.73027E+06,   3.73027E+06
C:/temp/Job-3.odb,Step-1,Increment      1: Step Time =    1.000,"P-3-1",           778,       13.9906,       63.8664,            0.,NA,NA,"",   1.01423E+06,  -998.512E+03,  -998.512E+03
C:/temp/Job-3.odb,Step-1,Increment      1: Step Time =    1.000,"P-3-1",           779,       186.046,       65.8739,            0.,NA,NA,"",   2.89133E+06,   2.55164E+06,   2.55164E+06
C:/temp/Job-3.odb,Step-1,Increment      1: Step Time =    1.000,"P-3-1",           780,       63.9013,       185.161,            0.,NA,NA,"",   4.12704E+06,   3.75655E+06,   3.75655E+06
C:/temp/Job-3.odb,Step-1,Increment      1: Step Time =    1.000,"P-3-1",           781,       135.013,       16.4258,            0.,NA,NA,"",   2.67095E+06,   2.80838E+06,   2.80838E+06
C:/temp/Job-3.odb,Step-1,Increment      1: Step Time =    1.000,"P-3-1",           782,       14.8375,       134.094,            0.,NA,NA,"",   1.03569E+06,  -1.02811E+06,  -1.02811E+06
C:/temp/Job-3.odb,Step-1,Increment      1: Step Time =    1.000,"P-3-1",           783,       185.852,       135.185,            0.,NA,NA,"",   2.88466E+06,   2.55624E+06,   2.55624E+06
C:/temp/Job-3.odb,Step-1,Increment      1: Step Time =    1.000,"P-3-1",           784,       135.689,       184.958,            0.,NA,NA,"",   2.27629E+06,   2.38409E+06,   2.38409E+06
C:/temp/Job-3.odb,Step-1,Increment      1: Step Time =    1.000,"P-3-1",           785,       171.760,       132.218,            0.,NA,NA,"",   1.85038E+06,  -747.255E+03,  -747.255E+03
C:/temp/Job-3.odb,Step-1,Increment      1: Step Time =    1.000,"P-3-1",           786,       72.3248,       15.5042,            0.,NA,NA,"",   4.32312E+06,   3.89518E+06,   3.89518E+06
C:/temp/Job-3.odb,Step-1,Increment      1: Step Time =    1.000,"P-3-1",           787,       126.148,       14.2565,            0.,NA,NA,"",   2.61846E+06,   2.78609E+06,   2.78609E+06
C:/temp/Job-3.odb,Step-1,Increment      1: Step Time =    1.000,"P-3-1",           788,       89.1470,       183.630,            0.,NA,NA,"",   4.98805E+06,   4.80707E+06,   4.80707E+06
C:/temp/Job-3.odb,Step-1,Increment      1: Step Time =    1.000,"P-3-1",           789,       14.4560,       124.087,            0.,NA,NA,"",   873.378E+03,  -914.716E+03,  -914.716E+03
C:/temp/Job-3.odb,Step-1,Increment      1: Step Time =    1.000,"P-3-1",           790,       186.099,       126.305,            0.,NA,NA,"",   2.78614E+06,   2.41438E+06,   2.41438E+06
C:/temp/Job-3.odb,Step-1,Increment      1: Step Time =    1.000,"P-3-1",           791,       125.011,       184.041,            0.,NA,NA,"",   3.56831E+06,   3.77186E+06,   3.77186E+06
C:/temp/Job-3.odb,Step-1,Increment      1: Step Time =    1.000,"P-3-1",           792,       74.2355,       184.891,            0.,NA,NA,"",   4.36304E+06,   3.94607E+06,   3.94607E+06
C:/temp/Job-3.odb,Step-1,Increment      1: Step Time =    1.000,"P-3-1",           793,       23.8653,       54.2302,            0.,NA,NA,"",   1.20280E+06,  -1.17684E+06,  -1.17684E+06
C:/temp/Job-3.odb,Step-1,Increment      1: Step Time =    1.000,"P-3-1",           794,       176.260,       51.6516,            0.,NA,NA,"",   2.78338E+06,   2.35859E+06,   2.35859E+06
C:/temp/Job-3.odb,Step-1,Increment      1: Step Time =    1.000,"P-3-1",           795,       19.2683,       131.742,            0.,NA,NA,"",   1.17838E+06,  -1.19025E+06,  -1.19025E+06
C:/temp/Job-3.odb,Step-1,Increment      1: Step Time =    1.000,"P-3-1",           796,       26.9535,       149.350,            0.,NA,NA,"",   1.18043E+06,  -1.16909E+06,  -1.16909E+06
C:/temp/Job-3.odb,Step-1,Increment      1: Step Time =    1.000,"P-3-1",           797,       160.501,       165.160,            0.,NA,NA,"",   3.12031E+06,   3.10371E+06,   3.10371E+06
C:/temp/Job-3.odb,Step-1,Increment      1: Step Time =    1.000,"P-3-1",           798,       13.8969,       93.6646,            0.,NA,NA,"",   532.627E+03,  -597.511E+03,  -597.511E+03
C:/temp/Job-3.odb,Step-1,Increment      1: Step Time =    1.000,"P-3-1",           799,       106.842,       184.111,            0.,NA,NA,"",   5.00005E+06,   5.12160E+06,   5.12160E+06
C:/temp/Job-3.odb,Step-1,Increment      1: Step Time =    1.000,"P-3-1",           800,       18.6402,       58.9179,            0.,NA,NA,"",   1.10747E+06,  -1.07115E+06,  -1.07115E+06
C:/temp/Job-3.odb,Step-1,Increment      1: Step Time =    1.000,"P-3-1",           801,       183.598,       60.1078,            0.,NA,NA,"",   2.85556E+06,   2.44428E+06,   2.44428E+06
C:/temp/Job-3.odb,Step-1,Increment      1: Step Time =    1.000,"P-3-1",           802,       94.8679,       183.871,            0.,NA,NA,"",   5.18846E+06,   5.12284E+06,   5.12284E+06
C:/temp/Job-3.odb,Step-1,Increment      1: Step Time =    1.000,"P-3-1",           803,       50.2029,       174.905,            0.,NA,NA,"",   2.44415E+06,   1.93921E+06,   1.93921E+06
C:/temp/Job-3.odb,Step-1,Increment      1: Step Time =    1.000,"P-3-1",           804,       147.021,       173.224,            0.,NA,NA,"",   3.87022E+06,   3.98898E+06,   3.98898E+06
C:/temp/Job-3.odb,Step-1,Increment      1: Step Time =    1.000,"P-3-1",           805,       18.7331,       120.531,            0.,NA,NA,"",   909.590E+03,  -952.327E+03,  -952.327E+03
C:/temp/Job-3.odb,Step-1,Increment      1: Step Time =    1.000,"P-3-1",           806,       187.228,       89.0380,            0.,NA,NA,"",   2.03697E+06,   1.92943E+06,   1.92943E+06
C:/temp/Job-3.odb,Step-1,Increment      1: Step Time =    1.000,"P-3-1",           807,       14.2723,       98.5214,            0.,NA,NA,"",   515.605E+03,  -578.491E+03,  -578.491E+03
C:/temp/Job-3.odb,Step-1,Increment      1: Step Time =    1.000,"P-3-1",           808,       23.6822,       140.078,            0.,NA,NA,"",   1.40197E+06,  -1.39350E+06,  -1.39350E+06
C:/temp/Job-3.odb,Step-1,Increment      1: Step Time =    1.000,"P-3-1",           809,       122.556,       18.9343,            0.,NA,NA,"",   5.21773E+06,   5.47839E+06,   5.47839E+06
C:/temp/Job-3.odb,Step-1,Increment      1: Step Time =    1.000,"P-3-1",           810,       150.658,       26.2639,            0.,NA,NA,"",   3.38624E+06,   3.46640E+06,   3.46640E+06
C:/temp/Job-3.odb,Step-1,Increment      1: Step Time =    1.000,"P-3-1",           811,       44.4124,       163.026,            0.,NA,NA,"",   1.52737E+06,  -1.39307E+06,  -1.39307E+06
C:/temp/Job-3.odb,Step-1,Increment      1: Step Time =    1.000,"P-3-1",           812,       110.358,       186.985,            0.,NA,NA,"",   3.43190E+06,   3.53065E+06,   3.53065E+06
C:/temp/Job-3.odb,Step-1,Increment      1: Step Time =    1.000,"P-3-1",           813,       79.3093,       19.6476,            0.,NA,NA,"",   4.40316E+06,   4.08263E+06,   4.08263E+06
C:/temp/Job-3.odb,Step-1,Increment      1: Step Time =    1.000,"P-3-1",           814,       112.211,       14.0808,            0.,NA,NA,"",   3.80001E+06,   3.95845E+06,   3.95845E+06
C:/temp/Job-3.odb,Step-1,Increment      1: Step Time =    1.000,"P-3-1",           815,       57.7394,       21.7376,            0.,NA,NA,"",   3.05037E+06,   2.53120E+06,   2.53120E+06
C:/temp/Job-3.odb,Step-1,Increment      1: Step Time =    1.000,"P-3-1",           816,       59.6526,       182.661,            0.,NA,NA,"",   3.75658E+06,   3.34760E+06,   3.34760E+06
C:/temp/Job-3.odb,Step-1,Increment      1: Step Time =    1.000,"P-3-1",           817,       142.696,       17.1302,            0.,NA,NA,"",   2.45044E+06,   2.51168E+06,   2.51168E+06
C:/temp/Job-3.odb,Step-1,Increment      1: Step Time =    1.000,"P-3-1",           818,       180.224,       139.596,            0.,NA,NA,"",   2.87038E+06,   2.28322E+06,   2.28322E+06
C:/temp/Job-3.odb,Step-1,Increment      1: Step Time =    1.000,"P-3-1",           819,       89.4833,       178.459,            0.,NA,NA,"",   5.86252E+06,   5.83820E+06,   5.83820E+06
C:/temp/Job-3.odb,Step-1,Increment      1: Step Time =    1.000,"P-3-1",           820,       181.721,       130.363,            0.,NA,NA,"",   2.77958E+06,   2.01350E+06,   2.01350E+06
C:/temp/Job-3.odb,Step-1,Increment      1: Step Time =    1.000,"P-3-1",           821,       24.9896,       45.0925,            0.,NA,NA,"",   683.910E+03,  -604.152E+03,  -604.152E+03
C:/temp/Job-3.odb,Step-1,Increment      1: Step Time =    1.000,"P-3-1",           822,       23.3676,       58.8606,            0.,NA,NA,"",   1.33795E+06,  -1.33032E+06,  -1.33032E+06
C:/temp/Job-3.odb,Step-1,Increment      1: Step Time =    1.000,"P-3-1",           823,       176.528,       47.0750,            0.,NA,NA,"",   2.68354E+06,   2.35391E+06,   2.35391E+06
C:/temp/Job-3.odb,Step-1,Increment      1: Step Time =    1.000,"P-3-1",           824,       29.0620,       152.248,            0.,NA,NA,"",   1.10027E+06,  -1.09125E+06,  -1.09125E+06
C:/temp/Job-3.odb,Step-1,Increment      1: Step Time =    1.000,"P-3-1",           825,       46.1621,       176.715,            0.,NA,NA,"",   2.66059E+06,   2.32346E+06,   2.32346E+06
C:/temp/Job-3.odb,Step-1,Increment      1: Step Time =    1.000,"P-3-1",           826,       150.584,       178.047,            0.,NA,NA,"",   2.78928E+06,   2.82038E+06,   2.82038E+06
C:/temp/Job-3.odb,Step-1,Increment      1: Step Time =    1.000,"P-3-1",           827,       177.656,       128.937,            0.,NA,NA,"",   2.50132E+06,  -54.7112E+03,  -54.7112E+03
C:/temp/Job-3.odb,Step-1,Increment      1: Step Time =    1.000,"P-3-1",           828,       14.1829,       54.5947,            0.,NA,NA,"",   834.551E+03,  -755.322E+03,  -755.322E+03
C:/temp/Job-3.odb,Step-1,Increment      1: Step Time =    1.000,"P-3-1",           829,       100.543,       184.025,            0.,NA,NA,"",   5.22987E+06,   5.26182E+06,   5.26182E+06
C:/temp/Job-3.odb,Step-1,Increment      1: Step Time =    1.000,"P-3-1",           830,       165.015,       29.7684,            0.,NA,NA,"",   2.53178E+06,   2.46662E+06,   2.46662E+06
C:/temp/Job-3.odb,Step-1,Increment      1: Step Time =    1.000,"P-3-1",           831,       147.409,       13.2011,            0.,NA,NA,"",   1.54452E+06,   1.47940E+06,   1.47940E+06
C:/temp/Job-3.odb,Step-1,Increment      1: Step Time =    1.000,"P-3-1",           832,       55.0066,       186.429,            0.,NA,NA,"",   4.19176E+06,   3.96882E+06,   3.96882E+06
C:/temp/Job-3.odb,Step-1,Increment      1: Step Time =    1.000,"P-3-1",           833,       9.41064,       59.4451,            0.,NA,NA,"",   827.489E+03,  -793.340E+03,  -793.340E+03
C:/temp/Job-3.odb,Step-1,Increment      1: Step Time =    1.000,"P-3-1",           834,       100.308,       178.988,            0.,NA,NA,"",   7.61733E+06,   7.71481E+06,   7.71481E+06
C:/temp/Job-3.odb,Step-1,Increment      1: Step Time =    1.000,"P-3-1",           835,       137.878,       21.0809,            0.,NA,NA,"",   3.92243E+06,   4.08813E+06,   4.08813E+06
C:/temp/Job-3.odb,Step-1,Increment      1: Step Time =    1.000,"P-3-1",           836,       168.308,       44.0892,            0.,NA,NA,"",   2.86869E+06,   2.66501E+06,   2.66501E+06
C:/temp/Job-3.odb,Step-1,Increment      1: Step Time =    1.000,"P-3-1",           837,       154.577,       27.1998,            0.,NA,NA,"",   3.07593E+06,   3.11551E+06,   3.11551E+06
C:/temp/Job-3.odb,Step-1,Increment      1: Step Time =    1.000,"P-3-1",           838,       146.774,       24.9028,            0.,NA,NA,"",   3.60973E+06,   3.72062E+06,   3.72062E+06
C:/temp/Job-3.odb,Step-1,Increment      1: Step Time =    1.000,"P-3-1",           839,       54.8117,       25.0324,            0.,NA,NA,"",   2.49140E+06,   1.90013E+06,   1.90013E+06
C:/temp/Job-3.odb,Step-1,Increment      1: Step Time =    1.000,"P-3-1",           840,       185.504,       144.287,            0.,NA,NA,"",   2.61062E+06,   2.34240E+06,   2.34240E+06
C:/temp/Job-3.odb,Step-1,Increment      1: Step Time =    1.000,"P-3-1",           841,       23.3278,       50.2344,            0.,NA,NA,"",   961.758E+03,  -912.377E+03,  -912.377E+03
C:/temp/Job-3.odb,Step-1,Increment      1: Step Time =    1.000,"P-3-1",           842,       155.946,       173.994,            0.,NA,NA,"",   2.85949E+06,   2.86972E+06,   2.86972E+06
C:/temp/Job-3.odb,Step-1,Increment      1: Step Time =    1.000,"P-3-1",           843,       27.6514,       155.513,            0.,NA,NA,"",   796.431E+03,  -749.314E+03,  -749.314E+03
C:/temp/Job-3.odb,Step-1,Increment      1: Step Time =    1.000,"P-3-1",           844,       185.488,       49.8628,            0.,NA,NA,"",   2.34582E+06,   2.13294E+06,   2.13294E+06
C:/temp/Job-3.odb,Step-1,Increment      1: Step Time =    1.000,"P-3-1",           845,       14.4916,       50.0050,            0.,NA,NA,"",   646.993E+03,  -526.599E+03,  -526.599E+03
C:/temp/Job-3.odb,Step-1,Increment      1: Step Time =    1.000,"P-3-1",           846,       19.5013,       46.2470,            0.,NA,NA,"",   564.273E+03,  -343.585E+03,  -343.585E+03
C:/temp/Job-3.odb,Step-1,Increment      1: Step Time =    1.000,"P-3-1",           847,       161.597,       171.752,            0.,NA,NA,"",   2.65657E+06,   2.61310E+06,   2.61310E+06
C:/temp/Job-3.odb,Step-1,Increment      1: Step Time =    1.000,"P-3-1",           848,       23.1719,       153.159,            0.,NA,NA,"",   724.756E+03,  -637.711E+03,  -637.711E+03
C:/temp/Job-3.odb,Step-1,Increment      1: Step Time =    1.000,"P-3-1",           849,       51.5034,       28.0477,            0.,NA,NA,"",   2.05081E+06,   914.710E+03,   914.710E+03
C:/temp/Job-3.odb,Step-1,Increment      1: Step Time =    1.000,"P-3-1",           850,       26.3597,       160.114,            0.,NA,NA,"",   588.460E+03,  -6.39454E+03,  -6.39454E+03
C:/temp/Job-3.odb,Step-1,Increment      1: Step Time =    1.000,"P-3-1",           851,       55.0693,       191.026,            0.,NA,NA,"",   4.82081E+06,   4.70820E+06,   4.70820E+06
C:/temp/Job-3.odb,Step-1,Increment      1: Step Time =    1.000,"P-3-1",           852,       144.013,       8.58543,            0.,NA,NA,"",   920.896E+03,   183.150E+03,   183.150E+03
C:/temp/Job-3.odb,Step-1,Increment      1: Step Time =    1.000,"P-3-1",           853,       190.509,       144.504,            0.,NA,NA,"",   2.20615E+06,   2.19972E+06,   2.19972E+06
C:/temp/Job-3.odb,Step-1,Increment      1: Step Time =    1.000,"P-3-1",           854,       152.567,       21.8902,            0.,NA,NA,"",   2.63352E+06,   2.64688E+06,   2.64688E+06
C:/temp/Job-3.odb,Step-1,Increment      1: Step Time =    1.000,"P-3-1",           855,       58.0659,       28.1344,            0.,NA,NA,"",   2.05627E+06,   815.617E+03,   815.617E+03
C:/temp/Job-3.odb,Step-1,Increment      1: Step Time =    1.000,"P-3-1",           856,       9.78928,       49.7952,            0.,NA,NA,"",   499.995E+03,  -291.840E+03,  -291.840E+03
C:/temp/Job-3.odb,Step-1,Increment      1: Step Time =    1.000,"P-3-1",           857,       190.057,       49.2273,            0.,NA,NA,"",   1.93548E+06,   1.90158E+06,   1.90158E+06
C:/temp/Job-3.odb,Step-1,Increment      1: Step Time =    1.000,"P-3-1",           858,       15.2237,       45.1630,            0.,NA,NA,"",   417.281E+03,  -58.1487E+03,  -58.1487E+03
C:/temp/Job-3.odb,Step-1,Increment      1: Step Time =    1.000,"P-3-1",           859,       149.638,       17.7947,            0.,NA,NA,"",   2.18865E+06,   2.18381E+06,   2.18381E+06
C:/temp/Job-3.odb,Step-1,Increment      1: Step Time =    1.000,"P-3-1",           860,       47.8241,       20.3732,            0.,NA,NA,"",   3.08646E+06,   2.77623E+06,   2.77623E+06
C:/temp/Job-3.odb,Step-1,Increment      1: Step Time =    1.000,"P-3-1",           861,       33.0668,       165.917,            0.,NA,NA,"",   987.484E+03,   732.574E+03,   732.574E+03
C:/temp/Job-3.odb,Step-1,Increment      1: Step Time =    1.000,"P-3-1",           862,       153.244,       9.98212,            0.,NA,NA,"",   1.06396E+06,   883.740E+03,   883.740E+03
C:/temp/Job-3.odb,Step-1,Increment      1: Step Time =    1.000,"P-3-1",           863,       189.903,       153.847,            0.,NA,NA,"",   1.77190E+06,   1.73380E+06,   1.73380E+06
C:/temp/Job-3.odb,Step-1,Increment      1: Step Time =    1.000,"P-3-1",           864,       46.0003,       190.436,            0.,NA,NA,"",   4.81199E+06,   4.72698E+06,   4.72698E+06
C:/temp/Job-3.odb,Step-1,Increment      1: Step Time =    1.000,"P-3-1",           865,       184.769,       45.5228,            0.,NA,NA,"",   2.19280E+06,   2.00779E+06,   2.00779E+06
C:/temp/Job-3.odb,Step-1,Increment      1: Step Time =    1.000,"P-3-1",           866,       50.3197,       34.0573,            0.,NA,NA,"",   1.65632E+06,  -1.41304E+06,  -1.41304E+06
C:/temp/Job-3.odb,Step-1,Increment      1: Step Time =    1.000,"P-3-1",           867,       158.885,       27.0155,            0.,NA,NA,"",   2.74556E+06,   2.73407E+06,   2.73407E+06
C:/temp/Job-3.odb,Step-1,Increment      1: Step Time =    1.000,"P-3-1",           868,       47.6715,       30.3165,            0.,NA,NA,"",   1.71434E+06,   128.304E+03,   128.304E+03
C:/temp/Job-3.odb,Step-1,Increment      1: Step Time =    1.000,"P-3-1",           869,       151.314,       14.1402,            0.,NA,NA,"",   1.63868E+06,   1.55643E+06,   1.55643E+06
C:/temp/Job-3.odb,Step-1,Increment      1: Step Time =    1.000,"P-3-1",           870,       185.598,       152.560,            0.,NA,NA,"",   2.21024E+06,   2.03610E+06,   2.03610E+06
C:/temp/Job-3.odb,Step-1,Increment      1: Step Time =    1.000,"P-3-1",           871,       47.4220,       185.984,            0.,NA,NA,"",   4.08510E+06,   3.91195E+06,   3.91195E+06
C:/temp/Job-3.odb,Step-1,Increment      1: Step Time =    1.000,"P-3-1",           872,       183.729,       40.9326,            0.,NA,NA,"",   2.01822E+06,   1.87302E+06,   1.87302E+06
C:/temp/Job-3.odb,Step-1,Increment      1: Step Time =    1.000,"P-3-1",           873,       169.361,       26.9133,            0.,NA,NA,"",   2.15571E+06,   2.06310E+06,   2.06310E+06
C:/temp/Job-3.odb,Step-1,Increment      1: Step Time =    1.000,"P-3-1",           874,       161.438,       21.3132,            0.,NA,NA,"",   2.15114E+06,   2.08524E+06,   2.08524E+06
C:/temp/Job-3.odb,Step-1,Increment      1: Step Time =    1.000,"P-3-1",           875,       10.2144,       44.8059,            0.,NA,NA,"",   327.216E+03,   121.688E+03,   121.688E+03
C:/temp/Job-3.odb,Step-1,Increment      1: Step Time =    1.000,"P-3-1",           876,       166.227,       163.809,            0.,NA,NA,"",   2.81029E+06,   2.70362E+06,   2.70362E+06
C:/temp/Job-3.odb,Step-1,Increment      1: Step Time =    1.000,"P-3-1",           877,       45.2992,       25.2638,            0.,NA,NA,"",   2.32637E+06,   1.93226E+06,   1.93226E+06
C:/temp/Job-3.odb,Step-1,Increment      1: Step Time =    1.000,"P-3-1",           878,       50.3964,       17.0643,            0.,NA,NA,"",   3.62491E+06,   3.36983E+06,   3.36983E+06
C:/temp/Job-3.odb,Step-1,Increment      1: Step Time =    1.000,"P-3-1",           879,       29.2911,       167.053,            0.,NA,NA,"",   1.12033E+06,   1.00265E+06,   1.00265E+06
C:/temp/Job-3.odb,Step-1,Increment      1: Step Time =    1.000,"P-3-1",           880,       180.327,       46.7339,            0.,NA,NA,"",   2.50878E+06,   2.21669E+06,   2.21669E+06
C:/temp/Job-3.odb,Step-1,Increment      1: Step Time =    1.000,"P-3-1",           881,       43.5464,       33.2147,            0.,NA,NA,"",   1.41064E+06,  -67.1580E+03,  -67.1580E+03
C:/temp/Job-3.odb,Step-1,Increment      1: Step Time =    1.000,"P-3-1",           882,       189.006,       39.8378,            0.,NA,NA,"",   1.58517E+06,   1.53196E+06,   1.53196E+06
C:/temp/Job-3.odb,Step-1,Increment      1: Step Time =    1.000,"P-3-1",           883,       154.621,       16.0184,            0.,NA,NA,"",   1.82987E+06,   1.75673E+06,   1.75673E+06
C:/temp/Job-3.odb,Step-1,Increment      1: Step Time =    1.000,"P-3-1",           884,       163.451,       161.191,            0.,NA,NA,"",   3.01341E+06,   2.94089E+06,   2.94089E+06
C:/temp/Job-3.odb,Step-1,Increment      1: Step Time =    1.000,"P-3-1",           885,       44.2897,       17.3386,            0.,NA,NA,"",   3.52659E+06,   3.34575E+06,   3.34575E+06
C:/temp/Job-3.odb,Step-1,Increment      1: Step Time =    1.000,"P-3-1",           886,       16.7461,       39.7140,            0.,NA,NA,"",   460.284E+03,   489.309E+03,   489.309E+03
C:/temp/Job-3.odb,Step-1,Increment      1: Step Time =    1.000,"P-3-1",           887,       47.8092,       14.6069,            0.,NA,NA,"",   3.98806E+06,   3.82789E+06,   3.82789E+06
C:/temp/Job-3.odb,Step-1,Increment      1: Step Time =    1.000,"P-3-1",           888,       37.3504,       18.1637,            0.,NA,NA,"",   3.37130E+06,   3.26236E+06,   3.26236E+06
C:/temp/Job-3.odb,Step-1,Increment      1: Step Time =    1.000,"P-3-1",           889,       182.416,       35.8722,            0.,NA,NA,"",   1.86956E+06,   1.75934E+06,   1.75934E+06
C:/temp/Job-3.odb,Step-1,Increment      1: Step Time =    1.000,"P-3-1",           890,       33.7240,       22.6931,            0.,NA,NA,"",   2.64663E+06,   2.54380E+06,   2.54380E+06
C:/temp/Job-3.odb,Step-1,Increment      1: Step Time =    1.000,"P-3-1",           891,       177.771,       37.7866,            0.,NA,NA,"",   2.23148E+06,   2.07253E+06,   2.07253E+06
C:/temp/Job-3.odb,Step-1,Increment      1: Step Time =    1.000,"P-3-1",           892,       29.8749,       174.422,            0.,NA,NA,"",   2.18608E+06,   2.12558E+06,   2.12558E+06
C:/temp/Job-3.odb,Step-1,Increment      1: Step Time =    1.000,"P-3-1",           893,       38.8708,       171.142,            0.,NA,NA,"",   1.71034E+06,   1.41060E+06,   1.41060E+06
C:/temp/Job-3.odb,Step-1,Increment      1: Step Time =    1.000,"P-3-1",           894,       33.4660,       15.9268,            0.,NA,NA,"",   3.72555E+06,   3.67006E+06,   3.67006E+06
C:/temp/Job-3.odb,Step-1,Increment      1: Step Time =    1.000,"P-3-1",           895,       174.588,       38.8960,            0.,NA,NA,"",   2.46001E+06,   2.27576E+06,   2.27576E+06
C:/temp/Job-3.odb,Step-1,Increment      1: Step Time =    1.000,"P-3-1",           896,       173.922,       42.0808,            0.,NA,NA,"",   2.62776E+06,   2.40057E+06,   2.40057E+06
C:/temp/Job-3.odb,Step-1,Increment      1: Step Time =    1.000,"P-3-1",           897,       172.105,       36.8409,            0.,NA,NA,"",   2.50939E+06,   2.35104E+06,   2.35104E+06
C:/temp/Job-3.odb,Step-1,Increment      1: Step Time =    1.000,"P-3-1",           898,       31.2588,       27.3616,            0.,NA,NA,"",   1.91261E+06,   1.81502E+06,   1.81502E+06
C:/temp/Job-3.odb,Step-1,Increment      1: Step Time =    1.000,"P-3-1",           899,       89.8540,       12.3805,            0.,NA,NA,"",   4.28876E+06,   3.99828E+06,   3.99828E+06
C:/temp/Job-3.odb,Step-1,Increment      1: Step Time =    1.000,"P-3-1",           900,       35.6514,       174.896,            0.,NA,NA,"",   2.30823E+06,   2.15518E+06,   2.15518E+06
C:/temp/Job-3.odb,Step-1,Increment      1: Step Time =    1.000,"P-3-1",           901,       56.5805,       14.7691,            0.,NA,NA,"",   4.03785E+06,   3.75303E+06,   3.75303E+06
C:/temp/Job-3.odb,Step-1,Increment      1: Step Time =    1.000,"P-3-1",           902,       18.3073,       154.667,            0.,NA,NA,"",   470.670E+03,  -72.2793E+03,  -72.2793E+03
C:/temp/Job-3.odb,Step-1,Increment      1: Step Time =    1.000,"P-3-1",           903,       138.469,       175.919,            0.,NA,NA,"",   4.60693E+06,   4.79327E+06,   4.79327E+06
C:/temp/Job-3.odb,Step-1,Increment      1: Step Time =    1.000,"P-3-1",           904,       15.3804,       34.3755,            0.,NA,NA,"",   948.164E+03,   1.04972E+06,   1.04972E+06
C:/temp/Job-3.odb,Step-1,Increment      1: Step Time =    1.000,"P-3-1",           905,       141.130,       180.362,            0.,NA,NA,"",   3.06967E+06,   3.18702E+06,   3.18702E+06
C:/temp/Job-3.odb,Step-1,Increment      1: Step Time =    1.000,"P-3-1",           906,       60.6375,       18.4251,            0.,NA,NA,"",   3.63470E+06,   3.17152E+06,   3.17152E+06
C:/temp/Job-3.odb,Step-1,Increment      1: Step Time =    1.000,"P-3-1",           907,       20.6929,       141.881,            0.,NA,NA,"",   1.18957E+06,  -1.15455E+06,  -1.15455E+06
C:/temp/Job-3.odb,Step-1,Increment      1: Step Time =    1.000,"P-3-1",           908,       42.3912,       174.687,            0.,NA,NA,"",   2.34155E+06,   2.04764E+06,   2.04764E+06
C:/temp/Job-3.odb,Step-1,Increment      1: Step Time =    1.000,"P-3-1",           909,       160.220,       17.0445,            0.,NA,NA,"",   1.80115E+06,   1.71273E+06,   1.71273E+06
C:/temp/Job-3.odb,Step-1,Increment      1: Step Time =    1.000,"P-3-1",           910,       31.2605,       45.3997,            0.,NA,NA,"",   1.08275E+06,  -1.07854E+06,  -1.07854E+06
C:/temp/Job-3.odb,Step-1,Increment      1: Step Time =    1.000,"P-3-1",           911,       14.6466,       109.942,            0.,NA,NA,"",   587.300E+03,  -650.906E+03,  -650.906E+03
C:/temp/Job-3.odb,Step-1,Increment      1: Step Time =    1.000,"P-3-1",           912,       21.4106,       36.3550,            0.,NA,NA,"",   729.450E+03,   765.978E+03,   765.978E+03
C:/temp/Job-3.odb,Step-1,Increment      1: Step Time =    1.000,"P-3-1",           913,       172.889,       24.8064,            0.,NA,NA,"",   1.86471E+06,   1.77275E+06,   1.77275E+06
C:/temp/Job-3.odb,Step-1,Increment      1: Step Time =    1.000,"P-3-1",           914,       171.509,       167.169,            0.,NA,NA,"",   2.32432E+06,   2.20529E+06,   2.20529E+06
C:/temp/Job-3.odb,Step-1,Increment      1: Step Time =    1.000,"P-3-1",           915,       20.8880,       175.100,            0.,NA,NA,"",   2.26650E+06,   2.33588E+06,   2.33588E+06
C:/temp/Job-3.odb,Step-1,Increment      1: Step Time =    1.000,"P-3-1",           916,       151.257,       181.679,            0.,NA,NA,"",   2.20747E+06,   2.19380E+06,   2.19380E+06
C:/temp/Job-3.odb,Step-1,Increment      1: Step Time =    1.000,"P-3-1",           917,       28.9581,       15.0038,            0.,NA,NA,"",   3.90495E+06,   3.88406E+06,   3.88406E+06
C:/temp/Job-3.odb,Step-1,Increment      1: Step Time =    1.000,"P-3-1",           918,       55.8439,       176.675,            0.,NA,NA,"",   2.80471E+06,   2.26557E+06,   2.26557E+06
C:/temp/Job-3.odb,Step-1,Increment      1: Step Time =    1.000,"P-3-1",           919,       181.015,       50.9424,            0.,NA,NA,"",   2.64223E+06,   2.28823E+06,   2.28823E+06
C:/temp/Job-3.odb,Step-1,Increment      1: Step Time =    1.000,"P-3-1",           920,       164.285,       11.4204,            0.,NA,NA,"",   1.15383E+06,   1.03487E+06,   1.03487E+06
C:/temp/Job-3.odb,Step-1,Increment      1: Step Time =    1.000,"P-3-1",           921,       8.64098,       165.124,            0.,NA,NA,"",   926.654E+03,   1.05274E+06,   1.05274E+06
C:/temp/Job-3.odb,Step-1,Increment      1: Step Time =    1.000,"P-3-1",           922,       189.247,       164.722,            0.,NA,NA,"",   1.42391E+06,   1.36765E+06,   1.36765E+06
C:/temp/Job-3.odb,Step-1,Increment      1: Step Time =    1.000,"P-3-1",           923,       165.813,       191.273,            0.,NA,NA,"",   861.770E+03,   745.138E+03,   745.138E+03
C:/temp/Job-3.odb,Step-1,Increment      1: Step Time =    1.000,"P-3-1",           924,       35.4646,       189.606,            0.,NA,NA,"",   4.66595E+06,   4.62672E+06,   4.62672E+06
C:/temp/Job-3.odb,Step-1,Increment      1: Step Time =    1.000,"P-3-1",           925,       24.5600,       39.2422,            0.,NA,NA,"",   529.499E+03,   286.952E+03,   286.952E+03
C:/temp/Job-3.odb,Step-1,Increment      1: Step Time =    1.000,"P-3-1",           926,       61.3800,       31.5344,            0.,NA,NA,"",   1.67479E+06,  -729.004E+03,  -729.004E+03
C:/temp/Job-3.odb,Step-1,Increment      1: Step Time =    1.000,"P-3-1",           927,       34.7687,       11.1578,            0.,NA,NA,"",   4.52788E+06,   4.49035E+06,   4.49035E+06
C:/temp/Job-3.odb,Step-1,Increment      1: Step Time =    1.000,"P-3-1",           928,       182.123,       110.856,            0.,NA,NA,"",   2.19870E+06,  -1.94842E+06,  -1.94842E+06
C:/temp/Job-3.odb,Step-1,Increment      1: Step Time =    1.000,"P-3-1",           929,       24.6848,       10.0835,            0.,NA,NA,"",   4.67443E+06,   4.67567E+06,   4.67567E+06
C:/temp/Job-3.odb,Step-1,Increment      1: Step Time =    1.000,"P-3-1",           930,       10.1374,       24.9331,            0.,NA,NA,"",   2.16424E+06,   2.35353E+06,   2.35353E+06
C:/temp/Job-3.odb,Step-1,Increment      1: Step Time =    1.000,"P-3-1",           931,       8.76868,       174.288,            0.,NA,NA,"",   2.00839E+06,   2.20486E+06,   2.20486E+06
C:/temp/Job-3.odb,Step-1,Increment      1: Step Time =    1.000,"P-3-1",           932,       175.371,       11.2908,            0.,NA,NA,"",   1.07763E+06,   997.457E+03,   997.457E+03
C:/temp/Job-3.odb,Step-1,Increment      1: Step Time =    1.000,"P-3-1",           933,       25.5732,       188.822,            0.,NA,NA,"",   4.49061E+06,   4.48929E+06,   4.48929E+06
C:/temp/Job-3.odb,Step-1,Increment      1: Step Time =    1.000,"P-3-1",           934,       189.784,       29.0369,            0.,NA,NA,"",   1.27710E+06,   1.20546E+06,   1.20546E+06
C:/temp/Job-3.odb,Step-1,Increment      1: Step Time =    1.000,"P-3-1",           935,       174.855,       190.709,            0.,NA,NA,"",   939.033E+03,   872.687E+03,   872.687E+03
C:/temp/Job-3.odb,Step-1,Increment      1: Step Time =    1.000,"P-3-1",           936,       189.570,       174.841,            0.,NA,NA,"",   1.25074E+06,   1.16559E+06,   1.16559E+06
C:/temp/Job-3.odb,Step-1,Increment      1: Step Time =    1.000,"P-3-1",           937,       9.42439,       184.775,            0.,NA,NA,"",   3.63574E+06,   3.84138E+06,   3.84138E+06
C:/temp/Job-3.odb,Step-1,Increment      1: Step Time =    1.000,"P-3-1",           938,       185.287,       10.5713,            0.,NA,NA,"",   1.02257E+06,   970.186E+03,   970.186E+03
C:/temp/Job-3.odb,Step-1,Increment      1: Step Time =    1.000,"P-3-1",           939,       14.9495,       10.0214,            0.,NA,NA,"",   4.63482E+06,   4.68355E+06,   4.68355E+06
C:/temp/Job-3.odb,Step-1,Increment      1: Step Time =    1.000,"P-3-1",           940,       10.0277,       15.0310,            0.,NA,NA,"",   3.68218E+06,   3.87523E+06,   3.87523E+06
C:/temp/Job-3.odb,Step-1,Increment      1: Step Time =    1.000,"P-3-1",           941,       184.585,       189.921,            0.,NA,NA,"",   1.00617E+06,   955.160E+03,   955.160E+03
C:/temp/Job-3.odb,Step-1,Increment      1: Step Time =    1.000,"P-3-1",           942,       189.530,       184.756,            0.,NA,NA,"",   1.12709E+06,   1.04862E+06,   1.04862E+06
C:/temp/Job-3.odb,Step-1,Increment      1: Step Time =    1.000,"P-3-1",           943,       190.841,       19.7316,            0.,NA,NA,"",   1.18493E+06,   1.08864E+06,   1.08864E+06
C:/temp/Job-3.odb,Step-1,Increment      1: Step Time =    1.000,"P-3-1",           944,       14.6610,       189.248,            0.,NA,NA,"",   4.51638E+06,   4.57803E+06,   4.57803E+06
C:/temp/Job-3.odb,Step-1,Increment      1: Step Time =    1.000,"P-3-1",           945,       37.9298,       31.8404,            0.,NA,NA,"",   1.34138E+06,   990.549E+03,   990.549E+03
C:/temp/Job-3.odb,Step-1,Increment      1: Step Time =    1.000,"P-3-1",           946,       24.5813,       176.992,            0.,NA,NA,"",   2.57525E+06,   2.59479E+06,   2.59479E+06
C:/temp/Job-3.odb,Step-1,Increment      1: Step Time =    1.000,"P-3-1",           947,       168.044,       16.6580,            0.,NA,NA,"",   1.54884E+06,   1.44336E+06,   1.44336E+06
C:/temp/Job-3.odb,Step-1,Increment      1: Step Time =    1.000,"P-3-1",           948,       24.7040,       165.216,            0.,NA,NA,"",   865.939E+03,   849.197E+03,   849.197E+03
C:/temp/Job-3.odb,Step-1,Increment      1: Step Time =    1.000,"P-3-1",           949,       173.386,       145.237,            0.,NA,NA,"",   2.68440E+06,   2.21973E+06,   2.21973E+06
C:/temp/Job-3.odb,Step-1,Increment      1: Step Time =    1.000,"P-3-1",           950,       159.902,       175.386,            0.,NA,NA,"",   2.47793E+06,   2.44070E+06,   2.44070E+06
C:/temp/Job-3.odb,Step-1,Increment      1: Step Time =    1.000,"P-3-1",           951,       184.196,       155.582,            0.,NA,NA,"",   2.14500E+06,   1.98156E+06,   1.98156E+06
C:/temp/Job-3.odb,Step-1,Increment      1: Step Time =    1.000,"P-3-1",           952,       44.1049,       184.689,            0.,NA,NA,"",   3.83864E+06,   3.67995E+06,   3.67995E+06
C:/temp/Job-3.odb,Step-1,Increment      1: Step Time =    1.000,"P-3-1",           953,       175.429,       33.9597,            0.,NA,NA,"",   2.17605E+06,   2.05292E+06,   2.05292E+06
C:/temp/Job-3.odb,Step-1,Increment      1: Step Time =    1.000,"P-3-1",           954,       27.7109,       36.0214,            0.,NA,NA,"",   776.929E+03,   676.182E+03,   676.182E+03
C:/temp/Job-3.odb,Step-1,Increment      1: Step Time =    1.000,"P-3-1",           955,       177.377,       56.5154,            0.,NA,NA,"",   2.83131E+06,   2.28003E+06,   2.28003E+06
C:/temp/Job-3.odb,Step-1,Increment      1: Step Time =    1.000,"P-3-1",           956,       172.213,       154.687,            0.,NA,NA,"",   2.76708E+06,   2.48988E+06,   2.48988E+06
C:/temp/Job-3.odb,Step-1,Increment      1: Step Time =    1.000,"P-3-1",           957,       188.404,       57.7131,            0.,NA,NA,"",   2.49229E+06,   2.38406E+06,   2.38406E+06
C:/temp/Job-3.odb,Step-1,Increment      1: Step Time =    1.000,"P-3-1",           958,       186.087,       110.313,            0.,NA,NA,"",   1.77159E+06,   1.02137E+06,   1.02137E+06
C:/temp/Job-3.odb,Step-1,Increment      1: Step Time =    1.000,"P-3-1",           959,       180.048,       144.432,            0.,NA,NA,"",   2.81436E+06,   2.34498E+06,   2.34498E+06
C:/temp/Job-3.odb,Step-1,Increment      1: Step Time =    1.000,"P-3-1",           960,       182.118,       152.610,            0.,NA,NA,"",   2.45896E+06,   2.20440E+06,   2.20440E+06
C:/temp/Job-3.odb,Step-1,Increment      1: Step Time =    1.000,"P-3-1",           961,       167.615,       173.463,            0.,NA,NA,"",   2.18233E+06,   2.10279E+06,   2.10279E+06
C:/temp/Job-3.odb,Step-1,Increment      1: Step Time =    1.000,"P-3-1",           962,       164.424,       179.439,            0.,NA,NA,"",   1.92523E+06,   1.84996E+06,   1.84996E+06
C:/temp/Job-3.odb,Step-1,Increment      1: Step Time =    1.000,"P-3-1",           963,       35.3054,       180.053,            0.,NA,NA,"",   3.06930E+06,   2.96264E+06,   2.96264E+06
C:/temp/Job-3.odb,Step-1,Increment      1: Step Time =    1.000,"P-3-1",           964,       176.295,       150.494,            0.,NA,NA,"",   2.77054E+06,   2.39804E+06,   2.39804E+06
C:/temp/Job-3.odb,Step-1,Increment      1: Step Time =    1.000,"P-3-1",           965,       164.273,       16.1685,            0.,NA,NA,"",   1.63265E+06,   1.53215E+06,   1.53215E+06
C:/temp/Job-3.odb,Step-1,Increment      1: Step Time =    1.000,"P-3-1",           966,       14.3113,       163.606,            0.,NA,NA,"",   711.691E+03,   804.240E+03,   804.240E+03
C:/temp/Job-3.odb,Step-1,Increment      1: Step Time =    1.000,"P-3-1",           967,       184.451,       165.388,            0.,NA,NA,"",   1.67034E+06,   1.59254E+06,   1.59254E+06
C:/temp/Job-3.odb,Step-1,Increment      1: Step Time =    1.000,"P-3-1",           968,       165.994,       187.291,            0.,NA,NA,"",   1.26722E+06,   1.14726E+06,   1.14726E+06
C:/temp/Job-3.odb,Step-1,Increment      1: Step Time =    1.000,"P-3-1",           969,       35.2086,       184.764,            0.,NA,NA,"",   3.83225E+06,   3.75986E+06,   3.75986E+06
C:/temp/Job-3.odb,Step-1,Increment      1: Step Time =    1.000,"P-3-1",           970,       17.0111,       173.700,            0.,NA,NA,"",   2.03328E+06,   2.14521E+06,   2.14521E+06
C:/temp/Job-3.odb,Step-1,Increment      1: Step Time =    1.000,"P-3-1",           971,       144.381,       185.178,            0.,NA,NA,"",   1.87253E+06,   1.86123E+06,   1.86123E+06
C:/temp/Job-3.odb,Step-1,Increment      1: Step Time =    1.000,"P-3-1",           972,       13.6519,       146.842,            0.,NA,NA,"",   759.351E+03,  -659.687E+03,  -659.687E+03
C:/temp/Job-3.odb,Step-1,Increment      1: Step Time =    1.000,"P-3-1",           973,       34.2812,       30.2924,            0.,NA,NA,"",   1.45971E+06,   1.25378E+06,   1.25378E+06
C:/temp/Job-3.odb,Step-1,Increment      1: Step Time =    1.000,"P-3-1",           974,       28.7757,       22.7492,            0.,NA,NA,"",   2.59333E+06,   2.55043E+06,   2.55043E+06
C:/temp/Job-3.odb,Step-1,Increment      1: Step Time =    1.000,"P-3-1",           975,       24.3811,       14.7928,            0.,NA,NA,"",   3.92473E+06,   3.93135E+06,   3.93135E+06
C:/temp/Job-3.odb,Step-1,Increment      1: Step Time =    1.000,"P-3-1",           976,       15.1592,       24.7546,            0.,NA,NA,"",   2.24536E+06,   2.38119E+06,   2.38119E+06
C:/temp/Job-3.odb,Step-1,Increment      1: Step Time =    1.000,"P-3-1",           977,       12.8592,       173.528,            0.,NA,NA,"",   1.97175E+06,   2.12409E+06,   2.12409E+06
C:/temp/Job-3.odb,Step-1,Increment      1: Step Time =    1.000,"P-3-1",           978,       175.719,       16.3138,            0.,NA,NA,"",   1.35152E+06,   1.26562E+06,   1.26562E+06
C:/temp/Job-3.odb,Step-1,Increment      1: Step Time =    1.000,"P-3-1",           979,       26.7914,       183.573,            0.,NA,NA,"",   3.63483E+06,   3.62920E+06,   3.62920E+06
C:/temp/Job-3.odb,Step-1,Increment      1: Step Time =    1.000,"P-3-1",           980,       185.455,       29.1124,            0.,NA,NA,"",   1.44750E+06,   1.38301E+06,   1.38301E+06
C:/temp/Job-3.odb,Step-1,Increment      1: Step Time =    1.000,"P-3-1",           981,       174.311,       186.086,            0.,NA,NA,"",   1.24276E+06,   1.15929E+06,   1.15929E+06
C:/temp/Job-3.odb,Step-1,Increment      1: Step Time =    1.000,"P-3-1",           982,       184.473,       174.746,            0.,NA,NA,"",   1.39044E+06,   1.32459E+06,   1.32459E+06
C:/temp/Job-3.odb,Step-1,Increment      1: Step Time =    1.000,"P-3-1",           983,       185.870,       15.6569,            0.,NA,NA,"",   1.14826E+06,   1.07869E+06,   1.07869E+06
C:/temp/Job-3.odb,Step-1,Increment      1: Step Time =    1.000,"P-3-1",           984,       184.256,       184.762,            0.,NA,NA,"",   1.16310E+06,   1.09471E+06,   1.09471E+06
C:/temp/Job-3.odb,Step-1,Increment      1: Step Time =    1.000,"P-3-1",           985,       14.9201,       14.9491,            0.,NA,NA,"",   3.84087E+06,   3.93827E+06,   3.93827E+06
C:/temp/Job-3.odb,Step-1,Increment      1: Step Time =    1.000,"P-3-1",           986,       13.6308,       184.802,            0.,NA,NA,"",   3.76498E+06,   3.88856E+06,   3.88856E+06
C:/temp/Job-3.odb,Step-1,Increment      1: Step Time =    1.000,"P-3-1",           987,       17.1225,       160.612,            0.,NA,NA,"",   459.804E+03,   498.303E+03,   498.303E+03
C:/temp/Job-3.odb,Step-1,Increment      1: Step Time =    1.000,"P-3-1",           988,       19.2410,       33.5366,            0.,NA,NA,"",   1.00501E+06,   1.08357E+06,   1.08357E+06
C:/temp/Job-3.odb,Step-1,Increment      1: Step Time =    1.000,"P-3-1",           989,       175.770,       23.2601,            0.,NA,NA,"",   1.64294E+06,   1.56561E+06,   1.56561E+06
C:/temp/Job-3.odb,Step-1,Increment      1: Step Time =    1.000,"P-3-1",           990,       153.911,       181.376,            0.,NA,NA,"",   2.15920E+06,   2.13037E+06,   2.13037E+06
C:/temp/Job-3.odb,Step-1,Increment      1: Step Time =    1.000,"P-3-1",           991,       176.233,       155.920,            0.,NA,NA,"",   2.58596E+06,   2.32026E+06,   2.32026E+06
C:/temp/Job-3.odb,Step-1,Increment      1: Step Time =    1.000,"P-3-1",           992,       142.740,       175.416,            0.,NA,NA,"",   4.07128E+06,   4.22133E+06,   4.22133E+06
C:/temp/Job-3.odb,Step-1,Increment      1: Step Time =    1.000,"P-3-1",           993,       24.2271,       19.2899,            0.,NA,NA,"",   3.17416E+06,   3.18861E+06,   3.18861E+06
C:/temp/Job-3.odb,Step-1,Increment      1: Step Time =    1.000,"P-3-1",           994,       31.0341,       184.512,            0.,NA,NA,"",   3.79193E+06,   3.75524E+06,   3.75524E+06
C:/temp/Job-3.odb,Step-1,Increment      1: Step Time =    1.000,"P-3-1",           995,       171.628,       21.0038,            0.,NA,NA,"",   1.68837E+06,   1.59720E+06,   1.59720E+06
C:/temp/Job-3.odb,Step-1,Increment      1: Step Time =    1.000,"P-3-1",           996,       24.5723,       33.0804,            0.,NA,NA,"",   1.06745E+06,   1.07287E+06,   1.07287E+06
C:/temp/Job-3.odb,Step-1,Increment      1: Step Time =    1.000,"P-3-1",           997,       148.007,       185.417,            0.,NA,NA,"",   1.74365E+06,   1.68843E+06,   1.68843E+06
C:/temp/Job-3.odb,Step-1,Increment      1: Step Time =    1.000,"P-3-1",           998,       175.514,       28.0699,            0.,NA,NA,"",   1.89316E+06,   1.80040E+06,   1.80040E+06
C:/temp/Job-3.odb,Step-1,Increment      1: Step Time =    1.000,"P-3-1",           999,       22.8002,       181.975,            0.,NA,NA,"",   3.36860E+06,   3.40260E+06,   3.40260E+06
C:/temp/Job-3.odb,Step-1,Increment      1: Step Time =    1.000,"P-3-1",          1000,       180.175,       25.2529,            0.,NA,NA,"",   1.55808E+06,   1.48231E+06,   1.48231E+06
C:/temp/Job-3.odb,Step-1,Increment      1: Step Time =    1.000,"P-3-1",          1001,       14.3935,       157.119,            0.,NA,NA,"",   356.696E+03,   335.106E+03,   335.106E+03
C:/temp/Job-3.odb,Step-1,Increment      1: Step Time =    1.000,"P-3-1",          1002,       171.683,       172.186,            0.,NA,NA,"",   2.06265E+06,   1.97122E+06,   1.97122E+06
C:/temp/Job-3.odb,Step-1,Increment      1: Step Time =    1.000,"P-3-1",          1003,       60.9498,       9.54443,            0.,NA,NA,"",   4.62595E+06,   4.44868E+06,   4.44868E+06
C:/temp/Job-3.odb,Step-1,Increment      1: Step Time =    1.000,"P-3-1",          1004,       50.0376,       181.728,            0.,NA,NA,"",   3.45310E+06,   3.15797E+06,   3.15797E+06
C:/temp/Job-3.odb,Step-1,Increment      1: Step Time =    1.000,"P-3-1",          1005,       177.175,       25.5720,            0.,NA,NA,"",   1.70908E+06,   1.62661E+06,   1.62661E+06
C:/temp/Job-3.odb,Step-1,Increment      1: Step Time =    1.000,"P-3-1",          1006,       163.585,       175.122,            0.,NA,NA,"",   2.29185E+06,   2.22777E+06,   2.22777E+06
C:/temp/Job-3.odb,Step-1,Increment      1: Step Time =    1.000,"P-3-1",          1007,       175.189,       20.4546,            0.,NA,NA,"",   1.52594E+06,   1.44760E+06,   1.44760E+06
C:/temp/Job-3.odb,Step-1,Increment      1: Step Time =    1.000,"P-3-1",          1008,       17.6686,       168.111,            0.,NA,NA,"",   1.23337E+06,   1.32996E+06,   1.32996E+06
C:/temp/Job-3.odb,Step-1,Increment      1: Step Time =    1.000,"P-3-1",          1009,       170.013,       186.868,            0.,NA,NA,"",   1.26336E+06,   1.16138E+06,   1.16138E+06
C:/temp/Job-3.odb,Step-1,Increment      1: Step Time =    1.000,"P-3-1",          1010,       184.750,       169.999,            0.,NA,NA,"",   1.49344E+06,   1.43142E+06,   1.43142E+06
C:/temp/Job-3.odb,Step-1,Increment      1: Step Time =    1.000,"P-3-1",          1011,       15.8516,       178.000,            0.,NA,NA,"",   2.68703E+06,   2.80791E+06,   2.80791E+06
C:/temp/Job-3.odb,Step-1,Increment      1: Step Time =    1.000,"P-3-1",          1012,       145.114,       180.908,            0.,NA,NA,"",   2.65074E+06,   2.70077E+06,   2.70077E+06
C:/temp/Job-3.odb,Step-1,Increment      1: Step Time =    1.000,"P-3-1",          1013,       14.9642,       19.8439,            0.,NA,NA,"",   3.01515E+06,   3.14506E+06,   3.14506E+06
C:/temp/Job-3.odb,Step-1,Increment      1: Step Time =    1.000,"P-3-1",          1014,       19.6950,       14.8226,            0.,NA,NA,"",   3.89690E+06,   3.93953E+06,   3.93953E+06
C:/temp/Job-3.odb,Step-1,Increment      1: Step Time =    1.000,"P-3-1",          1015,       12.9367,       176.944,            0.,NA,NA,"",   2.46131E+06,   2.61614E+06,   2.61614E+06
C:/temp/Job-3.odb,Step-1,Increment      1: Step Time =    1.000,"P-3-1",          1016,       180.989,       17.4772,            0.,NA,NA,"",   1.27519E+06,   1.20122E+06,   1.20122E+06
C:/temp/Job-3.odb,Step-1,Increment      1: Step Time =    1.000,"P-3-1",          1017,       184.764,       23.2094,            0.,NA,NA,"",   1.34061E+06,   1.27032E+06,   1.27032E+06
C:/temp/Job-3.odb,Step-1,Increment      1: Step Time =    1.000,"P-3-1",          1018,       184.071,       179.665,            0.,NA,NA,"",   1.28960E+06,   1.21880E+06,   1.21880E+06
C:/temp/Job-3.odb,Step-1,Increment      1: Step Time =    1.000,"P-3-1",          1019,       179.076,       185.091,            0.,NA,NA,"",   1.20801E+06,   1.13624E+06,   1.13624E+06
C:/temp/Job-3.odb,Step-1,Increment      1: Step Time =    1.000,"P-3-1",          1020,       51.0908,       9.72151,            0.,NA,NA,"",   4.73990E+06,   4.63333E+06,   4.63333E+06
C:/temp/Job-3.odb,Step-1,Increment      1: Step Time =    1.000,"P-3-1",          1021,       12.4214,       153.152,            0.,NA,NA,"",   420.276E+03,  -24.1274E+03,  -24.1274E+03
C:/temp/Job-3.odb,Step-1,Increment      1: Step Time =    1.000,"P-3-1",          1022,       177.089,       166.386,            0.,NA,NA,"",   2.05221E+06,   1.93699E+06,   1.93699E+06
C:/temp/Job-3.odb,Step-1,Increment      1: Step Time =    1.000,"P-3-1",          1023,       183.293,       161.197,            0.,NA,NA,"",   1.92618E+06,   1.80603E+06,   1.80603E+06
C:/temp/Job-3.odb,Step-1,Increment      1: Step Time =    1.000,"P-3-1",          1024,       38.7033,       180.048,            0.,NA,NA,"",   3.05984E+06,   2.90995E+06,   2.90995E+06
C:/temp/Job-3.odb,Step-1,Increment      1: Step Time =    1.000,"P-3-1",          1025,       14.0200,       181.295,            0.,NA,NA,"",   3.17939E+06,   3.32070E+06,   3.32070E+06
C:/temp/Job-3.odb,Step-1,Increment      1: Step Time =    1.000,"P-3-1",          1026,       187.189,       19.5271,            0.,NA,NA,"",   1.21472E+06,   1.13785E+06,   1.13785E+06
C:/temp/Job-3.odb,Step-1,Increment      1: Step Time =    1.000,"P-3-1",          1027,       16.2398,       150.799,            0.,NA,NA,"",   628.227E+03,  -365.835E+03,  -365.835E+03
C:/temp/Job-3.odb,Step-1,Increment      1: Step Time =    1.000,"P-3-1",          1028,       151.597,       185.320,            0.,NA,NA,"",   1.67707E+06,   1.60525E+06,   1.60525E+06
C:/temp/Job-3.odb,Step-1,Increment      1: Step Time =    1.000,"P-3-1",          1029,       178.854,       154.044,            0.,NA,NA,"",   2.54495E+06,   2.27300E+06,   2.27300E+06
C:/temp/Job-3.odb,Step-1,Increment      1: Step Time =    1.000,"P-3-1",          1030,       15.3188,       29.5235,            0.,NA,NA,"",   1.55723E+06,   1.68578E+06,   1.68578E+06
C:/temp/Job-3.odb,Step-1,Increment      1: Step Time =    1.000,"P-3-1",          1031,       16.9115,       183.354,            0.,NA,NA,"",   3.58100E+06,   3.66807E+06,   3.66807E+06
C:/temp/Job-3.odb,Step-1,Increment      1: Step Time =    1.000,"P-3-1",          1032,       10.3956,       34.7968,            0.,NA,NA,"",   921.317E+03,   1.04224E+06,   1.04224E+06
C:/temp/Job-3.odb,Step-1,Increment      1: Step Time =    1.000,"P-3-1",          1033,       24.5040,       23.4602,            0.,NA,NA,"",   2.49123E+06,   2.50933E+06,   2.50933E+06
C:/temp/Job-3.odb,Step-1,Increment      1: Step Time =    1.000,"P-3-1",          1034,       25.5050,       27.2681,            0.,NA,NA,"",   1.90227E+06,   1.90670E+06,   1.90670E+06
C:/temp/Job-3.odb,Step-1,Increment      1: Step Time =    1.000,"P-3-1",          1035,       175.339,       172.725,            0.,NA,NA,"",   1.84896E+06,   1.76365E+06,   1.76365E+06
C:/temp/Job-3.odb,Step-1,Increment      1: Step Time =    1.000,"P-3-1",          1036,       144.214,       189.445,            0.,NA,NA,"",   1.13388E+06,   978.553E+03,   978.553E+03
C:/temp/Job-3.odb,Step-1,Increment      1: Step Time =    1.000,"P-3-1",          1037,       11.0666,       142.917,            0.,NA,NA,"",   828.092E+03,  -765.827E+03,  -765.827E+03
C:/temp/Job-3.odb,Step-1,Increment      1: Step Time =    1.000,"P-3-1",          1038,       180.271,       166.018,            0.,NA,NA,"",   1.89448E+06,   1.79171E+06,   1.79171E+06
C:/temp/Job-3.odb,Step-1,Increment      1: Step Time =    1.000,"P-3-1",          1039,       20.0140,       24.3498,            0.,NA,NA,"",   2.35006E+06,    2.4279E+06,    2.4279E+06
C:/temp/Job-3.odb,Step-1,Increment      1: Step Time =    1.000,"P-3-1",          1040,       173.064,       181.883,            0.,NA,NA,"",   1.50142E+06,   1.41406E+06,   1.41406E+06
C:/temp/Job-3.odb,Step-1,Increment      1: Step Time =    1.000,"P-3-1",          1041,       7.71273,       151.416,            0.,NA,NA,"",   363.507E+03,  -150.150E+03,  -150.150E+03
C:/temp/Job-3.odb,Step-1,Increment      1: Step Time =    1.000,"P-3-1",          1042,       151.785,       189.620,            0.,NA,NA,"",   1.13472E+06,   964.535E+03,   964.535E+03
C:/temp/Job-3.odb,Step-1,Increment      1: Step Time =    1.000,"P-3-1",          1043,       179.598,       174.222,            0.,NA,NA,"",   1.59385E+06,   1.52445E+06,   1.52445E+06
C:/temp/Job-3.odb,Step-1,Increment      1: Step Time =    1.000,"P-3-1",          1044,       173.588,       175.857,            0.,NA,NA,"",   1.79523E+06,   1.71236E+06,   1.71236E+06
C:/temp/Job-3.odb,Step-1,Increment      1: Step Time =    1.000,"P-3-1",          1045,       161.075,       185.017,            0.,NA,NA,"",   1.53567E+06,   1.43132E+06,   1.43132E+06
C:/temp/Job-3.odb,Step-1,Increment      1: Step Time =    1.000,"P-3-1",          1046,       165.251,       183.485,            0.,NA,NA,"",   1.61800E+06,   1.51657E+06,   1.51657E+06
C:/temp/Job-3.odb,Step-1,Increment      1: Step Time =    1.000,"P-3-1",          1047,       5.01801,       5.01981,            0.,NA,NA,"",   5.26450E+06,   5.47384E+06,   5.47384E+06
C:/temp/Job-3.odb,Step-1,Increment      1: Step Time =    1.000,"P-3-1",          1048,       46.1229,       10.5555,            0.,NA,NA,"",   4.63002E+06,   4.53644E+06,   4.53644E+06
C:/temp/Job-3.odb,Step-1,Increment      1: Step Time =    1.000,"P-3-1",          1049,       190.385,       149.113,            0.,NA,NA,"",   1.95389E+06,   1.93570E+06,   1.93570E+06
C:/temp/Job-3.odb,Step-1,Increment      1: Step Time =    1.000,"P-3-1",          1050,       161.425,       190.803,            0.,NA,NA,"",   923.255E+03,   782.441E+03,   782.441E+03
C:/temp/Job-3.odb,Step-1,Increment      1: Step Time =    1.000,"P-3-1",          1051,       190.621,       15.0418,            0.,NA,NA,"",   1.10768E+06,   1.02703E+06,   1.02703E+06
C:/temp/Job-3.odb,Step-1,Increment      1: Step Time =    1.000,"P-3-1",          1052,       8.62269,       155.005,            0.,NA,NA,"",   289.902E+03,   129.210E+03,   129.210E+03
C:/temp/Job-3.odb,Step-1,Increment      1: Step Time =    1.000,"P-3-1",          1053,       171.448,       16.6183,            0.,NA,NA,"",   1.46078E+06,   1.36218E+06,   1.36218E+06
C:/temp/Job-3.odb,Step-1,Increment      1: Step Time =    1.000,"P-3-1",          1054,       162.775,       187.648,            0.,NA,NA,"",   1.25363E+06,   1.12657E+06,   1.12657E+06
C:/temp/Job-3.odb,Step-1,Increment      1: Step Time =    1.000,"P-3-1",          1055,       186.512,       54.0316,            0.,NA,NA,"",   2.43370E+06,   2.25246E+06,   2.25246E+06
C:/temp/Job-3.odb,Step-1,Increment      1: Step Time =    1.000,"P-3-1",          1056,       23.2135,       129.465,            0.,NA,NA,"",   1.31586E+06,  -1.33932E+06,  -1.33932E+06
C:/temp/Job-3.odb,Step-1,Increment      1: Step Time =    1.000,"P-3-1",          1057,       144.792,       29.1044,            0.,NA,NA,"",   4.58565E+06,   4.73988E+06,   4.73988E+06
C:/temp/Job-3.odb,Step-1,Increment      1: Step Time =    1.000,"P-3-1",          1058,       184.384,       111.395,            0.,NA,NA,"",   1.73334E+06,  -481.993E+03,  -481.993E+03
C:/temp/Job-3.odb,Step-1,Increment      1: Step Time =    1.000,"P-3-1",          1059,       185.306,       113.155,            0.,NA,NA,"",   1.92461E+06,   873.563E+03,   873.563E+03
C:/temp/Job-3.odb,Step-1,Increment      1: Step Time =    1.000,"P-3-1",          1060,       185.024,       122.169,            0.,NA,NA,"",   2.58035E+06,   1.33096E+06,   1.33096E+06
C:/temp/Job-3.odb,Step-1,Increment      1: Step Time =    1.000,"P-3-1",          1061,       186.486,       85.6620,            0.,NA,NA,"",   2.24472E+06,   1.94785E+06,   1.94785E+06
C:/temp/Job-3.odb,Step-1,Increment      1: Step Time =    1.000,"P-3-1",          1062,       155.507,       184.056,            0.,NA,NA,"",   1.77843E+06,   1.70919E+06,   1.70919E+06
C:/temp/Job-3.odb,Step-1,Increment      1: Step Time =    1.000,"P-3-1",          1063,       38.9914,       184.256,            0.,NA,NA,"",   3.74773E+06,   3.63729E+06,   3.63729E+06
C:/temp/Job-3.odb,Step-1,Increment      1: Step Time =    1.000,"P-3-1",          1064,       50.9124,       186.494,            0.,NA,NA,"",   4.18062E+06,   3.99390E+06,   3.99390E+06
C:/temp/Job-3.odb,Step-1,Increment      1: Step Time =    1.000,"P-3-1",          1065,       143.342,       12.7896,            0.,NA,NA,"",   1.48457E+06,   1.45122E+06,   1.45122E+06
C:/temp/Job-3.odb,Step-1,Increment      1: Step Time =    1.000,"P-3-1",          1066,       134.928,       12.6433,            0.,NA,NA,"",   1.61053E+06,   1.67571E+06,   1.67571E+06
C:/temp/Job-3.odb,Step-1,Increment      1: Step Time =    1.000,"P-3-1",          1067,       65.5976,       180.388,            0.,NA,NA,"",   3.63816E+06,   3.13649E+06,   3.13649E+06
C:/temp/Job-3.odb,Step-1,Increment      1: Step Time =    1.000,"P-3-1",          1068,       70.2475,       182.068,            0.,NA,NA,"",   4.06213E+06,   3.58673E+06,   3.58673E+06
C:/temp/Job-3.odb,Step-1,Increment      1: Step Time =    1.000,"P-3-1",          1069,       41.7625,       183.027,            0.,NA,NA,"",   3.57267E+06,   3.42748E+06,   3.42748E+06
C:/temp/Job-3.odb,Step-1,Increment      1: Step Time =    1.000,"P-3-1",          1070,       156.512,       19.2372,            0.,NA,NA,"",   2.12745E+06,   2.07206E+06,   2.07206E+06
C:/temp/Job-3.odb,Step-1,Increment      1: Step Time =    1.000,"P-3-1",          1071,       64.0559,       21.5264,            0.,NA,NA,"",   3.25306E+06,   2.71346E+06,   2.71346E+06
C:/temp/Job-3.odb,Step-1,Increment      1: Step Time =    1.000,"P-3-1",          1072,       181.371,       72.9684,            0.,NA,NA,"",   2.60367E+06,   763.209E+03,   763.209E+03
C:/temp/Job-3.odb,Step-1,Increment      1: Step Time =    1.000,"P-3-1",          1073,       104.742,       12.9395,            0.,NA,NA,"",   3.84023E+06,   3.82645E+06,   3.82645E+06
C:/temp/Job-3.odb,Step-1,Increment      1: Step Time =    1.000,"P-3-1",          1074,       77.7015,       15.1868,            0.,NA,NA,"",   4.54594E+06,   4.11600E+06,   4.11600E+06
C:/temp/Job-3.odb,Step-1,Increment      1: Step Time =    1.000,"P-3-1",          1075,       86.5994,       13.2250,            0.,NA,NA,"",   4.49123E+06,   4.16257E+06,   4.16257E+06
C:/temp/Job-3.odb,Step-1,Increment      1: Step Time =    1.000,"P-3-1",          1076,       179.089,       162.536,            0.,NA,NA,"",   2.13685E+06,   1.98921E+06,   1.98921E+06
C:/temp/Job-3.odb,Step-1,Increment      1: Step Time =    1.000,"P-3-1",          1077,       177.389,       159.099,            0.,NA,NA,"",   2.38524E+06,   2.17879E+06,   2.17879E+06
C:/temp/Job-3.odb,Step-1,Increment      1: Step Time =    1.000,"P-3-1",          1078,       154.994,       178.442,            0.,NA,NA,"",   2.48980E+06,   2.47853E+06,   2.47853E+06
C:/temp/Job-3.odb,Step-1,Increment      1: Step Time =    1.000,"P-3-1",          1079,       164.321,       19.9534,            0.,NA,NA,"",   1.94088E+06,   1.85776E+06,   1.85776E+06
C:/temp/Job-3.odb,Step-1,Increment      1: Step Time =    1.000,"P-3-1",          1080,       28.1376,       178.727,            0.,NA,NA,"",   2.84431E+06,   2.82162E+06,   2.82162E+06
C:/temp/Job-3.odb,Step-1,Increment      1: Step Time =    1.000,"P-3-1",          1081,       31.7476,       179.893,            0.,NA,NA,"",   3.01255E+06,   2.95025E+06,   2.95025E+06
C:/temp/Job-3.odb,Step-1,Increment      1: Step Time =    1.000,"P-3-1",          1082,       42.1653,       179.663,            0.,NA,NA,"",   3.06544E+06,   2.87298E+06,   2.87298E+06
C:/temp/Job-3.odb,Step-1,Increment      1: Step Time =    1.000,"P-3-1",          1083,       13.1312,       137.908,            0.,NA,NA,"",   978.025E+03,  -944.722E+03,  -944.722E+03
C:/temp/Job-3.odb,Step-1,Increment      1: Step Time =    1.000,"P-3-1",          1084,       17.4463,       144.488,            0.,NA,NA,"",   979.768E+03,  -915.689E+03,  -915.689E+03
C:/temp/Job-3.odb,Step-1,Increment      1: Step Time =    1.000,"P-3-1",          1085,       17.3298,       127.552,            0.,NA,NA,"",   1.02754E+06,  -1.05487E+06,  -1.05487E+06
C:/temp/Job-3.odb,Step-1,Increment      1: Step Time =    1.000,"P-3-1",          1086,       34.3368,       162.296,            0.,NA,NA,"",   875.518E+03,  -127.106E+03,  -127.106E+03
C:/temp/Job-3.odb,Step-1,Increment      1: Step Time =    1.000,"P-3-1",          1087,       30.3939,       161.355,            0.,NA,NA,"",   736.023E+03,  -59.8046E+03,  -59.8046E+03
C:/temp/Job-3.odb,Step-1,Increment      1: Step Time =    1.000,"P-3-1",          1088,       51.5558,       13.8408,            0.,NA,NA,"",   4.12655E+06,   3.93806E+06,   3.93806E+06
C:/temp/Job-3.odb,Step-1,Increment      1: Step Time =    1.000,"P-3-1",          1089,       152.144,       18.5934,            0.,NA,NA,"",   2.19080E+06,   2.16775E+06,   2.16775E+06
C:/temp/Job-3.odb,Step-1,Increment      1: Step Time =    1.000,"P-3-1",          1090,       146.352,       17.0777,            0.,NA,NA,"",   2.27864E+06,   2.30520E+06,   2.30520E+06
C:/temp/Job-3.odb,Step-1,Increment      1: Step Time =    1.000,"P-3-1",          1091,       138.796,       16.8532,            0.,NA,NA,"",   2.56982E+06,   2.66928E+06,   2.66928E+06
C:/temp/Job-3.odb,Step-1,Increment      1: Step Time =    1.000,"P-3-1",          1092,       142.638,       22.1986,            0.,NA,NA,"",   3.56531E+06,   3.69025E+06,   3.69025E+06
C:/temp/Job-3.odb,Step-1,Increment      1: Step Time =    1.000,"P-3-1",          1093,       27.4745,       48.6282,            0.,NA,NA,"",   1.07230E+06,  -1.05510E+06,  -1.05510E+06
C:/temp/Job-3.odb,Step-1,Increment      1: Step Time =    1.000,"P-3-1",          1094,       18.8459,       54.5317,            0.,NA,NA,"",   985.909E+03,  -922.221E+03,  -922.221E+03
C:/temp/Job-3.odb,Step-1,Increment      1: Step Time =    1.000,"P-3-1",          1095,       18.3307,       63.4318,            0.,NA,NA,"",   1.16443E+06,  -1.15252E+06,  -1.15252E+06
C:/temp/Job-3.odb,Step-1,Increment      1: Step Time =    1.000,"P-3-1",          1096,       22.6408,       47.2146,            0.,NA,NA,"",   732.491E+03,  -653.526E+03,  -653.526E+03
C:/temp/Job-3.odb,Step-1,Increment      1: Step Time =    1.000,"P-3-1",          1097,       182.557,       126.903,            0.,NA,NA,"",   2.65623E+06,   1.90758E+06,   1.90758E+06
C:/temp/Job-3.odb,Step-1,Increment      1: Step Time =    1.000,"P-3-1",          1098,       127.847,       180.587,            0.,NA,NA,"",   4.63607E+06,   4.86641E+06,   4.86641E+06
C:/temp/Job-3.odb,Step-1,Increment      1: Step Time =    1.000,"P-3-1",          1099,       169.373,       182.888,            0.,NA,NA,"",   1.55803E+06,   1.45905E+06,   1.45905E+06
C:/temp/Job-3.odb,Step-1,Increment      1: Step Time =    1.000,"P-3-1",          1100,       180.919,       134.774,            0.,NA,NA,"",   2.85963E+06,   2.15404E+06,   2.15404E+06
C:/temp/Job-3.odb,Step-1,Increment      1: Step Time =    1.000,"P-3-1",          1101,       148.650,       21.3631,            0.,NA,NA,"",   2.82837E+06,   2.88381E+06,   2.88381E+06
C:/temp/Job-3.odb,Step-1,Increment      1: Step Time =    1.000,"P-3-1",          1102,       163.170,       25.2589,            0.,NA,NA,"",   2.38222E+06,   2.32710E+06,   2.32710E+06
C:/temp/Job-3.odb,Step-1,Increment      1: Step Time =    1.000,"P-3-1",          1103,       18.1686,       138.138,            0.,NA,NA,"",   1.14428E+06,  -1.11872E+06,  -1.11872E+06
C:/temp/Job-3.odb,Step-1,Increment      1: Step Time =    1.000,"P-3-1",          1104,       45.7429,       180.576,            0.,NA,NA,"",   3.17882E+06,   2.92191E+06,   2.92191E+06
C:/temp/Job-3.odb,Step-1,Increment      1: Step Time =    1.000,"P-3-1",          1105,       27.9261,       30.2338,            0.,NA,NA,"",   1.42699E+06,   1.37697E+06,   1.37697E+06
C:/temp/Job-3.odb,Step-1,Increment      1: Step Time =    1.000,"P-3-1",          1106,       155.031,       23.9284,            0.,NA,NA,"",   2.70620E+06,   2.71103E+06,   2.71103E+06
C:/temp/Job-3.odb,Step-1,Increment      1: Step Time =    1.000,"P-3-1",          1107,       11.9514,       165.959,            0.,NA,NA,"",   976.401E+03,   1.10041E+06,   1.10041E+06
C:/temp/Job-3.odb,Step-1,Increment      1: Step Time =    1.000,"P-3-1",          1108,       12.7504,       169.373,            0.,NA,NA,"",   1.39456E+06,   1.53792E+06,   1.53792E+06
C:/temp/Job-3.odb,Step-1,Increment      1: Step Time =    1.000,"P-3-1",          1109,       176.057,       169.120,            0.,NA,NA,"",   1.96109E+06,   1.86321E+06,   1.86321E+06
C:/temp/Job-3.odb,Step-1,Increment      1: Step Time =    1.000,"P-3-1",          1110,       173.508,       160.204,            0.,NA,NA,"",   2.55162E+06,   2.35125E+06,   2.35125E+06
C:/temp/Job-3.odb,Step-1,Increment      1: Step Time =    1.000,"P-3-1",          1111,       54.0944,       18.9736,            0.,NA,NA,"",   3.37922E+06,   2.99630E+06,   2.99630E+06
C:/temp/Job-3.odb,Step-1,Increment      1: Step Time =    1.000,"P-3-1",          1112,       37.6039,       25.7035,            0.,NA,NA,"",   2.18572E+06,   1.98782E+06,   1.98782E+06
C:/temp/Job-3.odb,Step-1,Increment      1: Step Time =    1.000,"P-3-1",          1113,       28.0121,       42.1650,            0.,NA,NA,"",   648.115E+03,  -388.865E+03,  -388.865E+03
C:/temp/Job-3.odb,Step-1,Increment      1: Step Time =    1.000,"P-3-1",          1114,       31.1133,       38.7038,            0.,NA,NA,"",   733.973E+03,  -98.1661E+03,  -98.1661E+03
C:/temp/Job-3.odb,Step-1,Increment      1: Step Time =    1.000,"P-3-1",          1115,       169.672,       162.234,            0.,NA,NA,"",   2.69206E+06,   2.53478E+06,   2.53478E+06
C:/temp/Job-3.odb,Step-1,Increment      1: Step Time =    1.000,"P-3-1",          1116,       146.481,       176.989,            0.,NA,NA,"",   3.27186E+06,   3.35549E+06,   3.35549E+06
C:/temp/Job-3.odb,Step-1,Increment      1: Step Time =    1.000,"P-3-1",          1117,       175.265,       164.009,            0.,NA,NA,"",   2.26811E+06,   2.12273E+06,   2.12273E+06
C:/temp/Job-3.odb,Step-1,Increment      1: Step Time =    1.000,"P-3-1",          1118,       167.675,       38.6836,            0.,NA,NA,"",   2.82313E+06,   2.67691E+06,   2.67691E+06
C:/temp/Job-3.odb,Step-1,Increment      1: Step Time =    1.000,"P-3-1",          1119,       49.5057,       25.2463,            0.,NA,NA,"",   2.38537E+06,   1.89060E+06,   1.89060E+06
C:/temp/Job-3.odb,Step-1,Increment      1: Step Time =    1.000,"P-3-1",          1120,       28.4674,       19.1359,            0.,NA,NA,"",   3.19723E+06,   3.16541E+06,   3.16541E+06
C:/temp/Job-3.odb,Step-1,Increment      1: Step Time =    1.000,"P-3-1",          1121,       28.6265,       25.7203,            0.,NA,NA,"",   2.17243E+06,   2.12972E+06,   2.12972E+06
C:/temp/Job-3.odb,Step-1,Increment      1: Step Time =    1.000,"P-3-1",          1122,       19.4132,       157.989,            0.,NA,NA,"",   388.005E+03,   130.303E+03,   130.303E+03
C:/temp/Job-3.odb,Step-1,Increment      1: Step Time =    1.000,"P-3-1",          1123,       20.6300,       163.340,            0.,NA,NA,"",   656.942E+03,   696.014E+03,   696.014E+03
C:/temp/Job-3.odb,Step-1,Increment      1: Step Time =    1.000,"P-3-1",          1124,       32.6254,       171.129,            0.,NA,NA,"",   1.68350E+06,   1.54811E+06,   1.54811E+06
C:/temp/Job-3.odb,Step-1,Increment      1: Step Time =    1.000,"P-3-1",          1125,       26.4806,       172.119,            0.,NA,NA,"",   1.82229E+06,   1.81092E+06,   1.81092E+06
