ODB Name,Step,Frame,Part Instance Name,    Node Label,X,Y,Z,Section Name,Material Name,Section Point,       S-Mises,S-Max. In-Plane Principal (Abs),S-Max. Principal (Abs)
C:/temp/Job-9.odb,Step-1,Increment      1: Step Time =    1.000,"P-9-1",             1,       85.1731,       174.540,            0.,NA,NA,"",   5.11447E+06,   5.14304E+06,   5.14304E+06
C:/temp/Job-9.odb,Step-1,Increment      1: Step Time =    1.000,"P-9-1",             2,       70.9161,       170.215,            0.,NA,NA,"",   1.51584E+06,   443.640E+03,   443.640E+03
C:/temp/Job-9.odb,Step-1,Increment      1: Step Time =    1.000,"P-9-1",             3,       57.7767,       163.192,            0.,NA,NA,"",   3.15416E+06,  -3.16931E+06,  -3.16931E+06
C:/temp/Job-9.odb,Step-1,Increment      1: Step Time =    1.000,"P-9-1",             4,       46.2599,       153.740,            0.,NA,NA,"",   3.83427E+06,  -3.86730E+06,  -3.86730E+06
C:/temp/Job-9.odb,Step-1,Increment      1: Step Time =    1.000,"P-9-1",             5,       36.8083,       142.223,            0.,NA,NA,"",   3.12637E+06,  -3.15895E+06,  -3.15895E+06
C:/temp/Job-9.odb,Step-1,Increment      1: Step Time =    1.000,"P-9-1",             6,       29.7852,       129.084,            0.,NA,NA,"",   1.80397E+06,  -1.82360E+06,  -1.82360E+06
C:/temp/Job-9.odb,Step-1,Increment      1: Step Time =    1.000,"P-9-1",             7,       25.4603,       114.827,            0.,NA,NA,"",   942.972E+03,  -955.743E+03,  -955.743E+03
C:/temp/Job-9.odb,Step-1,Increment      1: Step Time =    1.000,"P-9-1",             8,           24.,          100.,            0.,NA,NA,"",   693.557E+03,  -706.356E+03,  -706.356E+03
C:/temp/Job-9.odb,Step-1,Increment      1: Step Time =    1.000,"P-9-1",             9,       25.4603,       85.1731,            0.,NA,NA,"",   907.707E+03,  -921.347E+03,  -921.347E+03
C:/temp/Job-9.odb,Step-1,Increment      1: Step Time =    1.000,"P-9-1",            10,       29.7852,       70.9161,            0.,NA,NA,"",   1.75983E+06,  -1.79181E+06,  -1.79181E+06
C:/temp/Job-9.odb,Step-1,Increment      1: Step Time =    1.000,"P-9-1",            11,       36.8083,       57.7767,            0.,NA,NA,"",   3.11353E+06,  -3.14435E+06,  -3.14435E+06
C:/temp/Job-9.odb,Step-1,Increment      1: Step Time =    1.000,"P-9-1",            12,       46.2599,       46.2599,            0.,NA,NA,"",   3.72685E+06,  -3.77803E+06,  -3.77803E+06
C:/temp/Job-9.odb,Step-1,Increment      1: Step Time =    1.000,"P-9-1",            13,       57.7767,       36.8083,            0.,NA,NA,"",   2.91035E+06,  -2.89856E+06,  -2.89856E+06
C:/temp/Job-9.odb,Step-1,Increment      1: Step Time =    1.000,"P-9-1",            14,       70.9161,       29.7852,            0.,NA,NA,"",   1.03391E+06,   12.8569E+03,   12.8569E+03
C:/temp/Job-9.odb,Step-1,Increment      1: Step Time =    1.000,"P-9-1",            15,       85.1731,       25.4603,            0.,NA,NA,"",   4.78273E+06,   4.81927E+06,   4.81927E+06
C:/temp/Job-9.odb,Step-1,Increment      1: Step Time =    1.000,"P-9-1",            16,          100.,           24.,            0.,NA,NA,"",   10.1386E+06,   10.2316E+06,   10.2316E+06
C:/temp/Job-9.odb,Step-1,Increment      1: Step Time =    1.000,"P-9-1",            17,       114.827,       25.4603,            0.,NA,NA,"",   11.8915E+06,   12.0272E+06,   12.0272E+06
C:/temp/Job-9.odb,Step-1,Increment      1: Step Time =    1.000,"P-9-1",            18,       129.084,       29.7852,            0.,NA,NA,"",   9.93786E+06,   10.0973E+06,   10.0973E+06
C:/temp/Job-9.odb,Step-1,Increment      1: Step Time =    1.000,"P-9-1",            19,       142.223,       36.8083,            0.,NA,NA,"",   7.15501E+06,   7.25250E+06,   7.25250E+06
C:/temp/Job-9.odb,Step-1,Increment      1: Step Time =    1.000,"P-9-1",            20,       153.740,       46.2599,            0.,NA,NA,"",   4.34526E+06,   4.40280E+06,   4.40280E+06
C:/temp/Job-9.odb,Step-1,Increment      1: Step Time =    1.000,"P-9-1",            21,       163.192,       57.7767,            0.,NA,NA,"",   1.78217E+06,   1.74628E+06,   1.74628E+06
C:/temp/Job-9.odb,Step-1,Increment      1: Step Time =    1.000,"P-9-1",            22,       170.215,       70.9161,            0.,NA,NA,"",   2.04526E+06,  -1.96574E+06,  -1.96574E+06
C:/temp/Job-9.odb,Step-1,Increment      1: Step Time =    1.000,"P-9-1",            23,       174.540,       85.1731,            0.,NA,NA,"",   5.51529E+06,  -5.56393E+06,  -5.56393E+06
C:/temp/Job-9.odb,Step-1,Increment      1: Step Time =    1.000,"P-9-1",            24,          176.,          100.,            0.,NA,NA,"",   7.70700E+06,  -7.77836E+06,  -7.77836E+06
C:/temp/Job-9.odb,Step-1,Increment      1: Step Time =    1.000,"P-9-1",            25,       174.540,       114.827,            0.,NA,NA,"",   5.56454E+06,  -5.59114E+06,  -5.59114E+06
C:/temp/Job-9.odb,Step-1,Increment      1: Step Time =    1.000,"P-9-1",            26,       170.215,       129.084,            0.,NA,NA,"",   1.83758E+06,  -1.76807E+06,  -1.76807E+06
C:/temp/Job-9.odb,Step-1,Increment      1: Step Time =    1.000,"P-9-1",            27,       163.192,       142.223,            0.,NA,NA,"",   1.86845E+06,   1.85311E+06,   1.85311E+06
C:/temp/Job-9.odb,Step-1,Increment      1: Step Time =    1.000,"P-9-1",            28,       153.740,       153.740,            0.,NA,NA,"",   4.24482E+06,   4.32310E+06,   4.32310E+06
C:/temp/Job-9.odb,Step-1,Increment      1: Step Time =    1.000,"P-9-1",            29,       142.223,       163.192,            0.,NA,NA,"",   7.08779E+06,   7.17006E+06,   7.17006E+06
C:/temp/Job-9.odb,Step-1,Increment      1: Step Time =    1.000,"P-9-1",            30,       129.084,       170.215,            0.,NA,NA,"",   10.3226E+06,   10.4404E+06,   10.4404E+06
C:/temp/Job-9.odb,Step-1,Increment      1: Step Time =    1.000,"P-9-1",            31,       114.827,       174.540,            0.,NA,NA,"",   11.7167E+06,   11.8602E+06,   11.8602E+06
C:/temp/Job-9.odb,Step-1,Increment      1: Step Time =    1.000,"P-9-1",            32,          100.,          176.,            0.,NA,NA,"",   10.0515E+06,   10.1271E+06,   10.1271E+06
C:/temp/Job-9.odb,Step-1,Increment      1: Step Time =    1.000,"P-9-1",            33,          190.,            0.,            0.,NA,NA,"",   878.533E+03,   867.968E+03,   867.968E+03
C:/temp/Job-9.odb,Step-1,Increment      1: Step Time =    1.000,"P-9-1",            34,          180.,            0.,            0.,NA,NA,"",   567.220E+03,   545.358E+03,   545.358E+03
C:/temp/Job-9.odb,Step-1,Increment      1: Step Time =    1.000,"P-9-1",            35,          170.,            0.,            0.,NA,NA,"",   316.551E+03,       585.953,       585.953
C:/temp/Job-9.odb,Step-1,Increment      1: Step Time =    1.000,"P-9-1",            36,          160.,            0.,            0.,NA,NA,"",   747.782E+03,  -720.571E+03,  -720.571E+03
C:/temp/Job-9.odb,Step-1,Increment      1: Step Time =    1.000,"P-9-1",            37,          150.,            0.,            0.,NA,NA,"",   1.56213E+06,  -1.55045E+06,  -1.55045E+06
C:/temp/Job-9.odb,Step-1,Increment      1: Step Time =    1.000,"P-9-1",            38,          140.,            0.,            0.,NA,NA,"",   2.48416E+06,  -2.46974E+06,  -2.46974E+06
C:/temp/Job-9.odb,Step-1,Increment      1: Step Time =    1.000,"P-9-1",            39,          130.,            0.,            0.,NA,NA,"",   3.18128E+06,  -3.17108E+06,  -3.17108E+06
C:/temp/Job-9.odb,Step-1,Increment      1: Step Time =    1.000,"P-9-1",            40,          120.,            0.,            0.,NA,NA,"",   3.34424E+06,  -3.31488E+06,  -3.31488E+06
C:/temp/Job-9.odb,Step-1,Increment      1: Step Time =    1.000,"P-9-1",            41,          110.,            0.,            0.,NA,NA,"",   2.66248E+06,  -2.60803E+06,  -2.60803E+06
C:/temp/Job-9.odb,Step-1,Increment      1: Step Time =    1.000,"P-9-1",            42,          100.,            0.,            0.,NA,NA,"",   1.40697E+06,  -1.22304E+06,  -1.22304E+06
C:/temp/Job-9.odb,Step-1,Increment      1: Step Time =    1.000,"P-9-1",            43,           90.,            0.,            0.,NA,NA,"",   1.63588E+06,   1.47707E+06,   1.47707E+06
C:/temp/Job-9.odb,Step-1,Increment      1: Step Time =    1.000,"P-9-1",            44,           80.,            0.,            0.,NA,NA,"",   3.70830E+06,   3.65826E+06,   3.65826E+06
C:/temp/Job-9.odb,Step-1,Increment      1: Step Time =    1.000,"P-9-1",            45,           70.,            0.,            0.,NA,NA,"",   5.38673E+06,   5.35527E+06,   5.35527E+06
C:/temp/Job-9.odb,Step-1,Increment      1: Step Time =    1.000,"P-9-1",            46,           60.,            0.,            0.,NA,NA,"",   6.40723E+06,   6.38707E+06,   6.38707E+06
C:/temp/Job-9.odb,Step-1,Increment      1: Step Time =    1.000,"P-9-1",            47,           50.,            0.,            0.,NA,NA,"",   6.84384E+06,   6.82052E+06,   6.82052E+06
C:/temp/Job-9.odb,Step-1,Increment      1: Step Time =    1.000,"P-9-1",            48,           40.,            0.,            0.,NA,NA,"",   6.92693E+06,   6.91824E+06,   6.91824E+06
C:/temp/Job-9.odb,Step-1,Increment      1: Step Time =    1.000,"P-9-1",            49,           30.,            0.,            0.,NA,NA,"",   6.66908E+06,   6.66651E+06,   6.66651E+06
C:/temp/Job-9.odb,Step-1,Increment      1: Step Time =    1.000,"P-9-1",            50,           20.,            0.,            0.,NA,NA,"",   6.31502E+06,   6.31187E+06,   6.31187E+06
C:/temp/Job-9.odb,Step-1,Increment      1: Step Time =    1.000,"P-9-1",            51,           10.,            0.,            0.,NA,NA,"",   6.08231E+06,   6.08003E+06,   6.08003E+06
C:/temp/Job-9.odb,Step-1,Increment      1: Step Time =    1.000,"P-9-1",            52,          200.,            0.,            0.,NA,NA,"",   993.118E+03,   985.814E+03,   985.814E+03
C:/temp/Job-9.odb,Step-1,Increment      1: Step Time =    1.000,"P-9-1",            53,            0.,            0.,            0.,NA,NA,"",   6.40284E+06,   6.73047E+06,   6.73047E+06
C:/temp/Job-9.odb,Step-1,Increment      1: Step Time =    1.000,"P-9-1",            54,          200.,          190.,            0.,NA,NA,"",   1.07007E+06,   991.612E+03,   991.612E+03
C:/temp/Job-9.odb,Step-1,Increment      1: Step Time =    1.000,"P-9-1",            55,          200.,          180.,            0.,NA,NA,"",   1.26064E+06,   1.01545E+06,   1.01545E+06
C:/temp/Job-9.odb,Step-1,Increment      1: Step Time =    1.000,"P-9-1",            56,          200.,          170.,            0.,NA,NA,"",   1.32724E+06,   1.02888E+06,   1.02888E+06
C:/temp/Job-9.odb,Step-1,Increment      1: Step Time =    1.000,"P-9-1",            57,          200.,          160.,            0.,NA,NA,"",   1.12388E+06,   1.05747E+06,   1.05747E+06
C:/temp/Job-9.odb,Step-1,Increment      1: Step Time =    1.000,"P-9-1",            58,          200.,          150.,            0.,NA,NA,"",   1.16076E+06,   1.33610E+06,   1.33610E+06
C:/temp/Job-9.odb,Step-1,Increment      1: Step Time =    1.000,"P-9-1",            59,          200.,          140.,            0.,NA,NA,"",   2.32492E+06,   2.63586E+06,   2.63586E+06
C:/temp/Job-9.odb,Step-1,Increment      1: Step Time =    1.000,"P-9-1",            60,          200.,          130.,            0.,NA,NA,"",   4.24336E+06,   4.62835E+06,   4.62835E+06
C:/temp/Job-9.odb,Step-1,Increment      1: Step Time =    1.000,"P-9-1",            61,          200.,          120.,            0.,NA,NA,"",   6.32515E+06,   6.74363E+06,   6.74363E+06
C:/temp/Job-9.odb,Step-1,Increment      1: Step Time =    1.000,"P-9-1",            62,          200.,          110.,            0.,NA,NA,"",   7.93746E+06,   8.35577E+06,   8.35577E+06
C:/temp/Job-9.odb,Step-1,Increment      1: Step Time =    1.000,"P-9-1",            63,          200.,          100.,            0.,NA,NA,"",   8.57206E+06,   8.99115E+06,   8.99115E+06
C:/temp/Job-9.odb,Step-1,Increment      1: Step Time =    1.000,"P-9-1",            64,          200.,           90.,            0.,NA,NA,"",   7.96873E+06,   8.38305E+06,   8.38305E+06
C:/temp/Job-9.odb,Step-1,Increment      1: Step Time =    1.000,"P-9-1",            65,          200.,           80.,            0.,NA,NA,"",   6.28474E+06,   6.69825E+06,   6.69825E+06
C:/temp/Job-9.odb,Step-1,Increment      1: Step Time =    1.000,"P-9-1",            66,          200.,           70.,            0.,NA,NA,"",   4.22518E+06,   4.61277E+06,   4.61277E+06
C:/temp/Job-9.odb,Step-1,Increment      1: Step Time =    1.000,"P-9-1",            67,          200.,           60.,            0.,NA,NA,"",   2.33559E+06,   2.62715E+06,   2.62715E+06
C:/temp/Job-9.odb,Step-1,Increment      1: Step Time =    1.000,"P-9-1",            68,          200.,           50.,            0.,NA,NA,"",   1.24048E+06,   1.42037E+06,   1.42037E+06
C:/temp/Job-9.odb,Step-1,Increment      1: Step Time =    1.000,"P-9-1",            69,          200.,           40.,            0.,NA,NA,"",   1.12447E+06,   1.05334E+06,   1.05334E+06
C:/temp/Job-9.odb,Step-1,Increment      1: Step Time =    1.000,"P-9-1",            70,          200.,           30.,            0.,NA,NA,"",   1.31501E+06,   1.02562E+06,   1.02562E+06
C:/temp/Job-9.odb,Step-1,Increment      1: Step Time =    1.000,"P-9-1",            71,          200.,           20.,            0.,NA,NA,"",   1.24902E+06,   1.01335E+06,   1.01335E+06
C:/temp/Job-9.odb,Step-1,Increment      1: Step Time =    1.000,"P-9-1",            72,          200.,           10.,            0.,NA,NA,"",   1.06593E+06,   991.762E+03,   991.762E+03
C:/temp/Job-9.odb,Step-1,Increment      1: Step Time =    1.000,"P-9-1",            73,          200.,          200.,            0.,NA,NA,"",   992.751E+03,   984.691E+03,   984.691E+03
C:/temp/Job-9.odb,Step-1,Increment      1: Step Time =    1.000,"P-9-1",            74,           10.,          200.,            0.,NA,NA,"",   6.07904E+06,   6.07738E+06,   6.07738E+06
C:/temp/Job-9.odb,Step-1,Increment      1: Step Time =    1.000,"P-9-1",            75,           20.,          200.,            0.,NA,NA,"",   6.29311E+06,   6.29098E+06,   6.29098E+06
C:/temp/Job-9.odb,Step-1,Increment      1: Step Time =    1.000,"P-9-1",            76,           30.,          200.,            0.,NA,NA,"",   6.63832E+06,   6.63244E+06,   6.63244E+06
C:/temp/Job-9.odb,Step-1,Increment      1: Step Time =    1.000,"P-9-1",            77,           40.,          200.,            0.,NA,NA,"",   6.92133E+06,   6.91485E+06,   6.91485E+06
C:/temp/Job-9.odb,Step-1,Increment      1: Step Time =    1.000,"P-9-1",            78,           50.,          200.,            0.,NA,NA,"",   6.97955E+06,   6.96413E+06,   6.96413E+06
C:/temp/Job-9.odb,Step-1,Increment      1: Step Time =    1.000,"P-9-1",            79,           60.,          200.,            0.,NA,NA,"",   6.53458E+06,   6.51665E+06,   6.51665E+06
C:/temp/Job-9.odb,Step-1,Increment      1: Step Time =    1.000,"P-9-1",            80,           70.,          200.,            0.,NA,NA,"",   5.44154E+06,   5.40718E+06,   5.40718E+06
C:/temp/Job-9.odb,Step-1,Increment      1: Step Time =    1.000,"P-9-1",            81,           80.,          200.,            0.,NA,NA,"",   3.62528E+06,   3.57407E+06,   3.57407E+06
C:/temp/Job-9.odb,Step-1,Increment      1: Step Time =    1.000,"P-9-1",            82,           90.,          200.,            0.,NA,NA,"",   1.59192E+06,   1.44873E+06,   1.44873E+06
C:/temp/Job-9.odb,Step-1,Increment      1: Step Time =    1.000,"P-9-1",            83,          100.,          200.,            0.,NA,NA,"",   1.43813E+06,  -1.25695E+06,  -1.25695E+06
C:/temp/Job-9.odb,Step-1,Increment      1: Step Time =    1.000,"P-9-1",            84,          110.,          200.,            0.,NA,NA,"",   2.73844E+06,  -2.68043E+06,  -2.68043E+06
C:/temp/Job-9.odb,Step-1,Increment      1: Step Time =    1.000,"P-9-1",            85,          120.,          200.,            0.,NA,NA,"",   3.34458E+06,  -3.32485E+06,  -3.32485E+06
C:/temp/Job-9.odb,Step-1,Increment      1: Step Time =    1.000,"P-9-1",            86,          130.,          200.,            0.,NA,NA,"",   3.04366E+06,  -3.01453E+06,  -3.01453E+06
C:/temp/Job-9.odb,Step-1,Increment      1: Step Time =    1.000,"P-9-1",            87,          140.,          200.,            0.,NA,NA,"",   2.12789E+06,  -2.09586E+06,  -2.09586E+06
C:/temp/Job-9.odb,Step-1,Increment      1: Step Time =    1.000,"P-9-1",            88,          150.,          200.,            0.,NA,NA,"",   1.27463E+06,  -1.27910E+06,  -1.27910E+06
C:/temp/Job-9.odb,Step-1,Increment      1: Step Time =    1.000,"P-9-1",            89,          160.,          200.,            0.,NA,NA,"",   648.039E+03,  -630.718E+03,  -630.718E+03
C:/temp/Job-9.odb,Step-1,Increment      1: Step Time =    1.000,"P-9-1",            90,          170.,          200.,            0.,NA,NA,"",   267.672E+03,       216.273,       216.273
C:/temp/Job-9.odb,Step-1,Increment      1: Step Time =    1.000,"P-9-1",            91,          180.,          200.,            0.,NA,NA,"",   541.097E+03,   526.696E+03,   526.696E+03
C:/temp/Job-9.odb,Step-1,Increment      1: Step Time =    1.000,"P-9-1",            92,          190.,          200.,            0.,NA,NA,"",   871.930E+03,   861.531E+03,   861.531E+03
C:/temp/Job-9.odb,Step-1,Increment      1: Step Time =    1.000,"P-9-1",            93,            0.,          200.,            0.,NA,NA,"",   6.40295E+06,   6.73070E+06,   6.73070E+06
C:/temp/Job-9.odb,Step-1,Increment      1: Step Time =    1.000,"P-9-1",            94,            0.,           10.,            0.,NA,NA,"",   4.33464E+06,   4.77995E+06,   4.77995E+06
C:/temp/Job-9.odb,Step-1,Increment      1: Step Time =    1.000,"P-9-1",            95,            0.,           20.,            0.,NA,NA,"",   2.77991E+06,   3.10290E+06,   3.10290E+06
C:/temp/Job-9.odb,Step-1,Increment      1: Step Time =    1.000,"P-9-1",            96,            0.,           30.,            0.,NA,NA,"",   1.43714E+06,   1.61267E+06,   1.61267E+06
C:/temp/Job-9.odb,Step-1,Increment      1: Step Time =    1.000,"P-9-1",            97,            0.,           40.,            0.,NA,NA,"",   375.456E+03,   427.651E+03,   427.651E+03
C:/temp/Job-9.odb,Step-1,Increment      1: Step Time =    1.000,"P-9-1",            98,            0.,           50.,            0.,NA,NA,"",   429.168E+03,  -432.491E+03,  -432.491E+03
C:/temp/Job-9.odb,Step-1,Increment      1: Step Time =    1.000,"P-9-1",            99,            0.,           60.,            0.,NA,NA,"",   855.117E+03,  -887.480E+03,  -887.480E+03
C:/temp/Job-9.odb,Step-1,Increment      1: Step Time =    1.000,"P-9-1",           100,            0.,           70.,            0.,NA,NA,"",   927.544E+03,  -954.781E+03,  -954.781E+03
C:/temp/Job-9.odb,Step-1,Increment      1: Step Time =    1.000,"P-9-1",           101,            0.,           80.,            0.,NA,NA,"",   767.954E+03,  -795.593E+03,  -795.593E+03
C:/temp/Job-9.odb,Step-1,Increment      1: Step Time =    1.000,"P-9-1",           102,            0.,           90.,            0.,NA,NA,"",   495.751E+03,  -544.723E+03,  -544.723E+03
C:/temp/Job-9.odb,Step-1,Increment      1: Step Time =    1.000,"P-9-1",           103,            0.,          100.,            0.,NA,NA,"",   327.317E+03,  -376.465E+03,  -376.465E+03
C:/temp/Job-9.odb,Step-1,Increment      1: Step Time =    1.000,"P-9-1",           104,            0.,          110.,            0.,NA,NA,"",   483.650E+03,  -533.884E+03,  -533.884E+03
C:/temp/Job-9.odb,Step-1,Increment      1: Step Time =    1.000,"P-9-1",           105,            0.,          120.,            0.,NA,NA,"",   764.962E+03,  -793.044E+03,  -793.044E+03
C:/temp/Job-9.odb,Step-1,Increment      1: Step Time =    1.000,"P-9-1",           106,            0.,          130.,            0.,NA,NA,"",   925.106E+03,  -950.481E+03,  -950.481E+03
C:/temp/Job-9.odb,Step-1,Increment      1: Step Time =    1.000,"P-9-1",           107,            0.,          140.,            0.,NA,NA,"",   854.178E+03,  -879.617E+03,  -879.617E+03
C:/temp/Job-9.odb,Step-1,Increment      1: Step Time =    1.000,"P-9-1",           108,            0.,          150.,            0.,NA,NA,"",   448.613E+03,  -430.953E+03,  -430.953E+03
C:/temp/Job-9.odb,Step-1,Increment      1: Step Time =    1.000,"P-9-1",           109,            0.,          160.,            0.,NA,NA,"",   400.464E+03,   455.877E+03,   455.877E+03
C:/temp/Job-9.odb,Step-1,Increment      1: Step Time =    1.000,"P-9-1",           110,            0.,          170.,            0.,NA,NA,"",   1.46501E+06,   1.64278E+06,   1.64278E+06
C:/temp/Job-9.odb,Step-1,Increment      1: Step Time =    1.000,"P-9-1",           111,            0.,          180.,            0.,NA,NA,"",   2.78111E+06,   3.10453E+06,   3.10453E+06
C:/temp/Job-9.odb,Step-1,Increment      1: Step Time =    1.000,"P-9-1",           112,            0.,          190.,            0.,NA,NA,"",   4.33993E+06,   4.78541E+06,   4.78541E+06
C:/temp/Job-9.odb,Step-1,Increment      1: Step Time =    1.000,"P-9-1",           113,       190.174,       20.1259,            0.,NA,NA,"",   1.24040E+06,   1.11522E+06,   1.11522E+06
C:/temp/Job-9.odb,Step-1,Increment      1: Step Time =    1.000,"P-9-1",           114,       181.052,       74.4216,            0.,NA,NA,"",   2.77882E+06,  -485.617E+03,  -485.617E+03
C:/temp/Job-9.odb,Step-1,Increment      1: Step Time =    1.000,"P-9-1",           115,       18.4799,       74.2770,            0.,NA,NA,"",   1.14729E+06,  -1.18191E+06,  -1.18191E+06
C:/temp/Job-9.odb,Step-1,Increment      1: Step Time =    1.000,"P-9-1",           116,       181.684,       127.624,            0.,NA,NA,"",   2.78374E+06,   173.436E+03,   173.436E+03
C:/temp/Job-9.odb,Step-1,Increment      1: Step Time =    1.000,"P-9-1",           117,       21.7439,       127.158,            0.,NA,NA,"",   1.30010E+06,  -1.33032E+06,  -1.33032E+06
C:/temp/Job-9.odb,Step-1,Increment      1: Step Time =    1.000,"P-9-1",           118,       189.882,       179.742,            0.,NA,NA,"",   1.25104E+06,   1.12345E+06,   1.12345E+06
C:/temp/Job-9.odb,Step-1,Increment      1: Step Time =    1.000,"P-9-1",           119,       179.214,       179.170,            0.,NA,NA,"",   1.50697E+06,   1.41503E+06,   1.41503E+06
C:/temp/Job-9.odb,Step-1,Increment      1: Step Time =    1.000,"P-9-1",           120,       167.370,       181.090,            0.,NA,NA,"",   1.82819E+06,   1.72393E+06,   1.72393E+06
C:/temp/Job-9.odb,Step-1,Increment      1: Step Time =    1.000,"P-9-1",           121,       157.810,       176.505,            0.,NA,NA,"",   2.79413E+06,   2.80453E+06,   2.80453E+06
C:/temp/Job-9.odb,Step-1,Increment      1: Step Time =    1.000,"P-9-1",           122,       147.902,       178.839,            0.,NA,NA,"",   3.26062E+06,   3.33603E+06,   3.33603E+06
C:/temp/Job-9.odb,Step-1,Increment      1: Step Time =    1.000,"P-9-1",           123,       137.665,       177.024,            0.,NA,NA,"",   5.42822E+06,   5.63652E+06,   5.63652E+06
C:/temp/Job-9.odb,Step-1,Increment      1: Step Time =    1.000,"P-9-1",           124,       128.253,       179.675,            0.,NA,NA,"",   6.35421E+06,   6.60645E+06,   6.60645E+06
C:/temp/Job-9.odb,Step-1,Increment      1: Step Time =    1.000,"P-9-1",           125,       117.326,       178.770,            0.,NA,NA,"",   9.63371E+06,   9.83914E+06,   9.83914E+06
C:/temp/Job-9.odb,Step-1,Increment      1: Step Time =    1.000,"P-9-1",           126,       84.3810,       178.340,            0.,NA,NA,"",   5.10370E+06,   5.03772E+06,   5.03772E+06
C:/temp/Job-9.odb,Step-1,Increment      1: Step Time =    1.000,"P-9-1",           127,       73.4690,       180.258,            0.,NA,NA,"",   4.03762E+06,   3.53275E+06,   3.53275E+06
C:/temp/Job-9.odb,Step-1,Increment      1: Step Time =    1.000,"P-9-1",           128,       63.8850,       181.031,            0.,NA,NA,"",   3.59318E+06,   3.01000E+06,   3.01000E+06
C:/temp/Job-9.odb,Step-1,Increment      1: Step Time =    1.000,"P-9-1",           129,       56.5829,       176.676,            0.,NA,NA,"",   2.67267E+06,   1.99823E+06,   1.99823E+06
C:/temp/Job-9.odb,Step-1,Increment      1: Step Time =    1.000,"P-9-1",           130,       42.3152,       179.364,            0.,NA,NA,"",   2.97403E+06,   2.72646E+06,   2.72646E+06
C:/temp/Job-9.odb,Step-1,Increment      1: Step Time =    1.000,"P-9-1",           131,       31.4240,       177.946,            0.,NA,NA,"",   2.74615E+06,   2.67069E+06,   2.67069E+06
C:/temp/Job-9.odb,Step-1,Increment      1: Step Time =    1.000,"P-9-1",           132,       20.7954,       179.296,            0.,NA,NA,"",   2.95747E+06,   3.02498E+06,   3.02498E+06
C:/temp/Job-9.odb,Step-1,Increment      1: Step Time =    1.000,"P-9-1",           133,       9.96478,       179.931,            0.,NA,NA,"",   2.98544E+06,   3.20175E+06,   3.20175E+06
C:/temp/Job-9.odb,Step-1,Increment      1: Step Time =    1.000,"P-9-1",           134,       9.82365,       170.281,            0.,NA,NA,"",   1.42078E+06,   1.58857E+06,   1.58857E+06
C:/temp/Job-9.odb,Step-1,Increment      1: Step Time =    1.000,"P-9-1",           135,       29.4328,       168.774,            0.,NA,NA,"",   1.11008E+06,   996.942E+03,   996.942E+03
C:/temp/Job-9.odb,Step-1,Increment      1: Step Time =    1.000,"P-9-1",           136,       42.5250,       167.957,            0.,NA,NA,"",   1.40978E+06,  -598.327E+03,  -598.327E+03
C:/temp/Job-9.odb,Step-1,Increment      1: Step Time =    1.000,"P-9-1",           137,       52.7977,       169.290,            0.,NA,NA,"",   1.89836E+06,  -1.63144E+06,  -1.63144E+06
C:/temp/Job-9.odb,Step-1,Increment      1: Step Time =    1.000,"P-9-1",           138,       149.249,       172.493,            0.,NA,NA,"",   4.27782E+06,   4.41769E+06,   4.41769E+06
C:/temp/Job-9.odb,Step-1,Increment      1: Step Time =    1.000,"P-9-1",           139,       160.492,       169.009,            0.,NA,NA,"",   3.16271E+06,   3.19362E+06,   3.19362E+06
C:/temp/Job-9.odb,Step-1,Increment      1: Step Time =    1.000,"P-9-1",           140,       166.493,       170.744,            0.,NA,NA,"",   2.63545E+06,   2.59039E+06,   2.59039E+06
C:/temp/Job-9.odb,Step-1,Increment      1: Step Time =    1.000,"P-9-1",           141,       176.652,       169.996,            0.,NA,NA,"",   2.02137E+06,   1.93024E+06,   1.93024E+06
C:/temp/Job-9.odb,Step-1,Increment      1: Step Time =    1.000,"P-9-1",           142,       190.305,       169.747,            0.,NA,NA,"",   1.36563E+06,   1.25211E+06,   1.25211E+06
C:/temp/Job-9.odb,Step-1,Increment      1: Step Time =    1.000,"P-9-1",           143,       158.444,       157.688,            0.,NA,NA,"",   3.85498E+06,   3.90517E+06,   3.90517E+06
C:/temp/Job-9.odb,Step-1,Increment      1: Step Time =    1.000,"P-9-1",           144,       169.069,       156.841,            0.,NA,NA,"",   2.98160E+06,   2.82369E+06,   2.82369E+06
C:/temp/Job-9.odb,Step-1,Increment      1: Step Time =    1.000,"P-9-1",           145,       180.422,       159.847,            0.,NA,NA,"",   2.32452E+06,   2.13612E+06,   2.13612E+06
C:/temp/Job-9.odb,Step-1,Increment      1: Step Time =    1.000,"P-9-1",           146,       190.596,       160.095,            0.,NA,NA,"",   1.53522E+06,   1.47298E+06,   1.47298E+06
C:/temp/Job-9.odb,Step-1,Increment      1: Step Time =    1.000,"P-9-1",           147,       169.609,       146.513,            0.,NA,NA,"",   2.54864E+06,   2.28364E+06,   2.28364E+06
C:/temp/Job-9.odb,Step-1,Increment      1: Step Time =    1.000,"P-9-1",           148,       180.700,       143.911,            0.,NA,NA,"",   3.02990E+06,   2.48168E+06,   2.48168E+06
C:/temp/Job-9.odb,Step-1,Increment      1: Step Time =    1.000,"P-9-1",           149,       190.601,       150.625,            0.,NA,NA,"",   2.02602E+06,   1.97359E+06,   1.97359E+06
C:/temp/Job-9.odb,Step-1,Increment      1: Step Time =    1.000,"P-9-1",           150,       177.028,       136.349,            0.,NA,NA,"",   2.63768E+06,   1.78371E+06,   1.78371E+06
C:/temp/Job-9.odb,Step-1,Increment      1: Step Time =    1.000,"P-9-1",           151,       190.197,       135.122,            0.,NA,NA,"",   3.06762E+06,   2.99086E+06,   2.99086E+06
C:/temp/Job-9.odb,Step-1,Increment      1: Step Time =    1.000,"P-9-1",           152,       190.754,       125.191,            0.,NA,NA,"",   3.46402E+06,   3.44604E+06,   3.44604E+06
C:/temp/Job-9.odb,Step-1,Increment      1: Step Time =    1.000,"P-9-1",           153,       189.779,       115.623,            0.,NA,NA,"",   3.28068E+06,   3.23470E+06,   3.23470E+06
C:/temp/Job-9.odb,Step-1,Increment      1: Step Time =    1.000,"P-9-1",           154,       179.472,       115.557,            0.,NA,NA,"",   4.12469E+06,  -4.00378E+06,  -4.00378E+06
C:/temp/Job-9.odb,Step-1,Increment      1: Step Time =    1.000,"P-9-1",           155,       189.893,       105.201,            0.,NA,NA,"",   2.75968E+06,   2.88734E+06,   2.88734E+06
C:/temp/Job-9.odb,Step-1,Increment      1: Step Time =    1.000,"P-9-1",           156,       190.032,       94.8390,            0.,NA,NA,"",   2.84336E+06,   2.97435E+06,   2.97435E+06
C:/temp/Job-9.odb,Step-1,Increment      1: Step Time =    1.000,"P-9-1",           157,       178.523,       83.3832,            0.,NA,NA,"",   4.29757E+06,  -4.22665E+06,  -4.22665E+06
C:/temp/Job-9.odb,Step-1,Increment      1: Step Time =    1.000,"P-9-1",           158,       190.391,       85.1746,            0.,NA,NA,"",   3.43158E+06,   3.49373E+06,   3.49373E+06
C:/temp/Job-9.odb,Step-1,Increment      1: Step Time =    1.000,"P-9-1",           159,       180.776,       61.3453,            0.,NA,NA,"",   3.06093E+06,   2.35358E+06,   2.35358E+06
C:/temp/Job-9.odb,Step-1,Increment      1: Step Time =    1.000,"P-9-1",           160,       190.228,       65.6218,            0.,NA,NA,"",   3.07091E+06,   2.99490E+06,   2.99490E+06
C:/temp/Job-9.odb,Step-1,Increment      1: Step Time =    1.000,"P-9-1",           161,       189.124,       75.3137,            0.,NA,NA,"",   3.26984E+06,   3.10170E+06,   3.10170E+06
C:/temp/Job-9.odb,Step-1,Increment      1: Step Time =    1.000,"P-9-1",           162,       168.363,       51.1176,            0.,NA,NA,"",   2.68344E+06,   2.49053E+06,   2.49053E+06
C:/temp/Job-9.odb,Step-1,Increment      1: Step Time =    1.000,"P-9-1",           163,       177.958,       51.2286,            0.,NA,NA,"",   2.86069E+06,   2.44783E+06,   2.44783E+06
C:/temp/Job-9.odb,Step-1,Increment      1: Step Time =    1.000,"P-9-1",           164,       187.408,       51.4304,            0.,NA,NA,"",   2.44737E+06,   2.25788E+06,   2.25788E+06
C:/temp/Job-9.odb,Step-1,Increment      1: Step Time =    1.000,"P-9-1",           165,       157.383,       41.3353,            0.,NA,NA,"",   3.99910E+06,   4.05454E+06,   4.05454E+06
C:/temp/Job-9.odb,Step-1,Increment      1: Step Time =    1.000,"P-9-1",           166,       169.767,       41.9089,            0.,NA,NA,"",   2.96031E+06,   2.79801E+06,   2.79801E+06
C:/temp/Job-9.odb,Step-1,Increment      1: Step Time =    1.000,"P-9-1",           167,       177.642,       39.9592,            0.,NA,NA,"",   2.51063E+06,   2.31196E+06,   2.31196E+06
C:/temp/Job-9.odb,Step-1,Increment      1: Step Time =    1.000,"P-9-1",           168,       190.454,       43.7738,            0.,NA,NA,"",   1.70099E+06,   1.65998E+06,   1.65998E+06
C:/temp/Job-9.odb,Step-1,Increment      1: Step Time =    1.000,"P-9-1",           169,       148.033,       28.8693,            0.,NA,NA,"",   4.73038E+06,   4.87546E+06,   4.87546E+06
C:/temp/Job-9.odb,Step-1,Increment      1: Step Time =    1.000,"P-9-1",           170,       160.470,       30.1243,            0.,NA,NA,"",   3.18715E+06,   3.20426E+06,   3.20426E+06
C:/temp/Job-9.odb,Step-1,Increment      1: Step Time =    1.000,"P-9-1",           171,       170.634,       32.1884,            0.,NA,NA,"",   2.51896E+06,   2.42167E+06,   2.42167E+06
C:/temp/Job-9.odb,Step-1,Increment      1: Step Time =    1.000,"P-9-1",           172,       180.882,       30.1778,            0.,NA,NA,"",   1.77797E+06,   1.69109E+06,   1.69109E+06
C:/temp/Job-9.odb,Step-1,Increment      1: Step Time =    1.000,"P-9-1",           173,       190.555,       34.6584,            0.,NA,NA,"",   1.39135E+06,   1.30979E+06,   1.30979E+06
C:/temp/Job-9.odb,Step-1,Increment      1: Step Time =    1.000,"P-9-1",           174,       126.049,       20.1259,            0.,NA,NA,"",   6.75621E+06,   7.01178E+06,   7.01178E+06
C:/temp/Job-9.odb,Step-1,Increment      1: Step Time =    1.000,"P-9-1",           175,       10.1601,       20.2423,            0.,NA,NA,"",   2.95233E+06,   3.16679E+06,   3.16679E+06
C:/temp/Job-9.odb,Step-1,Increment      1: Step Time =    1.000,"P-9-1",           176,       21.6391,       21.3764,            0.,NA,NA,"",   2.85526E+06,   2.91054E+06,   2.91054E+06
C:/temp/Job-9.odb,Step-1,Increment      1: Step Time =    1.000,"P-9-1",           177,       32.6183,       19.7397,            0.,NA,NA,"",   3.20842E+06,   3.13366E+06,   3.13366E+06
C:/temp/Job-9.odb,Step-1,Increment      1: Step Time =    1.000,"P-9-1",           178,       42.2666,       19.9939,            0.,NA,NA,"",   3.11146E+06,   2.88713E+06,   2.88713E+06
C:/temp/Job-9.odb,Step-1,Increment      1: Step Time =    1.000,"P-9-1",           179,       50.1087,       23.7035,            0.,NA,NA,"",   2.45133E+06,   1.90486E+06,   1.90486E+06
C:/temp/Job-9.odb,Step-1,Increment      1: Step Time =    1.000,"P-9-1",           180,       64.9996,       22.4894,            0.,NA,NA,"",   2.95637E+06,   2.23496E+06,   2.23496E+06
C:/temp/Job-9.odb,Step-1,Increment      1: Step Time =    1.000,"P-9-1",           181,       73.5898,       20.6531,            0.,NA,NA,"",   3.70638E+06,   3.24371E+06,   3.24371E+06
C:/temp/Job-9.odb,Step-1,Increment      1: Step Time =    1.000,"P-9-1",           182,       82.9312,       21.5055,            0.,NA,NA,"",   4.81692E+06,   4.68735E+06,   4.68735E+06
C:/temp/Job-9.odb,Step-1,Increment      1: Step Time =    1.000,"P-9-1",           183,       115.674,       20.9041,            0.,NA,NA,"",   9.70730E+06,   9.90085E+06,   9.90085E+06
C:/temp/Job-9.odb,Step-1,Increment      1: Step Time =    1.000,"P-9-1",           184,       135.332,       20.7017,            0.,NA,NA,"",   5.03583E+06,   5.26207E+06,   5.26207E+06
C:/temp/Job-9.odb,Step-1,Increment      1: Step Time =    1.000,"P-9-1",           185,       147.839,       20.4663,            0.,NA,NA,"",   3.17969E+06,   3.25173E+06,   3.25173E+06
C:/temp/Job-9.odb,Step-1,Increment      1: Step Time =    1.000,"P-9-1",           186,       159.938,       21.4901,            0.,NA,NA,"",   2.42197E+06,   2.37448E+06,   2.37448E+06
C:/temp/Job-9.odb,Step-1,Increment      1: Step Time =    1.000,"P-9-1",           187,       168.318,       23.5161,            0.,NA,NA,"",   2.13528E+06,   2.05333E+06,   2.05333E+06
C:/temp/Job-9.odb,Step-1,Increment      1: Step Time =    1.000,"P-9-1",           188,       180.725,       20.5847,            0.,NA,NA,"",   1.45454E+06,   1.36231E+06,   1.36231E+06
C:/temp/Job-9.odb,Step-1,Increment      1: Step Time =    1.000,"P-9-1",           189,       51.5623,       29.9652,            0.,NA,NA,"",   1.86051E+06,  -892.786E+03,  -892.786E+03
C:/temp/Job-9.odb,Step-1,Increment      1: Step Time =    1.000,"P-9-1",           190,       43.7244,       33.4011,            0.,NA,NA,"",   1.42765E+06,  -1.28408E+06,  -1.28408E+06
C:/temp/Job-9.odb,Step-1,Increment      1: Step Time =    1.000,"P-9-1",           191,       32.0207,       31.5000,            0.,NA,NA,"",   1.08605E+06,   608.633E+03,   608.633E+03
C:/temp/Job-9.odb,Step-1,Increment      1: Step Time =    1.000,"P-9-1",           192,       23.3724,       32.9545,            0.,NA,NA,"",   914.271E+03,   944.872E+03,   944.872E+03
C:/temp/Job-9.odb,Step-1,Increment      1: Step Time =    1.000,"P-9-1",           193,       14.4555,       30.3309,            0.,NA,NA,"",   1.29678E+06,   1.43246E+06,   1.43246E+06
C:/temp/Job-9.odb,Step-1,Increment      1: Step Time =    1.000,"P-9-1",           194,       42.2886,       42.3837,            0.,NA,NA,"",   2.77934E+06,  -2.83418E+06,  -2.83418E+06
C:/temp/Job-9.odb,Step-1,Increment      1: Step Time =    1.000,"P-9-1",           195,       32.3041,       41.5018,            0.,NA,NA,"",   1.21948E+06,  -1.20882E+06,  -1.20882E+06
C:/temp/Job-9.odb,Step-1,Increment      1: Step Time =    1.000,"P-9-1",           196,       24.0325,       42.6039,            0.,NA,NA,"",   760.287E+03,  -654.827E+03,  -654.827E+03
C:/temp/Job-9.odb,Step-1,Increment      1: Step Time =    1.000,"P-9-1",           197,       10.2787,       40.9437,            0.,NA,NA,"",   382.929E+03,   365.772E+03,   365.772E+03
C:/temp/Job-9.odb,Step-1,Increment      1: Step Time =    1.000,"P-9-1",           198,       29.6166,       52.1257,            0.,NA,NA,"",   1.99305E+06,  -2.01728E+06,  -2.01728E+06
C:/temp/Job-9.odb,Step-1,Increment      1: Step Time =    1.000,"P-9-1",           199,       23.0952,       52.9584,            0.,NA,NA,"",   1.47339E+06,  -1.43778E+06,  -1.43778E+06
C:/temp/Job-9.odb,Step-1,Increment      1: Step Time =    1.000,"P-9-1",           200,       8.79092,       50.6890,            0.,NA,NA,"",   762.584E+03,  -664.416E+03,  -664.416E+03
C:/temp/Job-9.odb,Step-1,Increment      1: Step Time =    1.000,"P-9-1",           201,       20.9653,       63.5116,            0.,NA,NA,"",   1.49812E+06,  -1.50349E+06,  -1.50349E+06
C:/temp/Job-9.odb,Step-1,Increment      1: Step Time =    1.000,"P-9-1",           202,       8.99681,       64.5855,            0.,NA,NA,"",   1.06515E+06,  -1.06570E+06,  -1.06570E+06
C:/temp/Job-9.odb,Step-1,Increment      1: Step Time =    1.000,"P-9-1",           203,       9.17289,       74.4842,            0.,NA,NA,"",   914.758E+03,  -951.871E+03,  -951.871E+03
C:/temp/Job-9.odb,Step-1,Increment      1: Step Time =    1.000,"P-9-1",           204,       9.13927,       84.3521,            0.,NA,NA,"",   665.511E+03,  -724.276E+03,  -724.276E+03
C:/temp/Job-9.odb,Step-1,Increment      1: Step Time =    1.000,"P-9-1",           205,       21.5838,       84.5955,            0.,NA,NA,"",   885.103E+03,  -908.564E+03,  -908.564E+03
C:/temp/Job-9.odb,Step-1,Increment      1: Step Time =    1.000,"P-9-1",           206,       9.79107,       94.2984,            0.,NA,NA,"",   469.640E+03,  -532.018E+03,  -532.018E+03
C:/temp/Job-9.odb,Step-1,Increment      1: Step Time =    1.000,"P-9-1",           207,       10.0359,       104.720,            0.,NA,NA,"",   460.643E+03,  -522.600E+03,  -522.600E+03
C:/temp/Job-9.odb,Step-1,Increment      1: Step Time =    1.000,"P-9-1",           208,       21.4661,       117.151,            0.,NA,NA,"",   938.300E+03,  -962.747E+03,  -962.747E+03
C:/temp/Job-9.odb,Step-1,Increment      1: Step Time =    1.000,"P-9-1",           209,       10.0212,       114.994,            0.,NA,NA,"",   659.326E+03,  -718.794E+03,  -718.794E+03
C:/temp/Job-9.odb,Step-1,Increment      1: Step Time =    1.000,"P-9-1",           210,       19.8773,       136.815,            0.,NA,NA,"",   1.43627E+06,  -1.44119E+06,  -1.44119E+06
C:/temp/Job-9.odb,Step-1,Increment      1: Step Time =    1.000,"P-9-1",           211,       10.1023,       135.464,            0.,NA,NA,"",   1.09558E+06,  -1.08627E+06,  -1.08627E+06
C:/temp/Job-9.odb,Step-1,Increment      1: Step Time =    1.000,"P-9-1",           212,       10.8060,       124.757,            0.,NA,NA,"",   933.352E+03,  -970.490E+03,  -970.490E+03
C:/temp/Job-9.odb,Step-1,Increment      1: Step Time =    1.000,"P-9-1",           213,       32.0763,       149.206,            0.,NA,NA,"",   2.23966E+06,  -2.28097E+06,  -2.28097E+06
C:/temp/Job-9.odb,Step-1,Increment      1: Step Time =    1.000,"P-9-1",           214,       23.5827,       148.912,            0.,NA,NA,"",   1.39140E+06,  -1.35714E+06,  -1.35714E+06
C:/temp/Job-9.odb,Step-1,Increment      1: Step Time =    1.000,"P-9-1",           215,       12.2212,       147.927,            0.,NA,NA,"",   935.418E+03,  -832.814E+03,  -832.814E+03
C:/temp/Job-9.odb,Step-1,Increment      1: Step Time =    1.000,"P-9-1",           216,       43.5689,       157.302,            0.,NA,NA,"",   3.11845E+06,  -3.16398E+06,  -3.16398E+06
C:/temp/Job-9.odb,Step-1,Increment      1: Step Time =    1.000,"P-9-1",           217,       30.5151,       159.302,            0.,NA,NA,"",   989.137E+03,  -945.438E+03,  -945.438E+03
C:/temp/Job-9.odb,Step-1,Increment      1: Step Time =    1.000,"P-9-1",           218,       20.0941,       158.561,            0.,NA,NA,"",   518.991E+03,  -96.9852E+03,  -96.9852E+03
C:/temp/Job-9.odb,Step-1,Increment      1: Step Time =    1.000,"P-9-1",           219,       9.98631,       161.011,            0.,NA,NA,"",   424.323E+03,   474.814E+03,   474.814E+03
C:/temp/Job-9.odb,Step-1,Increment      1: Step Time =    1.000,"P-9-1",           220,       189.964,       10.1607,            0.,NA,NA,"",   1.03901E+06,   967.886E+03,   967.886E+03
C:/temp/Job-9.odb,Step-1,Increment      1: Step Time =    1.000,"P-9-1",           221,       179.942,       10.5616,            0.,NA,NA,"",   1.04003E+06,   953.945E+03,   953.945E+03
C:/temp/Job-9.odb,Step-1,Increment      1: Step Time =    1.000,"P-9-1",           222,       168.883,       11.9680,            0.,NA,NA,"",   1.21820E+06,   1.08545E+06,   1.08545E+06
C:/temp/Job-9.odb,Step-1,Increment      1: Step Time =    1.000,"P-9-1",           223,       158.444,       9.46680,            0.,NA,NA,"",   1.07005E+06,   601.601E+03,   601.601E+03
C:/temp/Job-9.odb,Step-1,Increment      1: Step Time =    1.000,"P-9-1",           224,       148.958,       9.25116,            0.,NA,NA,"",   1.12454E+06,   274.528E+03,   274.528E+03
C:/temp/Job-9.odb,Step-1,Increment      1: Step Time =    1.000,"P-9-1",           225,       135.073,       8.25461,            0.,NA,NA,"",   1.11121E+06,   40.3052E+03,   40.3052E+03
C:/temp/Job-9.odb,Step-1,Increment      1: Step Time =    1.000,"P-9-1",           226,       125.848,       8.54715,            0.,NA,NA,"",   1.10699E+06,   387.271E+03,   387.271E+03
C:/temp/Job-9.odb,Step-1,Increment      1: Step Time =    1.000,"P-9-1",           227,       115.946,       10.0042,            0.,NA,NA,"",   2.11515E+06,   2.13123E+06,   2.13123E+06
C:/temp/Job-9.odb,Step-1,Increment      1: Step Time =    1.000,"P-9-1",           228,       105.323,       10.3784,            0.,NA,NA,"",   3.42665E+06,   3.32984E+06,   3.32984E+06
C:/temp/Job-9.odb,Step-1,Increment      1: Step Time =    1.000,"P-9-1",           229,       93.9004,       11.4496,            0.,NA,NA,"",   4.68793E+06,   4.42751E+06,   4.42751E+06
C:/temp/Job-9.odb,Step-1,Increment      1: Step Time =    1.000,"P-9-1",           230,       84.5336,       8.48611,            0.,NA,NA,"",   4.27954E+06,   3.91740E+06,   3.91740E+06
C:/temp/Job-9.odb,Step-1,Increment      1: Step Time =    1.000,"P-9-1",           231,       75.2955,       10.6754,            0.,NA,NA,"",   4.80592E+06,   4.40781E+06,   4.40781E+06
C:/temp/Job-9.odb,Step-1,Increment      1: Step Time =    1.000,"P-9-1",           232,       65.6206,       9.38014,            0.,NA,NA,"",   5.08220E+06,   4.83882E+06,   4.83882E+06
C:/temp/Job-9.odb,Step-1,Increment      1: Step Time =    1.000,"P-9-1",           233,       51.0447,       12.7430,            0.,NA,NA,"",   4.56230E+06,   4.36986E+06,   4.36986E+06
C:/temp/Job-9.odb,Step-1,Increment      1: Step Time =    1.000,"P-9-1",           234,       38.5554,       8.83479,            0.,NA,NA,"",   5.43251E+06,   5.39022E+06,   5.39022E+06
C:/temp/Job-9.odb,Step-1,Increment      1: Step Time =    1.000,"P-9-1",           235,       29.8853,       8.96268,            0.,NA,NA,"",   5.31413E+06,   5.29394E+06,   5.29394E+06
C:/temp/Job-9.odb,Step-1,Increment      1: Step Time =    1.000,"P-9-1",           236,       20.2802,       9.96415,            0.,NA,NA,"",   5.03883E+06,   5.06170E+06,   5.06170E+06
C:/temp/Job-9.odb,Step-1,Increment      1: Step Time =    1.000,"P-9-1",           237,       10.1957,       10.1675,            0.,NA,NA,"",   4.89052E+06,   5.02952E+06,   5.02952E+06
C:/temp/Job-9.odb,Step-1,Increment      1: Step Time =    1.000,"P-9-1",           238,       189.847,       189.885,            0.,NA,NA,"",   1.04178E+06,   968.479E+03,   968.479E+03
C:/temp/Job-9.odb,Step-1,Increment      1: Step Time =    1.000,"P-9-1",           239,       180.004,       190.108,            0.,NA,NA,"",   999.387E+03,   916.413E+03,   916.413E+03
C:/temp/Job-9.odb,Step-1,Increment      1: Step Time =    1.000,"P-9-1",           240,       166.017,       190.604,            0.,NA,NA,"",   970.506E+03,   807.140E+03,   807.140E+03
C:/temp/Job-9.odb,Step-1,Increment      1: Step Time =    1.000,"P-9-1",           241,       157.013,       189.623,            0.,NA,NA,"",   1.17520E+06,   929.451E+03,   929.451E+03
C:/temp/Job-9.odb,Step-1,Increment      1: Step Time =    1.000,"P-9-1",           242,       148.457,       186.372,            0.,NA,NA,"",   1.85148E+06,   1.75834E+06,   1.75834E+06
C:/temp/Job-9.odb,Step-1,Increment      1: Step Time =    1.000,"P-9-1",           243,       133.267,       190.239,            0.,NA,NA,"",   1.13734E+06,   557.321E+03,   557.321E+03
C:/temp/Job-9.odb,Step-1,Increment      1: Step Time =    1.000,"P-9-1",           244,       124.119,       190.368,            0.,NA,NA,"",   1.50048E+06,   1.07364E+06,   1.07364E+06
C:/temp/Job-9.odb,Step-1,Increment      1: Step Time =    1.000,"P-9-1",           245,       115.391,       191.750,            0.,NA,NA,"",   1.48430E+06,   1.07108E+06,   1.07108E+06
C:/temp/Job-9.odb,Step-1,Increment      1: Step Time =    1.000,"P-9-1",           246,       106.103,       188.557,            0.,NA,NA,"",   3.91845E+06,   3.88894E+06,   3.88894E+06
C:/temp/Job-9.odb,Step-1,Increment      1: Step Time =    1.000,"P-9-1",           247,       94.4441,       189.936,            0.,NA,NA,"",   4.06909E+06,   3.78109E+06,   3.78109E+06
C:/temp/Job-9.odb,Step-1,Increment      1: Step Time =    1.000,"P-9-1",           248,       84.3049,       190.991,            0.,NA,NA,"",   4.37505E+06,   4.00675E+06,   4.00675E+06
C:/temp/Job-9.odb,Step-1,Increment      1: Step Time =    1.000,"P-9-1",           249,       74.4882,       191.108,            0.,NA,NA,"",   4.78941E+06,   4.49133E+06,   4.49133E+06
C:/temp/Job-9.odb,Step-1,Increment      1: Step Time =    1.000,"P-9-1",           250,       65.0260,       190.873,            0.,NA,NA,"",   5.06157E+06,   4.83174E+06,   4.83174E+06
C:/temp/Job-9.odb,Step-1,Increment      1: Step Time =    1.000,"P-9-1",           251,       49.6709,       190.768,            0.,NA,NA,"",   5.27018E+06,   5.16087E+06,   5.16087E+06
C:/temp/Job-9.odb,Step-1,Increment      1: Step Time =    1.000,"P-9-1",           252,       39.8531,       190.126,            0.,NA,NA,"",   5.20463E+06,   5.15069E+06,   5.15069E+06
C:/temp/Job-9.odb,Step-1,Increment      1: Step Time =    1.000,"P-9-1",           253,       29.9476,       190.422,            0.,NA,NA,"",   5.17817E+06,   5.16499E+06,   5.16499E+06
C:/temp/Job-9.odb,Step-1,Increment      1: Step Time =    1.000,"P-9-1",           254,       20.1120,       189.966,            0.,NA,NA,"",   5.03270E+06,   5.05498E+06,   5.05498E+06
C:/temp/Job-9.odb,Step-1,Increment      1: Step Time =    1.000,"P-9-1",           255,       10.0900,       189.857,            0.,NA,NA,"",   4.89495E+06,   5.03564E+06,   5.03564E+06
C:/temp/Job-9.odb,Step-1,Increment      1: Step Time =    1.000,"P-9-1",           256,       95.0294,       175.837,            0.,NA,NA,"",   8.67554E+06,   8.73871E+06,   8.73871E+06
C:/temp/Job-9.odb,Step-1,Increment      1: Step Time =    1.000,"P-9-1",           257,       90.0800,       175.350,            0.,NA,NA,"",   6.94467E+06,   6.99278E+06,   6.99278E+06
C:/temp/Job-9.odb,Step-1,Increment      1: Step Time =    1.000,"P-9-1",           258,       80.3298,       173.410,            0.,NA,NA,"",   3.39049E+06,   3.39092E+06,   3.39092E+06
C:/temp/Job-9.odb,Step-1,Increment      1: Step Time =    1.000,"P-9-1",           259,       75.5706,       171.967,            0.,NA,NA,"",   1.95326E+06,   1.83088E+06,   1.83088E+06
C:/temp/Job-9.odb,Step-1,Increment      1: Step Time =    1.000,"P-9-1",           260,       66.3861,       168.162,            0.,NA,NA,"",   1.72148E+06,  -1.59877E+06,  -1.59877E+06
C:/temp/Job-9.odb,Step-1,Increment      1: Step Time =    1.000,"P-9-1",           261,           62.,       165.818,            0.,NA,NA,"",   2.49973E+06,  -2.48049E+06,  -2.48049E+06
C:/temp/Job-9.odb,Step-1,Increment      1: Step Time =    1.000,"P-9-1",           262,       53.7341,       160.295,            0.,NA,NA,"",   3.58950E+06,  -3.61579E+06,  -3.61579E+06
C:/temp/Job-9.odb,Step-1,Increment      1: Step Time =    1.000,"P-9-1",           263,       49.8897,       157.140,            0.,NA,NA,"",   3.80983E+06,  -3.84451E+06,  -3.84451E+06
C:/temp/Job-9.odb,Step-1,Increment      1: Step Time =    1.000,"P-9-1",           264,       42.8602,       150.110,            0.,NA,NA,"",   3.67153E+06,  -3.70945E+06,  -3.70945E+06
C:/temp/Job-9.odb,Step-1,Increment      1: Step Time =    1.000,"P-9-1",           265,       39.7051,       146.266,            0.,NA,NA,"",   3.27708E+06,  -3.32569E+06,  -3.32569E+06
C:/temp/Job-9.odb,Step-1,Increment      1: Step Time =    1.000,"P-9-1",           266,       34.1821,          138.,            0.,NA,NA,"",   2.69613E+06,  -2.72211E+06,  -2.72211E+06
C:/temp/Job-9.odb,Step-1,Increment      1: Step Time =    1.000,"P-9-1",           267,       31.8377,       133.614,            0.,NA,NA,"",   2.24744E+06,  -2.27010E+06,  -2.27010E+06
C:/temp/Job-9.odb,Step-1,Increment      1: Step Time =    1.000,"P-9-1",           268,       28.0333,       124.429,            0.,NA,NA,"",   1.42822E+06,  -1.44356E+06,  -1.44356E+06
C:/temp/Job-9.odb,Step-1,Increment      1: Step Time =    1.000,"P-9-1",           269,       26.5896,       119.670,            0.,NA,NA,"",   1.14514E+06,  -1.15764E+06,  -1.15764E+06
C:/temp/Job-9.odb,Step-1,Increment      1: Step Time =    1.000,"P-9-1",           270,       24.6502,       109.920,            0.,NA,NA,"",   778.764E+03,  -795.930E+03,  -795.930E+03
C:/temp/Job-9.odb,Step-1,Increment      1: Step Time =    1.000,"P-9-1",           271,       24.1627,       104.971,            0.,NA,NA,"",   717.470E+03,  -730.514E+03,  -730.514E+03
C:/temp/Job-9.odb,Step-1,Increment      1: Step Time =    1.000,"P-9-1",           272,       24.1627,       95.0294,            0.,NA,NA,"",   711.368E+03,  -723.631E+03,  -723.631E+03
C:/temp/Job-9.odb,Step-1,Increment      1: Step Time =    1.000,"P-9-1",           273,       24.6502,       90.0800,            0.,NA,NA,"",   777.311E+03,  -790.318E+03,  -790.318E+03
C:/temp/Job-9.odb,Step-1,Increment      1: Step Time =    1.000,"P-9-1",           274,       26.5896,       80.3298,            0.,NA,NA,"",   1.10551E+06,  -1.12315E+06,  -1.12315E+06
C:/temp/Job-9.odb,Step-1,Increment      1: Step Time =    1.000,"P-9-1",           275,       28.0333,       75.5706,            0.,NA,NA,"",   1.39251E+06,  -1.42231E+06,  -1.42231E+06
C:/temp/Job-9.odb,Step-1,Increment      1: Step Time =    1.000,"P-9-1",           276,       31.8377,       66.3861,            0.,NA,NA,"",   2.20025E+06,  -2.22094E+06,  -2.22094E+06
C:/temp/Job-9.odb,Step-1,Increment      1: Step Time =    1.000,"P-9-1",           277,       34.1821,           62.,            0.,NA,NA,"",   2.67606E+06,  -2.69899E+06,  -2.69899E+06
C:/temp/Job-9.odb,Step-1,Increment      1: Step Time =    1.000,"P-9-1",           278,       39.7051,       53.7341,            0.,NA,NA,"",   3.46396E+06,  -3.49321E+06,  -3.49321E+06
C:/temp/Job-9.odb,Step-1,Increment      1: Step Time =    1.000,"P-9-1",           279,       42.8602,       49.8897,            0.,NA,NA,"",   3.66191E+06,  -3.70340E+06,  -3.70340E+06
C:/temp/Job-9.odb,Step-1,Increment      1: Step Time =    1.000,"P-9-1",           280,       49.8897,       42.8602,            0.,NA,NA,"",   3.67899E+06,  -3.71485E+06,  -3.71485E+06
C:/temp/Job-9.odb,Step-1,Increment      1: Step Time =    1.000,"P-9-1",           281,       53.7341,       39.7051,            0.,NA,NA,"",   3.43139E+06,  -3.44189E+06,  -3.44189E+06
C:/temp/Job-9.odb,Step-1,Increment      1: Step Time =    1.000,"P-9-1",           282,           62.,       34.1821,            0.,NA,NA,"",   2.22339E+06,  -2.19816E+06,  -2.19816E+06
C:/temp/Job-9.odb,Step-1,Increment      1: Step Time =    1.000,"P-9-1",           283,       66.3861,       31.8377,            0.,NA,NA,"",   1.44317E+06,  -1.35700E+06,  -1.35700E+06
C:/temp/Job-9.odb,Step-1,Increment      1: Step Time =    1.000,"P-9-1",           284,       75.5706,       28.0333,            0.,NA,NA,"",   1.68098E+06,   1.58596E+06,   1.58596E+06
C:/temp/Job-9.odb,Step-1,Increment      1: Step Time =    1.000,"P-9-1",           285,       80.3298,       26.5896,            0.,NA,NA,"",   3.09442E+06,   3.07391E+06,   3.07391E+06
C:/temp/Job-9.odb,Step-1,Increment      1: Step Time =    1.000,"P-9-1",           286,       90.0800,       24.6502,            0.,NA,NA,"",   6.62885E+06,   6.65935E+06,   6.65935E+06
C:/temp/Job-9.odb,Step-1,Increment      1: Step Time =    1.000,"P-9-1",           287,       95.0294,       24.1627,            0.,NA,NA,"",   8.74617E+06,   8.79038E+06,   8.79038E+06
C:/temp/Job-9.odb,Step-1,Increment      1: Step Time =    1.000,"P-9-1",           288,       104.971,       24.1627,            0.,NA,NA,"",   11.1328E+06,   11.2458E+06,   11.2458E+06
C:/temp/Job-9.odb,Step-1,Increment      1: Step Time =    1.000,"P-9-1",           289,       109.920,       24.6502,            0.,NA,NA,"",   11.7120E+06,   11.8429E+06,   11.8429E+06
C:/temp/Job-9.odb,Step-1,Increment      1: Step Time =    1.000,"P-9-1",           290,       119.670,       26.5896,            0.,NA,NA,"",   11.6493E+06,   11.7543E+06,   11.7543E+06
C:/temp/Job-9.odb,Step-1,Increment      1: Step Time =    1.000,"P-9-1",           291,       124.429,       28.0333,            0.,NA,NA,"",   10.8958E+06,    11.014E+06,    11.014E+06
C:/temp/Job-9.odb,Step-1,Increment      1: Step Time =    1.000,"P-9-1",           292,       133.614,       31.8377,            0.,NA,NA,"",   9.01626E+06,   9.15833E+06,   9.15833E+06
C:/temp/Job-9.odb,Step-1,Increment      1: Step Time =    1.000,"P-9-1",           293,          138.,       34.1821,            0.,NA,NA,"",   8.07479E+06,   8.18838E+06,   8.18838E+06
C:/temp/Job-9.odb,Step-1,Increment      1: Step Time =    1.000,"P-9-1",           294,       146.266,       39.7051,            0.,NA,NA,"",   6.24075E+06,   6.30548E+06,   6.30548E+06
C:/temp/Job-9.odb,Step-1,Increment      1: Step Time =    1.000,"P-9-1",           295,       150.110,       42.8602,            0.,NA,NA,"",   5.25653E+06,   5.30691E+06,   5.30691E+06
C:/temp/Job-9.odb,Step-1,Increment      1: Step Time =    1.000,"P-9-1",           296,       157.140,       49.8897,            0.,NA,NA,"",   3.55059E+06,   3.59132E+06,   3.59132E+06
C:/temp/Job-9.odb,Step-1,Increment      1: Step Time =    1.000,"P-9-1",           297,       160.295,       53.7341,            0.,NA,NA,"",   2.63875E+06,   2.63281E+06,   2.63281E+06
C:/temp/Job-9.odb,Step-1,Increment      1: Step Time =    1.000,"P-9-1",           298,       165.818,           62.,            0.,NA,NA,"",   1.09449E+06,   905.967E+03,   905.967E+03
C:/temp/Job-9.odb,Step-1,Increment      1: Step Time =    1.000,"P-9-1",           299,       168.162,       66.3861,            0.,NA,NA,"",   1.15828E+06,  -431.233E+03,  -431.233E+03
C:/temp/Job-9.odb,Step-1,Increment      1: Step Time =    1.000,"P-9-1",           300,       171.967,       75.5706,            0.,NA,NA,"",   3.19866E+06,  -3.18076E+06,  -3.18076E+06
C:/temp/Job-9.odb,Step-1,Increment      1: Step Time =    1.000,"P-9-1",           301,       173.410,       80.3298,            0.,NA,NA,"",   4.41383E+06,  -4.42642E+06,  -4.42642E+06
C:/temp/Job-9.odb,Step-1,Increment      1: Step Time =    1.000,"P-9-1",           302,       175.350,       90.0800,            0.,NA,NA,"",   6.33017E+06,  -6.39808E+06,  -6.39808E+06
C:/temp/Job-9.odb,Step-1,Increment      1: Step Time =    1.000,"P-9-1",           303,       175.837,       95.0294,            0.,NA,NA,"",   7.66141E+06,  -7.70175E+06,  -7.70175E+06
C:/temp/Job-9.odb,Step-1,Increment      1: Step Time =    1.000,"P-9-1",           304,       175.837,       104.971,            0.,NA,NA,"",   7.32012E+06,  -7.38320E+06,  -7.38320E+06
C:/temp/Job-9.odb,Step-1,Increment      1: Step Time =    1.000,"P-9-1",           305,       175.350,       109.920,            0.,NA,NA,"",   6.58498E+06,  -6.63314E+06,  -6.63314E+06
C:/temp/Job-9.odb,Step-1,Increment      1: Step Time =    1.000,"P-9-1",           306,       173.410,       119.670,            0.,NA,NA,"",   4.36504E+06,  -4.36104E+06,  -4.36104E+06
C:/temp/Job-9.odb,Step-1,Increment      1: Step Time =    1.000,"P-9-1",           307,       171.967,       124.429,            0.,NA,NA,"",   3.06727E+06,  -3.03076E+06,  -3.03076E+06
C:/temp/Job-9.odb,Step-1,Increment      1: Step Time =    1.000,"P-9-1",           308,       168.162,       133.614,            0.,NA,NA,"",   1.01261E+06,  -305.753E+03,  -305.753E+03
C:/temp/Job-9.odb,Step-1,Increment      1: Step Time =    1.000,"P-9-1",           309,       165.818,          138.,            0.,NA,NA,"",   1.09674E+06,   996.332E+03,   996.332E+03
C:/temp/Job-9.odb,Step-1,Increment      1: Step Time =    1.000,"P-9-1",           310,       160.295,       146.266,            0.,NA,NA,"",   2.67552E+06,   2.68601E+06,   2.68601E+06
C:/temp/Job-9.odb,Step-1,Increment      1: Step Time =    1.000,"P-9-1",           311,       157.140,       150.110,            0.,NA,NA,"",   3.46226E+06,   3.50799E+06,   3.50799E+06
C:/temp/Job-9.odb,Step-1,Increment      1: Step Time =    1.000,"P-9-1",           312,       150.110,       157.140,            0.,NA,NA,"",   5.09696E+06,   5.20009E+06,   5.20009E+06
C:/temp/Job-9.odb,Step-1,Increment      1: Step Time =    1.000,"P-9-1",           313,       146.266,       160.295,            0.,NA,NA,"",   6.05047E+06,   6.15333E+06,   6.15333E+06
C:/temp/Job-9.odb,Step-1,Increment      1: Step Time =    1.000,"P-9-1",           314,          138.,       165.818,            0.,NA,NA,"",   8.23986E+06,   8.32225E+06,   8.32225E+06
C:/temp/Job-9.odb,Step-1,Increment      1: Step Time =    1.000,"P-9-1",           315,       133.614,       168.162,            0.,NA,NA,"",   9.34154E+06,   9.44519E+06,   9.44519E+06
C:/temp/Job-9.odb,Step-1,Increment      1: Step Time =    1.000,"P-9-1",           316,       124.429,       171.967,            0.,NA,NA,"",   11.1649E+06,   11.2771E+06,   11.2771E+06
C:/temp/Job-9.odb,Step-1,Increment      1: Step Time =    1.000,"P-9-1",           317,       119.670,       173.410,            0.,NA,NA,"",   11.6507E+06,   11.7569E+06,   11.7569E+06
C:/temp/Job-9.odb,Step-1,Increment      1: Step Time =    1.000,"P-9-1",           318,       109.920,       175.350,            0.,NA,NA,"",   10.8121E+06,   10.9868E+06,   10.9868E+06
C:/temp/Job-9.odb,Step-1,Increment      1: Step Time =    1.000,"P-9-1",           319,       104.971,       175.837,            0.,NA,NA,"",   11.0035E+06,   11.1059E+06,   11.1059E+06
C:/temp/Job-9.odb,Step-1,Increment      1: Step Time =    1.000,"P-9-1",           320,          195.,            0.,            0.,NA,NA,"",   965.689E+03,   956.446E+03,   956.446E+03
C:/temp/Job-9.odb,Step-1,Increment      1: Step Time =    1.000,"P-9-1",           321,          185.,            0.,            0.,NA,NA,"",   738.818E+03,   726.185E+03,   726.185E+03
C:/temp/Job-9.odb,Step-1,Increment      1: Step Time =    1.000,"P-9-1",           322,          175.,            0.,            0.,NA,NA,"",   394.270E+03,   347.999E+03,   347.999E+03
C:/temp/Job-9.odb,Step-1,Increment      1: Step Time =    1.000,"P-9-1",           323,          165.,            0.,            0.,NA,NA,"",   442.065E+03,  -390.600E+03,  -390.600E+03
C:/temp/Job-9.odb,Step-1,Increment      1: Step Time =    1.000,"P-9-1",           324,          155.,            0.,            0.,NA,NA,"",   1.13424E+06,  -1.11609E+06,  -1.11609E+06
C:/temp/Job-9.odb,Step-1,Increment      1: Step Time =    1.000,"P-9-1",           325,          145.,            0.,            0.,NA,NA,"",   2.02470E+06,  -2.01200E+06,  -2.01200E+06
C:/temp/Job-9.odb,Step-1,Increment      1: Step Time =    1.000,"P-9-1",           326,          135.,            0.,            0.,NA,NA,"",   2.88415E+06,  -2.86961E+06,  -2.86961E+06
C:/temp/Job-9.odb,Step-1,Increment      1: Step Time =    1.000,"P-9-1",           327,          125.,            0.,            0.,NA,NA,"",   3.35744E+06,  -3.33906E+06,  -3.33906E+06
C:/temp/Job-9.odb,Step-1,Increment      1: Step Time =    1.000,"P-9-1",           328,          115.,            0.,            0.,NA,NA,"",   3.10320E+06,  -3.06713E+06,  -3.06713E+06
C:/temp/Job-9.odb,Step-1,Increment      1: Step Time =    1.000,"P-9-1",           329,          105.,            0.,            0.,NA,NA,"",   2.05558E+06,  -1.96315E+06,  -1.96315E+06
C:/temp/Job-9.odb,Step-1,Increment      1: Step Time =    1.000,"P-9-1",           330,           95.,            0.,            0.,NA,NA,"",   1.13960E+06,    60.374E+03,    60.374E+03
C:/temp/Job-9.odb,Step-1,Increment      1: Step Time =    1.000,"P-9-1",           331,           85.,            0.,            0.,NA,NA,"",   2.64717E+06,   2.56446E+06,   2.56446E+06
C:/temp/Job-9.odb,Step-1,Increment      1: Step Time =    1.000,"P-9-1",           332,           75.,            0.,            0.,NA,NA,"",   4.62708E+06,   4.58959E+06,   4.58959E+06
C:/temp/Job-9.odb,Step-1,Increment      1: Step Time =    1.000,"P-9-1",           333,           65.,            0.,            0.,NA,NA,"",   5.99586E+06,   5.96424E+06,   5.96424E+06
C:/temp/Job-9.odb,Step-1,Increment      1: Step Time =    1.000,"P-9-1",           334,           55.,            0.,            0.,NA,NA,"",   6.65742E+06,   6.64619E+06,   6.64619E+06
C:/temp/Job-9.odb,Step-1,Increment      1: Step Time =    1.000,"P-9-1",           335,           45.,            0.,            0.,NA,NA,"",   6.93289E+06,   6.92129E+06,   6.92129E+06
C:/temp/Job-9.odb,Step-1,Increment      1: Step Time =    1.000,"P-9-1",           336,           35.,            0.,            0.,NA,NA,"",   6.83241E+06,   6.82529E+06,   6.82529E+06
C:/temp/Job-9.odb,Step-1,Increment      1: Step Time =    1.000,"P-9-1",           337,           25.,            0.,            0.,NA,NA,"",   6.48608E+06,   6.48689E+06,   6.48689E+06
C:/temp/Job-9.odb,Step-1,Increment      1: Step Time =    1.000,"P-9-1",           338,           15.,            0.,            0.,NA,NA,"",   6.15197E+06,   6.16709E+06,   6.16709E+06
C:/temp/Job-9.odb,Step-1,Increment      1: Step Time =    1.000,"P-9-1",           339,            5.,            0.,            0.,NA,NA,"",   6.25399E+06,   6.39070E+06,   6.39070E+06
C:/temp/Job-9.odb,Step-1,Increment      1: Step Time =    1.000,"P-9-1",           340,          200.,          195.,            0.,NA,NA,"",   1.01002E+06,   984.560E+03,   984.560E+03
C:/temp/Job-9.odb,Step-1,Increment      1: Step Time =    1.000,"P-9-1",           341,          200.,          185.,            0.,NA,NA,"",   1.16461E+06,   1.00491E+06,   1.00491E+06
C:/temp/Job-9.odb,Step-1,Increment      1: Step Time =    1.000,"P-9-1",           342,          200.,          175.,            0.,NA,NA,"",   1.32412E+06,   1.02232E+06,   1.02232E+06
C:/temp/Job-9.odb,Step-1,Increment      1: Step Time =    1.000,"P-9-1",           343,          200.,          165.,            0.,NA,NA,"",   1.25354E+06,   1.03709E+06,   1.03709E+06
C:/temp/Job-9.odb,Step-1,Increment      1: Step Time =    1.000,"P-9-1",           344,          200.,          155.,            0.,NA,NA,"",   1.02925E+06,   1.11395E+06,   1.11395E+06
C:/temp/Job-9.odb,Step-1,Increment      1: Step Time =    1.000,"P-9-1",           345,          200.,          145.,            0.,NA,NA,"",   1.61905E+06,   1.86088E+06,   1.86088E+06
C:/temp/Job-9.odb,Step-1,Increment      1: Step Time =    1.000,"P-9-1",           346,          200.,          135.,            0.,NA,NA,"",   3.21043E+06,   3.57097E+06,   3.57097E+06
C:/temp/Job-9.odb,Step-1,Increment      1: Step Time =    1.000,"P-9-1",           347,          200.,          125.,            0.,NA,NA,"",   5.32372E+06,   5.72191E+06,   5.72191E+06
C:/temp/Job-9.odb,Step-1,Increment      1: Step Time =    1.000,"P-9-1",           348,          200.,          115.,            0.,NA,NA,"",   7.21677E+06,   7.63887E+06,   7.63887E+06
C:/temp/Job-9.odb,Step-1,Increment      1: Step Time =    1.000,"P-9-1",           349,          200.,          105.,            0.,NA,NA,"",   8.40375E+06,   8.82338E+06,   8.82338E+06
C:/temp/Job-9.odb,Step-1,Increment      1: Step Time =    1.000,"P-9-1",           350,          200.,           95.,            0.,NA,NA,"",   8.41901E+06,   8.84362E+06,   8.84362E+06
C:/temp/Job-9.odb,Step-1,Increment      1: Step Time =    1.000,"P-9-1",           351,          200.,           85.,            0.,NA,NA,"",   7.21458E+06,   7.63478E+06,   7.63478E+06
C:/temp/Job-9.odb,Step-1,Increment      1: Step Time =    1.000,"P-9-1",           352,          200.,           75.,            0.,NA,NA,"",   5.28812E+06,   5.68019E+06,   5.68019E+06
C:/temp/Job-9.odb,Step-1,Increment      1: Step Time =    1.000,"P-9-1",           353,          200.,           65.,            0.,NA,NA,"",   3.21046E+06,   3.55992E+06,   3.55992E+06
C:/temp/Job-9.odb,Step-1,Increment      1: Step Time =    1.000,"P-9-1",           354,          200.,           55.,            0.,NA,NA,"",   1.68213E+06,   1.92160E+06,   1.92160E+06
C:/temp/Job-9.odb,Step-1,Increment      1: Step Time =    1.000,"P-9-1",           355,          200.,           45.,            0.,NA,NA,"",   1.05245E+06,   1.13086E+06,   1.13086E+06
C:/temp/Job-9.odb,Step-1,Increment      1: Step Time =    1.000,"P-9-1",           356,          200.,           35.,            0.,NA,NA,"",   1.24713E+06,   1.03437E+06,   1.03437E+06
C:/temp/Job-9.odb,Step-1,Increment      1: Step Time =    1.000,"P-9-1",           357,          200.,           25.,            0.,NA,NA,"",   1.31234E+06,   1.02099E+06,   1.02099E+06
C:/temp/Job-9.odb,Step-1,Increment      1: Step Time =    1.000,"P-9-1",           358,          200.,           15.,            0.,NA,NA,"",   1.15720E+06,   1.00478E+06,   1.00478E+06
C:/temp/Job-9.odb,Step-1,Increment      1: Step Time =    1.000,"P-9-1",           359,          200.,            5.,            0.,NA,NA,"",   1.00893E+06,   985.238E+03,   985.238E+03
C:/temp/Job-9.odb,Step-1,Increment      1: Step Time =    1.000,"P-9-1",           360,            5.,          200.,            0.,NA,NA,"",   6.25502E+06,   6.39090E+06,   6.39090E+06
C:/temp/Job-9.odb,Step-1,Increment      1: Step Time =    1.000,"P-9-1",           361,           15.,          200.,            0.,NA,NA,"",   6.14382E+06,   6.15747E+06,   6.15747E+06
C:/temp/Job-9.odb,Step-1,Increment      1: Step Time =    1.000,"P-9-1",           362,           25.,          200.,            0.,NA,NA,"",   6.45460E+06,   6.45841E+06,   6.45841E+06
C:/temp/Job-9.odb,Step-1,Increment      1: Step Time =    1.000,"P-9-1",           363,           35.,          200.,            0.,NA,NA,"",   6.79234E+06,   6.79006E+06,   6.79006E+06
C:/temp/Job-9.odb,Step-1,Increment      1: Step Time =    1.000,"P-9-1",           364,           45.,          200.,            0.,NA,NA,"",   6.99623E+06,   6.98613E+06,   6.98613E+06
C:/temp/Job-9.odb,Step-1,Increment      1: Step Time =    1.000,"P-9-1",           365,           55.,          200.,            0.,NA,NA,"",   6.83027E+06,   6.81293E+06,   6.81293E+06
C:/temp/Job-9.odb,Step-1,Increment      1: Step Time =    1.000,"P-9-1",           366,           65.,          200.,            0.,NA,NA,"",   6.08502E+06,   6.06097E+06,   6.06097E+06
C:/temp/Job-9.odb,Step-1,Increment      1: Step Time =    1.000,"P-9-1",           367,           75.,          200.,            0.,NA,NA,"",   4.59146E+06,   4.55886E+06,   4.55886E+06
C:/temp/Job-9.odb,Step-1,Increment      1: Step Time =    1.000,"P-9-1",           368,           85.,          200.,            0.,NA,NA,"",   2.58112E+06,   2.50329E+06,   2.50329E+06
C:/temp/Job-9.odb,Step-1,Increment      1: Step Time =    1.000,"P-9-1",           369,           95.,          200.,            0.,NA,NA,"",   1.13017E+06,   37.4794E+03,   37.4794E+03
C:/temp/Job-9.odb,Step-1,Increment      1: Step Time =    1.000,"P-9-1",           370,          105.,          200.,            0.,NA,NA,"",   2.10404E+06,  -2.01184E+06,  -2.01184E+06
C:/temp/Job-9.odb,Step-1,Increment      1: Step Time =    1.000,"P-9-1",           371,          115.,          200.,            0.,NA,NA,"",   3.18332E+06,  -3.14269E+06,  -3.14269E+06
C:/temp/Job-9.odb,Step-1,Increment      1: Step Time =    1.000,"P-9-1",           372,          125.,          200.,            0.,NA,NA,"",   3.28781E+06,  -3.26722E+06,  -3.26722E+06
C:/temp/Job-9.odb,Step-1,Increment      1: Step Time =    1.000,"P-9-1",           373,          135.,          200.,            0.,NA,NA,"",   2.62969E+06,  -2.59212E+06,  -2.59212E+06
C:/temp/Job-9.odb,Step-1,Increment      1: Step Time =    1.000,"P-9-1",           374,          145.,          200.,            0.,NA,NA,"",   1.66034E+06,  -1.65751E+06,  -1.65751E+06
C:/temp/Job-9.odb,Step-1,Increment      1: Step Time =    1.000,"P-9-1",           375,          155.,          200.,            0.,NA,NA,"",   946.652E+03,  -935.152E+03,  -935.152E+03
C:/temp/Job-9.odb,Step-1,Increment      1: Step Time =    1.000,"P-9-1",           376,          165.,          200.,            0.,NA,NA,"",   384.146E+03,  -348.791E+03,  -348.791E+03
C:/temp/Job-9.odb,Step-1,Increment      1: Step Time =    1.000,"P-9-1",           377,          175.,          200.,            0.,NA,NA,"",   354.055E+03,   320.935E+03,   320.935E+03
C:/temp/Job-9.odb,Step-1,Increment      1: Step Time =    1.000,"P-9-1",           378,          185.,          200.,            0.,NA,NA,"",   725.431E+03,   714.286E+03,   714.286E+03
C:/temp/Job-9.odb,Step-1,Increment      1: Step Time =    1.000,"P-9-1",           379,          195.,          200.,            0.,NA,NA,"",   963.038E+03,   953.713E+03,   953.713E+03
C:/temp/Job-9.odb,Step-1,Increment      1: Step Time =    1.000,"P-9-1",           380,            0.,            5.,            0.,NA,NA,"",   5.56278E+06,   5.96229E+06,   5.96229E+06
C:/temp/Job-9.odb,Step-1,Increment      1: Step Time =    1.000,"P-9-1",           381,            0.,           15.,            0.,NA,NA,"",   3.53235E+06,   3.92218E+06,   3.92218E+06
C:/temp/Job-9.odb,Step-1,Increment      1: Step Time =    1.000,"P-9-1",           382,            0.,           25.,            0.,NA,NA,"",   2.09055E+06,   2.33829E+06,   2.33829E+06
C:/temp/Job-9.odb,Step-1,Increment      1: Step Time =    1.000,"P-9-1",           383,            0.,           35.,            0.,NA,NA,"",   859.977E+03,   970.466E+03,   970.466E+03
C:/temp/Job-9.odb,Step-1,Increment      1: Step Time =    1.000,"P-9-1",           384,            0.,           45.,            0.,NA,NA,"",   221.762E+03,  -37.5121E+03,  -37.5121E+03
C:/temp/Job-9.odb,Step-1,Increment      1: Step Time =    1.000,"P-9-1",           385,            0.,           55.,            0.,NA,NA,"",   689.943E+03,  -715.088E+03,  -715.088E+03
C:/temp/Job-9.odb,Step-1,Increment      1: Step Time =    1.000,"P-9-1",           386,            0.,           65.,            0.,NA,NA,"",   928.110E+03,  -959.105E+03,  -959.105E+03
C:/temp/Job-9.odb,Step-1,Increment      1: Step Time =    1.000,"P-9-1",           387,            0.,           75.,            0.,NA,NA,"",   869.524E+03,  -894.424E+03,  -894.424E+03
C:/temp/Job-9.odb,Step-1,Increment      1: Step Time =    1.000,"P-9-1",           388,            0.,           85.,            0.,NA,NA,"",   635.033E+03,  -672.070E+03,  -672.070E+03
C:/temp/Job-9.odb,Step-1,Increment      1: Step Time =    1.000,"P-9-1",           389,            0.,           95.,            0.,NA,NA,"",   378.637E+03,  -431.127E+03,  -431.127E+03
C:/temp/Job-9.odb,Step-1,Increment      1: Step Time =    1.000,"P-9-1",           390,            0.,          105.,            0.,NA,NA,"",   370.028E+03,  -422.296E+03,  -422.296E+03
C:/temp/Job-9.odb,Step-1,Increment      1: Step Time =    1.000,"P-9-1",           391,            0.,          115.,            0.,NA,NA,"",   627.414E+03,  -665.227E+03,  -665.227E+03
C:/temp/Job-9.odb,Step-1,Increment      1: Step Time =    1.000,"P-9-1",           392,            0.,          125.,            0.,NA,NA,"",   870.115E+03,  -895.094E+03,  -895.094E+03
C:/temp/Job-9.odb,Step-1,Increment      1: Step Time =    1.000,"P-9-1",           393,            0.,          135.,            0.,NA,NA,"",   925.178E+03,  -954.192E+03,  -954.192E+03
C:/temp/Job-9.odb,Step-1,Increment      1: Step Time =    1.000,"P-9-1",           394,            0.,          145.,            0.,NA,NA,"",   696.806E+03,  -705.869E+03,  -705.869E+03
C:/temp/Job-9.odb,Step-1,Increment      1: Step Time =    1.000,"P-9-1",           395,            0.,          155.,            0.,NA,NA,"",   241.798E+03,  -26.5425E+03,  -26.5425E+03
C:/temp/Job-9.odb,Step-1,Increment      1: Step Time =    1.000,"P-9-1",           396,            0.,          165.,            0.,NA,NA,"",   895.154E+03,   1.00824E+06,   1.00824E+06
C:/temp/Job-9.odb,Step-1,Increment      1: Step Time =    1.000,"P-9-1",           397,            0.,          175.,            0.,NA,NA,"",   2.10046E+06,   2.34947E+06,   2.34947E+06
C:/temp/Job-9.odb,Step-1,Increment      1: Step Time =    1.000,"P-9-1",           398,            0.,          185.,            0.,NA,NA,"",   3.53474E+06,   3.92484E+06,   3.92484E+06
C:/temp/Job-9.odb,Step-1,Increment      1: Step Time =    1.000,"P-9-1",           399,            0.,          195.,            0.,NA,NA,"",   5.56555E+06,   5.96563E+06,   5.96563E+06
C:/temp/Job-9.odb,Step-1,Increment      1: Step Time =    1.000,"P-9-1",           400,       99.4408,       180.225,            0.,NA,NA,"",   8.67046E+06,   8.74004E+06,   8.74004E+06
C:/temp/Job-9.odb,Step-1,Increment      1: Step Time =    1.000,"P-9-1",           401,       26.5845,       130.358,            0.,NA,NA,"",   1.70216E+06,  -1.72666E+06,  -1.72666E+06
C:/temp/Job-9.odb,Step-1,Increment      1: Step Time =    1.000,"P-9-1",           402,       32.6428,       143.407,            0.,NA,NA,"",   2.67873E+06,  -2.71749E+06,  -2.71749E+06
C:/temp/Job-9.odb,Step-1,Increment      1: Step Time =    1.000,"P-9-1",           403,       59.2484,       168.806,            0.,NA,NA,"",   2.18617E+06,  -2.04329E+06,  -2.04329E+06
C:/temp/Job-9.odb,Step-1,Increment      1: Step Time =    1.000,"P-9-1",           404,       65.7131,       174.477,            0.,NA,NA,"",   2.11742E+06,   987.863E+03,   987.863E+03
C:/temp/Job-9.odb,Step-1,Increment      1: Step Time =    1.000,"P-9-1",           405,       36.2147,       51.0775,            0.,NA,NA,"",   2.96906E+06,  -3.00944E+06,  -3.00944E+06
C:/temp/Job-9.odb,Step-1,Increment      1: Step Time =    1.000,"P-9-1",           406,       19.8494,       107.887,            0.,NA,NA,"",   704.102E+03,  -733.051E+03,  -733.051E+03
C:/temp/Job-9.odb,Step-1,Increment      1: Step Time =    1.000,"P-9-1",           407,       27.6725,       63.5943,            0.,NA,NA,"",   2.02073E+06,  -2.04379E+06,  -2.04379E+06
C:/temp/Job-9.odb,Step-1,Increment      1: Step Time =    1.000,"P-9-1",           408,       47.0623,       39.4776,            0.,NA,NA,"",   2.99702E+06,  -3.03223E+06,  -3.03223E+06
C:/temp/Job-9.odb,Step-1,Increment      1: Step Time =    1.000,"P-9-1",           409,       22.4129,       79.5866,            0.,NA,NA,"",   1.07021E+06,  -1.09596E+06,  -1.09596E+06
C:/temp/Job-9.odb,Step-1,Increment      1: Step Time =    1.000,"P-9-1",           410,       19.5571,       99.5867,            0.,NA,NA,"",   654.591E+03,  -682.136E+03,  -682.136E+03
C:/temp/Job-9.odb,Step-1,Increment      1: Step Time =    1.000,"P-9-1",           411,       75.6631,       175.883,            0.,NA,NA,"",   2.77044E+06,   2.51308E+06,   2.51308E+06
C:/temp/Job-9.odb,Step-1,Increment      1: Step Time =    1.000,"P-9-1",           412,       23.2994,       74.4219,            0.,NA,NA,"",   1.31517E+06,  -1.34639E+06,  -1.34639E+06
C:/temp/Job-9.odb,Step-1,Increment      1: Step Time =    1.000,"P-9-1",           413,       30.3489,       139.476,            0.,NA,NA,"",   2.39174E+06,  -2.42113E+06,  -2.42113E+06
C:/temp/Job-9.odb,Step-1,Increment      1: Step Time =    1.000,"P-9-1",           414,       28.3284,       134.997,            0.,NA,NA,"",   2.05151E+06,  -2.07646E+06,  -2.07646E+06
C:/temp/Job-9.odb,Step-1,Increment      1: Step Time =    1.000,"P-9-1",           415,       19.8889,       94.5035,            0.,NA,NA,"",   680.448E+03,  -706.603E+03,  -706.603E+03
C:/temp/Job-9.odb,Step-1,Increment      1: Step Time =    1.000,"P-9-1",           416,       30.5262,       59.2645,            0.,NA,NA,"",   2.39497E+06,  -2.42188E+06,  -2.42188E+06
C:/temp/Job-9.odb,Step-1,Increment      1: Step Time =    1.000,"P-9-1",           417,       94.3855,       180.040,            0.,NA,NA,"",   7.63979E+06,   7.65787E+06,   7.65787E+06
C:/temp/Job-9.odb,Step-1,Increment      1: Step Time =    1.000,"P-9-1",           418,       36.1943,       151.571,            0.,NA,NA,"",   2.64936E+06,  -2.70350E+06,  -2.70350E+06
C:/temp/Job-9.odb,Step-1,Increment      1: Step Time =    1.000,"P-9-1",           419,       19.6435,       104.333,            0.,NA,NA,"",   671.582E+03,  -700.171E+03,  -700.171E+03
C:/temp/Job-9.odb,Step-1,Increment      1: Step Time =    1.000,"P-9-1",           420,       62.8713,       171.584,            0.,NA,NA,"",   1.88366E+06,  -791.295E+03,  -791.295E+03
C:/temp/Job-9.odb,Step-1,Increment      1: Step Time =    1.000,"P-9-1",           421,       24.1568,       68.4152,            0.,NA,NA,"",   1.59268E+06,  -1.62151E+06,  -1.62151E+06
C:/temp/Job-9.odb,Step-1,Increment      1: Step Time =    1.000,"P-9-1",           422,       51.3854,       163.345,            0.,NA,NA,"",   2.92742E+06,  -2.94525E+06,  -2.94525E+06
C:/temp/Job-9.odb,Step-1,Increment      1: Step Time =    1.000,"P-9-1",           423,       131.372,       24.5962,            0.,NA,NA,"",   7.92890E+06,   8.14826E+06,   8.14826E+06
C:/temp/Job-9.odb,Step-1,Increment      1: Step Time =    1.000,"P-9-1",           424,       167.584,       56.7380,            0.,NA,NA,"",   2.06408E+06,   1.89078E+06,   1.89078E+06
C:/temp/Job-9.odb,Step-1,Increment      1: Step Time =    1.000,"P-9-1",           425,       168.844,       140.221,            0.,NA,NA,"",   1.56865E+06,   1.32995E+06,   1.32995E+06
C:/temp/Job-9.odb,Step-1,Increment      1: Step Time =    1.000,"P-9-1",           426,       71.8541,       176.252,            0.,NA,NA,"",   2.60581E+06,   2.16315E+06,   2.16315E+06
C:/temp/Job-9.odb,Step-1,Increment      1: Step Time =    1.000,"P-9-1",           427,       164.164,       48.7456,            0.,NA,NA,"",   2.95966E+06,   2.90595E+06,   2.90595E+06
C:/temp/Job-9.odb,Step-1,Increment      1: Step Time =    1.000,"P-9-1",           428,       24.9368,       125.747,            0.,NA,NA,"",   1.38139E+06,  -1.40419E+06,  -1.40419E+06
C:/temp/Job-9.odb,Step-1,Increment      1: Step Time =    1.000,"P-9-1",           429,       175.990,       74.5951,            0.,NA,NA,"",   2.96562E+06,  -2.71438E+06,  -2.71438E+06
C:/temp/Job-9.odb,Step-1,Increment      1: Step Time =    1.000,"P-9-1",           430,       172.373,       64.9930,            0.,NA,NA,"",   1.68748E+06,  -179.704E+03,  -179.704E+03
C:/temp/Job-9.odb,Step-1,Increment      1: Step Time =    1.000,"P-9-1",           431,       135.366,       172.225,            0.,NA,NA,"",   8.08981E+06,   8.25108E+06,   8.25108E+06
C:/temp/Job-9.odb,Step-1,Increment      1: Step Time =    1.000,"P-9-1",           432,       180.314,       105.170,            0.,NA,NA,"",   5.14176E+06,  -5.19240E+06,  -5.19240E+06
C:/temp/Job-9.odb,Step-1,Increment      1: Step Time =    1.000,"P-9-1",           433,       59.4432,       28.6716,            0.,NA,NA,"",   2.15947E+06,  -600.011E+03,  -600.011E+03
C:/temp/Job-9.odb,Step-1,Increment      1: Step Time =    1.000,"P-9-1",           434,       107.235,       181.035,            0.,NA,NA,"",   8.53066E+06,   8.69194E+06,   8.69194E+06
C:/temp/Job-9.odb,Step-1,Increment      1: Step Time =    1.000,"P-9-1",           435,       100.431,       19.8038,            0.,NA,NA,"",    8.7031E+06,   8.80493E+06,   8.80493E+06
C:/temp/Job-9.odb,Step-1,Increment      1: Step Time =    1.000,"P-9-1",           436,       171.517,       136.111,            0.,NA,NA,"",   1.57121E+06,   549.314E+03,   549.314E+03
C:/temp/Job-9.odb,Step-1,Increment      1: Step Time =    1.000,"P-9-1",           437,       139.637,       169.966,            0.,NA,NA,"",   7.26684E+06,   7.39770E+06,   7.39770E+06
C:/temp/Job-9.odb,Step-1,Increment      1: Step Time =    1.000,"P-9-1",           438,       179.360,       92.0953,            0.,NA,NA,"",   5.48975E+06,  -5.51939E+06,  -5.51939E+06
C:/temp/Job-9.odb,Step-1,Increment      1: Step Time =    1.000,"P-9-1",           439,       153.911,       161.614,            0.,NA,NA,"",   4.60419E+06,   4.70957E+06,   4.70957E+06
C:/temp/Job-9.odb,Step-1,Increment      1: Step Time =    1.000,"P-9-1",           440,       144.174,       168.293,            0.,NA,NA,"",   6.29607E+06,   6.41983E+06,   6.41983E+06
C:/temp/Job-9.odb,Step-1,Increment      1: Step Time =    1.000,"P-9-1",           441,       125.523,       23.9236,            0.,NA,NA,"",   9.43295E+06,   9.62371E+06,   9.62371E+06
C:/temp/Job-9.odb,Step-1,Increment      1: Step Time =    1.000,"P-9-1",           442,       179.915,       95.4310,            0.,NA,NA,"",   5.46164E+06,  -5.48792E+06,  -5.48792E+06
C:/temp/Job-9.odb,Step-1,Increment      1: Step Time =    1.000,"P-9-1",           443,       65.1917,       27.3167,            0.,NA,NA,"",   1.90164E+06,   100.440E+03,   100.440E+03
C:/temp/Job-9.odb,Step-1,Increment      1: Step Time =    1.000,"P-9-1",           444,       96.0063,       19.9018,            0.,NA,NA,"",   7.81783E+06,   7.86230E+06,   7.86230E+06
C:/temp/Job-9.odb,Step-1,Increment      1: Step Time =    1.000,"P-9-1",           445,       120.566,       22.5024,            0.,NA,NA,"",   9.81227E+06,   9.99010E+06,   9.99010E+06
C:/temp/Job-9.odb,Step-1,Increment      1: Step Time =    1.000,"P-9-1",           446,       130.915,       174.074,            0.,NA,NA,"",   8.80916E+06,   8.98872E+06,   8.98872E+06
C:/temp/Job-9.odb,Step-1,Increment      1: Step Time =    1.000,"P-9-1",           447,       92.7943,       18.9625,            0.,NA,NA,"",   6.71936E+06,   6.68667E+06,   6.68667E+06
C:/temp/Job-9.odb,Step-1,Increment      1: Step Time =    1.000,"P-9-1",           448,       178.566,       120.851,            0.,NA,NA,"",   3.48553E+06,  -3.24053E+06,  -3.24053E+06
C:/temp/Job-9.odb,Step-1,Increment      1: Step Time =    1.000,"P-9-1",           449,       175.059,       131.860,            0.,NA,NA,"",   2.22223E+06,  -458.890E+03,  -458.890E+03
C:/temp/Job-9.odb,Step-1,Increment      1: Step Time =    1.000,"P-9-1",           450,       74.5066,       24.5820,            0.,NA,NA,"",   2.38765E+06,   2.14871E+06,   2.14871E+06
C:/temp/Job-9.odb,Step-1,Increment      1: Step Time =    1.000,"P-9-1",           451,       69.9568,       25.8745,            0.,NA,NA,"",   1.82320E+06,   1.01929E+06,   1.01929E+06
C:/temp/Job-9.odb,Step-1,Increment      1: Step Time =    1.000,"P-9-1",           452,       163.612,       148.421,            0.,NA,NA,"",   2.73013E+06,   2.69220E+06,   2.69220E+06
C:/temp/Job-9.odb,Step-1,Increment      1: Step Time =    1.000,"P-9-1",           453,       126.302,       175.681,            0.,NA,NA,"",   9.43755E+06,   9.61679E+06,   9.61679E+06
C:/temp/Job-9.odb,Step-1,Increment      1: Step Time =    1.000,"P-9-1",           454,       140.771,       30.1306,            0.,NA,NA,"",   7.00896E+06,   7.16379E+06,   7.16379E+06
C:/temp/Job-9.odb,Step-1,Increment      1: Step Time =    1.000,"P-9-1",           455,       174.609,       69.7364,            0.,NA,NA,"",   2.22221E+06,  -1.80798E+06,  -1.80798E+06
C:/temp/Job-9.odb,Step-1,Increment      1: Step Time =    1.000,"P-9-1",           456,       180.319,       100.100,            0.,NA,NA,"",   5.36891E+06,  -5.43402E+06,  -5.43402E+06
C:/temp/Job-9.odb,Step-1,Increment      1: Step Time =    1.000,"P-9-1",           457,       136.323,       27.4857,            0.,NA,NA,"",   7.62662E+06,   7.81185E+06,   7.81185E+06
C:/temp/Job-9.odb,Step-1,Increment      1: Step Time =    1.000,"P-9-1",           458,       105.364,       19.8077,            0.,NA,NA,"",   9.27945E+06,   9.42319E+06,   9.42319E+06
C:/temp/Job-9.odb,Step-1,Increment      1: Step Time =    1.000,"P-9-1",           459,       148.768,       35.9951,            0.,NA,NA,"",   5.60079E+06,   5.70214E+06,   5.70214E+06
C:/temp/Job-9.odb,Step-1,Increment      1: Step Time =    1.000,"P-9-1",           460,       176.897,       126.144,            0.,NA,NA,"",   2.80621E+06,  -2.45161E+06,  -2.45161E+06
C:/temp/Job-9.odb,Step-1,Increment      1: Step Time =    1.000,"P-9-1",           461,       54.9967,       32.9456,            0.,NA,NA,"",   2.42458E+06,  -2.33408E+06,  -2.33408E+06
C:/temp/Job-9.odb,Step-1,Increment      1: Step Time =    1.000,"P-9-1",           462,       169.927,       60.5598,            0.,NA,NA,"",   1.67452E+06,   1.31051E+06,   1.31051E+06
C:/temp/Job-9.odb,Step-1,Increment      1: Step Time =    1.000,"P-9-1",           463,       103.971,       180.118,            0.,NA,NA,"",    9.2432E+06,   9.36883E+06,   9.36883E+06
C:/temp/Job-9.odb,Step-1,Increment      1: Step Time =    1.000,"P-9-1",           464,       124.660,       195.425,            0.,NA,NA,"",   1.99752E+06,  -1.93435E+06,  -1.93435E+06
C:/temp/Job-9.odb,Step-1,Increment      1: Step Time =    1.000,"P-9-1",           465,       195.281,       125.072,            0.,NA,NA,"",   4.59440E+06,   4.87958E+06,   4.87958E+06
C:/temp/Job-9.odb,Step-1,Increment      1: Step Time =    1.000,"P-9-1",           466,       195.108,       135.112,            0.,NA,NA,"",   3.10880E+06,   3.35915E+06,   3.35915E+06
C:/temp/Job-9.odb,Step-1,Increment      1: Step Time =    1.000,"P-9-1",           467,       134.391,       194.878,            0.,NA,NA,"",   1.66680E+06,  -1.55770E+06,  -1.55770E+06
C:/temp/Job-9.odb,Step-1,Increment      1: Step Time =    1.000,"P-9-1",           468,       115.116,       195.690,            0.,NA,NA,"",   2.03744E+06,  -1.57656E+06,  -1.57656E+06
C:/temp/Job-9.odb,Step-1,Increment      1: Step Time =    1.000,"P-9-1",           469,       105.325,       194.588,            0.,NA,NA,"",   2.17629E+06,   18.3431E+03,   18.3431E+03
C:/temp/Job-9.odb,Step-1,Increment      1: Step Time =    1.000,"P-9-1",           470,       194.955,       115.255,            0.,NA,NA,"",   5.75894E+06,   6.08162E+06,   6.08162E+06
C:/temp/Job-9.odb,Step-1,Increment      1: Step Time =    1.000,"P-9-1",           471,       194.910,       105.120,            0.,NA,NA,"",   6.41262E+06,   6.75544E+06,   6.75544E+06
C:/temp/Job-9.odb,Step-1,Increment      1: Step Time =    1.000,"P-9-1",           472,       195.032,       94.9846,            0.,NA,NA,"",   6.50990E+06,   6.85333E+06,   6.85333E+06
C:/temp/Job-9.odb,Step-1,Increment      1: Step Time =    1.000,"P-9-1",           473,       194.937,       65.2734,            0.,NA,NA,"",   3.12365E+06,   3.36123E+06,   3.36123E+06
C:/temp/Job-9.odb,Step-1,Increment      1: Step Time =    1.000,"P-9-1",           474,       105.111,       5.30884,            0.,NA,NA,"",   2.14465E+06,   18.3917E+03,   18.3917E+03
C:/temp/Job-9.odb,Step-1,Increment      1: Step Time =    1.000,"P-9-1",           475,       115.343,       4.95623,            0.,NA,NA,"",   1.96281E+06,  -1.19564E+06,  -1.19564E+06
C:/temp/Job-9.odb,Step-1,Increment      1: Step Time =    1.000,"P-9-1",           476,       94.6674,       5.42819,            0.,NA,NA,"",   2.33235E+06,   1.61966E+06,   1.61966E+06
C:/temp/Job-9.odb,Step-1,Increment      1: Step Time =    1.000,"P-9-1",           477,       84.7832,       4.47382,            0.,NA,NA,"",   3.27636E+06,   3.07957E+06,   3.07957E+06
C:/temp/Job-9.odb,Step-1,Increment      1: Step Time =    1.000,"P-9-1",           478,       75.0035,       4.99358,            0.,NA,NA,"",   4.67111E+06,   4.52695E+06,   4.52695E+06
C:/temp/Job-9.odb,Step-1,Increment      1: Step Time =    1.000,"P-9-1",           479,       4.74416,       45.2954,            0.,NA,NA,"",   311.777E+03,  -58.9636E+03,  -58.9636E+03
C:/temp/Job-9.odb,Step-1,Increment      1: Step Time =    1.000,"P-9-1",           480,       5.03614,       194.950,            0.,NA,NA,"",   5.68376E+06,   5.90908E+06,   5.90908E+06
C:/temp/Job-9.odb,Step-1,Increment      1: Step Time =    1.000,"P-9-1",           481,       15.0587,       194.932,            0.,NA,NA,"",   5.77963E+06,   5.80042E+06,   5.80042E+06
C:/temp/Job-9.odb,Step-1,Increment      1: Step Time =    1.000,"P-9-1",           482,       24.9865,       195.086,            0.,NA,NA,"",   6.00479E+06,   6.00680E+06,   6.00680E+06
C:/temp/Job-9.odb,Step-1,Increment      1: Step Time =    1.000,"P-9-1",           483,       64.9183,       195.480,            0.,NA,NA,"",   5.71407E+06,   5.63164E+06,   5.63164E+06
C:/temp/Job-9.odb,Step-1,Increment      1: Step Time =    1.000,"P-9-1",           484,       54.8796,       195.326,            0.,NA,NA,"",   6.25280E+06,   6.20400E+06,   6.20400E+06
C:/temp/Job-9.odb,Step-1,Increment      1: Step Time =    1.000,"P-9-1",           485,       44.8569,       195.266,            0.,NA,NA,"",   6.39645E+06,   6.36571E+06,   6.36571E+06
C:/temp/Job-9.odb,Step-1,Increment      1: Step Time =    1.000,"P-9-1",           486,       74.7704,       195.559,            0.,NA,NA,"",   4.65099E+06,   4.53145E+06,   4.53145E+06
C:/temp/Job-9.odb,Step-1,Increment      1: Step Time =    1.000,"P-9-1",           487,       84.6943,       195.388,            0.,NA,NA,"",   3.25952E+06,   3.06472E+06,   3.06472E+06
C:/temp/Job-9.odb,Step-1,Increment      1: Step Time =    1.000,"P-9-1",           488,       5.09663,       10.0984,            0.,NA,NA,"",   4.57756E+06,   4.90661E+06,   4.90661E+06
C:/temp/Job-9.odb,Step-1,Increment      1: Step Time =    1.000,"P-9-1",           489,       5.06085,       20.0980,            0.,NA,NA,"",   2.84757E+06,   3.13525E+06,   3.13525E+06
C:/temp/Job-9.odb,Step-1,Increment      1: Step Time =    1.000,"P-9-1",           490,       5.03215,       30.1959,            0.,NA,NA,"",   1.39712E+06,   1.57071E+06,   1.57071E+06
C:/temp/Job-9.odb,Step-1,Increment      1: Step Time =    1.000,"P-9-1",           491,       5.07938,       35.3223,            0.,NA,NA,"",   784.222E+03,   888.768E+03,   888.768E+03
C:/temp/Job-9.odb,Step-1,Increment      1: Step Time =    1.000,"P-9-1",           492,       15.1094,       5.03870,            0.,NA,NA,"",   5.78475E+06,   5.80696E+06,   5.80696E+06
C:/temp/Job-9.odb,Step-1,Increment      1: Step Time =    1.000,"P-9-1",           493,       24.9655,       4.70679,            0.,NA,NA,"",   6.05423E+06,   6.05348E+06,   6.05348E+06
C:/temp/Job-9.odb,Step-1,Increment      1: Step Time =    1.000,"P-9-1",           494,       34.5970,       4.30201,            0.,NA,NA,"",   6.35046E+06,   6.33495E+06,   6.33495E+06
C:/temp/Job-9.odb,Step-1,Increment      1: Step Time =    1.000,"P-9-1",           495,       44.1931,       5.00433,            0.,NA,NA,"",   6.35792E+06,   6.32763E+06,   6.32763E+06
C:/temp/Job-9.odb,Step-1,Increment      1: Step Time =    1.000,"P-9-1",           496,       54.4867,       7.02548,            0.,NA,NA,"",   5.77503E+06,   5.68894E+06,   5.68894E+06
C:/temp/Job-9.odb,Step-1,Increment      1: Step Time =    1.000,"P-9-1",           497,       65.3419,       4.87582,            0.,NA,NA,"",   5.67499E+06,   5.57627E+06,   5.57627E+06
C:/temp/Job-9.odb,Step-1,Increment      1: Step Time =    1.000,"P-9-1",           498,       125.326,       4.30855,            0.,NA,NA,"",   2.08688E+06,  -2.03660E+06,  -2.03660E+06
C:/temp/Job-9.odb,Step-1,Increment      1: Step Time =    1.000,"P-9-1",           499,       135.068,       4.12063,            0.,NA,NA,"",   2.01700E+06,  -1.95054E+06,  -1.95054E+06
C:/temp/Job-9.odb,Step-1,Increment      1: Step Time =    1.000,"P-9-1",           500,       195.053,       44.5125,            0.,NA,NA,"",   1.26846E+06,   1.31761E+06,   1.31761E+06
C:/temp/Job-9.odb,Step-1,Increment      1: Step Time =    1.000,"P-9-1",           501,       192.889,       54.7502,            0.,NA,NA,"",   2.09900E+06,   2.16040E+06,   2.16040E+06
C:/temp/Job-9.odb,Step-1,Increment      1: Step Time =    1.000,"P-9-1",           502,       144.745,       4.38486,            0.,NA,NA,"",   1.50448E+06,  -1.40902E+06,  -1.40902E+06
C:/temp/Job-9.odb,Step-1,Increment      1: Step Time =    1.000,"P-9-1",           503,       154.403,       4.64588,            0.,NA,NA,"",   988.271E+03,  -830.140E+03,  -830.140E+03
C:/temp/Job-9.odb,Step-1,Increment      1: Step Time =    1.000,"P-9-1",           504,       164.396,       5.24803,            0.,NA,NA,"",   647.755E+03,   128.113E+03,   128.113E+03
C:/temp/Job-9.odb,Step-1,Increment      1: Step Time =    1.000,"P-9-1",           505,       174.701,       5.58568,            0.,NA,NA,"",   651.263E+03,   577.045E+03,   577.045E+03
C:/temp/Job-9.odb,Step-1,Increment      1: Step Time =    1.000,"P-9-1",           506,       184.915,       5.20727,            0.,NA,NA,"",   835.136E+03,   800.526E+03,   800.526E+03
C:/temp/Job-9.odb,Step-1,Increment      1: Step Time =    1.000,"P-9-1",           507,       195.286,       34.8018,            0.,NA,NA,"",   1.26003E+06,   1.10976E+06,   1.10976E+06
C:/temp/Job-9.odb,Step-1,Increment      1: Step Time =    1.000,"P-9-1",           508,       194.969,       5.05391,            0.,NA,NA,"",   987.891E+03,   961.058E+03,   961.058E+03
C:/temp/Job-9.odb,Step-1,Increment      1: Step Time =    1.000,"P-9-1",           509,       195.021,       15.0571,            0.,NA,NA,"",   1.15229E+06,   1.01747E+06,   1.01747E+06
C:/temp/Job-9.odb,Step-1,Increment      1: Step Time =    1.000,"P-9-1",           510,       195.160,       24.9847,            0.,NA,NA,"",   1.28102E+06,   1.05933E+06,   1.05933E+06
C:/temp/Job-9.odb,Step-1,Increment      1: Step Time =    1.000,"P-9-1",           511,       195.179,       85.0860,            0.,NA,NA,"",   5.83968E+06,   6.16955E+06,   6.16955E+06
C:/temp/Job-9.odb,Step-1,Increment      1: Step Time =    1.000,"P-9-1",           512,       194.838,       75.1326,            0.,NA,NA,"",   4.48396E+06,   4.75920E+06,   4.75920E+06
C:/temp/Job-9.odb,Step-1,Increment      1: Step Time =    1.000,"P-9-1",           513,       195.157,       145.278,            0.,NA,NA,"",   1.87127E+06,   2.02916E+06,   2.02916E+06
C:/temp/Job-9.odb,Step-1,Increment      1: Step Time =    1.000,"P-9-1",           514,       195.381,       155.154,            0.,NA,NA,"",   1.26508E+06,   1.31424E+06,   1.31424E+06
C:/temp/Job-9.odb,Step-1,Increment      1: Step Time =    1.000,"P-9-1",           515,       144.964,       192.154,            0.,NA,NA,"",   1.40845E+06,  -10.0080E+03,  -10.0080E+03
C:/temp/Job-9.odb,Step-1,Increment      1: Step Time =    1.000,"P-9-1",           516,       195.259,       164.971,            0.,NA,NA,"",   1.27590E+06,   1.12134E+06,   1.12134E+06
C:/temp/Job-9.odb,Step-1,Increment      1: Step Time =    1.000,"P-9-1",           517,       155.747,       194.610,            0.,NA,NA,"",   899.377E+03,  -204.733E+03,  -204.733E+03
C:/temp/Job-9.odb,Step-1,Increment      1: Step Time =    1.000,"P-9-1",           518,       195.040,       174.895,            0.,NA,NA,"",   1.29447E+06,   1.06536E+06,   1.06536E+06
C:/temp/Job-9.odb,Step-1,Increment      1: Step Time =    1.000,"P-9-1",           519,       165.466,       195.298,            0.,NA,NA,"",   552.540E+03,   96.5576E+03,   96.5576E+03
C:/temp/Job-9.odb,Step-1,Increment      1: Step Time =    1.000,"P-9-1",           520,       194.899,       184.892,            0.,NA,NA,"",   1.15980E+06,   1.01932E+06,   1.01932E+06
C:/temp/Job-9.odb,Step-1,Increment      1: Step Time =    1.000,"P-9-1",           521,       175.153,       195.244,            0.,NA,NA,"",   574.304E+03,   513.041E+03,   513.041E+03
C:/temp/Job-9.odb,Step-1,Increment      1: Step Time =    1.000,"P-9-1",           522,       194.946,       194.961,            0.,NA,NA,"",   987.689E+03,   959.580E+03,   959.580E+03
C:/temp/Job-9.odb,Step-1,Increment      1: Step Time =    1.000,"P-9-1",           523,       184.958,       195.015,            0.,NA,NA,"",   821.668E+03,   788.686E+03,   788.686E+03
C:/temp/Job-9.odb,Step-1,Increment      1: Step Time =    1.000,"P-9-1",           524,       94.8805,       194.873,            0.,NA,NA,"",   2.16534E+06,   1.44615E+06,   1.44615E+06
C:/temp/Job-9.odb,Step-1,Increment      1: Step Time =    1.000,"P-9-1",           525,       34.9926,       195.171,            0.,NA,NA,"",   6.25367E+06,   6.24088E+06,   6.24088E+06
C:/temp/Job-9.odb,Step-1,Increment      1: Step Time =    1.000,"P-9-1",           526,       5.00728,       184.931,            0.,NA,NA,"",   3.65265E+06,   3.98168E+06,   3.98168E+06
C:/temp/Job-9.odb,Step-1,Increment      1: Step Time =    1.000,"P-9-1",           527,       4.87048,       175.036,            0.,NA,NA,"",   2.11126E+06,   2.34792E+06,   2.34792E+06
C:/temp/Job-9.odb,Step-1,Increment      1: Step Time =    1.000,"P-9-1",           528,       4.86418,       165.296,            0.,NA,NA,"",   860.186E+03,   976.754E+03,   976.754E+03
C:/temp/Job-9.odb,Step-1,Increment      1: Step Time =    1.000,"P-9-1",           529,       5.27230,       155.540,            0.,NA,NA,"",   314.655E+03,  -28.4962E+03,  -28.4962E+03
C:/temp/Job-9.odb,Step-1,Increment      1: Step Time =    1.000,"P-9-1",           530,       6.56780,       145.482,            0.,NA,NA,"",   825.997E+03,  -788.188E+03,  -788.188E+03
C:/temp/Job-9.odb,Step-1,Increment      1: Step Time =    1.000,"P-9-1",           531,       5.16131,       135.162,            0.,NA,NA,"",   975.812E+03,  -989.752E+03,  -989.752E+03
C:/temp/Job-9.odb,Step-1,Increment      1: Step Time =    1.000,"P-9-1",           532,       5.27641,       125.023,            0.,NA,NA,"",   881.991E+03,  -911.378E+03,  -911.378E+03
C:/temp/Job-9.odb,Step-1,Increment      1: Step Time =    1.000,"P-9-1",           533,       4.99954,       114.912,            0.,NA,NA,"",   621.558E+03,  -670.394E+03,  -670.394E+03
C:/temp/Job-9.odb,Step-1,Increment      1: Step Time =    1.000,"P-9-1",           534,       5.03744,       104.850,            0.,NA,NA,"",   387.269E+03,  -443.586E+03,  -443.586E+03
C:/temp/Job-9.odb,Step-1,Increment      1: Step Time =    1.000,"P-9-1",           535,       4.88762,       94.7243,            0.,NA,NA,"",   394.159E+03,  -450.878E+03,  -450.878E+03
C:/temp/Job-9.odb,Step-1,Increment      1: Step Time =    1.000,"P-9-1",           536,       4.62572,       84.6860,            0.,NA,NA,"",   635.222E+03,  -682.546E+03,  -682.546E+03
C:/temp/Job-9.odb,Step-1,Increment      1: Step Time =    1.000,"P-9-1",           537,       4.57640,       74.7367,            0.,NA,NA,"",   877.986E+03,  -907.841E+03,  -907.841E+03
C:/temp/Job-9.odb,Step-1,Increment      1: Step Time =    1.000,"P-9-1",           538,       4.42776,       64.8693,            0.,NA,NA,"",   968.632E+03,  -987.397E+03,  -987.397E+03
C:/temp/Job-9.odb,Step-1,Increment      1: Step Time =    1.000,"P-9-1",           539,       4.19682,       55.0907,            0.,NA,NA,"",   776.141E+03,  -769.422E+03,  -769.422E+03
C:/temp/Job-9.odb,Step-1,Increment      1: Step Time =    1.000,"P-9-1",           540,       189.953,       5.11356,            0.,NA,NA,"",   925.354E+03,   895.479E+03,   895.479E+03
C:/temp/Job-9.odb,Step-1,Increment      1: Step Time =    1.000,"P-9-1",           541,       179.863,       5.36392,            0.,NA,NA,"",   737.303E+03,   689.224E+03,   689.224E+03
C:/temp/Job-9.odb,Step-1,Increment      1: Step Time =    1.000,"P-9-1",           542,       169.521,       5.71201,            0.,NA,NA,"",   610.464E+03,   380.359E+03,   380.359E+03
C:/temp/Job-9.odb,Step-1,Increment      1: Step Time =    1.000,"P-9-1",           543,       159.323,       4.83872,            0.,NA,NA,"",   781.317E+03,  -337.676E+03,  -337.676E+03
C:/temp/Job-9.odb,Step-1,Increment      1: Step Time =    1.000,"P-9-1",           544,       149.552,       4.51594,            0.,NA,NA,"",   1.22875E+06,  -1.10997E+06,  -1.10997E+06
C:/temp/Job-9.odb,Step-1,Increment      1: Step Time =    1.000,"P-9-1",           545,       139.922,       4.22416,            0.,NA,NA,"",   1.79355E+06,  -1.70874E+06,  -1.70874E+06
C:/temp/Job-9.odb,Step-1,Increment      1: Step Time =    1.000,"P-9-1",           546,       130.214,       4.13994,            0.,NA,NA,"",   2.11408E+06,  -2.07359E+06,  -2.07359E+06
C:/temp/Job-9.odb,Step-1,Increment      1: Step Time =    1.000,"P-9-1",           547,       120.340,       4.60868,            0.,NA,NA,"",   1.98320E+06,  -1.69558E+06,  -1.69558E+06
C:/temp/Job-9.odb,Step-1,Increment      1: Step Time =    1.000,"P-9-1",           548,       110.278,       5.17622,            0.,NA,NA,"",   2.05894E+06,  -658.488E+03,  -658.488E+03
C:/temp/Job-9.odb,Step-1,Increment      1: Step Time =    1.000,"P-9-1",           549,       99.8642,       5.43616,            0.,NA,NA,"",   2.20508E+06,   735.133E+03,   735.133E+03
C:/temp/Job-9.odb,Step-1,Increment      1: Step Time =    1.000,"P-9-1",           550,       89.7344,       4.85985,            0.,NA,NA,"",   2.67250E+06,   2.42324E+06,   2.42324E+06
C:/temp/Job-9.odb,Step-1,Increment      1: Step Time =    1.000,"P-9-1",           551,       79.8495,       4.62510,            0.,NA,NA,"",   4.00972E+06,   3.84080E+06,   3.84080E+06
C:/temp/Job-9.odb,Step-1,Increment      1: Step Time =    1.000,"P-9-1",           552,       70.1742,       4.95330,            0.,NA,NA,"",   5.22079E+06,   5.10058E+06,   5.10058E+06
C:/temp/Job-9.odb,Step-1,Increment      1: Step Time =    1.000,"P-9-1",           553,       60.2927,       5.33072,            0.,NA,NA,"",   5.92144E+06,   5.84708E+06,   5.84708E+06
C:/temp/Job-9.odb,Step-1,Increment      1: Step Time =    1.000,"P-9-1",           554,       49.0573,       5.77799,            0.,NA,NA,"",   6.18073E+06,   6.13118E+06,   6.13118E+06
C:/temp/Job-9.odb,Step-1,Increment      1: Step Time =    1.000,"P-9-1",           555,       39.4132,       4.48182,            0.,NA,NA,"",   6.40148E+06,   6.38267E+06,   6.38267E+06
C:/temp/Job-9.odb,Step-1,Increment      1: Step Time =    1.000,"P-9-1",           556,       29.8116,       4.44352,            0.,NA,NA,"",   6.22132E+06,   6.21352E+06,   6.21352E+06
C:/temp/Job-9.odb,Step-1,Increment      1: Step Time =    1.000,"P-9-1",           557,       20.0620,       4.90551,            0.,NA,NA,"",   5.90392E+06,   5.90940E+06,   5.90940E+06
C:/temp/Job-9.odb,Step-1,Increment      1: Step Time =    1.000,"P-9-1",           558,       10.0977,       5.07340,            0.,NA,NA,"",   5.76547E+06,   5.80723E+06,   5.80723E+06
C:/temp/Job-9.odb,Step-1,Increment      1: Step Time =    1.000,"P-9-1",           559,       194.911,       189.928,            0.,NA,NA,"",   1.06226E+06,   984.775E+03,   984.775E+03
C:/temp/Job-9.odb,Step-1,Increment      1: Step Time =    1.000,"P-9-1",           560,       194.954,       179.898,            0.,NA,NA,"",   1.24285E+06,   1.04530E+06,   1.04530E+06
C:/temp/Job-9.odb,Step-1,Increment      1: Step Time =    1.000,"P-9-1",           561,       195.160,       169.919,            0.,NA,NA,"",   1.30475E+06,   1.08728E+06,   1.08728E+06
C:/temp/Job-9.odb,Step-1,Increment      1: Step Time =    1.000,"P-9-1",           562,       195.339,       160.072,            0.,NA,NA,"",   1.23816E+06,   1.18621E+06,   1.18621E+06
C:/temp/Job-9.odb,Step-1,Increment      1: Step Time =    1.000,"P-9-1",           563,       195.305,       150.242,            0.,NA,NA,"",   1.46165E+06,   1.57528E+06,   1.57528E+06
C:/temp/Job-9.odb,Step-1,Increment      1: Step Time =    1.000,"P-9-1",           564,       195.094,       140.214,            0.,NA,NA,"",   2.44610E+06,   2.64825E+06,   2.64825E+06
C:/temp/Job-9.odb,Step-1,Increment      1: Step Time =    1.000,"P-9-1",           565,       195.228,       130.083,            0.,NA,NA,"",   3.83637E+06,   4.11601E+06,   4.11601E+06
C:/temp/Job-9.odb,Step-1,Increment      1: Step Time =    1.000,"P-9-1",           566,       195.108,       120.182,            0.,NA,NA,"",   5.24743E+06,   5.55324E+06,   5.55324E+06
C:/temp/Job-9.odb,Step-1,Increment      1: Step Time =    1.000,"P-9-1",           567,       194.897,       110.212,            0.,NA,NA,"",   6.15488E+06,   6.48429E+06,   6.48429E+06
C:/temp/Job-9.odb,Step-1,Increment      1: Step Time =    1.000,"P-9-1",           568,       194.948,       100.026,            0.,NA,NA,"",   6.53187E+06,   6.88267E+06,   6.88267E+06
C:/temp/Job-9.odb,Step-1,Increment      1: Step Time =    1.000,"P-9-1",           569,       195.148,       90.0169,            0.,NA,NA,"",   6.29005E+06,   6.62159E+06,   6.62159E+06
C:/temp/Job-9.odb,Step-1,Increment      1: Step Time =    1.000,"P-9-1",           570,       195.094,       80.1163,            0.,NA,NA,"",   5.20398E+06,   5.50517E+06,   5.50517E+06
C:/temp/Job-9.odb,Step-1,Increment      1: Step Time =    1.000,"P-9-1",           571,       194.963,       70.1810,            0.,NA,NA,"",   3.78975E+06,   4.06179E+06,   4.06179E+06
C:/temp/Job-9.odb,Step-1,Increment      1: Step Time =    1.000,"P-9-1",           572,       194.406,       60.3093,            0.,NA,NA,"",   2.50467E+06,   2.67977E+06,   2.67977E+06
C:/temp/Job-9.odb,Step-1,Increment      1: Step Time =    1.000,"P-9-1",           573,       194.384,       49.4537,            0.,NA,NA,"",   1.54179E+06,   1.63463E+06,   1.63463E+06
C:/temp/Job-9.odb,Step-1,Increment      1: Step Time =    1.000,"P-9-1",           574,       195.270,       39.6634,            0.,NA,NA,"",   1.22032E+06,   1.17038E+06,   1.17038E+06
C:/temp/Job-9.odb,Step-1,Increment      1: Step Time =    1.000,"P-9-1",           575,       195.245,       29.9099,            0.,NA,NA,"",   1.28881E+06,   1.07797E+06,   1.07797E+06
C:/temp/Job-9.odb,Step-1,Increment      1: Step Time =    1.000,"P-9-1",           576,       195.096,       20.0311,            0.,NA,NA,"",   1.23219E+06,   1.04130E+06,   1.04130E+06
C:/temp/Job-9.odb,Step-1,Increment      1: Step Time =    1.000,"P-9-1",           577,       194.987,       10.0666,            0.,NA,NA,"",   1.05795E+06,   984.298E+03,   984.298E+03
C:/temp/Job-9.odb,Step-1,Increment      1: Step Time =    1.000,"P-9-1",           578,       10.0516,       194.930,            0.,NA,NA,"",   5.76463E+06,   5.80680E+06,   5.80680E+06
C:/temp/Job-9.odb,Step-1,Increment      1: Step Time =    1.000,"P-9-1",           579,       20.0201,       195.006,            0.,NA,NA,"",   5.88535E+06,   5.89156E+06,   5.89156E+06
C:/temp/Job-9.odb,Step-1,Increment      1: Step Time =    1.000,"P-9-1",           580,       29.9680,       195.164,            0.,NA,NA,"",   6.13898E+06,   6.13114E+06,   6.13114E+06
C:/temp/Job-9.odb,Step-1,Increment      1: Step Time =    1.000,"P-9-1",           581,       39.9150,       195.169,            0.,NA,NA,"",   6.33838E+06,   6.32230E+06,   6.32230E+06
C:/temp/Job-9.odb,Step-1,Increment      1: Step Time =    1.000,"P-9-1",           582,       49.8366,       195.339,            0.,NA,NA,"",   6.37627E+06,   6.33470E+06,   6.33470E+06
C:/temp/Job-9.odb,Step-1,Increment      1: Step Time =    1.000,"P-9-1",           583,       59.9395,       195.370,            0.,NA,NA,"",   6.03721E+06,   5.97516E+06,   5.97516E+06
C:/temp/Job-9.odb,Step-1,Increment      1: Step Time =    1.000,"P-9-1",           584,       69.8191,       195.618,            0.,NA,NA,"",   5.25305E+06,   5.14792E+06,   5.14792E+06
C:/temp/Job-9.odb,Step-1,Increment      1: Step Time =    1.000,"P-9-1",           585,       79.7111,       195.491,            0.,NA,NA,"",   3.97061E+06,   3.81821E+06,   3.81821E+06
C:/temp/Job-9.odb,Step-1,Increment      1: Step Time =    1.000,"P-9-1",           586,       89.7908,       195.191,            0.,NA,NA,"",   2.59051E+06,   2.34005E+06,   2.34005E+06
C:/temp/Job-9.odb,Step-1,Increment      1: Step Time =    1.000,"P-9-1",           587,       100.107,       194.614,            0.,NA,NA,"",   2.12150E+06,   635.218E+03,   635.218E+03
C:/temp/Job-9.odb,Step-1,Increment      1: Step Time =    1.000,"P-9-1",           588,       110.240,       195.210,            0.,NA,NA,"",   2.06713E+06,  -747.768E+03,  -747.768E+03
C:/temp/Job-9.odb,Step-1,Increment      1: Step Time =    1.000,"P-9-1",           589,       119.944,       195.695,            0.,NA,NA,"",   2.07018E+06,  -1.98789E+06,  -1.98789E+06
C:/temp/Job-9.odb,Step-1,Increment      1: Step Time =    1.000,"P-9-1",           590,       129.456,       195.339,            0.,NA,NA,"",   1.88250E+06,  -1.79866E+06,  -1.79866E+06
C:/temp/Job-9.odb,Step-1,Increment      1: Step Time =    1.000,"P-9-1",           591,       139.287,       193.899,            0.,NA,NA,"",   1.44698E+06,  -976.139E+03,  -976.139E+03
C:/temp/Job-9.odb,Step-1,Increment      1: Step Time =    1.000,"P-9-1",           592,       150.716,       193.746,            0.,NA,NA,"",   1.16148E+06,  -278.748E+03,  -278.748E+03
C:/temp/Job-9.odb,Step-1,Increment      1: Step Time =    1.000,"P-9-1",           593,       160.624,       195.086,            0.,NA,NA,"",   695.049E+03,  -64.0935E+03,  -64.0935E+03
C:/temp/Job-9.odb,Step-1,Increment      1: Step Time =    1.000,"P-9-1",           594,       170.306,       195.339,            0.,NA,NA,"",   502.568E+03,   307.298E+03,   307.298E+03
C:/temp/Job-9.odb,Step-1,Increment      1: Step Time =    1.000,"P-9-1",           595,       180.052,       195.123,            0.,NA,NA,"",   701.588E+03,   660.182E+03,   660.182E+03
C:/temp/Job-9.odb,Step-1,Increment      1: Step Time =    1.000,"P-9-1",           596,       189.933,       194.967,            0.,NA,NA,"",   921.264E+03,   890.691E+03,   890.691E+03
C:/temp/Job-9.odb,Step-1,Increment      1: Step Time =    1.000,"P-9-1",           597,       5.09870,       15.1135,            0.,NA,NA,"",   3.64459E+06,   3.97271E+06,   3.97271E+06
C:/temp/Job-9.odb,Step-1,Increment      1: Step Time =    1.000,"P-9-1",           598,       5.02389,       25.1060,            0.,NA,NA,"",   2.09405E+06,   2.32878E+06,   2.32878E+06
C:/temp/Job-9.odb,Step-1,Increment      1: Step Time =    1.000,"P-9-1",           599,       5.02006,       40.3797,            0.,NA,NA,"",   363.951E+03,   402.274E+03,   402.274E+03
C:/temp/Job-9.odb,Step-1,Increment      1: Step Time =    1.000,"P-9-1",           600,       4.40891,       50.2038,            0.,NA,NA,"",   544.402E+03,  -504.199E+03,  -504.199E+03
C:/temp/Job-9.odb,Step-1,Increment      1: Step Time =    1.000,"P-9-1",           601,       4.22741,       59.9756,            0.,NA,NA,"",   916.466E+03,  -926.819E+03,  -926.819E+03
C:/temp/Job-9.odb,Step-1,Increment      1: Step Time =    1.000,"P-9-1",           602,       4.52916,       69.7918,            0.,NA,NA,"",   950.421E+03,  -974.673E+03,  -974.673E+03
C:/temp/Job-9.odb,Step-1,Increment      1: Step Time =    1.000,"P-9-1",           603,       4.58464,       79.7004,            0.,NA,NA,"",   766.670E+03,  -804.118E+03,  -804.118E+03
C:/temp/Job-9.odb,Step-1,Increment      1: Step Time =    1.000,"P-9-1",           604,       4.71506,       89.7211,            0.,NA,NA,"",   501.117E+03,  -557.796E+03,  -557.796E+03
C:/temp/Job-9.odb,Step-1,Increment      1: Step Time =    1.000,"P-9-1",           605,       4.99990,       99.7800,            0.,NA,NA,"",   350.928E+03,  -403.270E+03,  -403.270E+03
C:/temp/Job-9.odb,Step-1,Increment      1: Step Time =    1.000,"P-9-1",           606,       5.04096,       109.876,            0.,NA,NA,"",   486.404E+03,  -544.177E+03,  -544.177E+03
C:/temp/Job-9.odb,Step-1,Increment      1: Step Time =    1.000,"P-9-1",           607,       4.94486,       119.928,            0.,NA,NA,"",   765.873E+03,  -803.664E+03,  -803.664E+03
C:/temp/Job-9.odb,Step-1,Increment      1: Step Time =    1.000,"P-9-1",           608,       5.24375,       130.169,            0.,NA,NA,"",   955.563E+03,  -977.621E+03,  -977.621E+03
C:/temp/Job-9.odb,Step-1,Increment      1: Step Time =    1.000,"P-9-1",           609,       5.31214,       140.032,            0.,NA,NA,"",   928.304E+03,  -926.999E+03,  -926.999E+03
C:/temp/Job-9.odb,Step-1,Increment      1: Step Time =    1.000,"P-9-1",           610,       5.73489,       150.645,            0.,NA,NA,"",   547.885E+03,  -475.071E+03,  -475.071E+03
C:/temp/Job-9.odb,Step-1,Increment      1: Step Time =    1.000,"P-9-1",           611,       5.00194,       160.426,            0.,NA,NA,"",   407.084E+03,   464.204E+03,   464.204E+03
C:/temp/Job-9.odb,Step-1,Increment      1: Step Time =    1.000,"P-9-1",           612,       4.84322,       170.147,            0.,NA,NA,"",   1.44704E+06,   1.62527E+06,   1.62527E+06
C:/temp/Job-9.odb,Step-1,Increment      1: Step Time =    1.000,"P-9-1",           613,       4.94295,       179.989,            0.,NA,NA,"",   2.85643E+06,   3.14449E+06,   3.14449E+06
C:/temp/Job-9.odb,Step-1,Increment      1: Step Time =    1.000,"P-9-1",           614,       5.03738,       189.931,            0.,NA,NA,"",   4.58170E+06,   4.91255E+06,   4.91255E+06
C:/temp/Job-9.odb,Step-1,Increment      1: Step Time =    1.000,"P-9-1",           615,       19.7230,       123.403,            0.,NA,NA,"",   1.09459E+06,  -1.12949E+06,  -1.12949E+06
C:/temp/Job-9.odb,Step-1,Increment      1: Step Time =    1.000,"P-9-1",           616,       77.0393,       19.5959,            0.,NA,NA,"",   4.28168E+06,   3.88598E+06,   3.88598E+06
C:/temp/Job-9.odb,Step-1,Increment      1: Step Time =    1.000,"P-9-1",           617,       121.733,       18.7766,            0.,NA,NA,"",   6.66834E+06,   6.93296E+06,   6.93296E+06
C:/temp/Job-9.odb,Step-1,Increment      1: Step Time =    1.000,"P-9-1",           618,       18.0671,       79.2560,            0.,NA,NA,"",   980.238E+03,  -1.01979E+06,  -1.01979E+06
C:/temp/Job-9.odb,Step-1,Increment      1: Step Time =    1.000,"P-9-1",           619,       179.889,       78.2696,            0.,NA,NA,"",   3.00113E+06,  -2.57222E+06,  -2.57222E+06
C:/temp/Job-9.odb,Step-1,Increment      1: Step Time =    1.000,"P-9-1",           620,       123.805,       181.189,            0.,NA,NA,"",   6.41489E+06,   6.66379E+06,   6.66379E+06
C:/temp/Job-9.odb,Step-1,Increment      1: Step Time =    1.000,"P-9-1",           621,       184.251,       122.029,            0.,NA,NA,"",   2.72662E+06,   560.176E+03,   560.176E+03
C:/temp/Job-9.odb,Step-1,Increment      1: Step Time =    1.000,"P-9-1",           622,       75.8726,       178.830,            0.,NA,NA,"",   3.85704E+06,   3.43724E+06,   3.43724E+06
C:/temp/Job-9.odb,Step-1,Increment      1: Step Time =    1.000,"P-9-1",           623,       129.708,       20.6374,            0.,NA,NA,"",    6.2743E+06,   6.52337E+06,   6.52337E+06
C:/temp/Job-9.odb,Step-1,Increment      1: Step Time =    1.000,"P-9-1",           624,       69.4044,       21.2681,            0.,NA,NA,"",   3.28988E+06,   2.68401E+06,   2.68401E+06
C:/temp/Job-9.odb,Step-1,Increment      1: Step Time =    1.000,"P-9-1",           625,       23.0811,       131.481,            0.,NA,NA,"",   1.51397E+06,  -1.54109E+06,  -1.54109E+06
C:/temp/Job-9.odb,Step-1,Increment      1: Step Time =    1.000,"P-9-1",           626,       70.2313,       182.493,            0.,NA,NA,"",   4.19900E+06,   3.66138E+06,   3.66138E+06
C:/temp/Job-9.odb,Step-1,Increment      1: Step Time =    1.000,"P-9-1",           627,       132.775,       178.486,            0.,NA,NA,"",   5.97853E+06,   6.21606E+06,   6.21606E+06
C:/temp/Job-9.odb,Step-1,Increment      1: Step Time =    1.000,"P-9-1",           628,       179.692,       68.4181,            0.,NA,NA,"",   2.76703E+06,   587.440E+03,   587.440E+03
C:/temp/Job-9.odb,Step-1,Increment      1: Step Time =    1.000,"P-9-1",           629,       19.4403,       113.504,            0.,NA,NA,"",   796.383E+03,  -828.404E+03,  -828.404E+03
C:/temp/Job-9.odb,Step-1,Increment      1: Step Time =    1.000,"P-9-1",           630,       79.8540,       176.932,            0.,NA,NA,"",   3.77189E+06,   3.64173E+06,   3.64173E+06
C:/temp/Job-9.odb,Step-1,Increment      1: Step Time =    1.000,"P-9-1",           631,       180.410,       87.0453,            0.,NA,NA,"",   4.12247E+06,  -4.06105E+06,  -4.06105E+06
C:/temp/Job-9.odb,Step-1,Increment      1: Step Time =    1.000,"P-9-1",           632,       86.5406,       19.5125,            0.,NA,NA,"",   5.60784E+06,   5.50030E+06,   5.50030E+06
C:/temp/Job-9.odb,Step-1,Increment      1: Step Time =    1.000,"P-9-1",           633,       113.601,       180.642,            0.,NA,NA,"",   8.57495E+06,   8.80959E+06,   8.80959E+06
C:/temp/Job-9.odb,Step-1,Increment      1: Step Time =    1.000,"P-9-1",           634,       55.3709,       166.116,            0.,NA,NA,"",   2.60350E+06,  -2.57602E+06,  -2.57602E+06
C:/temp/Job-9.odb,Step-1,Increment      1: Step Time =    1.000,"P-9-1",           635,       33.3188,       55.0961,            0.,NA,NA,"",   2.71316E+06,  -2.74948E+06,  -2.74948E+06
C:/temp/Job-9.odb,Step-1,Increment      1: Step Time =    1.000,"P-9-1",           636,       144.907,       32.9572,            0.,NA,NA,"",   6.29936E+06,   6.42770E+06,   6.42770E+06
C:/temp/Job-9.odb,Step-1,Increment      1: Step Time =    1.000,"P-9-1",           637,       51.1088,       36.3881,            0.,NA,NA,"",   2.83751E+06,  -2.83668E+06,  -2.83668E+06
C:/temp/Job-9.odb,Step-1,Increment      1: Step Time =    1.000,"P-9-1",           638,       149.510,       166.237,            0.,NA,NA,"",   5.12491E+06,   5.25574E+06,   5.25574E+06
C:/temp/Job-9.odb,Step-1,Increment      1: Step Time =    1.000,"P-9-1",           639,       166.253,       144.328,            0.,NA,NA,"",   2.09436E+06,   1.99721E+06,   1.99721E+06
C:/temp/Job-9.odb,Step-1,Increment      1: Step Time =    1.000,"P-9-1",           640,       172.127,       54.5396,            0.,NA,NA,"",   2.60146E+06,   2.21660E+06,   2.21660E+06
C:/temp/Job-9.odb,Step-1,Increment      1: Step Time =    1.000,"P-9-1",           641,       59.4423,       174.353,            0.,NA,NA,"",   2.28197E+06,   875.541E+03,   875.541E+03
C:/temp/Job-9.odb,Step-1,Increment      1: Step Time =    1.000,"P-9-1",           642,       54.3753,       25.9861,            0.,NA,NA,"",   2.17244E+06,   824.851E+03,   824.851E+03
C:/temp/Job-9.odb,Step-1,Increment      1: Step Time =    1.000,"P-9-1",           643,       26.8674,       56.1580,            0.,NA,NA,"",   1.88616E+06,  -1.89951E+06,  -1.89951E+06
C:/temp/Job-9.odb,Step-1,Increment      1: Step Time =    1.000,"P-9-1",           644,       144.889,       174.538,            0.,NA,NA,"",   4.65585E+06,   4.80655E+06,   4.80655E+06
C:/temp/Job-9.odb,Step-1,Increment      1: Step Time =    1.000,"P-9-1",           645,       171.941,       142.619,            0.,NA,NA,"",   2.39023E+06,   1.93665E+06,   1.93665E+06
C:/temp/Job-9.odb,Step-1,Increment      1: Step Time =    1.000,"P-9-1",           646,       28.3574,       145.686,            0.,NA,NA,"",   1.96026E+06,  -1.98460E+06,  -1.98460E+06
C:/temp/Job-9.odb,Step-1,Increment      1: Step Time =    1.000,"P-9-1",           647,       144.006,       25.7595,            0.,NA,NA,"",   4.99182E+06,   5.16450E+06,   5.16450E+06
C:/temp/Job-9.odb,Step-1,Increment      1: Step Time =    1.000,"P-9-1",           648,       139.700,       8.54051,            0.,NA,NA,"",   1.12852E+06,   90.7784E+03,   90.7784E+03
C:/temp/Job-9.odb,Step-1,Increment      1: Step Time =    1.000,"P-9-1",           649,       130.491,       8.28264,            0.,NA,NA,"",   1.05264E+06,   82.2444E+03,   82.2444E+03
C:/temp/Job-9.odb,Step-1,Increment      1: Step Time =    1.000,"P-9-1",           650,       120.944,       9.13184,            0.,NA,NA,"",   1.47184E+06,   1.20115E+06,   1.20115E+06
C:/temp/Job-9.odb,Step-1,Increment      1: Step Time =    1.000,"P-9-1",           651,       110.671,       10.2874,            0.,NA,NA,"",   2.80760E+06,   2.79500E+06,   2.79500E+06
C:/temp/Job-9.odb,Step-1,Increment      1: Step Time =    1.000,"P-9-1",           652,       61.3533,       9.48486,            0.,NA,NA,"",   5.09663E+06,   4.90414E+06,   4.90414E+06
C:/temp/Job-9.odb,Step-1,Increment      1: Step Time =    1.000,"P-9-1",           653,       190.223,       140.430,            0.,NA,NA,"",   2.74357E+06,   2.65413E+06,   2.65413E+06
C:/temp/Job-9.odb,Step-1,Increment      1: Step Time =    1.000,"P-9-1",           654,       190.562,       130.054,            0.,NA,NA,"",   3.31026E+06,   3.29382E+06,   3.29382E+06
C:/temp/Job-9.odb,Step-1,Increment      1: Step Time =    1.000,"P-9-1",           655,       190.065,       70.0923,            0.,NA,NA,"",   3.28567E+06,   3.21866E+06,   3.21866E+06
C:/temp/Job-9.odb,Step-1,Increment      1: Step Time =    1.000,"P-9-1",           656,       59.9909,       190.738,            0.,NA,NA,"",   5.14453E+06,   4.95828E+06,   4.95828E+06
C:/temp/Job-9.odb,Step-1,Increment      1: Step Time =    1.000,"P-9-1",           657,       99.9478,       189.415,            0.,NA,NA,"",   3.88907E+06,   3.70245E+06,   3.70245E+06
C:/temp/Job-9.odb,Step-1,Increment      1: Step Time =    1.000,"P-9-1",           658,       111.077,       190.669,            0.,NA,NA,"",   2.31542E+06,   2.26147E+06,   2.26147E+06
C:/temp/Job-9.odb,Step-1,Increment      1: Step Time =    1.000,"P-9-1",           659,       119.608,       191.520,            0.,NA,NA,"",   1.29994E+06,   636.905E+03,   636.905E+03
C:/temp/Job-9.odb,Step-1,Increment      1: Step Time =    1.000,"P-9-1",           660,       8.36555,       59.8444,            0.,NA,NA,"",   1.03974E+06,  -1.01652E+06,  -1.01652E+06
C:/temp/Job-9.odb,Step-1,Increment      1: Step Time =    1.000,"P-9-1",           661,       9.14147,       69.5471,            0.,NA,NA,"",   1.01469E+06,  -1.03509E+06,  -1.03509E+06
C:/temp/Job-9.odb,Step-1,Increment      1: Step Time =    1.000,"P-9-1",           662,       9.12799,       79.4222,            0.,NA,NA,"",   793.138E+03,  -842.547E+03,  -842.547E+03
C:/temp/Job-9.odb,Step-1,Increment      1: Step Time =    1.000,"P-9-1",           663,       9.29296,       89.3659,            0.,NA,NA,"",   550.331E+03,  -614.339E+03,  -614.339E+03
C:/temp/Job-9.odb,Step-1,Increment      1: Step Time =    1.000,"P-9-1",           664,       9.97661,       99.5215,            0.,NA,NA,"",   436.624E+03,  -496.238E+03,  -496.238E+03
C:/temp/Job-9.odb,Step-1,Increment      1: Step Time =    1.000,"P-9-1",           665,       10.0637,       109.760,            0.,NA,NA,"",   535.201E+03,  -598.864E+03,  -598.864E+03
C:/temp/Job-9.odb,Step-1,Increment      1: Step Time =    1.000,"P-9-1",           666,       9.35617,       119.692,            0.,NA,NA,"",   777.317E+03,  -827.805E+03,  -827.805E+03
C:/temp/Job-9.odb,Step-1,Increment      1: Step Time =    1.000,"P-9-1",           667,       10.2965,       130.526,            0.,NA,NA,"",   1.04746E+06,  -1.06307E+06,  -1.06307E+06
C:/temp/Job-9.odb,Step-1,Increment      1: Step Time =    1.000,"P-9-1",           668,       99.8935,       10.6437,            0.,NA,NA,"",   4.02625E+06,   3.82725E+06,   3.82725E+06
C:/temp/Job-9.odb,Step-1,Increment      1: Step Time =    1.000,"P-9-1",           669,       88.9230,       9.43629,            0.,NA,NA,"",   4.28480E+06,   3.93425E+06,   3.93425E+06
C:/temp/Job-9.odb,Step-1,Increment      1: Step Time =    1.000,"P-9-1",           670,       80.1695,       9.01126,            0.,NA,NA,"",   4.53800E+06,   4.17234E+06,   4.17234E+06
C:/temp/Job-9.odb,Step-1,Increment      1: Step Time =    1.000,"P-9-1",           671,       70.0983,       10.1089,            0.,NA,NA,"",   4.93197E+06,   4.60946E+06,   4.60946E+06
C:/temp/Job-9.odb,Step-1,Increment      1: Step Time =    1.000,"P-9-1",           672,       190.056,       120.612,            0.,NA,NA,"",   3.45356E+06,   3.39229E+06,   3.39229E+06
C:/temp/Job-9.odb,Step-1,Increment      1: Step Time =    1.000,"P-9-1",           673,       189.809,       110.413,            0.,NA,NA,"",   3.01995E+06,   3.05103E+06,   3.05103E+06
C:/temp/Job-9.odb,Step-1,Increment      1: Step Time =    1.000,"P-9-1",           674,       189.932,       99.9701,            0.,NA,NA,"",   2.65918E+06,   2.82837E+06,   2.82837E+06
C:/temp/Job-9.odb,Step-1,Increment      1: Step Time =    1.000,"P-9-1",           675,       190.335,       89.9346,            0.,NA,NA,"",   3.18724E+06,   3.27417E+06,   3.27417E+06
C:/temp/Job-9.odb,Step-1,Increment      1: Step Time =    1.000,"P-9-1",           676,       190.451,       80.4788,            0.,NA,NA,"",   3.44952E+06,   3.46365E+06,   3.46365E+06
C:/temp/Job-9.odb,Step-1,Increment      1: Step Time =    1.000,"P-9-1",           677,       189.741,       61.3640,            0.,NA,NA,"",   2.84277E+06,   2.73271E+06,   2.73271E+06
C:/temp/Job-9.odb,Step-1,Increment      1: Step Time =    1.000,"P-9-1",           678,       69.7248,       191.403,            0.,NA,NA,"",   4.94467E+06,   4.68560E+06,   4.68560E+06
C:/temp/Job-9.odb,Step-1,Increment      1: Step Time =    1.000,"P-9-1",           679,       79.4032,       191.008,            0.,NA,NA,"",   4.60723E+06,   4.26588E+06,   4.26588E+06
C:/temp/Job-9.odb,Step-1,Increment      1: Step Time =    1.000,"P-9-1",           680,       89.4021,       190.665,            0.,NA,NA,"",   4.19852E+06,   3.84305E+06,   3.84305E+06
C:/temp/Job-9.odb,Step-1,Increment      1: Step Time =    1.000,"P-9-1",           681,       128.834,       191.001,            0.,NA,NA,"",   1.04408E+06,   448.763E+03,   448.763E+03
C:/temp/Job-9.odb,Step-1,Increment      1: Step Time =    1.000,"P-9-1",           682,       137.195,       188.619,            0.,NA,NA,"",   1.54075E+06,   1.27317E+06,   1.27317E+06
C:/temp/Job-9.odb,Step-1,Increment      1: Step Time =    1.000,"P-9-1",           683,       93.4271,       184.892,            0.,NA,NA,"",   5.71929E+06,   5.57433E+06,   5.57433E+06
C:/temp/Job-9.odb,Step-1,Increment      1: Step Time =    1.000,"P-9-1",           684,       99.2949,       184.672,            0.,NA,NA,"",   6.13136E+06,   6.11525E+06,   6.11525E+06
C:/temp/Job-9.odb,Step-1,Increment      1: Step Time =    1.000,"P-9-1",           685,       14.9300,       104.583,            0.,NA,NA,"",   571.235E+03,  -625.075E+03,  -625.075E+03
C:/temp/Job-9.odb,Step-1,Increment      1: Step Time =    1.000,"P-9-1",           686,       15.0042,       93.4957,            0.,NA,NA,"",   597.619E+03,  -649.974E+03,  -649.974E+03
C:/temp/Job-9.odb,Step-1,Increment      1: Step Time =    1.000,"P-9-1",           687,       14.8461,       99.3468,            0.,NA,NA,"",   557.167E+03,  -610.158E+03,  -610.158E+03
C:/temp/Job-9.odb,Step-1,Increment      1: Step Time =    1.000,"P-9-1",           688,       184.739,       94.3685,            0.,NA,NA,"",   2.15851E+06,  -1.26392E+06,  -1.26392E+06
C:/temp/Job-9.odb,Step-1,Increment      1: Step Time =    1.000,"P-9-1",           689,       105.499,       15.2028,            0.,NA,NA,"",   6.02284E+06,   6.13018E+06,   6.13018E+06
C:/temp/Job-9.odb,Step-1,Increment      1: Step Time =    1.000,"P-9-1",           690,       185.021,       99.9144,            0.,NA,NA,"",   1.92875E+06,  -1.10356E+06,  -1.10356E+06
C:/temp/Job-9.odb,Step-1,Increment      1: Step Time =    1.000,"P-9-1",           691,       185.011,       105.206,            0.,NA,NA,"",   2.03064E+06,  -957.206E+03,  -957.206E+03
C:/temp/Job-9.odb,Step-1,Increment      1: Step Time =    1.000,"P-9-1",           692,       95.9102,       16.1645,            0.,NA,NA,"",   6.27849E+06,   6.22157E+06,   6.22157E+06
C:/temp/Job-9.odb,Step-1,Increment      1: Step Time =    1.000,"P-9-1",           693,       60.0349,       14.2826,            0.,NA,NA,"",   4.35422E+06,   3.99872E+06,   3.99872E+06
C:/temp/Job-9.odb,Step-1,Increment      1: Step Time =    1.000,"P-9-1",           694,       12.0854,       59.3276,            0.,NA,NA,"",   1.15246E+06,  -1.11028E+06,  -1.11028E+06
C:/temp/Job-9.odb,Step-1,Increment      1: Step Time =    1.000,"P-9-1",           695,       60.1329,       186.371,            0.,NA,NA,"",   4.43279E+06,   4.09163E+06,   4.09163E+06
C:/temp/Job-9.odb,Step-1,Increment      1: Step Time =    1.000,"P-9-1",           696,       185.413,       59.2070,            0.,NA,NA,"",   2.99535E+06,   2.61030E+06,   2.61030E+06
C:/temp/Job-9.odb,Step-1,Increment      1: Step Time =    1.000,"P-9-1",           697,       139.185,       12.8410,            0.,NA,NA,"",   1.79439E+06,   1.83278E+06,   1.83278E+06
C:/temp/Job-9.odb,Step-1,Increment      1: Step Time =    1.000,"P-9-1",           698,       9.91090,       139.725,            0.,NA,NA,"",   1.07938E+06,  -1.04495E+06,  -1.04495E+06
C:/temp/Job-9.odb,Step-1,Increment      1: Step Time =    1.000,"P-9-1",           699,       185.716,       140.553,            0.,NA,NA,"",   3.01090E+06,   2.60230E+06,   2.60230E+06
C:/temp/Job-9.odb,Step-1,Increment      1: Step Time =    1.000,"P-9-1",           700,       138.563,       181.889,            0.,NA,NA,"",   3.60042E+06,   3.75456E+06,   3.75456E+06
C:/temp/Job-9.odb,Step-1,Increment      1: Step Time =    1.000,"P-9-1",           701,       83.7423,       15.9589,            0.,NA,NA,"",   5.18938E+06,   4.83172E+06,   4.83172E+06
C:/temp/Job-9.odb,Step-1,Increment      1: Step Time =    1.000,"P-9-1",           702,       185.152,       84.8681,            0.,NA,NA,"",   2.43020E+06,   286.697E+03,   286.697E+03
C:/temp/Job-9.odb,Step-1,Increment      1: Step Time =    1.000,"P-9-1",           703,       116.365,       184.330,            0.,NA,NA,"",   5.45201E+06,   5.69080E+06,   5.69080E+06
C:/temp/Job-9.odb,Step-1,Increment      1: Step Time =    1.000,"P-9-1",           704,       15.9642,       116.369,            0.,NA,NA,"",   791.432E+03,  -840.507E+03,  -840.507E+03
C:/temp/Job-9.odb,Step-1,Increment      1: Step Time =    1.000,"P-9-1",           705,       15.7948,       126.140,            0.,NA,NA,"",   1.07818E+06,  -1.11226E+06,  -1.11226E+06
C:/temp/Job-9.odb,Step-1,Increment      1: Step Time =    1.000,"P-9-1",           706,       74.1915,       16.1052,            0.,NA,NA,"",   4.59608E+06,   4.08076E+06,   4.08076E+06
C:/temp/Job-9.odb,Step-1,Increment      1: Step Time =    1.000,"P-9-1",           707,       123.390,       16.1895,            0.,NA,NA,"",   4.74505E+06,   4.99109E+06,   4.99109E+06
C:/temp/Job-9.odb,Step-1,Increment      1: Step Time =    1.000,"P-9-1",           708,       13.7445,       74.3297,            0.,NA,NA,"",   999.912E+03,  -1.03792E+06,  -1.03792E+06
C:/temp/Job-9.odb,Step-1,Increment      1: Step Time =    1.000,"P-9-1",           709,       185.050,       72.8413,            0.,NA,NA,"",   2.99148E+06,   2.33156E+06,   2.33156E+06
C:/temp/Job-9.odb,Step-1,Increment      1: Step Time =    1.000,"P-9-1",           710,       125.713,       185.681,            0.,NA,NA,"",   3.36334E+06,   3.57030E+06,   3.57030E+06
C:/temp/Job-9.odb,Step-1,Increment      1: Step Time =    1.000,"P-9-1",           711,       187.075,       125.573,            0.,NA,NA,"",   3.02407E+06,   2.63570E+06,   2.63570E+06
C:/temp/Job-9.odb,Step-1,Increment      1: Step Time =    1.000,"P-9-1",           712,       73.8836,       186.381,            0.,NA,NA,"",   4.75995E+06,   4.30278E+06,   4.30278E+06
C:/temp/Job-9.odb,Step-1,Increment      1: Step Time =    1.000,"P-9-1",           713,       68.8325,       15.7707,            0.,NA,NA,"",   4.35709E+06,   3.83398E+06,   3.83398E+06
C:/temp/Job-9.odb,Step-1,Increment      1: Step Time =    1.000,"P-9-1",           714,       13.7454,       69.4062,            0.,NA,NA,"",   1.11001E+06,  -1.13061E+06,  -1.13061E+06
C:/temp/Job-9.odb,Step-1,Increment      1: Step Time =    1.000,"P-9-1",           715,       130.843,       12.4697,            0.,NA,NA,"",   2.04581E+06,   2.18326E+06,   2.18326E+06
C:/temp/Job-9.odb,Step-1,Increment      1: Step Time =    1.000,"P-9-1",           716,       69.8319,       187.950,            0.,NA,NA,"",   4.76649E+06,   4.37870E+06,   4.37870E+06
C:/temp/Job-9.odb,Step-1,Increment      1: Step Time =    1.000,"P-9-1",           717,       185.262,       69.3098,            0.,NA,NA,"",   3.10770E+06,   2.50878E+06,   2.50878E+06
C:/temp/Job-9.odb,Step-1,Increment      1: Step Time =    1.000,"P-9-1",           718,       131.509,       186.469,            0.,NA,NA,"",   2.37949E+06,   2.52238E+06,   2.52238E+06
C:/temp/Job-9.odb,Step-1,Increment      1: Step Time =    1.000,"P-9-1",           719,       171.592,       47.8484,            0.,NA,NA,"",   2.92323E+06,   2.65539E+06,   2.65539E+06
C:/temp/Job-9.odb,Step-1,Increment      1: Step Time =    1.000,"P-9-1",           720,       50.4316,       172.781,            0.,NA,NA,"",   1.94938E+06,   136.435E+03,   136.435E+03
C:/temp/Job-9.odb,Step-1,Increment      1: Step Time =    1.000,"P-9-1",           721,       47.7715,       27.5138,            0.,NA,NA,"",   1.86367E+06,   695.518E+03,   695.518E+03
C:/temp/Job-9.odb,Step-1,Increment      1: Step Time =    1.000,"P-9-1",           722,       25.6562,       48.9889,            0.,NA,NA,"",   1.41932E+06,  -1.39335E+06,  -1.39335E+06
C:/temp/Job-9.odb,Step-1,Increment      1: Step Time =    1.000,"P-9-1",           723,       152.513,       172.960,            0.,NA,NA,"",   3.76976E+06,   3.88622E+06,   3.88622E+06
C:/temp/Job-9.odb,Step-1,Increment      1: Step Time =    1.000,"P-9-1",           724,       173.174,       148.527,            0.,NA,NA,"",   2.86461E+06,   2.47882E+06,   2.47882E+06
C:/temp/Job-9.odb,Step-1,Increment      1: Step Time =    1.000,"P-9-1",           725,       28.8580,       152.650,            0.,NA,NA,"",   1.54523E+06,  -1.55195E+06,  -1.55195E+06
C:/temp/Job-9.odb,Step-1,Increment      1: Step Time =    1.000,"P-9-1",           726,       151.579,       24.8513,            0.,NA,NA,"",   3.55492E+06,   3.63380E+06,   3.63380E+06
C:/temp/Job-9.odb,Step-1,Increment      1: Step Time =    1.000,"P-9-1",           727,       13.6116,       79.2390,            0.,NA,NA,"",   873.235E+03,  -921.637E+03,  -921.637E+03
C:/temp/Job-9.odb,Step-1,Increment      1: Step Time =    1.000,"P-9-1",           728,       121.948,       13.2397,            0.,NA,NA,"",   3.28560E+06,   3.47626E+06,   3.47626E+06
C:/temp/Job-9.odb,Step-1,Increment      1: Step Time =    1.000,"P-9-1",           729,       14.3390,       122.030,            0.,NA,NA,"",   914.618E+03,  -960.270E+03,  -960.270E+03
C:/temp/Job-9.odb,Step-1,Increment      1: Step Time =    1.000,"P-9-1",           730,       81.4704,       12.6906,            0.,NA,NA,"",   4.94859E+06,   4.49706E+06,   4.49706E+06
C:/temp/Job-9.odb,Step-1,Increment      1: Step Time =    1.000,"P-9-1",           731,       118.475,       187.753,            0.,NA,NA,"",   3.04629E+06,   3.20891E+06,   3.20891E+06
C:/temp/Job-9.odb,Step-1,Increment      1: Step Time =    1.000,"P-9-1",           732,       184.846,       78.0956,            0.,NA,NA,"",   2.69494E+06,   1.08572E+06,   1.08572E+06
C:/temp/Job-9.odb,Step-1,Increment      1: Step Time =    1.000,"P-9-1",           733,       79.2825,       186.494,            0.,NA,NA,"",   4.95592E+06,   4.50538E+06,   4.50538E+06
C:/temp/Job-9.odb,Step-1,Increment      1: Step Time =    1.000,"P-9-1",           734,       182.316,       90.5618,            0.,NA,NA,"",   3.31378E+06,  -3.24986E+06,  -3.24986E+06
C:/temp/Job-9.odb,Step-1,Increment      1: Step Time =    1.000,"P-9-1",           735,       15.6201,       109.891,            0.,NA,NA,"",   654.210E+03,  -703.407E+03,  -703.407E+03
C:/temp/Job-9.odb,Step-1,Increment      1: Step Time =    1.000,"P-9-1",           736,       110.142,       184.099,            0.,NA,NA,"",   6.45901E+06,   6.64288E+06,   6.64288E+06
C:/temp/Job-9.odb,Step-1,Increment      1: Step Time =    1.000,"P-9-1",           737,       16.9974,       88.9602,            0.,NA,NA,"",   703.174E+03,  -747.813E+03,  -747.813E+03
C:/temp/Job-9.odb,Step-1,Increment      1: Step Time =    1.000,"P-9-1",           738,       88.6424,       183.120,            0.,NA,NA,"",   5.70076E+06,   5.51675E+06,   5.51675E+06
C:/temp/Job-9.odb,Step-1,Increment      1: Step Time =    1.000,"P-9-1",           739,       89.9332,       15.9594,            0.,NA,NA,"",   5.68403E+06,   5.51597E+06,   5.51597E+06
C:/temp/Job-9.odb,Step-1,Increment      1: Step Time =    1.000,"P-9-1",           740,       25.8589,       141.125,            0.,NA,NA,"",   1.84652E+06,  -1.86281E+06,  -1.86281E+06
C:/temp/Job-9.odb,Step-1,Increment      1: Step Time =    1.000,"P-9-1",           741,       61.8821,       177.339,            0.,NA,NA,"",   2.84346E+06,   2.12549E+06,   2.12549E+06
C:/temp/Job-9.odb,Step-1,Increment      1: Step Time =    1.000,"P-9-1",           742,       139.522,       23.2488,            0.,NA,NA,"",   5.16572E+06,   5.36530E+06,   5.36530E+06
C:/temp/Job-9.odb,Step-1,Increment      1: Step Time =    1.000,"P-9-1",           743,       60.4826,       22.8725,            0.,NA,NA,"",   2.80214E+06,   2.07306E+06,   2.07306E+06
C:/temp/Job-9.odb,Step-1,Increment      1: Step Time =    1.000,"P-9-1",           744,       142.267,       18.6979,            0.,NA,NA,"",   3.31431E+06,   3.43550E+06,   3.43550E+06
C:/temp/Job-9.odb,Step-1,Increment      1: Step Time =    1.000,"P-9-1",           745,       58.5092,       179.359,            0.,NA,NA,"",   3.17170E+06,   2.57107E+06,   2.57107E+06
C:/temp/Job-9.odb,Step-1,Increment      1: Step Time =    1.000,"P-9-1",           746,       20.5308,       142.548,            0.,NA,NA,"",   1.43049E+06,  -1.40711E+06,  -1.40711E+06
C:/temp/Job-9.odb,Step-1,Increment      1: Step Time =    1.000,"P-9-1",           747,       56.2623,       21.5333,            0.,NA,NA,"",   2.92284E+06,   2.32606E+06,   2.32606E+06
C:/temp/Job-9.odb,Step-1,Increment      1: Step Time =    1.000,"P-9-1",           748,       64.5474,       18.3917,            0.,NA,NA,"",   3.80194E+06,   3.21033E+06,   3.21033E+06
C:/temp/Job-9.odb,Step-1,Increment      1: Step Time =    1.000,"P-9-1",           749,       19.0263,       128.401,            0.,NA,NA,"",   1.24765E+06,  -1.27585E+06,  -1.27585E+06
C:/temp/Job-9.odb,Step-1,Increment      1: Step Time =    1.000,"P-9-1",           750,       129.742,       183.609,            0.,NA,NA,"",   4.09322E+06,   4.33162E+06,   4.33162E+06
C:/temp/Job-9.odb,Step-1,Increment      1: Step Time =    1.000,"P-9-1",           751,       182.000,       65.1818,            0.,NA,NA,"",   3.07634E+06,   2.28314E+06,   2.28314E+06
C:/temp/Job-9.odb,Step-1,Increment      1: Step Time =    1.000,"P-9-1",           752,       14.0096,       63.9179,            0.,NA,NA,"",   1.21320E+06,  -1.20524E+06,  -1.20524E+06
C:/temp/Job-9.odb,Step-1,Increment      1: Step Time =    1.000,"P-9-1",           753,       64.9325,       13.2996,            0.,NA,NA,"",   4.57982E+06,   4.20383E+06,   4.20383E+06
C:/temp/Job-9.odb,Step-1,Increment      1: Step Time =    1.000,"P-9-1",           754,       65.8709,       185.660,            0.,NA,NA,"",   4.45363E+06,   4.02212E+06,   4.02212E+06
C:/temp/Job-9.odb,Step-1,Increment      1: Step Time =    1.000,"P-9-1",           755,       185.516,       61.9349,            0.,NA,NA,"",   3.06388E+06,   2.64952E+06,   2.64952E+06
C:/temp/Job-9.odb,Step-1,Increment      1: Step Time =    1.000,"P-9-1",           756,       14.9946,       136.205,            0.,NA,NA,"",   1.24596E+06,  -1.23554E+06,  -1.23554E+06
C:/temp/Job-9.odb,Step-1,Increment      1: Step Time =    1.000,"P-9-1",           757,       131.582,       17.2456,            0.,NA,NA,"",   4.22497E+06,   4.44005E+06,   4.44005E+06
C:/temp/Job-9.odb,Step-1,Increment      1: Step Time =    1.000,"P-9-1",           758,       184.998,       134.943,            0.,NA,NA,"",   3.10034E+06,   2.52451E+06,   2.52451E+06
C:/temp/Job-9.odb,Step-1,Increment      1: Step Time =    1.000,"P-9-1",           759,       134.169,       183.707,            0.,NA,NA,"",   3.47730E+06,   3.64833E+06,   3.64833E+06
C:/temp/Job-9.odb,Step-1,Increment      1: Step Time =    1.000,"P-9-1",           760,       113.239,       186.876,            0.,NA,NA,"",   4.14398E+06,   4.30272E+06,   4.30272E+06
C:/temp/Job-9.odb,Step-1,Increment      1: Step Time =    1.000,"P-9-1",           761,       13.9367,       113.804,            0.,NA,NA,"",   696.418E+03,  -751.857E+03,  -751.857E+03
C:/temp/Job-9.odb,Step-1,Increment      1: Step Time =    1.000,"P-9-1",           762,       185.799,       89.7078,            0.,NA,NA,"",   1.95781E+06,  -146.304E+03,  -146.304E+03
C:/temp/Job-9.odb,Step-1,Increment      1: Step Time =    1.000,"P-9-1",           763,       86.8263,       13.2815,            0.,NA,NA,"",   5.07561E+06,   4.72056E+06,   4.72056E+06
C:/temp/Job-9.odb,Step-1,Increment      1: Step Time =    1.000,"P-9-1",           764,       167.377,       45.3477,            0.,NA,NA,"",   3.05939E+06,   2.92313E+06,   2.92313E+06
C:/temp/Job-9.odb,Step-1,Increment      1: Step Time =    1.000,"P-9-1",           765,       48.9549,       166.759,            0.,NA,NA,"",   1.91963E+06,  -1.80709E+06,  -1.80709E+06
C:/temp/Job-9.odb,Step-1,Increment      1: Step Time =    1.000,"P-9-1",           766,       48.4682,       33.3699,            0.,NA,NA,"",   1.90649E+06,  -1.80446E+06,  -1.80446E+06
C:/temp/Job-9.odb,Step-1,Increment      1: Step Time =    1.000,"P-9-1",           767,       32.4292,       48.1832,            0.,NA,NA,"",   2.03242E+06,  -2.06981E+06,  -2.06981E+06
C:/temp/Job-9.odb,Step-1,Increment      1: Step Time =    1.000,"P-9-1",           768,       154.257,       168.893,            0.,NA,NA,"",   3.83410E+06,   3.94907E+06,   3.94907E+06
C:/temp/Job-9.odb,Step-1,Increment      1: Step Time =    1.000,"P-9-1",           769,       167.309,       150.502,            0.,NA,NA,"",   2.85854E+06,   2.70285E+06,   2.70285E+06
C:/temp/Job-9.odb,Step-1,Increment      1: Step Time =    1.000,"P-9-1",           770,       33.1561,       155.531,            0.,NA,NA,"",   1.67202E+06,  -1.70349E+06,  -1.70349E+06
C:/temp/Job-9.odb,Step-1,Increment      1: Step Time =    1.000,"P-9-1",           771,       152.079,       32.1259,            0.,NA,NA,"",   4.36468E+06,   4.47974E+06,   4.47974E+06
C:/temp/Job-9.odb,Step-1,Increment      1: Step Time =    1.000,"P-9-1",           772,       17.5700,       84.1768,            0.,NA,NA,"",   820.449E+03,  -862.695E+03,  -862.695E+03
C:/temp/Job-9.odb,Step-1,Increment      1: Step Time =    1.000,"P-9-1",           773,       117.030,       15.6348,            0.,NA,NA,"",   5.36979E+06,   5.59537E+06,   5.59537E+06
C:/temp/Job-9.odb,Step-1,Increment      1: Step Time =    1.000,"P-9-1",           774,       184.534,       115.942,            0.,NA,NA,"",   2.47256E+06,  -235.698E+03,  -235.698E+03
C:/temp/Job-9.odb,Step-1,Increment      1: Step Time =    1.000,"P-9-1",           775,       83.0877,       182.844,            0.,NA,NA,"",   5.15583E+06,   4.83857E+06,   4.83857E+06
C:/temp/Job-9.odb,Step-1,Increment      1: Step Time =    1.000,"P-9-1",           776,       184.826,       110.490,            0.,NA,NA,"",   2.24726E+06,  -637.869E+03,  -637.869E+03
C:/temp/Job-9.odb,Step-1,Increment      1: Step Time =    1.000,"P-9-1",           777,       13.4837,       88.8545,            0.,NA,NA,"",   631.446E+03,  -690.209E+03,  -690.209E+03
C:/temp/Job-9.odb,Step-1,Increment      1: Step Time =    1.000,"P-9-1",           778,       110.923,       15.3142,            0.,NA,NA,"",   5.78317E+06,   5.96951E+06,   5.96951E+06
C:/temp/Job-9.odb,Step-1,Increment      1: Step Time =    1.000,"P-9-1",           779,       88.7627,       186.617,            0.,NA,NA,"",   5.14874E+06,   4.83110E+06,   4.83110E+06
C:/temp/Job-9.odb,Step-1,Increment      1: Step Time =    1.000,"P-9-1",           780,       80.4496,       17.8627,            0.,NA,NA,"",   4.85484E+06,   4.47277E+06,   4.47277E+06
C:/temp/Job-9.odb,Step-1,Increment      1: Step Time =    1.000,"P-9-1",           781,       17.8806,       119.732,            0.,NA,NA,"",   927.272E+03,  -968.427E+03,  -968.427E+03
C:/temp/Job-9.odb,Step-1,Increment      1: Step Time =    1.000,"P-9-1",           782,       182.105,       81.1460,            0.,NA,NA,"",   2.81130E+06,  -1.56801E+06,  -1.56801E+06
C:/temp/Job-9.odb,Step-1,Increment      1: Step Time =    1.000,"P-9-1",           783,       119.812,       182.637,            0.,NA,NA,"",   6.08944E+06,   6.34106E+06,   6.34106E+06
C:/temp/Job-9.odb,Step-1,Increment      1: Step Time =    1.000,"P-9-1",           784,       137.934,       17.0319,            0.,NA,NA,"",   3.22856E+06,   3.37656E+06,   3.37656E+06
C:/temp/Job-9.odb,Step-1,Increment      1: Step Time =    1.000,"P-9-1",           785,       59.8185,       182.639,            0.,NA,NA,"",   3.77044E+06,   3.28420E+06,   3.28420E+06
C:/temp/Job-9.odb,Step-1,Increment      1: Step Time =    1.000,"P-9-1",           786,       17.6749,       60.2608,            0.,NA,NA,"",   1.36334E+06,  -1.33508E+06,  -1.33508E+06
C:/temp/Job-9.odb,Step-1,Increment      1: Step Time =    1.000,"P-9-1",           787,       61.2273,       18.7601,            0.,NA,NA,"",   3.61606E+06,   3.04627E+06,   3.04627E+06
C:/temp/Job-9.odb,Step-1,Increment      1: Step Time =    1.000,"P-9-1",           788,       179.329,       139.051,            0.,NA,NA,"",   2.93116E+06,   2.19926E+06,   2.19926E+06
C:/temp/Job-9.odb,Step-1,Increment      1: Step Time =    1.000,"P-9-1",           789,       173.318,       43.8895,            0.,NA,NA,"",   2.85459E+06,   2.60792E+06,   2.60792E+06
C:/temp/Job-9.odb,Step-1,Increment      1: Step Time =    1.000,"P-9-1",           790,       46.5796,       170.574,            0.,NA,NA,"",   1.68200E+06,  -64.7474E+03,  -64.7474E+03
C:/temp/Job-9.odb,Step-1,Increment      1: Step Time =    1.000,"P-9-1",           791,       43.8432,       25.6349,            0.,NA,NA,"",   2.05090E+06,   1.62115E+06,   1.62115E+06
C:/temp/Job-9.odb,Step-1,Increment      1: Step Time =    1.000,"P-9-1",           792,       28.3754,       44.6377,            0.,NA,NA,"",   1.22654E+06,  -1.20487E+06,  -1.20487E+06
C:/temp/Job-9.odb,Step-1,Increment      1: Step Time =    1.000,"P-9-1",           793,       171.353,       152.648,            0.,NA,NA,"",   2.91409E+06,   2.65151E+06,   2.65151E+06
C:/temp/Job-9.odb,Step-1,Increment      1: Step Time =    1.000,"P-9-1",           794,       157.477,       171.619,            0.,NA,NA,"",   3.23637E+06,   3.29375E+06,   3.29375E+06
C:/temp/Job-9.odb,Step-1,Increment      1: Step Time =    1.000,"P-9-1",           795,       26.3086,       156.640,            0.,NA,NA,"",   943.403E+03,  -889.419E+03,  -889.419E+03
C:/temp/Job-9.odb,Step-1,Increment      1: Step Time =    1.000,"P-9-1",           796,       154.780,       28.2134,            0.,NA,NA,"",   3.60689E+06,   3.68318E+06,   3.68318E+06
C:/temp/Job-9.odb,Step-1,Increment      1: Step Time =    1.000,"P-9-1",           797,       78.8402,       180.455,            0.,NA,NA,"",   4.41761E+06,   4.04821E+06,   4.04821E+06
C:/temp/Job-9.odb,Step-1,Increment      1: Step Time =    1.000,"P-9-1",           798,       14.7127,       140.544,            0.,NA,NA,"",   1.23776E+06,  -1.20241E+06,  -1.20241E+06
C:/temp/Job-9.odb,Step-1,Increment      1: Step Time =    1.000,"P-9-1",           799,       57.9590,       17.4033,            0.,NA,NA,"",   3.75713E+06,   3.30691E+06,   3.30691E+06
C:/temp/Job-9.odb,Step-1,Increment      1: Step Time =    1.000,"P-9-1",           800,       148.300,       14.3198,            0.,NA,NA,"",   1.89155E+06,   1.83324E+06,   1.83324E+06
C:/temp/Job-9.odb,Step-1,Increment      1: Step Time =    1.000,"P-9-1",           801,       54.5430,       185.852,            0.,NA,NA,"",   4.26267E+06,   3.98606E+06,   3.98606E+06
C:/temp/Job-9.odb,Step-1,Increment      1: Step Time =    1.000,"P-9-1",           802,       20.4924,       56.7618,            0.,NA,NA,"",   1.44960E+06,  -1.41146E+06,  -1.41146E+06
C:/temp/Job-9.odb,Step-1,Increment      1: Step Time =    1.000,"P-9-1",           803,       177.369,       141.749,            0.,NA,NA,"",   2.91077E+06,   2.26104E+06,   2.26104E+06
C:/temp/Job-9.odb,Step-1,Increment      1: Step Time =    1.000,"P-9-1",           804,       11.8708,       55.6972,            0.,NA,NA,"",   1.07505E+06,  -1.00435E+06,  -1.00435E+06
C:/temp/Job-9.odb,Step-1,Increment      1: Step Time =    1.000,"P-9-1",           805,       184.767,       146.312,            0.,NA,NA,"",   2.80137E+06,   2.46116E+06,   2.46116E+06
C:/temp/Job-9.odb,Step-1,Increment      1: Step Time =    1.000,"P-9-1",           806,       52.1874,       177.928,            0.,NA,NA,"",   2.79103E+06,   2.29452E+06,   2.29452E+06
C:/temp/Job-9.odb,Step-1,Increment      1: Step Time =    1.000,"P-9-1",           807,       176.744,       149.928,            0.,NA,NA,"",   2.91685E+06,   2.50570E+06,   2.50570E+06
C:/temp/Job-9.odb,Step-1,Increment      1: Step Time =    1.000,"P-9-1",           808,       155.961,       21.6703,            0.,NA,NA,"",   2.71362E+06,   2.70636E+06,   2.70636E+06
C:/temp/Job-9.odb,Step-1,Increment      1: Step Time =    1.000,"P-9-1",           809,       165.002,       154.273,            0.,NA,NA,"",   3.14979E+06,   3.07277E+06,   3.07277E+06
C:/temp/Job-9.odb,Step-1,Increment      1: Step Time =    1.000,"P-9-1",           810,       157.340,       35.7149,            0.,NA,NA,"",   3.83827E+06,   3.90484E+06,   3.90484E+06
C:/temp/Job-9.odb,Step-1,Increment      1: Step Time =    1.000,"P-9-1",           811,       44.9779,       164.028,            0.,NA,NA,"",   1.92833E+06,  -1.90302E+06,  -1.90302E+06
C:/temp/Job-9.odb,Step-1,Increment      1: Step Time =    1.000,"P-9-1",           812,       35.4408,       44.6211,            0.,NA,NA,"",   1.99177E+06,  -2.03424E+06,  -2.03424E+06
C:/temp/Job-9.odb,Step-1,Increment      1: Step Time =    1.000,"P-9-1",           813,       48.4752,       17.5101,            0.,NA,NA,"",   3.60254E+06,   3.32141E+06,   3.32141E+06
C:/temp/Job-9.odb,Step-1,Increment      1: Step Time =    1.000,"P-9-1",           814,       8.22726,       55.3107,            0.,NA,NA,"",   938.273E+03,  -883.063E+03,  -883.063E+03
C:/temp/Job-9.odb,Step-1,Increment      1: Step Time =    1.000,"P-9-1",           815,       54.7663,       190.649,            0.,NA,NA,"",   5.21837E+06,   5.08219E+06,   5.08219E+06
C:/temp/Job-9.odb,Step-1,Increment      1: Step Time =    1.000,"P-9-1",           816,       144.325,       8.94571,            0.,NA,NA,"",   1.12332E+06,   182.223E+03,   182.223E+03
C:/temp/Job-9.odb,Step-1,Increment      1: Step Time =    1.000,"P-9-1",           817,       190.191,       145.692,            0.,NA,NA,"",   2.37251E+06,   2.30409E+06,   2.30409E+06
C:/temp/Job-9.odb,Step-1,Increment      1: Step Time =    1.000,"P-9-1",           818,       161.408,       34.6697,            0.,NA,NA,"",   3.31791E+06,   3.33411E+06,   3.33411E+06
C:/temp/Job-9.odb,Step-1,Increment      1: Step Time =    1.000,"P-9-1",           819,       165.436,       160.353,            0.,NA,NA,"",   3.15903E+06,   3.10051E+06,   3.10051E+06
C:/temp/Job-9.odb,Step-1,Increment      1: Step Time =    1.000,"P-9-1",           820,       35.8778,       37.7268,            0.,NA,NA,"",   1.21426E+06,  -1.15723E+06,  -1.15723E+06
C:/temp/Job-9.odb,Step-1,Increment      1: Step Time =    1.000,"P-9-1",           821,       38.4743,       165.088,            0.,NA,NA,"",   1.19489E+06,  -1.01442E+06,  -1.01442E+06
C:/temp/Job-9.odb,Step-1,Increment      1: Step Time =    1.000,"P-9-1",           822,       153.406,       18.2251,            0.,NA,NA,"",   2.37738E+06,   2.35617E+06,   2.35617E+06
C:/temp/Job-9.odb,Step-1,Increment      1: Step Time =    1.000,"P-9-1",           823,       21.3436,       45.8836,            0.,NA,NA,"",   918.893E+03,  -810.281E+03,  -810.281E+03
C:/temp/Job-9.odb,Step-1,Increment      1: Step Time =    1.000,"P-9-1",           824,       180.429,       149.473,            0.,NA,NA,"",   2.86475E+06,   2.46600E+06,   2.46600E+06
C:/temp/Job-9.odb,Step-1,Increment      1: Step Time =    1.000,"P-9-1",           825,       47.4957,       181.984,            0.,NA,NA,"",   3.53298E+06,   3.25219E+06,   3.25219E+06
C:/temp/Job-9.odb,Step-1,Increment      1: Step Time =    1.000,"P-9-1",           826,       46.1165,       21.7436,            0.,NA,NA,"",   2.77121E+06,   2.41612E+06,   2.41612E+06
C:/temp/Job-9.odb,Step-1,Increment      1: Step Time =    1.000,"P-9-1",           827,       21.7378,       154.291,            0.,NA,NA,"",   900.941E+03,  -803.028E+03,  -803.028E+03
C:/temp/Job-9.odb,Step-1,Increment      1: Step Time =    1.000,"P-9-1",           828,       165.877,       33.3856,            0.,NA,NA,"",   2.90513E+06,   2.85165E+06,   2.85165E+06
C:/temp/Job-9.odb,Step-1,Increment      1: Step Time =    1.000,"P-9-1",           829,       168.419,       163.874,            0.,NA,NA,"",   2.88432E+06,   2.79644E+06,   2.79644E+06
C:/temp/Job-9.odb,Step-1,Increment      1: Step Time =    1.000,"P-9-1",           830,       31.5701,       35.7737,            0.,NA,NA,"",   755.103E+03,  -316.310E+03,  -316.310E+03
C:/temp/Job-9.odb,Step-1,Increment      1: Step Time =    1.000,"P-9-1",           831,       35.7888,       169.065,            0.,NA,NA,"",   1.21590E+06,   278.372E+03,   278.372E+03
C:/temp/Job-9.odb,Step-1,Increment      1: Step Time =    1.000,"P-9-1",           832,       153.694,       9.30046,            0.,NA,NA,"",   1.09902E+06,   329.625E+03,   329.625E+03
C:/temp/Job-9.odb,Step-1,Increment      1: Step Time =    1.000,"P-9-1",           833,       190.737,       155.327,            0.,NA,NA,"",   1.72858E+06,   1.68174E+06,   1.68174E+06
C:/temp/Job-9.odb,Step-1,Increment      1: Step Time =    1.000,"P-9-1",           834,       44.8087,       190.519,            0.,NA,NA,"",   5.25037E+06,   5.16724E+06,   5.16724E+06
C:/temp/Job-9.odb,Step-1,Increment      1: Step Time =    1.000,"P-9-1",           835,       9.60952,       45.9376,            0.,NA,NA,"",   511.099E+03,  -126.234E+03,  -126.234E+03
C:/temp/Job-9.odb,Step-1,Increment      1: Step Time =    1.000,"P-9-1",           836,       153.146,       13.9187,            0.,NA,NA,"",   1.73048E+06,   1.63564E+06,   1.63564E+06
C:/temp/Job-9.odb,Step-1,Increment      1: Step Time =    1.000,"P-9-1",           837,       14.4647,       47.2318,            0.,NA,NA,"",   757.591E+03,  -468.519E+03,  -468.519E+03
C:/temp/Job-9.odb,Step-1,Increment      1: Step Time =    1.000,"P-9-1",           838,       186.172,       155.401,            0.,NA,NA,"",   2.15284E+06,   1.99289E+06,   1.99289E+06
C:/temp/Job-9.odb,Step-1,Increment      1: Step Time =    1.000,"P-9-1",           839,       45.2084,       185.993,            0.,NA,NA,"",   4.30415E+06,   4.15202E+06,   4.15202E+06
C:/temp/Job-9.odb,Step-1,Increment      1: Step Time =    1.000,"P-9-1",           840,       44.6746,       15.7666,            0.,NA,NA,"",   3.94058E+06,   3.75987E+06,   3.75987E+06
C:/temp/Job-9.odb,Step-1,Increment      1: Step Time =    1.000,"P-9-1",           841,       16.6203,       153.063,            0.,NA,NA,"",   812.890E+03,  -677.372E+03,  -677.372E+03
C:/temp/Job-9.odb,Step-1,Increment      1: Step Time =    1.000,"P-9-1",           842,       166.620,       37.4790,            0.,NA,NA,"",   3.00193E+06,   2.92226E+06,   2.92226E+06
C:/temp/Job-9.odb,Step-1,Increment      1: Step Time =    1.000,"P-9-1",           843,       159.140,       25.4448,            0.,NA,NA,"",   2.93808E+06,   2.93754E+06,   2.93754E+06
C:/temp/Job-9.odb,Step-1,Increment      1: Step Time =    1.000,"P-9-1",           844,       173.921,       160.086,            0.,NA,NA,"",   2.69469E+06,   2.50881E+06,   2.50881E+06
C:/temp/Job-9.odb,Step-1,Increment      1: Step Time =    1.000,"P-9-1",           845,       164.121,       166.590,            0.,NA,NA,"",   3.05328E+06,   3.03802E+06,   3.03802E+06
C:/temp/Job-9.odb,Step-1,Increment      1: Step Time =    1.000,"P-9-1",           846,       36.5594,       32.5423,            0.,NA,NA,"",   1.12151E+06,   71.3899E+03,   71.3899E+03
C:/temp/Job-9.odb,Step-1,Increment      1: Step Time =    1.000,"P-9-1",           847,       29.6708,       38.6176,            0.,NA,NA,"",   736.776E+03,  -618.485E+03,  -618.485E+03
C:/temp/Job-9.odb,Step-1,Increment      1: Step Time =    1.000,"P-9-1",           848,       40.0691,       172.112,            0.,NA,NA,"",   1.67098E+06,   952.694E+03,   952.694E+03
C:/temp/Job-9.odb,Step-1,Increment      1: Step Time =    1.000,"P-9-1",           849,       31.9738,       165.772,            0.,NA,NA,"",   879.435E+03,   91.1282E+03,   91.1282E+03
C:/temp/Job-9.odb,Step-1,Increment      1: Step Time =    1.000,"P-9-1",           850,       162.750,       172.644,            0.,NA,NA,"",   2.76698E+06,   2.75105E+06,   2.75105E+06
C:/temp/Job-9.odb,Step-1,Increment      1: Step Time =    1.000,"P-9-1",           851,       171.664,       37.2730,            0.,NA,NA,"",   2.70322E+06,   2.56042E+06,   2.56042E+06
C:/temp/Job-9.odb,Step-1,Increment      1: Step Time =    1.000,"P-9-1",           852,       26.0097,       166.678,            0.,NA,NA,"",   838.012E+03,   787.190E+03,   787.190E+03
C:/temp/Job-9.odb,Step-1,Increment      1: Step Time =    1.000,"P-9-1",           853,       37.6892,       28.0706,            0.,NA,NA,"",   1.60902E+06,   1.30113E+06,   1.30113E+06
C:/temp/Job-9.odb,Step-1,Increment      1: Step Time =    1.000,"P-9-1",           854,       32.4977,       173.154,            0.,NA,NA,"",   1.81189E+06,   1.67721E+06,   1.67721E+06
C:/temp/Job-9.odb,Step-1,Increment      1: Step Time =    1.000,"P-9-1",           855,       28.1751,       35.6418,            0.,NA,NA,"",   616.701E+03,   132.645E+03,   132.645E+03
C:/temp/Job-9.odb,Step-1,Increment      1: Step Time =    1.000,"P-9-1",           856,       170.665,       168.049,            0.,NA,NA,"",   2.50543E+06,   2.41927E+06,   2.41927E+06
C:/temp/Job-9.odb,Step-1,Increment      1: Step Time =    1.000,"P-9-1",           857,       169.351,       27.8059,            0.,NA,NA,"",   2.34475E+06,   2.26377E+06,   2.26377E+06
C:/temp/Job-9.odb,Step-1,Increment      1: Step Time =    1.000,"P-9-1",           858,       168.513,       175.662,            0.,NA,NA,"",   2.17668E+06,   2.10231E+06,   2.10231E+06
C:/temp/Job-9.odb,Step-1,Increment      1: Step Time =    1.000,"P-9-1",           859,       175.688,       30.2357,            0.,NA,NA,"",   2.09509E+06,   1.99975E+06,   1.99975E+06
C:/temp/Job-9.odb,Step-1,Increment      1: Step Time =    1.000,"P-9-1",           860,       25.9116,       170.188,            0.,NA,NA,"",   1.34860E+06,   1.33242E+06,   1.33242E+06
C:/temp/Job-9.odb,Step-1,Increment      1: Step Time =    1.000,"P-9-1",           861,       32.4886,       26.3970,            0.,NA,NA,"",   1.89480E+06,   1.75889E+06,   1.75889E+06
C:/temp/Job-9.odb,Step-1,Increment      1: Step Time =    1.000,"P-9-1",           862,       24.7270,       36.9755,            0.,NA,NA,"",   541.182E+03,    133.22E+03,    133.22E+03
C:/temp/Job-9.odb,Step-1,Increment      1: Step Time =    1.000,"P-9-1",           863,       37.7574,       176.242,            0.,NA,NA,"",   2.39562E+06,   2.19312E+06,   2.19312E+06
C:/temp/Job-9.odb,Step-1,Increment      1: Step Time =    1.000,"P-9-1",           864,       163.617,       21.1354,            0.,NA,NA,"",   2.18337E+06,   2.10618E+06,   2.10618E+06
C:/temp/Job-9.odb,Step-1,Increment      1: Step Time =    1.000,"P-9-1",           865,       175.443,       165.645,            0.,NA,NA,"",   2.32416E+06,   2.20251E+06,   2.20251E+06
C:/temp/Job-9.odb,Step-1,Increment      1: Step Time =    1.000,"P-9-1",           866,       27.5515,       31.5436,            0.,NA,NA,"",   1.05719E+06,   996.255E+03,   996.255E+03
C:/temp/Job-9.odb,Step-1,Increment      1: Step Time =    1.000,"P-9-1",           867,       27.4233,       173.829,            0.,NA,NA,"",   1.92139E+06,   1.90191E+06,   1.90191E+06
C:/temp/Job-9.odb,Step-1,Increment      1: Step Time =    1.000,"P-9-1",           868,       173.351,       26.3216,            0.,NA,NA,"",   2.03721E+06,   1.95312E+06,   1.95312E+06
C:/temp/Job-9.odb,Step-1,Increment      1: Step Time =    1.000,"P-9-1",           869,       172.700,       172.201,            0.,NA,NA,"",   2.15401E+06,   2.07187E+06,   2.07187E+06
C:/temp/Job-9.odb,Step-1,Increment      1: Step Time =    1.000,"P-9-1",           870,       160.393,       177.129,            0.,NA,NA,"",   2.55263E+06,   2.52682E+06,   2.52682E+06
C:/temp/Job-9.odb,Step-1,Increment      1: Step Time =    1.000,"P-9-1",           871,       176.610,       35.4476,            0.,NA,NA,"",   2.31803E+06,   2.18049E+06,   2.18049E+06
C:/temp/Job-9.odb,Step-1,Increment      1: Step Time =    1.000,"P-9-1",           872,       20.8722,       165.411,            0.,NA,NA,"",   692.604E+03,   726.462E+03,   726.462E+03
C:/temp/Job-9.odb,Step-1,Increment      1: Step Time =    1.000,"P-9-1",           873,       35.8636,       22.0937,            0.,NA,NA,"",   2.72162E+06,   2.57399E+06,   2.57399E+06
C:/temp/Job-9.odb,Step-1,Increment      1: Step Time =    1.000,"P-9-1",           874,       160.367,       17.9636,            0.,NA,NA,"",   2.00873E+06,   1.91997E+06,   1.91997E+06
C:/temp/Job-9.odb,Step-1,Increment      1: Step Time =    1.000,"P-9-1",           875,       180.579,       164.803,            0.,NA,NA,"",   2.05633E+06,   1.93212E+06,   1.93212E+06
C:/temp/Job-9.odb,Step-1,Increment      1: Step Time =    1.000,"P-9-1",           876,       20.9990,       38.9155,            0.,NA,NA,"",   484.973E+03,   51.8258E+03,   51.8258E+03
C:/temp/Job-9.odb,Step-1,Increment      1: Step Time =    1.000,"P-9-1",           877,       35.7144,       180.081,            0.,NA,NA,"",   3.14754E+06,   3.02625E+06,   3.02625E+06
C:/temp/Job-9.odb,Step-1,Increment      1: Step Time =    1.000,"P-9-1",           878,       157.034,       17.6735,            0.,NA,NA,"",   2.07925E+06,   2.01286E+06,   2.01286E+06
C:/temp/Job-9.odb,Step-1,Increment      1: Step Time =    1.000,"P-9-1",           879,       185.671,       160.046,            0.,NA,NA,"",   1.92560E+06,   1.79923E+06,   1.79923E+06
C:/temp/Job-9.odb,Step-1,Increment      1: Step Time =    1.000,"P-9-1",           880,       16.3241,       41.7236,            0.,NA,NA,"",   508.409E+03,   21.1175E+03,   21.1175E+03
C:/temp/Job-9.odb,Step-1,Increment      1: Step Time =    1.000,"P-9-1",           881,       39.7199,       184.254,            0.,NA,NA,"",   3.97795E+06,   3.85515E+06,   3.85515E+06
C:/temp/Job-9.odb,Step-1,Increment      1: Step Time =    1.000,"P-9-1",           882,       23.9332,       175.403,            0.,NA,NA,"",   2.24340E+06,   2.28535E+06,   2.28535E+06
C:/temp/Job-9.odb,Step-1,Increment      1: Step Time =    1.000,"P-9-1",           883,       26.4738,       26.3282,            0.,NA,NA,"",   1.90854E+06,   1.89429E+06,   1.89429E+06
C:/temp/Job-9.odb,Step-1,Increment      1: Step Time =    1.000,"P-9-1",           884,       34.6300,       185.891,            0.,NA,NA,"",   4.28726E+06,   4.23093E+06,   4.23093E+06
C:/temp/Job-9.odb,Step-1,Increment      1: Step Time =    1.000,"P-9-1",           885,       185.575,       164.765,            0.,NA,NA,"",   1.72879E+06,   1.62815E+06,   1.62815E+06
C:/temp/Job-9.odb,Step-1,Increment      1: Step Time =    1.000,"P-9-1",           886,       15.0017,       35.5244,            0.,NA,NA,"",   668.508E+03,   754.856E+03,   754.856E+03
C:/temp/Job-9.odb,Step-1,Increment      1: Step Time =    1.000,"P-9-1",           887,       161.666,       14.3403,            0.,NA,NA,"",   1.56293E+06,   1.42902E+06,   1.42902E+06
C:/temp/Job-9.odb,Step-1,Increment      1: Step Time =    1.000,"P-9-1",           888,       186.017,       129.518,            0.,NA,NA,"",   3.10673E+06,   2.60166E+06,   2.60166E+06
C:/temp/Job-9.odb,Step-1,Increment      1: Step Time =    1.000,"P-9-1",           889,       126.877,       16.4902,            0.,NA,NA,"",   4.47788E+06,   4.69456E+06,   4.69456E+06
C:/temp/Job-9.odb,Step-1,Increment      1: Step Time =    1.000,"P-9-1",           890,       159.671,       174.245,            0.,NA,NA,"",   2.86182E+06,   2.86611E+06,   2.86611E+06
C:/temp/Job-9.odb,Step-1,Increment      1: Step Time =    1.000,"P-9-1",           891,       174.326,       40.3896,            0.,NA,NA,"",   2.69713E+06,   2.49578E+06,   2.49578E+06
C:/temp/Job-9.odb,Step-1,Increment      1: Step Time =    1.000,"P-9-1",           892,       23.9447,       160.804,            0.,NA,NA,"",   550.579E+03,  -86.8648E+03,  -86.8648E+03
C:/temp/Job-9.odb,Step-1,Increment      1: Step Time =    1.000,"P-9-1",           893,       41.8818,       29.3347,            0.,NA,NA,"",   1.49066E+06,   586.227E+03,   586.227E+03
C:/temp/Job-9.odb,Step-1,Increment      1: Step Time =    1.000,"P-9-1",           894,       9.86175,       165.650,            0.,NA,NA,"",   828.821E+03,   944.764E+03,   944.764E+03
C:/temp/Job-9.odb,Step-1,Increment      1: Step Time =    1.000,"P-9-1",           895,       163.354,       10.1437,            0.,NA,NA,"",   1.09208E+06,   910.791E+03,   910.791E+03
C:/temp/Job-9.odb,Step-1,Increment      1: Step Time =    1.000,"P-9-1",           896,       34.2246,       8.37310,            0.,NA,NA,"",   5.44678E+06,   5.41570E+06,   5.41570E+06
C:/temp/Job-9.odb,Step-1,Increment      1: Step Time =    1.000,"P-9-1",           897,       10.1543,       35.6173,            0.,NA,NA,"",   682.823E+03,   778.848E+03,   778.848E+03
C:/temp/Job-9.odb,Step-1,Increment      1: Step Time =    1.000,"P-9-1",           898,       190.462,       164.887,            0.,NA,NA,"",   1.42992E+06,   1.34088E+06,   1.34088E+06
C:/temp/Job-9.odb,Step-1,Increment      1: Step Time =    1.000,"P-9-1",           899,       161.518,       190.295,            0.,NA,NA,"",   1.02736E+06,   823.265E+03,   823.265E+03
C:/temp/Job-9.odb,Step-1,Increment      1: Step Time =    1.000,"P-9-1",           900,       34.9479,       190.376,            0.,NA,NA,"",   5.20169E+06,   5.16610E+06,   5.16610E+06
C:/temp/Job-9.odb,Step-1,Increment      1: Step Time =    1.000,"P-9-1",           901,       190.619,       39.3209,            0.,NA,NA,"",   1.50102E+06,   1.44640E+06,   1.44640E+06
C:/temp/Job-9.odb,Step-1,Increment      1: Step Time =    1.000,"P-9-1",           902,       176.804,       25.6255,            0.,NA,NA,"",   1.80860E+06,   1.72658E+06,   1.72658E+06
C:/temp/Job-9.odb,Step-1,Increment      1: Step Time =    1.000,"P-9-1",           903,       22.0401,       28.9862,            0.,NA,NA,"",   1.51646E+06,   1.57911E+06,   1.57911E+06
C:/temp/Job-9.odb,Step-1,Increment      1: Step Time =    1.000,"P-9-1",           904,       177.648,       173.261,            0.,NA,NA,"",   1.82706E+06,   1.74282E+06,   1.74282E+06
C:/temp/Job-9.odb,Step-1,Increment      1: Step Time =    1.000,"P-9-1",           905,       27.2432,       177.177,            0.,NA,NA,"",   2.55310E+06,   2.54167E+06,   2.54167E+06
C:/temp/Job-9.odb,Step-1,Increment      1: Step Time =    1.000,"P-9-1",           906,       25.1446,       9.52309,            0.,NA,NA,"",   5.16061E+06,   5.15916E+06,   5.15916E+06
C:/temp/Job-9.odb,Step-1,Increment      1: Step Time =    1.000,"P-9-1",           907,       9.95920,       25.2191,            0.,NA,NA,"",   2.11046E+06,   2.31079E+06,   2.31079E+06
C:/temp/Job-9.odb,Step-1,Increment      1: Step Time =    1.000,"P-9-1",           908,       9.82408,       175.053,            0.,NA,NA,"",   2.15243E+06,   2.35260E+06,   2.35260E+06
C:/temp/Job-9.odb,Step-1,Increment      1: Step Time =    1.000,"P-9-1",           909,       174.746,       11.0510,            0.,NA,NA,"",   1.09012E+06,   982.987E+03,   982.987E+03
C:/temp/Job-9.odb,Step-1,Increment      1: Step Time =    1.000,"P-9-1",           910,       25.0165,       190.235,            0.,NA,NA,"",   5.11717E+06,   5.11788E+06,   5.11788E+06
C:/temp/Job-9.odb,Step-1,Increment      1: Step Time =    1.000,"P-9-1",           911,       190.327,       25.0561,            0.,NA,NA,"",   1.29030E+06,   1.16639E+06,   1.16639E+06
C:/temp/Job-9.odb,Step-1,Increment      1: Step Time =    1.000,"P-9-1",           912,       175.240,       190.426,            0.,NA,NA,"",   974.702E+03,   875.644E+03,   875.644E+03
C:/temp/Job-9.odb,Step-1,Increment      1: Step Time =    1.000,"P-9-1",           913,       190.109,       174.738,            0.,NA,NA,"",   1.31250E+06,   1.18455E+06,   1.18455E+06
C:/temp/Job-9.odb,Step-1,Increment      1: Step Time =    1.000,"P-9-1",           914,       18.5998,       161.801,            0.,NA,NA,"",   408.924E+03,   407.075E+03,   407.075E+03
C:/temp/Job-9.odb,Step-1,Increment      1: Step Time =    1.000,"P-9-1",           915,       38.5303,       18.2051,            0.,NA,NA,"",   3.46256E+06,   3.32437E+06,   3.32437E+06
C:/temp/Job-9.odb,Step-1,Increment      1: Step Time =    1.000,"P-9-1",           916,       159.717,       180.797,            0.,NA,NA,"",   2.22689E+06,   2.16649E+06,   2.16649E+06
C:/temp/Job-9.odb,Step-1,Increment      1: Step Time =    1.000,"P-9-1",           917,       181.206,       34.8820,            0.,NA,NA,"",   1.98560E+06,   1.87001E+06,   1.87001E+06
C:/temp/Job-9.odb,Step-1,Increment      1: Step Time =    1.000,"P-9-1",           918,       150.778,       175.897,            0.,NA,NA,"",   3.58459E+06,   3.68470E+06,   3.68470E+06
C:/temp/Job-9.odb,Step-1,Increment      1: Step Time =    1.000,"P-9-1",           919,       177.836,       44.8668,            0.,NA,NA,"",   2.71329E+06,   2.42479E+06,   2.42479E+06
C:/temp/Job-9.odb,Step-1,Increment      1: Step Time =    1.000,"P-9-1",           920,       10.0607,       184.857,            0.,NA,NA,"",   3.87250E+06,   4.08034E+06,   4.08034E+06
C:/temp/Job-9.odb,Step-1,Increment      1: Step Time =    1.000,"P-9-1",           921,       184.976,       10.3023,            0.,NA,NA,"",   1.02793E+06,   954.761E+03,   954.761E+03
C:/temp/Job-9.odb,Step-1,Increment      1: Step Time =    1.000,"P-9-1",           922,       15.2875,       10.1508,            0.,NA,NA,"",   4.96995E+06,   5.02265E+06,   5.02265E+06
C:/temp/Job-9.odb,Step-1,Increment      1: Step Time =    1.000,"P-9-1",           923,       10.2453,       15.2458,            0.,NA,NA,"",   3.85454E+06,   4.05877E+06,   4.05877E+06
C:/temp/Job-9.odb,Step-1,Increment      1: Step Time =    1.000,"P-9-1",           924,       184.870,       189.944,            0.,NA,NA,"",   1.01930E+06,   946.312E+03,   946.312E+03
C:/temp/Job-9.odb,Step-1,Increment      1: Step Time =    1.000,"P-9-1",           925,       189.819,       184.798,            0.,NA,NA,"",   1.16488E+06,   1.05528E+06,   1.05528E+06
C:/temp/Job-9.odb,Step-1,Increment      1: Step Time =    1.000,"P-9-1",           926,       190.065,       15.1548,            0.,NA,NA,"",   1.15755E+06,   1.05035E+06,   1.05035E+06
C:/temp/Job-9.odb,Step-1,Increment      1: Step Time =    1.000,"P-9-1",           927,       15.1278,       189.867,            0.,NA,NA,"",   4.97501E+06,   5.02713E+06,   5.02713E+06
C:/temp/Job-9.odb,Step-1,Increment      1: Step Time =    1.000,"P-9-1",           928,       40.9236,       37.3608,            0.,NA,NA,"",   1.64164E+06,  -1.63486E+06,  -1.63486E+06
C:/temp/Job-9.odb,Step-1,Increment      1: Step Time =    1.000,"P-9-1",           929,       166.939,       40.6379,            0.,NA,NA,"",   3.06681E+06,   2.96475E+06,   2.96475E+06
C:/temp/Job-9.odb,Step-1,Increment      1: Step Time =    1.000,"P-9-1",           930,       34.5147,       162.139,            0.,NA,NA,"",   1.06980E+06,  -981.195E+03,  -981.195E+03
C:/temp/Job-9.odb,Step-1,Increment      1: Step Time =    1.000,"P-9-1",           931,       161.292,       162.658,            0.,NA,NA,"",   3.46735E+06,   3.49195E+06,   3.49195E+06
C:/temp/Job-9.odb,Step-1,Increment      1: Step Time =    1.000,"P-9-1",           932,       78.8181,       23.1787,            0.,NA,NA,"",   3.55434E+06,   3.39116E+06,   3.39116E+06
C:/temp/Job-9.odb,Step-1,Increment      1: Step Time =    1.000,"P-9-1",           933,       23.2189,       121.323,            0.,NA,NA,"",   1.12663E+06,  -1.14863E+06,  -1.14863E+06
C:/temp/Job-9.odb,Step-1,Increment      1: Step Time =    1.000,"P-9-1",           934,       121.676,       177.235,            0.,NA,NA,"",   9.83518E+06,   10.0126E+06,   10.0126E+06
C:/temp/Job-9.odb,Step-1,Increment      1: Step Time =    1.000,"P-9-1",           935,       176.851,       79.1234,            0.,NA,NA,"",   3.77031E+06,  -3.65965E+06,  -3.65965E+06
C:/temp/Job-9.odb,Step-1,Increment      1: Step Time =    1.000,"P-9-1",           936,       164.261,       42.6846,            0.,NA,NA,"",   3.23505E+06,   3.18038E+06,   3.18038E+06
C:/temp/Job-9.odb,Step-1,Increment      1: Step Time =    1.000,"P-9-1",           937,       157.432,       165.416,            0.,NA,NA,"",   3.74420E+06,   3.82578E+06,   3.82578E+06
C:/temp/Job-9.odb,Step-1,Increment      1: Step Time =    1.000,"P-9-1",           938,       45.0581,       36.0490,            0.,NA,NA,"",   1.91418E+06,  -1.89682E+06,  -1.89682E+06
C:/temp/Job-9.odb,Step-1,Increment      1: Step Time =    1.000,"P-9-1",           939,       37.0758,       158.292,            0.,NA,NA,"",   1.79377E+06,  -1.82857E+06,  -1.82857E+06
C:/temp/Job-9.odb,Step-1,Increment      1: Step Time =    1.000,"P-9-1",           940,       110.515,       20.1156,            0.,NA,NA,"",   9.55929E+06,   9.74147E+06,   9.74147E+06
C:/temp/Job-9.odb,Step-1,Increment      1: Step Time =    1.000,"P-9-1",           941,       20.7742,       89.6134,            0.,NA,NA,"",   757.473E+03,  -781.668E+03,  -781.668E+03
C:/temp/Job-9.odb,Step-1,Increment      1: Step Time =    1.000,"P-9-1",           942,       180.018,       110.320,            0.,NA,NA,"",   4.70595E+06,  -4.69907E+06,  -4.69907E+06
C:/temp/Job-9.odb,Step-1,Increment      1: Step Time =    1.000,"P-9-1",           943,       89.4055,       179.248,            0.,NA,NA,"",   6.42832E+06,   6.40940E+06,   6.40940E+06
C:/temp/Job-9.odb,Step-1,Increment      1: Step Time =    1.000,"P-9-1",           944,       178.562,       57.1717,            0.,NA,NA,"",   2.98300E+06,   2.35513E+06,   2.35513E+06
C:/temp/Job-9.odb,Step-1,Increment      1: Step Time =    1.000,"P-9-1",           945,       141.713,       179.309,            0.,NA,NA,"",   3.91974E+06,   4.07252E+06,   4.07252E+06
C:/temp/Job-9.odb,Step-1,Increment      1: Step Time =    1.000,"P-9-1",           946,       24.0292,       60.1030,            0.,NA,NA,"",   1.70715E+06,  -1.71260E+06,  -1.71260E+06
C:/temp/Job-9.odb,Step-1,Increment      1: Step Time =    1.000,"P-9-1",           947,       140.833,       173.765,            0.,NA,NA,"",   5.79942E+06,   5.98651E+06,   5.98651E+06
C:/temp/Job-9.odb,Step-1,Increment      1: Step Time =    1.000,"P-9-1",           948,       174.382,       139.056,            0.,NA,NA,"",   2.46248E+06,   1.75918E+06,   1.75918E+06
C:/temp/Job-9.odb,Step-1,Increment      1: Step Time =    1.000,"P-9-1",           949,       174.291,       58.7575,            0.,NA,NA,"",   2.55886E+06,   1.97688E+06,   1.97688E+06
C:/temp/Job-9.odb,Step-1,Increment      1: Step Time =    1.000,"P-9-1",           950,       152.461,       39.0498,            0.,NA,NA,"",   4.86815E+06,   4.94827E+06,   4.94827E+06
C:/temp/Job-9.odb,Step-1,Increment      1: Step Time =    1.000,"P-9-1",           951,       39.2636,       47.1018,            0.,NA,NA,"",   3.07205E+06,  -3.12490E+06,  -3.12490E+06
C:/temp/Job-9.odb,Step-1,Increment      1: Step Time =    1.000,"P-9-1",           952,       160.926,       152.530,            0.,NA,NA,"",   3.35409E+06,   3.36302E+06,   3.36302E+06
C:/temp/Job-9.odb,Step-1,Increment      1: Step Time =    1.000,"P-9-1",           953,       47.4385,       160.393,            0.,NA,NA,"",   3.10263E+06,  -3.14092E+06,  -3.14092E+06
C:/temp/Job-9.odb,Step-1,Increment      1: Step Time =    1.000,"P-9-1",           954,       34.5415,       146.316,            0.,NA,NA,"",   2.85009E+06,  -2.89960E+06,  -2.89960E+06
C:/temp/Job-9.odb,Step-1,Increment      1: Step Time =    1.000,"P-9-1",           955,       165.754,       53.8551,            0.,NA,NA,"",   2.38357E+06,   2.29213E+06,   2.29213E+06
C:/temp/Job-9.odb,Step-1,Increment      1: Step Time =    1.000,"P-9-1",           956,       33.6148,       182.586,            0.,NA,NA,"",   3.66500E+06,   3.59403E+06,   3.59403E+06
C:/temp/Job-9.odb,Step-1,Increment      1: Step Time =    1.000,"P-9-1",           957,       19.3539,       34.4686,            0.,NA,NA,"",   744.518E+03,   814.530E+03,   814.530E+03
C:/temp/Job-9.odb,Step-1,Increment      1: Step Time =    1.000,"P-9-1",           958,       165.211,       16.0387,            0.,NA,NA,"",   1.66940E+06,   1.55342E+06,   1.55342E+06
C:/temp/Job-9.odb,Step-1,Increment      1: Step Time =    1.000,"P-9-1",           959,       14.7786,       161.594,            0.,NA,NA,"",   431.998E+03,   456.058E+03,   456.058E+03
C:/temp/Job-9.odb,Step-1,Increment      1: Step Time =    1.000,"P-9-1",           960,       37.1425,       12.8661,            0.,NA,NA,"",   4.58250E+06,   4.51707E+06,   4.51707E+06
C:/temp/Job-9.odb,Step-1,Increment      1: Step Time =    1.000,"P-9-1",           961,       162.538,       185.622,            0.,NA,NA,"",   1.56316E+06,   1.42105E+06,   1.42105E+06
C:/temp/Job-9.odb,Step-1,Increment      1: Step Time =    1.000,"P-9-1",           962,       186.042,       39.2113,            0.,NA,NA,"",   1.88308E+06,   1.76460E+06,   1.76460E+06
C:/temp/Job-9.odb,Step-1,Increment      1: Step Time =    1.000,"P-9-1",           963,       144.816,       182.844,            0.,NA,NA,"",   2.73440E+06,   2.78306E+06,   2.78306E+06
C:/temp/Job-9.odb,Step-1,Increment      1: Step Time =    1.000,"P-9-1",           964,       184.139,       54.4267,            0.,NA,NA,"",   2.81684E+06,   2.46797E+06,   2.46797E+06
C:/temp/Job-9.odb,Step-1,Increment      1: Step Time =    1.000,"P-9-1",           965,       14.7531,       25.4642,            0.,NA,NA,"",   2.07663E+06,   2.22798E+06,   2.22798E+06
C:/temp/Job-9.odb,Step-1,Increment      1: Step Time =    1.000,"P-9-1",           966,       25.5974,       14.3786,            0.,NA,NA,"",   4.21665E+06,   4.21805E+06,   4.21805E+06
C:/temp/Job-9.odb,Step-1,Increment      1: Step Time =    1.000,"P-9-1",           967,       14.6863,       175.075,            0.,NA,NA,"",   2.20152E+06,   2.35074E+06,   2.35074E+06
C:/temp/Job-9.odb,Step-1,Increment      1: Step Time =    1.000,"P-9-1",           968,       175.566,       16.2089,            0.,NA,NA,"",   1.41022E+06,   1.30480E+06,   1.30480E+06
C:/temp/Job-9.odb,Step-1,Increment      1: Step Time =    1.000,"P-9-1",           969,       25.2007,       185.488,            0.,NA,NA,"",   4.21042E+06,   4.21254E+06,   4.21254E+06
C:/temp/Job-9.odb,Step-1,Increment      1: Step Time =    1.000,"P-9-1",           970,       185.562,       25.2301,            0.,NA,NA,"",   1.41804E+06,   1.32935E+06,   1.32935E+06
C:/temp/Job-9.odb,Step-1,Increment      1: Step Time =    1.000,"P-9-1",           971,       185.282,       174.506,            0.,NA,NA,"",   1.45325E+06,   1.36147E+06,   1.36147E+06
C:/temp/Job-9.odb,Step-1,Increment      1: Step Time =    1.000,"P-9-1",           972,       175.172,       185.632,            0.,NA,NA,"",   1.30159E+06,   1.19442E+06,   1.19442E+06
C:/temp/Job-9.odb,Step-1,Increment      1: Step Time =    1.000,"P-9-1",           973,       39.7894,       154.240,            0.,NA,NA,"",   2.96156E+06,  -3.01250E+06,  -3.01250E+06
C:/temp/Job-9.odb,Step-1,Increment      1: Step Time =    1.000,"P-9-1",           974,       160.788,       45.7073,            0.,NA,NA,"",   3.43530E+06,   3.44713E+06,   3.44713E+06
C:/temp/Job-9.odb,Step-1,Increment      1: Step Time =    1.000,"P-9-1",           975,       185.159,       15.3175,            0.,NA,NA,"",   1.19601E+06,   1.10071E+06,   1.10071E+06
C:/temp/Job-9.odb,Step-1,Increment      1: Step Time =    1.000,"P-9-1",           976,       184.762,       184.760,            0.,NA,NA,"",   1.20028E+06,   1.10449E+06,   1.10449E+06
C:/temp/Job-9.odb,Step-1,Increment      1: Step Time =    1.000,"P-9-1",           977,       15.4937,       15.3716,            0.,NA,NA,"",   3.98348E+06,   4.08676E+06,   4.08676E+06
C:/temp/Job-9.odb,Step-1,Increment      1: Step Time =    1.000,"P-9-1",           978,       15.1878,       184.799,            0.,NA,NA,"",   4.00827E+06,   4.11417E+06,   4.11417E+06
C:/temp/Job-9.odb,Step-1,Increment      1: Step Time =    1.000,"P-9-1",           979,       172.341,       22.0490,            0.,NA,NA,"",   1.85315E+06,   1.76457E+06,   1.76457E+06
C:/temp/Job-9.odb,Step-1,Increment      1: Step Time =    1.000,"P-9-1",           980,       18.5282,       30.1963,            0.,NA,NA,"",   1.32278E+06,   1.42188E+06,   1.42188E+06
C:/temp/Job-9.odb,Step-1,Increment      1: Step Time =    1.000,"P-9-1",           981,       180.991,       169.455,            0.,NA,NA,"",   1.81451E+06,   1.72459E+06,   1.72459E+06
C:/temp/Job-9.odb,Step-1,Increment      1: Step Time =    1.000,"P-9-1",           982,       30.1824,       181.896,            0.,NA,NA,"",   3.53577E+06,   3.49801E+06,   3.49801E+06
C:/temp/Job-9.odb,Step-1,Increment      1: Step Time =    1.000,"P-9-1",           983,       15.0571,       165.936,            0.,NA,NA,"",   806.235E+03,   906.940E+03,   906.940E+03
C:/temp/Job-9.odb,Step-1,Increment      1: Step Time =    1.000,"P-9-1",           984,       34.1330,       11.5862,            0.,NA,NA,"",   4.80398E+06,   4.76284E+06,   4.76284E+06
C:/temp/Job-9.odb,Step-1,Increment      1: Step Time =    1.000,"P-9-1",           985,       166.639,       185.901,            0.,NA,NA,"",   1.43947E+06,   1.30324E+06,   1.30324E+06
C:/temp/Job-9.odb,Step-1,Increment      1: Step Time =    1.000,"P-9-1",           986,       185.866,       34.6689,            0.,NA,NA,"",   1.66516E+06,   1.57688E+06,   1.57688E+06
C:/temp/Job-9.odb,Step-1,Increment      1: Step Time =    1.000,"P-9-1",           987,       186.213,       43.3827,            0.,NA,NA,"",   2.11351E+06,   1.95441E+06,   1.95441E+06
C:/temp/Job-9.odb,Step-1,Increment      1: Step Time =    1.000,"P-9-1",           988,       158.458,       185.001,            0.,NA,NA,"",   1.76327E+06,   1.63947E+06,   1.63947E+06
C:/temp/Job-9.odb,Step-1,Increment      1: Step Time =    1.000,"P-9-1",           989,       47.0115,       11.0401,            0.,NA,NA,"",   4.94985E+06,   4.83489E+06,   4.83489E+06
C:/temp/Job-9.odb,Step-1,Increment      1: Step Time =    1.000,"P-9-1",           990,       11.2266,       151.913,            0.,NA,NA,"",   703.229E+03,  -562.604E+03,  -562.604E+03
C:/temp/Job-9.odb,Step-1,Increment      1: Step Time =    1.000,"P-9-1",           991,       26.5471,       18.9957,            0.,NA,NA,"",   3.32821E+06,   3.32412E+06,   3.32412E+06
C:/temp/Job-9.odb,Step-1,Increment      1: Step Time =    1.000,"P-9-1",           992,       180.987,       25.4887,            0.,NA,NA,"",   1.60926E+06,   1.52632E+06,   1.52632E+06
C:/temp/Job-9.odb,Step-1,Increment      1: Step Time =    1.000,"P-9-1",           993,       18.6914,       175.156,            0.,NA,NA,"",   2.22189E+06,   2.33380E+06,   2.33380E+06
C:/temp/Job-9.odb,Step-1,Increment      1: Step Time =    1.000,"P-9-1",           994,       174.621,       181.322,            0.,NA,NA,"",   1.54643E+06,   1.44764E+06,   1.44764E+06
C:/temp/Job-9.odb,Step-1,Increment      1: Step Time =    1.000,"P-9-1",           995,       15.4779,       20.5471,            0.,NA,NA,"",   2.98824E+06,   3.12853E+06,   3.12853E+06
C:/temp/Job-9.odb,Step-1,Increment      1: Step Time =    1.000,"P-9-1",           996,       20.7164,       15.2411,            0.,NA,NA,"",   4.06657E+06,   4.10849E+06,   4.10849E+06
C:/temp/Job-9.odb,Step-1,Increment      1: Step Time =    1.000,"P-9-1",           997,       15.0874,       179.878,            0.,NA,NA,"",   3.05581E+06,   3.19996E+06,   3.19996E+06
C:/temp/Job-9.odb,Step-1,Increment      1: Step Time =    1.000,"P-9-1",           998,       180.334,       15.6198,            0.,NA,NA,"",   1.27592E+06,   1.17767E+06,   1.17767E+06
C:/temp/Job-9.odb,Step-1,Increment      1: Step Time =    1.000,"P-9-1",           999,       20.2963,       184.896,            0.,NA,NA,"",   4.08406E+06,   4.12671E+06,   4.12671E+06
C:/temp/Job-9.odb,Step-1,Increment      1: Step Time =    1.000,"P-9-1",          1000,       185.396,       20.3025,            0.,NA,NA,"",   1.32056E+06,   1.22266E+06,   1.22266E+06
C:/temp/Job-9.odb,Step-1,Increment      1: Step Time =    1.000,"P-9-1",          1001,       184.788,       179.584,            0.,NA,NA,"",   1.33821E+06,   1.24009E+06,   1.24009E+06
C:/temp/Job-9.odb,Step-1,Increment      1: Step Time =    1.000,"P-9-1",          1002,       179.864,       184.963,            0.,NA,NA,"",   1.25030E+06,   1.15309E+06,   1.15309E+06
C:/temp/Job-9.odb,Step-1,Increment      1: Step Time =    1.000,"P-9-1",          1003,       153.431,       178.137,            0.,NA,NA,"",   2.95199E+06,   3.00303E+06,   3.00303E+06
C:/temp/Job-9.odb,Step-1,Increment      1: Step Time =    1.000,"P-9-1",          1004,       182.139,       44.0915,            0.,NA,NA,"",   2.47022E+06,   2.21722E+06,   2.21722E+06
C:/temp/Job-9.odb,Step-1,Increment      1: Step Time =    1.000,"P-9-1",          1005,       19.1342,       26.2896,            0.,NA,NA,"",   1.91631E+06,   2.01319E+06,   2.01319E+06
C:/temp/Job-9.odb,Step-1,Increment      1: Step Time =    1.000,"P-9-1",          1006,       25.8393,       181.035,            0.,NA,NA,"",   3.32938E+06,   3.32919E+06,   3.32919E+06
C:/temp/Job-9.odb,Step-1,Increment      1: Step Time =    1.000,"P-9-1",          1007,       176.371,       21.0812,            0.,NA,NA,"",   1.62740E+06,   1.53714E+06,   1.53714E+06
C:/temp/Job-9.odb,Step-1,Increment      1: Step Time =    1.000,"P-9-1",          1008,       180.917,       174.088,            0.,NA,NA,"",   1.64827E+06,   1.56419E+06,   1.56419E+06
C:/temp/Job-9.odb,Step-1,Increment      1: Step Time =    1.000,"P-9-1",          1009,       186.397,       46.5432,            0.,NA,NA,"",   2.27801E+06,   2.09239E+06,   2.09239E+06
C:/temp/Job-9.odb,Step-1,Increment      1: Step Time =    1.000,"P-9-1",          1010,       154.619,       183.792,            0.,NA,NA,"",   2.06361E+06,   1.99569E+06,   1.99569E+06
C:/temp/Job-9.odb,Step-1,Increment      1: Step Time =    1.000,"P-9-1",          1011,       183.466,       48.3428,            0.,NA,NA,"",   2.57596E+06,   2.28723E+06,   2.28723E+06
C:/temp/Job-9.odb,Step-1,Increment      1: Step Time =    1.000,"P-9-1",          1012,       151.123,       181.840,            0.,NA,NA,"",   2.51827E+06,   2.52332E+06,   2.52332E+06
C:/temp/Job-9.odb,Step-1,Increment      1: Step Time =    1.000,"P-9-1",          1013,       54.5603,       15.1764,            0.,NA,NA,"",   4.12194E+06,   3.81430E+06,   3.81430E+06
C:/temp/Job-9.odb,Step-1,Increment      1: Step Time =    1.000,"P-9-1",          1014,       13.5533,       144.274,            0.,NA,NA,"",   1.12539E+06,  -1.05759E+06,  -1.05759E+06
C:/temp/Job-9.odb,Step-1,Increment      1: Step Time =    1.000,"P-9-1",          1015,       185.707,       30.0027,            0.,NA,NA,"",   1.51632E+06,   1.43570E+06,   1.43570E+06
C:/temp/Job-9.odb,Step-1,Increment      1: Step Time =    1.000,"P-9-1",          1016,       30.7898,       13.7066,            0.,NA,NA,"",   4.34824E+06,   4.31243E+06,   4.31243E+06
C:/temp/Job-9.odb,Step-1,Increment      1: Step Time =    1.000,"P-9-1",          1017,       170.805,       186.020,            0.,NA,NA,"",   1.36279E+06,   1.24075E+06,   1.24075E+06
C:/temp/Job-9.odb,Step-1,Increment      1: Step Time =    1.000,"P-9-1",          1018,       15.0640,       170.467,            0.,NA,NA,"",   1.43642E+06,   1.57158E+06,   1.57158E+06
C:/temp/Job-9.odb,Step-1,Increment      1: Step Time =    1.000,"P-9-1",          1019,       188.139,       57.4496,            0.,NA,NA,"",   2.73027E+06,   2.53271E+06,   2.53271E+06
C:/temp/Job-9.odb,Step-1,Increment      1: Step Time =    1.000,"P-9-1",          1020,       141.262,       186.418,            0.,NA,NA,"",   2.07907E+06,   2.08547E+06,   2.08547E+06
C:/temp/Job-9.odb,Step-1,Increment      1: Step Time =    1.000,"P-9-1",          1021,       152.588,       188.397,            0.,NA,NA,"",   1.42449E+06,   1.20659E+06,   1.20659E+06
C:/temp/Job-9.odb,Step-1,Increment      1: Step Time =    1.000,"P-9-1",          1022,       189.645,       47.9505,            0.,NA,NA,"",   2.02958E+06,   1.95323E+06,   1.95323E+06
C:/temp/Job-9.odb,Step-1,Increment      1: Step Time =    1.000,"P-9-1",          1023,       9.96774,       143.056,            0.,NA,NA,"",   1.03076E+06,  -978.453E+03,  -978.453E+03
C:/temp/Job-9.odb,Step-1,Increment      1: Step Time =    1.000,"P-9-1",          1024,       57.4854,       11.4364,            0.,NA,NA,"",   4.80415E+06,   4.57903E+06,   4.57903E+06
C:/temp/Job-9.odb,Step-1,Increment      1: Step Time =    1.000,"P-9-1",          1025,       5.06069,       5.05685,            0.,NA,NA,"",   5.68177E+06,   5.90669E+06,   5.90669E+06
C:/temp/Job-9.odb,Step-1,Increment      1: Step Time =    1.000,"P-9-1",          1026,       67.9217,       178.434,            0.,NA,NA,"",   3.11310E+06,   2.52559E+06,   2.52559E+06
C:/temp/Job-9.odb,Step-1,Increment      1: Step Time =    1.000,"P-9-1",          1027,       42.7693,       9.77218,            0.,NA,NA,"",   5.25373E+06,   5.18431E+06,   5.18431E+06
C:/temp/Job-9.odb,Step-1,Increment      1: Step Time =    1.000,"P-9-1",          1028,       9.92337,       30.3347,            0.,NA,NA,"",   1.33034E+06,   1.49313E+06,   1.49313E+06
C:/temp/Job-9.odb,Step-1,Increment      1: Step Time =    1.000,"P-9-1",          1029,       190.478,       29.9076,            0.,NA,NA,"",   1.33173E+06,   1.22449E+06,   1.22449E+06
C:/temp/Job-9.odb,Step-1,Increment      1: Step Time =    1.000,"P-9-1",          1030,       170.595,       190.649,            0.,NA,NA,"",   956.714E+03,   830.891E+03,   830.891E+03
C:/temp/Job-9.odb,Step-1,Increment      1: Step Time =    1.000,"P-9-1",          1031,       84.2914,       11.4377,            0.,NA,NA,"",   4.82932E+06,   4.39528E+06,   4.39528E+06
C:/temp/Job-9.odb,Step-1,Increment      1: Step Time =    1.000,"P-9-1",          1032,       115.711,       188.835,            0.,NA,NA,"",   2.65749E+06,   2.76310E+06,   2.76310E+06
C:/temp/Job-9.odb,Step-1,Increment      1: Step Time =    1.000,"P-9-1",          1033,       78.1360,       14.3732,            0.,NA,NA,"",   4.87448E+06,   4.38833E+06,   4.38833E+06
C:/temp/Job-9.odb,Step-1,Increment      1: Step Time =    1.000,"P-9-1",          1034,       56.3765,       171.717,            0.,NA,NA,"",   1.95938E+06,  -755.513E+03,  -755.513E+03
C:/temp/Job-9.odb,Step-1,Increment      1: Step Time =    1.000,"P-9-1",          1035,       121.765,       186.502,            0.,NA,NA,"",   3.44331E+06,   3.63627E+06,   3.63627E+06
C:/temp/Job-9.odb,Step-1,Increment      1: Step Time =    1.000,"P-9-1",          1036,       162.332,       39.0717,            0.,NA,NA,"",   3.34603E+06,   3.34105E+06,   3.34105E+06
C:/temp/Job-9.odb,Step-1,Increment      1: Step Time =    1.000,"P-9-1",          1037,       40.9982,       161.161,            0.,NA,NA,"",   1.89280E+06,  -1.91064E+06,  -1.91064E+06
C:/temp/Job-9.odb,Step-1,Increment      1: Step Time =    1.000,"P-9-1",          1038,       104.056,       183.863,            0.,NA,NA,"",   6.49299E+06,   6.59919E+06,   6.59919E+06
C:/temp/Job-9.odb,Step-1,Increment      1: Step Time =    1.000,"P-9-1",          1039,       24.3028,       136.200,            0.,NA,NA,"",   1.70044E+06,  -1.72067E+06,  -1.72067E+06
C:/temp/Job-9.odb,Step-1,Increment      1: Step Time =    1.000,"P-9-1",          1040,       10.4771,       156.353,            0.,NA,NA,"",   431.757E+03,  -48.1287E+03,  -48.1287E+03
C:/temp/Job-9.odb,Step-1,Increment      1: Step Time =    1.000,"P-9-1",          1041,       176.606,       63.3110,            0.,NA,NA,"",   2.58298E+06,   1.09159E+06,   1.09159E+06
C:/temp/Job-9.odb,Step-1,Increment      1: Step Time =    1.000,"P-9-1",          1042,       100.406,       15.3954,            0.,NA,NA,"",   6.15846E+06,   6.16971E+06,   6.16971E+06
C:/temp/Job-9.odb,Step-1,Increment      1: Step Time =    1.000,"P-9-1",          1043,       171.127,       17.4129,            0.,NA,NA,"",   1.60573E+06,   1.49923E+06,   1.49923E+06
C:/temp/Job-9.odb,Step-1,Increment      1: Step Time =    1.000,"P-9-1",          1044,       185.550,       169.566,            0.,NA,NA,"",   1.57298E+06,   1.48444E+06,   1.48444E+06
C:/temp/Job-9.odb,Step-1,Increment      1: Step Time =    1.000,"P-9-1",          1045,       29.8998,       186.012,            0.,NA,NA,"",   4.33000E+06,   4.30905E+06,   4.30905E+06
C:/temp/Job-9.odb,Step-1,Increment      1: Step Time =    1.000,"P-9-1",          1046,       84.0058,       186.977,            0.,NA,NA,"",   5.06242E+06,   4.65402E+06,   4.65402E+06
C:/temp/Job-9.odb,Step-1,Increment      1: Step Time =    1.000,"P-9-1",          1047,       76.4246,       183.288,            0.,NA,NA,"",   4.69427E+06,   4.19835E+06,   4.19835E+06
C:/temp/Job-9.odb,Step-1,Increment      1: Step Time =    1.000,"P-9-1",          1048,       49.4265,       186.497,            0.,NA,NA,"",   4.40422E+06,   4.21114E+06,   4.21114E+06
C:/temp/Job-9.odb,Step-1,Increment      1: Step Time =    1.000,"P-9-1",          1049,       18.5131,       69.4986,            0.,NA,NA,"",   1.27193E+06,  -1.29632E+06,  -1.29632E+06
C:/temp/Job-9.odb,Step-1,Increment      1: Step Time =    1.000,"P-9-1",          1050,       180.341,       132.258,            0.,NA,NA,"",   2.81178E+06,   1.07407E+06,   1.07407E+06
C:/temp/Job-9.odb,Step-1,Increment      1: Step Time =    1.000,"P-9-1",          1051,       182.351,       57.7633,            0.,NA,NA,"",   3.05988E+06,   2.52633E+06,   2.52633E+06
C:/temp/Job-9.odb,Step-1,Increment      1: Step Time =    1.000,"P-9-1",          1052,       185.722,       65.5760,            0.,NA,NA,"",   3.09973E+06,   2.61210E+06,   2.61210E+06
C:/temp/Job-9.odb,Step-1,Increment      1: Step Time =    1.000,"P-9-1",          1053,       186.901,       81.0588,            0.,NA,NA,"",   2.62912E+06,   2.22267E+06,   2.22267E+06
C:/temp/Job-9.odb,Step-1,Increment      1: Step Time =    1.000,"P-9-1",          1054,       185.999,       151.353,            0.,NA,NA,"",   2.43126E+06,   2.21382E+06,   2.21382E+06
C:/temp/Job-9.odb,Step-1,Increment      1: Step Time =    1.000,"P-9-1",          1055,       128.720,       187.802,            0.,NA,NA,"",   1.89239E+06,   2.04276E+06,   2.04276E+06
C:/temp/Job-9.odb,Step-1,Increment      1: Step Time =    1.000,"P-9-1",          1056,       179.624,       135.239,            0.,NA,NA,"",   2.81567E+06,   1.95259E+06,   1.95259E+06
C:/temp/Job-9.odb,Step-1,Increment      1: Step Time =    1.000,"P-9-1",          1057,       163.094,       157.444,            0.,NA,NA,"",   3.32027E+06,   3.29615E+06,   3.29615E+06
C:/temp/Job-9.odb,Step-1,Increment      1: Step Time =    1.000,"P-9-1",          1058,       154.058,       35.7396,            0.,NA,NA,"",   4.32807E+06,   4.42786E+06,   4.42786E+06
C:/temp/Job-9.odb,Step-1,Increment      1: Step Time =    1.000,"P-9-1",          1059,       157.548,       13.7606,            0.,NA,NA,"",   1.57833E+06,   1.45083E+06,   1.45083E+06
C:/temp/Job-9.odb,Step-1,Increment      1: Step Time =    1.000,"P-9-1",          1060,       143.619,       13.7406,            0.,NA,NA,"",   1.89827E+06,   1.88812E+06,   1.88812E+06
C:/temp/Job-9.odb,Step-1,Increment      1: Step Time =    1.000,"P-9-1",          1061,       134.955,       12.2003,            0.,NA,NA,"",   1.81236E+06,   1.90780E+06,   1.90780E+06
C:/temp/Job-9.odb,Step-1,Increment      1: Step Time =    1.000,"P-9-1",          1062,       126.504,       12.6146,            0.,NA,NA,"",   2.40552E+06,   2.55384E+06,   2.55384E+06
C:/temp/Job-9.odb,Step-1,Increment      1: Step Time =    1.000,"P-9-1",          1063,       62.0761,       12.3037,            0.,NA,NA,"",   4.66040E+06,   4.36659E+06,   4.36659E+06
C:/temp/Job-9.odb,Step-1,Increment      1: Step Time =    1.000,"P-9-1",          1064,       52.2569,       19.5081,            0.,NA,NA,"",   3.23489E+06,   2.81898E+06,   2.81898E+06
C:/temp/Job-9.odb,Step-1,Increment      1: Step Time =    1.000,"P-9-1",          1065,       17.9270,       65.6713,            0.,NA,NA,"",   1.33534E+06,  -1.34578E+06,  -1.34578E+06
C:/temp/Job-9.odb,Step-1,Increment      1: Step Time =    1.000,"P-9-1",          1066,       37.8106,       41.6347,            0.,NA,NA,"",   1.89365E+06,  -1.93742E+06,  -1.93742E+06
C:/temp/Job-9.odb,Step-1,Increment      1: Step Time =    1.000,"P-9-1",          1067,       12.5659,       118.483,            0.,NA,NA,"",   787.668E+03,  -841.317E+03,  -841.317E+03
C:/temp/Job-9.odb,Step-1,Increment      1: Step Time =    1.000,"P-9-1",          1068,       167.212,       19.4907,            0.,NA,NA,"",   1.88119E+06,   1.78504E+06,   1.78504E+06
C:/temp/Job-9.odb,Step-1,Increment      1: Step Time =    1.000,"P-9-1",          1069,       181.559,       137.232,            0.,NA,NA,"",   3.00507E+06,   2.26267E+06,   2.26267E+06
C:/temp/Job-9.odb,Step-1,Increment      1: Step Time =    1.000,"P-9-1",          1070,       134.842,       15.4706,            0.,NA,NA,"",   3.00338E+06,   3.17248E+06,   3.17248E+06
C:/temp/Job-9.odb,Step-1,Increment      1: Step Time =    1.000,"P-9-1",          1071,       56.4593,       183.068,            0.,NA,NA,"",   3.78524E+06,    3.3716E+06,    3.3716E+06
C:/temp/Job-9.odb,Step-1,Increment      1: Step Time =    1.000,"P-9-1",          1072,       55.3834,       180.730,            0.,NA,NA,"",   3.37068E+06,   2.91226E+06,   2.91226E+06
C:/temp/Job-9.odb,Step-1,Increment      1: Step Time =    1.000,"P-9-1",          1073,       54.7076,       178.484,            0.,NA,NA,"",   2.93818E+06,   2.42297E+06,   2.42297E+06
C:/temp/Job-9.odb,Step-1,Increment      1: Step Time =    1.000,"P-9-1",          1074,       53.8917,       174.644,            0.,NA,NA,"",   2.25188E+06,   981.929E+03,   981.929E+03
C:/temp/Job-9.odb,Step-1,Increment      1: Step Time =    1.000,"P-9-1",          1075,       40.8378,       14.2132,            0.,NA,NA,"",   4.26896E+06,   4.16070E+06,   4.16070E+06
C:/temp/Job-9.odb,Step-1,Increment      1: Step Time =    1.000,"P-9-1",          1076,       62.7162,       16.0950,            0.,NA,NA,"",   4.13123E+06,   3.65223E+06,   3.65223E+06
C:/temp/Job-9.odb,Step-1,Increment      1: Step Time =    1.000,"P-9-1",          1077,       156.469,       31.4862,            0.,NA,NA,"",   3.67510E+06,   3.74650E+06,   3.74650E+06
C:/temp/Job-9.odb,Step-1,Increment      1: Step Time =    1.000,"P-9-1",          1078,       175.157,       144.899,            0.,NA,NA,"",   2.87076E+06,   2.34273E+06,   2.34273E+06
C:/temp/Job-9.odb,Step-1,Increment      1: Step Time =    1.000,"P-9-1",          1079,       13.4607,       84.1074,            0.,NA,NA,"",   737.004E+03,  -792.569E+03,  -792.569E+03
C:/temp/Job-9.odb,Step-1,Increment      1: Step Time =    1.000,"P-9-1",          1080,       19.1976,       132.040,            0.,NA,NA,"",   1.34413E+06,  -1.36453E+06,  -1.36453E+06
C:/temp/Job-9.odb,Step-1,Increment      1: Step Time =    1.000,"P-9-1",          1081,       164.932,       29.0344,            0.,NA,NA,"",   2.74622E+06,   2.69984E+06,   2.69984E+06
C:/temp/Job-9.odb,Step-1,Increment      1: Step Time =    1.000,"P-9-1",          1082,       12.9903,       51.7666,            0.,NA,NA,"",   965.741E+03,  -861.659E+03,  -861.659E+03
C:/temp/Job-9.odb,Step-1,Increment      1: Step Time =    1.000,"P-9-1",          1083,       163.003,       18.4380,            0.,NA,NA,"",   1.95551E+06,   1.86090E+06,   1.86090E+06
C:/temp/Job-9.odb,Step-1,Increment      1: Step Time =    1.000,"P-9-1",          1084,       181.691,       39.5072,            0.,NA,NA,"",   2.23665E+06,   2.06151E+06,   2.06151E+06
C:/temp/Job-9.odb,Step-1,Increment      1: Step Time =    1.000,"P-9-1",          1085,       155.284,       174.761,            0.,NA,NA,"",   3.20970E+06,   3.27579E+06,   3.27579E+06
C:/temp/Job-9.odb,Step-1,Increment      1: Step Time =    1.000,"P-9-1",          1086,       17.3133,       145.390,            0.,NA,NA,"",   1.23094E+06,  -1.15943E+06,  -1.15943E+06
C:/temp/Job-9.odb,Step-1,Increment      1: Step Time =    1.000,"P-9-1",          1087,       28.0226,       163.078,            0.,NA,NA,"",   659.116E+03,  -23.4399E+03,  -23.4399E+03
C:/temp/Job-9.odb,Step-1,Increment      1: Step Time =    1.000,"P-9-1",          1088,       40.6795,       33.1740,            0.,NA,NA,"",   1.26258E+06,  -643.427E+03,  -643.427E+03
C:/temp/Job-9.odb,Step-1,Increment      1: Step Time =    1.000,"P-9-1",          1089,       182.048,       140.335,            0.,NA,NA,"",   3.07551E+06,   2.43879E+06,   2.43879E+06
C:/temp/Job-9.odb,Step-1,Increment      1: Step Time =    1.000,"P-9-1",          1090,       17.5296,       148.937,            0.,NA,NA,"",   1.09407E+06,  -997.025E+03,  -997.025E+03
C:/temp/Job-9.odb,Step-1,Increment      1: Step Time =    1.000,"P-9-1",          1091,       34.9383,       16.2540,            0.,NA,NA,"",   3.86077E+06,   3.77820E+06,   3.77820E+06
C:/temp/Job-9.odb,Step-1,Increment      1: Step Time =    1.000,"P-9-1",          1092,       45.5061,       30.8593,            0.,NA,NA,"",   1.51315E+06,  -662.600E+03,  -662.600E+03
C:/temp/Job-9.odb,Step-1,Increment      1: Step Time =    1.000,"P-9-1",          1093,       39.8280,       23.9723,            0.,NA,NA,"",   2.32706E+06,   2.07180E+06,   2.07180E+06
C:/temp/Job-9.odb,Step-1,Increment      1: Step Time =    1.000,"P-9-1",          1094,       48.5597,       176.894,            0.,NA,NA,"",   2.55161E+06,   2.06143E+06,   2.06143E+06
C:/temp/Job-9.odb,Step-1,Increment      1: Step Time =    1.000,"P-9-1",          1095,       44.3755,       174.838,            0.,NA,NA,"",   2.16160E+06,   1.71328E+06,   1.71328E+06
C:/temp/Job-9.odb,Step-1,Increment      1: Step Time =    1.000,"P-9-1",          1096,       15.4948,       157.270,            0.,NA,NA,"",   494.129E+03,  -76.6697E+03,  -76.6697E+03
C:/temp/Job-9.odb,Step-1,Increment      1: Step Time =    1.000,"P-9-1",          1097,       156.378,       179.822,            0.,NA,NA,"",   2.51673E+06,   2.50780E+06,   2.50780E+06
C:/temp/Job-9.odb,Step-1,Increment      1: Step Time =    1.000,"P-9-1",          1098,       163.473,       181.047,            0.,NA,NA,"",   2.01003E+06,   1.91821E+06,   1.91821E+06
C:/temp/Job-9.odb,Step-1,Increment      1: Step Time =    1.000,"P-9-1",          1099,       178.268,       146.884,            0.,NA,NA,"",   2.97455E+06,   2.48870E+06,   2.48870E+06
C:/temp/Job-9.odb,Step-1,Increment      1: Step Time =    1.000,"P-9-1",          1100,       171.036,       181.745,            0.,NA,NA,"",   1.65592E+06,   1.55211E+06,   1.55211E+06
C:/temp/Job-9.odb,Step-1,Increment      1: Step Time =    1.000,"P-9-1",          1101,       175.885,       154.280,            0.,NA,NA,"",   2.82916E+06,   2.51874E+06,   2.51874E+06
C:/temp/Job-9.odb,Step-1,Increment      1: Step Time =    1.000,"P-9-1",          1102,       52.2499,       181.655,            0.,NA,NA,"",   3.48589E+06,   3.12905E+06,   3.12905E+06
C:/temp/Job-9.odb,Step-1,Increment      1: Step Time =    1.000,"P-9-1",          1103,       14.9580,       131.375,            0.,NA,NA,"",   1.18478E+06,  -1.19898E+06,  -1.19898E+06
C:/temp/Job-9.odb,Step-1,Increment      1: Step Time =    1.000,"P-9-1",          1104,       164.117,       24.8210,            0.,NA,NA,"",   2.49573E+06,   2.43646E+06,   2.43646E+06
C:/temp/Job-9.odb,Step-1,Increment      1: Step Time =    1.000,"P-9-1",          1105,       181.498,       154.196,            0.,NA,NA,"",   2.58415E+06,   2.30621E+06,   2.30621E+06
C:/temp/Job-9.odb,Step-1,Increment      1: Step Time =    1.000,"P-9-1",          1106,       29.4425,       22.7593,            0.,NA,NA,"",   2.60890E+06,   2.56151E+06,   2.56151E+06
C:/temp/Job-9.odb,Step-1,Increment      1: Step Time =    1.000,"P-9-1",          1107,       20.8556,       171.222,            0.,NA,NA,"",   1.60208E+06,   1.68234E+06,   1.68234E+06
C:/temp/Job-9.odb,Step-1,Increment      1: Step Time =    1.000,"P-9-1",          1108,       26.7230,       40.5046,            0.,NA,NA,"",   710.055E+03,  -612.813E+03,  -612.813E+03
C:/temp/Job-9.odb,Step-1,Increment      1: Step Time =    1.000,"P-9-1",          1109,       14.7990,       57.2725,            0.,NA,NA,"",   1.21017E+06,  -1.15389E+06,  -1.15389E+06
C:/temp/Job-9.odb,Step-1,Increment      1: Step Time =    1.000,"P-9-1",          1110,       19.0079,       49.8623,            0.,NA,NA,"",   1.09156E+06,  -993.157E+03,  -993.157E+03
C:/temp/Job-9.odb,Step-1,Increment      1: Step Time =    1.000,"P-9-1",          1111,       172.418,       178.333,            0.,NA,NA,"",   1.79846E+06,   1.70811E+06,   1.70811E+06
C:/temp/Job-9.odb,Step-1,Increment      1: Step Time =    1.000,"P-9-1",          1112,       16.8790,       53.8458,            0.,NA,NA,"",   1.19603E+06,  -1.11737E+06,  -1.11737E+06
C:/temp/Job-9.odb,Step-1,Increment      1: Step Time =    1.000,"P-9-1",          1113,       175.384,       175.709,            0.,NA,NA,"",   1.83649E+06,   1.74957E+06,   1.74957E+06
C:/temp/Job-9.odb,Step-1,Increment      1: Step Time =    1.000,"P-9-1",          1114,       163.847,       176.611,            0.,NA,NA,"",   2.39595E+06,   2.34284E+06,   2.34284E+06
C:/temp/Job-9.odb,Step-1,Increment      1: Step Time =    1.000,"P-9-1",          1115,       29.9983,       17.5058,            0.,NA,NA,"",   3.60642E+06,   3.57515E+06,   3.57515E+06
