ODB Name,Step,Frame,Part Instance Name,    Node Label,X,Y,Z,Section Name,Material Name,Section Point,       S-Mises,S-Max. In-Plane Principal (Abs),S-Max. Principal (Abs)
C:/temp/Job-4.odb,Step-1,Increment      1: Step Time =    1.000,"P-4-1",             1,       85.1562,       178.611,            0.,NA,NA,"",   5.12890E+06,   5.09054E+06,   5.09054E+06
C:/temp/Job-4.odb,Step-1,Increment      1: Step Time =    1.000,"P-4-1",             2,       70.8279,       174.492,            0.,NA,NA,"",   1.93555E+06,  -1.75332E+06,  -1.75332E+06
C:/temp/Job-4.odb,Step-1,Increment      1: Step Time =    1.000,"P-4-1",             3,       57.5127,       167.785,            0.,NA,NA,"",   4.40525E+06,  -4.43136E+06,  -4.43136E+06
C:/temp/Job-4.odb,Step-1,Increment      1: Step Time =    1.000,"P-4-1",             4,       45.6731,       158.725,            0.,NA,NA,"",   5.01271E+06,  -5.07269E+06,  -5.07269E+06
C:/temp/Job-4.odb,Step-1,Increment      1: Step Time =    1.000,"P-4-1",             5,       35.7202,       147.625,            0.,NA,NA,"",   4.24137E+06,  -4.27769E+06,  -4.27769E+06
C:/temp/Job-4.odb,Step-1,Increment      1: Step Time =    1.000,"P-4-1",             6,       27.9998,       134.871,            0.,NA,NA,"",   2.37823E+06,  -2.41534E+06,  -2.41534E+06
C:/temp/Job-4.odb,Step-1,Increment      1: Step Time =    1.000,"P-4-1",             7,       22.7799,       120.906,            0.,NA,NA,"",   1.13644E+06,  -1.15009E+06,  -1.15009E+06
C:/temp/Job-4.odb,Step-1,Increment      1: Step Time =    1.000,"P-4-1",             8,       20.2418,       106.215,            0.,NA,NA,"",   701.552E+03,  -715.156E+03,  -715.156E+03
C:/temp/Job-4.odb,Step-1,Increment      1: Step Time =    1.000,"P-4-1",             9,       20.4736,       91.3078,            0.,NA,NA,"",   734.287E+03,  -748.022E+03,  -748.022E+03
C:/temp/Job-4.odb,Step-1,Increment      1: Step Time =    1.000,"P-4-1",            10,       23.4674,       76.7028,            0.,NA,NA,"",   1.26011E+06,  -1.28382E+06,  -1.28382E+06
C:/temp/Job-4.odb,Step-1,Increment      1: Step Time =    1.000,"P-4-1",            11,       29.1191,       62.9069,            0.,NA,NA,"",   2.65990E+06,  -2.69828E+06,  -2.69828E+06
C:/temp/Job-4.odb,Step-1,Increment      1: Step Time =    1.000,"P-4-1",            12,       37.2325,       50.3992,            0.,NA,NA,"",   4.57945E+06,  -4.61545E+06,  -4.61545E+06
C:/temp/Job-4.odb,Step-1,Increment      1: Step Time =    1.000,"P-4-1",            13,       47.5257,       39.6142,            0.,NA,NA,"",   5.40604E+06,  -5.46175E+06,  -5.46175E+06
C:/temp/Job-4.odb,Step-1,Increment      1: Step Time =    1.000,"P-4-1",            14,       59.6414,       30.9263,            0.,NA,NA,"",   3.76114E+06,  -3.79608E+06,  -3.79608E+06
C:/temp/Job-4.odb,Step-1,Increment      1: Step Time =    1.000,"P-4-1",            15,       73.1587,       24.6373,            0.,NA,NA,"",   1.63071E+06,  -485.204E+03,  -485.204E+03
C:/temp/Job-4.odb,Step-1,Increment      1: Step Time =    1.000,"P-4-1",            16,       87.6081,       20.9656,            0.,NA,NA,"",   6.45659E+06,   6.39796E+06,   6.39796E+06
C:/temp/Job-4.odb,Step-1,Increment      1: Step Time =    1.000,"P-4-1",            17,       102.488,       20.0387,            0.,NA,NA,"",   12.8486E+06,   12.9686E+06,   12.9686E+06
C:/temp/Job-4.odb,Step-1,Increment      1: Step Time =    1.000,"P-4-1",            18,       112.392,       20.9656,            0.,NA,NA,"",   14.3294E+06,   14.4964E+06,   14.4964E+06
C:/temp/Job-4.odb,Step-1,Increment      1: Step Time =    1.000,"P-4-1",            19,       126.841,       24.6373,            0.,NA,NA,"",   12.3260E+06,   12.5665E+06,   12.5665E+06
C:/temp/Job-4.odb,Step-1,Increment      1: Step Time =    1.000,"P-4-1",            20,       140.359,       30.9263,            0.,NA,NA,"",   10.0339E+06,   10.1463E+06,   10.1463E+06
C:/temp/Job-4.odb,Step-1,Increment      1: Step Time =    1.000,"P-4-1",            21,       152.474,       39.6142,            0.,NA,NA,"",   6.35278E+06,   6.43999E+06,   6.43999E+06
C:/temp/Job-4.odb,Step-1,Increment      1: Step Time =    1.000,"P-4-1",            22,       162.768,       50.3992,            0.,NA,NA,"",   3.70685E+06,   3.73881E+06,   3.73881E+06
C:/temp/Job-4.odb,Step-1,Increment      1: Step Time =    1.000,"P-4-1",            23,       170.881,       62.9069,            0.,NA,NA,"",   1.27200E+06,   335.505E+03,   335.505E+03
C:/temp/Job-4.odb,Step-1,Increment      1: Step Time =    1.000,"P-4-1",            24,       176.533,       76.7028,            0.,NA,NA,"",   4.25856E+06,  -4.25024E+06,  -4.25024E+06
C:/temp/Job-4.odb,Step-1,Increment      1: Step Time =    1.000,"P-4-1",            25,       179.526,       91.3078,            0.,NA,NA,"",   8.65304E+06,  -8.72249E+06,  -8.72249E+06
C:/temp/Job-4.odb,Step-1,Increment      1: Step Time =    1.000,"P-4-1",            26,       179.758,       106.215,            0.,NA,NA,"",   9.09888E+06,  -9.17389E+06,  -9.17389E+06
C:/temp/Job-4.odb,Step-1,Increment      1: Step Time =    1.000,"P-4-1",            27,       177.220,       120.906,            0.,NA,NA,"",   5.28598E+06,  -5.30799E+06,  -5.30799E+06
C:/temp/Job-4.odb,Step-1,Increment      1: Step Time =    1.000,"P-4-1",            28,       172.000,       134.871,            0.,NA,NA,"",   1.22483E+06,  -173.195E+03,  -173.195E+03
C:/temp/Job-4.odb,Step-1,Increment      1: Step Time =    1.000,"P-4-1",            29,       164.280,       147.625,            0.,NA,NA,"",   3.26974E+06,   3.27416E+06,   3.27416E+06
C:/temp/Job-4.odb,Step-1,Increment      1: Step Time =    1.000,"P-4-1",            30,       154.327,       158.725,            0.,NA,NA,"",   5.77856E+06,   5.86089E+06,   5.86089E+06
C:/temp/Job-4.odb,Step-1,Increment      1: Step Time =    1.000,"P-4-1",            31,       142.487,       167.785,            0.,NA,NA,"",   8.88666E+06,   9.06187E+06,   9.06187E+06
C:/temp/Job-4.odb,Step-1,Increment      1: Step Time =    1.000,"P-4-1",            32,       129.172,       174.492,            0.,NA,NA,"",   13.2737E+06,   13.3833E+06,   13.3833E+06
C:/temp/Job-4.odb,Step-1,Increment      1: Step Time =    1.000,"P-4-1",            33,       114.844,       178.611,            0.,NA,NA,"",   15.5716E+06,   15.7031E+06,   15.7031E+06
C:/temp/Job-4.odb,Step-1,Increment      1: Step Time =    1.000,"P-4-1",            34,          100.,          180.,            0.,NA,NA,"",   11.7936E+06,   11.8823E+06,   11.8823E+06
C:/temp/Job-4.odb,Step-1,Increment      1: Step Time =    1.000,"P-4-1",            35,          190.,            0.,            0.,NA,NA,"",   814.598E+03,   794.496E+03,   794.496E+03
C:/temp/Job-4.odb,Step-1,Increment      1: Step Time =    1.000,"P-4-1",            36,          180.,            0.,            0.,NA,NA,"",   413.658E+03,   335.055E+03,   335.055E+03
C:/temp/Job-4.odb,Step-1,Increment      1: Step Time =    1.000,"P-4-1",            37,          170.,            0.,            0.,NA,NA,"",   661.728E+03,  -623.209E+03,  -623.209E+03
C:/temp/Job-4.odb,Step-1,Increment      1: Step Time =    1.000,"P-4-1",            38,          160.,            0.,            0.,NA,NA,"",   1.57411E+06,  -1.55605E+06,  -1.55605E+06
C:/temp/Job-4.odb,Step-1,Increment      1: Step Time =    1.000,"P-4-1",            39,          150.,            0.,            0.,NA,NA,"",   2.70527E+06,  -2.69314E+06,  -2.69314E+06
C:/temp/Job-4.odb,Step-1,Increment      1: Step Time =    1.000,"P-4-1",            40,          140.,            0.,            0.,NA,NA,"",   3.98448E+06,  -3.97036E+06,  -3.97036E+06
C:/temp/Job-4.odb,Step-1,Increment      1: Step Time =    1.000,"P-4-1",            41,          130.,            0.,            0.,NA,NA,"",   5.00819E+06,  -5.00242E+06,  -5.00242E+06
C:/temp/Job-4.odb,Step-1,Increment      1: Step Time =    1.000,"P-4-1",            42,          120.,            0.,            0.,NA,NA,"",   5.46244E+06,  -5.41227E+06,  -5.41227E+06
C:/temp/Job-4.odb,Step-1,Increment      1: Step Time =    1.000,"P-4-1",            43,          110.,            0.,            0.,NA,NA,"",   4.41008E+06,  -4.33396E+06,  -4.33396E+06
C:/temp/Job-4.odb,Step-1,Increment      1: Step Time =    1.000,"P-4-1",            44,          100.,            0.,            0.,NA,NA,"",   2.35523E+06,  -2.06029E+06,  -2.06029E+06
C:/temp/Job-4.odb,Step-1,Increment      1: Step Time =    1.000,"P-4-1",            45,           90.,            0.,            0.,NA,NA,"",   2.49694E+06,   2.24636E+06,   2.24636E+06
C:/temp/Job-4.odb,Step-1,Increment      1: Step Time =    1.000,"P-4-1",            46,           80.,            0.,            0.,NA,NA,"",   5.41105E+06,   5.35082E+06,   5.35082E+06
C:/temp/Job-4.odb,Step-1,Increment      1: Step Time =    1.000,"P-4-1",            47,           70.,            0.,            0.,NA,NA,"",   7.75310E+06,   7.70616E+06,   7.70616E+06
C:/temp/Job-4.odb,Step-1,Increment      1: Step Time =    1.000,"P-4-1",            48,           60.,            0.,            0.,NA,NA,"",   9.09306E+06,   9.04887E+06,   9.04887E+06
C:/temp/Job-4.odb,Step-1,Increment      1: Step Time =    1.000,"P-4-1",            49,           50.,            0.,            0.,NA,NA,"",   9.42162E+06,   9.40461E+06,   9.40461E+06
C:/temp/Job-4.odb,Step-1,Increment      1: Step Time =    1.000,"P-4-1",            50,           40.,            0.,            0.,NA,NA,"",   9.08122E+06,   9.07500E+06,   9.07500E+06
C:/temp/Job-4.odb,Step-1,Increment      1: Step Time =    1.000,"P-4-1",            51,           30.,            0.,            0.,NA,NA,"",   8.39688E+06,   8.39422E+06,   8.39422E+06
C:/temp/Job-4.odb,Step-1,Increment      1: Step Time =    1.000,"P-4-1",            52,           20.,            0.,            0.,NA,NA,"",   7.76651E+06,   7.75774E+06,   7.75774E+06
C:/temp/Job-4.odb,Step-1,Increment      1: Step Time =    1.000,"P-4-1",            53,           10.,            0.,            0.,NA,NA,"",   7.30181E+06,   7.29842E+06,   7.29842E+06
C:/temp/Job-4.odb,Step-1,Increment      1: Step Time =    1.000,"P-4-1",            54,          200.,            0.,            0.,NA,NA,"",   989.872E+03,   978.441E+03,   978.441E+03
C:/temp/Job-4.odb,Step-1,Increment      1: Step Time =    1.000,"P-4-1",            55,            0.,            0.,            0.,NA,NA,"",   7.54393E+06,   7.93564E+06,   7.93564E+06
C:/temp/Job-4.odb,Step-1,Increment      1: Step Time =    1.000,"P-4-1",            56,          200.,          190.,            0.,NA,NA,"",   1.11418E+06,   988.708E+03,   988.708E+03
C:/temp/Job-4.odb,Step-1,Increment      1: Step Time =    1.000,"P-4-1",            57,          200.,          180.,            0.,NA,NA,"",   1.43744E+06,   1.02080E+06,   1.02080E+06
C:/temp/Job-4.odb,Step-1,Increment      1: Step Time =    1.000,"P-4-1",            58,          200.,          170.,            0.,NA,NA,"",   1.60603E+06,   1.04392E+06,   1.04392E+06
C:/temp/Job-4.odb,Step-1,Increment      1: Step Time =    1.000,"P-4-1",            59,          200.,          160.,            0.,NA,NA,"",   1.33675E+06,   1.08774E+06,   1.08774E+06
C:/temp/Job-4.odb,Step-1,Increment      1: Step Time =    1.000,"P-4-1",            60,          200.,          150.,            0.,NA,NA,"",   1.19007E+06,   1.34415E+06,   1.34415E+06
C:/temp/Job-4.odb,Step-1,Increment      1: Step Time =    1.000,"P-4-1",            61,          200.,          140.,            0.,NA,NA,"",   2.63882E+06,   2.96517E+06,   2.96517E+06
C:/temp/Job-4.odb,Step-1,Increment      1: Step Time =    1.000,"P-4-1",            62,          200.,          130.,            0.,NA,NA,"",   5.23837E+06,   5.64507E+06,   5.64507E+06
C:/temp/Job-4.odb,Step-1,Increment      1: Step Time =    1.000,"P-4-1",            63,          200.,          120.,            0.,NA,NA,"",   8.18440E+06,   8.57693E+06,   8.57693E+06
C:/temp/Job-4.odb,Step-1,Increment      1: Step Time =    1.000,"P-4-1",            64,          200.,          110.,            0.,NA,NA,"",   10.6333E+06,   11.0521E+06,   11.0521E+06
C:/temp/Job-4.odb,Step-1,Increment      1: Step Time =    1.000,"P-4-1",            65,          200.,          100.,            0.,NA,NA,"",   11.3844E+06,   11.8022E+06,   11.8022E+06
C:/temp/Job-4.odb,Step-1,Increment      1: Step Time =    1.000,"P-4-1",            66,          200.,           90.,            0.,NA,NA,"",   10.3491E+06,   10.7673E+06,   10.7673E+06
C:/temp/Job-4.odb,Step-1,Increment      1: Step Time =    1.000,"P-4-1",            67,          200.,           80.,            0.,NA,NA,"",   8.05204E+06,   8.46121E+06,   8.46121E+06
C:/temp/Job-4.odb,Step-1,Increment      1: Step Time =    1.000,"P-4-1",            68,          200.,           70.,            0.,NA,NA,"",   5.20465E+06,   5.58999E+06,   5.58999E+06
C:/temp/Job-4.odb,Step-1,Increment      1: Step Time =    1.000,"P-4-1",            69,          200.,           60.,            0.,NA,NA,"",   2.68250E+06,   3.00727E+06,   3.00727E+06
C:/temp/Job-4.odb,Step-1,Increment      1: Step Time =    1.000,"P-4-1",            70,          200.,           50.,            0.,NA,NA,"",   1.22105E+06,   1.38121E+06,   1.38121E+06
C:/temp/Job-4.odb,Step-1,Increment      1: Step Time =    1.000,"P-4-1",            71,          200.,           40.,            0.,NA,NA,"",   1.33802E+06,   1.06758E+06,   1.06758E+06
C:/temp/Job-4.odb,Step-1,Increment      1: Step Time =    1.000,"P-4-1",            72,          200.,           30.,            0.,NA,NA,"",   1.60008E+06,   1.03631E+06,   1.03631E+06
C:/temp/Job-4.odb,Step-1,Increment      1: Step Time =    1.000,"P-4-1",            73,          200.,           20.,            0.,NA,NA,"",   1.44077E+06,   1.02474E+06,   1.02474E+06
C:/temp/Job-4.odb,Step-1,Increment      1: Step Time =    1.000,"P-4-1",            74,          200.,           10.,            0.,NA,NA,"",   1.11624E+06,   987.862E+03,   987.862E+03
C:/temp/Job-4.odb,Step-1,Increment      1: Step Time =    1.000,"P-4-1",            75,          200.,          200.,            0.,NA,NA,"",   989.391E+03,   977.281E+03,   977.281E+03
C:/temp/Job-4.odb,Step-1,Increment      1: Step Time =    1.000,"P-4-1",            76,           10.,          200.,            0.,NA,NA,"",   7.32187E+06,   7.31737E+06,   7.31737E+06
C:/temp/Job-4.odb,Step-1,Increment      1: Step Time =    1.000,"P-4-1",            77,           20.,          200.,            0.,NA,NA,"",   7.76959E+06,   7.76827E+06,   7.76827E+06
C:/temp/Job-4.odb,Step-1,Increment      1: Step Time =    1.000,"P-4-1",            78,           30.,          200.,            0.,NA,NA,"",   8.42778E+06,   8.42112E+06,   8.42112E+06
C:/temp/Job-4.odb,Step-1,Increment      1: Step Time =    1.000,"P-4-1",            79,           40.,          200.,            0.,NA,NA,"",   9.04810E+06,    9.0387E+06,    9.0387E+06
C:/temp/Job-4.odb,Step-1,Increment      1: Step Time =    1.000,"P-4-1",            80,           50.,          200.,            0.,NA,NA,"",   9.36965E+06,   9.35425E+06,   9.35425E+06
C:/temp/Job-4.odb,Step-1,Increment      1: Step Time =    1.000,"P-4-1",            81,           60.,          200.,            0.,NA,NA,"",   9.16226E+06,   9.12794E+06,   9.12794E+06
C:/temp/Job-4.odb,Step-1,Increment      1: Step Time =    1.000,"P-4-1",            82,           70.,          200.,            0.,NA,NA,"",   7.80012E+06,   7.76417E+06,   7.76417E+06
C:/temp/Job-4.odb,Step-1,Increment      1: Step Time =    1.000,"P-4-1",            83,           80.,          200.,            0.,NA,NA,"",   5.40941E+06,   5.34797E+06,   5.34797E+06
C:/temp/Job-4.odb,Step-1,Increment      1: Step Time =    1.000,"P-4-1",            84,           90.,          200.,            0.,NA,NA,"",   2.40669E+06,   2.16038E+06,   2.16038E+06
C:/temp/Job-4.odb,Step-1,Increment      1: Step Time =    1.000,"P-4-1",            85,          100.,          200.,            0.,NA,NA,"",   2.39009E+06,  -2.16225E+06,  -2.16225E+06
C:/temp/Job-4.odb,Step-1,Increment      1: Step Time =    1.000,"P-4-1",            86,          110.,          200.,            0.,NA,NA,"",   4.40242E+06,  -4.36518E+06,  -4.36518E+06
C:/temp/Job-4.odb,Step-1,Increment      1: Step Time =    1.000,"P-4-1",            87,          120.,          200.,            0.,NA,NA,"",   5.38613E+06,   -5.3289E+06,   -5.3289E+06
C:/temp/Job-4.odb,Step-1,Increment      1: Step Time =    1.000,"P-4-1",            88,          130.,          200.,            0.,NA,NA,"",   4.97827E+06,  -4.96754E+06,  -4.96754E+06
C:/temp/Job-4.odb,Step-1,Increment      1: Step Time =    1.000,"P-4-1",            89,          140.,          200.,            0.,NA,NA,"",   3.87052E+06,  -3.84208E+06,  -3.84208E+06
C:/temp/Job-4.odb,Step-1,Increment      1: Step Time =    1.000,"P-4-1",            90,          150.,          200.,            0.,NA,NA,"",   2.63821E+06,  -2.64108E+06,  -2.64108E+06
C:/temp/Job-4.odb,Step-1,Increment      1: Step Time =    1.000,"P-4-1",            91,          160.,          200.,            0.,NA,NA,"",   1.62741E+06,  -1.60100E+06,  -1.60100E+06
C:/temp/Job-4.odb,Step-1,Increment      1: Step Time =    1.000,"P-4-1",            92,          170.,          200.,            0.,NA,NA,"",   713.760E+03,  -668.131E+03,  -668.131E+03
C:/temp/Job-4.odb,Step-1,Increment      1: Step Time =    1.000,"P-4-1",            93,          180.,          200.,            0.,NA,NA,"",   427.316E+03,   340.482E+03,   340.482E+03
C:/temp/Job-4.odb,Step-1,Increment      1: Step Time =    1.000,"P-4-1",            94,          190.,          200.,            0.,NA,NA,"",   817.178E+03,   795.897E+03,   795.897E+03
C:/temp/Job-4.odb,Step-1,Increment      1: Step Time =    1.000,"P-4-1",            95,            0.,          200.,            0.,NA,NA,"",   7.51343E+06,   7.89764E+06,   7.89764E+06
C:/temp/Job-4.odb,Step-1,Increment      1: Step Time =    1.000,"P-4-1",            96,            0.,           10.,            0.,NA,NA,"",   5.04166E+06,   5.55302E+06,   5.55302E+06
C:/temp/Job-4.odb,Step-1,Increment      1: Step Time =    1.000,"P-4-1",            97,            0.,           20.,            0.,NA,NA,"",   3.00032E+06,   3.34095E+06,   3.34095E+06
C:/temp/Job-4.odb,Step-1,Increment      1: Step Time =    1.000,"P-4-1",            98,            0.,           30.,            0.,NA,NA,"",   1.25971E+06,   1.40926E+06,   1.40926E+06
C:/temp/Job-4.odb,Step-1,Increment      1: Step Time =    1.000,"P-4-1",            99,            0.,           40.,            0.,NA,NA,"",   326.097E+03,  -58.8509E+03,  -58.8509E+03
C:/temp/Job-4.odb,Step-1,Increment      1: Step Time =    1.000,"P-4-1",           100,            0.,           50.,            0.,NA,NA,"",   955.467E+03,  -985.291E+03,  -985.291E+03
C:/temp/Job-4.odb,Step-1,Increment      1: Step Time =    1.000,"P-4-1",           101,            0.,           60.,            0.,NA,NA,"",   1.31731E+06,  -1.34453E+06,  -1.34453E+06
C:/temp/Job-4.odb,Step-1,Increment      1: Step Time =    1.000,"P-4-1",           102,            0.,           70.,            0.,NA,NA,"",   1.25422E+06,  -1.25298E+06,  -1.25298E+06
C:/temp/Job-4.odb,Step-1,Increment      1: Step Time =    1.000,"P-4-1",           103,            0.,           80.,            0.,NA,NA,"",   891.670E+03,  -890.361E+03,  -890.361E+03
C:/temp/Job-4.odb,Step-1,Increment      1: Step Time =    1.000,"P-4-1",           104,            0.,           90.,            0.,NA,NA,"",   503.934E+03,  -540.655E+03,  -540.655E+03
C:/temp/Job-4.odb,Step-1,Increment      1: Step Time =    1.000,"P-4-1",           105,            0.,          100.,            0.,NA,NA,"",   284.554E+03,  -324.741E+03,  -324.741E+03
C:/temp/Job-4.odb,Step-1,Increment      1: Step Time =    1.000,"P-4-1",           106,            0.,          110.,            0.,NA,NA,"",   506.485E+03,  -536.877E+03,  -536.877E+03
C:/temp/Job-4.odb,Step-1,Increment      1: Step Time =    1.000,"P-4-1",           107,            0.,          120.,            0.,NA,NA,"",   907.235E+03,  -902.419E+03,  -902.419E+03
C:/temp/Job-4.odb,Step-1,Increment      1: Step Time =    1.000,"P-4-1",           108,            0.,          130.,            0.,NA,NA,"",   1.23724E+06,  -1.23722E+06,  -1.23722E+06
C:/temp/Job-4.odb,Step-1,Increment      1: Step Time =    1.000,"P-4-1",           109,            0.,          140.,            0.,NA,NA,"",   1.33757E+06,  -1.36191E+06,  -1.36191E+06
C:/temp/Job-4.odb,Step-1,Increment      1: Step Time =    1.000,"P-4-1",           110,            0.,          150.,            0.,NA,NA,"",   985.137E+03,  -1.00018E+06,  -1.00018E+06
C:/temp/Job-4.odb,Step-1,Increment      1: Step Time =    1.000,"P-4-1",           111,            0.,          160.,            0.,NA,NA,"",   334.082E+03,  -15.9554E+03,  -15.9554E+03
C:/temp/Job-4.odb,Step-1,Increment      1: Step Time =    1.000,"P-4-1",           112,            0.,          170.,            0.,NA,NA,"",   1.33399E+06,   1.49253E+06,   1.49253E+06
C:/temp/Job-4.odb,Step-1,Increment      1: Step Time =    1.000,"P-4-1",           113,            0.,          180.,            0.,NA,NA,"",   3.01907E+06,   3.36758E+06,   3.36758E+06
C:/temp/Job-4.odb,Step-1,Increment      1: Step Time =    1.000,"P-4-1",           114,            0.,          190.,            0.,NA,NA,"",   5.02290E+06,   5.53787E+06,   5.53787E+06
C:/temp/Job-4.odb,Step-1,Increment      1: Step Time =    1.000,"P-4-1",           115,       189.792,       107.338,            0.,NA,NA,"",   3.58094E+06,   1.77184E+06,   1.77184E+06
C:/temp/Job-4.odb,Step-1,Increment      1: Step Time =    1.000,"P-4-1",           116,       10.5229,       95.5841,            0.,NA,NA,"",   507.537E+03,  -556.650E+03,  -556.650E+03
C:/temp/Job-4.odb,Step-1,Increment      1: Step Time =    1.000,"P-4-1",           117,       189.859,       189.777,            0.,NA,NA,"",   1.11491E+06,   973.984E+03,   973.984E+03
C:/temp/Job-4.odb,Step-1,Increment      1: Step Time =    1.000,"P-4-1",           118,       179.523,       189.651,            0.,NA,NA,"",   1.15669E+06,   969.884E+03,   969.884E+03
C:/temp/Job-4.odb,Step-1,Increment      1: Step Time =    1.000,"P-4-1",           119,       168.798,       189.292,            0.,NA,NA,"",   1.31151E+06,   1.03369E+06,   1.03369E+06
C:/temp/Job-4.odb,Step-1,Increment      1: Step Time =    1.000,"P-4-1",           120,       158.613,       190.272,            0.,NA,NA,"",   1.43696E+06,   274.080E+03,   274.080E+03
C:/temp/Job-4.odb,Step-1,Increment      1: Step Time =    1.000,"P-4-1",           121,       148.522,       189.910,            0.,NA,NA,"",   1.62383E+06,   766.208E+03,   766.208E+03
C:/temp/Job-4.odb,Step-1,Increment      1: Step Time =    1.000,"P-4-1",           122,       134.968,       191.634,            0.,NA,NA,"",   1.59097E+06,   11.2979E+03,   11.2979E+03
C:/temp/Job-4.odb,Step-1,Increment      1: Step Time =    1.000,"P-4-1",           123,       124.715,       189.881,            0.,NA,NA,"",   2.87473E+06,   2.71454E+06,   2.71454E+06
C:/temp/Job-4.odb,Step-1,Increment      1: Step Time =    1.000,"P-4-1",           124,       113.896,       191.484,            0.,NA,NA,"",   2.92297E+06,   2.21222E+06,   2.21222E+06
C:/temp/Job-4.odb,Step-1,Increment      1: Step Time =    1.000,"P-4-1",           125,       104.849,       190.841,            0.,NA,NA,"",   4.62197E+06,   4.46453E+06,   4.46453E+06
C:/temp/Job-4.odb,Step-1,Increment      1: Step Time =    1.000,"P-4-1",           126,       91.7602,       190.027,            0.,NA,NA,"",   6.08491E+06,   5.70578E+06,   5.70578E+06
C:/temp/Job-4.odb,Step-1,Increment      1: Step Time =    1.000,"P-4-1",           127,       83.6938,       192.123,            0.,NA,NA,"",   5.85307E+06,   5.32370E+06,   5.32370E+06
C:/temp/Job-4.odb,Step-1,Increment      1: Step Time =    1.000,"P-4-1",           128,       74.5564,       190.419,            0.,NA,NA,"",   6.00116E+06,   5.48883E+06,   5.48883E+06
C:/temp/Job-4.odb,Step-1,Increment      1: Step Time =    1.000,"P-4-1",           129,       64.3317,       191.713,            0.,NA,NA,"",   6.49591E+06,   6.22803E+06,   6.22803E+06
C:/temp/Job-4.odb,Step-1,Increment      1: Step Time =    1.000,"P-4-1",           130,       50.3538,       189.839,            0.,NA,NA,"",   6.18618E+06,   6.01072E+06,   6.01072E+06
C:/temp/Job-4.odb,Step-1,Increment      1: Step Time =    1.000,"P-4-1",           131,       40.1620,       190.844,            0.,NA,NA,"",   6.49198E+06,   6.43584E+06,   6.43584E+06
C:/temp/Job-4.odb,Step-1,Increment      1: Step Time =    1.000,"P-4-1",           132,       31.0260,       187.333,            0.,NA,NA,"",   5.27908E+06,   5.22932E+06,   5.22932E+06
C:/temp/Job-4.odb,Step-1,Increment      1: Step Time =    1.000,"P-4-1",           133,       20.8773,       189.914,            0.,NA,NA,"",   5.92666E+06,   5.95694E+06,   5.95694E+06
C:/temp/Job-4.odb,Step-1,Increment      1: Step Time =    1.000,"P-4-1",           134,       10.3330,       189.748,            0.,NA,NA,"",   5.67558E+06,   5.83202E+06,   5.83202E+06
C:/temp/Job-4.odb,Step-1,Increment      1: Step Time =    1.000,"P-4-1",           135,       10.1226,       179.792,            0.,NA,NA,"",   3.11320E+06,   3.36041E+06,   3.36041E+06
C:/temp/Job-4.odb,Step-1,Increment      1: Step Time =    1.000,"P-4-1",           136,       25.4900,       180.666,            0.,NA,NA,"",   3.37741E+06,   3.39241E+06,   3.39241E+06
C:/temp/Job-4.odb,Step-1,Increment      1: Step Time =    1.000,"P-4-1",           137,       32.7351,       178.730,            0.,NA,NA,"",   2.66393E+06,   2.54902E+06,   2.54902E+06
C:/temp/Job-4.odb,Step-1,Increment      1: Step Time =    1.000,"P-4-1",           138,       42.8454,       177.966,            0.,NA,NA,"",   2.17649E+06,   1.72101E+06,   1.72101E+06
C:/temp/Job-4.odb,Step-1,Increment      1: Step Time =    1.000,"P-4-1",           139,       53.1226,       177.887,            0.,NA,NA,"",   2.58861E+06,   88.0439E+03,   88.0439E+03
C:/temp/Job-4.odb,Step-1,Increment      1: Step Time =    1.000,"P-4-1",           140,       63.2699,       181.711,            0.,NA,NA,"",   3.38031E+06,   1.71162E+06,   1.71162E+06
C:/temp/Job-4.odb,Step-1,Increment      1: Step Time =    1.000,"P-4-1",           141,       135.977,       182.157,            0.,NA,NA,"",   6.26219E+06,   6.50764E+06,   6.50764E+06
C:/temp/Job-4.odb,Step-1,Increment      1: Step Time =    1.000,"P-4-1",           142,       146.539,       179.596,            0.,NA,NA,"",   4.68889E+06,   4.86648E+06,   4.86648E+06
C:/temp/Job-4.odb,Step-1,Increment      1: Step Time =    1.000,"P-4-1",           143,       156.700,       179.826,            0.,NA,NA,"",   3.07780E+06,   3.10865E+06,   3.10865E+06
C:/temp/Job-4.odb,Step-1,Increment      1: Step Time =    1.000,"P-4-1",           144,       170.646,       178.393,            0.,NA,NA,"",   2.18782E+06,   2.11030E+06,   2.11030E+06
C:/temp/Job-4.odb,Step-1,Increment      1: Step Time =    1.000,"P-4-1",           145,       180.789,       175.693,            0.,NA,NA,"",   1.79104E+06,   1.67591E+06,   1.67591E+06
C:/temp/Job-4.odb,Step-1,Increment      1: Step Time =    1.000,"P-4-1",           146,       189.983,       179.775,            0.,NA,NA,"",   1.41406E+06,   1.17825E+06,   1.17825E+06
C:/temp/Job-4.odb,Step-1,Increment      1: Step Time =    1.000,"P-4-1",           147,       146.274,       172.419,            0.,NA,NA,"",   7.39489E+06,   7.58348E+06,   7.58348E+06
C:/temp/Job-4.odb,Step-1,Increment      1: Step Time =    1.000,"P-4-1",           148,       158.445,       168.894,            0.,NA,NA,"",   4.50347E+06,   4.63674E+06,   4.63674E+06
C:/temp/Job-4.odb,Step-1,Increment      1: Step Time =    1.000,"P-4-1",           149,       168.978,       169.778,            0.,NA,NA,"",   2.98020E+06,   2.97507E+06,   2.97507E+06
C:/temp/Job-4.odb,Step-1,Increment      1: Step Time =    1.000,"P-4-1",           150,       179.326,       168.438,            0.,NA,NA,"",   2.19098E+06,   2.10134E+06,   2.10134E+06
C:/temp/Job-4.odb,Step-1,Increment      1: Step Time =    1.000,"P-4-1",           151,       186.683,       170.251,            0.,NA,NA,"",   1.63593E+06,   1.49717E+06,   1.49717E+06
C:/temp/Job-4.odb,Step-1,Increment      1: Step Time =    1.000,"P-4-1",           152,       168.717,       156.840,            0.,NA,NA,"",   3.49444E+06,   3.46039E+06,   3.46039E+06
C:/temp/Job-4.odb,Step-1,Increment      1: Step Time =    1.000,"P-4-1",           153,       178.605,       161.021,            0.,NA,NA,"",   2.67311E+06,   2.50851E+06,   2.50851E+06
C:/temp/Job-4.odb,Step-1,Increment      1: Step Time =    1.000,"P-4-1",           154,       188.892,       160.098,            0.,NA,NA,"",   1.89998E+06,   1.73224E+06,   1.73224E+06
C:/temp/Job-4.odb,Step-1,Increment      1: Step Time =    1.000,"P-4-1",           155,       168.177,       150.018,            0.,NA,NA,"",   3.23375E+06,   3.18883E+06,   3.18883E+06
C:/temp/Job-4.odb,Step-1,Increment      1: Step Time =    1.000,"P-4-1",           156,       182.377,       147.237,            0.,NA,NA,"",   3.18510E+06,   2.71678E+06,   2.71678E+06
C:/temp/Job-4.odb,Step-1,Increment      1: Step Time =    1.000,"P-4-1",           157,       189.646,       149.128,            0.,NA,NA,"",   2.59674E+06,   2.38461E+06,   2.38461E+06
C:/temp/Job-4.odb,Step-1,Increment      1: Step Time =    1.000,"P-4-1",           158,       190.173,       136.911,            0.,NA,NA,"",   3.52104E+06,   3.27524E+06,   3.27524E+06
C:/temp/Job-4.odb,Step-1,Increment      1: Step Time =    1.000,"P-4-1",           159,       180.366,       136.988,            0.,NA,NA,"",   2.98536E+06,   1.34807E+06,   1.34807E+06
C:/temp/Job-4.odb,Step-1,Increment      1: Step Time =    1.000,"P-4-1",           160,       189.493,       125.786,            0.,NA,NA,"",   3.77494E+06,   3.29819E+06,   3.29819E+06
C:/temp/Job-4.odb,Step-1,Increment      1: Step Time =    1.000,"P-4-1",           161,       191.558,       114.559,            0.,NA,NA,"",   4.49487E+06,   4.43659E+06,   4.43659E+06
C:/temp/Job-4.odb,Step-1,Increment      1: Step Time =    1.000,"P-4-1",           162,       188.837,       84.1167,            0.,NA,NA,"",   3.51738E+06,   1.31648E+06,   1.31648E+06
C:/temp/Job-4.odb,Step-1,Increment      1: Step Time =    1.000,"P-4-1",           163,       189.541,       95.5981,            0.,NA,NA,"",   3.18541E+06,   1.08957E+06,   1.08957E+06
C:/temp/Job-4.odb,Step-1,Increment      1: Step Time =    1.000,"P-4-1",           164,       181.104,       75.3267,            0.,NA,NA,"",   3.73164E+06,  -3.33768E+06,  -3.33768E+06
C:/temp/Job-4.odb,Step-1,Increment      1: Step Time =    1.000,"P-4-1",           165,       190.194,       74.3038,            0.,NA,NA,"",   4.08782E+06,   3.76959E+06,   3.76959E+06
C:/temp/Job-4.odb,Step-1,Increment      1: Step Time =    1.000,"P-4-1",           166,       177.357,       65.3223,            0.,NA,NA,"",   2.17585E+06,   245.537E+03,   245.537E+03
C:/temp/Job-4.odb,Step-1,Increment      1: Step Time =    1.000,"P-4-1",           167,       189.374,       64.0267,            0.,NA,NA,"",   3.54506E+06,   3.21212E+06,   3.21212E+06
C:/temp/Job-4.odb,Step-1,Increment      1: Step Time =    1.000,"P-4-1",           168,       167.232,       41.7958,            0.,NA,NA,"",   3.60549E+06,   3.61624E+06,   3.61624E+06
C:/temp/Job-4.odb,Step-1,Increment      1: Step Time =    1.000,"P-4-1",           169,       177.471,       46.6012,            0.,NA,NA,"",   3.16979E+06,   2.84743E+06,   2.84743E+06
C:/temp/Job-4.odb,Step-1,Increment      1: Step Time =    1.000,"P-4-1",           170,       191.244,       39.2745,            0.,NA,NA,"",   1.67707E+06,   1.51945E+06,   1.51945E+06
C:/temp/Job-4.odb,Step-1,Increment      1: Step Time =    1.000,"P-4-1",           171,       189.240,       55.0649,            0.,NA,NA,"",   2.96072E+06,   2.71407E+06,   2.71407E+06
C:/temp/Job-4.odb,Step-1,Increment      1: Step Time =    1.000,"P-4-1",           172,       178.027,       51.9185,            0.,NA,NA,"",   3.16599E+06,   2.72782E+06,   2.72782E+06
C:/temp/Job-4.odb,Step-1,Increment      1: Step Time =    1.000,"P-4-1",           173,       159.819,       32.6340,            0.,NA,NA,"",   4.39721E+06,   4.51857E+06,   4.51857E+06
C:/temp/Job-4.odb,Step-1,Increment      1: Step Time =    1.000,"P-4-1",           174,       168.063,       31.2601,            0.,NA,NA,"",   3.09839E+06,   3.12393E+06,   3.12393E+06
C:/temp/Job-4.odb,Step-1,Increment      1: Step Time =    1.000,"P-4-1",           175,       180.663,       31.2070,            0.,NA,NA,"",   2.07627E+06,   1.98211E+06,   1.98211E+06
C:/temp/Job-4.odb,Step-1,Increment      1: Step Time =    1.000,"P-4-1",           176,       190.673,       30.1626,            0.,NA,NA,"",   1.48710E+06,   1.27345E+06,   1.27345E+06
C:/temp/Job-4.odb,Step-1,Increment      1: Step Time =    1.000,"P-4-1",           177,       127.192,       18.1505,            0.,NA,NA,"",   9.65498E+06,   9.92177E+06,   9.92177E+06
C:/temp/Job-4.odb,Step-1,Increment      1: Step Time =    1.000,"P-4-1",           178,       137.546,       18.3358,            0.,NA,NA,"",   5.97129E+06,   6.18070E+06,   6.18070E+06
C:/temp/Job-4.odb,Step-1,Increment      1: Step Time =    1.000,"P-4-1",           179,       146.986,       19.4009,            0.,NA,NA,"",   4.34583E+06,   4.47502E+06,   4.47502E+06
C:/temp/Job-4.odb,Step-1,Increment      1: Step Time =    1.000,"P-4-1",           180,       155.730,       18.3791,            0.,NA,NA,"",   2.83151E+06,   2.83150E+06,   2.83150E+06
C:/temp/Job-4.odb,Step-1,Increment      1: Step Time =    1.000,"P-4-1",           181,       168.127,       22.2203,            0.,NA,NA,"",   2.39536E+06,   2.33907E+06,   2.33907E+06
C:/temp/Job-4.odb,Step-1,Increment      1: Step Time =    1.000,"P-4-1",           182,       177.346,       20.2870,            0.,NA,NA,"",   1.77570E+06,   1.65037E+06,   1.65037E+06
C:/temp/Job-4.odb,Step-1,Increment      1: Step Time =    1.000,"P-4-1",           183,       188.656,       20.3485,            0.,NA,NA,"",   1.44707E+06,   1.23946E+06,   1.23946E+06
C:/temp/Job-4.odb,Step-1,Increment      1: Step Time =    1.000,"P-4-1",           184,       75.0434,       18.8788,            0.,NA,NA,"",   3.24941E+06,   2.69929E+06,   2.69929E+06
C:/temp/Job-4.odb,Step-1,Increment      1: Step Time =    1.000,"P-4-1",           185,       64.6843,       19.0688,            0.,NA,NA,"",   3.29024E+06,   636.633E+03,   636.633E+03
C:/temp/Job-4.odb,Step-1,Increment      1: Step Time =    1.000,"P-4-1",           186,       50.9867,       20.0217,            0.,NA,NA,"",   2.76093E+06,   1.43540E+06,   1.43540E+06
C:/temp/Job-4.odb,Step-1,Increment      1: Step Time =    1.000,"P-4-1",           187,       40.2918,       21.6087,            0.,NA,NA,"",   2.45598E+06,   2.14902E+06,   2.14902E+06
C:/temp/Job-4.odb,Step-1,Increment      1: Step Time =    1.000,"P-4-1",           188,       31.2182,       21.3048,            0.,NA,NA,"",   2.75395E+06,   2.69910E+06,   2.69910E+06
C:/temp/Job-4.odb,Step-1,Increment      1: Step Time =    1.000,"P-4-1",           189,       21.1193,       22.1119,            0.,NA,NA,"",   2.70249E+06,   2.80014E+06,   2.80014E+06
C:/temp/Job-4.odb,Step-1,Increment      1: Step Time =    1.000,"P-4-1",           190,       12.4838,       20.8579,            0.,NA,NA,"",   2.99852E+06,   3.20580E+06,   3.20580E+06
C:/temp/Job-4.odb,Step-1,Increment      1: Step Time =    1.000,"P-4-1",           191,       43.2186,       30.6799,            0.,NA,NA,"",   2.21232E+06,  -2.19599E+06,  -2.19599E+06
C:/temp/Job-4.odb,Step-1,Increment      1: Step Time =    1.000,"P-4-1",           192,       30.2944,       31.2289,            0.,NA,NA,"",   711.563E+03,  -8.11610E+03,  -8.11610E+03
C:/temp/Job-4.odb,Step-1,Increment      1: Step Time =    1.000,"P-4-1",           193,       24.9709,       31.6229,            0.,NA,NA,"",   617.527E+03,   375.134E+03,   375.134E+03
C:/temp/Job-4.odb,Step-1,Increment      1: Step Time =    1.000,"P-4-1",           194,       13.4653,       32.2730,            0.,NA,NA,"",   696.463E+03,   788.872E+03,   788.872E+03
C:/temp/Job-4.odb,Step-1,Increment      1: Step Time =    1.000,"P-4-1",           195,       33.9035,       41.5397,            0.,NA,NA,"",   2.91707E+06,  -2.98546E+06,  -2.98546E+06
C:/temp/Job-4.odb,Step-1,Increment      1: Step Time =    1.000,"P-4-1",           196,       17.7971,       40.7228,            0.,NA,NA,"",   1.05752E+06,  -649.131E+03,  -649.131E+03
C:/temp/Job-4.odb,Step-1,Increment      1: Step Time =    1.000,"P-4-1",           197,       8.81201,       40.5521,            0.,NA,NA,"",   651.099E+03,  -143.373E+03,  -143.373E+03
C:/temp/Job-4.odb,Step-1,Increment      1: Step Time =    1.000,"P-4-1",           198,       22.1584,       50.5398,            0.,NA,NA,"",   2.20192E+06,  -2.16775E+06,  -2.16775E+06
C:/temp/Job-4.odb,Step-1,Increment      1: Step Time =    1.000,"P-4-1",           199,       13.4778,       50.0882,            0.,NA,NA,"",   1.58093E+06,  -1.45739E+06,  -1.45739E+06
C:/temp/Job-4.odb,Step-1,Increment      1: Step Time =    1.000,"P-4-1",           200,       10.8580,       65.2011,            0.,NA,NA,"",   1.49172E+06,  -1.49231E+06,  -1.49231E+06
C:/temp/Job-4.odb,Step-1,Increment      1: Step Time =    1.000,"P-4-1",           201,       20.6941,       59.3716,            0.,NA,NA,"",   2.11977E+06,  -2.12200E+06,  -2.12200E+06
C:/temp/Job-4.odb,Step-1,Increment      1: Step Time =    1.000,"P-4-1",           202,       20.5460,       70.3565,            0.,NA,NA,"",   1.59325E+06,  -1.61694E+06,  -1.61694E+06
C:/temp/Job-4.odb,Step-1,Increment      1: Step Time =    1.000,"P-4-1",           203,       8.50932,       75.1908,            0.,NA,NA,"",   1.06164E+06,  -1.09202E+06,  -1.09202E+06
C:/temp/Job-4.odb,Step-1,Increment      1: Step Time =    1.000,"P-4-1",           204,       11.3151,       83.9184,            0.,NA,NA,"",   782.864E+03,  -825.515E+03,  -825.515E+03
C:/temp/Job-4.odb,Step-1,Increment      1: Step Time =    1.000,"P-4-1",           205,       10.2921,       107.318,            0.,NA,NA,"",   541.591E+03,  -590.622E+03,  -590.622E+03
C:/temp/Job-4.odb,Step-1,Increment      1: Step Time =    1.000,"P-4-1",           206,       10.2872,       125.609,            0.,NA,NA,"",   1.12871E+06,  -1.15924E+06,  -1.15924E+06
C:/temp/Job-4.odb,Step-1,Increment      1: Step Time =    1.000,"P-4-1",           207,       19.5345,       135.386,            0.,NA,NA,"",   1.84279E+06,  -1.86068E+06,  -1.86068E+06
C:/temp/Job-4.odb,Step-1,Increment      1: Step Time =    1.000,"P-4-1",           208,       8.23690,       134.609,            0.,NA,NA,"",   1.41687E+06,  -1.41998E+06,  -1.41998E+06
C:/temp/Job-4.odb,Step-1,Increment      1: Step Time =    1.000,"P-4-1",           209,       31.4328,       156.802,            0.,NA,NA,"",   2.76421E+06,  -2.79847E+06,  -2.79847E+06
C:/temp/Job-4.odb,Step-1,Increment      1: Step Time =    1.000,"P-4-1",           210,       21.1919,       157.532,            0.,NA,NA,"",   1.47460E+06,  -1.33906E+06,  -1.33906E+06
C:/temp/Job-4.odb,Step-1,Increment      1: Step Time =    1.000,"P-4-1",           211,       9.31201,       156.402,            0.,NA,NA,"",   944.877E+03,  -757.524E+03,  -757.524E+03
C:/temp/Job-4.odb,Step-1,Increment      1: Step Time =    1.000,"P-4-1",           212,       11.5550,       147.941,            0.,NA,NA,"",   1.57089E+06,  -1.47723E+06,  -1.47723E+06
C:/temp/Job-4.odb,Step-1,Increment      1: Step Time =    1.000,"P-4-1",           213,       18.5390,       147.540,            0.,NA,NA,"",   1.97093E+06,  -1.90025E+06,  -1.90025E+06
C:/temp/Job-4.odb,Step-1,Increment      1: Step Time =    1.000,"P-4-1",           214,       29.1538,       145.979,            0.,NA,NA,"",   3.24347E+06,  -3.27422E+06,  -3.27422E+06
C:/temp/Job-4.odb,Step-1,Increment      1: Step Time =    1.000,"P-4-1",           215,       50.4693,       170.130,            0.,NA,NA,"",   3.47217E+06,  -3.46209E+06,  -3.46209E+06
C:/temp/Job-4.odb,Step-1,Increment      1: Step Time =    1.000,"P-4-1",           216,       38.6222,       168.754,            0.,NA,NA,"",   1.60170E+06,  -1.56915E+06,  -1.56915E+06
C:/temp/Job-4.odb,Step-1,Increment      1: Step Time =    1.000,"P-4-1",           217,       29.2251,       169.043,            0.,NA,NA,"",   799.406E+03,   82.0985E+03,   82.0985E+03
C:/temp/Job-4.odb,Step-1,Increment      1: Step Time =    1.000,"P-4-1",           218,       21.4496,       165.531,            0.,NA,NA,"",   492.438E+03,   113.078E+03,   113.078E+03
C:/temp/Job-4.odb,Step-1,Increment      1: Step Time =    1.000,"P-4-1",           219,       9.29662,       170.197,            0.,NA,NA,"",   1.14680E+06,   1.30570E+06,   1.30570E+06
C:/temp/Job-4.odb,Step-1,Increment      1: Step Time =    1.000,"P-4-1",           220,       189.677,       10.0713,            0.,NA,NA,"",   1.09979E+06,   963.055E+03,   963.055E+03
C:/temp/Job-4.odb,Step-1,Increment      1: Step Time =    1.000,"P-4-1",           221,       179.418,       10.1912,            0.,NA,NA,"",   1.12778E+06,   950.756E+03,   950.756E+03
C:/temp/Job-4.odb,Step-1,Increment      1: Step Time =    1.000,"P-4-1",           222,       168.856,       9.80616,            0.,NA,NA,"",   1.19131E+06,   638.411E+03,   638.411E+03
C:/temp/Job-4.odb,Step-1,Increment      1: Step Time =    1.000,"P-4-1",           223,       159.236,       8.94771,            0.,NA,NA,"",   1.24870E+06,   139.227E+03,   139.227E+03
C:/temp/Job-4.odb,Step-1,Increment      1: Step Time =    1.000,"P-4-1",           224,       149.884,       12.1864,            0.,NA,NA,"",   1.79995E+06,   1.63592E+06,   1.63592E+06
C:/temp/Job-4.odb,Step-1,Increment      1: Step Time =    1.000,"P-4-1",           225,       134.350,       10.1902,            0.,NA,NA,"",   2.28666E+06,   1.55095E+06,   1.55095E+06
C:/temp/Job-4.odb,Step-1,Increment      1: Step Time =    1.000,"P-4-1",           226,       124.573,       8.61953,            0.,NA,NA,"",   1.85718E+06,   921.352E+03,   921.352E+03
C:/temp/Job-4.odb,Step-1,Increment      1: Step Time =    1.000,"P-4-1",           227,       115.894,       9.57836,            0.,NA,NA,"",   3.58546E+06,   3.58449E+06,   3.58449E+06
C:/temp/Job-4.odb,Step-1,Increment      1: Step Time =    1.000,"P-4-1",           228,       106.211,       10.2024,            0.,NA,NA,"",   5.59845E+06,   5.48865E+06,   5.48865E+06
C:/temp/Job-4.odb,Step-1,Increment      1: Step Time =    1.000,"P-4-1",           229,       94.7689,       10.6793,            0.,NA,NA,"",   6.42958E+06,   6.07087E+06,   6.07087E+06
C:/temp/Job-4.odb,Step-1,Increment      1: Step Time =    1.000,"P-4-1",           230,       84.6673,       8.53061,            0.,NA,NA,"",   5.87082E+06,   5.30696E+06,   5.30696E+06
C:/temp/Job-4.odb,Step-1,Increment      1: Step Time =    1.000,"P-4-1",           231,       74.6314,       9.47042,            0.,NA,NA,"",   5.99240E+06,   5.52580E+06,   5.52580E+06
C:/temp/Job-4.odb,Step-1,Increment      1: Step Time =    1.000,"P-4-1",           232,       63.3912,       10.3653,            0.,NA,NA,"",   5.87511E+06,   5.52658E+06,   5.52658E+06
C:/temp/Job-4.odb,Step-1,Increment      1: Step Time =    1.000,"P-4-1",           233,       53.5205,       9.17812,            0.,NA,NA,"",   6.46103E+06,   6.28324E+06,   6.28324E+06
C:/temp/Job-4.odb,Step-1,Increment      1: Step Time =    1.000,"P-4-1",           234,       39.5596,       8.24684,            0.,NA,NA,"",   6.76606E+06,   6.71505E+06,   6.71505E+06
C:/temp/Job-4.odb,Step-1,Increment      1: Step Time =    1.000,"P-4-1",           235,       30.3658,       8.59454,            0.,NA,NA,"",   6.48219E+06,   6.46985E+06,   6.46985E+06
C:/temp/Job-4.odb,Step-1,Increment      1: Step Time =    1.000,"P-4-1",           236,       20.0145,       10.5639,            0.,NA,NA,"",   5.75785E+06,   5.78184E+06,   5.78184E+06
C:/temp/Job-4.odb,Step-1,Increment      1: Step Time =    1.000,"P-4-1",           237,       10.2984,       9.90092,            0.,NA,NA,"",   5.82122E+06,   5.97591E+06,   5.97591E+06
C:/temp/Job-4.odb,Step-1,Increment      1: Step Time =    1.000,"P-4-1",           238,       95.0264,       179.845,            0.,NA,NA,"",   9.71829E+06,   9.83009E+06,   9.83009E+06
C:/temp/Job-4.odb,Step-1,Increment      1: Step Time =    1.000,"P-4-1",           239,       90.0721,       179.382,            0.,NA,NA,"",   7.45244E+06,   7.49389E+06,   7.49389E+06
C:/temp/Job-4.odb,Step-1,Increment      1: Step Time =    1.000,"P-4-1",           240,       80.2977,       177.536,            0.,NA,NA,"",   3.01642E+06,   2.87428E+06,   2.87428E+06
C:/temp/Job-4.odb,Step-1,Increment      1: Step Time =    1.000,"P-4-1",           241,       75.5154,       176.161,            0.,NA,NA,"",   1.72185E+06,   346.820E+03,   346.820E+03
C:/temp/Job-4.odb,Step-1,Increment      1: Step Time =    1.000,"P-4-1",           242,       66.2532,       172.534,            0.,NA,NA,"",   2.95233E+06,  -2.91308E+06,  -2.91308E+06
C:/temp/Job-4.odb,Step-1,Increment      1: Step Time =    1.000,"P-4-1",           243,       61.8091,       170.295,            0.,NA,NA,"",   3.81185E+06,  -3.81891E+06,  -3.81891E+06
C:/temp/Job-4.odb,Step-1,Increment      1: Step Time =    1.000,"P-4-1",           244,       53.3807,       165.013,            0.,NA,NA,"",   4.73115E+06,  -4.79015E+06,  -4.79015E+06
C:/temp/Job-4.odb,Step-1,Increment      1: Step Time =    1.000,"P-4-1",           245,       49.4291,       161.989,            0.,NA,NA,"",   4.88679E+06,  -4.98025E+06,  -4.98025E+06
C:/temp/Job-4.odb,Step-1,Increment      1: Step Time =    1.000,"P-4-1",           246,       42.1273,       155.234,            0.,NA,NA,"",   4.98664E+06,  -5.02866E+06,  -5.02866E+06
C:/temp/Job-4.odb,Step-1,Increment      1: Step Time =    1.000,"P-4-1",           247,       38.8054,       151.529,            0.,NA,NA,"",   4.71678E+06,  -4.75885E+06,  -4.75885E+06
C:/temp/Job-4.odb,Step-1,Increment      1: Step Time =    1.000,"P-4-1",           248,       32.8838,       143.536,            0.,NA,NA,"",   3.63493E+06,  -3.66641E+06,  -3.66641E+06
C:/temp/Job-4.odb,Step-1,Increment      1: Step Time =    1.000,"P-4-1",           249,       30.3070,       139.280,            0.,NA,NA,"",   2.98556E+06,  -3.01408E+06,  -3.01408E+06
C:/temp/Job-4.odb,Step-1,Increment      1: Step Time =    1.000,"P-4-1",           250,       25.9712,       130.327,            0.,NA,NA,"",   1.85011E+06,  -1.87802E+06,  -1.87802E+06
C:/temp/Job-4.odb,Step-1,Increment      1: Step Time =    1.000,"P-4-1",           251,       24.2289,       125.666,            0.,NA,NA,"",   1.43063E+06,  -1.44532E+06,  -1.44532E+06
C:/temp/Job-4.odb,Step-1,Increment      1: Step Time =    1.000,"P-4-1",           252,       21.6295,       116.065,            0.,NA,NA,"",   922.641E+03,  -936.350E+03,  -936.350E+03
C:/temp/Job-4.odb,Step-1,Increment      1: Step Time =    1.000,"P-4-1",           253,       20.7824,       111.161,            0.,NA,NA,"",   781.780E+03,  -795.262E+03,  -795.262E+03
C:/temp/Job-4.odb,Step-1,Increment      1: Step Time =    1.000,"P-4-1",           254,       20.0097,       101.244,            0.,NA,NA,"",   667.915E+03,  -681.268E+03,  -681.268E+03
C:/temp/Job-4.odb,Step-1,Increment      1: Step Time =    1.000,"P-4-1",           255,       20.0871,       96.2688,            0.,NA,NA,"",   675.920E+03,  -690.608E+03,  -690.608E+03
C:/temp/Job-4.odb,Step-1,Increment      1: Step Time =    1.000,"P-4-1",           256,       21.1678,       86.3805,            0.,NA,NA,"",   833.787E+03,  -846.044E+03,  -846.044E+03
C:/temp/Job-4.odb,Step-1,Increment      1: Step Time =    1.000,"P-4-1",           257,       22.1670,       81.5059,            0.,NA,NA,"",   996.903E+03,  -1.01634E+06,  -1.01634E+06
C:/temp/Job-4.odb,Step-1,Increment      1: Step Time =    1.000,"P-4-1",           258,       25.0638,       71.9899,            0.,NA,NA,"",   1.62603E+06,  -1.64691E+06,  -1.64691E+06
C:/temp/Job-4.odb,Step-1,Increment      1: Step Time =    1.000,"P-4-1",           259,       26.9501,       67.3853,            0.,NA,NA,"",   2.09159E+06,  -2.11481E+06,  -2.11481E+06
C:/temp/Job-4.odb,Step-1,Increment      1: Step Time =    1.000,"P-4-1",           260,       31.5623,       58.5720,            0.,NA,NA,"",   3.29651E+06,  -3.33516E+06,  -3.33516E+06
C:/temp/Job-4.odb,Step-1,Increment      1: Step Time =    1.000,"P-4-1",           261,       34.2702,       54.3974,            0.,NA,NA,"",   3.96426E+06,  -3.99113E+06,  -3.99113E+06
C:/temp/Job-4.odb,Step-1,Increment      1: Step Time =    1.000,"P-4-1",           262,       40.4375,       46.5929,            0.,NA,NA,"",   5.04890E+06,  -5.09479E+06,  -5.09479E+06
C:/temp/Job-4.odb,Step-1,Increment      1: Step Time =    1.000,"P-4-1",           263,       43.8731,       42.9933,            0.,NA,NA,"",   5.33581E+06,  -5.38161E+06,  -5.38161E+06
C:/temp/Job-4.odb,Step-1,Increment      1: Step Time =    1.000,"P-4-1",           264,       51.3814,       36.4687,            0.,NA,NA,"",   5.26560E+06,  -5.30395E+06,  -5.30395E+06
C:/temp/Job-4.odb,Step-1,Increment      1: Step Time =    1.000,"P-4-1",           265,       55.4252,       33.5690,            0.,NA,NA,"",   4.85632E+06,  -4.88975E+06,  -4.88975E+06
C:/temp/Job-4.odb,Step-1,Increment      1: Step Time =    1.000,"P-4-1",           266,       64.0137,       28.5508,            0.,NA,NA,"",   3.29541E+06,  -3.31917E+06,  -3.31917E+06
C:/temp/Job-4.odb,Step-1,Increment      1: Step Time =    1.000,"P-4-1",           267,       68.5253,       26.4518,            0.,NA,NA,"",   2.40936E+06,  -2.41333E+06,  -2.41333E+06
C:/temp/Job-4.odb,Step-1,Increment      1: Step Time =    1.000,"P-4-1",           268,       77.8959,       23.1143,            0.,NA,NA,"",   2.22278E+06,   1.97756E+06,   1.97756E+06
C:/temp/Job-4.odb,Step-1,Increment      1: Step Time =    1.000,"P-4-1",           269,       82.7186,       21.8888,            0.,NA,NA,"",   4.16065E+06,   4.01896E+06,   4.01896E+06
C:/temp/Job-4.odb,Step-1,Increment      1: Step Time =    1.000,"P-4-1",           270,       92.5457,       20.3481,            0.,NA,NA,"",   8.97387E+06,   9.00769E+06,   9.00769E+06
C:/temp/Job-4.odb,Step-1,Increment      1: Step Time =    1.000,"P-4-1",           271,       97.5120,       20.0387,            0.,NA,NA,"",   11.2029E+06,   11.2799E+06,   11.2799E+06
C:/temp/Job-4.odb,Step-1,Increment      1: Step Time =    1.000,"P-4-1",           272,       107.454,       20.3481,            0.,NA,NA,"",   13.9320E+06,   14.0497E+06,   14.0497E+06
C:/temp/Job-4.odb,Step-1,Increment      1: Step Time =    1.000,"P-4-1",           273,       117.281,       21.8888,            0.,NA,NA,"",   14.2653E+06,   14.4822E+06,   14.4822E+06
C:/temp/Job-4.odb,Step-1,Increment      1: Step Time =    1.000,"P-4-1",           274,       122.104,       23.1143,            0.,NA,NA,"",   13.9172E+06,   14.1145E+06,   14.1145E+06
C:/temp/Job-4.odb,Step-1,Increment      1: Step Time =    1.000,"P-4-1",           275,       131.475,       26.4518,            0.,NA,NA,"",   12.1748E+06,   12.3097E+06,   12.3097E+06
C:/temp/Job-4.odb,Step-1,Increment      1: Step Time =    1.000,"P-4-1",           276,       135.986,       28.5508,            0.,NA,NA,"",   11.2774E+06,   11.3529E+06,   11.3529E+06
C:/temp/Job-4.odb,Step-1,Increment      1: Step Time =    1.000,"P-4-1",           277,       144.575,       33.5690,            0.,NA,NA,"",   8.67027E+06,   8.76398E+06,   8.76398E+06
C:/temp/Job-4.odb,Step-1,Increment      1: Step Time =    1.000,"P-4-1",           278,       148.619,       36.4687,            0.,NA,NA,"",   7.43412E+06,   7.52476E+06,   7.52476E+06
C:/temp/Job-4.odb,Step-1,Increment      1: Step Time =    1.000,"P-4-1",           279,       156.127,       42.9933,            0.,NA,NA,"",   5.42600E+06,   5.49798E+06,   5.49798E+06
C:/temp/Job-4.odb,Step-1,Increment      1: Step Time =    1.000,"P-4-1",           280,       159.562,       46.5929,            0.,NA,NA,"",   4.55919E+06,   4.61431E+06,   4.61431E+06
C:/temp/Job-4.odb,Step-1,Increment      1: Step Time =    1.000,"P-4-1",           281,       165.730,       54.3974,            0.,NA,NA,"",   2.84794E+06,   2.84808E+06,   2.84808E+06
C:/temp/Job-4.odb,Step-1,Increment      1: Step Time =    1.000,"P-4-1",           282,       168.438,       58.5720,            0.,NA,NA,"",   1.94369E+06,   1.88877E+06,   1.88877E+06
C:/temp/Job-4.odb,Step-1,Increment      1: Step Time =    1.000,"P-4-1",           283,       173.050,       67.3853,            0.,NA,NA,"",   1.56419E+06,  -1.32161E+06,  -1.32161E+06
C:/temp/Job-4.odb,Step-1,Increment      1: Step Time =    1.000,"P-4-1",           284,       174.936,       71.9899,            0.,NA,NA,"",   2.74690E+06,  -2.66072E+06,  -2.66072E+06
C:/temp/Job-4.odb,Step-1,Increment      1: Step Time =    1.000,"P-4-1",           285,       177.833,       81.5059,            0.,NA,NA,"",   5.97711E+06,  -5.98834E+06,  -5.98834E+06
C:/temp/Job-4.odb,Step-1,Increment      1: Step Time =    1.000,"P-4-1",           286,       178.832,       86.3805,            0.,NA,NA,"",   7.52558E+06,  -7.55618E+06,  -7.55618E+06
C:/temp/Job-4.odb,Step-1,Increment      1: Step Time =    1.000,"P-4-1",           287,       179.913,       96.2688,            0.,NA,NA,"",   9.36175E+06,  -9.43263E+06,  -9.43263E+06
C:/temp/Job-4.odb,Step-1,Increment      1: Step Time =    1.000,"P-4-1",           288,       179.990,       101.244,            0.,NA,NA,"",   9.52005E+06,  -9.59306E+06,  -9.59306E+06
C:/temp/Job-4.odb,Step-1,Increment      1: Step Time =    1.000,"P-4-1",           289,       179.218,       111.161,            0.,NA,NA,"",   8.16268E+06,  -8.22680E+06,  -8.22680E+06
C:/temp/Job-4.odb,Step-1,Increment      1: Step Time =    1.000,"P-4-1",           290,       178.370,       116.065,            0.,NA,NA,"",   6.82615E+06,  -6.87643E+06,  -6.87643E+06
C:/temp/Job-4.odb,Step-1,Increment      1: Step Time =    1.000,"P-4-1",           291,       175.771,       125.666,            0.,NA,NA,"",   3.65852E+06,  -3.63132E+06,  -3.63132E+06
C:/temp/Job-4.odb,Step-1,Increment      1: Step Time =    1.000,"P-4-1",           292,       174.029,       130.327,            0.,NA,NA,"",   2.09152E+06,  -1.99326E+06,  -1.99326E+06
C:/temp/Job-4.odb,Step-1,Increment      1: Step Time =    1.000,"P-4-1",           293,       169.693,       139.280,            0.,NA,NA,"",   1.49884E+06,   1.35936E+06,   1.35936E+06
C:/temp/Job-4.odb,Step-1,Increment      1: Step Time =    1.000,"P-4-1",           294,       167.116,       143.536,            0.,NA,NA,"",   2.37868E+06,   2.33855E+06,   2.33855E+06
C:/temp/Job-4.odb,Step-1,Increment      1: Step Time =    1.000,"P-4-1",           295,       161.195,       151.529,            0.,NA,NA,"",   4.10433E+06,   4.13907E+06,   4.13907E+06
C:/temp/Job-4.odb,Step-1,Increment      1: Step Time =    1.000,"P-4-1",           296,       157.873,       155.234,            0.,NA,NA,"",   4.92302E+06,   4.97714E+06,   4.97714E+06
C:/temp/Job-4.odb,Step-1,Increment      1: Step Time =    1.000,"P-4-1",           297,       150.571,       161.989,            0.,NA,NA,"",   6.73649E+06,   6.84217E+06,   6.84217E+06
C:/temp/Job-4.odb,Step-1,Increment      1: Step Time =    1.000,"P-4-1",           298,       146.619,       165.013,            0.,NA,NA,"",   7.76886E+06,   7.88924E+06,   7.88924E+06
C:/temp/Job-4.odb,Step-1,Increment      1: Step Time =    1.000,"P-4-1",           299,       138.191,       170.295,            0.,NA,NA,"",   10.1623E+06,   10.3532E+06,   10.3532E+06
C:/temp/Job-4.odb,Step-1,Increment      1: Step Time =    1.000,"P-4-1",           300,       133.747,       172.534,            0.,NA,NA,"",   11.6713E+06,   11.8040E+06,   11.8040E+06
C:/temp/Job-4.odb,Step-1,Increment      1: Step Time =    1.000,"P-4-1",           301,       124.485,       176.161,            0.,NA,NA,"",   14.5968E+06,   14.7147E+06,   14.7147E+06
C:/temp/Job-4.odb,Step-1,Increment      1: Step Time =    1.000,"P-4-1",           302,       119.702,       177.536,            0.,NA,NA,"",   15.3884E+06,   15.5233E+06,   15.5233E+06
C:/temp/Job-4.odb,Step-1,Increment      1: Step Time =    1.000,"P-4-1",           303,       109.928,       179.382,            0.,NA,NA,"",   15.0330E+06,   15.1402E+06,   15.1402E+06
C:/temp/Job-4.odb,Step-1,Increment      1: Step Time =    1.000,"P-4-1",           304,       104.974,       179.845,            0.,NA,NA,"",   13.6818E+06,   13.7492E+06,   13.7492E+06
C:/temp/Job-4.odb,Step-1,Increment      1: Step Time =    1.000,"P-4-1",           305,          195.,            0.,            0.,NA,NA,"",   949.158E+03,   932.612E+03,   932.612E+03
C:/temp/Job-4.odb,Step-1,Increment      1: Step Time =    1.000,"P-4-1",           306,          185.,            0.,            0.,NA,NA,"",   608.379E+03,   577.475E+03,   577.475E+03
C:/temp/Job-4.odb,Step-1,Increment      1: Step Time =    1.000,"P-4-1",           307,          175.,            0.,            0.,NA,NA,"",   403.531E+03,  -104.400E+03,  -104.400E+03
C:/temp/Job-4.odb,Step-1,Increment      1: Step Time =    1.000,"P-4-1",           308,          165.,            0.,            0.,NA,NA,"",   1.07973E+06,  -1.05601E+06,  -1.05601E+06
C:/temp/Job-4.odb,Step-1,Increment      1: Step Time =    1.000,"P-4-1",           309,          155.,            0.,            0.,NA,NA,"",   2.12048E+06,  -2.10815E+06,  -2.10815E+06
C:/temp/Job-4.odb,Step-1,Increment      1: Step Time =    1.000,"P-4-1",           310,          145.,            0.,            0.,NA,NA,"",   3.31437E+06,  -3.31492E+06,  -3.31492E+06
C:/temp/Job-4.odb,Step-1,Increment      1: Step Time =    1.000,"P-4-1",           311,          135.,            0.,            0.,NA,NA,"",   4.59182E+06,  -4.55393E+06,  -4.55393E+06
C:/temp/Job-4.odb,Step-1,Increment      1: Step Time =    1.000,"P-4-1",           312,          125.,            0.,            0.,NA,NA,"",   5.36140E+06,  -5.33332E+06,  -5.33332E+06
C:/temp/Job-4.odb,Step-1,Increment      1: Step Time =    1.000,"P-4-1",           313,          115.,            0.,            0.,NA,NA,"",   5.13277E+06,  -5.07451E+06,  -5.07451E+06
C:/temp/Job-4.odb,Step-1,Increment      1: Step Time =    1.000,"P-4-1",           314,          105.,            0.,            0.,NA,NA,"",   3.41758E+06,  -3.27919E+06,  -3.27919E+06
C:/temp/Job-4.odb,Step-1,Increment      1: Step Time =    1.000,"P-4-1",           315,           95.,            0.,            0.,NA,NA,"",   1.81940E+06,   20.3336E+03,   20.3336E+03
C:/temp/Job-4.odb,Step-1,Increment      1: Step Time =    1.000,"P-4-1",           316,           85.,            0.,            0.,NA,NA,"",   3.94959E+06,   3.82834E+06,   3.82834E+06
C:/temp/Job-4.odb,Step-1,Increment      1: Step Time =    1.000,"P-4-1",           317,           75.,            0.,            0.,NA,NA,"",   6.71615E+06,   6.65594E+06,   6.65594E+06
C:/temp/Job-4.odb,Step-1,Increment      1: Step Time =    1.000,"P-4-1",           318,           65.,            0.,            0.,NA,NA,"",   8.53481E+06,   8.49707E+06,   8.49707E+06
C:/temp/Job-4.odb,Step-1,Increment      1: Step Time =    1.000,"P-4-1",           319,           55.,            0.,            0.,NA,NA,"",   9.35030E+06,   9.33633E+06,   9.33633E+06
C:/temp/Job-4.odb,Step-1,Increment      1: Step Time =    1.000,"P-4-1",           320,           45.,            0.,            0.,NA,NA,"",   9.32605E+06,   9.31220E+06,   9.31220E+06
C:/temp/Job-4.odb,Step-1,Increment      1: Step Time =    1.000,"P-4-1",           321,           35.,            0.,            0.,NA,NA,"",   8.75594E+06,   8.75079E+06,   8.75079E+06
C:/temp/Job-4.odb,Step-1,Increment      1: Step Time =    1.000,"P-4-1",           322,           25.,            0.,            0.,NA,NA,"",   8.05296E+06,   8.05821E+06,   8.05821E+06
C:/temp/Job-4.odb,Step-1,Increment      1: Step Time =    1.000,"P-4-1",           323,           15.,            0.,            0.,NA,NA,"",   7.47281E+06,   7.49307E+06,   7.49307E+06
C:/temp/Job-4.odb,Step-1,Increment      1: Step Time =    1.000,"P-4-1",           324,            5.,            0.,            0.,NA,NA,"",   7.42165E+06,   7.57916E+06,   7.57916E+06
C:/temp/Job-4.odb,Step-1,Increment      1: Step Time =    1.000,"P-4-1",           325,          200.,          195.,            0.,NA,NA,"",   1.01700E+06,   977.495E+03,   977.495E+03
C:/temp/Job-4.odb,Step-1,Increment      1: Step Time =    1.000,"P-4-1",           326,          200.,          185.,            0.,NA,NA,"",   1.27109E+06,   1.00819E+06,   1.00819E+06
C:/temp/Job-4.odb,Step-1,Increment      1: Step Time =    1.000,"P-4-1",           327,          200.,          175.,            0.,NA,NA,"",   1.56422E+06,   1.02885E+06,   1.02885E+06
C:/temp/Job-4.odb,Step-1,Increment      1: Step Time =    1.000,"P-4-1",           328,          200.,          165.,            0.,NA,NA,"",   1.51810E+06,   1.05740E+06,   1.05740E+06
C:/temp/Job-4.odb,Step-1,Increment      1: Step Time =    1.000,"P-4-1",           329,          200.,          155.,            0.,NA,NA,"",   1.15384E+06,   1.14655E+06,   1.14655E+06
C:/temp/Job-4.odb,Step-1,Increment      1: Step Time =    1.000,"P-4-1",           330,          200.,          145.,            0.,NA,NA,"",   1.68755E+06,   1.93351E+06,   1.93351E+06
C:/temp/Job-4.odb,Step-1,Increment      1: Step Time =    1.000,"P-4-1",           331,          200.,          135.,            0.,NA,NA,"",   3.85936E+06,   4.23573E+06,   4.23573E+06
C:/temp/Job-4.odb,Step-1,Increment      1: Step Time =    1.000,"P-4-1",           332,          200.,          125.,            0.,NA,NA,"",   6.73681E+06,   7.13809E+06,   7.13809E+06
C:/temp/Job-4.odb,Step-1,Increment      1: Step Time =    1.000,"P-4-1",           333,          200.,          115.,            0.,NA,NA,"",   9.48415E+06,   9.91571E+06,   9.91571E+06
C:/temp/Job-4.odb,Step-1,Increment      1: Step Time =    1.000,"P-4-1",           334,          200.,          105.,            0.,NA,NA,"",   11.2998E+06,   11.7069E+06,   11.7069E+06
C:/temp/Job-4.odb,Step-1,Increment      1: Step Time =    1.000,"P-4-1",           335,          200.,           95.,            0.,NA,NA,"",   11.0602E+06,   11.4659E+06,   11.4659E+06
C:/temp/Job-4.odb,Step-1,Increment      1: Step Time =    1.000,"P-4-1",           336,          200.,           85.,            0.,NA,NA,"",   9.36897E+06,   9.76619E+06,   9.76619E+06
C:/temp/Job-4.odb,Step-1,Increment      1: Step Time =    1.000,"P-4-1",           337,          200.,           75.,            0.,NA,NA,"",   6.55558E+06,   6.98751E+06,   6.98751E+06
C:/temp/Job-4.odb,Step-1,Increment      1: Step Time =    1.000,"P-4-1",           338,          200.,           65.,            0.,NA,NA,"",   3.92264E+06,   4.28153E+06,   4.28153E+06
C:/temp/Job-4.odb,Step-1,Increment      1: Step Time =    1.000,"P-4-1",           339,          200.,           55.,            0.,NA,NA,"",   1.73247E+06,   1.98110E+06,   1.98110E+06
C:/temp/Job-4.odb,Step-1,Increment      1: Step Time =    1.000,"P-4-1",           340,          200.,           45.,            0.,NA,NA,"",   1.15766E+06,   1.14535E+06,   1.14535E+06
C:/temp/Job-4.odb,Step-1,Increment      1: Step Time =    1.000,"P-4-1",           341,          200.,           35.,            0.,NA,NA,"",   1.51716E+06,   1.03819E+06,   1.03819E+06
C:/temp/Job-4.odb,Step-1,Increment      1: Step Time =    1.000,"P-4-1",           342,          200.,           25.,            0.,NA,NA,"",   1.55914E+06,   1.02904E+06,   1.02904E+06
C:/temp/Job-4.odb,Step-1,Increment      1: Step Time =    1.000,"P-4-1",           343,          200.,           15.,            0.,NA,NA,"",   1.27772E+06,    1.0101E+06,    1.0101E+06
C:/temp/Job-4.odb,Step-1,Increment      1: Step Time =    1.000,"P-4-1",           344,          200.,            5.,            0.,NA,NA,"",   1.01432E+06,   974.771E+03,   974.771E+03
C:/temp/Job-4.odb,Step-1,Increment      1: Step Time =    1.000,"P-4-1",           345,            5.,          200.,            0.,NA,NA,"",   7.40915E+06,   7.56762E+06,   7.56762E+06
C:/temp/Job-4.odb,Step-1,Increment      1: Step Time =    1.000,"P-4-1",           346,           15.,          200.,            0.,NA,NA,"",   7.48927E+06,   7.50664E+06,   7.50664E+06
C:/temp/Job-4.odb,Step-1,Increment      1: Step Time =    1.000,"P-4-1",           347,           25.,          200.,            0.,NA,NA,"",   8.08643E+06,   8.08698E+06,   8.08698E+06
C:/temp/Job-4.odb,Step-1,Increment      1: Step Time =    1.000,"P-4-1",           348,           35.,          200.,            0.,NA,NA,"",   8.74556E+06,   8.74566E+06,   8.74566E+06
C:/temp/Job-4.odb,Step-1,Increment      1: Step Time =    1.000,"P-4-1",           349,           45.,          200.,            0.,NA,NA,"",    9.2705E+06,   9.25566E+06,   9.25566E+06
C:/temp/Job-4.odb,Step-1,Increment      1: Step Time =    1.000,"P-4-1",           350,           55.,          200.,            0.,NA,NA,"",   9.34177E+06,   9.32998E+06,   9.32998E+06
C:/temp/Job-4.odb,Step-1,Increment      1: Step Time =    1.000,"P-4-1",           351,           65.,          200.,            0.,NA,NA,"",   8.65268E+06,   8.61221E+06,   8.61221E+06
C:/temp/Job-4.odb,Step-1,Increment      1: Step Time =    1.000,"P-4-1",           352,           75.,          200.,            0.,NA,NA,"",   6.73381E+06,   6.68544E+06,   6.68544E+06
C:/temp/Job-4.odb,Step-1,Increment      1: Step Time =    1.000,"P-4-1",           353,           85.,          200.,            0.,NA,NA,"",   3.85798E+06,   3.72021E+06,   3.72021E+06
C:/temp/Job-4.odb,Step-1,Increment      1: Step Time =    1.000,"P-4-1",           354,           95.,          200.,            0.,NA,NA,"",   1.75141E+06,   11.5706E+03,   11.5706E+03
C:/temp/Job-4.odb,Step-1,Increment      1: Step Time =    1.000,"P-4-1",           355,          105.,          200.,            0.,NA,NA,"",   3.55823E+06,  -3.42501E+06,  -3.42501E+06
C:/temp/Job-4.odb,Step-1,Increment      1: Step Time =    1.000,"P-4-1",           356,          115.,          200.,            0.,NA,NA,"",   5.03686E+06,  -5.01142E+06,  -5.01142E+06
C:/temp/Job-4.odb,Step-1,Increment      1: Step Time =    1.000,"P-4-1",           357,          125.,          200.,            0.,NA,NA,"",   5.30591E+06,  -5.27551E+06,  -5.27551E+06
C:/temp/Job-4.odb,Step-1,Increment      1: Step Time =    1.000,"P-4-1",           358,          135.,          200.,            0.,NA,NA,"",   4.51694E+06,  -4.48427E+06,  -4.48427E+06
C:/temp/Job-4.odb,Step-1,Increment      1: Step Time =    1.000,"P-4-1",           359,          145.,          200.,            0.,NA,NA,"",   3.19834E+06,  -3.20589E+06,  -3.20589E+06
C:/temp/Job-4.odb,Step-1,Increment      1: Step Time =    1.000,"P-4-1",           360,          155.,          200.,            0.,NA,NA,"",   2.12316E+06,  -2.10483E+06,  -2.10483E+06
C:/temp/Job-4.odb,Step-1,Increment      1: Step Time =    1.000,"P-4-1",           361,          165.,          200.,            0.,NA,NA,"",   1.14098E+06,  -1.11008E+06,  -1.11008E+06
C:/temp/Job-4.odb,Step-1,Increment      1: Step Time =    1.000,"P-4-1",           362,          175.,          200.,            0.,NA,NA,"",   435.352E+03,  -121.334E+03,  -121.334E+03
C:/temp/Job-4.odb,Step-1,Increment      1: Step Time =    1.000,"P-4-1",           363,          185.,          200.,            0.,NA,NA,"",   616.790E+03,   582.458E+03,   582.458E+03
C:/temp/Job-4.odb,Step-1,Increment      1: Step Time =    1.000,"P-4-1",           364,          195.,          200.,            0.,NA,NA,"",   947.059E+03,   931.735E+03,   931.735E+03
C:/temp/Job-4.odb,Step-1,Increment      1: Step Time =    1.000,"P-4-1",           365,            0.,            5.,            0.,NA,NA,"",   6.55401E+06,   7.02264E+06,   7.02264E+06
C:/temp/Job-4.odb,Step-1,Increment      1: Step Time =    1.000,"P-4-1",           366,            0.,           15.,            0.,NA,NA,"",   3.96932E+06,   4.39913E+06,   4.39913E+06
C:/temp/Job-4.odb,Step-1,Increment      1: Step Time =    1.000,"P-4-1",           367,            0.,           25.,            0.,NA,NA,"",   2.11617E+06,   2.36243E+06,   2.36243E+06
C:/temp/Job-4.odb,Step-1,Increment      1: Step Time =    1.000,"P-4-1",           368,            0.,           35.,            0.,NA,NA,"",   556.602E+03,   622.047E+03,   622.047E+03
C:/temp/Job-4.odb,Step-1,Increment      1: Step Time =    1.000,"P-4-1",           369,            0.,           45.,            0.,NA,NA,"",   608.736E+03,  -611.387E+03,  -611.387E+03
C:/temp/Job-4.odb,Step-1,Increment      1: Step Time =    1.000,"P-4-1",           370,            0.,           55.,            0.,NA,NA,"",   1.19682E+06,  -1.23075E+06,  -1.23075E+06
C:/temp/Job-4.odb,Step-1,Increment      1: Step Time =    1.000,"P-4-1",           371,            0.,           65.,            0.,NA,NA,"",   1.32677E+06,  -1.33851E+06,  -1.33851E+06
C:/temp/Job-4.odb,Step-1,Increment      1: Step Time =    1.000,"P-4-1",           372,            0.,           75.,            0.,NA,NA,"",   1.09679E+06,  -1.08982E+06,  -1.08982E+06
C:/temp/Job-4.odb,Step-1,Increment      1: Step Time =    1.000,"P-4-1",           373,            0.,           85.,            0.,NA,NA,"",   688.114E+03,  -704.142E+03,  -704.142E+03
C:/temp/Job-4.odb,Step-1,Increment      1: Step Time =    1.000,"P-4-1",           374,            0.,           95.,            0.,NA,NA,"",   349.627E+03,  -392.480E+03,  -392.480E+03
C:/temp/Job-4.odb,Step-1,Increment      1: Step Time =    1.000,"P-4-1",           375,            0.,          105.,            0.,NA,NA,"",   348.350E+03,  -391.551E+03,  -391.551E+03
C:/temp/Job-4.odb,Step-1,Increment      1: Step Time =    1.000,"P-4-1",           376,            0.,          115.,            0.,NA,NA,"",   710.120E+03,  -718.098E+03,  -718.098E+03
C:/temp/Job-4.odb,Step-1,Increment      1: Step Time =    1.000,"P-4-1",           377,            0.,          125.,            0.,NA,NA,"",   1.08229E+06,  -1.07656E+06,  -1.07656E+06
C:/temp/Job-4.odb,Step-1,Increment      1: Step Time =    1.000,"P-4-1",           378,            0.,          135.,            0.,NA,NA,"",   1.32879E+06,  -1.34299E+06,  -1.34299E+06
C:/temp/Job-4.odb,Step-1,Increment      1: Step Time =    1.000,"P-4-1",           379,            0.,          145.,            0.,NA,NA,"",   1.23316E+06,  -1.25552E+06,  -1.25552E+06
C:/temp/Job-4.odb,Step-1,Increment      1: Step Time =    1.000,"P-4-1",           380,            0.,          155.,            0.,NA,NA,"",   607.890E+03,  -595.402E+03,  -595.402E+03
C:/temp/Job-4.odb,Step-1,Increment      1: Step Time =    1.000,"P-4-1",           381,            0.,          165.,            0.,NA,NA,"",   625.219E+03,   701.766E+03,   701.766E+03
C:/temp/Job-4.odb,Step-1,Increment      1: Step Time =    1.000,"P-4-1",           382,            0.,          175.,            0.,NA,NA,"",   2.14065E+06,   2.39120E+06,   2.39120E+06
C:/temp/Job-4.odb,Step-1,Increment      1: Step Time =    1.000,"P-4-1",           383,            0.,          185.,            0.,NA,NA,"",   3.99152E+06,   4.42899E+06,   4.42899E+06
C:/temp/Job-4.odb,Step-1,Increment      1: Step Time =    1.000,"P-4-1",           384,            0.,          195.,            0.,NA,NA,"",   6.51639E+06,   6.98491E+06,   6.98491E+06
C:/temp/Job-4.odb,Step-1,Increment      1: Step Time =    1.000,"P-4-1",           385,       18.3402,       75.6510,            0.,NA,NA,"",   1.22490E+06,  -1.25441E+06,  -1.25441E+06
C:/temp/Job-4.odb,Step-1,Increment      1: Step Time =    1.000,"P-4-1",           386,       164.905,       154.139,            0.,NA,NA,"",   3.86980E+06,   3.88997E+06,   3.88997E+06
C:/temp/Job-4.odb,Step-1,Increment      1: Step Time =    1.000,"P-4-1",           387,       32.1525,       150.124,            0.,NA,NA,"",   3.68961E+06,  -3.72992E+06,  -3.72992E+06
C:/temp/Job-4.odb,Step-1,Increment      1: Step Time =    1.000,"P-4-1",           388,       22.7098,       65.6334,            0.,NA,NA,"",   2.00518E+06,  -2.02841E+06,  -2.02841E+06
C:/temp/Job-4.odb,Step-1,Increment      1: Step Time =    1.000,"P-4-1",           389,       179.668,       70.1794,            0.,NA,NA,"",   2.92155E+06,  -1.44490E+06,  -1.44490E+06
C:/temp/Job-4.odb,Step-1,Increment      1: Step Time =    1.000,"P-4-1",           390,       55.2068,       172.702,            0.,NA,NA,"",   3.35811E+06,  -3.24425E+06,  -3.24425E+06
C:/temp/Job-4.odb,Step-1,Increment      1: Step Time =    1.000,"P-4-1",           391,       141.445,       176.095,            0.,NA,NA,"",   7.81531E+06,   8.03268E+06,   8.03268E+06
C:/temp/Job-4.odb,Step-1,Increment      1: Step Time =    1.000,"P-4-1",           392,       94.5686,       185.981,            0.,NA,NA,"",   8.00073E+06,   7.89541E+06,   7.89541E+06
C:/temp/Job-4.odb,Step-1,Increment      1: Step Time =    1.000,"P-4-1",           393,       43.9321,       36.8765,            0.,NA,NA,"",   4.35033E+06,  -4.42674E+06,  -4.42674E+06
C:/temp/Job-4.odb,Step-1,Increment      1: Step Time =    1.000,"P-4-1",           394,       37.2941,       44.1035,            0.,NA,NA,"",   4.26947E+06,  -4.33332E+06,  -4.33332E+06
C:/temp/Job-4.odb,Step-1,Increment      1: Step Time =    1.000,"P-4-1",           395,       23.1891,       136.893,            0.,NA,NA,"",   2.18135E+06,  -2.20771E+06,  -2.20771E+06
C:/temp/Job-4.odb,Step-1,Increment      1: Step Time =    1.000,"P-4-1",           396,       17.6762,       117.087,            0.,NA,NA,"",   915.115E+03,  -938.549E+03,  -938.549E+03
C:/temp/Job-4.odb,Step-1,Increment      1: Step Time =    1.000,"P-4-1",           397,       16.5383,       85.5151,            0.,NA,NA,"",   819.683E+03,  -843.942E+03,  -843.942E+03
C:/temp/Job-4.odb,Step-1,Increment      1: Step Time =    1.000,"P-4-1",           398,       35.2328,       154.160,            0.,NA,NA,"",   4.01787E+06,  -4.06843E+06,  -4.06843E+06
C:/temp/Job-4.odb,Step-1,Increment      1: Step Time =    1.000,"P-4-1",           399,       59.8609,       174.964,            0.,NA,NA,"",   3.10230E+06,  -2.82863E+06,  -2.82863E+06
C:/temp/Job-4.odb,Step-1,Increment      1: Step Time =    1.000,"P-4-1",           400,       15.2338,       101.246,            0.,NA,NA,"",   613.823E+03,  -641.128E+03,  -641.128E+03
C:/temp/Job-4.odb,Step-1,Increment      1: Step Time =    1.000,"P-4-1",           401,       38.3661,       158.082,            0.,NA,NA,"",   4.18381E+06,  -4.23990E+06,  -4.23990E+06
C:/temp/Job-4.odb,Step-1,Increment      1: Step Time =    1.000,"P-4-1",           402,       27.0356,       55.6041,            0.,NA,NA,"",   2.87172E+06,  -2.90026E+06,  -2.90026E+06
C:/temp/Job-4.odb,Step-1,Increment      1: Step Time =    1.000,"P-4-1",           403,       26.2217,       141.653,            0.,NA,NA,"",   2.73658E+06,  -2.76198E+06,  -2.76198E+06
C:/temp/Job-4.odb,Step-1,Increment      1: Step Time =    1.000,"P-4-1",           404,       20.7051,       126.680,            0.,NA,NA,"",   1.41810E+06,  -1.43846E+06,  -1.43846E+06
C:/temp/Job-4.odb,Step-1,Increment      1: Step Time =    1.000,"P-4-1",           405,       15.4882,       106.640,            0.,NA,NA,"",   656.608E+03,  -683.236E+03,  -683.236E+03
C:/temp/Job-4.odb,Step-1,Increment      1: Step Time =    1.000,"P-4-1",           406,       30.9288,       51.6583,            0.,NA,NA,"",   3.52942E+06,  -3.56484E+06,  -3.56484E+06
C:/temp/Job-4.odb,Step-1,Increment      1: Step Time =    1.000,"P-4-1",           407,       18.0535,       80.7076,            0.,NA,NA,"",   999.582E+03,  -1.02530E+06,  -1.02530E+06
C:/temp/Job-4.odb,Step-1,Increment      1: Step Time =    1.000,"P-4-1",           408,       15.3417,       95.9321,            0.,NA,NA,"",   625.304E+03,  -653.162E+03,  -653.162E+03
C:/temp/Job-4.odb,Step-1,Increment      1: Step Time =    1.000,"P-4-1",           409,       69.3992,       178.517,            0.,NA,NA,"",   2.49855E+06,   176.990E+03,   176.990E+03
C:/temp/Job-4.odb,Step-1,Increment      1: Step Time =    1.000,"P-4-1",           410,       19.0504,       121.985,            0.,NA,NA,"",   1.12683E+06,  -1.14893E+06,  -1.14893E+06
C:/temp/Job-4.odb,Step-1,Increment      1: Step Time =    1.000,"P-4-1",           411,       151.871,       33.2342,            0.,NA,NA,"",   6.57411E+06,   6.70567E+06,   6.70567E+06
C:/temp/Job-4.odb,Step-1,Increment      1: Step Time =    1.000,"P-4-1",           412,       15.7226,       90.6668,            0.,NA,NA,"",   694.677E+03,  -721.600E+03,  -721.600E+03
C:/temp/Job-4.odb,Step-1,Increment      1: Step Time =    1.000,"P-4-1",           413,       163.180,       43.9623,            0.,NA,NA,"",   4.17888E+06,   4.23225E+06,   4.23225E+06
C:/temp/Job-4.odb,Step-1,Increment      1: Step Time =    1.000,"P-4-1",           414,       16.4975,       111.962,            0.,NA,NA,"",   757.282E+03,  -782.316E+03,  -782.316E+03
C:/temp/Job-4.odb,Step-1,Increment      1: Step Time =    1.000,"P-4-1",           415,       40.5843,       40.4025,            0.,NA,NA,"",   4.39892E+06,  -4.46824E+06,  -4.46824E+06
C:/temp/Job-4.odb,Step-1,Increment      1: Step Time =    1.000,"P-4-1",           416,       89.0609,       184.223,            0.,NA,NA,"",   7.14083E+06,   6.96081E+06,   6.96081E+06
C:/temp/Job-4.odb,Step-1,Increment      1: Step Time =    1.000,"P-4-1",           417,       41.5405,       162.176,            0.,NA,NA,"",   3.99297E+06,  -4.06877E+06,  -4.06877E+06
C:/temp/Job-4.odb,Step-1,Increment      1: Step Time =    1.000,"P-4-1",           418,       34.0868,       47.8795,            0.,NA,NA,"",   3.97841E+06,  -4.02807E+06,  -4.02807E+06
C:/temp/Job-4.odb,Step-1,Increment      1: Step Time =    1.000,"P-4-1",           419,       47.4137,       33.5539,            0.,NA,NA,"",   4.13743E+06,  -4.19425E+06,  -4.19425E+06
C:/temp/Job-4.odb,Step-1,Increment      1: Step Time =    1.000,"P-4-1",           420,       79.0062,       181.713,            0.,NA,NA,"",   3.96551E+06,   3.59921E+06,   3.59921E+06
C:/temp/Job-4.odb,Step-1,Increment      1: Step Time =    1.000,"P-4-1",           421,       74.2308,       180.069,            0.,NA,NA,"",   2.76668E+06,   1.71981E+06,   1.71981E+06
C:/temp/Job-4.odb,Step-1,Increment      1: Step Time =    1.000,"P-4-1",           422,       116.026,       182.338,            0.,NA,NA,"",   12.7834E+06,   12.9773E+06,   12.9773E+06
C:/temp/Job-4.odb,Step-1,Increment      1: Step Time =    1.000,"P-4-1",           423,       168.916,       52.3228,            0.,NA,NA,"",   2.89623E+06,   2.84399E+06,   2.84399E+06
C:/temp/Job-4.odb,Step-1,Increment      1: Step Time =    1.000,"P-4-1",           424,       183.582,       85.4614,            0.,NA,NA,"",   5.16142E+06,  -4.97656E+06,  -4.97656E+06
C:/temp/Job-4.odb,Step-1,Increment      1: Step Time =    1.000,"P-4-1",           425,       83.9450,       183.157,            0.,NA,NA,"",   5.60570E+06,   5.34235E+06,   5.34235E+06
C:/temp/Job-4.odb,Step-1,Increment      1: Step Time =    1.000,"P-4-1",           426,       64.6183,       176.898,            0.,NA,NA,"",   2.79858E+06,  -1.46910E+06,  -1.46910E+06
C:/temp/Job-4.odb,Step-1,Increment      1: Step Time =    1.000,"P-4-1",           427,       139.209,       25.4913,            0.,NA,NA,"",   9.60399E+06,   9.73881E+06,   9.73881E+06
C:/temp/Job-4.odb,Step-1,Increment      1: Step Time =    1.000,"P-4-1",           428,       122.919,       17.5455,            0.,NA,NA,"",   10.7438E+06,   11.0138E+06,   11.0138E+06
C:/temp/Job-4.odb,Step-1,Increment      1: Step Time =    1.000,"P-4-1",           429,       106.974,       15.2951,            0.,NA,NA,"",   10.8917E+06,   10.9975E+06,   10.9975E+06
C:/temp/Job-4.odb,Step-1,Increment      1: Step Time =    1.000,"P-4-1",           430,       184.699,       95.9358,            0.,NA,NA,"",   5.77598E+06,  -5.80217E+06,  -5.80217E+06
C:/temp/Job-4.odb,Step-1,Increment      1: Step Time =    1.000,"P-4-1",           431,       183.552,       111.983,            0.,NA,NA,"",   5.61852E+06,  -5.56934E+06,  -5.56934E+06
C:/temp/Job-4.odb,Step-1,Increment      1: Step Time =    1.000,"P-4-1",           432,       87.2748,       16.9984,            0.,NA,NA,"",   6.63418E+06,   6.44180E+06,   6.44180E+06
C:/temp/Job-4.odb,Step-1,Increment      1: Step Time =    1.000,"P-4-1",           433,       53.5297,       26.8852,            0.,NA,NA,"",   2.91727E+06,  -2.75763E+06,  -2.75763E+06
C:/temp/Job-4.odb,Step-1,Increment      1: Step Time =    1.000,"P-4-1",           434,       179.318,       126.639,            0.,NA,NA,"",   3.32376E+06,  -3.02516E+06,  -3.02516E+06
C:/temp/Job-4.odb,Step-1,Increment      1: Step Time =    1.000,"P-4-1",           435,       161.453,       158.034,            0.,NA,NA,"",   4.53437E+06,   4.59695E+06,   4.59695E+06
C:/temp/Job-4.odb,Step-1,Increment      1: Step Time =    1.000,"P-4-1",           436,       174.115,       141.016,            0.,NA,NA,"",   2.11184E+06,   1.77200E+06,   1.77200E+06
C:/temp/Job-4.odb,Step-1,Increment      1: Step Time =    1.000,"P-4-1",           437,       135.450,       177.278,            0.,NA,NA,"",   9.78524E+06,   9.99402E+06,   9.99402E+06
C:/temp/Job-4.odb,Step-1,Increment      1: Step Time =    1.000,"P-4-1",           438,       130.441,       178.519,            0.,NA,NA,"",   11.1704E+06,   11.3635E+06,   11.3635E+06
C:/temp/Job-4.odb,Step-1,Increment      1: Step Time =    1.000,"P-4-1",           439,       106.282,       184.387,            0.,NA,NA,"",   11.0207E+06,   11.1159E+06,   11.1159E+06
C:/temp/Job-4.odb,Step-1,Increment      1: Step Time =    1.000,"P-4-1",           440,       180.940,       121.968,            0.,NA,NA,"",   4.32617E+06,  -4.14144E+06,  -4.14144E+06
C:/temp/Job-4.odb,Step-1,Increment      1: Step Time =    1.000,"P-4-1",           441,       50.8174,       30.2776,            0.,NA,NA,"",   3.63732E+06,  -3.65284E+06,  -3.65284E+06
C:/temp/Job-4.odb,Step-1,Increment      1: Step Time =    1.000,"P-4-1",           442,       184.819,       101.254,            0.,NA,NA,"",   5.79314E+06,  -5.82869E+06,  -5.82869E+06
C:/temp/Job-4.odb,Step-1,Increment      1: Step Time =    1.000,"P-4-1",           443,       125.579,       179.803,            0.,NA,NA,"",   12.1987E+06,   12.3816E+06,   12.3816E+06
C:/temp/Job-4.odb,Step-1,Increment      1: Step Time =    1.000,"P-4-1",           444,       157.908,       161.840,            0.,NA,NA,"",   5.21203E+06,   5.31388E+06,   5.31388E+06
C:/temp/Job-4.odb,Step-1,Increment      1: Step Time =    1.000,"P-4-1",           445,       81.5330,       16.7635,            0.,NA,NA,"",   5.10287E+06,   4.71309E+06,   4.71309E+06
C:/temp/Job-4.odb,Step-1,Increment      1: Step Time =    1.000,"P-4-1",           446,       92.1567,       16.7538,            0.,NA,NA,"",   8.19081E+06,   8.12831E+06,   8.12831E+06
C:/temp/Job-4.odb,Step-1,Increment      1: Step Time =    1.000,"P-4-1",           447,       156.196,       36.3096,            0.,NA,NA,"",   5.62407E+06,   5.73768E+06,   5.73768E+06
C:/temp/Job-4.odb,Step-1,Increment      1: Step Time =    1.000,"P-4-1",           448,       101.789,       15.3030,            0.,NA,NA,"",   10.3563E+06,   10.4051E+06,   10.4051E+06
C:/temp/Job-4.odb,Step-1,Increment      1: Step Time =    1.000,"P-4-1",           449,       96.7469,       15.7732,            0.,NA,NA,"",   9.47995E+06,   9.45977E+06,   9.45977E+06
C:/temp/Job-4.odb,Step-1,Increment      1: Step Time =    1.000,"P-4-1",           450,       182.348,       117.097,            0.,NA,NA,"",   5.15792E+06,  -5.05876E+06,  -5.05876E+06
C:/temp/Job-4.odb,Step-1,Increment      1: Step Time =    1.000,"P-4-1",           451,       60.9112,       19.1534,            0.,NA,NA,"",   3.10807E+06,   1.41611E+06,   1.41611E+06
C:/temp/Job-4.odb,Step-1,Increment      1: Step Time =    1.000,"P-4-1",           452,       111.177,       183.340,            0.,NA,NA,"",   12.2841E+06,   12.4456E+06,   12.4456E+06
C:/temp/Job-4.odb,Step-1,Increment      1: Step Time =    1.000,"P-4-1",           453,       117.674,       15.4254,            0.,NA,NA,"",   9.58008E+06,   9.83384E+06,   9.83384E+06
C:/temp/Job-4.odb,Step-1,Increment      1: Step Time =    1.000,"P-4-1",           454,       171.316,       145.639,            0.,NA,NA,"",   2.63569E+06,   2.47966E+06,   2.47966E+06
C:/temp/Job-4.odb,Step-1,Increment      1: Step Time =    1.000,"P-4-1",           455,       143.313,       27.9069,            0.,NA,NA,"",   8.61530E+06,   8.77671E+06,   8.77671E+06
C:/temp/Job-4.odb,Step-1,Increment      1: Step Time =    1.000,"P-4-1",           456,       184.335,       90.6703,            0.,NA,NA,"",   5.56650E+06,  -5.49899E+06,  -5.49899E+06
C:/temp/Job-4.odb,Step-1,Increment      1: Step Time =    1.000,"P-4-1",           457,       154.320,       165.631,            0.,NA,NA,"",   5.88978E+06,   6.02209E+06,   6.02209E+06
C:/temp/Job-4.odb,Step-1,Increment      1: Step Time =    1.000,"P-4-1",           458,       112.170,       15.4317,            0.,NA,NA,"",   10.8110E+06,   10.9943E+06,   10.9943E+06
C:/temp/Job-4.odb,Step-1,Increment      1: Step Time =    1.000,"P-4-1",           459,       184.566,       106.655,            0.,NA,NA,"",   5.73091E+06,  -5.73375E+06,  -5.73375E+06
C:/temp/Job-4.odb,Step-1,Increment      1: Step Time =    1.000,"P-4-1",           460,       120.843,       181.164,            0.,NA,NA,"",   12.7459E+06,   12.9528E+06,   12.9528E+06
C:/temp/Job-4.odb,Step-1,Increment      1: Step Time =    1.000,"P-4-1",           461,       177.697,       131.366,            0.,NA,NA,"",   2.35608E+06,  -1.90659E+06,  -1.90659E+06
C:/temp/Job-4.odb,Step-1,Increment      1: Step Time =    1.000,"P-4-1",           462,       182.302,       80.5022,            0.,NA,NA,"",   4.51195E+06,  -4.27318E+06,  -4.27318E+06
C:/temp/Job-4.odb,Step-1,Increment      1: Step Time =    1.000,"P-4-1",           463,       147.581,       30.4745,            0.,NA,NA,"",   7.61100E+06,   7.75251E+06,   7.75251E+06
C:/temp/Job-4.odb,Step-1,Increment      1: Step Time =    1.000,"P-4-1",           464,       171.804,       56.5118,            0.,NA,NA,"",   2.28009E+06,   2.10799E+06,   2.10799E+06
C:/temp/Job-4.odb,Step-1,Increment      1: Step Time =    1.000,"P-4-1",           465,       166.038,       48.1685,            0.,NA,NA,"",   3.54923E+06,   3.56076E+06,   3.56076E+06
C:/temp/Job-4.odb,Step-1,Increment      1: Step Time =    1.000,"P-4-1",           466,       101.060,       186.161,            0.,NA,NA,"",   8.74673E+06,   8.74631E+06,   8.74631E+06
C:/temp/Job-4.odb,Step-1,Increment      1: Step Time =    1.000,"P-4-1",           467,       160.187,       39.8939,            0.,NA,NA,"",   4.83455E+06,   4.91845E+06,   4.91845E+06
C:/temp/Job-4.odb,Step-1,Increment      1: Step Time =    1.000,"P-4-1",           468,       195.697,       115.024,            0.,NA,NA,"",   7.73789E+06,   8.06459E+06,   8.06459E+06
C:/temp/Job-4.odb,Step-1,Increment      1: Step Time =    1.000,"P-4-1",           469,       195.031,       64.6810,            0.,NA,NA,"",   3.70845E+06,   3.88684E+06,   3.88684E+06
C:/temp/Job-4.odb,Step-1,Increment      1: Step Time =    1.000,"P-4-1",           470,       195.022,       74.6375,            0.,NA,NA,"",   5.59596E+06,   5.84707E+06,   5.84707E+06
C:/temp/Job-4.odb,Step-1,Increment      1: Step Time =    1.000,"P-4-1",           471,       134.946,       195.663,            0.,NA,NA,"",   3.10012E+06,  -3.01103E+06,  -3.01103E+06
C:/temp/Job-4.odb,Step-1,Increment      1: Step Time =    1.000,"P-4-1",           472,       195.344,       135.653,            0.,NA,NA,"",   3.66678E+06,   3.88456E+06,   3.88456E+06
C:/temp/Job-4.odb,Step-1,Increment      1: Step Time =    1.000,"P-4-1",           473,       195.727,       145.073,            0.,NA,NA,"",   2.05048E+06,   2.19551E+06,   2.19551E+06
C:/temp/Job-4.odb,Step-1,Increment      1: Step Time =    1.000,"P-4-1",           474,       194.803,       154.918,            0.,NA,NA,"",   1.50430E+06,   1.44748E+06,   1.44748E+06
C:/temp/Job-4.odb,Step-1,Increment      1: Step Time =    1.000,"P-4-1",           475,       145.122,       194.178,            0.,NA,NA,"",   2.09845E+06,  -1.54615E+06,  -1.54615E+06
C:/temp/Job-4.odb,Step-1,Increment      1: Step Time =    1.000,"P-4-1",           476,       194.860,       125.437,            0.,NA,NA,"",   5.57138E+06,   5.78491E+06,   5.78491E+06
C:/temp/Job-4.odb,Step-1,Increment      1: Step Time =    1.000,"P-4-1",           477,       195.002,       54.8095,            0.,NA,NA,"",   2.12895E+06,   2.24951E+06,   2.24951E+06
C:/temp/Job-4.odb,Step-1,Increment      1: Step Time =    1.000,"P-4-1",           478,       124.824,       4.33597,            0.,NA,NA,"",   3.21771E+06,  -3.15430E+06,  -3.15430E+06
C:/temp/Job-4.odb,Step-1,Increment      1: Step Time =    1.000,"P-4-1",           479,       134.734,       4.87116,            0.,NA,NA,"",   2.88502E+06,  -2.73554E+06,  -2.73554E+06
C:/temp/Job-4.odb,Step-1,Increment      1: Step Time =    1.000,"P-4-1",           480,       195.002,       25.0816,            0.,NA,NA,"",   1.49433E+06,   1.08948E+06,   1.08948E+06
C:/temp/Job-4.odb,Step-1,Increment      1: Step Time =    1.000,"P-4-1",           481,       195.542,       34.7912,            0.,NA,NA,"",   1.48229E+06,   1.12681E+06,   1.12681E+06
C:/temp/Job-4.odb,Step-1,Increment      1: Step Time =    1.000,"P-4-1",           482,       115.265,       4.63443,            0.,NA,NA,"",   3.20959E+06,  -2.01459E+06,  -2.01459E+06
C:/temp/Job-4.odb,Step-1,Increment      1: Step Time =    1.000,"P-4-1",           483,       5.80627,       20.3563,            0.,NA,NA,"",   3.01422E+06,   3.31680E+06,   3.31680E+06
C:/temp/Job-4.odb,Step-1,Increment      1: Step Time =    1.000,"P-4-1",           484,       5.25838,       10.0677,            0.,NA,NA,"",   5.36977E+06,   5.74166E+06,   5.74166E+06
C:/temp/Job-4.odb,Step-1,Increment      1: Step Time =    1.000,"P-4-1",           485,       15.0862,       4.90313,            0.,NA,NA,"",   6.96011E+06,   6.98579E+06,   6.98579E+06
C:/temp/Job-4.odb,Step-1,Increment      1: Step Time =    1.000,"P-4-1",           486,       54.3131,       4.50260,            0.,NA,NA,"",   8.37870E+06,   8.32041E+06,   8.32041E+06
C:/temp/Job-4.odb,Step-1,Increment      1: Step Time =    1.000,"P-4-1",           487,       25.0695,       4.74868,            0.,NA,NA,"",   7.39632E+06,   7.40150E+06,   7.40150E+06
C:/temp/Job-4.odb,Step-1,Increment      1: Step Time =    1.000,"P-4-1",           488,       34.9408,       4.15058,            0.,NA,NA,"",   8.05561E+06,   8.04160E+06,   8.04160E+06
C:/temp/Job-4.odb,Step-1,Increment      1: Step Time =    1.000,"P-4-1",           489,       44.6686,       4.24392,            0.,NA,NA,"",   8.42422E+06,   8.38926E+06,   8.38926E+06
C:/temp/Job-4.odb,Step-1,Increment      1: Step Time =    1.000,"P-4-1",           490,       64.2769,       5.04302,            0.,NA,NA,"",   7.64801E+06,   7.52675E+06,   7.52675E+06
C:/temp/Job-4.odb,Step-1,Increment      1: Step Time =    1.000,"P-4-1",           491,       74.7655,       4.85693,            0.,NA,NA,"",   6.45230E+06,   6.26165E+06,   6.26165E+06
C:/temp/Job-4.odb,Step-1,Increment      1: Step Time =    1.000,"P-4-1",           492,       5.38784,       84.7893,            0.,NA,NA,"",   695.944E+03,  -726.912E+03,  -726.912E+03
C:/temp/Job-4.odb,Step-1,Increment      1: Step Time =    1.000,"P-4-1",           493,       4.45509,       75.0421,            0.,NA,NA,"",   1.08324E+06,  -1.09185E+06,  -1.09185E+06
C:/temp/Job-4.odb,Step-1,Increment      1: Step Time =    1.000,"P-4-1",           494,       4.29711,       114.972,            0.,NA,NA,"",   691.456E+03,  -716.718E+03,  -716.718E+03
C:/temp/Job-4.odb,Step-1,Increment      1: Step Time =    1.000,"P-4-1",           495,       4.86545,       105.591,            0.,NA,NA,"",   395.798E+03,  -445.623E+03,  -445.623E+03
C:/temp/Job-4.odb,Step-1,Increment      1: Step Time =    1.000,"P-4-1",           496,       15.2821,       194.868,            0.,NA,NA,"",   6.95955E+06,   6.98492E+06,   6.98492E+06
C:/temp/Job-4.odb,Step-1,Increment      1: Step Time =    1.000,"P-4-1",           497,       5.09507,       194.911,            0.,NA,NA,"",   6.69298E+06,   6.95410E+06,   6.95410E+06
C:/temp/Job-4.odb,Step-1,Increment      1: Step Time =    1.000,"P-4-1",           498,       5.09422,       184.896,            0.,NA,NA,"",   4.10525E+06,   4.47551E+06,   4.47551E+06
C:/temp/Job-4.odb,Step-1,Increment      1: Step Time =    1.000,"P-4-1",           499,       4.79828,       175.051,            0.,NA,NA,"",   2.10789E+06,   2.35461E+06,   2.35461E+06
C:/temp/Job-4.odb,Step-1,Increment      1: Step Time =    1.000,"P-4-1",           500,       35.3402,       191.216,            0.,NA,NA,"",   6.55624E+06,   6.52239E+06,   6.52239E+06
C:/temp/Job-4.odb,Step-1,Increment      1: Step Time =    1.000,"P-4-1",           501,       25.2659,       195.309,            0.,NA,NA,"",   7.45939E+06,   7.45581E+06,   7.45581E+06
C:/temp/Job-4.odb,Step-1,Increment      1: Step Time =    1.000,"P-4-1",           502,       55.0946,       195.297,            0.,NA,NA,"",   8.31018E+06,   8.25123E+06,   8.25123E+06
C:/temp/Job-4.odb,Step-1,Increment      1: Step Time =    1.000,"P-4-1",           503,       45.1941,       195.187,            0.,NA,NA,"",   8.26226E+06,   8.21825E+06,   8.21825E+06
C:/temp/Job-4.odb,Step-1,Increment      1: Step Time =    1.000,"P-4-1",           504,       64.7037,       195.835,            0.,NA,NA,"",   7.86593E+06,   7.75956E+06,   7.75956E+06
C:/temp/Job-4.odb,Step-1,Increment      1: Step Time =    1.000,"P-4-1",           505,       74.6989,       195.456,            0.,NA,NA,"",   6.51489E+06,   6.32535E+06,   6.32535E+06
C:/temp/Job-4.odb,Step-1,Increment      1: Step Time =    1.000,"P-4-1",           506,       84.4711,       195.846,            0.,NA,NA,"",   4.60827E+06,   4.31555E+06,   4.31555E+06
C:/temp/Job-4.odb,Step-1,Increment      1: Step Time =    1.000,"P-4-1",           507,       124.802,       195.106,            0.,NA,NA,"",   2.98538E+06,  -2.68507E+06,  -2.68507E+06
C:/temp/Job-4.odb,Step-1,Increment      1: Step Time =    1.000,"P-4-1",           508,       114.570,       195.689,            0.,NA,NA,"",   3.19882E+06,  -2.60039E+06,  -2.60039E+06
C:/temp/Job-4.odb,Step-1,Increment      1: Step Time =    1.000,"P-4-1",           509,       84.7905,       4.46798,            0.,NA,NA,"",   4.70297E+06,   4.40071E+06,   4.40071E+06
C:/temp/Job-4.odb,Step-1,Increment      1: Step Time =    1.000,"P-4-1",           510,       95.0367,       5.23929,            0.,NA,NA,"",   3.36772E+06,   2.19956E+06,   2.19956E+06
C:/temp/Job-4.odb,Step-1,Increment      1: Step Time =    1.000,"P-4-1",           511,       105.523,       5.12830,            0.,NA,NA,"",   3.38150E+06,  -123.599E+03,  -123.599E+03
C:/temp/Job-4.odb,Step-1,Increment      1: Step Time =    1.000,"P-4-1",           512,       144.943,       4.41400,            0.,NA,NA,"",   2.39820E+06,  -2.31907E+06,  -2.31907E+06
C:/temp/Job-4.odb,Step-1,Increment      1: Step Time =    1.000,"P-4-1",           513,       154.881,       4.27377,            0.,NA,NA,"",   1.69635E+06,  -1.58651E+06,  -1.58651E+06
C:/temp/Job-4.odb,Step-1,Increment      1: Step Time =    1.000,"P-4-1",           514,       164.584,       4.68183,            0.,NA,NA,"",   1.02388E+06,  -845.426E+03,  -845.426E+03
C:/temp/Job-4.odb,Step-1,Increment      1: Step Time =    1.000,"P-4-1",           515,       194.902,       5.06504,            0.,NA,NA,"",   987.623E+03,   939.915E+03,   939.915E+03
C:/temp/Job-4.odb,Step-1,Increment      1: Step Time =    1.000,"P-4-1",           516,       194.692,       15.1268,            0.,NA,NA,"",   1.28033E+06,   1.04149E+06,   1.04149E+06
C:/temp/Job-4.odb,Step-1,Increment      1: Step Time =    1.000,"P-4-1",           517,       195.461,       44.6248,            0.,NA,NA,"",   1.41687E+06,   1.36825E+06,   1.36825E+06
C:/temp/Job-4.odb,Step-1,Increment      1: Step Time =    1.000,"P-4-1",           518,       194.550,       84.7472,            0.,NA,NA,"",   6.85632E+06,   7.07834E+06,   7.07834E+06
C:/temp/Job-4.odb,Step-1,Increment      1: Step Time =    1.000,"P-4-1",           519,       194.619,       95.2677,            0.,NA,NA,"",   7.62043E+06,   7.90835E+06,   7.90835E+06
C:/temp/Job-4.odb,Step-1,Increment      1: Step Time =    1.000,"P-4-1",           520,       195.176,       105.601,            0.,NA,NA,"",   8.18043E+06,   8.48057E+06,   8.48057E+06
C:/temp/Job-4.odb,Step-1,Increment      1: Step Time =    1.000,"P-4-1",           521,       190.265,       165.295,            0.,NA,NA,"",   1.60341E+06,   1.41829E+06,   1.41829E+06
C:/temp/Job-4.odb,Step-1,Increment      1: Step Time =    1.000,"P-4-1",           522,       154.933,       195.662,            0.,NA,NA,"",   1.79047E+06,  -1.66994E+06,  -1.66994E+06
C:/temp/Job-4.odb,Step-1,Increment      1: Step Time =    1.000,"P-4-1",           523,       195.202,       175.015,            0.,NA,NA,"",   1.50207E+06,   1.08359E+06,   1.08359E+06
C:/temp/Job-4.odb,Step-1,Increment      1: Step Time =    1.000,"P-4-1",           524,       164.428,       194.890,            0.,NA,NA,"",   1.10517E+06,  -579.277E+03,  -579.277E+03
C:/temp/Job-4.odb,Step-1,Increment      1: Step Time =    1.000,"P-4-1",           525,       194.972,       184.889,            0.,NA,NA,"",   1.27514E+06,   1.03439E+06,   1.03439E+06
C:/temp/Job-4.odb,Step-1,Increment      1: Step Time =    1.000,"P-4-1",           526,       174.555,       194.671,            0.,NA,NA,"",   718.538E+03,   313.436E+03,   313.436E+03
C:/temp/Job-4.odb,Step-1,Increment      1: Step Time =    1.000,"P-4-1",           527,       194.951,       194.927,            0.,NA,NA,"",   989.670E+03,   942.425E+03,   942.425E+03
C:/temp/Job-4.odb,Step-1,Increment      1: Step Time =    1.000,"P-4-1",           528,       184.846,       194.796,            0.,NA,NA,"",   796.950E+03,   714.856E+03,   714.856E+03
C:/temp/Job-4.odb,Step-1,Increment      1: Step Time =    1.000,"P-4-1",           529,       104.838,       195.645,            0.,NA,NA,"",   3.20218E+06,  -490.291E+03,  -490.291E+03
C:/temp/Job-4.odb,Step-1,Increment      1: Step Time =    1.000,"P-4-1",           530,       95.0404,       195.335,            0.,NA,NA,"",   3.02559E+06,   1.89503E+06,   1.89503E+06
C:/temp/Job-4.odb,Step-1,Increment      1: Step Time =    1.000,"P-4-1",           531,       4.48261,       165.326,            0.,NA,NA,"",   594.853E+03,   676.345E+03,   676.345E+03
C:/temp/Job-4.odb,Step-1,Increment      1: Step Time =    1.000,"P-4-1",           532,       4.69531,       155.594,            0.,NA,NA,"",    730.64E+03,  -646.169E+03,  -646.169E+03
C:/temp/Job-4.odb,Step-1,Increment      1: Step Time =    1.000,"P-4-1",           533,       6.32267,       145.340,            0.,NA,NA,"",   1.38712E+06,  -1.36005E+06,  -1.36005E+06
C:/temp/Job-4.odb,Step-1,Increment      1: Step Time =    1.000,"P-4-1",           534,       4.30206,       134.897,            0.,NA,NA,"",   1.35925E+06,  -1.36808E+06,  -1.36808E+06
C:/temp/Job-4.odb,Step-1,Increment      1: Step Time =    1.000,"P-4-1",           535,       4.85177,       125.133,            0.,NA,NA,"",   1.07547E+06,  -1.08601E+06,  -1.08601E+06
C:/temp/Job-4.odb,Step-1,Increment      1: Step Time =    1.000,"P-4-1",           536,       5.41791,       95.2570,            0.,NA,NA,"",   395.007E+03,  -445.032E+03,  -445.032E+03
C:/temp/Job-4.odb,Step-1,Increment      1: Step Time =    1.000,"P-4-1",           537,       5.06193,       65.1328,            0.,NA,NA,"",   1.37107E+06,  -1.37674E+06,  -1.37674E+06
C:/temp/Job-4.odb,Step-1,Increment      1: Step Time =    1.000,"P-4-1",           538,       4.52620,       54.9854,            0.,NA,NA,"",   1.30080E+06,  -1.29566E+06,  -1.29566E+06
C:/temp/Job-4.odb,Step-1,Increment      1: Step Time =    1.000,"P-4-1",           539,       4.39818,       40.2706,            0.,NA,NA,"",   432.608E+03,  -87.7055E+03,  -87.7055E+03
C:/temp/Job-4.odb,Step-1,Increment      1: Step Time =    1.000,"P-4-1",           540,       4.79192,       30.4266,            0.,NA,NA,"",   1.13730E+06,   1.28203E+06,   1.28203E+06
C:/temp/Job-4.odb,Step-1,Increment      1: Step Time =    1.000,"P-4-1",           541,       184.747,       5.07986,            0.,NA,NA,"",   786.820E+03,   708.978E+03,   708.978E+03
C:/temp/Job-4.odb,Step-1,Increment      1: Step Time =    1.000,"P-4-1",           542,       174.598,       5.05624,            0.,NA,NA,"",   667.305E+03,   293.174E+03,   293.174E+03
C:/temp/Job-4.odb,Step-1,Increment      1: Step Time =    1.000,"P-4-1",           543,       189.837,       5.07711,            0.,NA,NA,"",   906.385E+03,   846.441E+03,   846.441E+03
C:/temp/Job-4.odb,Step-1,Increment      1: Step Time =    1.000,"P-4-1",           544,       179.688,       5.10421,            0.,NA,NA,"",   677.377E+03,   553.251E+03,   553.251E+03
C:/temp/Job-4.odb,Step-1,Increment      1: Step Time =    1.000,"P-4-1",           545,       169.526,       4.89665,            0.,NA,NA,"",   793.097E+03,  -286.622E+03,  -286.622E+03
C:/temp/Job-4.odb,Step-1,Increment      1: Step Time =    1.000,"P-4-1",           546,       159.729,       4.43295,            0.,NA,NA,"",   1.33935E+06,  -1.19970E+06,  -1.19970E+06
C:/temp/Job-4.odb,Step-1,Increment      1: Step Time =    1.000,"P-4-1",           547,       149.929,       4.25285,            0.,NA,NA,"",   2.06849E+06,  -1.97712E+06,  -1.97712E+06
C:/temp/Job-4.odb,Step-1,Increment      1: Step Time =    1.000,"P-4-1",           548,       139.867,       4.68665,            0.,NA,NA,"",   2.65068E+06,  -2.53310E+06,  -2.53310E+06
C:/temp/Job-4.odb,Step-1,Increment      1: Step Time =    1.000,"P-4-1",           549,       129.713,       4.54987,            0.,NA,NA,"",   3.09602E+06,  -3.01619E+06,  -3.01619E+06
C:/temp/Job-4.odb,Step-1,Increment      1: Step Time =    1.000,"P-4-1",           550,       119.986,       4.36277,            0.,NA,NA,"",   3.20517E+06,  -2.74090E+06,  -2.74090E+06
C:/temp/Job-4.odb,Step-1,Increment      1: Step Time =    1.000,"P-4-1",           551,       110.504,       4.92025,            0.,NA,NA,"",   3.30265E+06,  -1.19102E+06,  -1.19102E+06
C:/temp/Job-4.odb,Step-1,Increment      1: Step Time =    1.000,"P-4-1",           552,       100.347,       5.26193,            0.,NA,NA,"",   3.33955E+06,   918.354E+03,   918.354E+03
C:/temp/Job-4.odb,Step-1,Increment      1: Step Time =    1.000,"P-4-1",           553,       89.8323,       4.73508,            0.,NA,NA,"",   3.82571E+06,   3.42701E+06,   3.42701E+06
C:/temp/Job-4.odb,Step-1,Increment      1: Step Time =    1.000,"P-4-1",           554,       79.9202,       4.70660,            0.,NA,NA,"",   5.64674E+06,   5.41056E+06,   5.41056E+06
C:/temp/Job-4.odb,Step-1,Increment      1: Step Time =    1.000,"P-4-1",           555,       69.5138,       5.00300,            0.,NA,NA,"",   7.11765E+06,   6.96524E+06,   6.96524E+06
C:/temp/Job-4.odb,Step-1,Increment      1: Step Time =    1.000,"P-4-1",           556,       59.1876,       4.66692,            0.,NA,NA,"",   8.09731E+06,   7.99912E+06,   7.99912E+06
C:/temp/Job-4.odb,Step-1,Increment      1: Step Time =    1.000,"P-4-1",           557,       49.5098,       4.38471,            0.,NA,NA,"",   8.46830E+06,   8.42243E+06,   8.42243E+06
C:/temp/Job-4.odb,Step-1,Increment      1: Step Time =    1.000,"P-4-1",           558,       39.8147,       4.11894,            0.,NA,NA,"",   8.28435E+06,   8.26604E+06,   8.26604E+06
C:/temp/Job-4.odb,Step-1,Increment      1: Step Time =    1.000,"P-4-1",           559,       30.0444,       4.35964,            0.,NA,NA,"",   7.74254E+06,   7.73799E+06,   7.73799E+06
C:/temp/Job-4.odb,Step-1,Increment      1: Step Time =    1.000,"P-4-1",           560,       20.0310,       5.02610,            0.,NA,NA,"",   7.12797E+06,   7.13700E+06,   7.13700E+06
C:/temp/Job-4.odb,Step-1,Increment      1: Step Time =    1.000,"P-4-1",           561,       10.0941,       4.94468,            0.,NA,NA,"",   6.90164E+06,   6.94756E+06,   6.94756E+06
C:/temp/Job-4.odb,Step-1,Increment      1: Step Time =    1.000,"P-4-1",           562,       194.941,       189.892,            0.,NA,NA,"",   1.11554E+06,   983.886E+03,   983.886E+03
C:/temp/Job-4.odb,Step-1,Increment      1: Step Time =    1.000,"P-4-1",           563,       195.063,       179.956,            0.,NA,NA,"",   1.40952E+06,   1.06328E+06,   1.06328E+06
C:/temp/Job-4.odb,Step-1,Increment      1: Step Time =    1.000,"P-4-1",           564,       190.736,       170.122,            0.,NA,NA,"",   1.50514E+06,   1.28217E+06,   1.28217E+06
C:/temp/Job-4.odb,Step-1,Increment      1: Step Time =    1.000,"P-4-1",           565,       194.700,       159.960,            0.,NA,NA,"",   1.48266E+06,   1.28031E+06,   1.28031E+06
C:/temp/Job-4.odb,Step-1,Increment      1: Step Time =    1.000,"P-4-1",           566,       195.085,       149.895,            0.,NA,NA,"",   1.65553E+06,   1.70986E+06,   1.70986E+06
C:/temp/Job-4.odb,Step-1,Increment      1: Step Time =    1.000,"P-4-1",           567,       195.861,       140.345,            0.,NA,NA,"",   2.75896E+06,   2.96673E+06,   2.96673E+06
C:/temp/Job-4.odb,Step-1,Increment      1: Step Time =    1.000,"P-4-1",           568,       195.057,       130.702,            0.,NA,NA,"",   4.60884E+06,   4.82537E+06,   4.82537E+06
C:/temp/Job-4.odb,Step-1,Increment      1: Step Time =    1.000,"P-4-1",           569,       195.213,       120.096,            0.,NA,NA,"",   6.66281E+06,   6.89487E+06,   6.89487E+06
C:/temp/Job-4.odb,Step-1,Increment      1: Step Time =    1.000,"P-4-1",           570,       195.894,       110.186,            0.,NA,NA,"",   8.29492E+06,   8.63095E+06,   8.63095E+06
C:/temp/Job-4.odb,Step-1,Increment      1: Step Time =    1.000,"P-4-1",           571,       194.762,       100.521,            0.,NA,NA,"",   7.88078E+06,   8.18595E+06,   8.18595E+06
C:/temp/Job-4.odb,Step-1,Increment      1: Step Time =    1.000,"P-4-1",           572,       194.513,       89.9954,            0.,NA,NA,"",   7.26674E+06,   7.53121E+06,   7.53121E+06
C:/temp/Job-4.odb,Step-1,Increment      1: Step Time =    1.000,"P-4-1",           573,       194.927,       79.7272,            0.,NA,NA,"",   6.32694E+06,   6.57676E+06,   6.57676E+06
C:/temp/Job-4.odb,Step-1,Increment      1: Step Time =    1.000,"P-4-1",           574,       195.030,       69.5670,            0.,NA,NA,"",   4.66904E+06,   4.85618E+06,   4.85618E+06
C:/temp/Job-4.odb,Step-1,Increment      1: Step Time =    1.000,"P-4-1",           575,       195.358,       59.7729,            0.,NA,NA,"",   2.84155E+06,   3.01431E+06,   3.01431E+06
C:/temp/Job-4.odb,Step-1,Increment      1: Step Time =    1.000,"P-4-1",           576,       195.170,       49.7227,            0.,NA,NA,"",   1.64208E+06,   1.69922E+06,   1.69922E+06
C:/temp/Job-4.odb,Step-1,Increment      1: Step Time =    1.000,"P-4-1",           577,       195.588,       39.6570,            0.,NA,NA,"",   1.42011E+06,   1.20631E+06,   1.20631E+06
C:/temp/Job-4.odb,Step-1,Increment      1: Step Time =    1.000,"P-4-1",           578,       195.348,       29.9609,            0.,NA,NA,"",   1.51604E+06,   1.09667E+06,   1.09667E+06
C:/temp/Job-4.odb,Step-1,Increment      1: Step Time =    1.000,"P-4-1",           579,       194.629,       20.1030,            0.,NA,NA,"",   1.41523E+06,   1.07901E+06,   1.07901E+06
C:/temp/Job-4.odb,Step-1,Increment      1: Step Time =    1.000,"P-4-1",           580,       194.813,       10.0852,            0.,NA,NA,"",   1.11177E+06,   980.039E+03,   980.039E+03
C:/temp/Job-4.odb,Step-1,Increment      1: Step Time =    1.000,"P-4-1",           581,       10.1883,       194.853,            0.,NA,NA,"",   6.86456E+06,   6.90957E+06,   6.90957E+06
C:/temp/Job-4.odb,Step-1,Increment      1: Step Time =    1.000,"P-4-1",           582,       20.3131,       195.026,            0.,NA,NA,"",   7.18045E+06,   7.19020E+06,   7.19020E+06
C:/temp/Job-4.odb,Step-1,Increment      1: Step Time =    1.000,"P-4-1",           583,       30.5846,       191.232,            0.,NA,NA,"",   6.45245E+06,   6.42591E+06,   6.42591E+06
C:/temp/Job-4.odb,Step-1,Increment      1: Step Time =    1.000,"P-4-1",           584,       40.1870,       195.388,            0.,NA,NA,"",   8.15545E+06,   8.13354E+06,   8.13354E+06
C:/temp/Job-4.odb,Step-1,Increment      1: Step Time =    1.000,"P-4-1",           585,       50.1676,       195.101,            0.,NA,NA,"",   8.31469E+06,   8.26084E+06,   8.26084E+06
C:/temp/Job-4.odb,Step-1,Increment      1: Step Time =    1.000,"P-4-1",           586,       60.0029,       195.690,            0.,NA,NA,"",   8.21012E+06,   8.11728E+06,   8.11728E+06
C:/temp/Job-4.odb,Step-1,Increment      1: Step Time =    1.000,"P-4-1",           587,       69.6220,       195.645,            0.,NA,NA,"",   7.26339E+06,   7.13485E+06,   7.13485E+06
C:/temp/Job-4.odb,Step-1,Increment      1: Step Time =    1.000,"P-4-1",           588,       79.7530,       195.821,            0.,NA,NA,"",   5.57652E+06,   5.35385E+06,   5.35385E+06
C:/temp/Job-4.odb,Step-1,Increment      1: Step Time =    1.000,"P-4-1",           589,       89.7596,       194.703,            0.,NA,NA,"",   4.12810E+06,   3.71544E+06,   3.71544E+06
C:/temp/Job-4.odb,Step-1,Increment      1: Step Time =    1.000,"P-4-1",           590,       100.032,       195.534,            0.,NA,NA,"",   2.92630E+06,   429.397E+03,   429.397E+03
C:/temp/Job-4.odb,Step-1,Increment      1: Step Time =    1.000,"P-4-1",           591,       109.620,       195.833,            0.,NA,NA,"",   3.24516E+06,  -1.92741E+06,  -1.92741E+06
C:/temp/Job-4.odb,Step-1,Increment      1: Step Time =    1.000,"P-4-1",           592,       119.613,       195.345,            0.,NA,NA,"",   3.09446E+06,  -2.38819E+06,  -2.38819E+06
C:/temp/Job-4.odb,Step-1,Increment      1: Step Time =    1.000,"P-4-1",           593,       129.976,       195.432,            0.,NA,NA,"",   3.08359E+06,  -3.01230E+06,  -3.01230E+06
C:/temp/Job-4.odb,Step-1,Increment      1: Step Time =    1.000,"P-4-1",           594,       139.714,       195.362,            0.,NA,NA,"",   2.69244E+06,  -2.60251E+06,  -2.60251E+06
C:/temp/Job-4.odb,Step-1,Increment      1: Step Time =    1.000,"P-4-1",           595,       150.258,       195.643,            0.,NA,NA,"",   2.10719E+06,  -2.00421E+06,  -2.00421E+06
C:/temp/Job-4.odb,Step-1,Increment      1: Step Time =    1.000,"P-4-1",           596,       159.565,       195.262,            0.,NA,NA,"",   1.41184E+06,  -1.23737E+06,  -1.23737E+06
C:/temp/Job-4.odb,Step-1,Increment      1: Step Time =    1.000,"P-4-1",           597,       169.438,       194.688,            0.,NA,NA,"",   867.409E+03,   3.98033E+03,   3.98033E+03
C:/temp/Job-4.odb,Step-1,Increment      1: Step Time =    1.000,"P-4-1",           598,       179.721,       194.731,            0.,NA,NA,"",   705.079E+03,   570.873E+03,   570.873E+03
C:/temp/Job-4.odb,Step-1,Increment      1: Step Time =    1.000,"P-4-1",           599,       189.909,       194.862,            0.,NA,NA,"",   909.189E+03,   848.000E+03,   848.000E+03
C:/temp/Job-4.odb,Step-1,Increment      1: Step Time =    1.000,"P-4-1",           600,       5.57501,       15.1917,            0.,NA,NA,"",   4.10923E+06,   4.46684E+06,   4.46684E+06
C:/temp/Job-4.odb,Step-1,Increment      1: Step Time =    1.000,"P-4-1",           601,       5.33497,       25.3899,            0.,NA,NA,"",   2.01636E+06,   2.24885E+06,   2.24885E+06
C:/temp/Job-4.odb,Step-1,Increment      1: Step Time =    1.000,"P-4-1",           602,       4.49493,       35.3779,            0.,NA,NA,"",   519.486E+03,   573.902E+03,   573.902E+03
C:/temp/Job-4.odb,Step-1,Increment      1: Step Time =    1.000,"P-4-1",           603,       4.40400,       45.1495,            0.,NA,NA,"",   759.098E+03,  -698.756E+03,  -698.756E+03
C:/temp/Job-4.odb,Step-1,Increment      1: Step Time =    1.000,"P-4-1",           604,       4.44457,       50.0560,            0.,NA,NA,"",   1.08537E+06,  -1.06226E+06,  -1.06226E+06
C:/temp/Job-4.odb,Step-1,Increment      1: Step Time =    1.000,"P-4-1",           605,       4.72792,       60.0348,            0.,NA,NA,"",   1.39491E+06,  -1.39776E+06,  -1.39776E+06
C:/temp/Job-4.odb,Step-1,Increment      1: Step Time =    1.000,"P-4-1",           606,       4.77190,       70.1330,            0.,NA,NA,"",   1.25416E+06,  -1.26045E+06,  -1.26045E+06
C:/temp/Job-4.odb,Step-1,Increment      1: Step Time =    1.000,"P-4-1",           607,       4.70409,       79.8708,            0.,NA,NA,"",   886.542E+03,  -903.627E+03,  -903.627E+03
C:/temp/Job-4.odb,Step-1,Increment      1: Step Time =    1.000,"P-4-1",           608,       5.50584,       89.9801,            0.,NA,NA,"",   528.604E+03,  -573.808E+03,  -573.808E+03
C:/temp/Job-4.odb,Step-1,Increment      1: Step Time =    1.000,"P-4-1",           609,       5.27596,       100.517,            0.,NA,NA,"",   345.560E+03,  -394.750E+03,  -394.750E+03
C:/temp/Job-4.odb,Step-1,Increment      1: Step Time =    1.000,"P-4-1",           610,       4.13836,       110.160,            0.,NA,NA,"",   520.296E+03,  -560.867E+03,  -560.867E+03
C:/temp/Job-4.odb,Step-1,Increment      1: Step Time =    1.000,"P-4-1",           611,       4.68254,       119.973,            0.,NA,NA,"",   885.609E+03,  -900.837E+03,  -900.837E+03
C:/temp/Job-4.odb,Step-1,Increment      1: Step Time =    1.000,"P-4-1",           612,       4.37429,       130.120,            0.,NA,NA,"",   1.24636E+06,  -1.25389E+06,  -1.25389E+06
C:/temp/Job-4.odb,Step-1,Increment      1: Step Time =    1.000,"P-4-1",           613,       4.83033,       139.807,            0.,NA,NA,"",   1.39487E+06,  -1.39779E+06,  -1.39779E+06
C:/temp/Job-4.odb,Step-1,Increment      1: Step Time =    1.000,"P-4-1",           614,       5.18320,       150.688,            0.,NA,NA,"",   1.10487E+06,  -1.05784E+06,  -1.05784E+06
C:/temp/Job-4.odb,Step-1,Increment      1: Step Time =    1.000,"P-4-1",           615,       4.49555,       160.433,            0.,NA,NA,"",   418.339E+03,  -30.9782E+03,  -30.9782E+03
C:/temp/Job-4.odb,Step-1,Increment      1: Step Time =    1.000,"P-4-1",           616,       4.60814,       170.178,            0.,NA,NA,"",   1.26988E+06,   1.43370E+06,   1.43370E+06
C:/temp/Job-4.odb,Step-1,Increment      1: Step Time =    1.000,"P-4-1",           617,       4.97899,       179.966,            0.,NA,NA,"",   3.06395E+06,   3.38005E+06,   3.38005E+06
C:/temp/Job-4.odb,Step-1,Increment      1: Step Time =    1.000,"P-4-1",           618,       5.13145,       189.876,            0.,NA,NA,"",   5.30783E+06,   5.68606E+06,   5.68606E+06
C:/temp/Job-4.odb,Step-1,Increment      1: Step Time =    1.000,"P-4-1",           619,       58.0931,       180.015,            0.,NA,NA,"",   2.96291E+06,   537.353E+03,   537.353E+03
C:/temp/Job-4.odb,Step-1,Increment      1: Step Time =    1.000,"P-4-1",           620,       140.563,       181.735,            0.,NA,NA,"",   5.11858E+06,   5.31204E+06,   5.31204E+06
C:/temp/Job-4.odb,Step-1,Increment      1: Step Time =    1.000,"P-4-1",           621,       171.998,       152.451,            0.,NA,NA,"",   3.19117E+06,   3.04127E+06,   3.04127E+06
C:/temp/Job-4.odb,Step-1,Increment      1: Step Time =    1.000,"P-4-1",           622,       25.4351,       148.615,            0.,NA,NA,"",   2.56908E+06,  -2.57205E+06,  -2.57205E+06
C:/temp/Job-4.odb,Step-1,Increment      1: Step Time =    1.000,"P-4-1",           623,       185.695,       74.3345,            0.,NA,NA,"",   3.37201E+06,   203.716E+03,   203.716E+03
C:/temp/Job-4.odb,Step-1,Increment      1: Step Time =    1.000,"P-4-1",           624,       13.9617,       72.6801,            0.,NA,NA,"",   1.25300E+06,  -1.28516E+06,  -1.28516E+06
C:/temp/Job-4.odb,Step-1,Increment      1: Step Time =    1.000,"P-4-1",           625,       19.1889,       140.700,            0.,NA,NA,"",   2.01763E+06,  -2.01250E+06,  -2.01250E+06
C:/temp/Job-4.odb,Step-1,Increment      1: Step Time =    1.000,"P-4-1",           626,       179.313,       142.770,            0.,NA,NA,"",   3.08738E+06,   2.49969E+06,   2.49969E+06
C:/temp/Job-4.odb,Step-1,Increment      1: Step Time =    1.000,"P-4-1",           627,       48.5275,       175.255,            0.,NA,NA,"",   2.19607E+06,  -291.767E+03,  -291.767E+03
C:/temp/Job-4.odb,Step-1,Increment      1: Step Time =    1.000,"P-4-1",           628,       150.222,       176.653,            0.,NA,NA,"",   4.83935E+06,   5.00493E+06,   5.00493E+06
C:/temp/Job-4.odb,Step-1,Increment      1: Step Time =    1.000,"P-4-1",           629,       44.8355,       167.374,            0.,NA,NA,"",   3.18969E+06,  -3.23959E+06,  -3.23959E+06
C:/temp/Job-4.odb,Step-1,Increment      1: Step Time =    1.000,"P-4-1",           630,       22.2823,       131.344,            0.,NA,NA,"",   1.79899E+06,  -1.82358E+06,  -1.82358E+06
C:/temp/Job-4.odb,Step-1,Increment      1: Step Time =    1.000,"P-4-1",           631,       174.641,       60.8110,            0.,NA,NA,"",   1.92387E+06,   1.15955E+06,   1.15955E+06
C:/temp/Job-4.odb,Step-1,Increment      1: Step Time =    1.000,"P-4-1",           632,       140.033,       9.21437,            0.,NA,NA,"",   1.59014E+06,   378.407E+03,   378.407E+03
C:/temp/Job-4.odb,Step-1,Increment      1: Step Time =    1.000,"P-4-1",           633,       129.078,       8.97519,            0.,NA,NA,"",   1.88667E+06,   872.611E+03,   872.611E+03
C:/temp/Job-4.odb,Step-1,Increment      1: Step Time =    1.000,"P-4-1",           634,       100.847,       10.3195,            0.,NA,NA,"",   6.09400E+06,   5.86927E+06,   5.86927E+06
C:/temp/Job-4.odb,Step-1,Increment      1: Step Time =    1.000,"P-4-1",           635,       89.2527,       9.02264,            0.,NA,NA,"",   5.86928E+06,   5.31530E+06,   5.31530E+06
C:/temp/Job-4.odb,Step-1,Increment      1: Step Time =    1.000,"P-4-1",           636,       80.1752,       9.53362,            0.,NA,NA,"",   5.92790E+06,   5.38570E+06,   5.38570E+06
C:/temp/Job-4.odb,Step-1,Increment      1: Step Time =    1.000,"P-4-1",           637,       69.2436,       9.76106,            0.,NA,NA,"",   6.01233E+06,   5.61820E+06,   5.61820E+06
C:/temp/Job-4.odb,Step-1,Increment      1: Step Time =    1.000,"P-4-1",           638,       192.131,       140.956,            0.,NA,NA,"",   3.03446E+06,   2.97375E+06,   2.97375E+06
C:/temp/Job-4.odb,Step-1,Increment      1: Step Time =    1.000,"P-4-1",           639,       190.676,       119.660,            0.,NA,NA,"",   4.10678E+06,   3.80352E+06,   3.80352E+06
C:/temp/Job-4.odb,Step-1,Increment      1: Step Time =    1.000,"P-4-1",           640,       190.288,       79.2458,            0.,NA,NA,"",   4.00612E+06,   3.67426E+06,   3.67426E+06
C:/temp/Job-4.odb,Step-1,Increment      1: Step Time =    1.000,"P-4-1",           641,       190.161,       69.2447,            0.,NA,NA,"",   3.89946E+06,   3.59627E+06,   3.59627E+06
C:/temp/Job-4.odb,Step-1,Increment      1: Step Time =    1.000,"P-4-1",           642,       100.165,       191.010,            0.,NA,NA,"",   4.88485E+06,   4.61475E+06,   4.61475E+06
C:/temp/Job-4.odb,Step-1,Increment      1: Step Time =    1.000,"P-4-1",           643,       109.327,       191.921,            0.,NA,NA,"",   3.15407E+06,   2.36430E+06,   2.36430E+06
C:/temp/Job-4.odb,Step-1,Increment      1: Step Time =    1.000,"P-4-1",           644,       118.921,       190.832,            0.,NA,NA,"",   2.71768E+06,   2.69483E+06,   2.69483E+06
C:/temp/Job-4.odb,Step-1,Increment      1: Step Time =    1.000,"P-4-1",           645,       130.368,       191.135,            0.,NA,NA,"",   1.70495E+06,   652.932E+03,   652.932E+03
C:/temp/Job-4.odb,Step-1,Increment      1: Step Time =    1.000,"P-4-1",           646,       9.12853,       59.6996,            0.,NA,NA,"",   1.54683E+06,  -1.51591E+06,  -1.51591E+06
C:/temp/Job-4.odb,Step-1,Increment      1: Step Time =    1.000,"P-4-1",           647,       9.51357,       70.7295,            0.,NA,NA,"",   1.25562E+06,  -1.27715E+06,  -1.27715E+06
C:/temp/Job-4.odb,Step-1,Increment      1: Step Time =    1.000,"P-4-1",           648,       8.87618,       79.1152,            0.,NA,NA,"",   904.896E+03,  -943.853E+03,  -943.853E+03
C:/temp/Job-4.odb,Step-1,Increment      1: Step Time =    1.000,"P-4-1",           649,       7.54803,       110.598,            0.,NA,NA,"",   555.449E+03,  -606.935E+03,  -606.935E+03
C:/temp/Job-4.odb,Step-1,Increment      1: Step Time =    1.000,"P-4-1",           650,       8.39226,       130.691,            0.,NA,NA,"",   1.29331E+06,  -1.31200E+06,  -1.31200E+06
C:/temp/Job-4.odb,Step-1,Increment      1: Step Time =    1.000,"P-4-1",           651,       9.06225,       138.872,            0.,NA,NA,"",   1.52486E+06,  -1.50271E+06,  -1.50271E+06
C:/temp/Job-4.odb,Step-1,Increment      1: Step Time =    1.000,"P-4-1",           652,       120.137,       8.70614,            0.,NA,NA,"",   2.42349E+06,   2.02018E+06,   2.02018E+06
C:/temp/Job-4.odb,Step-1,Increment      1: Step Time =    1.000,"P-4-1",           653,       190.278,       131.593,            0.,NA,NA,"",   3.84509E+06,   3.56620E+06,   3.56620E+06
C:/temp/Job-4.odb,Step-1,Increment      1: Step Time =    1.000,"P-4-1",           654,       192.520,       110.622,            0.,NA,NA,"",   4.98990E+06,   5.11918E+06,   5.11918E+06
C:/temp/Job-4.odb,Step-1,Increment      1: Step Time =    1.000,"P-4-1",           655,       60.3978,       191.422,            0.,NA,NA,"",   6.50323E+06,   6.25960E+06,   6.25960E+06
C:/temp/Job-4.odb,Step-1,Increment      1: Step Time =    1.000,"P-4-1",           656,       68.9782,       191.333,            0.,NA,NA,"",   6.27386E+06,   5.92760E+06,   5.92760E+06
C:/temp/Job-4.odb,Step-1,Increment      1: Step Time =    1.000,"P-4-1",           657,       80.0091,       191.898,            0.,NA,NA,"",   6.01656E+06,   5.50204E+06,   5.50204E+06
C:/temp/Job-4.odb,Step-1,Increment      1: Step Time =    1.000,"P-4-1",           658,       87.0388,       191.633,            0.,NA,NA,"",   5.73222E+06,   5.19064E+06,   5.19064E+06
C:/temp/Job-4.odb,Step-1,Increment      1: Step Time =    1.000,"P-4-1",           659,       138.626,       191.230,            0.,NA,NA,"",   1.55286E+06,   138.288E+03,   138.288E+03
C:/temp/Job-4.odb,Step-1,Increment      1: Step Time =    1.000,"P-4-1",           660,       9.28984,       119.572,            0.,NA,NA,"",   868.618E+03,  -908.434E+03,  -908.434E+03
C:/temp/Job-4.odb,Step-1,Increment      1: Step Time =    1.000,"P-4-1",           661,       37.0747,       164.385,            0.,NA,NA,"",   2.24656E+06,  -2.30969E+06,  -2.30969E+06
C:/temp/Job-4.odb,Step-1,Increment      1: Step Time =    1.000,"P-4-1",           662,       36.8671,       37.7777,            0.,NA,NA,"",   2.74341E+06,  -2.82124E+06,  -2.82124E+06
C:/temp/Job-4.odb,Step-1,Increment      1: Step Time =    1.000,"P-4-1",           663,       12.3820,       113.104,            0.,NA,NA,"",   706.549E+03,  -749.825E+03,  -749.825E+03
C:/temp/Job-4.odb,Step-1,Increment      1: Step Time =    1.000,"P-4-1",           664,       25.6032,       51.4003,            0.,NA,NA,"",   2.57242E+06,  -2.57827E+06,  -2.57827E+06
C:/temp/Job-4.odb,Step-1,Increment      1: Step Time =    1.000,"P-4-1",           665,       17.1230,       127.872,            0.,NA,NA,"",   1.38393E+06,  -1.41154E+06,  -1.41154E+06
C:/temp/Job-4.odb,Step-1,Increment      1: Step Time =    1.000,"P-4-1",           666,       68.2527,       182.733,            0.,NA,NA,"",   3.80981E+06,   2.97561E+06,   2.97561E+06
C:/temp/Job-4.odb,Step-1,Increment      1: Step Time =    1.000,"P-4-1",           667,       165.084,       160.807,            0.,NA,NA,"",   3.87663E+06,   3.92373E+06,   3.92373E+06
C:/temp/Job-4.odb,Step-1,Increment      1: Step Time =    1.000,"P-4-1",           668,       27.8105,       48.4850,            0.,NA,NA,"",   2.72615E+06,  -2.73957E+06,  -2.73957E+06
C:/temp/Job-4.odb,Step-1,Increment      1: Step Time =    1.000,"P-4-1",           669,       15.0154,       123.404,            0.,NA,NA,"",   1.11194E+06,  -1.14556E+06,  -1.14556E+06
C:/temp/Job-4.odb,Step-1,Increment      1: Step Time =    1.000,"P-4-1",           670,       169.453,       46.2433,            0.,NA,NA,"",   3.34252E+06,   3.28537E+06,   3.28537E+06
C:/temp/Job-4.odb,Step-1,Increment      1: Step Time =    1.000,"P-4-1",           671,       187.678,       113.139,            0.,NA,NA,"",   3.03623E+06,  -126.076E+03,  -126.076E+03
C:/temp/Job-4.odb,Step-1,Increment      1: Step Time =    1.000,"P-4-1",           672,       72.9849,       183.897,            0.,NA,NA,"",   4.46504E+06,   3.75199E+06,   3.75199E+06
C:/temp/Job-4.odb,Step-1,Increment      1: Step Time =    1.000,"P-4-1",           673,       126.546,       183.532,            0.,NA,NA,"",   7.80154E+06,   8.05708E+06,   8.05708E+06
C:/temp/Job-4.odb,Step-1,Increment      1: Step Time =    1.000,"P-4-1",           674,       175.049,       54.3215,            0.,NA,NA,"",   2.85806E+06,   2.49958E+06,   2.49958E+06
C:/temp/Job-4.odb,Step-1,Increment      1: Step Time =    1.000,"P-4-1",           675,       46.5680,       27.7578,            0.,NA,NA,"",   2.00208E+06,  -1.82439E+06,  -1.82439E+06
C:/temp/Job-4.odb,Step-1,Increment      1: Step Time =    1.000,"P-4-1",           676,       55.4233,       22.2454,            0.,NA,NA,"",   2.65455E+06,  -159.960E+03,  -159.960E+03
C:/temp/Job-4.odb,Step-1,Increment      1: Step Time =    1.000,"P-4-1",           677,       161.632,       164.733,            0.,NA,NA,"",   4.26276E+06,   4.36435E+06,   4.36435E+06
C:/temp/Job-4.odb,Step-1,Increment      1: Step Time =    1.000,"P-4-1",           678,       146.449,       24.6919,            0.,NA,NA,"",   6.22055E+06,   6.41643E+06,   6.41643E+06
C:/temp/Job-4.odb,Step-1,Increment      1: Step Time =    1.000,"P-4-1",           679,       182.894,       127.601,            0.,NA,NA,"",   3.07977E+06,  -191.436E+03,  -191.436E+03
C:/temp/Job-4.odb,Step-1,Increment      1: Step Time =    1.000,"P-4-1",           680,       184.894,       123.329,            0.,NA,NA,"",   3.27522E+06,  -345.876E+03,  -345.876E+03
C:/temp/Job-4.odb,Step-1,Increment      1: Step Time =    1.000,"P-4-1",           681,       48.9788,       24.2502,            0.,NA,NA,"",   2.00614E+06,  -771.382E+03,  -771.382E+03
C:/temp/Job-4.odb,Step-1,Increment      1: Step Time =    1.000,"P-4-1",           682,       77.3717,       185.941,            0.,NA,NA,"",   5.35634E+06,   4.72938E+06,   4.72938E+06
C:/temp/Job-4.odb,Step-1,Increment      1: Step Time =    1.000,"P-4-1",           683,       142.545,       21.7399,            0.,NA,NA,"",   6.29338E+06,   6.49296E+06,   6.49296E+06
C:/temp/Job-4.odb,Step-1,Increment      1: Step Time =    1.000,"P-4-1",           684,       91.6491,       13.5801,            0.,NA,NA,"",   7.20578E+06,   6.93846E+06,   6.93846E+06
C:/temp/Job-4.odb,Step-1,Increment      1: Step Time =    1.000,"P-4-1",           685,       122.258,       185.168,            0.,NA,NA,"",   7.60942E+06,   7.86907E+06,   7.86907E+06
C:/temp/Job-4.odb,Step-1,Increment      1: Step Time =    1.000,"P-4-1",           686,       172.055,       50.3469,            0.,NA,NA,"",   3.03676E+06,   2.86511E+06,   2.86511E+06
C:/temp/Job-4.odb,Step-1,Increment      1: Step Time =    1.000,"P-4-1",           687,       131.220,       182.714,            0.,NA,NA,"",   7.31319E+06,   7.58827E+06,   7.58827E+06
C:/temp/Job-4.odb,Step-1,Increment      1: Step Time =    1.000,"P-4-1",           688,       30.8032,       45.1676,            0.,NA,NA,"",   2.88142E+06,  -2.92170E+06,  -2.92170E+06
C:/temp/Job-4.odb,Step-1,Increment      1: Step Time =    1.000,"P-4-1",           689,       74.4836,       14.0940,            0.,NA,NA,"",   5.20533E+06,   4.54814E+06,   4.54814E+06
C:/temp/Job-4.odb,Step-1,Increment      1: Step Time =    1.000,"P-4-1",           690,       127.871,       13.3345,            0.,NA,NA,"",   4.84389E+06,   5.08156E+06,   5.08156E+06
C:/temp/Job-4.odb,Step-1,Increment      1: Step Time =    1.000,"P-4-1",           691,       155.078,       29.6302,            0.,NA,NA,"",   5.07688E+06,   5.23496E+06,   5.23496E+06
C:/temp/Job-4.odb,Step-1,Increment      1: Step Time =    1.000,"P-4-1",           692,       185.097,       68.2020,            0.,NA,NA,"",   3.41609E+06,   1.69789E+06,   1.69789E+06
C:/temp/Job-4.odb,Step-1,Increment      1: Step Time =    1.000,"P-4-1",           693,       16.0318,       68.0970,            0.,NA,NA,"",   1.53702E+06,  -1.55612E+06,  -1.55612E+06
C:/temp/Job-4.odb,Step-1,Increment      1: Step Time =    1.000,"P-4-1",           694,       34.2833,       160.691,            0.,NA,NA,"",   2.65240E+06,  -2.70505E+06,  -2.70505E+06
C:/temp/Job-4.odb,Step-1,Increment      1: Step Time =    1.000,"P-4-1",           695,       83.8324,       12.0690,            0.,NA,NA,"",   6.21310E+06,   5.62419E+06,   5.62419E+06
C:/temp/Job-4.odb,Step-1,Increment      1: Step Time =    1.000,"P-4-1",           696,       120.695,       12.3843,            0.,NA,NA,"",   5.13295E+06,   5.39243E+06,   5.39243E+06
C:/temp/Job-4.odb,Step-1,Increment      1: Step Time =    1.000,"P-4-1",           697,       178.236,       58.4072,            0.,NA,NA,"",   2.90107E+06,   2.28366E+06,   2.28366E+06
C:/temp/Job-4.odb,Step-1,Increment      1: Step Time =    1.000,"P-4-1",           698,       21.9044,       55.0624,            0.,NA,NA,"",   2.24347E+06,  -2.23391E+06,  -2.23391E+06
C:/temp/Job-4.odb,Step-1,Increment      1: Step Time =    1.000,"P-4-1",           699,       59.7942,       14.2252,            0.,NA,NA,"",   4.64361E+06,   4.15451E+06,   4.15451E+06
C:/temp/Job-4.odb,Step-1,Increment      1: Step Time =    1.000,"P-4-1",           700,       12.4577,       58.8755,            0.,NA,NA,"",   1.67570E+06,  -1.63508E+06,  -1.63508E+06
C:/temp/Job-4.odb,Step-1,Increment      1: Step Time =    1.000,"P-4-1",           701,       185.305,       59.4695,            0.,NA,NA,"",   3.42546E+06,   2.82489E+06,   2.82489E+06
C:/temp/Job-4.odb,Step-1,Increment      1: Step Time =    1.000,"P-4-1",           702,       140.844,       13.4187,            0.,NA,NA,"",   2.82697E+06,   2.87844E+06,   2.87844E+06
C:/temp/Job-4.odb,Step-1,Increment      1: Step Time =    1.000,"P-4-1",           703,       13.1439,       138.241,            0.,NA,NA,"",   1.64556E+06,  -1.63099E+06,  -1.63099E+06
C:/temp/Job-4.odb,Step-1,Increment      1: Step Time =    1.000,"P-4-1",           704,       189.524,       142.773,            0.,NA,NA,"",   3.20073E+06,   2.88737E+06,   2.88737E+06
C:/temp/Job-4.odb,Step-1,Increment      1: Step Time =    1.000,"P-4-1",           705,       146.037,       16.2886,            0.,NA,NA,"",   3.38422E+06,   3.46951E+06,   3.46951E+06
C:/temp/Job-4.odb,Step-1,Increment      1: Step Time =    1.000,"P-4-1",           706,       57.2395,       17.7575,            0.,NA,NA,"",   3.39616E+06,   2.69199E+06,   2.69199E+06
C:/temp/Job-4.odb,Step-1,Increment      1: Step Time =    1.000,"P-4-1",           707,       33.6792,       169.445,            0.,NA,NA,"",   1.01221E+06,  -585.133E+03,  -585.133E+03
C:/temp/Job-4.odb,Step-1,Increment      1: Step Time =    1.000,"P-4-1",           708,       162.904,       171.245,            0.,NA,NA,"",   3.54491E+06,   3.61222E+06,   3.61222E+06
C:/temp/Job-4.odb,Step-1,Increment      1: Step Time =    1.000,"P-4-1",           709,       27.5908,       42.4673,            0.,NA,NA,"",   2.03666E+06,  -2.02151E+06,  -2.02151E+06
C:/temp/Job-4.odb,Step-1,Increment      1: Step Time =    1.000,"P-4-1",           710,       172.879,       44.8065,            0.,NA,NA,"",   3.23669E+06,   3.08265E+06,   3.08265E+06
C:/temp/Job-4.odb,Step-1,Increment      1: Step Time =    1.000,"P-4-1",           711,       87.9832,       12.8810,            0.,NA,NA,"",   6.69792E+06,   6.25430E+06,   6.25430E+06
C:/temp/Job-4.odb,Step-1,Increment      1: Step Time =    1.000,"P-4-1",           712,       62.4817,       187.199,            0.,NA,NA,"",   5.11058E+06,   4.63537E+06,   4.63537E+06
C:/temp/Job-4.odb,Step-1,Increment      1: Step Time =    1.000,"P-4-1",           713,       69.3820,       14.3207,            0.,NA,NA,"",   4.87725E+06,   4.19626E+06,   4.19626E+06
C:/temp/Job-4.odb,Step-1,Increment      1: Step Time =    1.000,"P-4-1",           714,       13.8925,       129.661,            0.,NA,NA,"",   1.36160E+06,  -1.38715E+06,  -1.38715E+06
C:/temp/Job-4.odb,Step-1,Increment      1: Step Time =    1.000,"P-4-1",           715,       131.312,       13.6574,            0.,NA,NA,"",   4.49728E+06,   4.73458E+06,   4.73458E+06
C:/temp/Job-4.odb,Step-1,Increment      1: Step Time =    1.000,"P-4-1",           716,       131.364,       187.060,            0.,NA,NA,"",   3.89014E+06,   4.09781E+06,   4.09781E+06
C:/temp/Job-4.odb,Step-1,Increment      1: Step Time =    1.000,"P-4-1",           717,       158.181,       25.5169,            0.,NA,NA,"",   3.82234E+06,   3.92218E+06,   3.92218E+06
C:/temp/Job-4.odb,Step-1,Increment      1: Step Time =    1.000,"P-4-1",           718,       43.6216,       25.5452,            0.,NA,NA,"",   1.59220E+06,  -445.626E+03,  -445.626E+03
C:/temp/Job-4.odb,Step-1,Increment      1: Step Time =    1.000,"P-4-1",           719,       186.497,       79.4774,            0.,NA,NA,"",   3.22859E+06,   49.0965E+03,   49.0965E+03
C:/temp/Job-4.odb,Step-1,Increment      1: Step Time =    1.000,"P-4-1",           720,       16.8297,       137.023,            0.,NA,NA,"",   1.75061E+06,  -1.75703E+06,  -1.75703E+06
C:/temp/Job-4.odb,Step-1,Increment      1: Step Time =    1.000,"P-4-1",           721,       185.149,       136.822,            0.,NA,NA,"",   3.52561E+06,   2.79982E+06,   2.79982E+06
C:/temp/Job-4.odb,Step-1,Increment      1: Step Time =    1.000,"P-4-1",           722,       124.055,       13.0247,            0.,NA,NA,"",   5.10538E+06,   5.36555E+06,   5.36555E+06
C:/temp/Job-4.odb,Step-1,Increment      1: Step Time =    1.000,"P-4-1",           723,       150.601,       169.246,            0.,NA,NA,"",   6.63323E+06,   6.78316E+06,   6.78316E+06
C:/temp/Job-4.odb,Step-1,Increment      1: Step Time =    1.000,"P-4-1",           724,       186.421,       118.372,            0.,NA,NA,"",   3.28102E+06,  -423.432E+03,  -423.432E+03
C:/temp/Job-4.odb,Step-1,Increment      1: Step Time =    1.000,"P-4-1",           725,       82.5390,       188.043,            0.,NA,NA,"",   6.19423E+06,   5.62780E+06,   5.62780E+06
C:/temp/Job-4.odb,Step-1,Increment      1: Step Time =    1.000,"P-4-1",           726,       181.539,       132.130,            0.,NA,NA,"",   2.94900E+06,   149.992E+03,   149.992E+03
C:/temp/Job-4.odb,Step-1,Increment      1: Step Time =    1.000,"P-4-1",           727,       13.5747,       118.356,            0.,NA,NA,"",   890.421E+03,  -929.180E+03,  -929.180E+03
C:/temp/Job-4.odb,Step-1,Increment      1: Step Time =    1.000,"P-4-1",           728,       18.7345,       131.901,            0.,NA,NA,"",   1.66526E+06,  -1.68528E+06,  -1.68528E+06
C:/temp/Job-4.odb,Step-1,Increment      1: Step Time =    1.000,"P-4-1",           729,       132.079,       16.9361,            0.,NA,NA,"",   6.91542E+06,   7.17543E+06,   7.17543E+06
C:/temp/Job-4.odb,Step-1,Increment      1: Step Time =    1.000,"P-4-1",           730,       69.1430,       18.5829,            0.,NA,NA,"",   3.44478E+06,   1.66913E+06,   1.66913E+06
C:/temp/Job-4.odb,Step-1,Increment      1: Step Time =    1.000,"P-4-1",           731,       181.545,       62.8496,            0.,NA,NA,"",   3.11733E+06,   2.25320E+06,   2.25320E+06
C:/temp/Job-4.odb,Step-1,Increment      1: Step Time =    1.000,"P-4-1",           732,       16.9993,       57.8216,            0.,NA,NA,"",   1.89943E+06,  -1.86606E+06,  -1.86606E+06
C:/temp/Job-4.odb,Step-1,Increment      1: Step Time =    1.000,"P-4-1",           733,       44.7310,       22.4331,            0.,NA,NA,"",   2.10206E+06,   1.00043E+06,   1.00043E+06
C:/temp/Job-4.odb,Step-1,Increment      1: Step Time =    1.000,"P-4-1",           734,       153.600,       23.2689,            0.,NA,NA,"",   4.19697E+06,   4.31840E+06,   4.31840E+06
C:/temp/Job-4.odb,Step-1,Increment      1: Step Time =    1.000,"P-4-1",           735,       71.8495,       187.004,            0.,NA,NA,"",   5.35164E+06,   4.68891E+06,   4.68891E+06
C:/temp/Job-4.odb,Step-1,Increment      1: Step Time =    1.000,"P-4-1",           736,       189.290,       90.1017,            0.,NA,NA,"",   3.33219E+06,   1.00984E+06,   1.00984E+06
C:/temp/Job-4.odb,Step-1,Increment      1: Step Time =    1.000,"P-4-1",           737,       108.366,       188.511,            0.,NA,NA,"",   6.28991E+06,   6.35042E+06,   6.35042E+06
C:/temp/Job-4.odb,Step-1,Increment      1: Step Time =    1.000,"P-4-1",           738,       168.444,       163.602,            0.,NA,NA,"",   3.38723E+06,   3.38987E+06,   3.38987E+06
C:/temp/Job-4.odb,Step-1,Increment      1: Step Time =    1.000,"P-4-1",           739,       29.8924,       163.992,            0.,NA,NA,"",   1.29942E+06,  -1.25432E+06,  -1.25432E+06
C:/temp/Job-4.odb,Step-1,Increment      1: Step Time =    1.000,"P-4-1",           740,       10.3854,       101.133,            0.,NA,NA,"",   483.149E+03,  -532.873E+03,  -532.873E+03
C:/temp/Job-4.odb,Step-1,Increment      1: Step Time =    1.000,"P-4-1",           741,       189.675,       101.141,            0.,NA,NA,"",   3.22171E+06,   1.25270E+06,   1.25270E+06
C:/temp/Job-4.odb,Step-1,Increment      1: Step Time =    1.000,"P-4-1",           742,       17.8499,       54.4077,            0.,NA,NA,"",   1.94796E+06,  -1.89416E+06,  -1.89416E+06
C:/temp/Job-4.odb,Step-1,Increment      1: Step Time =    1.000,"P-4-1",           743,       184.726,       141.096,            0.,NA,NA,"",   3.43127E+06,   2.82524E+06,   2.82524E+06
C:/temp/Job-4.odb,Step-1,Increment      1: Step Time =    1.000,"P-4-1",           744,       14.4782,       143.554,            0.,NA,NA,"",   1.77376E+06,  -1.72388E+06,  -1.72388E+06
C:/temp/Job-4.odb,Step-1,Increment      1: Step Time =    1.000,"P-4-1",           745,       32.8621,       35.4907,            0.,NA,NA,"",   1.57257E+06,  -1.59626E+06,  -1.59626E+06
C:/temp/Job-4.odb,Step-1,Increment      1: Step Time =    1.000,"P-4-1",           746,       140.918,       186.188,            0.,NA,NA,"",   2.96886E+06,   3.06832E+06,   3.06832E+06
C:/temp/Job-4.odb,Step-1,Increment      1: Step Time =    1.000,"P-4-1",           747,       56.5301,       185.240,            0.,NA,NA,"",   4.40868E+06,   3.94256E+06,   3.94256E+06
C:/temp/Job-4.odb,Step-1,Increment      1: Step Time =    1.000,"P-4-1",           748,       30.4599,       39.1364,            0.,NA,NA,"",   1.91730E+06,  -1.94376E+06,  -1.94376E+06
C:/temp/Job-4.odb,Step-1,Increment      1: Step Time =    1.000,"P-4-1",           749,       181.545,       55.5414,            0.,NA,NA,"",   3.27793E+06,   2.68740E+06,   2.68740E+06
C:/temp/Job-4.odb,Step-1,Increment      1: Step Time =    1.000,"P-4-1",           750,       150.008,       15.6723,            0.,NA,NA,"",   2.64546E+06,   2.65354E+06,   2.65354E+06
C:/temp/Job-4.odb,Step-1,Increment      1: Step Time =    1.000,"P-4-1",           751,       53.2569,       14.6718,            0.,NA,NA,"",   4.43969E+06,   4.01832E+06,   4.01832E+06
C:/temp/Job-4.odb,Step-1,Increment      1: Step Time =    1.000,"P-4-1",           752,       64.9011,       14.9165,            0.,NA,NA,"",   4.51252E+06,   3.85743E+06,   3.85743E+06
C:/temp/Job-4.odb,Step-1,Increment      1: Step Time =    1.000,"P-4-1",           753,       136.318,       14.7447,            0.,NA,NA,"",   4.23092E+06,   4.41360E+06,   4.41360E+06
C:/temp/Job-4.odb,Step-1,Increment      1: Step Time =    1.000,"P-4-1",           754,       38.6074,       173.463,            0.,NA,NA,"",   1.48777E+06,   83.9318E+03,   83.9318E+03
C:/temp/Job-4.odb,Step-1,Increment      1: Step Time =    1.000,"P-4-1",           755,       165.364,       167.330,            0.,NA,NA,"",   3.56463E+06,   3.61569E+06,   3.61569E+06
C:/temp/Job-4.odb,Step-1,Increment      1: Step Time =    1.000,"P-4-1",           756,       161.399,       175.337,            0.,NA,NA,"",   3.28714E+06,   3.34305E+06,   3.34305E+06
C:/temp/Job-4.odb,Step-1,Increment      1: Step Time =    1.000,"P-4-1",           757,       171.598,       40.9666,            0.,NA,NA,"",   3.27633E+06,   3.19381E+06,   3.19381E+06
C:/temp/Job-4.odb,Step-1,Increment      1: Step Time =    1.000,"P-4-1",           758,       39.1467,       26.6427,            0.,NA,NA,"",   1.52575E+06,   231.203E+03,   231.203E+03
C:/temp/Job-4.odb,Step-1,Increment      1: Step Time =    1.000,"P-4-1",           759,       162.769,       28.5223,            0.,NA,NA,"",   3.46859E+06,   3.54212E+06,   3.54212E+06
C:/temp/Job-4.odb,Step-1,Increment      1: Step Time =    1.000,"P-4-1",           760,       24.9144,       60.8946,            0.,NA,NA,"",   2.45934E+06,  -2.48908E+06,  -2.48908E+06
C:/temp/Job-4.odb,Step-1,Increment      1: Step Time =    1.000,"P-4-1",           761,       135.445,       23.2754,            0.,NA,NA,"",   10.1613E+06,   10.2999E+06,   10.2999E+06
C:/temp/Job-4.odb,Step-1,Increment      1: Step Time =    1.000,"P-4-1",           762,       133.150,       20.5927,            0.,NA,NA,"",   9.31820E+06,   9.53492E+06,   9.53492E+06
C:/temp/Job-4.odb,Step-1,Increment      1: Step Time =    1.000,"P-4-1",           763,       155.334,       173.919,            0.,NA,NA,"",   4.42175E+06,   4.55648E+06,   4.55648E+06
C:/temp/Job-4.odb,Step-1,Increment      1: Step Time =    1.000,"P-4-1",           764,       185.918,       128.609,            0.,NA,NA,"",   3.34524E+06,   2.37782E+06,   2.37782E+06
C:/temp/Job-4.odb,Step-1,Increment      1: Step Time =    1.000,"P-4-1",           765,       150.524,       18.6552,            0.,NA,NA,"",   3.43102E+06,   3.50806E+06,   3.50806E+06
C:/temp/Job-4.odb,Step-1,Increment      1: Step Time =    1.000,"P-4-1",           766,       172.879,       159.867,            0.,NA,NA,"",   3.12252E+06,   3.02175E+06,   3.02175E+06
C:/temp/Job-4.odb,Step-1,Increment      1: Step Time =    1.000,"P-4-1",           767,       33.5833,       166.031,            0.,NA,NA,"",   1.32203E+06,  -1.32043E+06,  -1.32043E+06
C:/temp/Job-4.odb,Step-1,Increment      1: Step Time =    1.000,"P-4-1",           768,       27.4830,       159.308,            0.,NA,NA,"",   1.81304E+06,  -1.78505E+06,  -1.78505E+06
C:/temp/Job-4.odb,Step-1,Increment      1: Step Time =    1.000,"P-4-1",           769,       136.341,       187.455,            0.,NA,NA,"",   2.81237E+06,   2.92339E+06,   2.92339E+06
C:/temp/Job-4.odb,Step-1,Increment      1: Step Time =    1.000,"P-4-1",           770,       117.506,       186.461,            0.,NA,NA,"",   7.31384E+06,   7.54436E+06,   7.54436E+06
C:/temp/Job-4.odb,Step-1,Increment      1: Step Time =    1.000,"P-4-1",           771,       46.4441,       18.4532,            0.,NA,NA,"",   3.24892E+06,   2.86145E+06,   2.86145E+06
C:/temp/Job-4.odb,Step-1,Increment      1: Step Time =    1.000,"P-4-1",           772,       8.98362,       54.8773,            0.,NA,NA,"",   1.50344E+06,  -1.44020E+06,  -1.44020E+06
C:/temp/Job-4.odb,Step-1,Increment      1: Step Time =    1.000,"P-4-1",           773,       55.5190,       190.327,            0.,NA,NA,"",   6.28144E+06,   6.07227E+06,   6.07227E+06
C:/temp/Job-4.odb,Step-1,Increment      1: Step Time =    1.000,"P-4-1",           774,       145.066,       8.61630,            0.,NA,NA,"",   1.46417E+06,  -22.0598E+03,  -22.0598E+03
C:/temp/Job-4.odb,Step-1,Increment      1: Step Time =    1.000,"P-4-1",           775,       191.910,       144.631,            0.,NA,NA,"",   2.72626E+06,   2.63933E+06,   2.63933E+06
C:/temp/Job-4.odb,Step-1,Increment      1: Step Time =    1.000,"P-4-1",           776,       39.7974,       33.9880,            0.,NA,NA,"",   2.44114E+06,  -2.50102E+06,  -2.50102E+06
C:/temp/Job-4.odb,Step-1,Increment      1: Step Time =    1.000,"P-4-1",           777,       180.520,       49.2350,            0.,NA,NA,"",   3.16510E+06,   2.74403E+06,   2.74403E+06
C:/temp/Job-4.odb,Step-1,Increment      1: Step Time =    1.000,"P-4-1",           778,       141.757,       17.3662,            0.,NA,NA,"",   4.44641E+06,   4.61134E+06,   4.61134E+06
C:/temp/Job-4.odb,Step-1,Increment      1: Step Time =    1.000,"P-4-1",           779,       43.7714,       173.511,            0.,NA,NA,"",   1.76888E+06,  -305.433E+03,  -305.433E+03
C:/temp/Job-4.odb,Step-1,Increment      1: Step Time =    1.000,"P-4-1",           780,       33.4754,       173.698,            0.,NA,NA,"",   1.35781E+06,   776.702E+03,   776.702E+03
C:/temp/Job-4.odb,Step-1,Increment      1: Step Time =    1.000,"P-4-1",           781,       166.963,       173.170,            0.,NA,NA,"",   2.85824E+06,   2.85879E+06,   2.85879E+06
C:/temp/Job-4.odb,Step-1,Increment      1: Step Time =    1.000,"P-4-1",           782,       165.385,       36.4125,            0.,NA,NA,"",   3.72291E+06,   3.77847E+06,   3.77847E+06
C:/temp/Job-4.odb,Step-1,Increment      1: Step Time =    1.000,"P-4-1",           783,       175.876,       43.8483,            0.,NA,NA,"",   3.11995E+06,   2.88651E+06,   2.88651E+06
C:/temp/Job-4.odb,Step-1,Increment      1: Step Time =    1.000,"P-4-1",           784,       165.512,       24.6702,            0.,NA,NA,"",   2.78686E+06,   2.79338E+06,   2.79338E+06
C:/temp/Job-4.odb,Step-1,Increment      1: Step Time =    1.000,"P-4-1",           785,       171.438,       166.550,            0.,NA,NA,"",   2.94610E+06,   2.90749E+06,   2.90749E+06
C:/temp/Job-4.odb,Step-1,Increment      1: Step Time =    1.000,"P-4-1",           786,       175.744,       154.853,            0.,NA,NA,"",   3.11769E+06,   2.88103E+06,   2.88103E+06
C:/temp/Job-4.odb,Step-1,Increment      1: Step Time =    1.000,"P-4-1",           787,       24.8844,       165.077,            0.,NA,NA,"",   701.502E+03,  -394.673E+03,  -394.673E+03
C:/temp/Job-4.odb,Step-1,Increment      1: Step Time =    1.000,"P-4-1",           788,       41.9850,       17.3859,            0.,NA,NA,"",   3.73768E+06,   3.52525E+06,   3.52525E+06
C:/temp/Job-4.odb,Step-1,Increment      1: Step Time =    1.000,"P-4-1",           789,       175.321,       147.891,            0.,NA,NA,"",   3.03265E+06,   2.70189E+06,   2.70189E+06
C:/temp/Job-4.odb,Step-1,Increment      1: Step Time =    1.000,"P-4-1",           790,       10.7864,       90.0478,            0.,NA,NA,"",   604.171E+03,  -651.070E+03,  -651.070E+03
C:/temp/Job-4.odb,Step-1,Increment      1: Step Time =    1.000,"P-4-1",           791,       35.3756,       19.8931,            0.,NA,NA,"",   3.03634E+06,   2.89553E+06,   2.89553E+06
C:/temp/Job-4.odb,Step-1,Increment      1: Step Time =    1.000,"P-4-1",           792,       154.248,       12.3997,            0.,NA,NA,"",   1.74266E+06,   1.55649E+06,   1.55649E+06
C:/temp/Job-4.odb,Step-1,Increment      1: Step Time =    1.000,"P-4-1",           793,       48.0347,       13.7930,            0.,NA,NA,"",   4.79493E+06,   4.54940E+06,   4.54940E+06
C:/temp/Job-4.odb,Step-1,Increment      1: Step Time =    1.000,"P-4-1",           794,       15.5371,       150.652,            0.,NA,NA,"",   1.65716E+06,  -1.53080E+06,  -1.53080E+06
C:/temp/Job-4.odb,Step-1,Increment      1: Step Time =    1.000,"P-4-1",           795,       61.7824,       15.9733,            0.,NA,NA,"",   4.08297E+06,   3.45352E+06,   3.45352E+06
C:/temp/Job-4.odb,Step-1,Increment      1: Step Time =    1.000,"P-4-1",           796,       149.611,       183.591,            0.,NA,NA,"",   2.92610E+06,   2.99593E+06,   2.99593E+06
C:/temp/Job-4.odb,Step-1,Increment      1: Step Time =    1.000,"P-4-1",           797,       87.7913,       188.411,            0.,NA,NA,"",   6.38899E+06,   5.90852E+06,   5.90852E+06
C:/temp/Job-4.odb,Step-1,Increment      1: Step Time =    1.000,"P-4-1",           798,       68.3834,       22.6498,            0.,NA,NA,"",   2.54344E+06,  -1.22775E+06,  -1.22775E+06
C:/temp/Job-4.odb,Step-1,Increment      1: Step Time =    1.000,"P-4-1",           799,       28.7924,       33.9030,            0.,NA,NA,"",   825.989E+03,  -554.415E+03,  -554.415E+03
C:/temp/Job-4.odb,Step-1,Increment      1: Step Time =    1.000,"P-4-1",           800,       161.363,       180.012,            0.,NA,NA,"",   2.73475E+06,   2.71844E+06,   2.71844E+06
C:/temp/Job-4.odb,Step-1,Increment      1: Step Time =    1.000,"P-4-1",           801,       78.7572,       13.5066,            0.,NA,NA,"",   5.52721E+06,   4.91568E+06,   4.91568E+06
C:/temp/Job-4.odb,Step-1,Increment      1: Step Time =    1.000,"P-4-1",           802,       153.076,       181.178,            0.,NA,NA,"",   3.15952E+06,   3.22247E+06,   3.22247E+06
C:/temp/Job-4.odb,Step-1,Increment      1: Step Time =    1.000,"P-4-1",           803,       46.4511,       179.490,            0.,NA,NA,"",   2.61141E+06,   2.10937E+06,   2.10937E+06
C:/temp/Job-4.odb,Step-1,Increment      1: Step Time =    1.000,"P-4-1",           804,       8.96323,       165.581,            0.,NA,NA,"",   575.634E+03,   651.380E+03,   651.380E+03
C:/temp/Job-4.odb,Step-1,Increment      1: Step Time =    1.000,"P-4-1",           805,       163.888,       9.47471,            0.,NA,NA,"",   1.21324E+06,   278.098E+03,   278.098E+03
C:/temp/Job-4.odb,Step-1,Increment      1: Step Time =    1.000,"P-4-1",           806,       8.88493,       35.8897,            0.,NA,NA,"",   499.832E+03,   491.410E+03,   491.410E+03
C:/temp/Job-4.odb,Step-1,Increment      1: Step Time =    1.000,"P-4-1",           807,       34.9830,       8.16147,            0.,NA,NA,"",   6.70840E+06,   6.67352E+06,   6.67352E+06
C:/temp/Job-4.odb,Step-1,Increment      1: Step Time =    1.000,"P-4-1",           808,       186.113,       166.328,            0.,NA,NA,"",   1.80761E+06,   1.67293E+06,   1.67293E+06
C:/temp/Job-4.odb,Step-1,Increment      1: Step Time =    1.000,"P-4-1",           809,       163.535,       189.671,            0.,NA,NA,"",   1.36116E+06,   695.676E+03,   695.676E+03
C:/temp/Job-4.odb,Step-1,Increment      1: Step Time =    1.000,"P-4-1",           810,       191.070,       34.6719,            0.,NA,NA,"",   1.55268E+06,   1.36164E+06,   1.36164E+06
C:/temp/Job-4.odb,Step-1,Increment      1: Step Time =    1.000,"P-4-1",           811,       35.2747,       187.124,            0.,NA,NA,"",   5.26544E+06,   5.19360E+06,   5.19360E+06
C:/temp/Job-4.odb,Step-1,Increment      1: Step Time =    1.000,"P-4-1",           812,       11.8637,       133.298,            0.,NA,NA,"",   1.43604E+06,  -1.44891E+06,  -1.44891E+06
C:/temp/Job-4.odb,Step-1,Increment      1: Step Time =    1.000,"P-4-1",           813,       179.407,       41.4507,            0.,NA,NA,"",   2.75752E+06,   2.53154E+06,   2.53154E+06
C:/temp/Job-4.odb,Step-1,Increment      1: Step Time =    1.000,"P-4-1",           814,       178.737,       150.610,            0.,NA,NA,"",   3.15080E+06,   2.76883E+06,   2.76883E+06
C:/temp/Job-4.odb,Step-1,Increment      1: Step Time =    1.000,"P-4-1",           815,       72.2696,       22.2600,            0.,NA,NA,"",   1.94477E+06,   248.946E+03,   248.946E+03
C:/temp/Job-4.odb,Step-1,Increment      1: Step Time =    1.000,"P-4-1",           816,       13.2818,       165.610,            0.,NA,NA,"",   537.828E+03,   582.569E+03,   582.569E+03
C:/temp/Job-4.odb,Step-1,Increment      1: Step Time =    1.000,"P-4-1",           817,       162.868,       14.5420,            0.,NA,NA,"",   1.81503E+06,   1.63674E+06,   1.63674E+06
C:/temp/Job-4.odb,Step-1,Increment      1: Step Time =    1.000,"P-4-1",           818,       35.0948,       11.8692,            0.,NA,NA,"",   5.49791E+06,   5.43551E+06,   5.43551E+06
C:/temp/Job-4.odb,Step-1,Increment      1: Step Time =    1.000,"P-4-1",           819,       13.1381,       36.3997,            0.,NA,NA,"",   530.309E+03,   443.883E+03,   443.883E+03
C:/temp/Job-4.odb,Step-1,Increment      1: Step Time =    1.000,"P-4-1",           820,       182.533,       167.336,            0.,NA,NA,"",   1.99448E+06,   1.88136E+06,   1.88136E+06
C:/temp/Job-4.odb,Step-1,Increment      1: Step Time =    1.000,"P-4-1",           821,       162.374,       184.646,            0.,NA,NA,"",   2.00511E+06,   1.86232E+06,   1.86232E+06
C:/temp/Job-4.odb,Step-1,Increment      1: Step Time =    1.000,"P-4-1",           822,       186.571,       34.7217,            0.,NA,NA,"",   1.83285E+06,   1.69205E+06,   1.69205E+06
C:/temp/Job-4.odb,Step-1,Increment      1: Step Time =    1.000,"P-4-1",           823,       34.6668,       183.038,            0.,NA,NA,"",   3.99675E+06,   3.89541E+06,   3.89541E+06
C:/temp/Job-4.odb,Step-1,Increment      1: Step Time =    1.000,"P-4-1",           824,       31.2780,       26.5963,            0.,NA,NA,"",   1.35025E+06,   1.20089E+06,   1.20089E+06
C:/temp/Job-4.odb,Step-1,Increment      1: Step Time =    1.000,"P-4-1",           825,       169.972,       27.0309,            0.,NA,NA,"",   2.64125E+06,   2.62432E+06,   2.62432E+06
C:/temp/Job-4.odb,Step-1,Increment      1: Step Time =    1.000,"P-4-1",           826,       37.9627,       16.1661,            0.,NA,NA,"",   4.18490E+06,   4.06294E+06,   4.06294E+06
C:/temp/Job-4.odb,Step-1,Increment      1: Step Time =    1.000,"P-4-1",           827,       161.761,       20.3757,            0.,NA,NA,"",   2.64682E+06,   2.62612E+06,   2.62612E+06
C:/temp/Job-4.odb,Step-1,Increment      1: Step Time =    1.000,"P-4-1",           828,       175.006,       48.4758,            0.,NA,NA,"",   3.16073E+06,   2.88367E+06,   2.88367E+06
C:/temp/Job-4.odb,Step-1,Increment      1: Step Time =    1.000,"P-4-1",           829,       178.046,       36.6740,            0.,NA,NA,"",   2.56593E+06,   2.43663E+06,   2.43663E+06
C:/temp/Job-4.odb,Step-1,Increment      1: Step Time =    1.000,"P-4-1",           830,       38.3306,       178.028,            0.,NA,NA,"",   2.29598E+06,   2.00075E+06,   2.00075E+06
C:/temp/Job-4.odb,Step-1,Increment      1: Step Time =    1.000,"P-4-1",           831,       176.574,       164.891,            0.,NA,NA,"",   2.62952E+06,   2.53411E+06,   2.53411E+06
C:/temp/Job-4.odb,Step-1,Increment      1: Step Time =    1.000,"P-4-1",           832,       23.5174,       161.173,            0.,NA,NA,"",   1.13950E+06,  -1.02087E+06,  -1.02087E+06
C:/temp/Job-4.odb,Step-1,Increment      1: Step Time =    1.000,"P-4-1",           833,       154.655,       8.45727,            0.,NA,NA,"",   1.31410E+06,   8.89138E+03,   8.89138E+03
C:/temp/Job-4.odb,Step-1,Increment      1: Step Time =    1.000,"P-4-1",           834,       189.771,       154.655,            0.,NA,NA,"",   2.15119E+06,   1.97950E+06,   1.97950E+06
C:/temp/Job-4.odb,Step-1,Increment      1: Step Time =    1.000,"P-4-1",           835,       45.2031,       190.294,            0.,NA,NA,"",   6.31586E+06,   6.20218E+06,   6.20218E+06
C:/temp/Job-4.odb,Step-1,Increment      1: Step Time =    1.000,"P-4-1",           836,       8.86397,       45.2769,            0.,NA,NA,"",   1.03601E+06,  -881.571E+03,  -881.571E+03
C:/temp/Job-4.odb,Step-1,Increment      1: Step Time =    1.000,"P-4-1",           837,       27.8793,       28.7570,            0.,NA,NA,"",    900.57E+03,   813.215E+03,   813.215E+03
C:/temp/Job-4.odb,Step-1,Increment      1: Step Time =    1.000,"P-4-1",           838,       26.7703,       36.9895,            0.,NA,NA,"",   1.12611E+06,  -1.06530E+06,  -1.06530E+06
C:/temp/Job-4.odb,Step-1,Increment      1: Step Time =    1.000,"P-4-1",           839,       165.160,       179.931,            0.,NA,NA,"",   2.43398E+06,   2.37549E+06,   2.37549E+06
C:/temp/Job-4.odb,Step-1,Increment      1: Step Time =    1.000,"P-4-1",           840,       17.9879,       159.822,            0.,NA,NA,"",   981.778E+03,  -570.815E+03,  -570.815E+03
C:/temp/Job-4.odb,Step-1,Increment      1: Step Time =    1.000,"P-4-1",           841,       13.4005,       45.3516,            0.,NA,NA,"",   1.28104E+06,  -1.10040E+06,  -1.10040E+06
C:/temp/Job-4.odb,Step-1,Increment      1: Step Time =    1.000,"P-4-1",           842,       184.090,       157.778,            0.,NA,NA,"",   2.47759E+06,   2.25490E+06,   2.25490E+06
C:/temp/Job-4.odb,Step-1,Increment      1: Step Time =    1.000,"P-4-1",           843,       44.6636,       185.578,            0.,NA,NA,"",   4.63793E+06,   4.44206E+06,   4.44206E+06
C:/temp/Job-4.odb,Step-1,Increment      1: Step Time =    1.000,"P-4-1",           844,       181.873,       153.102,            0.,NA,NA,"",   3.00491E+06,   2.65505E+06,   2.65505E+06
C:/temp/Job-4.odb,Step-1,Increment      1: Step Time =    1.000,"P-4-1",           845,       38.9500,       182.236,            0.,NA,NA,"",   3.64529E+06,   3.47482E+06,   3.47482E+06
C:/temp/Job-4.odb,Step-1,Increment      1: Step Time =    1.000,"P-4-1",           846,       183.058,       42.4943,            0.,NA,NA,"",   2.60191E+06,   2.35319E+06,   2.35319E+06
C:/temp/Job-4.odb,Step-1,Increment      1: Step Time =    1.000,"P-4-1",           847,       181.206,       164.312,            0.,NA,NA,"",   2.28005E+06,   2.14473E+06,   2.14473E+06
C:/temp/Job-4.odb,Step-1,Increment      1: Step Time =    1.000,"P-4-1",           848,       14.1166,       169.879,            0.,NA,NA,"",   987.656E+03,   1.11829E+06,   1.11829E+06
C:/temp/Job-4.odb,Step-1,Increment      1: Step Time =    1.000,"P-4-1",           849,       168.059,       14.6029,            0.,NA,NA,"",   1.69988E+06,   1.52052E+06,   1.52052E+06
C:/temp/Job-4.odb,Step-1,Increment      1: Step Time =    1.000,"P-4-1",           850,       28.9314,       17.8573,            0.,NA,NA,"",   3.76519E+06,   3.74637E+06,   3.74637E+06
C:/temp/Job-4.odb,Step-1,Increment      1: Step Time =    1.000,"P-4-1",           851,       18.8858,       31.2264,            0.,NA,NA,"",   737.471E+03,   829.262E+03,   829.262E+03
C:/temp/Job-4.odb,Step-1,Increment      1: Step Time =    1.000,"P-4-1",           852,       183.227,       170.319,            0.,NA,NA,"",   1.82706E+06,   1.72195E+06,   1.72195E+06
C:/temp/Job-4.odb,Step-1,Increment      1: Step Time =    1.000,"P-4-1",           853,       168.202,       183.551,            0.,NA,NA,"",   1.91453E+06,   1.77114E+06,   1.77114E+06
C:/temp/Job-4.odb,Step-1,Increment      1: Step Time =    1.000,"P-4-1",           854,       31.4950,       184.274,            0.,NA,NA,"",   4.35304E+06,   4.29344E+06,   4.29344E+06
C:/temp/Job-4.odb,Step-1,Increment      1: Step Time =    1.000,"P-4-1",           855,       185.863,       30.5773,            0.,NA,NA,"",   1.69340E+06,   1.56462E+06,   1.56462E+06
C:/temp/Job-4.odb,Step-1,Increment      1: Step Time =    1.000,"P-4-1",           856,       158.226,       13.5484,            0.,NA,NA,"",   1.79662E+06,   1.62488E+06,   1.62488E+06
C:/temp/Job-4.odb,Step-1,Increment      1: Step Time =    1.000,"P-4-1",           857,       174.578,       32.9240,            0.,NA,NA,"",   2.64031E+06,   2.58670E+06,   2.58670E+06
C:/temp/Job-4.odb,Step-1,Increment      1: Step Time =    1.000,"P-4-1",           858,       156.766,       184.936,            0.,NA,NA,"",   2.18354E+06,   2.06903E+06,   2.06903E+06
C:/temp/Job-4.odb,Step-1,Increment      1: Step Time =    1.000,"P-4-1",           859,       22.0921,       35.2562,            0.,NA,NA,"",   649.440E+03,  -177.016E+03,  -177.016E+03
C:/temp/Job-4.odb,Step-1,Increment      1: Step Time =    1.000,"P-4-1",           860,       18.3951,       154.068,            0.,NA,NA,"",   1.63170E+06,  -1.49112E+06,  -1.49112E+06
C:/temp/Job-4.odb,Step-1,Increment      1: Step Time =    1.000,"P-4-1",           861,       174.803,       28.0810,            0.,NA,NA,"",   2.34489E+06,   2.29111E+06,   2.29111E+06
C:/temp/Job-4.odb,Step-1,Increment      1: Step Time =    1.000,"P-4-1",           862,       27.9897,       23.4001,            0.,NA,NA,"",   2.27380E+06,   2.27106E+06,   2.27106E+06
C:/temp/Job-4.odb,Step-1,Increment      1: Step Time =    1.000,"P-4-1",           863,       48.8850,       8.99560,            0.,NA,NA,"",   6.56840E+06,   6.43761E+06,   6.43761E+06
C:/temp/Job-4.odb,Step-1,Increment      1: Step Time =    1.000,"P-4-1",           864,       152.396,       187.334,            0.,NA,NA,"",   1.95096E+06,   1.77979E+06,   1.77979E+06
C:/temp/Job-4.odb,Step-1,Increment      1: Step Time =    1.000,"P-4-1",           865,       171.732,       37.3203,            0.,NA,NA,"",   3.09765E+06,   3.04823E+06,   3.04823E+06
C:/temp/Job-4.odb,Step-1,Increment      1: Step Time =    1.000,"P-4-1",           866,       25.0416,       19.7291,            0.,NA,NA,"",   3.29346E+06,   3.33008E+06,   3.33008E+06
C:/temp/Job-4.odb,Step-1,Increment      1: Step Time =    1.000,"P-4-1",           867,       24.6145,       25.7302,            0.,NA,NA,"",   1.67718E+06,   1.72212E+06,   1.72212E+06
C:/temp/Job-4.odb,Step-1,Increment      1: Step Time =    1.000,"P-4-1",           868,       175.736,       24.4083,            0.,NA,NA,"",   2.07974E+06,   1.99662E+06,   1.99662E+06
C:/temp/Job-4.odb,Step-1,Increment      1: Step Time =    1.000,"P-4-1",           869,       16.0175,       161.969,            0.,NA,NA,"",   657.423E+03,   61.6995E+03,   61.6995E+03
C:/temp/Job-4.odb,Step-1,Increment      1: Step Time =    1.000,"P-4-1",           870,       14.3959,       156.936,            0.,NA,NA,"",   1.15384E+06,  -944.312E+03,  -944.312E+03
C:/temp/Job-4.odb,Step-1,Increment      1: Step Time =    1.000,"P-4-1",           871,       184.812,       150.753,            0.,NA,NA,"",   2.93267E+06,   2.57265E+06,   2.57265E+06
C:/temp/Job-4.odb,Step-1,Increment      1: Step Time =    1.000,"P-4-1",           872,       43.1842,       181.506,            0.,NA,NA,"",   3.25853E+06,   2.96494E+06,   2.96494E+06
C:/temp/Job-4.odb,Step-1,Increment      1: Step Time =    1.000,"P-4-1",           873,       182.658,       160.482,            0.,NA,NA,"",   2.39594E+06,   2.20530E+06,   2.20530E+06
C:/temp/Job-4.odb,Step-1,Increment      1: Step Time =    1.000,"P-4-1",           874,       26.9119,       13.7750,            0.,NA,NA,"",   4.96935E+06,   4.96995E+06,   4.96995E+06
C:/temp/Job-4.odb,Step-1,Increment      1: Step Time =    1.000,"P-4-1",           875,       14.8012,       174.469,            0.,NA,NA,"",   1.88028E+06,   2.05337E+06,   2.05337E+06
C:/temp/Job-4.odb,Step-1,Increment      1: Step Time =    1.000,"P-4-1",           876,       173.528,       14.8125,            0.,NA,NA,"",   1.55476E+06,   1.37875E+06,   1.37875E+06
C:/temp/Job-4.odb,Step-1,Increment      1: Step Time =    1.000,"P-4-1",           877,       15.0556,       28.4574,            0.,NA,NA,"",   1.30801E+06,   1.46488E+06,   1.46488E+06
C:/temp/Job-4.odb,Step-1,Increment      1: Step Time =    1.000,"P-4-1",           878,       186.199,       174.449,            0.,NA,NA,"",   1.58240E+06,   1.42659E+06,   1.42659E+06
C:/temp/Job-4.odb,Step-1,Increment      1: Step Time =    1.000,"P-4-1",           879,       26.8222,       186.351,            0.,NA,NA,"",   4.98731E+06,   4.98545E+06,   4.98545E+06
C:/temp/Job-4.odb,Step-1,Increment      1: Step Time =    1.000,"P-4-1",           880,       185.315,       26.5795,            0.,NA,NA,"",   1.61396E+06,   1.47993E+06,   1.47993E+06
C:/temp/Job-4.odb,Step-1,Increment      1: Step Time =    1.000,"P-4-1",           881,       182.121,       35.1602,            0.,NA,NA,"",   2.19804E+06,   2.07096E+06,   2.07096E+06
C:/temp/Job-4.odb,Step-1,Increment      1: Step Time =    1.000,"P-4-1",           882,       153.412,       15.3936,            0.,NA,NA,"",   2.33680E+06,   2.27252E+06,   2.27252E+06
C:/temp/Job-4.odb,Step-1,Increment      1: Step Time =    1.000,"P-4-1",           883,       13.2434,       40.7722,            0.,NA,NA,"",   857.652E+03,  -238.280E+03,  -238.280E+03
C:/temp/Job-4.odb,Step-1,Increment      1: Step Time =    1.000,"P-4-1",           884,       21.8412,       151.316,            0.,NA,NA,"",   2.06867E+06,  -2.00495E+06,  -2.00495E+06
C:/temp/Job-4.odb,Step-1,Increment      1: Step Time =    1.000,"P-4-1",           885,       182.200,       46.0316,            0.,NA,NA,"",   2.93184E+06,   2.58896E+06,   2.58896E+06
C:/temp/Job-4.odb,Step-1,Increment      1: Step Time =    1.000,"P-4-1",           886,       174.892,       176.115,            0.,NA,NA,"",   2.07063E+06,   1.98919E+06,   1.98919E+06
C:/temp/Job-4.odb,Step-1,Increment      1: Step Time =    1.000,"P-4-1",           887,       172.652,       19.1837,            0.,NA,NA,"",   1.89253E+06,   1.76494E+06,   1.76494E+06
C:/temp/Job-4.odb,Step-1,Increment      1: Step Time =    1.000,"P-4-1",           888,       21.5182,       28.4614,            0.,NA,NA,"",   1.11861E+06,   1.20576E+06,   1.20576E+06
C:/temp/Job-4.odb,Step-1,Increment      1: Step Time =    1.000,"P-4-1",           889,       186.115,       47.7452,            0.,NA,NA,"",   2.76568E+06,   2.45412E+06,   2.45412E+06
C:/temp/Job-4.odb,Step-1,Increment      1: Step Time =    1.000,"P-4-1",           890,       17.9211,       50.0559,            0.,NA,NA,"",   1.85103E+06,  -1.76139E+06,  -1.76139E+06
C:/temp/Job-4.odb,Step-1,Increment      1: Step Time =    1.000,"P-4-1",           891,       39.1066,       12.2082,            0.,NA,NA,"",   5.40560E+06,   5.31674E+06,   5.31674E+06
C:/temp/Job-4.odb,Step-1,Increment      1: Step Time =    1.000,"P-4-1",           892,       178.972,       165.876,            0.,NA,NA,"",   2.36931E+06,   2.26452E+06,   2.26452E+06
C:/temp/Job-4.odb,Step-1,Increment      1: Step Time =    1.000,"P-4-1",           893,       18.1336,       45.3849,            0.,NA,NA,"",   1.55632E+06,  -1.41815E+06,  -1.41815E+06
C:/temp/Job-4.odb,Step-1,Increment      1: Step Time =    1.000,"P-4-1",           894,       13.0564,       161.349,            0.,NA,NA,"",   648.749E+03,  -78.0902E+03,  -78.0902E+03
C:/temp/Job-4.odb,Step-1,Increment      1: Step Time =    1.000,"P-4-1",           895,       174.115,       10.0444,            0.,NA,NA,"",   1.16118E+06,   938.788E+03,   938.788E+03
C:/temp/Job-4.odb,Step-1,Increment      1: Step Time =    1.000,"P-4-1",           896,       19.4048,       168.777,            0.,NA,NA,"",   715.997E+03,   786.198E+03,   786.198E+03
C:/temp/Job-4.odb,Step-1,Increment      1: Step Time =    1.000,"P-4-1",           897,       9.35182,       31.1930,            0.,NA,NA,"",   903.644E+03,   1.02104E+06,   1.02104E+06
C:/temp/Job-4.odb,Step-1,Increment      1: Step Time =    1.000,"P-4-1",           898,       182.714,       173.144,            0.,NA,NA,"",   1.77139E+06,   1.66187E+06,   1.66187E+06
C:/temp/Job-4.odb,Step-1,Increment      1: Step Time =    1.000,"P-4-1",           899,       190.529,       174.955,            0.,NA,NA,"",   1.47114E+06,   1.22818E+06,   1.22818E+06
C:/temp/Job-4.odb,Step-1,Increment      1: Step Time =    1.000,"P-4-1",           900,       29.0376,       182.513,            0.,NA,NA,"",   3.86764E+06,   3.84007E+06,   3.84007E+06
C:/temp/Job-4.odb,Step-1,Increment      1: Step Time =    1.000,"P-4-1",           901,       25.7783,       190.692,            0.,NA,NA,"",   6.19479E+06,   6.18963E+06,   6.18963E+06
C:/temp/Job-4.odb,Step-1,Increment      1: Step Time =    1.000,"P-4-1",           902,       179.739,       26.6972,            0.,NA,NA,"",   1.94431E+06,   1.85506E+06,   1.85506E+06
C:/temp/Job-4.odb,Step-1,Increment      1: Step Time =    1.000,"P-4-1",           903,       177.814,       173.046,            0.,NA,NA,"",   2.06429E+06,   1.98671E+06,   1.98671E+06
C:/temp/Job-4.odb,Step-1,Increment      1: Step Time =    1.000,"P-4-1",           904,       190.470,       49.1638,            0.,NA,NA,"",   2.34389E+06,   2.19164E+06,   2.19164E+06
C:/temp/Job-4.odb,Step-1,Increment      1: Step Time =    1.000,"P-4-1",           905,       24.7956,       155.172,            0.,NA,NA,"",   2.04028E+06,  -1.99474E+06,  -1.99474E+06
C:/temp/Job-4.odb,Step-1,Increment      1: Step Time =    1.000,"P-4-1",           906,       174.686,       180.313,            0.,NA,NA,"",   1.85552E+06,   1.73328E+06,   1.73328E+06
C:/temp/Job-4.odb,Step-1,Increment      1: Step Time =    1.000,"P-4-1",           907,       179.400,       15.4843,            0.,NA,NA,"",   1.45855E+06,   1.29216E+06,   1.29216E+06
C:/temp/Job-4.odb,Step-1,Increment      1: Step Time =    1.000,"P-4-1",           908,       17.5401,       24.9713,            0.,NA,NA,"",   2.01076E+06,   2.16169E+06,   2.16169E+06
C:/temp/Job-4.odb,Step-1,Increment      1: Step Time =    1.000,"P-4-1",           909,       171.639,       23.2407,            0.,NA,NA,"",   2.25530E+06,   2.18050E+06,   2.18050E+06
C:/temp/Job-4.odb,Step-1,Increment      1: Step Time =    1.000,"P-4-1",           910,       184.336,       179.222,            0.,NA,NA,"",   1.54131E+06,   1.37432E+06,   1.37432E+06
C:/temp/Job-4.odb,Step-1,Increment      1: Step Time =    1.000,"P-4-1",           911,       21.9885,       184.300,            0.,NA,NA,"",   4.38548E+06,   4.43528E+06,   4.43528E+06
C:/temp/Job-4.odb,Step-1,Increment      1: Step Time =    1.000,"P-4-1",           912,       185.057,       23.1111,            0.,NA,NA,"",   1.57623E+06,   1.42867E+06,   1.42867E+06
C:/temp/Job-4.odb,Step-1,Increment      1: Step Time =    1.000,"P-4-1",           913,       28.4751,       152.676,            0.,NA,NA,"",   2.73775E+06,  -2.75671E+06,  -2.75671E+06
C:/temp/Job-4.odb,Step-1,Increment      1: Step Time =    1.000,"P-4-1",           914,       172.380,       172.469,            0.,NA,NA,"",   2.47831E+06,   2.43191E+06,   2.43191E+06
C:/temp/Job-4.odb,Step-1,Increment      1: Step Time =    1.000,"P-4-1",           915,       17.9460,       17.9277,            0.,NA,NA,"",   3.80162E+06,   3.92159E+06,   3.92159E+06
C:/temp/Job-4.odb,Step-1,Increment      1: Step Time =    1.000,"P-4-1",           916,       179.388,       184.893,            0.,NA,NA,"",   1.45362E+06,   1.27256E+06,   1.27256E+06
C:/temp/Job-4.odb,Step-1,Increment      1: Step Time =    1.000,"P-4-1",           917,       184.422,       14.5143,            0.,NA,NA,"",   1.33774E+06,   1.16152E+06,   1.16152E+06
C:/temp/Job-4.odb,Step-1,Increment      1: Step Time =    1.000,"P-4-1",           918,       23.4843,       45.4720,            0.,NA,NA,"",   1.97338E+06,  -1.91090E+06,  -1.91090E+06
C:/temp/Job-4.odb,Step-1,Increment      1: Step Time =    1.000,"P-4-1",           919,       180.529,       171.166,            0.,NA,NA,"",   1.98569E+06,   1.89747E+06,   1.89747E+06
C:/temp/Job-4.odb,Step-1,Increment      1: Step Time =    1.000,"P-4-1",           920,       27.8780,       177.182,            0.,NA,NA,"",   2.33788E+06,   2.32711E+06,   2.32711E+06
C:/temp/Job-4.odb,Step-1,Increment      1: Step Time =    1.000,"P-4-1",           921,       24.3113,       172.941,            0.,NA,NA,"",   1.41321E+06,   1.46912E+06,   1.46912E+06
C:/temp/Job-4.odb,Step-1,Increment      1: Step Time =    1.000,"P-4-1",           922,       183.525,       18.1563,            0.,NA,NA,"",   1.49360E+06,   1.32459E+06,   1.32459E+06
C:/temp/Job-4.odb,Step-1,Increment      1: Step Time =    1.000,"P-4-1",           923,       15.5074,       179.431,            0.,NA,NA,"",   3.05903E+06,   3.22634E+06,   3.22634E+06
C:/temp/Job-4.odb,Step-1,Increment      1: Step Time =    1.000,"P-4-1",           924,       15.8501,       184.485,            0.,NA,NA,"",   4.42090E+06,   4.54424E+06,   4.54424E+06
C:/temp/Job-4.odb,Step-1,Increment      1: Step Time =    1.000,"P-4-1",           925,       184.645,       184.636,            0.,NA,NA,"",   1.36065E+06,   1.17766E+06,   1.17766E+06
C:/temp/Job-4.odb,Step-1,Increment      1: Step Time =    1.000,"P-4-1",           926,       11.0103,       14.9104,            0.,NA,NA,"",   4.46967E+06,   4.68540E+06,   4.68540E+06
C:/temp/Job-4.odb,Step-1,Increment      1: Step Time =    1.000,"P-4-1",           927,       184.743,       189.697,            0.,NA,NA,"",   1.12140E+06,   964.855E+03,   964.855E+03
C:/temp/Job-4.odb,Step-1,Increment      1: Step Time =    1.000,"P-4-1",           928,       184.530,       9.99149,            0.,NA,NA,"",   1.10299E+06,   955.124E+03,   955.124E+03
C:/temp/Job-4.odb,Step-1,Increment      1: Step Time =    1.000,"P-4-1",           929,       24.5724,       169.044,            0.,NA,NA,"",   720.950E+03,   516.438E+03,   516.438E+03
C:/temp/Job-4.odb,Step-1,Increment      1: Step Time =    1.000,"P-4-1",           930,       175.371,       169.262,            0.,NA,NA,"",   2.45584E+06,   2.39123E+06,   2.39123E+06
C:/temp/Job-4.odb,Step-1,Increment      1: Step Time =    1.000,"P-4-1",           931,       15.6208,       189.679,            0.,NA,NA,"",   5.78424E+06,   5.84604E+06,   5.84604E+06
C:/temp/Job-4.odb,Step-1,Increment      1: Step Time =    1.000,"P-4-1",           932,       189.848,       184.734,            0.,NA,NA,"",   1.30182E+06,   1.09814E+06,   1.09814E+06
C:/temp/Job-4.odb,Step-1,Increment      1: Step Time =    1.000,"P-4-1",           933,       15.8391,       13.5391,            0.,NA,NA,"",   4.94066E+06,   5.02778E+06,   5.02778E+06
C:/temp/Job-4.odb,Step-1,Increment      1: Step Time =    1.000,"P-4-1",           934,       28.8167,       173.196,            0.,NA,NA,"",   1.31681E+06,   1.26520E+06,   1.26520E+06
C:/temp/Job-4.odb,Step-1,Increment      1: Step Time =    1.000,"P-4-1",           935,       179.112,       180.664,            0.,NA,NA,"",   1.67255E+06,   1.52208E+06,   1.52208E+06
C:/temp/Job-4.odb,Step-1,Increment      1: Step Time =    1.000,"P-4-1",           936,       189.432,       15.0444,            0.,NA,NA,"",   1.29471E+06,   1.09861E+06,   1.09861E+06
C:/temp/Job-4.odb,Step-1,Increment      1: Step Time =    1.000,"P-4-1",           937,       15.0783,       9.54739,            0.,NA,NA,"",   5.98250E+06,   6.02645E+06,   6.02645E+06
C:/temp/Job-4.odb,Step-1,Increment      1: Step Time =    1.000,"P-4-1",           938,       10.3377,       184.719,            0.,NA,NA,"",   4.31876E+06,   4.55216E+06,   4.55216E+06
C:/temp/Job-4.odb,Step-1,Increment      1: Step Time =    1.000,"P-4-1",           939,       22.4495,       15.4891,            0.,NA,NA,"",   4.46556E+06,   4.51406E+06,   4.51406E+06
C:/temp/Job-4.odb,Step-1,Increment      1: Step Time =    1.000,"P-4-1",           940,       179.892,       156.663,            0.,NA,NA,"",   2.89843E+06,   2.63636E+06,   2.63636E+06
C:/temp/Job-4.odb,Step-1,Increment      1: Step Time =    1.000,"P-4-1",           941,       58.1655,       9.07303,            0.,NA,NA,"",   6.29931E+06,   6.07933E+06,   6.07933E+06
C:/temp/Job-4.odb,Step-1,Increment      1: Step Time =    1.000,"P-4-1",           942,       191.439,       59.6789,            0.,NA,NA,"",   3.13759E+06,   3.03979E+06,   3.03979E+06
C:/temp/Job-4.odb,Step-1,Increment      1: Step Time =    1.000,"P-4-1",           943,       50.3450,       183.636,            0.,NA,NA,"",   3.90094E+06,   3.48221E+06,   3.48221E+06
C:/temp/Job-4.odb,Step-1,Increment      1: Step Time =    1.000,"P-4-1",           944,       25.5533,       9.37894,            0.,NA,NA,"",   6.16036E+06,   6.16419E+06,   6.16419E+06
C:/temp/Job-4.odb,Step-1,Increment      1: Step Time =    1.000,"P-4-1",           945,       9.72475,       174.916,            0.,NA,NA,"",   2.03029E+06,   2.25461E+06,   2.25461E+06
C:/temp/Job-4.odb,Step-1,Increment      1: Step Time =    1.000,"P-4-1",           946,       190.077,       25.5748,            0.,NA,NA,"",   1.46077E+06,   1.24009E+06,   1.24009E+06
C:/temp/Job-4.odb,Step-1,Increment      1: Step Time =    1.000,"P-4-1",           947,       174.152,       189.470,            0.,NA,NA,"",   1.23415E+06,   1.00571E+06,   1.00571E+06
C:/temp/Job-4.odb,Step-1,Increment      1: Step Time =    1.000,"P-4-1",           948,       67.8968,       187.103,            0.,NA,NA,"",   5.18955E+06,   4.59679E+06,   4.59679E+06
C:/temp/Job-4.odb,Step-1,Increment      1: Step Time =    1.000,"P-4-1",           949,       111.280,       10.0519,            0.,NA,NA,"",   4.74395E+06,   4.72209E+06,   4.72209E+06
C:/temp/Job-4.odb,Step-1,Increment      1: Step Time =    1.000,"P-4-1",           950,       22.2784,       144.540,            0.,NA,NA,"",   2.30387E+06,  -2.29571E+06,  -2.29571E+06
C:/temp/Job-4.odb,Step-1,Increment      1: Step Time =    1.000,"P-4-1",           951,       176.038,       136.170,            0.,NA,NA,"",   1.89870E+06,   22.1131E+03,   22.1131E+03
C:/temp/Job-4.odb,Step-1,Increment      1: Step Time =    1.000,"P-4-1",           952,       142.372,       189.690,            0.,NA,NA,"",   1.67416E+06,   1.04918E+06,   1.04918E+06
C:/temp/Job-4.odb,Step-1,Increment      1: Step Time =    1.000,"P-4-1",           953,       9.88498,       142.536,            0.,NA,NA,"",   1.57825E+06,  -1.53688E+06,  -1.53688E+06
C:/temp/Job-4.odb,Step-1,Increment      1: Step Time =    1.000,"P-4-1",           954,       9.77818,       152.052,            0.,NA,NA,"",   1.30110E+06,  -1.16862E+06,  -1.16862E+06
C:/temp/Job-4.odb,Step-1,Increment      1: Step Time =    1.000,"P-4-1",           955,       150.994,       192.309,            0.,NA,NA,"",   1.57577E+06,  -519.882E+03,  -519.882E+03
C:/temp/Job-4.odb,Step-1,Increment      1: Step Time =    1.000,"P-4-1",           956,       5.09238,       5.01423,            0.,NA,NA,"",   6.73517E+06,   6.99480E+06,   6.99480E+06
C:/temp/Job-4.odb,Step-1,Increment      1: Step Time =    1.000,"P-4-1",           957,       195.227,       170.015,            0.,NA,NA,"",   1.53529E+06,   1.11270E+06,   1.11270E+06
C:/temp/Job-4.odb,Step-1,Increment      1: Step Time =    1.000,"P-4-1",           958,       195.014,       164.971,            0.,NA,NA,"",   1.51274E+06,   1.17169E+06,   1.17169E+06
C:/temp/Job-4.odb,Step-1,Increment      1: Step Time =    1.000,"P-4-1",           959,       30.2474,       195.526,            0.,NA,NA,"",   7.75502E+06,   7.74384E+06,   7.74384E+06
C:/temp/Job-4.odb,Step-1,Increment      1: Step Time =    1.000,"P-4-1",           960,       35.2171,       195.543,            0.,NA,NA,"",   7.99054E+06,   7.98086E+06,   7.98086E+06
C:/temp/Job-4.odb,Step-1,Increment      1: Step Time =    1.000,"P-4-1",           961,       64.0018,       23.4934,            0.,NA,NA,"",   3.02827E+06,  -2.53430E+06,  -2.53430E+06
C:/temp/Job-4.odb,Step-1,Increment      1: Step Time =    1.000,"P-4-1",           962,       59.9740,       23.7678,            0.,NA,NA,"",   2.98846E+06,  -1.72788E+06,  -1.72788E+06
C:/temp/Job-4.odb,Step-1,Increment      1: Step Time =    1.000,"P-4-1",           963,       44.1874,       8.58486,            0.,NA,NA,"",   6.69890E+06,   6.61622E+06,   6.61622E+06
C:/temp/Job-4.odb,Step-1,Increment      1: Step Time =    1.000,"P-4-1",           964,       10.5207,       26.3512,            0.,NA,NA,"",   1.75519E+06,   1.95420E+06,   1.95420E+06
C:/temp/Job-4.odb,Step-1,Increment      1: Step Time =    1.000,"P-4-1",           965,       8.93211,       50.0857,            0.,NA,NA,"",   1.33715E+06,  -1.23558E+06,  -1.23558E+06
C:/temp/Job-4.odb,Step-1,Increment      1: Step Time =    1.000,"P-4-1",           966,       149.882,       8.33470,            0.,NA,NA,"",   1.40775E+06,  -77.0222E+03,  -77.0222E+03
C:/temp/Job-4.odb,Step-1,Increment      1: Step Time =    1.000,"P-4-1",           967,       138.431,       20.9430,            0.,NA,NA,"",   7.26190E+06,   7.46132E+06,   7.46132E+06
C:/temp/Job-4.odb,Step-1,Increment      1: Step Time =    1.000,"P-4-1",           968,       150.664,       27.0664,            0.,NA,NA,"",   5.72158E+06,   5.90274E+06,   5.90274E+06
C:/temp/Job-4.odb,Step-1,Increment      1: Step Time =    1.000,"P-4-1",           969,       191.083,       44.0769,            0.,NA,NA,"",   1.91130E+06,   1.77882E+06,   1.77882E+06
C:/temp/Job-4.odb,Step-1,Increment      1: Step Time =    1.000,"P-4-1",           970,       154.326,       191.351,            0.,NA,NA,"",   1.54595E+06,   25.8490E+03,   25.8490E+03
C:/temp/Job-4.odb,Step-1,Increment      1: Step Time =    1.000,"P-4-1",           971,       8.94274,       160.886,            0.,NA,NA,"",   567.606E+03,  -54.0870E+03,  -54.0870E+03
C:/temp/Job-4.odb,Step-1,Increment      1: Step Time =    1.000,"P-4-1",           972,       145.424,       12.5698,            0.,NA,NA,"",   2.07925E+06,   2.01889E+06,   2.01889E+06
C:/temp/Job-4.odb,Step-1,Increment      1: Step Time =    1.000,"P-4-1",           973,       14.7173,       79.2168,            0.,NA,NA,"",   1.00021E+06,  -1.03808E+06,  -1.03808E+06
C:/temp/Job-4.odb,Step-1,Increment      1: Step Time =    1.000,"P-4-1",           974,       145.416,       186.365,            0.,NA,NA,"",   2.52808E+06,   2.55144E+06,   2.55144E+06
C:/temp/Job-4.odb,Step-1,Increment      1: Step Time =    1.000,"P-4-1",           975,       95.5016,       190.813,            0.,NA,NA,"",   5.53405E+06,   5.18282E+06,   5.18282E+06
C:/temp/Job-4.odb,Step-1,Increment      1: Step Time =    1.000,"P-4-1",           976,       18.5266,       63.7468,            0.,NA,NA,"",   1.85529E+06,  -1.86474E+06,  -1.86474E+06
C:/temp/Job-4.odb,Step-1,Increment      1: Step Time =    1.000,"P-4-1",           977,       112.752,       187.453,            0.,NA,NA,"",   7.01024E+06,   7.18236E+06,   7.18236E+06
C:/temp/Job-4.odb,Step-1,Increment      1: Step Time =    1.000,"P-4-1",           978,       13.7245,       55.0900,            0.,NA,NA,"",   1.73291E+06,  -1.66229E+06,  -1.66229E+06
C:/temp/Job-4.odb,Step-1,Increment      1: Step Time =    1.000,"P-4-1",           979,       57.2814,       12.6130,            0.,NA,NA,"",   5.13665E+06,   4.77883E+06,   4.77883E+06
C:/temp/Job-4.odb,Step-1,Increment      1: Step Time =    1.000,"P-4-1",           980,       39.7604,       186.518,            0.,NA,NA,"",   5.05890E+06,   4.95406E+06,   4.95406E+06
C:/temp/Job-4.odb,Step-1,Increment      1: Step Time =    1.000,"P-4-1",           981,       184.686,       162.902,            0.,NA,NA,"",   2.11012E+06,   1.95205E+06,   1.95205E+06
C:/temp/Job-4.odb,Step-1,Increment      1: Step Time =    1.000,"P-4-1",           982,       11.7409,       76.5495,            0.,NA,NA,"",   1.02587E+06,  -1.06603E+06,  -1.06603E+06
C:/temp/Job-4.odb,Step-1,Increment      1: Step Time =    1.000,"P-4-1",           983,       8.47833,       114.516,            0.,NA,NA,"",   676.554E+03,  -722.809E+03,  -722.809E+03
C:/temp/Job-4.odb,Step-1,Increment      1: Step Time =    1.000,"P-4-1",           984,       144.164,       182.429,            0.,NA,NA,"",   4.16369E+06,   4.32245E+06,   4.32245E+06
C:/temp/Job-4.odb,Step-1,Increment      1: Step Time =    1.000,"P-4-1",           985,       34.8758,       30.7272,            0.,NA,NA,"",   1.17951E+06,  -562.736E+03,  -562.736E+03
C:/temp/Job-4.odb,Step-1,Increment      1: Step Time =    1.000,"P-4-1",           986,       127.500,       186.721,            0.,NA,NA,"",   4.80605E+06,   5.06058E+06,   5.06058E+06
C:/temp/Job-4.odb,Step-1,Increment      1: Step Time =    1.000,"P-4-1",           987,       185.838,       132.312,            0.,NA,NA,"",   3.49413E+06,   2.62331E+06,   2.62331E+06
C:/temp/Job-4.odb,Step-1,Increment      1: Step Time =    1.000,"P-4-1",           988,       15.4823,       133.013,            0.,NA,NA,"",   1.54112E+06,  -1.55882E+06,  -1.55882E+06
C:/temp/Job-4.odb,Step-1,Increment      1: Step Time =    1.000,"P-4-1",           989,       13.2709,       153.143,            0.,NA,NA,"",   1.40896E+06,  -1.24708E+06,  -1.24708E+06
C:/temp/Job-4.odb,Step-1,Increment      1: Step Time =    1.000,"P-4-1",           990,       43.3807,       12.9580,            0.,NA,NA,"",   5.13837E+06,   4.99576E+06,   4.99576E+06
C:/temp/Job-4.odb,Step-1,Increment      1: Step Time =    1.000,"P-4-1",           991,       14.8039,       61.4560,            0.,NA,NA,"",   1.74229E+06,  -1.72489E+06,  -1.72489E+06
C:/temp/Job-4.odb,Step-1,Increment      1: Step Time =    1.000,"P-4-1",           992,       31.1128,       12.5250,            0.,NA,NA,"",   5.33268E+06,   5.30253E+06,   5.30253E+06
C:/temp/Job-4.odb,Step-1,Increment      1: Step Time =    1.000,"P-4-1",           993,       186.438,       145.105,            0.,NA,NA,"",   3.20385E+06,   2.75389E+06,   2.75389E+06
C:/temp/Job-4.odb,Step-1,Increment      1: Step Time =    1.000,"P-4-1",           994,       149.427,       21.5668,            0.,NA,NA,"",   4.51580E+06,   4.64978E+06,   4.64978E+06
C:/temp/Job-4.odb,Step-1,Increment      1: Step Time =    1.000,"P-4-1",           995,       167.624,       18.9678,            0.,NA,NA,"",   2.11972E+06,   2.02016E+06,   2.02016E+06
C:/temp/Job-4.odb,Step-1,Increment      1: Step Time =    1.000,"P-4-1",           996,       184.373,       52.0333,            0.,NA,NA,"",   3.17949E+06,   2.71861E+06,   2.71861E+06
C:/temp/Job-4.odb,Step-1,Increment      1: Step Time =    1.000,"P-4-1",           997,       178.420,       177.554,            0.,NA,NA,"",   1.83206E+06,   1.71435E+06,   1.71435E+06
C:/temp/Job-4.odb,Step-1,Increment      1: Step Time =    1.000,"P-4-1",           998,       21.1884,       178.700,            0.,NA,NA,"",   2.87343E+06,   2.96190E+06,   2.96190E+06
C:/temp/Job-4.odb,Step-1,Increment      1: Step Time =    1.000,"P-4-1",           999,       181.402,       21.9144,            0.,NA,NA,"",   1.66683E+06,   1.53615E+06,   1.53615E+06
C:/temp/Job-4.odb,Step-1,Increment      1: Step Time =    1.000,"P-4-1",          1000,       185.249,       154.273,            0.,NA,NA,"",   2.66421E+06,   2.38302E+06,   2.38302E+06
C:/temp/Job-4.odb,Step-1,Increment      1: Step Time =    1.000,"P-4-1",          1001,       16.6759,       33.2966,            0.,NA,NA,"",   533.376E+03,   607.124E+03,   607.124E+03
C:/temp/Job-4.odb,Step-1,Increment      1: Step Time =    1.000,"P-4-1",          1002,       17.4154,       36.5059,            0.,NA,NA,"",   576.008E+03,   174.324E+03,   174.324E+03
C:/temp/Job-4.odb,Step-1,Increment      1: Step Time =    1.000,"P-4-1",          1003,       186.928,       43.3284,            0.,NA,NA,"",   2.32316E+06,   2.11193E+06,   2.11193E+06
C:/temp/Job-4.odb,Step-1,Increment      1: Step Time =    1.000,"P-4-1",          1004,       32.6041,       16.3215,            0.,NA,NA,"",   4.21491E+06,   4.14446E+06,   4.14446E+06
C:/temp/Job-4.odb,Step-1,Increment      1: Step Time =    1.000,"P-4-1",          1005,       188.084,       140.394,            0.,NA,NA,"",   3.43459E+06,   2.98558E+06,   2.98558E+06
C:/temp/Job-4.odb,Step-1,Increment      1: Step Time =    1.000,"P-4-1",          1006,       35.2141,       14.7837,            0.,NA,NA,"",   4.60144E+06,   4.50856E+06,   4.50856E+06
C:/temp/Job-4.odb,Step-1,Increment      1: Step Time =    1.000,"P-4-1",          1007,       187.034,       38.9444,            0.,NA,NA,"",   2.02954E+06,   1.86284E+06,   1.86284E+06
C:/temp/Job-4.odb,Step-1,Increment      1: Step Time =    1.000,"P-4-1",          1008,       22.1050,       40.3433,            0.,NA,NA,"",   1.26140E+06,  -1.12869E+06,  -1.12869E+06
C:/temp/Job-4.odb,Step-1,Increment      1: Step Time =    1.000,"P-4-1",          1009,       25.4770,       39.9272,            0.,NA,NA,"",   1.45681E+06,  -1.38778E+06,  -1.38778E+06
C:/temp/Job-4.odb,Step-1,Increment      1: Step Time =    1.000,"P-4-1",          1010,       173.705,       163.817,            0.,NA,NA,"",   2.88069E+06,   2.80373E+06,   2.80373E+06
C:/temp/Job-4.odb,Step-1,Increment      1: Step Time =    1.000,"P-4-1",          1011,       166.057,       176.761,            0.,NA,NA,"",   2.64208E+06,   2.61784E+06,   2.61784E+06
C:/temp/Job-4.odb,Step-1,Increment      1: Step Time =    1.000,"P-4-1",          1012,       174.038,       184.599,            0.,NA,NA,"",   1.61309E+06,   1.43702E+06,   1.43702E+06
C:/temp/Job-4.odb,Step-1,Increment      1: Step Time =    1.000,"P-4-1",          1013,       17.0780,       164.877,            0.,NA,NA,"",   503.692E+03,   454.050E+03,   454.050E+03
C:/temp/Job-4.odb,Step-1,Increment      1: Step Time =    1.000,"P-4-1",          1014,       183.144,       38.8230,            0.,NA,NA,"",   2.34942E+06,   2.17219E+06,   2.17219E+06
C:/temp/Job-4.odb,Step-1,Increment      1: Step Time =    1.000,"P-4-1",          1015,       178.815,       44.4156,            0.,NA,NA,"",   3.00848E+06,   2.71574E+06,   2.71574E+06
C:/temp/Job-4.odb,Step-1,Increment      1: Step Time =    1.000,"P-4-1",          1016,       34.1394,       23.8638,            0.,NA,NA,"",   1.96585E+06,   1.79139E+06,   1.79139E+06
C:/temp/Job-4.odb,Step-1,Increment      1: Step Time =    1.000,"P-4-1",          1017,       20.0338,       162.889,            0.,NA,NA,"",   690.444E+03,  -147.872E+03,  -147.872E+03
C:/temp/Job-4.odb,Step-1,Increment      1: Step Time =    1.000,"P-4-1",          1018,       19.7919,       173.625,            0.,NA,NA,"",   1.64371E+06,   1.76339E+06,   1.76339E+06
C:/temp/Job-4.odb,Step-1,Increment      1: Step Time =    1.000,"P-4-1",          1019,       24.5018,       176.138,            0.,NA,NA,"",   2.16495E+06,   2.22663E+06,   2.22663E+06
C:/temp/Job-4.odb,Step-1,Increment      1: Step Time =    1.000,"P-4-1",          1020,       170.063,       174.602,            0.,NA,NA,"",   2.48699E+06,   2.44728E+06,   2.44728E+06
C:/temp/Job-4.odb,Step-1,Increment      1: Step Time =    1.000,"P-4-1",          1021,       180.179,       39.0808,            0.,NA,NA,"",   2.56597E+06,   2.38621E+06,   2.38621E+06
C:/temp/Job-4.odb,Step-1,Increment      1: Step Time =    1.000,"P-4-1",          1022,       175.462,       39.9236,            0.,NA,NA,"",   2.93503E+06,   2.78411E+06,   2.78411E+06
