ODB Name,Step,Frame,Part Instance Name,    Node Label,X,Y,Z,Section Name,Material Name,Section Point,       S-Mises,S-Max. In-Plane Principal (Abs),S-Max. Principal (Abs)
C:/temp/Job-6.odb,Step-1,Increment      1: Step Time =    1.000,"P-6-1",             1,       85.1612,       152.960,            0.,NA,NA,"",   3.40481E+06,   3.44351E+06,   3.44351E+06
C:/temp/Job-6.odb,Step-1,Increment      1: Step Time =    1.000,"P-6-1",             2,       71.4229,       146.993,            0.,NA,NA,"",   1.19435E+06,   1.19187E+06,   1.19187E+06
C:/temp/Job-6.odb,Step-1,Increment      1: Step Time =    1.000,"P-6-1",             3,       59.8040,       137.540,            0.,NA,NA,"",   482.579E+03,  -447.852E+03,  -447.852E+03
C:/temp/Job-6.odb,Step-1,Increment      1: Step Time =    1.000,"P-6-1",             4,       53.6696,       129.639,            0.,NA,NA,"",   866.695E+03,  -868.785E+03,  -868.785E+03
C:/temp/Job-6.odb,Step-1,Increment      1: Step Time =    1.000,"P-6-1",             5,       47.3911,       116.041,            0.,NA,NA,"",   956.543E+03,  -971.718E+03,  -971.718E+03
C:/temp/Job-6.odb,Step-1,Increment      1: Step Time =    1.000,"P-6-1",             6,       45.0143,       101.252,            0.,NA,NA,"",   824.490E+03,  -844.327E+03,  -844.327E+03
C:/temp/Job-6.odb,Step-1,Increment      1: Step Time =    1.000,"P-6-1",             7,       46.7155,       86.3706,            0.,NA,NA,"",   886.263E+03,  -907.802E+03,  -907.802E+03
C:/temp/Job-6.odb,Step-1,Increment      1: Step Time =    1.000,"P-6-1",             8,       52.3686,          72.5,            0.,NA,NA,"",   927.225E+03,  -934.498E+03,  -934.498E+03
C:/temp/Job-6.odb,Step-1,Increment      1: Step Time =    1.000,"P-6-1",             9,       61.5543,       60.6690,            0.,NA,NA,"",   395.075E+03,  -138.083E+03,  -138.083E+03
C:/temp/Job-6.odb,Step-1,Increment      1: Step Time =    1.000,"P-6-1",            10,       73.5914,       51.7550,            0.,NA,NA,"",   1.52693E+06,   1.53298E+06,   1.53298E+06
C:/temp/Job-6.odb,Step-1,Increment      1: Step Time =    1.000,"P-6-1",            11,       87.5870,       46.4191,            0.,NA,NA,"",   3.51270E+06,   3.57561E+06,   3.57561E+06
C:/temp/Job-6.odb,Step-1,Increment      1: Step Time =    1.000,"P-6-1",            12,       97.4967,       45.0570,            0.,NA,NA,"",   4.70929E+06,   4.76116E+06,   4.76116E+06
C:/temp/Job-6.odb,Step-1,Increment      1: Step Time =    1.000,"P-6-1",            13,       112.413,       46.4191,            0.,NA,NA,"",   4.73063E+06,   4.83720E+06,   4.83720E+06
C:/temp/Job-6.odb,Step-1,Increment      1: Step Time =    1.000,"P-6-1",            14,       126.409,       51.7550,            0.,NA,NA,"",   3.79039E+06,   3.84713E+06,   3.84713E+06
C:/temp/Job-6.odb,Step-1,Increment      1: Step Time =    1.000,"P-6-1",            15,       138.446,       60.6690,            0.,NA,NA,"",   2.06317E+06,   2.07429E+06,   2.07429E+06
C:/temp/Job-6.odb,Step-1,Increment      1: Step Time =    1.000,"P-6-1",            16,       147.631,          72.5,            0.,NA,NA,"",   658.505E+03,  -44.6596E+03,  -44.6596E+03
C:/temp/Job-6.odb,Step-1,Increment      1: Step Time =    1.000,"P-6-1",            17,       153.285,       86.3706,            0.,NA,NA,"",   1.96158E+06,  -1.97665E+06,  -1.97665E+06
C:/temp/Job-6.odb,Step-1,Increment      1: Step Time =    1.000,"P-6-1",            18,       154.986,       101.252,            0.,NA,NA,"",   2.61140E+06,  -2.64422E+06,  -2.64422E+06
C:/temp/Job-6.odb,Step-1,Increment      1: Step Time =    1.000,"P-6-1",            19,       152.609,       116.041,            0.,NA,NA,"",   1.60030E+06,  -1.59866E+06,  -1.59866E+06
C:/temp/Job-6.odb,Step-1,Increment      1: Step Time =    1.000,"P-6-1",            20,       148.834,       125.304,            0.,NA,NA,"",   730.596E+03,  -608.142E+03,  -608.142E+03
C:/temp/Job-6.odb,Step-1,Increment      1: Step Time =    1.000,"P-6-1",            21,       140.196,       137.540,            0.,NA,NA,"",   1.77039E+06,   1.75286E+06,   1.75286E+06
C:/temp/Job-6.odb,Step-1,Increment      1: Step Time =    1.000,"P-6-1",            22,       128.577,       146.993,            0.,NA,NA,"",   3.51848E+06,   3.57617E+06,   3.57617E+06
C:/temp/Job-6.odb,Step-1,Increment      1: Step Time =    1.000,"P-6-1",            23,       114.839,       152.960,            0.,NA,NA,"",   4.85494E+06,   4.93382E+06,   4.93382E+06
C:/temp/Job-6.odb,Step-1,Increment      1: Step Time =    1.000,"P-6-1",            24,          100.,          155.,            0.,NA,NA,"",   4.81695E+06,   4.88276E+06,   4.88276E+06
C:/temp/Job-6.odb,Step-1,Increment      1: Step Time =    1.000,"P-6-1",            25,          190.,            0.,            0.,NA,NA,"",   982.618E+03,   982.301E+03,   982.301E+03
C:/temp/Job-6.odb,Step-1,Increment      1: Step Time =    1.000,"P-6-1",            26,          180.,            0.,            0.,NA,NA,"",   951.605E+03,   951.424E+03,   951.424E+03
C:/temp/Job-6.odb,Step-1,Increment      1: Step Time =    1.000,"P-6-1",            27,          170.,            0.,            0.,NA,NA,"",   907.881E+03,   906.285E+03,   906.285E+03
C:/temp/Job-6.odb,Step-1,Increment      1: Step Time =    1.000,"P-6-1",            28,          160.,            0.,            0.,NA,NA,"",   822.524E+03,   820.188E+03,   820.188E+03
C:/temp/Job-6.odb,Step-1,Increment      1: Step Time =    1.000,"P-6-1",            29,          150.,            0.,            0.,NA,NA,"",   676.173E+03,   673.309E+03,   673.309E+03
C:/temp/Job-6.odb,Step-1,Increment      1: Step Time =    1.000,"P-6-1",            30,          140.,            0.,            0.,NA,NA,"",   473.179E+03,   470.561E+03,   470.561E+03
C:/temp/Job-6.odb,Step-1,Increment      1: Step Time =    1.000,"P-6-1",            31,          130.,            0.,            0.,NA,NA,"",   272.978E+03,   270.446E+03,   270.446E+03
C:/temp/Job-6.odb,Step-1,Increment      1: Step Time =    1.000,"P-6-1",            32,          120.,            0.,            0.,NA,NA,"",   131.650E+03,   135.246E+03,   135.246E+03
C:/temp/Job-6.odb,Step-1,Increment      1: Step Time =    1.000,"P-6-1",            33,          110.,            0.,            0.,NA,NA,"",   149.051E+03,   153.171E+03,   153.171E+03
C:/temp/Job-6.odb,Step-1,Increment      1: Step Time =    1.000,"P-6-1",            34,          100.,            0.,            0.,NA,NA,"",   375.842E+03,   372.136E+03,   372.136E+03
C:/temp/Job-6.odb,Step-1,Increment      1: Step Time =    1.000,"P-6-1",            35,           90.,            0.,            0.,NA,NA,"",   751.616E+03,   746.083E+03,   746.083E+03
C:/temp/Job-6.odb,Step-1,Increment      1: Step Time =    1.000,"P-6-1",            36,           80.,            0.,            0.,NA,NA,"",   1.21760E+06,   1.21088E+06,   1.21088E+06
C:/temp/Job-6.odb,Step-1,Increment      1: Step Time =    1.000,"P-6-1",            37,           70.,            0.,            0.,NA,NA,"",   1.69812E+06,   1.69245E+06,   1.69245E+06
C:/temp/Job-6.odb,Step-1,Increment      1: Step Time =    1.000,"P-6-1",            38,           60.,            0.,            0.,NA,NA,"",   2.10712E+06,   2.10321E+06,   2.10321E+06
C:/temp/Job-6.odb,Step-1,Increment      1: Step Time =    1.000,"P-6-1",            39,           50.,            0.,            0.,NA,NA,"",   2.40754E+06,   2.40084E+06,   2.40084E+06
C:/temp/Job-6.odb,Step-1,Increment      1: Step Time =    1.000,"P-6-1",            40,           40.,            0.,            0.,NA,NA,"",   2.58969E+06,   2.58790E+06,   2.58790E+06
C:/temp/Job-6.odb,Step-1,Increment      1: Step Time =    1.000,"P-6-1",            41,           30.,            0.,            0.,NA,NA,"",   2.66490E+06,   2.66291E+06,   2.66291E+06
C:/temp/Job-6.odb,Step-1,Increment      1: Step Time =    1.000,"P-6-1",            42,           20.,            0.,            0.,NA,NA,"",   2.70588E+06,   2.70534E+06,   2.70534E+06
C:/temp/Job-6.odb,Step-1,Increment      1: Step Time =    1.000,"P-6-1",            43,           10.,            0.,            0.,NA,NA,"",   2.81735E+06,   2.82054E+06,   2.82054E+06
C:/temp/Job-6.odb,Step-1,Increment      1: Step Time =    1.000,"P-6-1",            44,          200.,            0.,            0.,NA,NA,"",   998.616E+03,   997.251E+03,   997.251E+03
C:/temp/Job-6.odb,Step-1,Increment      1: Step Time =    1.000,"P-6-1",            45,            0.,            0.,            0.,NA,NA,"",   3.25099E+06,   3.40909E+06,   3.40909E+06
C:/temp/Job-6.odb,Step-1,Increment      1: Step Time =    1.000,"P-6-1",            46,          200.,          190.,            0.,NA,NA,"",   1.00810E+06,   999.947E+03,   999.947E+03
C:/temp/Job-6.odb,Step-1,Increment      1: Step Time =    1.000,"P-6-1",            47,          200.,          180.,            0.,NA,NA,"",   1.01851E+06,   1.00600E+06,   1.00600E+06
C:/temp/Job-6.odb,Step-1,Increment      1: Step Time =    1.000,"P-6-1",            48,          200.,          170.,            0.,NA,NA,"",   996.243E+03,   1.01196E+06,   1.01196E+06
C:/temp/Job-6.odb,Step-1,Increment      1: Step Time =    1.000,"P-6-1",            49,          200.,          160.,            0.,NA,NA,"",   933.016E+03,   1.01441E+06,   1.01441E+06
C:/temp/Job-6.odb,Step-1,Increment      1: Step Time =    1.000,"P-6-1",            50,          200.,          150.,            0.,NA,NA,"",   894.687E+03,   1.02723E+06,   1.02723E+06
C:/temp/Job-6.odb,Step-1,Increment      1: Step Time =    1.000,"P-6-1",            51,          200.,          140.,            0.,NA,NA,"",   1.04378E+06,   1.15741E+06,   1.15741E+06
C:/temp/Job-6.odb,Step-1,Increment      1: Step Time =    1.000,"P-6-1",            52,          200.,          130.,            0.,NA,NA,"",   1.41080E+06,   1.61648E+06,   1.61648E+06
C:/temp/Job-6.odb,Step-1,Increment      1: Step Time =    1.000,"P-6-1",            53,          200.,          120.,            0.,NA,NA,"",   1.85959E+06,   2.14342E+06,   2.14342E+06
C:/temp/Job-6.odb,Step-1,Increment      1: Step Time =    1.000,"P-6-1",            54,          200.,          110.,            0.,NA,NA,"",   2.21516E+06,   2.53610E+06,   2.53610E+06
C:/temp/Job-6.odb,Step-1,Increment      1: Step Time =    1.000,"P-6-1",            55,          200.,          100.,            0.,NA,NA,"",   2.34334E+06,   2.67445E+06,   2.67445E+06
C:/temp/Job-6.odb,Step-1,Increment      1: Step Time =    1.000,"P-6-1",            56,          200.,           90.,            0.,NA,NA,"",   2.20909E+06,   2.52918E+06,   2.52918E+06
C:/temp/Job-6.odb,Step-1,Increment      1: Step Time =    1.000,"P-6-1",            57,          200.,           80.,            0.,NA,NA,"",   1.85967E+06,   2.14376E+06,   2.14376E+06
C:/temp/Job-6.odb,Step-1,Increment      1: Step Time =    1.000,"P-6-1",            58,          200.,           70.,            0.,NA,NA,"",   1.40709E+06,   1.61296E+06,   1.61296E+06
C:/temp/Job-6.odb,Step-1,Increment      1: Step Time =    1.000,"P-6-1",            59,          200.,           60.,            0.,NA,NA,"",   1.03908E+06,   1.17305E+06,   1.17305E+06
C:/temp/Job-6.odb,Step-1,Increment      1: Step Time =    1.000,"P-6-1",            60,          200.,           50.,            0.,NA,NA,"",   922.680E+03,   1.05993E+06,   1.05993E+06
C:/temp/Job-6.odb,Step-1,Increment      1: Step Time =    1.000,"P-6-1",            61,          200.,           40.,            0.,NA,NA,"",   936.622E+03,   1.01157E+06,   1.01157E+06
C:/temp/Job-6.odb,Step-1,Increment      1: Step Time =    1.000,"P-6-1",            62,          200.,           30.,            0.,NA,NA,"",   997.386E+03,   1.00539E+06,   1.00539E+06
C:/temp/Job-6.odb,Step-1,Increment      1: Step Time =    1.000,"P-6-1",            63,          200.,           20.,            0.,NA,NA,"",   1.01878E+06,   1.00321E+06,   1.00321E+06
C:/temp/Job-6.odb,Step-1,Increment      1: Step Time =    1.000,"P-6-1",            64,          200.,           10.,            0.,NA,NA,"",   1.00860E+06,   1.00016E+06,   1.00016E+06
C:/temp/Job-6.odb,Step-1,Increment      1: Step Time =    1.000,"P-6-1",            65,          200.,          200.,            0.,NA,NA,"",   998.824E+03,   997.686E+03,   997.686E+03
C:/temp/Job-6.odb,Step-1,Increment      1: Step Time =    1.000,"P-6-1",            66,           10.,          200.,            0.,NA,NA,"",   2.82052E+06,   2.82273E+06,   2.82273E+06
C:/temp/Job-6.odb,Step-1,Increment      1: Step Time =    1.000,"P-6-1",            67,           20.,          200.,            0.,NA,NA,"",   2.70052E+06,   2.69987E+06,   2.69987E+06
C:/temp/Job-6.odb,Step-1,Increment      1: Step Time =    1.000,"P-6-1",            68,           30.,          200.,            0.,NA,NA,"",   2.65269E+06,   2.65012E+06,   2.65012E+06
C:/temp/Job-6.odb,Step-1,Increment      1: Step Time =    1.000,"P-6-1",            69,           40.,          200.,            0.,NA,NA,"",   2.56378E+06,   2.56090E+06,   2.56090E+06
C:/temp/Job-6.odb,Step-1,Increment      1: Step Time =    1.000,"P-6-1",            70,           50.,          200.,            0.,NA,NA,"",   2.38952E+06,   2.38506E+06,   2.38506E+06
C:/temp/Job-6.odb,Step-1,Increment      1: Step Time =    1.000,"P-6-1",            71,           60.,          200.,            0.,NA,NA,"",   2.09907E+06,   2.09288E+06,   2.09288E+06
C:/temp/Job-6.odb,Step-1,Increment      1: Step Time =    1.000,"P-6-1",            72,           70.,          200.,            0.,NA,NA,"",   1.69155E+06,   1.68439E+06,   1.68439E+06
C:/temp/Job-6.odb,Step-1,Increment      1: Step Time =    1.000,"P-6-1",            73,           80.,          200.,            0.,NA,NA,"",   1.21920E+06,   1.21242E+06,   1.21242E+06
C:/temp/Job-6.odb,Step-1,Increment      1: Step Time =    1.000,"P-6-1",            74,           90.,          200.,            0.,NA,NA,"",   746.791E+03,   741.657E+03,   741.657E+03
C:/temp/Job-6.odb,Step-1,Increment      1: Step Time =    1.000,"P-6-1",            75,          100.,          200.,            0.,NA,NA,"",   362.307E+03,   360.303E+03,   360.303E+03
C:/temp/Job-6.odb,Step-1,Increment      1: Step Time =    1.000,"P-6-1",            76,          110.,          200.,            0.,NA,NA,"",   140.303E+03,   143.329E+03,   143.329E+03
C:/temp/Job-6.odb,Step-1,Increment      1: Step Time =    1.000,"P-6-1",            77,          120.,          200.,            0.,NA,NA,"",   121.395E+03,   123.682E+03,   123.682E+03
C:/temp/Job-6.odb,Step-1,Increment      1: Step Time =    1.000,"P-6-1",            78,          130.,          200.,            0.,NA,NA,"",   276.367E+03,   274.453E+03,   274.453E+03
C:/temp/Job-6.odb,Step-1,Increment      1: Step Time =    1.000,"P-6-1",            79,          140.,          200.,            0.,NA,NA,"",   525.773E+03,   521.306E+03,   521.306E+03
C:/temp/Job-6.odb,Step-1,Increment      1: Step Time =    1.000,"P-6-1",            80,          150.,          200.,            0.,NA,NA,"",   717.769E+03,   709.745E+03,   709.745E+03
C:/temp/Job-6.odb,Step-1,Increment      1: Step Time =    1.000,"P-6-1",            81,          160.,          200.,            0.,NA,NA,"",   835.115E+03,   833.398E+03,   833.398E+03
C:/temp/Job-6.odb,Step-1,Increment      1: Step Time =    1.000,"P-6-1",            82,          170.,          200.,            0.,NA,NA,"",   909.274E+03,   908.348E+03,   908.348E+03
C:/temp/Job-6.odb,Step-1,Increment      1: Step Time =    1.000,"P-6-1",            83,          180.,          200.,            0.,NA,NA,"",   951.687E+03,   951.502E+03,   951.502E+03
C:/temp/Job-6.odb,Step-1,Increment      1: Step Time =    1.000,"P-6-1",            84,          190.,          200.,            0.,NA,NA,"",   983.042E+03,   982.701E+03,   982.701E+03
C:/temp/Job-6.odb,Step-1,Increment      1: Step Time =    1.000,"P-6-1",            85,            0.,          200.,            0.,NA,NA,"",   3.25612E+06,   3.42011E+06,   3.42011E+06
C:/temp/Job-6.odb,Step-1,Increment      1: Step Time =    1.000,"P-6-1",            86,            0.,           10.,            0.,NA,NA,"",   2.28890E+06,   2.50919E+06,   2.50919E+06
C:/temp/Job-6.odb,Step-1,Increment      1: Step Time =    1.000,"P-6-1",            87,            0.,           20.,            0.,NA,NA,"",   1.76845E+06,   1.96768E+06,   1.96768E+06
C:/temp/Job-6.odb,Step-1,Increment      1: Step Time =    1.000,"P-6-1",            88,            0.,           30.,            0.,NA,NA,"",   1.37556E+06,   1.53817E+06,   1.53817E+06
C:/temp/Job-6.odb,Step-1,Increment      1: Step Time =    1.000,"P-6-1",            89,            0.,           40.,            0.,NA,NA,"",   1.03474E+06,   1.15747E+06,   1.15747E+06
C:/temp/Job-6.odb,Step-1,Increment      1: Step Time =    1.000,"P-6-1",            90,            0.,           50.,            0.,NA,NA,"",   727.734E+03,   808.973E+03,   808.973E+03
C:/temp/Job-6.odb,Step-1,Increment      1: Step Time =    1.000,"P-6-1",            91,            0.,           60.,            0.,NA,NA,"",   464.967E+03,   504.532E+03,   504.532E+03
C:/temp/Job-6.odb,Step-1,Increment      1: Step Time =    1.000,"P-6-1",            92,            0.,           70.,            0.,NA,NA,"",   255.483E+03,   248.882E+03,   248.882E+03
C:/temp/Job-6.odb,Step-1,Increment      1: Step Time =    1.000,"P-6-1",            93,            0.,           80.,            0.,NA,NA,"",   154.885E+03,  -6.65800E+03,  -6.65800E+03
C:/temp/Job-6.odb,Step-1,Increment      1: Step Time =    1.000,"P-6-1",            94,            0.,           90.,            0.,NA,NA,"",   165.468E+03,  -171.038E+03,  -171.038E+03
C:/temp/Job-6.odb,Step-1,Increment      1: Step Time =    1.000,"P-6-1",            95,            0.,          100.,            0.,NA,NA,"",   184.218E+03,  -201.018E+03,  -201.018E+03
C:/temp/Job-6.odb,Step-1,Increment      1: Step Time =    1.000,"P-6-1",            96,            0.,          110.,            0.,NA,NA,"",   165.990E+03,  -172.589E+03,  -172.589E+03
C:/temp/Job-6.odb,Step-1,Increment      1: Step Time =    1.000,"P-6-1",            97,            0.,          120.,            0.,NA,NA,"",   153.623E+03,  -7.49407E+03,  -7.49407E+03
C:/temp/Job-6.odb,Step-1,Increment      1: Step Time =    1.000,"P-6-1",            98,            0.,          130.,            0.,NA,NA,"",   248.549E+03,   243.735E+03,   243.735E+03
C:/temp/Job-6.odb,Step-1,Increment      1: Step Time =    1.000,"P-6-1",            99,            0.,          140.,            0.,NA,NA,"",   466.015E+03,   504.341E+03,   504.341E+03
C:/temp/Job-6.odb,Step-1,Increment      1: Step Time =    1.000,"P-6-1",           100,            0.,          150.,            0.,NA,NA,"",   747.571E+03,   834.341E+03,   834.341E+03
C:/temp/Job-6.odb,Step-1,Increment      1: Step Time =    1.000,"P-6-1",           101,            0.,          160.,            0.,NA,NA,"",   1.05732E+06,   1.18554E+06,   1.18554E+06
C:/temp/Job-6.odb,Step-1,Increment      1: Step Time =    1.000,"P-6-1",           102,            0.,          170.,            0.,NA,NA,"",   1.39371E+06,   1.56214E+06,   1.56214E+06
C:/temp/Job-6.odb,Step-1,Increment      1: Step Time =    1.000,"P-6-1",           103,            0.,          180.,            0.,NA,NA,"",   1.78542E+06,   1.99080E+06,   1.99080E+06
C:/temp/Job-6.odb,Step-1,Increment      1: Step Time =    1.000,"P-6-1",           104,            0.,          190.,            0.,NA,NA,"",   2.29562E+06,   2.52420E+06,   2.52420E+06
C:/temp/Job-6.odb,Step-1,Increment      1: Step Time =    1.000,"P-6-1",           105,       107.969,       39.3500,            0.,NA,NA,"",   4.05384E+06,   4.21039E+06,   4.21039E+06
C:/temp/Job-6.odb,Step-1,Increment      1: Step Time =    1.000,"P-6-1",           106,       190.631,       43.0142,            0.,NA,NA,"",   1.05928E+06,   1.14042E+06,   1.14042E+06
C:/temp/Job-6.odb,Step-1,Increment      1: Step Time =    1.000,"P-6-1",           107,       159.144,       74.7179,            0.,NA,NA,"",   1.37748E+06,  -427.609E+03,  -427.609E+03
C:/temp/Job-6.odb,Step-1,Increment      1: Step Time =    1.000,"P-6-1",           108,       43.6137,       71.6352,            0.,NA,NA,"",   567.766E+03,  -575.511E+03,  -575.511E+03
C:/temp/Job-6.odb,Step-1,Increment      1: Step Time =    1.000,"P-6-1",           109,       158.151,       128.760,            0.,NA,NA,"",   1.49529E+06,   301.601E+03,   301.601E+03
C:/temp/Job-6.odb,Step-1,Increment      1: Step Time =    1.000,"P-6-1",           110,       41.8337,       127.494,            0.,NA,NA,"",   511.938E+03,  -521.674E+03,  -521.674E+03
C:/temp/Job-6.odb,Step-1,Increment      1: Step Time =    1.000,"P-6-1",           111,       188.534,       157.917,            0.,NA,NA,"",   1.12006E+06,   1.17675E+06,   1.17675E+06
C:/temp/Job-6.odb,Step-1,Increment      1: Step Time =    1.000,"P-6-1",           112,       181.549,       156.965,            0.,NA,NA,"",   1.33933E+06,   1.33011E+06,   1.33011E+06
C:/temp/Job-6.odb,Step-1,Increment      1: Step Time =    1.000,"P-6-1",           113,       164.205,       160.724,            0.,NA,NA,"",   1.79464E+06,   1.65211E+06,   1.65211E+06
C:/temp/Job-6.odb,Step-1,Increment      1: Step Time =    1.000,"P-6-1",           114,       144.700,       157.071,            0.,NA,NA,"",   2.27096E+06,    2.1968E+06,    2.1968E+06
C:/temp/Job-6.odb,Step-1,Increment      1: Step Time =    1.000,"P-6-1",           115,       135.975,       159.387,            0.,NA,NA,"",   2.46328E+06,   2.51625E+06,   2.51625E+06
C:/temp/Job-6.odb,Step-1,Increment      1: Step Time =    1.000,"P-6-1",           116,       126.392,       157.010,            0.,NA,NA,"",   3.32251E+06,   3.45308E+06,   3.45308E+06
C:/temp/Job-6.odb,Step-1,Increment      1: Step Time =    1.000,"P-6-1",           117,       117.080,       156.829,            0.,NA,NA,"",   4.28061E+06,   4.40375E+06,   4.40375E+06
C:/temp/Job-6.odb,Step-1,Increment      1: Step Time =    1.000,"P-6-1",           118,       84.7344,       156.895,            0.,NA,NA,"",   3.20134E+06,   3.25369E+06,   3.25369E+06
C:/temp/Job-6.odb,Step-1,Increment      1: Step Time =    1.000,"P-6-1",           119,       71.9268,       158.403,            0.,NA,NA,"",   2.16346E+06,   2.08349E+06,   2.08349E+06
C:/temp/Job-6.odb,Step-1,Increment      1: Step Time =    1.000,"P-6-1",           120,       61.4429,       159.395,            0.,NA,NA,"",   1.97781E+06,   1.76007E+06,   1.76007E+06
C:/temp/Job-6.odb,Step-1,Increment      1: Step Time =    1.000,"P-6-1",           121,       55.6106,       158.976,            0.,NA,NA,"",   1.86013E+06,   1.61821E+06,   1.61821E+06
C:/temp/Job-6.odb,Step-1,Increment      1: Step Time =    1.000,"P-6-1",           122,       40.2738,       159.251,            0.,NA,NA,"",   1.56109E+06,   1.40930E+06,   1.40930E+06
C:/temp/Job-6.odb,Step-1,Increment      1: Step Time =    1.000,"P-6-1",           123,       22.0759,       152.720,            0.,NA,NA,"",   987.964E+03,   990.396E+03,   990.396E+03
C:/temp/Job-6.odb,Step-1,Increment      1: Step Time =    1.000,"P-6-1",           124,       9.71907,       157.387,            0.,NA,NA,"",   1.02732E+06,   1.11411E+06,   1.11411E+06
C:/temp/Job-6.odb,Step-1,Increment      1: Step Time =    1.000,"P-6-1",           125,       12.6974,       149.625,            0.,NA,NA,"",   769.561E+03,   824.274E+03,   824.274E+03
C:/temp/Job-6.odb,Step-1,Increment      1: Step Time =    1.000,"P-6-1",           126,       22.2125,       147.816,            0.,NA,NA,"",   773.322E+03,   772.992E+03,   772.992E+03
C:/temp/Job-6.odb,Step-1,Increment      1: Step Time =    1.000,"P-6-1",           127,       30.9601,       146.021,            0.,NA,NA,"",   799.560E+03,   722.112E+03,   722.112E+03
C:/temp/Job-6.odb,Step-1,Increment      1: Step Time =    1.000,"P-6-1",           128,       42.3877,       148.824,            0.,NA,NA,"",   1.10409E+06,   910.327E+03,   910.327E+03
C:/temp/Job-6.odb,Step-1,Increment      1: Step Time =    1.000,"P-6-1",           129,       52.9589,       150.426,            0.,NA,NA,"",   1.33272E+06,   1.07489E+06,   1.07489E+06
C:/temp/Job-6.odb,Step-1,Increment      1: Step Time =    1.000,"P-6-1",           130,       63.6170,       147.311,            0.,NA,NA,"",   922.943E+03,   814.511E+03,   814.511E+03
C:/temp/Job-6.odb,Step-1,Increment      1: Step Time =    1.000,"P-6-1",           131,       135.718,       147.330,            0.,NA,NA,"",   2.80583E+06,   2.84334E+06,   2.84334E+06
C:/temp/Job-6.odb,Step-1,Increment      1: Step Time =    1.000,"P-6-1",           132,       144.967,       151.089,            0.,NA,NA,"",   2.28906E+06,   2.19361E+06,   2.19361E+06
C:/temp/Job-6.odb,Step-1,Increment      1: Step Time =    1.000,"P-6-1",           133,       156.557,       148.313,            0.,NA,NA,"",   2.11084E+06,   1.84946E+06,   1.84946E+06
C:/temp/Job-6.odb,Step-1,Increment      1: Step Time =    1.000,"P-6-1",           134,       167.281,       151.160,            0.,NA,NA,"",   1.89075E+06,   1.67920E+06,   1.67920E+06
C:/temp/Job-6.odb,Step-1,Increment      1: Step Time =    1.000,"P-6-1",           135,       179.568,       145.668,            0.,NA,NA,"",   1.55549E+06,   1.49526E+06,   1.49526E+06
C:/temp/Job-6.odb,Step-1,Increment      1: Step Time =    1.000,"P-6-1",           136,       186.997,       147.653,            0.,NA,NA,"",   1.26104E+06,   1.33065E+06,   1.33065E+06
C:/temp/Job-6.odb,Step-1,Increment      1: Step Time =    1.000,"P-6-1",           137,       148.745,       137.712,            0.,NA,NA,"",   1.54752E+06,   1.38099E+06,   1.38099E+06
C:/temp/Job-6.odb,Step-1,Increment      1: Step Time =    1.000,"P-6-1",           138,       159.871,       138.556,            0.,NA,NA,"",   1.94836E+06,   1.54745E+06,   1.54745E+06
C:/temp/Job-6.odb,Step-1,Increment      1: Step Time =    1.000,"P-6-1",           139,       168.330,       134.720,            0.,NA,NA,"",   1.85811E+06,   1.49288E+06,   1.49288E+06
C:/temp/Job-6.odb,Step-1,Increment      1: Step Time =    1.000,"P-6-1",           140,       176.850,       136.272,            0.,NA,NA,"",   1.69087E+06,   1.53813E+06,   1.53813E+06
C:/temp/Job-6.odb,Step-1,Increment      1: Step Time =    1.000,"P-6-1",           141,       190.308,       134.560,            0.,NA,NA,"",   1.28473E+06,   1.44371E+06,   1.44371E+06
C:/temp/Job-6.odb,Step-1,Increment      1: Step Time =    1.000,"P-6-1",           142,       172.510,       126.409,            0.,NA,NA,"",   1.58352E+06,   1.27855E+06,   1.27855E+06
C:/temp/Job-6.odb,Step-1,Increment      1: Step Time =    1.000,"P-6-1",           143,       177.615,       125.611,            0.,NA,NA,"",   1.49503E+06,   1.36838E+06,   1.36838E+06
C:/temp/Job-6.odb,Step-1,Increment      1: Step Time =    1.000,"P-6-1",           144,       189.570,       124.418,            0.,NA,NA,"",   1.40049E+06,   1.59002E+06,   1.59002E+06
C:/temp/Job-6.odb,Step-1,Increment      1: Step Time =    1.000,"P-6-1",           145,       190.449,       114.663,            0.,NA,NA,"",   1.49295E+06,   1.71792E+06,   1.71792E+06
C:/temp/Job-6.odb,Step-1,Increment      1: Step Time =    1.000,"P-6-1",           146,       176.861,       115.110,            0.,NA,NA,"",   1.07440E+06,   1.00898E+06,   1.00898E+06
C:/temp/Job-6.odb,Step-1,Increment      1: Step Time =    1.000,"P-6-1",           147,       170.007,       117.835,            0.,NA,NA,"",   1.22759E+06,   500.221E+03,   500.221E+03
C:/temp/Job-6.odb,Step-1,Increment      1: Step Time =    1.000,"P-6-1",           148,       159.414,       115.077,            0.,NA,NA,"",   1.46994E+06,  -1.39944E+06,  -1.39944E+06
C:/temp/Job-6.odb,Step-1,Increment      1: Step Time =    1.000,"P-6-1",           149,       169.213,       105.112,            0.,NA,NA,"",   671.751E+03,  -237.971E+03,  -237.971E+03
C:/temp/Job-6.odb,Step-1,Increment      1: Step Time =    1.000,"P-6-1",           150,       179.681,       105.370,            0.,NA,NA,"",   718.911E+03,   812.077E+03,   812.077E+03
C:/temp/Job-6.odb,Step-1,Increment      1: Step Time =    1.000,"P-6-1",           151,       190.024,       104.975,            0.,NA,NA,"",   1.50197E+06,   1.73254E+06,   1.73254E+06
C:/temp/Job-6.odb,Step-1,Increment      1: Step Time =    1.000,"P-6-1",           152,       168.970,       95.3355,            0.,NA,NA,"",   674.169E+03,  -373.854E+03,  -373.854E+03
C:/temp/Job-6.odb,Step-1,Increment      1: Step Time =    1.000,"P-6-1",           153,       179.298,       95.4454,            0.,NA,NA,"",   669.949E+03,   757.363E+03,   757.363E+03
C:/temp/Job-6.odb,Step-1,Increment      1: Step Time =    1.000,"P-6-1",           154,       189.678,       94.9938,            0.,NA,NA,"",   1.46375E+06,   1.68829E+06,   1.68829E+06
C:/temp/Job-6.odb,Step-1,Increment      1: Step Time =    1.000,"P-6-1",           155,       157.607,       85.6999,            0.,NA,NA,"",   1.67748E+06,  -1.65698E+06,  -1.65698E+06
C:/temp/Job-6.odb,Step-1,Increment      1: Step Time =    1.000,"P-6-1",           156,       167.268,       84.3614,            0.,NA,NA,"",   1.15327E+06,  -81.9345E+03,  -81.9345E+03
C:/temp/Job-6.odb,Step-1,Increment      1: Step Time =    1.000,"P-6-1",           157,       178.771,       80.5660,            0.,NA,NA,"",   1.28068E+06,   1.23713E+06,   1.23713E+06
C:/temp/Job-6.odb,Step-1,Increment      1: Step Time =    1.000,"P-6-1",           158,       189.393,       84.8532,            0.,NA,NA,"",   1.44330E+06,   1.65696E+06,   1.65696E+06
C:/temp/Job-6.odb,Step-1,Increment      1: Step Time =    1.000,"P-6-1",           159,       149.523,       65.6994,            0.,NA,NA,"",   1.21543E+06,   1.02403E+06,   1.02403E+06
C:/temp/Job-6.odb,Step-1,Increment      1: Step Time =    1.000,"P-6-1",           160,       162.180,       63.2486,            0.,NA,NA,"",   1.90479E+06,   1.48827E+06,   1.48827E+06
C:/temp/Job-6.odb,Step-1,Increment      1: Step Time =    1.000,"P-6-1",           161,       169.226,       62.2916,            0.,NA,NA,"",   1.87859E+06,   1.55553E+06,   1.55553E+06
C:/temp/Job-6.odb,Step-1,Increment      1: Step Time =    1.000,"P-6-1",           162,       178.954,       65.0454,            0.,NA,NA,"",   1.60876E+06,   1.51972E+06,   1.51972E+06
C:/temp/Job-6.odb,Step-1,Increment      1: Step Time =    1.000,"P-6-1",           163,       189.835,       66.0474,            0.,NA,NA,"",   1.29647E+06,   1.45457E+06,   1.45457E+06
C:/temp/Job-6.odb,Step-1,Increment      1: Step Time =    1.000,"P-6-1",           164,       190.255,       75.1710,            0.,NA,NA,"",   1.40262E+06,   1.59894E+06,   1.59894E+06
C:/temp/Job-6.odb,Step-1,Increment      1: Step Time =    1.000,"P-6-1",           165,       180.889,       74.1265,            0.,NA,NA,"",   1.44957E+06,   1.44767E+06,   1.44767E+06
C:/temp/Job-6.odb,Step-1,Increment      1: Step Time =    1.000,"P-6-1",           166,       170.178,       72.7004,            0.,NA,NA,"",   1.63858E+06,   1.26513E+06,   1.26513E+06
C:/temp/Job-6.odb,Step-1,Increment      1: Step Time =    1.000,"P-6-1",           167,       137.499,       54.2333,            0.,NA,NA,"",   2.57635E+06,   2.60130E+06,   2.60130E+06
C:/temp/Job-6.odb,Step-1,Increment      1: Step Time =    1.000,"P-6-1",           168,       147.199,       50.6898,            0.,NA,NA,"",   2.20741E+06,   2.07576E+06,   2.07576E+06
C:/temp/Job-6.odb,Step-1,Increment      1: Step Time =    1.000,"P-6-1",           169,       157.755,       52.0612,            0.,NA,NA,"",   2.09557E+06,   1.82654E+06,   1.82654E+06
C:/temp/Job-6.odb,Step-1,Increment      1: Step Time =    1.000,"P-6-1",           170,       169.684,       51.1208,            0.,NA,NA,"",   1.85514E+06,   1.64451E+06,   1.64451E+06
C:/temp/Job-6.odb,Step-1,Increment      1: Step Time =    1.000,"P-6-1",           171,       177.525,       52.8433,            0.,NA,NA,"",   1.61669E+06,   1.52032E+06,   1.52032E+06
C:/temp/Job-6.odb,Step-1,Increment      1: Step Time =    1.000,"P-6-1",           172,       187.351,       50.8799,            0.,NA,NA,"",   1.23714E+06,   1.30674E+06,   1.30674E+06
C:/temp/Job-6.odb,Step-1,Increment      1: Step Time =    1.000,"P-6-1",           173,       128.819,       41.6995,            0.,NA,NA,"",   2.95578E+06,   3.07640E+06,   3.07640E+06
C:/temp/Job-6.odb,Step-1,Increment      1: Step Time =    1.000,"P-6-1",           174,       10.6435,       42.5921,            0.,NA,NA,"",   1.03435E+06,   1.11659E+06,   1.11659E+06
C:/temp/Job-6.odb,Step-1,Increment      1: Step Time =    1.000,"P-6-1",           175,       19.3620,       40.3283,            0.,NA,NA,"",   1.24726E+06,   1.27568E+06,   1.27568E+06
C:/temp/Job-6.odb,Step-1,Increment      1: Step Time =    1.000,"P-6-1",           176,       31.2552,       43.3195,            0.,NA,NA,"",   1.28898E+06,   1.21425E+06,   1.21425E+06
C:/temp/Job-6.odb,Step-1,Increment      1: Step Time =    1.000,"P-6-1",           177,       39.9578,       42.9029,            0.,NA,NA,"",   1.46026E+06,   1.30393E+06,   1.30393E+06
C:/temp/Job-6.odb,Step-1,Increment      1: Step Time =    1.000,"P-6-1",           178,       53.6151,       43.7569,            0.,NA,NA,"",   1.68065E+06,   1.43851E+06,   1.43851E+06
C:/temp/Job-6.odb,Step-1,Increment      1: Step Time =    1.000,"P-6-1",           179,       65.1396,       41.2567,            0.,NA,NA,"",   2.03424E+06,   1.84771E+06,   1.84771E+06
C:/temp/Job-6.odb,Step-1,Increment      1: Step Time =    1.000,"P-6-1",           180,       72.3302,       42.2687,            0.,NA,NA,"",   2.20043E+06,   2.11824E+06,   2.11824E+06
C:/temp/Job-6.odb,Step-1,Increment      1: Step Time =    1.000,"P-6-1",           181,       83.2087,       41.3243,            0.,NA,NA,"",   2.95682E+06,   3.00713E+06,   3.00713E+06
C:/temp/Job-6.odb,Step-1,Increment      1: Step Time =    1.000,"P-6-1",           182,       97.7897,       41.4285,            0.,NA,NA,"",   4.33074E+06,   4.41957E+06,   4.41957E+06
C:/temp/Job-6.odb,Step-1,Increment      1: Step Time =    1.000,"P-6-1",           183,       120.280,       41.7534,            0.,NA,NA,"",   3.73857E+06,   3.88723E+06,   3.88723E+06
C:/temp/Job-6.odb,Step-1,Increment      1: Step Time =    1.000,"P-6-1",           184,       135.839,       41.2399,            0.,NA,NA,"",   2.51358E+06,   2.56603E+06,   2.56603E+06
C:/temp/Job-6.odb,Step-1,Increment      1: Step Time =    1.000,"P-6-1",           185,       146.245,       43.5999,            0.,NA,NA,"",   2.24492E+06,   2.14947E+06,   2.14947E+06
C:/temp/Job-6.odb,Step-1,Increment      1: Step Time =    1.000,"P-6-1",           186,       161.703,       44.2385,            0.,NA,NA,"",   1.96643E+06,   1.76839E+06,   1.76839E+06
C:/temp/Job-6.odb,Step-1,Increment      1: Step Time =    1.000,"P-6-1",           187,       169.224,       39.5722,            0.,NA,NA,"",   1.66426E+06,   1.54552E+06,   1.54552E+06
C:/temp/Job-6.odb,Step-1,Increment      1: Step Time =    1.000,"P-6-1",           188,       177.720,       43.0019,            0.,NA,NA,"",   1.47774E+06,   1.41918E+06,   1.41918E+06
C:/temp/Job-6.odb,Step-1,Increment      1: Step Time =    1.000,"P-6-1",           189,       66.7263,       51.2165,            0.,NA,NA,"",   1.13292E+06,   1.06473E+06,   1.06473E+06
C:/temp/Job-6.odb,Step-1,Increment      1: Step Time =    1.000,"P-6-1",           190,       52.5675,       50.9540,            0.,NA,NA,"",   1.21451E+06,   960.544E+03,   960.544E+03
C:/temp/Job-6.odb,Step-1,Increment      1: Step Time =    1.000,"P-6-1",           191,       41.4259,       55.1418,            0.,NA,NA,"",   874.381E+03,   681.828E+03,   681.828E+03
C:/temp/Job-6.odb,Step-1,Increment      1: Step Time =    1.000,"P-6-1",           192,       29.6587,       52.5017,            0.,NA,NA,"",   858.085E+03,   790.906E+03,   790.906E+03
C:/temp/Job-6.odb,Step-1,Increment      1: Step Time =    1.000,"P-6-1",           193,       20.1423,       53.5694,            0.,NA,NA,"",   710.179E+03,   722.942E+03,   722.942E+03
C:/temp/Job-6.odb,Step-1,Increment      1: Step Time =    1.000,"P-6-1",           194,       8.30038,       51.7439,            0.,NA,NA,"",   694.901E+03,   761.977E+03,   761.977E+03
C:/temp/Job-6.odb,Step-1,Increment      1: Step Time =    1.000,"P-6-1",           195,       55.1292,       61.4757,            0.,NA,NA,"",   612.028E+03,  -517.894E+03,  -517.894E+03
C:/temp/Job-6.odb,Step-1,Increment      1: Step Time =    1.000,"P-6-1",           196,       41.8038,       62.2628,            0.,NA,NA,"",   559.203E+03,   11.6041E+03,   11.6041E+03
C:/temp/Job-6.odb,Step-1,Increment      1: Step Time =    1.000,"P-6-1",           197,       31.7492,       61.2695,            0.,NA,NA,"",   512.281E+03,   410.918E+03,   410.918E+03
C:/temp/Job-6.odb,Step-1,Increment      1: Step Time =    1.000,"P-6-1",           198,       18.5952,       62.4872,            0.,NA,NA,"",   374.519E+03,   384.810E+03,   384.810E+03
C:/temp/Job-6.odb,Step-1,Increment      1: Step Time =    1.000,"P-6-1",           199,       8.21459,       65.1802,            0.,NA,NA,"",   305.001E+03,   331.395E+03,   331.395E+03
C:/temp/Job-6.odb,Step-1,Increment      1: Step Time =    1.000,"P-6-1",           200,       30.1508,       74.0356,            0.,NA,NA,"",   204.654E+03,  -195.458E+03,  -195.458E+03
C:/temp/Job-6.odb,Step-1,Increment      1: Step Time =    1.000,"P-6-1",           201,       18.8822,       72.2158,            0.,NA,NA,"",   108.048E+03,   73.7813E+03,   73.7813E+03
C:/temp/Job-6.odb,Step-1,Increment      1: Step Time =    1.000,"P-6-1",           202,       9.42444,       74.5289,            0.,NA,NA,"",   130.677E+03,   117.679E+03,   117.679E+03
C:/temp/Job-6.odb,Step-1,Increment      1: Step Time =    1.000,"P-6-1",           203,       10.6347,       84.5993,            0.,NA,NA,"",   146.876E+03,  -137.646E+03,  -137.646E+03
C:/temp/Job-6.odb,Step-1,Increment      1: Step Time =    1.000,"P-6-1",           204,       21.0813,       86.8878,            0.,NA,NA,"",   156.476E+03,  -177.963E+03,  -177.963E+03
C:/temp/Job-6.odb,Step-1,Increment      1: Step Time =    1.000,"P-6-1",           205,       30.9967,       84.6723,            0.,NA,NA,"",   286.159E+03,  -324.918E+03,  -324.918E+03
C:/temp/Job-6.odb,Step-1,Increment      1: Step Time =    1.000,"P-6-1",           206,       42.3365,       78.8272,            0.,NA,NA,"",   693.197E+03,  -721.495E+03,  -721.495E+03
C:/temp/Job-6.odb,Step-1,Increment      1: Step Time =    1.000,"P-6-1",           207,       31.1761,       94.4909,            0.,NA,NA,"",   331.743E+03,  -378.223E+03,  -378.223E+03
C:/temp/Job-6.odb,Step-1,Increment      1: Step Time =    1.000,"P-6-1",           208,       19.7781,       95.7115,            0.,NA,NA,"",   197.849E+03,  -225.419E+03,  -225.419E+03
C:/temp/Job-6.odb,Step-1,Increment      1: Step Time =    1.000,"P-6-1",           209,       10.1246,       94.9309,            0.,NA,NA,"",   206.191E+03,  -214.725E+03,  -214.725E+03
C:/temp/Job-6.odb,Step-1,Increment      1: Step Time =    1.000,"P-6-1",           210,       29.6971,       105.267,            0.,NA,NA,"",   294.727E+03,  -335.515E+03,  -335.515E+03
C:/temp/Job-6.odb,Step-1,Increment      1: Step Time =    1.000,"P-6-1",           211,       18.7806,       104.982,            0.,NA,NA,"",   199.077E+03,  -225.448E+03,  -225.448E+03
C:/temp/Job-6.odb,Step-1,Increment      1: Step Time =    1.000,"P-6-1",           212,       9.87522,       104.813,            0.,NA,NA,"",   206.374E+03,  -214.876E+03,  -214.876E+03
C:/temp/Job-6.odb,Step-1,Increment      1: Step Time =    1.000,"P-6-1",           213,       41.8952,       112.097,            0.,NA,NA,"",   771.237E+03,  -799.620E+03,  -799.620E+03
C:/temp/Job-6.odb,Step-1,Increment      1: Step Time =    1.000,"P-6-1",           214,       32.5060,       114.791,            0.,NA,NA,"",   340.710E+03,  -383.474E+03,  -383.474E+03
C:/temp/Job-6.odb,Step-1,Increment      1: Step Time =    1.000,"P-6-1",           215,       20.7773,       114.420,            0.,NA,NA,"",   143.472E+03,  -162.060E+03,  -162.060E+03
C:/temp/Job-6.odb,Step-1,Increment      1: Step Time =    1.000,"P-6-1",           216,       10.0306,       114.801,            0.,NA,NA,"",   152.336E+03,  -144.184E+03,  -144.184E+03
C:/temp/Job-6.odb,Step-1,Increment      1: Step Time =    1.000,"P-6-1",           217,       50.7900,       136.607,            0.,NA,NA,"",   635.732E+03,  -546.512E+03,  -546.512E+03
C:/temp/Job-6.odb,Step-1,Increment      1: Step Time =    1.000,"P-6-1",           218,       39.2219,       136.749,            0.,NA,NA,"",   507.213E+03,  -137.289E+03,  -137.289E+03
C:/temp/Job-6.odb,Step-1,Increment      1: Step Time =    1.000,"P-6-1",           219,       30.5523,       139.239,            0.,NA,NA,"",   511.240E+03,   426.385E+03,   426.385E+03
C:/temp/Job-6.odb,Step-1,Increment      1: Step Time =    1.000,"P-6-1",           220,       21.3118,       137.101,            0.,NA,NA,"",   376.632E+03,   374.117E+03,   374.117E+03
C:/temp/Job-6.odb,Step-1,Increment      1: Step Time =    1.000,"P-6-1",           221,       10.9764,       133.845,            0.,NA,NA,"",   271.912E+03,   294.238E+03,   294.238E+03
C:/temp/Job-6.odb,Step-1,Increment      1: Step Time =    1.000,"P-6-1",           222,       10.3812,       124.414,            0.,NA,NA,"",   120.726E+03,   72.1075E+03,   72.1075E+03
C:/temp/Job-6.odb,Step-1,Increment      1: Step Time =    1.000,"P-6-1",           223,       22.4598,       122.578,            0.,NA,NA,"",   89.5118E+03,  -74.2275E+03,  -74.2275E+03
C:/temp/Job-6.odb,Step-1,Increment      1: Step Time =    1.000,"P-6-1",           224,       31.8852,       129.867,            0.,NA,NA,"",   261.010E+03,  -114.111E+03,  -114.111E+03
C:/temp/Job-6.odb,Step-1,Increment      1: Step Time =    1.000,"P-6-1",           225,       188.536,       11.4478,            0.,NA,NA,"",   1.01151E+06,   1.01040E+06,   1.01040E+06
C:/temp/Job-6.odb,Step-1,Increment      1: Step Time =    1.000,"P-6-1",           226,       178.390,       9.31182,            0.,NA,NA,"",   1.01082E+06,   1.00765E+06,   1.00765E+06
C:/temp/Job-6.odb,Step-1,Increment      1: Step Time =    1.000,"P-6-1",           227,       168.998,       9.17091,            0.,NA,NA,"",   1.01687E+06,   1.00661E+06,   1.00661E+06
C:/temp/Job-6.odb,Step-1,Increment      1: Step Time =    1.000,"P-6-1",           228,       158.793,       10.4776,            0.,NA,NA,"",   1.05188E+06,   1.02968E+06,   1.02968E+06
C:/temp/Job-6.odb,Step-1,Increment      1: Step Time =    1.000,"P-6-1",           229,       148.384,       13.4953,            0.,NA,NA,"",   1.15955E+06,   1.12875E+06,   1.12875E+06
C:/temp/Job-6.odb,Step-1,Increment      1: Step Time =    1.000,"P-6-1",           230,       134.877,       9.47895,            0.,NA,NA,"",   860.451E+03,   854.284E+03,   854.284E+03
C:/temp/Job-6.odb,Step-1,Increment      1: Step Time =    1.000,"P-6-1",           231,       125.104,       10.1796,            0.,NA,NA,"",   813.421E+03,   834.891E+03,   834.891E+03
C:/temp/Job-6.odb,Step-1,Increment      1: Step Time =    1.000,"P-6-1",           232,       114.947,       10.7979,            0.,NA,NA,"",   851.259E+03,   896.482E+03,   896.482E+03
C:/temp/Job-6.odb,Step-1,Increment      1: Step Time =    1.000,"P-6-1",           233,       104.661,       10.1768,            0.,NA,NA,"",   967.634E+03,   993.235E+03,   993.235E+03
C:/temp/Job-6.odb,Step-1,Increment      1: Step Time =    1.000,"P-6-1",           234,       94.5169,       10.1988,            0.,NA,NA,"",   1.23828E+06,   1.22797E+06,   1.22797E+06
C:/temp/Job-6.odb,Step-1,Increment      1: Step Time =    1.000,"P-6-1",           235,       84.1322,       10.1729,            0.,NA,NA,"",   1.56058E+06,   1.51452E+06,   1.51452E+06
C:/temp/Job-6.odb,Step-1,Increment      1: Step Time =    1.000,"P-6-1",           236,       74.1398,       9.12782,            0.,NA,NA,"",   1.79390E+06,   1.73921E+06,   1.73921E+06
C:/temp/Job-6.odb,Step-1,Increment      1: Step Time =    1.000,"P-6-1",           237,       64.9158,       9.06148,            0.,NA,NA,"",   2.01293E+06,   1.96580E+06,   1.96580E+06
C:/temp/Job-6.odb,Step-1,Increment      1: Step Time =    1.000,"P-6-1",           238,       49.4228,       9.79401,            0.,NA,NA,"",   2.27624E+06,   2.23964E+06,   2.23964E+06
C:/temp/Job-6.odb,Step-1,Increment      1: Step Time =    1.000,"P-6-1",           239,       41.5429,       9.34388,            0.,NA,NA,"",   2.35886E+06,   2.33416E+06,   2.33416E+06
C:/temp/Job-6.odb,Step-1,Increment      1: Step Time =    1.000,"P-6-1",           240,       30.8657,       8.52336,            0.,NA,NA,"",   2.46519E+06,   2.45675E+06,   2.45675E+06
C:/temp/Job-6.odb,Step-1,Increment      1: Step Time =    1.000,"P-6-1",           241,       21.6548,       8.63245,            0.,NA,NA,"",   2.52329E+06,   2.52668E+06,   2.52668E+06
C:/temp/Job-6.odb,Step-1,Increment      1: Step Time =    1.000,"P-6-1",           242,       12.1276,       11.5239,            0.,NA,NA,"",   2.45172E+06,   2.51658E+06,   2.51658E+06
C:/temp/Job-6.odb,Step-1,Increment      1: Step Time =    1.000,"P-6-1",           243,       190.717,       21.5318,            0.,NA,NA,"",   1.02844E+06,   1.03318E+06,   1.03318E+06
C:/temp/Job-6.odb,Step-1,Increment      1: Step Time =    1.000,"P-6-1",           244,       180.443,       23.2825,            0.,NA,NA,"",   1.14225E+06,   1.13626E+06,   1.13626E+06
C:/temp/Job-6.odb,Step-1,Increment      1: Step Time =    1.000,"P-6-1",           245,       167.894,       22.5149,            0.,NA,NA,"",   1.31546E+06,   1.27045E+06,   1.27045E+06
C:/temp/Job-6.odb,Step-1,Increment      1: Step Time =    1.000,"P-6-1",           246,       160.770,       22.2397,            0.,NA,NA,"",   1.40375E+06,   1.34438E+06,   1.34438E+06
C:/temp/Job-6.odb,Step-1,Increment      1: Step Time =    1.000,"P-6-1",           247,       144.508,       22.0885,            0.,NA,NA,"",   1.55089E+06,   1.51465E+06,   1.51465E+06
C:/temp/Job-6.odb,Step-1,Increment      1: Step Time =    1.000,"P-6-1",           248,       135.441,       19.0944,            0.,NA,NA,"",   1.41967E+06,   1.42782E+06,   1.42782E+06
C:/temp/Job-6.odb,Step-1,Increment      1: Step Time =    1.000,"P-6-1",           249,       125.465,       21.2127,            0.,NA,NA,"",   1.57040E+06,   1.65317E+06,   1.65317E+06
C:/temp/Job-6.odb,Step-1,Increment      1: Step Time =    1.000,"P-6-1",           250,       105.273,       23.3714,            0.,NA,NA,"",   1.98275E+06,   2.10827E+06,   2.10827E+06
C:/temp/Job-6.odb,Step-1,Increment      1: Step Time =    1.000,"P-6-1",           251,       93.7017,       21.2310,            0.,NA,NA,"",   2.03735E+06,   2.06944E+06,   2.06944E+06
C:/temp/Job-6.odb,Step-1,Increment      1: Step Time =    1.000,"P-6-1",           252,       81.5929,       21.4546,            0.,NA,NA,"",   2.21440E+06,   2.13952E+06,   2.13952E+06
C:/temp/Job-6.odb,Step-1,Increment      1: Step Time =    1.000,"P-6-1",           253,       77.2660,       22.3731,            0.,NA,NA,"",   2.28817E+06,   2.18209E+06,   2.18209E+06
C:/temp/Job-6.odb,Step-1,Increment      1: Step Time =    1.000,"P-6-1",           254,       64.7227,       17.6662,            0.,NA,NA,"",   2.20159E+06,   2.08184E+06,   2.08184E+06
C:/temp/Job-6.odb,Step-1,Increment      1: Step Time =    1.000,"P-6-1",           255,       51.4627,       18.8276,            0.,NA,NA,"",   2.20687E+06,   2.10278E+06,   2.10278E+06
C:/temp/Job-6.odb,Step-1,Increment      1: Step Time =    1.000,"P-6-1",           256,       40.5486,       19.5333,            0.,NA,NA,"",   2.17419E+06,   2.10309E+06,   2.10309E+06
C:/temp/Job-6.odb,Step-1,Increment      1: Step Time =    1.000,"P-6-1",           257,       31.3726,       20.1440,            0.,NA,NA,"",   2.13075E+06,   2.09583E+06,   2.09583E+06
C:/temp/Job-6.odb,Step-1,Increment      1: Step Time =    1.000,"P-6-1",           258,       21.9198,       20.6284,            0.,NA,NA,"",   2.08207E+06,   2.09492E+06,   2.09492E+06
C:/temp/Job-6.odb,Step-1,Increment      1: Step Time =    1.000,"P-6-1",           259,       11.9567,       22.7513,            0.,NA,NA,"",   1.85476E+06,   1.96086E+06,   1.96086E+06
C:/temp/Job-6.odb,Step-1,Increment      1: Step Time =    1.000,"P-6-1",           260,       191.579,       34.3515,            0.,NA,NA,"",   1.01883E+06,   1.06351E+06,   1.06351E+06
C:/temp/Job-6.odb,Step-1,Increment      1: Step Time =    1.000,"P-6-1",           261,       182.245,       34.1984,            0.,NA,NA,"",   1.22023E+06,   1.22128E+06,   1.22128E+06
C:/temp/Job-6.odb,Step-1,Increment      1: Step Time =    1.000,"P-6-1",           262,       170.084,       31.2559,            0.,NA,NA,"",   1.47030E+06,   1.40037E+06,   1.40037E+06
C:/temp/Job-6.odb,Step-1,Increment      1: Step Time =    1.000,"P-6-1",           263,       159.288,       30.2743,            0.,NA,NA,"",   1.65741E+06,   1.56162E+06,   1.56162E+06
C:/temp/Job-6.odb,Step-1,Increment      1: Step Time =    1.000,"P-6-1",           264,       145.830,       30.8644,            0.,NA,NA,"",   1.90997E+06,   1.85375E+06,   1.85375E+06
C:/temp/Job-6.odb,Step-1,Increment      1: Step Time =    1.000,"P-6-1",           265,       137.076,       31.2429,            0.,NA,NA,"",   2.03341E+06,   2.05678E+06,   2.05678E+06
C:/temp/Job-6.odb,Step-1,Increment      1: Step Time =    1.000,"P-6-1",           266,       127.839,       32.0907,            0.,NA,NA,"",   2.27345E+06,   2.39589E+06,   2.39589E+06
C:/temp/Job-6.odb,Step-1,Increment      1: Step Time =    1.000,"P-6-1",           267,       115.975,       31.1559,            0.,NA,NA,"",   2.45731E+06,   2.63635E+06,   2.63635E+06
C:/temp/Job-6.odb,Step-1,Increment      1: Step Time =    1.000,"P-6-1",           268,       107.958,       31.4003,            0.,NA,NA,"",   2.74387E+06,   2.93609E+06,   2.93609E+06
C:/temp/Job-6.odb,Step-1,Increment      1: Step Time =    1.000,"P-6-1",           269,       94.2380,       32.9737,            0.,NA,NA,"",   2.92074E+06,   3.03220E+06,   3.03220E+06
C:/temp/Job-6.odb,Step-1,Increment      1: Step Time =    1.000,"P-6-1",           270,       81.1551,       31.5338,            0.,NA,NA,"",   2.56904E+06,   2.53410E+06,   2.53410E+06
C:/temp/Job-6.odb,Step-1,Increment      1: Step Time =    1.000,"P-6-1",           271,       75.1617,       30.1387,            0.,NA,NA,"",   2.46374E+06,   2.35009E+06,   2.35009E+06
C:/temp/Job-6.odb,Step-1,Increment      1: Step Time =    1.000,"P-6-1",           272,       64.0349,       31.2098,            0.,NA,NA,"",   2.29741E+06,   2.09676E+06,   2.09676E+06
C:/temp/Job-6.odb,Step-1,Increment      1: Step Time =    1.000,"P-6-1",           273,       51.6347,       33.2009,            0.,NA,NA,"",   2.03510E+06,   1.83373E+06,   1.83373E+06
C:/temp/Job-6.odb,Step-1,Increment      1: Step Time =    1.000,"P-6-1",           274,       29.0549,       31.2045,            0.,NA,NA,"",   1.73295E+06,   1.69196E+06,   1.69196E+06
C:/temp/Job-6.odb,Step-1,Increment      1: Step Time =    1.000,"P-6-1",           275,       20.3295,       27.9274,            0.,NA,NA,"",   1.74597E+06,   1.77807E+06,   1.77807E+06
C:/temp/Job-6.odb,Step-1,Increment      1: Step Time =    1.000,"P-6-1",           276,       13.6329,       32.9438,            0.,NA,NA,"",   1.45345E+06,   1.53700E+06,   1.53700E+06
C:/temp/Job-6.odb,Step-1,Increment      1: Step Time =    1.000,"P-6-1",           277,       187.182,       169.271,            0.,NA,NA,"",   1.09542E+06,   1.11433E+06,   1.11433E+06
C:/temp/Job-6.odb,Step-1,Increment      1: Step Time =    1.000,"P-6-1",           278,       179.350,       168.531,            0.,NA,NA,"",   1.26569E+06,   1.24751E+06,   1.24751E+06
C:/temp/Job-6.odb,Step-1,Increment      1: Step Time =    1.000,"P-6-1",           279,       165.996,       170.492,            0.,NA,NA,"",   1.50598E+06,   1.43116E+06,   1.43116E+06
C:/temp/Job-6.odb,Step-1,Increment      1: Step Time =    1.000,"P-6-1",           280,       156.214,       169.563,            0.,NA,NA,"",   1.71391E+06,   1.61869E+06,   1.61869E+06
C:/temp/Job-6.odb,Step-1,Increment      1: Step Time =    1.000,"P-6-1",           281,       146.812,       167.778,            0.,NA,NA,"",   1.94358E+06,   1.87551E+06,   1.87551E+06
C:/temp/Job-6.odb,Step-1,Increment      1: Step Time =    1.000,"P-6-1",           282,       137.646,       169.525,            0.,NA,NA,"",   2.00230E+06,   2.02155E+06,   2.02155E+06
C:/temp/Job-6.odb,Step-1,Increment      1: Step Time =    1.000,"P-6-1",           283,       125.169,       166.508,            0.,NA,NA,"",   2.44945E+06,   2.59317E+06,   2.59317E+06
C:/temp/Job-6.odb,Step-1,Increment      1: Step Time =    1.000,"P-6-1",           284,       117.602,       168.164,            0.,NA,NA,"",   2.52824E+06,   2.70500E+06,   2.70500E+06
C:/temp/Job-6.odb,Step-1,Increment      1: Step Time =    1.000,"P-6-1",           285,       104.330,       169.195,            0.,NA,NA,"",   2.71257E+06,   2.88906E+06,   2.88906E+06
C:/temp/Job-6.odb,Step-1,Increment      1: Step Time =    1.000,"P-6-1",           286,       96.5301,       167.914,            0.,NA,NA,"",   2.82677E+06,   2.96226E+06,   2.96226E+06
C:/temp/Job-6.odb,Step-1,Increment      1: Step Time =    1.000,"P-6-1",           287,       87.2865,       166.753,            0.,NA,NA,"",   2.77201E+06,   2.81893E+06,   2.81893E+06
C:/temp/Job-6.odb,Step-1,Increment      1: Step Time =    1.000,"P-6-1",           288,       73.9515,       168.132,            0.,NA,NA,"",   2.48292E+06,   2.36262E+06,   2.36262E+06
C:/temp/Job-6.odb,Step-1,Increment      1: Step Time =    1.000,"P-6-1",           289,       61.0844,       168.084,            0.,NA,NA,"",   2.23320E+06,   2.02651E+06,   2.02651E+06
C:/temp/Job-6.odb,Step-1,Increment      1: Step Time =    1.000,"P-6-1",           290,       51.8107,       166.448,            0.,NA,NA,"",   2.02242E+06,   1.81740E+06,   1.81740E+06
C:/temp/Job-6.odb,Step-1,Increment      1: Step Time =    1.000,"P-6-1",           291,       40.6877,       166.626,            0.,NA,NA,"",   1.82823E+06,   1.69561E+06,   1.69561E+06
C:/temp/Job-6.odb,Step-1,Increment      1: Step Time =    1.000,"P-6-1",           292,       31.9877,       169.411,            0.,NA,NA,"",   1.80069E+06,   1.73918E+06,   1.73918E+06
C:/temp/Job-6.odb,Step-1,Increment      1: Step Time =    1.000,"P-6-1",           293,       22.5191,       166.104,            0.,NA,NA,"",   1.54555E+06,   1.55609E+06,   1.55609E+06
C:/temp/Job-6.odb,Step-1,Increment      1: Step Time =    1.000,"P-6-1",           294,       8.44626,       170.401,            0.,NA,NA,"",   1.50184E+06,   1.63000E+06,   1.63000E+06
C:/temp/Job-6.odb,Step-1,Increment      1: Step Time =    1.000,"P-6-1",           295,       189.167,       180.250,            0.,NA,NA,"",   1.03446E+06,   1.03753E+06,   1.03753E+06
C:/temp/Job-6.odb,Step-1,Increment      1: Step Time =    1.000,"P-6-1",           296,       179.201,       181.526,            0.,NA,NA,"",   1.10709E+06,   1.09981E+06,   1.09981E+06
C:/temp/Job-6.odb,Step-1,Increment      1: Step Time =    1.000,"P-6-1",           297,       168.190,       180.551,            0.,NA,NA,"",   1.23680E+06,   1.20229E+06,   1.20229E+06
C:/temp/Job-6.odb,Step-1,Increment      1: Step Time =    1.000,"P-6-1",           298,       157.597,       178.232,            0.,NA,NA,"",   1.42980E+06,   1.37111E+06,   1.37111E+06
C:/temp/Job-6.odb,Step-1,Increment      1: Step Time =    1.000,"P-6-1",           299,       147.398,       177.513,            0.,NA,NA,"",   1.53853E+06,   1.49008E+06,   1.49008E+06
C:/temp/Job-6.odb,Step-1,Increment      1: Step Time =    1.000,"P-6-1",           300,       134.120,       178.890,            0.,NA,NA,"",   1.53339E+06,   1.55565E+06,   1.55565E+06
C:/temp/Job-6.odb,Step-1,Increment      1: Step Time =    1.000,"P-6-1",           301,       125.841,       180.350,            0.,NA,NA,"",   1.46648E+06,   1.53272E+06,   1.53272E+06
C:/temp/Job-6.odb,Step-1,Increment      1: Step Time =    1.000,"P-6-1",           302,       115.278,       179.043,            0.,NA,NA,"",   1.63361E+06,   1.75141E+06,   1.75141E+06
C:/temp/Job-6.odb,Step-1,Increment      1: Step Time =    1.000,"P-6-1",           303,       104.344,       180.982,            0.,NA,NA,"",   1.64985E+06,   1.73809E+06,   1.73809E+06
C:/temp/Job-6.odb,Step-1,Increment      1: Step Time =    1.000,"P-6-1",           304,       94.2596,       180.170,            0.,NA,NA,"",   1.92621E+06,   1.95398E+06,   1.95398E+06
C:/temp/Job-6.odb,Step-1,Increment      1: Step Time =    1.000,"P-6-1",           305,       86.4893,       178.321,            0.,NA,NA,"",   2.17147E+06,   2.14624E+06,   2.14624E+06
C:/temp/Job-6.odb,Step-1,Increment      1: Step Time =    1.000,"P-6-1",           306,       74.3984,       178.382,            0.,NA,NA,"",   2.27926E+06,   2.16084E+06,   2.16084E+06
C:/temp/Job-6.odb,Step-1,Increment      1: Step Time =    1.000,"P-6-1",           307,       64.9812,       179.815,            0.,NA,NA,"",   2.25467E+06,   2.11573E+06,   2.11573E+06
C:/temp/Job-6.odb,Step-1,Increment      1: Step Time =    1.000,"P-6-1",           308,       55.7174,       179.516,            0.,NA,NA,"",   2.22254E+06,   2.09184E+06,   2.09184E+06
C:/temp/Job-6.odb,Step-1,Increment      1: Step Time =    1.000,"P-6-1",           309,       41.0411,       179.553,            0.,NA,NA,"",   2.15153E+06,   2.07472E+06,   2.07472E+06
C:/temp/Job-6.odb,Step-1,Increment      1: Step Time =    1.000,"P-6-1",           310,       33.4681,       179.446,            0.,NA,NA,"",   2.12503E+06,   2.07875E+06,   2.07875E+06
C:/temp/Job-6.odb,Step-1,Increment      1: Step Time =    1.000,"P-6-1",           311,       17.6506,       175.089,            0.,NA,NA,"",   1.83331E+06,   1.88671E+06,   1.88671E+06
C:/temp/Job-6.odb,Step-1,Increment      1: Step Time =    1.000,"P-6-1",           312,       9.46964,       179.790,            0.,NA,NA,"",   1.93195E+06,   2.06362E+06,   2.06362E+06
C:/temp/Job-6.odb,Step-1,Increment      1: Step Time =    1.000,"P-6-1",           313,       189.813,       190.182,            0.,NA,NA,"",   1.00349E+06,   1.00190E+06,   1.00190E+06
C:/temp/Job-6.odb,Step-1,Increment      1: Step Time =    1.000,"P-6-1",           314,       179.975,       190.700,            0.,NA,NA,"",   1.00780E+06,   1.00583E+06,   1.00583E+06
C:/temp/Job-6.odb,Step-1,Increment      1: Step Time =    1.000,"P-6-1",           315,       166.031,       190.904,            0.,NA,NA,"",   1.01159E+06,   1.00025E+06,   1.00025E+06
C:/temp/Job-6.odb,Step-1,Increment      1: Step Time =    1.000,"P-6-1",           316,       157.124,       190.293,            0.,NA,NA,"",   1.00900E+06,   989.902E+03,   989.902E+03
C:/temp/Job-6.odb,Step-1,Increment      1: Step Time =    1.000,"P-6-1",           317,       149.025,       187.393,            0.,NA,NA,"",   1.12538E+06,   1.09350E+06,   1.09350E+06
C:/temp/Job-6.odb,Step-1,Increment      1: Step Time =    1.000,"P-6-1",           318,       133.757,       190.089,            0.,NA,NA,"",   884.295E+03,   881.813E+03,   881.813E+03
C:/temp/Job-6.odb,Step-1,Increment      1: Step Time =    1.000,"P-6-1",           319,       124.737,       190.474,            0.,NA,NA,"",   769.208E+03,   789.450E+03,   789.450E+03
C:/temp/Job-6.odb,Step-1,Increment      1: Step Time =    1.000,"P-6-1",           320,       114.999,       190.033,            0.,NA,NA,"",   778.454E+03,   817.539E+03,   817.539E+03
C:/temp/Job-6.odb,Step-1,Increment      1: Step Time =    1.000,"P-6-1",           321,       104.754,       190.080,            0.,NA,NA,"",   932.303E+03,   958.955E+03,   958.955E+03
C:/temp/Job-6.odb,Step-1,Increment      1: Step Time =    1.000,"P-6-1",           322,       94.6472,       190.078,            0.,NA,NA,"",   1.21766E+06,   1.20595E+06,   1.20595E+06
C:/temp/Job-6.odb,Step-1,Increment      1: Step Time =    1.000,"P-6-1",           323,       84.8322,       189.694,            0.,NA,NA,"",   1.54935E+06,   1.50421E+06,   1.50421E+06
C:/temp/Job-6.odb,Step-1,Increment      1: Step Time =    1.000,"P-6-1",           324,       75.0123,       189.573,            0.,NA,NA,"",   1.82234E+06,   1.76218E+06,   1.76218E+06
C:/temp/Job-6.odb,Step-1,Increment      1: Step Time =    1.000,"P-6-1",           325,       64.9990,       190.071,            0.,NA,NA,"",   2.03592E+06,   1.97856E+06,   1.97856E+06
C:/temp/Job-6.odb,Step-1,Increment      1: Step Time =    1.000,"P-6-1",           326,       50.4465,       190.224,            0.,NA,NA,"",   2.26839E+06,   2.22831E+06,   2.22831E+06
C:/temp/Job-6.odb,Step-1,Increment      1: Step Time =    1.000,"P-6-1",           327,       41.0780,       190.059,            0.,NA,NA,"",   2.35688E+06,   2.33264E+06,   2.33264E+06
C:/temp/Job-6.odb,Step-1,Increment      1: Step Time =    1.000,"P-6-1",           328,       31.3167,       187.578,            0.,NA,NA,"",   2.35032E+06,   2.33234E+06,   2.33234E+06
C:/temp/Job-6.odb,Step-1,Increment      1: Step Time =    1.000,"P-6-1",           329,       20.0358,       189.314,            0.,NA,NA,"",   2.45609E+06,   2.46944E+06,   2.46944E+06
C:/temp/Job-6.odb,Step-1,Increment      1: Step Time =    1.000,"P-6-1",           330,       9.94923,       189.779,            0.,NA,NA,"",   2.51609E+06,   2.59770E+06,   2.59770E+06
C:/temp/Job-6.odb,Step-1,Increment      1: Step Time =    1.000,"P-6-1",           331,       94.9986,       154.772,            0.,NA,NA,"",   4.49630E+06,   4.55805E+06,   4.55805E+06
C:/temp/Job-6.odb,Step-1,Increment      1: Step Time =    1.000,"P-6-1",           332,       90.0386,       154.090,            0.,NA,NA,"",   4.01089E+06,   4.06127E+06,   4.06127E+06
C:/temp/Job-6.odb,Step-1,Increment      1: Step Time =    1.000,"P-6-1",           333,       80.4067,       151.392,            0.,NA,NA,"",   2.72774E+06,   2.74249E+06,   2.74249E+06
C:/temp/Job-6.odb,Step-1,Increment      1: Step Time =    1.000,"P-6-1",           334,       75.8146,       149.397,            0.,NA,NA,"",   1.95949E+06,   1.96215E+06,   1.96215E+06
C:/temp/Job-6.odb,Step-1,Increment      1: Step Time =    1.000,"P-6-1",           335,       67.2680,       144.200,            0.,NA,NA,"",   653.119E+03,   613.497E+03,   613.497E+03
C:/temp/Job-6.odb,Step-1,Increment      1: Step Time =    1.000,"P-6-1",           336,       63.3843,       141.040,            0.,NA,NA,"",   397.534E+03,   28.4186E+03,   28.4186E+03
C:/temp/Job-6.odb,Step-1,Increment      1: Step Time =    1.000,"P-6-1",           337,       56.5568,       133.730,            0.,NA,NA,"",   694.332E+03,  -689.273E+03,  -689.273E+03
C:/temp/Job-6.odb,Step-1,Increment      1: Step Time =    1.000,"P-6-1",           338,       51.1663,       125.304,            0.,NA,NA,"",   968.374E+03,  -978.731E+03,  -978.731E+03
C:/temp/Job-6.odb,Step-1,Increment      1: Step Time =    1.000,"P-6-1",           339,       49.0677,       120.758,            0.,NA,NA,"",   988.896E+03,  -1.00311E+06,  -1.00311E+06
C:/temp/Job-6.odb,Step-1,Increment      1: Step Time =    1.000,"P-6-1",           340,       46.1504,       111.190,            0.,NA,NA,"",   900.835E+03,  -917.778E+03,  -917.778E+03
C:/temp/Job-6.odb,Step-1,Increment      1: Step Time =    1.000,"P-6-1",           341,       45.3559,       106.247,            0.,NA,NA,"",   850.939E+03,  -869.767E+03,  -869.767E+03
C:/temp/Job-6.odb,Step-1,Increment      1: Step Time =    1.000,"P-6-1",           342,       45.1282,       96.2467,            0.,NA,NA,"",   824.787E+03,  -844.464E+03,  -844.464E+03
C:/temp/Job-6.odb,Step-1,Increment      1: Step Time =    1.000,"P-6-1",           343,       45.6969,       91.2725,            0.,NA,NA,"",   849.081E+03,  -868.253E+03,  -868.253E+03
C:/temp/Job-6.odb,Step-1,Increment      1: Step Time =    1.000,"P-6-1",           344,       48.1756,       81.5816,            0.,NA,NA,"",   922.004E+03,  -944.587E+03,  -944.587E+03
C:/temp/Job-6.odb,Step-1,Increment      1: Step Time =    1.000,"P-6-1",           345,       50.0652,       76.9453,            0.,NA,NA,"",   949.906E+03,  -963.409E+03,  -963.409E+03
C:/temp/Job-6.odb,Step-1,Increment      1: Step Time =    1.000,"P-6-1",           346,       55.0667,       68.2826,            0.,NA,NA,"",   811.558E+03,  -814.668E+03,  -814.668E+03
C:/temp/Job-6.odb,Step-1,Increment      1: Step Time =    1.000,"P-6-1",           347,       58.1370,       64.3280,            0.,NA,NA,"",   605.872E+03,  -593.872E+03,  -593.872E+03
C:/temp/Job-6.odb,Step-1,Increment      1: Step Time =    1.000,"P-6-1",           348,       65.2902,       57.3359,            0.,NA,NA,"",    471.44E+03,   395.600E+03,   395.600E+03
C:/temp/Job-6.odb,Step-1,Increment      1: Step Time =    1.000,"P-6-1",           349,       69.3136,       54.3563,            0.,NA,NA,"",   917.996E+03,   902.754E+03,   902.754E+03
C:/temp/Job-6.odb,Step-1,Increment      1: Step Time =    1.000,"P-6-1",           350,       78.0879,       49.5534,            0.,NA,NA,"",   2.18097E+06,   2.20108E+06,   2.20108E+06
C:/temp/Job-6.odb,Step-1,Increment      1: Step Time =    1.000,"P-6-1",           351,       82.7661,       47.7698,            0.,NA,NA,"",   2.83792E+06,   2.88220E+06,   2.88220E+06
C:/temp/Job-6.odb,Step-1,Increment      1: Step Time =    1.000,"P-6-1",           352,       92.5108,       45.5123,            0.,NA,NA,"",   4.30543E+06,   4.35124E+06,   4.35124E+06
C:/temp/Job-6.odb,Step-1,Increment      1: Step Time =    1.000,"P-6-1",           353,       102.503,       45.0570,            0.,NA,NA,"",   4.85428E+06,   4.93510E+06,   4.93510E+06
C:/temp/Job-6.odb,Step-1,Increment      1: Step Time =    1.000,"P-6-1",           354,       107.489,       45.5123,            0.,NA,NA,"",   4.84926E+06,   4.95262E+06,   4.95262E+06
C:/temp/Job-6.odb,Step-1,Increment      1: Step Time =    1.000,"P-6-1",           355,       117.234,       47.7698,            0.,NA,NA,"",   4.49488E+06,   4.60487E+06,   4.60487E+06
C:/temp/Job-6.odb,Step-1,Increment      1: Step Time =    1.000,"P-6-1",           356,       121.912,       49.5534,            0.,NA,NA,"",   4.18873E+06,   4.27319E+06,   4.27319E+06
C:/temp/Job-6.odb,Step-1,Increment      1: Step Time =    1.000,"P-6-1",           357,       130.686,       54.3563,            0.,NA,NA,"",   3.28673E+06,   3.33241E+06,   3.33241E+06
C:/temp/Job-6.odb,Step-1,Increment      1: Step Time =    1.000,"P-6-1",           358,       134.710,       57.3359,            0.,NA,NA,"",   2.70046E+06,   2.72981E+06,   2.72981E+06
C:/temp/Job-6.odb,Step-1,Increment      1: Step Time =    1.000,"P-6-1",           359,       141.863,       64.3280,            0.,NA,NA,"",   1.42502E+06,   1.40615E+06,   1.40615E+06
C:/temp/Job-6.odb,Step-1,Increment      1: Step Time =    1.000,"P-6-1",           360,       144.933,       68.2826,            0.,NA,NA,"",   873.504E+03,   789.116E+03,   789.116E+03
C:/temp/Job-6.odb,Step-1,Increment      1: Step Time =    1.000,"P-6-1",           361,       149.935,       76.9453,            0.,NA,NA,"",   935.021E+03,  -883.114E+03,  -883.114E+03
C:/temp/Job-6.odb,Step-1,Increment      1: Step Time =    1.000,"P-6-1",           362,       151.824,       81.5816,            0.,NA,NA,"",   1.46315E+06,  -1.45926E+06,  -1.45926E+06
C:/temp/Job-6.odb,Step-1,Increment      1: Step Time =    1.000,"P-6-1",           363,       154.303,       91.2725,            0.,NA,NA,"",   2.34267E+06,  -2.36926E+06,  -2.36926E+06
C:/temp/Job-6.odb,Step-1,Increment      1: Step Time =    1.000,"P-6-1",           364,       154.872,       96.2467,            0.,NA,NA,"",   2.56939E+06,  -2.59991E+06,  -2.59991E+06
C:/temp/Job-6.odb,Step-1,Increment      1: Step Time =    1.000,"P-6-1",           365,       154.644,       106.247,            0.,NA,NA,"",   2.46548E+06,  -2.49115E+06,  -2.49115E+06
C:/temp/Job-6.odb,Step-1,Increment      1: Step Time =    1.000,"P-6-1",           366,       153.850,       111.190,            0.,NA,NA,"",   2.14360E+06,  -2.16021E+06,  -2.16021E+06
C:/temp/Job-6.odb,Step-1,Increment      1: Step Time =    1.000,"P-6-1",           367,       150.932,       120.758,            0.,NA,NA,"",   1.18696E+06,  -1.16608E+06,  -1.16608E+06
C:/temp/Job-6.odb,Step-1,Increment      1: Step Time =    1.000,"P-6-1",           368,       146.330,       129.639,            0.,NA,NA,"",   743.273E+03,   250.354E+03,   250.354E+03
C:/temp/Job-6.odb,Step-1,Increment      1: Step Time =    1.000,"P-6-1",           369,       143.443,       133.730,            0.,NA,NA,"",   1.19217E+06,   1.13905E+06,   1.13905E+06
C:/temp/Job-6.odb,Step-1,Increment      1: Step Time =    1.000,"P-6-1",           370,       136.616,       141.040,            0.,NA,NA,"",   2.39568E+06,   2.41422E+06,   2.41422E+06
C:/temp/Job-6.odb,Step-1,Increment      1: Step Time =    1.000,"P-6-1",           371,       132.732,       144.200,            0.,NA,NA,"",   2.99287E+06,   3.02944E+06,   3.02944E+06
C:/temp/Job-6.odb,Step-1,Increment      1: Step Time =    1.000,"P-6-1",           372,       124.185,       149.397,            0.,NA,NA,"",   4.02385E+06,   4.10297E+06,   4.10297E+06
C:/temp/Job-6.odb,Step-1,Increment      1: Step Time =    1.000,"P-6-1",           373,       119.593,       151.392,            0.,NA,NA,"",   4.64112E+06,   4.69891E+06,   4.69891E+06
C:/temp/Job-6.odb,Step-1,Increment      1: Step Time =    1.000,"P-6-1",           374,       109.961,       154.090,            0.,NA,NA,"",   4.74871E+06,   4.86815E+06,   4.86815E+06
C:/temp/Job-6.odb,Step-1,Increment      1: Step Time =    1.000,"P-6-1",           375,       105.001,       154.772,            0.,NA,NA,"",   4.94656E+06,   5.02708E+06,   5.02708E+06
C:/temp/Job-6.odb,Step-1,Increment      1: Step Time =    1.000,"P-6-1",           376,          195.,            0.,            0.,NA,NA,"",   994.112E+03,   993.058E+03,   993.058E+03
C:/temp/Job-6.odb,Step-1,Increment      1: Step Time =    1.000,"P-6-1",           377,          185.,            0.,            0.,NA,NA,"",    967.99E+03,   967.925E+03,   967.925E+03
C:/temp/Job-6.odb,Step-1,Increment      1: Step Time =    1.000,"P-6-1",           378,          175.,            0.,            0.,NA,NA,"",   932.889E+03,   932.106E+03,   932.106E+03
C:/temp/Job-6.odb,Step-1,Increment      1: Step Time =    1.000,"P-6-1",           379,          165.,            0.,            0.,NA,NA,"",   871.597E+03,   869.589E+03,   869.589E+03
C:/temp/Job-6.odb,Step-1,Increment      1: Step Time =    1.000,"P-6-1",           380,          155.,            0.,            0.,NA,NA,"",   758.003E+03,   755.558E+03,   755.558E+03
C:/temp/Job-6.odb,Step-1,Increment      1: Step Time =    1.000,"P-6-1",           381,          145.,            0.,            0.,NA,NA,"",   578.632E+03,   575.836E+03,   575.836E+03
C:/temp/Job-6.odb,Step-1,Increment      1: Step Time =    1.000,"P-6-1",           382,          135.,            0.,            0.,NA,NA,"",   369.414E+03,   366.549E+03,   366.549E+03
C:/temp/Job-6.odb,Step-1,Increment      1: Step Time =    1.000,"P-6-1",           383,          125.,            0.,            0.,NA,NA,"",   188.884E+03,   189.422E+03,   189.422E+03
C:/temp/Job-6.odb,Step-1,Increment      1: Step Time =    1.000,"P-6-1",           384,          115.,            0.,            0.,NA,NA,"",   115.490E+03,   120.031E+03,   120.031E+03
C:/temp/Job-6.odb,Step-1,Increment      1: Step Time =    1.000,"P-6-1",           385,          105.,            0.,            0.,NA,NA,"",   238.618E+03,   239.119E+03,   239.119E+03
C:/temp/Job-6.odb,Step-1,Increment      1: Step Time =    1.000,"P-6-1",           386,           95.,            0.,            0.,NA,NA,"",   547.893E+03,   543.384E+03,   543.384E+03
C:/temp/Job-6.odb,Step-1,Increment      1: Step Time =    1.000,"P-6-1",           387,           85.,            0.,            0.,NA,NA,"",   978.121E+03,   971.259E+03,   971.259E+03
C:/temp/Job-6.odb,Step-1,Increment      1: Step Time =    1.000,"P-6-1",           388,           75.,            0.,            0.,NA,NA,"",   1.46255E+06,   1.45589E+06,   1.45589E+06
C:/temp/Job-6.odb,Step-1,Increment      1: Step Time =    1.000,"P-6-1",           389,           65.,            0.,            0.,NA,NA,"",   1.91381E+06,   1.91020E+06,   1.91020E+06
C:/temp/Job-6.odb,Step-1,Increment      1: Step Time =    1.000,"P-6-1",           390,           55.,            0.,            0.,NA,NA,"",   2.26659E+06,   2.26009E+06,   2.26009E+06
C:/temp/Job-6.odb,Step-1,Increment      1: Step Time =    1.000,"P-6-1",           391,           45.,            0.,            0.,NA,NA,"",   2.52130E+06,   2.51885E+06,   2.51885E+06
C:/temp/Job-6.odb,Step-1,Increment      1: Step Time =    1.000,"P-6-1",           392,           35.,            0.,            0.,NA,NA,"",   2.63214E+06,   2.63159E+06,   2.63159E+06
C:/temp/Job-6.odb,Step-1,Increment      1: Step Time =    1.000,"P-6-1",           393,           25.,            0.,            0.,NA,NA,"",   2.68528E+06,   2.68580E+06,   2.68580E+06
C:/temp/Job-6.odb,Step-1,Increment      1: Step Time =    1.000,"P-6-1",           394,           15.,            0.,            0.,NA,NA,"",   2.73750E+06,   2.74497E+06,   2.74497E+06
C:/temp/Job-6.odb,Step-1,Increment      1: Step Time =    1.000,"P-6-1",           395,            5.,            0.,            0.,NA,NA,"",   3.06731E+06,   3.13718E+06,   3.13718E+06
C:/temp/Job-6.odb,Step-1,Increment      1: Step Time =    1.000,"P-6-1",           396,          200.,          195.,            0.,NA,NA,"",   1.00146E+06,   998.269E+03,   998.269E+03
C:/temp/Job-6.odb,Step-1,Increment      1: Step Time =    1.000,"P-6-1",           397,          200.,          185.,            0.,NA,NA,"",   1.01535E+06,   1.00257E+06,   1.00257E+06
C:/temp/Job-6.odb,Step-1,Increment      1: Step Time =    1.000,"P-6-1",           398,          200.,          175.,            0.,NA,NA,"",   1.01231E+06,   1.00884E+06,   1.00884E+06
C:/temp/Job-6.odb,Step-1,Increment      1: Step Time =    1.000,"P-6-1",           399,          200.,          165.,            0.,NA,NA,"",   968.514E+03,   1.01359E+06,   1.01359E+06
C:/temp/Job-6.odb,Step-1,Increment      1: Step Time =    1.000,"P-6-1",           400,          200.,          155.,            0.,NA,NA,"",   902.535E+03,   1.01841E+06,   1.01841E+06
C:/temp/Job-6.odb,Step-1,Increment      1: Step Time =    1.000,"P-6-1",           401,          200.,          145.,            0.,NA,NA,"",    936.58E+03,   1.05647E+06,   1.05647E+06
C:/temp/Job-6.odb,Step-1,Increment      1: Step Time =    1.000,"P-6-1",           402,          200.,          135.,            0.,NA,NA,"",   1.20788E+06,   1.35860E+06,   1.35860E+06
C:/temp/Job-6.odb,Step-1,Increment      1: Step Time =    1.000,"P-6-1",           403,          200.,          125.,            0.,NA,NA,"",   1.63461E+06,   1.88529E+06,   1.88529E+06
C:/temp/Job-6.odb,Step-1,Increment      1: Step Time =    1.000,"P-6-1",           404,          200.,          115.,            0.,NA,NA,"",   2.06104E+06,   2.36755E+06,   2.36755E+06
C:/temp/Job-6.odb,Step-1,Increment      1: Step Time =    1.000,"P-6-1",           405,          200.,          105.,            0.,NA,NA,"",   2.31036E+06,   2.63925E+06,   2.63925E+06
C:/temp/Job-6.odb,Step-1,Increment      1: Step Time =    1.000,"P-6-1",           406,          200.,           95.,            0.,NA,NA,"",   2.30990E+06,   2.63785E+06,   2.63785E+06
C:/temp/Job-6.odb,Step-1,Increment      1: Step Time =    1.000,"P-6-1",           407,          200.,           85.,            0.,NA,NA,"",   2.05374E+06,   2.35995E+06,   2.35995E+06
C:/temp/Job-6.odb,Step-1,Increment      1: Step Time =    1.000,"P-6-1",           408,          200.,           75.,            0.,NA,NA,"",   1.63753E+06,   1.88900E+06,   1.88900E+06
C:/temp/Job-6.odb,Step-1,Increment      1: Step Time =    1.000,"P-6-1",           409,          200.,           65.,            0.,NA,NA,"",   1.19660E+06,   1.35359E+06,   1.35359E+06
C:/temp/Job-6.odb,Step-1,Increment      1: Step Time =    1.000,"P-6-1",           410,          200.,           55.,            0.,NA,NA,"",   959.786E+03,   1.09913E+06,   1.09913E+06
C:/temp/Job-6.odb,Step-1,Increment      1: Step Time =    1.000,"P-6-1",           411,          200.,           45.,            0.,NA,NA,"",   911.722E+03,   1.02396E+06,   1.02396E+06
C:/temp/Job-6.odb,Step-1,Increment      1: Step Time =    1.000,"P-6-1",           412,          200.,           35.,            0.,NA,NA,"",   969.771E+03,   1.00717E+06,   1.00717E+06
C:/temp/Job-6.odb,Step-1,Increment      1: Step Time =    1.000,"P-6-1",           413,          200.,           25.,            0.,NA,NA,"",   1.01371E+06,   1.00420E+06,   1.00420E+06
C:/temp/Job-6.odb,Step-1,Increment      1: Step Time =    1.000,"P-6-1",           414,          200.,           15.,            0.,NA,NA,"",   1.01591E+06,   1.00220E+06,   1.00220E+06
C:/temp/Job-6.odb,Step-1,Increment      1: Step Time =    1.000,"P-6-1",           415,          200.,            5.,            0.,NA,NA,"",   1.00163E+06,   998.194E+03,   998.194E+03
C:/temp/Job-6.odb,Step-1,Increment      1: Step Time =    1.000,"P-6-1",           416,            5.,          200.,            0.,NA,NA,"",   3.07666E+06,    3.1475E+06,    3.1475E+06
C:/temp/Job-6.odb,Step-1,Increment      1: Step Time =    1.000,"P-6-1",           417,           15.,          200.,            0.,NA,NA,"",   2.73330E+06,   2.74178E+06,   2.74178E+06
C:/temp/Job-6.odb,Step-1,Increment      1: Step Time =    1.000,"P-6-1",           418,           25.,          200.,            0.,NA,NA,"",   2.67429E+06,   2.67505E+06,   2.67505E+06
C:/temp/Job-6.odb,Step-1,Increment      1: Step Time =    1.000,"P-6-1",           419,           35.,          200.,            0.,NA,NA,"",   2.61704E+06,   2.61492E+06,   2.61492E+06
C:/temp/Job-6.odb,Step-1,Increment      1: Step Time =    1.000,"P-6-1",           420,           45.,          200.,            0.,NA,NA,"",   2.48802E+06,   2.48525E+06,   2.48525E+06
C:/temp/Job-6.odb,Step-1,Increment      1: Step Time =    1.000,"P-6-1",           421,           55.,          200.,            0.,NA,NA,"",    2.2606E+06,   2.25547E+06,   2.25547E+06
C:/temp/Job-6.odb,Step-1,Increment      1: Step Time =    1.000,"P-6-1",           422,           65.,          200.,            0.,NA,NA,"",   1.90624E+06,   1.90023E+06,   1.90023E+06
C:/temp/Job-6.odb,Step-1,Increment      1: Step Time =    1.000,"P-6-1",           423,           75.,          200.,            0.,NA,NA,"",   1.45915E+06,   1.45259E+06,   1.45259E+06
C:/temp/Job-6.odb,Step-1,Increment      1: Step Time =    1.000,"P-6-1",           424,           85.,          200.,            0.,NA,NA,"",   978.277E+03,   972.029E+03,   972.029E+03
C:/temp/Job-6.odb,Step-1,Increment      1: Step Time =    1.000,"P-6-1",           425,           95.,          200.,            0.,NA,NA,"",   539.152E+03,   534.138E+03,   534.138E+03
C:/temp/Job-6.odb,Step-1,Increment      1: Step Time =    1.000,"P-6-1",           426,          105.,          200.,            0.,NA,NA,"",   229.483E+03,   228.834E+03,   228.834E+03
C:/temp/Job-6.odb,Step-1,Increment      1: Step Time =    1.000,"P-6-1",           427,          115.,          200.,            0.,NA,NA,"",   104.065E+03,   108.482E+03,   108.482E+03
C:/temp/Job-6.odb,Step-1,Increment      1: Step Time =    1.000,"P-6-1",           428,          125.,          200.,            0.,NA,NA,"",   179.899E+03,   181.419E+03,   181.419E+03
C:/temp/Job-6.odb,Step-1,Increment      1: Step Time =    1.000,"P-6-1",           429,          135.,          200.,            0.,NA,NA,"",   395.300E+03,   393.755E+03,   393.755E+03
C:/temp/Job-6.odb,Step-1,Increment      1: Step Time =    1.000,"P-6-1",           430,          145.,          200.,            0.,NA,NA,"",   637.589E+03,   626.677E+03,   626.677E+03
C:/temp/Job-6.odb,Step-1,Increment      1: Step Time =    1.000,"P-6-1",           431,          155.,          200.,            0.,NA,NA,"",   782.198E+03,   779.484E+03,   779.484E+03
C:/temp/Job-6.odb,Step-1,Increment      1: Step Time =    1.000,"P-6-1",           432,          165.,          200.,            0.,NA,NA,"",   877.245E+03,   875.989E+03,   875.989E+03
C:/temp/Job-6.odb,Step-1,Increment      1: Step Time =    1.000,"P-6-1",           433,          175.,          200.,            0.,NA,NA,"",   932.925E+03,   932.457E+03,   932.457E+03
C:/temp/Job-6.odb,Step-1,Increment      1: Step Time =    1.000,"P-6-1",           434,          185.,          200.,            0.,NA,NA,"",   968.187E+03,   968.057E+03,   968.057E+03
C:/temp/Job-6.odb,Step-1,Increment      1: Step Time =    1.000,"P-6-1",           435,          195.,          200.,            0.,NA,NA,"",   994.531E+03,   993.595E+03,   993.595E+03
C:/temp/Job-6.odb,Step-1,Increment      1: Step Time =    1.000,"P-6-1",           436,            0.,            5.,            0.,NA,NA,"",   2.83794E+06,   3.02849E+06,   3.02849E+06
C:/temp/Job-6.odb,Step-1,Increment      1: Step Time =    1.000,"P-6-1",           437,            0.,           15.,            0.,NA,NA,"",   2.01012E+06,   2.22225E+06,   2.22225E+06
C:/temp/Job-6.odb,Step-1,Increment      1: Step Time =    1.000,"P-6-1",           438,            0.,           25.,            0.,NA,NA,"",   1.56869E+06,   1.75127E+06,   1.75127E+06
C:/temp/Job-6.odb,Step-1,Increment      1: Step Time =    1.000,"P-6-1",           439,            0.,           35.,            0.,NA,NA,"",   1.19757E+06,   1.33980E+06,   1.33980E+06
C:/temp/Job-6.odb,Step-1,Increment      1: Step Time =    1.000,"P-6-1",           440,            0.,           45.,            0.,NA,NA,"",   879.604E+03,   981.793E+03,   981.793E+03
C:/temp/Job-6.odb,Step-1,Increment      1: Step Time =    1.000,"P-6-1",           441,            0.,           55.,            0.,NA,NA,"",   590.128E+03,   650.606E+03,   650.606E+03
C:/temp/Job-6.odb,Step-1,Increment      1: Step Time =    1.000,"P-6-1",           442,            0.,           65.,            0.,NA,NA,"",   349.997E+03,   368.099E+03,   368.099E+03
C:/temp/Job-6.odb,Step-1,Increment      1: Step Time =    1.000,"P-6-1",           443,            0.,           75.,            0.,NA,NA,"",   188.349E+03,   150.745E+03,   150.745E+03
C:/temp/Job-6.odb,Step-1,Increment      1: Step Time =    1.000,"P-6-1",           444,            0.,           85.,            0.,NA,NA,"",   152.210E+03,  -138.830E+03,  -138.830E+03
C:/temp/Job-6.odb,Step-1,Increment      1: Step Time =    1.000,"P-6-1",           445,            0.,           95.,            0.,NA,NA,"",   179.167E+03,  -193.045E+03,  -193.045E+03
C:/temp/Job-6.odb,Step-1,Increment      1: Step Time =    1.000,"P-6-1",           446,            0.,          105.,            0.,NA,NA,"",   179.432E+03,  -193.922E+03,  -193.922E+03
C:/temp/Job-6.odb,Step-1,Increment      1: Step Time =    1.000,"P-6-1",           447,            0.,          115.,            0.,NA,NA,"",   152.297E+03,  -139.877E+03,  -139.877E+03
C:/temp/Job-6.odb,Step-1,Increment      1: Step Time =    1.000,"P-6-1",           448,            0.,          125.,            0.,NA,NA,"",   184.127E+03,   148.416E+03,   148.416E+03
C:/temp/Job-6.odb,Step-1,Increment      1: Step Time =    1.000,"P-6-1",           449,            0.,          135.,            0.,NA,NA,"",   342.717E+03,   360.408E+03,   360.408E+03
C:/temp/Job-6.odb,Step-1,Increment      1: Step Time =    1.000,"P-6-1",           450,            0.,          145.,            0.,NA,NA,"",   602.244E+03,   664.746E+03,   664.746E+03
C:/temp/Job-6.odb,Step-1,Increment      1: Step Time =    1.000,"P-6-1",           451,            0.,          155.,            0.,NA,NA,"",   903.220E+03,   1.01175E+06,   1.01175E+06
C:/temp/Job-6.odb,Step-1,Increment      1: Step Time =    1.000,"P-6-1",           452,            0.,          165.,            0.,NA,NA,"",   1.22019E+06,   1.36854E+06,   1.36854E+06
C:/temp/Job-6.odb,Step-1,Increment      1: Step Time =    1.000,"P-6-1",           453,            0.,          175.,            0.,NA,NA,"",   1.58364E+06,   1.77135E+06,   1.77135E+06
C:/temp/Job-6.odb,Step-1,Increment      1: Step Time =    1.000,"P-6-1",           454,            0.,          185.,            0.,NA,NA,"",   2.01886E+06,   2.23838E+06,   2.23838E+06
C:/temp/Job-6.odb,Step-1,Increment      1: Step Time =    1.000,"P-6-1",           455,            0.,          195.,            0.,NA,NA,"",   2.84731E+06,   3.04484E+06,   3.04484E+06
C:/temp/Job-6.odb,Step-1,Increment      1: Step Time =    1.000,"P-6-1",           456,       102.590,       40.9369,            0.,NA,NA,"",   4.39183E+06,   4.51180E+06,   4.51180E+06
C:/temp/Job-6.odb,Step-1,Increment      1: Step Time =    1.000,"P-6-1",           457,       91.2456,       37.6738,            0.,NA,NA,"",   3.26729E+06,   3.36475E+06,   3.36475E+06
C:/temp/Job-6.odb,Step-1,Increment      1: Step Time =    1.000,"P-6-1",           458,       113.982,       40.9061,            0.,NA,NA,"",   4.11774E+06,   4.27168E+06,   4.27168E+06
C:/temp/Job-6.odb,Step-1,Increment      1: Step Time =    1.000,"P-6-1",           459,       124.827,       195.239,            0.,NA,NA,"",   385.367E+03,   391.344E+03,   391.344E+03
C:/temp/Job-6.odb,Step-1,Increment      1: Step Time =    1.000,"P-6-1",           460,       194.934,       124.756,            0.,NA,NA,"",   1.53395E+06,   1.76929E+06,   1.76929E+06
C:/temp/Job-6.odb,Step-1,Increment      1: Step Time =    1.000,"P-6-1",           461,       195.190,       134.666,            0.,NA,NA,"",   1.21724E+06,   1.38649E+06,   1.38649E+06
C:/temp/Job-6.odb,Step-1,Increment      1: Step Time =    1.000,"P-6-1",           462,       134.597,       194.861,            0.,NA,NA,"",   564.919E+03,   560.808E+03,   560.808E+03
C:/temp/Job-6.odb,Step-1,Increment      1: Step Time =    1.000,"P-6-1",           463,       194.869,       94.9602,            0.,NA,NA,"",   2.00588E+06,   2.30011E+06,   2.30011E+06
C:/temp/Job-6.odb,Step-1,Increment      1: Step Time =    1.000,"P-6-1",           464,       134.868,       4.71072,            0.,NA,NA,"",   536.816E+03,   531.512E+03,   531.512E+03
C:/temp/Job-6.odb,Step-1,Increment      1: Step Time =    1.000,"P-6-1",           465,       144.662,       4.49195,            0.,NA,NA,"",   692.755E+03,   684.495E+03,   684.495E+03
C:/temp/Job-6.odb,Step-1,Increment      1: Step Time =    1.000,"P-6-1",           466,       154.490,       4.74254,            0.,NA,NA,"",   836.947E+03,   828.609E+03,   828.609E+03
C:/temp/Job-6.odb,Step-1,Increment      1: Step Time =    1.000,"P-6-1",           467,       104.868,       5.15823,            0.,NA,NA,"",   499.071E+03,   505.602E+03,   505.602E+03
C:/temp/Job-6.odb,Step-1,Increment      1: Step Time =    1.000,"P-6-1",           468,       114.982,       5.29970,            0.,NA,NA,"",   366.134E+03,   381.531E+03,   381.531E+03
C:/temp/Job-6.odb,Step-1,Increment      1: Step Time =    1.000,"P-6-1",           469,       94.7528,       5.12132,            0.,NA,NA,"",   792.843E+03,   783.129E+03,   783.129E+03
C:/temp/Job-6.odb,Step-1,Increment      1: Step Time =    1.000,"P-6-1",           470,       84.6418,       5.04867,            0.,NA,NA,"",   1.17691E+06,   1.15593E+06,   1.15593E+06
C:/temp/Job-6.odb,Step-1,Increment      1: Step Time =    1.000,"P-6-1",           471,       74.6452,       4.62043,            0.,NA,NA,"",   1.57406E+06,   1.55212E+06,   1.55212E+06
C:/temp/Job-6.odb,Step-1,Increment      1: Step Time =    1.000,"P-6-1",           472,       5.14846,       124.770,            0.,NA,NA,"",   162.899E+03,   134.104E+03,   134.104E+03
C:/temp/Job-6.odb,Step-1,Increment      1: Step Time =    1.000,"P-6-1",           473,       65.0338,       195.029,            0.,NA,NA,"",   1.94218E+06,   1.92096E+06,   1.92096E+06
C:/temp/Job-6.odb,Step-1,Increment      1: Step Time =    1.000,"P-6-1",           474,       55.1210,       195.148,            0.,NA,NA,"",   2.23138E+06,   2.21488E+06,   2.21488E+06
C:/temp/Job-6.odb,Step-1,Increment      1: Step Time =    1.000,"P-6-1",           475,       45.3205,       195.102,            0.,NA,NA,"",   2.42427E+06,   2.41372E+06,   2.41372E+06
C:/temp/Job-6.odb,Step-1,Increment      1: Step Time =    1.000,"P-6-1",           476,       4.98961,       104.911,            0.,NA,NA,"",   191.101E+03,  -201.638E+03,  -201.638E+03
C:/temp/Job-6.odb,Step-1,Increment      1: Step Time =    1.000,"P-6-1",           477,       4.68069,       74.9168,            0.,NA,NA,"",   168.036E+03,   139.746E+03,   139.746E+03
C:/temp/Job-6.odb,Step-1,Increment      1: Step Time =    1.000,"P-6-1",           478,       4.10082,       65.1769,            0.,NA,NA,"",   332.308E+03,   354.230E+03,   354.230E+03
C:/temp/Job-6.odb,Step-1,Increment      1: Step Time =    1.000,"P-6-1",           479,       64.8498,       4.64139,            0.,NA,NA,"",   1.94056E+06,   1.92429E+06,   1.92429E+06
C:/temp/Job-6.odb,Step-1,Increment      1: Step Time =    1.000,"P-6-1",           480,       75.0139,       194.838,            0.,NA,NA,"",   1.57792E+06,   1.55376E+06,   1.55376E+06
C:/temp/Job-6.odb,Step-1,Increment      1: Step Time =    1.000,"P-6-1",           481,       84.8699,       194.889,            0.,NA,NA,"",   1.17558E+06,   1.15465E+06,   1.15465E+06
C:/temp/Job-6.odb,Step-1,Increment      1: Step Time =    1.000,"P-6-1",           482,       94.8064,       194.999,            0.,NA,NA,"",   780.345E+03,   770.277E+03,   770.277E+03
C:/temp/Job-6.odb,Step-1,Increment      1: Step Time =    1.000,"P-6-1",           483,       5.94256,       10.8459,            0.,NA,NA,"",   2.37647E+06,   2.53818E+06,   2.53818E+06
C:/temp/Job-6.odb,Step-1,Increment      1: Step Time =    1.000,"P-6-1",           484,       5.73164,       21.2035,            0.,NA,NA,"",   1.80498E+06,   1.97437E+06,   1.97437E+06
C:/temp/Job-6.odb,Step-1,Increment      1: Step Time =    1.000,"P-6-1",           485,       4.97090,       31.0963,            0.,NA,NA,"",   1.39192E+06,   1.53877E+06,   1.53877E+06
C:/temp/Job-6.odb,Step-1,Increment      1: Step Time =    1.000,"P-6-1",           486,       4.99054,       36.1442,            0.,NA,NA,"",   1.20750E+06,   1.33671E+06,   1.33671E+06
C:/temp/Job-6.odb,Step-1,Increment      1: Step Time =    1.000,"P-6-1",           487,       4.54802,       45.9292,            0.,NA,NA,"",   870.366E+03,   964.504E+03,   964.504E+03
C:/temp/Job-6.odb,Step-1,Increment      1: Step Time =    1.000,"P-6-1",           488,       3.98638,       55.5540,            0.,NA,NA,"",   578.506E+03,   637.454E+03,   637.454E+03
C:/temp/Job-6.odb,Step-1,Increment      1: Step Time =    1.000,"P-6-1",           489,       15.8016,       4.85468,            0.,NA,NA,"",   2.66534E+06,   2.67680E+06,   2.67680E+06
C:/temp/Job-6.odb,Step-1,Increment      1: Step Time =    1.000,"P-6-1",           490,       25.6067,       4.26647,            0.,NA,NA,"",   2.62379E+06,   2.62246E+06,   2.62246E+06
C:/temp/Job-6.odb,Step-1,Increment      1: Step Time =    1.000,"P-6-1",           491,       35.4700,       4.40540,            0.,NA,NA,"",   2.55498E+06,   2.55003E+06,   2.55003E+06
C:/temp/Job-6.odb,Step-1,Increment      1: Step Time =    1.000,"P-6-1",           492,       45.0873,       3.59124,            0.,NA,NA,"",   2.45930E+06,   2.45437E+06,   2.45437E+06
C:/temp/Job-6.odb,Step-1,Increment      1: Step Time =    1.000,"P-6-1",           493,       53.9387,       5.88125,            0.,NA,NA,"",   2.24743E+06,   2.22704E+06,   2.22704E+06
C:/temp/Job-6.odb,Step-1,Increment      1: Step Time =    1.000,"P-6-1",           494,       124.976,       5.06575,            0.,NA,NA,"",   410.388E+03,   415.713E+03,   415.713E+03
C:/temp/Job-6.odb,Step-1,Increment      1: Step Time =    1.000,"P-6-1",           495,       164.426,       4.80735,            0.,NA,NA,"",   921.116E+03,   915.146E+03,   915.146E+03
C:/temp/Job-6.odb,Step-1,Increment      1: Step Time =    1.000,"P-6-1",           496,       174.341,       4.60181,            0.,NA,NA,"",   957.301E+03,   955.052E+03,   955.052E+03
C:/temp/Job-6.odb,Step-1,Increment      1: Step Time =    1.000,"P-6-1",           497,       184.272,       5.07208,            0.,NA,NA,"",   981.044E+03,   980.618E+03,   980.618E+03
C:/temp/Job-6.odb,Step-1,Increment      1: Step Time =    1.000,"P-6-1",           498,       192.601,       54.6384,            0.,NA,NA,"",   1.08384E+06,   1.21253E+06,   1.21253E+06
C:/temp/Job-6.odb,Step-1,Increment      1: Step Time =    1.000,"P-6-1",           499,       194.744,       65.3393,            0.,NA,NA,"",   1.21760E+06,   1.38933E+06,   1.38933E+06
C:/temp/Job-6.odb,Step-1,Increment      1: Step Time =    1.000,"P-6-1",           500,       195.103,       75.1444,            0.,NA,NA,"",   1.53474E+06,   1.77050E+06,   1.77050E+06
C:/temp/Job-6.odb,Step-1,Increment      1: Step Time =    1.000,"P-6-1",           501,       194.837,       84.9914,            0.,NA,NA,"",   1.82815E+06,   2.10400E+06,   2.10400E+06
C:/temp/Job-6.odb,Step-1,Increment      1: Step Time =    1.000,"P-6-1",           502,       194.622,       5.37789,            0.,NA,NA,"",   998.187E+03,   995.776E+03,   995.776E+03
C:/temp/Job-6.odb,Step-1,Increment      1: Step Time =    1.000,"P-6-1",           503,       194.936,       15.6861,            0.,NA,NA,"",   1.01455E+06,   1.00693E+06,   1.00693E+06
C:/temp/Job-6.odb,Step-1,Increment      1: Step Time =    1.000,"P-6-1",           504,       195.771,       25.2317,            0.,NA,NA,"",   1.01313E+06,   1.01350E+06,   1.01350E+06
C:/temp/Job-6.odb,Step-1,Increment      1: Step Time =    1.000,"P-6-1",           505,       195.838,       34.7259,            0.,NA,NA,"",   979.342E+03,   1.02218E+06,   1.02218E+06
C:/temp/Job-6.odb,Step-1,Increment      1: Step Time =    1.000,"P-6-1",           506,       195.154,       44.2461,            0.,NA,NA,"",   954.848E+03,   1.06096E+06,   1.06096E+06
C:/temp/Job-6.odb,Step-1,Increment      1: Step Time =    1.000,"P-6-1",           507,       195.047,       104.941,            0.,NA,NA,"",   2.02280E+06,   2.32000E+06,   2.32000E+06
C:/temp/Job-6.odb,Step-1,Increment      1: Step Time =    1.000,"P-6-1",           508,       195.170,       114.840,            0.,NA,NA,"",   1.84627E+06,   2.12444E+06,   2.12444E+06
C:/temp/Job-6.odb,Step-1,Increment      1: Step Time =    1.000,"P-6-1",           509,       195.516,       144.479,            0.,NA,NA,"",   997.059E+03,   1.13496E+06,   1.13496E+06
C:/temp/Job-6.odb,Step-1,Increment      1: Step Time =    1.000,"P-6-1",           510,       194.965,       154.316,            0.,NA,NA,"",   958.877E+03,   1.07049E+06,   1.07049E+06
C:/temp/Job-6.odb,Step-1,Increment      1: Step Time =    1.000,"P-6-1",           511,       145.324,       192.599,            0.,NA,NA,"",   848.725E+03,   829.693E+03,   829.693E+03
C:/temp/Job-6.odb,Step-1,Increment      1: Step Time =    1.000,"P-6-1",           512,       194.109,       164.407,            0.,NA,NA,"",   1.00032E+06,   1.04794E+06,   1.04794E+06
C:/temp/Job-6.odb,Step-1,Increment      1: Step Time =    1.000,"P-6-1",           513,       155.868,       194.984,            0.,NA,NA,"",   853.304E+03,   846.055E+03,   846.055E+03
C:/temp/Job-6.odb,Step-1,Increment      1: Step Time =    1.000,"P-6-1",           514,       194.140,       174.820,            0.,NA,NA,"",   1.02142E+06,   1.02583E+06,   1.02583E+06
C:/temp/Job-6.odb,Step-1,Increment      1: Step Time =    1.000,"P-6-1",           515,       165.468,       195.507,            0.,NA,NA,"",   918.985E+03,   915.028E+03,   915.028E+03
C:/temp/Job-6.odb,Step-1,Increment      1: Step Time =    1.000,"P-6-1",           516,       194.714,       185.028,            0.,NA,NA,"",   1.01444E+06,   1.00695E+06,   1.00695E+06
C:/temp/Job-6.odb,Step-1,Increment      1: Step Time =    1.000,"P-6-1",           517,       175.142,       195.487,            0.,NA,NA,"",   957.902E+03,   956.268E+03,   956.268E+03
C:/temp/Job-6.odb,Step-1,Increment      1: Step Time =    1.000,"P-6-1",           518,       194.956,       195.022,            0.,NA,NA,"",   997.865E+03,   995.471E+03,   995.471E+03
C:/temp/Job-6.odb,Step-1,Increment      1: Step Time =    1.000,"P-6-1",           519,       184.976,       195.222,            0.,NA,NA,"",   979.711E+03,   979.434E+03,   979.434E+03
C:/temp/Job-6.odb,Step-1,Increment      1: Step Time =    1.000,"P-6-1",           520,       104.882,       194.988,            0.,NA,NA,"",   478.071E+03,   483.908E+03,   483.908E+03
C:/temp/Job-6.odb,Step-1,Increment      1: Step Time =    1.000,"P-6-1",           521,       114.961,       195.044,            0.,NA,NA,"",   338.927E+03,   352.845E+03,   352.845E+03
C:/temp/Job-6.odb,Step-1,Increment      1: Step Time =    1.000,"P-6-1",           522,       35.4674,       194.618,            0.,NA,NA,"",   2.52500E+06,   2.51729E+06,   2.51729E+06
C:/temp/Job-6.odb,Step-1,Increment      1: Step Time =    1.000,"P-6-1",           523,       25.3552,       194.276,            0.,NA,NA,"",   2.58503E+06,   2.58348E+06,   2.58348E+06
C:/temp/Job-6.odb,Step-1,Increment      1: Step Time =    1.000,"P-6-1",           524,       15.0488,       194.732,            0.,NA,NA,"",   2.66661E+06,   2.68072E+06,   2.68072E+06
C:/temp/Job-6.odb,Step-1,Increment      1: Step Time =    1.000,"P-6-1",           525,       5.00880,       194.943,            0.,NA,NA,"",   2.84061E+06,   2.95610E+06,   2.95610E+06
C:/temp/Job-6.odb,Step-1,Increment      1: Step Time =    1.000,"P-6-1",           526,       4.85310,       184.932,            0.,NA,NA,"",   2.07724E+06,   2.26424E+06,   2.26424E+06
C:/temp/Job-6.odb,Step-1,Increment      1: Step Time =    1.000,"P-6-1",           527,       4.40682,       175.134,            0.,NA,NA,"",   1.62507E+06,   1.79601E+06,   1.79601E+06
C:/temp/Job-6.odb,Step-1,Increment      1: Step Time =    1.000,"P-6-1",           528,       4.26919,       165.434,            0.,NA,NA,"",   1.25299E+06,   1.39209E+06,   1.39209E+06
C:/temp/Job-6.odb,Step-1,Increment      1: Step Time =    1.000,"P-6-1",           529,       4.96619,       155.933,            0.,NA,NA,"",   938.657E+03,   1.04124E+06,   1.04124E+06
C:/temp/Job-6.odb,Step-1,Increment      1: Step Time =    1.000,"P-6-1",           530,       7.48787,       145.623,            0.,NA,NA,"",   617.154E+03,   675.398E+03,   675.398E+03
C:/temp/Job-6.odb,Step-1,Increment      1: Step Time =    1.000,"P-6-1",           531,       5.60837,       134.605,            0.,NA,NA,"",   316.797E+03,   338.004E+03,   338.004E+03
C:/temp/Job-6.odb,Step-1,Increment      1: Step Time =    1.000,"P-6-1",           532,       5.19156,       84.8349,            0.,NA,NA,"",   152.655E+03,  -137.695E+03,  -137.695E+03
C:/temp/Job-6.odb,Step-1,Increment      1: Step Time =    1.000,"P-6-1",           533,       5.08751,       94.8992,            0.,NA,NA,"",   191.173E+03,  -201.063E+03,  -201.063E+03
C:/temp/Job-6.odb,Step-1,Increment      1: Step Time =    1.000,"P-6-1",           534,       5.01809,       114.918,            0.,NA,NA,"",   153.427E+03,  -140.366E+03,  -140.366E+03
C:/temp/Job-6.odb,Step-1,Increment      1: Step Time =    1.000,"P-6-1",           535,       189.361,       5.50148,            0.,NA,NA,"",   990.471E+03,   989.626E+03,   989.626E+03
C:/temp/Job-6.odb,Step-1,Increment      1: Step Time =    1.000,"P-6-1",           536,       179.269,       4.73430,            0.,NA,NA,"",   970.026E+03,   969.047E+03,   969.047E+03
C:/temp/Job-6.odb,Step-1,Increment      1: Step Time =    1.000,"P-6-1",           537,       169.423,       4.62919,            0.,NA,NA,"",   941.976E+03,   937.993E+03,   937.993E+03
C:/temp/Job-6.odb,Step-1,Increment      1: Step Time =    1.000,"P-6-1",           538,       159.408,       4.97398,            0.,NA,NA,"",   888.561E+03,   880.878E+03,   880.878E+03
C:/temp/Job-6.odb,Step-1,Increment      1: Step Time =    1.000,"P-6-1",           539,       149.562,       4.54221,            0.,NA,NA,"",   768.333E+03,   759.945E+03,   759.945E+03
C:/temp/Job-6.odb,Step-1,Increment      1: Step Time =    1.000,"P-6-1",           540,       139.774,       4.56379,            0.,NA,NA,"",   614.560E+03,   607.142E+03,   607.142E+03
C:/temp/Job-6.odb,Step-1,Increment      1: Step Time =    1.000,"P-6-1",           541,       129.935,       4.88794,            0.,NA,NA,"",   467.547E+03,   465.806E+03,   465.806E+03
C:/temp/Job-6.odb,Step-1,Increment      1: Step Time =    1.000,"P-6-1",           542,       119.975,       5.21932,            0.,NA,NA,"",   372.001E+03,   384.355E+03,   384.355E+03
C:/temp/Job-6.odb,Step-1,Increment      1: Step Time =    1.000,"P-6-1",           543,       109.973,       5.24205,            0.,NA,NA,"",   406.268E+03,   420.893E+03,   420.893E+03
C:/temp/Job-6.odb,Step-1,Increment      1: Step Time =    1.000,"P-6-1",           544,       99.7945,       5.12372,            0.,NA,NA,"",   632.037E+03,   628.339E+03,   628.339E+03
C:/temp/Job-6.odb,Step-1,Increment      1: Step Time =    1.000,"P-6-1",           545,       89.6963,       5.11838,            0.,NA,NA,"",   978.670E+03,   963.106E+03,   963.106E+03
C:/temp/Job-6.odb,Step-1,Increment      1: Step Time =    1.000,"P-6-1",           546,       79.6320,       4.82339,            0.,NA,NA,"",   1.37629E+06,   1.35360E+06,   1.35360E+06
C:/temp/Job-6.odb,Step-1,Increment      1: Step Time =    1.000,"P-6-1",           547,       69.7412,       4.53095,            0.,NA,NA,"",   1.76453E+06,   1.74482E+06,   1.74482E+06
C:/temp/Job-6.odb,Step-1,Increment      1: Step Time =    1.000,"P-6-1",           548,       59.7912,       5.01279,            0.,NA,NA,"",   2.10199E+06,   2.08521E+06,   2.08521E+06
C:/temp/Job-6.odb,Step-1,Increment      1: Step Time =    1.000,"P-6-1",           549,       49.1489,       3.82001,            0.,NA,NA,"",   2.37742E+06,   2.36889E+06,   2.36889E+06
C:/temp/Job-6.odb,Step-1,Increment      1: Step Time =    1.000,"P-6-1",           550,       40.4540,       4.32380,            0.,NA,NA,"",   2.50945E+06,   2.50354E+06,   2.50354E+06
C:/temp/Job-6.odb,Step-1,Increment      1: Step Time =    1.000,"P-6-1",           551,       30.4958,       4.28052,            0.,NA,NA,"",   2.59614E+06,   2.59271E+06,   2.59271E+06
C:/temp/Job-6.odb,Step-1,Increment      1: Step Time =    1.000,"P-6-1",           552,       20.7405,       4.40851,            0.,NA,NA,"",   2.64715E+06,   2.64841E+06,   2.64841E+06
C:/temp/Job-6.odb,Step-1,Increment      1: Step Time =    1.000,"P-6-1",           553,       10.8474,       5.46811,            0.,NA,NA,"",   2.73340E+06,   2.75847E+06,   2.75847E+06
C:/temp/Job-6.odb,Step-1,Increment      1: Step Time =    1.000,"P-6-1",           554,       194.870,       190.043,            0.,NA,NA,"",   1.00594E+06,   1.00040E+06,   1.00040E+06
C:/temp/Job-6.odb,Step-1,Increment      1: Step Time =    1.000,"P-6-1",           555,       194.476,       179.982,            0.,NA,NA,"",   1.02027E+06,   1.01504E+06,   1.01504E+06
C:/temp/Job-6.odb,Step-1,Increment      1: Step Time =    1.000,"P-6-1",           556,       193.852,       169.615,            0.,NA,NA,"",   1.01546E+06,   1.03740E+06,   1.03740E+06
C:/temp/Job-6.odb,Step-1,Increment      1: Step Time =    1.000,"P-6-1",           557,       194.392,       159.205,            0.,NA,NA,"",   979.411E+03,   1.05887E+06,   1.05887E+06
C:/temp/Job-6.odb,Step-1,Increment      1: Step Time =    1.000,"P-6-1",           558,       195.388,       149.384,            0.,NA,NA,"",   956.122E+03,   1.09001E+06,   1.09001E+06
C:/temp/Job-6.odb,Step-1,Increment      1: Step Time =    1.000,"P-6-1",           559,       195.410,       139.592,            0.,NA,NA,"",   1.08755E+06,   1.23040E+06,   1.23040E+06
C:/temp/Job-6.odb,Step-1,Increment      1: Step Time =    1.000,"P-6-1",           560,       194.988,       129.702,            0.,NA,NA,"",   1.37087E+06,   1.57576E+06,   1.57576E+06
C:/temp/Job-6.odb,Step-1,Increment      1: Step Time =    1.000,"P-6-1",           561,       195.078,       119.819,            0.,NA,NA,"",   1.69829E+06,   1.95791E+06,   1.95791E+06
C:/temp/Job-6.odb,Step-1,Increment      1: Step Time =    1.000,"P-6-1",           562,       195.130,       109.882,            0.,NA,NA,"",   1.95707E+06,   2.24771E+06,   2.24771E+06
C:/temp/Job-6.odb,Step-1,Increment      1: Step Time =    1.000,"P-6-1",           563,       194.951,       99.9641,            0.,NA,NA,"",   2.03911E+06,   2.33731E+06,   2.33731E+06
C:/temp/Job-6.odb,Step-1,Increment      1: Step Time =    1.000,"P-6-1",           564,       194.805,       89.9455,            0.,NA,NA,"",   1.93227E+06,   2.21919E+06,   2.21919E+06
C:/temp/Job-6.odb,Step-1,Increment      1: Step Time =    1.000,"P-6-1",           565,       194.979,       80.0753,            0.,NA,NA,"",   1.69419E+06,   1.95333E+06,   1.95333E+06
C:/temp/Job-6.odb,Step-1,Increment      1: Step Time =    1.000,"P-6-1",           566,       195.060,       70.2461,            0.,NA,NA,"",   1.36810E+06,   1.57308E+06,   1.57308E+06
C:/temp/Job-6.odb,Step-1,Increment      1: Step Time =    1.000,"P-6-1",           567,       194.022,       60.3324,            0.,NA,NA,"",   1.11150E+06,   1.26036E+06,   1.26036E+06
C:/temp/Job-6.odb,Step-1,Increment      1: Step Time =    1.000,"P-6-1",           568,       194.277,       49.1458,            0.,NA,NA,"",   988.862E+03,   1.11516E+06,   1.11516E+06
C:/temp/Job-6.odb,Step-1,Increment      1: Step Time =    1.000,"P-6-1",           569,       195.634,       39.4514,            0.,NA,NA,"",   959.611E+03,   1.03417E+06,   1.03417E+06
C:/temp/Job-6.odb,Step-1,Increment      1: Step Time =    1.000,"P-6-1",           570,       195.901,       30.0016,            0.,NA,NA,"",   999.257E+03,   1.01643E+06,   1.01643E+06
C:/temp/Job-6.odb,Step-1,Increment      1: Step Time =    1.000,"P-6-1",           571,       195.423,       20.5319,            0.,NA,NA,"",   1.01709E+06,   1.01015E+06,   1.01015E+06
C:/temp/Job-6.odb,Step-1,Increment      1: Step Time =    1.000,"P-6-1",           572,       194.497,       10.6388,            0.,NA,NA,"",   1.00725E+06,   1.00194E+06,   1.00194E+06
C:/temp/Job-6.odb,Step-1,Increment      1: Step Time =    1.000,"P-6-1",           573,       10.0153,       194.858,            0.,NA,NA,"",   2.76067E+06,   2.78783E+06,   2.78783E+06
C:/temp/Job-6.odb,Step-1,Increment      1: Step Time =    1.000,"P-6-1",           574,       20.1424,       194.539,            0.,NA,NA,"",   2.62473E+06,   2.62859E+06,   2.62859E+06
C:/temp/Job-6.odb,Step-1,Increment      1: Step Time =    1.000,"P-6-1",           575,       30.5121,       194.152,            0.,NA,NA,"",   2.55299E+06,   2.54753E+06,   2.54753E+06
C:/temp/Job-6.odb,Step-1,Increment      1: Step Time =    1.000,"P-6-1",           576,       40.4413,       194.963,            0.,NA,NA,"",   2.48470E+06,   2.47646E+06,   2.47646E+06
C:/temp/Job-6.odb,Step-1,Increment      1: Step Time =    1.000,"P-6-1",           577,       50.2180,       195.148,            0.,NA,NA,"",   2.34071E+06,   2.32680E+06,   2.32680E+06
C:/temp/Job-6.odb,Step-1,Increment      1: Step Time =    1.000,"P-6-1",           578,       60.0487,       195.116,            0.,NA,NA,"",   2.09843E+06,   2.07941E+06,   2.07941E+06
C:/temp/Job-6.odb,Step-1,Increment      1: Step Time =    1.000,"P-6-1",           579,       70.0222,       194.926,            0.,NA,NA,"",   1.76618E+06,   1.74315E+06,   1.74315E+06
C:/temp/Job-6.odb,Step-1,Increment      1: Step Time =    1.000,"P-6-1",           580,       79.9535,       194.834,            0.,NA,NA,"",   1.38096E+06,   1.35685E+06,   1.35685E+06
C:/temp/Job-6.odb,Step-1,Increment      1: Step Time =    1.000,"P-6-1",           581,       89.8132,       194.967,            0.,NA,NA,"",   970.957E+03,   955.016E+03,   955.016E+03
C:/temp/Job-6.odb,Step-1,Increment      1: Step Time =    1.000,"P-6-1",           582,       99.8210,       195.008,            0.,NA,NA,"",   613.495E+03,   611.419E+03,   611.419E+03
C:/temp/Job-6.odb,Step-1,Increment      1: Step Time =    1.000,"P-6-1",           583,       109.948,       194.995,            0.,NA,NA,"",   383.767E+03,   396.357E+03,   396.357E+03
C:/temp/Job-6.odb,Step-1,Increment      1: Step Time =    1.000,"P-6-1",           584,       119.922,       195.149,            0.,NA,NA,"",   342.648E+03,   352.836E+03,   352.836E+03
C:/temp/Job-6.odb,Step-1,Increment      1: Step Time =    1.000,"P-6-1",           585,       129.712,       195.203,            0.,NA,NA,"",   461.973E+03,   462.396E+03,   462.396E+03
C:/temp/Job-6.odb,Step-1,Increment      1: Step Time =    1.000,"P-6-1",           586,       139.609,       194.065,            0.,NA,NA,"",   687.592E+03,   677.587E+03,   677.587E+03
C:/temp/Job-6.odb,Step-1,Increment      1: Step Time =    1.000,"P-6-1",           587,       150.898,       194.218,            0.,NA,NA,"",   828.937E+03,   815.121E+03,   815.121E+03
C:/temp/Job-6.odb,Step-1,Increment      1: Step Time =    1.000,"P-6-1",           588,       160.693,       195.346,            0.,NA,NA,"",   889.141E+03,   884.087E+03,   884.087E+03
C:/temp/Job-6.odb,Step-1,Increment      1: Step Time =    1.000,"P-6-1",           589,       170.275,       195.557,            0.,NA,NA,"",   941.352E+03,   938.645E+03,   938.645E+03
C:/temp/Job-6.odb,Step-1,Increment      1: Step Time =    1.000,"P-6-1",           590,       180.047,       195.375,            0.,NA,NA,"",   969.975E+03,   969.223E+03,   969.223E+03
C:/temp/Job-6.odb,Step-1,Increment      1: Step Time =    1.000,"P-6-1",           591,       189.951,       195.108,            0.,NA,NA,"",   989.315E+03,   988.436E+03,   988.436E+03
C:/temp/Job-6.odb,Step-1,Increment      1: Step Time =    1.000,"P-6-1",           592,       5.86231,       16.1196,            0.,NA,NA,"",   2.05023E+06,   2.22322E+06,   2.22322E+06
C:/temp/Job-6.odb,Step-1,Increment      1: Step Time =    1.000,"P-6-1",           593,       5.25747,       26.0647,            0.,NA,NA,"",   1.59005E+06,   1.75060E+06,   1.75060E+06
C:/temp/Job-6.odb,Step-1,Increment      1: Step Time =    1.000,"P-6-1",           594,       4.99774,       41.1769,            0.,NA,NA,"",   1.03473E+06,   1.14594E+06,   1.14594E+06
C:/temp/Job-6.odb,Step-1,Increment      1: Step Time =    1.000,"P-6-1",           595,       4.15750,       50.7568,            0.,NA,NA,"",   716.345E+03,   793.115E+03,   793.115E+03
C:/temp/Job-6.odb,Step-1,Increment      1: Step Time =    1.000,"P-6-1",           596,       3.96085,       60.3508,            0.,NA,NA,"",   450.181E+03,   490.816E+03,   490.816E+03
C:/temp/Job-6.odb,Step-1,Increment      1: Step Time =    1.000,"P-6-1",           597,       4.35479,       70.0302,            0.,NA,NA,"",   233.971E+03,   235.022E+03,   235.022E+03
C:/temp/Job-6.odb,Step-1,Increment      1: Step Time =    1.000,"P-6-1",           598,       4.99375,       79.8655,            0.,NA,NA,"",   143.600E+03,  -8.81816E+03,  -8.81816E+03
C:/temp/Job-6.odb,Step-1,Increment      1: Step Time =    1.000,"P-6-1",           599,       5.18399,       89.8623,            0.,NA,NA,"",   173.853E+03,  -175.793E+03,  -175.793E+03
C:/temp/Job-6.odb,Step-1,Increment      1: Step Time =    1.000,"P-6-1",           600,       5.00744,       99.8881,            0.,NA,NA,"",   197.370E+03,  -209.791E+03,  -209.791E+03
C:/temp/Job-6.odb,Step-1,Increment      1: Step Time =    1.000,"P-6-1",           601,       4.99224,       109.934,            0.,NA,NA,"",   174.556E+03,  -177.843E+03,  -177.843E+03
C:/temp/Job-6.odb,Step-1,Increment      1: Step Time =    1.000,"P-6-1",           602,       5.05550,       119.870,            0.,NA,NA,"",   142.523E+03,  -11.6576E+03,  -11.6576E+03
C:/temp/Job-6.odb,Step-1,Increment      1: Step Time =    1.000,"P-6-1",           603,       5.31846,       129.662,            0.,NA,NA,"",   223.033E+03,   224.033E+03,   224.033E+03
C:/temp/Job-6.odb,Step-1,Increment      1: Step Time =    1.000,"P-6-1",           604,       6.21324,       139.732,            0.,NA,NA,"",   442.048E+03,   481.255E+03,   481.255E+03
C:/temp/Job-6.odb,Step-1,Increment      1: Step Time =    1.000,"P-6-1",           605,       5.81795,       151.079,            0.,NA,NA,"",   786.597E+03,   868.927E+03,   868.927E+03
C:/temp/Job-6.odb,Step-1,Increment      1: Step Time =    1.000,"P-6-1",           606,       4.49786,       160.676,            0.,NA,NA,"",   1.09219E+06,   1.21321E+06,   1.21321E+06
C:/temp/Job-6.odb,Step-1,Increment      1: Step Time =    1.000,"P-6-1",           607,       4.23760,       170.245,            0.,NA,NA,"",   1.43097E+06,   1.58689E+06,   1.58689E+06
C:/temp/Job-6.odb,Step-1,Increment      1: Step Time =    1.000,"P-6-1",           608,       4.65297,       180.009,            0.,NA,NA,"",   1.84149E+06,   2.02315E+06,   2.02315E+06
C:/temp/Job-6.odb,Step-1,Increment      1: Step Time =    1.000,"P-6-1",           609,       4.95533,       189.920,            0.,NA,NA,"",   2.39942E+06,   2.57387E+06,   2.57387E+06
C:/temp/Job-6.odb,Step-1,Increment      1: Step Time =    1.000,"P-6-1",           610,       155.845,       119.693,            0.,NA,NA,"",   1.34706E+06,  -1.26914E+06,  -1.26914E+06
C:/temp/Job-6.odb,Step-1,Increment      1: Step Time =    1.000,"P-6-1",           611,       141.561,       57.6035,            0.,NA,NA,"",   2.07701E+06,   2.06254E+06,   2.06254E+06
C:/temp/Job-6.odb,Step-1,Increment      1: Step Time =    1.000,"P-6-1",           612,       129.089,       153.352,            0.,NA,NA,"",   3.35571E+06,   3.45616E+06,   3.45616E+06
C:/temp/Job-6.odb,Step-1,Increment      1: Step Time =    1.000,"P-6-1",           613,       154.403,       75.6965,            0.,NA,NA,"",   1.09064E+06,  -891.240E+03,  -891.240E+03
C:/temp/Job-6.odb,Step-1,Increment      1: Step Time =    1.000,"P-6-1",           614,       159.163,       95.8601,            0.,NA,NA,"",   2.05873E+06,  -2.09441E+06,  -2.09441E+06
C:/temp/Job-6.odb,Step-1,Increment      1: Step Time =    1.000,"P-6-1",           615,       152.242,       70.6718,            0.,NA,NA,"",   1.00381E+06,   51.6940E+03,   51.6940E+03
C:/temp/Job-6.odb,Step-1,Increment      1: Step Time =    1.000,"P-6-1",           616,       79.5818,       43.6039,            0.,NA,NA,"",   2.67339E+06,   2.68995E+06,   2.68995E+06
C:/temp/Job-6.odb,Step-1,Increment      1: Step Time =    1.000,"P-6-1",           617,       123.690,       153.799,            0.,NA,NA,"",   3.97697E+06,   4.07268E+06,   4.07268E+06
C:/temp/Job-6.odb,Step-1,Increment      1: Step Time =    1.000,"P-6-1",           618,       129.208,       48.2075,            0.,NA,NA,"",   3.45181E+06,   3.52834E+06,   3.52834E+06
C:/temp/Job-6.odb,Step-1,Increment      1: Step Time =    1.000,"P-6-1",           619,       158.617,       90.7774,            0.,NA,NA,"",   1.91481E+06,  -1.93207E+06,  -1.93207E+06
C:/temp/Job-6.odb,Step-1,Increment      1: Step Time =    1.000,"P-6-1",           620,       139.582,       144.226,            0.,NA,NA,"",   2.33832E+06,   2.34234E+06,   2.34234E+06
C:/temp/Job-6.odb,Step-1,Increment      1: Step Time =    1.000,"P-6-1",           621,       71.0213,       48.4272,            0.,NA,NA,"",   1.63511E+06,   1.59985E+06,   1.59985E+06
C:/temp/Job-6.odb,Step-1,Increment      1: Step Time =    1.000,"P-6-1",           622,       145.652,       61.3489,            0.,NA,NA,"",   1.60605E+06,   1.52330E+06,   1.52330E+06
C:/temp/Job-6.odb,Step-1,Increment      1: Step Time =    1.000,"P-6-1",           623,       153.057,       127.255,            0.,NA,NA,"",   1.00742E+06,  -301.317E+03,  -301.317E+03
C:/temp/Job-6.odb,Step-1,Increment      1: Step Time =    1.000,"P-6-1",           624,       159.302,       105.926,            0.,NA,NA,"",   1.96528E+06,  -1.99525E+06,  -1.99525E+06
C:/temp/Job-6.odb,Step-1,Increment      1: Step Time =    1.000,"P-6-1",           625,       156.190,       80.6699,            0.,NA,NA,"",   1.37856E+06,  -1.29405E+06,  -1.29405E+06
C:/temp/Job-6.odb,Step-1,Increment      1: Step Time =    1.000,"P-6-1",           626,       133.385,       51.1214,            0.,NA,NA,"",   3.04358E+06,   3.09860E+06,   3.09860E+06
C:/temp/Job-6.odb,Step-1,Increment      1: Step Time =    1.000,"P-6-1",           627,       75.3744,       45.9275,            0.,NA,NA,"",   2.17733E+06,   2.16650E+06,   2.16650E+06
C:/temp/Job-6.odb,Step-1,Increment      1: Step Time =    1.000,"P-6-1",           628,       159.353,       100.946,            0.,NA,NA,"",   2.08073E+06,  -2.12099E+06,  -2.12099E+06
C:/temp/Job-6.odb,Step-1,Increment      1: Step Time =    1.000,"P-6-1",           629,       124.929,       45.2833,            0.,NA,NA,"",   3.72466E+06,   3.83272E+06,   3.83272E+06
C:/temp/Job-6.odb,Step-1,Increment      1: Step Time =    1.000,"P-6-1",           630,       107.429,       160.579,            0.,NA,NA,"",   4.06032E+06,   4.22186E+06,   4.22186E+06
C:/temp/Job-6.odb,Step-1,Increment      1: Step Time =    1.000,"P-6-1",           631,       67.1314,       150.575,            0.,NA,NA,"",   1.38447E+06,   1.30404E+06,   1.30404E+06
C:/temp/Job-6.odb,Step-1,Increment      1: Step Time =    1.000,"P-6-1",           632,       44.8893,       121.849,            0.,NA,NA,"",   824.177E+03,  -845.662E+03,  -845.662E+03
C:/temp/Job-6.odb,Step-1,Increment      1: Step Time =    1.000,"P-6-1",           633,       154.597,       122.875,            0.,NA,NA,"",   1.19810E+06,  -1.03968E+06,  -1.03968E+06
C:/temp/Job-6.odb,Step-1,Increment      1: Step Time =    1.000,"P-6-1",           634,       103.567,       159.693,            0.,NA,NA,"",   4.31386E+06,   4.44187E+06,   4.44187E+06
C:/temp/Job-6.odb,Step-1,Increment      1: Step Time =    1.000,"P-6-1",           635,       40.8580,       90.5432,            0.,NA,NA,"",   727.708E+03,  -759.281E+03,  -759.281E+03
C:/temp/Job-6.odb,Step-1,Increment      1: Step Time =    1.000,"P-6-1",           636,       40.3270,       95.9614,            0.,NA,NA,"",   703.654E+03,  -737.100E+03,  -737.100E+03
C:/temp/Job-6.odb,Step-1,Increment      1: Step Time =    1.000,"P-6-1",           637,       40.7813,       106.932,            0.,NA,NA,"",   724.846E+03,  -757.150E+03,  -757.150E+03
C:/temp/Job-6.odb,Step-1,Increment      1: Step Time =    1.000,"P-6-1",           638,       59.7832,       144.033,            0.,NA,NA,"",   646.503E+03,   343.316E+03,   343.316E+03
C:/temp/Job-6.odb,Step-1,Increment      1: Step Time =    1.000,"P-6-1",           639,       48.8011,       69.7822,            0.,NA,NA,"",   768.897E+03,  -768.470E+03,  -768.470E+03
C:/temp/Job-6.odb,Step-1,Increment      1: Step Time =    1.000,"P-6-1",           640,       51.7735,       65.4955,            0.,NA,NA,"",   694.957E+03,  -665.958E+03,  -665.958E+03
C:/temp/Job-6.odb,Step-1,Increment      1: Step Time =    1.000,"P-6-1",           641,       40.0704,       101.497,            0.,NA,NA,"",   697.704E+03,  -732.254E+03,  -732.254E+03
C:/temp/Job-6.odb,Step-1,Increment      1: Step Time =    1.000,"P-6-1",           642,       62.6210,       54.3297,            0.,NA,NA,"",   736.336E+03,   609.741E+03,   609.741E+03
C:/temp/Job-6.odb,Step-1,Increment      1: Step Time =    1.000,"P-6-1",           643,       46.3141,       74.2975,            0.,NA,NA,"",   790.659E+03,  -805.455E+03,  -805.455E+03
C:/temp/Job-6.odb,Step-1,Increment      1: Step Time =    1.000,"P-6-1",           644,       94.1794,       158.582,            0.,NA,NA,"",   4.05198E+06,   4.14468E+06,   4.14468E+06
C:/temp/Job-6.odb,Step-1,Increment      1: Step Time =    1.000,"P-6-1",           645,       69.9263,       153.812,            0.,NA,NA,"",   1.80986E+06,   1.74092E+06,   1.74092E+06
C:/temp/Job-6.odb,Step-1,Increment      1: Step Time =    1.000,"P-6-1",           646,       80.3273,       156.243,            0.,NA,NA,"",   2.71772E+06,   2.73561E+06,   2.73561E+06
C:/temp/Job-6.odb,Step-1,Increment      1: Step Time =    1.000,"P-6-1",           647,       76.4219,       156.727,            0.,NA,NA,"",   2.35062E+06,   2.32952E+06,   2.32952E+06
C:/temp/Job-6.odb,Step-1,Increment      1: Step Time =    1.000,"P-6-1",           648,       46.7490,       126.553,            0.,NA,NA,"",   795.620E+03,  -810.054E+03,  -810.054E+03
C:/temp/Job-6.odb,Step-1,Increment      1: Step Time =    1.000,"P-6-1",           649,       98.9932,       159.140,            0.,NA,NA,"",   4.29082E+06,   4.39721E+06,   4.39721E+06
C:/temp/Job-6.odb,Step-1,Increment      1: Step Time =    1.000,"P-6-1",           650,       120.748,       154.962,            0.,NA,NA,"",   4.18290E+06,   4.28161E+06,   4.28161E+06
C:/temp/Job-6.odb,Step-1,Increment      1: Step Time =    1.000,"P-6-1",           651,       41.4926,       85.0661,            0.,NA,NA,"",   736.898E+03,  -768.911E+03,  -768.911E+03
C:/temp/Job-6.odb,Step-1,Increment      1: Step Time =    1.000,"P-6-1",           652,       132.088,       150.381,            0.,NA,NA,"",   3.18481E+06,   3.25074E+06,   3.25074E+06
C:/temp/Job-6.odb,Step-1,Increment      1: Step Time =    1.000,"P-6-1",           653,       43.2709,       117.047,            0.,NA,NA,"",   811.328E+03,  -836.283E+03,  -836.283E+03
C:/temp/Job-6.odb,Step-1,Increment      1: Step Time =    1.000,"P-6-1",           654,       58.7476,       57.7524,            0.,NA,NA,"",   573.714E+03,  -9.09977E+03,  -9.09977E+03
C:/temp/Job-6.odb,Step-1,Increment      1: Step Time =    1.000,"P-6-1",           655,       119.728,       160.385,            0.,NA,NA,"",   3.37003E+06,   3.54542E+06,   3.54542E+06
C:/temp/Job-6.odb,Step-1,Increment      1: Step Time =    1.000,"P-6-1",           656,       78.1071,       162.682,            0.,NA,NA,"",   2.57719E+06,   2.53350E+06,   2.53350E+06
C:/temp/Job-6.odb,Step-1,Increment      1: Step Time =    1.000,"P-6-1",           657,       163.458,       90.3189,            0.,NA,NA,"",   1.23348E+06,  -1.17672E+06,  -1.17672E+06
C:/temp/Job-6.odb,Step-1,Increment      1: Step Time =    1.000,"P-6-1",           658,       36.2693,       84.6944,            0.,NA,NA,"",   473.828E+03,  -517.816E+03,  -517.816E+03
C:/temp/Job-6.odb,Step-1,Increment      1: Step Time =    1.000,"P-6-1",           659,       59.7314,       51.0484,            0.,NA,NA,"",   1.18725E+06,   982.333E+03,   982.333E+03
C:/temp/Job-6.odb,Step-1,Increment      1: Step Time =    1.000,"P-6-1",           660,       140.342,       50.9233,            0.,NA,NA,"",   2.40967E+06,   2.40472E+06,   2.40472E+06
C:/temp/Job-6.odb,Step-1,Increment      1: Step Time =    1.000,"P-6-1",           661,       135.596,       153.524,            0.,NA,NA,"",   2.68423E+06,   2.74281E+06,   2.74281E+06
C:/temp/Job-6.odb,Step-1,Increment      1: Step Time =    1.000,"P-6-1",           662,       62.9304,       153.534,            0.,NA,NA,"",   1.64825E+06,   1.45881E+06,   1.45881E+06
C:/temp/Job-6.odb,Step-1,Increment      1: Step Time =    1.000,"P-6-1",           663,       94.2745,       37.4821,            0.,NA,NA,"",   3.39455E+06,   3.51042E+06,   3.51042E+06
C:/temp/Job-6.odb,Step-1,Increment      1: Step Time =    1.000,"P-6-1",           664,       110.980,       34.6048,            0.,NA,NA,"",   3.04003E+06,   3.23840E+06,   3.23840E+06
C:/temp/Job-6.odb,Step-1,Increment      1: Step Time =    1.000,"P-6-1",           665,       160.394,       119.879,            0.,NA,NA,"",   1.30849E+06,  -1.05146E+06,  -1.05146E+06
C:/temp/Job-6.odb,Step-1,Increment      1: Step Time =    1.000,"P-6-1",           666,       160.887,       79.8763,            0.,NA,NA,"",   1.32136E+06,  -1.02345E+06,  -1.02345E+06
C:/temp/Job-6.odb,Step-1,Increment      1: Step Time =    1.000,"P-6-1",           667,       132.756,       156.507,            0.,NA,NA,"",   2.75137E+06,   2.84417E+06,   2.84417E+06
C:/temp/Job-6.odb,Step-1,Increment      1: Step Time =    1.000,"P-6-1",           668,       65.4155,       156.814,            0.,NA,NA,"",   1.90822E+06,   1.73759E+06,   1.73759E+06
C:/temp/Job-6.odb,Step-1,Increment      1: Step Time =    1.000,"P-6-1",           669,       139.638,       9.17352,            0.,NA,NA,"",   890.537E+03,   876.034E+03,   876.034E+03
C:/temp/Job-6.odb,Step-1,Increment      1: Step Time =    1.000,"P-6-1",           670,       120.060,       10.5023,            0.,NA,NA,"",   824.016E+03,   859.954E+03,   859.954E+03
C:/temp/Job-6.odb,Step-1,Increment      1: Step Time =    1.000,"P-6-1",           671,       109.873,       10.4376,            0.,NA,NA,"",   889.797E+03,   931.823E+03,   931.823E+03
C:/temp/Job-6.odb,Step-1,Increment      1: Step Time =    1.000,"P-6-1",           672,       190.829,       139.370,            0.,NA,NA,"",   1.20423E+06,   1.35411E+06,   1.35411E+06
C:/temp/Job-6.odb,Step-1,Increment      1: Step Time =    1.000,"P-6-1",           673,       189.753,       129.541,            0.,NA,NA,"",   1.35235E+06,   1.52370E+06,   1.52370E+06
C:/temp/Job-6.odb,Step-1,Increment      1: Step Time =    1.000,"P-6-1",           674,       190.236,       109.829,            0.,NA,NA,"",   1.51115E+06,   1.74273E+06,   1.74273E+06
C:/temp/Job-6.odb,Step-1,Increment      1: Step Time =    1.000,"P-6-1",           675,       189.845,       100.011,            0.,NA,NA,"",   1.48274E+06,   1.70980E+06,   1.70980E+06
C:/temp/Job-6.odb,Step-1,Increment      1: Step Time =    1.000,"P-6-1",           676,       189.867,       79.9575,            0.,NA,NA,"",   1.43640E+06,   1.64235E+06,   1.64235E+06
C:/temp/Job-6.odb,Step-1,Increment      1: Step Time =    1.000,"P-6-1",           677,       190.281,       70.5599,            0.,NA,NA,"",   1.34591E+06,   1.52663E+06,   1.52663E+06
C:/temp/Job-6.odb,Step-1,Increment      1: Step Time =    1.000,"P-6-1",           678,       188.778,       61.6848,            0.,NA,NA,"",   1.27994E+06,   1.40616E+06,   1.40616E+06
C:/temp/Job-6.odb,Step-1,Increment      1: Step Time =    1.000,"P-6-1",           679,       60.1179,       190.193,            0.,NA,NA,"",   2.12340E+06,   2.07163E+06,   2.07163E+06
C:/temp/Job-6.odb,Step-1,Increment      1: Step Time =    1.000,"P-6-1",           680,       119.952,       190.238,            0.,NA,NA,"",   757.479E+03,   790.295E+03,   790.295E+03
C:/temp/Job-6.odb,Step-1,Increment      1: Step Time =    1.000,"P-6-1",           681,       7.94113,       60.6459,            0.,NA,NA,"",   428.255E+03,   468.533E+03,   468.533E+03
C:/temp/Job-6.odb,Step-1,Increment      1: Step Time =    1.000,"P-6-1",           682,       8.73859,       69.7976,            0.,NA,NA,"",   199.535E+03,   210.834E+03,   210.834E+03
C:/temp/Job-6.odb,Step-1,Increment      1: Step Time =    1.000,"P-6-1",           683,       9.95229,       99.8762,            0.,NA,NA,"",   214.030E+03,  -224.171E+03,  -224.171E+03
C:/temp/Job-6.odb,Step-1,Increment      1: Step Time =    1.000,"P-6-1",           684,       10.1410,       119.657,            0.,NA,NA,"",   122.089E+03,  -53.3263E+03,  -53.3263E+03
C:/temp/Job-6.odb,Step-1,Increment      1: Step Time =    1.000,"P-6-1",           685,       11.6646,       138.517,            0.,NA,NA,"",   397.306E+03,   430.841E+03,   430.841E+03
C:/temp/Job-6.odb,Step-1,Increment      1: Step Time =    1.000,"P-6-1",           686,       130.013,       9.82743,            0.,NA,NA,"",   830.921E+03,   837.352E+03,   837.352E+03
C:/temp/Job-6.odb,Step-1,Increment      1: Step Time =    1.000,"P-6-1",           687,       99.5602,       10.1657,            0.,NA,NA,"",   1.08916E+06,   1.09554E+06,   1.09554E+06
C:/temp/Job-6.odb,Step-1,Increment      1: Step Time =    1.000,"P-6-1",           688,       89.3662,       10.2072,            0.,NA,NA,"",   1.40643E+06,   1.37768E+06,   1.37768E+06
C:/temp/Job-6.odb,Step-1,Increment      1: Step Time =    1.000,"P-6-1",           689,       79.0449,       9.56102,            0.,NA,NA,"",   1.68177E+06,   1.62766E+06,   1.62766E+06
C:/temp/Job-6.odb,Step-1,Increment      1: Step Time =    1.000,"P-6-1",           690,       69.4701,       8.95251,            0.,NA,NA,"",   1.90588E+06,   1.85452E+06,   1.85452E+06
C:/temp/Job-6.odb,Step-1,Increment      1: Step Time =    1.000,"P-6-1",           691,       60.3745,       9.48182,            0.,NA,NA,"",   2.11317E+06,   2.06575E+06,   2.06575E+06
C:/temp/Job-6.odb,Step-1,Increment      1: Step Time =    1.000,"P-6-1",           692,       190.193,       119.483,            0.,NA,NA,"",   1.44800E+06,   1.65753E+06,   1.65753E+06
C:/temp/Job-6.odb,Step-1,Increment      1: Step Time =    1.000,"P-6-1",           693,       189.450,       89.8911,            0.,NA,NA,"",   1.44876E+06,   1.66942E+06,   1.66942E+06
C:/temp/Job-6.odb,Step-1,Increment      1: Step Time =    1.000,"P-6-1",           694,       69.9870,       189.850,            0.,NA,NA,"",   1.93626E+06,   1.87598E+06,   1.87598E+06
C:/temp/Job-6.odb,Step-1,Increment      1: Step Time =    1.000,"P-6-1",           695,       79.9750,       189.524,            0.,NA,NA,"",   1.69572E+06,   1.63955E+06,   1.63955E+06
C:/temp/Job-6.odb,Step-1,Increment      1: Step Time =    1.000,"P-6-1",           696,       89.6996,       189.980,            0.,NA,NA,"",   1.38231E+06,   1.35409E+06,   1.35409E+06
C:/temp/Job-6.odb,Step-1,Increment      1: Step Time =    1.000,"P-6-1",           697,       99.6432,       190.122,            0.,NA,NA,"",   1.06658E+06,   1.07288E+06,   1.07288E+06
C:/temp/Job-6.odb,Step-1,Increment      1: Step Time =    1.000,"P-6-1",           698,       109.923,       190.025,            0.,NA,NA,"",   834.455E+03,   872.277E+03,   872.277E+03
C:/temp/Job-6.odb,Step-1,Increment      1: Step Time =    1.000,"P-6-1",           699,       129.345,       190.576,            0.,NA,NA,"",   810.572E+03,   820.347E+03,   820.347E+03
C:/temp/Job-6.odb,Step-1,Increment      1: Step Time =    1.000,"P-6-1",           700,       138.117,       188.850,            0.,NA,NA,"",   991.150E+03,   977.317E+03,   977.317E+03
C:/temp/Job-6.odb,Step-1,Increment      1: Step Time =    1.000,"P-6-1",           701,       10.1295,       79.4737,            0.,NA,NA,"",   117.502E+03,  -15.3516E+03,  -15.3516E+03
C:/temp/Job-6.odb,Step-1,Increment      1: Step Time =    1.000,"P-6-1",           702,       10.4498,       89.8486,            0.,NA,NA,"",   182.825E+03,  -185.669E+03,  -185.669E+03
C:/temp/Job-6.odb,Step-1,Increment      1: Step Time =    1.000,"P-6-1",           703,       9.90595,       109.858,            0.,NA,NA,"",   183.730E+03,  -186.921E+03,  -186.921E+03
C:/temp/Job-6.odb,Step-1,Increment      1: Step Time =    1.000,"P-6-1",           704,       10.6450,       129.114,            0.,NA,NA,"",   174.412E+03,   181.511E+03,   181.511E+03
C:/temp/Job-6.odb,Step-1,Increment      1: Step Time =    1.000,"P-6-1",           705,       143.763,       141.074,            0.,NA,NA,"",   1.88387E+06,   1.82971E+06,   1.82971E+06
C:/temp/Job-6.odb,Step-1,Increment      1: Step Time =    1.000,"P-6-1",           706,       113.803,       159.062,            0.,NA,NA,"",   4.06084E+06,   4.21865E+06,   4.21865E+06
C:/temp/Job-6.odb,Step-1,Increment      1: Step Time =    1.000,"P-6-1",           707,       48.7483,       131.290,            0.,NA,NA,"",   718.129E+03,  -711.400E+03,  -711.400E+03
C:/temp/Job-6.odb,Step-1,Increment      1: Step Time =    1.000,"P-6-1",           708,       159.213,       110.735,            0.,NA,NA,"",   1.73690E+06,  -1.73533E+06,  -1.73533E+06
C:/temp/Job-6.odb,Step-1,Increment      1: Step Time =    1.000,"P-6-1",           709,       55.7463,       54.5246,            0.,NA,NA,"",   920.551E+03,   474.122E+03,   474.122E+03
C:/temp/Job-6.odb,Step-1,Increment      1: Step Time =    1.000,"P-6-1",           710,       144.464,       54.3041,            0.,NA,NA,"",   2.13910E+06,   2.06488E+06,   2.06488E+06
C:/temp/Job-6.odb,Step-1,Increment      1: Step Time =    1.000,"P-6-1",           711,       51.9729,       58.2645,            0.,NA,NA,"",   732.064E+03,   59.2784E+03,   59.2784E+03
C:/temp/Job-6.odb,Step-1,Increment      1: Step Time =    1.000,"P-6-1",           712,       148.979,       58.0388,            0.,NA,NA,"",   1.91385E+06,   1.73078E+06,   1.73078E+06
C:/temp/Job-6.odb,Step-1,Increment      1: Step Time =    1.000,"P-6-1",           713,       157.095,       69.2890,            0.,NA,NA,"",   1.51984E+06,   656.086E+03,   656.086E+03
C:/temp/Job-6.odb,Step-1,Increment      1: Step Time =    1.000,"P-6-1",           714,       44.5447,       66.7957,            0.,NA,NA,"",   536.107E+03,  -479.507E+03,  -479.507E+03
C:/temp/Job-6.odb,Step-1,Increment      1: Step Time =    1.000,"P-6-1",           715,       154.785,       62.6559,            0.,NA,NA,"",   1.77265E+06,   1.42882E+06,   1.42882E+06
C:/temp/Job-6.odb,Step-1,Increment      1: Step Time =    1.000,"P-6-1",           716,       48.3861,       62.3298,            0.,NA,NA,"",   613.926E+03,  -249.927E+03,  -249.927E+03
C:/temp/Job-6.odb,Step-1,Increment      1: Step Time =    1.000,"P-6-1",           717,       164.187,       105.445,            0.,NA,NA,"",   1.15352E+06,  -1.14708E+06,  -1.14708E+06
C:/temp/Job-6.odb,Step-1,Increment      1: Step Time =    1.000,"P-6-1",           718,       164.101,       100.580,            0.,NA,NA,"",   1.18611E+06,  -1.20636E+06,  -1.20636E+06
C:/temp/Job-6.odb,Step-1,Increment      1: Step Time =    1.000,"P-6-1",           719,       105.601,       165.173,            0.,NA,NA,"",   3.19655E+06,   3.38747E+06,   3.38747E+06
C:/temp/Job-6.odb,Step-1,Increment      1: Step Time =    1.000,"P-6-1",           720,       35.6323,       95.4973,            0.,NA,NA,"",   490.007E+03,  -541.100E+03,  -541.100E+03
C:/temp/Job-6.odb,Step-1,Increment      1: Step Time =    1.000,"P-6-1",           721,       34.4311,       101.845,            0.,NA,NA,"",   443.502E+03,  -494.699E+03,  -494.699E+03
C:/temp/Job-6.odb,Step-1,Increment      1: Step Time =    1.000,"P-6-1",           722,       97.6893,       163.505,            0.,NA,NA,"",   3.40204E+06,   3.55160E+06,   3.55160E+06
C:/temp/Job-6.odb,Step-1,Increment      1: Step Time =    1.000,"P-6-1",           723,       101.929,       164.230,            0.,NA,NA,"",   3.34720E+06,   3.52318E+06,   3.52318E+06
C:/temp/Job-6.odb,Step-1,Increment      1: Step Time =    1.000,"P-6-1",           724,       76.3496,       39.7929,            0.,NA,NA,"",   2.45971E+06,   2.41625E+06,   2.41625E+06
C:/temp/Job-6.odb,Step-1,Increment      1: Step Time =    1.000,"P-6-1",           725,       83.6498,       34.7804,            0.,NA,NA,"",   2.70375E+06,   2.72979E+06,   2.72979E+06
C:/temp/Job-6.odb,Step-1,Increment      1: Step Time =    1.000,"P-6-1",           726,       115.167,       35.9460,            0.,NA,NA,"",   3.10333E+06,   3.30272E+06,   3.30272E+06
C:/temp/Job-6.odb,Step-1,Increment      1: Step Time =    1.000,"P-6-1",           727,       37.4037,       113.260,            0.,NA,NA,"",   535.057E+03,  -578.652E+03,  -578.652E+03
C:/temp/Job-6.odb,Step-1,Increment      1: Step Time =    1.000,"P-6-1",           728,       125.851,       38.4198,            0.,NA,NA,"",   2.84662E+06,   2.99224E+06,   2.99224E+06
C:/temp/Job-6.odb,Step-1,Increment      1: Step Time =    1.000,"P-6-1",           729,       36.1014,       108.044,            0.,NA,NA,"",   500.340E+03,  -549.530E+03,  -549.530E+03
C:/temp/Job-6.odb,Step-1,Increment      1: Step Time =    1.000,"P-6-1",           730,       136.344,       47.7515,            0.,NA,NA,"",   2.67334E+06,   2.71889E+06,   2.71889E+06
C:/temp/Job-6.odb,Step-1,Increment      1: Step Time =    1.000,"P-6-1",           731,       63.8980,       47.8445,            0.,NA,NA,"",   1.50850E+06,   1.34807E+06,   1.34807E+06
C:/temp/Job-6.odb,Step-1,Increment      1: Step Time =    1.000,"P-6-1",           732,       61.0127,       13.5918,            0.,NA,NA,"",   2.15496E+06,   2.07271E+06,   2.07271E+06
C:/temp/Job-6.odb,Step-1,Increment      1: Step Time =    1.000,"P-6-1",           733,       11.8246,       60.8586,            0.,NA,NA,"",   420.190E+03,   455.493E+03,   455.493E+03
C:/temp/Job-6.odb,Step-1,Increment      1: Step Time =    1.000,"P-6-1",           734,       182.407,       59.6643,            0.,NA,NA,"",   1.50458E+06,   1.49409E+06,   1.49409E+06
C:/temp/Job-6.odb,Step-1,Increment      1: Step Time =    1.000,"P-6-1",           735,       60.1978,       185.229,            0.,NA,NA,"",   2.18265E+06,   2.08920E+06,   2.08920E+06
C:/temp/Job-6.odb,Step-1,Increment      1: Step Time =    1.000,"P-6-1",           736,       16.6861,       137.387,            0.,NA,NA,"",   368.228E+03,   386.658E+03,   386.658E+03
C:/temp/Job-6.odb,Step-1,Increment      1: Step Time =    1.000,"P-6-1",           737,       139.642,       13.7917,            0.,NA,NA,"",   1.15004E+06,   1.13324E+06,   1.13324E+06
C:/temp/Job-6.odb,Step-1,Increment      1: Step Time =    1.000,"P-6-1",           738,       186.323,       139.501,            0.,NA,NA,"",   1.35213E+06,   1.43730E+06,   1.43730E+06
C:/temp/Job-6.odb,Step-1,Increment      1: Step Time =    1.000,"P-6-1",           739,       140.157,       182.336,            0.,NA,NA,"",   1.36212E+06,   1.34727E+06,   1.34727E+06
C:/temp/Job-6.odb,Step-1,Increment      1: Step Time =    1.000,"P-6-1",           740,       43.3652,       132.050,            0.,NA,NA,"",   497.614E+03,  -457.052E+03,  -457.052E+03
C:/temp/Job-6.odb,Step-1,Increment      1: Step Time =    1.000,"P-6-1",           741,       116.944,       162.659,            0.,NA,NA,"",   3.19521E+06,   3.38175E+06,   3.38175E+06
C:/temp/Job-6.odb,Step-1,Increment      1: Step Time =    1.000,"P-6-1",           742,       150.560,       143.826,            0.,NA,NA,"",   2.01624E+06,   1.80478E+06,   1.80478E+06
C:/temp/Job-6.odb,Step-1,Increment      1: Step Time =    1.000,"P-6-1",           743,       44.2169,       136.252,            0.,NA,NA,"",   541.123E+03,  -399.364E+03,  -399.364E+03
C:/temp/Job-6.odb,Step-1,Increment      1: Step Time =    1.000,"P-6-1",           744,       13.0570,       69.1919,            0.,NA,NA,"",   185.298E+03,   198.272E+03,   198.272E+03
C:/temp/Job-6.odb,Step-1,Increment      1: Step Time =    1.000,"P-6-1",           745,       130.257,       14.7938,            0.,NA,NA,"",   1.16002E+06,   1.18370E+06,   1.18370E+06
C:/temp/Job-6.odb,Step-1,Increment      1: Step Time =    1.000,"P-6-1",           746,       69.1264,       13.3033,            0.,NA,NA,"",   2.05213E+06,   1.96542E+06,   1.96542E+06
C:/temp/Job-6.odb,Step-1,Increment      1: Step Time =    1.000,"P-6-1",           747,       16.1129,       128.471,            0.,NA,NA,"",   132.329E+03,   131.722E+03,   131.722E+03
C:/temp/Job-6.odb,Step-1,Increment      1: Step Time =    1.000,"P-6-1",           748,       184.299,       129.820,            0.,NA,NA,"",   1.43732E+06,   1.50390E+06,   1.50390E+06
C:/temp/Job-6.odb,Step-1,Increment      1: Step Time =    1.000,"P-6-1",           749,       69.8586,       184.880,            0.,NA,NA,"",   2.11288E+06,   2.01294E+06,   2.01294E+06
C:/temp/Job-6.odb,Step-1,Increment      1: Step Time =    1.000,"P-6-1",           750,       185.731,       70.7674,            0.,NA,NA,"",   1.40155E+06,   1.51116E+06,   1.51116E+06
C:/temp/Job-6.odb,Step-1,Increment      1: Step Time =    1.000,"P-6-1",           751,       129.163,       186.266,            0.,NA,NA,"",   1.10347E+06,   1.12641E+06,   1.12641E+06
C:/temp/Job-6.odb,Step-1,Increment      1: Step Time =    1.000,"P-6-1",           752,       84.2408,       161.178,            0.,NA,NA,"",   2.89774E+06,   2.94274E+06,   2.94274E+06
C:/temp/Job-6.odb,Step-1,Increment      1: Step Time =    1.000,"P-6-1",           753,       162.322,       85.0751,            0.,NA,NA,"",   1.27567E+06,  -1.11765E+06,  -1.11765E+06
C:/temp/Job-6.odb,Step-1,Increment      1: Step Time =    1.000,"P-6-1",           754,       36.1774,       79.2591,            0.,NA,NA,"",   400.278E+03,  -434.391E+03,  -434.391E+03
C:/temp/Job-6.odb,Step-1,Increment      1: Step Time =    1.000,"P-6-1",           755,       138.780,       150.544,            0.,NA,NA,"",   2.52028E+06,   2.53532E+06,   2.53532E+06
C:/temp/Job-6.odb,Step-1,Increment      1: Step Time =    1.000,"P-6-1",           756,       59.8701,       150.311,            0.,NA,NA,"",   1.34234E+06,   1.12943E+06,   1.12943E+06
C:/temp/Job-6.odb,Step-1,Increment      1: Step Time =    1.000,"P-6-1",           757,       103.819,       34.2150,            0.,NA,NA,"",   3.15785E+06,   3.33450E+06,   3.33450E+06
C:/temp/Job-6.odb,Step-1,Increment      1: Step Time =    1.000,"P-6-1",           758,       15.2925,       78.5928,            0.,NA,NA,"",   84.6353E+03,  -21.1651E+03,  -21.1651E+03
C:/temp/Job-6.odb,Step-1,Increment      1: Step Time =    1.000,"P-6-1",           759,       120.454,       15.5924,            0.,NA,NA,"",   1.20586E+06,   1.27083E+06,   1.27083E+06
C:/temp/Job-6.odb,Step-1,Increment      1: Step Time =    1.000,"P-6-1",           760,       15.1799,       119.310,            0.,NA,NA,"",   101.917E+03,  -95.7484E+03,  -95.7484E+03
C:/temp/Job-6.odb,Step-1,Increment      1: Step Time =    1.000,"P-6-1",           761,       78.0644,       13.9698,            0.,NA,NA,"",   1.93883E+06,   1.85788E+06,   1.85788E+06
C:/temp/Job-6.odb,Step-1,Increment      1: Step Time =    1.000,"P-6-1",           762,       80.1336,       183.936,            0.,NA,NA,"",   1.99200E+06,   1.91465E+06,   1.91465E+06
C:/temp/Job-6.odb,Step-1,Increment      1: Step Time =    1.000,"P-6-1",           763,       185.744,       118.640,            0.,NA,NA,"",   1.31616E+06,   1.47338E+06,   1.47338E+06
C:/temp/Job-6.odb,Step-1,Increment      1: Step Time =    1.000,"P-6-1",           764,       184.845,       79.3178,            0.,NA,NA,"",   1.33863E+06,   1.46427E+06,   1.46427E+06
C:/temp/Job-6.odb,Step-1,Increment      1: Step Time =    1.000,"P-6-1",           765,       120.183,       185.249,            0.,NA,NA,"",   1.14409E+06,   1.20785E+06,   1.20785E+06
C:/temp/Job-6.odb,Step-1,Increment      1: Step Time =    1.000,"P-6-1",           766,       67.4590,       160.569,            0.,NA,NA,"",   2.13282E+06,   1.97394E+06,   1.97394E+06
C:/temp/Job-6.odb,Step-1,Increment      1: Step Time =    1.000,"P-6-1",           767,       162.490,       68.9688,            0.,NA,NA,"",   1.73735E+06,   1.24277E+06,   1.24277E+06
C:/temp/Job-6.odb,Step-1,Increment      1: Step Time =    1.000,"P-6-1",           768,       39.0391,       64.5594,            0.,NA,NA,"",   458.543E+03,  -104.306E+03,  -104.306E+03
C:/temp/Job-6.odb,Step-1,Increment      1: Step Time =    1.000,"P-6-1",           769,       88.4847,       162.094,            0.,NA,NA,"",   3.12218E+06,   3.20746E+06,   3.20746E+06
C:/temp/Job-6.odb,Step-1,Increment      1: Step Time =    1.000,"P-6-1",           770,       163.905,       95.5032,            0.,NA,NA,"",   1.21098E+06,  -1.21199E+06,  -1.21199E+06
C:/temp/Job-6.odb,Step-1,Increment      1: Step Time =    1.000,"P-6-1",           771,       164.324,       110.044,            0.,NA,NA,"",   1.13214E+06,  -1.04730E+06,  -1.04730E+06
C:/temp/Job-6.odb,Step-1,Increment      1: Step Time =    1.000,"P-6-1",           772,       112.238,       168.803,            0.,NA,NA,"",   2.62995E+06,   2.82155E+06,   2.82155E+06
C:/temp/Job-6.odb,Step-1,Increment      1: Step Time =    1.000,"P-6-1",           773,       80.0362,       37.4161,            0.,NA,NA,"",   2.61288E+06,   2.60705E+06,   2.60705E+06
C:/temp/Job-6.odb,Step-1,Increment      1: Step Time =    1.000,"P-6-1",           774,       38.7940,       118.151,            0.,NA,NA,"",   547.554E+03,  -584.129E+03,  -584.129E+03
C:/temp/Job-6.odb,Step-1,Increment      1: Step Time =    1.000,"P-6-1",           775,       109.440,       15.3173,            0.,NA,NA,"",   1.28576E+06,   1.35921E+06,   1.35921E+06
C:/temp/Job-6.odb,Step-1,Increment      1: Step Time =    1.000,"P-6-1",           776,       15.7290,       90.2147,            0.,NA,NA,"",   180.472E+03,  -195.513E+03,  -195.513E+03
C:/temp/Job-6.odb,Step-1,Increment      1: Step Time =    1.000,"P-6-1",           777,       89.1724,       15.0926,            0.,NA,NA,"",   1.76065E+06,   1.73428E+06,   1.73428E+06
C:/temp/Job-6.odb,Step-1,Increment      1: Step Time =    1.000,"P-6-1",           778,       14.6654,       109.769,            0.,NA,NA,"",    180.79E+03,  -193.446E+03,  -193.446E+03
C:/temp/Job-6.odb,Step-1,Increment      1: Step Time =    1.000,"P-6-1",           779,       89.7626,       185.209,            0.,NA,NA,"",   1.71873E+06,   1.69519E+06,   1.69519E+06
C:/temp/Job-6.odb,Step-1,Increment      1: Step Time =    1.000,"P-6-1",           780,       185.220,       110.046,            0.,NA,NA,"",   1.16927E+06,   1.34209E+06,   1.34209E+06
C:/temp/Job-6.odb,Step-1,Increment      1: Step Time =    1.000,"P-6-1",           781,       184.018,       90.0364,            0.,NA,NA,"",   1.09081E+06,   1.24300E+06,   1.24300E+06
C:/temp/Job-6.odb,Step-1,Increment      1: Step Time =    1.000,"P-6-1",           782,       109.852,       185.117,            0.,NA,NA,"",   1.23268E+06,   1.30531E+06,   1.30531E+06
C:/temp/Job-6.odb,Step-1,Increment      1: Step Time =    1.000,"P-6-1",           783,       132.453,       44.7346,            0.,NA,NA,"",   2.88525E+06,   2.97062E+06,   2.97062E+06
C:/temp/Job-6.odb,Step-1,Increment      1: Step Time =    1.000,"P-6-1",           784,       68.1566,       44.9279,            0.,NA,NA,"",   1.85736E+06,   1.73743E+06,   1.73743E+06
C:/temp/Job-6.odb,Step-1,Increment      1: Step Time =    1.000,"P-6-1",           785,       133.357,       162.375,            0.,NA,NA,"",   2.42366E+06,   2.50344E+06,   2.50344E+06
C:/temp/Job-6.odb,Step-1,Increment      1: Step Time =    1.000,"P-6-1",           786,       156.296,       56.8350,            0.,NA,NA,"",   2.03922E+06,   1.73091E+06,   1.73091E+06
C:/temp/Job-6.odb,Step-1,Increment      1: Step Time =    1.000,"P-6-1",           787,       45.0803,       58.6243,            0.,NA,NA,"",   732.656E+03,   306.897E+03,   306.897E+03
C:/temp/Job-6.odb,Step-1,Increment      1: Step Time =    1.000,"P-6-1",           788,       14.9076,       100.041,            0.,NA,NA,"",   213.057E+03,  -231.989E+03,  -231.989E+03
C:/temp/Job-6.odb,Step-1,Increment      1: Step Time =    1.000,"P-6-1",           789,       99.3632,       15.1620,            0.,NA,NA,"",   1.47844E+06,   1.51132E+06,   1.51132E+06
C:/temp/Job-6.odb,Step-1,Increment      1: Step Time =    1.000,"P-6-1",           790,       184.685,       100.146,            0.,NA,NA,"",   1.01709E+06,   1.16863E+06,   1.16863E+06
C:/temp/Job-6.odb,Step-1,Increment      1: Step Time =    1.000,"P-6-1",           791,       99.4688,       185.382,            0.,NA,NA,"",   1.44017E+06,   1.46980E+06,   1.46980E+06
C:/temp/Job-6.odb,Step-1,Increment      1: Step Time =    1.000,"P-6-1",           792,       164.386,       74.0160,            0.,NA,NA,"",   1.56333E+06,   595.331E+03,   595.331E+03
C:/temp/Job-6.odb,Step-1,Increment      1: Step Time =    1.000,"P-6-1",           793,       31.3921,       109.996,            0.,NA,NA,"",   326.457E+03,  -371.384E+03,  -371.384E+03
C:/temp/Job-6.odb,Step-1,Increment      1: Step Time =    1.000,"P-6-1",           794,       68.9613,       164.746,            0.,NA,NA,"",   2.32125E+06,   2.16157E+06,   2.16157E+06
C:/temp/Job-6.odb,Step-1,Increment      1: Step Time =    1.000,"P-6-1",           795,       77.3593,       33.8137,            0.,NA,NA,"",   2.52835E+06,   2.45866E+06,   2.45866E+06
C:/temp/Job-6.odb,Step-1,Increment      1: Step Time =    1.000,"P-6-1",           796,       166.016,       79.1817,            0.,NA,NA,"",   1.37674E+06,   14.2576E+03,   14.2576E+03
C:/temp/Job-6.odb,Step-1,Increment      1: Step Time =    1.000,"P-6-1",           797,       15.8007,       64.3008,            0.,NA,NA,"",   308.548E+03,   326.195E+03,   326.195E+03
C:/temp/Job-6.odb,Step-1,Increment      1: Step Time =    1.000,"P-6-1",           798,       64.9603,       13.3292,            0.,NA,NA,"",   2.10704E+06,   2.02348E+06,   2.02348E+06
C:/temp/Job-6.odb,Step-1,Increment      1: Step Time =    1.000,"P-6-1",           799,       183.993,       63.2005,            0.,NA,NA,"",   1.45571E+06,   1.49179E+06,   1.49179E+06
C:/temp/Job-6.odb,Step-1,Increment      1: Step Time =    1.000,"P-6-1",           800,       64.9805,       185.067,            0.,NA,NA,"",   2.14827E+06,   2.04979E+06,   2.04979E+06
C:/temp/Job-6.odb,Step-1,Increment      1: Step Time =    1.000,"P-6-1",           801,       135.045,       14.2535,            0.,NA,NA,"",   1.15286E+06,   1.15254E+06,   1.15254E+06
C:/temp/Job-6.odb,Step-1,Increment      1: Step Time =    1.000,"P-6-1",           802,       16.3986,       133.042,            0.,NA,NA,"",   244.510E+03,   256.039E+03,   256.039E+03
C:/temp/Job-6.odb,Step-1,Increment      1: Step Time =    1.000,"P-6-1",           803,       185.454,       134.873,            0.,NA,NA,"",   1.41066E+06,   1.48784E+06,   1.48784E+06
C:/temp/Job-6.odb,Step-1,Increment      1: Step Time =    1.000,"P-6-1",           804,       136.291,       184.014,            0.,NA,NA,"",   1.25329E+06,   1.25024E+06,   1.25024E+06
C:/temp/Job-6.odb,Step-1,Increment      1: Step Time =    1.000,"P-6-1",           805,       111.079,       162.744,            0.,NA,NA,"",   3.53166E+06,   3.72064E+06,   3.72064E+06
C:/temp/Job-6.odb,Step-1,Increment      1: Step Time =    1.000,"P-6-1",           806,       154.926,       138.267,            0.,NA,NA,"",   1.83444E+06,   1.48754E+06,   1.48754E+06
C:/temp/Job-6.odb,Step-1,Increment      1: Step Time =    1.000,"P-6-1",           807,       69.3414,       38.5513,            0.,NA,NA,"",   2.25339E+06,   2.10498E+06,   2.10498E+06
C:/temp/Job-6.odb,Step-1,Increment      1: Step Time =    1.000,"P-6-1",           808,       48.3274,       141.448,            0.,NA,NA,"",   735.947E+03,   83.2118E+03,   83.2118E+03
C:/temp/Job-6.odb,Step-1,Increment      1: Step Time =    1.000,"P-6-1",           809,       14.1266,       73.6858,            0.,NA,NA,"",   104.338E+03,   98.8317E+03,   98.8317E+03
C:/temp/Job-6.odb,Step-1,Increment      1: Step Time =    1.000,"P-6-1",           810,       73.4640,       13.3926,            0.,NA,NA,"",   1.99138E+06,   1.90442E+06,   1.90442E+06
C:/temp/Job-6.odb,Step-1,Increment      1: Step Time =    1.000,"P-6-1",           811,       15.9017,       123.816,            0.,NA,NA,"",   79.2309E+03,   5.82073E+03,   5.82073E+03
C:/temp/Job-6.odb,Step-1,Increment      1: Step Time =    1.000,"P-6-1",           812,       125.379,       15.3276,            0.,NA,NA,"",   1.16655E+06,   1.21493E+06,   1.21493E+06
C:/temp/Job-6.odb,Step-1,Increment      1: Step Time =    1.000,"P-6-1",           813,       183.332,       123.623,            0.,NA,NA,"",   1.38169E+06,   1.45309E+06,   1.45309E+06
C:/temp/Job-6.odb,Step-1,Increment      1: Step Time =    1.000,"P-6-1",           814,       185.529,       74.8579,            0.,NA,NA,"",   1.38821E+06,   1.51308E+06,   1.51308E+06
C:/temp/Job-6.odb,Step-1,Increment      1: Step Time =    1.000,"P-6-1",           815,       74.9844,       184.181,            0.,NA,NA,"",   2.06843E+06,   1.97518E+06,   1.97518E+06
C:/temp/Job-6.odb,Step-1,Increment      1: Step Time =    1.000,"P-6-1",           816,       124.927,       185.605,            0.,NA,NA,"",   1.11746E+06,   1.15995E+06,   1.15995E+06
C:/temp/Job-6.odb,Step-1,Increment      1: Step Time =    1.000,"P-6-1",           817,       169.082,       89.8745,            0.,NA,NA,"",   867.925E+03,  -35.7634E+03,  -35.7634E+03
C:/temp/Job-6.odb,Step-1,Increment      1: Step Time =    1.000,"P-6-1",           818,       40.0501,       73.0036,            0.,NA,NA,"",   460.466E+03,  -466.161E+03,  -466.161E+03
C:/temp/Job-6.odb,Step-1,Increment      1: Step Time =    1.000,"P-6-1",           819,       142.265,       147.662,            0.,NA,NA,"",   2.29087E+06,   2.25075E+06,   2.25075E+06
C:/temp/Job-6.odb,Step-1,Increment      1: Step Time =    1.000,"P-6-1",           820,       59.0801,       156.299,            0.,NA,NA,"",   1.77925E+06,   1.54573E+06,   1.54573E+06
C:/temp/Job-6.odb,Step-1,Increment      1: Step Time =    1.000,"P-6-1",           821,       15.0656,       114.594,            0.,NA,NA,"",   144.702E+03,  -151.133E+03,  -151.133E+03
C:/temp/Job-6.odb,Step-1,Increment      1: Step Time =    1.000,"P-6-1",           822,       83.3530,       15.7478,            0.,NA,NA,"",   1.92542E+06,   1.86343E+06,   1.86343E+06
C:/temp/Job-6.odb,Step-1,Increment      1: Step Time =    1.000,"P-6-1",           823,       16.8328,       84.2791,            0.,NA,NA,"",   130.546E+03,  -139.458E+03,  -139.458E+03
C:/temp/Job-6.odb,Step-1,Increment      1: Step Time =    1.000,"P-6-1",           824,       114.755,       17.1404,            0.,NA,NA,"",   1.34320E+06,   1.43063E+06,   1.43063E+06
C:/temp/Job-6.odb,Step-1,Increment      1: Step Time =    1.000,"P-6-1",           825,       183.088,       84.3764,            0.,NA,NA,"",   1.20497E+06,   1.31302E+06,   1.31302E+06
C:/temp/Job-6.odb,Step-1,Increment      1: Step Time =    1.000,"P-6-1",           826,       115.101,       184.862,            0.,NA,NA,"",   1.18274E+06,   1.25732E+06,   1.25732E+06
C:/temp/Job-6.odb,Step-1,Increment      1: Step Time =    1.000,"P-6-1",           827,       85.1113,       184.361,            0.,NA,NA,"",   1.87260E+06,   1.82026E+06,   1.82026E+06
C:/temp/Job-6.odb,Step-1,Increment      1: Step Time =    1.000,"P-6-1",           828,       186.096,       114.620,            0.,NA,NA,"",   1.26745E+06,   1.44484E+06,   1.44484E+06
C:/temp/Job-6.odb,Step-1,Increment      1: Step Time =    1.000,"P-6-1",           829,       38.2474,       132.808,            0.,NA,NA,"",   401.117E+03,  -305.968E+03,  -305.968E+03
C:/temp/Job-6.odb,Step-1,Increment      1: Step Time =    1.000,"P-6-1",           830,       39.5263,       68.1538,            0.,NA,NA,"",   406.282E+03,  -346.754E+03,  -346.754E+03
C:/temp/Job-6.odb,Step-1,Increment      1: Step Time =    1.000,"P-6-1",           831,       169.248,       109.609,            0.,NA,NA,"",   839.963E+03,  -142.791E+03,  -142.791E+03
C:/temp/Job-6.odb,Step-1,Increment      1: Step Time =    1.000,"P-6-1",           832,       92.0122,       167.374,            0.,NA,NA,"",   2.82179E+06,   2.91695E+06,   2.91695E+06
C:/temp/Job-6.odb,Step-1,Increment      1: Step Time =    1.000,"P-6-1",           833,       94.2700,       15.3359,            0.,NA,NA,"",   1.62402E+06,   1.62921E+06,   1.62921E+06
C:/temp/Job-6.odb,Step-1,Increment      1: Step Time =    1.000,"P-6-1",           834,       14.5526,       104.808,            0.,NA,NA,"",   206.549E+03,  -223.293E+03,  -223.293E+03
C:/temp/Job-6.odb,Step-1,Increment      1: Step Time =    1.000,"P-6-1",           835,       184.442,       95.1534,            0.,NA,NA,"",   1.02635E+06,   1.18149E+06,   1.18149E+06
C:/temp/Job-6.odb,Step-1,Increment      1: Step Time =    1.000,"P-6-1",           836,       104.599,       185.378,            0.,NA,NA,"",   1.31643E+06,   1.37344E+06,   1.37344E+06
C:/temp/Job-6.odb,Step-1,Increment      1: Step Time =    1.000,"P-6-1",           837,       136.061,       164.732,            0.,NA,NA,"",   2.23343E+06,   2.27611E+06,   2.27611E+06
C:/temp/Job-6.odb,Step-1,Increment      1: Step Time =    1.000,"P-6-1",           838,       169.108,       100.363,            0.,NA,NA,"",   594.591E+03,  -396.767E+03,  -396.767E+03
C:/temp/Job-6.odb,Step-1,Increment      1: Step Time =    1.000,"P-6-1",           839,       166.715,       68.8781,            0.,NA,NA,"",   1.77805E+06,   1.34236E+06,   1.34236E+06
C:/temp/Job-6.odb,Step-1,Increment      1: Step Time =    1.000,"P-6-1",           840,       161.222,       57.8662,            0.,NA,NA,"",   2.01790E+06,   1.66292E+06,   1.66292E+06
C:/temp/Job-6.odb,Step-1,Increment      1: Step Time =    1.000,"P-6-1",           841,       38.3128,       59.0704,            0.,NA,NA,"",   656.018E+03,   479.581E+03,   479.581E+03
C:/temp/Job-6.odb,Step-1,Increment      1: Step Time =    1.000,"P-6-1",           842,       15.1257,       95.2220,            0.,NA,NA,"",   204.515E+03,  -222.837E+03,  -222.837E+03
C:/temp/Job-6.odb,Step-1,Increment      1: Step Time =    1.000,"P-6-1",           843,       104.370,       14.9455,            0.,NA,NA,"",   1.34117E+06,   1.39489E+06,   1.39489E+06
C:/temp/Job-6.odb,Step-1,Increment      1: Step Time =    1.000,"P-6-1",           844,       184.863,       105.157,            0.,NA,NA,"",   1.06836E+06,   1.23028E+06,   1.23028E+06
C:/temp/Job-6.odb,Step-1,Increment      1: Step Time =    1.000,"P-6-1",           845,       94.5673,       185.282,            0.,NA,NA,"",   1.57246E+06,   1.57420E+06,   1.57420E+06
C:/temp/Job-6.odb,Step-1,Increment      1: Step Time =    1.000,"P-6-1",           846,       25.8465,       107.247,            0.,NA,NA,"",   222.106E+03,  -249.240E+03,  -249.240E+03
C:/temp/Job-6.odb,Step-1,Increment      1: Step Time =    1.000,"P-6-1",           847,       60.9207,       44.2472,            0.,NA,NA,"",   1.77020E+06,   1.55322E+06,   1.55322E+06
C:/temp/Job-6.odb,Step-1,Increment      1: Step Time =    1.000,"P-6-1",           848,       139.440,       44.2017,            0.,NA,NA,"",   2.44983E+06,   2.45286E+06,   2.45286E+06
C:/temp/Job-6.odb,Step-1,Increment      1: Step Time =    1.000,"P-6-1",           849,       77.3542,       167.389,            0.,NA,NA,"",   2.54217E+06,   2.46323E+06,   2.46323E+06
C:/temp/Job-6.odb,Step-1,Increment      1: Step Time =    1.000,"P-6-1",           850,       172.348,       67.8357,            0.,NA,NA,"",   1.74068E+06,   1.45084E+06,   1.45084E+06
C:/temp/Job-6.odb,Step-1,Increment      1: Step Time =    1.000,"P-6-1",           851,       21.1788,       91.3458,            0.,NA,NA,"",   184.224E+03,  -208.479E+03,  -208.479E+03
C:/temp/Job-6.odb,Step-1,Increment      1: Step Time =    1.000,"P-6-1",           852,       110.795,       22.2033,            0.,NA,NA,"",   1.79336E+06,   1.92567E+06,   1.92567E+06
C:/temp/Job-6.odb,Step-1,Increment      1: Step Time =    1.000,"P-6-1",           853,       179.761,       111.075,            0.,NA,NA,"",   951.138E+03,   1.01524E+06,   1.01524E+06
C:/temp/Job-6.odb,Step-1,Increment      1: Step Time =    1.000,"P-6-1",           854,       90.1927,       181.344,            0.,NA,NA,"",   1.94501E+06,   1.93475E+06,   1.93475E+06
C:/temp/Job-6.odb,Step-1,Increment      1: Step Time =    1.000,"P-6-1",           855,       20.2598,       100.521,            0.,NA,NA,"",   204.999E+03,  -230.916E+03,  -230.916E+03
C:/temp/Job-6.odb,Step-1,Increment      1: Step Time =    1.000,"P-6-1",           856,       99.5143,       20.0838,            0.,NA,NA,"",   1.83753E+06,   1.90526E+06,   1.90526E+06
C:/temp/Job-6.odb,Step-1,Increment      1: Step Time =    1.000,"P-6-1",           857,       99.4245,       180.877,            0.,NA,NA,"",   1.76552E+06,   1.82709E+06,   1.82709E+06
C:/temp/Job-6.odb,Step-1,Increment      1: Step Time =    1.000,"P-6-1",           858,       174.280,       100.341,            0.,NA,NA,"",   398.540E+03,   256.634E+03,   256.634E+03
C:/temp/Job-6.odb,Step-1,Increment      1: Step Time =    1.000,"P-6-1",           859,       73.2868,       163.394,            0.,NA,NA,"",   2.41574E+06,   2.30973E+06,   2.30973E+06
C:/temp/Job-6.odb,Step-1,Increment      1: Step Time =    1.000,"P-6-1",           860,       56.2341,       153.292,            0.,NA,NA,"",   1.56124E+06,   1.31129E+06,   1.31129E+06
C:/temp/Job-6.odb,Step-1,Increment      1: Step Time =    1.000,"P-6-1",           861,       73.4265,       36.0430,            0.,NA,NA,"",   2.41759E+06,   2.31033E+06,   2.31033E+06
C:/temp/Job-6.odb,Step-1,Increment      1: Step Time =    1.000,"P-6-1",           862,       57.8566,       161.843,            0.,NA,NA,"",   2.01156E+06,   1.77917E+06,   1.77917E+06
C:/temp/Job-6.odb,Step-1,Increment      1: Step Time =    1.000,"P-6-1",           863,       16.1604,       57.5686,            0.,NA,NA,"",   538.084E+03,   567.893E+03,   567.893E+03
C:/temp/Job-6.odb,Step-1,Increment      1: Step Time =    1.000,"P-6-1",           864,       61.0986,       17.4770,            0.,NA,NA,"",   2.20885E+06,   2.09318E+06,   2.09318E+06
C:/temp/Job-6.odb,Step-1,Increment      1: Step Time =    1.000,"P-6-1",           865,       60.3195,       180.518,            0.,NA,NA,"",   2.23648E+06,   2.10462E+06,   2.10462E+06
C:/temp/Job-6.odb,Step-1,Increment      1: Step Time =    1.000,"P-6-1",           866,       178.864,       61.3373,            0.,NA,NA,"",   1.62305E+06,   1.53371E+06,   1.53371E+06
C:/temp/Job-6.odb,Step-1,Increment      1: Step Time =    1.000,"P-6-1",           867,       21.0141,       140.208,            0.,NA,NA,"",   470.997E+03,   473.562E+03,   473.562E+03
C:/temp/Job-6.odb,Step-1,Increment      1: Step Time =    1.000,"P-6-1",           868,       139.864,       18.4276,            0.,NA,NA,"",   1.39265E+06,   1.37665E+06,   1.37665E+06
C:/temp/Job-6.odb,Step-1,Increment      1: Step Time =    1.000,"P-6-1",           869,       183.007,       144.044,            0.,NA,NA,"",   1.44429E+06,   1.45068E+06,   1.45068E+06
C:/temp/Job-6.odb,Step-1,Increment      1: Step Time =    1.000,"P-6-1",           870,       138.497,       178.813,            0.,NA,NA,"",   1.53370E+06,   1.52901E+06,   1.52901E+06
C:/temp/Job-6.odb,Step-1,Increment      1: Step Time =    1.000,"P-6-1",           871,       155.438,       143.280,            0.,NA,NA,"",   2.02552E+06,   1.72595E+06,   1.72595E+06
C:/temp/Job-6.odb,Step-1,Increment      1: Step Time =    1.000,"P-6-1",           872,       43.8381,       139.935,            0.,NA,NA,"",   649.436E+03,   48.2634E+03,   48.2634E+03
C:/temp/Job-6.odb,Step-1,Increment      1: Step Time =    1.000,"P-6-1",           873,       130.766,       19.5393,            0.,NA,NA,"",   1.46135E+06,   1.50149E+06,   1.50149E+06
C:/temp/Job-6.odb,Step-1,Increment      1: Step Time =    1.000,"P-6-1",           874,       21.5018,       128.004,            0.,NA,NA,"",   123.174E+03,   71.3987E+03,   71.3987E+03
C:/temp/Job-6.odb,Step-1,Increment      1: Step Time =    1.000,"P-6-1",           875,       69.5740,       180.556,            0.,NA,NA,"",   2.23841E+06,   2.11008E+06,   2.11008E+06
C:/temp/Job-6.odb,Step-1,Increment      1: Step Time =    1.000,"P-6-1",           876,       181.824,       67.5894,            0.,NA,NA,"",   1.51833E+06,   1.51153E+06,   1.51153E+06
C:/temp/Job-6.odb,Step-1,Increment      1: Step Time =    1.000,"P-6-1",           877,       17.3010,       67.9916,            0.,NA,NA,"",   203.049E+03,   209.856E+03,   209.856E+03
C:/temp/Job-6.odb,Step-1,Increment      1: Step Time =    1.000,"P-6-1",           878,       68.7041,       17.6416,            0.,NA,NA,"",   2.18224E+06,   2.06276E+06,   2.06276E+06
C:/temp/Job-6.odb,Step-1,Increment      1: Step Time =    1.000,"P-6-1",           879,       178.614,       131.373,            0.,NA,NA,"",   1.59565E+06,   1.49102E+06,   1.49102E+06
C:/temp/Job-6.odb,Step-1,Increment      1: Step Time =    1.000,"P-6-1",           880,       130.371,       182.577,            0.,NA,NA,"",   1.32425E+06,   1.35372E+06,   1.35372E+06
C:/temp/Job-6.odb,Step-1,Increment      1: Step Time =    1.000,"P-6-1",           881,       21.8471,       81.1186,            0.,NA,NA,"",   102.730E+03,  -115.404E+03,  -115.404E+03
C:/temp/Job-6.odb,Step-1,Increment      1: Step Time =    1.000,"P-6-1",           882,       118.111,       21.9461,            0.,NA,NA,"",   1.65904E+06,   1.77208E+06,   1.77208E+06
C:/temp/Job-6.odb,Step-1,Increment      1: Step Time =    1.000,"P-6-1",           883,       79.8218,       19.2421,            0.,NA,NA,"",   2.15889E+06,   2.07260E+06,   2.07260E+06
C:/temp/Job-6.odb,Step-1,Increment      1: Step Time =    1.000,"P-6-1",           884,       179.593,       118.829,            0.,NA,NA,"",   1.24921E+06,   1.24192E+06,   1.24192E+06
C:/temp/Job-6.odb,Step-1,Increment      1: Step Time =    1.000,"P-6-1",           885,       34.7593,       68.1844,            0.,NA,NA,"",   334.718E+03,  -141.558E+03,  -141.558E+03
C:/temp/Job-6.odb,Step-1,Increment      1: Step Time =    1.000,"P-6-1",           886,       89.3923,       19.1688,            0.,NA,NA,"",   1.99350E+06,   1.97976E+06,   1.97976E+06
C:/temp/Job-6.odb,Step-1,Increment      1: Step Time =    1.000,"P-6-1",           887,       178.861,       90.7694,            0.,NA,NA,"",   826.952E+03,   883.855E+03,   883.855E+03
C:/temp/Job-6.odb,Step-1,Increment      1: Step Time =    1.000,"P-6-1",           888,       127.886,       163.172,            0.,NA,NA,"",   2.61212E+06,   2.74727E+06,   2.74727E+06
C:/temp/Job-6.odb,Step-1,Increment      1: Step Time =    1.000,"P-6-1",           889,       138.648,       162.221,            0.,NA,NA,"",   2.28112E+06,   2.29594E+06,   2.29594E+06
C:/temp/Job-6.odb,Step-1,Increment      1: Step Time =    1.000,"P-6-1",           890,       167.801,       65.6937,            0.,NA,NA,"",   1.84157E+06,   1.45552E+06,   1.45552E+06
C:/temp/Job-6.odb,Step-1,Increment      1: Step Time =    1.000,"P-6-1",           891,       26.8396,       111.546,            0.,NA,NA,"",   218.814E+03,  -249.056E+03,  -249.056E+03
C:/temp/Job-6.odb,Step-1,Increment      1: Step Time =    1.000,"P-6-1",           892,       23.7550,       103.716,            0.,NA,NA,"",   210.471E+03,  -234.921E+03,  -234.921E+03
C:/temp/Job-6.odb,Step-1,Increment      1: Step Time =    1.000,"P-6-1",           893,       57.8920,       40.4548,            0.,NA,NA,"",   1.92652E+06,   1.69192E+06,   1.69192E+06
C:/temp/Job-6.odb,Step-1,Increment      1: Step Time =    1.000,"P-6-1",           894,       139.021,       37.3732,            0.,NA,NA,"",   2.25533E+06,   2.26540E+06,   2.26540E+06
C:/temp/Job-6.odb,Step-1,Increment      1: Step Time =    1.000,"P-6-1",           895,       80.4975,       171.205,            0.,NA,NA,"",   2.49622E+06,   2.43522E+06,   2.43522E+06
C:/temp/Job-6.odb,Step-1,Increment      1: Step Time =    1.000,"P-6-1",           896,       34.7275,       137.776,            0.,NA,NA,"",   494.262E+03,   224.918E+03,   224.918E+03
C:/temp/Job-6.odb,Step-1,Increment      1: Step Time =    1.000,"P-6-1",           897,       164.667,       114.361,            0.,NA,NA,"",   1.17245E+06,  -942.247E+03,  -942.247E+03
C:/temp/Job-6.odb,Step-1,Increment      1: Step Time =    1.000,"P-6-1",           898,       138.752,       156.621,            0.,NA,NA,"",   2.43759E+06,   2.45499E+06,   2.45499E+06
C:/temp/Job-6.odb,Step-1,Increment      1: Step Time =    1.000,"P-6-1",           899,       48.6175,       54.6006,            0.,NA,NA,"",   958.838E+03,   696.554E+03,   696.554E+03
C:/temp/Job-6.odb,Step-1,Increment      1: Step Time =    1.000,"P-6-1",           900,       89.7205,       35.0706,            0.,NA,NA,"",   2.99564E+06,   3.07709E+06,   3.07709E+06
C:/temp/Job-6.odb,Step-1,Increment      1: Step Time =    1.000,"P-6-1",           901,       143.237,       47.3742,            0.,NA,NA,"",   2.33305E+06,   2.27759E+06,   2.27759E+06
C:/temp/Job-6.odb,Step-1,Increment      1: Step Time =    1.000,"P-6-1",           902,       165.497,       118.644,            0.,NA,NA,"",   1.29353E+06,  -445.844E+03,  -445.844E+03
C:/temp/Job-6.odb,Step-1,Increment      1: Step Time =    1.000,"P-6-1",           903,       30.0107,       98.8334,            0.,NA,NA,"",   301.749E+03,  -343.427E+03,  -343.427E+03
C:/temp/Job-6.odb,Step-1,Increment      1: Step Time =    1.000,"P-6-1",           904,       119.737,       165.790,            0.,NA,NA,"",   2.70688E+06,   2.88556E+06,   2.88556E+06
C:/temp/Job-6.odb,Step-1,Increment      1: Step Time =    1.000,"P-6-1",           905,       129.707,       35.5245,            0.,NA,NA,"",   2.41592E+06,   2.52808E+06,   2.52808E+06
C:/temp/Job-6.odb,Step-1,Increment      1: Step Time =    1.000,"P-6-1",           906,       36.7370,       128.467,            0.,NA,NA,"",   338.785E+03,  -321.450E+03,  -321.450E+03
C:/temp/Job-6.odb,Step-1,Increment      1: Step Time =    1.000,"P-6-1",           907,       119.677,       36.0958,            0.,NA,NA,"",   2.93089E+06,   3.11631E+06,   3.11631E+06
C:/temp/Job-6.odb,Step-1,Increment      1: Step Time =    1.000,"P-6-1",           908,       171.793,       78.7395,            0.,NA,NA,"",   1.37968E+06,   1.06172E+06,   1.06172E+06
C:/temp/Job-6.odb,Step-1,Increment      1: Step Time =    1.000,"P-6-1",           909,       27.1668,       97.1744,            0.,NA,NA,"",   243.828E+03,  -270.012E+03,  -270.012E+03
C:/temp/Job-6.odb,Step-1,Increment      1: Step Time =    1.000,"P-6-1",           910,       89.0194,       25.1335,            0.,NA,NA,"",   2.34760E+06,   2.36528E+06,   2.36528E+06
C:/temp/Job-6.odb,Step-1,Increment      1: Step Time =    1.000,"P-6-1",           911,       22.4778,       108.494,            0.,NA,NA,"",   189.865E+03,  -215.188E+03,  -215.188E+03
C:/temp/Job-6.odb,Step-1,Increment      1: Step Time =    1.000,"P-6-1",           912,       173.977,       91.2209,            0.,NA,NA,"",   699.025E+03,   582.391E+03,   582.391E+03
C:/temp/Job-6.odb,Step-1,Increment      1: Step Time =    1.000,"P-6-1",           913,       108.372,       176.407,            0.,NA,NA,"",   1.95375E+06,   2.09346E+06,   2.09346E+06
C:/temp/Job-6.odb,Step-1,Increment      1: Step Time =    1.000,"P-6-1",           914,       29.0468,       67.3603,            0.,NA,NA,"",   288.849E+03,   97.3789E+03,   97.3789E+03
C:/temp/Job-6.odb,Step-1,Increment      1: Step Time =    1.000,"P-6-1",           915,       79.7421,       23.9960,            0.,NA,NA,"",   2.33291E+06,   2.24560E+06,   2.24560E+06
C:/temp/Job-6.odb,Step-1,Increment      1: Step Time =    1.000,"P-6-1",           916,       80.4419,       177.992,            0.,NA,NA,"",   2.25628E+06,   2.17703E+06,   2.17703E+06
C:/temp/Job-6.odb,Step-1,Increment      1: Step Time =    1.000,"P-6-1",           917,       175.724,       120.896,            0.,NA,NA,"",   1.33515E+06,   1.17065E+06,   1.17065E+06
C:/temp/Job-6.odb,Step-1,Increment      1: Step Time =    1.000,"P-6-1",           918,       122.536,       176.779,            0.,NA,NA,"",   1.73790E+06,   1.84469E+06,   1.84469E+06
C:/temp/Job-6.odb,Step-1,Increment      1: Step Time =    1.000,"P-6-1",           919,       179.512,       100.310,            0.,NA,NA,"",   616.823E+03,   704.836E+03,   704.836E+03
C:/temp/Job-6.odb,Step-1,Increment      1: Step Time =    1.000,"P-6-1",           920,       24.4113,       98.6368,            0.,NA,NA,"",   217.877E+03,  -240.030E+03,  -240.030E+03
C:/temp/Job-6.odb,Step-1,Increment      1: Step Time =    1.000,"P-6-1",           921,       100.639,       24.5827,            0.,NA,NA,"",   2.17183E+06,   2.27658E+06,   2.27658E+06
C:/temp/Job-6.odb,Step-1,Increment      1: Step Time =    1.000,"P-6-1",           922,       24.1796,       142.504,            0.,NA,NA,"",   578.321E+03,   556.661E+03,   556.661E+03
C:/temp/Job-6.odb,Step-1,Increment      1: Step Time =    1.000,"P-6-1",           923,       140.550,       23.0609,            0.,NA,NA,"",   1.62011E+06,   1.60278E+06,   1.60278E+06
C:/temp/Job-6.odb,Step-1,Increment      1: Step Time =    1.000,"P-6-1",           924,       20.8366,       58.7211,            0.,NA,NA,"",   526.221E+03,   528.295E+03,   528.295E+03
C:/temp/Job-6.odb,Step-1,Increment      1: Step Time =    1.000,"P-6-1",           925,       59.9858,       21.2657,            0.,NA,NA,"",   2.24451E+06,   2.09876E+06,   2.09876E+06
C:/temp/Job-6.odb,Step-1,Increment      1: Step Time =    1.000,"P-6-1",           926,       176.621,       141.451,            0.,NA,NA,"",   1.68768E+06,   1.55093E+06,   1.55093E+06
C:/temp/Job-6.odb,Step-1,Increment      1: Step Time =    1.000,"P-6-1",           927,       141.401,       174.869,            0.,NA,NA,"",   1.70164E+06,   1.68136E+06,   1.68136E+06
C:/temp/Job-6.odb,Step-1,Increment      1: Step Time =    1.000,"P-6-1",           928,       59.5101,       176.943,            0.,NA,NA,"",   2.25883E+06,   2.09753E+06,   2.09753E+06
C:/temp/Job-6.odb,Step-1,Increment      1: Step Time =    1.000,"P-6-1",           929,       175.195,       58.8979,            0.,NA,NA,"",   1.72972E+06,   1.56465E+06,   1.56465E+06
C:/temp/Job-6.odb,Step-1,Increment      1: Step Time =    1.000,"P-6-1",           930,       26.5200,       116.864,            0.,NA,NA,"",   181.955E+03,  -208.658E+03,  -208.658E+03
C:/temp/Job-6.odb,Step-1,Increment      1: Step Time =    1.000,"P-6-1",           931,       72.5275,       21.5897,            0.,NA,NA,"",   2.27937E+06,   2.14825E+06,   2.14825E+06
C:/temp/Job-6.odb,Step-1,Increment      1: Step Time =    1.000,"P-6-1",           932,       129.412,       175.986,            0.,NA,NA,"",   1.73562E+06,   1.80458E+06,   1.80458E+06
C:/temp/Job-6.odb,Step-1,Increment      1: Step Time =    1.000,"P-6-1",           933,       26.3261,       134.725,            0.,NA,NA,"",   324.875E+03,   271.593E+03,   271.593E+03
C:/temp/Job-6.odb,Step-1,Increment      1: Step Time =    1.000,"P-6-1",           934,       177.035,       69.3076,            0.,NA,NA,"",   1.62145E+06,   1.46578E+06,   1.46578E+06
C:/temp/Job-6.odb,Step-1,Increment      1: Step Time =    1.000,"P-6-1",           935,       95.4867,       176.206,            0.,NA,NA,"",   2.16781E+06,   2.23706E+06,   2.23706E+06
C:/temp/Job-6.odb,Step-1,Increment      1: Step Time =    1.000,"P-6-1",           936,       174.246,       109.751,            0.,NA,NA,"",   777.644E+03,   653.584E+03,   653.584E+03
C:/temp/Job-6.odb,Step-1,Increment      1: Step Time =    1.000,"P-6-1",           937,       176.164,       73.3222,            0.,NA,NA,"",   1.54579E+06,   1.36963E+06,   1.36963E+06
C:/temp/Job-6.odb,Step-1,Increment      1: Step Time =    1.000,"P-6-1",           938,       141.793,       153.842,            0.,NA,NA,"",   2.37075E+06,   2.33770E+06,   2.33770E+06
C:/temp/Job-6.odb,Step-1,Increment      1: Step Time =    1.000,"P-6-1",           939,       99.7007,       176.778,            0.,NA,NA,"",   2.06889E+06,   2.16613E+06,   2.16613E+06
C:/temp/Job-6.odb,Step-1,Increment      1: Step Time =    1.000,"P-6-1",           940,       174.048,       95.5815,            0.,NA,NA,"",   493.631E+03,   326.658E+03,   326.658E+03
C:/temp/Job-6.odb,Step-1,Increment      1: Step Time =    1.000,"P-6-1",           941,       132.458,       38.4438,            0.,NA,NA,"",   2.50099E+06,   2.59162E+06,   2.59162E+06
C:/temp/Job-6.odb,Step-1,Increment      1: Step Time =    1.000,"P-6-1",           942,       171.842,       83.5422,            0.,NA,NA,"",   1.14895E+06,   851.561E+03,   851.561E+03
C:/temp/Job-6.odb,Step-1,Increment      1: Step Time =    1.000,"P-6-1",           943,       122.384,       163.492,            0.,NA,NA,"",   2.82396E+06,   2.99371E+06,   2.99371E+06
C:/temp/Job-6.odb,Step-1,Increment      1: Step Time =    1.000,"P-6-1",           944,       87.5355,       31.8021,            0.,NA,NA,"",   2.70292E+06,   2.75122E+06,   2.75122E+06
C:/temp/Job-6.odb,Step-1,Increment      1: Step Time =    1.000,"P-6-1",           945,       121.566,       169.717,            0.,NA,NA,"",   2.29243E+06,   2.44839E+06,   2.44839E+06
C:/temp/Job-6.odb,Step-1,Increment      1: Step Time =    1.000,"P-6-1",           946,       59.6936,       164.849,            0.,NA,NA,"",   2.13451E+06,   1.91521E+06,   1.91521E+06
C:/temp/Job-6.odb,Step-1,Increment      1: Step Time =    1.000,"P-6-1",           947,       55.4557,       185.103,            0.,NA,NA,"",   2.20894E+06,   2.12358E+06,   2.12358E+06
C:/temp/Job-6.odb,Step-1,Increment      1: Step Time =    1.000,"P-6-1",           948,       183.936,       53.8576,            0.,NA,NA,"",   1.38955E+06,   1.41208E+06,   1.41208E+06
C:/temp/Job-6.odb,Step-1,Increment      1: Step Time =    1.000,"P-6-1",           949,       16.0285,       146.829,            0.,NA,NA,"",   685.927E+03,   721.343E+03,   721.343E+03
C:/temp/Job-6.odb,Step-1,Increment      1: Step Time =    1.000,"P-6-1",           950,       144.070,       13.4667,            0.,NA,NA,"",   1.14989E+06,   1.12478E+06,   1.12478E+06
C:/temp/Job-6.odb,Step-1,Increment      1: Step Time =    1.000,"P-6-1",           951,       12.2946,       52.8358,            0.,NA,NA,"",   679.095E+03,   733.003E+03,   733.003E+03
C:/temp/Job-6.odb,Step-1,Increment      1: Step Time =    1.000,"P-6-1",           952,       52.0137,       13.1044,            0.,NA,NA,"",   2.22353E+06,   2.16110E+06,   2.16110E+06
C:/temp/Job-6.odb,Step-1,Increment      1: Step Time =    1.000,"P-6-1",           953,       146.087,       183.919,            0.,NA,NA,"",   1.27172E+06,   1.23597E+06,   1.23597E+06
C:/temp/Job-6.odb,Step-1,Increment      1: Step Time =    1.000,"P-6-1",           954,       186.960,       143.715,            0.,NA,NA,"",   1.29599E+06,   1.37771E+06,   1.37771E+06
C:/temp/Job-6.odb,Step-1,Increment      1: Step Time =    1.000,"P-6-1",           955,       49.3185,       147.758,            0.,NA,NA,"",   1.11966E+06,   868.567E+03,   868.567E+03
C:/temp/Job-6.odb,Step-1,Increment      1: Step Time =    1.000,"P-6-1",           956,       174.425,       105.176,            0.,NA,NA,"",   535.656E+03,   473.397E+03,   473.397E+03
C:/temp/Job-6.odb,Step-1,Increment      1: Step Time =    1.000,"P-6-1",           957,       34.3737,       56.1864,            0.,NA,NA,"",   752.524E+03,   631.123E+03,   631.123E+03
C:/temp/Job-6.odb,Step-1,Increment      1: Step Time =    1.000,"P-6-1",           958,       135.414,       35.0157,            0.,NA,NA,"",   2.23984E+06,   2.29156E+06,   2.29156E+06
C:/temp/Job-6.odb,Step-1,Increment      1: Step Time =    1.000,"P-6-1",           959,       149.926,       46.7581,            0.,NA,NA,"",   2.20466E+06,   2.04344E+06,   2.04344E+06
C:/temp/Job-6.odb,Step-1,Increment      1: Step Time =    1.000,"P-6-1",           960,       86.2545,       172.062,            0.,NA,NA,"",   2.49801E+06,   2.50082E+06,   2.50082E+06
C:/temp/Job-6.odb,Step-1,Increment      1: Step Time =    1.000,"P-6-1",           961,       36.0614,       90.0468,            0.,NA,NA,"",   502.763E+03,  -550.808E+03,  -550.808E+03
C:/temp/Job-6.odb,Step-1,Increment      1: Step Time =    1.000,"P-6-1",           962,       39.8930,       140.222,            0.,NA,NA,"",   634.559E+03,   259.657E+03,   259.657E+03
C:/temp/Job-6.odb,Step-1,Increment      1: Step Time =    1.000,"P-6-1",           963,       49.4320,       47.0614,            0.,NA,NA,"",   1.42999E+06,   1.19376E+06,   1.19376E+06
C:/temp/Job-6.odb,Step-1,Increment      1: Step Time =    1.000,"P-6-1",           964,       70.7946,       32.0536,            0.,NA,NA,"",   2.40843E+06,   2.25556E+06,   2.25556E+06
C:/temp/Job-6.odb,Step-1,Increment      1: Step Time =    1.000,"P-6-1",           965,       124.110,       34.6917,            0.,NA,NA,"",   2.60641E+06,   2.76320E+06,   2.76320E+06
C:/temp/Job-6.odb,Step-1,Increment      1: Step Time =    1.000,"P-6-1",           966,       40.2387,       122.888,            0.,NA,NA,"",   537.891E+03,  -565.706E+03,  -565.706E+03
C:/temp/Job-6.odb,Step-1,Increment      1: Step Time =    1.000,"P-6-1",           967,       33.6906,       133.917,            0.,NA,NA,"",   367.984E+03,  -1.36556E+03,  -1.36556E+03
C:/temp/Job-6.odb,Step-1,Increment      1: Step Time =    1.000,"P-6-1",           968,       166.790,       122.818,            0.,NA,NA,"",   1.46641E+06,   544.873E+03,   544.873E+03
C:/temp/Job-6.odb,Step-1,Increment      1: Step Time =    1.000,"P-6-1",           969,       120.705,       180.533,            0.,NA,NA,"",   1.47377E+06,   1.56356E+06,   1.56356E+06
C:/temp/Job-6.odb,Step-1,Increment      1: Step Time =    1.000,"P-6-1",           970,       76.5681,       17.7565,            0.,NA,NA,"",   2.14026E+06,   2.03818E+06,   2.03818E+06
C:/temp/Job-6.odb,Step-1,Increment      1: Step Time =    1.000,"P-6-1",           971,       180.399,       77.7647,            0.,NA,NA,"",   1.37332E+06,   1.37015E+06,   1.37015E+06
C:/temp/Job-6.odb,Step-1,Increment      1: Step Time =    1.000,"P-6-1",           972,       19.5457,       118.741,            0.,NA,NA,"",   94.7764E+03,  -105.847E+03,  -105.847E+03
C:/temp/Job-6.odb,Step-1,Increment      1: Step Time =    1.000,"P-6-1",           973,       49.6945,       153.777,            0.,NA,NA,"",   1.48790E+06,   1.25068E+06,   1.25068E+06
C:/temp/Job-6.odb,Step-1,Increment      1: Step Time =    1.000,"P-6-1",           974,       155.816,       133.553,            0.,NA,NA,"",   1.62815E+06,   1.19638E+06,   1.19638E+06
C:/temp/Job-6.odb,Step-1,Increment      1: Step Time =    1.000,"P-6-1",           975,       59.2301,       32.8757,            0.,NA,NA,"",   2.19207E+06,   1.97756E+06,   1.97756E+06
C:/temp/Job-6.odb,Step-1,Increment      1: Step Time =    1.000,"P-6-1",           976,       78.9831,       28.6040,            0.,NA,NA,"",   2.47776E+06,   2.40054E+06,   2.40054E+06
C:/temp/Job-6.odb,Step-1,Increment      1: Step Time =    1.000,"P-6-1",           977,       173.519,       113.699,            0.,NA,NA,"",   994.708E+03,   806.380E+03,   806.380E+03
C:/temp/Job-6.odb,Step-1,Increment      1: Step Time =    1.000,"P-6-1",           978,       85.0640,       28.5736,            0.,NA,NA,"",   2.51255E+06,   2.50856E+06,   2.50856E+06
C:/temp/Job-6.odb,Step-1,Increment      1: Step Time =    1.000,"P-6-1",           979,       173.945,       117.025,            0.,NA,NA,"",   1.16429E+06,   961.670E+03,   961.670E+03
C:/temp/Job-6.odb,Step-1,Increment      1: Step Time =    1.000,"P-6-1",           980,       35.0984,       123.990,            0.,NA,NA,"",    327.29E+03,  -347.273E+03,  -347.273E+03
C:/temp/Job-6.odb,Step-1,Increment      1: Step Time =    1.000,"P-6-1",           981,       23.6770,       70.1461,            0.,NA,NA,"",   166.098E+03,   55.3968E+03,   55.3968E+03
C:/temp/Job-6.odb,Step-1,Increment      1: Step Time =    1.000,"P-6-1",           982,       28.7906,       125.202,            0.,NA,NA,"",   180.581E+03,  -177.023E+03,  -177.023E+03
C:/temp/Job-6.odb,Step-1,Increment      1: Step Time =    1.000,"P-6-1",           983,       7.97475,       56.1663,            0.,NA,NA,"",   559.071E+03,   613.146E+03,   613.146E+03
C:/temp/Job-6.odb,Step-1,Increment      1: Step Time =    1.000,"P-6-1",           984,       55.2862,       190.196,            0.,NA,NA,"",   2.20152E+06,   2.15560E+06,   2.15560E+06
C:/temp/Job-6.odb,Step-1,Increment      1: Step Time =    1.000,"P-6-1",           985,       144.330,       9.00037,            0.,NA,NA,"",   922.445E+03,   904.403E+03,   904.403E+03
C:/temp/Job-6.odb,Step-1,Increment      1: Step Time =    1.000,"P-6-1",           986,       191.130,       143.989,            0.,NA,NA,"",   1.13665E+06,   1.27349E+06,   1.27349E+06
C:/temp/Job-6.odb,Step-1,Increment      1: Step Time =    1.000,"P-6-1",           987,       26.9521,       101.688,            0.,NA,NA,"",   250.133E+03,  -279.445E+03,  -279.445E+03
C:/temp/Job-6.odb,Step-1,Increment      1: Step Time =    1.000,"P-6-1",           988,       95.9918,       26.2085,            0.,NA,NA,"",   2.37363E+06,   2.46122E+06,   2.46122E+06
C:/temp/Job-6.odb,Step-1,Increment      1: Step Time =    1.000,"P-6-1",           989,       103.872,       173.013,            0.,NA,NA,"",   2.32183E+06,   2.47123E+06,   2.47123E+06
C:/temp/Job-6.odb,Step-1,Increment      1: Step Time =    1.000,"P-6-1",           990,       25.1329,       75.1289,            0.,NA,NA,"",   116.307E+03,  -104.089E+03,  -104.089E+03
C:/temp/Job-6.odb,Step-1,Increment      1: Step Time =    1.000,"P-6-1",           991,       82.4340,       25.8788,            0.,NA,NA,"",   2.40473E+06,   2.35263E+06,   2.35263E+06
C:/temp/Job-6.odb,Step-1,Increment      1: Step Time =    1.000,"P-6-1",           992,       25.3447,       84.6995,            0.,NA,NA,"",   171.384E+03,  -196.071E+03,  -196.071E+03
C:/temp/Job-6.odb,Step-1,Increment      1: Step Time =    1.000,"P-6-1",           993,       115.393,       25.8246,            0.,NA,NA,"",   2.00363E+06,   2.15305E+06,   2.15305E+06
C:/temp/Job-6.odb,Step-1,Increment      1: Step Time =    1.000,"P-6-1",           994,       118.703,       174.293,            0.,NA,NA,"",   1.97472E+06,   2.11610E+06,   2.11610E+06
C:/temp/Job-6.odb,Step-1,Increment      1: Step Time =    1.000,"P-6-1",           995,       100.007,       172.679,            0.,NA,NA,"",   2.39250E+06,   2.52372E+06,   2.52372E+06
C:/temp/Job-6.odb,Step-1,Increment      1: Step Time =    1.000,"P-6-1",           996,       25.5447,       138.317,            0.,NA,NA,"",   430.249E+03,   393.212E+03,   393.212E+03
C:/temp/Job-6.odb,Step-1,Increment      1: Step Time =    1.000,"P-6-1",           997,       135.682,       24.4948,            0.,NA,NA,"",   1.72990E+06,   1.75188E+06,   1.75188E+06
C:/temp/Job-6.odb,Step-1,Increment      1: Step Time =    1.000,"P-6-1",           998,       24.7764,       62.8062,            0.,NA,NA,"",   394.711E+03,   362.016E+03,   362.016E+03
C:/temp/Job-6.odb,Step-1,Increment      1: Step Time =    1.000,"P-6-1",           999,       63.1548,       25.7693,            0.,NA,NA,"",   2.29660E+06,   2.11949E+06,   2.11949E+06
C:/temp/Job-6.odb,Step-1,Increment      1: Step Time =    1.000,"P-6-1",          1000,       172.403,       135.543,            0.,NA,NA,"",   1.78654E+06,   1.52389E+06,   1.52389E+06
C:/temp/Job-6.odb,Step-1,Increment      1: Step Time =    1.000,"P-6-1",          1001,       136.290,       173.721,            0.,NA,NA,"",   1.81847E+06,   1.84114E+06,   1.84114E+06
C:/temp/Job-6.odb,Step-1,Increment      1: Step Time =    1.000,"P-6-1",          1002,       62.1480,       171.729,            0.,NA,NA,"",   2.28982E+06,   2.09792E+06,   2.09792E+06
C:/temp/Job-6.odb,Step-1,Increment      1: Step Time =    1.000,"P-6-1",          1003,       173.873,       63.5839,            0.,NA,NA,"",   1.76670E+06,   1.53782E+06,   1.53782E+06
C:/temp/Job-6.odb,Step-1,Increment      1: Step Time =    1.000,"P-6-1",          1004,       56.3321,       166.892,            0.,NA,NA,"",   2.12437E+06,   1.91057E+06,   1.91057E+06
C:/temp/Job-6.odb,Step-1,Increment      1: Step Time =    1.000,"P-6-1",          1005,       141.916,       32.7794,            0.,NA,NA,"",   2.02657E+06,   2.00262E+06,   2.00262E+06
C:/temp/Job-6.odb,Step-1,Increment      1: Step Time =    1.000,"P-6-1",          1006,       153.743,       49.7132,            0.,NA,NA,"",   2.15286E+06,   1.92863E+06,   1.92863E+06
C:/temp/Job-6.odb,Step-1,Increment      1: Step Time =    1.000,"P-6-1",          1007,       31.2281,       89.7118,            0.,NA,NA,"",   324.234E+03,  -368.583E+03,  -368.583E+03
C:/temp/Job-6.odb,Step-1,Increment      1: Step Time =    1.000,"P-6-1",          1008,       56.7114,       47.5074,            0.,NA,NA,"",   1.49084E+06,   1.25101E+06,   1.25101E+06
C:/temp/Job-6.odb,Step-1,Increment      1: Step Time =    1.000,"P-6-1",          1009,       110.046,       171.577,            0.,NA,NA,"",   2.38139E+06,   2.55770E+06,   2.55770E+06
C:/temp/Job-6.odb,Step-1,Increment      1: Step Time =    1.000,"P-6-1",          1010,       150.984,       132.076,            0.,NA,NA,"",   1.10065E+06,   660.571E+03,   660.571E+03
C:/temp/Job-6.odb,Step-1,Increment      1: Step Time =    1.000,"P-6-1",          1011,       54.8386,       36.6421,            0.,NA,NA,"",   2.00530E+06,   1.78073E+06,   1.78073E+06
C:/temp/Job-6.odb,Step-1,Increment      1: Step Time =    1.000,"P-6-1",          1012,       163.226,       127.551,            0.,NA,NA,"",   1.61627E+06,   637.327E+03,   637.327E+03
C:/temp/Job-6.odb,Step-1,Increment      1: Step Time =    1.000,"P-6-1",          1013,       171.295,       122.030,            0.,NA,NA,"",   1.41710E+06,   1.06722E+06,   1.06722E+06
C:/temp/Job-6.odb,Step-1,Increment      1: Step Time =    1.000,"P-6-1",          1014,       61.2038,       28.8834,            0.,NA,NA,"",   2.27198E+06,   2.07513E+06,   2.07513E+06
C:/temp/Job-6.odb,Step-1,Increment      1: Step Time =    1.000,"P-6-1",          1015,       74.0209,       25.7152,            0.,NA,NA,"",   2.37925E+06,   2.25090E+06,   2.25090E+06
C:/temp/Job-6.odb,Step-1,Increment      1: Step Time =    1.000,"P-6-1",          1016,       25.4119,       129.324,            0.,NA,NA,"",   173.989E+03,   28.4507E+03,   28.4507E+03
C:/temp/Job-6.odb,Step-1,Increment      1: Step Time =    1.000,"P-6-1",          1017,       77.6735,       26.2394,            0.,NA,NA,"",   2.41905E+06,   2.31756E+06,   2.31756E+06
C:/temp/Job-6.odb,Step-1,Increment      1: Step Time =    1.000,"P-6-1",          1018,       125.490,       172.994,            0.,NA,NA,"",   1.97040E+06,   2.08279E+06,   2.08279E+06
C:/temp/Job-6.odb,Step-1,Increment      1: Step Time =    1.000,"P-6-1",          1019,       148.015,       154.064,            0.,NA,NA,"",   2.24221E+06,   2.11019E+06,   2.11019E+06
C:/temp/Job-6.odb,Step-1,Increment      1: Step Time =    1.000,"P-6-1",          1020,       106.118,       27.4173,            0.,NA,NA,"",   2.34397E+06,   2.50968E+06,   2.50968E+06
C:/temp/Job-6.odb,Step-1,Increment      1: Step Time =    1.000,"P-6-1",          1021,       121.019,       25.8336,            0.,NA,NA,"",   1.93522E+06,   2.07053E+06,   2.07053E+06
C:/temp/Job-6.odb,Step-1,Increment      1: Step Time =    1.000,"P-6-1",          1022,       49.9719,       159.158,            0.,NA,NA,"",   1.76289E+06,   1.53671E+06,   1.53671E+06
C:/temp/Job-6.odb,Step-1,Increment      1: Step Time =    1.000,"P-6-1",          1023,       27.6938,       58.5231,            0.,NA,NA,"",   577.777E+03,   525.433E+03,   525.433E+03
C:/temp/Job-6.odb,Step-1,Increment      1: Step Time =    1.000,"P-6-1",          1024,       28.3817,       132.032,            0.,NA,NA,"",   262.219E+03,   114.035E+03,   114.035E+03
C:/temp/Job-6.odb,Step-1,Increment      1: Step Time =    1.000,"P-6-1",          1025,       63.3792,       162.754,            0.,NA,NA,"",   2.14791E+06,   1.94123E+06,   1.94123E+06
C:/temp/Job-6.odb,Step-1,Increment      1: Step Time =    1.000,"P-6-1",          1026,       69.9558,       168.996,            0.,NA,NA,"",   2.40399E+06,   2.24353E+06,   2.24353E+06
C:/temp/Job-6.odb,Step-1,Increment      1: Step Time =    1.000,"P-6-1",          1027,       35.0558,       142.085,            0.,NA,NA,"",   668.958E+03,   535.934E+03,   535.934E+03
C:/temp/Job-6.odb,Step-1,Increment      1: Step Time =    1.000,"P-6-1",          1028,       131.648,       23.2469,            0.,NA,NA,"",   1.68764E+06,   1.73772E+06,   1.73772E+06
C:/temp/Job-6.odb,Step-1,Increment      1: Step Time =    1.000,"P-6-1",          1029,       66.7618,       173.949,            0.,NA,NA,"",   2.34284E+06,   2.17447E+06,   2.17447E+06
C:/temp/Job-6.odb,Step-1,Increment      1: Step Time =    1.000,"P-6-1",          1030,       26.3477,       89.9188,            0.,NA,NA,"",   218.182E+03,  -248.033E+03,  -248.033E+03
C:/temp/Job-6.odb,Step-1,Increment      1: Step Time =    1.000,"P-6-1",          1031,       132.315,       29.3419,            0.,NA,NA,"",   2.03756E+06,   2.10774E+06,   2.10774E+06
C:/temp/Job-6.odb,Step-1,Increment      1: Step Time =    1.000,"P-6-1",          1032,       20.2734,       76.7771,            0.,NA,NA,"",   71.8098E+03,  -43.6936E+03,  -43.6936E+03
C:/temp/Job-6.odb,Step-1,Increment      1: Step Time =    1.000,"P-6-1",          1033,       164.103,       131.079,            0.,NA,NA,"",   1.77286E+06,   1.28946E+06,   1.28946E+06
C:/temp/Job-6.odb,Step-1,Increment      1: Step Time =    1.000,"P-6-1",          1034,       25.9806,       79.8773,            0.,NA,NA,"",   136.391E+03,  -154.527E+03,  -154.527E+03
C:/temp/Job-6.odb,Step-1,Increment      1: Step Time =    1.000,"P-6-1",          1035,       28.7634,       142.537,            0.,NA,NA,"",   615.920E+03,   554.581E+03,   554.581E+03
C:/temp/Job-6.odb,Step-1,Increment      1: Step Time =    1.000,"P-6-1",          1036,       141.781,       27.4155,            0.,NA,NA,"",   1.82606E+06,   1.80589E+06,   1.80589E+06
C:/temp/Job-6.odb,Step-1,Increment      1: Step Time =    1.000,"P-6-1",          1037,       141.733,       169.485,            0.,NA,NA,"",   1.95240E+06,   1.93004E+06,   1.93004E+06
C:/temp/Job-6.odb,Step-1,Increment      1: Step Time =    1.000,"P-6-1",          1038,       170.686,       140.581,            0.,NA,NA,"",   1.86013E+06,   1.59340E+06,   1.59340E+06
C:/temp/Job-6.odb,Step-1,Increment      1: Step Time =    1.000,"P-6-1",          1039,       169.883,       58.4992,            0.,NA,NA,"",   1.88340E+06,   1.61044E+06,   1.61044E+06
C:/temp/Job-6.odb,Step-1,Increment      1: Step Time =    1.000,"P-6-1",          1040,       57.4541,       169.609,            0.,NA,NA,"",   2.19446E+06,   1.99361E+06,   1.99361E+06
C:/temp/Job-6.odb,Step-1,Increment      1: Step Time =    1.000,"P-6-1",          1041,       153.740,       9.46543,            0.,NA,NA,"",   1.00054E+06,   979.499E+03,   979.499E+03
C:/temp/Job-6.odb,Step-1,Increment      1: Step Time =    1.000,"P-6-1",          1042,       190.133,       153.161,            0.,NA,NA,"",   1.09609E+06,   1.18602E+06,   1.18602E+06
C:/temp/Job-6.odb,Step-1,Increment      1: Step Time =    1.000,"P-6-1",          1043,       45.7065,       190.199,            0.,NA,NA,"",   2.32065E+06,   2.28855E+06,   2.28855E+06
C:/temp/Job-6.odb,Step-1,Increment      1: Step Time =    1.000,"P-6-1",          1044,       8.98096,       47.2505,            0.,NA,NA,"",   845.607E+03,   922.753E+03,   922.753E+03
C:/temp/Job-6.odb,Step-1,Increment      1: Step Time =    1.000,"P-6-1",          1045,       156.127,       45.6459,            0.,NA,NA,"",   2.09200E+06,   1.88788E+06,   1.88788E+06
C:/temp/Job-6.odb,Step-1,Increment      1: Step Time =    1.000,"P-6-1",          1046,       132.538,       33.3405,            0.,NA,NA,"",   2.22902E+06,   2.31026E+06,   2.31026E+06
C:/temp/Job-6.odb,Step-1,Increment      1: Step Time =    1.000,"P-6-1",          1047,       132.026,       171.828,            0.,NA,NA,"",   1.95680E+06,   2.02334E+06,   2.02334E+06
C:/temp/Job-6.odb,Step-1,Increment      1: Step Time =    1.000,"P-6-1",          1048,       150.836,       157.891,            0.,NA,NA,"",   2.14413E+06,   2.00209E+06,   2.00209E+06
C:/temp/Job-6.odb,Step-1,Increment      1: Step Time =    1.000,"P-6-1",          1049,       102.139,       29.0462,            0.,NA,NA,"",   2.54675E+06,   2.69354E+06,   2.69354E+06
C:/temp/Job-6.odb,Step-1,Increment      1: Step Time =    1.000,"P-6-1",          1050,       109.514,       26.1944,            0.,NA,NA,"",   2.17388E+06,   2.34242E+06,   2.34242E+06
C:/temp/Job-6.odb,Step-1,Increment      1: Step Time =    1.000,"P-6-1",          1051,       128.643,       25.6855,            0.,NA,NA,"",   1.84806E+06,   1.93446E+06,   1.93446E+06
C:/temp/Job-6.odb,Step-1,Increment      1: Step Time =    1.000,"P-6-1",          1052,       43.0180,       155.182,            0.,NA,NA,"",   1.43440E+06,   1.24959E+06,   1.24959E+06
C:/temp/Job-6.odb,Step-1,Increment      1: Step Time =    1.000,"P-6-1",          1053,       49.8082,       163.917,            0.,NA,NA,"",   1.90853E+06,   1.69786E+06,   1.69786E+06
C:/temp/Job-6.odb,Step-1,Increment      1: Step Time =    1.000,"P-6-1",          1054,       50.5463,       39.9360,            0.,NA,NA,"",   1.80073E+06,   1.57840E+06,   1.57840E+06
C:/temp/Job-6.odb,Step-1,Increment      1: Step Time =    1.000,"P-6-1",          1055,       23.2212,       95.0409,            0.,NA,NA,"",   202.424E+03,  -226.644E+03,  -226.644E+03
C:/temp/Job-6.odb,Step-1,Increment      1: Step Time =    1.000,"P-6-1",          1056,       111.420,       28.6409,            0.,NA,NA,"",   2.35412E+06,   2.53210E+06,   2.53210E+06
C:/temp/Job-6.odb,Step-1,Increment      1: Step Time =    1.000,"P-6-1",          1057,       91.7196,       28.8845,            0.,NA,NA,"",   2.57549E+06,   2.64338E+06,   2.64338E+06
C:/temp/Job-6.odb,Step-1,Increment      1: Step Time =    1.000,"P-6-1",          1058,       24.2726,       52.8192,            0.,NA,NA,"",   769.364E+03,   751.436E+03,   751.436E+03
C:/temp/Job-6.odb,Step-1,Increment      1: Step Time =    1.000,"P-6-1",          1059,       152.461,       14.0372,            0.,NA,NA,"",   1.18076E+06,   1.14586E+06,   1.14586E+06
C:/temp/Job-6.odb,Step-1,Increment      1: Step Time =    1.000,"P-6-1",          1060,       14.4649,       46.6756,            0.,NA,NA,"",   915.996E+03,   971.075E+03,   971.075E+03
C:/temp/Job-6.odb,Step-1,Increment      1: Step Time =    1.000,"P-6-1",          1061,       185.800,       151.225,            0.,NA,NA,"",   1.26525E+06,   1.31156E+06,   1.31156E+06
C:/temp/Job-6.odb,Step-1,Increment      1: Step Time =    1.000,"P-6-1",          1062,       46.0399,       185.242,            0.,NA,NA,"",   2.24636E+06,   2.18329E+06,   2.18329E+06
C:/temp/Job-6.odb,Step-1,Increment      1: Step Time =    1.000,"P-6-1",          1063,       43.0302,       45.8688,            0.,NA,NA,"",   1.38509E+06,   1.19909E+06,   1.19909E+06
C:/temp/Job-6.odb,Step-1,Increment      1: Step Time =    1.000,"P-6-1",          1064,       152.819,       42.7103,            0.,NA,NA,"",   2.11290E+06,   1.95081E+06,   1.95081E+06
C:/temp/Job-6.odb,Step-1,Increment      1: Step Time =    1.000,"P-6-1",          1065,       159.502,       47.9446,            0.,NA,NA,"",   2.06015E+06,   1.82540E+06,   1.82540E+06
C:/temp/Job-6.odb,Step-1,Increment      1: Step Time =    1.000,"P-6-1",          1066,       70.6510,       173.016,            0.,NA,NA,"",   2.38241E+06,   2.22965E+06,   2.22965E+06
C:/temp/Job-6.odb,Step-1,Increment      1: Step Time =    1.000,"P-6-1",          1067,       121.279,       19.5830,            0.,NA,NA,"",   1.48164E+06,   1.56928E+06,   1.56928E+06
C:/temp/Job-6.odb,Step-1,Increment      1: Step Time =    1.000,"P-6-1",          1068,       168.363,       130.873,            0.,NA,NA,"",   1.75923E+06,   1.35738E+06,   1.35738E+06
C:/temp/Job-6.odb,Step-1,Increment      1: Step Time =    1.000,"P-6-1",          1069,       25.6216,       146.472,            0.,NA,NA,"",   760.862E+03,   733.333E+03,   733.333E+03
C:/temp/Job-6.odb,Step-1,Increment      1: Step Time =    1.000,"P-6-1",          1070,       174.649,       145.172,            0.,NA,NA,"",   1.73857E+06,   1.57499E+06,   1.57499E+06
C:/temp/Job-6.odb,Step-1,Increment      1: Step Time =    1.000,"P-6-1",          1071,       146.586,       173.253,            0.,NA,NA,"",   1.72246E+06,   1.66851E+06,   1.66851E+06
C:/temp/Job-6.odb,Step-1,Increment      1: Step Time =    1.000,"P-6-1",          1072,       173.826,       54.4331,            0.,NA,NA,"",   1.75126E+06,   1.58334E+06,   1.58334E+06
C:/temp/Job-6.odb,Step-1,Increment      1: Step Time =    1.000,"P-6-1",          1073,       54.0296,       174.659,            0.,NA,NA,"",   2.19353E+06,   2.03089E+06,   2.03089E+06
C:/temp/Job-6.odb,Step-1,Increment      1: Step Time =    1.000,"P-6-1",          1074,       154.368,       154.902,            0.,NA,NA,"",   2.11460E+06,   1.92785E+06,   1.92785E+06
C:/temp/Job-6.odb,Step-1,Increment      1: Step Time =    1.000,"P-6-1",          1075,       149.300,       163.538,            0.,NA,NA,"",   2.03920E+06,   1.93791E+06,   1.93791E+06
C:/temp/Job-6.odb,Step-1,Increment      1: Step Time =    1.000,"P-6-1",          1076,       54.6048,       164.243,            0.,NA,NA,"",   2.01986E+06,   1.79709E+06,   1.79709E+06
C:/temp/Job-6.odb,Step-1,Increment      1: Step Time =    1.000,"P-6-1",          1077,       112.889,       31.3432,            0.,NA,NA,"",   2.54785E+06,   2.73443E+06,   2.73443E+06
C:/temp/Job-6.odb,Step-1,Increment      1: Step Time =    1.000,"P-6-1",          1078,       160.028,       134.637,            0.,NA,NA,"",   1.84229E+06,   1.37981E+06,   1.37981E+06
C:/temp/Job-6.odb,Step-1,Increment      1: Step Time =    1.000,"P-6-1",          1079,       27.1229,       46.9357,            0.,NA,NA,"",   1.06839E+06,   1.02948E+06,   1.02948E+06
C:/temp/Job-6.odb,Step-1,Increment      1: Step Time =    1.000,"P-6-1",          1080,       44.4455,       162.126,            0.,NA,NA,"",   1.75802E+06,   1.57537E+06,   1.57537E+06
C:/temp/Job-6.odb,Step-1,Increment      1: Step Time =    1.000,"P-6-1",          1081,       35.2465,       73.6604,            0.,NA,NA,"",   323.107E+03,  -321.356E+03,  -321.356E+03
C:/temp/Job-6.odb,Step-1,Increment      1: Step Time =    1.000,"P-6-1",          1082,       39.0401,       152.557,            0.,NA,NA,"",   1.23750E+06,   1.07999E+06,   1.07999E+06
C:/temp/Job-6.odb,Step-1,Increment      1: Step Time =    1.000,"P-6-1",          1083,       65.9273,       170.244,            0.,NA,NA,"",   2.33746E+06,   2.15314E+06,   2.15314E+06
C:/temp/Job-6.odb,Step-1,Increment      1: Step Time =    1.000,"P-6-1",          1084,       130.910,       165.733,            0.,NA,NA,"",   2.31844E+06,   2.41888E+06,   2.41888E+06
C:/temp/Job-6.odb,Step-1,Increment      1: Step Time =    1.000,"P-6-1",          1085,       55.0434,       29.6326,            0.,NA,NA,"",   2.16358E+06,   1.97088E+06,   1.97088E+06
C:/temp/Job-6.odb,Step-1,Increment      1: Step Time =    1.000,"P-6-1",          1086,       25.5374,       150.477,            0.,NA,NA,"",   930.654E+03,   904.865E+03,   904.865E+03
C:/temp/Job-6.odb,Step-1,Increment      1: Step Time =    1.000,"P-6-1",          1087,       149.679,       22.6240,            0.,NA,NA,"",   1.53522E+06,   1.48064E+06,   1.48064E+06
C:/temp/Job-6.odb,Step-1,Increment      1: Step Time =    1.000,"P-6-1",          1088,       177.880,       47.6042,            0.,NA,NA,"",   1.54881E+06,   1.47327E+06,   1.47327E+06
C:/temp/Job-6.odb,Step-1,Increment      1: Step Time =    1.000,"P-6-1",          1089,       48.6797,       175.860,            0.,NA,NA,"",   2.14519E+06,   2.01033E+06,   2.01033E+06
C:/temp/Job-6.odb,Step-1,Increment      1: Step Time =    1.000,"P-6-1",          1090,       152.350,       178.106,            0.,NA,NA,"",   1.48539E+06,   1.42950E+06,   1.42950E+06
C:/temp/Job-6.odb,Step-1,Increment      1: Step Time =    1.000,"P-6-1",          1091,       177.420,       154.347,            0.,NA,NA,"",   1.52302E+06,   1.45370E+06,   1.45370E+06
C:/temp/Job-6.odb,Step-1,Increment      1: Step Time =    1.000,"P-6-1",          1092,       163.595,       156.262,            0.,NA,NA,"",   1.91297E+06,   1.72659E+06,   1.72659E+06
C:/temp/Job-6.odb,Step-1,Increment      1: Step Time =    1.000,"P-6-1",          1093,       49.3277,       167.729,            0.,NA,NA,"",   2.01837E+06,   1.83047E+06,   1.83047E+06
C:/temp/Job-6.odb,Step-1,Increment      1: Step Time =    1.000,"P-6-1",          1094,       38.2829,       162.637,            0.,NA,NA,"",   1.65252E+06,   1.52548E+06,   1.52548E+06
C:/temp/Job-6.odb,Step-1,Increment      1: Step Time =    1.000,"P-6-1",          1095,       161.809,       53.4542,            0.,NA,NA,"",   2.04450E+06,   1.74933E+06,   1.74933E+06
C:/temp/Job-6.odb,Step-1,Increment      1: Step Time =    1.000,"P-6-1",          1096,       74.9722,       172.757,            0.,NA,NA,"",   2.42248E+06,   2.30009E+06,   2.30009E+06
C:/temp/Job-6.odb,Step-1,Increment      1: Step Time =    1.000,"P-6-1",          1097,       173.007,       130.968,            0.,NA,NA,"",   1.70201E+06,   1.42827E+06,   1.42827E+06
C:/temp/Job-6.odb,Step-1,Increment      1: Step Time =    1.000,"P-6-1",          1098,       153.586,       162.875,            0.,NA,NA,"",   1.97701E+06,   1.84817E+06,   1.84817E+06
C:/temp/Job-6.odb,Step-1,Increment      1: Step Time =    1.000,"P-6-1",          1099,       140.796,       165.461,            0.,NA,NA,"",   2.12899E+06,   2.11624E+06,   2.11624E+06
C:/temp/Job-6.odb,Step-1,Increment      1: Step Time =    1.000,"P-6-1",          1100,       151.552,       149.889,            0.,NA,NA,"",   2.18009E+06,   1.98342E+06,   1.98342E+06
C:/temp/Job-6.odb,Step-1,Increment      1: Step Time =    1.000,"P-6-1",          1101,       164.337,       138.438,            0.,NA,NA,"",   1.94435E+06,   1.56525E+06,   1.56525E+06
C:/temp/Job-6.odb,Step-1,Increment      1: Step Time =    1.000,"P-6-1",          1102,       22.9962,       48.3931,            0.,NA,NA,"",   938.892E+03,   933.697E+03,   933.697E+03
C:/temp/Job-6.odb,Step-1,Increment      1: Step Time =    1.000,"P-6-1",          1103,       33.9790,       48.5021,            0.,NA,NA,"",   1.10065E+06,   993.232E+03,   993.232E+03
C:/temp/Job-6.odb,Step-1,Increment      1: Step Time =    1.000,"P-6-1",          1104,       35.2407,       156.864,            0.,NA,NA,"",   1.36476E+06,   1.25176E+06,   1.25176E+06
C:/temp/Job-6.odb,Step-1,Increment      1: Step Time =    1.000,"P-6-1",          1105,       50.9930,       26.7975,            0.,NA,NA,"",   2.13971E+06,   1.97811E+06,   1.97811E+06
C:/temp/Job-6.odb,Step-1,Increment      1: Step Time =    1.000,"P-6-1",          1106,       138.186,       166.545,            0.,NA,NA,"",   2.11817E+06,   2.13389E+06,   2.13389E+06
C:/temp/Job-6.odb,Step-1,Increment      1: Step Time =    1.000,"P-6-1",          1107,       149.300,       39.6807,            0.,NA,NA,"",   2.12053E+06,   2.00582E+06,   2.00582E+06
C:/temp/Job-6.odb,Step-1,Increment      1: Step Time =    1.000,"P-6-1",          1108,       24.7746,       43.0902,            0.,NA,NA,"",   1.21778E+06,   1.20322E+06,   1.20322E+06
C:/temp/Job-6.odb,Step-1,Increment      1: Step Time =    1.000,"P-6-1",          1109,       19.2050,       49.2786,            0.,NA,NA,"",   856.043E+03,   878.749E+03,   878.749E+03
C:/temp/Job-6.odb,Step-1,Increment      1: Step Time =    1.000,"P-6-1",          1110,       154.999,       19.6217,            0.,NA,NA,"",   1.37204E+06,   1.31881E+06,   1.31881E+06
C:/temp/Job-6.odb,Step-1,Increment      1: Step Time =    1.000,"P-6-1",          1111,       19.1923,       149.907,            0.,NA,NA,"",   831.917E+03,   852.388E+03,   852.388E+03
C:/temp/Job-6.odb,Step-1,Increment      1: Step Time =    1.000,"P-6-1",          1112,       29.6273,       149.683,            0.,NA,NA,"",   955.178E+03,   895.434E+03,   895.434E+03
C:/temp/Job-6.odb,Step-1,Increment      1: Step Time =    1.000,"P-6-1",          1113,       46.3487,       180.445,            0.,NA,NA,"",   2.18548E+06,   2.08912E+06,   2.08912E+06
C:/temp/Job-6.odb,Step-1,Increment      1: Step Time =    1.000,"P-6-1",          1114,       180.179,       45.4631,            0.,NA,NA,"",   1.43749E+06,   1.40153E+06,   1.40153E+06
C:/temp/Job-6.odb,Step-1,Increment      1: Step Time =    1.000,"P-6-1",          1115,       175.292,       49.4655,            0.,NA,NA,"",   1.66386E+06,   1.54049E+06,   1.54049E+06
C:/temp/Job-6.odb,Step-1,Increment      1: Step Time =    1.000,"P-6-1",          1116,       150.980,       173.022,            0.,NA,NA,"",   1.68247E+06,   1.61223E+06,   1.61223E+06
C:/temp/Job-6.odb,Step-1,Increment      1: Step Time =    1.000,"P-6-1",          1117,       154.363,       180.473,            0.,NA,NA,"",   1.38286E+06,   1.33160E+06,   1.33160E+06
C:/temp/Job-6.odb,Step-1,Increment      1: Step Time =    1.000,"P-6-1",          1118,       179.906,       151.452,            0.,NA,NA,"",   1.48306E+06,   1.44004E+06,   1.44004E+06
C:/temp/Job-6.odb,Step-1,Increment      1: Step Time =    1.000,"P-6-1",          1119,       160.056,       160.624,            0.,NA,NA,"",   1.90208E+06,   1.74672E+06,   1.74672E+06
C:/temp/Job-6.odb,Step-1,Increment      1: Step Time =    1.000,"P-6-1",          1120,       166.324,       50.2607,            0.,NA,NA,"",   1.93516E+06,   1.69823E+06,   1.69823E+06
C:/temp/Job-6.odb,Step-1,Increment      1: Step Time =    1.000,"P-6-1",          1121,       160.409,       142.852,            0.,NA,NA,"",   2.02343E+06,   1.68166E+06,   1.68166E+06
C:/temp/Job-6.odb,Step-1,Increment      1: Step Time =    1.000,"P-6-1",          1122,       37.5792,       52.1860,            0.,NA,NA,"",   980.558E+03,   835.896E+03,   835.896E+03
C:/temp/Job-6.odb,Step-1,Increment      1: Step Time =    1.000,"P-6-1",          1123,       32.1041,       152.665,            0.,NA,NA,"",   1.12018E+06,   1.03635E+06,   1.03635E+06
C:/temp/Job-6.odb,Step-1,Increment      1: Step Time =    1.000,"P-6-1",          1124,       47.6678,       36.1682,            0.,NA,NA,"",   1.88085E+06,   1.68689E+06,   1.68689E+06
C:/temp/Job-6.odb,Step-1,Increment      1: Step Time =    1.000,"P-6-1",          1125,       33.7022,       162.451,            0.,NA,NA,"",   1.57153E+06,   1.48253E+06,   1.48253E+06
C:/temp/Job-6.odb,Step-1,Increment      1: Step Time =    1.000,"P-6-1",          1126,       44.9847,       169.274,            0.,NA,NA,"",   1.97650E+06,   1.82269E+06,   1.82269E+06
C:/temp/Job-6.odb,Step-1,Increment      1: Step Time =    1.000,"P-6-1",          1127,       49.2840,       21.2883,            0.,NA,NA,"",   2.18336E+06,   2.06832E+06,   2.06832E+06
C:/temp/Job-6.odb,Step-1,Increment      1: Step Time =    1.000,"P-6-1",          1128,       158.772,       165.296,            0.,NA,NA,"",   1.78606E+06,   1.66651E+06,   1.66651E+06
C:/temp/Job-6.odb,Step-1,Increment      1: Step Time =    1.000,"P-6-1",          1129,       156.330,       38.5535,            0.,NA,NA,"",   1.94975E+06,   1.80284E+06,   1.80284E+06
C:/temp/Job-6.odb,Step-1,Increment      1: Step Time =    1.000,"P-6-1",          1130,       145.670,       36.5952,            0.,NA,NA,"",   2.10150E+06,   2.03503E+06,   2.03503E+06
C:/temp/Job-6.odb,Step-1,Increment      1: Step Time =    1.000,"P-6-1",          1131,       155.200,       174.565,            0.,NA,NA,"",   1.58259E+06,   1.50958E+06,   1.50958E+06
C:/temp/Job-6.odb,Step-1,Increment      1: Step Time =    1.000,"P-6-1",          1132,       27.9741,       154.777,            0.,NA,NA,"",   1.16133E+06,   1.11978E+06,   1.11978E+06
C:/temp/Job-6.odb,Step-1,Increment      1: Step Time =    1.000,"P-6-1",          1133,       175.439,       44.7469,            0.,NA,NA,"",   1.58859E+06,   1.49276E+06,   1.49276E+06
C:/temp/Job-6.odb,Step-1,Increment      1: Step Time =    1.000,"P-6-1",          1134,       47.0483,       24.6228,            0.,NA,NA,"",   2.12647E+06,   2.00079E+06,   2.00079E+06
C:/temp/Job-6.odb,Step-1,Increment      1: Step Time =    1.000,"P-6-1",          1135,       46.1700,       18.8553,            0.,NA,NA,"",   2.19583E+06,   2.10857E+06,   2.10857E+06
C:/temp/Job-6.odb,Step-1,Increment      1: Step Time =    1.000,"P-6-1",          1136,       151.977,       168.389,            0.,NA,NA,"",   1.82234E+06,   1.72965E+06,   1.72965E+06
C:/temp/Job-6.odb,Step-1,Increment      1: Step Time =    1.000,"P-6-1",          1137,       16.6253,       152.304,            0.,NA,NA,"",   908.433E+03,   948.426E+03,   948.426E+03
C:/temp/Job-6.odb,Step-1,Increment      1: Step Time =    1.000,"P-6-1",          1138,       151.374,       18.4677,            0.,NA,NA,"",   1.35914E+06,   1.31176E+06,   1.31176E+06
C:/temp/Job-6.odb,Step-1,Increment      1: Step Time =    1.000,"P-6-1",          1139,       183.407,       47.9987,            0.,NA,NA,"",   1.35734E+06,   1.36349E+06,   1.36349E+06
C:/temp/Job-6.odb,Step-1,Increment      1: Step Time =    1.000,"P-6-1",          1140,       50.6396,       185.256,            0.,NA,NA,"",   2.23117E+06,   2.15525E+06,   2.15525E+06
C:/temp/Job-6.odb,Step-1,Increment      1: Step Time =    1.000,"P-6-1",          1141,       151.777,       183.565,            0.,NA,NA,"",   1.28463E+06,   1.24297E+06,   1.24297E+06
C:/temp/Job-6.odb,Step-1,Increment      1: Step Time =    1.000,"P-6-1",          1142,       182.215,       148.901,            0.,NA,NA,"",   1.42520E+06,   1.41890E+06,   1.41890E+06
C:/temp/Job-6.odb,Step-1,Increment      1: Step Time =    1.000,"P-6-1",          1143,       167.660,       155.640,            0.,NA,NA,"",   1.80948E+06,   1.64264E+06,   1.64264E+06
C:/temp/Job-6.odb,Step-1,Increment      1: Step Time =    1.000,"P-6-1",          1144,       163.942,       46.3884,            0.,NA,NA,"",   1.94790E+06,   1.73731E+06,   1.73731E+06
C:/temp/Job-6.odb,Step-1,Increment      1: Step Time =    1.000,"P-6-1",          1145,       165.332,       142.240,            0.,NA,NA,"",   1.96648E+06,   1.64318E+06,   1.64318E+06
C:/temp/Job-6.odb,Step-1,Increment      1: Step Time =    1.000,"P-6-1",          1146,       37.5700,       45.7523,            0.,NA,NA,"",   1.28272E+06,   1.14300E+06,   1.14300E+06
C:/temp/Job-6.odb,Step-1,Increment      1: Step Time =    1.000,"P-6-1",          1147,       35.3394,       149.339,            0.,NA,NA,"",   1.02401E+06,   899.098E+03,   899.098E+03
C:/temp/Job-6.odb,Step-1,Increment      1: Step Time =    1.000,"P-6-1",          1148,       44.3785,       28.2342,            0.,NA,NA,"",   2.02836E+06,   1.89446E+06,   1.89446E+06
C:/temp/Job-6.odb,Step-1,Increment      1: Step Time =    1.000,"P-6-1",          1149,       35.7108,       167.338,            0.,NA,NA,"",   1.78866E+06,   1.69846E+06,   1.69846E+06
C:/temp/Job-6.odb,Step-1,Increment      1: Step Time =    1.000,"P-6-1",          1150,       39.6638,       171.934,            0.,NA,NA,"",   1.96953E+06,   1.86539E+06,   1.86539E+06
C:/temp/Job-6.odb,Step-1,Increment      1: Step Time =    1.000,"P-6-1",          1151,       152.376,       35.5657,            0.,NA,NA,"",   1.95563E+06,   1.84151E+06,   1.84151E+06
C:/temp/Job-6.odb,Step-1,Increment      1: Step Time =    1.000,"P-6-1",          1152,       164.905,       40.6771,            0.,NA,NA,"",   1.80608E+06,   1.65381E+06,   1.65381E+06
C:/temp/Job-6.odb,Step-1,Increment      1: Step Time =    1.000,"P-6-1",          1153,       165.435,       57.8935,            0.,NA,NA,"",   1.97691E+06,   1.63619E+06,   1.63619E+06
C:/temp/Job-6.odb,Step-1,Increment      1: Step Time =    1.000,"P-6-1",          1154,       29.2087,       165.427,            0.,NA,NA,"",   1.62117E+06,   1.57470E+06,   1.57470E+06
C:/temp/Job-6.odb,Step-1,Increment      1: Step Time =    1.000,"P-6-1",          1155,       164.040,       165.849,            0.,NA,NA,"",   1.66401E+06,   1.55775E+06,   1.55775E+06
C:/temp/Job-6.odb,Step-1,Increment      1: Step Time =    1.000,"P-6-1",          1156,       42.4061,       38.1545,            0.,NA,NA,"",   1.69906E+06,   1.53622E+06,   1.53622E+06
C:/temp/Job-6.odb,Step-1,Increment      1: Step Time =    1.000,"P-6-1",          1157,       161.178,       168.350,            0.,NA,NA,"",   1.64215E+06,   1.54460E+06,   1.54460E+06
C:/temp/Job-6.odb,Step-1,Increment      1: Step Time =    1.000,"P-6-1",          1158,       40.3065,       25.7799,            0.,NA,NA,"",   2.04168E+06,   1.94189E+06,   1.94189E+06
C:/temp/Job-6.odb,Step-1,Increment      1: Step Time =    1.000,"P-6-1",          1159,       172.971,       46.4657,            0.,NA,NA,"",   1.70088E+06,   1.56378E+06,   1.56378E+06
C:/temp/Job-6.odb,Step-1,Increment      1: Step Time =    1.000,"P-6-1",          1160,       48.7880,       15.8768,            0.,NA,NA,"",   2.22442E+06,   2.14886E+06,   2.14886E+06
C:/temp/Job-6.odb,Step-1,Increment      1: Step Time =    1.000,"P-6-1",          1161,       19.4810,       154.041,            0.,NA,NA,"",   1.00614E+06,   1.02956E+06,   1.02956E+06
C:/temp/Job-6.odb,Step-1,Increment      1: Step Time =    1.000,"P-6-1",          1162,       181.991,       42.9747,            0.,NA,NA,"",   1.34261E+06,   1.33300E+06,   1.33300E+06
C:/temp/Job-6.odb,Step-1,Increment      1: Step Time =    1.000,"P-6-1",          1163,       155.915,       182.440,            0.,NA,NA,"",   1.30361E+06,   1.25810E+06,   1.25810E+06
C:/temp/Job-6.odb,Step-1,Increment      1: Step Time =    1.000,"P-6-1",          1164,       162.589,       151.829,            0.,NA,NA,"",   2.00150E+06,   1.76614E+06,   1.76614E+06
C:/temp/Job-6.odb,Step-1,Increment      1: Step Time =    1.000,"P-6-1",          1165,       161.412,       147.345,            0.,NA,NA,"",   2.04190E+06,   1.75486E+06,   1.75486E+06
C:/temp/Job-6.odb,Step-1,Increment      1: Step Time =    1.000,"P-6-1",          1166,       21.5548,       32.2312,            0.,NA,NA,"",   1.59102E+06,   1.60702E+06,   1.60702E+06
C:/temp/Job-6.odb,Step-1,Increment      1: Step Time =    1.000,"P-6-1",          1167,       161.844,       34.7729,            0.,NA,NA,"",   1.74471E+06,   1.62320E+06,   1.62320E+06
C:/temp/Job-6.odb,Step-1,Increment      1: Step Time =    1.000,"P-6-1",          1168,       36.6131,       170.839,            0.,NA,NA,"",   1.90462E+06,   1.81522E+06,   1.81522E+06
C:/temp/Job-6.odb,Step-1,Increment      1: Step Time =    1.000,"P-6-1",          1169,       159.482,       170.809,            0.,NA,NA,"",   1.61054E+06,   1.52214E+06,   1.52214E+06
C:/temp/Job-6.odb,Step-1,Increment      1: Step Time =    1.000,"P-6-1",          1170,       30.1986,       158.803,            0.,NA,NA,"",   1.36265E+06,   1.30065E+06,   1.30065E+06
C:/temp/Job-6.odb,Step-1,Increment      1: Step Time =    1.000,"P-6-1",          1171,       37.1947,       176.151,            0.,NA,NA,"",   2.05261E+06,   1.97748E+06,   1.97748E+06
C:/temp/Job-6.odb,Step-1,Increment      1: Step Time =    1.000,"P-6-1",          1172,       36.1560,       30.3043,            0.,NA,NA,"",   1.86849E+06,   1.77505E+06,   1.77505E+06
C:/temp/Job-6.odb,Step-1,Increment      1: Step Time =    1.000,"P-6-1",          1173,       169.337,       35.3840,            0.,NA,NA,"",   1.57807E+06,   1.48355E+06,   1.48355E+06
C:/temp/Job-6.odb,Step-1,Increment      1: Step Time =    1.000,"P-6-1",          1174,       163.504,       26.5248,            0.,NA,NA,"",   1.48002E+06,   1.40899E+06,   1.40899E+06
C:/temp/Job-6.odb,Step-1,Increment      1: Step Time =    1.000,"P-6-1",          1175,       25.1333,       161.481,            0.,NA,NA,"",   1.38997E+06,   1.37458E+06,   1.37458E+06
C:/temp/Job-6.odb,Step-1,Increment      1: Step Time =    1.000,"P-6-1",          1176,       45.7187,       12.8630,            0.,NA,NA,"",   2.26716E+06,   2.21698E+06,   2.21698E+06
C:/temp/Job-6.odb,Step-1,Increment      1: Step Time =    1.000,"P-6-1",          1177,       15.2923,       41.2652,            0.,NA,NA,"",   1.14802E+06,   1.20547E+06,   1.20547E+06
C:/temp/Job-6.odb,Step-1,Increment      1: Step Time =    1.000,"P-6-1",          1178,       25.1868,       34.4060,            0.,NA,NA,"",   1.55310E+06,   1.53958E+06,   1.53958E+06
C:/temp/Job-6.odb,Step-1,Increment      1: Step Time =    1.000,"P-6-1",          1179,       162.426,       171.450,            0.,NA,NA,"",   1.54677E+06,   1.46552E+06,   1.46552E+06
C:/temp/Job-6.odb,Step-1,Increment      1: Step Time =    1.000,"P-6-1",          1180,       173.606,       41.9047,            0.,NA,NA,"",   1.59046E+06,   1.49231E+06,   1.49231E+06
C:/temp/Job-6.odb,Step-1,Increment      1: Step Time =    1.000,"P-6-1",          1181,       155.280,       30.8171,            0.,NA,NA,"",   1.75275E+06,   1.65373E+06,   1.65373E+06
C:/temp/Job-6.odb,Step-1,Increment      1: Step Time =    1.000,"P-6-1",          1182,       165.520,       61.0360,            0.,NA,NA,"",   1.94496E+06,   1.57235E+06,   1.57235E+06
C:/temp/Job-6.odb,Step-1,Increment      1: Step Time =    1.000,"P-6-1",          1183,       168.841,       165.175,            0.,NA,NA,"",   1.56959E+06,   1.47900E+06,   1.47900E+06
C:/temp/Job-6.odb,Step-1,Increment      1: Step Time =    1.000,"P-6-1",          1184,       171.384,       155.971,            0.,NA,NA,"",   1.69066E+06,   1.55884E+06,   1.55884E+06
C:/temp/Job-6.odb,Step-1,Increment      1: Step Time =    1.000,"P-6-1",          1185,       185.328,       44.9863,            0.,NA,NA,"",   1.25241E+06,   1.28416E+06,   1.28416E+06
C:/temp/Job-6.odb,Step-1,Increment      1: Step Time =    1.000,"P-6-1",          1186,       154.681,       185.342,            0.,NA,NA,"",   1.20939E+06,   1.17214E+06,   1.17214E+06
C:/temp/Job-6.odb,Step-1,Increment      1: Step Time =    1.000,"P-6-1",          1187,       15.2392,       155.405,            0.,NA,NA,"",   1.01093E+06,   1.06456E+06,   1.06456E+06
C:/temp/Job-6.odb,Step-1,Increment      1: Step Time =    1.000,"P-6-1",          1188,       40.4963,       48.5944,            0.,NA,NA,"",   1.19098E+06,   1.02440E+06,   1.02440E+06
C:/temp/Job-6.odb,Step-1,Increment      1: Step Time =    1.000,"P-6-1",          1189,       36.2497,       36.8029,            0.,NA,NA,"",   1.63014E+06,   1.51879E+06,   1.51879E+06
C:/temp/Job-6.odb,Step-1,Increment      1: Step Time =    1.000,"P-6-1",          1190,       161.855,       176.107,            0.,NA,NA,"",   1.44480E+06,   1.38057E+06,   1.38057E+06
C:/temp/Job-6.odb,Step-1,Increment      1: Step Time =    1.000,"P-6-1",          1191,       167.170,       175.288,            0.,NA,NA,"",   1.37612E+06,   1.32229E+06,   1.32229E+06
C:/temp/Job-6.odb,Step-1,Increment      1: Step Time =    1.000,"P-6-1",          1192,       33.2584,       24.5689,            0.,NA,NA,"",   2.01636E+06,   1.95899E+06,   1.95899E+06
C:/temp/Job-6.odb,Step-1,Increment      1: Step Time =    1.000,"P-6-1",          1193,       159.916,       26.2084,            0.,NA,NA,"",   1.53337E+06,   1.45685E+06,   1.45685E+06
C:/temp/Job-6.odb,Step-1,Increment      1: Step Time =    1.000,"P-6-1",          1194,       43.0930,       16.2099,            0.,NA,NA,"",   2.22930E+06,   2.16780E+06,   2.16780E+06
C:/temp/Job-6.odb,Step-1,Increment      1: Step Time =    1.000,"P-6-1",          1195,       17.4498,       45.3437,            0.,NA,NA,"",   1.00292E+06,   1.04158E+06,   1.04158E+06
C:/temp/Job-6.odb,Step-1,Increment      1: Step Time =    1.000,"P-6-1",          1196,       172.626,       38.8332,            0.,NA,NA,"",   1.55351E+06,   1.46509E+06,   1.46509E+06
C:/temp/Job-6.odb,Step-1,Increment      1: Step Time =    1.000,"P-6-1",          1197,       175.539,       157.922,            0.,NA,NA,"",   1.53545E+06,   1.45531E+06,   1.45531E+06
C:/temp/Job-6.odb,Step-1,Increment      1: Step Time =    1.000,"P-6-1",          1198,       35.8579,       182.966,            0.,NA,NA,"",   2.22160E+06,   2.17948E+06,   2.17948E+06
C:/temp/Job-6.odb,Step-1,Increment      1: Step Time =    1.000,"P-6-1",          1199,       25.6951,       174.130,            0.,NA,NA,"",   1.88761E+06,   1.87657E+06,   1.87657E+06
C:/temp/Job-6.odb,Step-1,Increment      1: Step Time =    1.000,"P-6-1",          1200,       17.4377,       33.2407,            0.,NA,NA,"",   1.50388E+06,   1.55392E+06,   1.55392E+06
C:/temp/Job-6.odb,Step-1,Increment      1: Step Time =    1.000,"P-6-1",          1201,       31.0717,       37.1235,            0.,NA,NA,"",   1.54091E+06,   1.47403E+06,   1.47403E+06
C:/temp/Job-6.odb,Step-1,Increment      1: Step Time =    1.000,"P-6-1",          1202,       169.936,       169.087,            0.,NA,NA,"",   1.46068E+06,   1.39347E+06,   1.39347E+06
C:/temp/Job-6.odb,Step-1,Increment      1: Step Time =    1.000,"P-6-1",          1203,       179.375,       38.3849,            0.,NA,NA,"",   1.35826E+06,   1.32958E+06,   1.32958E+06
C:/temp/Job-6.odb,Step-1,Increment      1: Step Time =    1.000,"P-6-1",          1204,       36.0549,       42.0658,            0.,NA,NA,"",   1.42539E+06,   1.30235E+06,   1.30235E+06
C:/temp/Job-6.odb,Step-1,Increment      1: Step Time =    1.000,"P-6-1",          1205,       19.2432,       160.421,            0.,NA,NA,"",   1.25826E+06,   1.28966E+06,   1.28966E+06
C:/temp/Job-6.odb,Step-1,Increment      1: Step Time =    1.000,"P-6-1",          1206,       34.6799,       17.8700,            0.,NA,NA,"",   2.19632E+06,   2.15301E+06,   2.15301E+06
C:/temp/Job-6.odb,Step-1,Increment      1: Step Time =    1.000,"P-6-1",          1207,       14.0792,       36.9884,            0.,NA,NA,"",   1.29596E+06,   1.36942E+06,   1.36942E+06
C:/temp/Job-6.odb,Step-1,Increment      1: Step Time =    1.000,"P-6-1",          1208,       16.9041,       30.7046,            0.,NA,NA,"",   1.60475E+06,   1.66052E+06,   1.66052E+06
C:/temp/Job-6.odb,Step-1,Increment      1: Step Time =    1.000,"P-6-1",          1209,       164.221,       22.4091,            0.,NA,NA,"",   1.36429E+06,   1.31049E+06,   1.31049E+06
C:/temp/Job-6.odb,Step-1,Increment      1: Step Time =    1.000,"P-6-1",          1210,       41.6285,       185.177,            0.,NA,NA,"",   2.25733E+06,   2.20963E+06,   2.20963E+06
C:/temp/Job-6.odb,Step-1,Increment      1: Step Time =    1.000,"P-6-1",          1211,       34.2040,       173.087,            0.,NA,NA,"",   1.94091E+06,   1.87219E+06,   1.87219E+06
C:/temp/Job-6.odb,Step-1,Increment      1: Step Time =    1.000,"P-6-1",          1212,       173.943,       161.730,            0.,NA,NA,"",   1.50890E+06,   1.43366E+06,   1.43366E+06
C:/temp/Job-6.odb,Step-1,Increment      1: Step Time =    1.000,"P-6-1",          1213,       162.862,       181.085,            0.,NA,NA,"",   1.28571E+06,   1.24146E+06,   1.24146E+06
C:/temp/Job-6.odb,Step-1,Increment      1: Step Time =    1.000,"P-6-1",          1214,       184.161,       37.4661,            0.,NA,NA,"",   1.20434E+06,   1.22084E+06,   1.22084E+06
C:/temp/Job-6.odb,Step-1,Increment      1: Step Time =    1.000,"P-6-1",          1215,       16.8543,       167.881,            0.,NA,NA,"",   1.54492E+06,   1.60126E+06,   1.60126E+06
C:/temp/Job-6.odb,Step-1,Increment      1: Step Time =    1.000,"P-6-1",          1216,       28.3485,       25.3911,            0.,NA,NA,"",   1.94892E+06,   1.91845E+06,   1.91845E+06
C:/temp/Job-6.odb,Step-1,Increment      1: Step Time =    1.000,"P-6-1",          1217,       14.3733,       158.993,            0.,NA,NA,"",   1.13774E+06,   1.20209E+06,   1.20209E+06
C:/temp/Job-6.odb,Step-1,Increment      1: Step Time =    1.000,"P-6-1",          1218,       20.1071,       170.909,            0.,NA,NA,"",   1.71067E+06,   1.74234E+06,   1.74234E+06
C:/temp/Job-6.odb,Step-1,Increment      1: Step Time =    1.000,"P-6-1",          1219,       172.659,       151.073,            0.,NA,NA,"",   1.72894E+06,   1.57706E+06,   1.57706E+06
C:/temp/Job-6.odb,Step-1,Increment      1: Step Time =    1.000,"P-6-1",          1220,       19.8976,       176.767,            0.,NA,NA,"",   1.93272E+06,   1.96864E+06,   1.96864E+06
C:/temp/Job-6.odb,Step-1,Increment      1: Step Time =    1.000,"P-6-1",          1221,       16.0670,       170.733,            0.,NA,NA,"",   1.65863E+06,   1.72585E+06,   1.72585E+06
C:/temp/Job-6.odb,Step-1,Increment      1: Step Time =    1.000,"P-6-1",          1222,       37.1659,       22.2006,            0.,NA,NA,"",   2.10004E+06,   2.02826E+06,   2.02826E+06
C:/temp/Job-6.odb,Step-1,Increment      1: Step Time =    1.000,"P-6-1",          1223,       37.9085,       185.737,            0.,NA,NA,"",   2.27999E+06,   2.24299E+06,   2.24299E+06
C:/temp/Job-6.odb,Step-1,Increment      1: Step Time =    1.000,"P-6-1",          1224,       166.735,       186.119,            0.,NA,NA,"",   1.12021E+06,   1.09829E+06,   1.09829E+06
C:/temp/Job-6.odb,Step-1,Increment      1: Step Time =    1.000,"P-6-1",          1225,       13.5830,       162.796,            0.,NA,NA,"",   1.27514E+06,   1.35105E+06,   1.35105E+06
C:/temp/Job-6.odb,Step-1,Increment      1: Step Time =    1.000,"P-6-1",          1226,       178.237,       163.236,            0.,NA,NA,"",   1.36089E+06,   1.32722E+06,   1.32722E+06
C:/temp/Job-6.odb,Step-1,Increment      1: Step Time =    1.000,"P-6-1",          1227,       43.5681,       174.029,            0.,NA,NA,"",   2.05653E+06,   1.93714E+06,   1.93714E+06
C:/temp/Job-6.odb,Step-1,Increment      1: Step Time =    1.000,"P-6-1",          1228,       27.1927,       20.7435,            0.,NA,NA,"",   2.10084E+06,   2.08365E+06,   2.08365E+06
C:/temp/Job-6.odb,Step-1,Increment      1: Step Time =    1.000,"P-6-1",          1229,       164.631,       18.2873,            0.,NA,NA,"",   1.24883E+06,   1.21045E+06,   1.21045E+06
C:/temp/Job-6.odb,Step-1,Increment      1: Step Time =    1.000,"P-6-1",          1230,       15.9248,       26.7500,            0.,NA,NA,"",   1.75190E+06,   1.82114E+06,   1.82114E+06
C:/temp/Job-6.odb,Step-1,Increment      1: Step Time =    1.000,"P-6-1",          1231,       162.449,       185.984,            0.,NA,NA,"",   1.14213E+06,   1.11409E+06,   1.11409E+06
C:/temp/Job-6.odb,Step-1,Increment      1: Step Time =    1.000,"P-6-1",          1232,       174.757,       182.223,            0.,NA,NA,"",   1.13847E+06,   1.12218E+06,   1.12218E+06
C:/temp/Job-6.odb,Step-1,Increment      1: Step Time =    1.000,"P-6-1",          1233,       23.6764,       179.431,            0.,NA,NA,"",   2.08637E+06,   2.08987E+06,   2.08987E+06
C:/temp/Job-6.odb,Step-1,Increment      1: Step Time =    1.000,"P-6-1",          1234,       178.272,       177.345,            0.,NA,NA,"",   1.16962E+06,   1.15679E+06,   1.15679E+06
C:/temp/Job-6.odb,Step-1,Increment      1: Step Time =    1.000,"P-6-1",          1235,       26.8671,       16.6737,            0.,NA,NA,"",   2.23488E+06,   2.22545E+06,   2.22545E+06
C:/temp/Job-6.odb,Step-1,Increment      1: Step Time =    1.000,"P-6-1",          1236,       23.3685,       25.0517,            0.,NA,NA,"",   1.90304E+06,   1.90778E+06,   1.90778E+06
C:/temp/Job-6.odb,Step-1,Increment      1: Step Time =    1.000,"P-6-1",          1237,       161.208,       18.5982,            0.,NA,NA,"",   1.28155E+06,   1.23735E+06,   1.23735E+06
C:/temp/Job-6.odb,Step-1,Increment      1: Step Time =    1.000,"P-6-1",          1238,       184.796,       159.238,            0.,NA,NA,"",   1.21720E+06,   1.23994E+06,   1.23994E+06
C:/temp/Job-6.odb,Step-1,Increment      1: Step Time =    1.000,"P-6-1",          1239,       182.322,       165.770,            0.,NA,NA,"",   1.22180E+06,   1.22232E+06,   1.22232E+06
C:/temp/Job-6.odb,Step-1,Increment      1: Step Time =    1.000,"P-6-1",          1240,       12.3862,       170.458,            0.,NA,NA,"",   1.57498E+06,   1.67294E+06,   1.67294E+06
C:/temp/Job-6.odb,Step-1,Increment      1: Step Time =    1.000,"P-6-1",          1241,       30.8086,       16.6664,            0.,NA,NA,"",   2.22921E+06,   2.20648E+06,   2.20648E+06
C:/temp/Job-6.odb,Step-1,Increment      1: Step Time =    1.000,"P-6-1",          1242,       168.767,       13.6296,            0.,NA,NA,"",   1.10722E+06,   1.08783E+06,   1.08783E+06
C:/temp/Job-6.odb,Step-1,Increment      1: Step Time =    1.000,"P-6-1",          1243,       36.3793,       189.566,            0.,NA,NA,"",   2.37394E+06,   2.35192E+06,   2.35192E+06
C:/temp/Job-6.odb,Step-1,Increment      1: Step Time =    1.000,"P-6-1",          1244,       35.2675,       13.1145,            0.,NA,NA,"",   2.31140E+06,   2.28284E+06,   2.28284E+06
C:/temp/Job-6.odb,Step-1,Increment      1: Step Time =    1.000,"P-6-1",          1245,       14.1106,       29.3935,            0.,NA,NA,"",   1.61557E+06,   1.69810E+06,   1.69810E+06
C:/temp/Job-6.odb,Step-1,Increment      1: Step Time =    1.000,"P-6-1",          1246,       173.484,       178.264,            0.,NA,NA,"",   1.22093E+06,   1.19451E+06,   1.19451E+06
C:/temp/Job-6.odb,Step-1,Increment      1: Step Time =    1.000,"P-6-1",          1247,       19.5335,       180.055,            0.,NA,NA,"",   2.08159E+06,   2.11458E+06,   2.11458E+06
C:/temp/Job-6.odb,Step-1,Increment      1: Step Time =    1.000,"P-6-1",          1248,       22.8421,       16.3952,            0.,NA,NA,"",   2.24049E+06,   2.24647E+06,   2.24647E+06
C:/temp/Job-6.odb,Step-1,Increment      1: Step Time =    1.000,"P-6-1",          1249,       184.003,       162.338,            0.,NA,NA,"",   1.20993E+06,   1.22384E+06,   1.22384E+06
C:/temp/Job-6.odb,Step-1,Increment      1: Step Time =    1.000,"P-6-1",          1250,       176.722,       18.4062,            0.,NA,NA,"",   1.12831E+06,   1.11633E+06,   1.11633E+06
C:/temp/Job-6.odb,Step-1,Increment      1: Step Time =    1.000,"P-6-1",          1251,       164.574,       13.9023,            0.,NA,NA,"",   1.13600E+06,   1.10999E+06,   1.10999E+06
C:/temp/Job-6.odb,Step-1,Increment      1: Step Time =    1.000,"P-6-1",          1252,       15.5647,       173.525,            0.,NA,NA,"",   1.75614E+06,   1.82750E+06,   1.82750E+06
C:/temp/Job-6.odb,Step-1,Increment      1: Step Time =    1.000,"P-6-1",          1253,       170.796,       186.717,            0.,NA,NA,"",   1.09252E+06,   1.07732E+06,   1.07732E+06
C:/temp/Job-6.odb,Step-1,Increment      1: Step Time =    1.000,"P-6-1",          1254,       29.2027,       182.302,            0.,NA,NA,"",    2.1983E+06,   2.17577E+06,   2.17577E+06
C:/temp/Job-6.odb,Step-1,Increment      1: Step Time =    1.000,"P-6-1",          1255,       26.6413,       12.5416,            0.,NA,NA,"",   2.37177E+06,   2.36598E+06,   2.36598E+06
C:/temp/Job-6.odb,Step-1,Increment      1: Step Time =    1.000,"P-6-1",          1256,       19.4902,       15.7908,            0.,NA,NA,"",   2.23677E+06,   2.25952E+06,   2.25952E+06
C:/temp/Job-6.odb,Step-1,Increment      1: Step Time =    1.000,"P-6-1",          1257,       9.58559,       32.1542,            0.,NA,NA,"",   1.42278E+06,   1.53827E+06,   1.53827E+06
C:/temp/Job-6.odb,Step-1,Increment      1: Step Time =    1.000,"P-6-1",          1258,       179.748,       186.098,            0.,NA,NA,"",   1.05132E+06,   1.04762E+06,   1.04762E+06
C:/temp/Job-6.odb,Step-1,Increment      1: Step Time =    1.000,"P-6-1",          1259,       30.9542,       12.6458,            0.,NA,NA,"",   2.34333E+06,   2.32760E+06,   2.32760E+06
C:/temp/Job-6.odb,Step-1,Increment      1: Step Time =    1.000,"P-6-1",          1260,       24.5756,       183.806,            0.,NA,NA,"",   2.24554E+06,   2.24451E+06,   2.24451E+06
C:/temp/Job-6.odb,Step-1,Increment      1: Step Time =    1.000,"P-6-1",          1261,       173.114,       13.6237,            0.,NA,NA,"",   1.08449E+06,   1.07183E+06,   1.07183E+06
C:/temp/Job-6.odb,Step-1,Increment      1: Step Time =    1.000,"P-6-1",          1262,       171.831,       22.6841,            0.,NA,NA,"",   1.26264E+06,   1.22876E+06,   1.22876E+06
C:/temp/Job-6.odb,Step-1,Increment      1: Step Time =    1.000,"P-6-1",          1263,       14.6630,       179.050,            0.,NA,NA,"",   1.97896E+06,   2.05696E+06,   2.05696E+06
C:/temp/Job-6.odb,Step-1,Increment      1: Step Time =    1.000,"P-6-1",          1264,       181.850,       172.000,            0.,NA,NA,"",   1.17230E+06,   1.16871E+06,   1.16871E+06
C:/temp/Job-6.odb,Step-1,Increment      1: Step Time =    1.000,"P-6-1",          1265,       177.504,       13.7911,            0.,NA,NA,"",   1.06305E+06,   1.05640E+06,   1.05640E+06
C:/temp/Job-6.odb,Step-1,Increment      1: Step Time =    1.000,"P-6-1",          1266,       173.719,       9.12251,            0.,NA,NA,"",   1.01362E+06,   1.00739E+06,   1.00739E+06
C:/temp/Job-6.odb,Step-1,Increment      1: Step Time =    1.000,"P-6-1",          1267,       19.0555,       18.0263,            0.,NA,NA,"",   2.16584E+06,   2.19193E+06,   2.19193E+06
C:/temp/Job-6.odb,Step-1,Increment      1: Step Time =    1.000,"P-6-1",          1268,       171.026,       27.0436,            0.,NA,NA,"",   1.36365E+06,   1.31394E+06,   1.31394E+06
C:/temp/Job-6.odb,Step-1,Increment      1: Step Time =    1.000,"P-6-1",          1269,       19.6739,       184.445,            0.,NA,NA,"",   2.26736E+06,   2.29072E+06,   2.29072E+06
C:/temp/Job-6.odb,Step-1,Increment      1: Step Time =    1.000,"P-6-1",          1270,       26.1835,       8.42774,            0.,NA,NA,"",   2.50024E+06,   2.49624E+06,   2.49624E+06
C:/temp/Job-6.odb,Step-1,Increment      1: Step Time =    1.000,"P-6-1",          1271,       188.474,       175.108,            0.,NA,NA,"",   1.05465E+06,   1.06479E+06,   1.06479E+06
C:/temp/Job-6.odb,Step-1,Increment      1: Step Time =    1.000,"P-6-1",          1272,       35.7411,       8.78661,            0.,NA,NA,"",   2.42307E+06,   2.40797E+06,   2.40797E+06
C:/temp/Job-6.odb,Step-1,Increment      1: Step Time =    1.000,"P-6-1",          1273,       183.259,       176.255,            0.,NA,NA,"",   1.10878E+06,   1.11026E+06,   1.11026E+06
C:/temp/Job-6.odb,Step-1,Increment      1: Step Time =    1.000,"P-6-1",          1274,       12.7029,       174.563,            0.,NA,NA,"",   1.75571E+06,   1.85294E+06,   1.85294E+06
C:/temp/Job-6.odb,Step-1,Increment      1: Step Time =    1.000,"P-6-1",          1275,       25.3494,       188.715,            0.,NA,NA,"",   2.41364E+06,   2.41057E+06,   2.41057E+06
C:/temp/Job-6.odb,Step-1,Increment      1: Step Time =    1.000,"P-6-1",          1276,       8.75329,       175.062,            0.,NA,NA,"",   1.70429E+06,   1.83795E+06,   1.83795E+06
C:/temp/Job-6.odb,Step-1,Increment      1: Step Time =    1.000,"P-6-1",          1277,       14.7301,       184.496,            0.,NA,NA,"",   2.25780E+06,   2.31862E+06,   2.31862E+06
C:/temp/Job-6.odb,Step-1,Increment      1: Step Time =    1.000,"P-6-1",          1278,       14.9267,       189.590,            0.,NA,NA,"",   2.50042E+06,   2.53360E+06,   2.53360E+06
C:/temp/Job-6.odb,Step-1,Increment      1: Step Time =    1.000,"P-6-1",          1279,       16.5112,       14.8057,            0.,NA,NA,"",   2.29988E+06,   2.34103E+06,   2.34103E+06
C:/temp/Job-6.odb,Step-1,Increment      1: Step Time =    1.000,"P-6-1",          1280,       167.194,       26.7737,            0.,NA,NA,"",   1.42528E+06,   1.36311E+06,   1.36311E+06
C:/temp/Job-6.odb,Step-1,Increment      1: Step Time =    1.000,"P-6-1",          1281,       179.308,       28.0957,            0.,NA,NA,"",   1.21707E+06,   1.20382E+06,   1.20382E+06
C:/temp/Job-6.odb,Step-1,Increment      1: Step Time =    1.000,"P-6-1",          1282,       181.026,       18.6587,            0.,NA,NA,"",   1.08826E+06,   1.08498E+06,   1.08498E+06
C:/temp/Job-6.odb,Step-1,Increment      1: Step Time =    1.000,"P-6-1",          1283,       184.085,       180.867,            0.,NA,NA,"",   1.06680E+06,   1.06765E+06,   1.06765E+06
C:/temp/Job-6.odb,Step-1,Increment      1: Step Time =    1.000,"P-6-1",          1284,       15.9771,       18.0745,            0.,NA,NA,"",   2.15634E+06,   2.21086E+06,   2.21086E+06
C:/temp/Job-6.odb,Step-1,Increment      1: Step Time =    1.000,"P-6-1",          1285,       9.77674,       184.736,            0.,NA,NA,"",   2.18854E+06,   2.30861E+06,   2.30861E+06
C:/temp/Job-6.odb,Step-1,Increment      1: Step Time =    1.000,"P-6-1",          1286,       181.722,       14.1342,            0.,NA,NA,"",   1.04466E+06,   1.04262E+06,   1.04262E+06
C:/temp/Job-6.odb,Step-1,Increment      1: Step Time =    1.000,"P-6-1",          1287,       173.975,       31.6425,            0.,NA,NA,"",   1.39221E+06,   1.34097E+06,   1.34097E+06
C:/temp/Job-6.odb,Step-1,Increment      1: Step Time =    1.000,"P-6-1",          1288,       185.102,       14.7845,            0.,NA,NA,"",   1.03351E+06,   1.03337E+06,   1.03337E+06
C:/temp/Job-6.odb,Step-1,Increment      1: Step Time =    1.000,"P-6-1",          1289,       158.299,       185.971,            0.,NA,NA,"",   1.16593E+06,   1.13286E+06,   1.13286E+06
C:/temp/Job-6.odb,Step-1,Increment      1: Step Time =    1.000,"P-6-1",          1290,       185.513,       23.6114,            0.,NA,NA,"",   1.07783E+06,   1.08388E+06,   1.08388E+06
C:/temp/Job-6.odb,Step-1,Increment      1: Step Time =    1.000,"P-6-1",          1291,       18.9757,       13.0685,            0.,NA,NA,"",   2.37188E+06,   2.39165E+06,   2.39165E+06
C:/temp/Job-6.odb,Step-1,Increment      1: Step Time =    1.000,"P-6-1",          1292,       176.346,       36.1444,            0.,NA,NA,"",   1.40766E+06,   1.35921E+06,   1.35921E+06
C:/temp/Job-6.odb,Step-1,Increment      1: Step Time =    1.000,"P-6-1",          1293,       85.3687,       21.4917,            0.,NA,NA,"",   2.18167E+06,   2.14298E+06,   2.14298E+06
C:/temp/Job-6.odb,Step-1,Increment      1: Step Time =    1.000,"P-6-1",          1294,       18.9832,       109.459,            0.,NA,NA,"",   177.968E+03,  -200.878E+03,  -200.878E+03
C:/temp/Job-6.odb,Step-1,Increment      1: Step Time =    1.000,"P-6-1",          1295,       177.741,       86.4725,            0.,NA,NA,"",   1.00980E+06,   992.461E+03,   992.461E+03
C:/temp/Job-6.odb,Step-1,Increment      1: Step Time =    1.000,"P-6-1",          1296,       109.469,       180.473,            0.,NA,NA,"",   1.59882E+06,   1.70732E+06,   1.70732E+06
C:/temp/Job-6.odb,Step-1,Increment      1: Step Time =    1.000,"P-6-1",          1297,       15.9740,       49.8092,            0.,NA,NA,"",   811.809E+03,   853.028E+03,   853.028E+03
C:/temp/Job-6.odb,Step-1,Increment      1: Step Time =    1.000,"P-6-1",          1298,       164.212,       9.51252,            0.,NA,NA,"",   1.02436E+06,   1.00930E+06,   1.00930E+06
C:/temp/Job-6.odb,Step-1,Increment      1: Step Time =    1.000,"P-6-1",          1299,       186.628,       41.6036,            0.,NA,NA,"",   1.17040E+06,   1.21361E+06,   1.21361E+06
C:/temp/Job-6.odb,Step-1,Increment      1: Step Time =    1.000,"P-6-1",          1300,       9.02068,       161.618,            0.,NA,NA,"",   1.17170E+06,   1.27448E+06,   1.27448E+06
C:/temp/Job-6.odb,Step-1,Increment      1: Step Time =    1.000,"P-6-1",          1301,       9.82107,       37.0122,            0.,NA,NA,"",   1.23870E+06,   1.34083E+06,   1.34083E+06
C:/temp/Job-6.odb,Step-1,Increment      1: Step Time =    1.000,"P-6-1",          1302,       188.599,       163.642,            0.,NA,NA,"",   1.08374E+06,   1.12507E+06,   1.12507E+06
C:/temp/Job-6.odb,Step-1,Increment      1: Step Time =    1.000,"P-6-1",          1303,       161.576,       190.701,            0.,NA,NA,"",   1.00675E+06,   992.371E+03,   992.371E+03
C:/temp/Job-6.odb,Step-1,Increment      1: Step Time =    1.000,"P-6-1",          1304,       191.359,       38.6489,            0.,NA,NA,"",   1.02817E+06,   1.09237E+06,   1.09237E+06
C:/temp/Job-6.odb,Step-1,Increment      1: Step Time =    1.000,"P-6-1",          1305,       46.1121,       151.363,            0.,NA,NA,"",   1.29468E+06,   1.07523E+06,   1.07523E+06
C:/temp/Job-6.odb,Step-1,Increment      1: Step Time =    1.000,"P-6-1",          1306,       23.4335,       111.488,            0.,NA,NA,"",   180.422E+03,  -204.365E+03,  -204.365E+03
C:/temp/Job-6.odb,Step-1,Increment      1: Step Time =    1.000,"P-6-1",          1307,       191.616,       25.6601,            0.,NA,NA,"",   1.02671E+06,   1.03984E+06,   1.03984E+06
C:/temp/Job-6.odb,Step-1,Increment      1: Step Time =    1.000,"P-6-1",          1308,       175.222,       190.971,            0.,NA,NA,"",   1.01142E+06,   1.00668E+06,   1.00668E+06
C:/temp/Job-6.odb,Step-1,Increment      1: Step Time =    1.000,"P-6-1",          1309,       146.198,       145.155,            0.,NA,NA,"",   2.09487E+06,   1.97783E+06,   1.97783E+06
C:/temp/Job-6.odb,Step-1,Increment      1: Step Time =    1.000,"P-6-1",          1310,       46.3404,       6.78653,            0.,NA,NA,"",   2.35432E+06,   2.33792E+06,   2.33792E+06
C:/temp/Job-6.odb,Step-1,Increment      1: Step Time =    1.000,"P-6-1",          1311,       39.5505,       13.8903,            0.,NA,NA,"",   2.27572E+06,   2.23152E+06,   2.23152E+06
C:/temp/Job-6.odb,Step-1,Increment      1: Step Time =    1.000,"P-6-1",          1312,       100.696,       168.524,            0.,NA,NA,"",   2.78982E+06,   2.95136E+06,   2.95136E+06
C:/temp/Job-6.odb,Step-1,Increment      1: Step Time =    1.000,"P-6-1",          1313,       190.021,       16.8845,            0.,NA,NA,"",   1.02311E+06,   1.02364E+06,   1.02364E+06
C:/temp/Job-6.odb,Step-1,Increment      1: Step Time =    1.000,"P-6-1",          1314,       183.193,       9.82446,            0.,NA,NA,"",   1.00950E+06,   1.00828E+06,   1.00828E+06
C:/temp/Job-6.odb,Step-1,Increment      1: Step Time =    1.000,"P-6-1",          1315,       17.0863,       9.35766,            0.,NA,NA,"",   2.52768E+06,   2.54387E+06,   2.54387E+06
C:/temp/Job-6.odb,Step-1,Increment      1: Step Time =    1.000,"P-6-1",          1316,       11.3790,       17.2646,            0.,NA,NA,"",   2.11469E+06,   2.22090E+06,   2.22090E+06
C:/temp/Job-6.odb,Step-1,Increment      1: Step Time =    1.000,"P-6-1",          1317,       184.857,       190.435,            0.,NA,NA,"",   1.00454E+06,   1.00406E+06,   1.00406E+06
C:/temp/Job-6.odb,Step-1,Increment      1: Step Time =    1.000,"P-6-1",          1318,       189.576,       185.255,            0.,NA,NA,"",   1.01910E+06,   1.01834E+06,   1.01834E+06
C:/temp/Job-6.odb,Step-1,Increment      1: Step Time =    1.000,"P-6-1",          1319,       91.3432,       172.012,            0.,NA,NA,"",   2.48821E+06,   2.54418E+06,   2.54418E+06
C:/temp/Job-6.odb,Step-1,Increment      1: Step Time =    1.000,"P-6-1",          1320,       183.895,       154.275,            0.,NA,NA,"",   1.29849E+06,   1.31625E+06,   1.31625E+06
C:/temp/Job-6.odb,Step-1,Increment      1: Step Time =    1.000,"P-6-1",          1321,       155.931,       14.9836,            0.,NA,NA,"",   1.20452E+06,   1.16655E+06,   1.16655E+06
C:/temp/Job-6.odb,Step-1,Increment      1: Step Time =    1.000,"P-6-1",          1322,       49.0935,       170.761,            0.,NA,NA,"",   2.07250E+06,   1.90175E+06,   1.90175E+06
C:/temp/Job-6.odb,Step-1,Increment      1: Step Time =    1.000,"P-6-1",          1323,       146.495,       26.4561,            0.,NA,NA,"",   1.73379E+06,   1.68200E+06,   1.68200E+06
C:/temp/Job-6.odb,Step-1,Increment      1: Step Time =    1.000,"P-6-1",          1324,       56.3324,       147.161,            0.,NA,NA,"",   1.06719E+06,   816.083E+03,   816.083E+03
C:/temp/Job-6.odb,Step-1,Increment      1: Step Time =    1.000,"P-6-1",          1325,       89.3604,       157.821,            0.,NA,NA,"",   3.67375E+06,   3.74764E+06,   3.74764E+06
C:/temp/Job-6.odb,Step-1,Increment      1: Step Time =    1.000,"P-6-1",          1326,       158.808,       173.783,            0.,NA,NA,"",   1.56210E+06,   1.48391E+06,   1.48391E+06
C:/temp/Job-6.odb,Step-1,Increment      1: Step Time =    1.000,"P-6-1",          1327,       183.461,       29.0208,            0.,NA,NA,"",   1.14314E+06,   1.14911E+06,   1.14911E+06
C:/temp/Job-6.odb,Step-1,Increment      1: Step Time =    1.000,"P-6-1",          1328,       55.6830,       140.607,            0.,NA,NA,"",   604.731E+03,  -205.931E+03,  -205.931E+03
C:/temp/Job-6.odb,Step-1,Increment      1: Step Time =    1.000,"P-6-1",          1329,       35.8046,       63.2401,            0.,NA,NA,"",   470.589E+03,   187.053E+03,   187.053E+03
C:/temp/Job-6.odb,Step-1,Increment      1: Step Time =    1.000,"P-6-1",          1330,       186.997,       57.5451,            0.,NA,NA,"",   1.31245E+06,   1.39386E+06,   1.39386E+06
C:/temp/Job-6.odb,Step-1,Increment      1: Step Time =    1.000,"P-6-1",          1331,       55.8897,       10.6485,            0.,NA,NA,"",   2.18934E+06,   2.13602E+06,   2.13602E+06
C:/temp/Job-6.odb,Step-1,Increment      1: Step Time =    1.000,"P-6-1",          1332,       142.320,       186.964,            0.,NA,NA,"",   1.12628E+06,   1.10321E+06,   1.10321E+06
C:/temp/Job-6.odb,Step-1,Increment      1: Step Time =    1.000,"P-6-1",          1333,       13.1424,       142.976,            0.,NA,NA,"",   540.062E+03,   578.854E+03,   578.854E+03
C:/temp/Job-6.odb,Step-1,Increment      1: Step Time =    1.000,"P-6-1",          1334,       187.238,       33.9820,            0.,NA,NA,"",   1.09929E+06,   1.12904E+06,   1.12904E+06
C:/temp/Job-6.odb,Step-1,Increment      1: Step Time =    1.000,"P-6-1",          1335,       188.182,       26.3430,            0.,NA,NA,"",   1.05558E+06,   1.07062E+06,   1.07062E+06
C:/temp/Job-6.odb,Step-1,Increment      1: Step Time =    1.000,"P-6-1",          1336,       187.387,       37.8334,            0.,NA,NA,"",   1.12518E+06,   1.16477E+06,   1.16477E+06
C:/temp/Job-6.odb,Step-1,Increment      1: Step Time =    1.000,"P-6-1",          1337,       187.513,       29.8832,            0.,NA,NA,"",   1.07429E+06,   1.09557E+06,   1.09557E+06
C:/temp/Job-6.odb,Step-1,Increment      1: Step Time =    1.000,"P-6-1",          1338,       10.8303,       153.270,            0.,NA,NA,"",   888.900E+03,   959.423E+03,   959.423E+03
C:/temp/Job-6.odb,Step-1,Increment      1: Step Time =    1.000,"P-6-1",          1339,       189.412,       47.1485,            0.,NA,NA,"",   1.12781E+06,   1.21356E+06,   1.21356E+06
C:/temp/Job-6.odb,Step-1,Increment      1: Step Time =    1.000,"P-6-1",          1340,       152.826,       189.342,            0.,NA,NA,"",   1.04266E+06,   1.01673E+06,   1.01673E+06
C:/temp/Job-6.odb,Step-1,Increment      1: Step Time =    1.000,"P-6-1",          1341,       184.587,       185.655,            0.,NA,NA,"",   1.03355E+06,   1.03327E+06,   1.03327E+06
C:/temp/Job-6.odb,Step-1,Increment      1: Step Time =    1.000,"P-6-1",          1342,       156.371,       25.6912,            0.,NA,NA,"",   1.56714E+06,   1.49118E+06,   1.49118E+06
C:/temp/Job-6.odb,Step-1,Increment      1: Step Time =    1.000,"P-6-1",          1343,       52.4632,       144.115,            0.,NA,NA,"",   871.574E+03,   392.850E+03,   392.850E+03
C:/temp/Job-6.odb,Step-1,Increment      1: Step Time =    1.000,"P-6-1",          1344,       5.56153,       5.44911,            0.,NA,NA,"",   2.81763E+06,   2.92760E+06,   2.92760E+06
C:/temp/Job-6.odb,Step-1,Increment      1: Step Time =    1.000,"P-6-1",          1345,       93.3879,       41.4522,            0.,NA,NA,"",   3.97347E+06,   4.05276E+06,   4.05276E+06
C:/temp/Job-6.odb,Step-1,Increment      1: Step Time =    1.000,"P-6-1",          1346,       89.5946,       40.8825,            0.,NA,NA,"",   3.51445E+06,   3.59200E+06,   3.59200E+06
C:/temp/Job-6.odb,Step-1,Increment      1: Step Time =    1.000,"P-6-1",          1347,       86.3609,       38.1756,            0.,NA,NA,"",   3.02843E+06,   3.09761E+06,   3.09761E+06
C:/temp/Job-6.odb,Step-1,Increment      1: Step Time =    1.000,"P-6-1",          1348,       10.1417,       27.4838,            0.,NA,NA,"",   1.61681E+06,   1.73613E+06,   1.73613E+06
C:/temp/Job-6.odb,Step-1,Increment      1: Step Time =    1.000,"P-6-1",          1349,       149.016,       9.06270,            0.,NA,NA,"",   959.464E+03,   939.636E+03,   939.636E+03
C:/temp/Job-6.odb,Step-1,Increment      1: Step Time =    1.000,"P-6-1",          1350,       190.984,       148.575,            0.,NA,NA,"",   1.10027E+06,   1.21688E+06,   1.21688E+06
C:/temp/Job-6.odb,Step-1,Increment      1: Step Time =    1.000,"P-6-1",          1351,       170.541,       191.084,            0.,NA,NA,"",   1.01330E+06,   1.00536E+06,   1.00536E+06
C:/temp/Job-6.odb,Step-1,Increment      1: Step Time =    1.000,"P-6-1",          1352,       191.761,       30.0383,            0.,NA,NA,"",   1.02024E+06,   1.04747E+06,   1.04747E+06
C:/temp/Job-6.odb,Step-1,Increment      1: Step Time =    1.000,"P-6-1",          1353,       80.8867,       160.151,            0.,NA,NA,"",   2.71985E+06,   2.73248E+06,   2.73248E+06
C:/temp/Job-6.odb,Step-1,Increment      1: Step Time =    1.000,"P-6-1",          1354,       98.0178,       37.5726,            0.,NA,NA,"",   3.59143E+06,   3.72917E+06,   3.72917E+06
C:/temp/Job-6.odb,Step-1,Increment      1: Step Time =    1.000,"P-6-1",          1355,       101.542,       37.6916,            0.,NA,NA,"",   3.71357E+06,   3.87578E+06,   3.87578E+06
C:/temp/Job-6.odb,Step-1,Increment      1: Step Time =    1.000,"P-6-1",          1356,       114.470,       165.510,            0.,NA,NA,"",   2.94622E+06,   3.13726E+06,   3.13726E+06
C:/temp/Job-6.odb,Step-1,Increment      1: Step Time =    1.000,"P-6-1",          1357,       130.182,       159.726,            0.,NA,NA,"",   2.72624E+06,   2.84615E+06,   2.84615E+06
C:/temp/Job-6.odb,Step-1,Increment      1: Step Time =    1.000,"P-6-1",          1358,       109.051,       166.585,            0.,NA,NA,"",   2.96188E+06,   3.15969E+06,   3.15969E+06
C:/temp/Job-6.odb,Step-1,Increment      1: Step Time =    1.000,"P-6-1",          1359,       93.1124,       162.844,            0.,NA,NA,"",   3.31245E+06,   3.43191E+06,   3.43191E+06
C:/temp/Job-6.odb,Step-1,Increment      1: Step Time =    1.000,"P-6-1",          1360,       122.653,       158.337,            0.,NA,NA,"",   3.46537E+06,   3.61466E+06,   3.61466E+06
C:/temp/Job-6.odb,Step-1,Increment      1: Step Time =    1.000,"P-6-1",          1361,       8.55393,       165.959,            0.,NA,NA,"",   1.32937E+06,   1.44617E+06,   1.44617E+06
C:/temp/Job-6.odb,Step-1,Increment      1: Step Time =    1.000,"P-6-1",          1362,       98.5870,       33.8489,            0.,NA,NA,"",   3.03903E+06,   3.18737E+06,   3.18737E+06
C:/temp/Job-6.odb,Step-1,Increment      1: Step Time =    1.000,"P-6-1",          1363,       82.7756,       165.523,            0.,NA,NA,"",   2.70091E+06,   2.70002E+06,   2.70002E+06
C:/temp/Job-6.odb,Step-1,Increment      1: Step Time =    1.000,"P-6-1",          1364,       175.182,       186.571,            0.,NA,NA,"",   1.06855E+06,   1.05956E+06,   1.05956E+06
C:/temp/Job-6.odb,Step-1,Increment      1: Step Time =    1.000,"P-6-1",          1365,       158.690,       124.065,            0.,NA,NA,"",    1.3068E+06,  -912.272E+03,  -912.272E+03
C:/temp/Job-6.odb,Step-1,Increment      1: Step Time =    1.000,"P-6-1",          1366,       17.1597,       21.6520,            0.,NA,NA,"",   1.98688E+06,   2.04039E+06,   2.04039E+06
C:/temp/Job-6.odb,Step-1,Increment      1: Step Time =    1.000,"P-6-1",          1367,       185.511,       18.4661,            0.,NA,NA,"",   1.05058E+06,   1.05216E+06,   1.05216E+06
C:/temp/Job-6.odb,Step-1,Increment      1: Step Time =    1.000,"P-6-1",          1368,       160.799,       14.6721,            0.,NA,NA,"",   1.17601E+06,   1.14306E+06,   1.14306E+06
C:/temp/Job-6.odb,Step-1,Increment      1: Step Time =    1.000,"P-6-1",          1369,       57.3448,       14.4277,            0.,NA,NA,"",   2.19274E+06,   2.10555E+06,   2.10555E+06
C:/temp/Job-6.odb,Step-1,Increment      1: Step Time =    1.000,"P-6-1",          1370,       54.2479,       16.4553,            0.,NA,NA,"",   2.21040E+06,   2.11513E+06,   2.11513E+06
C:/temp/Job-6.odb,Step-1,Increment      1: Step Time =    1.000,"P-6-1",          1371,       143.789,       179.632,            0.,NA,NA,"",   1.46542E+06,   1.43257E+06,   1.43257E+06
C:/temp/Job-6.odb,Step-1,Increment      1: Step Time =    1.000,"P-6-1",          1372,       132.623,       185.769,            0.,NA,NA,"",   1.14994E+06,   1.15832E+06,   1.15832E+06
C:/temp/Job-6.odb,Step-1,Increment      1: Step Time =    1.000,"P-6-1",          1373,       179.850,       56.2625,            0.,NA,NA,"",   1.56330E+06,   1.50544E+06,   1.50544E+06
C:/temp/Job-6.odb,Step-1,Increment      1: Step Time =    1.000,"P-6-1",          1374,       185.347,       66.8012,            0.,NA,NA,"",   1.42227E+06,   1.49989E+06,   1.49989E+06
C:/temp/Job-6.odb,Step-1,Increment      1: Step Time =    1.000,"P-6-1",          1375,       107.569,       169.906,            0.,NA,NA,"",   2.59120E+06,   2.77134E+06,   2.77134E+06
C:/temp/Job-6.odb,Step-1,Increment      1: Step Time =    1.000,"P-6-1",          1376,       115.338,       171.592,            0.,NA,NA,"",   2.27274E+06,   2.44205E+06,   2.44205E+06
C:/temp/Job-6.odb,Step-1,Increment      1: Step Time =    1.000,"P-6-1",          1377,       112.338,       174.703,            0.,NA,NA,"",   2.04983E+06,   2.20780E+06,   2.20780E+06
C:/temp/Job-6.odb,Step-1,Increment      1: Step Time =    1.000,"P-6-1",          1378,       64.8575,       166.412,            0.,NA,NA,"",   2.27288E+06,   2.07594E+06,   2.07594E+06
C:/temp/Job-6.odb,Step-1,Increment      1: Step Time =    1.000,"P-6-1",          1379,       124.835,       160.776,            0.,NA,NA,"",   2.99946E+06,   3.15286E+06,   3.15286E+06
C:/temp/Job-6.odb,Step-1,Increment      1: Step Time =    1.000,"P-6-1",          1380,       169.348,       113.821,            0.,NA,NA,"",   1.03402E+06,  -17.8085E+03,  -17.8085E+03
C:/temp/Job-6.odb,Step-1,Increment      1: Step Time =    1.000,"P-6-1",          1381,       162.453,       123.827,            0.,NA,NA,"",   1.43754E+06,  -415.319E+03,  -415.319E+03
C:/temp/Job-6.odb,Step-1,Increment      1: Step Time =    1.000,"P-6-1",          1382,       158.188,       16.0955,            0.,NA,NA,"",   1.22482E+06,   1.18511E+06,   1.18511E+06
C:/temp/Job-6.odb,Step-1,Increment      1: Step Time =    1.000,"P-6-1",          1383,       19.2169,       25.2829,            0.,NA,NA,"",   1.84441E+06,   1.88667E+06,   1.88667E+06
C:/temp/Job-6.odb,Step-1,Increment      1: Step Time =    1.000,"P-6-1",          1384,       22.5439,       12.5714,            0.,NA,NA,"",   2.38960E+06,   2.39345E+06,   2.39345E+06
C:/temp/Job-6.odb,Step-1,Increment      1: Step Time =    1.000,"P-6-1",          1385,       180.807,       50.6106,            0.,NA,NA,"",   1.47815E+06,   1.44306E+06,   1.44306E+06
C:/temp/Job-6.odb,Step-1,Increment      1: Step Time =    1.000,"P-6-1",          1386,       149.360,       180.975,            0.,NA,NA,"",   1.38960E+06,   1.34421E+06,   1.34421E+06
C:/temp/Job-6.odb,Step-1,Increment      1: Step Time =    1.000,"P-6-1",          1387,       177.285,       173.558,            0.,NA,NA,"",   1.23399E+06,   1.21296E+06,   1.21296E+06
C:/temp/Job-6.odb,Step-1,Increment      1: Step Time =    1.000,"P-6-1",          1388,       175.681,       170.407,            0.,NA,NA,"",   1.31588E+06,   1.28105E+06,   1.28105E+06
C:/temp/Job-6.odb,Step-1,Increment      1: Step Time =    1.000,"P-6-1",          1389,       27.4384,       177.969,            0.,NA,NA,"",   2.04684E+06,   2.02734E+06,   2.02734E+06
C:/temp/Job-6.odb,Step-1,Increment      1: Step Time =    1.000,"P-6-1",          1390,       31.0346,       175.679,            0.,NA,NA,"",   1.99468E+06,   1.94962E+06,   1.94962E+06
C:/temp/Job-6.odb,Step-1,Increment      1: Step Time =    1.000,"P-6-1",          1391,       45.5536,       145.300,            0.,NA,NA,"",   940.477E+03,   707.951E+03,   707.951E+03
C:/temp/Job-6.odb,Step-1,Increment      1: Step Time =    1.000,"P-6-1",          1392,       41.9718,       142.983,            0.,NA,NA,"",   780.067E+03,   565.409E+03,   565.409E+03
C:/temp/Job-6.odb,Step-1,Increment      1: Step Time =    1.000,"P-6-1",          1393,       97.9349,       30.3278,            0.,NA,NA,"",   2.69333E+06,   2.82245E+06,   2.82245E+06
C:/temp/Job-6.odb,Step-1,Increment      1: Step Time =    1.000,"P-6-1",          1394,       18.1353,       36.5646,            0.,NA,NA,"",   1.37355E+06,   1.41531E+06,   1.41531E+06
C:/temp/Job-6.odb,Step-1,Increment      1: Step Time =    1.000,"P-6-1",          1395,       12.8455,       49.1553,            0.,NA,NA,"",   814.334E+03,   872.878E+03,   872.878E+03
C:/temp/Job-6.odb,Step-1,Increment      1: Step Time =    1.000,"P-6-1",          1396,       11.9751,       56.8171,            0.,NA,NA,"",   546.484E+03,   592.115E+03,   592.115E+03
C:/temp/Job-6.odb,Step-1,Increment      1: Step Time =    1.000,"P-6-1",          1397,       12.1503,       64.9230,            0.,NA,NA,"",   294.669E+03,   319.155E+03,   319.155E+03
C:/temp/Job-6.odb,Step-1,Increment      1: Step Time =    1.000,"P-6-1",          1398,       17.6896,       141.330,            0.,NA,NA,"",   496.936E+03,   515.214E+03,   515.214E+03
C:/temp/Job-6.odb,Step-1,Increment      1: Step Time =    1.000,"P-6-1",          1399,       19.9556,       144.664,            0.,NA,NA,"",   633.863E+03,   645.612E+03,   645.612E+03
C:/temp/Job-6.odb,Step-1,Increment      1: Step Time =    1.000,"P-6-1",          1400,       119.762,       31.1592,            0.,NA,NA,"",   2.39046E+06,   2.56028E+06,   2.56028E+06
C:/temp/Job-6.odb,Step-1,Increment      1: Step Time =    1.000,"P-6-1",          1401,       122.936,       31.5464,            0.,NA,NA,"",   2.35651E+06,   2.51293E+06,   2.51293E+06
C:/temp/Job-6.odb,Step-1,Increment      1: Step Time =    1.000,"P-6-1",          1402,       172.535,       18.1996,            0.,NA,NA,"",   1.16873E+06,   1.14691E+06,   1.14691E+06
C:/temp/Job-6.odb,Step-1,Increment      1: Step Time =    1.000,"P-6-1",          1403,       168.474,       18.1447,            0.,NA,NA,"",   1.20989E+06,   1.17875E+06,   1.17875E+06
C:/temp/Job-6.odb,Step-1,Increment      1: Step Time =    1.000,"P-6-1",          1404,       158.211,       18.8887,            0.,NA,NA,"",   1.31183E+06,   1.26299E+06,   1.26299E+06
C:/temp/Job-6.odb,Step-1,Increment      1: Step Time =    1.000,"P-6-1",          1405,       34.0374,       119.367,            0.,NA,NA,"",   338.534E+03,  -373.122E+03,  -373.122E+03
C:/temp/Job-6.odb,Step-1,Increment      1: Step Time =    1.000,"P-6-1",          1406,       30.8648,       79.5394,            0.,NA,NA,"",   234.560E+03,  -263.633E+03,  -263.633E+03
C:/temp/Job-6.odb,Step-1,Increment      1: Step Time =    1.000,"P-6-1",          1407,       183.036,       40.0635,            0.,NA,NA,"",   1.26144E+06,   1.26870E+06,   1.26870E+06
C:/temp/Job-6.odb,Step-1,Increment      1: Step Time =    1.000,"P-6-1",          1408,       147.808,       17.6371,            0.,NA,NA,"",   1.34900E+06,   1.30975E+06,   1.30975E+06
C:/temp/Job-6.odb,Step-1,Increment      1: Step Time =    1.000,"P-6-1",          1409,       143.991,       17.8053,            0.,NA,NA,"",   1.36040E+06,   1.33076E+06,   1.33076E+06
C:/temp/Job-6.odb,Step-1,Increment      1: Step Time =    1.000,"P-6-1",          1410,       108.296,       18.9063,            0.,NA,NA,"",   1.55003E+06,   1.64843E+06,   1.64843E+06
C:/temp/Job-6.odb,Step-1,Increment      1: Step Time =    1.000,"P-6-1",          1411,       104.361,       19.3705,            0.,NA,NA,"",   1.66955E+06,   1.75755E+06,   1.75755E+06
C:/temp/Job-6.odb,Step-1,Increment      1: Step Time =    1.000,"P-6-1",          1412,       72.7635,       17.4705,            0.,NA,NA,"",   2.15583E+06,   2.04118E+06,   2.04118E+06
C:/temp/Job-6.odb,Step-1,Increment      1: Step Time =    1.000,"P-6-1",          1413,       58.3703,       17.1333,            0.,NA,NA,"",   2.21086E+06,   2.10044E+06,   2.10044E+06
C:/temp/Job-6.odb,Step-1,Increment      1: Step Time =    1.000,"P-6-1",          1414,       56.5216,       19.4721,            0.,NA,NA,"",   2.22179E+06,   2.09620E+06,   2.09620E+06
C:/temp/Job-6.odb,Step-1,Increment      1: Step Time =    1.000,"P-6-1",          1415,       53.4409,       22.6417,            0.,NA,NA,"",   2.20125E+06,   2.06153E+06,   2.06153E+06
C:/temp/Job-6.odb,Step-1,Increment      1: Step Time =    1.000,"P-6-1",          1416,       158.750,       181.908,            0.,NA,NA,"",   1.30252E+06,   1.25635E+06,   1.25635E+06
C:/temp/Job-6.odb,Step-1,Increment      1: Step Time =    1.000,"P-6-1",          1417,       107.367,       172.891,            0.,NA,NA,"",   2.29428E+06,   2.45567E+06,   2.45567E+06
C:/temp/Job-6.odb,Step-1,Increment      1: Step Time =    1.000,"P-6-1",          1418,       95.8337,       172.196,            0.,NA,NA,"",   2.45746E+06,   2.55829E+06,   2.55829E+06
C:/temp/Job-6.odb,Step-1,Increment      1: Step Time =    1.000,"P-6-1",          1419,       134.050,       167.986,            0.,NA,NA,"",    2.1251E+06,   2.18424E+06,   2.18424E+06
C:/temp/Job-6.odb,Step-1,Increment      1: Step Time =    1.000,"P-6-1",          1420,       52.8692,       156.254,            0.,NA,NA,"",   1.68014E+06,   1.43569E+06,   1.43569E+06
C:/temp/Job-6.odb,Step-1,Increment      1: Step Time =    1.000,"P-6-1",          1421,       167.802,       126.918,            0.,NA,NA,"",   1.63000E+06,   1.18123E+06,   1.18123E+06
C:/temp/Job-6.odb,Step-1,Increment      1: Step Time =    1.000,"P-6-1",          1422,       128.341,       169.318,            0.,NA,NA,"",   2.16323E+06,   2.27304E+06,   2.27304E+06
C:/temp/Job-6.odb,Step-1,Increment      1: Step Time =    1.000,"P-6-1",          1423,       66.5280,       34.7616,            0.,NA,NA,"",   2.29316E+06,   2.10677E+06,   2.10677E+06
C:/temp/Job-6.odb,Step-1,Increment      1: Step Time =    1.000,"P-6-1",          1424,       62.1951,       37.3668,            0.,NA,NA,"",   2.13429E+06,   1.91869E+06,   1.91869E+06
C:/temp/Job-6.odb,Step-1,Increment      1: Step Time =    1.000,"P-6-1",          1425,       21.1270,       44.2804,            0.,NA,NA,"",   1.10647E+06,   1.11851E+06,   1.11851E+06
C:/temp/Job-6.odb,Step-1,Increment      1: Step Time =    1.000,"P-6-1",          1426,       184.013,       146.925,            0.,NA,NA,"",   1.37846E+06,   1.40321E+06,   1.40321E+06
C:/temp/Job-6.odb,Step-1,Increment      1: Step Time =    1.000,"P-6-1",          1427,       70.6363,       176.553,            0.,NA,NA,"",   2.34078E+06,   2.19454E+06,   2.19454E+06
C:/temp/Job-6.odb,Step-1,Increment      1: Step Time =    1.000,"P-6-1",          1428,       67.7637,       177.124,            0.,NA,NA,"",   2.32873E+06,   2.17441E+06,   2.17441E+06
C:/temp/Job-6.odb,Step-1,Increment      1: Step Time =    1.000,"P-6-1",          1429,       181.741,       140.164,            0.,NA,NA,"",   1.51395E+06,   1.49809E+06,   1.49809E+06
C:/temp/Job-6.odb,Step-1,Increment      1: Step Time =    1.000,"P-6-1",          1430,       176.980,       165.931,            0.,NA,NA,"",   1.35165E+06,   1.31594E+06,   1.31594E+06
C:/temp/Job-6.odb,Step-1,Increment      1: Step Time =    1.000,"P-6-1",          1431,       160.710,       131.563,            0.,NA,NA,"",   1.75524E+06,   1.24310E+06,   1.24310E+06
C:/temp/Job-6.odb,Step-1,Increment      1: Step Time =    1.000,"P-6-1",          1432,       150.304,       176.272,            0.,NA,NA,"",   1.57409E+06,   1.51587E+06,   1.51587E+06
C:/temp/Job-6.odb,Step-1,Increment      1: Step Time =    1.000,"P-6-1",          1433,       63.2874,       175.544,            0.,NA,NA,"",   2.29848E+06,   2.12839E+06,   2.12839E+06
C:/temp/Job-6.odb,Step-1,Increment      1: Step Time =    1.000,"P-6-1",          1434,       141.555,       159.833,            0.,NA,NA,"",   2.28810E+06,   2.26401E+06,   2.26401E+06
C:/temp/Job-6.odb,Step-1,Increment      1: Step Time =    1.000,"P-6-1",          1435,       147.544,       148.725,            0.,NA,NA,"",   2.21868E+06,   2.07092E+06,   2.07092E+06
C:/temp/Job-6.odb,Step-1,Increment      1: Step Time =    1.000,"P-6-1",          1436,       172.614,       50.8915,            0.,NA,NA,"",   1.76423E+06,   1.59385E+06,   1.59385E+06
C:/temp/Job-6.odb,Step-1,Increment      1: Step Time =    1.000,"P-6-1",          1437,       180.889,       135.863,            0.,NA,NA,"",   1.56016E+06,   1.52187E+06,   1.52187E+06
C:/temp/Job-6.odb,Step-1,Increment      1: Step Time =    1.000,"P-6-1",          1438,       75.5265,       20.6862,            0.,NA,NA,"",   2.25802E+06,   2.14367E+06,   2.14367E+06
C:/temp/Job-6.odb,Step-1,Increment      1: Step Time =    1.000,"P-6-1",          1439,       68.3567,       22.1991,            0.,NA,NA,"",   2.28994E+06,   2.14257E+06,   2.14257E+06
C:/temp/Job-6.odb,Step-1,Increment      1: Step Time =    1.000,"P-6-1",          1440,       64.0667,       21.8577,            0.,NA,NA,"",   2.27532E+06,   2.12160E+06,   2.12160E+06
C:/temp/Job-6.odb,Step-1,Increment      1: Step Time =    1.000,"P-6-1",          1441,       18.7043,       29.3835,            0.,NA,NA,"",   1.67684E+06,   1.71982E+06,   1.71982E+06
C:/temp/Job-6.odb,Step-1,Increment      1: Step Time =    1.000,"P-6-1",          1442,       21.9651,       35.7976,            0.,NA,NA,"",   1.45059E+06,   1.46161E+06,   1.46161E+06
C:/temp/Job-6.odb,Step-1,Increment      1: Step Time =    1.000,"P-6-1",          1443,       23.1990,       39.2669,            0.,NA,NA,"",   1.33991E+06,   1.34207E+06,   1.34207E+06
C:/temp/Job-6.odb,Step-1,Increment      1: Step Time =    1.000,"P-6-1",          1444,       164.202,       134.731,            0.,NA,NA,"",   1.88466E+06,   1.45541E+06,   1.45541E+06
C:/temp/Job-6.odb,Step-1,Increment      1: Step Time =    1.000,"P-6-1",          1445,       179.760,       160.125,            0.,NA,NA,"",   1.36371E+06,   1.33662E+06,   1.33662E+06
C:/temp/Job-6.odb,Step-1,Increment      1: Step Time =    1.000,"P-6-1",          1446,       58.3069,       25.6840,            0.,NA,NA,"",   2.24273E+06,   2.06779E+06,   2.06779E+06
C:/temp/Job-6.odb,Step-1,Increment      1: Step Time =    1.000,"P-6-1",          1447,       166.327,       146.550,            0.,NA,NA,"",   1.94518E+06,   1.67960E+06,   1.67960E+06
C:/temp/Job-6.odb,Step-1,Increment      1: Step Time =    1.000,"P-6-1",          1448,       38.6229,       145.919,            0.,NA,NA,"",   902.827E+03,   738.025E+03,   738.025E+03
C:/temp/Job-6.odb,Step-1,Increment      1: Step Time =    1.000,"P-6-1",          1449,       182.632,       115.880,            0.,NA,NA,"",   1.19034E+06,   1.30151E+06,   1.30151E+06
C:/temp/Job-6.odb,Step-1,Increment      1: Step Time =    1.000,"P-6-1",          1450,       91.6952,       176.337,            0.,NA,NA,"",   2.21593E+06,   2.24682E+06,   2.24682E+06
C:/temp/Job-6.odb,Step-1,Increment      1: Step Time =    1.000,"P-6-1",          1451,       151.467,       54.0034,            0.,NA,NA,"",   2.10201E+06,   1.87587E+06,   1.87587E+06
C:/temp/Job-6.odb,Step-1,Increment      1: Step Time =    1.000,"P-6-1",          1452,       171.240,       183.168,            0.,NA,NA,"",   1.15213E+06,   1.13068E+06,   1.13068E+06
C:/temp/Job-6.odb,Step-1,Increment      1: Step Time =    1.000,"P-6-1",          1453,       125.194,       28.7019,            0.,NA,NA,"",   2.09121E+06,   2.22148E+06,   2.22148E+06
C:/temp/Job-6.odb,Step-1,Increment      1: Step Time =    1.000,"P-6-1",          1454,       12.7751,       166.671,            0.,NA,NA,"",   1.42210E+06,   1.50991E+06,   1.50991E+06
C:/temp/Job-6.odb,Step-1,Increment      1: Step Time =    1.000,"P-6-1",          1455,       104.051,       176.919,            0.,NA,NA,"",   1.97779E+06,   2.09549E+06,   2.09549E+06
C:/temp/Job-6.odb,Step-1,Increment      1: Step Time =    1.000,"P-6-1",          1456,       50.5133,       180.473,            0.,NA,NA,"",   2.20255E+06,   2.09207E+06,   2.09207E+06
C:/temp/Job-6.odb,Step-1,Increment      1: Step Time =    1.000,"P-6-1",          1457,       173.095,       166.433,            0.,NA,NA,"",   1.43828E+06,   1.37825E+06,   1.37825E+06
C:/temp/Job-6.odb,Step-1,Increment      1: Step Time =    1.000,"P-6-1",          1458,       169.781,       54.6990,            0.,NA,NA,"",   1.87913E+06,   1.63794E+06,   1.63794E+06
C:/temp/Job-6.odb,Step-1,Increment      1: Step Time =    1.000,"P-6-1",          1459,       147.352,       20.8958,            0.,NA,NA,"",   1.49046E+06,   1.44626E+06,   1.44626E+06
C:/temp/Job-6.odb,Step-1,Increment      1: Step Time =    1.000,"P-6-1",          1460,       27.0193,       94.0666,            0.,NA,NA,"",   237.485E+03,  -265.869E+03,  -265.869E+03
C:/temp/Job-6.odb,Step-1,Increment      1: Step Time =    1.000,"P-6-1",          1461,       19.4557,       156.752,            0.,NA,NA,"",   1.11308E+06,   1.13890E+06,   1.13890E+06
C:/temp/Job-6.odb,Step-1,Increment      1: Step Time =    1.000,"P-6-1",          1462,       16.2125,       53.5347,            0.,NA,NA,"",   681.692E+03,   716.510E+03,   716.510E+03
C:/temp/Job-6.odb,Step-1,Increment      1: Step Time =    1.000,"P-6-1",          1463,       15.4793,       61.0968,            0.,NA,NA,"",   415.782E+03,   440.717E+03,   440.717E+03
C:/temp/Job-6.odb,Step-1,Increment      1: Step Time =    1.000,"P-6-1",          1464,       22.4677,       175.433,            0.,NA,NA,"",   1.91537E+06,   1.92959E+06,   1.92959E+06
C:/temp/Job-6.odb,Step-1,Increment      1: Step Time =    1.000,"P-6-1",          1465,       28.7904,       171.947,            0.,NA,NA,"",   1.84687E+06,   1.80957E+06,   1.80957E+06
C:/temp/Job-6.odb,Step-1,Increment      1: Step Time =    1.000,"P-6-1",          1466,       58.2327,       173.288,            0.,NA,NA,"",   2.24280E+06,   2.05913E+06,   2.05913E+06
C:/temp/Job-6.odb,Step-1,Increment      1: Step Time =    1.000,"P-6-1",          1467,       52.5471,       161.578,            0.,NA,NA,"",   1.89475E+06,   1.66543E+06,   1.66543E+06
C:/temp/Job-6.odb,Step-1,Increment      1: Step Time =    1.000,"P-6-1",          1468,       46.7306,       157.366,            0.,NA,NA,"",   1.61316E+06,   1.40344E+06,   1.40344E+06
C:/temp/Job-6.odb,Step-1,Increment      1: Step Time =    1.000,"P-6-1",          1469,       179.662,       41.5227,            0.,NA,NA,"",   1.39802E+06,   1.36431E+06,   1.36431E+06
C:/temp/Job-6.odb,Step-1,Increment      1: Step Time =    1.000,"P-6-1",          1470,       176.663,       148.285,            0.,NA,NA,"",   1.64128E+06,   1.53039E+06,   1.53039E+06
C:/temp/Job-6.odb,Step-1,Increment      1: Step Time =    1.000,"P-6-1",          1471,       172.509,       173.529,            0.,NA,NA,"",   1.32091E+06,   1.28024E+06,   1.28024E+06
C:/temp/Job-6.odb,Step-1,Increment      1: Step Time =    1.000,"P-6-1",          1472,       22.0811,       132.622,            0.,NA,NA,"",   241.715E+03,   226.836E+03,   226.836E+03
C:/temp/Job-6.odb,Step-1,Increment      1: Step Time =    1.000,"P-6-1",          1473,       176.018,       22.9649,            0.,NA,NA,"",   1.20457E+06,   1.18432E+06,   1.18432E+06
C:/temp/Job-6.odb,Step-1,Increment      1: Step Time =    1.000,"P-6-1",          1474,       157.767,       21.7050,            0.,NA,NA,"",   1.42197E+06,   1.36163E+06,   1.36163E+06
C:/temp/Job-6.odb,Step-1,Increment      1: Step Time =    1.000,"P-6-1",          1475,       29.7207,       120.506,            0.,NA,NA,"",   209.746E+03,  -237.102E+03,  -237.102E+03
C:/temp/Job-6.odb,Step-1,Increment      1: Step Time =    1.000,"P-6-1",          1476,       144.068,       163.465,            0.,NA,NA,"",   2.14028E+06,   2.09019E+06,   2.09019E+06
C:/temp/Job-6.odb,Step-1,Increment      1: Step Time =    1.000,"P-6-1",          1477,       68.1535,       27.4571,            0.,NA,NA,"",   2.35459E+06,   2.18650E+06,   2.18650E+06
C:/temp/Job-6.odb,Step-1,Increment      1: Step Time =    1.000,"P-6-1",          1478,       23.5970,       28.9945,            0.,NA,NA,"",   1.74541E+06,   1.74969E+06,   1.74969E+06
C:/temp/Job-6.odb,Step-1,Increment      1: Step Time =    1.000,"P-6-1",          1479,       158.243,       152.970,            0.,NA,NA,"",   2.06887E+06,   1.84655E+06,   1.84655E+06
C:/temp/Job-6.odb,Step-1,Increment      1: Step Time =    1.000,"P-6-1",          1480,       69.2985,       178.235,            0.,NA,NA,"",   2.31121E+06,   2.16707E+06,   2.16707E+06
C:/temp/Job-6.odb,Step-1,Increment      1: Step Time =    1.000,"P-6-1",          1481,       175.432,       82.4106,            0.,NA,NA,"",   1.19063E+06,   1.06285E+06,   1.06285E+06
C:/temp/Job-6.odb,Step-1,Increment      1: Step Time =    1.000,"P-6-1",          1482,       175.110,       27.4476,            0.,NA,NA,"",   1.29363E+06,   1.26045E+06,   1.26045E+06
C:/temp/Job-6.odb,Step-1,Increment      1: Step Time =    1.000,"P-6-1",          1483,       18.2335,       164.266,            0.,NA,NA,"",   1.40797E+06,   1.44985E+06,   1.44985E+06
C:/temp/Job-6.odb,Step-1,Increment      1: Step Time =    1.000,"P-6-1",          1484,       38.2782,       17.1201,            0.,NA,NA,"",   2.21615E+06,   2.16045E+06,   2.16045E+06
C:/temp/Job-6.odb,Step-1,Increment      1: Step Time =    1.000,"P-6-1",          1485,       142.576,       40.3871,            0.,NA,NA,"",   2.26275E+06,   2.22504E+06,   2.22504E+06
C:/temp/Job-6.odb,Step-1,Increment      1: Step Time =    1.000,"P-6-1",          1486,       147.264,       160.511,            0.,NA,NA,"",   2.15050E+06,   2.05540E+06,   2.05540E+06
C:/temp/Job-6.odb,Step-1,Increment      1: Step Time =    1.000,"P-6-1",          1487,       43.4826,       22.1935,            0.,NA,NA,"",   2.13701E+06,   2.04229E+06,   2.04229E+06
C:/temp/Job-6.odb,Step-1,Increment      1: Step Time =    1.000,"P-6-1",          1488,       152.933,       24.2972,            0.,NA,NA,"",   1.56485E+06,   1.49748E+06,   1.49748E+06
C:/temp/Job-6.odb,Step-1,Increment      1: Step Time =    1.000,"P-6-1",          1489,       178.014,       32.5279,            0.,NA,NA,"",   1.31146E+06,   1.28321E+06,   1.28321E+06
C:/temp/Job-6.odb,Step-1,Increment      1: Step Time =    1.000,"P-6-1",          1490,       23.8632,       156.492,            0.,NA,NA,"",   1.16272E+06,   1.15490E+06,   1.15490E+06
C:/temp/Job-6.odb,Step-1,Increment      1: Step Time =    1.000,"P-6-1",          1491,       21.2708,       65.8518,            0.,NA,NA,"",   275.263E+03,   265.047E+03,   265.047E+03
C:/temp/Job-6.odb,Step-1,Increment      1: Step Time =    1.000,"P-6-1",          1492,       173.284,       87.6354,            0.,NA,NA,"",   909.581E+03,   709.621E+03,   709.621E+03
C:/temp/Job-6.odb,Step-1,Increment      1: Step Time =    1.000,"P-6-1",          1493,       24.0073,       171.107,            0.,NA,NA,"",   1.76097E+06,   1.76144E+06,   1.76144E+06
C:/temp/Job-6.odb,Step-1,Increment      1: Step Time =    1.000,"P-6-1",          1494,       176.350,       40.4822,            0.,NA,NA,"",   1.48483E+06,   1.41927E+06,   1.41927E+06
C:/temp/Job-6.odb,Step-1,Increment      1: Step Time =    1.000,"P-6-1",          1495,       167.811,       137.845,            0.,NA,NA,"",   1.90701E+06,   1.56518E+06,   1.56518E+06
C:/temp/Job-6.odb,Step-1,Increment      1: Step Time =    1.000,"P-6-1",          1496,       171.025,       145.714,            0.,NA,NA,"",   1.83208E+06,   1.61722E+06,   1.61722E+06
C:/temp/Job-6.odb,Step-1,Increment      1: Step Time =    1.000,"P-6-1",          1497,       159.808,       157.000,            0.,NA,NA,"",   1.98701E+06,   1.79948E+06,   1.79948E+06
C:/temp/Job-6.odb,Step-1,Increment      1: Step Time =    1.000,"P-6-1",          1498,       156.817,       158.845,            0.,NA,NA,"",   2.00876E+06,   1.84011E+06,   1.84011E+06
C:/temp/Job-6.odb,Step-1,Increment      1: Step Time =    1.000,"P-6-1",          1499,       26.9344,       38.0053,            0.,NA,NA,"",   1.43878E+06,   1.41078E+06,   1.41078E+06
C:/temp/Job-6.odb,Step-1,Increment      1: Step Time =    1.000,"P-6-1",          1500,       27.6070,       41.5063,            0.,NA,NA,"",   1.31792E+06,   1.28158E+06,   1.28158E+06
C:/temp/Job-6.odb,Step-1,Increment      1: Step Time =    1.000,"P-6-1",          1501,       48.2996,       30.2761,            0.,NA,NA,"",   2.03685E+06,   1.86537E+06,   1.86537E+06
C:/temp/Job-6.odb,Step-1,Increment      1: Step Time =    1.000,"P-6-1",          1502,       169.148,       160.110,            0.,NA,NA,"",   1.67428E+06,   1.55402E+06,   1.55402E+06
C:/temp/Job-6.odb,Step-1,Increment      1: Step Time =    1.000,"P-6-1",          1503,       29.9564,       135.096,            0.,NA,NA,"",   363.233E+03,   270.163E+03,   270.163E+03
C:/temp/Job-6.odb,Step-1,Increment      1: Step Time =    1.000,"P-6-1",          1504,       165.766,       54.1757,            0.,NA,NA,"",   1.98342E+06,   1.69168E+06,   1.69168E+06
C:/temp/Job-6.odb,Step-1,Increment      1: Step Time =    1.000,"P-6-1",          1505,       21.6600,       105.672,            0.,NA,NA,"",   195.826E+03,  -223.482E+03,  -223.482E+03
C:/temp/Job-6.odb,Step-1,Increment      1: Step Time =    1.000,"P-6-1",          1506,       48.1450,       161.768,            0.,NA,NA,"",   1.81359E+06,   1.60308E+06,   1.60308E+06
C:/temp/Job-6.odb,Step-1,Increment      1: Step Time =    1.000,"P-6-1",          1507,       53.5358,       169.892,            0.,NA,NA,"",   2.12917E+06,   1.93741E+06,   1.93741E+06
C:/temp/Job-6.odb,Step-1,Increment      1: Step Time =    1.000,"P-6-1",          1508,       175.132,       38.5273,            0.,NA,NA,"",   1.48179E+06,   1.41503E+06,   1.41503E+06
C:/temp/Job-6.odb,Step-1,Increment      1: Step Time =    1.000,"P-6-1",          1509,       172.991,       35.4300,            0.,NA,NA,"",   1.48366E+06,   1.41255E+06,   1.41255E+06
C:/temp/Job-6.odb,Step-1,Increment      1: Step Time =    1.000,"P-6-1",          1510,       46.1106,       33.0466,            0.,NA,NA,"",   1.93406E+06,   1.76145E+06,   1.76145E+06
C:/temp/Job-6.odb,Step-1,Increment      1: Step Time =    1.000,"P-6-1",          1511,       42.2051,       32.4965,            0.,NA,NA,"",   1.89265E+06,   1.74916E+06,   1.74916E+06
C:/temp/Job-6.odb,Step-1,Increment      1: Step Time =    1.000,"P-6-1",          1512,       181.303,       70.5158,            0.,NA,NA,"",   1.49976E+06,   1.48991E+06,   1.48991E+06
C:/temp/Job-6.odb,Step-1,Increment      1: Step Time =    1.000,"P-6-1",          1513,       166.388,       31.0114,            0.,NA,NA,"",   1.54389E+06,   1.45948E+06,   1.45948E+06
C:/temp/Job-6.odb,Step-1,Increment      1: Step Time =    1.000,"P-6-1",          1514,       162.802,       30.6696,            0.,NA,NA,"",   1.60654E+06,   1.51370E+06,   1.51370E+06
C:/temp/Job-6.odb,Step-1,Increment      1: Step Time =    1.000,"P-6-1",          1515,       26.0619,       168.497,            0.,NA,NA,"",   1.69014E+06,   1.67276E+06,   1.67276E+06
C:/temp/Job-6.odb,Step-1,Increment      1: Step Time =    1.000,"P-6-1",          1516,       170.727,       48.3263,            0.,NA,NA,"",   1.79460E+06,   1.61808E+06,   1.61808E+06
C:/temp/Job-6.odb,Step-1,Increment      1: Step Time =    1.000,"P-6-1",          1517,       24.3425,       56.7374,            0.,NA,NA,"",   627.650E+03,   605.853E+03,   605.853E+03
C:/temp/Job-6.odb,Step-1,Increment      1: Step Time =    1.000,"P-6-1",          1518,       162.899,       49.5424,            0.,NA,NA,"",   2.00464E+06,   1.75910E+06,   1.75910E+06
C:/temp/Job-6.odb,Step-1,Increment      1: Step Time =    1.000,"P-6-1",          1519,       44.8055,       50.4333,            0.,NA,NA,"",   1.17065E+06,   960.039E+03,   960.039E+03
C:/temp/Job-6.odb,Step-1,Increment      1: Step Time =    1.000,"P-6-1",          1520,       138.214,       27.7969,            0.,NA,NA,"",   1.88239E+06,   1.89103E+06,   1.89103E+06
C:/temp/Job-6.odb,Step-1,Increment      1: Step Time =    1.000,"P-6-1",          1521,       176.493,       77.2744,            0.,NA,NA,"",   1.41455E+06,   1.26529E+06,   1.26529E+06
C:/temp/Job-6.odb,Step-1,Increment      1: Step Time =    1.000,"P-6-1",          1522,       46.4748,       42.8916,            0.,NA,NA,"",   1.58557E+06,   1.38026E+06,   1.38026E+06
C:/temp/Job-6.odb,Step-1,Increment      1: Step Time =    1.000,"P-6-1",          1523,       167.338,       45.6794,            0.,NA,NA,"",   1.84551E+06,   1.66197E+06,   1.66197E+06
C:/temp/Job-6.odb,Step-1,Increment      1: Step Time =    1.000,"P-6-1",          1524,       47.0022,       165.890,            0.,NA,NA,"",   1.92609E+06,   1.74203E+06,   1.74203E+06
C:/temp/Job-6.odb,Step-1,Increment      1: Step Time =    1.000,"P-6-1",          1525,       165.596,       35.3985,            0.,NA,NA,"",   1.66677E+06,   1.55433E+06,   1.55433E+06
C:/temp/Job-6.odb,Step-1,Increment      1: Step Time =    1.000,"P-6-1",          1526,       170.668,       43.3685,            0.,NA,NA,"",   1.70640E+06,   1.57114E+06,   1.57114E+06
C:/temp/Job-6.odb,Step-1,Increment      1: Step Time =    1.000,"P-6-1",          1527,       150.955,       28.7131,            0.,NA,NA,"",   1.75534E+06,   1.67612E+06,   1.67612E+06
C:/temp/Job-6.odb,Step-1,Increment      1: Step Time =    1.000,"P-6-1",          1528,       158.357,       33.7662,            0.,NA,NA,"",   1.79372E+06,   1.67492E+06,   1.67492E+06
C:/temp/Job-6.odb,Step-1,Increment      1: Step Time =    1.000,"P-6-1",          1529,       160.727,       38.9642,            0.,NA,NA,"",   1.86625E+06,   1.71563E+06,   1.71563E+06
C:/temp/Job-6.odb,Step-1,Increment      1: Step Time =    1.000,"P-6-1",          1530,       158.831,       42.0918,            0.,NA,NA,"",   1.98132E+06,   1.80279E+06,   1.80279E+06
C:/temp/Job-6.odb,Step-1,Increment      1: Step Time =    1.000,"P-6-1",          1531,       148.746,       32.9711,            0.,NA,NA,"",   1.93593E+06,   1.85492E+06,   1.85492E+06
