ODB Name,Step,Frame,Part Instance Name,    Node Label,X,Y,Z,Section Name,Material Name,Section Point,       S-Mises,S-Max. In-Plane Principal (Abs),S-Max. Principal (Abs)
C:/temp/Job-8.odb,Step-1,Increment      1: Step Time =    1.000,"P-8-1",             1,          90.5,       116.454,            0.,NA,NA,"",   1.74464E+06,   1.79549E+06,   1.79549E+06
C:/temp/Job-8.odb,Step-1,Increment      1: Step Time =    1.000,"P-8-1",             2,       83.5455,         109.5,            0.,NA,NA,"",   679.148E+03,   357.982E+03,   357.982E+03
C:/temp/Job-8.odb,Step-1,Increment      1: Step Time =    1.000,"P-8-1",             3,           81.,          100.,            0.,NA,NA,"",   600.532E+03,  -603.174E+03,  -603.174E+03
C:/temp/Job-8.odb,Step-1,Increment      1: Step Time =    1.000,"P-8-1",             4,       81.6474,       95.0824,            0.,NA,NA,"",   500.255E+03,  -412.876E+03,  -412.876E+03
C:/temp/Job-8.odb,Step-1,Increment      1: Step Time =    1.000,"P-8-1",             5,       86.5650,       86.5650,            0.,NA,NA,"",   1.05579E+06,   1.05669E+06,   1.05669E+06
C:/temp/Job-8.odb,Step-1,Increment      1: Step Time =    1.000,"P-8-1",             6,       95.0824,       81.6474,            0.,NA,NA,"",   2.12634E+06,   2.20883E+06,   2.20883E+06
C:/temp/Job-8.odb,Step-1,Increment      1: Step Time =    1.000,"P-8-1",             7,       104.918,       81.6474,            0.,NA,NA,"",   2.24284E+06,   2.32407E+06,   2.32407E+06
C:/temp/Job-8.odb,Step-1,Increment      1: Step Time =    1.000,"P-8-1",             8,       113.435,       86.5650,            0.,NA,NA,"",   995.339E+03,   981.919E+03,   981.919E+03
C:/temp/Job-8.odb,Step-1,Increment      1: Step Time =    1.000,"P-8-1",             9,       118.353,       95.0824,            0.,NA,NA,"",   552.635E+03,  -479.551E+03,  -479.551E+03
C:/temp/Job-8.odb,Step-1,Increment      1: Step Time =    1.000,"P-8-1",            10,          119.,          100.,            0.,NA,NA,"",   668.250E+03,  -662.359E+03,  -662.359E+03
C:/temp/Job-8.odb,Step-1,Increment      1: Step Time =    1.000,"P-8-1",            11,       116.454,         109.5,            0.,NA,NA,"",   775.626E+03,   401.182E+03,   401.182E+03
C:/temp/Job-8.odb,Step-1,Increment      1: Step Time =    1.000,"P-8-1",            12,         109.5,       116.454,            0.,NA,NA,"",   1.83954E+06,   1.89063E+06,   1.89063E+06
C:/temp/Job-8.odb,Step-1,Increment      1: Step Time =    1.000,"P-8-1",            13,          100.,          119.,            0.,NA,NA,"",   2.27790E+06,   2.40029E+06,   2.40029E+06
C:/temp/Job-8.odb,Step-1,Increment      1: Step Time =    1.000,"P-8-1",            14,          190.,            0.,            0.,NA,NA,"",   999.386E+03,   999.406E+03,   999.406E+03
C:/temp/Job-8.odb,Step-1,Increment      1: Step Time =    1.000,"P-8-1",            15,          180.,            0.,            0.,NA,NA,"",   999.153E+03,   999.155E+03,   999.155E+03
C:/temp/Job-8.odb,Step-1,Increment      1: Step Time =    1.000,"P-8-1",            16,          170.,            0.,            0.,NA,NA,"",   998.825E+03,   998.701E+03,   998.701E+03
C:/temp/Job-8.odb,Step-1,Increment      1: Step Time =    1.000,"P-8-1",            17,          160.,            0.,            0.,NA,NA,"",   995.123E+03,   994.986E+03,   994.986E+03
C:/temp/Job-8.odb,Step-1,Increment      1: Step Time =    1.000,"P-8-1",            18,          150.,            0.,            0.,NA,NA,"",   984.721E+03,   984.528E+03,   984.528E+03
C:/temp/Job-8.odb,Step-1,Increment      1: Step Time =    1.000,"P-8-1",            19,          140.,            0.,            0.,NA,NA,"",   966.051E+03,   965.788E+03,   965.788E+03
C:/temp/Job-8.odb,Step-1,Increment      1: Step Time =    1.000,"P-8-1",            20,          130.,            0.,            0.,NA,NA,"",   941.532E+03,   941.430E+03,   941.430E+03
C:/temp/Job-8.odb,Step-1,Increment      1: Step Time =    1.000,"P-8-1",            21,          120.,            0.,            0.,NA,NA,"",   916.265E+03,   916.470E+03,   916.470E+03
C:/temp/Job-8.odb,Step-1,Increment      1: Step Time =    1.000,"P-8-1",            22,          110.,            0.,            0.,NA,NA,"",   898.050E+03,   898.495E+03,   898.495E+03
C:/temp/Job-8.odb,Step-1,Increment      1: Step Time =    1.000,"P-8-1",            23,          100.,            0.,            0.,NA,NA,"",   894.024E+03,   894.545E+03,   894.545E+03
C:/temp/Job-8.odb,Step-1,Increment      1: Step Time =    1.000,"P-8-1",            24,           90.,            0.,            0.,NA,NA,"",   907.081E+03,   907.477E+03,   907.477E+03
C:/temp/Job-8.odb,Step-1,Increment      1: Step Time =    1.000,"P-8-1",            25,           80.,            0.,            0.,NA,NA,"",   934.163E+03,   934.346E+03,   934.346E+03
C:/temp/Job-8.odb,Step-1,Increment      1: Step Time =    1.000,"P-8-1",            26,           70.,            0.,            0.,NA,NA,"",   968.990E+03,   968.958E+03,   968.958E+03
C:/temp/Job-8.odb,Step-1,Increment      1: Step Time =    1.000,"P-8-1",            27,           60.,            0.,            0.,NA,NA,"",   1.00495E+06,   1.00475E+06,   1.00475E+06
C:/temp/Job-8.odb,Step-1,Increment      1: Step Time =    1.000,"P-8-1",            28,           50.,            0.,            0.,NA,NA,"",   1.03769E+06,   1.03739E+06,   1.03739E+06
C:/temp/Job-8.odb,Step-1,Increment      1: Step Time =    1.000,"P-8-1",            29,           40.,            0.,            0.,NA,NA,"",   1.06749E+06,   1.06723E+06,   1.06723E+06
C:/temp/Job-8.odb,Step-1,Increment      1: Step Time =    1.000,"P-8-1",            30,           30.,            0.,            0.,NA,NA,"",   1.10140E+06,   1.10150E+06,   1.10150E+06
C:/temp/Job-8.odb,Step-1,Increment      1: Step Time =    1.000,"P-8-1",            31,           20.,            0.,            0.,NA,NA,"",   1.15846E+06,   1.15916E+06,   1.15916E+06
C:/temp/Job-8.odb,Step-1,Increment      1: Step Time =    1.000,"P-8-1",            32,           10.,            0.,            0.,NA,NA,"",   1.29917E+06,   1.30208E+06,   1.30208E+06
C:/temp/Job-8.odb,Step-1,Increment      1: Step Time =    1.000,"P-8-1",            33,          200.,            0.,            0.,NA,NA,"",   999.942E+03,   999.883E+03,   999.883E+03
C:/temp/Job-8.odb,Step-1,Increment      1: Step Time =    1.000,"P-8-1",            34,            0.,            0.,            0.,NA,NA,"",   1.64933E+06,   1.72722E+06,   1.72722E+06
C:/temp/Job-8.odb,Step-1,Increment      1: Step Time =    1.000,"P-8-1",            35,          200.,          190.,            0.,NA,NA,"",   1.00037E+06,   1.00009E+06,   1.00009E+06
C:/temp/Job-8.odb,Step-1,Increment      1: Step Time =    1.000,"P-8-1",            36,          200.,          180.,            0.,NA,NA,"",   1.00020E+06,   1.00033E+06,   1.00033E+06
C:/temp/Job-8.odb,Step-1,Increment      1: Step Time =    1.000,"P-8-1",            37,          200.,          170.,            0.,NA,NA,"",   997.537E+03,   1.00075E+06,   1.00075E+06
C:/temp/Job-8.odb,Step-1,Increment      1: Step Time =    1.000,"P-8-1",            38,          200.,          160.,            0.,NA,NA,"",   990.238E+03,   1.00064E+06,   1.00064E+06
C:/temp/Job-8.odb,Step-1,Increment      1: Step Time =    1.000,"P-8-1",            39,          200.,          150.,            0.,NA,NA,"",   978.067E+03,   1.00042E+06,   1.00042E+06
C:/temp/Job-8.odb,Step-1,Increment      1: Step Time =    1.000,"P-8-1",            40,          200.,          140.,            0.,NA,NA,"",   961.407E+03,   1.00043E+06,   1.00043E+06
C:/temp/Job-8.odb,Step-1,Increment      1: Step Time =    1.000,"P-8-1",            41,          200.,          130.,            0.,NA,NA,"",   943.228E+03,   1.00031E+06,   1.00031E+06
C:/temp/Job-8.odb,Step-1,Increment      1: Step Time =    1.000,"P-8-1",            42,          200.,          120.,            0.,NA,NA,"",   926.632E+03,   999.596E+03,   999.596E+03
C:/temp/Job-8.odb,Step-1,Increment      1: Step Time =    1.000,"P-8-1",            43,          200.,          110.,            0.,NA,NA,"",   915.024E+03,   998.723E+03,   998.723E+03
C:/temp/Job-8.odb,Step-1,Increment      1: Step Time =    1.000,"P-8-1",            44,          200.,          100.,            0.,NA,NA,"",   910.731E+03,   998.449E+03,   998.449E+03
C:/temp/Job-8.odb,Step-1,Increment      1: Step Time =    1.000,"P-8-1",            45,          200.,           90.,            0.,NA,NA,"",   914.889E+03,   998.793E+03,   998.793E+03
C:/temp/Job-8.odb,Step-1,Increment      1: Step Time =    1.000,"P-8-1",            46,          200.,           80.,            0.,NA,NA,"",   926.553E+03,   999.471E+03,   999.471E+03
C:/temp/Job-8.odb,Step-1,Increment      1: Step Time =    1.000,"P-8-1",            47,          200.,           70.,            0.,NA,NA,"",   943.410E+03,   1.00017E+06,   1.00017E+06
C:/temp/Job-8.odb,Step-1,Increment      1: Step Time =    1.000,"P-8-1",            48,          200.,           60.,            0.,NA,NA,"",   961.971E+03,   1.00060E+06,   1.00060E+06
C:/temp/Job-8.odb,Step-1,Increment      1: Step Time =    1.000,"P-8-1",            49,          200.,           50.,            0.,NA,NA,"",   978.545E+03,   1.00072E+06,   1.00072E+06
C:/temp/Job-8.odb,Step-1,Increment      1: Step Time =    1.000,"P-8-1",            50,          200.,           40.,            0.,NA,NA,"",   990.591E+03,   1.00062E+06,   1.00062E+06
C:/temp/Job-8.odb,Step-1,Increment      1: Step Time =    1.000,"P-8-1",            51,          200.,           30.,            0.,NA,NA,"",   997.518E+03,   1.00051E+06,   1.00051E+06
C:/temp/Job-8.odb,Step-1,Increment      1: Step Time =    1.000,"P-8-1",            52,          200.,           20.,            0.,NA,NA,"",   1.00014E+06,   1.00032E+06,   1.00032E+06
C:/temp/Job-8.odb,Step-1,Increment      1: Step Time =    1.000,"P-8-1",            53,          200.,           10.,            0.,NA,NA,"",   1.00036E+06,   1.00010E+06,   1.00010E+06
C:/temp/Job-8.odb,Step-1,Increment      1: Step Time =    1.000,"P-8-1",            54,          200.,          200.,            0.,NA,NA,"",   999.943E+03,   999.885E+03,   999.885E+03
C:/temp/Job-8.odb,Step-1,Increment      1: Step Time =    1.000,"P-8-1",            55,           10.,          200.,            0.,NA,NA,"",   1.30142E+06,   1.30402E+06,   1.30402E+06
C:/temp/Job-8.odb,Step-1,Increment      1: Step Time =    1.000,"P-8-1",            56,           20.,          200.,            0.,NA,NA,"",   1.16062E+06,   1.16137E+06,   1.16137E+06
C:/temp/Job-8.odb,Step-1,Increment      1: Step Time =    1.000,"P-8-1",            57,           30.,          200.,            0.,NA,NA,"",   1.10267E+06,   1.10293E+06,   1.10293E+06
C:/temp/Job-8.odb,Step-1,Increment      1: Step Time =    1.000,"P-8-1",            58,           40.,          200.,            0.,NA,NA,"",   1.06813E+06,   1.06812E+06,   1.06812E+06
C:/temp/Job-8.odb,Step-1,Increment      1: Step Time =    1.000,"P-8-1",            59,           50.,          200.,            0.,NA,NA,"",   1.03707E+06,   1.03702E+06,   1.03702E+06
C:/temp/Job-8.odb,Step-1,Increment      1: Step Time =    1.000,"P-8-1",            60,           60.,          200.,            0.,NA,NA,"",   1.00382E+06,   1.00359E+06,   1.00359E+06
C:/temp/Job-8.odb,Step-1,Increment      1: Step Time =    1.000,"P-8-1",            61,           70.,          200.,            0.,NA,NA,"",   968.413E+03,   968.206E+03,   968.206E+03
C:/temp/Job-8.odb,Step-1,Increment      1: Step Time =    1.000,"P-8-1",            62,           80.,          200.,            0.,NA,NA,"",   934.255E+03,   934.373E+03,   934.373E+03
C:/temp/Job-8.odb,Step-1,Increment      1: Step Time =    1.000,"P-8-1",            63,           90.,          200.,            0.,NA,NA,"",   907.636E+03,   908.160E+03,   908.160E+03
C:/temp/Job-8.odb,Step-1,Increment      1: Step Time =    1.000,"P-8-1",            64,          100.,          200.,            0.,NA,NA,"",   894.652E+03,   895.210E+03,   895.210E+03
C:/temp/Job-8.odb,Step-1,Increment      1: Step Time =    1.000,"P-8-1",            65,          110.,          200.,            0.,NA,NA,"",   898.750E+03,   899.163E+03,   899.163E+03
C:/temp/Job-8.odb,Step-1,Increment      1: Step Time =    1.000,"P-8-1",            66,          120.,          200.,            0.,NA,NA,"",   917.092E+03,   917.271E+03,   917.271E+03
C:/temp/Job-8.odb,Step-1,Increment      1: Step Time =    1.000,"P-8-1",            67,          130.,          200.,            0.,NA,NA,"",   942.437E+03,   942.402E+03,   942.402E+03
C:/temp/Job-8.odb,Step-1,Increment      1: Step Time =    1.000,"P-8-1",            68,          140.,          200.,            0.,NA,NA,"",   967.163E+03,   966.953E+03,   966.953E+03
C:/temp/Job-8.odb,Step-1,Increment      1: Step Time =    1.000,"P-8-1",            69,          150.,          200.,            0.,NA,NA,"",   985.594E+03,   985.316E+03,   985.316E+03
C:/temp/Job-8.odb,Step-1,Increment      1: Step Time =    1.000,"P-8-1",            70,          160.,          200.,            0.,NA,NA,"",   995.784E+03,   995.567E+03,   995.567E+03
C:/temp/Job-8.odb,Step-1,Increment      1: Step Time =    1.000,"P-8-1",            71,          170.,          200.,            0.,NA,NA,"",   999.155E+03,   999.061E+03,   999.061E+03
C:/temp/Job-8.odb,Step-1,Increment      1: Step Time =    1.000,"P-8-1",            72,          180.,          200.,            0.,NA,NA,"",   999.248E+03,   999.257E+03,   999.257E+03
C:/temp/Job-8.odb,Step-1,Increment      1: Step Time =    1.000,"P-8-1",            73,          190.,          200.,            0.,NA,NA,"",   999.378E+03,   999.407E+03,   999.407E+03
C:/temp/Job-8.odb,Step-1,Increment      1: Step Time =    1.000,"P-8-1",            74,            0.,          200.,            0.,NA,NA,"",   1.64934E+06,   1.72915E+06,   1.72915E+06
C:/temp/Job-8.odb,Step-1,Increment      1: Step Time =    1.000,"P-8-1",            75,            0.,           10.,            0.,NA,NA,"",   1.19638E+06,   1.30198E+06,   1.30198E+06
C:/temp/Job-8.odb,Step-1,Increment      1: Step Time =    1.000,"P-8-1",            76,            0.,           20.,            0.,NA,NA,"",   1.03750E+06,   1.14563E+06,   1.14563E+06
C:/temp/Job-8.odb,Step-1,Increment      1: Step Time =    1.000,"P-8-1",            77,            0.,           30.,            0.,NA,NA,"",   955.521E+03,   1.06305E+06,   1.06305E+06
C:/temp/Job-8.odb,Step-1,Increment      1: Step Time =    1.000,"P-8-1",            78,            0.,           40.,            0.,NA,NA,"",    898.57E+03,   1.00537E+06,   1.00537E+06
C:/temp/Job-8.odb,Step-1,Increment      1: Step Time =    1.000,"P-8-1",            79,            0.,           50.,            0.,NA,NA,"",   852.138E+03,   956.946E+03,   956.946E+03
C:/temp/Job-8.odb,Step-1,Increment      1: Step Time =    1.000,"P-8-1",            80,            0.,           60.,            0.,NA,NA,"",   810.092E+03,   912.129E+03,   912.129E+03
C:/temp/Job-8.odb,Step-1,Increment      1: Step Time =    1.000,"P-8-1",            81,            0.,           70.,            0.,NA,NA,"",   772.331E+03,   870.892E+03,   870.892E+03
C:/temp/Job-8.odb,Step-1,Increment      1: Step Time =    1.000,"P-8-1",            82,            0.,           80.,            0.,NA,NA,"",   740.424E+03,   835.900E+03,   835.900E+03
C:/temp/Job-8.odb,Step-1,Increment      1: Step Time =    1.000,"P-8-1",            83,            0.,           90.,            0.,NA,NA,"",   718.253E+03,   811.621E+03,   811.621E+03
C:/temp/Job-8.odb,Step-1,Increment      1: Step Time =    1.000,"P-8-1",            84,            0.,          100.,            0.,NA,NA,"",   710.113E+03,   802.717E+03,   802.717E+03
C:/temp/Job-8.odb,Step-1,Increment      1: Step Time =    1.000,"P-8-1",            85,            0.,          110.,            0.,NA,NA,"",   718.452E+03,   811.795E+03,   811.795E+03
C:/temp/Job-8.odb,Step-1,Increment      1: Step Time =    1.000,"P-8-1",            86,            0.,          120.,            0.,NA,NA,"",   740.930E+03,   836.301E+03,   836.301E+03
C:/temp/Job-8.odb,Step-1,Increment      1: Step Time =    1.000,"P-8-1",            87,            0.,          130.,            0.,NA,NA,"",   773.681E+03,   872.042E+03,   872.042E+03
C:/temp/Job-8.odb,Step-1,Increment      1: Step Time =    1.000,"P-8-1",            88,            0.,          140.,            0.,NA,NA,"",   812.020E+03,   913.795E+03,   913.795E+03
C:/temp/Job-8.odb,Step-1,Increment      1: Step Time =    1.000,"P-8-1",            89,            0.,          150.,            0.,NA,NA,"",   852.885E+03,   957.916E+03,   957.916E+03
C:/temp/Job-8.odb,Step-1,Increment      1: Step Time =    1.000,"P-8-1",            90,            0.,          160.,            0.,NA,NA,"",   897.713E+03,   1.00536E+06,   1.00536E+06
C:/temp/Job-8.odb,Step-1,Increment      1: Step Time =    1.000,"P-8-1",            91,            0.,          170.,            0.,NA,NA,"",   953.662E+03,   1.06250E+06,   1.06250E+06
C:/temp/Job-8.odb,Step-1,Increment      1: Step Time =    1.000,"P-8-1",            92,            0.,          180.,            0.,NA,NA,"",   1.03561E+06,   1.14464E+06,   1.14464E+06
C:/temp/Job-8.odb,Step-1,Increment      1: Step Time =    1.000,"P-8-1",            93,            0.,          190.,            0.,NA,NA,"",   1.19471E+06,   1.30128E+06,   1.30128E+06
C:/temp/Job-8.odb,Step-1,Increment      1: Step Time =    1.000,"P-8-1",            94,       190.509,       124.998,            0.,NA,NA,"",   948.311E+03,   998.989E+03,   998.989E+03
C:/temp/Job-8.odb,Step-1,Increment      1: Step Time =    1.000,"P-8-1",            95,       181.219,       125.542,            0.,NA,NA,"",   965.273E+03,   997.091E+03,   997.091E+03
C:/temp/Job-8.odb,Step-1,Increment      1: Step Time =    1.000,"P-8-1",            96,       172.335,       128.078,            0.,NA,NA,"",   990.524E+03,   1.00129E+06,   1.00129E+06
C:/temp/Job-8.odb,Step-1,Increment      1: Step Time =    1.000,"P-8-1",            97,       159.122,       127.715,            0.,NA,NA,"",   1.03499E+06,   1.01372E+06,   1.01372E+06
C:/temp/Job-8.odb,Step-1,Increment      1: Step Time =    1.000,"P-8-1",            98,       150.044,       128.201,            0.,NA,NA,"",   1.09474E+06,   1.04542E+06,   1.04542E+06
C:/temp/Job-8.odb,Step-1,Increment      1: Step Time =    1.000,"P-8-1",            99,       135.579,       125.076,            0.,NA,NA,"",   1.22551E+06,   1.11374E+06,   1.11374E+06
C:/temp/Job-8.odb,Step-1,Increment      1: Step Time =    1.000,"P-8-1",           100,       126.475,       126.241,            0.,NA,NA,"",   1.38953E+06,   1.27058E+06,   1.27058E+06
C:/temp/Job-8.odb,Step-1,Increment      1: Step Time =    1.000,"P-8-1",           101,       116.540,       127.534,            0.,NA,NA,"",   1.46522E+06,   1.44993E+06,   1.44993E+06
C:/temp/Job-8.odb,Step-1,Increment      1: Step Time =    1.000,"P-8-1",           102,       105.728,       128.943,            0.,NA,NA,"",   1.42561E+06,   1.55457E+06,   1.55457E+06
C:/temp/Job-8.odb,Step-1,Increment      1: Step Time =    1.000,"P-8-1",           103,       94.5328,       127.565,            0.,NA,NA,"",   1.47132E+06,   1.60794E+06,   1.60794E+06
C:/temp/Job-8.odb,Step-1,Increment      1: Step Time =    1.000,"P-8-1",           104,       83.6471,       129.845,            0.,NA,NA,"",   1.39504E+06,   1.39709E+06,   1.39709E+06
C:/temp/Job-8.odb,Step-1,Increment      1: Step Time =    1.000,"P-8-1",           105,       70.9244,       127.526,            0.,NA,NA,"",   1.28080E+06,   1.19815E+06,   1.19815E+06
C:/temp/Job-8.odb,Step-1,Increment      1: Step Time =    1.000,"P-8-1",           106,       62.3814,       128.277,            0.,NA,NA,"",   1.14735E+06,   1.09317E+06,   1.09317E+06
C:/temp/Job-8.odb,Step-1,Increment      1: Step Time =    1.000,"P-8-1",           107,       52.9869,       129.076,            0.,NA,NA,"",   1.02141E+06,   1.00857E+06,   1.00857E+06
C:/temp/Job-8.odb,Step-1,Increment      1: Step Time =    1.000,"P-8-1",           108,       43.7531,       126.211,            0.,NA,NA,"",   905.945E+03,   933.693E+03,   933.693E+03
C:/temp/Job-8.odb,Step-1,Increment      1: Step Time =    1.000,"P-8-1",           109,       28.6260,       127.322,            0.,NA,NA,"",   838.951E+03,   903.771E+03,   903.771E+03
C:/temp/Job-8.odb,Step-1,Increment      1: Step Time =    1.000,"P-8-1",           110,       19.5603,       125.989,            0.,NA,NA,"",   799.974E+03,   880.355E+03,   880.355E+03
C:/temp/Job-8.odb,Step-1,Increment      1: Step Time =    1.000,"P-8-1",           111,       9.89034,       125.311,            0.,NA,NA,"",   772.057E+03,   863.420E+03,   863.420E+03
C:/temp/Job-8.odb,Step-1,Increment      1: Step Time =    1.000,"P-8-1",           112,       10.0846,       115.183,            0.,NA,NA,"",   734.909E+03,   826.011E+03,   826.011E+03
C:/temp/Job-8.odb,Step-1,Increment      1: Step Time =    1.000,"P-8-1",           113,       20.3535,       115.484,            0.,NA,NA,"",   746.567E+03,   829.913E+03,   829.913E+03
C:/temp/Job-8.odb,Step-1,Increment      1: Step Time =    1.000,"P-8-1",           114,       31.1224,       116.837,            0.,NA,NA,"",   768.628E+03,   837.585E+03,   837.585E+03
C:/temp/Job-8.odb,Step-1,Increment      1: Step Time =    1.000,"P-8-1",           115,       41.2463,       116.530,            0.,NA,NA,"",   780.723E+03,   831.898E+03,   831.898E+03
C:/temp/Job-8.odb,Step-1,Increment      1: Step Time =    1.000,"P-8-1",           116,       53.3592,       116.438,            0.,NA,NA,"",   821.008E+03,   831.419E+03,   831.419E+03
C:/temp/Job-8.odb,Step-1,Increment      1: Step Time =    1.000,"P-8-1",           117,       62.7982,       116.085,            0.,NA,NA,"",   891.914E+03,   845.852E+03,   845.852E+03
C:/temp/Job-8.odb,Step-1,Increment      1: Step Time =    1.000,"P-8-1",           118,       70.9888,       117.874,            0.,NA,NA,"",   1.09074E+06,   969.962E+03,   969.962E+03
C:/temp/Job-8.odb,Step-1,Increment      1: Step Time =    1.000,"P-8-1",           119,       127.365,       117.304,            0.,NA,NA,"",   1.18696E+06,   1.00952E+06,   1.00952E+06
C:/temp/Job-8.odb,Step-1,Increment      1: Step Time =    1.000,"P-8-1",           120,       138.351,       116.201,            0.,NA,NA,"",   986.458E+03,   903.436E+03,   903.436E+03
C:/temp/Job-8.odb,Step-1,Increment      1: Step Time =    1.000,"P-8-1",           121,       147.127,       112.429,            0.,NA,NA,"",   856.634E+03,   836.243E+03,   836.243E+03
C:/temp/Job-8.odb,Step-1,Increment      1: Step Time =    1.000,"P-8-1",           122,       156.627,       114.930,            0.,NA,NA,"",   910.964E+03,   908.702E+03,   908.702E+03
C:/temp/Job-8.odb,Step-1,Increment      1: Step Time =    1.000,"P-8-1",           123,       165.420,       114.486,            0.,NA,NA,"",   918.277E+03,   934.363E+03,   934.363E+03
C:/temp/Job-8.odb,Step-1,Increment      1: Step Time =    1.000,"P-8-1",           124,       179.591,       111.639,            0.,NA,NA,"",   925.366E+03,   967.948E+03,   967.948E+03
C:/temp/Job-8.odb,Step-1,Increment      1: Step Time =    1.000,"P-8-1",           125,       189.723,       114.758,            0.,NA,NA,"",   931.798E+03,   992.465E+03,   992.465E+03
C:/temp/Job-8.odb,Step-1,Increment      1: Step Time =    1.000,"P-8-1",           126,       128.625,       107.623,            0.,NA,NA,"",   668.118E+03,   522.471E+03,   522.471E+03
C:/temp/Job-8.odb,Step-1,Increment      1: Step Time =    1.000,"P-8-1",           127,       135.551,       107.290,            0.,NA,NA,"",   666.503E+03,   618.616E+03,   618.616E+03
C:/temp/Job-8.odb,Step-1,Increment      1: Step Time =    1.000,"P-8-1",           128,       150.000,       103.995,            0.,NA,NA,"",   742.191E+03,   757.542E+03,   757.542E+03
C:/temp/Job-8.odb,Step-1,Increment      1: Step Time =    1.000,"P-8-1",           129,       158.410,       107.497,            0.,NA,NA,"",   837.365E+03,   855.182E+03,   855.182E+03
C:/temp/Job-8.odb,Step-1,Increment      1: Step Time =    1.000,"P-8-1",           130,       169.047,       103.839,            0.,NA,NA,"",   877.721E+03,   911.257E+03,   911.257E+03
C:/temp/Job-8.odb,Step-1,Increment      1: Step Time =    1.000,"P-8-1",           131,       181.190,       103.116,            0.,NA,NA,"",   912.719E+03,   962.860E+03,   962.860E+03
C:/temp/Job-8.odb,Step-1,Increment      1: Step Time =    1.000,"P-8-1",           132,       190.210,       104.389,            0.,NA,NA,"",   920.152E+03,   988.152E+03,   988.152E+03
C:/temp/Job-8.odb,Step-1,Increment      1: Step Time =    1.000,"P-8-1",           133,       127.717,       95.2020,            0.,NA,NA,"",   490.814E+03,   183.496E+03,   183.496E+03
C:/temp/Job-8.odb,Step-1,Increment      1: Step Time =    1.000,"P-8-1",           134,       135.214,       95.7448,            0.,NA,NA,"",   538.220E+03,   505.609E+03,   505.609E+03
C:/temp/Job-8.odb,Step-1,Increment      1: Step Time =    1.000,"P-8-1",           135,       148.934,       94.7851,            0.,NA,NA,"",   736.010E+03,   747.734E+03,   747.734E+03
C:/temp/Job-8.odb,Step-1,Increment      1: Step Time =    1.000,"P-8-1",           136,       158.517,       96.1343,            0.,NA,NA,"",   811.405E+03,   835.549E+03,   835.549E+03
C:/temp/Job-8.odb,Step-1,Increment      1: Step Time =    1.000,"P-8-1",           137,       168.958,       98.7613,            0.,NA,NA,"",   872.247E+03,   906.573E+03,   906.573E+03
C:/temp/Job-8.odb,Step-1,Increment      1: Step Time =    1.000,"P-8-1",           138,       181.035,       93.7835,            0.,NA,NA,"",   915.431E+03,   964.342E+03,   964.342E+03
C:/temp/Job-8.odb,Step-1,Increment      1: Step Time =    1.000,"P-8-1",           139,       190.354,       94.3805,            0.,NA,NA,"",   920.874E+03,   988.864E+03,   988.864E+03
C:/temp/Job-8.odb,Step-1,Increment      1: Step Time =    1.000,"P-8-1",           140,       125.227,       84.5625,            0.,NA,NA,"",   1.18405E+06,   987.675E+03,   987.675E+03
C:/temp/Job-8.odb,Step-1,Increment      1: Step Time =    1.000,"P-8-1",           141,       137.715,       86.5421,            0.,NA,NA,"",   924.192E+03,   844.462E+03,   844.462E+03
C:/temp/Job-8.odb,Step-1,Increment      1: Step Time =    1.000,"P-8-1",           142,       147.096,       83.0072,            0.,NA,NA,"",   958.019E+03,   918.170E+03,   918.170E+03
C:/temp/Job-8.odb,Step-1,Increment      1: Step Time =    1.000,"P-8-1",           143,       156.438,       85.3466,            0.,NA,NA,"",   907.770E+03,   905.414E+03,   905.414E+03
C:/temp/Job-8.odb,Step-1,Increment      1: Step Time =    1.000,"P-8-1",           144,       169.625,       84.3727,            0.,NA,NA,"",   928.730E+03,   950.243E+03,   950.243E+03
C:/temp/Job-8.odb,Step-1,Increment      1: Step Time =    1.000,"P-8-1",           145,       180.391,       84.1247,            0.,NA,NA,"",   937.007E+03,   977.596E+03,   977.596E+03
C:/temp/Job-8.odb,Step-1,Increment      1: Step Time =    1.000,"P-8-1",           146,       190.254,       84.5269,            0.,NA,NA,"",   932.131E+03,   993.269E+03,   993.269E+03
C:/temp/Job-8.odb,Step-1,Increment      1: Step Time =    1.000,"P-8-1",           147,       93.6563,       70.3111,            0.,NA,NA,"",   1.38960E+06,   1.51105E+06,   1.51105E+06
C:/temp/Job-8.odb,Step-1,Increment      1: Step Time =    1.000,"P-8-1",           148,       115.870,       71.9017,            0.,NA,NA,"",   1.45567E+06,   1.45618E+06,   1.45618E+06
C:/temp/Job-8.odb,Step-1,Increment      1: Step Time =    1.000,"P-8-1",           149,       9.16855,       75.2753,            0.,NA,NA,"",   768.372E+03,   860.425E+03,   860.425E+03
C:/temp/Job-8.odb,Step-1,Increment      1: Step Time =    1.000,"P-8-1",           150,       19.2135,       74.4543,            0.,NA,NA,"",   797.520E+03,   878.757E+03,   878.757E+03
C:/temp/Job-8.odb,Step-1,Increment      1: Step Time =    1.000,"P-8-1",           151,       30.4805,       73.8859,            0.,NA,NA,"",   837.312E+03,   898.962E+03,   898.962E+03
C:/temp/Job-8.odb,Step-1,Increment      1: Step Time =    1.000,"P-8-1",           152,       43.1902,       73.8746,            0.,NA,NA,"",   901.840E+03,   931.056E+03,   931.056E+03
C:/temp/Job-8.odb,Step-1,Increment      1: Step Time =    1.000,"P-8-1",           153,       51.3514,       74.3680,            0.,NA,NA,"",   969.828E+03,   969.723E+03,   969.723E+03
C:/temp/Job-8.odb,Step-1,Increment      1: Step Time =    1.000,"P-8-1",           154,       59.9422,       73.5018,            0.,NA,NA,"",   1.07920E+06,   1.03652E+06,   1.03652E+06
C:/temp/Job-8.odb,Step-1,Increment      1: Step Time =    1.000,"P-8-1",           155,       69.9506,       73.5435,            0.,NA,NA,"",   1.24292E+06,   1.16069E+06,   1.16069E+06
C:/temp/Job-8.odb,Step-1,Increment      1: Step Time =    1.000,"P-8-1",           156,       83.2074,       73.7014,            0.,NA,NA,"",   1.43174E+06,   1.41305E+06,   1.41305E+06
C:/temp/Job-8.odb,Step-1,Increment      1: Step Time =    1.000,"P-8-1",           157,       107.355,       72.4852,            0.,NA,NA,"",   1.46658E+06,   1.58412E+06,   1.58412E+06
C:/temp/Job-8.odb,Step-1,Increment      1: Step Time =    1.000,"P-8-1",           158,       127.121,       71.1555,            0.,NA,NA,"",   1.36300E+06,   1.25917E+06,   1.25917E+06
C:/temp/Job-8.odb,Step-1,Increment      1: Step Time =    1.000,"P-8-1",           159,       134.854,       71.7010,            0.,NA,NA,"",   1.26117E+06,   1.15828E+06,   1.15828E+06
C:/temp/Job-8.odb,Step-1,Increment      1: Step Time =    1.000,"P-8-1",           160,       147.621,       71.1472,            0.,NA,NA,"",   1.12156E+06,   1.06293E+06,   1.06293E+06
C:/temp/Job-8.odb,Step-1,Increment      1: Step Time =    1.000,"P-8-1",           161,       156.856,       73.8022,            0.,NA,NA,"",   1.03430E+06,   1.00879E+06,   1.00879E+06
C:/temp/Job-8.odb,Step-1,Increment      1: Step Time =    1.000,"P-8-1",           162,       170.062,       73.6905,            0.,NA,NA,"",   991.070E+03,   998.704E+03,   998.704E+03
C:/temp/Job-8.odb,Step-1,Increment      1: Step Time =    1.000,"P-8-1",           163,       180.252,       74.2805,            0.,NA,NA,"",   967.404E+03,   996.812E+03,   996.812E+03
C:/temp/Job-8.odb,Step-1,Increment      1: Step Time =    1.000,"P-8-1",           164,       190.223,       74.6901,            0.,NA,NA,"",   949.130E+03,   999.013E+03,   999.013E+03
C:/temp/Job-8.odb,Step-1,Increment      1: Step Time =    1.000,"P-8-1",           165,       71.9641,       80.1898,            0.,NA,NA,"",   1.18771E+06,   1.07017E+06,   1.07017E+06
C:/temp/Job-8.odb,Step-1,Increment      1: Step Time =    1.000,"P-8-1",           166,       62.1380,       84.1085,            0.,NA,NA,"",   897.350E+03,   854.197E+03,   854.197E+03
C:/temp/Job-8.odb,Step-1,Increment      1: Step Time =    1.000,"P-8-1",           167,       52.0801,       86.2459,            0.,NA,NA,"",   768.709E+03,   792.242E+03,   792.242E+03
C:/temp/Job-8.odb,Step-1,Increment      1: Step Time =    1.000,"P-8-1",           168,       43.2349,       85.6905,            0.,NA,NA,"",   762.081E+03,   810.901E+03,   810.901E+03
C:/temp/Job-8.odb,Step-1,Increment      1: Step Time =    1.000,"P-8-1",           169,       34.1125,       85.8829,            0.,NA,NA,"",   751.639E+03,   818.734E+03,   818.734E+03
C:/temp/Job-8.odb,Step-1,Increment      1: Step Time =    1.000,"P-8-1",           170,       18.5604,       87.7429,            0.,NA,NA,"",   732.169E+03,   817.889E+03,   817.889E+03
C:/temp/Job-8.odb,Step-1,Increment      1: Step Time =    1.000,"P-8-1",           171,       9.89046,       85.0733,            0.,NA,NA,"",   734.078E+03,   825.277E+03,   825.277E+03
C:/temp/Job-8.odb,Step-1,Increment      1: Step Time =    1.000,"P-8-1",           172,       72.4305,       93.9737,            0.,NA,NA,"",   488.164E+03,   228.130E+03,   228.130E+03
C:/temp/Job-8.odb,Step-1,Increment      1: Step Time =    1.000,"P-8-1",           173,       65.1014,       93.5681,            0.,NA,NA,"",   534.052E+03,   520.342E+03,   520.342E+03
C:/temp/Job-8.odb,Step-1,Increment      1: Step Time =    1.000,"P-8-1",           174,       50.8048,       92.7742,            0.,NA,NA,"",   651.286E+03,   698.164E+03,   698.164E+03
C:/temp/Job-8.odb,Step-1,Increment      1: Step Time =    1.000,"P-8-1",           175,       39.0760,       95.6721,            0.,NA,NA,"",   684.270E+03,   752.698E+03,   752.698E+03
C:/temp/Job-8.odb,Step-1,Increment      1: Step Time =    1.000,"P-8-1",           176,       29.6483,       94.6563,            0.,NA,NA,"",   709.181E+03,   786.873E+03,   786.873E+03
C:/temp/Job-8.odb,Step-1,Increment      1: Step Time =    1.000,"P-8-1",           177,       18.5904,       95.0981,            0.,NA,NA,"",   715.595E+03,   802.137E+03,   802.137E+03
C:/temp/Job-8.odb,Step-1,Increment      1: Step Time =    1.000,"P-8-1",           178,       9.65246,       95.1637,            0.,NA,NA,"",   713.255E+03,   804.361E+03,   804.361E+03
C:/temp/Job-8.odb,Step-1,Increment      1: Step Time =    1.000,"P-8-1",           179,       72.7359,       103.700,            0.,NA,NA,"",   374.799E+03,   163.359E+03,   163.359E+03
C:/temp/Job-8.odb,Step-1,Increment      1: Step Time =    1.000,"P-8-1",           180,       60.5277,       103.028,            0.,NA,NA,"",   509.854E+03,   541.615E+03,   541.615E+03
C:/temp/Job-8.odb,Step-1,Increment      1: Step Time =    1.000,"P-8-1",           181,       52.0764,       106.380,            0.,NA,NA,"",   640.651E+03,   686.467E+03,   686.467E+03
C:/temp/Job-8.odb,Step-1,Increment      1: Step Time =    1.000,"P-8-1",           182,       41.4387,       106.936,            0.,NA,NA,"",   693.007E+03,   756.247E+03,   756.247E+03
C:/temp/Job-8.odb,Step-1,Increment      1: Step Time =    1.000,"P-8-1",           183,       31.6921,       104.997,            0.,NA,NA,"",   704.016E+03,   779.768E+03,   779.768E+03
C:/temp/Job-8.odb,Step-1,Increment      1: Step Time =    1.000,"P-8-1",           184,       20.1790,       104.757,            0.,NA,NA,"",   714.195E+03,   799.709E+03,   799.709E+03
C:/temp/Job-8.odb,Step-1,Increment      1: Step Time =    1.000,"P-8-1",           185,       9.93662,       105.142,            0.,NA,NA,"",   713.906E+03,   804.921E+03,   804.921E+03
C:/temp/Job-8.odb,Step-1,Increment      1: Step Time =    1.000,"P-8-1",           186,       189.500,       10.3759,            0.,NA,NA,"",   1.00070E+06,   1.00097E+06,   1.00097E+06
C:/temp/Job-8.odb,Step-1,Increment      1: Step Time =    1.000,"P-8-1",           187,       179.239,       10.1267,            0.,NA,NA,"",   1.00291E+06,   1.00289E+06,   1.00289E+06
C:/temp/Job-8.odb,Step-1,Increment      1: Step Time =    1.000,"P-8-1",           188,       168.904,       9.80641,            0.,NA,NA,"",   1.00542E+06,   1.00446E+06,   1.00446E+06
C:/temp/Job-8.odb,Step-1,Increment      1: Step Time =    1.000,"P-8-1",           189,       158.057,       10.0747,            0.,NA,NA,"",   1.00510E+06,   1.00325E+06,   1.00325E+06
C:/temp/Job-8.odb,Step-1,Increment      1: Step Time =    1.000,"P-8-1",           190,       149.302,       8.48712,            0.,NA,NA,"",   997.285E+03,   995.602E+03,   995.602E+03
C:/temp/Job-8.odb,Step-1,Increment      1: Step Time =    1.000,"P-8-1",           191,       135.021,       9.72185,            0.,NA,NA,"",   982.986E+03,   981.727E+03,   981.727E+03
C:/temp/Job-8.odb,Step-1,Increment      1: Step Time =    1.000,"P-8-1",           192,       124.705,       9.94259,            0.,NA,NA,"",   966.431E+03,   967.083E+03,   967.083E+03
C:/temp/Job-8.odb,Step-1,Increment      1: Step Time =    1.000,"P-8-1",           193,       114.641,       9.90639,            0.,NA,NA,"",   950.561E+03,   953.306E+03,   953.306E+03
C:/temp/Job-8.odb,Step-1,Increment      1: Step Time =    1.000,"P-8-1",           194,       104.675,       9.79158,            0.,NA,NA,"",   942.495E+03,   946.644E+03,   946.644E+03
C:/temp/Job-8.odb,Step-1,Increment      1: Step Time =    1.000,"P-8-1",           195,       94.6974,       9.76886,            0.,NA,NA,"",   948.039E+03,   951.925E+03,   951.925E+03
C:/temp/Job-8.odb,Step-1,Increment      1: Step Time =    1.000,"P-8-1",           196,       84.8128,       9.82506,            0.,NA,NA,"",   966.090E+03,   968.585E+03,   968.585E+03
C:/temp/Job-8.odb,Step-1,Increment      1: Step Time =    1.000,"P-8-1",           197,       74.9551,       9.84220,            0.,NA,NA,"",   992.198E+03,   992.836E+03,   992.836E+03
C:/temp/Job-8.odb,Step-1,Increment      1: Step Time =    1.000,"P-8-1",           198,       65.0692,       9.83488,            0.,NA,NA,"",   1.02136E+06,   1.02051E+06,   1.02051E+06
C:/temp/Job-8.odb,Step-1,Increment      1: Step Time =    1.000,"P-8-1",           199,       50.0813,       9.79076,            0.,NA,NA,"",   1.06403E+06,   1.06307E+06,   1.06307E+06
C:/temp/Job-8.odb,Step-1,Increment      1: Step Time =    1.000,"P-8-1",           200,       40.2820,       9.39587,            0.,NA,NA,"",   1.09117E+06,   1.09157E+06,   1.09157E+06
C:/temp/Job-8.odb,Step-1,Increment      1: Step Time =    1.000,"P-8-1",           201,       30.6291,       9.17470,            0.,NA,NA,"",   1.12504E+06,   1.12892E+06,   1.12892E+06
C:/temp/Job-8.odb,Step-1,Increment      1: Step Time =    1.000,"P-8-1",           202,       20.7204,       9.63026,            0.,NA,NA,"",   1.17883E+06,   1.19027E+06,   1.19027E+06
C:/temp/Job-8.odb,Step-1,Increment      1: Step Time =    1.000,"P-8-1",           203,       10.6045,       10.0477,            0.,NA,NA,"",   1.25709E+06,   1.29737E+06,   1.29737E+06
C:/temp/Job-8.odb,Step-1,Increment      1: Step Time =    1.000,"P-8-1",           204,       189.224,       20.9212,            0.,NA,NA,"",   1.00168E+06,   1.00309E+06,   1.00309E+06
C:/temp/Job-8.odb,Step-1,Increment      1: Step Time =    1.000,"P-8-1",           205,       176.006,       23.5290,            0.,NA,NA,"",   1.01463E+06,   1.01370E+06,   1.01370E+06
C:/temp/Job-8.odb,Step-1,Increment      1: Step Time =    1.000,"P-8-1",           206,       167.833,       23.4069,            0.,NA,NA,"",   1.02610E+06,   1.02170E+06,   1.02170E+06
C:/temp/Job-8.odb,Step-1,Increment      1: Step Time =    1.000,"P-8-1",           207,       158.305,       19.8253,            0.,NA,NA,"",   1.02874E+06,   1.02276E+06,   1.02276E+06
C:/temp/Job-8.odb,Step-1,Increment      1: Step Time =    1.000,"P-8-1",           208,       147.074,       18.9942,            0.,NA,NA,"",   1.02798E+06,   1.02172E+06,   1.02172E+06
C:/temp/Job-8.odb,Step-1,Increment      1: Step Time =    1.000,"P-8-1",           209,       135.612,       20.3295,            0.,NA,NA,"",   1.03031E+06,   1.02556E+06,   1.02556E+06
C:/temp/Job-8.odb,Step-1,Increment      1: Step Time =    1.000,"P-8-1",           210,       124.184,       19.8302,            0.,NA,NA,"",   1.01268E+06,   1.01514E+06,   1.01514E+06
C:/temp/Job-8.odb,Step-1,Increment      1: Step Time =    1.000,"P-8-1",           211,       113.943,       20.2792,            0.,NA,NA,"",   997.681E+03,   1.00753E+06,   1.00753E+06
C:/temp/Job-8.odb,Step-1,Increment      1: Step Time =    1.000,"P-8-1",           212,       104.111,       19.3392,            0.,NA,NA,"",   987.124E+03,   1.00016E+06,   1.00016E+06
C:/temp/Job-8.odb,Step-1,Increment      1: Step Time =    1.000,"P-8-1",           213,       94.4454,       19.4478,            0.,NA,NA,"",   993.728E+03,   1.00634E+06,   1.00634E+06
C:/temp/Job-8.odb,Step-1,Increment      1: Step Time =    1.000,"P-8-1",           214,       84.7498,       19.8186,            0.,NA,NA,"",   1.01478E+06,   1.02320E+06,   1.02320E+06
C:/temp/Job-8.odb,Step-1,Increment      1: Step Time =    1.000,"P-8-1",           215,       75.0076,       19.9040,            0.,NA,NA,"",   1.04135E+06,   1.04378E+06,   1.04378E+06
C:/temp/Job-8.odb,Step-1,Increment      1: Step Time =    1.000,"P-8-1",           216,       65.2338,       19.7740,            0.,NA,NA,"",   1.06597E+06,   1.06387E+06,   1.06387E+06
C:/temp/Job-8.odb,Step-1,Increment      1: Step Time =    1.000,"P-8-1",           217,       50.0703,       19.7319,            0.,NA,NA,"",   1.09562E+06,   1.09345E+06,   1.09345E+06
C:/temp/Job-8.odb,Step-1,Increment      1: Step Time =    1.000,"P-8-1",           218,       38.7846,       19.6596,            0.,NA,NA,"",   1.11346E+06,   1.11827E+06,   1.11827E+06
C:/temp/Job-8.odb,Step-1,Increment      1: Step Time =    1.000,"P-8-1",           219,       31.8414,       17.5856,            0.,NA,NA,"",   1.12697E+06,   1.13629E+06,   1.13629E+06
C:/temp/Job-8.odb,Step-1,Increment      1: Step Time =    1.000,"P-8-1",           220,       21.5498,       19.7926,            0.,NA,NA,"",   1.13252E+06,   1.16549E+06,   1.16549E+06
C:/temp/Job-8.odb,Step-1,Increment      1: Step Time =    1.000,"P-8-1",           221,       12.6533,       20.9452,            0.,NA,NA,"",   1.09788E+06,   1.16431E+06,   1.16431E+06
C:/temp/Job-8.odb,Step-1,Increment      1: Step Time =    1.000,"P-8-1",           222,       190.387,       31.0611,            0.,NA,NA,"",   1.00004E+06,   1.00441E+06,   1.00441E+06
C:/temp/Job-8.odb,Step-1,Increment      1: Step Time =    1.000,"P-8-1",           223,       181.408,       32.8034,            0.,NA,NA,"",   1.01264E+06,   1.01445E+06,   1.01445E+06
C:/temp/Job-8.odb,Step-1,Increment      1: Step Time =    1.000,"P-8-1",           224,       169.196,       33.0894,            0.,NA,NA,"",   1.03794E+06,   1.03204E+06,   1.03204E+06
C:/temp/Job-8.odb,Step-1,Increment      1: Step Time =    1.000,"P-8-1",           225,       158.741,       29.5389,            0.,NA,NA,"",   1.05424E+06,   1.04295E+06,   1.04295E+06
C:/temp/Job-8.odb,Step-1,Increment      1: Step Time =    1.000,"P-8-1",           226,       143.586,       33.7951,            0.,NA,NA,"",   1.09486E+06,   1.07707E+06,   1.07707E+06
C:/temp/Job-8.odb,Step-1,Increment      1: Step Time =    1.000,"P-8-1",           227,       137.439,       34.0814,            0.,NA,NA,"",   1.09953E+06,   1.08468E+06,   1.08468E+06
C:/temp/Job-8.odb,Step-1,Increment      1: Step Time =    1.000,"P-8-1",           228,       126.421,       33.9210,            0.,NA,NA,"",   1.08591E+06,   1.08507E+06,   1.08507E+06
C:/temp/Job-8.odb,Step-1,Increment      1: Step Time =    1.000,"P-8-1",           229,       114.874,       32.2764,            0.,NA,NA,"",   1.04773E+06,   1.06722E+06,   1.06722E+06
C:/temp/Job-8.odb,Step-1,Increment      1: Step Time =    1.000,"P-8-1",           230,       104.255,       32.0739,            0.,NA,NA,"",   1.02790E+06,   1.05869E+06,   1.05869E+06
C:/temp/Job-8.odb,Step-1,Increment      1: Step Time =    1.000,"P-8-1",           231,       94.8177,       29.0586,            0.,NA,NA,"",   1.02517E+06,   1.05062E+06,   1.05062E+06
C:/temp/Job-8.odb,Step-1,Increment      1: Step Time =    1.000,"P-8-1",           232,       84.9313,       30.7724,            0.,NA,NA,"",   1.05852E+06,   1.07599E+06,   1.07599E+06
C:/temp/Job-8.odb,Step-1,Increment      1: Step Time =    1.000,"P-8-1",           233,       75.4350,       30.9338,            0.,NA,NA,"",   1.08826E+06,   1.09355E+06,   1.09355E+06
C:/temp/Job-8.odb,Step-1,Increment      1: Step Time =    1.000,"P-8-1",           234,       64.5700,       34.5297,            0.,NA,NA,"",   1.12791E+06,   1.12147E+06,   1.12147E+06
C:/temp/Job-8.odb,Step-1,Increment      1: Step Time =    1.000,"P-8-1",           235,       56.4668,       35.9265,            0.,NA,NA,"",   1.13075E+06,   1.12295E+06,   1.12295E+06
C:/temp/Job-8.odb,Step-1,Increment      1: Step Time =    1.000,"P-8-1",           236,       41.6749,       31.4671,            0.,NA,NA,"",   1.10701E+06,   1.11392E+06,   1.11392E+06
C:/temp/Job-8.odb,Step-1,Increment      1: Step Time =    1.000,"P-8-1",           237,       31.4393,       29.7456,            0.,NA,NA,"",   1.09244E+06,   1.11626E+06,   1.11626E+06
C:/temp/Job-8.odb,Step-1,Increment      1: Step Time =    1.000,"P-8-1",           238,       24.0352,       30.3856,            0.,NA,NA,"",   1.07135E+06,   1.11369E+06,   1.11369E+06
C:/temp/Job-8.odb,Step-1,Increment      1: Step Time =    1.000,"P-8-1",           239,       10.7623,       31.4925,            0.,NA,NA,"",   997.668E+03,   1.08316E+06,   1.08316E+06
C:/temp/Job-8.odb,Step-1,Increment      1: Step Time =    1.000,"P-8-1",           240,       190.761,       40.6313,            0.,NA,NA,"",   995.385E+03,   1.00538E+06,   1.00538E+06
C:/temp/Job-8.odb,Step-1,Increment      1: Step Time =    1.000,"P-8-1",           241,       181.527,       41.1396,            0.,NA,NA,"",   1.01292E+06,   1.01751E+06,   1.01751E+06
C:/temp/Job-8.odb,Step-1,Increment      1: Step Time =    1.000,"P-8-1",           242,       170.384,       41.7779,            0.,NA,NA,"",   1.04516E+06,   1.03858E+06,   1.03858E+06
C:/temp/Job-8.odb,Step-1,Increment      1: Step Time =    1.000,"P-8-1",           243,       161.368,       40.1751,            0.,NA,NA,"",   1.07277E+06,   1.05704E+06,   1.05704E+06
C:/temp/Job-8.odb,Step-1,Increment      1: Step Time =    1.000,"P-8-1",           244,       150.228,       41.6895,            0.,NA,NA,"",   1.11450E+06,   1.08819E+06,   1.08819E+06
C:/temp/Job-8.odb,Step-1,Increment      1: Step Time =    1.000,"P-8-1",           245,       138.062,       43.1586,            0.,NA,NA,"",   1.14968E+06,   1.12277E+06,   1.12277E+06
C:/temp/Job-8.odb,Step-1,Increment      1: Step Time =    1.000,"P-8-1",           246,       126.113,       42.9095,            0.,NA,NA,"",   1.13857E+06,   1.13438E+06,   1.13438E+06
C:/temp/Job-8.odb,Step-1,Increment      1: Step Time =    1.000,"P-8-1",           247,       114.673,       43.7644,            0.,NA,NA,"",   1.10246E+06,   1.13173E+06,   1.13173E+06
C:/temp/Job-8.odb,Step-1,Increment      1: Step Time =    1.000,"P-8-1",           248,       106.144,       41.2905,            0.,NA,NA,"",   1.05580E+06,   1.10230E+06,   1.10230E+06
C:/temp/Job-8.odb,Step-1,Increment      1: Step Time =    1.000,"P-8-1",           249,       96.3683,       38.5205,            0.,NA,NA,"",   1.04940E+06,   1.09207E+06,   1.09207E+06
C:/temp/Job-8.odb,Step-1,Increment      1: Step Time =    1.000,"P-8-1",           250,       83.6804,       41.8992,            0.,NA,NA,"",   1.10918E+06,   1.13433E+06,   1.13433E+06
C:/temp/Job-8.odb,Step-1,Increment      1: Step Time =    1.000,"P-8-1",           251,       73.1065,       41.2373,            0.,NA,NA,"",   1.14386E+06,   1.14398E+06,   1.14398E+06
C:/temp/Job-8.odb,Step-1,Increment      1: Step Time =    1.000,"P-8-1",           252,       63.1043,       41.0856,            0.,NA,NA,"",   1.15028E+06,   1.13978E+06,   1.13978E+06
C:/temp/Job-8.odb,Step-1,Increment      1: Step Time =    1.000,"P-8-1",           253,       53.6073,       44.0860,            0.,NA,NA,"",   1.13492E+06,   1.12633E+06,   1.12633E+06
C:/temp/Job-8.odb,Step-1,Increment      1: Step Time =    1.000,"P-8-1",           254,       43.6566,       42.0634,            0.,NA,NA,"",   1.09685E+06,   1.10386E+06,   1.10386E+06
C:/temp/Job-8.odb,Step-1,Increment      1: Step Time =    1.000,"P-8-1",           255,       31.1556,       38.5390,            0.,NA,NA,"",   1.05822E+06,   1.09079E+06,   1.09079E+06
C:/temp/Job-8.odb,Step-1,Increment      1: Step Time =    1.000,"P-8-1",           256,       21.0216,       40.7743,            0.,NA,NA,"",   999.717E+03,   1.06061E+06,   1.06061E+06
C:/temp/Job-8.odb,Step-1,Increment      1: Step Time =    1.000,"P-8-1",           257,       11.5025,       42.3425,            0.,NA,NA,"",   937.842E+03,   1.02482E+06,   1.02482E+06
C:/temp/Job-8.odb,Step-1,Increment      1: Step Time =    1.000,"P-8-1",           258,       190.667,       50.2373,            0.,NA,NA,"",   987.215E+03,   1.00596E+06,   1.00596E+06
C:/temp/Job-8.odb,Step-1,Increment      1: Step Time =    1.000,"P-8-1",           259,       181.365,       50.1447,            0.,NA,NA,"",   1.01013E+06,   1.01907E+06,   1.01907E+06
C:/temp/Job-8.odb,Step-1,Increment      1: Step Time =    1.000,"P-8-1",           260,       167.234,       53.1433,            0.,NA,NA,"",   1.05948E+06,   1.04816E+06,   1.04816E+06
C:/temp/Job-8.odb,Step-1,Increment      1: Step Time =    1.000,"P-8-1",           261,       159.649,       49.3726,            0.,NA,NA,"",   1.09283E+06,   1.07004E+06,   1.07004E+06
C:/temp/Job-8.odb,Step-1,Increment      1: Step Time =    1.000,"P-8-1",           262,       148.409,       54.7102,            0.,NA,NA,"",   1.15694E+06,   1.11291E+06,   1.11291E+06
C:/temp/Job-8.odb,Step-1,Increment      1: Step Time =    1.000,"P-8-1",           263,       137.994,       50.7455,            0.,NA,NA,"",   1.19261E+06,   1.15147E+06,   1.15147E+06
C:/temp/Job-8.odb,Step-1,Increment      1: Step Time =    1.000,"P-8-1",           264,       129.823,       52.0605,            0.,NA,NA,"",   1.21584E+06,   1.18608E+06,   1.18608E+06
C:/temp/Job-8.odb,Step-1,Increment      1: Step Time =    1.000,"P-8-1",           265,       117.083,       52.2288,            0.,NA,NA,"",   1.17212E+06,   1.19589E+06,   1.19589E+06
C:/temp/Job-8.odb,Step-1,Increment      1: Step Time =    1.000,"P-8-1",           266,       107.781,       51.3302,            0.,NA,NA,"",   1.10941E+06,   1.17347E+06,   1.17347E+06
C:/temp/Job-8.odb,Step-1,Increment      1: Step Time =    1.000,"P-8-1",           267,       93.3980,       48.4669,            0.,NA,NA,"",   1.09270E+06,   1.15281E+06,   1.15281E+06
C:/temp/Job-8.odb,Step-1,Increment      1: Step Time =    1.000,"P-8-1",           268,       83.6564,       52.3969,            0.,NA,NA,"",   1.17611E+06,   1.20531E+06,   1.20531E+06
C:/temp/Job-8.odb,Step-1,Increment      1: Step Time =    1.000,"P-8-1",           269,       73.3565,       51.4804,            0.,NA,NA,"",   1.20349E+06,   1.19531E+06,   1.19531E+06
C:/temp/Job-8.odb,Step-1,Increment      1: Step Time =    1.000,"P-8-1",           270,       63.4219,       52.2275,            0.,NA,NA,"",   1.18771E+06,   1.16486E+06,   1.16486E+06
C:/temp/Job-8.odb,Step-1,Increment      1: Step Time =    1.000,"P-8-1",           271,       52.3151,       53.5113,            0.,NA,NA,"",   1.12048E+06,   1.11035E+06,   1.11035E+06
C:/temp/Job-8.odb,Step-1,Increment      1: Step Time =    1.000,"P-8-1",           272,       39.9750,       52.5970,            0.,NA,NA,"",   1.03959E+06,   1.05941E+06,   1.05941E+06
C:/temp/Job-8.odb,Step-1,Increment      1: Step Time =    1.000,"P-8-1",           273,       30.9668,       53.4025,            0.,NA,NA,"",   984.607E+03,   1.02809E+06,   1.02809E+06
C:/temp/Job-8.odb,Step-1,Increment      1: Step Time =    1.000,"P-8-1",           274,       23.1899,       53.8469,            0.,NA,NA,"",   934.784E+03,   998.695E+03,   998.695E+03
C:/temp/Job-8.odb,Step-1,Increment      1: Step Time =    1.000,"P-8-1",           275,       9.03887,       51.8872,            0.,NA,NA,"",   875.811E+03,   969.178E+03,   969.178E+03
C:/temp/Job-8.odb,Step-1,Increment      1: Step Time =    1.000,"P-8-1",           276,       190.347,       64.8660,            0.,NA,NA,"",   966.803E+03,   1.00360E+06,   1.00360E+06
C:/temp/Job-8.odb,Step-1,Increment      1: Step Time =    1.000,"P-8-1",           277,       180.576,       64.4484,            0.,NA,NA,"",   992.452E+03,   1.01184E+06,   1.01184E+06
C:/temp/Job-8.odb,Step-1,Increment      1: Step Time =    1.000,"P-8-1",           278,       170.916,       63.5604,            0.,NA,NA,"",   1.02747E+06,   1.02695E+06,   1.02695E+06
C:/temp/Job-8.odb,Step-1,Increment      1: Step Time =    1.000,"P-8-1",           279,       158.773,       66.1696,            0.,NA,NA,"",   1.07394E+06,   1.04661E+06,   1.04661E+06
C:/temp/Job-8.odb,Step-1,Increment      1: Step Time =    1.000,"P-8-1",           280,       145.105,       61.5367,            0.,NA,NA,"",   1.18220E+06,   1.12364E+06,   1.12364E+06
C:/temp/Job-8.odb,Step-1,Increment      1: Step Time =    1.000,"P-8-1",           281,       135.613,       62.9310,            0.,NA,NA,"",   1.26268E+06,   1.18808E+06,   1.18808E+06
C:/temp/Job-8.odb,Step-1,Increment      1: Step Time =    1.000,"P-8-1",           282,       125.822,       61.4894,            0.,NA,NA,"",   1.30311E+06,   1.25876E+06,   1.25876E+06
C:/temp/Job-8.odb,Step-1,Increment      1: Step Time =    1.000,"P-8-1",           283,       115.867,       62.1442,            0.,NA,NA,"",   1.27873E+06,   1.30262E+06,   1.30262E+06
C:/temp/Job-8.odb,Step-1,Increment      1: Step Time =    1.000,"P-8-1",           284,       106.036,       63.4081,            0.,NA,NA,"",   1.23027E+06,   1.33072E+06,   1.33072E+06
C:/temp/Job-8.odb,Step-1,Increment      1: Step Time =    1.000,"P-8-1",           285,       94.5804,       63.0013,            0.,NA,NA,"",   1.21720E+06,   1.32006E+06,   1.32006E+06
C:/temp/Job-8.odb,Step-1,Increment      1: Step Time =    1.000,"P-8-1",           286,       83.4949,       60.0423,            0.,NA,NA,"",   1.25125E+06,   1.27536E+06,   1.27536E+06
C:/temp/Job-8.odb,Step-1,Increment      1: Step Time =    1.000,"P-8-1",           287,       72.4746,       59.9632,            0.,NA,NA,"",   1.26356E+06,   1.23188E+06,   1.23188E+06
C:/temp/Job-8.odb,Step-1,Increment      1: Step Time =    1.000,"P-8-1",           288,       61.6652,       61.6223,            0.,NA,NA,"",   1.17870E+06,   1.14320E+06,   1.14320E+06
C:/temp/Job-8.odb,Step-1,Increment      1: Step Time =    1.000,"P-8-1",           289,       49.2878,       62.2027,            0.,NA,NA,"",   1.05766E+06,   1.05588E+06,   1.05588E+06
C:/temp/Job-8.odb,Step-1,Increment      1: Step Time =    1.000,"P-8-1",           290,       41.4007,       63.7973,            0.,NA,NA,"",   984.411E+03,   1.00743E+06,   1.00743E+06
C:/temp/Job-8.odb,Step-1,Increment      1: Step Time =    1.000,"P-8-1",           291,       31.6395,       60.4227,            0.,NA,NA,"",   941.972E+03,   989.074E+03,   989.074E+03
C:/temp/Job-8.odb,Step-1,Increment      1: Step Time =    1.000,"P-8-1",           292,       19.8774,       63.3971,            0.,NA,NA,"",   862.078E+03,   938.198E+03,   938.198E+03
C:/temp/Job-8.odb,Step-1,Increment      1: Step Time =    1.000,"P-8-1",           293,       8.34583,       65.8062,            0.,NA,NA,"",   807.951E+03,   901.440E+03,   901.440E+03
C:/temp/Job-8.odb,Step-1,Increment      1: Step Time =    1.000,"P-8-1",           294,       191.064,       134.690,            0.,NA,NA,"",   964.370E+03,   1.00298E+06,   1.00298E+06
C:/temp/Job-8.odb,Step-1,Increment      1: Step Time =    1.000,"P-8-1",           295,       177.430,       134.288,            0.,NA,NA,"",   997.643E+03,   1.01286E+06,   1.01286E+06
C:/temp/Job-8.odb,Step-1,Increment      1: Step Time =    1.000,"P-8-1",           296,       165.304,       136.547,            0.,NA,NA,"",   1.05014E+06,   1.03764E+06,   1.03764E+06
C:/temp/Job-8.odb,Step-1,Increment      1: Step Time =    1.000,"P-8-1",           297,       156.621,       136.567,            0.,NA,NA,"",   1.09456E+06,   1.06164E+06,   1.06164E+06
C:/temp/Job-8.odb,Step-1,Increment      1: Step Time =    1.000,"P-8-1",           298,       146.609,       136.354,            0.,NA,NA,"",   1.16708E+06,   1.10878E+06,   1.10878E+06
C:/temp/Job-8.odb,Step-1,Increment      1: Step Time =    1.000,"P-8-1",           299,       135.510,       139.161,            0.,NA,NA,"",   1.25781E+06,   1.19092E+06,   1.19092E+06
C:/temp/Job-8.odb,Step-1,Increment      1: Step Time =    1.000,"P-8-1",           300,       127.835,       135.929,            0.,NA,NA,"",   1.31840E+06,   1.25336E+06,   1.25336E+06
C:/temp/Job-8.odb,Step-1,Increment      1: Step Time =    1.000,"P-8-1",           301,       115.326,       137.707,            0.,NA,NA,"",   1.27629E+06,   1.30129E+06,   1.30129E+06
C:/temp/Job-8.odb,Step-1,Increment      1: Step Time =    1.000,"P-8-1",           302,       105.786,       137.352,            0.,NA,NA,"",   1.21255E+06,   1.31405E+06,   1.31405E+06
C:/temp/Job-8.odb,Step-1,Increment      1: Step Time =    1.000,"P-8-1",           303,       94.9922,       136.481,            0.,NA,NA,"",   1.22161E+06,   1.32839E+06,   1.32839E+06
C:/temp/Job-8.odb,Step-1,Increment      1: Step Time =    1.000,"P-8-1",           304,       85.5317,       136.585,            0.,NA,NA,"",   1.28958E+06,   1.32269E+06,   1.32269E+06
C:/temp/Job-8.odb,Step-1,Increment      1: Step Time =    1.000,"P-8-1",           305,       71.4384,       136.243,            0.,NA,NA,"",   1.26684E+06,   1.22436E+06,   1.22436E+06
C:/temp/Job-8.odb,Step-1,Increment      1: Step Time =    1.000,"P-8-1",           306,       64.3292,       137.542,            0.,NA,NA,"",   1.20621E+06,   1.16615E+06,   1.16615E+06
C:/temp/Job-8.odb,Step-1,Increment      1: Step Time =    1.000,"P-8-1",           307,       50.9476,       139.830,            0.,NA,NA,"",   1.08933E+06,   1.08069E+06,   1.08069E+06
C:/temp/Job-8.odb,Step-1,Increment      1: Step Time =    1.000,"P-8-1",           308,       39.5657,       137.004,            0.,NA,NA,"",   974.013E+03,   1.00225E+06,   1.00225E+06
C:/temp/Job-8.odb,Step-1,Increment      1: Step Time =    1.000,"P-8-1",           309,       27.8642,       136.670,            0.,NA,NA,"",   902.816E+03,   961.574E+03,   961.574E+03
C:/temp/Job-8.odb,Step-1,Increment      1: Step Time =    1.000,"P-8-1",           310,       19.0888,       135.961,            0.,NA,NA,"",   856.467E+03,   933.685E+03,   933.685E+03
C:/temp/Job-8.odb,Step-1,Increment      1: Step Time =    1.000,"P-8-1",           311,       9.63692,       135.350,            0.,NA,NA,"",   817.287E+03,   909.140E+03,   909.140E+03
C:/temp/Job-8.odb,Step-1,Increment      1: Step Time =    1.000,"P-8-1",           312,       186.681,       147.469,            0.,NA,NA,"",   993.243E+03,   1.01036E+06,   1.01036E+06
C:/temp/Job-8.odb,Step-1,Increment      1: Step Time =    1.000,"P-8-1",           313,       177.353,       144.656,            0.,NA,NA,"",   1.01754E+06,   1.02404E+06,   1.02404E+06
C:/temp/Job-8.odb,Step-1,Increment      1: Step Time =    1.000,"P-8-1",           314,       167.509,       144.641,            0.,NA,NA,"",   1.05690E+06,   1.04594E+06,   1.04594E+06
C:/temp/Job-8.odb,Step-1,Increment      1: Step Time =    1.000,"P-8-1",           315,       157.595,       147.244,            0.,NA,NA,"",   1.10472E+06,   1.07676E+06,   1.07676E+06
C:/temp/Job-8.odb,Step-1,Increment      1: Step Time =    1.000,"P-8-1",           316,       146.108,       147.459,            0.,NA,NA,"",   1.16582E+06,   1.12209E+06,   1.12209E+06
C:/temp/Job-8.odb,Step-1,Increment      1: Step Time =    1.000,"P-8-1",           317,       134.308,       148.585,            0.,NA,NA,"",   1.20547E+06,   1.16739E+06,   1.16739E+06
C:/temp/Job-8.odb,Step-1,Increment      1: Step Time =    1.000,"P-8-1",           318,       125.074,       144.053,            0.,NA,NA,"",   1.24688E+06,   1.22497E+06,   1.22497E+06
C:/temp/Job-8.odb,Step-1,Increment      1: Step Time =    1.000,"P-8-1",           319,       116.494,       148.647,            0.,NA,NA,"",   1.16546E+06,   1.19100E+06,   1.19100E+06
C:/temp/Job-8.odb,Step-1,Increment      1: Step Time =    1.000,"P-8-1",           320,       105.406,       149.730,            0.,NA,NA,"",   1.09284E+06,   1.15921E+06,   1.15921E+06
C:/temp/Job-8.odb,Step-1,Increment      1: Step Time =    1.000,"P-8-1",           321,       95.8082,       146.107,            0.,NA,NA,"",   1.11216E+06,   1.19445E+06,   1.19445E+06
C:/temp/Job-8.odb,Step-1,Increment      1: Step Time =    1.000,"P-8-1",           322,       84.6402,       143.615,            0.,NA,NA,"",   1.21148E+06,   1.24362E+06,   1.24362E+06
C:/temp/Job-8.odb,Step-1,Increment      1: Step Time =    1.000,"P-8-1",           323,       75.5844,       144.845,            0.,NA,NA,"",   1.22878E+06,   1.22072E+06,   1.22072E+06
C:/temp/Job-8.odb,Step-1,Increment      1: Step Time =    1.000,"P-8-1",           324,       63.3290,       147.318,            0.,NA,NA,"",   1.18590E+06,   1.16333E+06,   1.16333E+06
C:/temp/Job-8.odb,Step-1,Increment      1: Step Time =    1.000,"P-8-1",           325,       51.7729,       146.341,            0.,NA,NA,"",   1.11505E+06,   1.10657E+06,   1.10657E+06
C:/temp/Job-8.odb,Step-1,Increment      1: Step Time =    1.000,"P-8-1",           326,       38.6152,       145.863,            0.,NA,NA,"",   1.02337E+06,   1.04831E+06,   1.04831E+06
C:/temp/Job-8.odb,Step-1,Increment      1: Step Time =    1.000,"P-8-1",           327,       32.8993,       145.650,            0.,NA,NA,"",   987.512E+03,   1.02751E+06,   1.02751E+06
C:/temp/Job-8.odb,Step-1,Increment      1: Step Time =    1.000,"P-8-1",           328,       18.9641,       150.636,            0.,NA,NA,"",   939.207E+03,   1.01091E+06,   1.01091E+06
C:/temp/Job-8.odb,Step-1,Increment      1: Step Time =    1.000,"P-8-1",           329,       9.26788,       150.022,            0.,NA,NA,"",   886.527E+03,   979.408E+03,   979.408E+03
C:/temp/Job-8.odb,Step-1,Increment      1: Step Time =    1.000,"P-8-1",           330,       188.198,       158.562,            0.,NA,NA,"",   998.881E+03,   1.00832E+06,   1.00832E+06
C:/temp/Job-8.odb,Step-1,Increment      1: Step Time =    1.000,"P-8-1",           331,       180.481,       157.043,            0.,NA,NA,"",   1.01478E+06,   1.01928E+06,   1.01928E+06
C:/temp/Job-8.odb,Step-1,Increment      1: Step Time =    1.000,"P-8-1",           332,       167.824,       156.494,            0.,NA,NA,"",   1.05522E+06,   1.04522E+06,   1.04522E+06
C:/temp/Job-8.odb,Step-1,Increment      1: Step Time =    1.000,"P-8-1",           333,       158.338,       157.810,            0.,NA,NA,"",   1.08754E+06,   1.06740E+06,   1.06740E+06
C:/temp/Job-8.odb,Step-1,Increment      1: Step Time =    1.000,"P-8-1",           334,       147.935,       159.844,            0.,NA,NA,"",   1.11270E+06,   1.08791E+06,   1.08791E+06
C:/temp/Job-8.odb,Step-1,Increment      1: Step Time =    1.000,"P-8-1",           335,       136.123,       159.031,            0.,NA,NA,"",   1.13821E+06,   1.11634E+06,   1.11634E+06
C:/temp/Job-8.odb,Step-1,Increment      1: Step Time =    1.000,"P-8-1",           336,       126.681,       158.874,            0.,NA,NA,"",   1.12993E+06,   1.12484E+06,   1.12484E+06
C:/temp/Job-8.odb,Step-1,Increment      1: Step Time =    1.000,"P-8-1",           337,       116.976,       159.713,            0.,NA,NA,"",   1.09180E+06,   1.11253E+06,   1.11253E+06
C:/temp/Job-8.odb,Step-1,Increment      1: Step Time =    1.000,"P-8-1",           338,       106.086,       161.146,            0.,NA,NA,"",   1.05036E+06,   1.09096E+06,   1.09096E+06
C:/temp/Job-8.odb,Step-1,Increment      1: Step Time =    1.000,"P-8-1",           339,       95.5311,       157.052,            0.,NA,NA,"",   1.06208E+06,   1.11477E+06,   1.11477E+06
C:/temp/Job-8.odb,Step-1,Increment      1: Step Time =    1.000,"P-8-1",           340,       85.2574,       154.591,            0.,NA,NA,"",   1.12159E+06,   1.15326E+06,   1.15326E+06
C:/temp/Job-8.odb,Step-1,Increment      1: Step Time =    1.000,"P-8-1",           341,       74.1421,       154.873,            0.,NA,NA,"",   1.16343E+06,   1.16255E+06,   1.16255E+06
C:/temp/Job-8.odb,Step-1,Increment      1: Step Time =    1.000,"P-8-1",           342,       65.0110,       157.797,            0.,NA,NA,"",   1.15532E+06,   1.14448E+06,   1.14448E+06
C:/temp/Job-8.odb,Step-1,Increment      1: Step Time =    1.000,"P-8-1",           343,       51.2271,       155.011,            0.,NA,NA,"",   1.12368E+06,   1.11827E+06,   1.11827E+06
C:/temp/Job-8.odb,Step-1,Increment      1: Step Time =    1.000,"P-8-1",           344,       42.0390,       158.059,            0.,NA,NA,"",   1.08990E+06,   1.10034E+06,   1.10034E+06
C:/temp/Job-8.odb,Step-1,Increment      1: Step Time =    1.000,"P-8-1",           345,       31.7155,       158.307,            0.,NA,NA,"",   1.04634E+06,   1.08010E+06,   1.08010E+06
C:/temp/Job-8.odb,Step-1,Increment      1: Step Time =    1.000,"P-8-1",           346,       17.6545,       159.503,            0.,NA,NA,"",   982.602E+03,   1.05294E+06,   1.05294E+06
C:/temp/Job-8.odb,Step-1,Increment      1: Step Time =    1.000,"P-8-1",           347,       8.97044,       159.468,            0.,NA,NA,"",   933.270E+03,   1.02626E+06,   1.02626E+06
C:/temp/Job-8.odb,Step-1,Increment      1: Step Time =    1.000,"P-8-1",           348,       189.974,       169.658,            0.,NA,NA,"",   1.00061E+06,   1.00467E+06,   1.00467E+06
C:/temp/Job-8.odb,Step-1,Increment      1: Step Time =    1.000,"P-8-1",           349,       176.826,       170.585,            0.,NA,NA,"",   1.01924E+06,   1.01825E+06,   1.01825E+06
C:/temp/Job-8.odb,Step-1,Increment      1: Step Time =    1.000,"P-8-1",           350,       168.871,       173.211,            0.,NA,NA,"",   1.02990E+06,   1.02509E+06,   1.02509E+06
C:/temp/Job-8.odb,Step-1,Increment      1: Step Time =    1.000,"P-8-1",           351,       157.174,       167.118,            0.,NA,NA,"",   1.06683E+06,   1.05265E+06,   1.05265E+06
C:/temp/Job-8.odb,Step-1,Increment      1: Step Time =    1.000,"P-8-1",           352,       146.424,       166.334,            0.,NA,NA,"",   1.08871E+06,   1.07059E+06,   1.07059E+06
C:/temp/Job-8.odb,Step-1,Increment      1: Step Time =    1.000,"P-8-1",           353,       134.039,       168.175,            0.,NA,NA,"",   1.08652E+06,   1.07604E+06,   1.07604E+06
C:/temp/Job-8.odb,Step-1,Increment      1: Step Time =    1.000,"P-8-1",           354,       124.878,       167.767,            0.,NA,NA,"",   1.07416E+06,   1.07622E+06,   1.07622E+06
C:/temp/Job-8.odb,Step-1,Increment      1: Step Time =    1.000,"P-8-1",           355,       113.662,       169.639,            0.,NA,NA,"",   1.03703E+06,   1.05630E+06,   1.05630E+06
C:/temp/Job-8.odb,Step-1,Increment      1: Step Time =    1.000,"P-8-1",           356,       105.545,       169.235,            0.,NA,NA,"",   1.02656E+06,   1.05390E+06,   1.05390E+06
C:/temp/Job-8.odb,Step-1,Increment      1: Step Time =    1.000,"P-8-1",           357,       96.9812,       166.786,            0.,NA,NA,"",   1.03334E+06,   1.06693E+06,   1.06693E+06
C:/temp/Job-8.odb,Step-1,Increment      1: Step Time =    1.000,"P-8-1",           358,       86.0000,       164.270,            0.,NA,NA,"",   1.07205E+06,   1.09668E+06,   1.09668E+06
C:/temp/Job-8.odb,Step-1,Increment      1: Step Time =    1.000,"P-8-1",           359,       73.7420,       168.573,            0.,NA,NA,"",   1.09697E+06,   1.10006E+06,   1.10006E+06
C:/temp/Job-8.odb,Step-1,Increment      1: Step Time =    1.000,"P-8-1",           360,       63.7839,       168.388,            0.,NA,NA,"",   1.11671E+06,   1.11143E+06,   1.11143E+06
C:/temp/Job-8.odb,Step-1,Increment      1: Step Time =    1.000,"P-8-1",           361,       53.1705,       165.339,            0.,NA,NA,"",   1.12420E+06,   1.11905E+06,   1.11905E+06
C:/temp/Job-8.odb,Step-1,Increment      1: Step Time =    1.000,"P-8-1",           362,       42.4903,       168.562,            0.,NA,NA,"",   1.11018E+06,   1.11564E+06,   1.11564E+06
C:/temp/Job-8.odb,Step-1,Increment      1: Step Time =    1.000,"P-8-1",           363,       30.0704,       170.083,            0.,NA,NA,"",   1.08877E+06,   1.11626E+06,   1.11626E+06
C:/temp/Job-8.odb,Step-1,Increment      1: Step Time =    1.000,"P-8-1",           364,       17.7941,       167.123,            0.,NA,NA,"",   1.03054E+06,   1.09467E+06,   1.09467E+06
C:/temp/Job-8.odb,Step-1,Increment      1: Step Time =    1.000,"P-8-1",           365,       9.33257,       168.900,            0.,NA,NA,"",   992.338E+03,   1.08195E+06,   1.08195E+06
C:/temp/Job-8.odb,Step-1,Increment      1: Step Time =    1.000,"P-8-1",           366,       190.078,       179.742,            0.,NA,NA,"",   1.00126E+06,   1.00260E+06,   1.00260E+06
C:/temp/Job-8.odb,Step-1,Increment      1: Step Time =    1.000,"P-8-1",           367,       177.176,       177.471,            0.,NA,NA,"",   1.01265E+06,   1.01202E+06,   1.01202E+06
C:/temp/Job-8.odb,Step-1,Increment      1: Step Time =    1.000,"P-8-1",           368,       168.267,       182.014,            0.,NA,NA,"",   1.01635E+06,   1.01375E+06,   1.01375E+06
C:/temp/Job-8.odb,Step-1,Increment      1: Step Time =    1.000,"P-8-1",           369,       159.814,       180.716,            0.,NA,NA,"",   1.02555E+06,   1.02029E+06,   1.02029E+06
C:/temp/Job-8.odb,Step-1,Increment      1: Step Time =    1.000,"P-8-1",           370,       149.238,       178.156,            0.,NA,NA,"",   1.03989E+06,   1.03149E+06,   1.03149E+06
C:/temp/Job-8.odb,Step-1,Increment      1: Step Time =    1.000,"P-8-1",           371,       134.273,       179.789,            0.,NA,NA,"",   1.02898E+06,   1.02490E+06,   1.02490E+06
C:/temp/Job-8.odb,Step-1,Increment      1: Step Time =    1.000,"P-8-1",           372,       124.341,       179.462,            0.,NA,NA,"",   1.01626E+06,   1.01873E+06,   1.01873E+06
C:/temp/Job-8.odb,Step-1,Increment      1: Step Time =    1.000,"P-8-1",           373,       114.755,       180.369,            0.,NA,NA,"",    996.59E+03,   1.00510E+06,   1.00510E+06
C:/temp/Job-8.odb,Step-1,Increment      1: Step Time =    1.000,"P-8-1",           374,       105.474,       180.907,            0.,NA,NA,"",   986.771E+03,   999.142E+03,   999.142E+03
C:/temp/Job-8.odb,Step-1,Increment      1: Step Time =    1.000,"P-8-1",           375,       96.3417,       180.261,            0.,NA,NA,"",   992.672E+03,   1.00596E+06,   1.00596E+06
C:/temp/Job-8.odb,Step-1,Increment      1: Step Time =    1.000,"P-8-1",           376,       87.7329,       177.777,            0.,NA,NA,"",   1.01680E+06,   1.03007E+06,   1.03007E+06
C:/temp/Job-8.odb,Step-1,Increment      1: Step Time =    1.000,"P-8-1",           377,       72.8367,       179.277,            0.,NA,NA,"",   1.05166E+06,   1.05271E+06,   1.05271E+06
C:/temp/Job-8.odb,Step-1,Increment      1: Step Time =    1.000,"P-8-1",           378,       63.3195,       178.114,            0.,NA,NA,"",   1.07780E+06,   1.07473E+06,   1.07473E+06
C:/temp/Job-8.odb,Step-1,Increment      1: Step Time =    1.000,"P-8-1",           379,       51.4933,       179.392,            0.,NA,NA,"",   1.09472E+06,   1.09235E+06,   1.09235E+06
C:/temp/Job-8.odb,Step-1,Increment      1: Step Time =    1.000,"P-8-1",           380,       39.6533,       178.518,            0.,NA,NA,"",   1.11291E+06,   1.11760E+06,   1.11760E+06
C:/temp/Job-8.odb,Step-1,Increment      1: Step Time =    1.000,"P-8-1",           381,       30.9497,       179.799,            0.,NA,NA,"",   1.12349E+06,   1.13802E+06,   1.13802E+06
C:/temp/Job-8.odb,Step-1,Increment      1: Step Time =    1.000,"P-8-1",           382,       22.0091,       178.778,            0.,NA,NA,"",   1.12549E+06,   1.15855E+06,   1.15855E+06
C:/temp/Job-8.odb,Step-1,Increment      1: Step Time =    1.000,"P-8-1",           383,       11.1771,       179.129,            0.,NA,NA,"",   1.09128E+06,   1.16373E+06,   1.16373E+06
C:/temp/Job-8.odb,Step-1,Increment      1: Step Time =    1.000,"P-8-1",           384,       189.829,       189.737,            0.,NA,NA,"",   1.00057E+06,   1.00087E+06,   1.00087E+06
C:/temp/Job-8.odb,Step-1,Increment      1: Step Time =    1.000,"P-8-1",           385,       179.375,       189.581,            0.,NA,NA,"",   1.00300E+06,   1.00300E+06,   1.00300E+06
C:/temp/Job-8.odb,Step-1,Increment      1: Step Time =    1.000,"P-8-1",           386,       169.109,       190.461,            0.,NA,NA,"",   1.00520E+06,   1.00433E+06,   1.00433E+06
C:/temp/Job-8.odb,Step-1,Increment      1: Step Time =    1.000,"P-8-1",           387,       159.402,       190.290,            0.,NA,NA,"",   1.00560E+06,   1.00385E+06,   1.00385E+06
C:/temp/Job-8.odb,Step-1,Increment      1: Step Time =    1.000,"P-8-1",           388,       149.548,       189.883,            0.,NA,NA,"",   1.00204E+06,   999.713E+03,   999.713E+03
C:/temp/Job-8.odb,Step-1,Increment      1: Step Time =    1.000,"P-8-1",           389,       134.618,       190.047,            0.,NA,NA,"",   984.011E+03,   982.811E+03,   982.811E+03
C:/temp/Job-8.odb,Step-1,Increment      1: Step Time =    1.000,"P-8-1",           390,       124.827,       190.079,            0.,NA,NA,"",   966.878E+03,   967.447E+03,   967.447E+03
C:/temp/Job-8.odb,Step-1,Increment      1: Step Time =    1.000,"P-8-1",           391,       115.044,       190.227,            0.,NA,NA,"",   950.694E+03,   953.297E+03,   953.297E+03
C:/temp/Job-8.odb,Step-1,Increment      1: Step Time =    1.000,"P-8-1",           392,       105.186,       190.250,            0.,NA,NA,"",   942.835E+03,   946.761E+03,   946.761E+03
C:/temp/Job-8.odb,Step-1,Increment      1: Step Time =    1.000,"P-8-1",           393,       95.1730,       189.829,            0.,NA,NA,"",   949.609E+03,   953.980E+03,   953.980E+03
C:/temp/Job-8.odb,Step-1,Increment      1: Step Time =    1.000,"P-8-1",           394,       84.8179,       189.130,            0.,NA,NA,"",   971.316E+03,   974.416E+03,   974.416E+03
C:/temp/Job-8.odb,Step-1,Increment      1: Step Time =    1.000,"P-8-1",           395,       74.5121,       190.032,            0.,NA,NA,"",   994.478E+03,   994.878E+03,   994.878E+03
C:/temp/Job-8.odb,Step-1,Increment      1: Step Time =    1.000,"P-8-1",           396,       64.8199,       191.037,            0.,NA,NA,"",   1.01873E+06,   1.01781E+06,   1.01781E+06
C:/temp/Job-8.odb,Step-1,Increment      1: Step Time =    1.000,"P-8-1",           397,       51.8288,       187.524,            0.,NA,NA,"",   1.07068E+06,   1.06902E+06,   1.06902E+06
C:/temp/Job-8.odb,Step-1,Increment      1: Step Time =    1.000,"P-8-1",           398,       41.4490,       188.910,            0.,NA,NA,"",   1.09193E+06,   1.09263E+06,   1.09263E+06
C:/temp/Job-8.odb,Step-1,Increment      1: Step Time =    1.000,"P-8-1",           399,       30.6143,       189.534,            0.,NA,NA,"",   1.12696E+06,   1.13189E+06,   1.13189E+06
C:/temp/Job-8.odb,Step-1,Increment      1: Step Time =    1.000,"P-8-1",           400,       20.3716,       189.444,            0.,NA,NA,"",   1.17972E+06,   1.19361E+06,   1.19361E+06
C:/temp/Job-8.odb,Step-1,Increment      1: Step Time =    1.000,"P-8-1",           401,       10.1945,       189.825,            0.,NA,NA,"",   1.25603E+06,   1.29958E+06,   1.29958E+06
C:/temp/Job-8.odb,Step-1,Increment      1: Step Time =    1.000,"P-8-1",           402,       95.0824,       118.353,            0.,NA,NA,"",   2.21976E+06,   2.29983E+06,   2.29983E+06
C:/temp/Job-8.odb,Step-1,Increment      1: Step Time =    1.000,"P-8-1",           403,       86.5650,       113.435,            0.,NA,NA,"",   1.14126E+06,   1.13743E+06,   1.13743E+06
C:/temp/Job-8.odb,Step-1,Increment      1: Step Time =    1.000,"P-8-1",           404,       81.6474,       104.918,            0.,NA,NA,"",   529.588E+03,  -480.605E+03,  -480.605E+03
C:/temp/Job-8.odb,Step-1,Increment      1: Step Time =    1.000,"P-8-1",           405,       83.5455,          90.5,            0.,NA,NA,"",   600.920E+03,   195.296E+03,   195.296E+03
C:/temp/Job-8.odb,Step-1,Increment      1: Step Time =    1.000,"P-8-1",           406,          90.5,       83.5455,            0.,NA,NA,"",   1.66790E+06,   1.71274E+06,   1.71274E+06
C:/temp/Job-8.odb,Step-1,Increment      1: Step Time =    1.000,"P-8-1",           407,          100.,           81.,            0.,NA,NA,"",   2.24009E+06,   2.35867E+06,   2.35867E+06
C:/temp/Job-8.odb,Step-1,Increment      1: Step Time =    1.000,"P-8-1",           408,         109.5,       83.5455,            0.,NA,NA,"",   1.66129E+06,   1.70832E+06,   1.70832E+06
C:/temp/Job-8.odb,Step-1,Increment      1: Step Time =    1.000,"P-8-1",           409,       116.454,          90.5,            0.,NA,NA,"",   576.086E+03,   112.030E+03,   112.030E+03
C:/temp/Job-8.odb,Step-1,Increment      1: Step Time =    1.000,"P-8-1",           410,       118.353,       104.918,            0.,NA,NA,"",   602.771E+03,  -520.298E+03,  -520.298E+03
C:/temp/Job-8.odb,Step-1,Increment      1: Step Time =    1.000,"P-8-1",           411,       113.435,       113.435,            0.,NA,NA,"",   1.22167E+06,   1.21882E+06,   1.21882E+06
C:/temp/Job-8.odb,Step-1,Increment      1: Step Time =    1.000,"P-8-1",           412,       104.918,       118.353,            0.,NA,NA,"",   2.27564E+06,   2.35670E+06,   2.35670E+06
C:/temp/Job-8.odb,Step-1,Increment      1: Step Time =    1.000,"P-8-1",           413,          195.,            0.,            0.,NA,NA,"",   999.750E+03,   999.727E+03,   999.727E+03
C:/temp/Job-8.odb,Step-1,Increment      1: Step Time =    1.000,"P-8-1",           414,          185.,            0.,            0.,NA,NA,"",   999.145E+03,   999.184E+03,   999.184E+03
C:/temp/Job-8.odb,Step-1,Increment      1: Step Time =    1.000,"P-8-1",           415,          175.,            0.,            0.,NA,NA,"",   999.181E+03,   999.129E+03,   999.129E+03
C:/temp/Job-8.odb,Step-1,Increment      1: Step Time =    1.000,"P-8-1",           416,          165.,            0.,            0.,NA,NA,"",   997.569E+03,   997.423E+03,   997.423E+03
C:/temp/Job-8.odb,Step-1,Increment      1: Step Time =    1.000,"P-8-1",           417,          155.,            0.,            0.,NA,NA,"",   991.112E+03,   990.882E+03,   990.882E+03
C:/temp/Job-8.odb,Step-1,Increment      1: Step Time =    1.000,"P-8-1",           418,          145.,            0.,            0.,NA,NA,"",   976.242E+03,   976.038E+03,   976.038E+03
C:/temp/Job-8.odb,Step-1,Increment      1: Step Time =    1.000,"P-8-1",           419,          135.,            0.,            0.,NA,NA,"",   954.214E+03,   954.067E+03,   954.067E+03
C:/temp/Job-8.odb,Step-1,Increment      1: Step Time =    1.000,"P-8-1",           420,          125.,            0.,            0.,NA,NA,"",   928.495E+03,   928.583E+03,   928.583E+03
C:/temp/Job-8.odb,Step-1,Increment      1: Step Time =    1.000,"P-8-1",           421,          115.,            0.,            0.,NA,NA,"",   905.795E+03,   906.125E+03,   906.125E+03
C:/temp/Job-8.odb,Step-1,Increment      1: Step Time =    1.000,"P-8-1",           422,          105.,            0.,            0.,NA,NA,"",   893.942E+03,   894.451E+03,   894.451E+03
C:/temp/Job-8.odb,Step-1,Increment      1: Step Time =    1.000,"P-8-1",           423,           95.,            0.,            0.,NA,NA,"",   898.462E+03,   898.962E+03,   898.962E+03
C:/temp/Job-8.odb,Step-1,Increment      1: Step Time =    1.000,"P-8-1",           424,           85.,            0.,            0.,NA,NA,"",   919.196E+03,   919.522E+03,   919.522E+03
C:/temp/Job-8.odb,Step-1,Increment      1: Step Time =    1.000,"P-8-1",           425,           75.,            0.,            0.,NA,NA,"",   951.005E+03,   951.113E+03,   951.113E+03
C:/temp/Job-8.odb,Step-1,Increment      1: Step Time =    1.000,"P-8-1",           426,           65.,            0.,            0.,NA,NA,"",   987.149E+03,   987.080E+03,   987.080E+03
C:/temp/Job-8.odb,Step-1,Increment      1: Step Time =    1.000,"P-8-1",           427,           55.,            0.,            0.,NA,NA,"",   1.02167E+06,   1.02159E+06,   1.02159E+06
C:/temp/Job-8.odb,Step-1,Increment      1: Step Time =    1.000,"P-8-1",           428,           45.,            0.,            0.,NA,NA,"",   1.05234E+06,   1.05244E+06,   1.05244E+06
C:/temp/Job-8.odb,Step-1,Increment      1: Step Time =    1.000,"P-8-1",           429,           35.,            0.,            0.,NA,NA,"",   1.08249E+06,   1.08302E+06,   1.08302E+06
C:/temp/Job-8.odb,Step-1,Increment      1: Step Time =    1.000,"P-8-1",           430,           25.,            0.,            0.,NA,NA,"",   1.12423E+06,   1.12575E+06,   1.12575E+06
C:/temp/Job-8.odb,Step-1,Increment      1: Step Time =    1.000,"P-8-1",           431,           15.,            0.,            0.,NA,NA,"",   1.20776E+06,   1.21311E+06,   1.21311E+06
C:/temp/Job-8.odb,Step-1,Increment      1: Step Time =    1.000,"P-8-1",           432,            5.,            0.,            0.,NA,NA,"",   1.50742E+06,   1.54176E+06,   1.54176E+06
C:/temp/Job-8.odb,Step-1,Increment      1: Step Time =    1.000,"P-8-1",           433,          200.,          195.,            0.,NA,NA,"",   1.00009E+06,   999.951E+03,   999.951E+03
C:/temp/Job-8.odb,Step-1,Increment      1: Step Time =    1.000,"P-8-1",           434,          200.,          185.,            0.,NA,NA,"",   1.00048E+06,   1.00020E+06,   1.00020E+06
C:/temp/Job-8.odb,Step-1,Increment      1: Step Time =    1.000,"P-8-1",           435,          200.,          175.,            0.,NA,NA,"",   999.301E+03,   1.00050E+06,   1.00050E+06
C:/temp/Job-8.odb,Step-1,Increment      1: Step Time =    1.000,"P-8-1",           436,          200.,          165.,            0.,NA,NA,"",   994.398E+03,   1.00071E+06,   1.00071E+06
C:/temp/Job-8.odb,Step-1,Increment      1: Step Time =    1.000,"P-8-1",           437,          200.,          155.,            0.,NA,NA,"",   985.051E+03,   1.00069E+06,   1.00069E+06
C:/temp/Job-8.odb,Step-1,Increment      1: Step Time =    1.000,"P-8-1",           438,          200.,          145.,            0.,NA,NA,"",   970.085E+03,   1.00040E+06,   1.00040E+06
C:/temp/Job-8.odb,Step-1,Increment      1: Step Time =    1.000,"P-8-1",           439,          200.,          135.,            0.,NA,NA,"",   952.294E+03,   1.00037E+06,   1.00037E+06
C:/temp/Job-8.odb,Step-1,Increment      1: Step Time =    1.000,"P-8-1",           440,          200.,          125.,            0.,NA,NA,"",   934.291E+03,   999.840E+03,   999.840E+03
C:/temp/Job-8.odb,Step-1,Increment      1: Step Time =    1.000,"P-8-1",           441,          200.,          115.,            0.,NA,NA,"",   920.200E+03,   999.254E+03,   999.254E+03
C:/temp/Job-8.odb,Step-1,Increment      1: Step Time =    1.000,"P-8-1",           442,          200.,          105.,            0.,NA,NA,"",   911.832E+03,   998.497E+03,   998.497E+03
C:/temp/Job-8.odb,Step-1,Increment      1: Step Time =    1.000,"P-8-1",           443,          200.,           95.,            0.,NA,NA,"",   911.854E+03,   998.636E+03,   998.636E+03
C:/temp/Job-8.odb,Step-1,Increment      1: Step Time =    1.000,"P-8-1",           444,          200.,           85.,            0.,NA,NA,"",   919.957E+03,   999.169E+03,   999.169E+03
C:/temp/Job-8.odb,Step-1,Increment      1: Step Time =    1.000,"P-8-1",           445,          200.,           75.,            0.,NA,NA,"",   934.515E+03,   999.823E+03,   999.823E+03
C:/temp/Job-8.odb,Step-1,Increment      1: Step Time =    1.000,"P-8-1",           446,          200.,           65.,            0.,NA,NA,"",   952.663E+03,   1.00037E+06,   1.00037E+06
C:/temp/Job-8.odb,Step-1,Increment      1: Step Time =    1.000,"P-8-1",           447,          200.,           55.,            0.,NA,NA,"",   970.678E+03,   1.00067E+06,   1.00067E+06
C:/temp/Job-8.odb,Step-1,Increment      1: Step Time =    1.000,"P-8-1",           448,          200.,           45.,            0.,NA,NA,"",   985.202E+03,   1.00067E+06,   1.00067E+06
C:/temp/Job-8.odb,Step-1,Increment      1: Step Time =    1.000,"P-8-1",           449,          200.,           35.,            0.,NA,NA,"",   994.671E+03,   1.00055E+06,   1.00055E+06
C:/temp/Job-8.odb,Step-1,Increment      1: Step Time =    1.000,"P-8-1",           450,          200.,           25.,            0.,NA,NA,"",   999.225E+03,   1.00040E+06,   1.00040E+06
C:/temp/Job-8.odb,Step-1,Increment      1: Step Time =    1.000,"P-8-1",           451,          200.,           15.,            0.,NA,NA,"",   1.00047E+06,   1.00024E+06,   1.00024E+06
C:/temp/Job-8.odb,Step-1,Increment      1: Step Time =    1.000,"P-8-1",           452,          200.,            5.,            0.,NA,NA,"",   1.00009E+06,   999.961E+03,   999.961E+03
C:/temp/Job-8.odb,Step-1,Increment      1: Step Time =    1.000,"P-8-1",           453,            5.,          200.,            0.,NA,NA,"",   1.50886E+06,   1.54381E+06,   1.54381E+06
C:/temp/Job-8.odb,Step-1,Increment      1: Step Time =    1.000,"P-8-1",           454,           15.,          200.,            0.,NA,NA,"",   1.20941E+06,   1.21512E+06,   1.21512E+06
C:/temp/Job-8.odb,Step-1,Increment      1: Step Time =    1.000,"P-8-1",           455,           25.,          200.,            0.,NA,NA,"",   1.12604E+06,   1.12769E+06,   1.12769E+06
C:/temp/Job-8.odb,Step-1,Increment      1: Step Time =    1.000,"P-8-1",           456,           35.,          200.,            0.,NA,NA,"",   1.08337E+06,   1.08399E+06,   1.08399E+06
C:/temp/Job-8.odb,Step-1,Increment      1: Step Time =    1.000,"P-8-1",           457,           45.,          200.,            0.,NA,NA,"",   1.05286E+06,   1.05299E+06,   1.05299E+06
C:/temp/Job-8.odb,Step-1,Increment      1: Step Time =    1.000,"P-8-1",           458,           55.,          200.,            0.,NA,NA,"",   1.02049E+06,   1.02051E+06,   1.02051E+06
C:/temp/Job-8.odb,Step-1,Increment      1: Step Time =    1.000,"P-8-1",           459,           65.,          200.,            0.,NA,NA,"",   986.227E+03,   986.133E+03,   986.133E+03
C:/temp/Job-8.odb,Step-1,Increment      1: Step Time =    1.000,"P-8-1",           460,           75.,          200.,            0.,NA,NA,"",   950.523E+03,   950.617E+03,   950.617E+03
C:/temp/Job-8.odb,Step-1,Increment      1: Step Time =    1.000,"P-8-1",           461,           85.,          200.,            0.,NA,NA,"",   919.789E+03,   920.058E+03,   920.058E+03
C:/temp/Job-8.odb,Step-1,Increment      1: Step Time =    1.000,"P-8-1",           462,           95.,          200.,            0.,NA,NA,"",   899.074E+03,    899.64E+03,    899.64E+03
C:/temp/Job-8.odb,Step-1,Increment      1: Step Time =    1.000,"P-8-1",           463,          105.,          200.,            0.,NA,NA,"",   894.605E+03,   895.113E+03,   895.113E+03
C:/temp/Job-8.odb,Step-1,Increment      1: Step Time =    1.000,"P-8-1",           464,          115.,          200.,            0.,NA,NA,"",   906.471E+03,   906.819E+03,   906.819E+03
C:/temp/Job-8.odb,Step-1,Increment      1: Step Time =    1.000,"P-8-1",           465,          125.,          200.,            0.,NA,NA,"",   929.388E+03,   929.467E+03,   929.467E+03
C:/temp/Job-8.odb,Step-1,Increment      1: Step Time =    1.000,"P-8-1",           466,          135.,          200.,            0.,NA,NA,"",   955.312E+03,   955.173E+03,   955.173E+03
C:/temp/Job-8.odb,Step-1,Increment      1: Step Time =    1.000,"P-8-1",           467,          145.,          200.,            0.,NA,NA,"",   977.390E+03,   977.125E+03,   977.125E+03
C:/temp/Job-8.odb,Step-1,Increment      1: Step Time =    1.000,"P-8-1",           468,          155.,          200.,            0.,NA,NA,"",   991.681E+03,   991.425E+03,   991.425E+03
C:/temp/Job-8.odb,Step-1,Increment      1: Step Time =    1.000,"P-8-1",           469,          165.,          200.,            0.,NA,NA,"",   998.143E+03,   997.979E+03,   997.979E+03
C:/temp/Job-8.odb,Step-1,Increment      1: Step Time =    1.000,"P-8-1",           470,          175.,          200.,            0.,NA,NA,"",   999.372E+03,   999.326E+03,   999.326E+03
C:/temp/Job-8.odb,Step-1,Increment      1: Step Time =    1.000,"P-8-1",           471,          185.,          200.,            0.,NA,NA,"",   999.185E+03,   999.223E+03,   999.223E+03
C:/temp/Job-8.odb,Step-1,Increment      1: Step Time =    1.000,"P-8-1",           472,          195.,          200.,            0.,NA,NA,"",   999.748E+03,   999.723E+03,   999.723E+03
C:/temp/Job-8.odb,Step-1,Increment      1: Step Time =    1.000,"P-8-1",           473,            0.,            5.,            0.,NA,NA,"",   1.45122E+06,   1.54227E+06,   1.54227E+06
C:/temp/Job-8.odb,Step-1,Increment      1: Step Time =    1.000,"P-8-1",           474,            0.,           15.,            0.,NA,NA,"",   1.10023E+06,   1.20759E+06,   1.20759E+06
C:/temp/Job-8.odb,Step-1,Increment      1: Step Time =    1.000,"P-8-1",           475,            0.,           25.,            0.,NA,NA,"",   992.869E+03,   1.10082E+06,   1.10082E+06
C:/temp/Job-8.odb,Step-1,Increment      1: Step Time =    1.000,"P-8-1",           476,            0.,           35.,            0.,NA,NA,"",   924.713E+03,   1.03207E+06,   1.03207E+06
C:/temp/Job-8.odb,Step-1,Increment      1: Step Time =    1.000,"P-8-1",           477,            0.,           45.,            0.,NA,NA,"",   875.089E+03,   980.991E+03,   980.991E+03
C:/temp/Job-8.odb,Step-1,Increment      1: Step Time =    1.000,"P-8-1",           478,            0.,           55.,            0.,NA,NA,"",   830.628E+03,   934.241E+03,   934.241E+03
C:/temp/Job-8.odb,Step-1,Increment      1: Step Time =    1.000,"P-8-1",           479,            0.,           65.,            0.,NA,NA,"",   790.712E+03,   891.047E+03,   891.047E+03
C:/temp/Job-8.odb,Step-1,Increment      1: Step Time =    1.000,"P-8-1",           480,            0.,           75.,            0.,NA,NA,"",   755.363E+03,   852.295E+03,   852.295E+03
C:/temp/Job-8.odb,Step-1,Increment      1: Step Time =    1.000,"P-8-1",           481,            0.,           85.,            0.,NA,NA,"",   727.926E+03,   822.162E+03,   822.162E+03
C:/temp/Job-8.odb,Step-1,Increment      1: Step Time =    1.000,"P-8-1",           482,            0.,           95.,            0.,NA,NA,"",   712.126E+03,   804.905E+03,   804.905E+03
C:/temp/Job-8.odb,Step-1,Increment      1: Step Time =    1.000,"P-8-1",           483,            0.,          105.,            0.,NA,NA,"",   712.337E+03,   805.119E+03,   805.119E+03
C:/temp/Job-8.odb,Step-1,Increment      1: Step Time =    1.000,"P-8-1",           484,            0.,          115.,            0.,NA,NA,"",   728.120E+03,   822.336E+03,   822.336E+03
C:/temp/Job-8.odb,Step-1,Increment      1: Step Time =    1.000,"P-8-1",           485,            0.,          125.,            0.,NA,NA,"",   756.302E+03,   853.095E+03,   853.095E+03
C:/temp/Job-8.odb,Step-1,Increment      1: Step Time =    1.000,"P-8-1",           486,            0.,          135.,            0.,NA,NA,"",   792.435E+03,   892.506E+03,   892.506E+03
C:/temp/Job-8.odb,Step-1,Increment      1: Step Time =    1.000,"P-8-1",           487,            0.,          145.,            0.,NA,NA,"",   832.211E+03,   935.674E+03,   935.674E+03
C:/temp/Job-8.odb,Step-1,Increment      1: Step Time =    1.000,"P-8-1",           488,            0.,          155.,            0.,NA,NA,"",   874.604E+03,   981.057E+03,   981.057E+03
C:/temp/Job-8.odb,Step-1,Increment      1: Step Time =    1.000,"P-8-1",           489,            0.,          165.,            0.,NA,NA,"",   923.843E+03,   1.03240E+06,   1.03240E+06
C:/temp/Job-8.odb,Step-1,Increment      1: Step Time =    1.000,"P-8-1",           490,            0.,          175.,            0.,NA,NA,"",   990.697E+03,   1.09993E+06,   1.09993E+06
C:/temp/Job-8.odb,Step-1,Increment      1: Step Time =    1.000,"P-8-1",           491,            0.,          185.,            0.,NA,NA,"",   1.09905E+06,   1.20753E+06,   1.20753E+06
C:/temp/Job-8.odb,Step-1,Increment      1: Step Time =    1.000,"P-8-1",           492,            0.,          195.,            0.,NA,NA,"",   1.44985E+06,   1.54202E+06,   1.54202E+06
C:/temp/Job-8.odb,Step-1,Increment      1: Step Time =    1.000,"P-8-1",           493,       92.8119,       122.550,            0.,NA,NA,"",   1.88464E+06,   1.97845E+06,   1.97845E+06
C:/temp/Job-8.odb,Step-1,Increment      1: Step Time =    1.000,"P-8-1",           494,       110.599,       77.4120,            0.,NA,NA,"",   1.69629E+06,   1.75492E+06,   1.75492E+06
C:/temp/Job-8.odb,Step-1,Increment      1: Step Time =    1.000,"P-8-1",           495,       91.9905,       76.8969,            0.,NA,NA,"",   1.81490E+06,   1.89813E+06,   1.89813E+06
C:/temp/Job-8.odb,Step-1,Increment      1: Step Time =    1.000,"P-8-1",           496,       124.915,       98.2991,            0.,NA,NA,"",   416.346E+03,  -244.247E+03,  -244.247E+03
C:/temp/Job-8.odb,Step-1,Increment      1: Step Time =    1.000,"P-8-1",           497,       117.871,       84.4539,            0.,NA,NA,"",   1.17816E+06,   1.07329E+06,   1.07329E+06
C:/temp/Job-8.odb,Step-1,Increment      1: Step Time =    1.000,"P-8-1",           498,       123.542,       101.944,            0.,NA,NA,"",   504.027E+03,  -292.779E+03,  -292.779E+03
C:/temp/Job-8.odb,Step-1,Increment      1: Step Time =    1.000,"P-8-1",           499,       102.595,       75.6202,            0.,NA,NA,"",   1.85013E+06,   1.98906E+06,   1.98906E+06
C:/temp/Job-8.odb,Step-1,Increment      1: Step Time =    1.000,"P-8-1",           500,       75.2459,       97.6799,            0.,NA,NA,"",   377.188E+03,  -143.353E+03,  -143.353E+03
C:/temp/Job-8.odb,Step-1,Increment      1: Step Time =    1.000,"P-8-1",           501,       106.754,       122.323,            0.,NA,NA,"",   1.94467E+06,   2.04351E+06,   2.04351E+06
C:/temp/Job-8.odb,Step-1,Increment      1: Step Time =    1.000,"P-8-1",           502,       115.050,       118.014,            0.,NA,NA,"",   1.37705E+06,   1.34662E+06,   1.34662E+06
C:/temp/Job-8.odb,Step-1,Increment      1: Step Time =    1.000,"P-8-1",           503,       118.548,       116.692,            0.,NA,NA,"",   1.19707E+06,   1.07858E+06,   1.07858E+06
C:/temp/Job-8.odb,Step-1,Increment      1: Step Time =    1.000,"P-8-1",           504,       122.463,       111.051,            0.,NA,NA,"",   839.946E+03,   463.385E+03,   463.385E+03
C:/temp/Job-8.odb,Step-1,Increment      1: Step Time =    1.000,"P-8-1",           505,       80.8082,       115.903,            0.,NA,NA,"",   1.07507E+06,   962.821E+03,   962.821E+03
C:/temp/Job-8.odb,Step-1,Increment      1: Step Time =    1.000,"P-8-1",           506,       76.7604,       101.398,            0.,NA,NA,"",   437.451E+03,  -341.069E+03,  -341.069E+03
C:/temp/Job-8.odb,Step-1,Increment      1: Step Time =    1.000,"P-8-1",           507,       96.0831,       74.8826,            0.,NA,NA,"",   1.79345E+06,   1.92726E+06,   1.92726E+06
C:/temp/Job-8.odb,Step-1,Increment      1: Step Time =    1.000,"P-8-1",           508,       76.6016,       90.6589,            0.,NA,NA,"",   658.235E+03,   183.569E+03,   183.569E+03
C:/temp/Job-8.odb,Step-1,Increment      1: Step Time =    1.000,"P-8-1",           509,       103.072,       124.570,            0.,NA,NA,"",   1.86163E+06,   2.00173E+06,   2.00173E+06
C:/temp/Job-8.odb,Step-1,Increment      1: Step Time =    1.000,"P-8-1",           510,       116.204,       80.9190,            0.,NA,NA,"",   1.43104E+06,   1.38651E+06,   1.38651E+06
C:/temp/Job-8.odb,Step-1,Increment      1: Step Time =    1.000,"P-8-1",           511,       123.545,       91.6518,            0.,NA,NA,"",   670.401E+03,   127.367E+03,   127.367E+03
C:/temp/Job-8.odb,Step-1,Increment      1: Step Time =    1.000,"P-8-1",           512,       79.7224,       86.9523,            0.,NA,NA,"",   866.175E+03,   575.310E+03,   575.310E+03
C:/temp/Job-8.odb,Step-1,Increment      1: Step Time =    1.000,"P-8-1",           513,       78.0418,       109.795,            0.,NA,NA,"",   687.969E+03,   353.919E+03,   353.919E+03
C:/temp/Job-8.odb,Step-1,Increment      1: Step Time =    1.000,"P-8-1",           514,       83.2616,       82.8838,            0.,NA,NA,"",   1.19839E+06,   1.14657E+06,   1.14657E+06
C:/temp/Job-8.odb,Step-1,Increment      1: Step Time =    1.000,"P-8-1",           515,       84.4291,       117.994,            0.,NA,NA,"",   1.29978E+06,   1.26465E+06,   1.26465E+06
C:/temp/Job-8.odb,Step-1,Increment      1: Step Time =    1.000,"P-8-1",           516,       96.6540,       124.202,            0.,NA,NA,"",   1.85796E+06,   1.99472E+06,   1.99472E+06
C:/temp/Job-8.odb,Step-1,Increment      1: Step Time =    1.000,"P-8-1",           517,       195.150,       94.7019,            0.,NA,NA,"",   915.852E+03,   996.050E+03,   996.050E+03
C:/temp/Job-8.odb,Step-1,Increment      1: Step Time =    1.000,"P-8-1",           518,       195.042,       104.750,            0.,NA,NA,"",   915.702E+03,   995.737E+03,   995.737E+03
C:/temp/Job-8.odb,Step-1,Increment      1: Step Time =    1.000,"P-8-1",           519,       105.068,       195.089,            0.,NA,NA,"",   911.935E+03,   913.355E+03,   913.355E+03
C:/temp/Job-8.odb,Step-1,Increment      1: Step Time =    1.000,"P-8-1",           520,       95.0086,       194.873,            0.,NA,NA,"",   917.464E+03,   919.059E+03,   919.059E+03
C:/temp/Job-8.odb,Step-1,Increment      1: Step Time =    1.000,"P-8-1",           521,       4.96349,       105.094,            0.,NA,NA,"",   712.755E+03,   805.119E+03,   805.119E+03
C:/temp/Job-8.odb,Step-1,Increment      1: Step Time =    1.000,"P-8-1",           522,       4.87293,       95.0807,            0.,NA,NA,"",   712.411E+03,   804.773E+03,   804.773E+03
C:/temp/Job-8.odb,Step-1,Increment      1: Step Time =    1.000,"P-8-1",           523,       94.8511,       4.88905,            0.,NA,NA,"",   916.213E+03,   917.601E+03,   917.601E+03
C:/temp/Job-8.odb,Step-1,Increment      1: Step Time =    1.000,"P-8-1",           524,       104.849,       4.90578,            0.,NA,NA,"",   911.386E+03,   912.841E+03,   912.841E+03
C:/temp/Job-8.odb,Step-1,Increment      1: Step Time =    1.000,"P-8-1",           525,       5.39439,       10.1482,            0.,NA,NA,"",   1.23395E+06,   1.31503E+06,   1.31503E+06
C:/temp/Job-8.odb,Step-1,Increment      1: Step Time =    1.000,"P-8-1",           526,       5.71435,       15.3041,            0.,NA,NA,"",   1.12240E+06,   1.21372E+06,   1.21372E+06
C:/temp/Job-8.odb,Step-1,Increment      1: Step Time =    1.000,"P-8-1",           527,       5.79438,       25.5683,            0.,NA,NA,"",   1.00951E+06,   1.10768E+06,   1.10768E+06
C:/temp/Job-8.odb,Step-1,Increment      1: Step Time =    1.000,"P-8-1",           528,       5.51261,       35.8951,            0.,NA,NA,"",   938.470E+03,   1.03928E+06,   1.03928E+06
C:/temp/Job-8.odb,Step-1,Increment      1: Step Time =    1.000,"P-8-1",           529,       5.00572,       45.9040,            0.,NA,NA,"",   885.066E+03,   986.141E+03,   986.141E+03
C:/temp/Job-8.odb,Step-1,Increment      1: Step Time =    1.000,"P-8-1",           530,       4.86187,       85.0577,            0.,NA,NA,"",   729.792E+03,   823.226E+03,   823.226E+03
C:/temp/Job-8.odb,Step-1,Increment      1: Step Time =    1.000,"P-8-1",           531,       15.2972,       4.93478,            0.,NA,NA,"",   1.21720E+06,   1.22635E+06,   1.22635E+06
C:/temp/Job-8.odb,Step-1,Increment      1: Step Time =    1.000,"P-8-1",           532,       25.3029,       4.72796,            0.,NA,NA,"",   1.13570E+06,   1.13813E+06,   1.13813E+06
C:/temp/Job-8.odb,Step-1,Increment      1: Step Time =    1.000,"P-8-1",           533,       35.2809,       4.61391,            0.,NA,NA,"",   1.09153E+06,   1.09218E+06,   1.09218E+06
C:/temp/Job-8.odb,Step-1,Increment      1: Step Time =    1.000,"P-8-1",           534,       45.1112,       4.78400,            0.,NA,NA,"",   1.06094E+06,   1.06070E+06,   1.06070E+06
C:/temp/Job-8.odb,Step-1,Increment      1: Step Time =    1.000,"P-8-1",           535,       55.0507,       4.89008,            0.,NA,NA,"",   1.03106E+06,   1.03058E+06,   1.03058E+06
C:/temp/Job-8.odb,Step-1,Increment      1: Step Time =    1.000,"P-8-1",           536,       65.0294,       4.89993,            0.,NA,NA,"",   998.486E+03,   998.160E+03,   998.160E+03
C:/temp/Job-8.odb,Step-1,Increment      1: Step Time =    1.000,"P-8-1",           537,       74.9695,       4.90102,            0.,NA,NA,"",   965.077E+03,   965.283E+03,   965.283E+03
C:/temp/Job-8.odb,Step-1,Increment      1: Step Time =    1.000,"P-8-1",           538,       84.9030,       4.89784,            0.,NA,NA,"",   935.691E+03,   936.556E+03,   936.556E+03
C:/temp/Job-8.odb,Step-1,Increment      1: Step Time =    1.000,"P-8-1",           539,       114.838,       4.94065,            0.,NA,NA,"",   921.514E+03,   922.460E+03,   922.460E+03
C:/temp/Job-8.odb,Step-1,Increment      1: Step Time =    1.000,"P-8-1",           540,       124.861,       4.96464,            0.,NA,NA,"",   941.365E+03,   941.569E+03,   941.569E+03
C:/temp/Job-8.odb,Step-1,Increment      1: Step Time =    1.000,"P-8-1",           541,       134.943,       4.80732,            0.,NA,NA,"",   963.410E+03,   962.963E+03,   962.963E+03
C:/temp/Job-8.odb,Step-1,Increment      1: Step Time =    1.000,"P-8-1",           542,       144.792,       4.39055,            0.,NA,NA,"",   981.429E+03,   980.822E+03,   980.822E+03
C:/temp/Job-8.odb,Step-1,Increment      1: Step Time =    1.000,"P-8-1",           543,       154.488,       4.36203,            0.,NA,NA,"",   993.851E+03,   993.242E+03,   993.242E+03
C:/temp/Job-8.odb,Step-1,Increment      1: Step Time =    1.000,"P-8-1",           544,       164.324,       4.96554,            0.,NA,NA,"",   999.961E+03,   999.476E+03,   999.476E+03
C:/temp/Job-8.odb,Step-1,Increment      1: Step Time =    1.000,"P-8-1",           545,       174.556,       5.02923,            0.,NA,NA,"",   1.00071E+06,   1.00056E+06,   1.00056E+06
C:/temp/Job-8.odb,Step-1,Increment      1: Step Time =    1.000,"P-8-1",           546,       184.705,       5.17389,            0.,NA,NA,"",   999.977E+03,   1.00007E+06,   1.00007E+06
C:/temp/Job-8.odb,Step-1,Increment      1: Step Time =    1.000,"P-8-1",           547,       195.141,       84.7639,            0.,NA,NA,"",   924.647E+03,   997.639E+03,   997.639E+03
C:/temp/Job-8.odb,Step-1,Increment      1: Step Time =    1.000,"P-8-1",           548,       194.843,       5.13443,            0.,NA,NA,"",   999.966E+03,   999.923E+03,   999.923E+03
C:/temp/Job-8.odb,Step-1,Increment      1: Step Time =    1.000,"P-8-1",           549,       194.641,       15.3376,            0.,NA,NA,"",   1.00049E+06,   1.00070E+06,   1.00070E+06
C:/temp/Job-8.odb,Step-1,Increment      1: Step Time =    1.000,"P-8-1",           550,       194.893,       25.4223,            0.,NA,NA,"",   999.429E+03,   1.00129E+06,   1.00129E+06
C:/temp/Job-8.odb,Step-1,Increment      1: Step Time =    1.000,"P-8-1",           551,       195.309,       35.3929,            0.,NA,NA,"",   995.199E+03,   1.00169E+06,   1.00169E+06
C:/temp/Job-8.odb,Step-1,Increment      1: Step Time =    1.000,"P-8-1",           552,       195.384,       45.2209,            0.,NA,NA,"",   986.707E+03,   1.00202E+06,   1.00202E+06
C:/temp/Job-8.odb,Step-1,Increment      1: Step Time =    1.000,"P-8-1",           553,       195.302,       55.0765,            0.,NA,NA,"",   973.641E+03,   1.00202E+06,   1.00202E+06
C:/temp/Job-8.odb,Step-1,Increment      1: Step Time =    1.000,"P-8-1",           554,       195.202,       64.9560,            0.,NA,NA,"",   957.020E+03,   1.00126E+06,   1.00126E+06
C:/temp/Job-8.odb,Step-1,Increment      1: Step Time =    1.000,"P-8-1",           555,       195.140,       74.8557,            0.,NA,NA,"",   939.502E+03,   999.651E+03,   999.651E+03
C:/temp/Job-8.odb,Step-1,Increment      1: Step Time =    1.000,"P-8-1",           556,       194.919,       114.873,            0.,NA,NA,"",   924.795E+03,   997.599E+03,   997.599E+03
C:/temp/Job-8.odb,Step-1,Increment      1: Step Time =    1.000,"P-8-1",           557,       115.031,       195.123,            0.,NA,NA,"",   922.057E+03,   922.972E+03,   922.972E+03
C:/temp/Job-8.odb,Step-1,Increment      1: Step Time =    1.000,"P-8-1",           558,       195.247,       124.921,            0.,NA,NA,"",   939.047E+03,   999.609E+03,   999.609E+03
C:/temp/Job-8.odb,Step-1,Increment      1: Step Time =    1.000,"P-8-1",           559,       124.927,       195.086,            0.,NA,NA,"",   942.024E+03,   942.211E+03,   942.211E+03
C:/temp/Job-8.odb,Step-1,Increment      1: Step Time =    1.000,"P-8-1",           560,       195.569,       134.804,            0.,NA,NA,"",   956.006E+03,   1.00111E+06,   1.00111E+06
C:/temp/Job-8.odb,Step-1,Increment      1: Step Time =    1.000,"P-8-1",           561,       134.826,       195.052,            0.,NA,NA,"",   964.489E+03,   964.065E+03,   964.065E+03
C:/temp/Job-8.odb,Step-1,Increment      1: Step Time =    1.000,"P-8-1",           562,       195.601,       144.525,            0.,NA,NA,"",   972.278E+03,   1.00152E+06,   1.00152E+06
C:/temp/Job-8.odb,Step-1,Increment      1: Step Time =    1.000,"P-8-1",           563,       194.913,       154.406,            0.,NA,NA,"",   986.611E+03,   1.00227E+06,   1.00227E+06
C:/temp/Job-8.odb,Step-1,Increment      1: Step Time =    1.000,"P-8-1",           564,       144.810,       195.006,            0.,NA,NA,"",   983.494E+03,   982.713E+03,   982.713E+03
C:/temp/Job-8.odb,Step-1,Increment      1: Step Time =    1.000,"P-8-1",           565,       194.619,       164.547,            0.,NA,NA,"",   995.596E+03,   1.00227E+06,   1.00227E+06
C:/temp/Job-8.odb,Step-1,Increment      1: Step Time =    1.000,"P-8-1",           566,       154.697,       195.076,            0.,NA,NA,"",   995.266E+03,   994.525E+03,   994.525E+03
C:/temp/Job-8.odb,Step-1,Increment      1: Step Time =    1.000,"P-8-1",           567,       194.991,       174.820,            0.,NA,NA,"",   999.524E+03,   1.00134E+06,   1.00134E+06
C:/temp/Job-8.odb,Step-1,Increment      1: Step Time =    1.000,"P-8-1",           568,       164.605,       195.197,            0.,NA,NA,"",   1.00030E+06,   999.830E+03,   999.830E+03
C:/temp/Job-8.odb,Step-1,Increment      1: Step Time =    1.000,"P-8-1",           569,       194.959,       184.886,            0.,NA,NA,"",   1.00044E+06,   1.00059E+06,   1.00059E+06
C:/temp/Job-8.odb,Step-1,Increment      1: Step Time =    1.000,"P-8-1",           570,       174.660,       194.985,            0.,NA,NA,"",   1.00083E+06,   1.00071E+06,   1.00071E+06
C:/temp/Job-8.odb,Step-1,Increment      1: Step Time =    1.000,"P-8-1",           571,       194.937,       194.913,            0.,NA,NA,"",   999.960E+03,   999.916E+03,   999.916E+03
C:/temp/Job-8.odb,Step-1,Increment      1: Step Time =    1.000,"P-8-1",           572,       184.799,       194.779,            0.,NA,NA,"",   1.00001E+06,   1.00011E+06,   1.00011E+06
C:/temp/Job-8.odb,Step-1,Increment      1: Step Time =    1.000,"P-8-1",           573,       84.9120,       194.671,            0.,NA,NA,"",   937.583E+03,   938.533E+03,   938.533E+03
C:/temp/Job-8.odb,Step-1,Increment      1: Step Time =    1.000,"P-8-1",           574,       74.8734,       195.046,            0.,NA,NA,"",   965.552E+03,   965.702E+03,   965.702E+03
C:/temp/Job-8.odb,Step-1,Increment      1: Step Time =    1.000,"P-8-1",           575,       64.9996,       195.558,            0.,NA,NA,"",   996.725E+03,   996.392E+03,   996.392E+03
C:/temp/Job-8.odb,Step-1,Increment      1: Step Time =    1.000,"P-8-1",           576,       55.3279,       195.808,            0.,NA,NA,"",   1.02780E+06,   1.02750E+06,   1.02750E+06
C:/temp/Job-8.odb,Step-1,Increment      1: Step Time =    1.000,"P-8-1",           577,       45.5606,       195.286,            0.,NA,NA,"",   1.05962E+06,   1.05955E+06,   1.05955E+06
C:/temp/Job-8.odb,Step-1,Increment      1: Step Time =    1.000,"P-8-1",           578,       35.4654,       194.646,            0.,NA,NA,"",   1.09348E+06,   1.09428E+06,   1.09428E+06
C:/temp/Job-8.odb,Step-1,Increment      1: Step Time =    1.000,"P-8-1",           579,       25.2573,       194.712,            0.,NA,NA,"",   1.13789E+06,   1.14093E+06,   1.14093E+06
C:/temp/Job-8.odb,Step-1,Increment      1: Step Time =    1.000,"P-8-1",           580,       15.1660,       194.817,            0.,NA,NA,"",   1.21943E+06,   1.22931E+06,   1.22931E+06
C:/temp/Job-8.odb,Step-1,Increment      1: Step Time =    1.000,"P-8-1",           581,       5.08800,       194.924,            0.,NA,NA,"",   1.41095E+06,   1.46547E+06,   1.46547E+06
C:/temp/Job-8.odb,Step-1,Increment      1: Step Time =    1.000,"P-8-1",           582,       5.28583,       184.760,            0.,NA,NA,"",   1.11898E+06,   1.21285E+06,   1.21285E+06
C:/temp/Job-8.odb,Step-1,Increment      1: Step Time =    1.000,"P-8-1",           583,       5.08258,       174.552,            0.,NA,NA,"",   1.00558E+06,   1.10633E+06,   1.10633E+06
C:/temp/Job-8.odb,Step-1,Increment      1: Step Time =    1.000,"P-8-1",           584,       4.54923,       164.618,            0.,NA,NA,"",   935.928E+03,   1.03917E+06,   1.03917E+06
C:/temp/Job-8.odb,Step-1,Increment      1: Step Time =    1.000,"P-8-1",           585,       4.51616,       154.848,            0.,NA,NA,"",   885.827E+03,   988.075E+03,   988.075E+03
C:/temp/Job-8.odb,Step-1,Increment      1: Step Time =    1.000,"P-8-1",           586,       4.67384,       145.055,            0.,NA,NA,"",   842.370E+03,   942.413E+03,   942.413E+03
C:/temp/Job-8.odb,Step-1,Increment      1: Step Time =    1.000,"P-8-1",           587,       4.81409,       135.141,            0.,NA,NA,"",   800.391E+03,   897.909E+03,   897.909E+03
C:/temp/Job-8.odb,Step-1,Increment      1: Step Time =    1.000,"P-8-1",           588,       4.94714,       125.127,            0.,NA,NA,"",   761.265E+03,   856.419E+03,   856.419E+03
C:/temp/Job-8.odb,Step-1,Increment      1: Step Time =    1.000,"P-8-1",           589,       5.01845,       115.091,            0.,NA,NA,"",   730.239E+03,   823.586E+03,   823.586E+03
C:/temp/Job-8.odb,Step-1,Increment      1: Step Time =    1.000,"P-8-1",           590,       4.53086,       75.2211,            0.,NA,NA,"",   759.430E+03,   854.860E+03,   854.860E+03
C:/temp/Job-8.odb,Step-1,Increment      1: Step Time =    1.000,"P-8-1",           591,       4.17136,       65.4423,            0.,NA,NA,"",   796.265E+03,   894.407E+03,   894.407E+03
C:/temp/Job-8.odb,Step-1,Increment      1: Step Time =    1.000,"P-8-1",           592,       4.25025,       55.6556,            0.,NA,NA,"",   837.670E+03,   938.203E+03,   938.203E+03
C:/temp/Job-8.odb,Step-1,Increment      1: Step Time =    1.000,"P-8-1",           593,       189.751,       5.19035,            0.,NA,NA,"",   999.832E+03,   999.914E+03,   999.914E+03
C:/temp/Job-8.odb,Step-1,Increment      1: Step Time =    1.000,"P-8-1",           594,       179.650,       5.10854,            0.,NA,NA,"",   1.00034E+06,   1.00034E+06,   1.00034E+06
C:/temp/Job-8.odb,Step-1,Increment      1: Step Time =    1.000,"P-8-1",           595,       169.436,       4.98809,            0.,NA,NA,"",   1.00078E+06,   1.00044E+06,   1.00044E+06
C:/temp/Job-8.odb,Step-1,Increment      1: Step Time =    1.000,"P-8-1",           596,       159.265,       4.80944,            0.,NA,NA,"",   997.783E+03,   997.221E+03,   997.221E+03
C:/temp/Job-8.odb,Step-1,Increment      1: Step Time =    1.000,"P-8-1",           597,       149.617,       4.26047,            0.,NA,NA,"",   988.281E+03,   987.704E+03,   987.704E+03
C:/temp/Job-8.odb,Step-1,Increment      1: Step Time =    1.000,"P-8-1",           598,       139.906,       4.61394,            0.,NA,NA,"",   973.139E+03,   972.520E+03,   972.520E+03
C:/temp/Job-8.odb,Step-1,Increment      1: Step Time =    1.000,"P-8-1",           599,       129.915,       4.92714,            0.,NA,NA,"",   952.587E+03,   952.415E+03,   952.415E+03
C:/temp/Job-8.odb,Step-1,Increment      1: Step Time =    1.000,"P-8-1",           600,       119.834,       4.96171,            0.,NA,NA,"",   930.680E+03,   931.270E+03,   931.270E+03
C:/temp/Job-8.odb,Step-1,Increment      1: Step Time =    1.000,"P-8-1",           601,       109.853,       4.92158,            0.,NA,NA,"",   914.821E+03,   916.085E+03,   916.085E+03
C:/temp/Job-8.odb,Step-1,Increment      1: Step Time =    1.000,"P-8-1",           602,       99.8450,       4.89106,            0.,NA,NA,"",   911.779E+03,   913.287E+03,   913.287E+03
C:/temp/Job-8.odb,Step-1,Increment      1: Step Time =    1.000,"P-8-1",           603,       89.8717,       4.88948,            0.,NA,NA,"",   924.374E+03,   925.530E+03,   925.530E+03
C:/temp/Job-8.odb,Step-1,Increment      1: Step Time =    1.000,"P-8-1",           604,       79.9359,       4.89929,            0.,NA,NA,"",   949.499E+03,   950.045E+03,   950.045E+03
C:/temp/Job-8.odb,Step-1,Increment      1: Step Time =    1.000,"P-8-1",           605,       70.0040,       4.89995,            0.,NA,NA,"",   981.620E+03,   981.546E+03,   981.546E+03
C:/temp/Job-8.odb,Step-1,Increment      1: Step Time =    1.000,"P-8-1",           606,       60.0413,       4.90143,            0.,NA,NA,"",   1.01512E+06,   1.01467E+06,   1.01467E+06
C:/temp/Job-8.odb,Step-1,Increment      1: Step Time =    1.000,"P-8-1",           607,       50.0675,       4.86080,            0.,NA,NA,"",   1.04632E+06,   1.04591E+06,   1.04591E+06
C:/temp/Job-8.odb,Step-1,Increment      1: Step Time =    1.000,"P-8-1",           608,       40.1924,       4.67320,            0.,NA,NA,"",   1.07563E+06,   1.07571E+06,   1.07571E+06
C:/temp/Job-8.odb,Step-1,Increment      1: Step Time =    1.000,"P-8-1",           609,       30.2943,       4.62921,            0.,NA,NA,"",   1.11117E+06,   1.11249E+06,   1.11249E+06
C:/temp/Job-8.odb,Step-1,Increment      1: Step Time =    1.000,"P-8-1",           610,       20.3140,       4.82634,            0.,NA,NA,"",   1.17045E+06,   1.17460E+06,   1.17460E+06
C:/temp/Job-8.odb,Step-1,Increment      1: Step Time =    1.000,"P-8-1",           611,       10.2567,       5.03404,            0.,NA,NA,"",   1.30627E+06,   1.32064E+06,   1.32064E+06
C:/temp/Job-8.odb,Step-1,Increment      1: Step Time =    1.000,"P-8-1",           612,       194.929,       189.881,            0.,NA,NA,"",   1.00031E+06,   1.00027E+06,   1.00027E+06
C:/temp/Job-8.odb,Step-1,Increment      1: Step Time =    1.000,"P-8-1",           613,       194.997,       179.881,            0.,NA,NA,"",   1.00022E+06,   1.00092E+06,   1.00092E+06
C:/temp/Job-8.odb,Step-1,Increment      1: Step Time =    1.000,"P-8-1",           614,       194.857,       169.717,            0.,NA,NA,"",   998.126E+03,   1.00185E+06,   1.00185E+06
C:/temp/Job-8.odb,Step-1,Increment      1: Step Time =    1.000,"P-8-1",           615,       194.453,       159.370,            0.,NA,NA,"",   991.877E+03,   1.00248E+06,   1.00248E+06
C:/temp/Job-8.odb,Step-1,Increment      1: Step Time =    1.000,"P-8-1",           616,       195.366,       149.426,            0.,NA,NA,"",   979.787E+03,   1.00178E+06,   1.00178E+06
C:/temp/Job-8.odb,Step-1,Increment      1: Step Time =    1.000,"P-8-1",           617,       195.640,       139.672,            0.,NA,NA,"",   964.309E+03,   1.00136E+06,   1.00136E+06
C:/temp/Job-8.odb,Step-1,Increment      1: Step Time =    1.000,"P-8-1",           618,       195.429,       129.888,            0.,NA,NA,"",   947.568E+03,   1.00063E+06,   1.00063E+06
C:/temp/Job-8.odb,Step-1,Increment      1: Step Time =    1.000,"P-8-1",           619,       195.049,       119.908,            0.,NA,NA,"",   931.325E+03,   998.569E+03,   998.569E+03
C:/temp/Job-8.odb,Step-1,Increment      1: Step Time =    1.000,"P-8-1",           620,       194.951,       109.829,            0.,NA,NA,"",   919.301E+03,   996.438E+03,   996.438E+03
C:/temp/Job-8.odb,Step-1,Increment      1: Step Time =    1.000,"P-8-1",           621,       195.121,       99.7074,            0.,NA,NA,"",   914.598E+03,   995.699E+03,   995.699E+03
C:/temp/Job-8.odb,Step-1,Increment      1: Step Time =    1.000,"P-8-1",           622,       195.156,       89.7261,            0.,NA,NA,"",   919.273E+03,   996.699E+03,   996.699E+03
C:/temp/Job-8.odb,Step-1,Increment      1: Step Time =    1.000,"P-8-1",           623,       195.137,       79.8085,            0.,NA,NA,"",   931.512E+03,   998.643E+03,   998.643E+03
C:/temp/Job-8.odb,Step-1,Increment      1: Step Time =    1.000,"P-8-1",           624,       195.166,       69.9042,            0.,NA,NA,"",   948.164E+03,   1.00055E+06,   1.00055E+06
C:/temp/Job-8.odb,Step-1,Increment      1: Step Time =    1.000,"P-8-1",           625,       195.253,       60.0135,            0.,NA,NA,"",   965.644E+03,   1.00175E+06,   1.00175E+06
C:/temp/Job-8.odb,Step-1,Increment      1: Step Time =    1.000,"P-8-1",           626,       195.359,       50.1397,            0.,NA,NA,"",   980.735E+03,   1.00210E+06,   1.00210E+06
C:/temp/Job-8.odb,Step-1,Increment      1: Step Time =    1.000,"P-8-1",           627,       195.389,       40.3069,            0.,NA,NA,"",   991.525E+03,   1.00187E+06,   1.00187E+06
C:/temp/Job-8.odb,Step-1,Increment      1: Step Time =    1.000,"P-8-1",           628,       195.147,       30.4379,            0.,NA,NA,"",   997.835E+03,   1.00154E+06,   1.00154E+06
C:/temp/Job-8.odb,Step-1,Increment      1: Step Time =    1.000,"P-8-1",           629,       194.677,       20.4009,            0.,NA,NA,"",   1.00021E+06,   1.00099E+06,   1.00099E+06
C:/temp/Job-8.odb,Step-1,Increment      1: Step Time =    1.000,"P-8-1",           630,       194.717,       10.2387,            0.,NA,NA,"",   1.00035E+06,   1.00033E+06,   1.00033E+06
C:/temp/Job-8.odb,Step-1,Increment      1: Step Time =    1.000,"P-8-1",           631,       10.1169,       194.882,            0.,NA,NA,"",   1.30856E+06,   1.32376E+06,   1.32376E+06
C:/temp/Job-8.odb,Step-1,Increment      1: Step Time =    1.000,"P-8-1",           632,       20.2120,       194.733,            0.,NA,NA,"",   1.17264E+06,   1.17761E+06,   1.17761E+06
C:/temp/Job-8.odb,Step-1,Increment      1: Step Time =    1.000,"P-8-1",           633,       30.3380,       194.694,            0.,NA,NA,"",   1.11332E+06,   1.11505E+06,   1.11505E+06
C:/temp/Job-8.odb,Step-1,Increment      1: Step Time =    1.000,"P-8-1",           634,       40.5581,       194.713,            0.,NA,NA,"",   1.07632E+06,   1.07663E+06,   1.07663E+06
C:/temp/Job-8.odb,Step-1,Increment      1: Step Time =    1.000,"P-8-1",           635,       50.5163,       195.690,            0.,NA,NA,"",   1.04315E+06,   1.04299E+06,   1.04299E+06
C:/temp/Job-8.odb,Step-1,Increment      1: Step Time =    1.000,"P-8-1",           636,       60.1344,       195.734,            0.,NA,NA,"",   1.01252E+06,   1.01211E+06,   1.01211E+06
C:/temp/Job-8.odb,Step-1,Increment      1: Step Time =    1.000,"P-8-1",           637,       69.9176,       195.312,            0.,NA,NA,"",   981.093E+03,   980.832E+03,   980.832E+03
C:/temp/Job-8.odb,Step-1,Increment      1: Step Time =    1.000,"P-8-1",           638,       79.8847,       194.801,            0.,NA,NA,"",   950.777E+03,   951.364E+03,   951.364E+03
C:/temp/Job-8.odb,Step-1,Increment      1: Step Time =    1.000,"P-8-1",           639,       89.9442,       194.728,            0.,NA,NA,"",   926.186E+03,   927.592E+03,   927.592E+03
C:/temp/Job-8.odb,Step-1,Increment      1: Step Time =    1.000,"P-8-1",           640,       100.050,       195.007,            0.,NA,NA,"",   912.609E+03,   914.142E+03,   914.142E+03
C:/temp/Job-8.odb,Step-1,Increment      1: Step Time =    1.000,"P-8-1",           641,       110.060,       195.126,            0.,NA,NA,"",   915.292E+03,   916.500E+03,   916.500E+03
C:/temp/Job-8.odb,Step-1,Increment      1: Step Time =    1.000,"P-8-1",           642,       119.991,       195.104,            0.,NA,NA,"",   931.276E+03,   931.829E+03,   931.829E+03
C:/temp/Job-8.odb,Step-1,Increment      1: Step Time =    1.000,"P-8-1",           643,       129.869,       195.068,            0.,NA,NA,"",   953.371E+03,   953.222E+03,   953.222E+03
C:/temp/Job-8.odb,Step-1,Increment      1: Step Time =    1.000,"P-8-1",           644,       139.814,       195.022,            0.,NA,NA,"",   974.740E+03,   974.102E+03,   974.102E+03
C:/temp/Job-8.odb,Step-1,Increment      1: Step Time =    1.000,"P-8-1",           645,       149.758,       195.016,            0.,NA,NA,"",   990.340E+03,   989.529E+03,   989.529E+03
C:/temp/Job-8.odb,Step-1,Increment      1: Step Time =    1.000,"P-8-1",           646,       159.655,       195.154,            0.,NA,NA,"",    998.49E+03,   997.877E+03,   997.877E+03
C:/temp/Job-8.odb,Step-1,Increment      1: Step Time =    1.000,"P-8-1",           647,       169.596,       195.151,            0.,NA,NA,"",   1.00095E+06,   1.00065E+06,   1.00065E+06
C:/temp/Job-8.odb,Step-1,Increment      1: Step Time =    1.000,"P-8-1",           648,       179.733,       194.815,            0.,NA,NA,"",   1.00042E+06,   1.00043E+06,   1.00043E+06
C:/temp/Job-8.odb,Step-1,Increment      1: Step Time =    1.000,"P-8-1",           649,       189.878,       194.836,            0.,NA,NA,"",   999.830E+03,   999.922E+03,   999.922E+03
C:/temp/Job-8.odb,Step-1,Increment      1: Step Time =    1.000,"P-8-1",           650,       6.02697,       20.4923,            0.,NA,NA,"",   1.06035E+06,   1.15516E+06,   1.15516E+06
C:/temp/Job-8.odb,Step-1,Increment      1: Step Time =    1.000,"P-8-1",           651,       5.57120,       30.7096,            0.,NA,NA,"",   970.824E+03,   1.07097E+06,   1.07097E+06
C:/temp/Job-8.odb,Step-1,Increment      1: Step Time =    1.000,"P-8-1",           652,       5.48937,       41.0393,            0.,NA,NA,"",   911.119E+03,   1.01198E+06,   1.01198E+06
C:/temp/Job-8.odb,Step-1,Increment      1: Step Time =    1.000,"P-8-1",           653,       4.54694,       50.7867,            0.,NA,NA,"",   860.420E+03,   961.511E+03,   961.511E+03
C:/temp/Job-8.odb,Step-1,Increment      1: Step Time =    1.000,"P-8-1",           654,       4.13614,       60.5385,            0.,NA,NA,"",   816.492E+03,   915.954E+03,   915.954E+03
C:/temp/Job-8.odb,Step-1,Increment      1: Step Time =    1.000,"P-8-1",           655,       4.32055,       70.3342,            0.,NA,NA,"",   777.172E+03,   873.922E+03,   873.922E+03
C:/temp/Job-8.odb,Step-1,Increment      1: Step Time =    1.000,"P-8-1",           656,       4.72609,       80.1258,            0.,NA,NA,"",   743.350E+03,   837.668E+03,   837.668E+03
C:/temp/Job-8.odb,Step-1,Increment      1: Step Time =    1.000,"P-8-1",           657,       4.87098,       90.0439,            0.,NA,NA,"",   719.214E+03,   811.982E+03,   811.982E+03
C:/temp/Job-8.odb,Step-1,Increment      1: Step Time =    1.000,"P-8-1",           658,       4.90516,       100.102,            0.,NA,NA,"",   710.299E+03,   802.528E+03,   802.528E+03
C:/temp/Job-8.odb,Step-1,Increment      1: Step Time =    1.000,"P-8-1",           659,       5.00479,       110.086,            0.,NA,NA,"",   719.541E+03,   812.280E+03,   812.280E+03
C:/temp/Job-8.odb,Step-1,Increment      1: Step Time =    1.000,"P-8-1",           660,       4.99996,       120.107,            0.,NA,NA,"",   744.340E+03,   838.503E+03,   838.503E+03
C:/temp/Job-8.odb,Step-1,Increment      1: Step Time =    1.000,"P-8-1",           661,       4.88281,       130.143,            0.,NA,NA,"",   780.210E+03,   876.497E+03,   876.497E+03
C:/temp/Job-8.odb,Step-1,Increment      1: Step Time =    1.000,"P-8-1",           662,       4.74558,       140.113,            0.,NA,NA,"",   821.258E+03,   920.045E+03,   920.045E+03
C:/temp/Job-8.odb,Step-1,Increment      1: Step Time =    1.000,"P-8-1",           663,       4.58308,       149.970,            0.,NA,NA,"",   863.829E+03,   965.048E+03,   965.048E+03
C:/temp/Job-8.odb,Step-1,Increment      1: Step Time =    1.000,"P-8-1",           664,       4.47622,       159.729,            0.,NA,NA,"",   909.651E+03,   1.01262E+06,   1.01262E+06
C:/temp/Job-8.odb,Step-1,Increment      1: Step Time =    1.000,"P-8-1",           665,       4.73483,       169.555,            0.,NA,NA,"",   967.528E+03,   1.07007E+06,   1.07007E+06
C:/temp/Job-8.odb,Step-1,Increment      1: Step Time =    1.000,"P-8-1",           666,       5.39866,       179.604,            0.,NA,NA,"",   1.05666E+06,   1.15427E+06,   1.15427E+06
C:/temp/Job-8.odb,Step-1,Increment      1: Step Time =    1.000,"P-8-1",           667,       5.16043,       189.872,            0.,NA,NA,"",   1.23162E+06,   1.31478E+06,   1.31478E+06
C:/temp/Job-8.odb,Step-1,Increment      1: Step Time =    1.000,"P-8-1",           668,       99.5783,       71.9748,            0.,NA,NA,"",   1.57154E+06,   1.72301E+06,   1.72301E+06
C:/temp/Job-8.odb,Step-1,Increment      1: Step Time =    1.000,"P-8-1",           669,       70.6659,       100.384,            0.,NA,NA,"",   297.746E+03,   263.243E+03,   263.243E+03
C:/temp/Job-8.odb,Step-1,Increment      1: Step Time =    1.000,"P-8-1",           670,       99.6934,       127.725,            0.,NA,NA,"",   1.58610E+06,   1.74107E+06,   1.74107E+06
C:/temp/Job-8.odb,Step-1,Increment      1: Step Time =    1.000,"P-8-1",           671,       129.147,       101.183,            0.,NA,NA,"",   344.534E+03,   212.239E+03,   212.239E+03
C:/temp/Job-8.odb,Step-1,Increment      1: Step Time =    1.000,"P-8-1",           672,       140.011,       9.35892,            0.,NA,NA,"",   989.083E+03,   987.407E+03,   987.407E+03
C:/temp/Job-8.odb,Step-1,Increment      1: Step Time =    1.000,"P-8-1",           673,       129.873,       9.90222,            0.,NA,NA,"",   975.300E+03,   974.861E+03,   974.861E+03
C:/temp/Job-8.odb,Step-1,Increment      1: Step Time =    1.000,"P-8-1",           674,       119.621,       9.94605,            0.,NA,NA,"",   957.861E+03,   959.596E+03,   959.596E+03
C:/temp/Job-8.odb,Step-1,Increment      1: Step Time =    1.000,"P-8-1",           675,       109.677,       9.84712,            0.,NA,NA,"",   945.119E+03,   948.716E+03,   948.716E+03
C:/temp/Job-8.odb,Step-1,Increment      1: Step Time =    1.000,"P-8-1",           676,       99.6702,       9.75722,            0.,NA,NA,"",   943.465E+03,   947.692E+03,   947.692E+03
C:/temp/Job-8.odb,Step-1,Increment      1: Step Time =    1.000,"P-8-1",           677,       79.8833,       9.83664,            0.,NA,NA,"",   978.498E+03,   980.061E+03,   980.061E+03
C:/temp/Job-8.odb,Step-1,Increment      1: Step Time =    1.000,"P-8-1",           678,       70.0240,       9.83979,            0.,NA,NA,"",   1.00663E+06,   1.00643E+06,   1.00643E+06
C:/temp/Job-8.odb,Step-1,Increment      1: Step Time =    1.000,"P-8-1",           679,       60.0870,       9.83853,            0.,NA,NA,"",   1.03594E+06,   1.03471E+06,   1.03471E+06
C:/temp/Job-8.odb,Step-1,Increment      1: Step Time =    1.000,"P-8-1",           680,       191.206,       139.357,            0.,NA,NA,"",   971.584E+03,   1.00393E+06,   1.00393E+06
C:/temp/Job-8.odb,Step-1,Increment      1: Step Time =    1.000,"P-8-1",           681,       190.833,       129.884,            0.,NA,NA,"",   956.682E+03,   1.00148E+06,   1.00148E+06
C:/temp/Job-8.odb,Step-1,Increment      1: Step Time =    1.000,"P-8-1",           682,       190.084,       119.939,            0.,NA,NA,"",   939.729E+03,   995.696E+03,   995.696E+03
C:/temp/Job-8.odb,Step-1,Increment      1: Step Time =    1.000,"P-8-1",           683,       189.955,       109.543,            0.,NA,NA,"",   924.722E+03,   989.673E+03,   989.673E+03
C:/temp/Job-8.odb,Step-1,Increment      1: Step Time =    1.000,"P-8-1",           684,       190.348,       99.3382,            0.,NA,NA,"",   919.062E+03,   988.039E+03,   988.039E+03
C:/temp/Job-8.odb,Step-1,Increment      1: Step Time =    1.000,"P-8-1",           685,       190.274,       69.7710,            0.,NA,NA,"",   958.160E+03,   1.00156E+06,   1.00156E+06
C:/temp/Job-8.odb,Step-1,Increment      1: Step Time =    1.000,"P-8-1",           686,       190.456,       59.9703,            0.,NA,NA,"",    974.67E+03,   1.00499E+06,   1.00499E+06
C:/temp/Job-8.odb,Step-1,Increment      1: Step Time =    1.000,"P-8-1",           687,       60.1428,       191.358,            0.,NA,NA,"",   1.03106E+06,   1.02999E+06,   1.02999E+06
C:/temp/Job-8.odb,Step-1,Increment      1: Step Time =    1.000,"P-8-1",           688,       69.6292,       190.564,            0.,NA,NA,"",   1.00629E+06,   1.00586E+06,   1.00586E+06
C:/temp/Job-8.odb,Step-1,Increment      1: Step Time =    1.000,"P-8-1",           689,       79.5977,       189.506,            0.,NA,NA,"",   982.993E+03,   984.706E+03,   984.706E+03
C:/temp/Job-8.odb,Step-1,Increment      1: Step Time =    1.000,"P-8-1",           690,       90.0256,       189.424,            0.,NA,NA,"",   959.389E+03,   963.446E+03,   963.446E+03
C:/temp/Job-8.odb,Step-1,Increment      1: Step Time =    1.000,"P-8-1",           691,       100.210,       190.113,            0.,NA,NA,"",   944.090E+03,   948.346E+03,   948.346E+03
C:/temp/Job-8.odb,Step-1,Increment      1: Step Time =    1.000,"P-8-1",           692,       8.26090,       61.1127,            0.,NA,NA,"",   829.093E+03,   923.140E+03,   923.140E+03
C:/temp/Job-8.odb,Step-1,Increment      1: Step Time =    1.000,"P-8-1",           693,       8.68995,       70.5422,            0.,NA,NA,"",   787.586E+03,   880.321E+03,   880.321E+03
C:/temp/Job-8.odb,Step-1,Increment      1: Step Time =    1.000,"P-8-1",           694,       9.58768,       80.1277,            0.,NA,NA,"",   750.314E+03,   841.816E+03,   841.816E+03
C:/temp/Job-8.odb,Step-1,Increment      1: Step Time =    1.000,"P-8-1",           695,       9.70325,       90.1220,            0.,NA,NA,"",   721.270E+03,   812.398E+03,   812.398E+03
C:/temp/Job-8.odb,Step-1,Increment      1: Step Time =    1.000,"P-8-1",           696,       9.76474,       100.170,            0.,NA,NA,"",   710.864E+03,   801.920E+03,   801.920E+03
C:/temp/Job-8.odb,Step-1,Increment      1: Step Time =    1.000,"P-8-1",           697,       10.0124,       120.249,            0.,NA,NA,"",   751.904E+03,   843.107E+03,   843.107E+03
C:/temp/Job-8.odb,Step-1,Increment      1: Step Time =    1.000,"P-8-1",           698,       9.75374,       130.353,            0.,NA,NA,"",   794.177E+03,   885.760E+03,   885.760E+03
C:/temp/Job-8.odb,Step-1,Increment      1: Step Time =    1.000,"P-8-1",           699,       9.52987,       140.305,            0.,NA,NA,"",   840.624E+03,   932.803E+03,   932.803E+03
C:/temp/Job-8.odb,Step-1,Increment      1: Step Time =    1.000,"P-8-1",           700,       89.7459,       9.79018,            0.,NA,NA,"",   955.718E+03,   959.014E+03,   959.014E+03
C:/temp/Job-8.odb,Step-1,Increment      1: Step Time =    1.000,"P-8-1",           701,       190.320,       89.4399,            0.,NA,NA,"",   925.456E+03,   990.738E+03,   990.738E+03
C:/temp/Job-8.odb,Step-1,Increment      1: Step Time =    1.000,"P-8-1",           702,       190.228,       79.6051,            0.,NA,NA,"",   940.242E+03,   996.147E+03,   996.147E+03
C:/temp/Job-8.odb,Step-1,Increment      1: Step Time =    1.000,"P-8-1",           703,       110.132,       190.280,            0.,NA,NA,"",   945.289E+03,   948.670E+03,   948.670E+03
C:/temp/Job-8.odb,Step-1,Increment      1: Step Time =    1.000,"P-8-1",           704,       119.947,       190.148,            0.,NA,NA,"",   958.307E+03,   959.922E+03,   959.922E+03
C:/temp/Job-8.odb,Step-1,Increment      1: Step Time =    1.000,"P-8-1",           705,       129.707,       190.045,            0.,NA,NA,"",   975.572E+03,   975.184E+03,   975.184E+03
C:/temp/Job-8.odb,Step-1,Increment      1: Step Time =    1.000,"P-8-1",           706,       139.590,       189.999,            0.,NA,NA,"",   991.676E+03,   989.826E+03,   989.826E+03
C:/temp/Job-8.odb,Step-1,Increment      1: Step Time =    1.000,"P-8-1",           707,       10.0594,       110.137,            0.,NA,NA,"",   722.078E+03,   813.112E+03,   813.112E+03
C:/temp/Job-8.odb,Step-1,Increment      1: Step Time =    1.000,"P-8-1",           708,       119.516,       122.106,            0.,NA,NA,"",   1.47680E+06,   1.37282E+06,   1.37282E+06
C:/temp/Job-8.odb,Step-1,Increment      1: Step Time =    1.000,"P-8-1",           709,       121.335,       79.5132,            0.,NA,NA,"",   1.38343E+06,   1.23792E+06,   1.23792E+06
C:/temp/Job-8.odb,Step-1,Increment      1: Step Time =    1.000,"P-8-1",           710,       78.7220,       120.985,            0.,NA,NA,"",   1.35600E+06,   1.24532E+06,   1.24532E+06
C:/temp/Job-8.odb,Step-1,Increment      1: Step Time =    1.000,"P-8-1",           711,       79.3343,       78.9738,            0.,NA,NA,"",   1.34929E+06,   1.24232E+06,   1.24232E+06
C:/temp/Job-8.odb,Step-1,Increment      1: Step Time =    1.000,"P-8-1",           712,       89.1893,       71.9762,            0.,NA,NA,"",   1.44095E+06,   1.51335E+06,   1.51335E+06
C:/temp/Job-8.odb,Step-1,Increment      1: Step Time =    1.000,"P-8-1",           713,       73.5377,       109.266,            0.,NA,NA,"",   713.121E+03,   555.636E+03,   555.636E+03
C:/temp/Job-8.odb,Step-1,Increment      1: Step Time =    1.000,"P-8-1",           714,       127.811,       88.8596,            0.,NA,NA,"",   909.187E+03,   732.412E+03,   732.412E+03
C:/temp/Job-8.odb,Step-1,Increment      1: Step Time =    1.000,"P-8-1",           715,       108.961,       126.189,            0.,NA,NA,"",   1.52319E+06,   1.62128E+06,   1.62128E+06
C:/temp/Job-8.odb,Step-1,Increment      1: Step Time =    1.000,"P-8-1",           716,       127.817,       112.531,            0.,NA,NA,"",   978.261E+03,   793.196E+03,   793.196E+03
C:/temp/Job-8.odb,Step-1,Increment      1: Step Time =    1.000,"P-8-1",           717,       90.6240,       127.783,            0.,NA,NA,"",   1.45201E+06,   1.54256E+06,   1.54256E+06
C:/temp/Job-8.odb,Step-1,Increment      1: Step Time =    1.000,"P-8-1",           718,       72.6294,       87.0658,            0.,NA,NA,"",   918.620E+03,   780.435E+03,   780.435E+03
C:/temp/Job-8.odb,Step-1,Increment      1: Step Time =    1.000,"P-8-1",           719,       111.239,       72.3537,            0.,NA,NA,"",   1.47611E+06,   1.54047E+06,   1.54047E+06
C:/temp/Job-8.odb,Step-1,Increment      1: Step Time =    1.000,"P-8-1",           720,       60.1508,       14.7936,            0.,NA,NA,"",   1.05697E+06,   1.05477E+06,   1.05477E+06
C:/temp/Job-8.odb,Step-1,Increment      1: Step Time =    1.000,"P-8-1",           721,       12.2965,       61.7140,            0.,NA,NA,"",   841.535E+03,   929.714E+03,   929.714E+03
C:/temp/Job-8.odb,Step-1,Increment      1: Step Time =    1.000,"P-8-1",           722,       185.639,       59.8457,            0.,NA,NA,"",   986.513E+03,   1.00980E+06,   1.00980E+06
C:/temp/Job-8.odb,Step-1,Increment      1: Step Time =    1.000,"P-8-1",           723,       59.9692,       186.854,            0.,NA,NA,"",   1.05110E+06,   1.04909E+06,   1.04909E+06
C:/temp/Job-8.odb,Step-1,Increment      1: Step Time =    1.000,"P-8-1",           724,       140.406,       14.2635,            0.,NA,NA,"",   1.00860E+06,   1.00505E+06,   1.00505E+06
C:/temp/Job-8.odb,Step-1,Increment      1: Step Time =    1.000,"P-8-1",           725,       14.3171,       140.569,            0.,NA,NA,"",   861.973E+03,   946.277E+03,   946.277E+03
C:/temp/Job-8.odb,Step-1,Increment      1: Step Time =    1.000,"P-8-1",           726,       186.650,       139.112,            0.,NA,NA,"",   981.646E+03,   1.00786E+06,   1.00786E+06
C:/temp/Job-8.odb,Step-1,Increment      1: Step Time =    1.000,"P-8-1",           727,       139.288,       185.003,            0.,NA,NA,"",   1.01135E+06,   1.00767E+06,   1.00767E+06
C:/temp/Job-8.odb,Step-1,Increment      1: Step Time =    1.000,"P-8-1",           728,       129.809,       14.9103,            0.,NA,NA,"",   998.692E+03,   997.801E+03,   997.801E+03
C:/temp/Job-8.odb,Step-1,Increment      1: Step Time =    1.000,"P-8-1",           729,       13.0071,       70.5358,            0.,NA,NA,"",   800.024E+03,   888.072E+03,   888.072E+03
C:/temp/Job-8.odb,Step-1,Increment      1: Step Time =    1.000,"P-8-1",           730,       70.0725,       14.8237,            0.,NA,NA,"",   1.03091E+06,   1.03067E+06,   1.03067E+06
C:/temp/Job-8.odb,Step-1,Increment      1: Step Time =    1.000,"P-8-1",           731,       14.5676,       130.643,            0.,NA,NA,"",   810.175E+03,   895.939E+03,   895.939E+03
C:/temp/Job-8.odb,Step-1,Increment      1: Step Time =    1.000,"P-8-1",           732,       186.241,       129.947,            0.,NA,NA,"",   966.309E+03,   1.00254E+06,   1.00254E+06
C:/temp/Job-8.odb,Step-1,Increment      1: Step Time =    1.000,"P-8-1",           733,       129.522,       184.873,            0.,NA,NA,"",   998.786E+03,   998.117E+03,   998.117E+03
C:/temp/Job-8.odb,Step-1,Increment      1: Step Time =    1.000,"P-8-1",           734,       69.0975,       185.793,            0.,NA,NA,"",   1.03149E+06,   1.03070E+06,   1.03070E+06
C:/temp/Job-8.odb,Step-1,Increment      1: Step Time =    1.000,"P-8-1",           735,       185.338,       69.5910,            0.,NA,NA,"",   969.096E+03,   1.00307E+06,   1.00307E+06
C:/temp/Job-8.odb,Step-1,Increment      1: Step Time =    1.000,"P-8-1",           736,       68.1077,       96.9394,            0.,NA,NA,"",   381.657E+03,   363.751E+03,   363.751E+03
C:/temp/Job-8.odb,Step-1,Increment      1: Step Time =    1.000,"P-8-1",           737,       103.021,       69.4175,            0.,NA,NA,"",   1.38612E+06,   1.52349E+06,   1.52349E+06
C:/temp/Job-8.odb,Step-1,Increment      1: Step Time =    1.000,"P-8-1",           738,       102.418,       132.073,            0.,NA,NA,"",   1.33002E+06,   1.46793E+06,   1.46793E+06
C:/temp/Job-8.odb,Step-1,Increment      1: Step Time =    1.000,"P-8-1",           739,       131.901,       98.4821,            0.,NA,NA,"",   408.016E+03,   361.311E+03,   361.311E+03
C:/temp/Job-8.odb,Step-1,Increment      1: Step Time =    1.000,"P-8-1",           740,       14.5303,       79.8802,            0.,NA,NA,"",   759.705E+03,   847.266E+03,   847.266E+03
C:/temp/Job-8.odb,Step-1,Increment      1: Step Time =    1.000,"P-8-1",           741,       119.329,       14.9903,            0.,NA,NA,"",   982.202E+03,   985.883E+03,   985.883E+03
C:/temp/Job-8.odb,Step-1,Increment      1: Step Time =    1.000,"P-8-1",           742,       79.8563,       14.8220,            0.,NA,NA,"",   1.00430E+06,   1.00755E+06,   1.00755E+06
C:/temp/Job-8.odb,Step-1,Increment      1: Step Time =    1.000,"P-8-1",           743,       15.0177,       120.461,            0.,NA,NA,"",    760.94E+03,   848.097E+03,   848.097E+03
C:/temp/Job-8.odb,Step-1,Increment      1: Step Time =    1.000,"P-8-1",           744,       185.264,       120.259,            0.,NA,NA,"",   946.455E+03,   991.885E+03,   991.885E+03
C:/temp/Job-8.odb,Step-1,Increment      1: Step Time =    1.000,"P-8-1",           745,       78.9640,       184.264,            0.,NA,NA,"",   1.01185E+06,   1.01499E+06,   1.01499E+06
C:/temp/Job-8.odb,Step-1,Increment      1: Step Time =    1.000,"P-8-1",           746,       185.272,       79.4028,            0.,NA,NA,"",   946.870E+03,   992.166E+03,   992.166E+03
C:/temp/Job-8.odb,Step-1,Increment      1: Step Time =    1.000,"P-8-1",           747,       119.822,       185.104,            0.,NA,NA,"",   982.856E+03,   986.243E+03,   986.243E+03
C:/temp/Job-8.odb,Step-1,Increment      1: Step Time =    1.000,"P-8-1",           748,       14.2725,       90.4427,            0.,NA,NA,"",   723.167E+03,   812.075E+03,   812.075E+03
C:/temp/Job-8.odb,Step-1,Increment      1: Step Time =    1.000,"P-8-1",           749,       109.444,       14.7846,            0.,NA,NA,"",   969.849E+03,   977.133E+03,   977.133E+03
C:/temp/Job-8.odb,Step-1,Increment      1: Step Time =    1.000,"P-8-1",           750,       89.6414,       14.7022,            0.,NA,NA,"",   981.446E+03,   988.047E+03,   988.047E+03
C:/temp/Job-8.odb,Step-1,Increment      1: Step Time =    1.000,"P-8-1",           751,       15.1954,       110.130,            0.,NA,NA,"",   724.740E+03,   813.068E+03,   813.068E+03
C:/temp/Job-8.odb,Step-1,Increment      1: Step Time =    1.000,"P-8-1",           752,       185.172,       108.926,            0.,NA,NA,"",   924.217E+03,   979.255E+03,   979.255E+03
C:/temp/Job-8.odb,Step-1,Increment      1: Step Time =    1.000,"P-8-1",           753,       90.5149,       184.208,            0.,NA,NA,"",   984.291E+03,   992.405E+03,   992.405E+03
C:/temp/Job-8.odb,Step-1,Increment      1: Step Time =    1.000,"P-8-1",           754,       185.506,       89.1710,            0.,NA,NA,"",   926.919E+03,   981.578E+03,   981.578E+03
C:/temp/Job-8.odb,Step-1,Increment      1: Step Time =    1.000,"P-8-1",           755,       110.177,       185.480,            0.,NA,NA,"",   969.742E+03,   976.359E+03,   976.359E+03
C:/temp/Job-8.odb,Step-1,Increment      1: Step Time =    1.000,"P-8-1",           756,       92.0667,       66.7526,            0.,NA,NA,"",   1.30952E+06,   1.40753E+06,   1.40753E+06
C:/temp/Job-8.odb,Step-1,Increment      1: Step Time =    1.000,"P-8-1",           757,       87.3269,       79.2783,            0.,NA,NA,"",   1.58038E+06,   1.60152E+06,   1.60152E+06
C:/temp/Job-8.odb,Step-1,Increment      1: Step Time =    1.000,"P-8-1",           758,       110.951,       120.059,            0.,NA,NA,"",   1.71551E+06,   1.76304E+06,   1.76304E+06
C:/temp/Job-8.odb,Step-1,Increment      1: Step Time =    1.000,"P-8-1",           759,       108.657,       132.596,            0.,NA,NA,"",   1.32375E+06,   1.41433E+06,   1.41433E+06
C:/temp/Job-8.odb,Step-1,Increment      1: Step Time =    1.000,"P-8-1",           760,       92.8871,       132.476,            0.,NA,NA,"",   1.31571E+06,   1.41980E+06,   1.41980E+06
C:/temp/Job-8.odb,Step-1,Increment      1: Step Time =    1.000,"P-8-1",           761,       86.3294,       125.143,            0.,NA,NA,"",   1.49057E+06,   1.50640E+06,   1.50640E+06
C:/temp/Job-8.odb,Step-1,Increment      1: Step Time =    1.000,"P-8-1",           762,       75.8995,       83.3042,            0.,NA,NA,"",   1.15959E+06,   1.00600E+06,   1.00600E+06
C:/temp/Job-8.odb,Step-1,Increment      1: Step Time =    1.000,"P-8-1",           763,       115.761,       76.6745,            0.,NA,NA,"",   1.49474E+06,   1.48012E+06,   1.48012E+06
C:/temp/Job-8.odb,Step-1,Increment      1: Step Time =    1.000,"P-8-1",           764,       107.010,       68.0513,            0.,NA,NA,"",   1.33658E+06,   1.44243E+06,   1.44243E+06
C:/temp/Job-8.odb,Step-1,Increment      1: Step Time =    1.000,"P-8-1",           765,       68.9815,       90.4598,            0.,NA,NA,"",   689.384E+03,   608.925E+03,   608.925E+03
C:/temp/Job-8.odb,Step-1,Increment      1: Step Time =    1.000,"P-8-1",           766,       131.245,       92.3498,            0.,NA,NA,"",    671.15E+03,   563.655E+03,   563.655E+03
C:/temp/Job-8.odb,Step-1,Increment      1: Step Time =    1.000,"P-8-1",           767,       120.731,       88.0085,            0.,NA,NA,"",   863.821E+03,   515.314E+03,   515.314E+03
C:/temp/Job-8.odb,Step-1,Increment      1: Step Time =    1.000,"P-8-1",           768,       76.7585,       114.607,            0.,NA,NA,"",   992.828E+03,   835.396E+03,   835.396E+03
C:/temp/Job-8.odb,Step-1,Increment      1: Step Time =    1.000,"P-8-1",           769,       69.0586,       107.302,            0.,NA,NA,"",   580.538E+03,   520.785E+03,   520.785E+03
C:/temp/Job-8.odb,Step-1,Increment      1: Step Time =    1.000,"P-8-1",           770,       122.626,       116.497,            0.,NA,NA,"",   1.18171E+06,   1.00732E+06,   1.00732E+06
C:/temp/Job-8.odb,Step-1,Increment      1: Step Time =    1.000,"P-8-1",           771,       133.682,       110.412,            0.,NA,NA,"",   810.952E+03,   719.306E+03,   719.306E+03
C:/temp/Job-8.odb,Step-1,Increment      1: Step Time =    1.000,"P-8-1",           772,       99.4711,       14.5701,            0.,NA,NA,"",   968.498E+03,   976.715E+03,   976.715E+03
C:/temp/Job-8.odb,Step-1,Increment      1: Step Time =    1.000,"P-8-1",           773,       14.5603,       100.135,            0.,NA,NA,"",   711.362E+03,   800.387E+03,   800.387E+03
C:/temp/Job-8.odb,Step-1,Increment      1: Step Time =    1.000,"P-8-1",           774,       185.726,       98.9053,            0.,NA,NA,"",   917.636E+03,   976.555E+03,   976.555E+03
C:/temp/Job-8.odb,Step-1,Increment      1: Step Time =    1.000,"P-8-1",           775,       100.491,       185.360,            0.,NA,NA,"",   968.401E+03,   976.610E+03,   976.610E+03
C:/temp/Job-8.odb,Step-1,Increment      1: Step Time =    1.000,"P-8-1",           776,       123.035,       121.449,            0.,NA,NA,"",   1.40675E+06,   1.26451E+06,   1.26451E+06
C:/temp/Job-8.odb,Step-1,Increment      1: Step Time =    1.000,"P-8-1",           777,       82.3682,       122.922,            0.,NA,NA,"",   1.44704E+06,   1.38788E+06,   1.38788E+06
C:/temp/Job-8.odb,Step-1,Increment      1: Step Time =    1.000,"P-8-1",           778,       120.808,       75.7282,            0.,NA,NA,"",   1.42190E+06,   1.32425E+06,   1.32425E+06
C:/temp/Job-8.odb,Step-1,Increment      1: Step Time =    1.000,"P-8-1",           779,       12.3845,       66.0770,            0.,NA,NA,"",   820.159E+03,   908.586E+03,   908.586E+03
C:/temp/Job-8.odb,Step-1,Increment      1: Step Time =    1.000,"P-8-1",           780,       65.1455,       14.8051,            0.,NA,NA,"",   1.04405E+06,   1.04258E+06,   1.04258E+06
C:/temp/Job-8.odb,Step-1,Increment      1: Step Time =    1.000,"P-8-1",           781,       185.482,       64.6979,            0.,NA,NA,"",   978.679E+03,   1.00711E+06,   1.00711E+06
C:/temp/Job-8.odb,Step-1,Increment      1: Step Time =    1.000,"P-8-1",           782,       64.4532,       186.484,            0.,NA,NA,"",   1.04092E+06,   1.03926E+06,   1.03926E+06
C:/temp/Job-8.odb,Step-1,Increment      1: Step Time =    1.000,"P-8-1",           783,       135.226,       14.8370,            0.,NA,NA,"",   1.00542E+06,   1.00277E+06,   1.00277E+06
C:/temp/Job-8.odb,Step-1,Increment      1: Step Time =    1.000,"P-8-1",           784,       14.4031,       135.641,            0.,NA,NA,"",   836.045E+03,   921.096E+03,   921.096E+03
C:/temp/Job-8.odb,Step-1,Increment      1: Step Time =    1.000,"P-8-1",           785,       186.475,       134.624,            0.,NA,NA,"",   974.764E+03,   1.00577E+06,   1.00577E+06
C:/temp/Job-8.odb,Step-1,Increment      1: Step Time =    1.000,"P-8-1",           786,       134.372,       184.955,            0.,NA,NA,"",   1.00547E+06,   1.00313E+06,   1.00313E+06
C:/temp/Job-8.odb,Step-1,Increment      1: Step Time =    1.000,"P-8-1",           787,       13.9042,       75.1290,            0.,NA,NA,"",   780.293E+03,   867.901E+03,   867.901E+03
C:/temp/Job-8.odb,Step-1,Increment      1: Step Time =    1.000,"P-8-1",           788,       14.7731,       125.590,            0.,NA,NA,"",   784.742E+03,   871.212E+03,   871.212E+03
C:/temp/Job-8.odb,Step-1,Increment      1: Step Time =    1.000,"P-8-1",           789,       124.460,       14.9416,            0.,NA,NA,"",   990.189E+03,   991.667E+03,   991.667E+03
C:/temp/Job-8.odb,Step-1,Increment      1: Step Time =    1.000,"P-8-1",           790,       74.9760,       14.8325,            0.,NA,NA,"",   1.01748E+06,   1.01888E+06,   1.01888E+06
C:/temp/Job-8.odb,Step-1,Increment      1: Step Time =    1.000,"P-8-1",           791,       185.278,       74.4942,            0.,NA,NA,"",   958.191E+03,   997.891E+03,   997.891E+03
C:/temp/Job-8.odb,Step-1,Increment      1: Step Time =    1.000,"P-8-1",           792,       73.8697,       184.910,            0.,NA,NA,"",   1.02198E+06,   1.02277E+06,   1.02277E+06
C:/temp/Job-8.odb,Step-1,Increment      1: Step Time =    1.000,"P-8-1",           793,       185.870,       125.188,            0.,NA,NA,"",   956.933E+03,   998.114E+03,   998.114E+03
C:/temp/Job-8.odb,Step-1,Increment      1: Step Time =    1.000,"P-8-1",           794,       124.645,       184.903,            0.,NA,NA,"",   991.012E+03,   992.334E+03,   992.334E+03
C:/temp/Job-8.odb,Step-1,Increment      1: Step Time =    1.000,"P-8-1",           795,       96.4350,       130.551,            0.,NA,NA,"",   1.38242E+06,   1.51943E+06,   1.51943E+06
C:/temp/Job-8.odb,Step-1,Increment      1: Step Time =    1.000,"P-8-1",           796,       132.107,       104.516,            0.,NA,NA,"",   519.013E+03,   465.081E+03,   465.081E+03
C:/temp/Job-8.odb,Step-1,Increment      1: Step Time =    1.000,"P-8-1",           797,       66.9274,       102.957,            0.,NA,NA,"",   416.545E+03,   417.401E+03,   417.401E+03
C:/temp/Job-8.odb,Step-1,Increment      1: Step Time =    1.000,"P-8-1",           798,       97.3637,       67.6069,            0.,NA,NA,"",   1.32068E+06,   1.45748E+06,   1.45748E+06
C:/temp/Job-8.odb,Step-1,Increment      1: Step Time =    1.000,"P-8-1",           799,       84.7580,       14.7762,            0.,NA,NA,"",   992.077E+03,   997.129E+03,   997.129E+03
C:/temp/Job-8.odb,Step-1,Increment      1: Step Time =    1.000,"P-8-1",           800,       15.1902,       115.291,            0.,NA,NA,"",   740.401E+03,   828.178E+03,   828.178E+03
C:/temp/Job-8.odb,Step-1,Increment      1: Step Time =    1.000,"P-8-1",           801,       15.4098,       85.1782,            0.,NA,NA,"",   739.121E+03,   826.660E+03,   826.660E+03
C:/temp/Job-8.odb,Step-1,Increment      1: Step Time =    1.000,"P-8-1",           802,       114.348,       14.9641,            0.,NA,NA,"",   975.301E+03,   980.913E+03,   980.913E+03
C:/temp/Job-8.odb,Step-1,Increment      1: Step Time =    1.000,"P-8-1",           803,       185.370,       84.2884,            0.,NA,NA,"",   936.085E+03,   986.499E+03,   986.499E+03
C:/temp/Job-8.odb,Step-1,Increment      1: Step Time =    1.000,"P-8-1",           804,       114.977,       185.319,            0.,NA,NA,"",   975.514E+03,   980.689E+03,   980.689E+03
C:/temp/Job-8.odb,Step-1,Increment      1: Step Time =    1.000,"P-8-1",           805,       184.039,       114.551,            0.,NA,NA,"",   934.468E+03,   982.932E+03,   982.932E+03
C:/temp/Job-8.odb,Step-1,Increment      1: Step Time =    1.000,"P-8-1",           806,       84.8009,       182.848,            0.,NA,NA,"",   1.00324E+06,   1.01023E+06,   1.01023E+06
C:/temp/Job-8.odb,Step-1,Increment      1: Step Time =    1.000,"P-8-1",           807,       94.5444,       14.6106,            0.,NA,NA,"",   973.289E+03,   980.977E+03,   980.977E+03
C:/temp/Job-8.odb,Step-1,Increment      1: Step Time =    1.000,"P-8-1",           808,       14.9630,       105.081,            0.,NA,NA,"",   714.959E+03,   803.713E+03,   803.713E+03
C:/temp/Job-8.odb,Step-1,Increment      1: Step Time =    1.000,"P-8-1",           809,       185.671,       94.0289,            0.,NA,NA,"",   920.478E+03,   978.121E+03,   978.121E+03
C:/temp/Job-8.odb,Step-1,Increment      1: Step Time =    1.000,"P-8-1",           810,       105.343,       185.521,            0.,NA,NA,"",   967.025E+03,   974.693E+03,   974.693E+03
C:/temp/Job-8.odb,Step-1,Increment      1: Step Time =    1.000,"P-8-1",           811,       88.2364,       66.7203,            0.,NA,NA,"",   1.32270E+06,   1.38363E+06,   1.38363E+06
C:/temp/Job-8.odb,Step-1,Increment      1: Step Time =    1.000,"P-8-1",           812,       111.495,       129.603,            0.,NA,NA,"",   1.40456E+06,   1.46600E+06,   1.46600E+06
C:/temp/Job-8.odb,Step-1,Increment      1: Step Time =    1.000,"P-8-1",           813,       68.0685,       112.388,            0.,NA,NA,"",   816.082E+03,   734.890E+03,   734.890E+03
C:/temp/Job-8.odb,Step-1,Increment      1: Step Time =    1.000,"P-8-1",           814,       131.466,       86.5848,            0.,NA,NA,"",   1.00441E+06,   862.656E+03,   862.656E+03
C:/temp/Job-8.odb,Step-1,Increment      1: Step Time =    1.000,"P-8-1",           815,       104.433,       14.6217,            0.,NA,NA,"",   967.285E+03,   975.465E+03,   975.465E+03
C:/temp/Job-8.odb,Step-1,Increment      1: Step Time =    1.000,"P-8-1",           816,       14.2281,       95.2434,            0.,NA,NA,"",   714.317E+03,   803.446E+03,   803.446E+03
C:/temp/Job-8.odb,Step-1,Increment      1: Step Time =    1.000,"P-8-1",           817,       185.619,       103.811,            0.,NA,NA,"",   918.858E+03,   977.063E+03,   977.063E+03
C:/temp/Job-8.odb,Step-1,Increment      1: Step Time =    1.000,"P-8-1",           818,       95.6139,       184.955,            0.,NA,NA,"",   973.772E+03,   982.126E+03,   982.126E+03
C:/temp/Job-8.odb,Step-1,Increment      1: Step Time =    1.000,"P-8-1",           819,       132.876,       114.482,            0.,NA,NA,"",   989.447E+03,   862.988E+03,   862.988E+03
C:/temp/Job-8.odb,Step-1,Increment      1: Step Time =    1.000,"P-8-1",           820,       115.916,       67.0497,            0.,NA,NA,"",   1.35848E+06,   1.37380E+06,   1.37380E+06
C:/temp/Job-8.odb,Step-1,Increment      1: Step Time =    1.000,"P-8-1",           821,       65.5145,       87.2113,            0.,NA,NA,"",   828.387E+03,   766.935E+03,   766.935E+03
C:/temp/Job-8.odb,Step-1,Increment      1: Step Time =    1.000,"P-8-1",           822,       87.0847,       131.988,            0.,NA,NA,"",   1.34937E+06,   1.39438E+06,   1.39438E+06
C:/temp/Job-8.odb,Step-1,Increment      1: Step Time =    1.000,"P-8-1",           823,       98.7725,       134.464,            0.,NA,NA,"",   1.25380E+06,   1.38313E+06,   1.38313E+06
C:/temp/Job-8.odb,Step-1,Increment      1: Step Time =    1.000,"P-8-1",           824,       135.224,       101.863,            0.,NA,NA,"",   483.010E+03,   471.155E+03,   471.155E+03
C:/temp/Job-8.odb,Step-1,Increment      1: Step Time =    1.000,"P-8-1",           825,       101.441,       65.1793,            0.,NA,NA,"",   1.25371E+06,   1.38157E+06,   1.38157E+06
C:/temp/Job-8.odb,Step-1,Increment      1: Step Time =    1.000,"P-8-1",           826,       64.1706,       99.7468,            0.,NA,NA,"",   403.817E+03,   430.502E+03,   430.502E+03
C:/temp/Job-8.odb,Step-1,Increment      1: Step Time =    1.000,"P-8-1",           827,       67.8980,       77.4555,            0.,NA,NA,"",   1.16410E+06,   1.07570E+06,   1.07570E+06
C:/temp/Job-8.odb,Step-1,Increment      1: Step Time =    1.000,"P-8-1",           828,       121.053,       71.2772,            0.,NA,NA,"",   1.42113E+06,   1.35857E+06,   1.35857E+06
C:/temp/Job-8.odb,Step-1,Increment      1: Step Time =    1.000,"P-8-1",           829,       79.9672,       127.856,            0.,NA,NA,"",   1.40055E+06,   1.35297E+06,   1.35297E+06
C:/temp/Job-8.odb,Step-1,Increment      1: Step Time =    1.000,"P-8-1",           830,       127.043,       121.948,            0.,NA,NA,"",   1.33255E+06,   1.17919E+06,   1.17919E+06
C:/temp/Job-8.odb,Step-1,Increment      1: Step Time =    1.000,"P-8-1",           831,       109.063,       19.7169,            0.,NA,NA,"",   990.716E+03,   1.00286E+06,   1.00286E+06
C:/temp/Job-8.odb,Step-1,Increment      1: Step Time =    1.000,"P-8-1",           832,       18.3611,       91.0023,            0.,NA,NA,"",   723.823E+03,   810.119E+03,   810.119E+03
C:/temp/Job-8.odb,Step-1,Increment      1: Step Time =    1.000,"P-8-1",           833,       180.713,       107.647,            0.,NA,NA,"",   917.936E+03,   965.153E+03,   965.153E+03
C:/temp/Job-8.odb,Step-1,Increment      1: Step Time =    1.000,"P-8-1",           834,       91.8410,       179.361,            0.,NA,NA,"",   1.00245E+06,   1.01596E+06,   1.01596E+06
C:/temp/Job-8.odb,Step-1,Increment      1: Step Time =    1.000,"P-8-1",           835,       99.2644,       19.2956,            0.,NA,NA,"",   988.218E+03,   1.00141E+06,   1.00141E+06
C:/temp/Job-8.odb,Step-1,Increment      1: Step Time =    1.000,"P-8-1",           836,       19.2408,       99.8257,            0.,NA,NA,"",   710.983E+03,   797.234E+03,   797.234E+03
C:/temp/Job-8.odb,Step-1,Increment      1: Step Time =    1.000,"P-8-1",           837,       181.257,       98.4568,            0.,NA,NA,"",   911.688E+03,   962.293E+03,   962.293E+03
C:/temp/Job-8.odb,Step-1,Increment      1: Step Time =    1.000,"P-8-1",           838,       100.874,       180.727,            0.,NA,NA,"",   987.778E+03,   1.00066E+06,   1.00066E+06
C:/temp/Job-8.odb,Step-1,Increment      1: Step Time =    1.000,"P-8-1",           839,       74.6801,       75.9589,            0.,NA,NA,"",   1.31675E+06,   1.21647E+06,   1.21647E+06
C:/temp/Job-8.odb,Step-1,Increment      1: Step Time =    1.000,"P-8-1",           840,       124.969,       75.3691,            0.,NA,NA,"",   1.39517E+06,   1.26588E+06,   1.26588E+06
C:/temp/Job-8.odb,Step-1,Increment      1: Step Time =    1.000,"P-8-1",           841,       76.5545,       125.670,            0.,NA,NA,"",   1.35722E+06,   1.27156E+06,   1.27156E+06
C:/temp/Job-8.odb,Step-1,Increment      1: Step Time =    1.000,"P-8-1",           842,       123.447,       125.226,            0.,NA,NA,"",   1.42994E+06,   1.31518E+06,   1.31518E+06
C:/temp/Job-8.odb,Step-1,Increment      1: Step Time =    1.000,"P-8-1",           843,       16.7481,       58.7115,            0.,NA,NA,"",   875.622E+03,   955.609E+03,   955.609E+03
C:/temp/Job-8.odb,Step-1,Increment      1: Step Time =    1.000,"P-8-1",           844,       60.2415,       19.7244,            0.,NA,NA,"",   1.07697E+06,   1.07374E+06,   1.07374E+06
C:/temp/Job-8.odb,Step-1,Increment      1: Step Time =    1.000,"P-8-1",           845,       55.2021,       181.963,            0.,NA,NA,"",   1.08079E+06,   1.07803E+06,   1.07803E+06
C:/temp/Job-8.odb,Step-1,Increment      1: Step Time =    1.000,"P-8-1",           846,       180.842,       59.6046,            0.,NA,NA,"",   1.00069E+06,   1.01601E+06,   1.01601E+06
C:/temp/Job-8.odb,Step-1,Increment      1: Step Time =    1.000,"P-8-1",           847,       19.0222,       140.857,            0.,NA,NA,"",   884.807E+03,   960.133E+03,   960.133E+03
C:/temp/Job-8.odb,Step-1,Increment      1: Step Time =    1.000,"P-8-1",           848,       141.023,       19.0695,            0.,NA,NA,"",   1.02822E+06,   1.02234E+06,   1.02234E+06
C:/temp/Job-8.odb,Step-1,Increment      1: Step Time =    1.000,"P-8-1",           849,       182.300,       143.241,            0.,NA,NA,"",   999.749E+03,   1.01507E+06,   1.01507E+06
C:/temp/Job-8.odb,Step-1,Increment      1: Step Time =    1.000,"P-8-1",           850,       138.915,       180.281,            0.,NA,NA,"",   1.03130E+06,   1.02546E+06,   1.02546E+06
C:/temp/Job-8.odb,Step-1,Increment      1: Step Time =    1.000,"P-8-1",           851,       16.9357,       70.0391,            0.,NA,NA,"",   813.742E+03,   896.783E+03,   896.783E+03
C:/temp/Job-8.odb,Step-1,Increment      1: Step Time =    1.000,"P-8-1",           852,       70.1606,       19.8597,            0.,NA,NA,"",   1.05402E+06,   1.05383E+06,   1.05383E+06
C:/temp/Job-8.odb,Step-1,Increment      1: Step Time =    1.000,"P-8-1",           853,       181.679,       129.988,            0.,NA,NA,"",   976.075E+03,   1.00360E+06,   1.00360E+06
C:/temp/Job-8.odb,Step-1,Increment      1: Step Time =    1.000,"P-8-1",           854,       129.382,       179.439,            0.,NA,NA,"",   1.02449E+06,   1.02318E+06,   1.02318E+06
C:/temp/Job-8.odb,Step-1,Increment      1: Step Time =    1.000,"P-8-1",           855,       129.551,       19.7651,            0.,NA,NA,"",   1.02085E+06,   1.01958E+06,   1.01958E+06
C:/temp/Job-8.odb,Step-1,Increment      1: Step Time =    1.000,"P-8-1",           856,       19.2508,       131.015,            0.,NA,NA,"",   828.254E+03,   907.123E+03,   907.123E+03
C:/temp/Job-8.odb,Step-1,Increment      1: Step Time =    1.000,"P-8-1",           857,       68.1591,       181.180,            0.,NA,NA,"",   1.05462E+06,   1.05329E+06,   1.05329E+06
C:/temp/Job-8.odb,Step-1,Increment      1: Step Time =    1.000,"P-8-1",           858,       180.383,       69.3501,            0.,NA,NA,"",   981.309E+03,   1.00540E+06,   1.00540E+06
C:/temp/Job-8.odb,Step-1,Increment      1: Step Time =    1.000,"P-8-1",           859,       20.4955,       83.2684,            0.,NA,NA,"",   752.149E+03,   835.092E+03,   835.092E+03
C:/temp/Job-8.odb,Step-1,Increment      1: Step Time =    1.000,"P-8-1",           860,       118.993,       20.1640,            0.,NA,NA,"",   1.00522E+06,   1.01157E+06,   1.01157E+06
C:/temp/Job-8.odb,Step-1,Increment      1: Step Time =    1.000,"P-8-1",           861,       179.336,       117.211,            0.,NA,NA,"",   941.220E+03,   978.545E+03,   978.545E+03
C:/temp/Job-8.odb,Step-1,Increment      1: Step Time =    1.000,"P-8-1",           862,       81.7919,       178.155,            0.,NA,NA,"",   1.03140E+06,   1.03946E+06,   1.03946E+06
C:/temp/Job-8.odb,Step-1,Increment      1: Step Time =    1.000,"P-8-1",           863,       111.263,       67.4147,            0.,NA,NA,"",   1.33687E+06,   1.40366E+06,   1.40366E+06
C:/temp/Job-8.odb,Step-1,Increment      1: Step Time =    1.000,"P-8-1",           864,       89.4198,       134.845,            0.,NA,NA,"",   1.29227E+06,   1.36152E+06,   1.36152E+06
C:/temp/Job-8.odb,Step-1,Increment      1: Step Time =    1.000,"P-8-1",           865,       137.478,       111.984,            0.,NA,NA,"",   867.966E+03,   798.167E+03,   798.167E+03
C:/temp/Job-8.odb,Step-1,Increment      1: Step Time =    1.000,"P-8-1",           866,       83.1448,       66.5826,            0.,NA,NA,"",   1.33564E+06,   1.34503E+06,   1.34503E+06
C:/temp/Job-8.odb,Step-1,Increment      1: Step Time =    1.000,"P-8-1",           867,       119.606,       133.022,            0.,NA,NA,"",   1.36872E+06,   1.34113E+06,   1.34113E+06
C:/temp/Job-8.odb,Step-1,Increment      1: Step Time =    1.000,"P-8-1",           868,       121.017,       66.6707,            0.,NA,NA,"",   1.36670E+06,   1.33080E+06,   1.33080E+06
C:/temp/Job-8.odb,Step-1,Increment      1: Step Time =    1.000,"P-8-1",           869,       65.2634,       80.9945,            0.,NA,NA,"",   1.03714E+06,   963.175E+03,   963.175E+03
C:/temp/Job-8.odb,Step-1,Increment      1: Step Time =    1.000,"P-8-1",           870,       81.5631,       134.352,            0.,NA,NA,"",   1.32679E+06,   1.32453E+06,   1.32453E+06
C:/temp/Job-8.odb,Step-1,Increment      1: Step Time =    1.000,"P-8-1",           871,       65.7269,       120.822,            0.,NA,NA,"",   1.07961E+06,   999.165E+03,   999.165E+03
C:/temp/Job-8.odb,Step-1,Increment      1: Step Time =    1.000,"P-8-1",           872,       131.070,       81.0234,            0.,NA,NA,"",   1.17636E+06,   1.03265E+06,   1.03265E+06
C:/temp/Job-8.odb,Step-1,Increment      1: Step Time =    1.000,"P-8-1",           873,       132.113,       118.829,            0.,NA,NA,"",   1.15430E+06,   1.01337E+06,   1.01337E+06
C:/temp/Job-8.odb,Step-1,Increment      1: Step Time =    1.000,"P-8-1",           874,       100.817,       138.935,            0.,NA,NA,"",   1.16189E+06,   1.27398E+06,   1.27398E+06
C:/temp/Job-8.odb,Step-1,Increment      1: Step Time =    1.000,"P-8-1",           875,       139.754,       99.9136,            0.,NA,NA,"",   557.994E+03,   563.744E+03,   563.744E+03
C:/temp/Job-8.odb,Step-1,Increment      1: Step Time =    1.000,"P-8-1",           876,       99.7176,       60.3936,            0.,NA,NA,"",   1.15915E+06,   1.26850E+06,   1.26850E+06
C:/temp/Job-8.odb,Step-1,Increment      1: Step Time =    1.000,"P-8-1",           877,       57.4716,       99.4071,            0.,NA,NA,"",   516.231E+03,   561.650E+03,   561.650E+03
C:/temp/Job-8.odb,Step-1,Increment      1: Step Time =    1.000,"P-8-1",           878,       131.265,       123.281,            0.,NA,NA,"",   1.27456E+06,   1.13823E+06,   1.13823E+06
C:/temp/Job-8.odb,Step-1,Increment      1: Step Time =    1.000,"P-8-1",           879,       76.9407,       133.349,            0.,NA,NA,"",   1.32911E+06,   1.29139E+06,   1.29139E+06
C:/temp/Job-8.odb,Step-1,Increment      1: Step Time =    1.000,"P-8-1",           880,       63.9283,       75.1713,            0.,NA,NA,"",   1.12162E+06,   1.05882E+06,   1.05882E+06
C:/temp/Job-8.odb,Step-1,Increment      1: Step Time =    1.000,"P-8-1",           881,       89.6834,       24.6896,            0.,NA,NA,"",   1.02187E+06,   1.03818E+06,   1.03818E+06
C:/temp/Job-8.odb,Step-1,Increment      1: Step Time =    1.000,"P-8-1",           882,       25.8294,       110.053,            0.,NA,NA,"",   727.478E+03,   807.156E+03,   807.156E+03
C:/temp/Job-8.odb,Step-1,Increment      1: Step Time =    1.000,"P-8-1",           883,       175.948,       89.0205,            0.,NA,NA,"",   916.772E+03,   954.178E+03,   954.178E+03
C:/temp/Job-8.odb,Step-1,Increment      1: Step Time =    1.000,"P-8-1",           884,       109.859,       175.973,            0.,NA,NA,"",   1.00775E+06,   1.02365E+06,   1.02365E+06
C:/temp/Job-8.odb,Step-1,Increment      1: Step Time =    1.000,"P-8-1",           885,       25.7254,       82.3059,            0.,NA,NA,"",   763.955E+03,   840.752E+03,   840.752E+03
C:/temp/Job-8.odb,Step-1,Increment      1: Step Time =    1.000,"P-8-1",           886,       118.947,       25.4705,            0.,NA,NA,"",   1.02813E+06,   1.03695E+06,   1.03695E+06
C:/temp/Job-8.odb,Step-1,Increment      1: Step Time =    1.000,"P-8-1",           887,       79.8983,       24.9532,            0.,NA,NA,"",   1.05021E+06,   1.05826E+06,   1.05826E+06
C:/temp/Job-8.odb,Step-1,Increment      1: Step Time =    1.000,"P-8-1",           888,       24.7369,       121.404,            0.,NA,NA,"",   786.573E+03,   861.838E+03,   861.838E+03
C:/temp/Job-8.odb,Step-1,Increment      1: Step Time =    1.000,"P-8-1",           889,       174.398,       118.409,            0.,NA,NA,"",   946.373E+03,   973.246E+03,   973.246E+03
C:/temp/Job-8.odb,Step-1,Increment      1: Step Time =    1.000,"P-8-1",           890,       80.6148,       173.677,            0.,NA,NA,"",   1.05455E+06,   1.06393E+06,   1.06393E+06
C:/temp/Job-8.odb,Step-1,Increment      1: Step Time =    1.000,"P-8-1",           891,       175.156,       79.0511,            0.,NA,NA,"",   956.835E+03,   981.571E+03,   981.571E+03
C:/temp/Job-8.odb,Step-1,Increment      1: Step Time =    1.000,"P-8-1",           892,       118.843,       174.976,            0.,NA,NA,"",   1.02655E+06,   1.03534E+06,   1.03534E+06
C:/temp/Job-8.odb,Step-1,Increment      1: Step Time =    1.000,"P-8-1",           893,       176.939,       98.1242,            0.,NA,NA,"",   901.878E+03,   945.717E+03,   945.717E+03
C:/temp/Job-8.odb,Step-1,Increment      1: Step Time =    1.000,"P-8-1",           894,       101.327,       176.131,            0.,NA,NA,"",   1.00346E+06,   1.02189E+06,   1.02189E+06
C:/temp/Job-8.odb,Step-1,Increment      1: Step Time =    1.000,"P-8-1",           895,       99.1457,       23.9185,            0.,NA,NA,"",   1.00423E+06,   1.02326E+06,   1.02326E+06
C:/temp/Job-8.odb,Step-1,Increment      1: Step Time =    1.000,"P-8-1",           896,       23.4470,       98.9570,            0.,NA,NA,"",   709.800E+03,   793.241E+03,   793.241E+03
C:/temp/Job-8.odb,Step-1,Increment      1: Step Time =    1.000,"P-8-1",           897,       140.159,       23.2760,            0.,NA,NA,"",   1.04539E+06,   1.03755E+06,   1.03755E+06
C:/temp/Job-8.odb,Step-1,Increment      1: Step Time =    1.000,"P-8-1",           898,       23.5694,       141.079,            0.,NA,NA,"",   908.327E+03,   974.049E+03,   974.049E+03
C:/temp/Job-8.odb,Step-1,Increment      1: Step Time =    1.000,"P-8-1",           899,       60.3799,       24.5726,            0.,NA,NA,"",   1.09555E+06,   1.09113E+06,   1.09113E+06
C:/temp/Job-8.odb,Step-1,Increment      1: Step Time =    1.000,"P-8-1",           900,       24.9589,       59.0840,            0.,NA,NA,"",   913.266E+03,   976.340E+03,   976.340E+03
C:/temp/Job-8.odb,Step-1,Increment      1: Step Time =    1.000,"P-8-1",           901,       56.5879,       176.567,            0.,NA,NA,"",   1.09588E+06,   1.09185E+06,   1.09185E+06
C:/temp/Job-8.odb,Step-1,Increment      1: Step Time =    1.000,"P-8-1",           902,       176.064,       59.2187,            0.,NA,NA,"",   1.01739E+06,   1.02402E+06,   1.02402E+06
C:/temp/Job-8.odb,Step-1,Increment      1: Step Time =    1.000,"P-8-1",           903,       176.128,       139.021,            0.,NA,NA,"",   1.01227E+06,   1.02070E+06,   1.02070E+06
C:/temp/Job-8.odb,Step-1,Increment      1: Step Time =    1.000,"P-8-1",           904,       142.052,       175.048,            0.,NA,NA,"",   1.05385E+06,   1.04416E+06,   1.04416E+06
C:/temp/Job-8.odb,Step-1,Increment      1: Step Time =    1.000,"P-8-1",           905,       23.7656,       131.463,            0.,NA,NA,"",   848.145E+03,   919.118E+03,   919.118E+03
C:/temp/Job-8.odb,Step-1,Increment      1: Step Time =    1.000,"P-8-1",           906,       175.412,       69.0349,            0.,NA,NA,"",   995.261E+03,   1.00907E+06,   1.00907E+06
C:/temp/Job-8.odb,Step-1,Increment      1: Step Time =    1.000,"P-8-1",           907,       70.2461,       24.9798,            0.,NA,NA,"",   1.07659E+06,   1.07647E+06,   1.07647E+06
C:/temp/Job-8.odb,Step-1,Increment      1: Step Time =    1.000,"P-8-1",           908,       129.435,       173.830,            0.,NA,NA,"",   1.05135E+06,   1.04875E+06,   1.04875E+06
C:/temp/Job-8.odb,Step-1,Increment      1: Step Time =    1.000,"P-8-1",           909,       12.6807,       57.4865,            0.,NA,NA,"",   864.484E+03,   951.593E+03,   951.593E+03
C:/temp/Job-8.odb,Step-1,Increment      1: Step Time =    1.000,"P-8-1",           910,       55.1323,       14.7957,            0.,NA,NA,"",   1.06934E+06,   1.06703E+06,   1.06703E+06
C:/temp/Job-8.odb,Step-1,Increment      1: Step Time =    1.000,"P-8-1",           911,       186.840,       143.377,            0.,NA,NA,"",   987.226E+03,   1.00899E+06,   1.00899E+06
C:/temp/Job-8.odb,Step-1,Increment      1: Step Time =    1.000,"P-8-1",           912,       144.361,       184.714,            0.,NA,NA,"",   1.01597E+06,   1.01141E+06,   1.01141E+06
C:/temp/Job-8.odb,Step-1,Increment      1: Step Time =    1.000,"P-8-1",           913,       55.7613,       187.106,            0.,NA,NA,"",   1.06099E+06,   1.05903E+06,   1.05903E+06
C:/temp/Job-8.odb,Step-1,Increment      1: Step Time =    1.000,"P-8-1",           914,       185.830,       55.0233,            0.,NA,NA,"",   992.723E+03,   1.01130E+06,   1.01130E+06
C:/temp/Job-8.odb,Step-1,Increment      1: Step Time =    1.000,"P-8-1",           915,       14.2134,       145.454,            0.,NA,NA,"",   887.394E+03,   971.019E+03,   971.019E+03
C:/temp/Job-8.odb,Step-1,Increment      1: Step Time =    1.000,"P-8-1",           916,       145.257,       13.5409,            0.,NA,NA,"",   1.00909E+06,   1.00542E+06,   1.00542E+06
C:/temp/Job-8.odb,Step-1,Increment      1: Step Time =    1.000,"P-8-1",           917,       76.7780,       71.2500,            0.,NA,NA,"",   1.35734E+06,   1.29202E+06,   1.29202E+06
C:/temp/Job-8.odb,Step-1,Increment      1: Step Time =    1.000,"P-8-1",           918,       120.705,       127.653,            0.,NA,NA,"",   1.43129E+06,   1.36219E+06,   1.36219E+06
C:/temp/Job-8.odb,Step-1,Increment      1: Step Time =    1.000,"P-8-1",           919,       126.836,       78.9104,            0.,NA,NA,"",   1.30998E+06,   1.15773E+06,   1.15773E+06
C:/temp/Job-8.odb,Step-1,Increment      1: Step Time =    1.000,"P-8-1",           920,       73.0218,       123.659,            0.,NA,NA,"",   1.28367E+06,   1.17839E+06,   1.17839E+06
C:/temp/Job-8.odb,Step-1,Increment      1: Step Time =    1.000,"P-8-1",           921,       106.054,       144.115,            0.,NA,NA,"",   1.13251E+06,   1.21332E+06,   1.21332E+06
C:/temp/Job-8.odb,Step-1,Increment      1: Step Time =    1.000,"P-8-1",           922,       142.383,       95.8673,            0.,NA,NA,"",   644.845E+03,   647.407E+03,   647.407E+03
C:/temp/Job-8.odb,Step-1,Increment      1: Step Time =    1.000,"P-8-1",           923,       104.788,       58.3728,            0.,NA,NA,"",   1.15117E+06,   1.24357E+06,   1.24357E+06
C:/temp/Job-8.odb,Step-1,Increment      1: Step Time =    1.000,"P-8-1",           924,       58.0598,       93.1753,            0.,NA,NA,"",   596.846E+03,   624.168E+03,   624.168E+03
C:/temp/Job-8.odb,Step-1,Increment      1: Step Time =    1.000,"P-8-1",           925,       140.052,       109.543,            0.,NA,NA,"",   782.702E+03,   743.698E+03,   743.698E+03
C:/temp/Job-8.odb,Step-1,Increment      1: Step Time =    1.000,"P-8-1",           926,       91.4177,       138.628,            0.,NA,NA,"",   1.22067E+06,   1.30132E+06,   1.30132E+06
C:/temp/Job-8.odb,Step-1,Increment      1: Step Time =    1.000,"P-8-1",           927,       136.839,       120.770,            0.,NA,NA,"",   1.12686E+06,   1.02020E+06,   1.02020E+06
C:/temp/Job-8.odb,Step-1,Increment      1: Step Time =    1.000,"P-8-1",           928,       120.938,       61.9754,            0.,NA,NA,"",   1.30105E+06,   1.28545E+06,   1.28545E+06
C:/temp/Job-8.odb,Step-1,Increment      1: Step Time =    1.000,"P-8-1",           929,       80.4034,       137.803,            0.,NA,NA,"",   1.29114E+06,   1.28812E+06,   1.28812E+06
C:/temp/Job-8.odb,Step-1,Increment      1: Step Time =    1.000,"P-8-1",           930,       61.9062,       78.4035,            0.,NA,NA,"",   1.04111E+06,   988.656E+03,   988.656E+03
C:/temp/Job-8.odb,Step-1,Increment      1: Step Time =    1.000,"P-8-1",           931,       8.49820,       56.4906,            0.,NA,NA,"",   851.560E+03,   945.630E+03,   945.630E+03
C:/temp/Job-8.odb,Step-1,Increment      1: Step Time =    1.000,"P-8-1",           932,       55.6345,       191.536,            0.,NA,NA,"",   1.04327E+06,   1.04226E+06,   1.04226E+06
C:/temp/Job-8.odb,Step-1,Increment      1: Step Time =    1.000,"P-8-1",           933,       144.790,       8.89740,            0.,NA,NA,"",   993.784E+03,   991.973E+03,   991.973E+03
C:/temp/Job-8.odb,Step-1,Increment      1: Step Time =    1.000,"P-8-1",           934,       191.204,       143.936,            0.,NA,NA,"",   978.360E+03,   1.00461E+06,   1.00461E+06
C:/temp/Job-8.odb,Step-1,Increment      1: Step Time =    1.000,"P-8-1",           935,       94.4905,       24.2570,            0.,NA,NA,"",   1.01061E+06,   1.02919E+06,   1.02919E+06
C:/temp/Job-8.odb,Step-1,Increment      1: Step Time =    1.000,"P-8-1",           936,       26.0198,       103.779,            0.,NA,NA,"",   709.622E+03,   790.718E+03,   790.718E+03
C:/temp/Job-8.odb,Step-1,Increment      1: Step Time =    1.000,"P-8-1",           937,       176.546,       93.7058,            0.,NA,NA,"",   906.420E+03,   948.214E+03,   948.214E+03
C:/temp/Job-8.odb,Step-1,Increment      1: Step Time =    1.000,"P-8-1",           938,       105.531,       176.550,            0.,NA,NA,"",   1.00301E+06,   1.02042E+06,   1.02042E+06
C:/temp/Job-8.odb,Step-1,Increment      1: Step Time =    1.000,"P-8-1",           939,       25.0909,       86.2820,            0.,NA,NA,"",   742.236E+03,   821.797E+03,   821.797E+03
C:/temp/Job-8.odb,Step-1,Increment      1: Step Time =    1.000,"P-8-1",           940,       84.8453,       25.0150,            0.,NA,NA,"",   1.03569E+06,   1.04823E+06,   1.04823E+06
C:/temp/Job-8.odb,Step-1,Increment      1: Step Time =    1.000,"P-8-1",           941,       113.133,       26.5541,            0.,NA,NA,"",   1.02084E+06,   1.03708E+06,   1.03708E+06
C:/temp/Job-8.odb,Step-1,Increment      1: Step Time =    1.000,"P-8-1",           942,       25.5476,       115.915,            0.,NA,NA,"",   754.813E+03,   832.283E+03,   832.283E+03
C:/temp/Job-8.odb,Step-1,Increment      1: Step Time =    1.000,"P-8-1",           943,       175.292,       84.0848,            0.,NA,NA,"",   935.030E+03,   966.255E+03,   966.255E+03
C:/temp/Job-8.odb,Step-1,Increment      1: Step Time =    1.000,"P-8-1",           944,       174.585,       113.905,            0.,NA,NA,"",   927.965E+03,   960.690E+03,   960.690E+03
C:/temp/Job-8.odb,Step-1,Increment      1: Step Time =    1.000,"P-8-1",           945,       114.249,       175.272,            0.,NA,NA,"",   1.01630E+06,   1.02947E+06,   1.02947E+06
C:/temp/Job-8.odb,Step-1,Increment      1: Step Time =    1.000,"P-8-1",           946,       137.232,       27.6284,            0.,NA,NA,"",   1.06420E+06,   1.05493E+06,   1.05493E+06
C:/temp/Job-8.odb,Step-1,Increment      1: Step Time =    1.000,"P-8-1",           947,       23.5501,       136.316,            0.,NA,NA,"",   878.795E+03,   947.170E+03,   947.170E+03
C:/temp/Job-8.odb,Step-1,Increment      1: Step Time =    1.000,"P-8-1",           948,       65.3470,       24.7037,            0.,NA,NA,"",   1.08689E+06,   1.08394E+06,   1.08394E+06
C:/temp/Job-8.odb,Step-1,Increment      1: Step Time =    1.000,"P-8-1",           949,       27.9462,       61.2728,            0.,NA,NA,"",   914.361E+03,   972.213E+03,   972.213E+03
C:/temp/Job-8.odb,Step-1,Increment      1: Step Time =    1.000,"P-8-1",           950,       64.8046,       173.314,            0.,NA,NA,"",   1.09627E+06,   1.09263E+06,   1.09263E+06
C:/temp/Job-8.odb,Step-1,Increment      1: Step Time =    1.000,"P-8-1",           951,       175.730,       64.0708,            0.,NA,NA,"",   1.00844E+06,   1.01814E+06,   1.01814E+06
C:/temp/Job-8.odb,Step-1,Increment      1: Step Time =    1.000,"P-8-1",           952,       172.943,       135.954,            0.,NA,NA,"",   1.01597E+06,   1.02060E+06,   1.02060E+06
C:/temp/Job-8.odb,Step-1,Increment      1: Step Time =    1.000,"P-8-1",           953,       135.041,       173.980,            0.,NA,NA,"",   1.05679E+06,   1.04951E+06,   1.04951E+06
C:/temp/Job-8.odb,Step-1,Increment      1: Step Time =    1.000,"P-8-1",           954,       101.353,       144.097,            0.,NA,NA,"",   1.11436E+06,   1.20771E+06,   1.20771E+06
C:/temp/Job-8.odb,Step-1,Increment      1: Step Time =    1.000,"P-8-1",           955,       111.024,       138.572,            0.,NA,NA,"",   1.23619E+06,   1.29763E+06,   1.29763E+06
C:/temp/Job-8.odb,Step-1,Increment      1: Step Time =    1.000,"P-8-1",           956,       141.187,       89.4767,            0.,NA,NA,"",   813.543E+03,   774.049E+03,   774.049E+03
C:/temp/Job-8.odb,Step-1,Increment      1: Step Time =    1.000,"P-8-1",           957,       146.968,       98.3121,            0.,NA,NA,"",   678.583E+03,   695.452E+03,   695.452E+03
C:/temp/Job-8.odb,Step-1,Increment      1: Step Time =    1.000,"P-8-1",           958,       103.117,       53.1618,            0.,NA,NA,"",   1.09944E+06,   1.17959E+06,   1.17959E+06
C:/temp/Job-8.odb,Step-1,Increment      1: Step Time =    1.000,"P-8-1",           959,       54.0929,       96.2228,            0.,NA,NA,"",   579.263E+03,   627.286E+03,   627.286E+03
C:/temp/Job-8.odb,Step-1,Increment      1: Step Time =    1.000,"P-8-1",           960,       140.374,       104.858,            0.,NA,NA,"",   639.027E+03,   630.645E+03,   630.645E+03
C:/temp/Job-8.odb,Step-1,Increment      1: Step Time =    1.000,"P-8-1",           961,       96.8339,       140.300,            0.,NA,NA,"",   1.15558E+06,   1.25793E+06,   1.25793E+06
C:/temp/Job-8.odb,Step-1,Increment      1: Step Time =    1.000,"P-8-1",           962,       110.904,       62.3377,            0.,NA,NA,"",   1.24935E+06,   1.31379E+06,   1.31379E+06
C:/temp/Job-8.odb,Step-1,Increment      1: Step Time =    1.000,"P-8-1",           963,       61.8703,       90.2451,            0.,NA,NA,"",   679.779E+03,   668.781E+03,   668.781E+03
C:/temp/Job-8.odb,Step-1,Increment      1: Step Time =    1.000,"P-8-1",           964,       75.1192,       25.1316,            0.,NA,NA,"",   1.06430E+06,   1.06794E+06,   1.06794E+06
C:/temp/Job-8.odb,Step-1,Increment      1: Step Time =    1.000,"P-8-1",           965,       123.574,       173.370,            0.,NA,NA,"",   1.04356E+06,   1.04751E+06,   1.04751E+06
C:/temp/Job-8.odb,Step-1,Increment      1: Step Time =    1.000,"P-8-1",           966,       24.1411,       126.559,            0.,NA,NA,"",   818.038E+03,   891.257E+03,   891.257E+03
C:/temp/Job-8.odb,Step-1,Increment      1: Step Time =    1.000,"P-8-1",           967,       175.217,       74.0168,            0.,NA,NA,"",   977.875E+03,   996.687E+03,   996.687E+03
C:/temp/Job-8.odb,Step-1,Increment      1: Step Time =    1.000,"P-8-1",           968,       130.822,       74.8124,            0.,NA,NA,"",   1.29252E+06,   1.16841E+06,   1.16841E+06
C:/temp/Job-8.odb,Step-1,Increment      1: Step Time =    1.000,"P-8-1",           969,       67.6347,       125.900,            0.,NA,NA,"",   1.20671E+06,   1.12688E+06,   1.12688E+06
C:/temp/Job-8.odb,Step-1,Increment      1: Step Time =    1.000,"P-8-1",           970,       77.6049,       65.8544,            0.,NA,NA,"",   1.32623E+06,   1.29414E+06,   1.29414E+06
C:/temp/Job-8.odb,Step-1,Increment      1: Step Time =    1.000,"P-8-1",           971,       125.052,       130.081,            0.,NA,NA,"",   1.38040E+06,   1.29741E+06,   1.29741E+06
C:/temp/Job-8.odb,Step-1,Increment      1: Step Time =    1.000,"P-8-1",           972,       103.668,       23.7977,            0.,NA,NA,"",   1.00233E+06,   1.02070E+06,   1.02070E+06
C:/temp/Job-8.odb,Step-1,Increment      1: Step Time =    1.000,"P-8-1",           973,       26.2906,       97.5506,            0.,NA,NA,"",   709.313E+03,   790.482E+03,   790.482E+03
C:/temp/Job-8.odb,Step-1,Increment      1: Step Time =    1.000,"P-8-1",           974,       172.637,       105.408,            0.,NA,NA,"",   894.023E+03,   930.837E+03,   930.837E+03
C:/temp/Job-8.odb,Step-1,Increment      1: Step Time =    1.000,"P-8-1",           975,       97.2120,       175.701,            0.,NA,NA,"",   1.00756E+06,   1.02669E+06,   1.02669E+06
C:/temp/Job-8.odb,Step-1,Increment      1: Step Time =    1.000,"P-8-1",           976,       180.266,       79.2171,            0.,NA,NA,"",    951.94E+03,   987.034E+03,   987.034E+03
C:/temp/Job-8.odb,Step-1,Increment      1: Step Time =    1.000,"P-8-1",           977,       19.9515,       120.808,            0.,NA,NA,"",   771.921E+03,   853.829E+03,   853.829E+03
C:/temp/Job-8.odb,Step-1,Increment      1: Step Time =    1.000,"P-8-1",           978,       119.506,       179.968,            0.,NA,NA,"",   1.00580E+06,   1.01176E+06,   1.01176E+06
C:/temp/Job-8.odb,Step-1,Increment      1: Step Time =    1.000,"P-8-1",           979,       79.8736,       19.8675,            0.,NA,NA,"",   1.02790E+06,   1.03340E+06,   1.03340E+06
C:/temp/Job-8.odb,Step-1,Increment      1: Step Time =    1.000,"P-8-1",           980,       48.9564,       184.632,            0.,NA,NA,"",   1.08511E+06,   1.08403E+06,   1.08403E+06
C:/temp/Job-8.odb,Step-1,Increment      1: Step Time =    1.000,"P-8-1",           981,       186.008,       50.2381,            0.,NA,NA,"",   997.346E+03,   1.01177E+06,   1.01177E+06
C:/temp/Job-8.odb,Step-1,Increment      1: Step Time =    1.000,"P-8-1",           982,       181.349,       148.610,            0.,NA,NA,"",   1.00857E+06,   1.01850E+06,   1.01850E+06
C:/temp/Job-8.odb,Step-1,Increment      1: Step Time =    1.000,"P-8-1",           983,       149.383,       184.440,            0.,NA,NA,"",   1.01807E+06,   1.01332E+06,   1.01332E+06
C:/temp/Job-8.odb,Step-1,Increment      1: Step Time =    1.000,"P-8-1",           984,       19.1087,       51.6148,            0.,NA,NA,"",   927.944E+03,   999.635E+03,   999.635E+03
C:/temp/Job-8.odb,Step-1,Increment      1: Step Time =    1.000,"P-8-1",           985,       50.0516,       14.7786,            0.,NA,NA,"",   1.08125E+06,   1.07963E+06,   1.07963E+06
C:/temp/Job-8.odb,Step-1,Increment      1: Step Time =    1.000,"P-8-1",           986,       14.0204,       150.235,            0.,NA,NA,"",   911.402E+03,   994.532E+03,   994.532E+03
C:/temp/Job-8.odb,Step-1,Increment      1: Step Time =    1.000,"P-8-1",           987,       149.436,       12.4007,            0.,NA,NA,"",   1.00834E+06,   1.00512E+06,   1.00512E+06
C:/temp/Job-8.odb,Step-1,Increment      1: Step Time =    1.000,"P-8-1",           988,       89.5992,       19.6478,            0.,NA,NA,"",   1.00304E+06,   1.01395E+06,   1.01395E+06
C:/temp/Job-8.odb,Step-1,Increment      1: Step Time =    1.000,"P-8-1",           989,       20.4728,       110.060,            0.,NA,NA,"",   726.702E+03,   811.236E+03,   811.236E+03
C:/temp/Job-8.odb,Step-1,Increment      1: Step Time =    1.000,"P-8-1",           990,       180.723,       88.9814,            0.,NA,NA,"",   924.211E+03,   969.626E+03,   969.626E+03
C:/temp/Job-8.odb,Step-1,Increment      1: Step Time =    1.000,"P-8-1",           991,       110.127,       180.722,            0.,NA,NA,"",   990.037E+03,   1.00084E+06,   1.00084E+06
C:/temp/Job-8.odb,Step-1,Increment      1: Step Time =    1.000,"P-8-1",           992,       163.667,       9.88890,            0.,NA,NA,"",   1.00583E+06,   1.00442E+06,   1.00442E+06
C:/temp/Job-8.odb,Step-1,Increment      1: Step Time =    1.000,"P-8-1",           993,       9.00407,       164.168,            0.,NA,NA,"",   960.346E+03,   1.05237E+06,   1.05237E+06
C:/temp/Job-8.odb,Step-1,Increment      1: Step Time =    1.000,"P-8-1",           994,       35.5324,       9.13390,            0.,NA,NA,"",   1.10663E+06,   1.10833E+06,   1.10833E+06
C:/temp/Job-8.odb,Step-1,Increment      1: Step Time =    1.000,"P-8-1",           995,       10.8159,       36.6188,            0.,NA,NA,"",   965.883E+03,   1.05345E+06,   1.05345E+06
C:/temp/Job-8.odb,Step-1,Increment      1: Step Time =    1.000,"P-8-1",           996,       189.365,       164.465,            0.,NA,NA,"",   999.682E+03,   1.00605E+06,   1.00605E+06
C:/temp/Job-8.odb,Step-1,Increment      1: Step Time =    1.000,"P-8-1",           997,       164.250,       190.478,            0.,NA,NA,"",   1.00569E+06,   1.00438E+06,   1.00438E+06
C:/temp/Job-8.odb,Step-1,Increment      1: Step Time =    1.000,"P-8-1",           998,       35.7853,       189.368,            0.,NA,NA,"",   1.10922E+06,   1.11148E+06,   1.11148E+06
C:/temp/Job-8.odb,Step-1,Increment      1: Step Time =    1.000,"P-8-1",           999,       190.675,       35.8677,            0.,NA,NA,"",   998.054E+03,   1.00488E+06,   1.00488E+06
C:/temp/Job-8.odb,Step-1,Increment      1: Step Time =    1.000,"P-8-1",          1000,       102.136,       47.6488,            0.,NA,NA,"",   1.07128E+06,   1.13671E+06,   1.13671E+06
C:/temp/Job-8.odb,Step-1,Increment      1: Step Time =    1.000,"P-8-1",          1001,       50.4082,       99.7543,            0.,NA,NA,"",   600.364E+03,   656.499E+03,   656.499E+03
C:/temp/Job-8.odb,Step-1,Increment      1: Step Time =    1.000,"P-8-1",          1002,       99.6860,       149.850,            0.,NA,NA,"",   1.08290E+06,   1.15670E+06,   1.15670E+06
C:/temp/Job-8.odb,Step-1,Increment      1: Step Time =    1.000,"P-8-1",          1003,       151.345,       100.439,            0.,NA,NA,"",   736.144E+03,   756.876E+03,   756.876E+03
C:/temp/Job-8.odb,Step-1,Increment      1: Step Time =    1.000,"P-8-1",          1004,       110.508,       56.5320,            0.,NA,NA,"",   1.16996E+06,   1.22974E+06,   1.22974E+06
C:/temp/Job-8.odb,Step-1,Increment      1: Step Time =    1.000,"P-8-1",          1005,       54.9839,       89.7863,            0.,NA,NA,"",   694.142E+03,   718.446E+03,   718.446E+03
C:/temp/Job-8.odb,Step-1,Increment      1: Step Time =    1.000,"P-8-1",          1006,       133.276,       25.4976,            0.,NA,NA,"",   1.05163E+06,   1.04614E+06,   1.04614E+06
C:/temp/Job-8.odb,Step-1,Increment      1: Step Time =    1.000,"P-8-1",          1007,       69.6184,       175.399,            0.,NA,NA,"",   1.07814E+06,   1.07723E+06,   1.07723E+06
C:/temp/Job-8.odb,Step-1,Increment      1: Step Time =    1.000,"P-8-1",          1008,       23.3909,       64.9934,            0.,NA,NA,"",   868.645E+03,   938.489E+03,   938.489E+03
C:/temp/Job-8.odb,Step-1,Increment      1: Step Time =    1.000,"P-8-1",          1009,       177.472,       130.071,            0.,NA,NA,"",   985.813E+03,   1.00511E+06,   1.00511E+06
C:/temp/Job-8.odb,Step-1,Increment      1: Step Time =    1.000,"P-8-1",          1010,       82.4321,       140.222,            0.,NA,NA,"",   1.25407E+06,   1.26849E+06,   1.26849E+06
C:/temp/Job-8.odb,Step-1,Increment      1: Step Time =    1.000,"P-8-1",          1011,       121.096,       57.4553,            0.,NA,NA,"",   1.24825E+06,   1.24342E+06,   1.24342E+06
C:/temp/Job-8.odb,Step-1,Increment      1: Step Time =    1.000,"P-8-1",          1012,       58.8790,       80.9573,            0.,NA,NA,"",   942.010E+03,   912.595E+03,   912.595E+03
C:/temp/Job-8.odb,Step-1,Increment      1: Step Time =    1.000,"P-8-1",          1013,       142.725,       119.711,            0.,NA,NA,"",   1.03302E+06,   966.484E+03,   966.484E+03
C:/temp/Job-8.odb,Step-1,Increment      1: Step Time =    1.000,"P-8-1",          1014,       163.405,       14.6406,            0.,NA,NA,"",   1.01394E+06,   1.01112E+06,   1.01112E+06
C:/temp/Job-8.odb,Step-1,Increment      1: Step Time =    1.000,"P-8-1",          1015,       13.2977,       163.714,            0.,NA,NA,"",   983.625E+03,   1.06370E+06,   1.06370E+06
C:/temp/Job-8.odb,Step-1,Increment      1: Step Time =    1.000,"P-8-1",          1016,       35.6660,       13.3942,            0.,NA,NA,"",   1.11446E+06,   1.11842E+06,   1.11842E+06
C:/temp/Job-8.odb,Step-1,Increment      1: Step Time =    1.000,"P-8-1",          1017,       15.6504,       36.6896,            0.,NA,NA,"",   993.337E+03,   1.06681E+06,   1.06681E+06
C:/temp/Job-8.odb,Step-1,Increment      1: Step Time =    1.000,"P-8-1",          1018,       184.597,       165.232,            0.,NA,NA,"",   1.00680E+06,   1.01112E+06,   1.01112E+06
C:/temp/Job-8.odb,Step-1,Increment      1: Step Time =    1.000,"P-8-1",          1019,       164.052,       185.879,            0.,NA,NA,"",   1.01270E+06,   1.01020E+06,   1.01020E+06
C:/temp/Job-8.odb,Step-1,Increment      1: Step Time =    1.000,"P-8-1",          1020,       35.5558,       184.259,            0.,NA,NA,"",   1.11652E+06,   1.12182E+06,   1.12182E+06
C:/temp/Job-8.odb,Step-1,Increment      1: Step Time =    1.000,"P-8-1",          1021,       186.116,       36.3791,            0.,NA,NA,"",   1.00419E+06,   1.00974E+06,   1.00974E+06
C:/temp/Job-8.odb,Step-1,Increment      1: Step Time =    1.000,"P-8-1",          1022,       90.0979,       29.7720,            0.,NA,NA,"",   1.03779E+06,   1.06080E+06,   1.06080E+06
C:/temp/Job-8.odb,Step-1,Increment      1: Step Time =    1.000,"P-8-1",          1023,       30.9718,       110.449,            0.,NA,NA,"",   726.878E+03,   800.937E+03,   800.937E+03
C:/temp/Job-8.odb,Step-1,Increment      1: Step Time =    1.000,"P-8-1",          1024,       171.529,       89.5286,            0.,NA,NA,"",   905.005E+03,   936.063E+03,   936.063E+03
C:/temp/Job-8.odb,Step-1,Increment      1: Step Time =    1.000,"P-8-1",          1025,       108.858,       171.169,            0.,NA,NA,"",   1.02276E+06,   1.04510E+06,   1.04510E+06
C:/temp/Job-8.odb,Step-1,Increment      1: Step Time =    1.000,"P-8-1",          1026,       30.2025,       84.9298,            0.,NA,NA,"",   755.435E+03,   827.618E+03,   827.618E+03
C:/temp/Job-8.odb,Step-1,Increment      1: Step Time =    1.000,"P-8-1",          1027,       119.833,       30.5273,            0.,NA,NA,"",   1.05311E+06,   1.06289E+06,   1.06289E+06
C:/temp/Job-8.odb,Step-1,Increment      1: Step Time =    1.000,"P-8-1",          1028,       79.9520,       29.6652,            0.,NA,NA,"",   1.06961E+06,   1.07985E+06,   1.07985E+06
C:/temp/Job-8.odb,Step-1,Increment      1: Step Time =    1.000,"P-8-1",          1029,       29.0826,       122.405,            0.,NA,NA,"",   805.342E+03,   872.885E+03,   872.885E+03
C:/temp/Job-8.odb,Step-1,Increment      1: Step Time =    1.000,"P-8-1",          1030,       169.569,       116.368,            0.,NA,NA,"",   934.712E+03,   955.156E+03,   955.156E+03
C:/temp/Job-8.odb,Step-1,Increment      1: Step Time =    1.000,"P-8-1",          1031,       82.9536,       169.046,            0.,NA,NA,"",   1.06564E+06,   1.08117E+06,   1.08117E+06
C:/temp/Job-8.odb,Step-1,Increment      1: Step Time =    1.000,"P-8-1",          1032,       170.157,       78.7932,            0.,NA,NA,"",   962.907E+03,   977.078E+03,   977.078E+03
C:/temp/Job-8.odb,Step-1,Increment      1: Step Time =    1.000,"P-8-1",          1033,       118.930,       170.736,            0.,NA,NA,"",   1.04532E+06,   1.05613E+06,   1.05613E+06
C:/temp/Job-8.odb,Step-1,Increment      1: Step Time =    1.000,"P-8-1",          1034,       27.9646,       141.181,            0.,NA,NA,"",   932.740E+03,   988.200E+03,   988.200E+03
C:/temp/Job-8.odb,Step-1,Increment      1: Step Time =    1.000,"P-8-1",          1035,       141.017,       30.2083,            0.,NA,NA,"",   1.07831E+06,   1.06517E+06,   1.06517E+06
C:/temp/Job-8.odb,Step-1,Increment      1: Step Time =    1.000,"P-8-1",          1036,       29.1246,       59.0676,            0.,NA,NA,"",   934.747E+03,   987.630E+03,   987.630E+03
C:/temp/Job-8.odb,Step-1,Increment      1: Step Time =    1.000,"P-8-1",          1037,       60.6874,       29.0646,            0.,NA,NA,"",   1.11139E+06,   1.10590E+06,   1.10590E+06
C:/temp/Job-8.odb,Step-1,Increment      1: Step Time =    1.000,"P-8-1",          1038,       171.305,       58.6876,            0.,NA,NA,"",   1.03606E+06,   1.03368E+06,   1.03368E+06
C:/temp/Job-8.odb,Step-1,Increment      1: Step Time =    1.000,"P-8-1",          1039,       58.5690,       170.914,            0.,NA,NA,"",   1.11210E+06,   1.10668E+06,   1.10668E+06
C:/temp/Job-8.odb,Step-1,Increment      1: Step Time =    1.000,"P-8-1",          1040,       171.005,       140.258,            0.,NA,NA,"",   1.03485E+06,   1.03229E+06,   1.03229E+06
C:/temp/Job-8.odb,Step-1,Increment      1: Step Time =    1.000,"P-8-1",          1041,       143.214,       169.040,            0.,NA,NA,"",   1.08283E+06,   1.06734E+06,   1.06734E+06
C:/temp/Job-8.odb,Step-1,Increment      1: Step Time =    1.000,"P-8-1",          1042,       111.463,       134.548,            0.,NA,NA,"",   1.30193E+06,   1.36228E+06,   1.36228E+06
C:/temp/Job-8.odb,Step-1,Increment      1: Step Time =    1.000,"P-8-1",          1043,       134.586,       89.5781,            0.,NA,NA,"",   826.765E+03,   735.330E+03,   735.330E+03
C:/temp/Job-8.odb,Step-1,Increment      1: Step Time =    1.000,"P-8-1",          1044,       111.707,       144.761,            0.,NA,NA,"",   1.16810E+06,   1.21893E+06,   1.21893E+06
C:/temp/Job-8.odb,Step-1,Increment      1: Step Time =    1.000,"P-8-1",          1045,       147.576,       88.9156,            0.,NA,NA,"",   836.045E+03,   821.386E+03,   821.386E+03
C:/temp/Job-8.odb,Step-1,Increment      1: Step Time =    1.000,"P-8-1",          1046,       97.6409,       54.8511,            0.,NA,NA,"",   1.11274E+06,   1.19758E+06,   1.19758E+06
C:/temp/Job-8.odb,Step-1,Increment      1: Step Time =    1.000,"P-8-1",          1047,       54.2088,       102.350,            0.,NA,NA,"",   572.561E+03,   621.409E+03,   621.409E+03
C:/temp/Job-8.odb,Step-1,Increment      1: Step Time =    1.000,"P-8-1",          1048,       153.768,       8.52098,            0.,NA,NA,"",   1.00032E+06,   998.740E+03,   998.740E+03
C:/temp/Job-8.odb,Step-1,Increment      1: Step Time =    1.000,"P-8-1",          1049,       189.933,       153.316,            0.,NA,NA,"",   991.692E+03,   1.00650E+06,   1.00650E+06
C:/temp/Job-8.odb,Step-1,Increment      1: Step Time =    1.000,"P-8-1",          1050,       46.5514,       190.865,            0.,NA,NA,"",   1.07226E+06,   1.07162E+06,   1.07162E+06
C:/temp/Job-8.odb,Step-1,Increment      1: Step Time =    1.000,"P-8-1",          1051,       9.95734,       47.2825,            0.,NA,NA,"",   902.952E+03,   994.422E+03,   994.422E+03
C:/temp/Job-8.odb,Step-1,Increment      1: Step Time =    1.000,"P-8-1",          1052,       144.642,       105.844,            0.,NA,NA,"",   708.774E+03,   708.697E+03,   708.697E+03
C:/temp/Job-8.odb,Step-1,Increment      1: Step Time =    1.000,"P-8-1",          1053,       93.4776,       142.372,            0.,NA,NA,"",   1.15523E+06,   1.23947E+06,   1.23947E+06
C:/temp/Job-8.odb,Step-1,Increment      1: Step Time =    1.000,"P-8-1",          1054,       70.1542,       30.1484,            0.,NA,NA,"",   1.09980E+06,   1.09912E+06,   1.09912E+06
C:/temp/Job-8.odb,Step-1,Increment      1: Step Time =    1.000,"P-8-1",          1055,       129.598,       168.400,            0.,NA,NA,"",   1.08002E+06,   1.07520E+06,   1.07520E+06
C:/temp/Job-8.odb,Step-1,Increment      1: Step Time =    1.000,"P-8-1",          1056,       28.0728,       131.984,            0.,NA,NA,"",   870.976E+03,   932.803E+03,   932.803E+03
C:/temp/Job-8.odb,Step-1,Increment      1: Step Time =    1.000,"P-8-1",          1057,       170.479,       68.6244,            0.,NA,NA,"",   1.01204E+06,   1.01480E+06,   1.01480E+06
C:/temp/Job-8.odb,Step-1,Increment      1: Step Time =    1.000,"P-8-1",          1058,       108.259,       24.3319,            0.,NA,NA,"",   1.00672E+06,   1.02420E+06,   1.02420E+06
C:/temp/Job-8.odb,Step-1,Increment      1: Step Time =    1.000,"P-8-1",          1059,       99.2957,       28.4812,            0.,NA,NA,"",   1.01804E+06,   1.04379E+06,   1.04379E+06
C:/temp/Job-8.odb,Step-1,Increment      1: Step Time =    1.000,"P-8-1",          1060,       22.6516,       90.7095,            0.,NA,NA,"",   724.345E+03,   807.360E+03,   807.360E+03
C:/temp/Job-8.odb,Step-1,Increment      1: Step Time =    1.000,"P-8-1",          1061,       28.8963,       99.0507,            0.,NA,NA,"",   704.503E+03,   783.440E+03,   783.440E+03
C:/temp/Job-8.odb,Step-1,Increment      1: Step Time =    1.000,"P-8-1",          1062,       176.500,       106.469,            0.,NA,NA,"",   907.238E+03,   948.462E+03,   948.462E+03
C:/temp/Job-8.odb,Step-1,Increment      1: Step Time =    1.000,"P-8-1",          1063,       93.2276,       174.911,            0.,NA,NA,"",   1.01566E+06,   1.03537E+06,   1.03537E+06
C:/temp/Job-8.odb,Step-1,Increment      1: Step Time =    1.000,"P-8-1",          1064,       173.264,       101.871,            0.,NA,NA,"",   889.002E+03,   927.816E+03,   927.816E+03
C:/temp/Job-8.odb,Step-1,Increment      1: Step Time =    1.000,"P-8-1",          1065,       97.7518,       171.176,            0.,NA,NA,"",   1.02033E+06,   1.04618E+06,   1.04618E+06
C:/temp/Job-8.odb,Step-1,Increment      1: Step Time =    1.000,"P-8-1",          1066,       190.758,       45.4038,            0.,NA,NA,"",   991.853E+03,   1.00581E+06,   1.00581E+06
C:/temp/Job-8.odb,Step-1,Increment      1: Step Time =    1.000,"P-8-1",          1067,       154.474,       190.042,            0.,NA,NA,"",   1.00448E+06,   1.00237E+06,   1.00237E+06
C:/temp/Job-8.odb,Step-1,Increment      1: Step Time =    1.000,"P-8-1",          1068,       45.1159,       9.64806,            0.,NA,NA,"",   1.07761E+06,   1.07716E+06,   1.07716E+06
C:/temp/Job-8.odb,Step-1,Increment      1: Step Time =    1.000,"P-8-1",          1069,       9.07901,       154.773,            0.,NA,NA,"",   909.306E+03,   1.00243E+06,   1.00243E+06
C:/temp/Job-8.odb,Step-1,Increment      1: Step Time =    1.000,"P-8-1",          1070,       65.8206,       129.412,            0.,NA,NA,"",   1.21291E+06,   1.14893E+06,   1.14893E+06
C:/temp/Job-8.odb,Step-1,Increment      1: Step Time =    1.000,"P-8-1",          1071,       132.500,       68.4027,            0.,NA,NA,"",   1.29859E+06,   1.20368E+06,   1.20368E+06
C:/temp/Job-8.odb,Step-1,Increment      1: Step Time =    1.000,"P-8-1",          1072,       129.063,       131.769,            0.,NA,NA,"",   1.33984E+06,   1.25004E+06,   1.25004E+06
C:/temp/Job-8.odb,Step-1,Increment      1: Step Time =    1.000,"P-8-1",          1073,       66.2577,       67.4622,            0.,NA,NA,"",   1.21538E+06,   1.15985E+06,   1.15985E+06
C:/temp/Job-8.odb,Step-1,Increment      1: Step Time =    1.000,"P-8-1",          1074,       130.273,       127.617,            0.,NA,NA,"",   1.33522E+06,   1.21887E+06,   1.21887E+06
C:/temp/Job-8.odb,Step-1,Increment      1: Step Time =    1.000,"P-8-1",          1075,       68.8511,       130.960,            0.,NA,NA,"",   1.26661E+06,   1.20057E+06,   1.20057E+06
C:/temp/Job-8.odb,Step-1,Increment      1: Step Time =    1.000,"P-8-1",          1076,       126.263,       66.0488,            0.,NA,NA,"",   1.34595E+06,   1.27726E+06,   1.27726E+06
C:/temp/Job-8.odb,Step-1,Increment      1: Step Time =    1.000,"P-8-1",          1077,       60.8275,       70.0173,            0.,NA,NA,"",   1.12374E+06,   1.08104E+06,   1.08104E+06
C:/temp/Job-8.odb,Step-1,Increment      1: Step Time =    1.000,"P-8-1",          1078,       148.802,       107.947,            0.,NA,NA,"",   779.766E+03,   782.514E+03,   782.514E+03
C:/temp/Job-8.odb,Step-1,Increment      1: Step Time =    1.000,"P-8-1",          1079,       92.3458,       148.282,            0.,NA,NA,"",   1.11639E+06,   1.18212E+06,   1.18212E+06
C:/temp/Job-8.odb,Step-1,Increment      1: Step Time =    1.000,"P-8-1",          1080,       133.018,       133.451,            0.,NA,NA,"",   1.29720E+06,   1.20991E+06,   1.20991E+06
C:/temp/Job-8.odb,Step-1,Increment      1: Step Time =    1.000,"P-8-1",          1081,       61.0846,       65.9171,            0.,NA,NA,"",   1.15766E+06,   1.11750E+06,   1.11750E+06
C:/temp/Job-8.odb,Step-1,Increment      1: Step Time =    1.000,"P-8-1",          1082,       67.2170,       134.456,            0.,NA,NA,"",   1.23517E+06,   1.18414E+06,   1.18414E+06
C:/temp/Job-8.odb,Step-1,Increment      1: Step Time =    1.000,"P-8-1",          1083,       131.176,       64.5713,            0.,NA,NA,"",   1.30632E+06,   1.22750E+06,   1.22750E+06
C:/temp/Job-8.odb,Step-1,Increment      1: Step Time =    1.000,"P-8-1",          1084,       45.4711,       96.2074,            0.,NA,NA,"",   651.886E+03,   712.539E+03,   712.539E+03
C:/temp/Job-8.odb,Step-1,Increment      1: Step Time =    1.000,"P-8-1",          1085,       106.651,       46.2246,            0.,NA,NA,"",   1.07543E+06,   1.13242E+06,   1.13242E+06
C:/temp/Job-8.odb,Step-1,Increment      1: Step Time =    1.000,"P-8-1",          1086,       106.733,       155.207,            0.,NA,NA,"",   1.07476E+06,   1.12605E+06,   1.12605E+06
C:/temp/Job-8.odb,Step-1,Increment      1: Step Time =    1.000,"P-8-1",          1087,       152.976,       97.0708,            0.,NA,NA,"",   757.454E+03,   778.199E+03,   778.199E+03
C:/temp/Job-8.odb,Step-1,Increment      1: Step Time =    1.000,"P-8-1",          1088,       24.2593,       75.7680,            0.,NA,NA,"",   800.990E+03,   875.930E+03,   875.930E+03
C:/temp/Job-8.odb,Step-1,Increment      1: Step Time =    1.000,"P-8-1",          1089,       176.037,       125.528,            0.,NA,NA,"",   972.345E+03,   994.203E+03,   994.203E+03
C:/temp/Job-8.odb,Step-1,Increment      1: Step Time =    1.000,"P-8-1",          1090,       128.054,       27.8987,            0.,NA,NA,"",   1.05752E+06,   1.05627E+06,   1.05627E+06
C:/temp/Job-8.odb,Step-1,Increment      1: Step Time =    1.000,"P-8-1",          1091,       74.8608,       174.499,            0.,NA,NA,"",   1.06764E+06,   1.07124E+06,   1.07124E+06
C:/temp/Job-8.odb,Step-1,Increment      1: Step Time =    1.000,"P-8-1",          1092,       88.0177,       140.809,            0.,NA,NA,"",   1.21772E+06,   1.27241E+06,   1.27241E+06
C:/temp/Job-8.odb,Step-1,Increment      1: Step Time =    1.000,"P-8-1",          1093,       116.159,       57.2449,            0.,NA,NA,"",   1.21937E+06,   1.24576E+06,   1.24576E+06
C:/temp/Job-8.odb,Step-1,Increment      1: Step Time =    1.000,"P-8-1",          1094,       58.6546,       86.9407,            0.,NA,NA,"",   779.532E+03,   771.944E+03,   771.944E+03
C:/temp/Job-8.odb,Step-1,Increment      1: Step Time =    1.000,"P-8-1",          1095,       142.516,       113.856,            0.,NA,NA,"",   908.121E+03,   858.578E+03,   858.578E+03
C:/temp/Job-8.odb,Step-1,Increment      1: Step Time =    1.000,"P-8-1",          1096,       13.6874,       168.061,            0.,NA,NA,"",   1.01343E+06,   1.08984E+06,   1.08984E+06
C:/temp/Job-8.odb,Step-1,Increment      1: Step Time =    1.000,"P-8-1",          1097,       168.031,       18.9804,            0.,NA,NA,"",   1.01860E+06,   1.01549E+06,   1.01549E+06
C:/temp/Job-8.odb,Step-1,Increment      1: Step Time =    1.000,"P-8-1",          1098,       15.5655,       32.2905,            0.,NA,NA,"",   1.02090E+06,   1.09173E+06,   1.09173E+06
C:/temp/Job-8.odb,Step-1,Increment      1: Step Time =    1.000,"P-8-1",          1099,       31.0403,       13.4693,            0.,NA,NA,"",   1.13023E+06,   1.13684E+06,   1.13684E+06
C:/temp/Job-8.odb,Step-1,Increment      1: Step Time =    1.000,"P-8-1",          1100,       180.972,       170.151,            0.,NA,NA,"",   1.01211E+06,   1.01339E+06,   1.01339E+06
C:/temp/Job-8.odb,Step-1,Increment      1: Step Time =    1.000,"P-8-1",          1101,       168.599,       186.077,            0.,NA,NA,"",   1.01057E+06,   1.00888E+06,   1.00888E+06
C:/temp/Job-8.odb,Step-1,Increment      1: Step Time =    1.000,"P-8-1",          1102,       185.842,       31.8725,            0.,NA,NA,"",   1.00495E+06,   1.00867E+06,   1.00867E+06
C:/temp/Job-8.odb,Step-1,Increment      1: Step Time =    1.000,"P-8-1",          1103,       30.7889,       184.563,            0.,NA,NA,"",   1.13000E+06,   1.13892E+06,   1.13892E+06
C:/temp/Job-8.odb,Step-1,Increment      1: Step Time =    1.000,"P-8-1",          1104,       145.926,       25.7133,            0.,NA,NA,"",   1.05634E+06,   1.04555E+06,   1.04555E+06
C:/temp/Job-8.odb,Step-1,Increment      1: Step Time =    1.000,"P-8-1",          1105,       28.1897,       145.648,            0.,NA,NA,"",   961.194E+03,   1.01288E+06,   1.01288E+06
C:/temp/Job-8.odb,Step-1,Increment      1: Step Time =    1.000,"P-8-1",          1106,       55.5306,       30.1838,            0.,NA,NA,"",   1.11665E+06,   1.11120E+06,   1.11120E+06
C:/temp/Job-8.odb,Step-1,Increment      1: Step Time =    1.000,"P-8-1",          1107,       28.4063,       54.6497,            0.,NA,NA,"",   960.354E+03,   1.01157E+06,   1.01157E+06
C:/temp/Job-8.odb,Step-1,Increment      1: Step Time =    1.000,"P-8-1",          1108,       171.775,       53.9434,            0.,NA,NA,"",   1.03986E+06,   1.03649E+06,   1.03649E+06
C:/temp/Job-8.odb,Step-1,Increment      1: Step Time =    1.000,"P-8-1",          1109,       52.7027,       175.341,            0.,NA,NA,"",   1.10416E+06,   1.10084E+06,   1.10084E+06
C:/temp/Job-8.odb,Step-1,Increment      1: Step Time =    1.000,"P-8-1",          1110,       145.803,       173.044,            0.,NA,NA,"",   1.06266E+06,   1.05042E+06,   1.05042E+06
C:/temp/Job-8.odb,Step-1,Increment      1: Step Time =    1.000,"P-8-1",          1111,       171.974,       144.154,            0.,NA,NA,"",   1.03742E+06,   1.03474E+06,   1.03474E+06
C:/temp/Job-8.odb,Step-1,Increment      1: Step Time =    1.000,"P-8-1",          1112,       116.250,       142.128,            0.,NA,NA,"",   1.22984E+06,   1.25177E+06,   1.25177E+06
C:/temp/Job-8.odb,Step-1,Increment      1: Step Time =    1.000,"P-8-1",          1113,       140.785,       83.4209,            0.,NA,NA,"",   986.794E+03,   915.654E+03,   915.654E+03
C:/temp/Job-8.odb,Step-1,Increment      1: Step Time =    1.000,"P-8-1",          1114,       186.141,       45.5125,            0.,NA,NA,"",   1.00060E+06,   1.01147E+06,   1.01147E+06
C:/temp/Job-8.odb,Step-1,Increment      1: Step Time =    1.000,"P-8-1",          1115,       154.450,       184.878,            0.,NA,NA,"",   1.01737E+06,   1.01313E+06,   1.01313E+06
C:/temp/Job-8.odb,Step-1,Increment      1: Step Time =    1.000,"P-8-1",          1116,       44.9482,       14.6608,            0.,NA,NA,"",   1.09269E+06,   1.09247E+06,   1.09247E+06
C:/temp/Job-8.odb,Step-1,Increment      1: Step Time =    1.000,"P-8-1",          1117,       13.6835,       154.857,            0.,NA,NA,"",   934.285E+03,   1.01697E+06,   1.01697E+06
C:/temp/Job-8.odb,Step-1,Increment      1: Step Time =    1.000,"P-8-1",          1118,       108.653,       30.3270,            0.,NA,NA,"",   1.02650E+06,   1.05149E+06,   1.05149E+06
C:/temp/Job-8.odb,Step-1,Increment      1: Step Time =    1.000,"P-8-1",          1119,       28.1114,       90.0520,            0.,NA,NA,"",   726.882E+03,   804.703E+03,   804.703E+03
C:/temp/Job-8.odb,Step-1,Increment      1: Step Time =    1.000,"P-8-1",          1120,       92.1413,       168.353,            0.,NA,NA,"",   1.03743E+06,   1.06493E+06,   1.06493E+06
C:/temp/Job-8.odb,Step-1,Increment      1: Step Time =    1.000,"P-8-1",          1121,       171.606,       108.784,            0.,NA,NA,"",   902.396E+03,   935.477E+03,   935.477E+03
C:/temp/Job-8.odb,Step-1,Increment      1: Step Time =    1.000,"P-8-1",          1122,       165.948,       101.076,            0.,NA,NA,"",   858.681E+03,   889.811E+03,   889.811E+03
C:/temp/Job-8.odb,Step-1,Increment      1: Step Time =    1.000,"P-8-1",          1123,       101.416,       166.125,            0.,NA,NA,"",   1.03286E+06,   1.06764E+06,   1.06764E+06
C:/temp/Job-8.odb,Step-1,Increment      1: Step Time =    1.000,"P-8-1",          1124,       99.8969,       33.0187,            0.,NA,NA,"",   1.03033E+06,   1.06381E+06,   1.06381E+06
C:/temp/Job-8.odb,Step-1,Increment      1: Step Time =    1.000,"P-8-1",          1125,       33.0886,       100.037,            0.,NA,NA,"",   695.444E+03,   770.773E+03,   770.773E+03
C:/temp/Job-8.odb,Step-1,Increment      1: Step Time =    1.000,"P-8-1",          1126,       173.764,       152.130,            0.,NA,NA,"",   1.03530E+06,   1.03336E+06,   1.03336E+06
C:/temp/Job-8.odb,Step-1,Increment      1: Step Time =    1.000,"P-8-1",          1127,       24.2830,       151.241,            0.,NA,NA,"",   971.801E+03,   1.02941E+06,   1.02941E+06
C:/temp/Job-8.odb,Step-1,Increment      1: Step Time =    1.000,"P-8-1",          1128,       152.700,       25.1518,            0.,NA,NA,"",   1.04870E+06,   1.03859E+06,   1.03859E+06
C:/temp/Job-8.odb,Step-1,Increment      1: Step Time =    1.000,"P-8-1",          1129,       48.5432,       174.584,            0.,NA,NA,"",   1.10994E+06,   1.10823E+06,   1.10823E+06
C:/temp/Job-8.odb,Step-1,Increment      1: Step Time =    1.000,"P-8-1",          1130,       143.925,       80.2670,            0.,NA,NA,"",   1.03056E+06,   967.490E+03,   967.490E+03
C:/temp/Job-8.odb,Step-1,Increment      1: Step Time =    1.000,"P-8-1",          1131,       118.980,       140.596,            0.,NA,NA,"",   1.26437E+06,   1.26729E+06,   1.26729E+06
C:/temp/Job-8.odb,Step-1,Increment      1: Step Time =    1.000,"P-8-1",          1132,       154.246,       105.878,            0.,NA,NA,"",   795.525E+03,   811.676E+03,   811.676E+03
C:/temp/Job-8.odb,Step-1,Increment      1: Step Time =    1.000,"P-8-1",          1133,       94.3463,       152.353,            0.,NA,NA,"",   1.08415E+06,   1.14554E+06,   1.14554E+06
C:/temp/Job-8.odb,Step-1,Increment      1: Step Time =    1.000,"P-8-1",          1134,       19.3008,       79.2129,            0.,NA,NA,"",   770.973E+03,   853.517E+03,   853.517E+03
C:/temp/Job-8.odb,Step-1,Increment      1: Step Time =    1.000,"P-8-1",          1135,       180.776,       121.178,            0.,NA,NA,"",   952.789E+03,   988.135E+03,   988.135E+03
C:/temp/Job-8.odb,Step-1,Increment      1: Step Time =    1.000,"P-8-1",          1136,       77.8885,       179.483,            0.,NA,NA,"",   1.03680E+06,   1.04140E+06,   1.04140E+06
C:/temp/Job-8.odb,Step-1,Increment      1: Step Time =    1.000,"P-8-1",          1137,       43.2175,       102.061,            0.,NA,NA,"",   661.299E+03,   725.547E+03,   725.547E+03
C:/temp/Job-8.odb,Step-1,Increment      1: Step Time =    1.000,"P-8-1",          1138,       101.483,       42.4854,            0.,NA,NA,"",   1.05414E+06,   1.10670E+06,   1.10670E+06
C:/temp/Job-8.odb,Step-1,Increment      1: Step Time =    1.000,"P-8-1",          1139,       109.698,       150.549,            0.,NA,NA,"",   1.10848E+06,   1.16106E+06,   1.16106E+06
C:/temp/Job-8.odb,Step-1,Increment      1: Step Time =    1.000,"P-8-1",          1140,       151.212,       91.4864,            0.,NA,NA,"",   803.548E+03,   808.494E+03,   808.494E+03
C:/temp/Job-8.odb,Step-1,Increment      1: Step Time =    1.000,"P-8-1",          1141,       100.813,       155.812,            0.,NA,NA,"",   1.05866E+06,   1.11530E+06,   1.11530E+06
C:/temp/Job-8.odb,Step-1,Increment      1: Step Time =    1.000,"P-8-1",          1142,       155.459,       102.355,            0.,NA,NA,"",   785.387E+03,   807.396E+03,   807.396E+03
C:/temp/Job-8.odb,Step-1,Increment      1: Step Time =    1.000,"P-8-1",          1143,       27.9214,       66.7071,            0.,NA,NA,"",   882.094E+03,   942.841E+03,   942.841E+03
C:/temp/Job-8.odb,Step-1,Increment      1: Step Time =    1.000,"P-8-1",          1144,       173.568,       133.078,            0.,NA,NA,"",   1.00641E+06,   1.01459E+06,   1.01459E+06
C:/temp/Job-8.odb,Step-1,Increment      1: Step Time =    1.000,"P-8-1",          1145,       133.916,       32.1569,            0.,NA,NA,"",   1.08662E+06,   1.07683E+06,   1.07683E+06
C:/temp/Job-8.odb,Step-1,Increment      1: Step Time =    1.000,"P-8-1",          1146,       68.3984,       169.905,            0.,NA,NA,"",   1.10369E+06,   1.10130E+06,   1.10130E+06
C:/temp/Job-8.odb,Step-1,Increment      1: Step Time =    1.000,"P-8-1",          1147,       17.2279,       163.385,            0.,NA,NA,"",   1.00428E+06,   1.07278E+06,   1.07278E+06
C:/temp/Job-8.odb,Step-1,Increment      1: Step Time =    1.000,"P-8-1",          1148,       163.231,       19.3366,            0.,NA,NA,"",   1.02357E+06,   1.01900E+06,   1.01900E+06
C:/temp/Job-8.odb,Step-1,Increment      1: Step Time =    1.000,"P-8-1",          1149,       14.5471,       172.323,            0.,NA,NA,"",   1.04958E+06,   1.11904E+06,   1.11904E+06
C:/temp/Job-8.odb,Step-1,Increment      1: Step Time =    1.000,"P-8-1",          1150,       35.3807,       16.7507,            0.,NA,NA,"",   1.12038E+06,   1.12587E+06,   1.12587E+06
C:/temp/Job-8.odb,Step-1,Increment      1: Step Time =    1.000,"P-8-1",          1151,       26.2331,       13.9749,            0.,NA,NA,"",   1.14642E+06,   1.15889E+06,   1.15889E+06
C:/temp/Job-8.odb,Step-1,Increment      1: Step Time =    1.000,"P-8-1",          1152,       19.9592,       33.0205,            0.,NA,NA,"",   1.04163E+06,   1.09840E+06,   1.09840E+06
C:/temp/Job-8.odb,Step-1,Increment      1: Step Time =    1.000,"P-8-1",          1153,       16.2796,       27.9473,            0.,NA,NA,"",   1.05665E+06,   1.12031E+06,   1.12031E+06
C:/temp/Job-8.odb,Step-1,Increment      1: Step Time =    1.000,"P-8-1",          1154,       180.041,       166.162,            0.,NA,NA,"",   1.01550E+06,   1.01685E+06,   1.01685E+06
C:/temp/Job-8.odb,Step-1,Increment      1: Step Time =    1.000,"P-8-1",          1155,       164.188,       181.329,            0.,NA,NA,"",   1.02091E+06,   1.01700E+06,   1.01700E+06
C:/temp/Job-8.odb,Step-1,Increment      1: Step Time =    1.000,"P-8-1",          1156,       173.358,       185.690,            0.,NA,NA,"",   1.00848E+06,   1.00757E+06,   1.00757E+06
C:/temp/Job-8.odb,Step-1,Increment      1: Step Time =    1.000,"P-8-1",          1157,       181.561,       36.8483,            0.,NA,NA,"",   1.01316E+06,   1.01618E+06,   1.01618E+06
C:/temp/Job-8.odb,Step-1,Increment      1: Step Time =    1.000,"P-8-1",          1158,       35.3424,       179.259,            0.,NA,NA,"",   1.11757E+06,   1.12664E+06,   1.12664E+06
C:/temp/Job-8.odb,Step-1,Increment      1: Step Time =    1.000,"P-8-1",          1159,       25.8463,       184.463,            0.,NA,NA,"",   1.14337E+06,   1.15965E+06,   1.15965E+06
C:/temp/Job-8.odb,Step-1,Increment      1: Step Time =    1.000,"P-8-1",          1160,       185.096,       27.1504,            0.,NA,NA,"",   1.00556E+06,   1.00777E+06,   1.00777E+06
C:/temp/Job-8.odb,Step-1,Increment      1: Step Time =    1.000,"P-8-1",          1161,       181.540,       45.5102,            0.,NA,NA,"",   1.01220E+06,   1.01867E+06,   1.01867E+06
C:/temp/Job-8.odb,Step-1,Increment      1: Step Time =    1.000,"P-8-1",          1162,       154.932,       179.779,            0.,NA,NA,"",   1.03113E+06,   1.02445E+06,   1.02445E+06
C:/temp/Job-8.odb,Step-1,Increment      1: Step Time =    1.000,"P-8-1",          1163,       44.7013,       19.7867,            0.,NA,NA,"",   1.10463E+06,   1.10486E+06,   1.10486E+06
C:/temp/Job-8.odb,Step-1,Increment      1: Step Time =    1.000,"P-8-1",          1164,       18.3504,       155.275,            0.,NA,NA,"",   962.128E+03,   1.03302E+06,   1.03302E+06
C:/temp/Job-8.odb,Step-1,Increment      1: Step Time =    1.000,"P-8-1",          1165,       166.958,       94.3942,            0.,NA,NA,"",   871.562E+03,   901.544E+03,   901.544E+03
C:/temp/Job-8.odb,Step-1,Increment      1: Step Time =    1.000,"P-8-1",          1166,       109.711,       166.930,            0.,NA,NA,"",   1.03843E+06,   1.06602E+06,   1.06602E+06
C:/temp/Job-8.odb,Step-1,Increment      1: Step Time =    1.000,"P-8-1",          1167,       91.1111,       34.6778,            0.,NA,NA,"",   1.05114E+06,   1.08224E+06,   1.08224E+06
C:/temp/Job-8.odb,Step-1,Increment      1: Step Time =    1.000,"P-8-1",          1168,       35.7096,       110.505,            0.,NA,NA,"",   725.229E+03,   793.177E+03,   793.177E+03
C:/temp/Job-8.odb,Step-1,Increment      1: Step Time =    1.000,"P-8-1",          1169,       163.382,       104.423,            0.,NA,NA,"",   850.019E+03,   876.758E+03,   876.758E+03
C:/temp/Job-8.odb,Step-1,Increment      1: Step Time =    1.000,"P-8-1",          1170,       96.2444,       162.008,            0.,NA,NA,"",   1.04616E+06,   1.08887E+06,   1.08887E+06
C:/temp/Job-8.odb,Step-1,Increment      1: Step Time =    1.000,"P-8-1",          1171,       33.8977,       95.0385,            0.,NA,NA,"",   701.375E+03,   775.101E+03,   775.101E+03
C:/temp/Job-8.odb,Step-1,Increment      1: Step Time =    1.000,"P-8-1",          1172,       105.313,       36.4363,            0.,NA,NA,"",   1.04028E+06,   1.07820E+06,   1.07820E+06
C:/temp/Job-8.odb,Step-1,Increment      1: Step Time =    1.000,"P-8-1",          1173,       165.567,       78.4160,            0.,NA,NA,"",   970.241E+03,   974.771E+03,   974.771E+03
C:/temp/Job-8.odb,Step-1,Increment      1: Step Time =    1.000,"P-8-1",          1174,       120.198,       166.193,            0.,NA,NA,"",   1.06958E+06,   1.08034E+06,   1.08034E+06
C:/temp/Job-8.odb,Step-1,Increment      1: Step Time =    1.000,"P-8-1",          1175,       79.0938,       33.1266,            0.,NA,NA,"",   1.08691E+06,   1.09817E+06,   1.09817E+06
C:/temp/Job-8.odb,Step-1,Increment      1: Step Time =    1.000,"P-8-1",          1176,       34.9449,       121.302,            0.,NA,NA,"",   814.645E+03,   872.366E+03,   872.366E+03
C:/temp/Job-8.odb,Step-1,Increment      1: Step Time =    1.000,"P-8-1",          1177,       36.6865,       105.767,            0.,NA,NA,"",   697.049E+03,   767.179E+03,   767.179E+03
C:/temp/Job-8.odb,Step-1,Increment      1: Step Time =    1.000,"P-8-1",          1178,       95.5195,       33.7951,            0.,NA,NA,"",   1.03777E+06,   1.07115E+06,   1.07115E+06
C:/temp/Job-8.odb,Step-1,Increment      1: Step Time =    1.000,"P-8-1",          1179,       162.718,       97.4280,            0.,NA,NA,"",   837.714E+03,   865.550E+03,   865.550E+03
C:/temp/Job-8.odb,Step-1,Increment      1: Step Time =    1.000,"P-8-1",          1180,       105.654,       165.844,            0.,NA,NA,"",   1.03550E+06,   1.06808E+06,   1.06808E+06
C:/temp/Job-8.odb,Step-1,Increment      1: Step Time =    1.000,"P-8-1",          1181,       55.3587,       83.4201,            0.,NA,NA,"",   846.969E+03,   845.146E+03,   845.146E+03
C:/temp/Job-8.odb,Step-1,Increment      1: Step Time =    1.000,"P-8-1",          1182,       121.619,       53.2421,            0.,NA,NA,"",   1.20710E+06,   1.20806E+06,   1.20806E+06
C:/temp/Job-8.odb,Step-1,Increment      1: Step Time =    1.000,"P-8-1",          1183,       111.670,       49.3564,            0.,NA,NA,"",   1.12183E+06,   1.16656E+06,   1.16656E+06
C:/temp/Job-8.odb,Step-1,Increment      1: Step Time =    1.000,"P-8-1",          1184,       48.4558,       88.9523,            0.,NA,NA,"",   718.663E+03,   762.241E+03,   762.241E+03
C:/temp/Job-8.odb,Step-1,Increment      1: Step Time =    1.000,"P-8-1",          1185,       165.751,       67.9896,            0.,NA,NA,"",   1.03234E+06,   1.02365E+06,   1.02365E+06
C:/temp/Job-8.odb,Step-1,Increment      1: Step Time =    1.000,"P-8-1",          1186,       32.0444,       132.665,            0.,NA,NA,"",   896.500E+03,   948.655E+03,   948.655E+03
C:/temp/Job-8.odb,Step-1,Increment      1: Step Time =    1.000,"P-8-1",          1187,       129.796,       163.490,            0.,NA,NA,"",   1.10817E+06,   1.09992E+06,   1.09992E+06
C:/temp/Job-8.odb,Step-1,Increment      1: Step Time =    1.000,"P-8-1",          1188,       69.5591,       35.0898,            0.,NA,NA,"",   1.12280E+06,   1.12029E+06,   1.12029E+06
C:/temp/Job-8.odb,Step-1,Increment      1: Step Time =    1.000,"P-8-1",          1189,       125.712,       52.7136,            0.,NA,NA,"",   1.21706E+06,   1.20009E+06,   1.20009E+06
C:/temp/Job-8.odb,Step-1,Increment      1: Step Time =    1.000,"P-8-1",          1190,       56.2345,       77.3751,            0.,NA,NA,"",   981.841E+03,   960.288E+03,   960.288E+03
C:/temp/Job-8.odb,Step-1,Increment      1: Step Time =    1.000,"P-8-1",          1191,       119.842,       48.7757,            0.,NA,NA,"",   1.15664E+06,   1.16799E+06,   1.16799E+06
C:/temp/Job-8.odb,Step-1,Increment      1: Step Time =    1.000,"P-8-1",          1192,       51.6673,       79.1482,            0.,NA,NA,"",   901.587E+03,   907.386E+03,   907.386E+03
C:/temp/Job-8.odb,Step-1,Increment      1: Step Time =    1.000,"P-8-1",          1193,       24.0253,       33.4133,            0.,NA,NA,"",   1.05600E+06,   1.10168E+06,   1.10168E+06
C:/temp/Job-8.odb,Step-1,Increment      1: Step Time =    1.000,"P-8-1",          1194,       21.7832,       165.842,            0.,NA,NA,"",   1.04014E+06,   1.09404E+06,   1.09404E+06
C:/temp/Job-8.odb,Step-1,Increment      1: Step Time =    1.000,"P-8-1",          1195,       163.249,       23.9741,            0.,NA,NA,"",   1.03340E+06,   1.02698E+06,   1.02698E+06
C:/temp/Job-8.odb,Step-1,Increment      1: Step Time =    1.000,"P-8-1",          1196,       176.945,       37.1378,            0.,NA,NA,"",   1.02409E+06,   1.02359E+06,   1.02359E+06
C:/temp/Job-8.odb,Step-1,Increment      1: Step Time =    1.000,"P-8-1",          1197,       34.8934,       174.518,            0.,NA,NA,"",   1.10951E+06,   1.12376E+06,   1.12376E+06
C:/temp/Job-8.odb,Step-1,Increment      1: Step Time =    1.000,"P-8-1",          1198,       175.717,       167.061,            0.,NA,NA,"",   1.02431E+06,   1.02261E+06,   1.02261E+06
C:/temp/Job-8.odb,Step-1,Increment      1: Step Time =    1.000,"P-8-1",          1199,       165.024,       176.288,            0.,NA,NA,"",   1.02972E+06,   1.02430E+06,   1.02430E+06
C:/temp/Job-8.odb,Step-1,Increment      1: Step Time =    1.000,"P-8-1",          1200,       21.6376,       44.6445,            0.,NA,NA,"",   979.095E+03,   1.04199E+06,   1.04199E+06
C:/temp/Job-8.odb,Step-1,Increment      1: Step Time =    1.000,"P-8-1",          1201,       50.3206,       29.3024,            0.,NA,NA,"",   1.11548E+06,   1.11245E+06,   1.11245E+06
C:/temp/Job-8.odb,Step-1,Increment      1: Step Time =    1.000,"P-8-1",          1202,       179.408,       151.370,            0.,NA,NA,"",   1.01655E+06,   1.02231E+06,   1.02231E+06
C:/temp/Job-8.odb,Step-1,Increment      1: Step Time =    1.000,"P-8-1",          1203,       148.986,       170.127,            0.,NA,NA,"",   1.07001E+06,   1.05560E+06,   1.05560E+06
C:/temp/Job-8.odb,Step-1,Increment      1: Step Time =    1.000,"P-8-1",          1204,       153.101,       20.1508,            0.,NA,NA,"",   1.03209E+06,   1.02521E+06,   1.02521E+06
C:/temp/Job-8.odb,Step-1,Increment      1: Step Time =    1.000,"P-8-1",          1205,       28.4559,       149.858,            0.,NA,NA,"",   985.250E+03,   1.03362E+06,   1.03362E+06
C:/temp/Job-8.odb,Step-1,Increment      1: Step Time =    1.000,"P-8-1",          1206,       43.7897,       178.333,            0.,NA,NA,"",   1.10804E+06,   1.10915E+06,   1.10915E+06
C:/temp/Job-8.odb,Step-1,Increment      1: Step Time =    1.000,"P-8-1",          1207,       172.402,       49.3250,            0.,NA,NA,"",   1.03955E+06,   1.03614E+06,   1.03614E+06
C:/temp/Job-8.odb,Step-1,Increment      1: Step Time =    1.000,"P-8-1",          1208,       123.812,       134.310,            0.,NA,NA,"",   1.35020E+06,   1.29676E+06,   1.29676E+06
C:/temp/Job-8.odb,Step-1,Increment      1: Step Time =    1.000,"P-8-1",          1209,       134.176,       77.7298,            0.,NA,NA,"",   1.19914E+06,   1.07767E+06,   1.07767E+06
C:/temp/Job-8.odb,Step-1,Increment      1: Step Time =    1.000,"P-8-1",          1210,       47.8903,       104.293,            0.,NA,NA,"",   646.672E+03,   702.888E+03,   702.888E+03
C:/temp/Job-8.odb,Step-1,Increment      1: Step Time =    1.000,"P-8-1",          1211,       97.1672,       43.3486,            0.,NA,NA,"",   1.06048E+06,   1.11380E+06,   1.11380E+06
C:/temp/Job-8.odb,Step-1,Increment      1: Step Time =    1.000,"P-8-1",          1212,       158.454,       15.1354,            0.,NA,NA,"",   1.01630E+06,   1.01262E+06,   1.01262E+06
C:/temp/Job-8.odb,Step-1,Increment      1: Step Time =    1.000,"P-8-1",          1213,       13.3471,       159.340,            0.,NA,NA,"",   957.561E+03,   1.03946E+06,   1.03946E+06
C:/temp/Job-8.odb,Step-1,Increment      1: Step Time =    1.000,"P-8-1",          1214,       19.8670,       174.608,            0.,NA,NA,"",   1.08862E+06,   1.13680E+06,   1.13680E+06
C:/temp/Job-8.odb,Step-1,Increment      1: Step Time =    1.000,"P-8-1",          1215,       172.754,       18.9864,            0.,NA,NA,"",   1.01417E+06,   1.01242E+06,   1.01242E+06
C:/temp/Job-8.odb,Step-1,Increment      1: Step Time =    1.000,"P-8-1",          1216,       174.056,       9.90117,            0.,NA,NA,"",   1.00433E+06,   1.00386E+06,   1.00386E+06
C:/temp/Job-8.odb,Step-1,Increment      1: Step Time =    1.000,"P-8-1",          1217,       40.0800,       14.1933,            0.,NA,NA,"",   1.10299E+06,   1.10466E+06,   1.10466E+06
C:/temp/Job-8.odb,Step-1,Increment      1: Step Time =    1.000,"P-8-1",          1218,       27.1808,       18.3492,            0.,NA,NA,"",   1.13309E+06,   1.15087E+06,   1.15087E+06
C:/temp/Job-8.odb,Step-1,Increment      1: Step Time =    1.000,"P-8-1",          1219,       16.4770,       40.8023,            0.,NA,NA,"",   972.648E+03,   1.04639E+06,   1.04639E+06
C:/temp/Job-8.odb,Step-1,Increment      1: Step Time =    1.000,"P-8-1",          1220,       21.8172,       26.2173,            0.,NA,NA,"",   1.08844E+06,   1.13189E+06,   1.13189E+06
C:/temp/Job-8.odb,Step-1,Increment      1: Step Time =    1.000,"P-8-1",          1221,       11.3589,       26.4117,            0.,NA,NA,"",   1.03846E+06,   1.11812E+06,   1.11812E+06
C:/temp/Job-8.odb,Step-1,Increment      1: Step Time =    1.000,"P-8-1",          1222,       181.292,       174.315,            0.,NA,NA,"",   1.00971E+06,   1.01060E+06,   1.01060E+06
C:/temp/Job-8.odb,Step-1,Increment      1: Step Time =    1.000,"P-8-1",          1223,       175.372,       180.444,            0.,NA,NA,"",   1.01167E+06,   1.01078E+06,   1.01078E+06
C:/temp/Job-8.odb,Step-1,Increment      1: Step Time =    1.000,"P-8-1",          1224,       190.163,       174.703,            0.,NA,NA,"",   1.00118E+06,   1.00360E+06,   1.00360E+06
C:/temp/Job-8.odb,Step-1,Increment      1: Step Time =    1.000,"P-8-1",          1225,       159.403,       185.459,            0.,NA,NA,"",   1.01507E+06,   1.01170E+06,   1.01170E+06
C:/temp/Job-8.odb,Step-1,Increment      1: Step Time =    1.000,"P-8-1",          1226,       183.104,       160.865,            0.,NA,NA,"",   1.00956E+06,   1.01455E+06,   1.01455E+06
C:/temp/Job-8.odb,Step-1,Increment      1: Step Time =    1.000,"P-8-1",          1227,       186.193,       40.9096,            0.,NA,NA,"",   1.00287E+06,   1.01078E+06,   1.01078E+06
C:/temp/Job-8.odb,Step-1,Increment      1: Step Time =    1.000,"P-8-1",          1228,       39.9881,       183.565,            0.,NA,NA,"",   1.10725E+06,   1.10970E+06,   1.10970E+06
C:/temp/Job-8.odb,Step-1,Increment      1: Step Time =    1.000,"P-8-1",          1229,       25.4856,       189.509,            0.,NA,NA,"",   1.15132E+06,   1.15961E+06,   1.15961E+06
C:/temp/Job-8.odb,Step-1,Increment      1: Step Time =    1.000,"P-8-1",          1230,       179.223,       25.5112,            0.,NA,NA,"",   1.01191E+06,   1.01211E+06,   1.01211E+06
C:/temp/Job-8.odb,Step-1,Increment      1: Step Time =    1.000,"P-8-1",          1231,       26.6041,       179.850,            0.,NA,NA,"",   1.12533E+06,   1.14795E+06,   1.14795E+06
C:/temp/Job-8.odb,Step-1,Increment      1: Step Time =    1.000,"P-8-1",          1232,       162.452,       108.886,            0.,NA,NA,"",   870.409E+03,   890.788E+03,   890.788E+03
C:/temp/Job-8.odb,Step-1,Increment      1: Step Time =    1.000,"P-8-1",          1233,       91.3041,       163.108,            0.,NA,NA,"",   1.05681E+06,   1.09220E+06,   1.09220E+06
C:/temp/Job-8.odb,Step-1,Increment      1: Step Time =    1.000,"P-8-1",          1234,       33.8424,       90.4406,            0.,NA,NA,"",   721.084E+03,   792.158E+03,   792.158E+03
C:/temp/Job-8.odb,Step-1,Increment      1: Step Time =    1.000,"P-8-1",          1235,       110.115,       34.7128,            0.,NA,NA,"",   1.04339E+06,   1.07293E+06,   1.07293E+06
C:/temp/Job-8.odb,Step-1,Increment      1: Step Time =    1.000,"P-8-1",          1236,       38.0531,       100.833,            0.,NA,NA,"",    680.47E+03,   750.776E+03,   750.776E+03
C:/temp/Job-8.odb,Step-1,Increment      1: Step Time =    1.000,"P-8-1",          1237,       100.722,       37.6162,            0.,NA,NA,"",   1.04162E+06,   1.08390E+06,   1.08390E+06
C:/temp/Job-8.odb,Step-1,Increment      1: Step Time =    1.000,"P-8-1",          1238,       159.295,       103.938,            0.,NA,NA,"",   821.072E+03,   844.780E+03,   844.780E+03
C:/temp/Job-8.odb,Step-1,Increment      1: Step Time =    1.000,"P-8-1",          1239,       101.180,       161.192,            0.,NA,NA,"",   1.04534E+06,   1.08964E+06,   1.08964E+06
C:/temp/Job-8.odb,Step-1,Increment      1: Step Time =    1.000,"P-8-1",          1240,       45.0727,       24.8990,            0.,NA,NA,"",   1.11101E+06,   1.11207E+06,   1.11207E+06
C:/temp/Job-8.odb,Step-1,Increment      1: Step Time =    1.000,"P-8-1",          1241,       156.320,       175.223,            0.,NA,NA,"",   1.04360E+06,   1.03456E+06,   1.03456E+06
C:/temp/Job-8.odb,Step-1,Increment      1: Step Time =    1.000,"P-8-1",          1242,       23.0316,       156.304,            0.,NA,NA,"",   993.921E+03,   1.05163E+06,   1.05163E+06
C:/temp/Job-8.odb,Step-1,Increment      1: Step Time =    1.000,"P-8-1",          1243,       177.047,       45.4158,            0.,NA,NA,"",   1.02583E+06,   1.02713E+06,   1.02713E+06
C:/temp/Job-8.odb,Step-1,Increment      1: Step Time =    1.000,"P-8-1",          1244,       110.804,       45.1040,            0.,NA,NA,"",   1.08892E+06,   1.13255E+06,   1.13255E+06
C:/temp/Job-8.odb,Step-1,Increment      1: Step Time =    1.000,"P-8-1",          1245,       43.9878,       90.5257,            0.,NA,NA,"",   703.238E+03,   759.570E+03,   759.570E+03
C:/temp/Job-8.odb,Step-1,Increment      1: Step Time =    1.000,"P-8-1",          1246,       162.439,       85.1417,            0.,NA,NA,"",   915.488E+03,   925.711E+03,   925.711E+03
C:/temp/Job-8.odb,Step-1,Increment      1: Step Time =    1.000,"P-8-1",          1247,       115.463,       164.439,            0.,NA,NA,"",   1.06330E+06,   1.08471E+06,   1.08471E+06
C:/temp/Job-8.odb,Step-1,Increment      1: Step Time =    1.000,"P-8-1",          1248,       82.8643,       37.3042,            0.,NA,NA,"",   1.09233E+06,   1.11169E+06,   1.11169E+06
C:/temp/Job-8.odb,Step-1,Increment      1: Step Time =    1.000,"P-8-1",          1249,       38.0898,       119.042,            0.,NA,NA,"",   801.952E+03,   856.040E+03,   856.040E+03
C:/temp/Job-8.odb,Step-1,Increment      1: Step Time =    1.000,"P-8-1",          1250,       157.123,       90.9545,            0.,NA,NA,"",   842.193E+03,   855.861E+03,   855.861E+03
C:/temp/Job-8.odb,Step-1,Increment      1: Step Time =    1.000,"P-8-1",          1251,       112.243,       157.565,            0.,NA,NA,"",   1.08070E+06,   1.11650E+06,   1.11650E+06
C:/temp/Job-8.odb,Step-1,Increment      1: Step Time =    1.000,"P-8-1",          1252,       89.6321,       153.811,            0.,NA,NA,"",   1.10197E+06,   1.14844E+06,   1.14844E+06
C:/temp/Job-8.odb,Step-1,Increment      1: Step Time =    1.000,"P-8-1",          1253,       153.143,       109.696,            0.,NA,NA,"",   831.158E+03,   836.219E+03,   836.219E+03
C:/temp/Job-8.odb,Step-1,Increment      1: Step Time =    1.000,"P-8-1",          1254,       125.742,       162.934,            0.,NA,NA,"",   1.10393E+06,   1.10292E+06,   1.10292E+06
C:/temp/Job-8.odb,Step-1,Increment      1: Step Time =    1.000,"P-8-1",          1255,       74.1362,       36.3076,            0.,NA,NA,"",   1.11764E+06,   1.12110E+06,   1.12110E+06
C:/temp/Job-8.odb,Step-1,Increment      1: Step Time =    1.000,"P-8-1",          1256,       37.5302,       125.405,            0.,NA,NA,"",   861.842E+03,   908.532E+03,   908.532E+03
C:/temp/Job-8.odb,Step-1,Increment      1: Step Time =    1.000,"P-8-1",          1257,       164.314,       73.4455,            0.,NA,NA,"",   1.00707E+06,   1.00108E+06,   1.00108E+06
C:/temp/Job-8.odb,Step-1,Increment      1: Step Time =    1.000,"P-8-1",          1258,       133.917,       162.776,            0.,NA,NA,"",   1.11675E+06,   1.10156E+06,   1.10156E+06
C:/temp/Job-8.odb,Step-1,Increment      1: Step Time =    1.000,"P-8-1",          1259,       65.5486,       38.4933,            0.,NA,NA,"",   1.14200E+06,   1.13430E+06,   1.13430E+06
C:/temp/Job-8.odb,Step-1,Increment      1: Step Time =    1.000,"P-8-1",          1260,       35.0612,       133.759,            0.,NA,NA,"",   920.004E+03,   964.404E+03,   964.404E+03
C:/temp/Job-8.odb,Step-1,Increment      1: Step Time =    1.000,"P-8-1",          1261,       166.306,       62.9570,            0.,NA,NA,"",   1.04877E+06,   1.03794E+06,   1.03794E+06
C:/temp/Job-8.odb,Step-1,Increment      1: Step Time =    1.000,"P-8-1",          1262,       31.6967,       153.895,            0.,NA,NA,"",   1.02639E+06,   1.06319E+06,   1.06319E+06
C:/temp/Job-8.odb,Step-1,Increment      1: Step Time =    1.000,"P-8-1",          1263,       168.448,       48.0512,            0.,NA,NA,"",   1.05476E+06,   1.04537E+06,   1.04537E+06
C:/temp/Job-8.odb,Step-1,Increment      1: Step Time =    1.000,"P-8-1",          1264,       151.787,       167.393,            0.,NA,NA,"",   1.07508E+06,   1.05916E+06,   1.05916E+06
C:/temp/Job-8.odb,Step-1,Increment      1: Step Time =    1.000,"P-8-1",          1265,       48.6967,       33.8497,            0.,NA,NA,"",   1.11791E+06,   1.11648E+06,   1.11648E+06
C:/temp/Job-8.odb,Step-1,Increment      1: Step Time =    1.000,"P-8-1",          1266,       118.183,       45.9530,            0.,NA,NA,"",   1.13147E+06,   1.14914E+06,   1.14914E+06
C:/temp/Job-8.odb,Step-1,Increment      1: Step Time =    1.000,"P-8-1",          1267,       48.6596,       82.8912,            0.,NA,NA,"",   813.570E+03,   841.452E+03,   841.452E+03
C:/temp/Job-8.odb,Step-1,Increment      1: Step Time =    1.000,"P-8-1",          1268,       27.6662,       30.2382,            0.,NA,NA,"",   1.08161E+06,   1.11469E+06,   1.11469E+06
C:/temp/Job-8.odb,Step-1,Increment      1: Step Time =    1.000,"P-8-1",          1269,       30.3915,       26.0379,            0.,NA,NA,"",   1.10494E+06,   1.12742E+06,   1.12742E+06
C:/temp/Job-8.odb,Step-1,Increment      1: Step Time =    1.000,"P-8-1",          1270,       168.080,       27.9729,            0.,NA,NA,"",   1.03305E+06,   1.02753E+06,   1.02753E+06
C:/temp/Job-8.odb,Step-1,Increment      1: Step Time =    1.000,"P-8-1",          1271,       26.3298,       168.639,            0.,NA,NA,"",   1.07253E+06,   1.10989E+06,   1.10989E+06
C:/temp/Job-8.odb,Step-1,Increment      1: Step Time =    1.000,"P-8-1",          1272,       176.511,       33.2931,            0.,NA,NA,"",   1.02215E+06,   1.02114E+06,   1.02114E+06
C:/temp/Job-8.odb,Step-1,Increment      1: Step Time =    1.000,"P-8-1",          1273,       30.8127,       175.216,            0.,NA,NA,"",   1.10928E+06,   1.13027E+06,   1.13027E+06
C:/temp/Job-8.odb,Step-1,Increment      1: Step Time =    1.000,"P-8-1",          1274,       172.823,       171.465,            0.,NA,NA,"",   1.02580E+06,   1.02261E+06,   1.02261E+06
C:/temp/Job-8.odb,Step-1,Increment      1: Step Time =    1.000,"P-8-1",          1275,       168.836,       178.472,            0.,NA,NA,"",   1.02079E+06,   1.01760E+06,   1.01760E+06
C:/temp/Job-8.odb,Step-1,Increment      1: Step Time =    1.000,"P-8-1",          1276,       15.9867,       176.315,            0.,NA,NA,"",   1.08773E+06,   1.14682E+06,   1.14682E+06
C:/temp/Job-8.odb,Step-1,Increment      1: Step Time =    1.000,"P-8-1",          1277,       21.2168,       14.4313,            0.,NA,NA,"",   1.16506E+06,   1.18541E+06,   1.18541E+06
C:/temp/Job-8.odb,Step-1,Increment      1: Step Time =    1.000,"P-8-1",          1278,       18.0796,       23.8240,            0.,NA,NA,"",   1.09233E+06,   1.14421E+06,   1.14421E+06
C:/temp/Job-8.odb,Step-1,Increment      1: Step Time =    1.000,"P-8-1",          1279,       178.814,       183.951,            0.,NA,NA,"",   1.00652E+06,   1.00645E+06,   1.00645E+06
C:/temp/Job-8.odb,Step-1,Increment      1: Step Time =    1.000,"P-8-1",          1280,       183.151,       21.6829,            0.,NA,NA,"",   1.00616E+06,   1.00703E+06,   1.00703E+06
C:/temp/Job-8.odb,Step-1,Increment      1: Step Time =    1.000,"P-8-1",          1281,       20.3551,       183.819,            0.,NA,NA,"",   1.15998E+06,   1.18630E+06,   1.18630E+06
C:/temp/Job-8.odb,Step-1,Increment      1: Step Time =    1.000,"P-8-1",          1282,       25.8501,       40.5648,            0.,NA,NA,"",   1.02595E+06,   1.07347E+06,   1.07347E+06
C:/temp/Job-8.odb,Step-1,Increment      1: Step Time =    1.000,"P-8-1",          1283,       177.306,       154.038,            0.,NA,NA,"",   1.02403E+06,   1.02598E+06,   1.02598E+06
C:/temp/Job-8.odb,Step-1,Increment      1: Step Time =    1.000,"P-8-1",          1284,       44.3115,       173.975,            0.,NA,NA,"",   1.11176E+06,   1.11339E+06,   1.11339E+06
C:/temp/Job-8.odb,Step-1,Increment      1: Step Time =    1.000,"P-8-1",          1285,       150.365,       85.7094,            0.,NA,NA,"",   900.918E+03,   882.746E+03,   882.746E+03
C:/temp/Job-8.odb,Step-1,Increment      1: Step Time =    1.000,"P-8-1",          1286,       114.197,       152.969,            0.,NA,NA,"",   1.11825E+06,   1.15261E+06,   1.15261E+06
C:/temp/Job-8.odb,Step-1,Increment      1: Step Time =    1.000,"P-8-1",          1287,       159.900,       76.6349,            0.,NA,NA,"",   996.040E+03,   983.363E+03,   983.363E+03
C:/temp/Job-8.odb,Step-1,Increment      1: Step Time =    1.000,"P-8-1",          1288,       121.442,       161.580,            0.,NA,NA,"",   1.09880E+06,   1.10724E+06,   1.10724E+06
C:/temp/Job-8.odb,Step-1,Increment      1: Step Time =    1.000,"P-8-1",          1289,       40.8119,       122.628,            0.,NA,NA,"",   850.767E+03,   892.679E+03,   892.679E+03
C:/temp/Job-8.odb,Step-1,Increment      1: Step Time =    1.000,"P-8-1",          1290,       78.4735,       37.5151,            0.,NA,NA,"",   1.10911E+06,   1.12042E+06,   1.12042E+06
C:/temp/Job-8.odb,Step-1,Increment      1: Step Time =    1.000,"P-8-1",          1291,       89.5791,       48.0729,            0.,NA,NA,"",   1.10878E+06,   1.15766E+06,   1.15766E+06
C:/temp/Job-8.odb,Step-1,Increment      1: Step Time =    1.000,"P-8-1",          1292,       110.927,       162.475,            0.,NA,NA,"",   1.05644E+06,   1.08869E+06,   1.08869E+06
C:/temp/Job-8.odb,Step-1,Increment      1: Step Time =    1.000,"P-8-1",          1293,       160.435,       93.6734,            0.,NA,NA,"",   838.935E+03,   861.622E+03,   861.622E+03
C:/temp/Job-8.odb,Step-1,Increment      1: Step Time =    1.000,"P-8-1",          1294,       130.653,       159.182,            0.,NA,NA,"",   1.13526E+06,   1.12207E+06,   1.12207E+06
C:/temp/Job-8.odb,Step-1,Increment      1: Step Time =    1.000,"P-8-1",          1295,       138.017,       167.404,            0.,NA,NA,"",   1.09115E+06,   1.07678E+06,   1.07678E+06
C:/temp/Job-8.odb,Step-1,Increment      1: Step Time =    1.000,"P-8-1",          1296,       68.8366,       39.5958,            0.,NA,NA,"",   1.14383E+06,   1.13839E+06,   1.13839E+06
C:/temp/Job-8.odb,Step-1,Increment      1: Step Time =    1.000,"P-8-1",          1297,       61.1357,       32.5047,            0.,NA,NA,"",   1.12255E+06,   1.11579E+06,   1.11579E+06
C:/temp/Job-8.odb,Step-1,Increment      1: Step Time =    1.000,"P-8-1",          1298,       32.3122,       141.130,            0.,NA,NA,"",   958.239E+03,   1.00235E+06,   1.00235E+06
C:/temp/Job-8.odb,Step-1,Increment      1: Step Time =    1.000,"P-8-1",          1299,       37.3308,       131.956,            0.,NA,NA,"",   919.908E+03,   959.821E+03,   959.821E+03
C:/temp/Job-8.odb,Step-1,Increment      1: Step Time =    1.000,"P-8-1",          1300,       161.709,       66.9213,            0.,NA,NA,"",   1.05528E+06,   1.03593E+06,   1.03593E+06
C:/temp/Job-8.odb,Step-1,Increment      1: Step Time =    1.000,"P-8-1",          1301,       166.548,       58.0408,            0.,NA,NA,"",   1.05751E+06,   1.04564E+06,   1.04564E+06
C:/temp/Job-8.odb,Step-1,Increment      1: Step Time =    1.000,"P-8-1",          1302,       88.5074,       149.919,            0.,NA,NA,"",   1.13113E+06,   1.17944E+06,   1.17944E+06
C:/temp/Job-8.odb,Step-1,Increment      1: Step Time =    1.000,"P-8-1",          1303,       152.298,       113.823,            0.,NA,NA,"",   888.750E+03,   879.373E+03,   879.373E+03
C:/temp/Job-8.odb,Step-1,Increment      1: Step Time =    1.000,"P-8-1",          1304,       16.0796,       46.1679,            0.,NA,NA,"",   943.152E+03,   1.02014E+06,   1.02014E+06
C:/temp/Job-8.odb,Step-1,Increment      1: Step Time =    1.000,"P-8-1",          1305,       183.398,       154.500,            0.,NA,NA,"",   1.00654E+06,   1.01513E+06,   1.01513E+06
C:/temp/Job-8.odb,Step-1,Increment      1: Step Time =    1.000,"P-8-1",          1306,       153.887,       15.7830,            0.,NA,NA,"",   1.01759E+06,   1.01329E+06,   1.01329E+06
C:/temp/Job-8.odb,Step-1,Increment      1: Step Time =    1.000,"P-8-1",          1307,       45.1456,       185.469,            0.,NA,NA,"",   1.09139E+06,   1.09120E+06,   1.09120E+06
C:/temp/Job-8.odb,Step-1,Increment      1: Step Time =    1.000,"P-8-1",          1308,       111.393,       40.1367,            0.,NA,NA,"",   1.06913E+06,   1.10402E+06,   1.10402E+06
C:/temp/Job-8.odb,Step-1,Increment      1: Step Time =    1.000,"P-8-1",          1309,       38.9936,       90.7426,            0.,NA,NA,"",   709.812E+03,   774.290E+03,   774.290E+03
C:/temp/Job-8.odb,Step-1,Increment      1: Step Time =    1.000,"P-8-1",          1310,       90.6008,       158.238,            0.,NA,NA,"",   1.07685E+06,   1.11882E+06,   1.11882E+06
C:/temp/Job-8.odb,Step-1,Increment      1: Step Time =    1.000,"P-8-1",          1311,       157.424,       111.208,            0.,NA,NA,"",   869.853E+03,   878.347E+03,   878.347E+03
C:/temp/Job-8.odb,Step-1,Increment      1: Step Time =    1.000,"P-8-1",          1312,       55.1492,       72.6199,            0.,NA,NA,"",   1.03050E+06,   1.01120E+06,   1.01120E+06
C:/temp/Job-8.odb,Step-1,Increment      1: Step Time =    1.000,"P-8-1",          1313,       130.054,       56.3792,            0.,NA,NA,"",   1.25221E+06,   1.20937E+06,   1.20937E+06
C:/temp/Job-8.odb,Step-1,Increment      1: Step Time =    1.000,"P-8-1",          1314,       39.9629,       111.113,            0.,NA,NA,"",   727.468E+03,   788.256E+03,   788.256E+03
C:/temp/Job-8.odb,Step-1,Increment      1: Step Time =    1.000,"P-8-1",          1315,       92.1644,       39.3704,            0.,NA,NA,"",   1.06228E+06,   1.10237E+06,   1.10237E+06
C:/temp/Job-8.odb,Step-1,Increment      1: Step Time =    1.000,"P-8-1",          1316,       140.783,       77.4795,            0.,NA,NA,"",   1.11444E+06,   1.02941E+06,   1.02941E+06
C:/temp/Job-8.odb,Step-1,Increment      1: Step Time =    1.000,"P-8-1",          1317,       122.841,       138.428,            0.,NA,NA,"",   1.30328E+06,   1.27488E+06,   1.27488E+06
C:/temp/Job-8.odb,Step-1,Increment      1: Step Time =    1.000,"P-8-1",          1318,       174.705,       176.629,            0.,NA,NA,"",   1.01640E+06,   1.01488E+06,   1.01488E+06
C:/temp/Job-8.odb,Step-1,Increment      1: Step Time =    1.000,"P-8-1",          1319,       174.017,       174.390,            0.,NA,NA,"",   1.02021E+06,   1.01804E+06,   1.01804E+06
C:/temp/Job-8.odb,Step-1,Increment      1: Step Time =    1.000,"P-8-1",          1320,       174.836,       26.2647,            0.,NA,NA,"",   1.01847E+06,   1.01707E+06,   1.01707E+06
C:/temp/Job-8.odb,Step-1,Increment      1: Step Time =    1.000,"P-8-1",          1321,       27.1947,       175.767,            0.,NA,NA,"",   1.10869E+06,   1.13618E+06,   1.13618E+06
C:/temp/Job-8.odb,Step-1,Increment      1: Step Time =    1.000,"P-8-1",          1322,       24.2493,       175.762,            0.,NA,NA,"",   1.10918E+06,   1.14220E+06,   1.14220E+06
C:/temp/Job-8.odb,Step-1,Increment      1: Step Time =    1.000,"P-8-1",          1323,       172.008,       26.9394,            0.,NA,NA,"",   1.02417E+06,   1.02118E+06,   1.02118E+06
C:/temp/Job-8.odb,Step-1,Increment      1: Step Time =    1.000,"P-8-1",          1324,       28.9042,       22.2934,            0.,NA,NA,"",   1.11978E+06,   1.14051E+06,   1.14051E+06
C:/temp/Job-8.odb,Step-1,Increment      1: Step Time =    1.000,"P-8-1",          1325,       24.2425,       27.9379,            0.,NA,NA,"",   1.08560E+06,   1.12428E+06,   1.12428E+06
C:/temp/Job-8.odb,Step-1,Increment      1: Step Time =    1.000,"P-8-1",          1326,       125.290,       47.9982,            0.,NA,NA,"",   1.17254E+06,   1.16601E+06,   1.16601E+06
C:/temp/Job-8.odb,Step-1,Increment      1: Step Time =    1.000,"P-8-1",          1327,       48.1531,       73.9463,            0.,NA,NA,"",   941.801E+03,   953.550E+03,   953.550E+03
C:/temp/Job-8.odb,Step-1,Increment      1: Step Time =    1.000,"P-8-1",          1328,       27.8368,       36.1679,            0.,NA,NA,"",   1.05557E+06,   1.09451E+06,   1.09451E+06
C:/temp/Job-8.odb,Step-1,Increment      1: Step Time =    1.000,"P-8-1",          1329,       172.951,       159.726,            0.,NA,NA,"",   1.03612E+06,   1.03224E+06,   1.03224E+06
C:/temp/Job-8.odb,Step-1,Increment      1: Step Time =    1.000,"P-8-1",          1330,       158.280,       24.6234,            0.,NA,NA,"",   1.04123E+06,   1.03276E+06,   1.03276E+06
C:/temp/Job-8.odb,Step-1,Increment      1: Step Time =    1.000,"P-8-1",          1331,       39.5396,       172.784,            0.,NA,NA,"",   1.10975E+06,   1.11752E+06,   1.11752E+06
C:/temp/Job-8.odb,Step-1,Increment      1: Step Time =    1.000,"P-8-1",          1332,       147.185,       77.1099,            0.,NA,NA,"",   1.05793E+06,   1.00319E+06,   1.00319E+06
C:/temp/Job-8.odb,Step-1,Increment      1: Step Time =    1.000,"P-8-1",          1333,       121.558,       142.140,            0.,NA,NA,"",   1.25480E+06,   1.24683E+06,   1.24683E+06
C:/temp/Job-8.odb,Step-1,Increment      1: Step Time =    1.000,"P-8-1",          1334,       141.324,       71.6261,            0.,NA,NA,"",   1.18260E+06,   1.10057E+06,   1.10057E+06
C:/temp/Job-8.odb,Step-1,Increment      1: Step Time =    1.000,"P-8-1",          1335,       126.578,       140.084,            0.,NA,NA,"",   1.28700E+06,   1.24464E+06,   1.24464E+06
C:/temp/Job-8.odb,Step-1,Increment      1: Step Time =    1.000,"P-8-1",          1336,       14.8367,       181.425,            0.,NA,NA,"",   1.12902E+06,   1.18250E+06,   1.18250E+06
C:/temp/Job-8.odb,Step-1,Increment      1: Step Time =    1.000,"P-8-1",          1337,       162.517,       52.1103,            0.,NA,NA,"",   1.08157E+06,   1.06189E+06,   1.06189E+06
C:/temp/Job-8.odb,Step-1,Increment      1: Step Time =    1.000,"P-8-1",          1338,       149.751,       163.797,            0.,NA,NA,"",   1.09134E+06,   1.07173E+06,   1.07173E+06
C:/temp/Job-8.odb,Step-1,Increment      1: Step Time =    1.000,"P-8-1",          1339,       53.3553,       39.3776,            0.,NA,NA,"",   1.13128E+06,   1.12457E+06,   1.12457E+06
C:/temp/Job-8.odb,Step-1,Increment      1: Step Time =    1.000,"P-8-1",          1340,       16.6814,       18.2446,            0.,NA,NA,"",   1.13871E+06,   1.18326E+06,   1.18326E+06
C:/temp/Job-8.odb,Step-1,Increment      1: Step Time =    1.000,"P-8-1",          1341,       178.647,       15.0585,            0.,NA,NA,"",   1.00616E+06,   1.00600E+06,   1.00600E+06
C:/temp/Job-8.odb,Step-1,Increment      1: Step Time =    1.000,"P-8-1",          1342,       15.0578,       185.010,            0.,NA,NA,"",   1.17308E+06,   1.21410E+06,   1.21410E+06
C:/temp/Job-8.odb,Step-1,Increment      1: Step Time =    1.000,"P-8-1",          1343,       185.248,       179.479,            0.,NA,NA,"",   1.00403E+06,   1.00518E+06,   1.00518E+06
C:/temp/Job-8.odb,Step-1,Increment      1: Step Time =    1.000,"P-8-1",          1344,       27.9853,       33.4023,            0.,NA,NA,"",   1.06677E+06,   1.10288E+06,   1.10288E+06
C:/temp/Job-8.odb,Step-1,Increment      1: Step Time =    1.000,"P-8-1",          1345,       35.5040,       28.7333,            0.,NA,NA,"",   1.10486E+06,   1.12026E+06,   1.12026E+06
C:/temp/Job-8.odb,Step-1,Increment      1: Step Time =    1.000,"P-8-1",          1346,       26.2082,       163.330,            0.,NA,NA,"",   1.04547E+06,   1.08955E+06,   1.08955E+06
C:/temp/Job-8.odb,Step-1,Increment      1: Step Time =    1.000,"P-8-1",          1347,       163.645,       28.7090,            0.,NA,NA,"",   1.04334E+06,   1.03495E+06,   1.03495E+06
C:/temp/Job-8.odb,Step-1,Increment      1: Step Time =    1.000,"P-8-1",          1348,       36.4447,       168.094,            0.,NA,NA,"",   1.09718E+06,   1.11331E+06,   1.11331E+06
C:/temp/Job-8.odb,Step-1,Increment      1: Step Time =    1.000,"P-8-1",          1349,       172.942,       36.3392,            0.,NA,NA,"",   1.03280E+06,   1.02915E+06,   1.02915E+06
C:/temp/Job-8.odb,Step-1,Increment      1: Step Time =    1.000,"P-8-1",          1350,       170.094,       164.507,            0.,NA,NA,"",   1.04018E+06,   1.03395E+06,   1.03395E+06
C:/temp/Job-8.odb,Step-1,Increment      1: Step Time =    1.000,"P-8-1",          1351,       162.303,       171.817,            0.,NA,NA,"",   1.04415E+06,   1.03545E+06,   1.03545E+06
C:/temp/Job-8.odb,Step-1,Increment      1: Step Time =    1.000,"P-8-1",          1352,       27.3268,       45.2561,            0.,NA,NA,"",   1.00649E+06,   1.05424E+06,   1.05424E+06
C:/temp/Job-8.odb,Step-1,Increment      1: Step Time =    1.000,"P-8-1",          1353,       171.763,       155.468,            0.,NA,NA,"",   1.04137E+06,   1.03642E+06,   1.03642E+06
C:/temp/Job-8.odb,Step-1,Increment      1: Step Time =    1.000,"P-8-1",          1354,       45.4793,       170.016,            0.,NA,NA,"",   1.11431E+06,   1.11580E+06,   1.11580E+06
C:/temp/Job-8.odb,Step-1,Increment      1: Step Time =    1.000,"P-8-1",          1355,       153.463,       30.3940,            0.,NA,NA,"",   1.06611E+06,   1.05224E+06,   1.05224E+06
C:/temp/Job-8.odb,Step-1,Increment      1: Step Time =    1.000,"P-8-1",          1356,       55.5838,       111.163,            0.,NA,NA,"",   717.008E+03,   736.283E+03,   736.283E+03
C:/temp/Job-8.odb,Step-1,Increment      1: Step Time =    1.000,"P-8-1",          1357,       88.8161,       51.8061,            0.,NA,NA,"",   1.13776E+06,   1.18891E+06,   1.18891E+06
C:/temp/Job-8.odb,Step-1,Increment      1: Step Time =    1.000,"P-8-1",          1358,       60.8536,       37.4342,            0.,NA,NA,"",   1.13800E+06,   1.12877E+06,   1.12877E+06
C:/temp/Job-8.odb,Step-1,Increment      1: Step Time =    1.000,"P-8-1",          1359,       35.5168,       136.957,            0.,NA,NA,"",   943.531E+03,   983.702E+03,   983.702E+03
C:/temp/Job-8.odb,Step-1,Increment      1: Step Time =    1.000,"P-8-1",          1360,       161.962,       62.5796,            0.,NA,NA,"",   1.06958E+06,   1.04903E+06,   1.04903E+06
C:/temp/Job-8.odb,Step-1,Increment      1: Step Time =    1.000,"P-8-1",          1361,       152.280,       118.606,            0.,NA,NA,"",   962.017E+03,   937.658E+03,   937.658E+03
C:/temp/Job-8.odb,Step-1,Increment      1: Step Time =    1.000,"P-8-1",          1362,       84.0854,       150.284,            0.,NA,NA,"",   1.15554E+06,   1.18571E+06,   1.18571E+06
C:/temp/Job-8.odb,Step-1,Increment      1: Step Time =    1.000,"P-8-1",          1363,       14.6048,       49.4709,            0.,NA,NA,"",   917.023E+03,   998.469E+03,   998.469E+03
C:/temp/Job-8.odb,Step-1,Increment      1: Step Time =    1.000,"P-8-1",          1364,       185.387,       151.221,            0.,NA,NA,"",   999.772E+03,   1.01240E+06,   1.01240E+06
C:/temp/Job-8.odb,Step-1,Increment      1: Step Time =    1.000,"P-8-1",          1365,       153.722,       11.9094,            0.,NA,NA,"",   1.00758E+06,   1.00488E+06,   1.00488E+06
C:/temp/Job-8.odb,Step-1,Increment      1: Step Time =    1.000,"P-8-1",          1366,       48.0311,       187.180,            0.,NA,NA,"",   1.08159E+06,   1.08065E+06,   1.08065E+06
C:/temp/Job-8.odb,Step-1,Increment      1: Step Time =    1.000,"P-8-1",          1367,       51.7146,       68.7129,            0.,NA,NA,"",   1.02988E+06,   1.02320E+06,   1.02320E+06
C:/temp/Job-8.odb,Step-1,Increment      1: Step Time =    1.000,"P-8-1",          1368,       133.956,       51.4197,            0.,NA,NA,"",   1.20718E+06,   1.16929E+06,   1.16929E+06
C:/temp/Job-8.odb,Step-1,Increment      1: Step Time =    1.000,"P-8-1",          1369,       43.7512,       113.093,            0.,NA,NA,"",    744.97E+03,   795.978E+03,   795.978E+03
C:/temp/Job-8.odb,Step-1,Increment      1: Step Time =    1.000,"P-8-1",          1370,       89.2774,       44.6168,            0.,NA,NA,"",   1.09288E+06,   1.13589E+06,   1.13589E+06
C:/temp/Job-8.odb,Step-1,Increment      1: Step Time =    1.000,"P-8-1",          1371,       129.749,       47.4799,            0.,NA,NA,"",   1.17974E+06,   1.15951E+06,   1.15951E+06
C:/temp/Job-8.odb,Step-1,Increment      1: Step Time =    1.000,"P-8-1",          1372,       49.3791,       71.3978,            0.,NA,NA,"",   987.098E+03,   989.616E+03,   989.616E+03
C:/temp/Job-8.odb,Step-1,Increment      1: Step Time =    1.000,"P-8-1",          1373,       46.6639,       77.0845,            0.,NA,NA,"",   889.891E+03,   912.372E+03,   912.372E+03
C:/temp/Job-8.odb,Step-1,Increment      1: Step Time =    1.000,"P-8-1",          1374,       38.7114,       85.8954,            0.,NA,NA,"",   755.482E+03,   814.104E+03,   814.104E+03
C:/temp/Job-8.odb,Step-1,Increment      1: Step Time =    1.000,"P-8-1",          1375,       26.7786,       26.9568,            0.,NA,NA,"",   1.09380E+06,   1.12542E+06,   1.12542E+06
C:/temp/Job-8.odb,Step-1,Increment      1: Step Time =    1.000,"P-8-1",          1376,       173.415,       30.4567,            0.,NA,NA,"",   1.02509E+06,   1.02261E+06,   1.02261E+06
C:/temp/Job-8.odb,Step-1,Increment      1: Step Time =    1.000,"P-8-1",          1377,       171.038,       175.927,            0.,NA,NA,"",   1.02227E+06,   1.01918E+06,   1.01918E+06
C:/temp/Job-8.odb,Step-1,Increment      1: Step Time =    1.000,"P-8-1",          1378,       86.1128,       158.863,            0.,NA,NA,"",   1.09613E+06,   1.12621E+06,   1.12621E+06
C:/temp/Job-8.odb,Step-1,Increment      1: Step Time =    1.000,"P-8-1",          1379,       160.583,       116.229,            0.,NA,NA,"",   929.226E+03,   932.377E+03,   932.377E+03
C:/temp/Job-8.odb,Step-1,Increment      1: Step Time =    1.000,"P-8-1",          1380,       150.235,       79.8744,            0.,NA,NA,"",   997.026E+03,   960.665E+03,   960.665E+03
C:/temp/Job-8.odb,Step-1,Increment      1: Step Time =    1.000,"P-8-1",          1381,       120.758,       151.349,            0.,NA,NA,"",   1.16332E+06,   1.17085E+06,   1.17085E+06
C:/temp/Job-8.odb,Step-1,Increment      1: Step Time =    1.000,"P-8-1",          1382,       39.3662,       25.8750,            0.,NA,NA,"",   1.11155E+06,   1.11955E+06,   1.11955E+06
C:/temp/Job-8.odb,Step-1,Increment      1: Step Time =    1.000,"P-8-1",          1383,       160.639,       176.216,            0.,NA,NA,"",   1.03535E+06,   1.02828E+06,   1.02828E+06
C:/temp/Job-8.odb,Step-1,Increment      1: Step Time =    1.000,"P-8-1",          1384,       21.8737,       160.502,            0.,NA,NA,"",   1.01083E+06,   1.06897E+06,   1.06897E+06
C:/temp/Job-8.odb,Step-1,Increment      1: Step Time =    1.000,"P-8-1",          1385,       176.613,       41.3003,            0.,NA,NA,"",   1.02597E+06,   1.02603E+06,   1.02603E+06
C:/temp/Job-8.odb,Step-1,Increment      1: Step Time =    1.000,"P-8-1",          1386,       57.4405,       39.3600,            0.,NA,NA,"",   1.13888E+06,   1.12939E+06,   1.12939E+06
C:/temp/Job-8.odb,Step-1,Increment      1: Step Time =    1.000,"P-8-1",          1387,       143.969,       162.544,            0.,NA,NA,"",   1.10973E+06,   1.08773E+06,   1.08773E+06
C:/temp/Job-8.odb,Step-1,Increment      1: Step Time =    1.000,"P-8-1",          1388,       36.3792,       140.394,            0.,NA,NA,"",   977.811E+03,   1.01132E+06,   1.01132E+06
C:/temp/Job-8.odb,Step-1,Increment      1: Step Time =    1.000,"P-8-1",          1389,       161.322,       57.4879,            0.,NA,NA,"",   1.08381E+06,   1.06117E+06,   1.06117E+06
C:/temp/Job-8.odb,Step-1,Increment      1: Step Time =    1.000,"P-8-1",          1390,       59.3988,       44.6335,            0.,NA,NA,"",   1.15415E+06,   1.14088E+06,   1.14088E+06
C:/temp/Job-8.odb,Step-1,Increment      1: Step Time =    1.000,"P-8-1",          1391,       140.441,       158.722,            0.,NA,NA,"",   1.13422E+06,   1.10883E+06,   1.10883E+06
C:/temp/Job-8.odb,Step-1,Increment      1: Step Time =    1.000,"P-8-1",          1392,       43.7076,       142.087,            0.,NA,NA,"",   1.04086E+06,   1.05262E+06,   1.05262E+06
C:/temp/Job-8.odb,Step-1,Increment      1: Step Time =    1.000,"P-8-1",          1393,       156.461,       59.7268,            0.,NA,NA,"",   1.10710E+06,   1.07399E+06,   1.07399E+06
C:/temp/Job-8.odb,Step-1,Increment      1: Step Time =    1.000,"P-8-1",          1394,       136.700,       66.2215,            0.,NA,NA,"",   1.25202E+06,   1.16986E+06,   1.16986E+06
C:/temp/Job-8.odb,Step-1,Increment      1: Step Time =    1.000,"P-8-1",          1395,       131.726,       137.601,            0.,NA,NA,"",   1.28809E+06,   1.21962E+06,   1.21962E+06
C:/temp/Job-8.odb,Step-1,Increment      1: Step Time =    1.000,"P-8-1",          1396,       177.642,       19.6650,            0.,NA,NA,"",   1.01012E+06,   1.00966E+06,   1.00966E+06
C:/temp/Job-8.odb,Step-1,Increment      1: Step Time =    1.000,"P-8-1",          1397,       180.773,       178.801,            0.,NA,NA,"",   1.00796E+06,   1.00838E+06,   1.00838E+06
C:/temp/Job-8.odb,Step-1,Increment      1: Step Time =    1.000,"P-8-1",          1398,       36.3773,       150.965,            0.,NA,NA,"",   1.03606E+06,   1.06370E+06,   1.06370E+06
C:/temp/Job-8.odb,Step-1,Increment      1: Step Time =    1.000,"P-8-1",          1399,       164.316,       47.1334,            0.,NA,NA,"",   1.07005E+06,   1.05514E+06,   1.05514E+06
C:/temp/Job-8.odb,Step-1,Increment      1: Step Time =    1.000,"P-8-1",          1400,       154.047,       165.608,            0.,NA,NA,"",   1.07754E+06,   1.06079E+06,   1.06079E+06
C:/temp/Job-8.odb,Step-1,Increment      1: Step Time =    1.000,"P-8-1",          1401,       43.8826,       36.8571,            0.,NA,NA,"",   1.10685E+06,   1.11196E+06,   1.11196E+06
C:/temp/Job-8.odb,Step-1,Increment      1: Step Time =    1.000,"P-8-1",          1402,       11.1910,       15.1475,            0.,NA,NA,"",   1.16376E+06,   1.22411E+06,   1.22411E+06
C:/temp/Job-8.odb,Step-1,Increment      1: Step Time =    1.000,"P-8-1",          1403,       184.353,       10.3543,            0.,NA,NA,"",   1.00162E+06,   1.00186E+06,   1.00186E+06
C:/temp/Job-8.odb,Step-1,Increment      1: Step Time =    1.000,"P-8-1",          1404,       15.2245,       189.742,            0.,NA,NA,"",   1.21807E+06,   1.24075E+06,   1.24075E+06
C:/temp/Job-8.odb,Step-1,Increment      1: Step Time =    1.000,"P-8-1",          1405,       189.893,       184.741,            0.,NA,NA,"",   1.00102E+06,   1.00170E+06,   1.00170E+06
C:/temp/Job-8.odb,Step-1,Increment      1: Step Time =    1.000,"P-8-1",          1406,       50.6651,       111.671,            0.,NA,NA,"",   726.365E+03,   762.255E+03,   762.255E+03
C:/temp/Job-8.odb,Step-1,Increment      1: Step Time =    1.000,"P-8-1",          1407,       86.0180,       50.4218,            0.,NA,NA,"",   1.14767E+06,   1.18696E+06,   1.18696E+06
C:/temp/Job-8.odb,Step-1,Increment      1: Step Time =    1.000,"P-8-1",          1408,       94.1315,       58.4528,            0.,NA,NA,"",   1.15870E+06,   1.24635E+06,   1.24635E+06
C:/temp/Job-8.odb,Step-1,Increment      1: Step Time =    1.000,"P-8-1",          1409,       56.8608,       104.281,            0.,NA,NA,"",   569.571E+03,   610.463E+03,   610.463E+03
C:/temp/Job-8.odb,Step-1,Increment      1: Step Time =    1.000,"P-8-1",          1410,       147.187,       121.936,            0.,NA,NA,"",   1.04348E+06,   991.028E+03,   991.028E+03
C:/temp/Job-8.odb,Step-1,Increment      1: Step Time =    1.000,"P-8-1",          1411,       79.0871,       142.717,            0.,NA,NA,"",   1.23837E+06,   1.23999E+06,   1.23999E+06
C:/temp/Job-8.odb,Step-1,Increment      1: Step Time =    1.000,"P-8-1",          1412,       55.0640,       65.1485,            0.,NA,NA,"",   1.09301E+06,   1.07294E+06,   1.07294E+06
C:/temp/Job-8.odb,Step-1,Increment      1: Step Time =    1.000,"P-8-1",          1413,       134.354,       55.4918,            0.,NA,NA,"",   1.23447E+06,   1.18473E+06,   1.18473E+06
C:/temp/Job-8.odb,Step-1,Increment      1: Step Time =    1.000,"P-8-1",          1414,       47.0667,       65.9668,            0.,NA,NA,"",   1.01254E+06,   1.01937E+06,   1.01937E+06
C:/temp/Job-8.odb,Step-1,Increment      1: Step Time =    1.000,"P-8-1",          1415,       133.854,       47.1480,            0.,NA,NA,"",   1.17843E+06,   1.14994E+06,   1.14994E+06
C:/temp/Job-8.odb,Step-1,Increment      1: Step Time =    1.000,"P-8-1",          1416,       154.511,       35.7088,            0.,NA,NA,"",   1.08211E+06,   1.06421E+06,   1.06421E+06
C:/temp/Job-8.odb,Step-1,Increment      1: Step Time =    1.000,"P-8-1",          1417,       167.874,       152.603,            0.,NA,NA,"",   1.05619E+06,   1.04624E+06,   1.04624E+06
C:/temp/Job-8.odb,Step-1,Increment      1: Step Time =    1.000,"P-8-1",          1418,       45.4604,       166.525,            0.,NA,NA,"",   1.11334E+06,   1.11568E+06,   1.11568E+06
C:/temp/Job-8.odb,Step-1,Increment      1: Step Time =    1.000,"P-8-1",          1419,       30.9866,       48.5451,            0.,NA,NA,"",   1.00938E+06,   1.04934E+06,   1.04934E+06
C:/temp/Job-8.odb,Step-1,Increment      1: Step Time =    1.000,"P-8-1",          1420,       159.632,       119.074,            0.,NA,NA,"",   955.590E+03,   951.322E+03,   951.322E+03
C:/temp/Job-8.odb,Step-1,Increment      1: Step Time =    1.000,"P-8-1",          1421,       81.2562,       162.518,            0.,NA,NA,"",   1.10084E+06,   1.11736E+06,   1.11736E+06
C:/temp/Job-8.odb,Step-1,Increment      1: Step Time =    1.000,"P-8-1",          1422,       118.001,       40.6213,            0.,NA,NA,"",   1.09963E+06,   1.11784E+06,   1.11784E+06
C:/temp/Job-8.odb,Step-1,Increment      1: Step Time =    1.000,"P-8-1",          1423,       38.3708,       81.5318,            0.,NA,NA,"",   801.276E+03,   854.326E+03,   854.326E+03
C:/temp/Job-8.odb,Step-1,Increment      1: Step Time =    1.000,"P-8-1",          1424,       26.6604,       172.002,            0.,NA,NA,"",   1.09156E+06,   1.12403E+06,   1.12403E+06
C:/temp/Job-8.odb,Step-1,Increment      1: Step Time =    1.000,"P-8-1",          1425,       153.516,       76.8132,            0.,NA,NA,"",   1.02068E+06,   989.394E+03,   989.394E+03
C:/temp/Job-8.odb,Step-1,Increment      1: Step Time =    1.000,"P-8-1",          1426,       122.873,       157.339,            0.,NA,NA,"",   1.12852E+06,   1.13214E+06,   1.13214E+06
C:/temp/Job-8.odb,Step-1,Increment      1: Step Time =    1.000,"P-8-1",          1427,       37.6875,       161.028,            0.,NA,NA,"",   1.08048E+06,   1.09887E+06,   1.09887E+06
C:/temp/Job-8.odb,Step-1,Increment      1: Step Time =    1.000,"P-8-1",          1428,       164.517,       161.319,            0.,NA,NA,"",   1.06126E+06,   1.04889E+06,   1.04889E+06
C:/temp/Job-8.odb,Step-1,Increment      1: Step Time =    1.000,"P-8-1",          1429,       161.479,       166.763,            0.,NA,NA,"",   1.05815E+06,   1.04624E+06,   1.04624E+06
C:/temp/Job-8.odb,Step-1,Increment      1: Step Time =    1.000,"P-8-1",          1430,       37.6630,       37.6818,            0.,NA,NA,"",   1.08483E+06,   1.10216E+06,   1.10216E+06
C:/temp/Job-8.odb,Step-1,Increment      1: Step Time =    1.000,"P-8-1",          1431,       36.8649,       33.0242,            0.,NA,NA,"",   1.09507E+06,   1.11134E+06,   1.11134E+06
C:/temp/Job-8.odb,Step-1,Increment      1: Step Time =    1.000,"P-8-1",          1432,       32.3418,       164.049,            0.,NA,NA,"",   1.07269E+06,   1.10040E+06,   1.10040E+06
C:/temp/Job-8.odb,Step-1,Increment      1: Step Time =    1.000,"P-8-1",          1433,       164.425,       33.3869,            0.,NA,NA,"",   1.05087E+06,   1.04101E+06,   1.04101E+06
C:/temp/Job-8.odb,Step-1,Increment      1: Step Time =    1.000,"P-8-1",          1434,       129.160,       146.177,            0.,NA,NA,"",   1.23066E+06,   1.19834E+06,   1.19834E+06
C:/temp/Job-8.odb,Step-1,Increment      1: Step Time =    1.000,"P-8-1",          1435,       142.242,       66.0258,            0.,NA,NA,"",   1.20134E+06,   1.12986E+06,   1.12986E+06
C:/temp/Job-8.odb,Step-1,Increment      1: Step Time =    1.000,"P-8-1",          1436,       50.1850,       119.377,            0.,NA,NA,"",   857.788E+03,   873.854E+03,   873.854E+03
C:/temp/Job-8.odb,Step-1,Increment      1: Step Time =    1.000,"P-8-1",          1437,       81.5272,       48.3314,            0.,NA,NA,"",   1.15958E+06,   1.17858E+06,   1.17858E+06
C:/temp/Job-8.odb,Step-1,Increment      1: Step Time =    1.000,"P-8-1",          1438,       141.521,       46.4348,            0.,NA,NA,"",   1.15949E+06,   1.12504E+06,   1.12504E+06
C:/temp/Job-8.odb,Step-1,Increment      1: Step Time =    1.000,"P-8-1",          1439,       44.4713,       59.7448,            0.,NA,NA,"",   1.03527E+06,   1.04645E+06,   1.04645E+06
C:/temp/Job-8.odb,Step-1,Increment      1: Step Time =    1.000,"P-8-1",          1440,       160.570,       162.245,            0.,NA,NA,"",   1.07139E+06,   1.05608E+06,   1.05608E+06
C:/temp/Job-8.odb,Step-1,Increment      1: Step Time =    1.000,"P-8-1",          1441,       35.9641,       156.937,            0.,NA,NA,"",   1.05907E+06,   1.08421E+06,   1.08421E+06
C:/temp/Job-8.odb,Step-1,Increment      1: Step Time =    1.000,"P-8-1",          1442,       86.7558,       55.5357,            0.,NA,NA,"",   1.18157E+06,   1.22686E+06,   1.22686E+06
C:/temp/Job-8.odb,Step-1,Increment      1: Step Time =    1.000,"P-8-1",          1443,       58.9336,       115.483,            0.,NA,NA,"",   827.040E+03,   814.050E+03,   814.050E+03
C:/temp/Job-8.odb,Step-1,Increment      1: Step Time =    1.000,"P-8-1",          1444,       46.1428,       29.7311,            0.,NA,NA,"",   1.11315E+06,   1.11389E+06,   1.11389E+06
C:/temp/Job-8.odb,Step-1,Increment      1: Step Time =    1.000,"P-8-1",          1445,       154.514,       169.956,            0.,NA,NA,"",   1.06284E+06,   1.04964E+06,   1.04964E+06
C:/temp/Job-8.odb,Step-1,Increment      1: Step Time =    1.000,"P-8-1",          1446,       28.1409,       153.414,            0.,NA,NA,"",   1.00471E+06,   1.05088E+06,   1.05088E+06
C:/temp/Job-8.odb,Step-1,Increment      1: Step Time =    1.000,"P-8-1",          1447,       173.344,       45.5610,            0.,NA,NA,"",   1.03695E+06,   1.03407E+06,   1.03407E+06
C:/temp/Job-8.odb,Step-1,Increment      1: Step Time =    1.000,"P-8-1",          1448,       64.8330,       47.6690,            0.,NA,NA,"",   1.17697E+06,   1.16103E+06,   1.16103E+06
C:/temp/Job-8.odb,Step-1,Increment      1: Step Time =    1.000,"P-8-1",          1449,       137.854,       153.463,            0.,NA,NA,"",   1.16872E+06,   1.13645E+06,   1.13645E+06
C:/temp/Job-8.odb,Step-1,Increment      1: Step Time =    1.000,"P-8-1",          1450,       47.1144,       137.070,            0.,NA,NA,"",   1.03744E+06,   1.04127E+06,   1.04127E+06
C:/temp/Job-8.odb,Step-1,Increment      1: Step Time =    1.000,"P-8-1",          1451,       152.211,       62.0936,            0.,NA,NA,"",   1.12962E+06,   1.08566E+06,   1.08566E+06
C:/temp/Job-8.odb,Step-1,Increment      1: Step Time =    1.000,"P-8-1",          1452,       42.7272,       150.423,            0.,NA,NA,"",   1.07181E+06,   1.08306E+06,   1.08306E+06
C:/temp/Job-8.odb,Step-1,Increment      1: Step Time =    1.000,"P-8-1",          1453,       160.214,       45.6441,            0.,NA,NA,"",   1.08686E+06,   1.06646E+06,   1.06646E+06
C:/temp/Job-8.odb,Step-1,Increment      1: Step Time =    1.000,"P-8-1",          1454,       153.437,       162.103,            0.,NA,NA,"",   1.08884E+06,   1.06909E+06,   1.06909E+06
C:/temp/Job-8.odb,Step-1,Increment      1: Step Time =    1.000,"P-8-1",          1455,       48.5578,       43.0615,            0.,NA,NA,"",   1.11614E+06,   1.11440E+06,   1.11440E+06
C:/temp/Job-8.odb,Step-1,Increment      1: Step Time =    1.000,"P-8-1",          1456,       152.506,       124.085,            0.,NA,NA,"",   1.03585E+06,   999.777E+03,   999.777E+03
C:/temp/Job-8.odb,Step-1,Increment      1: Step Time =    1.000,"P-8-1",          1457,       77.6609,       149.251,            0.,NA,NA,"",   1.19210E+06,   1.19634E+06,   1.19634E+06
C:/temp/Job-8.odb,Step-1,Increment      1: Step Time =    1.000,"P-8-1",          1458,       45.6809,       69.5368,            0.,NA,NA,"",   966.786E+03,   981.407E+03,   981.407E+03
C:/temp/Job-8.odb,Step-1,Increment      1: Step Time =    1.000,"P-8-1",          1459,       134.263,       42.7182,            0.,NA,NA,"",   1.14948E+06,   1.12761E+06,   1.12761E+06
C:/temp/Job-8.odb,Step-1,Increment      1: Step Time =    1.000,"P-8-1",          1460,       159.716,       34.7404,            0.,NA,NA,"",   1.06558E+06,   1.05166E+06,   1.05166E+06
C:/temp/Job-8.odb,Step-1,Increment      1: Step Time =    1.000,"P-8-1",          1461,       163.285,       156.874,            0.,NA,NA,"",   1.07064E+06,   1.05554E+06,   1.05554E+06
C:/temp/Job-8.odb,Step-1,Increment      1: Step Time =    1.000,"P-8-1",          1462,       43.9682,       162.510,            0.,NA,NA,"",   1.10491E+06,   1.11044E+06,   1.11044E+06
C:/temp/Job-8.odb,Step-1,Increment      1: Step Time =    1.000,"P-8-1",          1463,       38.3363,       42.0490,            0.,NA,NA,"",   1.07398E+06,   1.09228E+06,   1.09228E+06
C:/temp/Job-8.odb,Step-1,Increment      1: Step Time =    1.000,"P-8-1",          1464,       157.428,       123.290,            0.,NA,NA,"",   1.00191E+06,   983.717E+03,   983.717E+03
C:/temp/Job-8.odb,Step-1,Increment      1: Step Time =    1.000,"P-8-1",          1465,       79.9694,       154.706,            0.,NA,NA,"",   1.14636E+06,   1.16110E+06,   1.16110E+06
C:/temp/Job-8.odb,Step-1,Increment      1: Step Time =    1.000,"P-8-1",          1466,       153.760,       71.0338,            0.,NA,NA,"",   1.07577E+06,   1.03750E+06,   1.03750E+06
C:/temp/Job-8.odb,Step-1,Increment      1: Step Time =    1.000,"P-8-1",          1467,       124.733,       153.598,            0.,NA,NA,"",   1.16002E+06,   1.15553E+06,   1.15553E+06
C:/temp/Job-8.odb,Step-1,Increment      1: Step Time =    1.000,"P-8-1",          1468,       134.401,       143.350,            0.,NA,NA,"",   1.24042E+06,   1.18743E+06,   1.18743E+06
C:/temp/Job-8.odb,Step-1,Increment      1: Step Time =    1.000,"P-8-1",          1469,       139.809,       64.5489,            0.,NA,NA,"",   1.22550E+06,   1.15154E+06,   1.15154E+06
C:/temp/Job-8.odb,Step-1,Increment      1: Step Time =    1.000,"P-8-1",          1470,       148.265,       64.9523,            0.,NA,NA,"",   1.14959E+06,   1.09461E+06,   1.09461E+06
C:/temp/Job-8.odb,Step-1,Increment      1: Step Time =    1.000,"P-8-1",          1471,       130.997,       152.580,            0.,NA,NA,"",   1.17792E+06,   1.15538E+06,   1.15538E+06
C:/temp/Job-8.odb,Step-1,Increment      1: Step Time =    1.000,"P-8-1",          1472,       184.667,       184.501,            0.,NA,NA,"",   1.00296E+06,   1.00357E+06,   1.00357E+06
C:/temp/Job-8.odb,Step-1,Increment      1: Step Time =    1.000,"P-8-1",          1473,       183.889,       15.6920,            0.,NA,NA,"",   1.00351E+06,   1.00400E+06,   1.00400E+06
C:/temp/Job-8.odb,Step-1,Increment      1: Step Time =    1.000,"P-8-1",          1474,       16.1685,       14.4149,            0.,NA,NA,"",   1.17985E+06,   1.21443E+06,   1.21443E+06
C:/temp/Job-8.odb,Step-1,Increment      1: Step Time =    1.000,"P-8-1",          1475,       47.1584,       115.855,            0.,NA,NA,"",   786.038E+03,   822.757E+03,   822.757E+03
C:/temp/Job-8.odb,Step-1,Increment      1: Step Time =    1.000,"P-8-1",          1476,       85.6969,       46.6070,            0.,NA,NA,"",   1.12471E+06,   1.15933E+06,   1.15933E+06
C:/temp/Job-8.odb,Step-1,Increment      1: Step Time =    1.000,"P-8-1",          1477,       130.460,       60.5116,            0.,NA,NA,"",   1.28584E+06,   1.22641E+06,   1.22641E+06
C:/temp/Job-8.odb,Step-1,Increment      1: Step Time =    1.000,"P-8-1",          1478,       33.4619,       51.9308,            0.,NA,NA,"",   1.00688E+06,   1.04254E+06,   1.04254E+06
C:/temp/Job-8.odb,Step-1,Increment      1: Step Time =    1.000,"P-8-1",          1479,       167.480,       149.233,            0.,NA,NA,"",   1.05901E+06,   1.04806E+06,   1.04806E+06
C:/temp/Job-8.odb,Step-1,Increment      1: Step Time =    1.000,"P-8-1",          1480,       149.522,       36.7301,            0.,NA,NA,"",   1.09800E+06,   1.07694E+06,   1.07694E+06
C:/temp/Job-8.odb,Step-1,Increment      1: Step Time =    1.000,"P-8-1",          1481,       52.1880,       160.095,            0.,NA,NA,"",   1.12756E+06,   1.12194E+06,   1.12194E+06
C:/temp/Job-8.odb,Step-1,Increment      1: Step Time =    1.000,"P-8-1",          1482,       73.8313,       150.677,            0.,NA,NA,"",   1.18792E+06,   1.18328E+06,   1.18328E+06
C:/temp/Job-8.odb,Step-1,Increment      1: Step Time =    1.000,"P-8-1",          1483,       155.736,       128.672,            0.,NA,NA,"",   1.05923E+06,   1.02743E+06,   1.02743E+06
C:/temp/Job-8.odb,Step-1,Increment      1: Step Time =    1.000,"P-8-1",          1484,       189.257,       15.6417,            0.,NA,NA,"",   1.00140E+06,   1.00208E+06,   1.00208E+06
C:/temp/Job-8.odb,Step-1,Increment      1: Step Time =    1.000,"P-8-1",          1485,       184.637,       189.593,            0.,NA,NA,"",   1.00160E+06,   1.00188E+06,   1.00188E+06
C:/temp/Job-8.odb,Step-1,Increment      1: Step Time =    1.000,"P-8-1",          1486,       15.6846,       9.77406,            0.,NA,NA,"",   1.21703E+06,   1.23698E+06,   1.23698E+06
C:/temp/Job-8.odb,Step-1,Increment      1: Step Time =    1.000,"P-8-1",          1487,       10.2974,       184.777,            0.,NA,NA,"",   1.15791E+06,   1.22305E+06,   1.22305E+06
C:/temp/Job-8.odb,Step-1,Increment      1: Step Time =    1.000,"P-8-1",          1488,       156.475,       50.3852,            0.,NA,NA,"",   1.10841E+06,   1.08032E+06,   1.08032E+06
C:/temp/Job-8.odb,Step-1,Increment      1: Step Time =    1.000,"P-8-1",          1489,       45.9734,       147.038,            0.,NA,NA,"",   1.07903E+06,   1.08362E+06,   1.08362E+06
C:/temp/Job-8.odb,Step-1,Increment      1: Step Time =    1.000,"P-8-1",          1490,       48.2935,       47.5153,            0.,NA,NA,"",   1.10805E+06,   1.10687E+06,   1.10687E+06
C:/temp/Job-8.odb,Step-1,Increment      1: Step Time =    1.000,"P-8-1",          1491,       153.142,       158.118,            0.,NA,NA,"",   1.10259E+06,   1.07875E+06,   1.07875E+06
C:/temp/Job-8.odb,Step-1,Increment      1: Step Time =    1.000,"P-8-1",          1492,       53.0311,       122.776,            0.,NA,NA,"",   941.070E+03,   936.792E+03,   936.792E+03
C:/temp/Job-8.odb,Step-1,Increment      1: Step Time =    1.000,"P-8-1",          1493,       78.5389,       50.8145,            0.,NA,NA,"",   1.18534E+06,   1.19248E+06,   1.19248E+06
C:/temp/Job-8.odb,Step-1,Increment      1: Step Time =    1.000,"P-8-1",          1494,       142.722,       53.3050,            0.,NA,NA,"",   1.18489E+06,   1.13786E+06,   1.13786E+06
C:/temp/Job-8.odb,Step-1,Increment      1: Step Time =    1.000,"P-8-1",          1495,       51.0354,       58.0217,            0.,NA,NA,"",   1.09551E+06,   1.08776E+06,   1.08776E+06
C:/temp/Job-8.odb,Step-1,Increment      1: Step Time =    1.000,"P-8-1",          1496,       157.297,       162.926,            0.,NA,NA,"",   1.07937E+06,   1.06198E+06,   1.06198E+06
C:/temp/Job-8.odb,Step-1,Increment      1: Step Time =    1.000,"P-8-1",          1497,       34.6145,       153.996,            0.,NA,NA,"",   1.04145E+06,   1.07139E+06,   1.07139E+06
C:/temp/Job-8.odb,Step-1,Increment      1: Step Time =    1.000,"P-8-1",          1498,       165.334,       43.0770,            0.,NA,NA,"",   1.06331E+06,   1.05076E+06,   1.05076E+06
C:/temp/Job-8.odb,Step-1,Increment      1: Step Time =    1.000,"P-8-1",          1499,       89.0781,       61.7726,            0.,NA,NA,"",   1.23575E+06,   1.30005E+06,   1.30005E+06
C:/temp/Job-8.odb,Step-1,Increment      1: Step Time =    1.000,"P-8-1",          1500,       60.1362,       107.587,            0.,NA,NA,"",   621.784E+03,   636.603E+03,   636.603E+03
C:/temp/Job-8.odb,Step-1,Increment      1: Step Time =    1.000,"P-8-1",          1501,       58.3193,       50.2303,            0.,NA,NA,"",   1.15935E+06,   1.14177E+06,   1.14177E+06
C:/temp/Job-8.odb,Step-1,Increment      1: Step Time =    1.000,"P-8-1",          1502,       66.9626,       43.6508,            0.,NA,NA,"",   1.16151E+06,   1.15166E+06,   1.15166E+06
C:/temp/Job-8.odb,Step-1,Increment      1: Step Time =    1.000,"P-8-1",          1503,       128.214,       155.824,            0.,NA,NA,"",   1.15290E+06,   1.14134E+06,   1.14134E+06
C:/temp/Job-8.odb,Step-1,Increment      1: Step Time =    1.000,"P-8-1",          1504,       142.170,       150.840,            0.,NA,NA,"",   1.17107E+06,   1.13180E+06,   1.13180E+06
C:/temp/Job-8.odb,Step-1,Increment      1: Step Time =    1.000,"P-8-1",          1505,       43.5346,       133.438,            0.,NA,NA,"",   978.221E+03,   996.800E+03,   996.800E+03
C:/temp/Job-8.odb,Step-1,Increment      1: Step Time =    1.000,"P-8-1",          1506,       48.3509,       143.813,            0.,NA,NA,"",   1.08477E+06,   1.08311E+06,   1.08311E+06
C:/temp/Job-8.odb,Step-1,Increment      1: Step Time =    1.000,"P-8-1",          1507,       154.301,       65.3753,            0.,NA,NA,"",   1.10485E+06,   1.06547E+06,   1.06547E+06
C:/temp/Job-8.odb,Step-1,Increment      1: Step Time =    1.000,"P-8-1",          1508,       150.131,       58.6010,            0.,NA,NA,"",   1.14713E+06,   1.10194E+06,   1.10194E+06
C:/temp/Job-8.odb,Step-1,Increment      1: Step Time =    1.000,"P-8-1",          1509,       162.169,       122.277,            0.,NA,NA,"",   978.243E+03,   974.399E+03,   974.399E+03
C:/temp/Job-8.odb,Step-1,Increment      1: Step Time =    1.000,"P-8-1",          1510,       77.6043,       160.311,            0.,NA,NA,"",   1.12560E+06,   1.13423E+06,   1.13423E+06
C:/temp/Job-8.odb,Step-1,Increment      1: Step Time =    1.000,"P-8-1",          1511,       39.6352,       49.8477,            0.,NA,NA,"",   1.04889E+06,   1.06869E+06,   1.06869E+06
C:/temp/Job-8.odb,Step-1,Increment      1: Step Time =    1.000,"P-8-1",          1512,       35.6919,       55.3917,            0.,NA,NA,"",   1.00050E+06,   1.03332E+06,   1.03332E+06
C:/temp/Job-8.odb,Step-1,Increment      1: Step Time =    1.000,"P-8-1",          1513,       162.753,       152.226,            0.,NA,NA,"",   1.07615E+06,   1.05909E+06,   1.05909E+06
C:/temp/Job-8.odb,Step-1,Increment      1: Step Time =    1.000,"P-8-1",          1514,       161.525,       141.752,            0.,NA,NA,"",   1.08086E+06,   1.05873E+06,   1.05873E+06
C:/temp/Job-8.odb,Step-1,Increment      1: Step Time =    1.000,"P-8-1",          1515,       155.311,       40.8659,            0.,NA,NA,"",   1.09565E+06,   1.07360E+06,   1.07360E+06
C:/temp/Job-8.odb,Step-1,Increment      1: Step Time =    1.000,"P-8-1",          1516,       144.827,       38.0364,            0.,NA,NA,"",   1.11287E+06,   1.08987E+06,   1.08987E+06
C:/temp/Job-8.odb,Step-1,Increment      1: Step Time =    1.000,"P-8-1",          1517,       56.3414,       159.236,            0.,NA,NA,"",   1.13947E+06,   1.13001E+06,   1.13001E+06
C:/temp/Job-8.odb,Step-1,Increment      1: Step Time =    1.000,"P-8-1",          1518,       48.0785,       160.877,            0.,NA,NA,"",   1.11532E+06,   1.11495E+06,   1.11495E+06
C:/temp/Job-8.odb,Step-1,Increment      1: Step Time =    1.000,"P-8-1",          1519,       73.6016,       140.543,            0.,NA,NA,"",   1.25681E+06,   1.23296E+06,   1.23296E+06
C:/temp/Job-8.odb,Step-1,Increment      1: Step Time =    1.000,"P-8-1",          1520,       145.746,       125.748,            0.,NA,NA,"",   1.10397E+06,   1.04098E+06,   1.04098E+06
C:/temp/Job-8.odb,Step-1,Increment      1: Step Time =    1.000,"P-8-1",          1521,       78.3768,       43.2954,            0.,NA,NA,"",   1.14025E+06,   1.15103E+06,   1.15103E+06
C:/temp/Job-8.odb,Step-1,Increment      1: Step Time =    1.000,"P-8-1",          1522,       44.0407,       119.485,            0.,NA,NA,"",   827.213E+03,   865.414E+03,   865.414E+03
C:/temp/Job-8.odb,Step-1,Increment      1: Step Time =    1.000,"P-8-1",          1523,       163.142,       127.173,            0.,NA,NA,"",   1.01327E+06,   1.00394E+06,   1.00394E+06
C:/temp/Job-8.odb,Step-1,Increment      1: Step Time =    1.000,"P-8-1",          1524,       72.2041,       162.763,            0.,NA,NA,"",   1.12837E+06,   1.12848E+06,   1.12848E+06
C:/temp/Job-8.odb,Step-1,Increment      1: Step Time =    1.000,"P-8-1",          1525,       64.1816,       107.907,            0.,NA,NA,"",   610.711E+03,   599.074E+03,   599.074E+03
C:/temp/Job-8.odb,Step-1,Increment      1: Step Time =    1.000,"P-8-1",          1526,       66.7040,       145.944,            0.,NA,NA,"",   1.20490E+06,   1.18093E+06,   1.18093E+06
C:/temp/Job-8.odb,Step-1,Increment      1: Step Time =    1.000,"P-8-1",          1527,       148.285,       132.304,            0.,NA,NA,"",   1.13692E+06,   1.08068E+06,   1.08068E+06
C:/temp/Job-8.odb,Step-1,Increment      1: Step Time =    1.000,"P-8-1",          1528,       154.467,       56.1711,            0.,NA,NA,"",   1.12151E+06,   1.08620E+06,   1.08620E+06
C:/temp/Job-8.odb,Step-1,Increment      1: Step Time =    1.000,"P-8-1",          1529,       53.2085,       48.8161,            0.,NA,NA,"",   1.13263E+06,   1.12258E+06,   1.12258E+06
C:/temp/Job-8.odb,Step-1,Increment      1: Step Time =    1.000,"P-8-1",          1530,       57.0786,       120.075,            0.,NA,NA,"",   929.925E+03,   910.456E+03,   910.456E+03
C:/temp/Job-8.odb,Step-1,Increment      1: Step Time =    1.000,"P-8-1",          1531,       80.6906,       54.8087,            0.,NA,NA,"",   1.21139E+06,   1.22491E+06,   1.22491E+06
C:/temp/Job-8.odb,Step-1,Increment      1: Step Time =    1.000,"P-8-1",          1532,       144.745,       49.1353,            0.,NA,NA,"",   1.15976E+06,   1.12109E+06,   1.12109E+06
C:/temp/Job-8.odb,Step-1,Increment      1: Step Time =    1.000,"P-8-1",          1533,       139.401,       58.1651,            0.,NA,NA,"",   1.21999E+06,   1.16061E+06,   1.16061E+06
C:/temp/Job-8.odb,Step-1,Increment      1: Step Time =    1.000,"P-8-1",          1534,       56.2182,       60.0747,            0.,NA,NA,"",   1.13207E+06,   1.11058E+06,   1.11058E+06
C:/temp/Job-8.odb,Step-1,Increment      1: Step Time =    1.000,"P-8-1",          1535,       46.4631,       55.9081,            0.,NA,NA,"",   1.06862E+06,   1.07306E+06,   1.07306E+06
C:/temp/Job-8.odb,Step-1,Increment      1: Step Time =    1.000,"P-8-1",          1536,       164.155,       118.163,            0.,NA,NA,"",   944.798E+03,   952.388E+03,   952.388E+03
C:/temp/Job-8.odb,Step-1,Increment      1: Step Time =    1.000,"P-8-1",          1537,       79.3386,       166.771,            0.,NA,NA,"",   1.08797E+06,   1.09917E+06,   1.09917E+06
C:/temp/Job-8.odb,Step-1,Increment      1: Step Time =    1.000,"P-8-1",          1538,       69.9492,       143.292,            0.,NA,NA,"",   1.22900E+06,   1.20299E+06,   1.20299E+06
C:/temp/Job-8.odb,Step-1,Increment      1: Step Time =    1.000,"P-8-1",          1539,       144.153,       129.747,            0.,NA,NA,"",   1.15880E+06,   1.08825E+06,   1.08825E+06
C:/temp/Job-8.odb,Step-1,Increment      1: Step Time =    1.000,"P-8-1",          1540,       46.9516,       122.811,            0.,NA,NA,"",   887.977E+03,   909.986E+03,   909.986E+03
C:/temp/Job-8.odb,Step-1,Increment      1: Step Time =    1.000,"P-8-1",          1541,       75.2967,       47.6471,            0.,NA,NA,"",   1.17445E+06,   1.17527E+06,   1.17527E+06
C:/temp/Job-8.odb,Step-1,Increment      1: Step Time =    1.000,"P-8-1",          1542,       50.2460,       132.916,            0.,NA,NA,"",   1.03359E+06,   1.02872E+06,   1.02872E+06
C:/temp/Job-8.odb,Step-1,Increment      1: Step Time =    1.000,"P-8-1",          1543,       69.4274,       49.7881,            0.,NA,NA,"",   1.19359E+06,   1.17964E+06,   1.17964E+06
C:/temp/Job-8.odb,Step-1,Increment      1: Step Time =    1.000,"P-8-1",          1544,       71.2442,       45.5738,            0.,NA,NA,"",   1.16898E+06,   1.16328E+06,   1.16328E+06
C:/temp/Job-8.odb,Step-1,Increment      1: Step Time =    1.000,"P-8-1",          1545,       46.8524,       129.725,            0.,NA,NA,"",   968.376E+03,   979.933E+03,   979.933E+03
C:/temp/Job-8.odb,Step-1,Increment      1: Step Time =    1.000,"P-8-1",          1546,       68.2368,       54.0978,            0.,NA,NA,"",   1.21472E+06,   1.19079E+06,   1.19079E+06
C:/temp/Job-8.odb,Step-1,Increment      1: Step Time =    1.000,"P-8-1",          1547,       53.9120,       135.666,            0.,NA,NA,"",   1.09417E+06,   1.07597E+06,   1.07597E+06
C:/temp/Job-8.odb,Step-1,Increment      1: Step Time =    1.000,"P-8-1",          1548,       70.9861,       157.524,            0.,NA,NA,"",   1.15705E+06,   1.15198E+06,   1.15198E+06
C:/temp/Job-8.odb,Step-1,Increment      1: Step Time =    1.000,"P-8-1",          1549,       64.6342,       152.406,            0.,NA,NA,"",   1.17412E+06,   1.15784E+06,   1.15784E+06
C:/temp/Job-8.odb,Step-1,Increment      1: Step Time =    1.000,"P-8-1",          1550,       156.897,       132.234,            0.,NA,NA,"",   1.07534E+06,   1.04461E+06,   1.04461E+06
C:/temp/Job-8.odb,Step-1,Increment      1: Step Time =    1.000,"P-8-1",          1551,       64.5430,       143.552,            0.,NA,NA,"",   1.19992E+06,   1.17193E+06,   1.17193E+06
C:/temp/Job-8.odb,Step-1,Increment      1: Step Time =    1.000,"P-8-1",          1552,       142.545,       133.729,            0.,NA,NA,"",   1.19782E+06,   1.12576E+06,   1.12576E+06
C:/temp/Job-8.odb,Step-1,Increment      1: Step Time =    1.000,"P-8-1",          1553,       145.576,       46.1354,            0.,NA,NA,"",   1.14722E+06,   1.11281E+06,   1.11281E+06
C:/temp/Job-8.odb,Step-1,Increment      1: Step Time =    1.000,"P-8-1",          1554,       143.956,       56.9537,            0.,NA,NA,"",   1.18779E+06,   1.13479E+06,   1.13479E+06
C:/temp/Job-8.odb,Step-1,Increment      1: Step Time =    1.000,"P-8-1",          1555,       40.8239,       56.8928,            0.,NA,NA,"",   1.02381E+06,   1.04362E+06,   1.04362E+06
C:/temp/Job-8.odb,Step-1,Increment      1: Step Time =    1.000,"P-8-1",          1556,       57.3101,       55.2520,            0.,NA,NA,"",   1.15247E+06,   1.13195E+06,   1.13195E+06
C:/temp/Job-8.odb,Step-1,Increment      1: Step Time =    1.000,"P-8-1",          1557,       76.3217,       52.6934,            0.,NA,NA,"",   1.20544E+06,   1.20399E+06,   1.20399E+06
C:/temp/Job-8.odb,Step-1,Increment      1: Step Time =    1.000,"P-8-1",          1558,       138.421,       131.360,            0.,NA,NA,"",   1.23467E+06,   1.14727E+06,   1.14727E+06
C:/temp/Job-8.odb,Step-1,Increment      1: Step Time =    1.000,"P-8-1",          1559,       47.6765,       51.8247,            0.,NA,NA,"",   1.09330E+06,   1.09366E+06,   1.09366E+06
C:/temp/Job-8.odb,Step-1,Increment      1: Step Time =    1.000,"P-8-1",          1560,       150.290,       47.3331,            0.,NA,NA,"",   1.13187E+06,   1.09901E+06,   1.09901E+06
C:/temp/Job-8.odb,Step-1,Increment      1: Step Time =    1.000,"P-8-1",          1561,       151.123,       151.931,            0.,NA,NA,"",   1.12985E+06,   1.09703E+06,   1.09703E+06
C:/temp/Job-8.odb,Step-1,Increment      1: Step Time =    1.000,"P-8-1",          1562,       49.7138,       150.372,            0.,NA,NA,"",   1.10999E+06,   1.10682E+06,   1.10682E+06
C:/temp/Job-8.odb,Step-1,Increment      1: Step Time =    1.000,"P-8-1",          1563,       155.531,       45.9275,            0.,NA,NA,"",   1.10590E+06,   1.07993E+06,   1.07993E+06
C:/temp/Job-8.odb,Step-1,Increment      1: Step Time =    1.000,"P-8-1",          1564,       46.6138,       155.025,            0.,NA,NA,"",   1.10321E+06,   1.10554E+06,   1.10554E+06
C:/temp/Job-8.odb,Step-1,Increment      1: Step Time =    1.000,"P-8-1",          1565,       157.423,       152.265,            0.,NA,NA,"",   1.09978E+06,   1.07507E+06,   1.07507E+06
C:/temp/Job-8.odb,Step-1,Increment      1: Step Time =    1.000,"P-8-1",          1566,       43.5008,       50.4575,            0.,NA,NA,"",   1.07062E+06,   1.08085E+06,   1.08085E+06
C:/temp/Job-8.odb,Step-1,Increment      1: Step Time =    1.000,"P-8-1",          1567,       153.222,       146.265,            0.,NA,NA,"",   1.12846E+06,   1.09233E+06,   1.09233E+06
C:/temp/Job-8.odb,Step-1,Increment      1: Step Time =    1.000,"P-8-1",          1568,       54.1178,       149.378,            0.,NA,NA,"",   1.13323E+06,   1.12213E+06,   1.12213E+06
C:/temp/Job-8.odb,Step-1,Increment      1: Step Time =    1.000,"P-8-1",          1569,       139.896,       39.5670,            0.,NA,NA,"",   1.12732E+06,   1.10431E+06,   1.10431E+06
C:/temp/Job-8.odb,Step-1,Increment      1: Step Time =    1.000,"P-8-1",          1570,       34.9293,       60.3969,            0.,NA,NA,"",   962.973E+03,   1.00165E+06,   1.00165E+06
C:/temp/Job-8.odb,Step-1,Increment      1: Step Time =    1.000,"P-8-1",          1571,       144.707,       140.268,            0.,NA,NA,"",   1.18599E+06,   1.12915E+06,   1.12915E+06
C:/temp/Job-8.odb,Step-1,Increment      1: Step Time =    1.000,"P-8-1",          1572,       61.2225,       141.501,            0.,NA,NA,"",   1.18140E+06,   1.15151E+06,   1.15151E+06
C:/temp/Job-8.odb,Step-1,Increment      1: Step Time =    1.000,"P-8-1",          1573,       62.4377,       56.9733,            0.,NA,NA,"",   1.18852E+06,   1.15916E+06,   1.15916E+06
C:/temp/Job-8.odb,Step-1,Increment      1: Step Time =    1.000,"P-8-1",          1574,       57.6669,       138.492,            0.,NA,NA,"",   1.14538E+06,   1.11843E+06,   1.11843E+06
C:/temp/Job-8.odb,Step-1,Increment      1: Step Time =    1.000,"P-8-1",          1575,       160.399,       132.109,            0.,NA,NA,"",   1.05808E+06,   1.03582E+06,   1.03582E+06
C:/temp/Job-8.odb,Step-1,Increment      1: Step Time =    1.000,"P-8-1",          1576,       64.2803,       162.039,            0.,NA,NA,"",   1.13980E+06,   1.13154E+06,   1.13154E+06
C:/temp/Job-8.odb,Step-1,Increment      1: Step Time =    1.000,"P-8-1",          1577,       67.5295,       140.190,            0.,NA,NA,"",   1.22705E+06,   1.19197E+06,   1.19197E+06
C:/temp/Job-8.odb,Step-1,Increment      1: Step Time =    1.000,"P-8-1",          1578,       61.7349,       120.105,            0.,NA,NA,"",   999.513E+03,   947.313E+03,   947.313E+03
C:/temp/Job-8.odb,Step-1,Increment      1: Step Time =    1.000,"P-8-1",          1579,       76.9322,       55.9989,            0.,NA,NA,"",   1.23273E+06,   1.22876E+06,   1.22876E+06
C:/temp/Job-8.odb,Step-1,Increment      1: Step Time =    1.000,"P-8-1",          1580,       148.769,       143.337,            0.,NA,NA,"",   1.15500E+06,   1.10943E+06,   1.10943E+06
C:/temp/Job-8.odb,Step-1,Increment      1: Step Time =    1.000,"P-8-1",          1581,       58.5959,       146.798,            0.,NA,NA,"",   1.15979E+06,   1.14013E+06,   1.14013E+06
C:/temp/Job-8.odb,Step-1,Increment      1: Step Time =    1.000,"P-8-1",          1582,       35.8477,       65.5517,            0.,NA,NA,"",   934.063E+03,   974.613E+03,   974.613E+03
C:/temp/Job-8.odb,Step-1,Increment      1: Step Time =    1.000,"P-8-1",          1583,       67.4955,       58.6010,            0.,NA,NA,"",   1.22852E+06,   1.19343E+06,   1.19343E+06
C:/temp/Job-8.odb,Step-1,Increment      1: Step Time =    1.000,"P-8-1",          1584,       60.9825,       133.578,            0.,NA,NA,"",   1.16361E+06,   1.12171E+06,   1.12171E+06
C:/temp/Job-8.odb,Step-1,Increment      1: Step Time =    1.000,"P-8-1",          1585,       169.169,       131.232,            0.,NA,NA,"",   1.01366E+06,   1.01384E+06,   1.01384E+06
C:/temp/Job-8.odb,Step-1,Increment      1: Step Time =    1.000,"P-8-1",          1586,       66.8616,       164.336,            0.,NA,NA,"",   1.13063E+06,   1.12504E+06,   1.12504E+06
C:/temp/Job-8.odb,Step-1,Increment      1: Step Time =    1.000,"P-8-1",          1587,       160.952,       136.855,            0.,NA,NA,"",   1.07252E+06,   1.04983E+06,   1.04983E+06
C:/temp/Job-8.odb,Step-1,Increment      1: Step Time =    1.000,"P-8-1",          1588,       61.2907,       163.359,            0.,NA,NA,"",   1.13526E+06,   1.12690E+06,   1.12690E+06
C:/temp/Job-8.odb,Step-1,Increment      1: Step Time =    1.000,"P-8-1",          1589,       61.6291,       123.500,            0.,NA,NA,"",   1.06203E+06,   1.00824E+06,   1.00824E+06
C:/temp/Job-8.odb,Step-1,Increment      1: Step Time =    1.000,"P-8-1",          1590,       77.6688,       60.5975,            0.,NA,NA,"",   1.27482E+06,   1.26300E+06,   1.26300E+06
C:/temp/Job-8.odb,Step-1,Increment      1: Step Time =    1.000,"P-8-1",          1591,       142.384,       143.838,            0.,NA,NA,"",   1.19576E+06,   1.14282E+06,   1.14282E+06
C:/temp/Job-8.odb,Step-1,Increment      1: Step Time =    1.000,"P-8-1",          1592,       150.866,       139.181,            0.,NA,NA,"",   1.13922E+06,   1.09332E+06,   1.09332E+06
C:/temp/Job-8.odb,Step-1,Increment      1: Step Time =    1.000,"P-8-1",          1593,       54.7458,       142.865,            0.,NA,NA,"",   1.12954E+06,   1.11305E+06,   1.11305E+06
C:/temp/Job-8.odb,Step-1,Increment      1: Step Time =    1.000,"P-8-1",          1594,       135.326,       38.4314,            0.,NA,NA,"",   1.12300E+06,   1.10550E+06,   1.10550E+06
C:/temp/Job-8.odb,Step-1,Increment      1: Step Time =    1.000,"P-8-1",          1595,       40.4739,       69.2329,            0.,NA,NA,"",   931.980E+03,   962.995E+03,   962.995E+03
C:/temp/Job-8.odb,Step-1,Increment      1: Step Time =    1.000,"P-8-1",          1596,       72.6849,       55.4851,            0.,NA,NA,"",   1.23265E+06,   1.21469E+06,   1.21469E+06
C:/temp/Job-8.odb,Step-1,Increment      1: Step Time =    1.000,"P-8-1",          1597,       56.6727,       131.206,            0.,NA,NA,"",   1.09195E+06,   1.06268E+06,   1.06268E+06
C:/temp/Job-8.odb,Step-1,Increment      1: Step Time =    1.000,"P-8-1",          1598,       156.085,       142.033,            0.,NA,NA,"",   1.11085E+06,   1.07750E+06,   1.07750E+06
C:/temp/Job-8.odb,Step-1,Increment      1: Step Time =    1.000,"P-8-1",          1599,       59.8034,       152.980,            0.,NA,NA,"",   1.15767E+06,   1.14270E+06,   1.14270E+06
C:/temp/Job-8.odb,Step-1,Increment      1: Step Time =    1.000,"P-8-1",          1600,       64.7115,       132.525,            0.,NA,NA,"",   1.20976E+06,   1.15570E+06,   1.15570E+06
C:/temp/Job-8.odb,Step-1,Increment      1: Step Time =    1.000,"P-8-1",          1601,       130.530,       37.2368,            0.,NA,NA,"",   1.11166E+06,   1.10243E+06,   1.10243E+06
C:/temp/Job-8.odb,Step-1,Increment      1: Step Time =    1.000,"P-8-1",          1602,       32.9111,       69.7619,            0.,NA,NA,"",   883.104E+03,   935.143E+03,   935.143E+03
C:/temp/Job-8.odb,Step-1,Increment      1: Step Time =    1.000,"P-8-1",          1603,       126.095,       38.4317,            0.,NA,NA,"",   1.11154E+06,   1.10982E+06,   1.10982E+06
C:/temp/Job-8.odb,Step-1,Increment      1: Step Time =    1.000,"P-8-1",          1604,       37.1143,       72.7046,            0.,NA,NA,"",   881.031E+03,   925.701E+03,   925.701E+03
C:/temp/Job-8.odb,Step-1,Increment      1: Step Time =    1.000,"P-8-1",          1605,       121.990,       39.0343,            0.,NA,NA,"",   1.10478E+06,   1.11191E+06,   1.11191E+06
C:/temp/Job-8.odb,Step-1,Increment      1: Step Time =    1.000,"P-8-1",          1606,       34.6444,       76.4249,            0.,NA,NA,"",   835.437E+03,   890.402E+03,   890.402E+03
C:/temp/Job-8.odb,Step-1,Increment      1: Step Time =    1.000,"P-8-1",          1607,       122.427,       42.8288,            0.,NA,NA,"",   1.12941E+06,   1.13534E+06,   1.13534E+06
C:/temp/Job-8.odb,Step-1,Increment      1: Step Time =    1.000,"P-8-1",          1608,       37.9534,       78.0530,            0.,NA,NA,"",   833.206E+03,   882.744E+03,   882.744E+03
C:/temp/Job-8.odb,Step-1,Increment      1: Step Time =    1.000,"P-8-1",          1609,       119.511,       43.0388,            0.,NA,NA,"",   1.12069E+06,   1.13507E+06,   1.13507E+06
C:/temp/Job-8.odb,Step-1,Increment      1: Step Time =    1.000,"P-8-1",          1610,       43.6662,       80.6324,            0.,NA,NA,"",    829.23E+03,   867.221E+03,   867.221E+03
C:/temp/Job-8.odb,Step-1,Increment      1: Step Time =    1.000,"P-8-1",          1611,       33.1405,       81.2110,            0.,NA,NA,"",   787.161E+03,   851.161E+03,   851.161E+03
C:/temp/Job-8.odb,Step-1,Increment      1: Step Time =    1.000,"P-8-1",          1612,       121.089,       35.0825,            0.,NA,NA,"",   1.07907E+06,   1.08792E+06,   1.08792E+06
C:/temp/Job-8.odb,Step-1,Increment      1: Step Time =    1.000,"P-8-1",          1613,       56.9850,       69.3681,            0.,NA,NA,"",   1.08697E+06,   1.05849E+06,   1.05849E+06
C:/temp/Job-8.odb,Step-1,Increment      1: Step Time =    1.000,"P-8-1",          1614,       57.3428,       164.676,            0.,NA,NA,"",   1.12990E+06,   1.12240E+06,   1.12240E+06
C:/temp/Job-8.odb,Step-1,Increment      1: Step Time =    1.000,"P-8-1",          1615,       166.282,       140.878,            0.,NA,NA,"",   1.05621E+06,   1.04412E+06,   1.04412E+06
C:/temp/Job-8.odb,Step-1,Increment      1: Step Time =    1.000,"P-8-1",          1616,       139.127,       141.002,            0.,NA,NA,"",   1.22665E+06,   1.16555E+06,   1.16555E+06
C:/temp/Job-8.odb,Step-1,Increment      1: Step Time =    1.000,"P-8-1",          1617,       139.920,       61.6406,            0.,NA,NA,"",   1.22394E+06,   1.15677E+06,   1.15677E+06
C:/temp/Job-8.odb,Step-1,Increment      1: Step Time =    1.000,"P-8-1",          1618,       66.9077,       63.1239,            0.,NA,NA,"",   1.22956E+06,   1.18373E+06,   1.18373E+06
C:/temp/Job-8.odb,Step-1,Increment      1: Step Time =    1.000,"P-8-1",          1619,       150.524,       73.9984,            0.,NA,NA,"",   1.07105E+06,   1.02492E+06,   1.02492E+06
C:/temp/Job-8.odb,Step-1,Increment      1: Step Time =    1.000,"P-8-1",          1620,       123.020,       147.703,            0.,NA,NA,"",   1.20484E+06,   1.19957E+06,   1.19957E+06
C:/temp/Job-8.odb,Step-1,Increment      1: Step Time =    1.000,"P-8-1",          1621,       25.6867,       9.37628,            0.,NA,NA,"",   1.15040E+06,   1.15656E+06,   1.15656E+06
C:/temp/Job-8.odb,Step-1,Increment      1: Step Time =    1.000,"P-8-1",          1622,       9.96621,       173.774,            0.,NA,NA,"",   1.03216E+06,   1.11649E+06,   1.11649E+06
C:/temp/Job-8.odb,Step-1,Increment      1: Step Time =    1.000,"P-8-1",          1623,       189.848,       26.0669,            0.,NA,NA,"",   1.00128E+06,   1.00386E+06,   1.00386E+06
C:/temp/Job-8.odb,Step-1,Increment      1: Step Time =    1.000,"P-8-1",          1624,       174.174,       190.135,            0.,NA,NA,"",   1.00429E+06,   1.00388E+06,   1.00388E+06
C:/temp/Job-8.odb,Step-1,Increment      1: Step Time =    1.000,"P-8-1",          1625,       30.7103,       57.6380,            0.,NA,NA,"",   955.570E+03,   1.00270E+06,   1.00270E+06
C:/temp/Job-8.odb,Step-1,Increment      1: Step Time =    1.000,"P-8-1",          1626,       140.170,       35.7876,            0.,NA,NA,"",   1.10731E+06,   1.08876E+06,   1.08876E+06
C:/temp/Job-8.odb,Step-1,Increment      1: Step Time =    1.000,"P-8-1",          1627,       98.0801,       143.579,            0.,NA,NA,"",   1.11583E+06,   1.21061E+06,   1.21061E+06
C:/temp/Job-8.odb,Step-1,Increment      1: Step Time =    1.000,"P-8-1",          1628,       145.475,       101.971,            0.,NA,NA,"",   664.114E+03,   678.565E+03,   678.565E+03
C:/temp/Job-8.odb,Step-1,Increment      1: Step Time =    1.000,"P-8-1",          1629,       90.2455,       144.523,            0.,NA,NA,"",   1.16064E+06,   1.22502E+06,   1.22502E+06
C:/temp/Job-8.odb,Step-1,Increment      1: Step Time =    1.000,"P-8-1",          1630,       143.834,       109.094,            0.,NA,NA,"",   776.745E+03,   759.831E+03,   759.831E+03
C:/temp/Job-8.odb,Step-1,Increment      1: Step Time =    1.000,"P-8-1",          1631,       49.2516,       170.303,            0.,NA,NA,"",   1.11556E+06,   1.11371E+06,   1.11371E+06
C:/temp/Job-8.odb,Step-1,Increment      1: Step Time =    1.000,"P-8-1",          1632,       148.197,       31.6023,            0.,NA,NA,"",   1.07961E+06,   1.06356E+06,   1.06356E+06
C:/temp/Job-8.odb,Step-1,Increment      1: Step Time =    1.000,"P-8-1",          1633,       171.753,       147.500,            0.,NA,NA,"",   1.04124E+06,   1.03732E+06,   1.03732E+06
C:/temp/Job-8.odb,Step-1,Increment      1: Step Time =    1.000,"P-8-1",          1634,       29.2097,       50.6122,            0.,NA,NA,"",   990.037E+03,   1.03596E+06,   1.03596E+06
C:/temp/Job-8.odb,Step-1,Increment      1: Step Time =    1.000,"P-8-1",          1635,       115.209,       48.0407,            0.,NA,NA,"",   1.13062E+06,   1.15917E+06,   1.15917E+06
C:/temp/Job-8.odb,Step-1,Increment      1: Step Time =    1.000,"P-8-1",          1636,       46.7761,       85.8015,            0.,NA,NA,"",   764.669E+03,   805.425E+03,   805.425E+03
C:/temp/Job-8.odb,Step-1,Increment      1: Step Time =    1.000,"P-8-1",          1637,       39.0123,       114.264,            0.,NA,NA,"",   753.909E+03,   812.658E+03,   812.658E+03
C:/temp/Job-8.odb,Step-1,Increment      1: Step Time =    1.000,"P-8-1",          1638,       88.0046,       40.4377,            0.,NA,NA,"",   1.08185E+06,   1.11684E+06,   1.11684E+06
C:/temp/Job-8.odb,Step-1,Increment      1: Step Time =    1.000,"P-8-1",          1639,       190.579,       55.0866,            0.,NA,NA,"",   981.494E+03,   1.00574E+06,   1.00574E+06
C:/temp/Job-8.odb,Step-1,Increment      1: Step Time =    1.000,"P-8-1",          1640,       55.0875,       9.83170,            0.,NA,NA,"",   1.05028E+06,   1.04899E+06,   1.04899E+06
C:/temp/Job-8.odb,Step-1,Increment      1: Step Time =    1.000,"P-8-1",          1641,       144.613,       189.900,            0.,NA,NA,"",   997.842E+03,   995.590E+03,   995.590E+03
C:/temp/Job-8.odb,Step-1,Increment      1: Step Time =    1.000,"P-8-1",          1642,       9.40343,       145.211,            0.,NA,NA,"",   863.794E+03,   956.328E+03,   956.328E+03
C:/temp/Job-8.odb,Step-1,Increment      1: Step Time =    1.000,"P-8-1",          1643,       5.17507,       5.07680,            0.,NA,NA,"",   1.41067E+06,   1.46397E+06,   1.46397E+06
C:/temp/Job-8.odb,Step-1,Increment      1: Step Time =    1.000,"P-8-1",          1644,       88.5539,       120.465,            0.,NA,NA,"",   1.63919E+06,   1.67850E+06,   1.67850E+06
C:/temp/Job-8.odb,Step-1,Increment      1: Step Time =    1.000,"P-8-1",          1645,       77.9086,       105.603,            0.,NA,NA,"",   529.771E+03,  -192.242E+03,  -192.242E+03
C:/temp/Job-8.odb,Step-1,Increment      1: Step Time =    1.000,"P-8-1",          1646,       123.056,       106.529,            0.,NA,NA,"",   633.159E+03,  -33.6387E+03,  -33.6387E+03
C:/temp/Job-8.odb,Step-1,Increment      1: Step Time =    1.000,"P-8-1",          1647,       106.427,       76.8964,            0.,NA,NA,"",   1.88930E+06,   1.99345E+06,   1.99345E+06
C:/temp/Job-8.odb,Step-1,Increment      1: Step Time =    1.000,"P-8-1",          1648,       190.868,       148.567,            0.,NA,NA,"",   984.984E+03,   1.00535E+06,   1.00535E+06
C:/temp/Job-8.odb,Step-1,Increment      1: Step Time =    1.000,"P-8-1",          1649,       51.2028,       191.495,            0.,NA,NA,"",   1.05601E+06,   1.05533E+06,   1.05533E+06
C:/temp/Job-8.odb,Step-1,Increment      1: Step Time =    1.000,"P-8-1",          1650,       74.6780,       106.161,            0.,NA,NA,"",   537.797E+03,   212.676E+03,   212.676E+03
C:/temp/Job-8.odb,Step-1,Increment      1: Step Time =    1.000,"P-8-1",          1651,       72.3626,       113.476,            0.,NA,NA,"",   915.316E+03,   776.762E+03,   776.762E+03
C:/temp/Job-8.odb,Step-1,Increment      1: Step Time =    1.000,"P-8-1",          1652,       74.9590,       119.314,            0.,NA,NA,"",   1.22607E+06,   1.09410E+06,   1.09410E+06
C:/temp/Job-8.odb,Step-1,Increment      1: Step Time =    1.000,"P-8-1",          1653,       121.557,       82.6608,            0.,NA,NA,"",   1.34195E+06,   1.15101E+06,   1.15101E+06
C:/temp/Job-8.odb,Step-1,Increment      1: Step Time =    1.000,"P-8-1",          1654,       116.096,       122.812,            0.,NA,NA,"",   1.52497E+06,   1.47943E+06,   1.47943E+06
C:/temp/Job-8.odb,Step-1,Increment      1: Step Time =    1.000,"P-8-1",          1655,       112.410,       123.952,            0.,NA,NA,"",   1.55764E+06,   1.58997E+06,   1.58997E+06
C:/temp/Job-8.odb,Step-1,Increment      1: Step Time =    1.000,"P-8-1",          1656,       127.185,       103.426,            0.,NA,NA,"",   384.025E+03,   180.145E+03,   180.145E+03
C:/temp/Job-8.odb,Step-1,Increment      1: Step Time =    1.000,"P-8-1",          1657,       104.425,       72.4631,            0.,NA,NA,"",   1.46539E+06,   1.60977E+06,   1.60977E+06
C:/temp/Job-8.odb,Step-1,Increment      1: Step Time =    1.000,"P-8-1",          1658,       173.458,       14.5790,            0.,NA,NA,"",   1.00893E+06,   1.00790E+06,   1.00790E+06
C:/temp/Job-8.odb,Step-1,Increment      1: Step Time =    1.000,"P-8-1",          1659,       168.417,       14.4706,            0.,NA,NA,"",   1.01149E+06,   1.00958E+06,   1.00958E+06
C:/temp/Job-8.odb,Step-1,Increment      1: Step Time =    1.000,"P-8-1",          1660,       185.567,       174.570,            0.,NA,NA,"",   1.00481E+06,   1.00681E+06,   1.00681E+06
C:/temp/Job-8.odb,Step-1,Increment      1: Step Time =    1.000,"P-8-1",          1661,       185.348,       169.849,            0.,NA,NA,"",   1.00548E+06,   1.00861E+06,   1.00861E+06
C:/temp/Job-8.odb,Step-1,Increment      1: Step Time =    1.000,"P-8-1",          1662,       69.3891,       122.049,            0.,NA,NA,"",   1.18272E+06,   1.08166E+06,   1.08166E+06
C:/temp/Job-8.odb,Step-1,Increment      1: Step Time =    1.000,"P-8-1",          1663,       61.1904,       96.4932,            0.,NA,NA,"",   487.765E+03,   517.945E+03,   517.945E+03
C:/temp/Job-8.odb,Step-1,Increment      1: Step Time =    1.000,"P-8-1",          1664,       138.256,       92.7476,            0.,NA,NA,"",   688.445E+03,   654.804E+03,   654.804E+03
C:/temp/Job-8.odb,Step-1,Increment      1: Step Time =    1.000,"P-8-1",          1665,       68.8733,       83.8671,            0.,NA,NA,"",   1.00857E+06,   905.436E+03,   905.436E+03
C:/temp/Job-8.odb,Step-1,Increment      1: Step Time =    1.000,"P-8-1",          1666,       66.9261,       116.800,            0.,NA,NA,"",   980.037E+03,   893.983E+03,   893.983E+03
C:/temp/Job-8.odb,Step-1,Increment      1: Step Time =    1.000,"P-8-1",          1667,       43.8441,       182.458,            0.,NA,NA,"",   1.10028E+06,   1.10062E+06,   1.10062E+06
C:/temp/Job-8.odb,Step-1,Increment      1: Step Time =    1.000,"P-8-1",          1668,       137.048,       104.742,            0.,NA,NA,"",   587.657E+03,   569.356E+03,   569.356E+03
C:/temp/Job-8.odb,Step-1,Increment      1: Step Time =    1.000,"P-8-1",          1669,       113.568,       127.086,            0.,NA,NA,"",   1.47846E+06,   1.50357E+06,   1.50357E+06
C:/temp/Job-8.odb,Step-1,Increment      1: Step Time =    1.000,"P-8-1",          1670,       129.330,       84.0370,            0.,NA,NA,"",   1.13480E+06,   974.221E+03,   974.221E+03
C:/temp/Job-8.odb,Step-1,Increment      1: Step Time =    1.000,"P-8-1",          1671,       134.517,       83.6785,            0.,NA,NA,"",   1.04977E+06,   933.032E+03,   933.032E+03
C:/temp/Job-8.odb,Step-1,Increment      1: Step Time =    1.000,"P-8-1",          1672,       144.959,       92.2991,            0.,NA,NA,"",   749.393E+03,   742.278E+03,   742.278E+03
C:/temp/Job-8.odb,Step-1,Increment      1: Step Time =    1.000,"P-8-1",          1673,       115.048,       132.607,            0.,NA,NA,"",   1.36038E+06,   1.38198E+06,   1.38198E+06
C:/temp/Job-8.odb,Step-1,Increment      1: Step Time =    1.000,"P-8-1",          1674,       134.316,       129.341,            0.,NA,NA,"",   1.28021E+06,   1.17665E+06,   1.17665E+06
C:/temp/Job-8.odb,Step-1,Increment      1: Step Time =    1.000,"P-8-1",          1675,       13.4733,       53.3703,            0.,NA,NA,"",   889.580E+03,   974.546E+03,   974.546E+03
C:/temp/Job-8.odb,Step-1,Increment      1: Step Time =    1.000,"P-8-1",          1676,       178.633,       162.396,            0.,NA,NA,"",   1.01994E+06,   1.02092E+06,   1.02092E+06
C:/temp/Job-8.odb,Step-1,Increment      1: Step Time =    1.000,"P-8-1",          1677,       176.882,       158.898,            0.,NA,NA,"",   1.02495E+06,   1.02521E+06,   1.02521E+06
C:/temp/Job-8.odb,Step-1,Increment      1: Step Time =    1.000,"P-8-1",          1678,       64.3600,       124.660,            0.,NA,NA,"",   1.12675E+06,   1.05912E+06,   1.05912E+06
C:/temp/Job-8.odb,Step-1,Increment      1: Step Time =    1.000,"P-8-1",          1679,       74.0516,       129.842,            0.,NA,NA,"",   1.32949E+06,   1.25978E+06,   1.25978E+06
C:/temp/Job-8.odb,Step-1,Increment      1: Step Time =    1.000,"P-8-1",          1680,       63.9424,       104.689,            0.,NA,NA,"",   505.238E+03,   515.259E+03,   515.259E+03
C:/temp/Job-8.odb,Step-1,Increment      1: Step Time =    1.000,"P-8-1",          1681,       90.6253,       57.2777,            0.,NA,NA,"",   1.17072E+06,   1.23912E+06,   1.23912E+06
C:/temp/Job-8.odb,Step-1,Increment      1: Step Time =    1.000,"P-8-1",          1682,       63.7519,       111.908,            0.,NA,NA,"",   753.170E+03,   719.813E+03,   719.813E+03
C:/temp/Job-8.odb,Step-1,Increment      1: Step Time =    1.000,"P-8-1",          1683,       18.0314,       179.907,            0.,NA,NA,"",   1.13317E+06,   1.17675E+06,   1.17675E+06
C:/temp/Job-8.odb,Step-1,Increment      1: Step Time =    1.000,"P-8-1",          1684,       17.8487,       43.9455,            0.,NA,NA,"",   962.108E+03,   1.03465E+06,   1.03465E+06
C:/temp/Job-8.odb,Step-1,Increment      1: Step Time =    1.000,"P-8-1",          1685,       183.302,       146.500,            0.,NA,NA,"",   1.00135E+06,   1.01510E+06,   1.01510E+06
C:/temp/Job-8.odb,Step-1,Increment      1: Step Time =    1.000,"P-8-1",          1686,       137.539,       80.5907,            0.,NA,NA,"",   1.08870E+06,   988.691E+03,   988.691E+03
C:/temp/Job-8.odb,Step-1,Increment      1: Step Time =    1.000,"P-8-1",          1687,       137.709,       74.6406,            0.,NA,NA,"",   1.19669E+06,   1.09666E+06,   1.09666E+06
C:/temp/Job-8.odb,Step-1,Increment      1: Step Time =    1.000,"P-8-1",          1688,       175.476,       156.118,            0.,NA,NA,"",   1.02917E+06,   1.02859E+06,   1.02859E+06
C:/temp/Job-8.odb,Step-1,Increment      1: Step Time =    1.000,"P-8-1",          1689,       181.741,       139.039,            0.,NA,NA,"",   995.041E+03,   1.01339E+06,   1.01339E+06
C:/temp/Job-8.odb,Step-1,Increment      1: Step Time =    1.000,"P-8-1",          1690,       181.813,       134.580,            0.,NA,NA,"",   986.710E+03,   1.00941E+06,   1.00941E+06
C:/temp/Job-8.odb,Step-1,Increment      1: Step Time =    1.000,"P-8-1",          1691,       144.122,       86.2252,            0.,NA,NA,"",   900.045E+03,   858.840E+03,   858.840E+03
C:/temp/Job-8.odb,Step-1,Increment      1: Step Time =    1.000,"P-8-1",          1692,       71.3323,       69.2211,            0.,NA,NA,"",   1.27787E+06,   1.21124E+06,   1.21124E+06
C:/temp/Job-8.odb,Step-1,Increment      1: Step Time =    1.000,"P-8-1",          1693,       72.1090,       64.5887,            0.,NA,NA,"",   1.28361E+06,   1.23444E+06,   1.23444E+06
C:/temp/Job-8.odb,Step-1,Increment      1: Step Time =    1.000,"P-8-1",          1694,       125.696,       57.0721,            0.,NA,NA,"",   1.25823E+06,   1.22991E+06,   1.22991E+06
C:/temp/Job-8.odb,Step-1,Increment      1: Step Time =    1.000,"P-8-1",          1695,       119.119,       137.402,            0.,NA,NA,"",   1.29899E+06,   1.29407E+06,   1.29407E+06
C:/temp/Job-8.odb,Step-1,Increment      1: Step Time =    1.000,"P-8-1",          1696,       141.264,       123.287,            0.,NA,NA,"",   1.11362E+06,   1.03202E+06,   1.03202E+06
C:/temp/Job-8.odb,Step-1,Increment      1: Step Time =    1.000,"P-8-1",          1697,       139.854,       127.315,            0.,NA,NA,"",   1.18710E+06,   1.09772E+06,   1.09772E+06
C:/temp/Job-8.odb,Step-1,Increment      1: Step Time =    1.000,"P-8-1",          1698,       144.306,       117.139,            0.,NA,NA,"",   969.862E+03,   917.462E+03,   917.462E+03
C:/temp/Job-8.odb,Step-1,Increment      1: Step Time =    1.000,"P-8-1",          1699,       136.946,       135.318,            0.,NA,NA,"",   1.25639E+06,   1.17743E+06,   1.17743E+06
C:/temp/Job-8.odb,Step-1,Increment      1: Step Time =    1.000,"P-8-1",          1700,       175.568,       148.817,            0.,NA,NA,"",   1.02793E+06,   1.02948E+06,   1.02948E+06
C:/temp/Job-8.odb,Step-1,Increment      1: Step Time =    1.000,"P-8-1",          1701,       47.2536,       182.473,            0.,NA,NA,"",   1.09275E+06,   1.09168E+06,   1.09168E+06
C:/temp/Job-8.odb,Step-1,Increment      1: Step Time =    1.000,"P-8-1",          1702,       51.6115,       184.051,            0.,NA,NA,"",   1.08216E+06,   1.08021E+06,   1.08021E+06
C:/temp/Job-8.odb,Step-1,Increment      1: Step Time =    1.000,"P-8-1",          1703,       59.7272,       182.286,            0.,NA,NA,"",   1.06996E+06,   1.06712E+06,   1.06712E+06
C:/temp/Job-8.odb,Step-1,Increment      1: Step Time =    1.000,"P-8-1",          1704,       63.9155,       182.110,            0.,NA,NA,"",   1.06101E+06,   1.05856E+06,   1.05856E+06
C:/temp/Job-8.odb,Step-1,Increment      1: Step Time =    1.000,"P-8-1",          1705,       58.5843,       125.826,            0.,NA,NA,"",   1.05496E+06,   1.01807E+06,   1.01807E+06
C:/temp/Job-8.odb,Step-1,Increment      1: Step Time =    1.000,"P-8-1",          1706,       180.994,       28.9080,            0.,NA,NA,"",   1.01165E+06,   1.01264E+06,   1.01264E+06
C:/temp/Job-8.odb,Step-1,Increment      1: Step Time =    1.000,"P-8-1",          1707,       172.068,       23.0985,            0.,NA,NA,"",   1.01974E+06,   1.01718E+06,   1.01718E+06
C:/temp/Job-8.odb,Step-1,Increment      1: Step Time =    1.000,"P-8-1",          1708,       181.132,       54.8302,            0.,NA,NA,"",   1.00636E+06,   1.01827E+06,   1.01827E+06
C:/temp/Job-8.odb,Step-1,Increment      1: Step Time =    1.000,"P-8-1",          1709,       20.4194,       29.4306,            0.,NA,NA,"",   1.06502E+06,   1.11667E+06,   1.11667E+06
C:/temp/Job-8.odb,Step-1,Increment      1: Step Time =    1.000,"P-8-1",          1710,       20.2476,       36.8803,            0.,NA,NA,"",   1.01891E+06,   1.07852E+06,   1.07852E+06
C:/temp/Job-8.odb,Step-1,Increment      1: Step Time =    1.000,"P-8-1",          1711,       172.099,       182.037,            0.,NA,NA,"",   1.01290E+06,   1.01138E+06,   1.01138E+06
C:/temp/Job-8.odb,Step-1,Increment      1: Step Time =    1.000,"P-8-1",          1712,       177.442,       174.091,            0.,NA,NA,"",   1.01532E+06,   1.01467E+06,   1.01467E+06
C:/temp/Job-8.odb,Step-1,Increment      1: Step Time =    1.000,"P-8-1",          1713,       174.356,       163.467,            0.,NA,NA,"",   1.03014E+06,   1.02740E+06,   1.02740E+06
C:/temp/Job-8.odb,Step-1,Increment      1: Step Time =    1.000,"P-8-1",          1714,       143.773,       179.639,            0.,NA,NA,"",   1.03476E+06,   1.02755E+06,   1.02755E+06
C:/temp/Job-8.odb,Step-1,Increment      1: Step Time =    1.000,"P-8-1",          1715,       20.6821,       48.2842,            0.,NA,NA,"",    954.53E+03,   1.02121E+06,   1.02121E+06
C:/temp/Job-8.odb,Step-1,Increment      1: Step Time =    1.000,"P-8-1",          1716,       17.7498,       55.1009,            0.,NA,NA,"",   900.923E+03,   977.441E+03,   977.441E+03
C:/temp/Job-8.odb,Step-1,Increment      1: Step Time =    1.000,"P-8-1",          1717,       59.6928,       111.467,            0.,NA,NA,"",   724.526E+03,   723.210E+03,   723.210E+03
C:/temp/Job-8.odb,Step-1,Increment      1: Step Time =    1.000,"P-8-1",          1718,       138.760,       68.9875,            0.,NA,NA,"",   1.22614E+06,   1.14054E+06,   1.14054E+06
C:/temp/Job-8.odb,Step-1,Increment      1: Step Time =    1.000,"P-8-1",          1719,       134.906,       59.3243,            0.,NA,NA,"",   1.25572E+06,   1.19255E+06,   1.19255E+06
C:/temp/Job-8.odb,Step-1,Increment      1: Step Time =    1.000,"P-8-1",          1720,       65.2911,       71.4799,            0.,NA,NA,"",   1.17904E+06,   1.11681E+06,   1.11681E+06
C:/temp/Job-8.odb,Step-1,Increment      1: Step Time =    1.000,"P-8-1",          1721,       92.6473,       53.0689,            0.,NA,NA,"",   1.12033E+06,   1.18724E+06,   1.18724E+06
C:/temp/Job-8.odb,Step-1,Increment      1: Step Time =    1.000,"P-8-1",          1722,       119.244,       145.298,            0.,NA,NA,"",   1.21079E+06,   1.22119E+06,   1.22119E+06
C:/temp/Job-8.odb,Step-1,Increment      1: Step Time =    1.000,"P-8-1",          1723,       97.6557,       48.5323,            0.,NA,NA,"",   1.07848E+06,   1.14512E+06,   1.14512E+06
C:/temp/Job-8.odb,Step-1,Increment      1: Step Time =    1.000,"P-8-1",          1724,       47.6939,       178.585,            0.,NA,NA,"",   1.10203E+06,   1.10091E+06,   1.10091E+06
C:/temp/Job-8.odb,Step-1,Increment      1: Step Time =    1.000,"P-8-1",          1725,       150.155,       15.6179,            0.,NA,NA,"",   1.01710E+06,   1.01263E+06,   1.01263E+06
C:/temp/Job-8.odb,Step-1,Increment      1: Step Time =    1.000,"P-8-1",          1726,       177.919,       114.264,            0.,NA,NA,"",   932.505E+03,   970.312E+03,   970.312E+03
C:/temp/Job-8.odb,Step-1,Increment      1: Step Time =    1.000,"P-8-1",          1727,       84.2911,       175.341,            0.,NA,NA,"",   1.03539E+06,   1.04754E+06,   1.04754E+06
C:/temp/Job-8.odb,Step-1,Increment      1: Step Time =    1.000,"P-8-1",          1728,       56.1480,       107.411,            0.,NA,NA,"",   633.295E+03,   665.127E+03,   665.127E+03
C:/temp/Job-8.odb,Step-1,Increment      1: Step Time =    1.000,"P-8-1",          1729,       147.775,       117.555,            0.,NA,NA,"",   964.796E+03,   925.983E+03,   925.983E+03
C:/temp/Job-8.odb,Step-1,Increment      1: Step Time =    1.000,"P-8-1",          1730,       16.1718,       62.4117,            0.,NA,NA,"",   853.191E+03,   935.266E+03,   935.266E+03
C:/temp/Job-8.odb,Step-1,Increment      1: Step Time =    1.000,"P-8-1",          1731,       16.1094,       66.1833,            0.,NA,NA,"",   832.753E+03,   915.808E+03,   915.808E+03
C:/temp/Job-8.odb,Step-1,Increment      1: Step Time =    1.000,"P-8-1",          1732,       24.7382,       23.7214,            0.,NA,NA,"",   1.10960E+06,   1.14153E+06,   1.14153E+06
C:/temp/Job-8.odb,Step-1,Increment      1: Step Time =    1.000,"P-8-1",          1733,       144.183,       74.3396,            0.,NA,NA,"",   1.12289E+06,   1.05190E+06,   1.05190E+06
C:/temp/Job-8.odb,Step-1,Increment      1: Step Time =    1.000,"P-8-1",          1734,       71.3854,       132.308,            0.,NA,NA,"",   1.29220E+06,   1.23250E+06,   1.23250E+06
C:/temp/Job-8.odb,Step-1,Increment      1: Step Time =    1.000,"P-8-1",          1735,       55.2028,       19.7420,            0.,NA,NA,"",   1.08694E+06,   1.08357E+06,   1.08357E+06
C:/temp/Job-8.odb,Step-1,Increment      1: Step Time =    1.000,"P-8-1",          1736,       153.736,       88.3640,            0.,NA,NA,"",   861.471E+03,   861.601E+03,   861.601E+03
C:/temp/Job-8.odb,Step-1,Increment      1: Step Time =    1.000,"P-8-1",          1737,       50.2347,       181.921,            0.,NA,NA,"",   1.08915E+06,   1.08731E+06,   1.08731E+06
C:/temp/Job-8.odb,Step-1,Increment      1: Step Time =    1.000,"P-8-1",          1738,       93.1005,       43.9316,            0.,NA,NA,"",   1.07436E+06,   1.12451E+06,   1.12451E+06
C:/temp/Job-8.odb,Step-1,Increment      1: Step Time =    1.000,"P-8-1",          1739,       25.6277,       50.4547,            0.,NA,NA,"",   968.402E+03,   1.02398E+06,   1.02398E+06
C:/temp/Job-8.odb,Step-1,Increment      1: Step Time =    1.000,"P-8-1",          1740,       21.6265,       57.0160,            0.,NA,NA,"",   908.686E+03,   977.798E+03,   977.798E+03
C:/temp/Job-8.odb,Step-1,Increment      1: Step Time =    1.000,"P-8-1",          1741,       20.5459,       60.2490,            0.,NA,NA,"",   884.163E+03,   957.255E+03,   957.255E+03
C:/temp/Job-8.odb,Step-1,Increment      1: Step Time =    1.000,"P-8-1",          1742,       18.6489,       170.880,            0.,NA,NA,"",   1.05769E+06,   1.11522E+06,   1.11522E+06
C:/temp/Job-8.odb,Step-1,Increment      1: Step Time =    1.000,"P-8-1",          1743,       19.0225,       145.768,            0.,NA,NA,"",   913.051E+03,   986.365E+03,   986.365E+03
C:/temp/Job-8.odb,Step-1,Increment      1: Step Time =    1.000,"P-8-1",          1744,       24.5213,       36.8690,            0.,NA,NA,"",   1.04092E+06,   1.08821E+06,   1.08821E+06
C:/temp/Job-8.odb,Step-1,Increment      1: Step Time =    1.000,"P-8-1",          1745,       177.131,       121.796,            0.,NA,NA,"",   957.848E+03,   985.708E+03,   985.708E+03
C:/temp/Job-8.odb,Step-1,Increment      1: Step Time =    1.000,"P-8-1",          1746,       171.436,       168.179,            0.,NA,NA,"",   1.03230E+06,   1.02781E+06,   1.02781E+06
C:/temp/Job-8.odb,Step-1,Increment      1: Step Time =    1.000,"P-8-1",          1747,       173.100,       178.116,            0.,NA,NA,"",   1.01656E+06,   1.01473E+06,   1.01473E+06
C:/temp/Job-8.odb,Step-1,Increment      1: Step Time =    1.000,"P-8-1",          1748,       168.834,       160.535,            0.,NA,NA,"",   1.04856E+06,   1.04031E+06,   1.04031E+06
C:/temp/Job-8.odb,Step-1,Increment      1: Step Time =    1.000,"P-8-1",          1749,       77.6813,       175.850,            0.,NA,NA,"",   1.05424E+06,   1.05998E+06,   1.05998E+06
C:/temp/Job-8.odb,Step-1,Increment      1: Step Time =    1.000,"P-8-1",          1750,       66.5392,       177.114,            0.,NA,NA,"",   1.07577E+06,   1.07348E+06,   1.07348E+06
C:/temp/Job-8.odb,Step-1,Increment      1: Step Time =    1.000,"P-8-1",          1751,       71.7724,       172.197,            0.,NA,NA,"",   1.08593E+06,   1.08669E+06,   1.08669E+06
C:/temp/Job-8.odb,Step-1,Increment      1: Step Time =    1.000,"P-8-1",          1752,       60.1548,       177.966,            0.,NA,NA,"",   1.08536E+06,   1.08176E+06,   1.08176E+06
C:/temp/Job-8.odb,Step-1,Increment      1: Step Time =    1.000,"P-8-1",          1753,       176.341,       28.1045,            0.,NA,NA,"",   1.01775E+06,   1.01693E+06,   1.01693E+06
C:/temp/Job-8.odb,Step-1,Increment      1: Step Time =    1.000,"P-8-1",          1754,       144.856,       68.3831,            0.,NA,NA,"",   1.16639E+06,   1.09922E+06,   1.09922E+06
C:/temp/Job-8.odb,Step-1,Increment      1: Step Time =    1.000,"P-8-1",          1755,       59.3272,       76.3294,            0.,NA,NA,"",   1.03798E+06,   998.674E+03,   998.674E+03
C:/temp/Job-8.odb,Step-1,Increment      1: Step Time =    1.000,"P-8-1",          1756,       140.869,       137.564,            0.,NA,NA,"",   1.21900E+06,   1.15097E+06,   1.15097E+06
C:/temp/Job-8.odb,Step-1,Increment      1: Step Time =    1.000,"P-8-1",          1757,       53.5216,       170.512,            0.,NA,NA,"",   1.11552E+06,   1.11108E+06,   1.11108E+06
C:/temp/Job-8.odb,Step-1,Increment      1: Step Time =    1.000,"P-8-1",          1758,       33.7873,       170.806,            0.,NA,NA,"",   1.09783E+06,   1.11700E+06,   1.11700E+06
C:/temp/Job-8.odb,Step-1,Increment      1: Step Time =    1.000,"P-8-1",          1759,       40.0048,       165.046,            0.,NA,NA,"",   1.09867E+06,   1.11006E+06,   1.11006E+06
C:/temp/Job-8.odb,Step-1,Increment      1: Step Time =    1.000,"P-8-1",          1760,       118.683,       155.338,            0.,NA,NA,"",   1.12555E+06,   1.14179E+06,   1.14179E+06
C:/temp/Job-8.odb,Step-1,Increment      1: Step Time =    1.000,"P-8-1",          1761,       113.120,       52.6316,            0.,NA,NA,"",   1.15249E+06,   1.19538E+06,   1.19538E+06
C:/temp/Job-8.odb,Step-1,Increment      1: Step Time =    1.000,"P-8-1",          1762,       138.625,       54.5105,            0.,NA,NA,"",   1.21025E+06,   1.15973E+06,   1.15973E+06
C:/temp/Job-8.odb,Step-1,Increment      1: Step Time =    1.000,"P-8-1",          1763,       77.4297,       138.572,            0.,NA,NA,"",   1.28066E+06,   1.26519E+06,   1.26519E+06
C:/temp/Job-8.odb,Step-1,Increment      1: Step Time =    1.000,"P-8-1",          1764,       154.901,       93.9068,            0.,NA,NA,"",   798.289E+03,   815.536E+03,   815.536E+03
C:/temp/Job-8.odb,Step-1,Increment      1: Step Time =    1.000,"P-8-1",          1765,       54.9575,       125.834,            0.,NA,NA,"",   1.00246E+06,   985.187E+03,   985.187E+03
C:/temp/Job-8.odb,Step-1,Increment      1: Step Time =    1.000,"P-8-1",          1766,       55.9301,       114.393,            0.,NA,NA,"",   787.493E+03,   794.876E+03,   794.876E+03
C:/temp/Job-8.odb,Step-1,Increment      1: Step Time =    1.000,"P-8-1",          1767,       23.2645,       172.963,            0.,NA,NA,"",   1.09119E+06,   1.13049E+06,   1.13049E+06
C:/temp/Job-8.odb,Step-1,Increment      1: Step Time =    1.000,"P-8-1",          1768,       171.415,       179.552,            0.,NA,NA,"",   1.01651E+06,   1.01441E+06,   1.01441E+06
C:/temp/Job-8.odb,Step-1,Increment      1: Step Time =    1.000,"P-8-1",          1769,       86.9178,       146.788,            0.,NA,NA,"",   1.16668E+06,   1.21139E+06,   1.21139E+06
C:/temp/Job-8.odb,Step-1,Increment      1: Step Time =    1.000,"P-8-1",          1770,       22.5203,       169.517,            0.,NA,NA,"",   1.06477E+06,   1.11175E+06,   1.11175E+06
C:/temp/Job-8.odb,Step-1,Increment      1: Step Time =    1.000,"P-8-1",          1771,       177.887,       29.9927,            0.,NA,NA,"",   1.01686E+06,   1.01663E+06,   1.01663E+06
C:/temp/Job-8.odb,Step-1,Increment      1: Step Time =    1.000,"P-8-1",          1772,       170.460,       150.333,            0.,NA,NA,"",   1.04603E+06,   1.04021E+06,   1.04021E+06
C:/temp/Job-8.odb,Step-1,Increment      1: Step Time =    1.000,"P-8-1",          1773,       153.310,       82.6219,            0.,NA,NA,"",   946.337E+03,   927.791E+03,   927.791E+03
C:/temp/Job-8.odb,Step-1,Increment      1: Step Time =    1.000,"P-8-1",          1774,       19.4078,       66.3192,            0.,NA,NA,"",   844.967E+03,   922.628E+03,   922.628E+03
C:/temp/Job-8.odb,Step-1,Increment      1: Step Time =    1.000,"P-8-1",          1775,       19.9696,       69.0135,            0.,NA,NA,"",   830.551E+03,   908.136E+03,   908.136E+03
C:/temp/Job-8.odb,Step-1,Increment      1: Step Time =    1.000,"P-8-1",          1776,       21.4602,       71.6015,            0.,NA,NA,"",   820.035E+03,   896.916E+03,   896.916E+03
C:/temp/Job-8.odb,Step-1,Increment      1: Step Time =    1.000,"P-8-1",          1777,       130.485,       141.917,            0.,NA,NA,"",   1.26325E+06,   1.21354E+06,   1.21354E+06
C:/temp/Job-8.odb,Step-1,Increment      1: Step Time =    1.000,"P-8-1",          1778,       156.921,       99.1612,            0.,NA,NA,"",   792.059E+03,   816.490E+03,   816.490E+03
C:/temp/Job-8.odb,Step-1,Increment      1: Step Time =    1.000,"P-8-1",          1779,       159.737,       88.1116,            0.,NA,NA,"",   881.067E+03,   892.445E+03,   892.445E+03
C:/temp/Job-8.odb,Step-1,Increment      1: Step Time =    1.000,"P-8-1",          1780,       81.3155,       146.600,            0.,NA,NA,"",   1.20050E+06,   1.21615E+06,   1.21615E+06
C:/temp/Job-8.odb,Step-1,Increment      1: Step Time =    1.000,"P-8-1",          1781,       77.1465,       170.788,            0.,NA,NA,"",   1.07789E+06,   1.08482E+06,   1.08482E+06
C:/temp/Job-8.odb,Step-1,Increment      1: Step Time =    1.000,"P-8-1",          1782,       49.8808,       126.122,            0.,NA,NA,"",   952.435E+03,   957.623E+03,   957.623E+03
C:/temp/Job-8.odb,Step-1,Increment      1: Step Time =    1.000,"P-8-1",          1783,       172.028,       122.204,            0.,NA,NA,"",   965.631E+03,   982.669E+03,   982.669E+03
C:/temp/Job-8.odb,Step-1,Increment      1: Step Time =    1.000,"P-8-1",          1784,       163.121,       91.0548,            0.,NA,NA,"",   868.082E+03,   889.746E+03,   889.746E+03
C:/temp/Job-8.odb,Step-1,Increment      1: Step Time =    1.000,"P-8-1",          1785,       176.849,       49.9033,            0.,NA,NA,"",   1.02415E+06,   1.02711E+06,   1.02711E+06
C:/temp/Job-8.odb,Step-1,Increment      1: Step Time =    1.000,"P-8-1",          1786,       152.285,       173.457,            0.,NA,NA,"",   1.05482E+06,   1.04340E+06,   1.04340E+06
C:/temp/Job-8.odb,Step-1,Increment      1: Step Time =    1.000,"P-8-1",          1787,       86.2968,       171.382,            0.,NA,NA,"",   1.04416E+06,   1.06246E+06,   1.06246E+06
C:/temp/Job-8.odb,Step-1,Increment      1: Step Time =    1.000,"P-8-1",          1788,       168.132,       119.932,            0.,NA,NA,"",   956.396E+03,   968.686E+03,   968.686E+03
C:/temp/Job-8.odb,Step-1,Increment      1: Step Time =    1.000,"P-8-1",          1789,       170.567,       112.486,            0.,NA,NA,"",   916.316E+03,   943.874E+03,   943.874E+03
C:/temp/Job-8.odb,Step-1,Increment      1: Step Time =    1.000,"P-8-1",          1790,       167.037,       169.789,            0.,NA,NA,"",   1.03911E+06,   1.03223E+06,   1.03223E+06
C:/temp/Job-8.odb,Step-1,Increment      1: Step Time =    1.000,"P-8-1",          1791,       165.716,       165.707,            0.,NA,NA,"",   1.04953E+06,   1.04020E+06,   1.04020E+06
C:/temp/Job-8.odb,Step-1,Increment      1: Step Time =    1.000,"P-8-1",          1792,       26.4356,       56.5883,            0.,NA,NA,"",   936.037E+03,   993.895E+03,   993.895E+03
C:/temp/Job-8.odb,Step-1,Increment      1: Step Time =    1.000,"P-8-1",          1793,       23.8708,       61.9359,            0.,NA,NA,"",   891.322E+03,   957.929E+03,   957.929E+03
C:/temp/Job-8.odb,Step-1,Increment      1: Step Time =    1.000,"P-8-1",          1794,       23.1016,       78.9544,            0.,NA,NA,"",   779.920E+03,   858.083E+03,   858.083E+03
C:/temp/Job-8.odb,Step-1,Increment      1: Step Time =    1.000,"P-8-1",          1795,       25.4641,       71.2283,            0.,NA,NA,"",   836.922E+03,   906.751E+03,   906.751E+03
C:/temp/Job-8.odb,Step-1,Increment      1: Step Time =    1.000,"P-8-1",          1796,       122.100,       50.0823,            0.,NA,NA,"",   1.17978E+06,   1.18283E+06,   1.18283E+06
C:/temp/Job-8.odb,Step-1,Increment      1: Step Time =    1.000,"P-8-1",          1797,       32.8076,       42.9874,            0.,NA,NA,"",   1.04440E+06,   1.07644E+06,   1.07644E+06
C:/temp/Job-8.odb,Step-1,Increment      1: Step Time =    1.000,"P-8-1",          1798,       34.5781,       46.8984,            0.,NA,NA,"",   1.03460E+06,   1.06509E+06,   1.06509E+06
C:/temp/Job-8.odb,Step-1,Increment      1: Step Time =    1.000,"P-8-1",          1799,       175.557,       110.124,            0.,NA,NA,"",   915.182E+03,   952.743E+03,   952.743E+03
C:/temp/Job-8.odb,Step-1,Increment      1: Step Time =    1.000,"P-8-1",          1800,       177.018,       102.387,            0.,NA,NA,"",   902.087E+03,     945.7E+03,     945.7E+03
C:/temp/Job-8.odb,Step-1,Increment      1: Step Time =    1.000,"P-8-1",          1801,       176.459,       54.4884,            0.,NA,NA,"",   1.02202E+06,   1.02655E+06,   1.02655E+06
C:/temp/Job-8.odb,Step-1,Increment      1: Step Time =    1.000,"P-8-1",          1802,       168.778,       147.101,            0.,NA,NA,"",   1.05435E+06,   1.04504E+06,   1.04504E+06
C:/temp/Job-8.odb,Step-1,Increment      1: Step Time =    1.000,"P-8-1",          1803,       150.949,       68.0681,            0.,NA,NA,"",   1.11481E+06,   1.06656E+06,   1.06656E+06
C:/temp/Job-8.odb,Step-1,Increment      1: Step Time =    1.000,"P-8-1",          1804,       127.038,       149.964,            0.,NA,NA,"",   1.19460E+06,   1.17781E+06,   1.17781E+06
C:/temp/Job-8.odb,Step-1,Increment      1: Step Time =    1.000,"P-8-1",          1805,       138.769,       176.489,            0.,NA,NA,"",   1.04652E+06,   1.03887E+06,   1.03887E+06
C:/temp/Job-8.odb,Step-1,Increment      1: Step Time =    1.000,"P-8-1",          1806,       89.7813,       173.222,            0.,NA,NA,"",   1.02733E+06,   1.04692E+06,   1.04692E+06
C:/temp/Job-8.odb,Step-1,Increment      1: Step Time =    1.000,"P-8-1",          1807,       67.4809,       172.798,            0.,NA,NA,"",   1.09447E+06,   1.09194E+06,   1.09194E+06
C:/temp/Job-8.odb,Step-1,Increment      1: Step Time =    1.000,"P-8-1",          1808,       49.1152,       165.796,            0.,NA,NA,"",   1.11829E+06,   1.11672E+06,   1.11672E+06
C:/temp/Job-8.odb,Step-1,Increment      1: Step Time =    1.000,"P-8-1",          1809,       141.718,       49.9331,            0.,NA,NA,"",   1.17469E+06,   1.13398E+06,   1.13398E+06
C:/temp/Job-8.odb,Step-1,Increment      1: Step Time =    1.000,"P-8-1",          1810,       45.9657,       108.996,            0.,NA,NA,"",   699.296E+03,   752.419E+03,   752.419E+03
C:/temp/Job-8.odb,Step-1,Increment      1: Step Time =    1.000,"P-8-1",          1811,       156.433,       119.103,            0.,NA,NA,"",   958.754E+03,   946.801E+03,   946.801E+03
C:/temp/Job-8.odb,Step-1,Increment      1: Step Time =    1.000,"P-8-1",          1812,       70.2422,       166.419,            0.,NA,NA,"",   1.11558E+06,   1.11404E+06,   1.11404E+06
C:/temp/Job-8.odb,Step-1,Increment      1: Step Time =    1.000,"P-8-1",          1813,       169.568,       136.227,            0.,NA,NA,"",   1.02956E+06,   1.02698E+06,   1.02698E+06
C:/temp/Job-8.odb,Step-1,Increment      1: Step Time =    1.000,"P-8-1",          1814,       116.285,       37.0474,            0.,NA,NA,"",   1.07358E+06,   1.09398E+06,   1.09398E+06
C:/temp/Job-8.odb,Step-1,Increment      1: Step Time =    1.000,"P-8-1",          1815,       128.767,       24.3258,            0.,NA,NA,"",   1.04146E+06,   1.04007E+06,   1.04007E+06
C:/temp/Job-8.odb,Step-1,Increment      1: Step Time =    1.000,"P-8-1",          1816,       33.5289,       21.3084,            0.,NA,NA,"",   1.11997E+06,   1.13162E+06,   1.13162E+06
C:/temp/Job-8.odb,Step-1,Increment      1: Step Time =    1.000,"P-8-1",          1817,       124.004,       24.6234,            0.,NA,NA,"",   1.03416E+06,   1.03731E+06,   1.03731E+06
C:/temp/Job-8.odb,Step-1,Increment      1: Step Time =    1.000,"P-8-1",          1818,       22.2388,       67.6414,            0.,NA,NA,"",   849.113E+03,   922.203E+03,   922.203E+03
C:/temp/Job-8.odb,Step-1,Increment      1: Step Time =    1.000,"P-8-1",          1819,       174.461,       130.466,            0.,NA,NA,"",   994.855E+03,   1.00738E+06,   1.00738E+06
C:/temp/Job-8.odb,Step-1,Increment      1: Step Time =    1.000,"P-8-1",          1820,       20.3686,       163.270,            0.,NA,NA,"",   1.02018E+06,   1.07970E+06,   1.07970E+06
C:/temp/Job-8.odb,Step-1,Increment      1: Step Time =    1.000,"P-8-1",          1821,       34.5349,       25.2196,            0.,NA,NA,"",   1.11313E+06,   1.12700E+06,   1.12700E+06
C:/temp/Job-8.odb,Step-1,Increment      1: Step Time =    1.000,"P-8-1",          1822,       169.752,       125.080,            0.,NA,NA,"",   982.892E+03,   992.070E+03,   992.070E+03
C:/temp/Job-8.odb,Step-1,Increment      1: Step Time =    1.000,"P-8-1",          1823,       166.730,       123.238,            0.,NA,NA,"",   978.052E+03,   983.145E+03,   983.145E+03
C:/temp/Job-8.odb,Step-1,Increment      1: Step Time =    1.000,"P-8-1",          1824,       164.474,       131.775,            0.,NA,NA,"",   1.03624E+06,   1.02450E+06,   1.02450E+06
C:/temp/Job-8.odb,Step-1,Increment      1: Step Time =    1.000,"P-8-1",          1825,       156.442,       79.6162,            0.,NA,NA,"",   977.129E+03,   960.467E+03,   960.467E+03
C:/temp/Job-8.odb,Step-1,Increment      1: Step Time =    1.000,"P-8-1",          1826,       159.310,       82.4616,            0.,NA,NA,"",   942.163E+03,   939.282E+03,   939.282E+03
C:/temp/Job-8.odb,Step-1,Increment      1: Step Time =    1.000,"P-8-1",          1827,       165.755,       87.8382,            0.,NA,NA,"",   899.271E+03,   920.214E+03,   920.214E+03
C:/temp/Job-8.odb,Step-1,Increment      1: Step Time =    1.000,"P-8-1",          1828,       137.498,       143.692,            0.,NA,NA,"",   1.22409E+06,   1.17007E+06,   1.17007E+06
C:/temp/Job-8.odb,Step-1,Increment      1: Step Time =    1.000,"P-8-1",          1829,       61.8748,       174.774,            0.,NA,NA,"",   1.09437E+06,   1.09030E+06,   1.09030E+06
C:/temp/Job-8.odb,Step-1,Increment      1: Step Time =    1.000,"P-8-1",          1830,       75.7432,       164.650,            0.,NA,NA,"",   1.10923E+06,   1.11504E+06,   1.11504E+06
C:/temp/Job-8.odb,Step-1,Increment      1: Step Time =    1.000,"P-8-1",          1831,       137.804,       46.9033,            0.,NA,NA,"",   1.17076E+06,   1.13777E+06,   1.13777E+06
C:/temp/Job-8.odb,Step-1,Increment      1: Step Time =    1.000,"P-8-1",          1832,       121.711,       46.2489,            0.,NA,NA,"",   1.14563E+06,   1.15190E+06,   1.15190E+06
C:/temp/Job-8.odb,Step-1,Increment      1: Step Time =    1.000,"P-8-1",          1833,       31.9856,       33.6773,            0.,NA,NA,"",   1.07956E+06,   1.10606E+06,   1.10606E+06
C:/temp/Job-8.odb,Step-1,Increment      1: Step Time =    1.000,"P-8-1",          1834,       163.073,       147.114,            0.,NA,NA,"",   1.07740E+06,   1.05902E+06,   1.05902E+06
C:/temp/Job-8.odb,Step-1,Increment      1: Step Time =    1.000,"P-8-1",          1835,       28.4719,       78.2282,            0.,NA,NA,"",   797.622E+03,   867.034E+03,   867.034E+03
C:/temp/Job-8.odb,Step-1,Increment      1: Step Time =    1.000,"P-8-1",          1836,       72.0481,       146.970,            0.,NA,NA,"",   1.21480E+06,   1.20010E+06,   1.20010E+06
C:/temp/Job-8.odb,Step-1,Increment      1: Step Time =    1.000,"P-8-1",          1837,       139.629,       171.297,            0.,NA,NA,"",   1.07325E+06,   1.06128E+06,   1.06128E+06
C:/temp/Job-8.odb,Step-1,Increment      1: Step Time =    1.000,"P-8-1",          1838,       50.2246,       24.6284,            0.,NA,NA,"",   1.10764E+06,   1.10478E+06,   1.10478E+06
C:/temp/Job-8.odb,Step-1,Increment      1: Step Time =    1.000,"P-8-1",          1839,       68.5954,       149.407,            0.,NA,NA,"",   1.19609E+06,   1.17853E+06,   1.17853E+06
C:/temp/Job-8.odb,Step-1,Increment      1: Step Time =    1.000,"P-8-1",          1840,       39.0826,       46.1763,            0.,NA,NA,"",   1.06144E+06,   1.08058E+06,   1.08058E+06
C:/temp/Job-8.odb,Step-1,Increment      1: Step Time =    1.000,"P-8-1",          1841,       55.3301,       24.7512,            0.,NA,NA,"",   1.10241E+06,   1.09803E+06,   1.09803E+06
C:/temp/Job-8.odb,Step-1,Increment      1: Step Time =    1.000,"P-8-1",          1842,       130.143,       42.6198,            0.,NA,NA,"",   1.14543E+06,   1.13150E+06,   1.13150E+06
C:/temp/Job-8.odb,Step-1,Increment      1: Step Time =    1.000,"P-8-1",          1843,       86.8785,       35.8623,            0.,NA,NA,"",   1.07034E+06,   1.09666E+06,   1.09666E+06
C:/temp/Job-8.odb,Step-1,Increment      1: Step Time =    1.000,"P-8-1",          1844,       153.675,       130.997,            0.,NA,NA,"",   1.08615E+06,   1.04713E+06,   1.04713E+06
C:/temp/Job-8.odb,Step-1,Increment      1: Step Time =    1.000,"P-8-1",          1845,       152.330,       134.850,            0.,NA,NA,"",   1.11613E+06,   1.07213E+06,   1.07213E+06
C:/temp/Job-8.odb,Step-1,Increment      1: Step Time =    1.000,"P-8-1",          1846,       26.6320,       63.1334,            0.,NA,NA,"",   897.306E+03,   958.994E+03,   958.994E+03
C:/temp/Job-8.odb,Step-1,Increment      1: Step Time =    1.000,"P-8-1",          1847,       130.574,       29.9728,            0.,NA,NA,"",   1.07109E+06,   1.06632E+06,   1.06632E+06
C:/temp/Job-8.odb,Step-1,Increment      1: Step Time =    1.000,"P-8-1",          1848,       168.130,       90.5040,            0.,NA,NA,"",   892.917E+03,   920.410E+03,   920.410E+03
C:/temp/Job-8.odb,Step-1,Increment      1: Step Time =    1.000,"P-8-1",          1849,       21.7114,       86.9260,            0.,NA,NA,"",   737.001E+03,   819.829E+03,   819.829E+03
C:/temp/Job-8.odb,Step-1,Increment      1: Step Time =    1.000,"P-8-1",          1850,       22.7401,       94.5443,            0.,NA,NA,"",   715.799E+03,   799.412E+03,   799.412E+03
C:/temp/Job-8.odb,Step-1,Increment      1: Step Time =    1.000,"P-8-1",          1851,       23.7205,       145.909,            0.,NA,NA,"",   938.148E+03,   1.00060E+06,   1.00060E+06
C:/temp/Job-8.odb,Step-1,Increment      1: Step Time =    1.000,"P-8-1",          1852,       39.4703,       154.013,            0.,NA,NA,"",   1.06565E+06,   1.08356E+06,   1.08356E+06
C:/temp/Job-8.odb,Step-1,Increment      1: Step Time =    1.000,"P-8-1",          1853,       60.5101,       158.275,            0.,NA,NA,"",   1.14926E+06,   1.13777E+06,   1.13777E+06
C:/temp/Job-8.odb,Step-1,Increment      1: Step Time =    1.000,"P-8-1",          1854,       166.479,       110.651,            0.,NA,NA,"",   896.230E+03,   919.705E+03,   919.705E+03
C:/temp/Job-8.odb,Step-1,Increment      1: Step Time =    1.000,"P-8-1",          1855,       156.642,       68.3473,            0.,NA,NA,"",   1.07570E+06,   1.04392E+06,   1.04392E+06
C:/temp/Job-8.odb,Step-1,Increment      1: Step Time =    1.000,"P-8-1",          1856,       159.903,       70.7188,            0.,NA,NA,"",   1.04427E+06,   1.02322E+06,   1.02322E+06
C:/temp/Job-8.odb,Step-1,Increment      1: Step Time =    1.000,"P-8-1",          1857,       68.8703,       160.612,            0.,NA,NA,"",   1.14421E+06,   1.13852E+06,   1.13852E+06
C:/temp/Job-8.odb,Step-1,Increment      1: Step Time =    1.000,"P-8-1",          1858,       167.602,       106.908,            0.,NA,NA,"",   882.322E+03,   911.817E+03,   911.817E+03
C:/temp/Job-8.odb,Step-1,Increment      1: Step Time =    1.000,"P-8-1",          1859,       172.854,       98.0628,            0.,NA,NA,"",   888.040E+03,   926.447E+03,   926.447E+03
C:/temp/Job-8.odb,Step-1,Increment      1: Step Time =    1.000,"P-8-1",          1860,       172.118,       93.9493,            0.,NA,NA,"",   892.855E+03,   928.826E+03,   928.826E+03
C:/temp/Job-8.odb,Step-1,Increment      1: Step Time =    1.000,"P-8-1",          1861,       145.595,       42.1473,            0.,NA,NA,"",   1.13073E+06,   1.10212E+06,   1.10212E+06
C:/temp/Job-8.odb,Step-1,Increment      1: Step Time =    1.000,"P-8-1",          1862,       141.363,       42.9669,            0.,NA,NA,"",   1.14349E+06,   1.11458E+06,   1.11458E+06
C:/temp/Job-8.odb,Step-1,Increment      1: Step Time =    1.000,"P-8-1",          1863,       166.240,       37.2537,            0.,NA,NA,"",   1.05207E+06,   1.04246E+06,   1.04246E+06
C:/temp/Job-8.odb,Step-1,Increment      1: Step Time =    1.000,"P-8-1",          1864,       146.619,       51.2432,            0.,NA,NA,"",   1.16021E+06,   1.11898E+06,   1.11898E+06
C:/temp/Job-8.odb,Step-1,Increment      1: Step Time =    1.000,"P-8-1",          1865,       88.2207,       167.990,            0.,NA,NA,"",   1.05015E+06,   1.07411E+06,   1.07411E+06
C:/temp/Job-8.odb,Step-1,Increment      1: Step Time =    1.000,"P-8-1",          1866,       40.4962,       129.353,            0.,NA,NA,"",   915.880E+03,   949.783E+03,   949.783E+03
C:/temp/Job-8.odb,Step-1,Increment      1: Step Time =    1.000,"P-8-1",          1867,       36.2417,       50.5765,            0.,NA,NA,"",   1.02697E+06,   1.05539E+06,   1.05539E+06
C:/temp/Job-8.odb,Step-1,Increment      1: Step Time =    1.000,"P-8-1",          1868,       139.129,       146.809,            0.,NA,NA,"",   1.20188E+06,   1.15443E+06,   1.15443E+06
C:/temp/Job-8.odb,Step-1,Increment      1: Step Time =    1.000,"P-8-1",          1869,       106.865,       27.6054,            0.,NA,NA,"",   1.01619E+06,   1.03836E+06,   1.03836E+06
C:/temp/Job-8.odb,Step-1,Increment      1: Step Time =    1.000,"P-8-1",          1870,       103.463,       27.9871,            0.,NA,NA,"",   1.01555E+06,   1.03992E+06,   1.03992E+06
C:/temp/Job-8.odb,Step-1,Increment      1: Step Time =    1.000,"P-8-1",          1871,       82.5859,       158.830,            0.,NA,NA,"",   1.11253E+06,   1.13369E+06,   1.13369E+06
C:/temp/Job-8.odb,Step-1,Increment      1: Step Time =    1.000,"P-8-1",          1872,       167.035,       126.754,            0.,NA,NA,"",   997.540E+03,   998.393E+03,   998.393E+03
C:/temp/Job-8.odb,Step-1,Increment      1: Step Time =    1.000,"P-8-1",          1873,       124.488,       29.2442,            0.,NA,NA,"",   1.05702E+06,   1.05958E+06,   1.05958E+06
C:/temp/Job-8.odb,Step-1,Increment      1: Step Time =    1.000,"P-8-1",          1874,       161.515,       112.721,            0.,NA,NA,"",   897.496E+03,   909.713E+03,   909.713E+03
C:/temp/Job-8.odb,Step-1,Increment      1: Step Time =    1.000,"P-8-1",          1875,       157.638,       171.262,            0.,NA,NA,"",   1.05401E+06,   1.04281E+06,   1.04281E+06
C:/temp/Job-8.odb,Step-1,Increment      1: Step Time =    1.000,"P-8-1",          1876,       162.197,       79.8148,            0.,NA,NA,"",   965.481E+03,   964.175E+03,   964.175E+03
C:/temp/Job-8.odb,Step-1,Increment      1: Step Time =    1.000,"P-8-1",          1877,       164.944,       82.1337,            0.,NA,NA,"",   943.719E+03,   953.058E+03,   953.058E+03
C:/temp/Job-8.odb,Step-1,Increment      1: Step Time =    1.000,"P-8-1",          1878,       33.1533,       56.6431,            0.,NA,NA,"",   977.875E+03,   1.01808E+06,   1.01808E+06
C:/temp/Job-8.odb,Step-1,Increment      1: Step Time =    1.000,"P-8-1",          1879,       26.4614,       94.2917,            0.,NA,NA,"",   713.402E+03,   794.081E+03,   794.081E+03
C:/temp/Job-8.odb,Step-1,Increment      1: Step Time =    1.000,"P-8-1",          1880,       94.4496,       171.431,            0.,NA,NA,"",   1.02333E+06,   1.04794E+06,   1.04794E+06
C:/temp/Job-8.odb,Step-1,Increment      1: Step Time =    1.000,"P-8-1",          1881,       102.178,       171.138,            0.,NA,NA,"",   1.01871E+06,   1.04435E+06,   1.04435E+06
C:/temp/Job-8.odb,Step-1,Increment      1: Step Time =    1.000,"P-8-1",          1882,       105.520,       173.098,            0.,NA,NA,"",   1.01307E+06,   1.03436E+06,   1.03436E+06
C:/temp/Job-8.odb,Step-1,Increment      1: Step Time =    1.000,"P-8-1",          1883,       27.3162,       157.880,            0.,NA,NA,"",   1.02430E+06,   1.06894E+06,   1.06894E+06
C:/temp/Job-8.odb,Step-1,Increment      1: Step Time =    1.000,"P-8-1",          1884,       160.572,       101.020,            0.,NA,NA,"",   821.663E+03,   848.168E+03,   848.168E+03
C:/temp/Job-8.odb,Step-1,Increment      1: Step Time =    1.000,"P-8-1",          1885,       35.8666,       115.132,            0.,NA,NA,"",   759.546E+03,   822.535E+03,   822.535E+03
C:/temp/Job-8.odb,Step-1,Increment      1: Step Time =    1.000,"P-8-1",          1886,       140.992,       165.618,            0.,NA,NA,"",   1.09914E+06,   1.08123E+06,   1.08123E+06
C:/temp/Job-8.odb,Step-1,Increment      1: Step Time =    1.000,"P-8-1",          1887,       170.415,       101.575,            0.,NA,NA,"",   878.452E+03,   914.258E+03,   914.258E+03
C:/temp/Job-8.odb,Step-1,Increment      1: Step Time =    1.000,"P-8-1",          1888,       30.8416,       63.6150,            0.,NA,NA,"",   917.601E+03,   969.257E+03,   969.257E+03
C:/temp/Job-8.odb,Step-1,Increment      1: Step Time =    1.000,"P-8-1",          1889,       156.763,       160.311,            0.,NA,NA,"",   1.08609E+06,   1.06668E+06,   1.06668E+06
C:/temp/Job-8.odb,Step-1,Increment      1: Step Time =    1.000,"P-8-1",          1890,       70.8902,       152.388,            0.,NA,NA,"",   1.18003E+06,   1.17049E+06,   1.17049E+06
C:/temp/Job-8.odb,Step-1,Increment      1: Step Time =    1.000,"P-8-1",          1891,       65.3173,       29.5127,            0.,NA,NA,"",   1.10678E+06,   1.10255E+06,   1.10255E+06
C:/temp/Job-8.odb,Step-1,Increment      1: Step Time =    1.000,"P-8-1",          1892,       134.011,       155.982,            0.,NA,NA,"",   1.15638E+06,   1.13316E+06,   1.13316E+06
C:/temp/Job-8.odb,Step-1,Increment      1: Step Time =    1.000,"P-8-1",          1893,       43.7151,       46.4981,            0.,NA,NA,"",   1.08555E+06,   1.09396E+06,   1.09396E+06
C:/temp/Job-8.odb,Step-1,Increment      1: Step Time =    1.000,"P-8-1",          1894,       82.2382,       33.7651,            0.,NA,NA,"",   1.08083E+06,   1.09681E+06,   1.09681E+06
C:/temp/Job-8.odb,Step-1,Increment      1: Step Time =    1.000,"P-8-1",          1895,       45.5319,       72.4260,            0.,NA,NA,"",   932.637E+03,   951.981E+03,   951.981E+03
C:/temp/Job-8.odb,Step-1,Increment      1: Step Time =    1.000,"P-8-1",          1896,       40.5461,       76.1816,            0.,NA,NA,"",   864.507E+03,   904.837E+03,   904.837E+03
C:/temp/Job-8.odb,Step-1,Increment      1: Step Time =    1.000,"P-8-1",          1897,       38.0724,       53.9258,            0.,NA,NA,"",   1.02190E+06,   1.04753E+06,   1.04753E+06
C:/temp/Job-8.odb,Step-1,Increment      1: Step Time =    1.000,"P-8-1",          1898,       42.7328,       53.9904,            0.,NA,NA,"",   1.05102E+06,   1.06461E+06,   1.06461E+06
C:/temp/Job-8.odb,Step-1,Increment      1: Step Time =    1.000,"P-8-1",          1899,       68.1458,       155.018,            0.,NA,NA,"",   1.16851E+06,   1.15774E+06,   1.15774E+06
C:/temp/Job-8.odb,Step-1,Increment      1: Step Time =    1.000,"P-8-1",          1900,       55.4066,       154.049,            0.,NA,NA,"",   1.14091E+06,   1.12992E+06,   1.12992E+06
C:/temp/Job-8.odb,Step-1,Increment      1: Step Time =    1.000,"P-8-1",          1901,       33.5863,       128.138,            0.,NA,NA,"",   866.242E+03,   919.473E+03,   919.473E+03
C:/temp/Job-8.odb,Step-1,Increment      1: Step Time =    1.000,"P-8-1",          1902,       73.9151,       159.050,            0.,NA,NA,"",   1.14297E+06,   1.14440E+06,   1.14440E+06
C:/temp/Job-8.odb,Step-1,Increment      1: Step Time =    1.000,"P-8-1",          1903,       152.496,       52.1316,            0.,NA,NA,"",   1.12997E+06,   1.09466E+06,   1.09466E+06
C:/temp/Job-8.odb,Step-1,Increment      1: Step Time =    1.000,"P-8-1",          1904,       154.654,       160.198,            0.,NA,NA,"",   1.09003E+06,   1.06943E+06,   1.06943E+06
C:/temp/Job-8.odb,Step-1,Increment      1: Step Time =    1.000,"P-8-1",          1905,       48.8423,       38.6598,            0.,NA,NA,"",   1.11982E+06,   1.11797E+06,   1.11797E+06
C:/temp/Job-8.odb,Step-1,Increment      1: Step Time =    1.000,"P-8-1",          1906,       157.894,       63.3277,            0.,NA,NA,"",   1.08889E+06,   1.05883E+06,   1.05883E+06
C:/temp/Job-8.odb,Step-1,Increment      1: Step Time =    1.000,"P-8-1",          1907,       138.209,       163.571,            0.,NA,NA,"",   1.10956E+06,   1.09136E+06,   1.09136E+06
C:/temp/Job-8.odb,Step-1,Increment      1: Step Time =    1.000,"P-8-1",          1908,       145.457,       155.344,            0.,NA,NA,"",   1.13939E+06,   1.10798E+06,   1.10798E+06
C:/temp/Job-8.odb,Step-1,Increment      1: Step Time =    1.000,"P-8-1",          1909,       53.4104,       34.8710,            0.,NA,NA,"",   1.12585E+06,   1.12023E+06,   1.12023E+06
C:/temp/Job-8.odb,Step-1,Increment      1: Step Time =    1.000,"P-8-1",          1910,       32.5127,       123.734,            0.,NA,NA,"",   824.866E+03,   885.125E+03,   885.125E+03
C:/temp/Job-8.odb,Step-1,Increment      1: Step Time =    1.000,"P-8-1",          1911,       158.392,       54.0525,            0.,NA,NA,"",   1.10149E+06,   1.07407E+06,   1.07407E+06
C:/temp/Job-8.odb,Step-1,Increment      1: Step Time =    1.000,"P-8-1",          1912,       58.5577,       34.0527,            0.,NA,NA,"",   1.12688E+06,   1.11925E+06,   1.11925E+06
C:/temp/Job-8.odb,Step-1,Increment      1: Step Time =    1.000,"P-8-1",          1913,       32.4050,       149.952,            0.,NA,NA,"",   1.00826E+06,   1.04643E+06,   1.04643E+06
C:/temp/Job-8.odb,Step-1,Increment      1: Step Time =    1.000,"P-8-1",          1914,       31.8397,       136.969,            0.,NA,NA,"",   925.131E+03,    974.34E+03,    974.34E+03
C:/temp/Job-8.odb,Step-1,Increment      1: Step Time =    1.000,"P-8-1",          1915,       38.2167,       59.1757,            0.,NA,NA,"",   992.055E+03,   1.02092E+06,   1.02092E+06
