ODB Name,Step,Frame,Part Instance Name,    Node Label,X,Y,Z,Section Name,Material Name,Section Point,       S-Mises,S-Max. In-Plane Principal (Abs),S-Max. Principal (Abs)
C:/temp/Job-1.odb,Step-1,Increment      1: Step Time =    1.000,"P-1-1",             1,       85.3575,       132.888,            0.,NA,NA,"",   2.27756E+06,   2.31895E+06,   2.31895E+06
C:/temp/Job-1.odb,Step-1,Increment      1: Step Time =    1.000,"P-1-1",             2,       76.8596,       127.578,            0.,NA,NA,"",   1.19060E+06,   1.20149E+06,   1.20149E+06
C:/temp/Job-1.odb,Step-1,Increment      1: Step Time =    1.000,"P-1-1",             3,       67.6434,       115.781,            0.,NA,NA,"",   435.592E+03,  -404.302E+03,  -404.302E+03
C:/temp/Job-1.odb,Step-1,Increment      1: Step Time =    1.000,"P-1-1",             4,       64.5469,       106.251,            0.,NA,NA,"",   768.136E+03,  -782.708E+03,  -782.708E+03
C:/temp/Job-1.odb,Step-1,Increment      1: Step Time =    1.000,"P-1-1",             5,       65.0694,       91.2908,            0.,NA,NA,"",   696.590E+03,  -701.214E+03,  -701.214E+03
C:/temp/Job-1.odb,Step-1,Increment      1: Step Time =    1.000,"P-1-1",             6,       68.8231,           82.,            0.,NA,NA,"",   360.818E+03,  -101.972E+03,  -101.972E+03
C:/temp/Job-1.odb,Step-1,Increment      1: Step Time =    1.000,"P-1-1",             7,       78.8397,       70.8754,            0.,NA,NA,"",   1.41940E+06,   1.43421E+06,   1.43421E+06
C:/temp/Job-1.odb,Step-1,Increment      1: Step Time =    1.000,"P-1-1",             8,       87.6873,       66.1711,            0.,NA,NA,"",   2.45492E+06,   2.51804E+06,   2.51804E+06
C:/temp/Job-1.odb,Step-1,Increment      1: Step Time =    1.000,"P-1-1",             9,       102.511,       64.0877,            0.,NA,NA,"",   3.25724E+06,   3.33192E+06,   3.33192E+06
C:/temp/Job-1.odb,Step-1,Increment      1: Step Time =    1.000,"P-1-1",            10,       112.313,       66.1711,            0.,NA,NA,"",   2.90510E+06,   2.97336E+06,   2.97336E+06
C:/temp/Job-1.odb,Step-1,Increment      1: Step Time =    1.000,"P-1-1",            11,       125.008,       74.1038,            0.,NA,NA,"",   1.37492E+06,   1.37132E+06,   1.37132E+06
C:/temp/Job-1.odb,Step-1,Increment      1: Step Time =    1.000,"P-1-1",            12,       131.177,           82.,            0.,NA,NA,"",   566.750E+03,   47.7482E+03,   47.7482E+03
C:/temp/Job-1.odb,Step-1,Increment      1: Step Time =    1.000,"P-1-1",            13,       135.803,       96.2370,            0.,NA,NA,"",   1.20380E+06,  -1.21975E+06,  -1.21975E+06
C:/temp/Job-1.odb,Step-1,Increment      1: Step Time =    1.000,"P-1-1",            14,       135.453,       106.251,            0.,NA,NA,"",   1.14565E+06,  -1.15950E+06,  -1.15950E+06
C:/temp/Job-1.odb,Step-1,Increment      1: Step Time =    1.000,"P-1-1",            15,       129.845,       120.131,            0.,NA,NA,"",   770.706E+03,   415.053E+03,   415.053E+03
C:/temp/Job-1.odb,Step-1,Increment      1: Step Time =    1.000,"P-1-1",            16,       123.140,       127.578,            0.,NA,NA,"",   1.72554E+06,   1.75325E+06,   1.75325E+06
C:/temp/Job-1.odb,Step-1,Increment      1: Step Time =    1.000,"P-1-1",            17,       114.643,       132.888,            0.,NA,NA,"",   2.73128E+06,   2.78444E+06,   2.78444E+06
C:/temp/Job-1.odb,Step-1,Increment      1: Step Time =    1.000,"P-1-1",            18,          100.,          136.,            0.,NA,NA,"",   3.23510E+06,   3.30833E+06,   3.30833E+06
C:/temp/Job-1.odb,Step-1,Increment      1: Step Time =    1.000,"P-1-1",            19,          190.,            0.,            0.,NA,NA,"",   997.249E+03,   997.420E+03,   997.420E+03
C:/temp/Job-1.odb,Step-1,Increment      1: Step Time =    1.000,"P-1-1",            20,          180.,            0.,            0.,NA,NA,"",   997.499E+03,   997.593E+03,   997.593E+03
C:/temp/Job-1.odb,Step-1,Increment      1: Step Time =    1.000,"P-1-1",            21,          170.,            0.,            0.,NA,NA,"",   999.554E+03,   998.976E+03,   998.976E+03
C:/temp/Job-1.odb,Step-1,Increment      1: Step Time =    1.000,"P-1-1",            22,          160.,            0.,            0.,NA,NA,"",   989.389E+03,   988.747E+03,   988.747E+03
C:/temp/Job-1.odb,Step-1,Increment      1: Step Time =    1.000,"P-1-1",            23,          150.,            0.,            0.,NA,NA,"",   955.029E+03,   954.313E+03,   954.313E+03
C:/temp/Job-1.odb,Step-1,Increment      1: Step Time =    1.000,"P-1-1",            24,          140.,            0.,            0.,NA,NA,"",   893.274E+03,   892.591E+03,   892.591E+03
C:/temp/Job-1.odb,Step-1,Increment      1: Step Time =    1.000,"P-1-1",            25,          130.,            0.,            0.,NA,NA,"",   817.003E+03,   816.860E+03,   816.860E+03
C:/temp/Job-1.odb,Step-1,Increment      1: Step Time =    1.000,"P-1-1",            26,          120.,            0.,            0.,NA,NA,"",   746.279E+03,   747.095E+03,   747.095E+03
C:/temp/Job-1.odb,Step-1,Increment      1: Step Time =    1.000,"P-1-1",            27,          110.,            0.,            0.,NA,NA,"",   707.871E+03,   709.651E+03,   709.651E+03
C:/temp/Job-1.odb,Step-1,Increment      1: Step Time =    1.000,"P-1-1",            28,          100.,            0.,            0.,NA,NA,"",   726.900E+03,   728.811E+03,   728.811E+03
C:/temp/Job-1.odb,Step-1,Increment      1: Step Time =    1.000,"P-1-1",            29,           90.,            0.,            0.,NA,NA,"",   811.640E+03,   812.535E+03,   812.535E+03
C:/temp/Job-1.odb,Step-1,Increment      1: Step Time =    1.000,"P-1-1",            30,           80.,            0.,            0.,NA,NA,"",   944.910E+03,   944.757E+03,   944.757E+03
C:/temp/Job-1.odb,Step-1,Increment      1: Step Time =    1.000,"P-1-1",            31,           70.,            0.,            0.,NA,NA,"",   1.10028E+06,   1.09987E+06,   1.09987E+06
C:/temp/Job-1.odb,Step-1,Increment      1: Step Time =    1.000,"P-1-1",            32,           60.,            0.,            0.,NA,NA,"",   1.25403E+06,   1.25381E+06,   1.25381E+06
C:/temp/Job-1.odb,Step-1,Increment      1: Step Time =    1.000,"P-1-1",            33,           50.,            0.,            0.,NA,NA,"",   1.37908E+06,   1.37518E+06,   1.37518E+06
C:/temp/Job-1.odb,Step-1,Increment      1: Step Time =    1.000,"P-1-1",            34,           40.,            0.,            0.,NA,NA,"",   1.46880E+06,   1.46772E+06,   1.46772E+06
C:/temp/Job-1.odb,Step-1,Increment      1: Step Time =    1.000,"P-1-1",            35,           30.,            0.,            0.,NA,NA,"",   1.53058E+06,   1.52990E+06,   1.52990E+06
C:/temp/Job-1.odb,Step-1,Increment      1: Step Time =    1.000,"P-1-1",            36,           20.,            0.,            0.,NA,NA,"",   1.59225E+06,   1.59238E+06,   1.59238E+06
C:/temp/Job-1.odb,Step-1,Increment      1: Step Time =    1.000,"P-1-1",            37,           10.,            0.,            0.,NA,NA,"",   1.72987E+06,   1.73232E+06,   1.73232E+06
C:/temp/Job-1.odb,Step-1,Increment      1: Step Time =    1.000,"P-1-1",            38,          200.,            0.,            0.,NA,NA,"",   999.740E+03,   999.479E+03,   999.479E+03
C:/temp/Job-1.odb,Step-1,Increment      1: Step Time =    1.000,"P-1-1",            39,            0.,            0.,            0.,NA,NA,"",   2.10741E+06,   2.21110E+06,   2.21110E+06
C:/temp/Job-1.odb,Step-1,Increment      1: Step Time =    1.000,"P-1-1",            40,          200.,          190.,            0.,NA,NA,"",   1.00186E+06,   1.00055E+06,   1.00055E+06
C:/temp/Job-1.odb,Step-1,Increment      1: Step Time =    1.000,"P-1-1",            41,          200.,          180.,            0.,NA,NA,"",   1.00082E+06,   1.00176E+06,   1.00176E+06
C:/temp/Job-1.odb,Step-1,Increment      1: Step Time =    1.000,"P-1-1",            42,          200.,          170.,            0.,NA,NA,"",   988.620E+03,   1.00309E+06,   1.00309E+06
C:/temp/Job-1.odb,Step-1,Increment      1: Step Time =    1.000,"P-1-1",            43,          200.,          160.,            0.,NA,NA,"",   959.589E+03,   1.00270E+06,   1.00270E+06
C:/temp/Job-1.odb,Step-1,Increment      1: Step Time =    1.000,"P-1-1",            44,          200.,          150.,            0.,NA,NA,"",   918.392E+03,   1.00320E+06,   1.00320E+06
C:/temp/Job-1.odb,Step-1,Increment      1: Step Time =    1.000,"P-1-1",            45,          200.,          140.,            0.,NA,NA,"",   882.072E+03,   1.00457E+06,   1.00457E+06
C:/temp/Job-1.odb,Step-1,Increment      1: Step Time =    1.000,"P-1-1",            46,          200.,          130.,            0.,NA,NA,"",   872.252E+03,   1.00465E+06,   1.00465E+06
C:/temp/Job-1.odb,Step-1,Increment      1: Step Time =    1.000,"P-1-1",            47,          200.,          120.,            0.,NA,NA,"",   896.037E+03,   1.00271E+06,   1.00271E+06
C:/temp/Job-1.odb,Step-1,Increment      1: Step Time =    1.000,"P-1-1",            48,          200.,          110.,            0.,NA,NA,"",   932.615E+03,   998.199E+03,   998.199E+03
C:/temp/Job-1.odb,Step-1,Increment      1: Step Time =    1.000,"P-1-1",            49,          200.,          100.,            0.,NA,NA,"",   949.582E+03,   994.358E+03,   994.358E+03
C:/temp/Job-1.odb,Step-1,Increment      1: Step Time =    1.000,"P-1-1",            50,          200.,           90.,            0.,NA,NA,"",   932.668E+03,   998.281E+03,   998.281E+03
C:/temp/Job-1.odb,Step-1,Increment      1: Step Time =    1.000,"P-1-1",            51,          200.,           80.,            0.,NA,NA,"",   895.598E+03,   1.00280E+06,   1.00280E+06
C:/temp/Job-1.odb,Step-1,Increment      1: Step Time =    1.000,"P-1-1",            52,          200.,           70.,            0.,NA,NA,"",   871.908E+03,   1.00448E+06,   1.00448E+06
C:/temp/Job-1.odb,Step-1,Increment      1: Step Time =    1.000,"P-1-1",            53,          200.,           60.,            0.,NA,NA,"",   883.968E+03,   1.00427E+06,   1.00427E+06
C:/temp/Job-1.odb,Step-1,Increment      1: Step Time =    1.000,"P-1-1",            54,          200.,           50.,            0.,NA,NA,"",   925.525E+03,   1.00831E+06,   1.00831E+06
C:/temp/Job-1.odb,Step-1,Increment      1: Step Time =    1.000,"P-1-1",            55,          200.,           40.,            0.,NA,NA,"",   962.034E+03,   1.00321E+06,   1.00321E+06
C:/temp/Job-1.odb,Step-1,Increment      1: Step Time =    1.000,"P-1-1",            56,          200.,           30.,            0.,NA,NA,"",   989.268E+03,   1.00185E+06,   1.00185E+06
C:/temp/Job-1.odb,Step-1,Increment      1: Step Time =    1.000,"P-1-1",            57,          200.,           20.,            0.,NA,NA,"",   1.00099E+06,   1.00103E+06,   1.00103E+06
C:/temp/Job-1.odb,Step-1,Increment      1: Step Time =    1.000,"P-1-1",            58,          200.,           10.,            0.,NA,NA,"",   1.00174E+06,   1.00031E+06,   1.00031E+06
C:/temp/Job-1.odb,Step-1,Increment      1: Step Time =    1.000,"P-1-1",            59,          200.,          200.,            0.,NA,NA,"",   999.717E+03,   999.439E+03,   999.439E+03
C:/temp/Job-1.odb,Step-1,Increment      1: Step Time =    1.000,"P-1-1",            60,           10.,          200.,            0.,NA,NA,"",   1.72989E+06,   1.73238E+06,   1.73238E+06
C:/temp/Job-1.odb,Step-1,Increment      1: Step Time =    1.000,"P-1-1",            61,           20.,          200.,            0.,NA,NA,"",   1.59296E+06,   1.59300E+06,   1.59300E+06
C:/temp/Job-1.odb,Step-1,Increment      1: Step Time =    1.000,"P-1-1",            62,           30.,          200.,            0.,NA,NA,"",   1.52872E+06,   1.52796E+06,   1.52796E+06
C:/temp/Job-1.odb,Step-1,Increment      1: Step Time =    1.000,"P-1-1",            63,           40.,          200.,            0.,NA,NA,"",   1.46498E+06,   1.46402E+06,   1.46402E+06
C:/temp/Job-1.odb,Step-1,Increment      1: Step Time =    1.000,"P-1-1",            64,           50.,          200.,            0.,NA,NA,"",   1.37610E+06,   1.37524E+06,   1.37524E+06
C:/temp/Job-1.odb,Step-1,Increment      1: Step Time =    1.000,"P-1-1",            65,           60.,          200.,            0.,NA,NA,"",   1.25369E+06,   1.25250E+06,   1.25250E+06
C:/temp/Job-1.odb,Step-1,Increment      1: Step Time =    1.000,"P-1-1",            66,           70.,          200.,            0.,NA,NA,"",   1.10673E+06,   1.10543E+06,   1.10543E+06
C:/temp/Job-1.odb,Step-1,Increment      1: Step Time =    1.000,"P-1-1",            67,           80.,          200.,            0.,NA,NA,"",   952.514E+03,   952.150E+03,   952.150E+03
C:/temp/Job-1.odb,Step-1,Increment      1: Step Time =    1.000,"P-1-1",            68,           90.,          200.,            0.,NA,NA,"",   817.348E+03,   818.558E+03,   818.558E+03
C:/temp/Job-1.odb,Step-1,Increment      1: Step Time =    1.000,"P-1-1",            69,          100.,          200.,            0.,NA,NA,"",   728.844E+03,   730.846E+03,   730.846E+03
C:/temp/Job-1.odb,Step-1,Increment      1: Step Time =    1.000,"P-1-1",            70,          110.,          200.,            0.,NA,NA,"",   709.254E+03,   711.020E+03,   711.020E+03
C:/temp/Job-1.odb,Step-1,Increment      1: Step Time =    1.000,"P-1-1",            71,          120.,          200.,            0.,NA,NA,"",   746.731E+03,   747.672E+03,   747.672E+03
C:/temp/Job-1.odb,Step-1,Increment      1: Step Time =    1.000,"P-1-1",            72,          130.,          200.,            0.,NA,NA,"",   820.086E+03,   819.921E+03,   819.921E+03
C:/temp/Job-1.odb,Step-1,Increment      1: Step Time =    1.000,"P-1-1",            73,          140.,          200.,            0.,NA,NA,"",   900.188E+03,   899.578E+03,   899.578E+03
C:/temp/Job-1.odb,Step-1,Increment      1: Step Time =    1.000,"P-1-1",            74,          150.,          200.,            0.,NA,NA,"",   958.680E+03,   957.133E+03,   957.133E+03
C:/temp/Job-1.odb,Step-1,Increment      1: Step Time =    1.000,"P-1-1",            75,          160.,          200.,            0.,NA,NA,"",   988.088E+03,   987.555E+03,   987.555E+03
C:/temp/Job-1.odb,Step-1,Increment      1: Step Time =    1.000,"P-1-1",            76,          170.,          200.,            0.,NA,NA,"",   997.008E+03,   996.755E+03,   996.755E+03
C:/temp/Job-1.odb,Step-1,Increment      1: Step Time =    1.000,"P-1-1",            77,          180.,          200.,            0.,NA,NA,"",   995.682E+03,   995.756E+03,   995.756E+03
C:/temp/Job-1.odb,Step-1,Increment      1: Step Time =    1.000,"P-1-1",            78,          190.,          200.,            0.,NA,NA,"",   996.727E+03,   996.849E+03,   996.849E+03
C:/temp/Job-1.odb,Step-1,Increment      1: Step Time =    1.000,"P-1-1",            79,            0.,          200.,            0.,NA,NA,"",   2.10606E+06,   2.21029E+06,   2.21029E+06
C:/temp/Job-1.odb,Step-1,Increment      1: Step Time =    1.000,"P-1-1",            80,            0.,           10.,            0.,NA,NA,"",   1.51509E+06,   1.65704E+06,   1.65704E+06
C:/temp/Job-1.odb,Step-1,Increment      1: Step Time =    1.000,"P-1-1",            81,            0.,           20.,            0.,NA,NA,"",   1.26498E+06,   1.40358E+06,   1.40358E+06
C:/temp/Job-1.odb,Step-1,Increment      1: Step Time =    1.000,"P-1-1",            82,            0.,           30.,            0.,NA,NA,"",   1.10404E+06,   1.23341E+06,   1.23341E+06
C:/temp/Job-1.odb,Step-1,Increment      1: Step Time =    1.000,"P-1-1",            83,            0.,           40.,            0.,NA,NA,"",   971.340E+03,   1.08872E+06,   1.08872E+06
C:/temp/Job-1.odb,Step-1,Increment      1: Step Time =    1.000,"P-1-1",            84,            0.,           50.,            0.,NA,NA,"",   849.988E+03,   953.421E+03,   953.421E+03
C:/temp/Job-1.odb,Step-1,Increment      1: Step Time =    1.000,"P-1-1",            85,            0.,           60.,            0.,NA,NA,"",   726.201E+03,   814.582E+03,   814.582E+03
C:/temp/Job-1.odb,Step-1,Increment      1: Step Time =    1.000,"P-1-1",            86,            0.,           70.,            0.,NA,NA,"",   605.078E+03,   679.052E+03,   679.052E+03
C:/temp/Job-1.odb,Step-1,Increment      1: Step Time =    1.000,"P-1-1",            87,            0.,           80.,            0.,NA,NA,"",   492.359E+03,   555.054E+03,   555.054E+03
C:/temp/Job-1.odb,Step-1,Increment      1: Step Time =    1.000,"P-1-1",            88,            0.,           90.,            0.,NA,NA,"",   406.918E+03,   462.690E+03,   462.690E+03
C:/temp/Job-1.odb,Step-1,Increment      1: Step Time =    1.000,"P-1-1",            89,            0.,          100.,            0.,NA,NA,"",   371.814E+03,   424.993E+03,   424.993E+03
C:/temp/Job-1.odb,Step-1,Increment      1: Step Time =    1.000,"P-1-1",            90,            0.,          110.,            0.,NA,NA,"",   405.392E+03,   461.013E+03,   461.013E+03
C:/temp/Job-1.odb,Step-1,Increment      1: Step Time =    1.000,"P-1-1",            91,            0.,          120.,            0.,NA,NA,"",   489.216E+03,   551.623E+03,   551.623E+03
C:/temp/Job-1.odb,Step-1,Increment      1: Step Time =    1.000,"P-1-1",            92,            0.,          130.,            0.,NA,NA,"",   601.555E+03,   674.999E+03,   674.999E+03
C:/temp/Job-1.odb,Step-1,Increment      1: Step Time =    1.000,"P-1-1",            93,            0.,          140.,            0.,NA,NA,"",   727.141E+03,   814.183E+03,   814.183E+03
C:/temp/Job-1.odb,Step-1,Increment      1: Step Time =    1.000,"P-1-1",            94,            0.,          150.,            0.,NA,NA,"",   851.862E+03,   956.761E+03,   956.761E+03
C:/temp/Job-1.odb,Step-1,Increment      1: Step Time =    1.000,"P-1-1",            95,            0.,          160.,            0.,NA,NA,"",   972.166E+03,   1.09075E+06,   1.09075E+06
C:/temp/Job-1.odb,Step-1,Increment      1: Step Time =    1.000,"P-1-1",            96,            0.,          170.,            0.,NA,NA,"",   1.10159E+06,   1.23102E+06,   1.23102E+06
C:/temp/Job-1.odb,Step-1,Increment      1: Step Time =    1.000,"P-1-1",            97,            0.,          180.,            0.,NA,NA,"",   1.26282E+06,   1.40183E+06,   1.40183E+06
C:/temp/Job-1.odb,Step-1,Increment      1: Step Time =    1.000,"P-1-1",            98,            0.,          190.,            0.,NA,NA,"",   1.51389E+06,   1.65622E+06,   1.65622E+06
C:/temp/Job-1.odb,Step-1,Increment      1: Step Time =    1.000,"P-1-1",            99,       189.617,       65.2139,            0.,NA,NA,"",   936.348E+03,   1.04620E+06,   1.04620E+06
C:/temp/Job-1.odb,Step-1,Increment      1: Step Time =    1.000,"P-1-1",           100,       190.348,       134.878,            0.,NA,NA,"",   930.206E+03,   1.04311E+06,   1.04311E+06
C:/temp/Job-1.odb,Step-1,Increment      1: Step Time =    1.000,"P-1-1",           101,       181.013,       134.427,            0.,NA,NA,"",   1.03583E+06,   1.09216E+06,   1.09216E+06
C:/temp/Job-1.odb,Step-1,Increment      1: Step Time =    1.000,"P-1-1",           102,       158.164,       139.390,            0.,NA,NA,"",   1.42254E+06,   1.27886E+06,   1.27886E+06
C:/temp/Job-1.odb,Step-1,Increment      1: Step Time =    1.000,"P-1-1",           103,       146.586,       138.697,            0.,NA,NA,"",   1.60085E+06,   1.40093E+06,   1.40093E+06
C:/temp/Job-1.odb,Step-1,Increment      1: Step Time =    1.000,"P-1-1",           104,       137.272,       135.950,            0.,NA,NA,"",    1.6737E+06,   1.49065E+06,   1.49065E+06
C:/temp/Job-1.odb,Step-1,Increment      1: Step Time =    1.000,"P-1-1",           105,       128.088,       135.359,            0.,NA,NA,"",   1.73751E+06,   1.68946E+06,   1.68946E+06
C:/temp/Job-1.odb,Step-1,Increment      1: Step Time =    1.000,"P-1-1",           106,       116.620,       136.389,            0.,NA,NA,"",   2.46844E+06,   2.54306E+06,   2.54306E+06
C:/temp/Job-1.odb,Step-1,Increment      1: Step Time =    1.000,"P-1-1",           107,       83.8090,       136.384,            0.,NA,NA,"",   2.12257E+06,   2.17499E+06,   2.17499E+06
C:/temp/Job-1.odb,Step-1,Increment      1: Step Time =    1.000,"P-1-1",           108,       72.7228,       135.817,            0.,NA,NA,"",   1.48321E+06,   1.42699E+06,   1.42699E+06
C:/temp/Job-1.odb,Step-1,Increment      1: Step Time =    1.000,"P-1-1",           109,       62.3390,       135.343,            0.,NA,NA,"",   1.33092E+06,   1.17921E+06,   1.17921E+06
C:/temp/Job-1.odb,Step-1,Increment      1: Step Time =    1.000,"P-1-1",           110,       52.0219,       135.862,            0.,NA,NA,"",   1.18606E+06,   1.04913E+06,   1.04913E+06
C:/temp/Job-1.odb,Step-1,Increment      1: Step Time =    1.000,"P-1-1",           111,       40.6024,       137.647,            0.,NA,NA,"",   1.03085E+06,   968.364E+03,   968.364E+03
C:/temp/Job-1.odb,Step-1,Increment      1: Step Time =    1.000,"P-1-1",           112,       29.6158,       135.710,            0.,NA,NA,"",   841.571E+03,   848.608E+03,   848.608E+03
C:/temp/Job-1.odb,Step-1,Increment      1: Step Time =    1.000,"P-1-1",           113,       20.4680,       133.460,            0.,NA,NA,"",   716.514E+03,   763.796E+03,   763.796E+03
C:/temp/Job-1.odb,Step-1,Increment      1: Step Time =    1.000,"P-1-1",           114,       9.94031,       134.360,            0.,NA,NA,"",   673.014E+03,   744.901E+03,   744.901E+03
C:/temp/Job-1.odb,Step-1,Increment      1: Step Time =    1.000,"P-1-1",           115,       9.68770,       124.742,            0.,NA,NA,"",   537.445E+03,   603.732E+03,   603.732E+03
C:/temp/Job-1.odb,Step-1,Increment      1: Step Time =    1.000,"P-1-1",           116,       22.6639,       127.827,            0.,NA,NA,"",   623.465E+03,   668.414E+03,   668.414E+03
C:/temp/Job-1.odb,Step-1,Increment      1: Step Time =    1.000,"P-1-1",           117,       41.3351,       125.116,            0.,NA,NA,"",   720.361E+03,   662.978E+03,   662.978E+03
C:/temp/Job-1.odb,Step-1,Increment      1: Step Time =    1.000,"P-1-1",           118,       52.4403,       124.338,            0.,NA,NA,"",   825.126E+03,   660.682E+03,   660.682E+03
C:/temp/Job-1.odb,Step-1,Increment      1: Step Time =    1.000,"P-1-1",           119,       62.8672,       124.926,            0.,NA,NA,"",   799.519E+03,   621.633E+03,   621.633E+03
C:/temp/Job-1.odb,Step-1,Increment      1: Step Time =    1.000,"P-1-1",           120,       137.627,       125.991,            0.,NA,NA,"",   1.27573E+06,   1.03584E+06,   1.03584E+06
C:/temp/Job-1.odb,Step-1,Increment      1: Step Time =    1.000,"P-1-1",           121,       148.150,       126.105,            0.,NA,NA,"",   1.35882E+06,   1.08033E+06,   1.08033E+06
C:/temp/Job-1.odb,Step-1,Increment      1: Step Time =    1.000,"P-1-1",           122,       158.801,       126.847,            0.,NA,NA,"",   1.24007E+06,   1.07952E+06,   1.07952E+06
C:/temp/Job-1.odb,Step-1,Increment      1: Step Time =    1.000,"P-1-1",           123,       169.292,       126.756,            0.,NA,NA,"",   1.10091E+06,   1.06827E+06,   1.06827E+06
C:/temp/Job-1.odb,Step-1,Increment      1: Step Time =    1.000,"P-1-1",           124,       179.883,       124.559,            0.,NA,NA,"",   963.483E+03,   1.03897E+06,   1.03897E+06
C:/temp/Job-1.odb,Step-1,Increment      1: Step Time =    1.000,"P-1-1",           125,       190.124,       124.831,            0.,NA,NA,"",   897.667E+03,   1.02823E+06,   1.02823E+06
C:/temp/Job-1.odb,Step-1,Increment      1: Step Time =    1.000,"P-1-1",           126,       138.009,       116.291,            0.,NA,NA,"",   770.948E+03,  -235.196E+03,  -235.196E+03
C:/temp/Job-1.odb,Step-1,Increment      1: Step Time =    1.000,"P-1-1",           127,       148.284,       116.104,            0.,NA,NA,"",   981.545E+03,   409.034E+03,   409.034E+03
C:/temp/Job-1.odb,Step-1,Increment      1: Step Time =    1.000,"P-1-1",           128,       157.448,       117.541,            0.,NA,NA,"",   991.490E+03,   836.012E+03,   836.012E+03
C:/temp/Job-1.odb,Step-1,Increment      1: Step Time =    1.000,"P-1-1",           129,       168.694,       115.881,            0.,NA,NA,"",   869.516E+03,   877.754E+03,   877.754E+03
C:/temp/Job-1.odb,Step-1,Increment      1: Step Time =    1.000,"P-1-1",           130,       179.560,       114.508,            0.,NA,NA,"",   834.479E+03,   936.622E+03,   936.622E+03
C:/temp/Job-1.odb,Step-1,Increment      1: Step Time =    1.000,"P-1-1",           131,       189.913,       114.865,            0.,NA,NA,"",   865.298E+03,   993.757E+03,   993.757E+03
C:/temp/Job-1.odb,Step-1,Increment      1: Step Time =    1.000,"P-1-1",           132,       144.522,       106.353,            0.,NA,NA,"",   645.232E+03,  -575.264E+03,  -575.264E+03
C:/temp/Job-1.odb,Step-1,Increment      1: Step Time =    1.000,"P-1-1",           133,       154.703,       106.874,            0.,NA,NA,"",   543.612E+03,   422.845E+03,   422.845E+03
C:/temp/Job-1.odb,Step-1,Increment      1: Step Time =    1.000,"P-1-1",           134,       170.049,       105.412,            0.,NA,NA,"",   637.155E+03,   706.212E+03,   706.212E+03
C:/temp/Job-1.odb,Step-1,Increment      1: Step Time =    1.000,"P-1-1",           135,       179.434,       104.355,            0.,NA,NA,"",   731.490E+03,   841.615E+03,   841.615E+03
C:/temp/Job-1.odb,Step-1,Increment      1: Step Time =    1.000,"P-1-1",           136,       189.751,       104.763,            0.,NA,NA,"",   842.658E+03,   955.105E+03,   955.105E+03
C:/temp/Job-1.odb,Step-1,Increment      1: Step Time =    1.000,"P-1-1",           137,       138.053,       84.7483,            0.,NA,NA,"",   784.393E+03,  -315.779E+03,  -315.779E+03
C:/temp/Job-1.odb,Step-1,Increment      1: Step Time =    1.000,"P-1-1",           138,       150.387,       84.5436,            0.,NA,NA,"",   934.250E+03,   667.854E+03,   667.854E+03
C:/temp/Job-1.odb,Step-1,Increment      1: Step Time =    1.000,"P-1-1",           139,       157.910,       84.0895,            0.,NA,NA,"",   915.939E+03,   775.494E+03,   775.494E+03
C:/temp/Job-1.odb,Step-1,Increment      1: Step Time =    1.000,"P-1-1",           140,       167.487,       84.7423,            0.,NA,NA,"",   854.255E+03,   852.859E+03,   852.859E+03
C:/temp/Job-1.odb,Step-1,Increment      1: Step Time =    1.000,"P-1-1",           141,       181.032,       84.0767,            0.,NA,NA,"",   855.525E+03,   962.356E+03,   962.356E+03
C:/temp/Job-1.odb,Step-1,Increment      1: Step Time =    1.000,"P-1-1",           142,       190.117,       84.7375,            0.,NA,NA,"",   867.077E+03,   995.845E+03,   995.845E+03
C:/temp/Job-1.odb,Step-1,Increment      1: Step Time =    1.000,"P-1-1",           143,       189.832,       94.7052,            0.,NA,NA,"",   845.248E+03,   958.428E+03,   958.428E+03
C:/temp/Job-1.odb,Step-1,Increment      1: Step Time =    1.000,"P-1-1",           144,       179.448,       93.6323,            0.,NA,NA,"",   746.730E+03,   857.017E+03,   857.017E+03
C:/temp/Job-1.odb,Step-1,Increment      1: Step Time =    1.000,"P-1-1",           145,       168.564,       92.9599,            0.,NA,NA,"",   634.881E+03,   690.063E+03,   690.063E+03
C:/temp/Job-1.odb,Step-1,Increment      1: Step Time =    1.000,"P-1-1",           146,       155.174,       97.0202,            0.,NA,NA,"",   410.084E+03,   339.187E+03,   339.187E+03
C:/temp/Job-1.odb,Step-1,Increment      1: Step Time =    1.000,"P-1-1",           147,       150.332,       96.2067,            0.,NA,NA,"",   445.622E+03,  -54.8816E+03,  -54.8816E+03
C:/temp/Job-1.odb,Step-1,Increment      1: Step Time =    1.000,"P-1-1",           148,       138.646,       72.7913,            0.,NA,NA,"",   1.38284E+06,   1.12331E+06,   1.12331E+06
C:/temp/Job-1.odb,Step-1,Increment      1: Step Time =    1.000,"P-1-1",           149,       146.191,       75.2897,            0.,NA,NA,"",   1.32604E+06,   1.02432E+06,   1.02432E+06
C:/temp/Job-1.odb,Step-1,Increment      1: Step Time =    1.000,"P-1-1",           150,       159.488,       74.4171,            0.,NA,NA,"",   1.20714E+06,   1.06086E+06,   1.06086E+06
C:/temp/Job-1.odb,Step-1,Increment      1: Step Time =    1.000,"P-1-1",           151,       170.636,       77.2083,            0.,NA,NA,"",   1.01152E+06,   1.00783E+06,   1.00783E+06
C:/temp/Job-1.odb,Step-1,Increment      1: Step Time =    1.000,"P-1-1",           152,       180.562,       75.1232,            0.,NA,NA,"",   962.822E+03,   1.04388E+06,   1.04388E+06
C:/temp/Job-1.odb,Step-1,Increment      1: Step Time =    1.000,"P-1-1",           153,       190.057,       74.8888,            0.,NA,NA,"",   900.746E+03,   1.03081E+06,   1.03081E+06
C:/temp/Job-1.odb,Step-1,Increment      1: Step Time =    1.000,"P-1-1",           154,       119.161,       64.5312,            0.,NA,NA,"",   2.26066E+06,   2.32478E+06,   2.32478E+06
C:/temp/Job-1.odb,Step-1,Increment      1: Step Time =    1.000,"P-1-1",           155,       9.62638,       64.8806,            0.,NA,NA,"",   686.336E+03,   759.021E+03,   759.021E+03
C:/temp/Job-1.odb,Step-1,Increment      1: Step Time =    1.000,"P-1-1",           156,       23.8388,       64.4352,            0.,NA,NA,"",   778.641E+03,   813.565E+03,   813.565E+03
C:/temp/Job-1.odb,Step-1,Increment      1: Step Time =    1.000,"P-1-1",           157,       31.9111,       64.2564,            0.,NA,NA,"",   865.912E+03,   858.322E+03,   858.322E+03
C:/temp/Job-1.odb,Step-1,Increment      1: Step Time =    1.000,"P-1-1",           158,       42.2775,       64.2596,            0.,NA,NA,"",   1.01802E+06,   943.989E+03,   943.989E+03
C:/temp/Job-1.odb,Step-1,Increment      1: Step Time =    1.000,"P-1-1",           159,       50.6638,       61.8502,            0.,NA,NA,"",   1.21661E+06,   1.09238E+06,   1.09238E+06
C:/temp/Job-1.odb,Step-1,Increment      1: Step Time =    1.000,"P-1-1",           160,       59.8336,       60.4646,            0.,NA,NA,"",   1.41914E+06,   1.27304E+06,   1.27304E+06
C:/temp/Job-1.odb,Step-1,Increment      1: Step Time =    1.000,"P-1-1",           161,       73.2348,       61.8651,            0.,NA,NA,"",   1.56811E+06,   1.51610E+06,   1.51610E+06
C:/temp/Job-1.odb,Step-1,Increment      1: Step Time =    1.000,"P-1-1",           162,       86.2559,       60.9723,            0.,NA,NA,"",   2.22543E+06,   2.30143E+06,   2.30143E+06
C:/temp/Job-1.odb,Step-1,Increment      1: Step Time =    1.000,"P-1-1",           163,       126.424,       64.2116,            0.,NA,NA,"",   1.78637E+06,   1.77058E+06,   1.77058E+06
C:/temp/Job-1.odb,Step-1,Increment      1: Step Time =    1.000,"P-1-1",           164,       138.468,       60.5259,            0.,NA,NA,"",   1.69709E+06,   1.53296E+06,   1.53296E+06
C:/temp/Job-1.odb,Step-1,Increment      1: Step Time =    1.000,"P-1-1",           165,       150.563,       60.8613,            0.,NA,NA,"",   1.55071E+06,   1.35597E+06,   1.35597E+06
C:/temp/Job-1.odb,Step-1,Increment      1: Step Time =    1.000,"P-1-1",           166,       159.762,       64.0535,            0.,NA,NA,"",   1.37423E+06,   1.23539E+06,   1.23539E+06
C:/temp/Job-1.odb,Step-1,Increment      1: Step Time =    1.000,"P-1-1",           167,       168.857,       67.4348,            0.,NA,NA,"",   1.19213E+06,   1.14019E+06,   1.14019E+06
C:/temp/Job-1.odb,Step-1,Increment      1: Step Time =    1.000,"P-1-1",           168,       179.583,       65.9522,            0.,NA,NA,"",   1.05141E+06,   1.09753E+06,   1.09753E+06
C:/temp/Job-1.odb,Step-1,Increment      1: Step Time =    1.000,"P-1-1",           169,       62.5133,       73.4732,            0.,NA,NA,"",   949.459E+03,   766.767E+03,   766.767E+03
C:/temp/Job-1.odb,Step-1,Increment      1: Step Time =    1.000,"P-1-1",           170,       53.6831,       70.7033,            0.,NA,NA,"",   1.01480E+06,   857.297E+03,   857.297E+03
C:/temp/Job-1.odb,Step-1,Increment      1: Step Time =    1.000,"P-1-1",           171,       39.7739,       73.0080,            0.,NA,NA,"",   765.604E+03,   715.964E+03,   715.964E+03
C:/temp/Job-1.odb,Step-1,Increment      1: Step Time =    1.000,"P-1-1",           172,       30.6269,       71.3740,            0.,NA,NA,"",   698.395E+03,   709.012E+03,   709.012E+03
C:/temp/Job-1.odb,Step-1,Increment      1: Step Time =    1.000,"P-1-1",           173,       19.8397,       73.6522,            0.,NA,NA,"",    585.37E+03,   638.215E+03,   638.215E+03
C:/temp/Job-1.odb,Step-1,Increment      1: Step Time =    1.000,"P-1-1",           174,       9.89624,       74.6429,            0.,NA,NA,"",   549.216E+03,   615.683E+03,   615.683E+03
C:/temp/Job-1.odb,Step-1,Increment      1: Step Time =    1.000,"P-1-1",           175,       60.6139,       85.1891,            0.,NA,NA,"",   512.262E+03,  -414.629E+03,  -414.629E+03
C:/temp/Job-1.odb,Step-1,Increment      1: Step Time =    1.000,"P-1-1",           176,       49.0459,       88.1852,            0.,NA,NA,"",   386.711E+03,   147.765E+03,   147.765E+03
C:/temp/Job-1.odb,Step-1,Increment      1: Step Time =    1.000,"P-1-1",           177,       42.0598,       84.1989,            0.,NA,NA,"",   470.295E+03,   422.213E+03,   422.213E+03
C:/temp/Job-1.odb,Step-1,Increment      1: Step Time =    1.000,"P-1-1",           178,       30.6957,       86.2568,            0.,NA,NA,"",   383.807E+03,   417.806E+03,   417.806E+03
C:/temp/Job-1.odb,Step-1,Increment      1: Step Time =    1.000,"P-1-1",           179,       24.3935,       85.1551,            0.,NA,NA,"",   402.414E+03,   452.271E+03,   452.271E+03
C:/temp/Job-1.odb,Step-1,Increment      1: Step Time =    1.000,"P-1-1",           180,       10.4917,       84.6952,            0.,NA,NA,"",   425.408E+03,   486.170E+03,   486.170E+03
C:/temp/Job-1.odb,Step-1,Increment      1: Step Time =    1.000,"P-1-1",           181,       50.7102,       96.5532,            0.,NA,NA,"",   210.843E+03,  -180.508E+03,  -180.508E+03
C:/temp/Job-1.odb,Step-1,Increment      1: Step Time =    1.000,"P-1-1",           182,       41.1838,       96.5888,            0.,NA,NA,"",   175.731E+03,   182.866E+03,   182.866E+03
C:/temp/Job-1.odb,Step-1,Increment      1: Step Time =    1.000,"P-1-1",           183,       30.7585,       94.9382,            0.,NA,NA,"",   259.771E+03,   298.778E+03,   298.778E+03
C:/temp/Job-1.odb,Step-1,Increment      1: Step Time =    1.000,"P-1-1",           184,       22.7422,       94.9835,            0.,NA,NA,"",   307.023E+03,   354.057E+03,   354.057E+03
C:/temp/Job-1.odb,Step-1,Increment      1: Step Time =    1.000,"P-1-1",           185,       9.81689,       94.9251,            0.,NA,NA,"",   351.775E+03,   405.848E+03,   405.848E+03
C:/temp/Job-1.odb,Step-1,Increment      1: Step Time =    1.000,"P-1-1",           186,       63.1385,       116.583,            0.,NA,NA,"",   488.873E+03,  -385.198E+03,  -385.198E+03
C:/temp/Job-1.odb,Step-1,Increment      1: Step Time =    1.000,"P-1-1",           187,       52.4362,       117.028,            0.,NA,NA,"",   578.868E+03,   264.503E+03,   264.503E+03
C:/temp/Job-1.odb,Step-1,Increment      1: Step Time =    1.000,"P-1-1",           188,       39.5570,       118.441,            0.,NA,NA,"",   535.103E+03,   504.000E+03,   504.000E+03
C:/temp/Job-1.odb,Step-1,Increment      1: Step Time =    1.000,"P-1-1",           189,       28.3379,       118.025,            0.,NA,NA,"",   465.542E+03,   502.795E+03,   502.795E+03
C:/temp/Job-1.odb,Step-1,Increment      1: Step Time =    1.000,"P-1-1",           190,       22.1456,       114.643,            0.,NA,NA,"",   398.607E+03,   451.817E+03,   451.817E+03
C:/temp/Job-1.odb,Step-1,Increment      1: Step Time =    1.000,"P-1-1",           191,       10.2442,       114.673,            0.,NA,NA,"",   417.781E+03,   478.165E+03,   478.165E+03
C:/temp/Job-1.odb,Step-1,Increment      1: Step Time =    1.000,"P-1-1",           192,       9.83656,       104.741,            0.,NA,NA,"",    350.55E+03,   404.432E+03,   404.432E+03
C:/temp/Job-1.odb,Step-1,Increment      1: Step Time =    1.000,"P-1-1",           193,       19.8174,       103.730,            0.,NA,NA,"",   309.746E+03,   356.524E+03,   356.524E+03
C:/temp/Job-1.odb,Step-1,Increment      1: Step Time =    1.000,"P-1-1",           194,       33.5103,       102.874,            0.,NA,NA,"",   222.120E+03,   255.167E+03,   255.167E+03
C:/temp/Job-1.odb,Step-1,Increment      1: Step Time =    1.000,"P-1-1",           195,       43.6130,       103.598,            0.,NA,NA,"",   171.245E+03,   156.115E+03,   156.115E+03
C:/temp/Job-1.odb,Step-1,Increment      1: Step Time =    1.000,"P-1-1",           196,       53.8219,       108.350,            0.,NA,NA,"",   371.269E+03,  -228.901E+03,  -228.901E+03
C:/temp/Job-1.odb,Step-1,Increment      1: Step Time =    1.000,"P-1-1",           197,       190.330,       10.1723,            0.,NA,NA,"",   1.00206E+06,   1.00350E+06,   1.00350E+06
C:/temp/Job-1.odb,Step-1,Increment      1: Step Time =    1.000,"P-1-1",           198,       179.418,       11.7604,            0.,NA,NA,"",   1.01840E+06,   1.01900E+06,   1.01900E+06
C:/temp/Job-1.odb,Step-1,Increment      1: Step Time =    1.000,"P-1-1",           199,       168.932,       10.1953,            0.,NA,NA,"",   1.03030E+06,   1.02673E+06,   1.02673E+06
C:/temp/Job-1.odb,Step-1,Increment      1: Step Time =    1.000,"P-1-1",           200,       157.920,       11.1043,            0.,NA,NA,"",   1.04353E+06,   1.03556E+06,   1.03556E+06
C:/temp/Job-1.odb,Step-1,Increment      1: Step Time =    1.000,"P-1-1",           201,       134.896,       9.63516,            0.,NA,NA,"",   974.732E+03,   971.211E+03,   971.211E+03
C:/temp/Job-1.odb,Step-1,Increment      1: Step Time =    1.000,"P-1-1",           202,       124.784,       9.86794,            0.,NA,NA,"",   930.922E+03,   934.114E+03,   934.114E+03
C:/temp/Job-1.odb,Step-1,Increment      1: Step Time =    1.000,"P-1-1",           203,       114.675,       10.0018,            0.,NA,NA,"",   896.258E+03,   907.799E+03,   907.799E+03
C:/temp/Job-1.odb,Step-1,Increment      1: Step Time =    1.000,"P-1-1",           204,       104.729,       9.87626,            0.,NA,NA,"",   893.226E+03,   908.723E+03,   908.723E+03
C:/temp/Job-1.odb,Step-1,Increment      1: Step Time =    1.000,"P-1-1",           205,       94.9388,       9.70448,            0.,NA,NA,"",   941.022E+03,   952.150E+03,   952.150E+03
C:/temp/Job-1.odb,Step-1,Increment      1: Step Time =    1.000,"P-1-1",           206,       85.2391,       9.53583,            0.,NA,NA,"",   1.02930E+06,   1.03140E+06,   1.03140E+06
C:/temp/Job-1.odb,Step-1,Increment      1: Step Time =    1.000,"P-1-1",           207,       75.7364,       9.37825,            0.,NA,NA,"",   1.13372E+06,   1.12830E+06,   1.12830E+06
C:/temp/Job-1.odb,Step-1,Increment      1: Step Time =    1.000,"P-1-1",           208,       66.5106,       10.0135,            0.,NA,NA,"",    1.2442E+06,   1.23366E+06,   1.23366E+06
C:/temp/Job-1.odb,Step-1,Increment      1: Step Time =    1.000,"P-1-1",           209,       51.5300,       11.8569,            0.,NA,NA,"",   1.38400E+06,   1.36780E+06,   1.36780E+06
C:/temp/Job-1.odb,Step-1,Increment      1: Step Time =    1.000,"P-1-1",           210,       39.2605,       8.68818,            0.,NA,NA,"",   1.45219E+06,   1.44632E+06,   1.44632E+06
C:/temp/Job-1.odb,Step-1,Increment      1: Step Time =    1.000,"P-1-1",           211,       30.0570,       8.65022,            0.,NA,NA,"",   1.50577E+06,   1.50483E+06,   1.50483E+06
C:/temp/Job-1.odb,Step-1,Increment      1: Step Time =    1.000,"P-1-1",           212,       20.3821,       9.12290,            0.,NA,NA,"",   1.56292E+06,   1.57246E+06,   1.57246E+06
C:/temp/Job-1.odb,Step-1,Increment      1: Step Time =    1.000,"P-1-1",           213,       10.3124,       9.85697,            0.,NA,NA,"",   1.63137E+06,   1.68173E+06,   1.68173E+06
C:/temp/Job-1.odb,Step-1,Increment      1: Step Time =    1.000,"P-1-1",           214,       191.487,       24.4874,            0.,NA,NA,"",   1.00127E+06,   1.01157E+06,   1.01157E+06
C:/temp/Job-1.odb,Step-1,Increment      1: Step Time =    1.000,"P-1-1",           215,       180.130,       22.0726,            0.,NA,NA,"",   1.04063E+06,   1.04340E+06,   1.04340E+06
C:/temp/Job-1.odb,Step-1,Increment      1: Step Time =    1.000,"P-1-1",           216,       170.089,       23.8767,            0.,NA,NA,"",   1.10195E+06,   1.08977E+06,   1.08977E+06
C:/temp/Job-1.odb,Step-1,Increment      1: Step Time =    1.000,"P-1-1",           217,       160.281,       21.5253,            0.,NA,NA,"",   1.13524E+06,   1.11312E+06,   1.11312E+06
C:/temp/Job-1.odb,Step-1,Increment      1: Step Time =    1.000,"P-1-1",           218,       144.371,       20.9147,            0.,NA,NA,"",   1.16862E+06,   1.14478E+06,   1.14478E+06
C:/temp/Job-1.odb,Step-1,Increment      1: Step Time =    1.000,"P-1-1",           219,       134.430,       18.9478,            0.,NA,NA,"",   1.12777E+06,   1.11996E+06,   1.11996E+06
C:/temp/Job-1.odb,Step-1,Increment      1: Step Time =    1.000,"P-1-1",           220,       124.421,       19.8911,            0.,NA,NA,"",   1.10870E+06,   1.12187E+06,   1.12187E+06
C:/temp/Job-1.odb,Step-1,Increment      1: Step Time =    1.000,"P-1-1",           221,       113.936,       20.0516,            0.,NA,NA,"",   1.07849E+06,   1.11653E+06,   1.11653E+06
C:/temp/Job-1.odb,Step-1,Increment      1: Step Time =    1.000,"P-1-1",           222,       103.796,       19.8972,            0.,NA,NA,"",   1.07500E+06,   1.12283E+06,   1.12283E+06
C:/temp/Job-1.odb,Step-1,Increment      1: Step Time =    1.000,"P-1-1",           223,       94.6478,       19.5187,            0.,NA,NA,"",   1.12303E+06,   1.15761E+06,   1.15761E+06
C:/temp/Job-1.odb,Step-1,Increment      1: Step Time =    1.000,"P-1-1",           224,       85.2980,       19.3563,            0.,NA,NA,"",   1.20729E+06,   1.22062E+06,   1.22062E+06
C:/temp/Job-1.odb,Step-1,Increment      1: Step Time =    1.000,"P-1-1",           225,       76.0249,       18.9522,            0.,NA,NA,"",   1.28893E+06,   1.27711E+06,   1.27711E+06
C:/temp/Job-1.odb,Step-1,Increment      1: Step Time =    1.000,"P-1-1",           226,       66.1904,       21.0840,            0.,NA,NA,"",   1.38088E+06,   1.34980E+06,   1.34980E+06
C:/temp/Job-1.odb,Step-1,Increment      1: Step Time =    1.000,"P-1-1",           227,       52.7662,       22.2523,            0.,NA,NA,"",   1.43542E+06,   1.39491E+06,   1.39491E+06
C:/temp/Job-1.odb,Step-1,Increment      1: Step Time =    1.000,"P-1-1",           228,       40.9794,       17.0136,            0.,NA,NA,"",   1.44245E+06,   1.42298E+06,   1.42298E+06
C:/temp/Job-1.odb,Step-1,Increment      1: Step Time =    1.000,"P-1-1",           229,       31.1138,       21.3319,            0.,NA,NA,"",   1.43912E+06,   1.43289E+06,   1.43289E+06
C:/temp/Job-1.odb,Step-1,Increment      1: Step Time =    1.000,"P-1-1",           230,       22.2281,       21.6267,            0.,NA,NA,"",   1.41656E+06,   1.44186E+06,   1.44186E+06
C:/temp/Job-1.odb,Step-1,Increment      1: Step Time =    1.000,"P-1-1",           231,       11.5292,       20.6284,            0.,NA,NA,"",   1.36321E+06,   1.44403E+06,   1.44403E+06
C:/temp/Job-1.odb,Step-1,Increment      1: Step Time =    1.000,"P-1-1",           232,       190.991,       33.7403,            0.,NA,NA,"",   994.793E+03,   1.01991E+06,   1.01991E+06
C:/temp/Job-1.odb,Step-1,Increment      1: Step Time =    1.000,"P-1-1",           233,       181.223,       31.2363,            0.,NA,NA,"",   1.05173E+06,   1.06003E+06,   1.06003E+06
C:/temp/Job-1.odb,Step-1,Increment      1: Step Time =    1.000,"P-1-1",           234,       172.302,       32.6414,            0.,NA,NA,"",   1.13272E+06,   1.11866E+06,   1.11866E+06
C:/temp/Job-1.odb,Step-1,Increment      1: Step Time =    1.000,"P-1-1",           235,       157.906,       32.6246,            0.,NA,NA,"",   1.26253E+06,   1.21308E+06,   1.21308E+06
C:/temp/Job-1.odb,Step-1,Increment      1: Step Time =    1.000,"P-1-1",           236,       147.829,       30.9817,            0.,NA,NA,"",   1.30700E+06,   1.25704E+06,   1.25704E+06
C:/temp/Job-1.odb,Step-1,Increment      1: Step Time =    1.000,"P-1-1",           237,       138.048,       30.2265,            0.,NA,NA,"",   1.32521E+06,   1.29389E+06,   1.29389E+06
C:/temp/Job-1.odb,Step-1,Increment      1: Step Time =    1.000,"P-1-1",           238,       123.932,       31.1361,            0.,NA,NA,"",   1.30859E+06,   1.33859E+06,   1.33859E+06
C:/temp/Job-1.odb,Step-1,Increment      1: Step Time =    1.000,"P-1-1",           239,       103.495,       30.5774,            0.,NA,NA,"",   1.24565E+06,   1.33625E+06,   1.33625E+06
C:/temp/Job-1.odb,Step-1,Increment      1: Step Time =    1.000,"P-1-1",           240,       93.6818,       29.9094,            0.,NA,NA,"",   1.29236E+06,   1.36218E+06,   1.36218E+06
C:/temp/Job-1.odb,Step-1,Increment      1: Step Time =    1.000,"P-1-1",           241,       82.7101,       29.4976,            0.,NA,NA,"",   1.39019E+06,   1.40727E+06,   1.40727E+06
C:/temp/Job-1.odb,Step-1,Increment      1: Step Time =    1.000,"P-1-1",           242,       74.4581,       28.3471,            0.,NA,NA,"",   1.43207E+06,   1.41338E+06,   1.41338E+06
C:/temp/Job-1.odb,Step-1,Increment      1: Step Time =    1.000,"P-1-1",           243,       64.6273,       31.6213,            0.,NA,NA,"",   1.50550E+06,   1.44938E+06,   1.44938E+06
C:/temp/Job-1.odb,Step-1,Increment      1: Step Time =    1.000,"P-1-1",           244,       50.6215,       32.4642,            0.,NA,NA,"",   1.46732E+06,   1.40420E+06,   1.40420E+06
C:/temp/Job-1.odb,Step-1,Increment      1: Step Time =    1.000,"P-1-1",           245,       40.8508,       30.2069,            0.,NA,NA,"",   1.42289E+06,   1.38275E+06,   1.38275E+06
C:/temp/Job-1.odb,Step-1,Increment      1: Step Time =    1.000,"P-1-1",           246,       31.7947,       29.5852,            0.,NA,NA,"",   1.37404E+06,   1.36395E+06,   1.36395E+06
C:/temp/Job-1.odb,Step-1,Increment      1: Step Time =    1.000,"P-1-1",           247,       22.5077,       31.3507,            0.,NA,NA,"",   1.28850E+06,   1.31770E+06,   1.31770E+06
C:/temp/Job-1.odb,Step-1,Increment      1: Step Time =    1.000,"P-1-1",           248,       9.48820,       35.2888,            0.,NA,NA,"",   1.10481E+06,   1.20044E+06,   1.20044E+06
C:/temp/Job-1.odb,Step-1,Increment      1: Step Time =    1.000,"P-1-1",           249,       190.091,       43.1183,            0.,NA,NA,"",   988.149E+03,   1.03448E+06,   1.03448E+06
C:/temp/Job-1.odb,Step-1,Increment      1: Step Time =    1.000,"P-1-1",           250,       175.655,       43.3907,            0.,NA,NA,"",   1.13954E+06,   1.13318E+06,   1.13318E+06
C:/temp/Job-1.odb,Step-1,Increment      1: Step Time =    1.000,"P-1-1",           251,       170.071,       43.2483,            0.,NA,NA,"",   1.20878E+06,   1.17650E+06,   1.17650E+06
C:/temp/Job-1.odb,Step-1,Increment      1: Step Time =    1.000,"P-1-1",           252,       159.836,       41.0405,            0.,NA,NA,"",   1.32170E+06,   1.25350E+06,   1.25350E+06
C:/temp/Job-1.odb,Step-1,Increment      1: Step Time =    1.000,"P-1-1",           253,       145.727,       42.3221,            0.,NA,NA,"",   1.47818E+06,   1.38958E+06,   1.38958E+06
C:/temp/Job-1.odb,Step-1,Increment      1: Step Time =    1.000,"P-1-1",           254,       133.152,       42.4866,            0.,NA,NA,"",   1.54447E+06,   1.50585E+06,   1.50585E+06
C:/temp/Job-1.odb,Step-1,Increment      1: Step Time =    1.000,"P-1-1",           255,       127.510,       40.6933,            0.,NA,NA,"",   1.50617E+06,   1.51232E+06,   1.51232E+06
C:/temp/Job-1.odb,Step-1,Increment      1: Step Time =    1.000,"P-1-1",           256,       117.765,       40.3249,            0.,NA,NA,"",   1.46013E+06,   1.54262E+06,   1.54262E+06
C:/temp/Job-1.odb,Step-1,Increment      1: Step Time =    1.000,"P-1-1",           257,       107.839,       42.7567,            0.,NA,NA,"",   1.50080E+06,   1.63417E+06,   1.63417E+06
C:/temp/Job-1.odb,Step-1,Increment      1: Step Time =    1.000,"P-1-1",           258,       97.0916,       40.0412,            0.,NA,NA,"",   1.46908E+06,   1.58925E+06,   1.58925E+06
C:/temp/Job-1.odb,Step-1,Increment      1: Step Time =    1.000,"P-1-1",           259,       83.9858,       39.1889,            0.,NA,NA,"",   1.53658E+06,   1.57645E+06,   1.57645E+06
C:/temp/Job-1.odb,Step-1,Increment      1: Step Time =    1.000,"P-1-1",           260,       76.8521,       41.7706,            0.,NA,NA,"",   1.60643E+06,   1.59792E+06,   1.59792E+06
C:/temp/Job-1.odb,Step-1,Increment      1: Step Time =    1.000,"P-1-1",           261,       63.0516,       40.8630,            0.,NA,NA,"",   1.56834E+06,   1.48719E+06,   1.48719E+06
C:/temp/Job-1.odb,Step-1,Increment      1: Step Time =    1.000,"P-1-1",           262,       51.9591,       42.4464,            0.,NA,NA,"",   1.46949E+06,   1.38199E+06,   1.38199E+06
C:/temp/Job-1.odb,Step-1,Increment      1: Step Time =    1.000,"P-1-1",           263,       39.7519,       42.6793,            0.,NA,NA,"",   1.32703E+06,   1.27780E+06,   1.27780E+06
C:/temp/Job-1.odb,Step-1,Increment      1: Step Time =    1.000,"P-1-1",           264,       28.9253,       43.0057,            0.,NA,NA,"",   1.19719E+06,   1.19807E+06,   1.19807E+06
C:/temp/Job-1.odb,Step-1,Increment      1: Step Time =    1.000,"P-1-1",           265,       19.5759,       43.1874,            0.,NA,NA,"",   1.09439E+06,   1.14156E+06,   1.14156E+06
C:/temp/Job-1.odb,Step-1,Increment      1: Step Time =    1.000,"P-1-1",           266,       10.8352,       45.1647,            0.,NA,NA,"",   980.254E+03,   1.06348E+06,   1.06348E+06
C:/temp/Job-1.odb,Step-1,Increment      1: Step Time =    1.000,"P-1-1",           267,       188.726,       52.0138,            0.,NA,NA,"",   983.922E+03,   1.05125E+06,   1.05125E+06
C:/temp/Job-1.odb,Step-1,Increment      1: Step Time =    1.000,"P-1-1",           268,       178.520,       56.2154,            0.,NA,NA,"",   1.10992E+06,   1.12755E+06,   1.12755E+06
C:/temp/Job-1.odb,Step-1,Increment      1: Step Time =    1.000,"P-1-1",           269,       167.842,       54.9491,            0.,NA,NA,"",   1.27130E+06,   1.21285E+06,   1.21285E+06
C:/temp/Job-1.odb,Step-1,Increment      1: Step Time =    1.000,"P-1-1",           270,       155.686,       52.1175,            0.,NA,NA,"",   1.45592E+06,   1.33119E+06,   1.33119E+06
C:/temp/Job-1.odb,Step-1,Increment      1: Step Time =    1.000,"P-1-1",           271,       147.402,       52.5027,            0.,NA,NA,"",   1.57791E+06,   1.43143E+06,   1.43143E+06
C:/temp/Job-1.odb,Step-1,Increment      1: Step Time =    1.000,"P-1-1",           272,       133.663,       50.7487,            0.,NA,NA,"",   1.66773E+06,   1.59743E+06,   1.59743E+06
C:/temp/Job-1.odb,Step-1,Increment      1: Step Time =    1.000,"P-1-1",           273,       127.171,       50.5162,            0.,NA,NA,"",   1.68730E+06,   1.68371E+06,   1.68371E+06
C:/temp/Job-1.odb,Step-1,Increment      1: Step Time =    1.000,"P-1-1",           274,       115.457,       51.0703,            0.,NA,NA,"",   1.77890E+06,   1.89875E+06,   1.89875E+06
C:/temp/Job-1.odb,Step-1,Increment      1: Step Time =    1.000,"P-1-1",           275,       104.990,       51.7490,            0.,NA,NA,"",   1.91194E+06,   2.08189E+06,   2.08189E+06
C:/temp/Job-1.odb,Step-1,Increment      1: Step Time =    1.000,"P-1-1",           276,       83.6023,       50.2251,            0.,NA,NA,"",   1.75195E+06,   1.80957E+06,   1.80957E+06
C:/temp/Job-1.odb,Step-1,Increment      1: Step Time =    1.000,"P-1-1",           277,       73.9096,       50.0925,            0.,NA,NA,"",   1.69084E+06,   1.65011E+06,   1.65011E+06
C:/temp/Job-1.odb,Step-1,Increment      1: Step Time =    1.000,"P-1-1",           278,       63.8617,       50.0804,            0.,NA,NA,"",   1.58227E+06,   1.48086E+06,   1.48086E+06
C:/temp/Job-1.odb,Step-1,Increment      1: Step Time =    1.000,"P-1-1",           279,       52.6243,       53.4946,            0.,NA,NA,"",   1.40006E+06,   1.28420E+06,   1.28420E+06
C:/temp/Job-1.odb,Step-1,Increment      1: Step Time =    1.000,"P-1-1",           280,       42.6877,       54.7161,            0.,NA,NA,"",   1.21218E+06,   1.13922E+06,   1.13922E+06
C:/temp/Job-1.odb,Step-1,Increment      1: Step Time =    1.000,"P-1-1",           281,       32.7813,       56.4381,            0.,NA,NA,"",   1.03453E+06,   1.01754E+06,   1.01754E+06
C:/temp/Job-1.odb,Step-1,Increment      1: Step Time =    1.000,"P-1-1",           282,       19.5052,       51.2542,            0.,NA,NA,"",   969.489E+03,   1.01618E+06,   1.01618E+06
C:/temp/Job-1.odb,Step-1,Increment      1: Step Time =    1.000,"P-1-1",           283,       10.0533,       50.3472,            0.,NA,NA,"",   899.668E+03,   982.072E+03,   982.072E+03
C:/temp/Job-1.odb,Step-1,Increment      1: Step Time =    1.000,"P-1-1",           284,       179.155,       144.296,            0.,NA,NA,"",   1.10158E+06,   1.12312E+06,   1.12312E+06
C:/temp/Job-1.odb,Step-1,Increment      1: Step Time =    1.000,"P-1-1",           285,       170.360,       147.736,            0.,NA,NA,"",   1.23111E+06,   1.19200E+06,   1.19200E+06
C:/temp/Job-1.odb,Step-1,Increment      1: Step Time =    1.000,"P-1-1",           286,       157.399,       148.976,            0.,NA,NA,"",   1.42143E+06,   1.30877E+06,   1.30877E+06
C:/temp/Job-1.odb,Step-1,Increment      1: Step Time =    1.000,"P-1-1",           287,       148.203,       147.696,            0.,NA,NA,"",   1.55887E+06,   1.41618E+06,   1.41618E+06
C:/temp/Job-1.odb,Step-1,Increment      1: Step Time =    1.000,"P-1-1",           288,       138.240,       146.205,            0.,NA,NA,"",   1.67533E+06,   1.55382E+06,   1.55382E+06
C:/temp/Job-1.odb,Step-1,Increment      1: Step Time =    1.000,"P-1-1",           289,       127.603,       147.454,            0.,NA,NA,"",   1.72439E+06,   1.71219E+06,   1.71219E+06
C:/temp/Job-1.odb,Step-1,Increment      1: Step Time =    1.000,"P-1-1",           290,       115.777,       146.756,            0.,NA,NA,"",   1.85797E+06,   1.98000E+06,   1.98000E+06
C:/temp/Job-1.odb,Step-1,Increment      1: Step Time =    1.000,"P-1-1",           291,       106.405,       149.973,            0.,NA,NA,"",   1.81625E+06,   1.98191E+06,   1.98191E+06
C:/temp/Job-1.odb,Step-1,Increment      1: Step Time =    1.000,"P-1-1",           292,       94.4250,       149.352,            0.,NA,NA,"",   1.84990E+06,   1.99493E+06,   1.99493E+06
C:/temp/Job-1.odb,Step-1,Increment      1: Step Time =    1.000,"P-1-1",           293,       80.2315,       144.868,            0.,NA,NA,"",   1.78886E+06,   1.81685E+06,   1.81685E+06
C:/temp/Job-1.odb,Step-1,Increment      1: Step Time =    1.000,"P-1-1",           294,       72.6044,       148.082,            0.,NA,NA,"",   1.67620E+06,   1.62237E+06,   1.62237E+06
C:/temp/Job-1.odb,Step-1,Increment      1: Step Time =    1.000,"P-1-1",           295,       64.6877,       148.247,            0.,NA,NA,"",   1.59183E+06,   1.48699E+06,   1.48699E+06
C:/temp/Job-1.odb,Step-1,Increment      1: Step Time =    1.000,"P-1-1",           296,       54.4453,       146.022,            0.,NA,NA,"",   1.42304E+06,   1.30283E+06,   1.30283E+06
C:/temp/Job-1.odb,Step-1,Increment      1: Step Time =    1.000,"P-1-1",           297,       41.7153,       150.267,            0.,NA,NA,"",   1.27500E+06,   1.20917E+06,   1.20917E+06
C:/temp/Job-1.odb,Step-1,Increment      1: Step Time =    1.000,"P-1-1",           298,       32.1136,       147.774,            0.,NA,NA,"",   1.10172E+06,   1.08631E+06,   1.08631E+06
C:/temp/Job-1.odb,Step-1,Increment      1: Step Time =    1.000,"P-1-1",           299,       20.6393,       149.907,            0.,NA,NA,"",   1.00074E+06,   1.04265E+06,   1.04265E+06
C:/temp/Job-1.odb,Step-1,Increment      1: Step Time =    1.000,"P-1-1",           300,       10.1535,       149.724,            0.,NA,NA,"",   903.987E+03,   986.066E+03,   986.066E+03
C:/temp/Job-1.odb,Step-1,Increment      1: Step Time =    1.000,"P-1-1",           301,       188.955,       157.868,            0.,NA,NA,"",   996.957E+03,   1.03813E+06,   1.03813E+06
C:/temp/Job-1.odb,Step-1,Increment      1: Step Time =    1.000,"P-1-1",           302,       178.849,       160.033,            0.,NA,NA,"",   1.09606E+06,   1.10104E+06,   1.10104E+06
C:/temp/Job-1.odb,Step-1,Increment      1: Step Time =    1.000,"P-1-1",           303,       168.722,       157.142,            0.,NA,NA,"",   1.22394E+06,   1.18618E+06,   1.18618E+06
C:/temp/Job-1.odb,Step-1,Increment      1: Step Time =    1.000,"P-1-1",           304,       159.765,       157.910,            0.,NA,NA,"",   1.33872E+06,   1.26443E+06,   1.26443E+06
C:/temp/Job-1.odb,Step-1,Increment      1: Step Time =    1.000,"P-1-1",           305,       150.678,       159.247,            0.,NA,NA,"",   1.42255E+06,   1.33785E+06,   1.33785E+06
C:/temp/Job-1.odb,Step-1,Increment      1: Step Time =    1.000,"P-1-1",           306,       134.577,       156.051,            0.,NA,NA,"",   1.56447E+06,   1.51439E+06,   1.51439E+06
C:/temp/Job-1.odb,Step-1,Increment      1: Step Time =    1.000,"P-1-1",           307,       126.673,       158.541,            0.,NA,NA,"",   1.51698E+06,   1.52872E+06,   1.52872E+06
C:/temp/Job-1.odb,Step-1,Increment      1: Step Time =    1.000,"P-1-1",           308,       116.636,       158.347,            0.,NA,NA,"",   1.48912E+06,   1.58012E+06,   1.58012E+06
C:/temp/Job-1.odb,Step-1,Increment      1: Step Time =    1.000,"P-1-1",           309,       105.837,       160.497,            0.,NA,NA,"",   1.41580E+06,   1.54328E+06,   1.54328E+06
C:/temp/Job-1.odb,Step-1,Increment      1: Step Time =    1.000,"P-1-1",           310,       90.5141,       159.794,            0.,NA,NA,"",   1.51287E+06,   1.60034E+06,   1.60034E+06
C:/temp/Job-1.odb,Step-1,Increment      1: Step Time =    1.000,"P-1-1",           311,       81.9409,       155.627,            0.,NA,NA,"",   1.64020E+06,   1.67285E+06,   1.67285E+06
C:/temp/Job-1.odb,Step-1,Increment      1: Step Time =    1.000,"P-1-1",           312,       71.9787,       157.804,            0.,NA,NA,"",   1.61651E+06,   1.57169E+06,   1.57169E+06
C:/temp/Job-1.odb,Step-1,Increment      1: Step Time =    1.000,"P-1-1",           313,       66.0126,       161.194,            0.,NA,NA,"",   1.57358E+06,   1.50501E+06,   1.50501E+06
C:/temp/Job-1.odb,Step-1,Increment      1: Step Time =    1.000,"P-1-1",           314,       51.8987,       156.538,            0.,NA,NA,"",   1.46262E+06,   1.37145E+06,   1.37145E+06
C:/temp/Job-1.odb,Step-1,Increment      1: Step Time =    1.000,"P-1-1",           315,       40.9584,       156.312,            0.,NA,NA,"",   1.33029E+06,   1.27458E+06,   1.27458E+06
C:/temp/Job-1.odb,Step-1,Increment      1: Step Time =    1.000,"P-1-1",           316,       31.0856,       158.972,            0.,NA,NA,"",   1.25208E+06,   1.24207E+06,   1.24207E+06
C:/temp/Job-1.odb,Step-1,Increment      1: Step Time =    1.000,"P-1-1",           317,       18.8792,       159.715,            0.,NA,NA,"",   1.12879E+06,   1.17881E+06,   1.17881E+06
C:/temp/Job-1.odb,Step-1,Increment      1: Step Time =    1.000,"P-1-1",           318,       9.15793,       159.658,            0.,NA,NA,"",   1.03018E+06,   1.12381E+06,   1.12381E+06
C:/temp/Job-1.odb,Step-1,Increment      1: Step Time =    1.000,"P-1-1",           319,       189.819,       168.840,            0.,NA,NA,"",   1.00332E+06,   1.02231E+06,   1.02231E+06
C:/temp/Job-1.odb,Step-1,Increment      1: Step Time =    1.000,"P-1-1",           320,       176.403,       169.581,            0.,NA,NA,"",   1.09134E+06,   1.08776E+06,   1.08776E+06
C:/temp/Job-1.odb,Step-1,Increment      1: Step Time =    1.000,"P-1-1",           321,       167.628,       170.709,            0.,NA,NA,"",   1.15709E+06,   1.13370E+06,   1.13370E+06
C:/temp/Job-1.odb,Step-1,Increment      1: Step Time =    1.000,"P-1-1",           322,       156.381,       170.987,            0.,NA,NA,"",   1.23373E+06,   1.19241E+06,   1.19241E+06
C:/temp/Job-1.odb,Step-1,Increment      1: Step Time =    1.000,"P-1-1",           323,       146.397,       168.030,            0.,NA,NA,"",   1.32782E+06,   1.27640E+06,   1.27640E+06
C:/temp/Job-1.odb,Step-1,Increment      1: Step Time =    1.000,"P-1-1",           324,       133.054,       168.516,            0.,NA,NA,"",   1.34248E+06,   1.32692E+06,   1.32692E+06
C:/temp/Job-1.odb,Step-1,Increment      1: Step Time =    1.000,"P-1-1",           325,       127.037,       167.172,            0.,NA,NA,"",   1.35166E+06,   1.36295E+06,   1.36295E+06
C:/temp/Job-1.odb,Step-1,Increment      1: Step Time =    1.000,"P-1-1",           326,       113.015,       168.404,            0.,NA,NA,"",   1.26692E+06,   1.34540E+06,   1.34540E+06
C:/temp/Job-1.odb,Step-1,Increment      1: Step Time =    1.000,"P-1-1",           327,       103.514,       170.374,            0.,NA,NA,"",   1.23340E+06,   1.32119E+06,   1.32119E+06
C:/temp/Job-1.odb,Step-1,Increment      1: Step Time =    1.000,"P-1-1",           328,       94.2840,       169.332,            0.,NA,NA,"",   1.30165E+06,   1.37607E+06,   1.37607E+06
C:/temp/Job-1.odb,Step-1,Increment      1: Step Time =    1.000,"P-1-1",           329,       86.4298,       166.331,            0.,NA,NA,"",   1.42445E+06,   1.46792E+06,   1.46792E+06
C:/temp/Job-1.odb,Step-1,Increment      1: Step Time =    1.000,"P-1-1",           330,       71.0824,       169.594,            0.,NA,NA,"",   1.47855E+06,   1.44372E+06,   1.44372E+06
C:/temp/Job-1.odb,Step-1,Increment      1: Step Time =    1.000,"P-1-1",           331,       61.1692,       170.102,            0.,NA,NA,"",   1.48841E+06,   1.42981E+06,   1.42981E+06
C:/temp/Job-1.odb,Step-1,Increment      1: Step Time =    1.000,"P-1-1",           332,       53.7038,       168.133,            0.,NA,NA,"",   1.48165E+06,   1.41620E+06,   1.41620E+06
C:/temp/Job-1.odb,Step-1,Increment      1: Step Time =    1.000,"P-1-1",           333,       42.6056,       168.801,            0.,NA,NA,"",   1.42485E+06,   1.38051E+06,   1.38051E+06
C:/temp/Job-1.odb,Step-1,Increment      1: Step Time =    1.000,"P-1-1",           334,       31.3273,       167.752,            0.,NA,NA,"",   1.34542E+06,   1.33738E+06,   1.33738E+06
C:/temp/Job-1.odb,Step-1,Increment      1: Step Time =    1.000,"P-1-1",           335,       19.7185,       169.445,            0.,NA,NA,"",   1.28234E+06,   1.32565E+06,   1.32565E+06
C:/temp/Job-1.odb,Step-1,Increment      1: Step Time =    1.000,"P-1-1",           336,       9.61449,       169.340,            0.,NA,NA,"",   1.17337E+06,   1.27022E+06,   1.27022E+06
C:/temp/Job-1.odb,Step-1,Increment      1: Step Time =    1.000,"P-1-1",           337,       188.193,       179.220,            0.,NA,NA,"",   1.01118E+06,   1.01753E+06,   1.01753E+06
C:/temp/Job-1.odb,Step-1,Increment      1: Step Time =    1.000,"P-1-1",           338,       177.741,       178.510,            0.,NA,NA,"",   1.05040E+06,   1.04990E+06,   1.04990E+06
C:/temp/Job-1.odb,Step-1,Increment      1: Step Time =    1.000,"P-1-1",           339,       168.073,       180.637,            0.,NA,NA,"",   1.08030E+06,   1.07036E+06,   1.07036E+06
C:/temp/Job-1.odb,Step-1,Increment      1: Step Time =    1.000,"P-1-1",           340,       157.463,       176.641,            0.,NA,NA,"",   1.16367E+06,   1.13639E+06,   1.13639E+06
C:/temp/Job-1.odb,Step-1,Increment      1: Step Time =    1.000,"P-1-1",           341,       144.796,       179.241,            0.,NA,NA,"",   1.16270E+06,   1.13942E+06,   1.13942E+06
C:/temp/Job-1.odb,Step-1,Increment      1: Step Time =    1.000,"P-1-1",           342,       135.795,       180.915,            0.,NA,NA,"",   1.13467E+06,   1.12316E+06,   1.12316E+06
C:/temp/Job-1.odb,Step-1,Increment      1: Step Time =    1.000,"P-1-1",           343,       124.703,       176.759,            0.,NA,NA,"",   1.17592E+06,   1.19304E+06,   1.19304E+06
C:/temp/Job-1.odb,Step-1,Increment      1: Step Time =    1.000,"P-1-1",           344,       118.054,       175.971,            0.,NA,NA,"",   1.15714E+06,   1.19498E+06,   1.19498E+06
C:/temp/Job-1.odb,Step-1,Increment      1: Step Time =    1.000,"P-1-1",           345,       105.135,       180.221,            0.,NA,NA,"",   1.06997E+06,   1.11712E+06,   1.11712E+06
C:/temp/Job-1.odb,Step-1,Increment      1: Step Time =    1.000,"P-1-1",           346,       93.1090,       176.773,            0.,NA,NA,"",   1.19586E+06,   1.23852E+06,   1.23852E+06
C:/temp/Job-1.odb,Step-1,Increment      1: Step Time =    1.000,"P-1-1",           347,       85.5626,       176.468,            0.,NA,NA,"",   1.27242E+06,   1.29236E+06,   1.29236E+06
C:/temp/Job-1.odb,Step-1,Increment      1: Step Time =    1.000,"P-1-1",           348,       73.3361,       180.053,            0.,NA,NA,"",   1.32264E+06,   1.30390E+06,   1.30390E+06
C:/temp/Job-1.odb,Step-1,Increment      1: Step Time =    1.000,"P-1-1",           349,       63.8674,       180.924,            0.,NA,NA,"",   1.37205E+06,   1.34169E+06,   1.34169E+06
C:/temp/Job-1.odb,Step-1,Increment      1: Step Time =    1.000,"P-1-1",           350,       54.5189,       178.217,            0.,NA,NA,"",   1.42841E+06,   1.38888E+06,   1.38888E+06
C:/temp/Job-1.odb,Step-1,Increment      1: Step Time =    1.000,"P-1-1",           351,       39.6803,       174.423,            0.,NA,NA,"",   1.42937E+06,   1.39952E+06,   1.39952E+06
C:/temp/Job-1.odb,Step-1,Increment      1: Step Time =    1.000,"P-1-1",           352,       30.7872,       179.020,            0.,NA,NA,"",   1.43904E+06,   1.43470E+06,   1.43470E+06
C:/temp/Job-1.odb,Step-1,Increment      1: Step Time =    1.000,"P-1-1",           353,       21.3712,       177.624,            0.,NA,NA,"",   1.40303E+06,   1.43165E+06,   1.43165E+06
C:/temp/Job-1.odb,Step-1,Increment      1: Step Time =    1.000,"P-1-1",           354,       10.8606,       179.379,            0.,NA,NA,"",   1.35998E+06,   1.44440E+06,   1.44440E+06
C:/temp/Job-1.odb,Step-1,Increment      1: Step Time =    1.000,"P-1-1",           355,       189.711,       190.203,            0.,NA,NA,"",   1.00251E+06,   1.00374E+06,   1.00374E+06
C:/temp/Job-1.odb,Step-1,Increment      1: Step Time =    1.000,"P-1-1",           356,       175.165,       191.216,            0.,NA,NA,"",   1.01565E+06,   1.01501E+06,   1.01501E+06
C:/temp/Job-1.odb,Step-1,Increment      1: Step Time =    1.000,"P-1-1",           357,       165.853,       190.886,            0.,NA,NA,"",   1.02549E+06,   1.02194E+06,   1.02194E+06
C:/temp/Job-1.odb,Step-1,Increment      1: Step Time =    1.000,"P-1-1",           358,       156.771,       190.343,            0.,NA,NA,"",   1.03006E+06,   1.02367E+06,   1.02367E+06
C:/temp/Job-1.odb,Step-1,Increment      1: Step Time =    1.000,"P-1-1",           359,       148.371,       189.170,            0.,NA,NA,"",   1.03264E+06,   1.02349E+06,   1.02349E+06
C:/temp/Job-1.odb,Step-1,Increment      1: Step Time =    1.000,"P-1-1",           360,       135.575,       190.135,            0.,NA,NA,"",   980.239E+03,   975.809E+03,   975.809E+03
C:/temp/Job-1.odb,Step-1,Increment      1: Step Time =    1.000,"P-1-1",           361,       125.892,       190.268,            0.,NA,NA,"",   934.925E+03,   936.922E+03,   936.922E+03
C:/temp/Job-1.odb,Step-1,Increment      1: Step Time =    1.000,"P-1-1",           362,       115.818,       189.487,            0.,NA,NA,"",   908.321E+03,   919.982E+03,   919.982E+03
C:/temp/Job-1.odb,Step-1,Increment      1: Step Time =    1.000,"P-1-1",           363,       105.516,       190.022,            0.,NA,NA,"",   894.206E+03,   910.132E+03,   910.132E+03
C:/temp/Job-1.odb,Step-1,Increment      1: Step Time =    1.000,"P-1-1",           364,       95.4481,       190.194,            0.,NA,NA,"",   940.234E+03,   952.366E+03,   952.366E+03
C:/temp/Job-1.odb,Step-1,Increment      1: Step Time =    1.000,"P-1-1",           365,       84.9949,       189.496,            0.,NA,NA,"",   1.05071E+06,   1.05316E+06,   1.05316E+06
C:/temp/Job-1.odb,Step-1,Increment      1: Step Time =    1.000,"P-1-1",           366,       74.5973,       190.075,            0.,NA,NA,"",   1.15823E+06,   1.15078E+06,   1.15078E+06
C:/temp/Job-1.odb,Step-1,Increment      1: Step Time =    1.000,"P-1-1",           367,       64.8888,       190.707,            0.,NA,NA,"",   1.25260E+06,   1.24193E+06,   1.24193E+06
C:/temp/Job-1.odb,Step-1,Increment      1: Step Time =    1.000,"P-1-1",           368,       51.6192,       186.866,            0.,NA,NA,"",   1.39035E+06,   1.37174E+06,   1.37174E+06
C:/temp/Job-1.odb,Step-1,Increment      1: Step Time =    1.000,"P-1-1",           369,       41.2248,       188.757,            0.,NA,NA,"",   1.44064E+06,   1.43054E+06,   1.43054E+06
C:/temp/Job-1.odb,Step-1,Increment      1: Step Time =    1.000,"P-1-1",           370,       30.3959,       189.428,            0.,NA,NA,"",   1.49679E+06,   1.49513E+06,   1.49513E+06
C:/temp/Job-1.odb,Step-1,Increment      1: Step Time =    1.000,"P-1-1",           371,       20.3419,       189.305,            0.,NA,NA,"",   1.55157E+06,   1.56350E+06,   1.56350E+06
C:/temp/Job-1.odb,Step-1,Increment      1: Step Time =    1.000,"P-1-1",           372,       10.1739,       189.811,            0.,NA,NA,"",   1.62171E+06,   1.67629E+06,   1.67629E+06
C:/temp/Job-1.odb,Step-1,Increment      1: Step Time =    1.000,"P-1-1",           373,       94.9898,       135.650,            0.,NA,NA,"",   3.08641E+06,   3.14709E+06,   3.14709E+06
C:/temp/Job-1.odb,Step-1,Increment      1: Step Time =    1.000,"P-1-1",           374,       90.0771,       134.605,            0.,NA,NA,"",   2.75042E+06,   2.80530E+06,   2.80530E+06
C:/temp/Job-1.odb,Step-1,Increment      1: Step Time =    1.000,"P-1-1",           375,       80.9229,       130.530,            0.,NA,NA,"",   1.73374E+06,   1.76179E+06,   1.76179E+06
C:/temp/Job-1.odb,Step-1,Increment      1: Step Time =    1.000,"P-1-1",           376,       73.2468,       124.089,            0.,NA,NA,"",   733.538E+03,   705.981E+03,   705.981E+03
C:/temp/Job-1.odb,Step-1,Increment      1: Step Time =    1.000,"P-1-1",           377,       70.1546,       120.131,            0.,NA,NA,"",   472.858E+03,   206.578E+03,   206.578E+03
C:/temp/Job-1.odb,Step-1,Increment      1: Step Time =    1.000,"P-1-1",           378,       65.7620,       111.125,            0.,NA,NA,"",   628.339E+03,  -633.309E+03,  -633.309E+03
C:/temp/Job-1.odb,Step-1,Increment      1: Step Time =    1.000,"P-1-1",           379,       64.0219,       101.256,            0.,NA,NA,"",   832.668E+03,  -849.359E+03,  -849.359E+03
C:/temp/Job-1.odb,Step-1,Increment      1: Step Time =    1.000,"P-1-1",           380,       64.1972,       96.2370,            0.,NA,NA,"",   812.051E+03,  -826.093E+03,  -826.093E+03
C:/temp/Job-1.odb,Step-1,Increment      1: Step Time =    1.000,"P-1-1",           381,       66.6214,       86.5142,            0.,NA,NA,"",   517.126E+03,   -506.56E+03,   -506.56E+03
C:/temp/Job-1.odb,Step-1,Increment      1: Step Time =    1.000,"P-1-1",           382,       71.6316,       77.8362,            0.,NA,NA,"",   485.689E+03,   422.605E+03,   422.605E+03
C:/temp/Job-1.odb,Step-1,Increment      1: Step Time =    1.000,"P-1-1",           383,       74.9923,       74.1038,            0.,NA,NA,"",   904.173E+03,   894.619E+03,   894.619E+03
C:/temp/Job-1.odb,Step-1,Increment      1: Step Time =    1.000,"P-1-1",           384,       83.0990,       68.2139,            0.,NA,NA,"",   1.95970E+06,   2.00165E+06,   2.00165E+06
C:/temp/Job-1.odb,Step-1,Increment      1: Step Time =    1.000,"P-1-1",           385,       92.5152,       64.7867,            0.,NA,NA,"",   2.86652E+06,   2.93939E+06,   2.93939E+06
C:/temp/Job-1.odb,Step-1,Increment      1: Step Time =    1.000,"P-1-1",           386,       97.4888,       64.0877,            0.,NA,NA,"",   3.14772E+06,   3.22257E+06,   3.22257E+06
C:/temp/Job-1.odb,Step-1,Increment      1: Step Time =    1.000,"P-1-1",           387,       107.485,       64.7867,            0.,NA,NA,"",   3.16845E+06,   3.24259E+06,   3.24259E+06
C:/temp/Job-1.odb,Step-1,Increment      1: Step Time =    1.000,"P-1-1",           388,       116.901,       68.2139,            0.,NA,NA,"",   2.49341E+06,   2.54752E+06,   2.54752E+06
C:/temp/Job-1.odb,Step-1,Increment      1: Step Time =    1.000,"P-1-1",           389,       121.160,       70.8754,            0.,NA,NA,"",   1.96505E+06,   1.99731E+06,   1.99731E+06
C:/temp/Job-1.odb,Step-1,Increment      1: Step Time =    1.000,"P-1-1",           390,       128.368,       77.8362,            0.,NA,NA,"",   843.288E+03,   786.316E+03,   786.316E+03
C:/temp/Job-1.odb,Step-1,Increment      1: Step Time =    1.000,"P-1-1",           391,       133.379,       86.5142,            0.,NA,NA,"",   679.438E+03,  -632.006E+03,  -632.006E+03
C:/temp/Job-1.odb,Step-1,Increment      1: Step Time =    1.000,"P-1-1",           392,       134.931,       91.2908,            0.,NA,NA,"",   984.078E+03,  -985.510E+03,  -985.510E+03
C:/temp/Job-1.odb,Step-1,Increment      1: Step Time =    1.000,"P-1-1",           393,       135.978,       101.256,            0.,NA,NA,"",   1.26536E+06,  -1.28531E+06,  -1.28531E+06
C:/temp/Job-1.odb,Step-1,Increment      1: Step Time =    1.000,"P-1-1",           394,       134.238,       111.125,            0.,NA,NA,"",   873.060E+03,  -865.176E+03,  -865.176E+03
C:/temp/Job-1.odb,Step-1,Increment      1: Step Time =    1.000,"P-1-1",           395,       132.357,       115.781,            0.,NA,NA,"",   614.195E+03,  -499.587E+03,  -499.587E+03
C:/temp/Job-1.odb,Step-1,Increment      1: Step Time =    1.000,"P-1-1",           396,       126.753,       124.089,            0.,NA,NA,"",   1.16387E+06,   1.14631E+06,   1.14631E+06
C:/temp/Job-1.odb,Step-1,Increment      1: Step Time =    1.000,"P-1-1",           397,       119.077,       130.530,            0.,NA,NA,"",   2.27055E+06,   2.31289E+06,   2.31289E+06
C:/temp/Job-1.odb,Step-1,Increment      1: Step Time =    1.000,"P-1-1",           398,       109.923,       134.605,            0.,NA,NA,"",   3.04819E+06,   3.11648E+06,   3.11648E+06
C:/temp/Job-1.odb,Step-1,Increment      1: Step Time =    1.000,"P-1-1",           399,       105.010,       135.650,            0.,NA,NA,"",   3.07870E+06,   3.18264E+06,   3.18264E+06
C:/temp/Job-1.odb,Step-1,Increment      1: Step Time =    1.000,"P-1-1",           400,          195.,            0.,            0.,NA,NA,"",   998.856E+03,   998.745E+03,   998.745E+03
C:/temp/Job-1.odb,Step-1,Increment      1: Step Time =    1.000,"P-1-1",           401,          185.,            0.,            0.,NA,NA,"",   996.711E+03,   996.921E+03,   996.921E+03
C:/temp/Job-1.odb,Step-1,Increment      1: Step Time =    1.000,"P-1-1",           402,          175.,            0.,            0.,NA,NA,"",   998.901E+03,   998.788E+03,   998.788E+03
C:/temp/Job-1.odb,Step-1,Increment      1: Step Time =    1.000,"P-1-1",           403,          165.,            0.,            0.,NA,NA,"",   996.644E+03,   996.038E+03,   996.038E+03
C:/temp/Job-1.odb,Step-1,Increment      1: Step Time =    1.000,"P-1-1",           404,          155.,            0.,            0.,NA,NA,"",   976.212E+03,   975.458E+03,   975.458E+03
C:/temp/Job-1.odb,Step-1,Increment      1: Step Time =    1.000,"P-1-1",           405,          145.,            0.,            0.,NA,NA,"",   926.973E+03,   926.107E+03,   926.107E+03
C:/temp/Job-1.odb,Step-1,Increment      1: Step Time =    1.000,"P-1-1",           406,          135.,            0.,            0.,NA,NA,"",   855.844E+03,   855.417E+03,   855.417E+03
C:/temp/Job-1.odb,Step-1,Increment      1: Step Time =    1.000,"P-1-1",           407,          125.,            0.,            0.,NA,NA,"",   779.290E+03,   779.658E+03,   779.658E+03
C:/temp/Job-1.odb,Step-1,Increment      1: Step Time =    1.000,"P-1-1",           408,          115.,            0.,            0.,NA,NA,"",   721.193E+03,   722.611E+03,   722.611E+03
C:/temp/Job-1.odb,Step-1,Increment      1: Step Time =    1.000,"P-1-1",           409,          105.,            0.,            0.,NA,NA,"",   709.158E+03,   711.083E+03,   711.083E+03
C:/temp/Job-1.odb,Step-1,Increment      1: Step Time =    1.000,"P-1-1",           410,           95.,            0.,            0.,NA,NA,"",   761.770E+03,   763.183E+03,   763.183E+03
C:/temp/Job-1.odb,Step-1,Increment      1: Step Time =    1.000,"P-1-1",           411,           85.,            0.,            0.,NA,NA,"",   873.745E+03,   874.155E+03,   874.155E+03
C:/temp/Job-1.odb,Step-1,Increment      1: Step Time =    1.000,"P-1-1",           412,           75.,            0.,            0.,NA,NA,"",   1.02130E+06,   1.02107E+06,   1.02107E+06
C:/temp/Job-1.odb,Step-1,Increment      1: Step Time =    1.000,"P-1-1",           413,           65.,            0.,            0.,NA,NA,"",   1.17854E+06,   1.17856E+06,   1.17856E+06
C:/temp/Job-1.odb,Step-1,Increment      1: Step Time =    1.000,"P-1-1",           414,           55.,            0.,            0.,NA,NA,"",   1.32045E+06,   1.31792E+06,   1.31792E+06
C:/temp/Job-1.odb,Step-1,Increment      1: Step Time =    1.000,"P-1-1",           415,           45.,            0.,            0.,NA,NA,"",   1.42880E+06,   1.42725E+06,   1.42725E+06
C:/temp/Job-1.odb,Step-1,Increment      1: Step Time =    1.000,"P-1-1",           416,           35.,            0.,            0.,NA,NA,"",   1.50082E+06,   1.50082E+06,   1.50082E+06
C:/temp/Job-1.odb,Step-1,Increment      1: Step Time =    1.000,"P-1-1",           417,           25.,            0.,            0.,NA,NA,"",   1.55759E+06,   1.55877E+06,   1.55877E+06
C:/temp/Job-1.odb,Step-1,Increment      1: Step Time =    1.000,"P-1-1",           418,           15.,            0.,            0.,NA,NA,"",   1.63847E+06,   1.64453E+06,   1.64453E+06
C:/temp/Job-1.odb,Step-1,Increment      1: Step Time =    1.000,"P-1-1",           419,            5.,            0.,            0.,NA,NA,"",   1.95378E+06,   1.99873E+06,   1.99873E+06
C:/temp/Job-1.odb,Step-1,Increment      1: Step Time =    1.000,"P-1-1",           420,          200.,          195.,            0.,NA,NA,"",   1.00043E+06,   999.758E+03,   999.758E+03
C:/temp/Job-1.odb,Step-1,Increment      1: Step Time =    1.000,"P-1-1",           421,          200.,          185.,            0.,NA,NA,"",   1.00226E+06,   1.00117E+06,   1.00117E+06
C:/temp/Job-1.odb,Step-1,Increment      1: Step Time =    1.000,"P-1-1",           422,          200.,          175.,            0.,NA,NA,"",   996.746E+03,   1.00250E+06,   1.00250E+06
C:/temp/Job-1.odb,Step-1,Increment      1: Step Time =    1.000,"P-1-1",           423,          200.,          165.,            0.,NA,NA,"",   975.141E+03,   1.00237E+06,   1.00237E+06
C:/temp/Job-1.odb,Step-1,Increment      1: Step Time =    1.000,"P-1-1",           424,          200.,          155.,            0.,NA,NA,"",   940.711E+03,   1.00322E+06,   1.00322E+06
C:/temp/Job-1.odb,Step-1,Increment      1: Step Time =    1.000,"P-1-1",           425,          200.,          145.,            0.,NA,NA,"",   898.309E+03,   1.00433E+06,   1.00433E+06
C:/temp/Job-1.odb,Step-1,Increment      1: Step Time =    1.000,"P-1-1",           426,          200.,          135.,            0.,NA,NA,"",   872.923E+03,   1.00489E+06,   1.00489E+06
C:/temp/Job-1.odb,Step-1,Increment      1: Step Time =    1.000,"P-1-1",           427,          200.,          125.,            0.,NA,NA,"",   880.563E+03,   1.00399E+06,   1.00399E+06
C:/temp/Job-1.odb,Step-1,Increment      1: Step Time =    1.000,"P-1-1",           428,          200.,          115.,            0.,NA,NA,"",   914.956E+03,   1.00092E+06,   1.00092E+06
C:/temp/Job-1.odb,Step-1,Increment      1: Step Time =    1.000,"P-1-1",           429,          200.,          105.,            0.,NA,NA,"",   944.975E+03,   995.378E+03,   995.378E+03
C:/temp/Job-1.odb,Step-1,Increment      1: Step Time =    1.000,"P-1-1",           430,          200.,           95.,            0.,NA,NA,"",   945.108E+03,   995.509E+03,   995.509E+03
C:/temp/Job-1.odb,Step-1,Increment      1: Step Time =    1.000,"P-1-1",           431,          200.,           85.,            0.,NA,NA,"",   914.676E+03,   1.00076E+06,   1.00076E+06
C:/temp/Job-1.odb,Step-1,Increment      1: Step Time =    1.000,"P-1-1",           432,          200.,           75.,            0.,NA,NA,"",   879.824E+03,   1.00374E+06,   1.00374E+06
C:/temp/Job-1.odb,Step-1,Increment      1: Step Time =    1.000,"P-1-1",           433,          200.,           65.,            0.,NA,NA,"",   872.381E+03,   1.00358E+06,   1.00358E+06
C:/temp/Job-1.odb,Step-1,Increment      1: Step Time =    1.000,"P-1-1",           434,          200.,           55.,            0.,NA,NA,"",   904.471E+03,   1.00793E+06,   1.00793E+06
C:/temp/Job-1.odb,Step-1,Increment      1: Step Time =    1.000,"P-1-1",           435,          200.,           45.,            0.,NA,NA,"",   944.317E+03,   1.00513E+06,   1.00513E+06
C:/temp/Job-1.odb,Step-1,Increment      1: Step Time =    1.000,"P-1-1",           436,          200.,           35.,            0.,NA,NA,"",   977.778E+03,   1.00266E+06,   1.00266E+06
C:/temp/Job-1.odb,Step-1,Increment      1: Step Time =    1.000,"P-1-1",           437,          200.,           25.,            0.,NA,NA,"",   996.994E+03,   1.00146E+06,   1.00146E+06
C:/temp/Job-1.odb,Step-1,Increment      1: Step Time =    1.000,"P-1-1",           438,          200.,           15.,            0.,NA,NA,"",   1.00230E+06,   1.00073E+06,   1.00073E+06
C:/temp/Job-1.odb,Step-1,Increment      1: Step Time =    1.000,"P-1-1",           439,          200.,            5.,            0.,NA,NA,"",   1.00040E+06,   999.745E+03,   999.745E+03
C:/temp/Job-1.odb,Step-1,Increment      1: Step Time =    1.000,"P-1-1",           440,            5.,          200.,            0.,NA,NA,"",   1.95287E+06,   1.99831E+06,   1.99831E+06
C:/temp/Job-1.odb,Step-1,Increment      1: Step Time =    1.000,"P-1-1",           441,           15.,          200.,            0.,NA,NA,"",   1.63843E+06,   1.64493E+06,   1.64493E+06
C:/temp/Job-1.odb,Step-1,Increment      1: Step Time =    1.000,"P-1-1",           442,           25.,          200.,            0.,NA,NA,"",   1.55747E+06,   1.55859E+06,   1.55859E+06
C:/temp/Job-1.odb,Step-1,Increment      1: Step Time =    1.000,"P-1-1",           443,           35.,          200.,            0.,NA,NA,"",   1.49762E+06,   1.49738E+06,   1.49738E+06
C:/temp/Job-1.odb,Step-1,Increment      1: Step Time =    1.000,"P-1-1",           444,           45.,          200.,            0.,NA,NA,"",   1.42519E+06,   1.42437E+06,   1.42437E+06
C:/temp/Job-1.odb,Step-1,Increment      1: Step Time =    1.000,"P-1-1",           445,           55.,          200.,            0.,NA,NA,"",   1.31841E+06,   1.31748E+06,   1.31748E+06
C:/temp/Job-1.odb,Step-1,Increment      1: Step Time =    1.000,"P-1-1",           446,           65.,          200.,            0.,NA,NA,"",   1.18266E+06,   1.18138E+06,   1.18138E+06
C:/temp/Job-1.odb,Step-1,Increment      1: Step Time =    1.000,"P-1-1",           447,           75.,          200.,            0.,NA,NA,"",   1.02835E+06,   1.02769E+06,   1.02769E+06
C:/temp/Job-1.odb,Step-1,Increment      1: Step Time =    1.000,"P-1-1",           448,           85.,          200.,            0.,NA,NA,"",   881.323E+03,   881.620E+03,   881.620E+03
C:/temp/Job-1.odb,Step-1,Increment      1: Step Time =    1.000,"P-1-1",           449,           95.,          200.,            0.,NA,NA,"",   765.138E+03,   766.944E+03,   766.944E+03
C:/temp/Job-1.odb,Step-1,Increment      1: Step Time =    1.000,"P-1-1",           450,          105.,          200.,            0.,NA,NA,"",   710.127E+03,   712.359E+03,   712.359E+03
C:/temp/Job-1.odb,Step-1,Increment      1: Step Time =    1.000,"P-1-1",           451,          115.,          200.,            0.,NA,NA,"",   722.568E+03,   723.833E+03,   723.833E+03
C:/temp/Job-1.odb,Step-1,Increment      1: Step Time =    1.000,"P-1-1",           452,          125.,          200.,            0.,NA,NA,"",   780.155E+03,   780.701E+03,   780.701E+03
C:/temp/Job-1.odb,Step-1,Increment      1: Step Time =    1.000,"P-1-1",           453,          135.,          200.,            0.,NA,NA,"",   861.023E+03,   860.812E+03,   860.812E+03
C:/temp/Job-1.odb,Step-1,Increment      1: Step Time =    1.000,"P-1-1",           454,          145.,          200.,            0.,NA,NA,"",   933.679E+03,   931.935E+03,   931.935E+03
C:/temp/Job-1.odb,Step-1,Increment      1: Step Time =    1.000,"P-1-1",           455,          155.,          200.,            0.,NA,NA,"",   976.518E+03,   975.730E+03,   975.730E+03
C:/temp/Job-1.odb,Step-1,Increment      1: Step Time =    1.000,"P-1-1",           456,          165.,          200.,            0.,NA,NA,"",    994.76E+03,   994.284E+03,   994.284E+03
C:/temp/Job-1.odb,Step-1,Increment      1: Step Time =    1.000,"P-1-1",           457,          175.,          200.,            0.,NA,NA,"",   996.590E+03,   996.568E+03,   996.568E+03
C:/temp/Job-1.odb,Step-1,Increment      1: Step Time =    1.000,"P-1-1",           458,          185.,          200.,            0.,NA,NA,"",   995.496E+03,   995.677E+03,   995.677E+03
C:/temp/Job-1.odb,Step-1,Increment      1: Step Time =    1.000,"P-1-1",           459,          195.,          200.,            0.,NA,NA,"",   998.744E+03,   998.602E+03,   998.602E+03
C:/temp/Job-1.odb,Step-1,Increment      1: Step Time =    1.000,"P-1-1",           460,            0.,            5.,            0.,NA,NA,"",   1.85128E+06,   1.97385E+06,   1.97385E+06
C:/temp/Job-1.odb,Step-1,Increment      1: Step Time =    1.000,"P-1-1",           461,            0.,           15.,            0.,NA,NA,"",   1.37099E+06,   1.51214E+06,   1.51214E+06
C:/temp/Job-1.odb,Step-1,Increment      1: Step Time =    1.000,"P-1-1",           462,            0.,           25.,            0.,NA,NA,"",   1.18069E+06,   1.31522E+06,   1.31522E+06
C:/temp/Job-1.odb,Step-1,Increment      1: Step Time =    1.000,"P-1-1",           463,            0.,           35.,            0.,NA,NA,"",   1.03598E+06,   1.15987E+06,   1.15987E+06
C:/temp/Job-1.odb,Step-1,Increment      1: Step Time =    1.000,"P-1-1",           464,            0.,           45.,            0.,NA,NA,"",   910.504E+03,   1.02107E+06,   1.02107E+06
C:/temp/Job-1.odb,Step-1,Increment      1: Step Time =    1.000,"P-1-1",           465,            0.,           55.,            0.,NA,NA,"",   788.128E+03,   884.024E+03,   884.024E+03
C:/temp/Job-1.odb,Step-1,Increment      1: Step Time =    1.000,"P-1-1",           466,            0.,           65.,            0.,NA,NA,"",   665.295E+03,   746.306E+03,   746.306E+03
C:/temp/Job-1.odb,Step-1,Increment      1: Step Time =    1.000,"P-1-1",           467,            0.,           75.,            0.,NA,NA,"",   546.580E+03,   614.345E+03,   614.345E+03
C:/temp/Job-1.odb,Step-1,Increment      1: Step Time =    1.000,"P-1-1",           468,            0.,           85.,            0.,NA,NA,"",   445.012E+03,   503.727E+03,   503.727E+03
C:/temp/Job-1.odb,Step-1,Increment      1: Step Time =    1.000,"P-1-1",           469,            0.,           95.,            0.,NA,NA,"",   381.187E+03,   435.105E+03,   435.105E+03
C:/temp/Job-1.odb,Step-1,Increment      1: Step Time =    1.000,"P-1-1",           470,            0.,          105.,            0.,NA,NA,"",   380.729E+03,   434.558E+03,   434.558E+03
C:/temp/Job-1.odb,Step-1,Increment      1: Step Time =    1.000,"P-1-1",           471,            0.,          115.,            0.,NA,NA,"",   442.388E+03,   500.861E+03,   500.861E+03
C:/temp/Job-1.odb,Step-1,Increment      1: Step Time =    1.000,"P-1-1",           472,            0.,          125.,            0.,NA,NA,"",   543.371E+03,   610.742E+03,   610.742E+03
C:/temp/Job-1.odb,Step-1,Increment      1: Step Time =    1.000,"P-1-1",           473,            0.,          135.,            0.,NA,NA,"",   662.304E+03,   742.372E+03,   742.372E+03
C:/temp/Job-1.odb,Step-1,Increment      1: Step Time =    1.000,"P-1-1",           474,            0.,          145.,            0.,NA,NA,"",   790.137E+03,   885.413E+03,   885.413E+03
C:/temp/Job-1.odb,Step-1,Increment      1: Step Time =    1.000,"P-1-1",           475,            0.,          155.,            0.,NA,NA,"",   913.215E+03,   1.02610E+06,   1.02610E+06
C:/temp/Job-1.odb,Step-1,Increment      1: Step Time =    1.000,"P-1-1",           476,            0.,          165.,            0.,NA,NA,"",   1.03474E+06,   1.15908E+06,   1.15908E+06
C:/temp/Job-1.odb,Step-1,Increment      1: Step Time =    1.000,"P-1-1",           477,            0.,          175.,            0.,NA,NA,"",   1.17812E+06,   1.31280E+06,   1.31280E+06
C:/temp/Job-1.odb,Step-1,Increment      1: Step Time =    1.000,"P-1-1",           478,            0.,          185.,            0.,NA,NA,"",   1.37055E+06,   1.51231E+06,   1.51231E+06
C:/temp/Job-1.odb,Step-1,Increment      1: Step Time =    1.000,"P-1-1",           479,            0.,          195.,            0.,NA,NA,"",   1.84897E+06,   1.97175E+06,   1.97175E+06
C:/temp/Job-1.odb,Step-1,Increment      1: Step Time =    1.000,"P-1-1",           480,       64.1859,       120.550,            0.,NA,NA,"",   553.575E+03,   73.8333E+03,   73.8333E+03
C:/temp/Job-1.odb,Step-1,Increment      1: Step Time =    1.000,"P-1-1",           481,       114.285,       61.9616,            0.,NA,NA,"",   2.56144E+06,   2.65582E+06,   2.65582E+06
C:/temp/Job-1.odb,Step-1,Increment      1: Step Time =    1.000,"P-1-1",           482,       195.714,       24.7212,            0.,NA,NA,"",   997.053E+03,   1.00418E+06,   1.00418E+06
C:/temp/Job-1.odb,Step-1,Increment      1: Step Time =    1.000,"P-1-1",           483,       5.49356,       20.2123,            0.,NA,NA,"",   1.30120E+06,   1.42178E+06,   1.42178E+06
C:/temp/Job-1.odb,Step-1,Increment      1: Step Time =    1.000,"P-1-1",           484,       5.20314,       10.0147,            0.,NA,NA,"",   1.57535E+06,   1.68341E+06,   1.68341E+06
C:/temp/Job-1.odb,Step-1,Increment      1: Step Time =    1.000,"P-1-1",           485,       4.82064,       30.2489,            0.,NA,NA,"",   1.12778E+06,   1.24697E+06,   1.24697E+06
C:/temp/Job-1.odb,Step-1,Increment      1: Step Time =    1.000,"P-1-1",           486,       193.531,       54.3888,            0.,NA,NA,"",   932.606E+03,   1.02477E+06,   1.02477E+06
C:/temp/Job-1.odb,Step-1,Increment      1: Step Time =    1.000,"P-1-1",           487,       4.98215,       40.1275,            0.,NA,NA,"",   994.295E+03,   1.10325E+06,   1.10325E+06
C:/temp/Job-1.odb,Step-1,Increment      1: Step Time =    1.000,"P-1-1",           488,       4.90666,       55.0433,            0.,NA,NA,"",   800.725E+03,   891.514E+03,   891.514E+03
C:/temp/Job-1.odb,Step-1,Increment      1: Step Time =    1.000,"P-1-1",           489,       4.65457,       164.810,            0.,NA,NA,"",   1.05600E+06,   1.17140E+06,   1.17140E+06
C:/temp/Job-1.odb,Step-1,Increment      1: Step Time =    1.000,"P-1-1",           490,       4.21067,       155.283,            0.,NA,NA,"",   930.481E+03,   1.03705E+06,   1.03705E+06
C:/temp/Job-1.odb,Step-1,Increment      1: Step Time =    1.000,"P-1-1",           491,       194.885,       104.894,            0.,NA,NA,"",   908.154E+03,   985.489E+03,   985.489E+03
C:/temp/Job-1.odb,Step-1,Increment      1: Step Time =    1.000,"P-1-1",           492,       194.967,       114.929,            0.,NA,NA,"",   895.308E+03,   1.00117E+06,   1.00117E+06
C:/temp/Job-1.odb,Step-1,Increment      1: Step Time =    1.000,"P-1-1",           493,       115.380,       194.845,            0.,NA,NA,"",   786.903E+03,   790.761E+03,   790.761E+03
C:/temp/Job-1.odb,Step-1,Increment      1: Step Time =    1.000,"P-1-1",           494,       105.310,       194.985,            0.,NA,NA,"",   776.337E+03,   782.269E+03,   782.269E+03
C:/temp/Job-1.odb,Step-1,Increment      1: Step Time =    1.000,"P-1-1",           495,       5.01593,       174.711,            0.,NA,NA,"",   1.20406E+06,   1.32562E+06,   1.32562E+06
C:/temp/Job-1.odb,Step-1,Increment      1: Step Time =    1.000,"P-1-1",           496,       74.8887,       195.048,            0.,NA,NA,"",   1.07148E+06,   1.06880E+06,   1.06880E+06
C:/temp/Job-1.odb,Step-1,Increment      1: Step Time =    1.000,"P-1-1",           497,       65.0177,       195.399,            0.,NA,NA,"",   1.20389E+06,   1.19995E+06,   1.19995E+06
C:/temp/Job-1.odb,Step-1,Increment      1: Step Time =    1.000,"P-1-1",           498,       15.1074,       4.76410,            0.,NA,NA,"",   1.63263E+06,   1.64247E+06,   1.64247E+06
C:/temp/Job-1.odb,Step-1,Increment      1: Step Time =    1.000,"P-1-1",           499,       25.0887,       4.43322,            0.,NA,NA,"",   1.55142E+06,   1.55242E+06,   1.55242E+06
C:/temp/Job-1.odb,Step-1,Increment      1: Step Time =    1.000,"P-1-1",           500,       34.8535,       4.28721,            0.,NA,NA,"",   1.49320E+06,   1.49188E+06,   1.49188E+06
C:/temp/Job-1.odb,Step-1,Increment      1: Step Time =    1.000,"P-1-1",           501,       44.4587,       4.63478,            0.,NA,NA,"",   1.42513E+06,   1.42170E+06,   1.42170E+06
C:/temp/Job-1.odb,Step-1,Increment      1: Step Time =    1.000,"P-1-1",           502,       54.9822,       7.12209,            0.,NA,NA,"",   1.33614E+06,   1.32791E+06,   1.32791E+06
C:/temp/Job-1.odb,Step-1,Increment      1: Step Time =    1.000,"P-1-1",           503,       65.5606,       5.13720,            0.,NA,NA,"",   1.19870E+06,   1.19555E+06,   1.19555E+06
C:/temp/Job-1.odb,Step-1,Increment      1: Step Time =    1.000,"P-1-1",           504,       75.3556,       4.67325,            0.,NA,NA,"",   1.05843E+06,   1.05649E+06,   1.05649E+06
C:/temp/Job-1.odb,Step-1,Increment      1: Step Time =    1.000,"P-1-1",           505,       85.1436,       4.73366,            0.,NA,NA,"",    927.35E+03,   927.916E+03,   927.916E+03
C:/temp/Job-1.odb,Step-1,Increment      1: Step Time =    1.000,"P-1-1",           506,       94.9968,       4.84255,            0.,NA,NA,"",   825.276E+03,   829.194E+03,   829.194E+03
C:/temp/Job-1.odb,Step-1,Increment      1: Step Time =    1.000,"P-1-1",           507,       104.902,       4.93369,            0.,NA,NA,"",   774.918E+03,   780.485E+03,   780.485E+03
C:/temp/Job-1.odb,Step-1,Increment      1: Step Time =    1.000,"P-1-1",           508,       114.863,       4.99597,            0.,NA,NA,"",   783.133E+03,   787.126E+03,   787.126E+03
C:/temp/Job-1.odb,Step-1,Increment      1: Step Time =    1.000,"P-1-1",           509,       124.893,       4.93588,            0.,NA,NA,"",   831.449E+03,   832.399E+03,   832.399E+03
C:/temp/Job-1.odb,Step-1,Increment      1: Step Time =    1.000,"P-1-1",           510,       134.944,       4.81202,            0.,NA,NA,"",   894.991E+03,   893.656E+03,   893.656E+03
C:/temp/Job-1.odb,Step-1,Increment      1: Step Time =    1.000,"P-1-1",           511,       144.860,       4.52482,            0.,NA,NA,"",   950.171E+03,   947.950E+03,   947.950E+03
C:/temp/Job-1.odb,Step-1,Increment      1: Step Time =    1.000,"P-1-1",           512,       154.461,       4.52968,            0.,NA,NA,"",   991.079E+03,   988.701E+03,   988.701E+03
C:/temp/Job-1.odb,Step-1,Increment      1: Step Time =    1.000,"P-1-1",           513,       164.316,       5.28001,            0.,NA,NA,"",   1.00882E+06,   1.00684E+06,   1.00684E+06
C:/temp/Job-1.odb,Step-1,Increment      1: Step Time =    1.000,"P-1-1",           514,       174.602,       5.39035,            0.,NA,NA,"",   1.00711E+06,   1.00661E+06,   1.00661E+06
C:/temp/Job-1.odb,Step-1,Increment      1: Step Time =    1.000,"P-1-1",           515,       184.931,       5.43736,            0.,NA,NA,"",   1.00067E+06,   1.00132E+06,   1.00132E+06
C:/temp/Job-1.odb,Step-1,Increment      1: Step Time =    1.000,"P-1-1",           516,       195.062,       5.03191,            0.,NA,NA,"",   999.756E+03,   999.542E+03,   999.542E+03
C:/temp/Job-1.odb,Step-1,Increment      1: Step Time =    1.000,"P-1-1",           517,       195.422,       14.9081,            0.,NA,NA,"",   1.00176E+06,   1.00214E+06,   1.00214E+06
C:/temp/Job-1.odb,Step-1,Increment      1: Step Time =    1.000,"P-1-1",           518,       195.536,       34.4591,            0.,NA,NA,"",   981.244E+03,   1.00724E+06,   1.00724E+06
C:/temp/Job-1.odb,Step-1,Increment      1: Step Time =    1.000,"P-1-1",           519,       194.982,       44.1911,            0.,NA,NA,"",   955.409E+03,   1.01292E+06,   1.01292E+06
C:/temp/Job-1.odb,Step-1,Increment      1: Step Time =    1.000,"P-1-1",           520,       194.917,       94.8898,            0.,NA,NA,"",   908.682E+03,   986.187E+03,   986.187E+03
C:/temp/Job-1.odb,Step-1,Increment      1: Step Time =    1.000,"P-1-1",           521,       194.720,       65.0081,            0.,NA,NA,"",   890.907E+03,   1.01727E+06,   1.01727E+06
C:/temp/Job-1.odb,Step-1,Increment      1: Step Time =    1.000,"P-1-1",           522,       195.010,       84.8905,            0.,NA,NA,"",   895.341E+03,   1.00136E+06,   1.00136E+06
C:/temp/Job-1.odb,Step-1,Increment      1: Step Time =    1.000,"P-1-1",           523,       195.075,       124.916,            0.,NA,NA,"",   883.330E+03,   1.01309E+06,   1.01309E+06
C:/temp/Job-1.odb,Step-1,Increment      1: Step Time =    1.000,"P-1-1",           524,       125.400,       195.077,            0.,NA,NA,"",   834.210E+03,   835.121E+03,   835.121E+03
C:/temp/Job-1.odb,Step-1,Increment      1: Step Time =    1.000,"P-1-1",           525,       195.186,       134.936,            0.,NA,NA,"",   889.076E+03,   1.01680E+06,   1.01680E+06
C:/temp/Job-1.odb,Step-1,Increment      1: Step Time =    1.000,"P-1-1",           526,       135.379,       194.955,            0.,NA,NA,"",   900.450E+03,   898.978E+03,   898.978E+03
C:/temp/Job-1.odb,Step-1,Increment      1: Step Time =    1.000,"P-1-1",           527,       195.475,       144.847,            0.,NA,NA,"",   912.403E+03,   1.01335E+06,   1.01335E+06
C:/temp/Job-1.odb,Step-1,Increment      1: Step Time =    1.000,"P-1-1",           528,       195.481,       154.444,            0.,NA,NA,"",   949.198E+03,   1.01123E+06,   1.01123E+06
C:/temp/Job-1.odb,Step-1,Increment      1: Step Time =    1.000,"P-1-1",           529,       145.917,       193.805,            0.,NA,NA,"",   973.245E+03,   968.910E+03,   968.910E+03
C:/temp/Job-1.odb,Step-1,Increment      1: Step Time =    1.000,"P-1-1",           530,       194.731,       164.288,            0.,NA,NA,"",   980.582E+03,   1.00974E+06,   1.00974E+06
C:/temp/Job-1.odb,Step-1,Increment      1: Step Time =    1.000,"P-1-1",           531,       155.788,       195.133,            0.,NA,NA,"",   992.117E+03,   989.935E+03,   989.935E+03
C:/temp/Job-1.odb,Step-1,Increment      1: Step Time =    1.000,"P-1-1",           532,       194.607,       174.551,            0.,NA,NA,"",   998.377E+03,   1.00713E+06,   1.00713E+06
C:/temp/Job-1.odb,Step-1,Increment      1: Step Time =    1.000,"P-1-1",           533,       165.378,       195.519,            0.,NA,NA,"",   1.00391E+06,   1.00263E+06,   1.00263E+06
C:/temp/Job-1.odb,Step-1,Increment      1: Step Time =    1.000,"P-1-1",           534,       194.518,       184.858,            0.,NA,NA,"",   1.00263E+06,   1.00352E+06,   1.00352E+06
C:/temp/Job-1.odb,Step-1,Increment      1: Step Time =    1.000,"P-1-1",           535,       175.118,       195.598,            0.,NA,NA,"",   1.00277E+06,   1.00259E+06,   1.00259E+06
C:/temp/Job-1.odb,Step-1,Increment      1: Step Time =    1.000,"P-1-1",           536,       194.934,       195.030,            0.,NA,NA,"",   999.773E+03,   999.512E+03,   999.512E+03
C:/temp/Job-1.odb,Step-1,Increment      1: Step Time =    1.000,"P-1-1",           537,       184.988,       195.323,            0.,NA,NA,"",   998.994E+03,   999.495E+03,   999.495E+03
C:/temp/Job-1.odb,Step-1,Increment      1: Step Time =    1.000,"P-1-1",           538,       95.1803,       195.023,            0.,NA,NA,"",   828.463E+03,   832.968E+03,   832.968E+03
C:/temp/Job-1.odb,Step-1,Increment      1: Step Time =    1.000,"P-1-1",           539,       84.9890,       194.817,            0.,NA,NA,"",   939.347E+03,   939.799E+03,   939.799E+03
C:/temp/Job-1.odb,Step-1,Increment      1: Step Time =    1.000,"P-1-1",           540,       55.3112,       195.578,            0.,NA,NA,"",   1.32216E+06,   1.31873E+06,   1.31873E+06
C:/temp/Job-1.odb,Step-1,Increment      1: Step Time =    1.000,"P-1-1",           541,       45.4834,       195.127,            0.,NA,NA,"",   1.41746E+06,   1.41415E+06,   1.41415E+06
C:/temp/Job-1.odb,Step-1,Increment      1: Step Time =    1.000,"P-1-1",           542,       35.3665,       194.627,            0.,NA,NA,"",   1.48784E+06,   1.48561E+06,   1.48561E+06
C:/temp/Job-1.odb,Step-1,Increment      1: Step Time =    1.000,"P-1-1",           543,       25.1883,       194.698,            0.,NA,NA,"",   1.54877E+06,   1.54999E+06,   1.54999E+06
C:/temp/Job-1.odb,Step-1,Increment      1: Step Time =    1.000,"P-1-1",           544,       15.1787,       194.798,            0.,NA,NA,"",   1.63027E+06,   1.64102E+06,   1.64102E+06
C:/temp/Job-1.odb,Step-1,Increment      1: Step Time =    1.000,"P-1-1",           545,       5.08301,       194.923,            0.,NA,NA,"",   1.81809E+06,   1.89046E+06,   1.89046E+06
C:/temp/Job-1.odb,Step-1,Increment      1: Step Time =    1.000,"P-1-1",           546,       5.20456,       184.812,            0.,NA,NA,"",   1.40475E+06,   1.52567E+06,   1.52567E+06
C:/temp/Job-1.odb,Step-1,Increment      1: Step Time =    1.000,"P-1-1",           547,       6.26916,       145.537,            0.,NA,NA,"",   816.974E+03,   905.324E+03,   905.324E+03
C:/temp/Job-1.odb,Step-1,Increment      1: Step Time =    1.000,"P-1-1",           548,       5.03879,       134.797,            0.,NA,NA,"",   665.121E+03,   742.845E+03,   742.845E+03
C:/temp/Job-1.odb,Step-1,Increment      1: Step Time =    1.000,"P-1-1",           549,       4.88304,       124.847,            0.,NA,NA,"",   540.171E+03,   607.598E+03,   607.598E+03
C:/temp/Job-1.odb,Step-1,Increment      1: Step Time =    1.000,"P-1-1",           550,       5.03468,       114.842,            0.,NA,NA,"",   433.368E+03,   493.000E+03,   493.000E+03
C:/temp/Job-1.odb,Step-1,Increment      1: Step Time =    1.000,"P-1-1",           551,       4.92558,       104.910,            0.,NA,NA,"",   370.067E+03,   424.528E+03,   424.528E+03
C:/temp/Job-1.odb,Step-1,Increment      1: Step Time =    1.000,"P-1-1",           552,       4.95595,       94.9106,            0.,NA,NA,"",   370.675E+03,   425.222E+03,   425.222E+03
C:/temp/Job-1.odb,Step-1,Increment      1: Step Time =    1.000,"P-1-1",           553,       5.13511,       84.8467,            0.,NA,NA,"",   437.597E+03,   497.547E+03,   497.547E+03
C:/temp/Job-1.odb,Step-1,Increment      1: Step Time =    1.000,"P-1-1",           554,       4.94114,       74.8779,            0.,NA,NA,"",   545.702E+03,   613.502E+03,   613.502E+03
C:/temp/Job-1.odb,Step-1,Increment      1: Step Time =    1.000,"P-1-1",           555,       4.81270,       64.9443,            0.,NA,NA,"",   671.228E+03,   749.893E+03,   749.893E+03
C:/temp/Job-1.odb,Step-1,Increment      1: Step Time =    1.000,"P-1-1",           556,       194.991,       74.9229,            0.,NA,NA,"",   883.811E+03,   1.01379E+06,   1.01379E+06
C:/temp/Job-1.odb,Step-1,Increment      1: Step Time =    1.000,"P-1-1",           557,       190.062,       5.17984,            0.,NA,NA,"",   999.171E+03,   999.676E+03,   999.676E+03
C:/temp/Job-1.odb,Step-1,Increment      1: Step Time =    1.000,"P-1-1",           558,       179.737,       5.66166,            0.,NA,NA,"",   1.00379E+06,   1.00405E+06,   1.00405E+06
C:/temp/Job-1.odb,Step-1,Increment      1: Step Time =    1.000,"P-1-1",           559,       169.444,       5.25329,            0.,NA,NA,"",   1.00947E+06,   1.00804E+06,   1.00804E+06
C:/temp/Job-1.odb,Step-1,Increment      1: Step Time =    1.000,"P-1-1",           560,       159.239,       5.18517,            0.,NA,NA,"",   1.00342E+06,   1.00109E+06,   1.00109E+06
C:/temp/Job-1.odb,Step-1,Increment      1: Step Time =    1.000,"P-1-1",           561,       149.681,       4.31390,            0.,NA,NA,"",   972.311E+03,   970.103E+03,   970.103E+03
C:/temp/Job-1.odb,Step-1,Increment      1: Step Time =    1.000,"P-1-1",           562,       139.960,       4.71117,            0.,NA,NA,"",   924.605E+03,   922.657E+03,   922.657E+03
C:/temp/Job-1.odb,Step-1,Increment      1: Step Time =    1.000,"P-1-1",           563,       129.914,       4.87873,            0.,NA,NA,"",   862.980E+03,   862.561E+03,   862.561E+03
C:/temp/Job-1.odb,Step-1,Increment      1: Step Time =    1.000,"P-1-1",           564,       119.877,       4.97891,            0.,NA,NA,"",   803.754E+03,   806.252E+03,   806.252E+03
C:/temp/Job-1.odb,Step-1,Increment      1: Step Time =    1.000,"P-1-1",           565,       109.869,       4.97078,            0.,NA,NA,"",   772.519E+03,   777.621E+03,   777.621E+03
C:/temp/Job-1.odb,Step-1,Increment      1: Step Time =    1.000,"P-1-1",           566,       99.9482,       4.87979,            0.,NA,NA,"",   792.539E+03,   797.713E+03,   797.713E+03
C:/temp/Job-1.odb,Step-1,Increment      1: Step Time =    1.000,"P-1-1",           567,       90.0634,       4.78270,            0.,NA,NA,"",   871.243E+03,   873.501E+03,   873.501E+03
C:/temp/Job-1.odb,Step-1,Increment      1: Step Time =    1.000,"P-1-1",           568,       80.2394,       4.67761,            0.,NA,NA,"",   990.561E+03,   989.648E+03,   989.648E+03
C:/temp/Job-1.odb,Step-1,Increment      1: Step Time =    1.000,"P-1-1",           569,       70.4747,       4.79719,            0.,NA,NA,"",   1.12895E+06,   1.12619E+06,   1.12619E+06
C:/temp/Job-1.odb,Step-1,Increment      1: Step Time =    1.000,"P-1-1",           570,       60.5691,       5.83485,            0.,NA,NA,"",   1.26641E+06,   1.26193E+06,   1.26193E+06
C:/temp/Job-1.odb,Step-1,Increment      1: Step Time =    1.000,"P-1-1",           571,       49.3743,       5.34933,            0.,NA,NA,"",   1.38379E+06,   1.37803E+06,   1.37803E+06
C:/temp/Job-1.odb,Step-1,Increment      1: Step Time =    1.000,"P-1-1",           572,       39.6708,       4.34983,            0.,NA,NA,"",   1.46127E+06,   1.45923E+06,   1.45923E+06
C:/temp/Job-1.odb,Step-1,Increment      1: Step Time =    1.000,"P-1-1",           573,       29.9932,       4.30995,            0.,NA,NA,"",   1.52238E+06,   1.52197E+06,   1.52197E+06
C:/temp/Job-1.odb,Step-1,Increment      1: Step Time =    1.000,"P-1-1",           574,       20.1181,       4.58190,            0.,NA,NA,"",   1.58757E+06,   1.59083E+06,   1.59083E+06
C:/temp/Job-1.odb,Step-1,Increment      1: Step Time =    1.000,"P-1-1",           575,       10.0995,       4.90955,            0.,NA,NA,"",   1.72407E+06,   1.74138E+06,   1.74138E+06
C:/temp/Job-1.odb,Step-1,Increment      1: Step Time =    1.000,"P-1-1",           576,       194.767,       189.998,            0.,NA,NA,"",   1.00167E+06,   1.00143E+06,   1.00143E+06
C:/temp/Job-1.odb,Step-1,Increment      1: Step Time =    1.000,"P-1-1",           577,       194.318,       179.659,            0.,NA,NA,"",   1.00180E+06,   1.00547E+06,   1.00547E+06
C:/temp/Job-1.odb,Step-1,Increment      1: Step Time =    1.000,"P-1-1",           578,       194.755,       169.402,            0.,NA,NA,"",   991.365E+03,   1.00848E+06,   1.00848E+06
C:/temp/Job-1.odb,Step-1,Increment      1: Step Time =    1.000,"P-1-1",           579,       194.833,       159.213,            0.,NA,NA,"",   967.049E+03,   1.01112E+06,   1.01112E+06
C:/temp/Job-1.odb,Step-1,Increment      1: Step Time =    1.000,"P-1-1",           580,       195.691,       149.668,            0.,NA,NA,"",   929.131E+03,   1.01130E+06,   1.01130E+06
C:/temp/Job-1.odb,Step-1,Increment      1: Step Time =    1.000,"P-1-1",           581,       195.286,       139.948,            0.,NA,NA,"",   899.225E+03,   1.01574E+06,   1.01574E+06
C:/temp/Job-1.odb,Step-1,Increment      1: Step Time =    1.000,"P-1-1",           582,       195.126,       129.914,            0.,NA,NA,"",   883.355E+03,   1.01586E+06,   1.01586E+06
C:/temp/Job-1.odb,Step-1,Increment      1: Step Time =    1.000,"P-1-1",           583,       195.020,       119.926,            0.,NA,NA,"",   888.122E+03,   1.00831E+06,   1.00831E+06
C:/temp/Job-1.odb,Step-1,Increment      1: Step Time =    1.000,"P-1-1",           584,       194.917,       109.918,            0.,NA,NA,"",   902.552E+03,   992.578E+03,   992.578E+03
C:/temp/Job-1.odb,Step-1,Increment      1: Step Time =    1.000,"P-1-1",           585,       194.886,       99.8845,            0.,NA,NA,"",   910.494E+03,   983.001E+03,   983.001E+03
C:/temp/Job-1.odb,Step-1,Increment      1: Step Time =    1.000,"P-1-1",           586,       194.972,       89.8980,            0.,NA,NA,"",   903.067E+03,   993.242E+03,   993.242E+03
C:/temp/Job-1.odb,Step-1,Increment      1: Step Time =    1.000,"P-1-1",           587,       195.031,       79.8936,            0.,NA,NA,"",   888.087E+03,   1.00863E+06,   1.00863E+06
C:/temp/Job-1.odb,Step-1,Increment      1: Step Time =    1.000,"P-1-1",           588,       194.904,       69.9675,            0.,NA,NA,"",   884.491E+03,   1.01658E+06,   1.01658E+06
C:/temp/Job-1.odb,Step-1,Increment      1: Step Time =    1.000,"P-1-1",           589,       194.361,       59.9436,            0.,NA,NA,"",   905.708E+03,   1.01886E+06,   1.01886E+06
C:/temp/Job-1.odb,Step-1,Increment      1: Step Time =    1.000,"P-1-1",           590,       194.511,       49.1459,            0.,NA,NA,"",   942.346E+03,   1.01807E+06,   1.01807E+06
C:/temp/Job-1.odb,Step-1,Increment      1: Step Time =    1.000,"P-1-1",           591,       195.301,       39.3007,            0.,NA,NA,"",   969.082E+03,   1.00944E+06,   1.00944E+06
C:/temp/Job-1.odb,Step-1,Increment      1: Step Time =    1.000,"P-1-1",           592,       195.690,       29.6187,            0.,NA,NA,"",   990.540E+03,   1.00543E+06,   1.00543E+06
C:/temp/Job-1.odb,Step-1,Increment      1: Step Time =    1.000,"P-1-1",           593,       195.620,       19.8107,            0.,NA,NA,"",   1.00057E+06,   1.00310E+06,   1.00310E+06
C:/temp/Job-1.odb,Step-1,Increment      1: Step Time =    1.000,"P-1-1",           594,       195.222,       9.99793,            0.,NA,NA,"",   1.00130E+06,   1.00104E+06,   1.00104E+06
C:/temp/Job-1.odb,Step-1,Increment      1: Step Time =    1.000,"P-1-1",           595,       10.1168,       194.871,            0.,NA,NA,"",   1.72071E+06,   1.73947E+06,   1.73947E+06
C:/temp/Job-1.odb,Step-1,Increment      1: Step Time =    1.000,"P-1-1",           596,       20.1963,       194.709,            0.,NA,NA,"",   1.58504E+06,   1.58909E+06,   1.58909E+06
C:/temp/Job-1.odb,Step-1,Increment      1: Step Time =    1.000,"P-1-1",           597,       30.2308,       194.670,            0.,NA,NA,"",   1.51887E+06,   1.51807E+06,   1.51807E+06
C:/temp/Job-1.odb,Step-1,Increment      1: Step Time =    1.000,"P-1-1",           598,       40.4764,       194.635,            0.,NA,NA,"",   1.45472E+06,   1.45179E+06,   1.45179E+06
C:/temp/Job-1.odb,Step-1,Increment      1: Step Time =    1.000,"P-1-1",           599,       50.4349,       195.473,            0.,NA,NA,"",   1.37307E+06,   1.36986E+06,   1.36986E+06
C:/temp/Job-1.odb,Step-1,Increment      1: Step Time =    1.000,"P-1-1",           600,       60.1584,       195.531,            0.,NA,NA,"",   1.26543E+06,   1.26167E+06,   1.26167E+06
C:/temp/Job-1.odb,Step-1,Increment      1: Step Time =    1.000,"P-1-1",           601,       69.9235,       195.230,            0.,NA,NA,"",   1.13905E+06,   1.13524E+06,   1.13524E+06
C:/temp/Job-1.odb,Step-1,Increment      1: Step Time =    1.000,"P-1-1",           602,       79.9309,       194.884,            0.,NA,NA,"",   1.00386E+06,   1.00263E+06,   1.00263E+06
C:/temp/Job-1.odb,Step-1,Increment      1: Step Time =    1.000,"P-1-1",           603,       90.0724,       194.900,            0.,NA,NA,"",   879.273E+03,   882.020E+03,   882.020E+03
C:/temp/Job-1.odb,Step-1,Increment      1: Step Time =    1.000,"P-1-1",           604,       100.259,       195.048,            0.,NA,NA,"",   793.569E+03,   798.943E+03,   798.943E+03
C:/temp/Job-1.odb,Step-1,Increment      1: Step Time =    1.000,"P-1-1",           605,       110.361,       194.875,            0.,NA,NA,"",   775.533E+03,   780.788E+03,   780.788E+03
C:/temp/Job-1.odb,Step-1,Increment      1: Step Time =    1.000,"P-1-1",           606,       120.372,       194.950,            0.,NA,NA,"",   806.692E+03,   809.343E+03,   809.343E+03
C:/temp/Job-1.odb,Step-1,Increment      1: Step Time =    1.000,"P-1-1",           607,       130.402,       195.094,            0.,NA,NA,"",   866.691E+03,   865.985E+03,   865.985E+03
C:/temp/Job-1.odb,Step-1,Increment      1: Step Time =    1.000,"P-1-1",           608,       140.412,       194.608,            0.,NA,NA,"",   934.784E+03,   932.265E+03,   932.265E+03
C:/temp/Job-1.odb,Step-1,Increment      1: Step Time =    1.000,"P-1-1",           609,       150.935,       194.733,            0.,NA,NA,"",   981.339E+03,   978.205E+03,   978.205E+03
C:/temp/Job-1.odb,Step-1,Increment      1: Step Time =    1.000,"P-1-1",           610,       160.592,       195.372,            0.,NA,NA,"",   1.00026E+06,   998.536E+03,   998.536E+03
C:/temp/Job-1.odb,Step-1,Increment      1: Step Time =    1.000,"P-1-1",           611,       170.208,       195.611,            0.,NA,NA,"",   1.00425E+06,   1.00356E+06,   1.00356E+06
C:/temp/Job-1.odb,Step-1,Increment      1: Step Time =    1.000,"P-1-1",           612,       180.041,       195.494,            0.,NA,NA,"",   1.00056E+06,   1.00080E+06,   1.00080E+06
C:/temp/Job-1.odb,Step-1,Increment      1: Step Time =    1.000,"P-1-1",           613,       189.933,       195.149,            0.,NA,NA,"",   998.832E+03,   999.194E+03,   999.194E+03
C:/temp/Job-1.odb,Step-1,Increment      1: Step Time =    1.000,"P-1-1",           614,       5.39982,       15.1009,            0.,NA,NA,"",   1.40796E+06,   1.52709E+06,   1.52709E+06
C:/temp/Job-1.odb,Step-1,Increment      1: Step Time =    1.000,"P-1-1",           615,       5.10464,       25.2654,            0.,NA,NA,"",   1.20625E+06,   1.32736E+06,   1.32736E+06
C:/temp/Job-1.odb,Step-1,Increment      1: Step Time =    1.000,"P-1-1",           616,       4.80302,       35.1950,            0.,NA,NA,"",   1.05861E+06,   1.17356E+06,   1.17356E+06
C:/temp/Job-1.odb,Step-1,Increment      1: Step Time =    1.000,"P-1-1",           617,       5.18856,       45.1019,            0.,NA,NA,"",   931.384E+03,   1.03410E+06,   1.03410E+06
C:/temp/Job-1.odb,Step-1,Increment      1: Step Time =    1.000,"P-1-1",           618,       5.04453,       50.0713,            0.,NA,NA,"",   867.110E+03,   963.837E+03,   963.837E+03
C:/temp/Job-1.odb,Step-1,Increment      1: Step Time =    1.000,"P-1-1",           619,       4.82748,       59.9944,            0.,NA,NA,"",   735.622E+03,   820.358E+03,   820.358E+03
C:/temp/Job-1.odb,Step-1,Increment      1: Step Time =    1.000,"P-1-1",           620,       4.84996,       69.9051,            0.,NA,NA,"",   607.706E+03,   680.616E+03,   680.616E+03
C:/temp/Job-1.odb,Step-1,Increment      1: Step Time =    1.000,"P-1-1",           621,       5.06677,       79.8719,            0.,NA,NA,"",   487.619E+03,   551.142E+03,   551.142E+03
C:/temp/Job-1.odb,Step-1,Increment      1: Step Time =    1.000,"P-1-1",           622,       5.06887,       89.8518,            0.,NA,NA,"",   397.584E+03,   454.462E+03,   454.462E+03
C:/temp/Job-1.odb,Step-1,Increment      1: Step Time =    1.000,"P-1-1",           623,       4.89959,       99.9277,            0.,NA,NA,"",   361.285E+03,   414.914E+03,   414.914E+03
C:/temp/Job-1.odb,Step-1,Increment      1: Step Time =    1.000,"P-1-1",           624,       4.99598,       109.886,            0.,NA,NA,"",   395.253E+03,   451.910E+03,   451.910E+03
C:/temp/Job-1.odb,Step-1,Increment      1: Step Time =    1.000,"P-1-1",           625,       4.96580,       119.829,            0.,NA,NA,"",   482.370E+03,   545.555E+03,   545.555E+03
C:/temp/Job-1.odb,Step-1,Increment      1: Step Time =    1.000,"P-1-1",           626,       4.89232,       129.839,            0.,NA,NA,"",   601.910E+03,   674.287E+03,   674.287E+03
C:/temp/Job-1.odb,Step-1,Increment      1: Step Time =    1.000,"P-1-1",           627,       5.43380,       139.863,            0.,NA,NA,"",   732.829E+03,   815.998E+03,   815.998E+03
C:/temp/Job-1.odb,Step-1,Increment      1: Step Time =    1.000,"P-1-1",           628,       4.41742,       150.583,            0.,NA,NA,"",   872.765E+03,   972.435E+03,   972.435E+03
C:/temp/Job-1.odb,Step-1,Increment      1: Step Time =    1.000,"P-1-1",           629,       4.44345,       159.980,            0.,NA,NA,"",   991.584E+03,   1.10275E+06,   1.10275E+06
C:/temp/Job-1.odb,Step-1,Increment      1: Step Time =    1.000,"P-1-1",           630,       4.80664,       169.728,            0.,NA,NA,"",   1.12604E+06,   1.24509E+06,   1.24509E+06
C:/temp/Job-1.odb,Step-1,Increment      1: Step Time =    1.000,"P-1-1",           631,       5.26706,       179.733,            0.,NA,NA,"",   1.29816E+06,   1.42012E+06,   1.42012E+06
C:/temp/Job-1.odb,Step-1,Increment      1: Step Time =    1.000,"P-1-1",           632,       5.12726,       189.885,            0.,NA,NA,"",   1.57066E+06,   1.68051E+06,   1.68051E+06
C:/temp/Job-1.odb,Step-1,Increment      1: Step Time =    1.000,"P-1-1",           633,       98.2393,       140.425,            0.,NA,NA,"",   2.80652E+06,   2.92052E+06,   2.92052E+06
C:/temp/Job-1.odb,Step-1,Increment      1: Step Time =    1.000,"P-1-1",           634,       70.7132,       128.715,            0.,NA,NA,"",   978.163E+03,   913.535E+03,   913.535E+03
C:/temp/Job-1.odb,Step-1,Increment      1: Step Time =    1.000,"P-1-1",           635,       75.8091,       66.3503,            0.,NA,NA,"",   1.47141E+06,   1.46368E+06,   1.46368E+06
C:/temp/Job-1.odb,Step-1,Increment      1: Step Time =    1.000,"P-1-1",           636,       135.663,       79.6731,            0.,NA,NA,"",   821.656E+03,   401.048E+03,   401.048E+03
C:/temp/Job-1.odb,Step-1,Increment      1: Step Time =    1.000,"P-1-1",           637,       139.809,       106.344,            0.,NA,NA,"",   933.794E+03,  -932.098E+03,  -932.098E+03
C:/temp/Job-1.odb,Step-1,Increment      1: Step Time =    1.000,"P-1-1",           638,       108.743,       140.551,            0.,NA,NA,"",   2.60282E+06,   2.73636E+06,   2.73636E+06
C:/temp/Job-1.odb,Step-1,Increment      1: Step Time =    1.000,"P-1-1",           639,       132.554,       126.425,            0.,NA,NA,"",   1.19430E+06,   1.05344E+06,   1.05344E+06
C:/temp/Job-1.odb,Step-1,Increment      1: Step Time =    1.000,"P-1-1",           640,       108.775,       60.6198,            0.,NA,NA,"",   2.78498E+06,   2.89537E+06,   2.89537E+06
C:/temp/Job-1.odb,Step-1,Increment      1: Step Time =    1.000,"P-1-1",           641,       123.622,       67.6229,            0.,NA,NA,"",   1.87665E+06,   1.89996E+06,   1.89996E+06
C:/temp/Job-1.odb,Step-1,Increment      1: Step Time =    1.000,"P-1-1",           642,       93.6052,       139.428,            0.,NA,NA,"",   2.73529E+06,   2.83023E+06,   2.83023E+06
C:/temp/Job-1.odb,Step-1,Increment      1: Step Time =    1.000,"P-1-1",           643,       128.715,       128.230,            0.,NA,NA,"",   1.35066E+06,   1.29733E+06,   1.29733E+06
C:/temp/Job-1.odb,Step-1,Increment      1: Step Time =    1.000,"P-1-1",           644,       59.8353,       107.109,            0.,NA,NA,"",   596.423E+03,  -600.343E+03,  -600.343E+03
C:/temp/Job-1.odb,Step-1,Increment      1: Step Time =    1.000,"P-1-1",           645,       103.201,       59.9197,            0.,NA,NA,"",   2.87661E+06,   2.99171E+06,   2.99171E+06
C:/temp/Job-1.odb,Step-1,Increment      1: Step Time =    1.000,"P-1-1",           646,       61.3648,       112.107,            0.,NA,NA,"",   542.888E+03,  -511.470E+03,  -511.470E+03
C:/temp/Job-1.odb,Step-1,Increment      1: Step Time =    1.000,"P-1-1",           647,       97.5955,       59.5000,            0.,NA,NA,"",   2.76861E+06,   2.88194E+06,   2.88194E+06
C:/temp/Job-1.odb,Step-1,Increment      1: Step Time =    1.000,"P-1-1",           648,       59.5105,       101.684,            0.,NA,NA,"",   634.898E+03,  -652.951E+03,  -652.951E+03
C:/temp/Job-1.odb,Step-1,Increment      1: Step Time =    1.000,"P-1-1",           649,       140.344,       101.067,            0.,NA,NA,"",   987.798E+03,  -1.00563E+06,  -1.00563E+06
C:/temp/Job-1.odb,Step-1,Increment      1: Step Time =    1.000,"P-1-1",           650,       59.7694,       96.2814,            0.,NA,NA,"",   632.008E+03,  -648.319E+03,  -648.319E+03
C:/temp/Job-1.odb,Step-1,Increment      1: Step Time =    1.000,"P-1-1",           651,       137.341,       120.819,            0.,NA,NA,"",   929.760E+03,   496.348E+03,   496.348E+03
C:/temp/Job-1.odb,Step-1,Increment      1: Step Time =    1.000,"P-1-1",           652,       80.7914,       63.1604,            0.,NA,NA,"",   1.86984E+06,   1.90575E+06,   1.90575E+06
C:/temp/Job-1.odb,Step-1,Increment      1: Step Time =    1.000,"P-1-1",           653,       74.7478,       131.450,            0.,NA,NA,"",   1.29680E+06,   1.28363E+06,   1.28363E+06
C:/temp/Job-1.odb,Step-1,Increment      1: Step Time =    1.000,"P-1-1",           654,       91.9781,       59.5532,            0.,NA,NA,"",   2.52901E+06,   2.63228E+06,   2.63228E+06
C:/temp/Job-1.odb,Step-1,Increment      1: Step Time =    1.000,"P-1-1",           655,       67.2556,       75.2976,            0.,NA,NA,"",   680.107E+03,   563.457E+03,   563.457E+03
C:/temp/Job-1.odb,Step-1,Increment      1: Step Time =    1.000,"P-1-1",           656,       125.191,       131.197,            0.,NA,NA,"",   1.71809E+06,   1.72689E+06,   1.72689E+06
C:/temp/Job-1.odb,Step-1,Increment      1: Step Time =    1.000,"P-1-1",           657,       132.783,       74.4067,            0.,NA,NA,"",   1.13747E+06,   1.00041E+06,   1.00041E+06
C:/temp/Job-1.odb,Step-1,Increment      1: Step Time =    1.000,"P-1-1",           658,       127.795,       70.9422,            0.,NA,NA,"",   1.45225E+06,   1.41968E+06,   1.41968E+06
C:/temp/Job-1.odb,Step-1,Increment      1: Step Time =    1.000,"P-1-1",           659,       140.432,       95.6127,            0.,NA,NA,"",   949.126E+03,  -949.257E+03,  -949.257E+03
C:/temp/Job-1.odb,Step-1,Increment      1: Step Time =    1.000,"P-1-1",           660,       102.190,       141.595,            0.,NA,NA,"",   2.65198E+06,   2.79360E+06,   2.79360E+06
C:/temp/Job-1.odb,Step-1,Increment      1: Step Time =    1.000,"P-1-1",           661,       70.1817,       69.9158,            0.,NA,NA,"",   1.09053E+06,   1.02123E+06,   1.02123E+06
C:/temp/Job-1.odb,Step-1,Increment      1: Step Time =    1.000,"P-1-1",           662,       67.0650,       126.440,            0.,NA,NA,"",   817.650E+03,   695.345E+03,   695.345E+03
C:/temp/Job-1.odb,Step-1,Increment      1: Step Time =    1.000,"P-1-1",           663,       138.946,       111.421,            0.,NA,NA,"",   818.720E+03,  -748.972E+03,  -748.972E+03
C:/temp/Job-1.odb,Step-1,Increment      1: Step Time =    1.000,"P-1-1",           664,       142.999,       120.985,            0.,NA,NA,"",   1.16978E+06,   822.069E+03,   822.069E+03
C:/temp/Job-1.odb,Step-1,Increment      1: Step Time =    1.000,"P-1-1",           665,       84.9531,       55.5312,            0.,NA,NA,"",   1.90560E+06,   1.98500E+06,   1.98500E+06
C:/temp/Job-1.odb,Step-1,Increment      1: Step Time =    1.000,"P-1-1",           666,       116.840,       56.7079,            0.,NA,NA,"",   2.01079E+06,   2.11941E+06,   2.11941E+06
C:/temp/Job-1.odb,Step-1,Increment      1: Step Time =    1.000,"P-1-1",           667,       140.010,       9.54684,            0.,NA,NA,"",   993.490E+03,   987.931E+03,   987.931E+03
C:/temp/Job-1.odb,Step-1,Increment      1: Step Time =    1.000,"P-1-1",           668,       129.804,       9.74614,            0.,NA,NA,"",   952.659E+03,   952.077E+03,   952.077E+03
C:/temp/Job-1.odb,Step-1,Increment      1: Step Time =    1.000,"P-1-1",           669,       119.713,       9.96295,            0.,NA,NA,"",   911.289E+03,   918.847E+03,   918.847E+03
C:/temp/Job-1.odb,Step-1,Increment      1: Step Time =    1.000,"P-1-1",           670,       109.643,       9.95731,            0.,NA,NA,"",   889.343E+03,   903.726E+03,   903.726E+03
C:/temp/Job-1.odb,Step-1,Increment      1: Step Time =    1.000,"P-1-1",           671,       99.8227,       9.76188,            0.,NA,NA,"",   910.291E+03,   924.618E+03,   924.618E+03
C:/temp/Job-1.odb,Step-1,Increment      1: Step Time =    1.000,"P-1-1",           672,       90.0799,       9.61117,            0.,NA,NA,"",   981.964E+03,   988.646E+03,   988.646E+03
C:/temp/Job-1.odb,Step-1,Increment      1: Step Time =    1.000,"P-1-1",           673,       80.4518,       9.42879,            0.,NA,NA,"",   1.08040E+06,   1.07844E+06,   1.07844E+06
C:/temp/Job-1.odb,Step-1,Increment      1: Step Time =    1.000,"P-1-1",           674,       71.0948,       9.51412,            0.,NA,NA,"",   1.18866E+06,   1.18063E+06,   1.18063E+06
C:/temp/Job-1.odb,Step-1,Increment      1: Step Time =    1.000,"P-1-1",           675,       62.1366,       11.1011,            0.,NA,NA,"",   1.29760E+06,   1.28369E+06,   1.28369E+06
C:/temp/Job-1.odb,Step-1,Increment      1: Step Time =    1.000,"P-1-1",           676,       190.445,       139.987,            0.,NA,NA,"",   944.817E+03,   1.04355E+06,   1.04355E+06
C:/temp/Job-1.odb,Step-1,Increment      1: Step Time =    1.000,"P-1-1",           677,       190.240,       129.800,            0.,NA,NA,"",   913.831E+03,   1.03785E+06,   1.03785E+06
C:/temp/Job-1.odb,Step-1,Increment      1: Step Time =    1.000,"P-1-1",           678,       190.007,       119.842,            0.,NA,NA,"",   881.524E+03,   1.01368E+06,   1.01368E+06
C:/temp/Job-1.odb,Step-1,Increment      1: Step Time =    1.000,"P-1-1",           679,       189.820,       109.821,            0.,NA,NA,"",   851.214E+03,   971.786E+03,   971.786E+03
C:/temp/Job-1.odb,Step-1,Increment      1: Step Time =    1.000,"P-1-1",           680,       189.892,       70.0413,            0.,NA,NA,"",   917.968E+03,   1.04022E+06,   1.04022E+06
C:/temp/Job-1.odb,Step-1,Increment      1: Step Time =    1.000,"P-1-1",           681,       189.224,       60.4158,            0.,NA,NA,"",   956.500E+03,   1.05062E+06,   1.05062E+06
C:/temp/Job-1.odb,Step-1,Increment      1: Step Time =    1.000,"P-1-1",           682,       60.2151,       190.991,            0.,NA,NA,"",   1.29634E+06,   1.28574E+06,   1.28574E+06
C:/temp/Job-1.odb,Step-1,Increment      1: Step Time =    1.000,"P-1-1",           683,       69.6697,       190.397,            0.,NA,NA,"",   1.20672E+06,   1.19680E+06,   1.19680E+06
C:/temp/Job-1.odb,Step-1,Increment      1: Step Time =    1.000,"P-1-1",           684,       90.2685,       189.857,            0.,NA,NA,"",   991.758E+03,   999.761E+03,   999.761E+03
C:/temp/Job-1.odb,Step-1,Increment      1: Step Time =    1.000,"P-1-1",           685,       100.499,       190.213,            0.,NA,NA,"",   907.695E+03,   922.284E+03,   922.284E+03
C:/temp/Job-1.odb,Step-1,Increment      1: Step Time =    1.000,"P-1-1",           686,       110.647,       189.669,            0.,NA,NA,"",   897.512E+03,   912.474E+03,   912.474E+03
C:/temp/Job-1.odb,Step-1,Increment      1: Step Time =    1.000,"P-1-1",           687,       9.70824,       69.7530,            0.,NA,NA,"",   616.871E+03,   686.342E+03,   686.342E+03
C:/temp/Job-1.odb,Step-1,Increment      1: Step Time =    1.000,"P-1-1",           688,       10.2341,       79.6423,            0.,NA,NA,"",   483.370E+03,   547.040E+03,   547.040E+03
C:/temp/Job-1.odb,Step-1,Increment      1: Step Time =    1.000,"P-1-1",           689,       10.1529,       89.8126,            0.,NA,NA,"",   380.187E+03,   437.459E+03,   437.459E+03
C:/temp/Job-1.odb,Step-1,Increment      1: Step Time =    1.000,"P-1-1",           690,       9.72904,       99.8676,            0.,NA,NA,"",   342.649E+03,   395.395E+03,   395.395E+03
C:/temp/Job-1.odb,Step-1,Increment      1: Step Time =    1.000,"P-1-1",           691,       10.0683,       109.677,            0.,NA,NA,"",   376.322E+03,   433.258E+03,   433.258E+03
C:/temp/Job-1.odb,Step-1,Increment      1: Step Time =    1.000,"P-1-1",           692,       9.94028,       119.715,            0.,NA,NA,"",   472.821E+03,   536.247E+03,   536.247E+03
C:/temp/Job-1.odb,Step-1,Increment      1: Step Time =    1.000,"P-1-1",           693,       9.71214,       129.623,            0.,NA,NA,"",   605.235E+03,   674.352E+03,   674.352E+03
C:/temp/Job-1.odb,Step-1,Increment      1: Step Time =    1.000,"P-1-1",           694,       10.4510,       139.013,            0.,NA,NA,"",   743.983E+03,   817.692E+03,   817.692E+03
C:/temp/Job-1.odb,Step-1,Increment      1: Step Time =    1.000,"P-1-1",           695,       189.744,       99.6938,            0.,NA,NA,"",   841.091E+03,   950.466E+03,   950.466E+03
C:/temp/Job-1.odb,Step-1,Increment      1: Step Time =    1.000,"P-1-1",           696,       190.000,       89.7169,            0.,NA,NA,"",   853.864E+03,   974.977E+03,   974.977E+03
C:/temp/Job-1.odb,Step-1,Increment      1: Step Time =    1.000,"P-1-1",           697,       190.164,       79.7816,            0.,NA,NA,"",   883.501E+03,   1.01583E+06,   1.01583E+06
C:/temp/Job-1.odb,Step-1,Increment      1: Step Time =    1.000,"P-1-1",           698,       79.7274,       189.721,            0.,NA,NA,"",   1.10617E+06,   1.10320E+06,   1.10320E+06
C:/temp/Job-1.odb,Step-1,Increment      1: Step Time =    1.000,"P-1-1",           699,       120.891,       189.902,            0.,NA,NA,"",   919.644E+03,   926.668E+03,   926.668E+03
C:/temp/Job-1.odb,Step-1,Increment      1: Step Time =    1.000,"P-1-1",           700,       130.780,       190.333,            0.,NA,NA,"",   955.849E+03,   954.162E+03,   954.162E+03
C:/temp/Job-1.odb,Step-1,Increment      1: Step Time =    1.000,"P-1-1",           701,       140.293,       189.714,            0.,NA,NA,"",   1.00556E+06,   998.727E+03,   998.727E+03
C:/temp/Job-1.odb,Step-1,Increment      1: Step Time =    1.000,"P-1-1",           702,       9.64236,       60.0288,            0.,NA,NA,"",   757.388E+03,   833.424E+03,   833.424E+03
C:/temp/Job-1.odb,Step-1,Increment      1: Step Time =    1.000,"P-1-1",           703,       79.1165,       134.108,            0.,NA,NA,"",   1.70308E+06,   1.72693E+06,   1.72693E+06
C:/temp/Job-1.odb,Step-1,Increment      1: Step Time =    1.000,"P-1-1",           704,       139.862,       90.0537,            0.,NA,NA,"",   865.451E+03,  -801.929E+03,  -801.929E+03
C:/temp/Job-1.odb,Step-1,Increment      1: Step Time =    1.000,"P-1-1",           705,       64.2434,       80.0040,            0.,NA,NA,"",   510.958E+03,  -2.62311E+03,  -2.62311E+03
C:/temp/Job-1.odb,Step-1,Increment      1: Step Time =    1.000,"P-1-1",           706,       112.292,       138.448,            0.,NA,NA,"",   2.66065E+06,   2.76093E+06,   2.76093E+06
C:/temp/Job-1.odb,Step-1,Increment      1: Step Time =    1.000,"P-1-1",           707,       140.766,       77.6062,            0.,NA,NA,"",   1.18782E+06,   861.450E+03,   861.450E+03
C:/temp/Job-1.odb,Step-1,Increment      1: Step Time =    1.000,"P-1-1",           708,       99.9425,       145.981,            0.,NA,NA,"",   2.10600E+06,   2.27286E+06,   2.27286E+06
C:/temp/Job-1.odb,Step-1,Increment      1: Step Time =    1.000,"P-1-1",           709,       145.000,       101.073,            0.,NA,NA,"",   578.198E+03,  -561.944E+03,  -561.944E+03
C:/temp/Job-1.odb,Step-1,Increment      1: Step Time =    1.000,"P-1-1",           710,       54.6484,       101.899,            0.,NA,NA,"",   336.717E+03,  -344.076E+03,  -344.076E+03
C:/temp/Job-1.odb,Step-1,Increment      1: Step Time =    1.000,"P-1-1",           711,       133.437,       131.233,            0.,NA,NA,"",   1.58068E+06,   1.42463E+06,   1.42463E+06
C:/temp/Job-1.odb,Step-1,Increment      1: Step Time =    1.000,"P-1-1",           712,       68.6484,       64.5277,            0.,NA,NA,"",   1.41245E+06,   1.31022E+06,   1.31022E+06
C:/temp/Job-1.odb,Step-1,Increment      1: Step Time =    1.000,"P-1-1",           713,       98.3363,       54.7811,            0.,NA,NA,"",   2.18546E+06,   2.34477E+06,   2.34477E+06
C:/temp/Job-1.odb,Step-1,Increment      1: Step Time =    1.000,"P-1-1",           714,       64.6310,       131.152,            0.,NA,NA,"",   1.18240E+06,   1.03294E+06,   1.03294E+06
C:/temp/Job-1.odb,Step-1,Increment      1: Step Time =    1.000,"P-1-1",           715,       104.062,       55.7441,            0.,NA,NA,"",   2.27598E+06,   2.44024E+06,   2.44024E+06
C:/temp/Job-1.odb,Step-1,Increment      1: Step Time =    1.000,"P-1-1",           716,       68.5314,       133.359,            0.,NA,NA,"",   1.31818E+06,   1.20748E+06,   1.20748E+06
C:/temp/Job-1.odb,Step-1,Increment      1: Step Time =    1.000,"P-1-1",           717,       130.180,       131.478,            0.,NA,NA,"",   1.58774E+06,   1.49187E+06,   1.49187E+06
C:/temp/Job-1.odb,Step-1,Increment      1: Step Time =    1.000,"P-1-1",           718,       130.274,       67.4478,            0.,NA,NA,"",   1.60780E+06,   1.51759E+06,   1.51759E+06
C:/temp/Job-1.odb,Step-1,Increment      1: Step Time =    1.000,"P-1-1",           719,       78.1039,       57.3779,            0.,NA,NA,"",   1.74914E+06,   1.75394E+06,   1.75394E+06
C:/temp/Job-1.odb,Step-1,Increment      1: Step Time =    1.000,"P-1-1",           720,       91.9347,       53.1448,            0.,NA,NA,"",   1.97480E+06,   2.10661E+06,   2.10661E+06
C:/temp/Job-1.odb,Step-1,Increment      1: Step Time =    1.000,"P-1-1",           721,       109.887,       56.2479,            0.,NA,NA,"",   2.20231E+06,   2.35430E+06,   2.35430E+06
C:/temp/Job-1.odb,Step-1,Increment      1: Step Time =    1.000,"P-1-1",           722,       58.9864,       117.778,            0.,NA,NA,"",   594.244E+03,   24.5902E+03,   24.5902E+03
C:/temp/Job-1.odb,Step-1,Increment      1: Step Time =    1.000,"P-1-1",           723,       143.339,       116.235,            0.,NA,NA,"",   957.446E+03,   69.5740E+03,   69.5740E+03
C:/temp/Job-1.odb,Step-1,Increment      1: Step Time =    1.000,"P-1-1",           724,       122.027,       60.7177,            0.,NA,NA,"",   1.94007E+06,   1.99208E+06,   1.99208E+06
C:/temp/Job-1.odb,Step-1,Increment      1: Step Time =    1.000,"P-1-1",           725,       9.45192,       164.479,            0.,NA,NA,"",   1.10076E+06,   1.19623E+06,   1.19623E+06
C:/temp/Job-1.odb,Step-1,Increment      1: Step Time =    1.000,"P-1-1",           726,       163.781,       10.5043,            0.,NA,NA,"",   1.03643E+06,   1.03097E+06,   1.03097E+06
C:/temp/Job-1.odb,Step-1,Increment      1: Step Time =    1.000,"P-1-1",           727,       34.6964,       8.55729,            0.,NA,NA,"",   1.47995E+06,   1.47621E+06,   1.47621E+06
C:/temp/Job-1.odb,Step-1,Increment      1: Step Time =    1.000,"P-1-1",           728,       9.88153,       40.0139,            0.,NA,NA,"",   1.04270E+06,   1.13346E+06,   1.13346E+06
C:/temp/Job-1.odb,Step-1,Increment      1: Step Time =    1.000,"P-1-1",           729,       189.537,       163.715,            0.,NA,NA,"",   999.864E+03,   1.02827E+06,   1.02827E+06
C:/temp/Job-1.odb,Step-1,Increment      1: Step Time =    1.000,"P-1-1",           730,       161.311,       190.616,            0.,NA,NA,"",   1.02807E+06,   1.02318E+06,   1.02318E+06
C:/temp/Job-1.odb,Step-1,Increment      1: Step Time =    1.000,"P-1-1",           731,       35.5444,       189.288,            0.,NA,NA,"",   1.47126E+06,   1.46520E+06,   1.46520E+06
C:/temp/Job-1.odb,Step-1,Increment      1: Step Time =    1.000,"P-1-1",           732,       190.569,       38.3802,            0.,NA,NA,"",   991.085E+03,   1.02616E+06,   1.02616E+06
C:/temp/Job-1.odb,Step-1,Increment      1: Step Time =    1.000,"P-1-1",           733,       88.7046,       138.149,            0.,NA,NA,"",   2.48398E+06,   2.56203E+06,   2.56203E+06
C:/temp/Job-1.odb,Step-1,Increment      1: Step Time =    1.000,"P-1-1",           734,       66.3158,       137.698,            0.,NA,NA,"",   1.45653E+06,   1.33189E+06,   1.33189E+06
C:/temp/Job-1.odb,Step-1,Increment      1: Step Time =    1.000,"P-1-1",           735,       132.828,       138.897,            0.,NA,NA,"",   1.74488E+06,   1.63141E+06,   1.63141E+06
C:/temp/Job-1.odb,Step-1,Increment      1: Step Time =    1.000,"P-1-1",           736,       60.2642,       17.5626,            0.,NA,NA,"",   1.37634E+06,   1.34699E+06,   1.34699E+06
C:/temp/Job-1.odb,Step-1,Increment      1: Step Time =    1.000,"P-1-1",           737,       14.4289,       60.0736,            0.,NA,NA,"",   785.284E+03,   849.722E+03,   849.722E+03
C:/temp/Job-1.odb,Step-1,Increment      1: Step Time =    1.000,"P-1-1",           738,       184.110,       60.7530,            0.,NA,NA,"",   1.01790E+06,   1.08408E+06,   1.08408E+06
C:/temp/Job-1.odb,Step-1,Increment      1: Step Time =    1.000,"P-1-1",           739,       60.0667,       186.384,            0.,NA,NA,"",   1.33885E+06,   1.31878E+06,   1.31878E+06
C:/temp/Job-1.odb,Step-1,Increment      1: Step Time =    1.000,"P-1-1",           740,       140.015,       14.3797,            0.,NA,NA,"",   1.06932E+06,   1.05853E+06,   1.05853E+06
C:/temp/Job-1.odb,Step-1,Increment      1: Step Time =    1.000,"P-1-1",           741,       15.1739,       138.157,            0.,NA,NA,"",   759.750E+03,   821.723E+03,   821.723E+03
C:/temp/Job-1.odb,Step-1,Increment      1: Step Time =    1.000,"P-1-1",           742,       185.613,       139.986,            0.,NA,NA,"",   1.00432E+06,   1.07669E+06,   1.07669E+06
C:/temp/Job-1.odb,Step-1,Increment      1: Step Time =    1.000,"P-1-1",           743,       140.313,       184.894,            0.,NA,NA,"",   1.07801E+06,   1.06588E+06,   1.06588E+06
C:/temp/Job-1.odb,Step-1,Increment      1: Step Time =    1.000,"P-1-1",           744,       100.416,       50.1904,            0.,NA,NA,"",   1.84526E+06,   2.01011E+06,   2.01011E+06
C:/temp/Job-1.odb,Step-1,Increment      1: Step Time =    1.000,"P-1-1",           745,       111.839,       144.158,            0.,NA,NA,"",   2.08279E+06,   2.23303E+06,   2.23303E+06
C:/temp/Job-1.odb,Step-1,Increment      1: Step Time =    1.000,"P-1-1",           746,       87.0551,       142.194,            0.,NA,NA,"",   2.07397E+06,   2.17077E+06,   2.17077E+06
C:/temp/Job-1.odb,Step-1,Increment      1: Step Time =    1.000,"P-1-1",           747,       57.1440,       81.1711,            0.,NA,NA,"",   625.754E+03,   84.9787E+03,   84.9787E+03
C:/temp/Job-1.odb,Step-1,Increment      1: Step Time =    1.000,"P-1-1",           748,       118.819,       140.369,            0.,NA,NA,"",   2.05837E+06,   2.14915E+06,   2.14915E+06
C:/temp/Job-1.odb,Step-1,Increment      1: Step Time =    1.000,"P-1-1",           749,       82.0686,       140.412,            0.,NA,NA,"",   1.89666E+06,   1.94948E+06,   1.94948E+06
C:/temp/Job-1.odb,Step-1,Increment      1: Step Time =    1.000,"P-1-1",           750,       145.909,       88.7931,            0.,NA,NA,"",   755.637E+03,  -106.508E+03,  -106.508E+03
C:/temp/Job-1.odb,Step-1,Increment      1: Step Time =    1.000,"P-1-1",           751,       14.2740,       164.186,            0.,NA,NA,"",   1.14898E+06,   1.22092E+06,   1.22092E+06
C:/temp/Job-1.odb,Step-1,Increment      1: Step Time =    1.000,"P-1-1",           752,       164.059,       15.4527,            0.,NA,NA,"",   1.07026E+06,   1.05996E+06,   1.05996E+06
C:/temp/Job-1.odb,Step-1,Increment      1: Step Time =    1.000,"P-1-1",           753,       34.5931,       12.7313,            0.,NA,NA,"",   1.46839E+06,   1.46199E+06,   1.46199E+06
C:/temp/Job-1.odb,Step-1,Increment      1: Step Time =    1.000,"P-1-1",           754,       14.4779,       39.4967,            0.,NA,NA,"",   1.09589E+06,   1.16630E+06,   1.16630E+06
C:/temp/Job-1.odb,Step-1,Increment      1: Step Time =    1.000,"P-1-1",           755,       184.650,       163.920,            0.,NA,NA,"",   1.03404E+06,   1.05363E+06,   1.05363E+06
C:/temp/Job-1.odb,Step-1,Increment      1: Step Time =    1.000,"P-1-1",           756,       162.005,       185.600,            0.,NA,NA,"",   1.06416E+06,   1.05430E+06,   1.05430E+06
C:/temp/Job-1.odb,Step-1,Increment      1: Step Time =    1.000,"P-1-1",           757,       35.1818,       184.080,            0.,NA,NA,"",   1.45673E+06,   1.44663E+06,   1.44663E+06
C:/temp/Job-1.odb,Step-1,Increment      1: Step Time =    1.000,"P-1-1",           758,       185.830,       37.2953,            0.,NA,NA,"",   1.02494E+06,   1.04926E+06,   1.04926E+06
C:/temp/Job-1.odb,Step-1,Increment      1: Step Time =    1.000,"P-1-1",           759,       49.9436,       101.110,            0.,NA,NA,"",   182.755E+03,  -116.247E+03,  -116.247E+03
C:/temp/Job-1.odb,Step-1,Increment      1: Step Time =    1.000,"P-1-1",           760,       149.852,       101.408,            0.,NA,NA,"",   408.706E+03,  -77.1805E+03,  -77.1805E+03
C:/temp/Job-1.odb,Step-1,Increment      1: Step Time =    1.000,"P-1-1",           761,       129.647,       14.5922,            0.,NA,NA,"",   1.03748E+06,   1.03772E+06,   1.03772E+06
C:/temp/Job-1.odb,Step-1,Increment      1: Step Time =    1.000,"P-1-1",           762,       14.5771,       69.5369,            0.,NA,NA,"",   633.795E+03,   696.642E+03,   696.642E+03
C:/temp/Job-1.odb,Step-1,Increment      1: Step Time =    1.000,"P-1-1",           763,       71.6895,       14.0792,            0.,NA,NA,"",   1.25088E+06,   1.23718E+06,   1.23718E+06
C:/temp/Job-1.odb,Step-1,Increment      1: Step Time =    1.000,"P-1-1",           764,       14.4643,       129.368,            0.,NA,NA,"",   613.008E+03,   675.996E+03,   675.996E+03
C:/temp/Job-1.odb,Step-1,Increment      1: Step Time =    1.000,"P-1-1",           765,       69.2056,       185.472,            0.,NA,NA,"",   1.27832E+06,   1.26074E+06,   1.26074E+06
C:/temp/Job-1.odb,Step-1,Increment      1: Step Time =    1.000,"P-1-1",           766,       184.951,       70.2190,            0.,NA,NA,"",   962.645E+03,   1.06028E+06,   1.06028E+06
C:/temp/Job-1.odb,Step-1,Increment      1: Step Time =    1.000,"P-1-1",           767,       185.355,       129.645,            0.,NA,NA,"",   956.513E+03,   1.05688E+06,   1.05688E+06
C:/temp/Job-1.odb,Step-1,Increment      1: Step Time =    1.000,"P-1-1",           768,       131.167,       185.732,            0.,NA,NA,"",   1.03852E+06,   1.03600E+06,   1.03600E+06
C:/temp/Job-1.odb,Step-1,Increment      1: Step Time =    1.000,"P-1-1",           769,       143.073,       82.7793,            0.,NA,NA,"",   986.374E+03,   368.653E+03,   368.653E+03
C:/temp/Job-1.odb,Step-1,Increment      1: Step Time =    1.000,"P-1-1",           770,       119.489,       14.9708,            0.,NA,NA,"",   1.00610E+06,   1.02174E+06,   1.02174E+06
C:/temp/Job-1.odb,Step-1,Increment      1: Step Time =    1.000,"P-1-1",           771,       15.3936,       79.0987,            0.,NA,NA,"",   491.913E+03,   552.679E+03,   552.679E+03
C:/temp/Job-1.odb,Step-1,Increment      1: Step Time =    1.000,"P-1-1",           772,       80.5842,       14.2853,            0.,NA,NA,"",   1.16714E+06,   1.16536E+06,   1.16536E+06
C:/temp/Job-1.odb,Step-1,Increment      1: Step Time =    1.000,"P-1-1",           773,       14.7395,       119.904,            0.,NA,NA,"",   473.624E+03,   534.912E+03,   534.912E+03
C:/temp/Job-1.odb,Step-1,Increment      1: Step Time =    1.000,"P-1-1",           774,       184.922,       119.724,            0.,NA,NA,"",   887.853E+03,   1.00723E+06,   1.00723E+06
C:/temp/Job-1.odb,Step-1,Increment      1: Step Time =    1.000,"P-1-1",           775,       79.2020,       184.646,            0.,NA,NA,"",   1.20235E+06,   1.19749E+06,   1.19749E+06
C:/temp/Job-1.odb,Step-1,Increment      1: Step Time =    1.000,"P-1-1",           776,       185.479,       79.6708,            0.,NA,NA,"",   893.889E+03,   1.01464E+06,   1.01464E+06
C:/temp/Job-1.odb,Step-1,Increment      1: Step Time =    1.000,"P-1-1",           777,       121.806,       185.041,            0.,NA,NA,"",   1.01591E+06,   1.02766E+06,   1.02766E+06
C:/temp/Job-1.odb,Step-1,Increment      1: Step Time =    1.000,"P-1-1",           778,       121.086,       133.996,            0.,NA,NA,"",   2.12060E+06,   2.16729E+06,   2.16729E+06
C:/temp/Job-1.odb,Step-1,Increment      1: Step Time =    1.000,"P-1-1",           779,       58.2889,       133.154,            0.,NA,NA,"",   1.20694E+06,   1.04343E+06,   1.04343E+06
C:/temp/Job-1.odb,Step-1,Increment      1: Step Time =    1.000,"P-1-1",           780,       137.860,       131.173,            0.,NA,NA,"",   1.56049E+06,   1.34299E+06,   1.34299E+06
C:/temp/Job-1.odb,Step-1,Increment      1: Step Time =    1.000,"P-1-1",           781,       63.8232,       69.1914,            0.,NA,NA,"",   1.15329E+06,   998.213E+03,   998.213E+03
C:/temp/Job-1.odb,Step-1,Increment      1: Step Time =    1.000,"P-1-1",           782,       60.6068,       120.532,            0.,NA,NA,"",   675.203E+03,   207.616E+03,   207.616E+03
C:/temp/Job-1.odb,Step-1,Increment      1: Step Time =    1.000,"P-1-1",           783,       56.7061,       113.762,            0.,NA,NA,"",   491.762E+03,  -173.052E+03,  -173.052E+03
C:/temp/Job-1.odb,Step-1,Increment      1: Step Time =    1.000,"P-1-1",           784,       143.897,       111.399,            0.,NA,NA,"",   768.993E+03,  -564.854E+03,  -564.854E+03
C:/temp/Job-1.odb,Step-1,Increment      1: Step Time =    1.000,"P-1-1",           785,       109.263,       14.9794,            0.,NA,NA,"",   986.195E+03,   1.01433E+06,   1.01433E+06
C:/temp/Job-1.odb,Step-1,Increment      1: Step Time =    1.000,"P-1-1",           786,       15.0337,       90.1754,            0.,NA,NA,"",   363.269E+03,   418.601E+03,   418.601E+03
C:/temp/Job-1.odb,Step-1,Increment      1: Step Time =    1.000,"P-1-1",           787,       90.0626,       14.4907,            0.,NA,NA,"",   1.07756E+06,   1.09190E+06,   1.09190E+06
C:/temp/Job-1.odb,Step-1,Increment      1: Step Time =    1.000,"P-1-1",           788,       15.1489,       109.182,            0.,NA,NA,"",   357.234E+03,   411.844E+03,   411.844E+03
C:/temp/Job-1.odb,Step-1,Increment      1: Step Time =    1.000,"P-1-1",           789,       184.714,       109.696,            0.,NA,NA,"",   811.389E+03,   934.079E+03,   934.079E+03
C:/temp/Job-1.odb,Step-1,Increment      1: Step Time =    1.000,"P-1-1",           790,       90.8288,       185.046,            0.,NA,NA,"",   1.07938E+06,   1.09633E+06,   1.09633E+06
C:/temp/Job-1.odb,Step-1,Increment      1: Step Time =    1.000,"P-1-1",           791,       110.609,       184.411,            0.,NA,NA,"",   997.099E+03,   1.02615E+06,   1.02615E+06
C:/temp/Job-1.odb,Step-1,Increment      1: Step Time =    1.000,"P-1-1",           792,       185.114,       89.3727,            0.,NA,NA,"",   819.723E+03,   943.632E+03,   943.632E+03
C:/temp/Job-1.odb,Step-1,Increment      1: Step Time =    1.000,"P-1-1",           793,       99.6016,       14.6166,            0.,NA,NA,"",   1.00685E+06,   1.03479E+06,   1.03479E+06
C:/temp/Job-1.odb,Step-1,Increment      1: Step Time =    1.000,"P-1-1",           794,       14.4741,       99.7845,            0.,NA,NA,"",   325.922E+03,   375.474E+03,   375.474E+03
C:/temp/Job-1.odb,Step-1,Increment      1: Step Time =    1.000,"P-1-1",           795,       100.667,       185.509,            0.,NA,NA,"",   997.684E+03,   1.02571E+06,   1.02571E+06
C:/temp/Job-1.odb,Step-1,Increment      1: Step Time =    1.000,"P-1-1",           796,       184.524,       99.3831,            0.,NA,NA,"",   782.028E+03,   899.535E+03,   899.535E+03
C:/temp/Job-1.odb,Step-1,Increment      1: Step Time =    1.000,"P-1-1",           797,       58.8174,       68.1289,            0.,NA,NA,"",   1.16637E+06,   994.672E+03,   994.672E+03
C:/temp/Job-1.odb,Step-1,Increment      1: Step Time =    1.000,"P-1-1",           798,       129.703,       140.631,            0.,NA,NA,"",   1.77688E+06,   1.71394E+06,   1.71394E+06
C:/temp/Job-1.odb,Step-1,Increment      1: Step Time =    1.000,"P-1-1",           799,       132.964,       135.387,            0.,NA,NA,"",   1.70412E+06,   1.57151E+06,   1.57151E+06
C:/temp/Job-1.odb,Step-1,Increment      1: Step Time =    1.000,"P-1-1",           800,       70.5425,       140.267,            0.,NA,NA,"",   1.58387E+06,   1.50030E+06,   1.50030E+06
C:/temp/Job-1.odb,Step-1,Increment      1: Step Time =    1.000,"P-1-1",           801,       14.4440,       64.8021,            0.,NA,NA,"",   709.340E+03,   772.810E+03,   772.810E+03
C:/temp/Job-1.odb,Step-1,Increment      1: Step Time =    1.000,"P-1-1",           802,       63.9188,       15.9583,            0.,NA,NA,"",   1.33575E+06,   1.31269E+06,   1.31269E+06
C:/temp/Job-1.odb,Step-1,Increment      1: Step Time =    1.000,"P-1-1",           803,       184.573,       65.5313,            0.,NA,NA,"",   991.833E+03,   1.07399E+06,   1.07399E+06
C:/temp/Job-1.odb,Step-1,Increment      1: Step Time =    1.000,"P-1-1",           804,       64.5301,       185.916,            0.,NA,NA,"",   1.31032E+06,   1.29070E+06,   1.29070E+06
C:/temp/Job-1.odb,Step-1,Increment      1: Step Time =    1.000,"P-1-1",           805,       134.690,       14.3762,            0.,NA,NA,"",   1.05295E+06,   1.04723E+06,   1.04723E+06
C:/temp/Job-1.odb,Step-1,Increment      1: Step Time =    1.000,"P-1-1",           806,       14.9347,       133.856,            0.,NA,NA,"",   688.066E+03,    750.67E+03,    750.67E+03
C:/temp/Job-1.odb,Step-1,Increment      1: Step Time =    1.000,"P-1-1",           807,       185.594,       134.674,            0.,NA,NA,"",   981.911E+03,   1.06960E+06,   1.06960E+06
C:/temp/Job-1.odb,Step-1,Increment      1: Step Time =    1.000,"P-1-1",           808,       135.742,       185.442,            0.,NA,NA,"",   1.05890E+06,   1.05107E+06,   1.05107E+06
C:/temp/Job-1.odb,Step-1,Increment      1: Step Time =    1.000,"P-1-1",           809,       100.181,       43.4512,            0.,NA,NA,"",   1.54919E+06,   1.69002E+06,   1.69002E+06
C:/temp/Job-1.odb,Step-1,Increment      1: Step Time =    1.000,"P-1-1",           810,       105.797,       143.991,            0.,NA,NA,"",   2.31424E+06,   2.47672E+06,   2.47672E+06
C:/temp/Job-1.odb,Step-1,Increment      1: Step Time =    1.000,"P-1-1",           811,       96.1718,       144.793,            0.,NA,NA,"",   2.17723E+06,   2.33193E+06,   2.33193E+06
C:/temp/Job-1.odb,Step-1,Increment      1: Step Time =    1.000,"P-1-1",           812,       54.3404,       87.1132,            0.,NA,NA,"",   445.592E+03,  -164.798E+03,  -164.798E+03
C:/temp/Job-1.odb,Step-1,Increment      1: Step Time =    1.000,"P-1-1",           813,       14.4335,       169.075,            0.,NA,NA,"",   1.22401E+06,   1.29610E+06,   1.29610E+06
C:/temp/Job-1.odb,Step-1,Increment      1: Step Time =    1.000,"P-1-1",           814,       168.669,       14.8566,            0.,NA,NA,"",   1.05409E+06,   1.04763E+06,   1.04763E+06
C:/temp/Job-1.odb,Step-1,Increment      1: Step Time =    1.000,"P-1-1",           815,       30.5507,       17.1235,            0.,NA,NA,"",   1.46555E+06,   1.46175E+06,   1.46175E+06
C:/temp/Job-1.odb,Step-1,Increment      1: Step Time =    1.000,"P-1-1",           816,       18.2880,       31.5054,            0.,NA,NA,"",   1.25459E+06,   1.30423E+06,   1.30423E+06
C:/temp/Job-1.odb,Step-1,Increment      1: Step Time =    1.000,"P-1-1",           817,       185.204,       168.499,            0.,NA,NA,"",   1.02684E+06,   1.04174E+06,   1.04174E+06
C:/temp/Job-1.odb,Step-1,Increment      1: Step Time =    1.000,"P-1-1",           818,       166.462,       186.042,            0.,NA,NA,"",   1.05297E+06,   1.04607E+06,   1.04607E+06
C:/temp/Job-1.odb,Step-1,Increment      1: Step Time =    1.000,"P-1-1",           819,       186.356,       32.7847,            0.,NA,NA,"",   1.01930E+06,   1.03818E+06,   1.03818E+06
C:/temp/Job-1.odb,Step-1,Increment      1: Step Time =    1.000,"P-1-1",           820,       30.4841,       184.164,            0.,NA,NA,"",   1.47083E+06,   1.46752E+06,   1.46752E+06
C:/temp/Job-1.odb,Step-1,Increment      1: Step Time =    1.000,"P-1-1",           821,       48.2489,       105.849,            0.,NA,NA,"",   231.146E+03,   62.3143E+03,   62.3143E+03
C:/temp/Job-1.odb,Step-1,Increment      1: Step Time =    1.000,"P-1-1",           822,       149.432,       106.545,            0.,NA,NA,"",   550.315E+03,  -47.4475E+03,  -47.4475E+03
C:/temp/Job-1.odb,Step-1,Increment      1: Step Time =    1.000,"P-1-1",           823,       14.8575,       74.2338,            0.,NA,NA,"",   562.854E+03,   624.943E+03,   624.943E+03
C:/temp/Job-1.odb,Step-1,Increment      1: Step Time =    1.000,"P-1-1",           824,       14.3139,       124.686,            0.,NA,NA,"",   540.679E+03,   603.369E+03,   603.369E+03
C:/temp/Job-1.odb,Step-1,Increment      1: Step Time =    1.000,"P-1-1",           825,       124.572,       14.8353,            0.,NA,NA,"",   1.02238E+06,   1.02976E+06,   1.02976E+06
C:/temp/Job-1.odb,Step-1,Increment      1: Step Time =    1.000,"P-1-1",           826,       76.0337,       14.1225,            0.,NA,NA,"",   1.21057E+06,   1.20191E+06,   1.20191E+06
C:/temp/Job-1.odb,Step-1,Increment      1: Step Time =    1.000,"P-1-1",           827,       185.088,       124.659,            0.,NA,NA,"",   925.414E+03,   1.03641E+06,   1.03641E+06
C:/temp/Job-1.odb,Step-1,Increment      1: Step Time =    1.000,"P-1-1",           828,       126.560,       185.650,            0.,NA,NA,"",   1.02249E+06,   1.02595E+06,   1.02595E+06
C:/temp/Job-1.odb,Step-1,Increment      1: Step Time =    1.000,"P-1-1",           829,       74.0522,       185.105,            0.,NA,NA,"",   1.24197E+06,   1.22898E+06,   1.22898E+06
C:/temp/Job-1.odb,Step-1,Increment      1: Step Time =    1.000,"P-1-1",           830,       185.287,       74.9353,            0.,NA,NA,"",   930.019E+03,   1.04101E+06,   1.04101E+06
C:/temp/Job-1.odb,Step-1,Increment      1: Step Time =    1.000,"P-1-1",           831,       85.2867,       14.3992,            0.,NA,NA,"",   1.12127E+06,   1.12772E+06,   1.12772E+06
C:/temp/Job-1.odb,Step-1,Increment      1: Step Time =    1.000,"P-1-1",           832,       16.0688,       114.506,            0.,NA,NA,"",   405.673E+03,   463.871E+03,   463.871E+03
C:/temp/Job-1.odb,Step-1,Increment      1: Step Time =    1.000,"P-1-1",           833,       114.326,       15.0221,            0.,NA,NA,"",   992.328E+03,   1.01570E+06,   1.01570E+06
C:/temp/Job-1.odb,Step-1,Increment      1: Step Time =    1.000,"P-1-1",           834,       16.6520,       84.6352,            0.,NA,NA,"",   416.541E+03,   474.566E+03,   474.566E+03
C:/temp/Job-1.odb,Step-1,Increment      1: Step Time =    1.000,"P-1-1",           835,       185.456,       84.4764,            0.,NA,NA,"",   855.533E+03,   980.573E+03,   980.573E+03
C:/temp/Job-1.odb,Step-1,Increment      1: Step Time =    1.000,"P-1-1",           836,       116.419,       183.351,            0.,NA,NA,"",   1.02853E+06,   1.05298E+06,   1.05298E+06
C:/temp/Job-1.odb,Step-1,Increment      1: Step Time =    1.000,"P-1-1",           837,       184.788,       114.702,            0.,NA,NA,"",   848.322E+03,   972.024E+03,   972.024E+03
C:/temp/Job-1.odb,Step-1,Increment      1: Step Time =    1.000,"P-1-1",           838,       85.0738,       183.558,            0.,NA,NA,"",   1.16161E+06,   1.16986E+06,   1.16986E+06
C:/temp/Job-1.odb,Step-1,Increment      1: Step Time =    1.000,"P-1-1",           839,       143.029,       126.188,            0.,NA,NA,"",   1.37118E+06,   1.07594E+06,   1.07594E+06
C:/temp/Job-1.odb,Step-1,Increment      1: Step Time =    1.000,"P-1-1",           840,       56.5073,       126.949,            0.,NA,NA,"",   944.039E+03,   762.410E+03,   762.410E+03
C:/temp/Job-1.odb,Step-1,Increment      1: Step Time =    1.000,"P-1-1",           841,       94.7933,       14.5439,            0.,NA,NA,"",   1.03852E+06,   1.06027E+06,   1.06027E+06
C:/temp/Job-1.odb,Step-1,Increment      1: Step Time =    1.000,"P-1-1",           842,       14.7397,       104.376,            0.,NA,NA,"",   332.337E+03,   383.215E+03,   383.215E+03
C:/temp/Job-1.odb,Step-1,Increment      1: Step Time =    1.000,"P-1-1",           843,       105.518,       185.079,            0.,NA,NA,"",   987.975E+03,   1.01792E+06,   1.01792E+06
C:/temp/Job-1.odb,Step-1,Increment      1: Step Time =    1.000,"P-1-1",           844,       184.725,       94.3064,            0.,NA,NA,"",   794.278E+03,   914.463E+03,   914.463E+03
C:/temp/Job-1.odb,Step-1,Increment      1: Step Time =    1.000,"P-1-1",           845,       104.364,       14.8091,            0.,NA,NA,"",   989.619E+03,   1.01953E+06,   1.01953E+06
C:/temp/Job-1.odb,Step-1,Increment      1: Step Time =    1.000,"P-1-1",           846,       14.4623,       95.1124,            0.,NA,NA,"",   335.489E+03,   386.968E+03,   386.968E+03
C:/temp/Job-1.odb,Step-1,Increment      1: Step Time =    1.000,"P-1-1",           847,       95.8641,       185.543,            0.,NA,NA,"",   1.02707E+06,   1.05042E+06,   1.05042E+06
C:/temp/Job-1.odb,Step-1,Increment      1: Step Time =    1.000,"P-1-1",           848,       184.579,       104.520,            0.,NA,NA,"",   786.602E+03,   905.451E+03,   905.451E+03
C:/temp/Job-1.odb,Step-1,Increment      1: Step Time =    1.000,"P-1-1",           849,       145.363,       95.4418,            0.,NA,NA,"",   593.069E+03,  -534.711E+03,  -534.711E+03
C:/temp/Job-1.odb,Step-1,Increment      1: Step Time =    1.000,"P-1-1",           850,       55.5069,       120.559,            0.,NA,NA,"",   705.738E+03,   499.046E+03,   499.046E+03
C:/temp/Job-1.odb,Step-1,Increment      1: Step Time =    1.000,"P-1-1",           851,       148.046,       80.1958,            0.,NA,NA,"",   1.12965E+06,   824.658E+03,   824.658E+03
C:/temp/Job-1.odb,Step-1,Increment      1: Step Time =    1.000,"P-1-1",           852,       88.7193,       47.8080,            0.,NA,NA,"",   1.71161E+06,   1.80990E+06,   1.80990E+06
C:/temp/Job-1.odb,Step-1,Increment      1: Step Time =    1.000,"P-1-1",           853,       110.077,       51.8283,            0.,NA,NA,"",   1.87373E+06,   2.02828E+06,   2.02828E+06
C:/temp/Job-1.odb,Step-1,Increment      1: Step Time =    1.000,"P-1-1",           854,       72.5234,       54.5330,            0.,NA,NA,"",   1.66838E+06,   1.60956E+06,   1.60956E+06
C:/temp/Job-1.odb,Step-1,Increment      1: Step Time =    1.000,"P-1-1",           855,       126.002,       57.2168,            0.,NA,NA,"",   1.81001E+06,   1.81036E+06,   1.81036E+06
C:/temp/Job-1.odb,Step-1,Increment      1: Step Time =    1.000,"P-1-1",           856,       75.1287,       142.854,            0.,NA,NA,"",   1.69772E+06,   1.66707E+06,   1.66707E+06
C:/temp/Job-1.odb,Step-1,Increment      1: Step Time =    1.000,"P-1-1",           857,       120.730,       144.832,            0.,NA,NA,"",   1.83202E+06,   1.90438E+06,   1.90438E+06
C:/temp/Job-1.odb,Step-1,Increment      1: Step Time =    1.000,"P-1-1",           858,       77.2153,       138.254,            0.,NA,NA,"",   1.68620E+06,   1.68735E+06,   1.68735E+06
C:/temp/Job-1.odb,Step-1,Increment      1: Step Time =    1.000,"P-1-1",           859,       148.888,       111.427,            0.,NA,NA,"",   764.517E+03,   11.6085E+03,   11.6085E+03
C:/temp/Job-1.odb,Step-1,Increment      1: Step Time =    1.000,"P-1-1",           860,       103.414,       46.1736,            0.,NA,NA,"",   1.63021E+06,   1.78529E+06,   1.78529E+06
C:/temp/Job-1.odb,Step-1,Increment      1: Step Time =    1.000,"P-1-1",           861,       108.682,       20.0688,            0.,NA,NA,"",   1.07283E+06,   1.11812E+06,   1.11812E+06
C:/temp/Job-1.odb,Step-1,Increment      1: Step Time =    1.000,"P-1-1",           862,       21.0670,       87.7697,            0.,NA,NA,"",   370.383E+03,   424.088E+03,   424.088E+03
C:/temp/Job-1.odb,Step-1,Increment      1: Step Time =    1.000,"P-1-1",           863,       88.2230,       179.253,            0.,NA,NA,"",   1.20074E+06,   1.22502E+06,   1.22502E+06
C:/temp/Job-1.odb,Step-1,Increment      1: Step Time =    1.000,"P-1-1",           864,       179.662,       109.538,            0.,NA,NA,"",   775.490E+03,   884.712E+03,   884.712E+03
C:/temp/Job-1.odb,Step-1,Increment      1: Step Time =    1.000,"P-1-1",           865,       99.2738,       19.3423,            0.,NA,NA,"",   1.09094E+06,   1.13473E+06,   1.13473E+06
C:/temp/Job-1.odb,Step-1,Increment      1: Step Time =    1.000,"P-1-1",           866,       19.2390,       99.5176,            0.,NA,NA,"",   306.743E+03,   352.583E+03,   352.583E+03
C:/temp/Job-1.odb,Step-1,Increment      1: Step Time =    1.000,"P-1-1",           867,       100.672,       180.862,            0.,NA,NA,"",   1.07556E+06,   1.11969E+06,   1.11969E+06
C:/temp/Job-1.odb,Step-1,Increment      1: Step Time =    1.000,"P-1-1",           868,       179.126,       98.9644,            0.,NA,NA,"",   720.067E+03,   829.433E+03,   829.433E+03
C:/temp/Job-1.odb,Step-1,Increment      1: Step Time =    1.000,"P-1-1",           869,       58.8575,       123.303,            0.,NA,NA,"",   787.912E+03,   579.914E+03,   579.914E+03
C:/temp/Job-1.odb,Step-1,Increment      1: Step Time =    1.000,"P-1-1",           870,       48.0790,       121.222,            0.,NA,NA,"",   679.946E+03,   559.570E+03,   559.570E+03
C:/temp/Job-1.odb,Step-1,Increment      1: Step Time =    1.000,"P-1-1",           871,       152.254,       120.591,            0.,NA,NA,"",   1.15002E+06,   905.855E+03,   905.855E+03
C:/temp/Job-1.odb,Step-1,Increment      1: Step Time =    1.000,"P-1-1",           872,       57.9426,       71.8629,            0.,NA,NA,"",   1.02860E+06,   844.893E+03,   844.893E+03
C:/temp/Job-1.odb,Step-1,Increment      1: Step Time =    1.000,"P-1-1",           873,       132.998,       145.312,            0.,NA,NA,"",   1.72385E+06,   1.64301E+06,   1.64301E+06
C:/temp/Job-1.odb,Step-1,Increment      1: Step Time =    1.000,"P-1-1",           874,       67.9719,       144.493,            0.,NA,NA,"",   1.60641E+06,   1.50872E+06,   1.50872E+06
C:/temp/Job-1.odb,Step-1,Increment      1: Step Time =    1.000,"P-1-1",           875,       19.1653,       60.0785,            0.,NA,NA,"",   819.567E+03,   869.306E+03,   869.306E+03
C:/temp/Job-1.odb,Step-1,Increment      1: Step Time =    1.000,"P-1-1",           876,       62.1815,       21.3155,            0.,NA,NA,"",   1.40372E+06,   1.36720E+06,   1.36720E+06
C:/temp/Job-1.odb,Step-1,Increment      1: Step Time =    1.000,"P-1-1",           877,       59.5327,       181.676,            0.,NA,NA,"",   1.38594E+06,   1.35502E+06,   1.35502E+06
C:/temp/Job-1.odb,Step-1,Increment      1: Step Time =    1.000,"P-1-1",           878,       179.134,       61.2147,            0.,NA,NA,"",   1.08481E+06,   1.11576E+06,   1.11576E+06
C:/temp/Job-1.odb,Step-1,Increment      1: Step Time =    1.000,"P-1-1",           879,       139.312,       18.9904,            0.,NA,NA,"",   1.14019E+06,   1.12421E+06,   1.12421E+06
C:/temp/Job-1.odb,Step-1,Increment      1: Step Time =    1.000,"P-1-1",           880,       19.7165,       138.002,            0.,NA,NA,"",   791.935E+03,   841.082E+03,   841.082E+03
C:/temp/Job-1.odb,Step-1,Increment      1: Step Time =    1.000,"P-1-1",           881,       180.985,       139.284,            0.,NA,NA,"",   1.06269E+06,   1.10603E+06,   1.10603E+06
C:/temp/Job-1.odb,Step-1,Increment      1: Step Time =    1.000,"P-1-1",           882,       140.182,       180.184,            0.,NA,NA,"",   1.15006E+06,   1.13193E+06,   1.13193E+06
C:/temp/Job-1.odb,Step-1,Increment      1: Step Time =    1.000,"P-1-1",           883,       60.2092,       90.9326,            0.,NA,NA,"",   568.472E+03,  -561.722E+03,  -561.722E+03
C:/temp/Job-1.odb,Step-1,Increment      1: Step Time =    1.000,"P-1-1",           884,       164.737,       20.3335,            0.,NA,NA,"",   1.10551E+06,   1.08984E+06,   1.08984E+06
C:/temp/Job-1.odb,Step-1,Increment      1: Step Time =    1.000,"P-1-1",           885,       18.6627,       164.143,            0.,NA,NA,"",   1.19528E+06,   1.24369E+06,   1.24369E+06
C:/temp/Job-1.odb,Step-1,Increment      1: Step Time =    1.000,"P-1-1",           886,       14.1784,       173.466,            0.,NA,NA,"",   1.29019E+06,   1.35989E+06,   1.35989E+06
C:/temp/Job-1.odb,Step-1,Increment      1: Step Time =    1.000,"P-1-1",           887,       172.804,       14.8006,            0.,NA,NA,"",   1.04348E+06,   1.03993E+06,   1.03993E+06
C:/temp/Job-1.odb,Step-1,Increment      1: Step Time =    1.000,"P-1-1",           888,       18.6217,       35.2482,            0.,NA,NA,"",   1.20070E+06,   1.25073E+06,   1.25073E+06
C:/temp/Job-1.odb,Step-1,Increment      1: Step Time =    1.000,"P-1-1",           889,       34.7406,       16.7351,            0.,NA,NA,"",   1.45694E+06,   1.44630E+06,   1.44630E+06
C:/temp/Job-1.odb,Step-1,Increment      1: Step Time =    1.000,"P-1-1",           890,       25.6041,       13.1438,            0.,NA,NA,"",   1.50562E+06,   1.51036E+06,   1.51036E+06
C:/temp/Job-1.odb,Step-1,Increment      1: Step Time =    1.000,"P-1-1",           891,       14.3309,       27.2964,            0.,NA,NA,"",   1.28231E+06,   1.35198E+06,   1.35198E+06
C:/temp/Job-1.odb,Step-1,Increment      1: Step Time =    1.000,"P-1-1",           892,       179.902,       164.440,            0.,NA,NA,"",   1.07563E+06,   1.08206E+06,   1.08206E+06
C:/temp/Job-1.odb,Step-1,Increment      1: Step Time =    1.000,"P-1-1",           893,       170.671,       186.948,            0.,NA,NA,"",   1.03975E+06,   1.03595E+06,   1.03595E+06
C:/temp/Job-1.odb,Step-1,Increment      1: Step Time =    1.000,"P-1-1",           894,       185.249,       172.614,            0.,NA,NA,"",   1.02519E+06,   1.03567E+06,   1.03567E+06
C:/temp/Job-1.odb,Step-1,Increment      1: Step Time =    1.000,"P-1-1",           895,       181.281,       36.2779,            0.,NA,NA,"",   1.06234E+06,   1.07407E+06,   1.07407E+06
C:/temp/Job-1.odb,Step-1,Increment      1: Step Time =    1.000,"P-1-1",           896,       35.0931,       179.006,            0.,NA,NA,"",   1.43998E+06,   1.42535E+06,   1.42535E+06
C:/temp/Job-1.odb,Step-1,Increment      1: Step Time =    1.000,"P-1-1",           897,       187.224,       28.5787,            0.,NA,NA,"",   1.01455E+06,   1.02869E+06,   1.02869E+06
C:/temp/Job-1.odb,Step-1,Increment      1: Step Time =    1.000,"P-1-1",           898,       25.5590,       183.895,            0.,NA,NA,"",   1.48035E+06,   1.48825E+06,   1.48825E+06
C:/temp/Job-1.odb,Step-1,Increment      1: Step Time =    1.000,"P-1-1",           899,       45.4647,       99.5435,            0.,NA,NA,"",   132.194E+03,   66.8019E+03,   66.8019E+03
C:/temp/Job-1.odb,Step-1,Increment      1: Step Time =    1.000,"P-1-1",           900,       49.3537,       113.215,            0.,NA,NA,"",   442.791E+03,   174.843E+03,   174.843E+03
C:/temp/Job-1.odb,Step-1,Increment      1: Step Time =    1.000,"P-1-1",           901,       154.867,       101.863,            0.,NA,NA,"",   390.165E+03,   316.187E+03,   316.187E+03
C:/temp/Job-1.odb,Step-1,Increment      1: Step Time =    1.000,"P-1-1",           902,       129.514,       19.4860,            0.,NA,NA,"",   1.12005E+06,   1.12195E+06,   1.12195E+06
C:/temp/Job-1.odb,Step-1,Increment      1: Step Time =    1.000,"P-1-1",           903,       18.9584,       128.873,            0.,NA,NA,"",   620.858E+03,   675.412E+03,   675.412E+03
C:/temp/Job-1.odb,Step-1,Increment      1: Step Time =    1.000,"P-1-1",           904,       68.5208,       180.375,            0.,NA,NA,"",   1.35139E+06,   1.32496E+06,   1.32496E+06
C:/temp/Job-1.odb,Step-1,Increment      1: Step Time =    1.000,"P-1-1",           905,       19.5127,       69.2743,            0.,NA,NA,"",   661.529E+03,   713.086E+03,   713.086E+03
C:/temp/Job-1.odb,Step-1,Increment      1: Step Time =    1.000,"P-1-1",           906,       68.6161,       18.1085,            0.,NA,NA,"",   1.32905E+06,   1.30607E+06,   1.30607E+06
C:/temp/Job-1.odb,Step-1,Increment      1: Step Time =    1.000,"P-1-1",           907,       180.441,       129.551,            0.,NA,NA,"",   1.00771E+06,   1.07265E+06,   1.07265E+06
C:/temp/Job-1.odb,Step-1,Increment      1: Step Time =    1.000,"P-1-1",           908,       131.501,       181.315,            0.,NA,NA,"",   1.11785E+06,   1.11433E+06,   1.11433E+06
C:/temp/Job-1.odb,Step-1,Increment      1: Step Time =    1.000,"P-1-1",           909,       180.070,       70.5793,            0.,NA,NA,"",   1.00980E+06,   1.07325E+06,   1.07325E+06
C:/temp/Job-1.odb,Step-1,Increment      1: Step Time =    1.000,"P-1-1",           910,       119.187,       20.0287,            0.,NA,NA,"",   1.09306E+06,   1.11920E+06,   1.11920E+06
C:/temp/Job-1.odb,Step-1,Increment      1: Step Time =    1.000,"P-1-1",           911,       21.7053,       81.8306,            0.,NA,NA,"",   454.666E+03,   507.471E+03,   507.471E+03
C:/temp/Job-1.odb,Step-1,Increment      1: Step Time =    1.000,"P-1-1",           912,       20.2593,       117.112,            0.,NA,NA,"",   435.636E+03,   490.865E+03,   490.865E+03
C:/temp/Job-1.odb,Step-1,Increment      1: Step Time =    1.000,"P-1-1",           913,       179.731,       119.564,            0.,NA,NA,"",   901.361E+03,   990.569E+03,   990.569E+03
C:/temp/Job-1.odb,Step-1,Increment      1: Step Time =    1.000,"P-1-1",           914,       82.2357,       178.548,            0.,NA,NA,"",   1.27126E+06,   1.27660E+06,   1.27660E+06
C:/temp/Job-1.odb,Step-1,Increment      1: Step Time =    1.000,"P-1-1",           915,       120.050,       179.213,            0.,NA,NA,"",   1.11472E+06,   1.14152E+06,   1.14152E+06
C:/temp/Job-1.odb,Step-1,Increment      1: Step Time =    1.000,"P-1-1",           916,       136.853,       68.2317,            0.,NA,NA,"",   1.56822E+06,   1.36862E+06,   1.36862E+06
C:/temp/Job-1.odb,Step-1,Increment      1: Step Time =    1.000,"P-1-1",           917,       143.006,       131.653,            0.,NA,NA,"",   1.54230E+06,   1.29333E+06,   1.29333E+06
C:/temp/Job-1.odb,Step-1,Increment      1: Step Time =    1.000,"P-1-1",           918,       56.1973,       137.160,            0.,NA,NA,"",   1.29716E+06,   1.14832E+06,   1.14832E+06
C:/temp/Job-1.odb,Step-1,Increment      1: Step Time =    1.000,"P-1-1",           919,       123.345,       138.053,            0.,NA,NA,"",   1.91177E+06,   1.94652E+06,   1.94652E+06
C:/temp/Job-1.odb,Step-1,Increment      1: Step Time =    1.000,"P-1-1",           920,       20.0893,       108.063,            0.,NA,NA,"",   333.232E+03,   384.042E+03,   384.042E+03
C:/temp/Job-1.odb,Step-1,Increment      1: Step Time =    1.000,"P-1-1",           921,       109.779,       179.248,            0.,NA,NA,"",   1.08282E+06,   1.13005E+06,   1.13005E+06
C:/temp/Job-1.odb,Step-1,Increment      1: Step Time =    1.000,"P-1-1",           922,       109.561,       47.3508,            0.,NA,NA,"",   1.65569E+06,   1.80225E+06,   1.80225E+06
C:/temp/Job-1.odb,Step-1,Increment      1: Step Time =    1.000,"P-1-1",           923,       78.5381,       51.0621,            0.,NA,NA,"",   1.73491E+06,   1.74156E+06,   1.74156E+06
C:/temp/Job-1.odb,Step-1,Increment      1: Step Time =    1.000,"P-1-1",           924,       69.9325,       58.1969,            0.,NA,NA,"",   1.60661E+06,   1.52032E+06,   1.52032E+06
C:/temp/Job-1.odb,Step-1,Increment      1: Step Time =    1.000,"P-1-1",           925,       129.983,       60.7477,            0.,NA,NA,"",   1.77766E+06,   1.70901E+06,   1.70901E+06
C:/temp/Job-1.odb,Step-1,Increment      1: Step Time =    1.000,"P-1-1",           926,       122.635,       53.3349,            0.,NA,NA,"",   1.77692E+06,   1.82496E+06,   1.82496E+06
C:/temp/Job-1.odb,Step-1,Increment      1: Step Time =    1.000,"P-1-1",           927,       118.538,       151.701,            0.,NA,NA,"",   1.66317E+06,   1.75223E+06,   1.75223E+06
C:/temp/Job-1.odb,Step-1,Increment      1: Step Time =    1.000,"P-1-1",           928,       78.5234,       149.498,            0.,NA,NA,"",   1.71984E+06,   1.72522E+06,   1.72522E+06
C:/temp/Job-1.odb,Step-1,Increment      1: Step Time =    1.000,"P-1-1",           929,       153.033,       116.329,            0.,NA,NA,"",   971.722E+03,   748.322E+03,   748.322E+03
C:/temp/Job-1.odb,Step-1,Increment      1: Step Time =    1.000,"P-1-1",           930,       143.860,       70.5114,            0.,NA,NA,"",   1.48954E+06,   1.21588E+06,   1.21588E+06
C:/temp/Job-1.odb,Step-1,Increment      1: Step Time =    1.000,"P-1-1",           931,       101.403,       151.196,            0.,NA,NA,"",   1.76357E+06,   1.92800E+06,   1.92800E+06
C:/temp/Job-1.odb,Step-1,Increment      1: Step Time =    1.000,"P-1-1",           932,       89.9540,       24.5183,            0.,NA,NA,"",   1.24129E+06,   1.27977E+06,   1.27977E+06
C:/temp/Job-1.odb,Step-1,Increment      1: Step Time =    1.000,"P-1-1",           933,       26.7014,       110.812,            0.,NA,NA,"",   343.382E+03,   389.924E+03,   389.924E+03
C:/temp/Job-1.odb,Step-1,Increment      1: Step Time =    1.000,"P-1-1",           934,       108.925,       174.044,            0.,NA,NA,"",   1.16497E+06,   1.23335E+06,   1.23335E+06
C:/temp/Job-1.odb,Step-1,Increment      1: Step Time =    1.000,"P-1-1",           935,       175.846,       87.3180,            0.,NA,NA,"",   803.208E+03,   889.225E+03,   889.225E+03
C:/temp/Job-1.odb,Step-1,Increment      1: Step Time =    1.000,"P-1-1",           936,       118.784,       25.1125,            0.,NA,NA,"",   1.17640E+06,   1.21540E+06,   1.21540E+06
C:/temp/Job-1.odb,Step-1,Increment      1: Step Time =    1.000,"P-1-1",           937,       25.7551,       79.7699,            0.,NA,NA,"",   502.969E+03,   545.757E+03,   545.757E+03
C:/temp/Job-1.odb,Step-1,Increment      1: Step Time =    1.000,"P-1-1",           938,       80.3672,       24.8967,            0.,NA,NA,"",   1.34383E+06,   1.34530E+06,   1.34530E+06
C:/temp/Job-1.odb,Step-1,Increment      1: Step Time =    1.000,"P-1-1",           939,       23.1050,       121.437,            0.,NA,NA,"",   506.213E+03,   555.159E+03,   555.159E+03
C:/temp/Job-1.odb,Step-1,Increment      1: Step Time =    1.000,"P-1-1",           940,       174.715,       119.422,            0.,NA,NA,"",   923.036E+03,   974.016E+03,   974.016E+03
C:/temp/Job-1.odb,Step-1,Increment      1: Step Time =    1.000,"P-1-1",           941,       80.4184,       173.743,            0.,NA,NA,"",   1.36225E+06,   1.36474E+06,   1.36474E+06
C:/temp/Job-1.odb,Step-1,Increment      1: Step Time =    1.000,"P-1-1",           942,       177.032,       79.8645,            0.,NA,NA,"",   922.558E+03,   990.767E+03,   990.767E+03
C:/temp/Job-1.odb,Step-1,Increment      1: Step Time =    1.000,"P-1-1",           943,       122.124,       176.607,            0.,NA,NA,"",   1.16660E+06,   1.19316E+06,   1.19316E+06
C:/temp/Job-1.odb,Step-1,Increment      1: Step Time =    1.000,"P-1-1",           944,       146.159,       63.3501,            0.,NA,NA,"",   1.60023E+06,   1.38040E+06,   1.38040E+06
C:/temp/Job-1.odb,Step-1,Increment      1: Step Time =    1.000,"P-1-1",           945,       96.2627,       173.676,            0.,NA,NA,"",   1.21628E+06,   1.27795E+06,   1.27795E+06
C:/temp/Job-1.odb,Step-1,Increment      1: Step Time =    1.000,"P-1-1",           946,       173.312,       98.7418,            0.,NA,NA,"",   644.195E+03,   733.815E+03,   733.815E+03
C:/temp/Job-1.odb,Step-1,Increment      1: Step Time =    1.000,"P-1-1",           947,       98.9045,       23.3445,            0.,NA,NA,"",   1.15107E+06,   1.20757E+06,   1.20757E+06
C:/temp/Job-1.odb,Step-1,Increment      1: Step Time =    1.000,"P-1-1",           948,       23.9339,       98.6397,            0.,NA,NA,"",   287.377E+03,   330.420E+03,   330.420E+03
C:/temp/Job-1.odb,Step-1,Increment      1: Step Time =    1.000,"P-1-1",           949,       148.968,       67.8407,            0.,NA,NA,"",   1.50424E+06,   1.26310E+06,   1.26310E+06
C:/temp/Job-1.odb,Step-1,Increment      1: Step Time =    1.000,"P-1-1",           950,       23.7448,       60.0520,            0.,NA,NA,"",   860.087E+03,   891.753E+03,   891.753E+03
C:/temp/Job-1.odb,Step-1,Increment      1: Step Time =    1.000,"P-1-1",           951,       59.7458,       25.2309,            0.,NA,NA,"",   1.44626E+06,   1.39896E+06,   1.39896E+06
C:/temp/Job-1.odb,Step-1,Increment      1: Step Time =    1.000,"P-1-1",           952,       140.242,       24.6594,            0.,NA,NA,"",   1.22787E+06,   1.20239E+06,   1.20239E+06
C:/temp/Job-1.odb,Step-1,Increment      1: Step Time =    1.000,"P-1-1",           953,       24.0007,       139.536,            0.,NA,NA,"",   850.261E+03,   882.298E+03,   882.298E+03
C:/temp/Job-1.odb,Step-1,Increment      1: Step Time =    1.000,"P-1-1",           954,       175.226,       140.104,            0.,NA,NA,"",   1.14888E+06,   1.14641E+06,   1.14641E+06
C:/temp/Job-1.odb,Step-1,Increment      1: Step Time =    1.000,"P-1-1",           955,       139.650,       175.507,            0.,NA,NA,"",   1.22403E+06,   1.19981E+06,   1.19981E+06
C:/temp/Job-1.odb,Step-1,Increment      1: Step Time =    1.000,"P-1-1",           956,       174.281,       61.8897,            0.,NA,NA,"",   1.15649E+06,   1.14670E+06,   1.14670E+06
C:/temp/Job-1.odb,Step-1,Increment      1: Step Time =    1.000,"P-1-1",           957,       58.3624,       176.889,            0.,NA,NA,"",   1.43207E+06,   1.38918E+06,   1.38918E+06
C:/temp/Job-1.odb,Step-1,Increment      1: Step Time =    1.000,"P-1-1",           958,       114.333,       46.2768,            0.,NA,NA,"",   1.60953E+06,   1.72699E+06,   1.72699E+06
C:/temp/Job-1.odb,Step-1,Increment      1: Step Time =    1.000,"P-1-1",           959,       70.9632,       22.8330,            0.,NA,NA,"",   1.37848E+06,   1.35268E+06,   1.35268E+06
C:/temp/Job-1.odb,Step-1,Increment      1: Step Time =    1.000,"P-1-1",           960,       175.129,       71.1907,            0.,NA,NA,"",   1.05967E+06,   1.07950E+06,   1.07950E+06
C:/temp/Job-1.odb,Step-1,Increment      1: Step Time =    1.000,"P-1-1",           961,       128.091,       176.831,            0.,NA,NA,"",   1.18554E+06,   1.19120E+06,   1.19120E+06
C:/temp/Job-1.odb,Step-1,Increment      1: Step Time =    1.000,"P-1-1",           962,       24.1752,       130.664,            0.,NA,NA,"",   683.159E+03,   719.872E+03,   719.872E+03
C:/temp/Job-1.odb,Step-1,Increment      1: Step Time =    1.000,"P-1-1",           963,       23.2090,       34.9621,            0.,NA,NA,"",   1.24939E+06,   1.27682E+06,   1.27682E+06
C:/temp/Job-1.odb,Step-1,Increment      1: Step Time =    1.000,"P-1-1",           964,       35.6281,       20.7155,            0.,NA,NA,"",   1.44418E+06,   1.42777E+06,   1.42777E+06
C:/temp/Job-1.odb,Step-1,Increment      1: Step Time =    1.000,"P-1-1",           965,       165.706,       25.0914,            0.,NA,NA,"",   1.13707E+06,   1.11628E+06,   1.11628E+06
C:/temp/Job-1.odb,Step-1,Increment      1: Step Time =    1.000,"P-1-1",           966,       22.1721,       163.567,            0.,NA,NA,"",   1.22689E+06,   1.25833E+06,   1.25833E+06
C:/temp/Job-1.odb,Step-1,Increment      1: Step Time =    1.000,"P-1-1",           967,       174.253,       39.0362,            0.,NA,NA,"",   1.14239E+06,   1.13085E+06,   1.13085E+06
C:/temp/Job-1.odb,Step-1,Increment      1: Step Time =    1.000,"P-1-1",           968,       35.3596,       174.119,            0.,NA,NA,"",   1.41575E+06,   1.39714E+06,   1.39714E+06
C:/temp/Job-1.odb,Step-1,Increment      1: Step Time =    1.000,"P-1-1",           969,       175.315,       165.129,            0.,NA,NA,"",   1.11774E+06,   1.11031E+06,   1.11031E+06
C:/temp/Job-1.odb,Step-1,Increment      1: Step Time =    1.000,"P-1-1",           970,       161.914,       179.871,            0.,NA,NA,"",   1.11312E+06,   1.09539E+06,   1.09539E+06
C:/temp/Job-1.odb,Step-1,Increment      1: Step Time =    1.000,"P-1-1",           971,       45.6670,       117.037,            0.,NA,NA,"",   536.293E+03,   445.613E+03,   445.613E+03
C:/temp/Job-1.odb,Step-1,Increment      1: Step Time =    1.000,"P-1-1",           972,       54.2918,       66.9944,            0.,NA,NA,"",   1.13964E+06,   986.997E+03,   986.997E+03
C:/temp/Job-1.odb,Step-1,Increment      1: Step Time =    1.000,"P-1-1",           973,       60.1963,       77.6294,            0.,NA,NA,"",    754.46E+03,   371.063E+03,   371.063E+03
C:/temp/Job-1.odb,Step-1,Increment      1: Step Time =    1.000,"P-1-1",           974,       135.856,       140.530,            0.,NA,NA,"",   1.72177E+06,   1.58336E+06,   1.58336E+06
C:/temp/Job-1.odb,Step-1,Increment      1: Step Time =    1.000,"P-1-1",           975,       55.7450,       186.788,            0.,NA,NA,"",   1.36531E+06,   1.34579E+06,   1.34579E+06
C:/temp/Job-1.odb,Step-1,Increment      1: Step Time =    1.000,"P-1-1",           976,       145.706,       14.5481,            0.,NA,NA,"",   1.07871E+06,   1.06490E+06,   1.06490E+06
C:/temp/Job-1.odb,Step-1,Increment      1: Step Time =    1.000,"P-1-1",           977,       13.9056,       147.829,            0.,NA,NA,"",   906.779E+03,   975.390E+03,   975.390E+03
C:/temp/Job-1.odb,Step-1,Increment      1: Step Time =    1.000,"P-1-1",           978,       14.5260,       55.4329,            0.,NA,NA,"",   859.582E+03,   924.989E+03,   924.989E+03
C:/temp/Job-1.odb,Step-1,Increment      1: Step Time =    1.000,"P-1-1",           979,       54.3522,       15.6220,            0.,NA,NA,"",   1.38952E+06,   1.36465E+06,   1.36465E+06
C:/temp/Job-1.odb,Step-1,Increment      1: Step Time =    1.000,"P-1-1",           980,       183.600,       55.9573,            0.,NA,NA,"",   1.03744E+06,   1.08910E+06,   1.08910E+06
C:/temp/Job-1.odb,Step-1,Increment      1: Step Time =    1.000,"P-1-1",           981,       185.497,       145.659,            0.,NA,NA,"",   1.01888E+06,   1.07543E+06,   1.07543E+06
C:/temp/Job-1.odb,Step-1,Increment      1: Step Time =    1.000,"P-1-1",           982,       144.881,       184.254,            0.,NA,NA,"",   1.09015E+06,   1.07493E+06,   1.07493E+06
C:/temp/Job-1.odb,Step-1,Increment      1: Step Time =    1.000,"P-1-1",           983,       17.7796,       174.265,            0.,NA,NA,"",   1.33072E+06,   1.38122E+06,   1.38122E+06
C:/temp/Job-1.odb,Step-1,Increment      1: Step Time =    1.000,"P-1-1",           984,       172.913,       18.4664,            0.,NA,NA,"",   1.05902E+06,   1.05413E+06,   1.05413E+06
C:/temp/Job-1.odb,Step-1,Increment      1: Step Time =    1.000,"P-1-1",           985,       173.956,       10.4104,            0.,NA,NA,"",   1.02457E+06,   1.02288E+06,   1.02288E+06
C:/temp/Job-1.odb,Step-1,Increment      1: Step Time =    1.000,"P-1-1",           986,       14.3370,       158.780,            0.,NA,NA,"",   1.06876E+06,   1.13955E+06,   1.13955E+06
C:/temp/Job-1.odb,Step-1,Increment      1: Step Time =    1.000,"P-1-1",           987,       159.287,       16.5848,            0.,NA,NA,"",   1.09277E+06,   1.07772E+06,   1.07772E+06
C:/temp/Job-1.odb,Step-1,Increment      1: Step Time =    1.000,"P-1-1",           988,       15.1510,       43.4781,            0.,NA,NA,"",   1.04562E+06,   1.11275E+06,   1.11275E+06
C:/temp/Job-1.odb,Step-1,Increment      1: Step Time =    1.000,"P-1-1",           989,       38.8267,       12.7672,            0.,NA,NA,"",   1.44993E+06,   1.43888E+06,   1.43888E+06
C:/temp/Job-1.odb,Step-1,Increment      1: Step Time =    1.000,"P-1-1",           990,       26.0419,       17.3397,            0.,NA,NA,"",   1.47142E+06,   1.47756E+06,   1.47756E+06
C:/temp/Job-1.odb,Step-1,Increment      1: Step Time =    1.000,"P-1-1",           991,       18.3801,       28.1317,            0.,NA,NA,"",   1.30451E+06,   1.35164E+06,   1.35164E+06
C:/temp/Job-1.odb,Step-1,Increment      1: Step Time =    1.000,"P-1-1",           992,       9.46992,       30.6725,            0.,NA,NA,"",   1.17198E+06,   1.26967E+06,   1.26967E+06
C:/temp/Job-1.odb,Step-1,Increment      1: Step Time =    1.000,"P-1-1",           993,       181.685,       172.669,            0.,NA,NA,"",   1.04420E+06,   1.05059E+06,   1.05059E+06
C:/temp/Job-1.odb,Step-1,Increment      1: Step Time =    1.000,"P-1-1",           994,       171.143,       183.563,            0.,NA,NA,"",   1.05331E+06,   1.04827E+06,   1.04827E+06
C:/temp/Job-1.odb,Step-1,Increment      1: Step Time =    1.000,"P-1-1",           995,       189.598,       173.829,            0.,NA,NA,"",   1.00725E+06,   1.01913E+06,   1.01913E+06
C:/temp/Job-1.odb,Step-1,Increment      1: Step Time =    1.000,"P-1-1",           996,       157.641,       185.677,            0.,NA,NA,"",   1.07384E+06,   1.06144E+06,   1.06144E+06
C:/temp/Job-1.odb,Step-1,Increment      1: Step Time =    1.000,"P-1-1",           997,       183.609,       159.164,            0.,NA,NA,"",   1.04795E+06,   1.07038E+06,   1.07038E+06
C:/temp/Job-1.odb,Step-1,Increment      1: Step Time =    1.000,"P-1-1",           998,       183.635,       27.5689,            0.,NA,NA,"",   1.02915E+06,   1.03941E+06,   1.03941E+06
C:/temp/Job-1.odb,Step-1,Increment      1: Step Time =    1.000,"P-1-1",           999,       26.1902,       178.683,            0.,NA,NA,"",   1.42782E+06,   1.43704E+06,   1.43704E+06
C:/temp/Job-1.odb,Step-1,Increment      1: Step Time =    1.000,"P-1-1",          1000,       25.3197,       189.330,            0.,NA,NA,"",   1.52393E+06,   1.52748E+06,   1.52748E+06
C:/temp/Job-1.odb,Step-1,Increment      1: Step Time =    1.000,"P-1-1",          1001,       185.269,       41.9949,            0.,NA,NA,"",   1.03264E+06,   1.06245E+06,   1.06245E+06
C:/temp/Job-1.odb,Step-1,Increment      1: Step Time =    1.000,"P-1-1",          1002,       39.2642,       178.762,            0.,NA,NA,"",   1.43996E+06,   1.41669E+06,   1.41669E+06
C:/temp/Job-1.odb,Step-1,Increment      1: Step Time =    1.000,"P-1-1",          1003,       66.9464,       60.6910,            0.,NA,NA,"",   1.52785E+06,   1.41241E+06,   1.41241E+06
C:/temp/Job-1.odb,Step-1,Increment      1: Step Time =    1.000,"P-1-1",          1004,       130.026,       53.9812,            0.,NA,NA,"",   1.73299E+06,   1.68706E+06,   1.68706E+06
C:/temp/Job-1.odb,Step-1,Increment      1: Step Time =    1.000,"P-1-1",          1005,       114.791,       153.908,            0.,NA,NA,"",   1.61045E+06,   1.72557E+06,   1.72557E+06
C:/temp/Job-1.odb,Step-1,Increment      1: Step Time =    1.000,"P-1-1",          1006,       83.6001,       151.145,            0.,NA,NA,"",   1.72196E+06,   1.77812E+06,   1.77812E+06
C:/temp/Job-1.odb,Step-1,Increment      1: Step Time =    1.000,"P-1-1",          1007,       154.206,       111.806,            0.,NA,NA,"",   763.496E+03,   585.307E+03,   585.307E+03
C:/temp/Job-1.odb,Step-1,Increment      1: Step Time =    1.000,"P-1-1",          1008,       68.0423,       52.1211,            0.,NA,NA,"",   1.62156E+06,   1.53278E+06,   1.53278E+06
C:/temp/Job-1.odb,Step-1,Increment      1: Step Time =    1.000,"P-1-1",          1009,       181.072,       79.6272,            0.,NA,NA,"",   909.977E+03,   1.00639E+06,   1.00639E+06
C:/temp/Job-1.odb,Step-1,Increment      1: Step Time =    1.000,"P-1-1",          1010,       123.439,       180.722,            0.,NA,NA,"",   1.10009E+06,   1.11501E+06,   1.11501E+06
C:/temp/Job-1.odb,Step-1,Increment      1: Step Time =    1.000,"P-1-1",          1011,       80.5665,       19.3509,            0.,NA,NA,"",   1.25375E+06,   1.25307E+06,   1.25307E+06
C:/temp/Job-1.odb,Step-1,Increment      1: Step Time =    1.000,"P-1-1",          1012,       19.0495,       120.709,            0.,NA,NA,"",   486.178E+03,   543.049E+03,   543.049E+03
C:/temp/Job-1.odb,Step-1,Increment      1: Step Time =    1.000,"P-1-1",          1013,       45.3674,       110.302,            0.,NA,NA,"",   330.849E+03,   258.796E+03,   258.796E+03
C:/temp/Job-1.odb,Step-1,Increment      1: Step Time =    1.000,"P-1-1",          1014,       114.217,       177.916,            0.,NA,NA,"",   1.11340E+06,   1.15695E+06,   1.15695E+06
C:/temp/Job-1.odb,Step-1,Increment      1: Step Time =    1.000,"P-1-1",          1015,       180.359,       88.6879,            0.,NA,NA,"",   799.092E+03,   909.717E+03,   909.717E+03
C:/temp/Job-1.odb,Step-1,Increment      1: Step Time =    1.000,"P-1-1",          1016,       90.0464,       19.4574,            0.,NA,NA,"",   1.16098E+06,   1.18643E+06,   1.18643E+06
C:/temp/Job-1.odb,Step-1,Increment      1: Step Time =    1.000,"P-1-1",          1017,       21.1364,       111.870,            0.,NA,NA,"",   367.041E+03,   420.656E+03,   420.656E+03
C:/temp/Job-1.odb,Step-1,Increment      1: Step Time =    1.000,"P-1-1",          1018,       106.137,       155.404,            0.,NA,NA,"",   1.57949E+06,   1.72814E+06,   1.72814E+06
C:/temp/Job-1.odb,Step-1,Increment      1: Step Time =    1.000,"P-1-1",          1019,       93.5276,       155.071,            0.,NA,NA,"",   1.62451E+06,   1.74776E+06,   1.74776E+06
C:/temp/Job-1.odb,Step-1,Increment      1: Step Time =    1.000,"P-1-1",          1020,       78.3500,       46.1273,            0.,NA,NA,"",   1.67043E+06,   1.67361E+06,   1.67361E+06
C:/temp/Job-1.odb,Step-1,Increment      1: Step Time =    1.000,"P-1-1",          1021,       54.1375,       131.158,            0.,NA,NA,"",   1.08061E+06,   921.990E+03,   921.990E+03
C:/temp/Job-1.odb,Step-1,Increment      1: Step Time =    1.000,"P-1-1",          1022,       56.3271,       75.4055,            0.,NA,NA,"",   881.458E+03,   695.919E+03,   695.919E+03
C:/temp/Job-1.odb,Step-1,Increment      1: Step Time =    1.000,"P-1-1",          1023,       139.947,       141.847,            0.,NA,NA,"",   1.68858E+06,   1.52884E+06,   1.52884E+06
C:/temp/Job-1.odb,Step-1,Increment      1: Step Time =    1.000,"P-1-1",          1024,       49.8907,       129.057,            0.,NA,NA,"",   950.137E+03,   815.928E+03,   815.928E+03
C:/temp/Job-1.odb,Step-1,Increment      1: Step Time =    1.000,"P-1-1",          1025,       66.2412,       55.5030,            0.,NA,NA,"",   1.58344E+06,   1.47762E+06,   1.47762E+06
C:/temp/Job-1.odb,Step-1,Increment      1: Step Time =    1.000,"P-1-1",          1026,       133.622,       57.2250,            0.,NA,NA,"",   1.74171E+06,   1.64218E+06,   1.64218E+06
C:/temp/Job-1.odb,Step-1,Increment      1: Step Time =    1.000,"P-1-1",          1027,       69.5706,       48.2200,            0.,NA,NA,"",   1.64366E+06,   1.57149E+06,   1.57149E+06
C:/temp/Job-1.odb,Step-1,Increment      1: Step Time =    1.000,"P-1-1",          1028,       130.893,       47.9201,            0.,NA,NA,"",   1.63457E+06,   1.59872E+06,   1.59872E+06
C:/temp/Job-1.odb,Step-1,Increment      1: Step Time =    1.000,"P-1-1",          1029,       42.2139,       114.416,            0.,NA,NA,"",   438.350E+03,   391.009E+03,   391.009E+03
C:/temp/Job-1.odb,Step-1,Increment      1: Step Time =    1.000,"P-1-1",          1030,       9.74841,       55.2084,            0.,NA,NA,"",   827.605E+03,   907.143E+03,   907.143E+03
C:/temp/Job-1.odb,Step-1,Increment      1: Step Time =    1.000,"P-1-1",          1031,       55.6001,       191.166,            0.,NA,NA,"",   1.33768E+06,   1.32751E+06,   1.32751E+06
C:/temp/Job-1.odb,Step-1,Increment      1: Step Time =    1.000,"P-1-1",          1032,       144.920,       9.27025,            0.,NA,NA,"",   1.00443E+06,   998.105E+03,   998.105E+03
C:/temp/Job-1.odb,Step-1,Increment      1: Step Time =    1.000,"P-1-1",          1033,       190.738,       144.893,            0.,NA,NA,"",   953.104E+03,   1.03825E+06,   1.03825E+06
C:/temp/Job-1.odb,Step-1,Increment      1: Step Time =    1.000,"P-1-1",          1034,       25.8371,       103.077,            0.,NA,NA,"",   280.362E+03,   322.668E+03,   322.668E+03
C:/temp/Job-1.odb,Step-1,Increment      1: Step Time =    1.000,"P-1-1",          1035,       94.7967,       25.0278,            0.,NA,NA,"",   1.20592E+06,   1.26007E+06,   1.26007E+06
C:/temp/Job-1.odb,Step-1,Increment      1: Step Time =    1.000,"P-1-1",          1036,       104.465,       175.177,            0.,NA,NA,"",   1.15294E+06,   1.22056E+06,   1.22056E+06
C:/temp/Job-1.odb,Step-1,Increment      1: Step Time =    1.000,"P-1-1",          1037,       173.806,       92.2580,            0.,NA,NA,"",   709.755E+03,   793.304E+03,   793.304E+03
C:/temp/Job-1.odb,Step-1,Increment      1: Step Time =    1.000,"P-1-1",          1038,       38.2682,       111.929,            0.,NA,NA,"",   355.650E+03,   352.809E+03,   352.809E+03
C:/temp/Job-1.odb,Step-1,Increment      1: Step Time =    1.000,"P-1-1",          1039,       151.351,       91.3602,            0.,NA,NA,"",   611.479E+03,   229.720E+03,   229.720E+03
C:/temp/Job-1.odb,Step-1,Increment      1: Step Time =    1.000,"P-1-1",          1040,       28.0561,       82.9600,            0.,NA,NA,"",   448.439E+03,   486.707E+03,   486.707E+03
C:/temp/Job-1.odb,Step-1,Increment      1: Step Time =    1.000,"P-1-1",          1041,       25.3185,       115.254,            0.,NA,NA,"",   411.454E+03,   459.715E+03,   459.715E+03
C:/temp/Job-1.odb,Step-1,Increment      1: Step Time =    1.000,"P-1-1",          1042,       113.456,       24.9523,            0.,NA,NA,"",   1.15692E+06,   1.21044E+06,   1.21044E+06
C:/temp/Job-1.odb,Step-1,Increment      1: Step Time =    1.000,"P-1-1",          1043,       85.3961,       24.0907,            0.,NA,NA,"",   1.28493E+06,   1.30590E+06,   1.30590E+06
C:/temp/Job-1.odb,Step-1,Increment      1: Step Time =    1.000,"P-1-1",          1044,       173.800,       114.015,            0.,NA,NA,"",   817.044E+03,   883.691E+03,   883.691E+03
C:/temp/Job-1.odb,Step-1,Increment      1: Step Time =    1.000,"P-1-1",          1045,       113.235,       172.978,            0.,NA,NA,"",   1.18881E+06,   1.25084E+06,   1.25084E+06
C:/temp/Job-1.odb,Step-1,Increment      1: Step Time =    1.000,"P-1-1",          1046,       177.109,       83.4094,            0.,NA,NA,"",   864.261E+03,   946.569E+03,   946.569E+03
C:/temp/Job-1.odb,Step-1,Increment      1: Step Time =    1.000,"P-1-1",          1047,       83.9543,       173.668,            0.,NA,NA,"",   1.33349E+06,   1.34934E+06,   1.34934E+06
C:/temp/Job-1.odb,Step-1,Increment      1: Step Time =    1.000,"P-1-1",          1048,       152.839,       72.7345,            0.,NA,NA,"",   1.33392E+06,   1.10851E+06,   1.10851E+06
C:/temp/Job-1.odb,Step-1,Increment      1: Step Time =    1.000,"P-1-1",          1049,       28.0785,       64.1538,            0.,NA,NA,"",   821.577E+03,   836.500E+03,   836.500E+03
C:/temp/Job-1.odb,Step-1,Increment      1: Step Time =    1.000,"P-1-1",          1050,       65.2209,       26.5172,            0.,NA,NA,"",   1.45083E+06,   1.40699E+06,   1.40699E+06
C:/temp/Job-1.odb,Step-1,Increment      1: Step Time =    1.000,"P-1-1",          1051,       135.949,       26.9113,            0.,NA,NA,"",   1.26751E+06,   1.24734E+06,   1.24734E+06
C:/temp/Job-1.odb,Step-1,Increment      1: Step Time =    1.000,"P-1-1",          1052,       25.0953,       135.620,            0.,NA,NA,"",   799.274E+03,   827.587E+03,   827.587E+03
C:/temp/Job-1.odb,Step-1,Increment      1: Step Time =    1.000,"P-1-1",          1053,       172.904,       135.801,            0.,NA,NA,"",   1.16081E+06,   1.14346E+06,   1.14346E+06
C:/temp/Job-1.odb,Step-1,Increment      1: Step Time =    1.000,"P-1-1",          1054,       134.818,       172.233,            0.,NA,NA,"",   1.27783E+06,   1.26055E+06,   1.26055E+06
C:/temp/Job-1.odb,Step-1,Increment      1: Step Time =    1.000,"P-1-1",          1055,       174.519,       66.6480,            0.,NA,NA,"",   1.11734E+06,   1.11869E+06,   1.11869E+06
C:/temp/Job-1.odb,Step-1,Increment      1: Step Time =    1.000,"P-1-1",          1056,       62.7463,       175.765,            0.,NA,NA,"",   1.43103E+06,   1.38835E+06,   1.38835E+06
C:/temp/Job-1.odb,Step-1,Increment      1: Step Time =    1.000,"P-1-1",          1057,       113.405,       42.0792,            0.,NA,NA,"",   1.48390E+06,   1.59438E+06,   1.59438E+06
C:/temp/Job-1.odb,Step-1,Increment      1: Step Time =    1.000,"P-1-1",          1058,       26.4860,       29.7854,            0.,NA,NA,"",   1.33692E+06,   1.34857E+06,   1.34857E+06
C:/temp/Job-1.odb,Step-1,Increment      1: Step Time =    1.000,"P-1-1",          1059,       31.6937,       25.4069,            0.,NA,NA,"",   1.40881E+06,   1.40027E+06,   1.40027E+06
C:/temp/Job-1.odb,Step-1,Increment      1: Step Time =    1.000,"P-1-1",          1060,       24.1772,       166.547,            0.,NA,NA,"",   1.27890E+06,   1.30088E+06,   1.30088E+06
C:/temp/Job-1.odb,Step-1,Increment      1: Step Time =    1.000,"P-1-1",          1061,       171.146,       28.4768,            0.,NA,NA,"",   1.11988E+06,   1.10620E+06,   1.10620E+06
C:/temp/Job-1.odb,Step-1,Increment      1: Step Time =    1.000,"P-1-1",          1062,       176.539,       31.9296,            0.,NA,NA,"",   1.09247E+06,   1.08996E+06,   1.08996E+06
C:/temp/Job-1.odb,Step-1,Increment      1: Step Time =    1.000,"P-1-1",          1063,       31.2121,       173.768,            0.,NA,NA,"",   1.40003E+06,   1.39431E+06,   1.39431E+06
C:/temp/Job-1.odb,Step-1,Increment      1: Step Time =    1.000,"P-1-1",          1064,       171.884,       170.236,            0.,NA,NA,"",   1.12539E+06,   1.11127E+06,   1.11127E+06
C:/temp/Job-1.odb,Step-1,Increment      1: Step Time =    1.000,"P-1-1",          1065,       167.937,       175.360,            0.,NA,NA,"",   1.11927E+06,   1.10310E+06,   1.10310E+06
C:/temp/Job-1.odb,Step-1,Increment      1: Step Time =    1.000,"P-1-1",          1066,       43.3797,       120.479,            0.,NA,NA,"",   618.650E+03,   549.158E+03,   549.158E+03
C:/temp/Job-1.odb,Step-1,Increment      1: Step Time =    1.000,"P-1-1",          1067,       54.9430,       63.0912,            0.,NA,NA,"",   1.26332E+06,   1.11627E+06,   1.11627E+06
C:/temp/Job-1.odb,Step-1,Increment      1: Step Time =    1.000,"P-1-1",          1068,       15.1396,       176.769,            0.,NA,NA,"",   1.35151E+06,   1.41399E+06,   1.41399E+06
C:/temp/Job-1.odb,Step-1,Increment      1: Step Time =    1.000,"P-1-1",          1069,       175.981,       16.1594,            0.,NA,NA,"",   1.03966E+06,   1.03809E+06,   1.03809E+06
C:/temp/Job-1.odb,Step-1,Increment      1: Step Time =    1.000,"P-1-1",          1070,       15.5362,       23.9837,            0.,NA,NA,"",   1.34303E+06,   1.40309E+06,   1.40309E+06
C:/temp/Job-1.odb,Step-1,Increment      1: Step Time =    1.000,"P-1-1",          1071,       183.914,       175.631,            0.,NA,NA,"",   1.02862E+06,   1.03549E+06,   1.03549E+06
C:/temp/Job-1.odb,Step-1,Increment      1: Step Time =    1.000,"P-1-1",          1072,       175.051,       186.992,            0.,NA,NA,"",   1.02923E+06,   1.02784E+06,   1.02784E+06
C:/temp/Job-1.odb,Step-1,Increment      1: Step Time =    1.000,"P-1-1",          1073,       187.551,       24.3317,            0.,NA,NA,"",   1.01154E+06,   1.02156E+06,   1.02156E+06
C:/temp/Job-1.odb,Step-1,Increment      1: Step Time =    1.000,"P-1-1",          1074,       20.2280,       183.334,            0.,NA,NA,"",   1.48606E+06,   1.50961E+06,   1.50961E+06
C:/temp/Job-1.odb,Step-1,Increment      1: Step Time =    1.000,"P-1-1",          1075,       112.239,       150.064,            0.,NA,NA,"",   1.75472E+06,   1.89528E+06,   1.89528E+06
C:/temp/Job-1.odb,Step-1,Increment      1: Step Time =    1.000,"P-1-1",          1076,       120.610,       156.641,            0.,NA,NA,"",   1.54239E+06,   1.60501E+06,   1.60501E+06
C:/temp/Job-1.odb,Step-1,Increment      1: Step Time =    1.000,"P-1-1",          1077,       90.0962,       148.193,            0.,NA,NA,"",   1.86108E+06,   1.98158E+06,   1.98158E+06
C:/temp/Job-1.odb,Step-1,Increment      1: Step Time =    1.000,"P-1-1",          1078,       77.4015,       154.217,            0.,NA,NA,"",   1.65853E+06,   1.65046E+06,   1.65046E+06
C:/temp/Job-1.odb,Step-1,Increment      1: Step Time =    1.000,"P-1-1",          1079,       100.474,       155.205,            0.,NA,NA,"",   1.60687E+06,   1.75642E+06,   1.75642E+06
C:/temp/Job-1.odb,Step-1,Increment      1: Step Time =    1.000,"P-1-1",          1080,       144.251,       58.8565,            0.,NA,NA,"",   1.64396E+06,   1.45733E+06,   1.45733E+06
C:/temp/Job-1.odb,Step-1,Increment      1: Step Time =    1.000,"P-1-1",          1081,       24.3873,       68.9023,            0.,NA,NA,"",   700.857E+03,   737.110E+03,   737.110E+03
C:/temp/Job-1.odb,Step-1,Increment      1: Step Time =    1.000,"P-1-1",          1082,       175.600,       129.941,            0.,NA,NA,"",   1.06838E+06,   1.09041E+06,   1.09041E+06
C:/temp/Job-1.odb,Step-1,Increment      1: Step Time =    1.000,"P-1-1",          1083,       129.739,       24.5374,            0.,NA,NA,"",   1.20922E+06,   1.21089E+06,   1.21089E+06
C:/temp/Job-1.odb,Step-1,Increment      1: Step Time =    1.000,"P-1-1",          1084,       67.6467,       175.169,            0.,NA,NA,"",   1.42219E+06,   1.38536E+06,   1.38536E+06
C:/temp/Job-1.odb,Step-1,Increment      1: Step Time =    1.000,"P-1-1",          1085,       174.946,       109.295,            0.,NA,NA,"",   744.117E+03,   833.226E+03,   833.226E+03
C:/temp/Job-1.odb,Step-1,Increment      1: Step Time =    1.000,"P-1-1",          1086,       90.1571,       175.926,            0.,NA,NA,"",   1.22855E+06,   1.26685E+06,   1.26685E+06
C:/temp/Job-1.odb,Step-1,Increment      1: Step Time =    1.000,"P-1-1",          1087,       22.0374,       92.2141,            0.,NA,NA,"",   325.779E+03,   375.900E+03,   375.900E+03
C:/temp/Job-1.odb,Step-1,Increment      1: Step Time =    1.000,"P-1-1",          1088,       108.102,       25.0914,            0.,NA,NA,"",   1.15254E+06,   1.21595E+06,   1.21595E+06
C:/temp/Job-1.odb,Step-1,Increment      1: Step Time =    1.000,"P-1-1",          1089,       109.787,       37.9612,            0.,NA,NA,"",   1.38113E+06,   1.48976E+06,   1.48976E+06
C:/temp/Job-1.odb,Step-1,Increment      1: Step Time =    1.000,"P-1-1",          1090,       20.8167,       13.5130,            0.,NA,NA,"",   1.52196E+06,   1.53708E+06,   1.53708E+06
C:/temp/Job-1.odb,Step-1,Increment      1: Step Time =    1.000,"P-1-1",          1091,       14.5705,       181.428,            0.,NA,NA,"",   1.42641E+06,   1.48598E+06,   1.48598E+06
C:/temp/Job-1.odb,Step-1,Increment      1: Step Time =    1.000,"P-1-1",          1092,       187.116,       19.9777,            0.,NA,NA,"",   1.01088E+06,   1.01745E+06,   1.01745E+06
C:/temp/Job-1.odb,Step-1,Increment      1: Step Time =    1.000,"P-1-1",          1093,       179.544,       186.591,            0.,NA,NA,"",   1.02143E+06,   1.02213E+06,   1.02213E+06
C:/temp/Job-1.odb,Step-1,Increment      1: Step Time =    1.000,"P-1-1",          1094,       64.4229,       58.4061,            0.,NA,NA,"",   1.53597E+06,   1.41166E+06,   1.41166E+06
C:/temp/Job-1.odb,Step-1,Increment      1: Step Time =    1.000,"P-1-1",          1095,       141.819,       136.992,            0.,NA,NA,"",   1.64819E+06,   1.44340E+06,   1.44340E+06
C:/temp/Job-1.odb,Step-1,Increment      1: Step Time =    1.000,"P-1-1",          1096,       47.6041,       134.217,            0.,NA,NA,"",   1.06693E+06,   955.187E+03,   955.187E+03
C:/temp/Job-1.odb,Step-1,Increment      1: Step Time =    1.000,"P-1-1",          1097,       74.8891,       45.6159,            0.,NA,NA,"",   1.66156E+06,   1.63453E+06,   1.63453E+06
C:/temp/Job-1.odb,Step-1,Increment      1: Step Time =    1.000,"P-1-1",          1098,       125.070,       46.7156,            0.,NA,NA,"",   1.62205E+06,   1.64659E+06,   1.64659E+06
C:/temp/Job-1.odb,Step-1,Increment      1: Step Time =    1.000,"P-1-1",          1099,       89.0811,       29.8433,            0.,NA,NA,"",   1.34144E+06,   1.39098E+06,   1.39098E+06
C:/temp/Job-1.odb,Step-1,Increment      1: Step Time =    1.000,"P-1-1",          1100,       108.282,       168.795,            0.,NA,NA,"",   1.25433E+06,   1.34548E+06,   1.34548E+06
C:/temp/Job-1.odb,Step-1,Increment      1: Step Time =    1.000,"P-1-1",          1101,       170.891,       88.4463,            0.,NA,NA,"",   762.526E+03,   816.863E+03,   816.863E+03
C:/temp/Job-1.odb,Step-1,Increment      1: Step Time =    1.000,"P-1-1",          1102,       37.1063,       105.509,            0.,NA,NA,"",   225.052E+03,   248.425E+03,   248.425E+03
C:/temp/Job-1.odb,Step-1,Increment      1: Step Time =    1.000,"P-1-1",          1103,       31.3451,       80.8220,            0.,NA,NA,"",   507.005E+03,   526.813E+03,   526.813E+03
C:/temp/Job-1.odb,Step-1,Increment      1: Step Time =    1.000,"P-1-1",          1104,       117.987,       30.1315,            0.,NA,NA,"",   1.25705E+06,   1.31206E+06,   1.31206E+06
C:/temp/Job-1.odb,Step-1,Increment      1: Step Time =    1.000,"P-1-1",          1105,       25.8632,       124.814,            0.,NA,NA,"",   590.792E+03,   627.944E+03,   627.944E+03
C:/temp/Job-1.odb,Step-1,Increment      1: Step Time =    1.000,"P-1-1",          1106,       77.8983,       28.4567,            0.,NA,NA,"",   1.41510E+06,   1.40886E+06,   1.40886E+06
C:/temp/Job-1.odb,Step-1,Increment      1: Step Time =    1.000,"P-1-1",          1107,       170.802,       120.462,            0.,NA,NA,"",   965.950E+03,    974.65E+03,    974.65E+03
C:/temp/Job-1.odb,Step-1,Increment      1: Step Time =    1.000,"P-1-1",          1108,       82.1754,       169.444,            0.,NA,NA,"",   1.41499E+06,   1.42814E+06,   1.42814E+06
C:/temp/Job-1.odb,Step-1,Increment      1: Step Time =    1.000,"P-1-1",          1109,       117.186,       171.936,            0.,NA,NA,"",   1.21788E+06,   1.26707E+06,   1.26707E+06
C:/temp/Job-1.odb,Step-1,Increment      1: Step Time =    1.000,"P-1-1",          1110,       173.928,       81.3981,            0.,NA,NA,"",   907.763E+03,   956.936E+03,   956.936E+03
C:/temp/Job-1.odb,Step-1,Increment      1: Step Time =    1.000,"P-1-1",          1111,       156.726,       67.8627,            0.,NA,NA,"",   1.37729E+06,   1.20289E+06,   1.20289E+06
C:/temp/Job-1.odb,Step-1,Increment      1: Step Time =    1.000,"P-1-1",          1112,       59.8533,       31.0669,            0.,NA,NA,"",   1.49588E+06,   1.43335E+06,   1.43335E+06
C:/temp/Job-1.odb,Step-1,Increment      1: Step Time =    1.000,"P-1-1",          1113,       28.0907,       60.0993,            0.,NA,NA,"",   905.481E+03,   915.999E+03,   915.999E+03
C:/temp/Job-1.odb,Step-1,Increment      1: Step Time =    1.000,"P-1-1",          1114,       28.5439,       141.085,            0.,NA,NA,"",   926.573E+03,   934.879E+03,   934.879E+03
C:/temp/Job-1.odb,Step-1,Increment      1: Step Time =    1.000,"P-1-1",          1115,       142.121,       28.2629,            0.,NA,NA,"",   1.28420E+06,   1.24805E+06,   1.24805E+06
C:/temp/Job-1.odb,Step-1,Increment      1: Step Time =    1.000,"P-1-1",          1116,       171.759,       141.942,            0.,NA,NA,"",   1.20741E+06,   1.17643E+06,   1.17643E+06
C:/temp/Job-1.odb,Step-1,Increment      1: Step Time =    1.000,"P-1-1",          1117,       138.618,       170.727,            0.,NA,NA,"",   1.30439E+06,   1.27411E+06,   1.27411E+06
C:/temp/Job-1.odb,Step-1,Increment      1: Step Time =    1.000,"P-1-1",          1118,       169.294,       58.5898,            0.,NA,NA,"",   1.24619E+06,   1.19486E+06,   1.19486E+06
C:/temp/Job-1.odb,Step-1,Increment      1: Step Time =    1.000,"P-1-1",          1119,       56.3967,       172.369,            0.,NA,NA,"",   1.46742E+06,   1.41245E+06,   1.41245E+06
C:/temp/Job-1.odb,Step-1,Increment      1: Step Time =    1.000,"P-1-1",          1120,       16.7440,       18.5187,            0.,NA,NA,"",   1.44056E+06,   1.48588E+06,   1.48588E+06
C:/temp/Job-1.odb,Step-1,Increment      1: Step Time =    1.000,"P-1-1",          1121,       181.881,       16.6560,            0.,NA,NA,"",   1.02170E+06,   1.02455E+06,   1.02455E+06
C:/temp/Job-1.odb,Step-1,Increment      1: Step Time =    1.000,"P-1-1",          1122,       14.9626,       184.885,            0.,NA,NA,"",   1.50043E+06,   1.54640E+06,   1.54640E+06
C:/temp/Job-1.odb,Step-1,Increment      1: Step Time =    1.000,"P-1-1",          1123,       183.132,       181.394,            0.,NA,NA,"",   1.02294E+06,   1.02642E+06,   1.02642E+06
C:/temp/Job-1.odb,Step-1,Increment      1: Step Time =    1.000,"P-1-1",          1124,       27.6326,       34.3281,            0.,NA,NA,"",   1.29775E+06,   1.30359E+06,   1.30359E+06
C:/temp/Job-1.odb,Step-1,Increment      1: Step Time =    1.000,"P-1-1",          1125,       37.3279,       24.9315,            0.,NA,NA,"",   1.42878E+06,   1.40410E+06,   1.40410E+06
C:/temp/Job-1.odb,Step-1,Increment      1: Step Time =    1.000,"P-1-1",          1126,       26.5544,       21.4608,            0.,NA,NA,"",   1.43252E+06,   1.43984E+06,   1.43984E+06
C:/temp/Job-1.odb,Step-1,Increment      1: Step Time =    1.000,"P-1-1",          1127,       22.6154,       25.1906,            0.,NA,NA,"",   1.36802E+06,   1.39542E+06,   1.39542E+06
C:/temp/Job-1.odb,Step-1,Increment      1: Step Time =    1.000,"P-1-1",          1128,       23.5354,       172.760,            0.,NA,NA,"",   1.35081E+06,   1.37376E+06,   1.37376E+06
C:/temp/Job-1.odb,Step-1,Increment      1: Step Time =    1.000,"P-1-1",          1129,       174.670,       22.6109,            0.,NA,NA,"",   1.06858E+06,   1.06421E+06,   1.06421E+06
C:/temp/Job-1.odb,Step-1,Increment      1: Step Time =    1.000,"P-1-1",          1130,       166.840,       29.7473,            0.,NA,NA,"",   1.16298E+06,   1.13782E+06,   1.13782E+06
C:/temp/Job-1.odb,Step-1,Increment      1: Step Time =    1.000,"P-1-1",          1131,       27.7071,       163.313,            0.,NA,NA,"",   1.27046E+06,   1.27647E+06,   1.27647E+06
C:/temp/Job-1.odb,Step-1,Increment      1: Step Time =    1.000,"P-1-1",          1132,       36.2093,       169.237,            0.,NA,NA,"",   1.39144E+06,   1.36590E+06,   1.36590E+06
C:/temp/Job-1.odb,Step-1,Increment      1: Step Time =    1.000,"P-1-1",          1133,       173.442,       36.2698,            0.,NA,NA,"",   1.13988E+06,   1.12673E+06,   1.12673E+06
C:/temp/Job-1.odb,Step-1,Increment      1: Step Time =    1.000,"P-1-1",          1134,       178.745,       26.9983,            0.,NA,NA,"",   1.05817E+06,   1.06018E+06,   1.06018E+06
C:/temp/Job-1.odb,Step-1,Increment      1: Step Time =    1.000,"P-1-1",          1135,       27.0594,       173.875,            0.,NA,NA,"",   1.38186E+06,   1.38991E+06,   1.38991E+06
C:/temp/Job-1.odb,Step-1,Increment      1: Step Time =    1.000,"P-1-1",          1136,       177.808,       174.393,            0.,NA,NA,"",   1.06238E+06,   1.06234E+06,   1.06234E+06
C:/temp/Job-1.odb,Step-1,Increment      1: Step Time =    1.000,"P-1-1",          1137,       170.799,       165.814,            0.,NA,NA,"",   1.15921E+06,   1.13841E+06,   1.13841E+06
C:/temp/Job-1.odb,Step-1,Increment      1: Step Time =    1.000,"P-1-1",          1138,       164.335,       171.204,            0.,NA,NA,"",   1.17742E+06,   1.14849E+06,   1.14849E+06
C:/temp/Job-1.odb,Step-1,Increment      1: Step Time =    1.000,"P-1-1",          1139,       153.414,       8.74793,            0.,NA,NA,"",   1.01878E+06,   1.01308E+06,   1.01308E+06
C:/temp/Job-1.odb,Step-1,Increment      1: Step Time =    1.000,"P-1-1",          1140,       191.284,       153.389,            0.,NA,NA,"",   968.634E+03,   1.02845E+06,   1.02845E+06
C:/temp/Job-1.odb,Step-1,Increment      1: Step Time =    1.000,"P-1-1",          1141,       46.3592,       190.472,            0.,NA,NA,"",   1.41018E+06,   1.40027E+06,   1.40027E+06
C:/temp/Job-1.odb,Step-1,Increment      1: Step Time =    1.000,"P-1-1",          1142,       124.762,       154.322,            0.,NA,NA,"",   1.59751E+06,   1.62342E+06,   1.62342E+06
C:/temp/Job-1.odb,Step-1,Increment      1: Step Time =    1.000,"P-1-1",          1143,       111.381,       155.975,            0.,NA,NA,"",   1.54709E+06,   1.67526E+06,   1.67526E+06
C:/temp/Job-1.odb,Step-1,Increment      1: Step Time =    1.000,"P-1-1",          1144,       148.663,       56.8843,            0.,NA,NA,"",   1.58235E+06,   1.40735E+06,   1.40735E+06
C:/temp/Job-1.odb,Step-1,Increment      1: Step Time =    1.000,"P-1-1",          1145,       80.2250,       160.093,            0.,NA,NA,"",   1.57123E+06,   1.58441E+06,   1.58441E+06
C:/temp/Job-1.odb,Step-1,Increment      1: Step Time =    1.000,"P-1-1",          1146,       122.536,       162.051,            0.,NA,NA,"",   1.43286E+06,   1.47284E+06,   1.47284E+06
C:/temp/Job-1.odb,Step-1,Increment      1: Step Time =    1.000,"P-1-1",          1147,       153.333,       78.4045,            0.,NA,NA,"",   1.15815E+06,   932.459E+03,   932.459E+03
C:/temp/Job-1.odb,Step-1,Increment      1: Step Time =    1.000,"P-1-1",          1148,       139.425,       55.8685,            0.,NA,NA,"",   1.68261E+06,   1.54158E+06,   1.54158E+06
C:/temp/Job-1.odb,Step-1,Increment      1: Step Time =    1.000,"P-1-1",          1149,       26.9376,       128.289,            0.,NA,NA,"",   650.212E+03,   679.623E+03,   679.623E+03
C:/temp/Job-1.odb,Step-1,Increment      1: Step Time =    1.000,"P-1-1",          1150,       75.4198,       23.6680,            0.,NA,NA,"",   1.36107E+06,   1.34578E+06,   1.34578E+06
C:/temp/Job-1.odb,Step-1,Increment      1: Step Time =    1.000,"P-1-1",          1151,       124.525,       172.614,            0.,NA,NA,"",   1.24096E+06,   1.26319E+06,   1.26319E+06
C:/temp/Job-1.odb,Step-1,Increment      1: Step Time =    1.000,"P-1-1",          1152,       175.839,       75.7326,            0.,NA,NA,"",   992.168E+03,   1.03651E+06,   1.03651E+06
C:/temp/Job-1.odb,Step-1,Increment      1: Step Time =    1.000,"P-1-1",          1153,       88.4215,       152.983,            0.,NA,NA,"",   1.69196E+06,   1.78669E+06,   1.78669E+06
C:/temp/Job-1.odb,Step-1,Increment      1: Step Time =    1.000,"P-1-1",          1154,       44.6834,       185.006,            0.,NA,NA,"",   1.42777E+06,   1.40827E+06,   1.40827E+06
C:/temp/Job-1.odb,Step-1,Increment      1: Step Time =    1.000,"P-1-1",          1155,       185.580,       153.044,            0.,NA,NA,"",   1.02669E+06,   1.06782E+06,   1.06782E+06
C:/temp/Job-1.odb,Step-1,Increment      1: Step Time =    1.000,"P-1-1",          1156,       15.2233,       46.9063,            0.,NA,NA,"",   994.759E+03,   1.06027E+06,   1.06027E+06
C:/temp/Job-1.odb,Step-1,Increment      1: Step Time =    1.000,"P-1-1",          1157,       153.099,       14.5163,            0.,NA,NA,"",   1.08081E+06,   1.06677E+06,   1.06677E+06
C:/temp/Job-1.odb,Step-1,Increment      1: Step Time =    1.000,"P-1-1",          1158,       157.021,       123.323,            0.,NA,NA,"",   1.17657E+06,   995.004E+03,   995.004E+03
C:/temp/Job-1.odb,Step-1,Increment      1: Step Time =    1.000,"P-1-1",          1159,       27.7376,       96.4961,            0.,NA,NA,"",   271.079E+03,   312.470E+03,   312.470E+03
C:/temp/Job-1.odb,Step-1,Increment      1: Step Time =    1.000,"P-1-1",          1160,       102.407,       25.6370,            0.,NA,NA,"",   1.17066E+06,   1.23958E+06,   1.23958E+06
C:/temp/Job-1.odb,Step-1,Increment      1: Step Time =    1.000,"P-1-1",          1161,       174.499,       104.460,            0.,NA,NA,"",   680.545E+03,   773.994E+03,   773.994E+03
C:/temp/Job-1.odb,Step-1,Increment      1: Step Time =    1.000,"P-1-1",          1162,       93.6221,       173.130,            0.,NA,NA,"",   1.24296E+06,   1.30044E+06,   1.30044E+06
C:/temp/Job-1.odb,Step-1,Increment      1: Step Time =    1.000,"P-1-1",          1163,       82.1917,       45.2463,            0.,NA,NA,"",   1.64954E+06,   1.68522E+06,   1.68522E+06
C:/temp/Job-1.odb,Step-1,Increment      1: Step Time =    1.000,"P-1-1",          1164,       50.0357,       66.0509,            0.,NA,NA,"",   1.09910E+06,   974.065E+03,   974.065E+03
C:/temp/Job-1.odb,Step-1,Increment      1: Step Time =    1.000,"P-1-1",          1165,       160.498,       113.053,            0.,NA,NA,"",   798.819E+03,   724.416E+03,   724.416E+03
C:/temp/Job-1.odb,Step-1,Increment      1: Step Time =    1.000,"P-1-1",          1166,       179.662,       45.4268,            0.,NA,NA,"",   1.09468E+06,   1.10738E+06,   1.10738E+06
C:/temp/Job-1.odb,Step-1,Increment      1: Step Time =    1.000,"P-1-1",          1167,       154.791,       180.254,            0.,NA,NA,"",   1.12901E+06,   1.10768E+06,   1.10768E+06
C:/temp/Job-1.odb,Step-1,Increment      1: Step Time =    1.000,"P-1-1",          1168,       43.0515,       13.6321,            0.,NA,NA,"",   1.43121E+06,   1.41517E+06,   1.41517E+06
C:/temp/Job-1.odb,Step-1,Increment      1: Step Time =    1.000,"P-1-1",          1169,       18.1273,       156.011,            0.,NA,NA,"",   1.06637E+06,   1.12010E+06,   1.12010E+06
C:/temp/Job-1.odb,Step-1,Increment      1: Step Time =    1.000,"P-1-1",          1170,       119.042,       44.6312,            0.,NA,NA,"",   1.56834E+06,   1.64962E+06,   1.64962E+06
C:/temp/Job-1.odb,Step-1,Increment      1: Step Time =    1.000,"P-1-1",          1171,       168.999,       101.023,            0.,NA,NA,"",   583.855E+03,   655.037E+03,   655.037E+03
C:/temp/Job-1.odb,Step-1,Increment      1: Step Time =    1.000,"P-1-1",          1172,       98.7946,       170.975,            0.,NA,NA,"",   1.24528E+06,   1.32383E+06,   1.32383E+06
C:/temp/Job-1.odb,Step-1,Increment      1: Step Time =    1.000,"P-1-1",          1173,       30.7403,       99.0806,            0.,NA,NA,"",   241.137E+03,   277.868E+03,   277.868E+03
C:/temp/Job-1.odb,Step-1,Increment      1: Step Time =    1.000,"P-1-1",          1174,       97.5873,       28.7307,            0.,NA,NA,"",   1.24450E+06,   1.32019E+06,   1.32019E+06
C:/temp/Job-1.odb,Step-1,Increment      1: Step Time =    1.000,"P-1-1",          1175,       100.704,       161.393,            0.,NA,NA,"",   1.41188E+06,   1.53488E+06,   1.53488E+06
C:/temp/Job-1.odb,Step-1,Increment      1: Step Time =    1.000,"P-1-1",          1176,       120.565,       49.0486,            0.,NA,NA,"",   1.68662E+06,   1.75885E+06,   1.75885E+06
C:/temp/Job-1.odb,Step-1,Increment      1: Step Time =    1.000,"P-1-1",          1177,       103.897,       39.9516,            0.,NA,NA,"",   1.43163E+06,   1.55937E+06,   1.55937E+06
C:/temp/Job-1.odb,Step-1,Increment      1: Step Time =    1.000,"P-1-1",          1178,       43.0913,       132.270,            0.,NA,NA,"",   939.415E+03,   861.516E+03,   861.516E+03
C:/temp/Job-1.odb,Step-1,Increment      1: Step Time =    1.000,"P-1-1",          1179,       45.5387,       139.610,            0.,NA,NA,"",   1.15489E+06,   1.06118E+06,   1.06118E+06
C:/temp/Job-1.odb,Step-1,Increment      1: Step Time =    1.000,"P-1-1",          1180,       150.544,       11.6597,            0.,NA,NA,"",   1.04411E+06,   1.03468E+06,   1.03468E+06
C:/temp/Job-1.odb,Step-1,Increment      1: Step Time =    1.000,"P-1-1",          1181,       188.394,       150.511,            0.,NA,NA,"",   989.574E+03,   1.04862E+06,   1.04862E+06
C:/temp/Job-1.odb,Step-1,Increment      1: Step Time =    1.000,"P-1-1",          1182,       47.7934,       186.396,            0.,NA,NA,"",   1.41231E+06,   1.39393E+06,   1.39393E+06
C:/temp/Job-1.odb,Step-1,Increment      1: Step Time =    1.000,"P-1-1",          1183,       123.436,       42.6689,            0.,NA,NA,"",   1.53414E+06,   1.57530E+06,   1.57530E+06
C:/temp/Job-1.odb,Step-1,Increment      1: Step Time =    1.000,"P-1-1",          1184,       124.229,       25.2452,            0.,NA,NA,"",   1.19912E+06,   1.21949E+06,   1.21949E+06
C:/temp/Job-1.odb,Step-1,Increment      1: Step Time =    1.000,"P-1-1",          1185,       73.0940,       174.409,            0.,NA,NA,"",   1.40473E+06,   1.38183E+06,   1.38183E+06
C:/temp/Job-1.odb,Step-1,Increment      1: Step Time =    1.000,"P-1-1",          1186,       25.5862,       73.5790,            0.,NA,NA,"",   613.648E+03,   649.576E+03,   649.576E+03
C:/temp/Job-1.odb,Step-1,Increment      1: Step Time =    1.000,"P-1-1",          1187,       174.112,       124.501,            0.,NA,NA,"",   1.01235E+06,   1.03784E+06,   1.03784E+06
C:/temp/Job-1.odb,Step-1,Increment      1: Step Time =    1.000,"P-1-1",          1188,       106.691,       36.5733,            0.,NA,NA,"",   1.34522E+06,   1.45701E+06,   1.45701E+06
C:/temp/Job-1.odb,Step-1,Increment      1: Step Time =    1.000,"P-1-1",          1189,       21.4892,       17.6737,            0.,NA,NA,"",   1.47141E+06,   1.49235E+06,   1.49235E+06
C:/temp/Job-1.odb,Step-1,Increment      1: Step Time =    1.000,"P-1-1",          1190,       178.202,       19.1665,            0.,NA,NA,"",   1.04056E+06,   1.04073E+06,   1.04073E+06
C:/temp/Job-1.odb,Step-1,Increment      1: Step Time =    1.000,"P-1-1",          1191,       180.994,       177.535,            0.,NA,NA,"",   1.03702E+06,   1.04042E+06,   1.04042E+06
C:/temp/Job-1.odb,Step-1,Increment      1: Step Time =    1.000,"P-1-1",          1192,       55.7382,       59.1179,            0.,NA,NA,"",   1.37041E+06,   1.23107E+06,   1.23107E+06
C:/temp/Job-1.odb,Step-1,Increment      1: Step Time =    1.000,"P-1-1",          1193,       70.9746,       43.8630,            0.,NA,NA,"",   1.63359E+06,   1.58005E+06,   1.58005E+06
C:/temp/Job-1.odb,Step-1,Increment      1: Step Time =    1.000,"P-1-1",          1194,       129.060,       44.4624,            0.,NA,NA,"",   1.58057E+06,   1.56922E+06,   1.56922E+06
C:/temp/Job-1.odb,Step-1,Increment      1: Step Time =    1.000,"P-1-1",          1195,       39.6410,       101.587,            0.,NA,NA,"",   168.878E+03,   188.753E+03,   188.753E+03
C:/temp/Job-1.odb,Step-1,Increment      1: Step Time =    1.000,"P-1-1",          1196,       34.1778,       109.396,            0.,NA,NA,"",   301.428E+03,   328.716E+03,   328.716E+03
C:/temp/Job-1.odb,Step-1,Increment      1: Step Time =    1.000,"P-1-1",          1197,       153.201,       64.5830,            0.,NA,NA,"",   1.47903E+06,   1.28166E+06,   1.28166E+06
C:/temp/Job-1.odb,Step-1,Increment      1: Step Time =    1.000,"P-1-1",          1198,       54.4394,       26.7728,            0.,NA,NA,"",   1.45914E+06,   1.40675E+06,   1.40675E+06
C:/temp/Job-1.odb,Step-1,Increment      1: Step Time =    1.000,"P-1-1",          1199,       23.9069,       55.7103,            0.,NA,NA,"",   940.294E+03,   968.729E+03,   968.729E+03
C:/temp/Job-1.odb,Step-1,Increment      1: Step Time =    1.000,"P-1-1",          1200,       26.1363,       147.057,            0.,NA,NA,"",   1.01092E+06,   1.02774E+06,   1.02774E+06
C:/temp/Job-1.odb,Step-1,Increment      1: Step Time =    1.000,"P-1-1",          1201,       146.369,       26.1693,            0.,NA,NA,"",   1.24273E+06,   1.20625E+06,   1.20625E+06
C:/temp/Job-1.odb,Step-1,Increment      1: Step Time =    1.000,"P-1-1",          1202,       143.808,       174.322,            0.,NA,NA,"",   1.23858E+06,   1.20643E+06,   1.20643E+06
C:/temp/Job-1.odb,Step-1,Increment      1: Step Time =    1.000,"P-1-1",          1203,       174.336,       146.227,            0.,NA,NA,"",   1.17370E+06,   1.16085E+06,   1.16085E+06
C:/temp/Job-1.odb,Step-1,Increment      1: Step Time =    1.000,"P-1-1",          1204,       173.695,       57.3469,            0.,NA,NA,"",   1.18204E+06,   1.16418E+06,   1.16418E+06
C:/temp/Job-1.odb,Step-1,Increment      1: Step Time =    1.000,"P-1-1",          1205,       52.2517,       174.630,            0.,NA,NA,"",   1.45055E+06,   1.40271E+06,   1.40271E+06
C:/temp/Job-1.odb,Step-1,Increment      1: Step Time =    1.000,"P-1-1",          1206,       10.7226,       14.9458,            0.,NA,NA,"",   1.48090E+06,   1.55556E+06,   1.55556E+06
C:/temp/Job-1.odb,Step-1,Increment      1: Step Time =    1.000,"P-1-1",          1207,       185.226,       10.6593,            0.,NA,NA,"",   1.00697E+06,   1.00879E+06,   1.00879E+06
C:/temp/Job-1.odb,Step-1,Increment      1: Step Time =    1.000,"P-1-1",          1208,       15.2210,       189.665,            0.,NA,NA,"",   1.58982E+06,   1.61457E+06,   1.61457E+06
C:/temp/Job-1.odb,Step-1,Increment      1: Step Time =    1.000,"P-1-1",          1209,       189.203,       185.038,            0.,NA,NA,"",   1.00597E+06,   1.00903E+06,   1.00903E+06
C:/temp/Job-1.odb,Step-1,Increment      1: Step Time =    1.000,"P-1-1",          1210,       26.8476,       25.4655,            0.,NA,NA,"",   1.38915E+06,   1.39802E+06,   1.39802E+06
C:/temp/Job-1.odb,Step-1,Increment      1: Step Time =    1.000,"P-1-1",          1211,       39.1810,       19.2096,            0.,NA,NA,"",   1.44676E+06,   1.42641E+06,   1.42641E+06
C:/temp/Job-1.odb,Step-1,Increment      1: Step Time =    1.000,"P-1-1",          1212,       175.260,       27.6916,            0.,NA,NA,"",   1.08498E+06,   1.08046E+06,   1.08046E+06
C:/temp/Job-1.odb,Step-1,Increment      1: Step Time =    1.000,"P-1-1",          1213,       26.5158,       169.913,            0.,NA,NA,"",   1.33543E+06,   1.34719E+06,   1.34719E+06
C:/temp/Job-1.odb,Step-1,Increment      1: Step Time =    1.000,"P-1-1",          1214,       23.7489,       159.642,            0.,NA,NA,"",   1.18506E+06,   1.20992E+06,   1.20992E+06
C:/temp/Job-1.odb,Step-1,Increment      1: Step Time =    1.000,"P-1-1",          1215,       172.437,       40.9308,            0.,NA,NA,"",   1.17049E+06,   1.15051E+06,   1.15051E+06
C:/temp/Job-1.odb,Step-1,Increment      1: Step Time =    1.000,"P-1-1",          1216,       159.660,       172.707,            0.,NA,NA,"",   1.19387E+06,   1.16058E+06,   1.16058E+06
C:/temp/Job-1.odb,Step-1,Increment      1: Step Time =    1.000,"P-1-1",          1217,       172.690,       174.839,            0.,NA,NA,"",   1.09223E+06,   1.08367E+06,   1.08367E+06
C:/temp/Job-1.odb,Step-1,Increment      1: Step Time =    1.000,"P-1-1",          1218,       154.500,       58.2430,            0.,NA,NA,"",   1.49145E+06,   1.33089E+06,   1.33089E+06
C:/temp/Job-1.odb,Step-1,Increment      1: Step Time =    1.000,"P-1-1",          1219,       143.134,       54.1358,            0.,NA,NA,"",   1.64112E+06,   1.49222E+06,   1.49222E+06
C:/temp/Job-1.odb,Step-1,Increment      1: Step Time =    1.000,"P-1-1",          1220,       82.8750,       165.454,            0.,NA,NA,"",   1.46542E+06,   1.48965E+06,   1.48965E+06
C:/temp/Job-1.odb,Step-1,Increment      1: Step Time =    1.000,"P-1-1",          1221,       112.966,       163.681,            0.,NA,NA,"",   1.35500E+06,   1.45197E+06,   1.45197E+06
C:/temp/Job-1.odb,Step-1,Increment      1: Step Time =    1.000,"P-1-1",          1222,       153.923,       87.3623,            0.,NA,NA,"",   778.925E+03,   588.093E+03,   588.093E+03
C:/temp/Job-1.odb,Step-1,Increment      1: Step Time =    1.000,"P-1-1",          1223,       160.570,       120.789,            0.,NA,NA,"",   1.05758E+06,   936.938E+03,   936.938E+03
C:/temp/Job-1.odb,Step-1,Increment      1: Step Time =    1.000,"P-1-1",          1224,       140.988,       49.0055,            0.,NA,NA,"",   1.60177E+06,   1.49415E+06,   1.49415E+06
C:/temp/Job-1.odb,Step-1,Increment      1: Step Time =    1.000,"P-1-1",          1225,       29.1028,       129.770,            0.,NA,NA,"",   701.307E+03,   717.792E+03,   717.792E+03
C:/temp/Job-1.odb,Step-1,Increment      1: Step Time =    1.000,"P-1-1",          1226,       70.0654,       27.6412,            0.,NA,NA,"",   1.44588E+06,   1.41258E+06,   1.41258E+06
C:/temp/Job-1.odb,Step-1,Increment      1: Step Time =    1.000,"P-1-1",          1227,       128.794,       171.620,            0.,NA,NA,"",   1.27676E+06,   1.28073E+06,   1.28073E+06
C:/temp/Job-1.odb,Step-1,Increment      1: Step Time =    1.000,"P-1-1",          1228,       170.375,       72.0578,            0.,NA,NA,"",   1.10923E+06,   1.08335E+06,   1.08335E+06
C:/temp/Job-1.odb,Step-1,Increment      1: Step Time =    1.000,"P-1-1",          1229,       36.3720,       100.463,            0.,NA,NA,"",   188.604E+03,   217.169E+03,   217.169E+03
C:/temp/Job-1.odb,Step-1,Increment      1: Step Time =    1.000,"P-1-1",          1230,       102.882,       166.211,            0.,NA,NA,"",   1.30297E+06,   1.40829E+06,   1.40829E+06
C:/temp/Job-1.odb,Step-1,Increment      1: Step Time =    1.000,"P-1-1",          1231,       80.6425,       41.0423,            0.,NA,NA,"",   1.58511E+06,   1.60350E+06,   1.60350E+06
C:/temp/Job-1.odb,Step-1,Increment      1: Step Time =    1.000,"P-1-1",          1232,       110.446,       160.942,            0.,NA,NA,"",   1.40651E+06,   1.52273E+06,   1.52273E+06
C:/temp/Job-1.odb,Step-1,Increment      1: Step Time =    1.000,"P-1-1",          1233,       62.2785,       53.4648,            0.,NA,NA,"",   1.54753E+06,   1.43195E+06,   1.43195E+06
C:/temp/Job-1.odb,Step-1,Increment      1: Step Time =    1.000,"P-1-1",          1234,       171.069,       109.838,            0.,NA,NA,"",    726.57E+03,   789.712E+03,   789.712E+03
C:/temp/Job-1.odb,Step-1,Increment      1: Step Time =    1.000,"P-1-1",          1235,       90.2802,       169.584,            0.,NA,NA,"",   1.33594E+06,   1.39361E+06,   1.39361E+06
C:/temp/Job-1.odb,Step-1,Increment      1: Step Time =    1.000,"P-1-1",          1236,       26.0693,       93.4210,            0.,NA,NA,"",   299.102E+03,   344.829E+03,   344.829E+03
C:/temp/Job-1.odb,Step-1,Increment      1: Step Time =    1.000,"P-1-1",          1237,       108.084,       29.5189,            0.,NA,NA,"",   1.22496E+06,   1.30553E+06,   1.30553E+06
C:/temp/Job-1.odb,Step-1,Increment      1: Step Time =    1.000,"P-1-1",          1238,       144.175,       143.759,            0.,NA,NA,"",   1.63763E+06,   1.47444E+06,   1.47444E+06
C:/temp/Job-1.odb,Step-1,Increment      1: Step Time =    1.000,"P-1-1",          1239,       129.242,       152.275,            0.,NA,NA,"",   1.63627E+06,   1.61702E+06,   1.61702E+06
C:/temp/Job-1.odb,Step-1,Increment      1: Step Time =    1.000,"P-1-1",          1240,       49.5458,       70.3644,            0.,NA,NA,"",   973.748E+03,   846.722E+03,   846.722E+03
C:/temp/Job-1.odb,Step-1,Increment      1: Step Time =    1.000,"P-1-1",          1241,       101.090,       36.8071,            0.,NA,NA,"",   1.36662E+06,   1.48004E+06,   1.48004E+06
C:/temp/Job-1.odb,Step-1,Increment      1: Step Time =    1.000,"P-1-1",          1242,       109.780,       165.029,            0.,NA,NA,"",   1.31493E+06,   1.41728E+06,   1.41728E+06
C:/temp/Job-1.odb,Step-1,Increment      1: Step Time =    1.000,"P-1-1",          1243,       163.589,       88.6224,            0.,NA,NA,"",   726.173E+03,   706.551E+03,   706.551E+03
C:/temp/Job-1.odb,Step-1,Increment      1: Step Time =    1.000,"P-1-1",          1244,       90.2456,       34.1823,            0.,NA,NA,"",   1.39935E+06,   1.46747E+06,   1.46747E+06
C:/temp/Job-1.odb,Step-1,Increment      1: Step Time =    1.000,"P-1-1",          1245,       160.091,       107.149,            0.,NA,NA,"",   571.245E+03,   545.472E+03,   545.472E+03
C:/temp/Job-1.odb,Step-1,Increment      1: Step Time =    1.000,"P-1-1",          1246,       164.202,       118.029,            0.,NA,NA,"",   948.402E+03,   892.437E+03,   892.437E+03
C:/temp/Job-1.odb,Step-1,Increment      1: Step Time =    1.000,"P-1-1",          1247,       45.9222,       65.1118,            0.,NA,NA,"",   1.05538E+06,   958.220E+03,   958.220E+03
C:/temp/Job-1.odb,Step-1,Increment      1: Step Time =    1.000,"P-1-1",          1248,       105.787,       165.280,            0.,NA,NA,"",   1.31094E+06,   1.41917E+06,   1.41917E+06
C:/temp/Job-1.odb,Step-1,Increment      1: Step Time =    1.000,"P-1-1",          1249,       94.2991,       163.844,            0.,NA,NA,"",   1.40192E+06,   1.49471E+06,   1.49471E+06
C:/temp/Job-1.odb,Step-1,Increment      1: Step Time =    1.000,"P-1-1",          1250,       166.887,       122.481,            0.,NA,NA,"",   1.04033E+06,   997.014E+03,   997.014E+03
C:/temp/Job-1.odb,Step-1,Increment      1: Step Time =    1.000,"P-1-1",          1251,       79.2589,       168.488,            0.,NA,NA,"",   1.44681E+06,   1.44782E+06,   1.44782E+06
C:/temp/Job-1.odb,Step-1,Increment      1: Step Time =    1.000,"P-1-1",          1252,       122.355,       168.187,            0.,NA,NA,"",   1.30607E+06,   1.34175E+06,   1.34175E+06
C:/temp/Job-1.odb,Step-1,Increment      1: Step Time =    1.000,"P-1-1",          1253,       168.291,       81.3861,            0.,NA,NA,"",   937.083E+03,   925.818E+03,   925.818E+03
C:/temp/Job-1.odb,Step-1,Increment      1: Step Time =    1.000,"P-1-1",          1254,       33.5053,       75.3927,            0.,NA,NA,"",   631.348E+03,   632.532E+03,   632.532E+03
C:/temp/Job-1.odb,Step-1,Increment      1: Step Time =    1.000,"P-1-1",          1255,       120.691,       35.2587,            0.,NA,NA,"",   1.36381E+06,   1.41720E+06,   1.41720E+06
C:/temp/Job-1.odb,Step-1,Increment      1: Step Time =    1.000,"P-1-1",          1256,       29.8053,       125.386,            0.,NA,NA,"",   619.847E+03,   640.009E+03,   640.009E+03
C:/temp/Job-1.odb,Step-1,Increment      1: Step Time =    1.000,"P-1-1",          1257,       79.3186,       31.8904,            0.,NA,NA,"",   1.44934E+06,   1.45114E+06,   1.45114E+06
C:/temp/Job-1.odb,Step-1,Increment      1: Step Time =    1.000,"P-1-1",          1258,       93.1116,       44.0039,            0.,NA,NA,"",   1.60113E+06,   1.71951E+06,   1.71951E+06
C:/temp/Job-1.odb,Step-1,Increment      1: Step Time =    1.000,"P-1-1",          1259,       150.071,       178.165,            0.,NA,NA,"",   1.16964E+06,   1.14261E+06,   1.14261E+06
C:/temp/Job-1.odb,Step-1,Increment      1: Step Time =    1.000,"P-1-1",          1260,       180.020,       149.749,            0.,NA,NA,"",   1.08988E+06,   1.11094E+06,   1.11094E+06
C:/temp/Job-1.odb,Step-1,Increment      1: Step Time =    1.000,"P-1-1",          1261,       46.4022,       182.495,            0.,NA,NA,"",   1.42732E+06,   1.40052E+06,   1.40052E+06
C:/temp/Job-1.odb,Step-1,Increment      1: Step Time =    1.000,"P-1-1",          1262,       177.528,       50.5485,            0.,NA,NA,"",   1.12754E+06,   1.13286E+06,   1.13286E+06
C:/temp/Job-1.odb,Step-1,Increment      1: Step Time =    1.000,"P-1-1",          1263,       149.790,       20.2087,            0.,NA,NA,"",   1.14803E+06,   1.12420E+06,   1.12420E+06
C:/temp/Job-1.odb,Step-1,Increment      1: Step Time =    1.000,"P-1-1",          1264,       22.3486,       154.481,            0.,NA,NA,"",   1.08784E+06,   1.12161E+06,   1.12161E+06
C:/temp/Job-1.odb,Step-1,Increment      1: Step Time =    1.000,"P-1-1",          1265,       46.9246,       20.4491,            0.,NA,NA,"",   1.43640E+06,   1.40436E+06,   1.40436E+06
C:/temp/Job-1.odb,Step-1,Increment      1: Step Time =    1.000,"P-1-1",          1266,       19.6742,       47.1359,            0.,NA,NA,"",   1.03433E+06,   1.08075E+06,   1.08075E+06
C:/temp/Job-1.odb,Step-1,Increment      1: Step Time =    1.000,"P-1-1",          1267,       39.0747,       164.469,            0.,NA,NA,"",   1.37697E+06,   1.33862E+06,   1.33862E+06
C:/temp/Job-1.odb,Step-1,Increment      1: Step Time =    1.000,"P-1-1",          1268,       170.168,       37.7430,            0.,NA,NA,"",   1.18290E+06,   1.15656E+06,   1.15656E+06
C:/temp/Job-1.odb,Step-1,Increment      1: Step Time =    1.000,"P-1-1",          1269,       165.151,       162.139,            0.,NA,NA,"",   1.24091E+06,   1.19656E+06,   1.19656E+06
C:/temp/Job-1.odb,Step-1,Increment      1: Step Time =    1.000,"P-1-1",          1270,       161.598,       168.047,            0.,NA,NA,"",   1.22481E+06,   1.18455E+06,   1.18455E+06
C:/temp/Job-1.odb,Step-1,Increment      1: Step Time =    1.000,"P-1-1",          1271,       33.0641,       38.2685,            0.,NA,NA,"",   1.30210E+06,   1.28309E+06,   1.28309E+06
C:/temp/Job-1.odb,Step-1,Increment      1: Step Time =    1.000,"P-1-1",          1272,       36.6323,       29.6560,            0.,NA,NA,"",   1.40111E+06,   1.37440E+06,   1.37440E+06
C:/temp/Job-1.odb,Step-1,Increment      1: Step Time =    1.000,"P-1-1",          1273,       163.907,       36.2924,            0.,NA,NA,"",   1.24053E+06,   1.19589E+06,   1.19589E+06
C:/temp/Job-1.odb,Step-1,Increment      1: Step Time =    1.000,"P-1-1",          1274,       34.4503,       162.869,            0.,NA,NA,"",   1.32695E+06,   1.30484E+06,   1.30484E+06
C:/temp/Job-1.odb,Step-1,Increment      1: Step Time =    1.000,"P-1-1",          1275,       153.350,       184.915,            0.,NA,NA,"",   1.08468E+06,   1.06998E+06,   1.06998E+06
C:/temp/Job-1.odb,Step-1,Increment      1: Step Time =    1.000,"P-1-1",          1276,       184.392,       46.6885,            0.,NA,NA,"",   1.04174E+06,   1.07627E+06,   1.07627E+06
C:/temp/Job-1.odb,Step-1,Increment      1: Step Time =    1.000,"P-1-1",          1277,       12.3587,       153.988,            0.,NA,NA,"",   983.487E+03,   1.06032E+06,   1.06032E+06
C:/temp/Job-1.odb,Step-1,Increment      1: Step Time =    1.000,"P-1-1",          1278,       46.5545,       12.8307,            0.,NA,NA,"",   1.41365E+06,   1.39720E+06,   1.39720E+06
C:/temp/Job-1.odb,Step-1,Increment      1: Step Time =    1.000,"P-1-1",          1279,       51.5089,       57.6239,            0.,NA,NA,"",   1.31795E+06,   1.19670E+06,   1.19670E+06
C:/temp/Job-1.odb,Step-1,Increment      1: Step Time =    1.000,"P-1-1",          1280,       58.2313,       51.5705,            0.,NA,NA,"",   1.50741E+06,   1.39071E+06,   1.39071E+06
C:/temp/Job-1.odb,Step-1,Increment      1: Step Time =    1.000,"P-1-1",          1281,       150.928,       24.6435,            0.,NA,NA,"",   1.20431E+06,   1.17071E+06,   1.17071E+06
C:/temp/Job-1.odb,Step-1,Increment      1: Step Time =    1.000,"P-1-1",          1282,       26.8623,       152.983,            0.,NA,NA,"",   1.12305E+06,   1.13437E+06,   1.13437E+06
C:/temp/Job-1.odb,Step-1,Increment      1: Step Time =    1.000,"P-1-1",          1283,       48.6358,       177.869,            0.,NA,NA,"",   1.43478E+06,   1.39791E+06,   1.39791E+06
C:/temp/Job-1.odb,Step-1,Increment      1: Step Time =    1.000,"P-1-1",          1284,       24.1413,       51.4265,            0.,NA,NA,"",   1.01474E+06,   1.04078E+06,   1.04078E+06
C:/temp/Job-1.odb,Step-1,Increment      1: Step Time =    1.000,"P-1-1",          1285,       48.4125,       24.0664,            0.,NA,NA,"",   1.44552E+06,   1.40379E+06,   1.40379E+06
C:/temp/Job-1.odb,Step-1,Increment      1: Step Time =    1.000,"P-1-1",          1286,       172.296,       53.0242,            0.,NA,NA,"",   1.20428E+06,   1.17718E+06,   1.17718E+06
C:/temp/Job-1.odb,Step-1,Increment      1: Step Time =    1.000,"P-1-1",          1287,       175.992,       150.823,            0.,NA,NA,"",   1.14334E+06,   1.14097E+06,   1.14097E+06
C:/temp/Job-1.odb,Step-1,Increment      1: Step Time =    1.000,"P-1-1",          1288,       147.810,       172.955,            0.,NA,NA,"",   1.25118E+06,   1.21236E+06,   1.21236E+06
C:/temp/Job-1.odb,Step-1,Increment      1: Step Time =    1.000,"P-1-1",          1289,       160.588,       162.813,            0.,NA,NA,"",   1.28483E+06,   1.22853E+06,   1.22853E+06
C:/temp/Job-1.odb,Step-1,Increment      1: Step Time =    1.000,"P-1-1",          1290,       37.3676,       160.127,            0.,NA,NA,"",   1.32558E+06,   1.28875E+06,   1.28875E+06
C:/temp/Job-1.odb,Step-1,Increment      1: Step Time =    1.000,"P-1-1",          1291,       162.817,       39.9676,            0.,NA,NA,"",   1.28143E+06,   1.22483E+06,   1.22483E+06
C:/temp/Job-1.odb,Step-1,Increment      1: Step Time =    1.000,"P-1-1",          1292,       37.3864,       37.4910,            0.,NA,NA,"",   1.34959E+06,   1.31368E+06,   1.31368E+06
C:/temp/Job-1.odb,Step-1,Increment      1: Step Time =    1.000,"P-1-1",          1293,       183.525,       149.372,            0.,NA,NA,"",   1.05063E+06,   1.08839E+06,   1.08839E+06
C:/temp/Job-1.odb,Step-1,Increment      1: Step Time =    1.000,"P-1-1",          1294,       48.7649,       182.543,            0.,NA,NA,"",   1.42038E+06,   1.39327E+06,   1.39327E+06
C:/temp/Job-1.odb,Step-1,Increment      1: Step Time =    1.000,"P-1-1",          1295,       149.429,       16.5814,            0.,NA,NA,"",   1.10812E+06,   1.09035E+06,   1.09035E+06
C:/temp/Job-1.odb,Step-1,Increment      1: Step Time =    1.000,"P-1-1",          1296,       14.7339,       50.9679,            0.,NA,NA,"",   932.014E+03,   997.493E+03,   997.493E+03
C:/temp/Job-1.odb,Step-1,Increment      1: Step Time =    1.000,"P-1-1",          1297,       20.1518,       77.8784,            0.,NA,NA,"",   514.605E+03,   568.333E+03,   568.333E+03
C:/temp/Job-1.odb,Step-1,Increment      1: Step Time =    1.000,"P-1-1",          1298,       78.0173,       179.867,            0.,NA,NA,"",   1.29036E+06,   1.28329E+06,   1.28329E+06
C:/temp/Job-1.odb,Step-1,Increment      1: Step Time =    1.000,"P-1-1",          1299,       50.7173,       141.716,            0.,NA,NA,"",   1.29190E+06,   1.17317E+06,   1.17317E+06
C:/temp/Job-1.odb,Step-1,Increment      1: Step Time =    1.000,"P-1-1",          1300,       141.832,       146.799,            0.,NA,NA,"",   1.63778E+06,   1.50060E+06,   1.50060E+06
C:/temp/Job-1.odb,Step-1,Increment      1: Step Time =    1.000,"P-1-1",          1301,       42.1864,       21.8435,            0.,NA,NA,"",   1.44132E+06,   1.41209E+06,   1.41209E+06
C:/temp/Job-1.odb,Step-1,Increment      1: Step Time =    1.000,"P-1-1",          1302,       27.2644,       157.266,            0.,NA,NA,"",   1.18982E+06,   1.19782E+06,   1.19782E+06
C:/temp/Job-1.odb,Step-1,Increment      1: Step Time =    1.000,"P-1-1",          1303,       173.307,       46.6140,            0.,NA,NA,"",   1.17880E+06,   1.15992E+06,   1.15992E+06
C:/temp/Job-1.odb,Step-1,Increment      1: Step Time =    1.000,"P-1-1",          1304,       153.830,       174.221,            0.,NA,NA,"",   1.20998E+06,   1.17459E+06,   1.17459E+06
C:/temp/Job-1.odb,Step-1,Increment      1: Step Time =    1.000,"P-1-1",          1305,       130.920,       29.8590,            0.,NA,NA,"",   1.31167E+06,   1.30560E+06,   1.30560E+06
C:/temp/Job-1.odb,Step-1,Increment      1: Step Time =    1.000,"P-1-1",          1306,       66.5473,       170.198,            0.,NA,NA,"",   1.48297E+06,   1.43555E+06,   1.43555E+06
C:/temp/Job-1.odb,Step-1,Increment      1: Step Time =    1.000,"P-1-1",          1307,       28.5262,       67.9566,            0.,NA,NA,"",   744.894E+03,   762.935E+03,   762.935E+03
C:/temp/Job-1.odb,Step-1,Increment      1: Step Time =    1.000,"P-1-1",          1308,       171.136,       131.314,            0.,NA,NA,"",   1.14150E+06,   1.11629E+06,   1.11629E+06
C:/temp/Job-1.odb,Step-1,Increment      1: Step Time =    1.000,"P-1-1",          1309,       151.022,       141.425,            0.,NA,NA,"",   1.53976E+06,   1.36429E+06,   1.36429E+06
C:/temp/Job-1.odb,Step-1,Increment      1: Step Time =    1.000,"P-1-1",          1310,       65.4774,       46.3736,            0.,NA,NA,"",   1.60297E+06,   1.51584E+06,   1.51584E+06
C:/temp/Job-1.odb,Step-1,Increment      1: Step Time =    1.000,"P-1-1",          1311,       35.4646,       116.129,            0.,NA,NA,"",   451.798E+03,   456.105E+03,   456.105E+03
C:/temp/Job-1.odb,Step-1,Increment      1: Step Time =    1.000,"P-1-1",          1312,       152.523,       54.9756,            0.,NA,NA,"",   1.52269E+06,   1.36862E+06,   1.36862E+06
C:/temp/Job-1.odb,Step-1,Increment      1: Step Time =    1.000,"P-1-1",          1313,       87.7334,       163.156,            0.,NA,NA,"",   1.46481E+06,   1.52522E+06,   1.52522E+06
C:/temp/Job-1.odb,Step-1,Increment      1: Step Time =    1.000,"P-1-1",          1314,       158.666,       79.0317,            0.,NA,NA,"",   1.09708E+06,   948.613E+03,   948.613E+03
C:/temp/Job-1.odb,Step-1,Increment      1: Step Time =    1.000,"P-1-1",          1315,       136.484,       47.1460,            0.,NA,NA,"",   1.60547E+06,   1.53005E+06,   1.53005E+06
C:/temp/Job-1.odb,Step-1,Increment      1: Step Time =    1.000,"P-1-1",          1316,       111.859,       33.9873,            0.,NA,NA,"",   1.30210E+06,   1.38888E+06,   1.38888E+06
C:/temp/Job-1.odb,Step-1,Increment      1: Step Time =    1.000,"P-1-1",          1317,       166.395,       111.307,            0.,NA,NA,"",   738.929E+03,   754.848E+03,   754.848E+03
C:/temp/Job-1.odb,Step-1,Increment      1: Step Time =    1.000,"P-1-1",          1318,       49.7788,       75.2527,            0.,NA,NA,"",   833.143E+03,   696.711E+03,   696.711E+03
C:/temp/Job-1.odb,Step-1,Increment      1: Step Time =    1.000,"P-1-1",          1319,       94.1621,       35.5613,            0.,NA,NA,"",   1.39019E+06,   1.48068E+06,   1.48068E+06
C:/temp/Job-1.odb,Step-1,Increment      1: Step Time =    1.000,"P-1-1",          1320,       159.820,       102.054,            0.,NA,NA,"",   445.200E+03,   448.623E+03,   448.623E+03
C:/temp/Job-1.odb,Step-1,Increment      1: Step Time =    1.000,"P-1-1",          1321,       99.0613,       32.9484,            0.,NA,NA,"",   1.30125E+06,   1.39609E+06,   1.39609E+06
C:/temp/Job-1.odb,Step-1,Increment      1: Step Time =    1.000,"P-1-1",          1322,       45.1176,       69.6260,            0.,NA,NA,"",   931.434E+03,   836.883E+03,   836.883E+03
C:/temp/Job-1.odb,Step-1,Increment      1: Step Time =    1.000,"P-1-1",          1323,       37.3424,       80.9907,            0.,NA,NA,"",   528.116E+03,   515.305E+03,   515.305E+03
C:/temp/Job-1.odb,Step-1,Increment      1: Step Time =    1.000,"P-1-1",          1324,       116.326,       35.5093,            0.,NA,NA,"",   1.35364E+06,   1.43067E+06,   1.43067E+06
C:/temp/Job-1.odb,Step-1,Increment      1: Step Time =    1.000,"P-1-1",          1325,       173.133,       156.392,            0.,NA,NA,"",   1.17031E+06,   1.15259E+06,   1.15259E+06
C:/temp/Job-1.odb,Step-1,Increment      1: Step Time =    1.000,"P-1-1",          1326,       149.192,       184.133,            0.,NA,NA,"",   1.09226E+06,   1.07622E+06,   1.07622E+06
C:/temp/Job-1.odb,Step-1,Increment      1: Step Time =    1.000,"P-1-1",          1327,       44.7913,       174.012,            0.,NA,NA,"",   1.44005E+06,   1.40005E+06,   1.40005E+06
C:/temp/Job-1.odb,Step-1,Increment      1: Step Time =    1.000,"P-1-1",          1328,       183.525,       51.2941,            0.,NA,NA,"",   1.04554E+06,   1.08640E+06,   1.08640E+06
C:/temp/Job-1.odb,Step-1,Increment      1: Step Time =    1.000,"P-1-1",          1329,       156.777,       27.8307,            0.,NA,NA,"",   1.21726E+06,   1.17881E+06,   1.17881E+06
C:/temp/Job-1.odb,Step-1,Increment      1: Step Time =    1.000,"P-1-1",          1330,       16.2132,       152.010,            0.,NA,NA,"",   992.125E+03,   1.05315E+06,   1.05315E+06
C:/temp/Job-1.odb,Step-1,Increment      1: Step Time =    1.000,"P-1-1",          1331,       48.6157,       15.1010,            0.,NA,NA,"",   1.41498E+06,   1.39322E+06,   1.39322E+06
C:/temp/Job-1.odb,Step-1,Increment      1: Step Time =    1.000,"P-1-1",          1332,       24.2661,       47.2287,            0.,NA,NA,"",   1.08308E+06,   1.10771E+06,   1.10771E+06
C:/temp/Job-1.odb,Step-1,Increment      1: Step Time =    1.000,"P-1-1",          1333,       90.2518,       40.1084,            0.,NA,NA,"",   1.51404E+06,   1.60089E+06,   1.60089E+06
C:/temp/Job-1.odb,Step-1,Increment      1: Step Time =    1.000,"P-1-1",          1334,       38.7212,       130.114,            0.,NA,NA,"",   819.453E+03,   775.667E+03,   775.667E+03
C:/temp/Job-1.odb,Step-1,Increment      1: Step Time =    1.000,"P-1-1",          1335,       184.248,       185.879,            0.,NA,NA,"",   1.01314E+06,   1.01567E+06,   1.01567E+06
C:/temp/Job-1.odb,Step-1,Increment      1: Step Time =    1.000,"P-1-1",          1336,       186.231,       15.4693,            0.,NA,NA,"",   1.01017E+06,   1.01391E+06,   1.01391E+06
C:/temp/Job-1.odb,Step-1,Increment      1: Step Time =    1.000,"P-1-1",          1337,       15.8298,       14.1642,            0.,NA,NA,"",   1.52460E+06,   1.56082E+06,   1.56082E+06
C:/temp/Job-1.odb,Step-1,Increment      1: Step Time =    1.000,"P-1-1",          1338,       164.054,       93.0296,            0.,NA,NA,"",   584.960E+03,   604.460E+03,   604.460E+03
C:/temp/Job-1.odb,Step-1,Increment      1: Step Time =    1.000,"P-1-1",          1339,       141.297,       43.1596,            0.,NA,NA,"",   1.51851E+06,   1.43622E+06,   1.43622E+06
C:/temp/Job-1.odb,Step-1,Increment      1: Step Time =    1.000,"P-1-1",          1340,       163.196,       84.2410,            0.,NA,NA,"",   883.157E+03,   827.125E+03,   827.125E+03
C:/temp/Job-1.odb,Step-1,Increment      1: Step Time =    1.000,"P-1-1",          1341,       81.6814,       35.4669,            0.,NA,NA,"",   1.48772E+06,   1.50593E+06,   1.50593E+06
C:/temp/Job-1.odb,Step-1,Increment      1: Step Time =    1.000,"P-1-1",          1342,       89.8043,       165.837,            0.,NA,NA,"",   1.40273E+06,   1.46677E+06,   1.46677E+06
C:/temp/Job-1.odb,Step-1,Increment      1: Step Time =    1.000,"P-1-1",          1343,       37.0769,       122.981,            0.,NA,NA,"",   624.950E+03,   605.172E+03,   605.172E+03
C:/temp/Job-1.odb,Step-1,Increment      1: Step Time =    1.000,"P-1-1",          1344,       74.7235,       34.1287,            0.,NA,NA,"",   1.50946E+06,   1.48985E+06,   1.48985E+06
C:/temp/Job-1.odb,Step-1,Increment      1: Step Time =    1.000,"P-1-1",          1345,       164.999,       75.8296,            0.,NA,NA,"",   1.10698E+06,   1.03017E+06,   1.03017E+06
C:/temp/Job-1.odb,Step-1,Increment      1: Step Time =    1.000,"P-1-1",          1346,       126.161,       163.697,            0.,NA,NA,"",   1.40874E+06,   1.42383E+06,   1.42383E+06
C:/temp/Job-1.odb,Step-1,Increment      1: Step Time =    1.000,"P-1-1",          1347,       131.036,       164.901,            0.,NA,NA,"",   1.39678E+06,   1.38595E+06,   1.38595E+06
C:/temp/Job-1.odb,Step-1,Increment      1: Step Time =    1.000,"P-1-1",          1348,       166.173,       71.6349,            0.,NA,NA,"",   1.17195E+06,   1.09816E+06,   1.09816E+06
C:/temp/Job-1.odb,Step-1,Increment      1: Step Time =    1.000,"P-1-1",          1349,       69.4443,       32.7643,            0.,NA,NA,"",   1.51147E+06,   1.46842E+06,   1.46842E+06
C:/temp/Job-1.odb,Step-1,Increment      1: Step Time =    1.000,"P-1-1",          1350,       32.2482,       131.764,            0.,NA,NA,"",   780.675E+03,   778.372E+03,   778.372E+03
C:/temp/Job-1.odb,Step-1,Increment      1: Step Time =    1.000,"P-1-1",          1351,       43.3961,       144.884,            0.,NA,NA,"",   1.22001E+06,   1.14146E+06,   1.14146E+06
C:/temp/Job-1.odb,Step-1,Increment      1: Step Time =    1.000,"P-1-1",          1352,       35.1363,       71.9284,            0.,NA,NA,"",   735.370E+03,   719.156E+03,   719.156E+03
C:/temp/Job-1.odb,Step-1,Increment      1: Step Time =    1.000,"P-1-1",          1353,       126.154,       36.3534,            0.,NA,NA,"",   1.41534E+06,   1.43369E+06,   1.43369E+06
C:/temp/Job-1.odb,Step-1,Increment      1: Step Time =    1.000,"P-1-1",          1354,       162.913,       124.664,            0.,NA,NA,"",   1.13508E+06,   1.03187E+06,   1.03187E+06
C:/temp/Job-1.odb,Step-1,Increment      1: Step Time =    1.000,"P-1-1",          1355,       74.7160,       162.612,            0.,NA,NA,"",   1.55303E+06,   1.52925E+06,   1.52925E+06
C:/temp/Job-1.odb,Step-1,Increment      1: Step Time =    1.000,"P-1-1",          1356,       78.5613,       37.8475,            0.,NA,NA,"",   1.54497E+06,   1.54583E+06,   1.54583E+06
C:/temp/Job-1.odb,Step-1,Increment      1: Step Time =    1.000,"P-1-1",          1357,       31.4652,       153.193,            0.,NA,NA,"",   1.17656E+06,   1.16408E+06,   1.16408E+06
C:/temp/Job-1.odb,Step-1,Increment      1: Step Time =    1.000,"P-1-1",          1358,       45.2365,       29.4120,            0.,NA,NA,"",   1.44230E+06,   1.39340E+06,   1.39340E+06
C:/temp/Job-1.odb,Step-1,Increment      1: Step Time =    1.000,"P-1-1",          1359,       151.348,       170.948,            0.,NA,NA,"",   1.26434E+06,   1.21932E+06,   1.21932E+06
C:/temp/Job-1.odb,Step-1,Increment      1: Step Time =    1.000,"P-1-1",          1360,       169.859,       49.1810,            0.,NA,NA,"",   1.23212E+06,   1.19305E+06,   1.19305E+06
C:/temp/Job-1.odb,Step-1,Increment      1: Step Time =    1.000,"P-1-1",          1361,       152.197,       29.4115,            0.,NA,NA,"",   1.26310E+06,   1.21730E+06,   1.21730E+06
C:/temp/Job-1.odb,Step-1,Increment      1: Step Time =    1.000,"P-1-1",          1362,       171.888,       151.960,            0.,NA,NA,"",   1.19983E+06,   1.17328E+06,   1.17328E+06
C:/temp/Job-1.odb,Step-1,Increment      1: Step Time =    1.000,"P-1-1",          1363,       28.7735,       51.6837,            0.,NA,NA,"",   1.06500E+06,   1.06805E+06,   1.06805E+06
C:/temp/Job-1.odb,Step-1,Increment      1: Step Time =    1.000,"P-1-1",          1364,       49.3839,       170.765,            0.,NA,NA,"",   1.45750E+06,   1.40328E+06,   1.40328E+06
C:/temp/Job-1.odb,Step-1,Increment      1: Step Time =    1.000,"P-1-1",          1365,       190.818,       15.0109,            0.,NA,NA,"",   1.00340E+06,   1.00647E+06,   1.00647E+06
C:/temp/Job-1.odb,Step-1,Increment      1: Step Time =    1.000,"P-1-1",          1366,       184.771,       190.602,            0.,NA,NA,"",   1.00565E+06,   1.00705E+06,   1.00705E+06
C:/temp/Job-1.odb,Step-1,Increment      1: Step Time =    1.000,"P-1-1",          1367,       15.3581,       9.49309,            0.,NA,NA,"",   1.60089E+06,   1.62192E+06,   1.62192E+06
C:/temp/Job-1.odb,Step-1,Increment      1: Step Time =    1.000,"P-1-1",          1368,       10.1746,       184.812,            0.,NA,NA,"",   1.47023E+06,   1.55019E+06,   1.55019E+06
C:/temp/Job-1.odb,Step-1,Increment      1: Step Time =    1.000,"P-1-1",          1369,       56.8377,       55.2397,            0.,NA,NA,"",   1.45137E+06,   1.32290E+06,   1.32290E+06
C:/temp/Job-1.odb,Step-1,Increment      1: Step Time =    1.000,"P-1-1",          1370,       32.7542,       120.617,            0.,NA,NA,"",   539.048E+03,   550.387E+03,   550.387E+03
C:/temp/Job-1.odb,Step-1,Increment      1: Step Time =    1.000,"P-1-1",          1371,       158.101,       55.6097,            0.,NA,NA,"",   1.42615E+06,   1.30071E+06,   1.30071E+06
C:/temp/Job-1.odb,Step-1,Increment      1: Step Time =    1.000,"P-1-1",          1372,       157.204,       167.669,            0.,NA,NA,"",   1.26449E+06,   1.21558E+06,   1.21558E+06
C:/temp/Job-1.odb,Step-1,Increment      1: Step Time =    1.000,"P-1-1",          1373,       164.841,       42.4268,            0.,NA,NA,"",   1.27381E+06,   1.21921E+06,   1.21921E+06
C:/temp/Job-1.odb,Step-1,Increment      1: Step Time =    1.000,"P-1-1",          1374,       34.8524,       157.709,            0.,NA,NA,"",   1.27921E+06,   1.24926E+06,   1.24926E+06
C:/temp/Job-1.odb,Step-1,Increment      1: Step Time =    1.000,"P-1-1",          1375,       41.0131,       34.7398,            0.,NA,NA,"",   1.39950E+06,   1.35318E+06,   1.35318E+06
C:/temp/Job-1.odb,Step-1,Increment      1: Step Time =    1.000,"P-1-1",          1376,       151.495,       51.4508,            0.,NA,NA,"",   1.51605E+06,   1.37930E+06,   1.37930E+06
C:/temp/Job-1.odb,Step-1,Increment      1: Step Time =    1.000,"P-1-1",          1377,       57.5678,       142.964,            0.,NA,NA,"",   1.42690E+06,   1.29217E+06,   1.29217E+06
C:/temp/Job-1.odb,Step-1,Increment      1: Step Time =    1.000,"P-1-1",          1378,       133.554,       45.8603,            0.,NA,NA,"",   1.59994E+06,   1.54822E+06,   1.54822E+06
C:/temp/Job-1.odb,Step-1,Increment      1: Step Time =    1.000,"P-1-1",          1379,       153.944,       136.477,            0.,NA,NA,"",   1.47460E+06,   1.28756E+06,   1.28756E+06
C:/temp/Job-1.odb,Step-1,Increment      1: Step Time =    1.000,"P-1-1",          1380,       33.0895,       89.7456,            0.,NA,NA,"",   318.447E+03,   349.846E+03,   349.846E+03
C:/temp/Job-1.odb,Step-1,Increment      1: Step Time =    1.000,"P-1-1",          1381,       38.7367,       77.0733,            0.,NA,NA,"",   640.488E+03,   606.628E+03,   606.628E+03
C:/temp/Job-1.odb,Step-1,Increment      1: Step Time =    1.000,"P-1-1",          1382,       122.053,       38.6032,            0.,NA,NA,"",   1.43612E+06,   1.48587E+06,   1.48587E+06
C:/temp/Job-1.odb,Step-1,Increment      1: Step Time =    1.000,"P-1-1",          1383,       174.267,       160.772,            0.,NA,NA,"",   1.14300E+06,   1.13131E+06,   1.13131E+06
C:/temp/Job-1.odb,Step-1,Increment      1: Step Time =    1.000,"P-1-1",          1384,       39.5216,       170.775,            0.,NA,NA,"",   1.41711E+06,   1.38280E+06,   1.38280E+06
C:/temp/Job-1.odb,Step-1,Increment      1: Step Time =    1.000,"P-1-1",          1385,       161.307,       26.4147,            0.,NA,NA,"",   1.17469E+06,   1.14506E+06,   1.14506E+06
C:/temp/Job-1.odb,Step-1,Increment      1: Step Time =    1.000,"P-1-1",          1386,       23.7673,       38.9578,            0.,NA,NA,"",   1.19986E+06,   1.22543E+06,   1.22543E+06
C:/temp/Job-1.odb,Step-1,Increment      1: Step Time =    1.000,"P-1-1",          1387,       35.2405,       135.475,            0.,NA,NA,"",   900.590E+03,   875.967E+03,   875.967E+03
C:/temp/Job-1.odb,Step-1,Increment      1: Step Time =    1.000,"P-1-1",          1388,       159.852,       93.0901,            0.,NA,NA,"",   549.726E+03,   524.567E+03,   524.567E+03
C:/temp/Job-1.odb,Step-1,Increment      1: Step Time =    1.000,"P-1-1",          1389,       164.230,       97.3774,            0.,NA,NA,"",    513.75E+03,   554.277E+03,   554.277E+03
C:/temp/Job-1.odb,Step-1,Increment      1: Step Time =    1.000,"P-1-1",          1390,       163.789,       80.0424,            0.,NA,NA,"",   1.01137E+06,   938.878E+03,   938.878E+03
C:/temp/Job-1.odb,Step-1,Increment      1: Step Time =    1.000,"P-1-1",          1391,       112.994,       38.7008,            0.,NA,NA,"",   1.40542E+06,   1.50739E+06,   1.50739E+06
C:/temp/Job-1.odb,Step-1,Increment      1: Step Time =    1.000,"P-1-1",          1392,       38.6500,       143.310,            0.,NA,NA,"",   1.11483E+06,   1.06332E+06,   1.06332E+06
C:/temp/Job-1.odb,Step-1,Increment      1: Step Time =    1.000,"P-1-1",          1393,       130.708,       35.2387,            0.,NA,NA,"",   1.40956E+06,   1.40096E+06,   1.40096E+06
C:/temp/Job-1.odb,Step-1,Increment      1: Step Time =    1.000,"P-1-1",          1394,       164.947,       128.770,            0.,NA,NA,"",   1.19603E+06,   1.10517E+06,   1.10517E+06
C:/temp/Job-1.odb,Step-1,Increment      1: Step Time =    1.000,"P-1-1",          1395,       73.3334,       165.375,            0.,NA,NA,"",   1.52230E+06,   1.49310E+06,   1.49310E+06
C:/temp/Job-1.odb,Step-1,Increment      1: Step Time =    1.000,"P-1-1",          1396,       133.772,       151.079,            0.,NA,NA,"",   1.64602E+06,   1.58428E+06,   1.58428E+06
C:/temp/Job-1.odb,Step-1,Increment      1: Step Time =    1.000,"P-1-1",          1397,       137.186,       43.0373,            0.,NA,NA,"",   1.53794E+06,   1.47254E+06,   1.47254E+06
C:/temp/Job-1.odb,Step-1,Increment      1: Step Time =    1.000,"P-1-1",          1398,       156.394,       89.6044,            0.,NA,NA,"",   674.960E+03,   555.940E+03,   555.940E+03
C:/temp/Job-1.odb,Step-1,Increment      1: Step Time =    1.000,"P-1-1",          1399,       164.511,       101.759,            0.,NA,NA,"",   517.332E+03,   561.002E+03,   561.002E+03
C:/temp/Job-1.odb,Step-1,Increment      1: Step Time =    1.000,"P-1-1",          1400,       44.4944,       74.1867,            0.,NA,NA,"",   799.151E+03,   709.654E+03,   709.654E+03
C:/temp/Job-1.odb,Step-1,Increment      1: Step Time =    1.000,"P-1-1",          1401,       134.879,       161.363,            0.,NA,NA,"",   1.46402E+06,   1.42883E+06,   1.42883E+06
C:/temp/Job-1.odb,Step-1,Increment      1: Step Time =    1.000,"P-1-1",          1402,       63.9694,       36.4487,            0.,NA,NA,"",   1.54708E+06,   1.47840E+06,   1.47840E+06
C:/temp/Job-1.odb,Step-1,Increment      1: Step Time =    1.000,"P-1-1",          1403,       163.858,       65.7722,            0.,NA,NA,"",   1.29186E+06,   1.18798E+06,   1.18798E+06
C:/temp/Job-1.odb,Step-1,Increment      1: Step Time =    1.000,"P-1-1",          1404,       33.9494,       42.9667,            0.,NA,NA,"",   1.25511E+06,   1.23166E+06,   1.23166E+06
C:/temp/Job-1.odb,Step-1,Increment      1: Step Time =    1.000,"P-1-1",          1405,       158.922,       37.1465,            0.,NA,NA,"",   1.29738E+06,   1.23782E+06,   1.23782E+06
C:/temp/Job-1.odb,Step-1,Increment      1: Step Time =    1.000,"P-1-1",          1406,       164.275,       157.655,            0.,NA,NA,"",   1.28073E+06,   1.22346E+06,   1.22346E+06
C:/temp/Job-1.odb,Step-1,Increment      1: Step Time =    1.000,"P-1-1",          1407,       143.050,       150.402,            0.,NA,NA,"",   1.59786E+06,   1.47801E+06,   1.47801E+06
C:/temp/Job-1.odb,Step-1,Increment      1: Step Time =    1.000,"P-1-1",          1408,       163.800,       47.9166,            0.,NA,NA,"",   1.31627E+06,   1.24531E+06,   1.24531E+06
C:/temp/Job-1.odb,Step-1,Increment      1: Step Time =    1.000,"P-1-1",          1409,       46.0164,       33.4784,            0.,NA,NA,"",   1.44318E+06,   1.38471E+06,   1.38471E+06
C:/temp/Job-1.odb,Step-1,Increment      1: Step Time =    1.000,"P-1-1",          1410,       152.904,       165.776,            0.,NA,NA,"",   1.31080E+06,   1.25333E+06,   1.25333E+06
C:/temp/Job-1.odb,Step-1,Increment      1: Step Time =    1.000,"P-1-1",          1411,       36.0104,       153.958,            0.,NA,NA,"",   1.24571E+06,   1.21022E+06,   1.21022E+06
C:/temp/Job-1.odb,Step-1,Increment      1: Step Time =    1.000,"P-1-1",          1412,       48.1749,       79.6594,            0.,NA,NA,"",   661.485E+03,   534.941E+03,   534.941E+03
C:/temp/Job-1.odb,Step-1,Increment      1: Step Time =    1.000,"P-1-1",          1413,       130.614,       156.622,            0.,NA,NA,"",   1.55394E+06,   1.53367E+06,   1.53367E+06
C:/temp/Job-1.odb,Step-1,Increment      1: Step Time =    1.000,"P-1-1",          1414,       138.371,       150.835,            0.,NA,NA,"",   1.62894E+06,   1.53432E+06,   1.53432E+06
C:/temp/Job-1.odb,Step-1,Increment      1: Step Time =    1.000,"P-1-1",          1415,       146.458,       47.5199,            0.,NA,NA,"",   1.53934E+06,   1.42351E+06,   1.42351E+06
C:/temp/Job-1.odb,Step-1,Increment      1: Step Time =    1.000,"P-1-1",          1416,       54.8763,       140.617,            0.,NA,NA,"",   1.34804E+06,   1.21009E+06,   1.21009E+06
C:/temp/Job-1.odb,Step-1,Increment      1: Step Time =    1.000,"P-1-1",          1417,       155.378,       143.673,            0.,NA,NA,"",   1.47198E+06,   1.32798E+06,   1.32798E+06
C:/temp/Job-1.odb,Step-1,Increment      1: Step Time =    1.000,"P-1-1",          1418,       149.186,       132.473,            0.,NA,NA,"",   1.49177E+06,   1.25691E+06,   1.25691E+06
C:/temp/Job-1.odb,Step-1,Increment      1: Step Time =    1.000,"P-1-1",          1419,       37.2475,       87.4617,            0.,NA,NA,"",   365.855E+03,   371.110E+03,   371.110E+03
C:/temp/Job-1.odb,Step-1,Increment      1: Step Time =    1.000,"P-1-1",          1420,       128.832,       161.789,            0.,NA,NA,"",   1.45507E+06,   1.45361E+06,   1.45361E+06
C:/temp/Job-1.odb,Step-1,Increment      1: Step Time =    1.000,"P-1-1",          1421,       141.355,       164.194,            0.,NA,NA,"",   1.40809E+06,   1.35490E+06,   1.35490E+06
C:/temp/Job-1.odb,Step-1,Increment      1: Step Time =    1.000,"P-1-1",          1422,       59.7252,       35.8772,            0.,NA,NA,"",   1.52742E+06,   1.45241E+06,   1.45241E+06
C:/temp/Job-1.odb,Step-1,Increment      1: Step Time =    1.000,"P-1-1",          1423,       68.2895,       37.6288,            0.,NA,NA,"",   1.56688E+06,   1.51047E+06,   1.51047E+06
C:/temp/Job-1.odb,Step-1,Increment      1: Step Time =    1.000,"P-1-1",          1424,       161.477,       70.0380,            0.,NA,NA,"",   1.26734E+06,   1.13885E+06,   1.13885E+06
C:/temp/Job-1.odb,Step-1,Increment      1: Step Time =    1.000,"P-1-1",          1425,       165.593,       60.9792,            0.,NA,NA,"",   1.29692E+06,   1.21290E+06,   1.21290E+06
C:/temp/Job-1.odb,Step-1,Increment      1: Step Time =    1.000,"P-1-1",          1426,       149.127,       154.294,            0.,NA,NA,"",   1.48996E+06,   1.38239E+06,   1.38239E+06
C:/temp/Job-1.odb,Step-1,Increment      1: Step Time =    1.000,"P-1-1",          1427,       140.748,       38.3667,            0.,NA,NA,"",   1.44728E+06,   1.38543E+06,   1.38543E+06
C:/temp/Job-1.odb,Step-1,Increment      1: Step Time =    1.000,"P-1-1",          1428,       160.143,       58.6602,            0.,NA,NA,"",   1.39076E+06,   1.26856E+06,   1.26856E+06
C:/temp/Job-1.odb,Step-1,Increment      1: Step Time =    1.000,"P-1-1",          1429,       159.761,       97.4222,            0.,NA,NA,"",   450.898E+03,   451.910E+03,   451.910E+03
C:/temp/Job-1.odb,Step-1,Increment      1: Step Time =    1.000,"P-1-1",          1430,       33.6265,       142.007,            0.,NA,NA,"",   1.01404E+06,   993.614E+03,   993.614E+03
C:/temp/Job-1.odb,Step-1,Increment      1: Step Time =    1.000,"P-1-1",          1431,       35.6653,       68.3321,            0.,NA,NA,"",   825.966E+03,   800.734E+03,   800.734E+03
C:/temp/Job-1.odb,Step-1,Increment      1: Step Time =    1.000,"P-1-1",          1432,       160.729,       130.584,            0.,NA,NA,"",   1.28950E+06,   1.14914E+06,   1.14914E+06
C:/temp/Job-1.odb,Step-1,Increment      1: Step Time =    1.000,"P-1-1",          1433,       70.7175,       161.743,            0.,NA,NA,"",   1.57391E+06,   1.52772E+06,   1.52772E+06
C:/temp/Job-1.odb,Step-1,Increment      1: Step Time =    1.000,"P-1-1",          1434,       47.1676,       56.1429,            0.,NA,NA,"",   1.26389E+06,   1.16576E+06,   1.16576E+06
C:/temp/Job-1.odb,Step-1,Increment      1: Step Time =    1.000,"P-1-1",          1435,       54.0791,       49.4705,            0.,NA,NA,"",   1.46297E+06,   1.35426E+06,   1.35426E+06
C:/temp/Job-1.odb,Step-1,Increment      1: Step Time =    1.000,"P-1-1",          1436,       47.7386,       146.744,            0.,NA,NA,"",   1.32047E+06,   1.22411E+06,   1.22411E+06
C:/temp/Job-1.odb,Step-1,Increment      1: Step Time =    1.000,"P-1-1",          1437,       66.3847,       165.671,            0.,NA,NA,"",   1.53370E+06,   1.47621E+06,   1.47621E+06
C:/temp/Job-1.odb,Step-1,Increment      1: Step Time =    1.000,"P-1-1",          1438,       161.735,       135.249,            0.,NA,NA,"",   1.33696E+06,   1.21121E+06,   1.21121E+06
C:/temp/Job-1.odb,Step-1,Increment      1: Step Time =    1.000,"P-1-1",          1439,       131.245,       39.2098,            0.,NA,NA,"",   1.48842E+06,   1.47012E+06,   1.47012E+06
C:/temp/Job-1.odb,Step-1,Increment      1: Step Time =    1.000,"P-1-1",          1440,       35.5912,       64.7251,            0.,NA,NA,"",   907.803E+03,   878.698E+03,   878.698E+03
C:/temp/Job-1.odb,Step-1,Increment      1: Step Time =    1.000,"P-1-1",          1441,       157.349,       132.813,            0.,NA,NA,"",   1.38289E+06,   1.20907E+06,   1.20907E+06
C:/temp/Job-1.odb,Step-1,Increment      1: Step Time =    1.000,"P-1-1",          1442,       68.0724,       156.828,            0.,NA,NA,"",   1.61567E+06,   1.54572E+06,   1.54572E+06
C:/temp/Job-1.odb,Step-1,Increment      1: Step Time =    1.000,"P-1-1",          1443,       151.763,       46.2131,            0.,NA,NA,"",   1.46496E+06,   1.35626E+06,   1.35626E+06
C:/temp/Job-1.odb,Step-1,Increment      1: Step Time =    1.000,"P-1-1",          1444,       34.8325,       93.4920,            0.,NA,NA,"",   254.832E+03,   285.364E+03,   285.364E+03
C:/temp/Job-1.odb,Step-1,Increment      1: Step Time =    1.000,"P-1-1",          1445,       39.3534,       91.6824,            0.,NA,NA,"",   272.731E+03,   277.225E+03,   277.225E+03
C:/temp/Job-1.odb,Step-1,Increment      1: Step Time =    1.000,"P-1-1",          1446,       143.599,       156.354,            0.,NA,NA,"",   1.51673E+06,   1.42584E+06,   1.42584E+06
C:/temp/Job-1.odb,Step-1,Increment      1: Step Time =    1.000,"P-1-1",          1447,       43.4276,       78.7572,            0.,NA,NA,"",   649.031E+03,   572.562E+03,   572.562E+03
C:/temp/Job-1.odb,Step-1,Increment      1: Step Time =    1.000,"P-1-1",          1448,       139.536,       159.690,            0.,NA,NA,"",   1.48308E+06,   1.42061E+06,   1.42061E+06
C:/temp/Job-1.odb,Step-1,Increment      1: Step Time =    1.000,"P-1-1",          1449,       59.4831,       39.9039,            0.,NA,NA,"",   1.54150E+06,   1.45696E+06,   1.45696E+06
C:/temp/Job-1.odb,Step-1,Increment      1: Step Time =    1.000,"P-1-1",          1450,       154.153,       153.513,            0.,NA,NA,"",   1.44433E+06,   1.33734E+06,   1.33734E+06
C:/temp/Job-1.odb,Step-1,Increment      1: Step Time =    1.000,"P-1-1",          1451,       162.004,       53.4308,            0.,NA,NA,"",   1.36055E+06,   1.26601E+06,   1.26601E+06
C:/temp/Job-1.odb,Step-1,Increment      1: Step Time =    1.000,"P-1-1",          1452,       48.3190,       51.6770,            0.,NA,NA,"",   1.35067E+06,   1.25331E+06,   1.25331E+06
C:/temp/Job-1.odb,Step-1,Increment      1: Step Time =    1.000,"P-1-1",          1453,       46.3592,       60.6171,            0.,NA,NA,"",   1.16532E+06,   1.06725E+06,   1.06725E+06
C:/temp/Job-1.odb,Step-1,Increment      1: Step Time =    1.000,"P-1-1",          1454,       45.8039,       151.147,            0.,NA,NA,"",   1.34686E+06,   1.26475E+06,   1.26475E+06
C:/temp/Job-1.odb,Step-1,Increment      1: Step Time =    1.000,"P-1-1",          1455,       159.360,       146.066,            0.,NA,NA,"",   1.40208E+06,   1.28983E+06,   1.28983E+06
C:/temp/Job-1.odb,Step-1,Increment      1: Step Time =    1.000,"P-1-1",          1456,       60.0835,       139.269,            0.,NA,NA,"",   1.40756E+06,   1.26114E+06,   1.26114E+06
C:/temp/Job-1.odb,Step-1,Increment      1: Step Time =    1.000,"P-1-1",          1457,       34.6439,       127.622,            0.,NA,NA,"",   709.417E+03,   698.600E+03,   698.600E+03
C:/temp/Job-1.odb,Step-1,Increment      1: Step Time =    1.000,"P-1-1",          1458,       58.0359,       149.172,            0.,NA,NA,"",   1.51070E+06,   1.39468E+06,   1.39468E+06
C:/temp/Job-1.odb,Step-1,Increment      1: Step Time =    1.000,"P-1-1",          1459,       56.1579,       40.2563,            0.,NA,NA,"",   1.51516E+06,   1.42839E+06,   1.42839E+06
C:/temp/Job-1.odb,Step-1,Increment      1: Step Time =    1.000,"P-1-1",          1460,       146.107,       162.281,            0.,NA,NA,"",   1.41329E+06,   1.34299E+06,   1.34299E+06
C:/temp/Job-1.odb,Step-1,Increment      1: Step Time =    1.000,"P-1-1",          1461,       55.9648,       45.8192,            0.,NA,NA,"",   1.50717E+06,   1.40638E+06,   1.40638E+06
C:/temp/Job-1.odb,Step-1,Increment      1: Step Time =    1.000,"P-1-1",          1462,       154.514,       129.283,            0.,NA,NA,"",   1.35926E+06,   1.15153E+06,   1.15153E+06
C:/temp/Job-1.odb,Step-1,Increment      1: Step Time =    1.000,"P-1-1",          1463,       69.6515,       153.677,            0.,NA,NA,"",   1.64350E+06,   1.57517E+06,   1.57517E+06
C:/temp/Job-1.odb,Step-1,Increment      1: Step Time =    1.000,"P-1-1",          1464,       43.9378,       89.4629,            0.,NA,NA,"",   323.488E+03,   273.122E+03,   273.122E+03
C:/temp/Job-1.odb,Step-1,Increment      1: Step Time =    1.000,"P-1-1",          1465,       153.665,       148.515,            0.,NA,NA,"",   1.47687E+06,   1.34798E+06,   1.34798E+06
C:/temp/Job-1.odb,Step-1,Increment      1: Step Time =    1.000,"P-1-1",          1466,       158.279,       46.4496,            0.,NA,NA,"",   1.38931E+06,   1.29611E+06,   1.29611E+06
C:/temp/Job-1.odb,Step-1,Increment      1: Step Time =    1.000,"P-1-1",          1467,       51.5351,       149.596,            0.,NA,NA,"",   1.41441E+06,   1.30961E+06,   1.30961E+06
C:/temp/Job-1.odb,Step-1,Increment      1: Step Time =    1.000,"P-1-1",          1468,       165.210,       139.740,            0.,NA,NA,"",   1.30553E+06,   1.21934E+06,   1.21934E+06
C:/temp/Job-1.odb,Step-1,Increment      1: Step Time =    1.000,"P-1-1",          1469,       62.2030,       164.770,            0.,NA,NA,"",   1.53245E+06,   1.46163E+06,   1.46163E+06
C:/temp/Job-1.odb,Step-1,Increment      1: Step Time =    1.000,"P-1-1",          1470,       35.8029,       97.2998,            0.,NA,NA,"",   206.247E+03,   235.765E+03,   235.765E+03
C:/temp/Job-1.odb,Step-1,Increment      1: Step Time =    1.000,"P-1-1",          1471,       155.140,       158.395,            0.,NA,NA,"",   1.38919E+06,   1.30473E+06,   1.30473E+06
C:/temp/Job-1.odb,Step-1,Increment      1: Step Time =    1.000,"P-1-1",          1472,       163.911,       56.8814,            0.,NA,NA,"",   1.33345E+06,   1.24364E+06,   1.24364E+06
C:/temp/Job-1.odb,Step-1,Increment      1: Step Time =    1.000,"P-1-1",          1473,       41.6566,       59.6674,            0.,NA,NA,"",   1.10071E+06,   1.03141E+06,   1.03141E+06
C:/temp/Job-1.odb,Step-1,Increment      1: Step Time =    1.000,"P-1-1",          1474,       48.9354,       153.086,            0.,NA,NA,"",   1.40795E+06,   1.31712E+06,   1.31712E+06
C:/temp/Job-1.odb,Step-1,Increment      1: Step Time =    1.000,"P-1-1",          1475,       55.0476,       152.874,            0.,NA,NA,"",   1.48921E+06,   1.38482E+06,   1.38482E+06
C:/temp/Job-1.odb,Step-1,Increment      1: Step Time =    1.000,"P-1-1",          1476,       50.1378,       92.2831,            0.,NA,NA,"",   285.885E+03,  -107.399E+03,  -107.399E+03
C:/temp/Job-1.odb,Step-1,Increment      1: Step Time =    1.000,"P-1-1",          1477,       168.176,       143.796,            0.,NA,NA,"",   1.26726E+06,   1.20903E+06,   1.20903E+06
C:/temp/Job-1.odb,Step-1,Increment      1: Step Time =    1.000,"P-1-1",          1478,       166.732,       133.153,            0.,NA,NA,"",   1.23145E+06,   1.15580E+06,   1.15580E+06
C:/temp/Job-1.odb,Step-1,Increment      1: Step Time =    1.000,"P-1-1",          1479,       70.2968,       165.569,            0.,NA,NA,"",   1.52911E+06,   1.48649E+06,   1.48649E+06
C:/temp/Job-1.odb,Step-1,Increment      1: Step Time =    1.000,"P-1-1",          1480,       61.0771,       145.553,            0.,NA,NA,"",   1.52174E+06,   1.39727E+06,   1.39727E+06
C:/temp/Job-1.odb,Step-1,Increment      1: Step Time =    1.000,"P-1-1",          1481,       53.8553,       78.1256,            0.,NA,NA,"",   751.467E+03,   574.606E+03,   574.606E+03
C:/temp/Job-1.odb,Step-1,Increment      1: Step Time =    1.000,"P-1-1",          1482,       67.8306,       151.063,            0.,NA,NA,"",   1.62842E+06,   1.54506E+06,   1.54506E+06
C:/temp/Job-1.odb,Step-1,Increment      1: Step Time =    1.000,"P-1-1",          1483,       73.0183,       153.456,            0.,NA,NA,"",   1.65816E+06,   1.61329E+06,   1.61329E+06
C:/temp/Job-1.odb,Step-1,Increment      1: Step Time =    1.000,"P-1-1",          1484,       62.2671,       158.180,            0.,NA,NA,"",   1.56662E+06,   1.48047E+06,   1.48047E+06
C:/temp/Job-1.odb,Step-1,Increment      1: Step Time =    1.000,"P-1-1",          1485,       36.0226,       61.0619,            0.,NA,NA,"",   988.330E+03,   954.177E+03,   954.177E+03
C:/temp/Job-1.odb,Step-1,Increment      1: Step Time =    1.000,"P-1-1",          1486,       159.344,       152.774,            0.,NA,NA,"",   1.37878E+06,   1.28583E+06,   1.28583E+06
C:/temp/Job-1.odb,Step-1,Increment      1: Step Time =    1.000,"P-1-1",          1487,       59.9023,       48.1013,            0.,NA,NA,"",   1.54473E+06,   1.43919E+06,   1.43919E+06
C:/temp/Job-1.odb,Step-1,Increment      1: Step Time =    1.000,"P-1-1",          1488,       161.682,       44.5245,            0.,NA,NA,"",   1.32913E+06,   1.25631E+06,   1.25631E+06
C:/temp/Job-1.odb,Step-1,Increment      1: Step Time =    1.000,"P-1-1",          1489,       47.0686,       37.5610,            0.,NA,NA,"",   1.44080E+06,   1.37288E+06,   1.37288E+06
C:/temp/Job-1.odb,Step-1,Increment      1: Step Time =    1.000,"P-1-1",          1490,       155.275,       48.2205,            0.,NA,NA,"",   1.43807E+06,   1.32838E+06,   1.32838E+06
C:/temp/Job-1.odb,Step-1,Increment      1: Step Time =    1.000,"P-1-1",          1491,       151.959,       162.897,            0.,NA,NA,"",   1.35881E+06,   1.29058E+06,   1.29058E+06
C:/temp/Job-1.odb,Step-1,Increment      1: Step Time =    1.000,"P-1-1",          1492,       37.1060,       57.4779,            0.,NA,NA,"",   1.07521E+06,   1.03355E+06,   1.03355E+06
C:/temp/Job-1.odb,Step-1,Increment      1: Step Time =    1.000,"P-1-1",          1493,       152.857,       125.032,            0.,NA,NA,"",   1.28076E+06,   1.04671E+06,   1.04671E+06
C:/temp/Job-1.odb,Step-1,Increment      1: Step Time =    1.000,"P-1-1",          1494,       57.7772,       165.972,            0.,NA,NA,"",   1.50579E+06,   1.43411E+06,   1.43411E+06
C:/temp/Job-1.odb,Step-1,Increment      1: Step Time =    1.000,"P-1-1",          1495,       49.8484,       47.2599,            0.,NA,NA,"",   1.41772E+06,   1.32324E+06,   1.32324E+06
C:/temp/Job-1.odb,Step-1,Increment      1: Step Time =    1.000,"P-1-1",          1496,       45.1285,       45.3552,            0.,NA,NA,"",   1.37161E+06,   1.29657E+06,   1.29657E+06
C:/temp/Job-1.odb,Step-1,Increment      1: Step Time =    1.000,"P-1-1",          1497,       58.5690,       155.822,            0.,NA,NA,"",   1.53589E+06,   1.43831E+06,   1.43831E+06
C:/temp/Job-1.odb,Step-1,Increment      1: Step Time =    1.000,"P-1-1",          1498,       31.7779,       67.8207,            0.,NA,NA,"",   783.610E+03,   781.970E+03,   781.970E+03
C:/temp/Job-1.odb,Step-1,Increment      1: Step Time =    1.000,"P-1-1",          1499,       64.7764,       154.571,            0.,NA,NA,"",   1.59426E+06,   1.50501E+06,   1.50501E+06
C:/temp/Job-1.odb,Step-1,Increment      1: Step Time =    1.000,"P-1-1",          1500,       55.7411,       160.680,            0.,NA,NA,"",   1.50816E+06,   1.42382E+06,   1.42382E+06
C:/temp/Job-1.odb,Step-1,Increment      1: Step Time =    1.000,"P-1-1",          1501,       46.9421,       41.3761,            0.,NA,NA,"",   1.41944E+06,   1.34575E+06,   1.34575E+06
C:/temp/Job-1.odb,Step-1,Increment      1: Step Time =    1.000,"P-1-1",          1502,       38.0827,       53.2119,            0.,NA,NA,"",   1.16396E+06,   1.11664E+06,   1.11664E+06
C:/temp/Job-1.odb,Step-1,Increment      1: Step Time =    1.000,"P-1-1",          1503,       48.0889,       159.319,            0.,NA,NA,"",   1.43090E+06,   1.35547E+06,   1.35547E+06
C:/temp/Job-1.odb,Step-1,Increment      1: Step Time =    1.000,"P-1-1",          1504,       40.3640,       68.2767,            0.,NA,NA,"",   898.397E+03,   839.322E+03,   839.322E+03
C:/temp/Job-1.odb,Step-1,Increment      1: Step Time =    1.000,"P-1-1",          1505,       155.789,       163.370,            0.,NA,NA,"",   1.32149E+06,   1.25843E+06,   1.25843E+06
C:/temp/Job-1.odb,Step-1,Increment      1: Step Time =    1.000,"P-1-1",          1506,       162.765,       149.216,            0.,NA,NA,"",   1.34098E+06,   1.25682E+06,   1.25682E+06
C:/temp/Job-1.odb,Step-1,Increment      1: Step Time =    1.000,"P-1-1",          1507,       165.052,       145.906,            0.,NA,NA,"",   1.31582E+06,   1.23803E+06,   1.23803E+06
C:/temp/Job-1.odb,Step-1,Increment      1: Step Time =    1.000,"P-1-1",          1508,       46.6499,       166.268,            0.,NA,NA,"",   1.44248E+06,   1.38443E+06,   1.38443E+06
C:/temp/Job-1.odb,Step-1,Increment      1: Step Time =    1.000,"P-1-1",          1509,       33.9160,       47.6508,            0.,NA,NA,"",   1.19272E+06,   1.16840E+06,   1.16840E+06
C:/temp/Job-1.odb,Step-1,Increment      1: Step Time =    1.000,"P-1-1",          1510,       167.787,       152.868,            0.,NA,NA,"",   1.25492E+06,   1.20646E+06,   1.20646E+06
C:/temp/Job-1.odb,Step-1,Increment      1: Step Time =    1.000,"P-1-1",          1511,       61.5036,       151.966,            0.,NA,NA,"",   1.56109E+06,   1.45694E+06,   1.45694E+06
C:/temp/Job-1.odb,Step-1,Increment      1: Step Time =    1.000,"P-1-1",          1512,       51.0266,       163.608,            0.,NA,NA,"",   1.47013E+06,   1.39760E+06,   1.39760E+06
C:/temp/Job-1.odb,Step-1,Increment      1: Step Time =    1.000,"P-1-1",          1513,       38.8899,       48.3514,            0.,NA,NA,"",   1.24920E+06,   1.19920E+06,   1.19920E+06
C:/temp/Job-1.odb,Step-1,Increment      1: Step Time =    1.000,"P-1-1",          1514,       149.287,       164.094,            0.,NA,NA,"",   1.36469E+06,   1.29924E+06,   1.29924E+06
C:/temp/Job-1.odb,Step-1,Increment      1: Step Time =    1.000,"P-1-1",          1515,       163.770,       153.342,            0.,NA,NA,"",   1.31041E+06,   1.24111E+06,   1.24111E+06
C:/temp/Job-1.odb,Step-1,Increment      1: Step Time =    1.000,"P-1-1",          1516,       33.4182,       52.2278,            0.,NA,NA,"",   1.11521E+06,   1.09373E+06,   1.09373E+06
C:/temp/Job-1.odb,Step-1,Increment      1: Step Time =    1.000,"P-1-1",          1517,       143.629,       32.6087,            0.,NA,NA,"",   1.34811E+06,   1.29796E+06,   1.29796E+06
C:/temp/Job-1.odb,Step-1,Increment      1: Step Time =    1.000,"P-1-1",          1518,       155.670,       92.8496,            0.,NA,NA,"",   547.358E+03,   450.326E+03,   450.326E+03
C:/temp/Job-1.odb,Step-1,Increment      1: Step Time =    1.000,"P-1-1",          1519,       153.390,       34.2268,            0.,NA,NA,"",   1.31701E+06,   1.25715E+06,   1.25715E+06
C:/temp/Job-1.odb,Step-1,Increment      1: Step Time =    1.000,"P-1-1",          1520,       37.1454,       148.895,            0.,NA,NA,"",   1.18984E+06,   1.14703E+06,   1.14703E+06
C:/temp/Job-1.odb,Step-1,Increment      1: Step Time =    1.000,"P-1-1",          1521,       63.8905,       141.721,            0.,NA,NA,"",   1.51119E+06,   1.38270E+06,   1.38270E+06
C:/temp/Job-1.odb,Step-1,Increment      1: Step Time =    1.000,"P-1-1",          1522,       32.1915,       60.4132,            0.,NA,NA,"",   951.299E+03,   938.989E+03,   938.989E+03
C:/temp/Job-1.odb,Step-1,Increment      1: Step Time =    1.000,"P-1-1",          1523,       55.0186,       91.5029,            0.,NA,NA,"",   379.632E+03,  -334.621E+03,  -334.621E+03
C:/temp/Job-1.odb,Step-1,Increment      1: Step Time =    1.000,"P-1-1",          1524,       45.5758,       93.5996,            0.,NA,NA,"",   219.283E+03,   102.672E+03,   102.672E+03
C:/temp/Job-1.odb,Step-1,Increment      1: Step Time =    1.000,"P-1-1",          1525,       47.1948,       96.5522,            0.,NA,NA,"",   159.487E+03,  -32.8309E+03,  -32.8309E+03
C:/temp/Job-1.odb,Step-1,Increment      1: Step Time =    1.000,"P-1-1",          1526,       25.2829,       8.81780,            0.,NA,NA,"",   1.53439E+06,   1.53651E+06,   1.53651E+06
C:/temp/Job-1.odb,Step-1,Increment      1: Step Time =    1.000,"P-1-1",          1527,       9.82041,       174.222,            0.,NA,NA,"",   1.25218E+06,   1.34750E+06,   1.34750E+06
C:/temp/Job-1.odb,Step-1,Increment      1: Step Time =    1.000,"P-1-1",          1528,       191.393,       29.1710,            0.,NA,NA,"",   998.552E+03,   1.01530E+06,   1.01530E+06
C:/temp/Job-1.odb,Step-1,Increment      1: Step Time =    1.000,"P-1-1",          1529,       170.404,       191.202,            0.,NA,NA,"",   1.02117E+06,   1.01911E+06,   1.01911E+06
C:/temp/Job-1.odb,Step-1,Increment      1: Step Time =    1.000,"P-1-1",          1530,       63.8910,       65.0146,            0.,NA,NA,"",   1.33389E+06,   1.19093E+06,   1.19093E+06
C:/temp/Job-1.odb,Step-1,Increment      1: Step Time =    1.000,"P-1-1",          1531,       133.897,       64.1844,            0.,NA,NA,"",   1.69919E+06,   1.56176E+06,   1.56176E+06
C:/temp/Job-1.odb,Step-1,Increment      1: Step Time =    1.000,"P-1-1",          1532,       154.575,       38.8964,            0.,NA,NA,"",   1.35874E+06,   1.28493E+06,   1.28493E+06
C:/temp/Job-1.odb,Step-1,Increment      1: Step Time =    1.000,"P-1-1",          1533,       166.782,       149.014,            0.,NA,NA,"",   1.28434E+06,   1.22315E+06,   1.22315E+06
C:/temp/Job-1.odb,Step-1,Increment      1: Step Time =    1.000,"P-1-1",          1534,       144.811,       37.2718,            0.,NA,NA,"",   1.41161E+06,   1.34492E+06,   1.34492E+06
C:/temp/Job-1.odb,Step-1,Increment      1: Step Time =    1.000,"P-1-1",          1535,       147.900,       120.886,            0.,NA,NA,"",   1.18352E+06,   878.572E+03,   878.572E+03
C:/temp/Job-1.odb,Step-1,Increment      1: Step Time =    1.000,"P-1-1",          1536,       188.603,       55.8846,            0.,NA,NA,"",   974.541E+03,   1.05342E+06,   1.05342E+06
C:/temp/Job-1.odb,Step-1,Increment      1: Step Time =    1.000,"P-1-1",          1537,       58.0321,       12.8472,            0.,NA,NA,"",   1.34621E+06,   1.32754E+06,   1.32754E+06
C:/temp/Job-1.odb,Step-1,Increment      1: Step Time =    1.000,"P-1-1",          1538,       144.738,       189.081,            0.,NA,NA,"",   1.02530E+06,   1.01655E+06,   1.01655E+06
C:/temp/Job-1.odb,Step-1,Increment      1: Step Time =    1.000,"P-1-1",          1539,       11.6101,       143.583,            0.,NA,NA,"",   821.704E+03,   894.630E+03,   894.630E+03
C:/temp/Job-1.odb,Step-1,Increment      1: Step Time =    1.000,"P-1-1",          1540,       134.767,       31.9767,            0.,NA,NA,"",   1.35308E+06,   1.32772E+06,   1.32772E+06
C:/temp/Job-1.odb,Step-1,Increment      1: Step Time =    1.000,"P-1-1",          1541,       55.1028,       96.4981,            0.,NA,NA,"",   352.840E+03,  -358.685E+03,  -358.685E+03
C:/temp/Job-1.odb,Step-1,Increment      1: Step Time =    1.000,"P-1-1",          1542,       149.037,       35.8563,            0.,NA,NA,"",   1.36794E+06,   1.30196E+06,   1.30196E+06
C:/temp/Job-1.odb,Step-1,Increment      1: Step Time =    1.000,"P-1-1",          1543,       47.7983,       9.70063,            0.,NA,NA,"",   1.39722E+06,   1.38638E+06,   1.38638E+06
C:/temp/Job-1.odb,Step-1,Increment      1: Step Time =    1.000,"P-1-1",          1544,       7.68556,       151.733,            0.,NA,NA,"",   909.420E+03,   1.00051E+06,   1.00051E+06
C:/temp/Job-1.odb,Step-1,Increment      1: Step Time =    1.000,"P-1-1",          1545,       189.481,       47.8155,            0.,NA,NA,"",   986.234E+03,   1.04363E+06,   1.04363E+06
C:/temp/Job-1.odb,Step-1,Increment      1: Step Time =    1.000,"P-1-1",          1546,       152.267,       189.876,            0.,NA,NA,"",   1.03186E+06,   1.02394E+06,   1.02394E+06
C:/temp/Job-1.odb,Step-1,Increment      1: Step Time =    1.000,"P-1-1",          1547,       86.2936,       43.2195,            0.,NA,NA,"",   1.59999E+06,   1.66572E+06,   1.66572E+06
C:/temp/Job-1.odb,Step-1,Increment      1: Step Time =    1.000,"P-1-1",          1548,       150.195,       40.8709,            0.,NA,NA,"",   1.42224E+06,   1.33691E+06,   1.33691E+06
C:/temp/Job-1.odb,Step-1,Increment      1: Step Time =    1.000,"P-1-1",          1549,       139.515,       34.1730,            0.,NA,NA,"",   1.38472E+06,   1.33946E+06,   1.33946E+06
C:/temp/Job-1.odb,Step-1,Increment      1: Step Time =    1.000,"P-1-1",          1550,       5.06987,       4.99756,            0.,NA,NA,"",   1.82166E+06,   1.89285E+06,   1.89285E+06
C:/temp/Job-1.odb,Step-1,Increment      1: Step Time =    1.000,"P-1-1",          1551,       43.6265,       9.01894,            0.,NA,NA,"",   1.42373E+06,   1.41578E+06,   1.41578E+06
C:/temp/Job-1.odb,Step-1,Increment      1: Step Time =    1.000,"P-1-1",          1552,       9.97583,       25.9552,            0.,NA,NA,"",   1.25097E+06,   1.34608E+06,   1.34608E+06
C:/temp/Job-1.odb,Step-1,Increment      1: Step Time =    1.000,"P-1-1",          1553,       149.486,       8.42617,            0.,NA,NA,"",   1.00854E+06,   1.00287E+06,   1.00287E+06
C:/temp/Job-1.odb,Step-1,Increment      1: Step Time =    1.000,"P-1-1",          1554,       191.595,       149.465,            0.,NA,NA,"",   956.812E+03,   1.02996E+06,   1.02996E+06
C:/temp/Job-1.odb,Step-1,Increment      1: Step Time =    1.000,"P-1-1",          1555,       51.0132,       191.076,            0.,NA,NA,"",   1.37529E+06,   1.36571E+06,   1.36571E+06
C:/temp/Job-1.odb,Step-1,Increment      1: Step Time =    1.000,"P-1-1",          1556,       191.287,       19.7679,            0.,NA,NA,"",   1.00307E+06,   1.00892E+06,   1.00892E+06
C:/temp/Job-1.odb,Step-1,Increment      1: Step Time =    1.000,"P-1-1",          1557,       179.911,       190.998,            0.,NA,NA,"",   1.01032E+06,   1.01091E+06,   1.01091E+06
C:/temp/Job-1.odb,Step-1,Increment      1: Step Time =    1.000,"P-1-1",          1558,       60.6164,       129.100,            0.,NA,NA,"",   1.05807E+06,   884.030E+03,   884.030E+03
C:/temp/Job-1.odb,Step-1,Increment      1: Step Time =    1.000,"P-1-1",          1559,       109.145,       146.993,            0.,NA,NA,"",   1.96992E+06,   2.13161E+06,   2.13161E+06
C:/temp/Job-1.odb,Step-1,Increment      1: Step Time =    1.000,"P-1-1",          1560,       114.713,       142.217,            0.,NA,NA,"",   2.12168E+06,   2.25112E+06,   2.25112E+06
C:/temp/Job-1.odb,Step-1,Increment      1: Step Time =    1.000,"P-1-1",          1561,       103.371,       147.691,            0.,NA,NA,"",   1.98343E+06,   2.15468E+06,   2.15468E+06
C:/temp/Job-1.odb,Step-1,Increment      1: Step Time =    1.000,"P-1-1",          1562,       91.8312,       143.625,            0.,NA,NA,"",   2.17682E+06,   2.30772E+06,   2.30772E+06
C:/temp/Job-1.odb,Step-1,Increment      1: Step Time =    1.000,"P-1-1",          1563,       8.37904,       155.232,            0.,NA,NA,"",   962.843E+03,   1.05490E+06,   1.05490E+06
C:/temp/Job-1.odb,Step-1,Increment      1: Step Time =    1.000,"P-1-1",          1564,       39.4611,       183.402,            0.,NA,NA,"",   1.44466E+06,   1.42822E+06,   1.42822E+06
C:/temp/Job-1.odb,Step-1,Increment      1: Step Time =    1.000,"P-1-1",          1565,       52.9044,       83.3424,            0.,NA,NA,"",   558.186E+03,   218.316E+03,   218.316E+03
C:/temp/Job-1.odb,Step-1,Increment      1: Step Time =    1.000,"P-1-1",          1566,       133.346,       70.0136,            0.,NA,NA,"",   1.48685E+06,   1.33548E+06,   1.33548E+06
C:/temp/Job-1.odb,Step-1,Increment      1: Step Time =    1.000,"P-1-1",          1567,       56.7009,       20.1011,            0.,NA,NA,"",   1.41178E+06,   1.37594E+06,   1.37594E+06
C:/temp/Job-1.odb,Step-1,Increment      1: Step Time =    1.000,"P-1-1",          1568,       67.5748,       14.5519,            0.,NA,NA,"",   1.29337E+06,   1.27521E+06,   1.27521E+06
C:/temp/Job-1.odb,Step-1,Increment      1: Step Time =    1.000,"P-1-1",          1569,       181.756,       154.490,            0.,NA,NA,"",   1.07020E+06,   1.09190E+06,   1.09190E+06
C:/temp/Job-1.odb,Step-1,Increment      1: Step Time =    1.000,"P-1-1",          1570,       154.586,       18.5021,            0.,NA,NA,"",   1.12191E+06,   1.10163E+06,   1.10163E+06
C:/temp/Job-1.odb,Step-1,Increment      1: Step Time =    1.000,"P-1-1",          1571,       13.9341,       31.1892,            0.,NA,NA,"",   1.21344E+06,   1.28755E+06,   1.28755E+06
C:/temp/Job-1.odb,Step-1,Increment      1: Step Time =    1.000,"P-1-1",          1572,       14.0460,       35.3244,            0.,NA,NA,"",   1.15273E+06,   1.22617E+06,   1.22617E+06
C:/temp/Job-1.odb,Step-1,Increment      1: Step Time =    1.000,"P-1-1",          1573,       98.2108,       150.024,            0.,NA,NA,"",   1.82162E+06,   1.98074E+06,   1.98074E+06
C:/temp/Job-1.odb,Step-1,Increment      1: Step Time =    1.000,"P-1-1",          1574,       103.830,       152.942,            0.,NA,NA,"",   1.68281E+06,   1.84290E+06,   1.84290E+06
C:/temp/Job-1.odb,Step-1,Increment      1: Step Time =    1.000,"P-1-1",          1575,       109.080,       152.786,            0.,NA,NA,"",   1.66665E+06,   1.81529E+06,   1.81529E+06
C:/temp/Job-1.odb,Step-1,Increment      1: Step Time =    1.000,"P-1-1",          1576,       50.7688,       18.2960,            0.,NA,NA,"",   1.42040E+06,   1.39025E+06,   1.39025E+06
C:/temp/Job-1.odb,Step-1,Increment      1: Step Time =    1.000,"P-1-1",          1577,       42.9128,       182.113,            0.,NA,NA,"",   1.43508E+06,   1.41409E+06,   1.41409E+06
C:/temp/Job-1.odb,Step-1,Increment      1: Step Time =    1.000,"P-1-1",          1578,       18.3382,       22.1675,            0.,NA,NA,"",   1.38480E+06,   1.42988E+06,   1.42988E+06
C:/temp/Job-1.odb,Step-1,Increment      1: Step Time =    1.000,"P-1-1",          1579,       183.357,       20.6670,            0.,NA,NA,"",   1.02328E+06,   1.02874E+06,   1.02874E+06
C:/temp/Job-1.odb,Step-1,Increment      1: Step Time =    1.000,"P-1-1",          1580,       178.769,       182.394,            0.,NA,NA,"",   1.03523E+06,   1.03548E+06,   1.03548E+06
C:/temp/Job-1.odb,Step-1,Increment      1: Step Time =    1.000,"P-1-1",          1581,       85.2860,       146.622,            0.,NA,NA,"",   1.84896E+06,   1.92939E+06,   1.92939E+06
C:/temp/Job-1.odb,Step-1,Increment      1: Step Time =    1.000,"P-1-1",          1582,       125.424,       142.714,            0.,NA,NA,"",   1.80992E+06,   1.81577E+06,   1.81577E+06
C:/temp/Job-1.odb,Step-1,Increment      1: Step Time =    1.000,"P-1-1",          1583,       45.4977,       17.1525,            0.,NA,NA,"",   1.43163E+06,   1.40793E+06,   1.40793E+06
C:/temp/Job-1.odb,Step-1,Increment      1: Step Time =    1.000,"P-1-1",          1584,       30.2044,       12.8722,            0.,NA,NA,"",   1.48827E+06,   1.48581E+06,   1.48581E+06
C:/temp/Job-1.odb,Step-1,Increment      1: Step Time =    1.000,"P-1-1",          1585,       96.3774,       47.6229,            0.,NA,NA,"",   1.72317E+06,   1.86911E+06,   1.86911E+06
C:/temp/Job-1.odb,Step-1,Increment      1: Step Time =    1.000,"P-1-1",          1586,       15.9795,       142.229,            0.,NA,NA,"",   829.518E+03,   889.139E+03,   889.139E+03
C:/temp/Job-1.odb,Step-1,Increment      1: Step Time =    1.000,"P-1-1",          1587,       18.1222,       145.990,            0.,NA,NA,"",   911.448E+03,   963.566E+03,   963.566E+03
C:/temp/Job-1.odb,Step-1,Increment      1: Step Time =    1.000,"P-1-1",          1588,       42.9592,       178.700,            0.,NA,NA,"",   1.43652E+06,   1.40944E+06,   1.40944E+06
C:/temp/Job-1.odb,Step-1,Increment      1: Step Time =    1.000,"P-1-1",          1589,       19.1009,       39.2166,            0.,NA,NA,"",   1.14910E+06,   1.19769E+06,   1.19769E+06
C:/temp/Job-1.odb,Step-1,Increment      1: Step Time =    1.000,"P-1-1",          1590,       51.8988,       182.855,            0.,NA,NA,"",   1.41023E+06,   1.38180E+06,   1.38180E+06
C:/temp/Job-1.odb,Step-1,Increment      1: Step Time =    1.000,"P-1-1",          1591,       55.5214,       182.460,            0.,NA,NA,"",   1.39781E+06,   1.36803E+06,   1.36803E+06
C:/temp/Job-1.odb,Step-1,Increment      1: Step Time =    1.000,"P-1-1",          1592,       155.675,       23.0654,            0.,NA,NA,"",   1.16784E+06,   1.13946E+06,   1.13946E+06
C:/temp/Job-1.odb,Step-1,Increment      1: Step Time =    1.000,"P-1-1",          1593,       92.0611,       180.697,            0.,NA,NA,"",   1.14539E+06,   1.17447E+06,   1.17447E+06
C:/temp/Job-1.odb,Step-1,Increment      1: Step Time =    1.000,"P-1-1",          1594,       96.3597,       181.114,            0.,NA,NA,"",   1.10166E+06,   1.13880E+06,   1.13880E+06
C:/temp/Job-1.odb,Step-1,Increment      1: Step Time =    1.000,"P-1-1",          1595,       127.355,       181.256,            0.,NA,NA,"",   1.10451E+06,   1.10920E+06,   1.10920E+06
C:/temp/Job-1.odb,Step-1,Increment      1: Step Time =    1.000,"P-1-1",          1596,       158.039,       181.947,            0.,NA,NA,"",   1.10540E+06,   1.08819E+06,   1.08819E+06
C:/temp/Job-1.odb,Step-1,Increment      1: Step Time =    1.000,"P-1-1",          1597,       97.4595,       153.481,            0.,NA,NA,"",   1.66292E+06,   1.81135E+06,   1.81135E+06
C:/temp/Job-1.odb,Step-1,Increment      1: Step Time =    1.000,"P-1-1",          1598,       59.3151,       64.2409,            0.,NA,NA,"",   1.29967E+06,   1.14086E+06,   1.14086E+06
C:/temp/Job-1.odb,Step-1,Increment      1: Step Time =    1.000,"P-1-1",          1599,       51.7508,       80.3827,            0.,NA,NA,"",   663.305E+03,   497.363E+03,   497.363E+03
C:/temp/Job-1.odb,Step-1,Increment      1: Step Time =    1.000,"P-1-1",          1600,       47.9955,       83.9678,            0.,NA,NA,"",   511.890E+03,   387.119E+03,   387.119E+03
C:/temp/Job-1.odb,Step-1,Increment      1: Step Time =    1.000,"P-1-1",          1601,       180.864,       40.8745,            0.,NA,NA,"",   1.07502E+06,   1.08880E+06,   1.08880E+06
C:/temp/Job-1.odb,Step-1,Increment      1: Step Time =    1.000,"P-1-1",          1602,       177.506,       155.487,            0.,NA,NA,"",   1.11770E+06,   1.12035E+06,   1.12035E+06
C:/temp/Job-1.odb,Step-1,Increment      1: Step Time =    1.000,"P-1-1",          1603,       108.436,       158.123,            0.,NA,NA,"",   1.47975E+06,   1.61160E+06,   1.61160E+06
C:/temp/Job-1.odb,Step-1,Increment      1: Step Time =    1.000,"P-1-1",          1604,       122.829,       149.585,            0.,NA,NA,"",   1.70123E+06,   1.74748E+06,   1.74748E+06
C:/temp/Job-1.odb,Step-1,Increment      1: Step Time =    1.000,"P-1-1",          1605,       63.6843,       61.2698,            0.,NA,NA,"",   1.46450E+06,   1.32795E+06,   1.32795E+06
C:/temp/Job-1.odb,Step-1,Increment      1: Step Time =    1.000,"P-1-1",          1606,       141.348,       65.6924,            0.,NA,NA,"",   1.61647E+06,   1.38908E+06,   1.38908E+06
C:/temp/Job-1.odb,Step-1,Increment      1: Step Time =    1.000,"P-1-1",          1607,       103.224,       158.091,            0.,NA,NA,"",   1.49124E+06,   1.63131E+06,   1.63131E+06
C:/temp/Job-1.odb,Step-1,Increment      1: Step Time =    1.000,"P-1-1",          1608,       17.5556,       179.673,            0.,NA,NA,"",   1.42385E+06,   1.46957E+06,   1.46957E+06
C:/temp/Job-1.odb,Step-1,Increment      1: Step Time =    1.000,"P-1-1",          1609,       174.554,       182.907,            0.,NA,NA,"",   1.04637E+06,   1.04338E+06,   1.04338E+06
C:/temp/Job-1.odb,Step-1,Increment      1: Step Time =    1.000,"P-1-1",          1610,       184.165,       24.3246,            0.,NA,NA,"",   1.02273E+06,   1.03147E+06,   1.03147E+06
C:/temp/Job-1.odb,Step-1,Increment      1: Step Time =    1.000,"P-1-1",          1611,       45.2737,       180.217,            0.,NA,NA,"",   1.43241E+06,   1.40450E+06,   1.40450E+06
C:/temp/Job-1.odb,Step-1,Increment      1: Step Time =    1.000,"P-1-1",          1612,       181.557,       25.2427,            0.,NA,NA,"",   1.03717E+06,   1.04364E+06,   1.04364E+06
C:/temp/Job-1.odb,Step-1,Increment      1: Step Time =    1.000,"P-1-1",          1613,       173.339,       179.050,            0.,NA,NA,"",   1.06669E+06,   1.06154E+06,   1.06154E+06
C:/temp/Job-1.odb,Step-1,Increment      1: Step Time =    1.000,"P-1-1",          1614,       18.7876,       25.0634,            0.,NA,NA,"",   1.34440E+06,   1.38896E+06,   1.38896E+06
C:/temp/Job-1.odb,Step-1,Increment      1: Step Time =    1.000,"P-1-1",          1615,       180.769,       168.754,            0.,NA,NA,"",   1.05800E+06,   1.06463E+06,   1.06463E+06
C:/temp/Job-1.odb,Step-1,Increment      1: Step Time =    1.000,"P-1-1",          1616,       169.058,       19.3903,            0.,NA,NA,"",   1.07946E+06,   1.06986E+06,   1.06986E+06
C:/temp/Job-1.odb,Step-1,Increment      1: Step Time =    1.000,"P-1-1",          1617,       19.2645,       55.6025,            0.,NA,NA,"",   897.545E+03,   945.613E+03,   945.613E+03
C:/temp/Job-1.odb,Step-1,Increment      1: Step Time =    1.000,"P-1-1",          1618,       19.2303,       64.6725,            0.,NA,NA,"",   740.933E+03,   791.682E+03,   791.682E+03
C:/temp/Job-1.odb,Step-1,Increment      1: Step Time =    1.000,"P-1-1",          1619,       97.2102,       159.036,            0.,NA,NA,"",   1.49139E+06,   1.61570E+06,   1.61570E+06
C:/temp/Job-1.odb,Step-1,Increment      1: Step Time =    1.000,"P-1-1",          1620,       103.713,       163.144,            0.,NA,NA,"",   1.36068E+06,   1.47910E+06,   1.47910E+06
C:/temp/Job-1.odb,Step-1,Increment      1: Step Time =    1.000,"P-1-1",          1621,       71.8690,       18.5634,            0.,NA,NA,"",   1.31443E+06,   1.29493E+06,   1.29493E+06
C:/temp/Job-1.odb,Step-1,Increment      1: Step Time =    1.000,"P-1-1",          1622,       38.3589,       16.2814,            0.,NA,NA,"",   1.44958E+06,   1.43485E+06,   1.43485E+06
C:/temp/Job-1.odb,Step-1,Increment      1: Step Time =    1.000,"P-1-1",          1623,       86.3177,       157.380,            0.,NA,NA,"",   1.59056E+06,   1.65784E+06,   1.65784E+06
C:/temp/Job-1.odb,Step-1,Increment      1: Step Time =    1.000,"P-1-1",          1624,       55.1724,       31.5447,            0.,NA,NA,"",   1.48383E+06,   1.41913E+06,   1.41913E+06
C:/temp/Job-1.odb,Step-1,Increment      1: Step Time =    1.000,"P-1-1",          1625,       155.571,       120.546,            0.,NA,NA,"",   1.11291E+06,   916.733E+03,   916.733E+03
C:/temp/Job-1.odb,Step-1,Increment      1: Step Time =    1.000,"P-1-1",          1626,       60.8273,       56.8447,            0.,NA,NA,"",   1.50009E+06,   1.36911E+06,   1.36911E+06
C:/temp/Job-1.odb,Step-1,Increment      1: Step Time =    1.000,"P-1-1",          1627,       19.1394,       91.3010,            0.,NA,NA,"",   343.527E+03,   396.105E+03,   396.105E+03
C:/temp/Job-1.odb,Step-1,Increment      1: Step Time =    1.000,"P-1-1",          1628,       18.7803,       95.3496,            0.,NA,NA,"",   320.034E+03,   368.846E+03,   368.846E+03
C:/temp/Job-1.odb,Step-1,Increment      1: Step Time =    1.000,"P-1-1",          1629,       18.5944,       124.674,            0.,NA,NA,"",   547.994E+03,   604.755E+03,   604.755E+03
C:/temp/Job-1.odb,Step-1,Increment      1: Step Time =    1.000,"P-1-1",          1630,       19.2049,       141.175,            0.,NA,NA,"",   835.142E+03,   885.634E+03,   885.634E+03
C:/temp/Job-1.odb,Step-1,Increment      1: Step Time =    1.000,"P-1-1",          1631,       21.9353,       143.471,            0.,NA,NA,"",   896.320E+03,   935.090E+03,   935.090E+03
C:/temp/Job-1.odb,Step-1,Increment      1: Step Time =    1.000,"P-1-1",          1632,       77.2391,       176.048,            0.,NA,NA,"",   1.35294E+06,   1.34383E+06,   1.34383E+06
C:/temp/Job-1.odb,Step-1,Increment      1: Step Time =    1.000,"P-1-1",          1633,       51.7554,       179.576,            0.,NA,NA,"",   1.42488E+06,   1.38925E+06,   1.38925E+06
C:/temp/Job-1.odb,Step-1,Increment      1: Step Time =    1.000,"P-1-1",          1634,       96.6296,       176.955,            0.,NA,NA,"",   1.16915E+06,   1.22061E+06,   1.22061E+06
C:/temp/Job-1.odb,Step-1,Increment      1: Step Time =    1.000,"P-1-1",          1635,       100.317,       176.125,            0.,NA,NA,"",   1.15377E+06,   1.21531E+06,   1.21531E+06
C:/temp/Job-1.odb,Step-1,Increment      1: Step Time =    1.000,"P-1-1",          1636,       131.693,       177.084,            0.,NA,NA,"",   1.19413E+06,   1.18899E+06,   1.18899E+06
C:/temp/Job-1.odb,Step-1,Increment      1: Step Time =    1.000,"P-1-1",          1637,       135.572,       176.510,            0.,NA,NA,"",   1.20739E+06,   1.19200E+06,   1.19200E+06
C:/temp/Job-1.odb,Step-1,Increment      1: Step Time =    1.000,"P-1-1",          1638,       24.1460,       43.0993,            0.,NA,NA,"",   1.14452E+06,   1.16897E+06,   1.16897E+06
C:/temp/Job-1.odb,Step-1,Increment      1: Step Time =    1.000,"P-1-1",          1639,       45.5958,       126.969,            0.,NA,NA,"",   827.381E+03,   729.911E+03,   729.911E+03
C:/temp/Job-1.odb,Step-1,Increment      1: Step Time =    1.000,"P-1-1",          1640,       177.075,       39.8348,            0.,NA,NA,"",   1.11320E+06,   1.11257E+06,   1.11257E+06
C:/temp/Job-1.odb,Step-1,Increment      1: Step Time =    1.000,"P-1-1",          1641,       177.204,       35.9716,            0.,NA,NA,"",   1.09951E+06,   1.09905E+06,   1.09905E+06
C:/temp/Job-1.odb,Step-1,Increment      1: Step Time =    1.000,"P-1-1",          1642,       107.982,       162.973,            0.,NA,NA,"",   1.35678E+06,   1.46976E+06,   1.46976E+06
C:/temp/Job-1.odb,Step-1,Increment      1: Step Time =    1.000,"P-1-1",          1643,       113.033,       159.547,            0.,NA,NA,"",   1.44521E+06,   1.55507E+06,   1.55507E+06
C:/temp/Job-1.odb,Step-1,Increment      1: Step Time =    1.000,"P-1-1",          1644,       41.1054,       107.845,            0.,NA,NA,"",   257.636E+03,   248.193E+03,   248.193E+03
C:/temp/Job-1.odb,Step-1,Increment      1: Step Time =    1.000,"P-1-1",          1645,       49.7137,       28.1639,            0.,NA,NA,"",   1.45618E+06,   1.40369E+06,   1.40369E+06
C:/temp/Job-1.odb,Step-1,Increment      1: Step Time =    1.000,"P-1-1",          1646,       120.188,       171.545,            0.,NA,NA,"",   1.23715E+06,   1.27599E+06,   1.27599E+06
C:/temp/Job-1.odb,Step-1,Increment      1: Step Time =    1.000,"P-1-1",          1647,       42.8838,       18.5875,            0.,NA,NA,"",   1.43740E+06,   1.41293E+06,   1.41293E+06
C:/temp/Job-1.odb,Step-1,Increment      1: Step Time =    1.000,"P-1-1",          1648,       177.826,       23.8138,            0.,NA,NA,"",   1.05636E+06,   1.05625E+06,   1.05625E+06
C:/temp/Job-1.odb,Step-1,Increment      1: Step Time =    1.000,"P-1-1",          1649,       153.824,       82.2149,            0.,NA,NA,"",   1.02736E+06,   813.867E+03,   813.867E+03
C:/temp/Job-1.odb,Step-1,Increment      1: Step Time =    1.000,"P-1-1",          1650,       105.883,       48.4162,            0.,NA,NA,"",   1.70679E+06,   1.86877E+06,   1.86877E+06
C:/temp/Job-1.odb,Step-1,Increment      1: Step Time =    1.000,"P-1-1",          1651,       88.0522,       173.990,            0.,NA,NA,"",   1.27990E+06,   1.31569E+06,   1.31569E+06
C:/temp/Job-1.odb,Step-1,Increment      1: Step Time =    1.000,"P-1-1",          1652,       53.2689,       73.6630,            0.,NA,NA,"",   921.740E+03,   760.503E+03,   760.503E+03
C:/temp/Job-1.odb,Step-1,Increment      1: Step Time =    1.000,"P-1-1",          1653,       22.4342,       28.4047,            0.,NA,NA,"",   1.32464E+06,   1.35387E+06,   1.35387E+06
C:/temp/Job-1.odb,Step-1,Increment      1: Step Time =    1.000,"P-1-1",          1654,       76.8387,       171.009,            0.,NA,NA,"",   1.43231E+06,   1.42229E+06,   1.42229E+06
C:/temp/Job-1.odb,Step-1,Increment      1: Step Time =    1.000,"P-1-1",          1655,       86.1040,       170.523,            0.,NA,NA,"",   1.36110E+06,   1.39285E+06,   1.39285E+06
C:/temp/Job-1.odb,Step-1,Increment      1: Step Time =    1.000,"P-1-1",          1656,       22.4508,       124.609,            0.,NA,NA,"",   563.347E+03,   611.429E+03,   611.429E+03
C:/temp/Job-1.odb,Step-1,Increment      1: Step Time =    1.000,"P-1-1",          1657,       26.8608,       132.805,            0.,NA,NA,"",   754.766E+03,   777.316E+03,   777.316E+03
C:/temp/Job-1.odb,Step-1,Increment      1: Step Time =    1.000,"P-1-1",          1658,       24.0928,       118.221,            0.,NA,NA,"",   459.347E+03,   508.447E+03,   508.447E+03
C:/temp/Job-1.odb,Step-1,Increment      1: Step Time =    1.000,"P-1-1",          1659,       169.733,       161.472,            0.,NA,NA,"",   1.19188E+06,   1.16325E+06,   1.16325E+06
C:/temp/Job-1.odb,Step-1,Increment      1: Step Time =    1.000,"P-1-1",          1660,       121.245,       174.136,            0.,NA,NA,"",   1.20242E+06,   1.23469E+06,   1.23469E+06
C:/temp/Job-1.odb,Step-1,Increment      1: Step Time =    1.000,"P-1-1",          1661,       131.766,       173.573,            0.,NA,NA,"",   1.25188E+06,   1.24484E+06,   1.24484E+06
C:/temp/Job-1.odb,Step-1,Increment      1: Step Time =    1.000,"P-1-1",          1662,       142.594,       169.237,            0.,NA,NA,"",   1.32178E+06,   1.27927E+06,   1.27927E+06
C:/temp/Job-1.odb,Step-1,Increment      1: Step Time =    1.000,"P-1-1",          1663,       149.774,       167.259,            0.,NA,NA,"",   1.32089E+06,   1.26493E+06,   1.26493E+06
C:/temp/Job-1.odb,Step-1,Increment      1: Step Time =    1.000,"P-1-1",          1664,       24.2848,       107.339,            0.,NA,NA,"",   312.607E+03,   360.317E+03,   360.317E+03
C:/temp/Job-1.odb,Step-1,Increment      1: Step Time =    1.000,"P-1-1",          1665,       23.9089,       77.1127,            0.,NA,NA,"",   537.378E+03,   583.344E+03,   583.344E+03
C:/temp/Job-1.odb,Step-1,Increment      1: Step Time =    1.000,"P-1-1",          1666,       163.419,       174.822,            0.,NA,NA,"",   1.15257E+06,   1.12828E+06,   1.12828E+06
C:/temp/Job-1.odb,Step-1,Increment      1: Step Time =    1.000,"P-1-1",          1667,       162.477,       31.2644,            0.,NA,NA,"",   1.21076E+06,   1.17337E+06,   1.17337E+06
C:/temp/Job-1.odb,Step-1,Increment      1: Step Time =    1.000,"P-1-1",          1668,       117.439,       167.776,            0.,NA,NA,"",   1.29417E+06,   1.35441E+06,   1.35441E+06
C:/temp/Job-1.odb,Step-1,Increment      1: Step Time =    1.000,"P-1-1",          1669,       28.3962,       38.6777,            0.,NA,NA,"",   1.25032E+06,   1.25281E+06,   1.25281E+06
C:/temp/Job-1.odb,Step-1,Increment      1: Step Time =    1.000,"P-1-1",          1670,       28.9947,       47.3726,            0.,NA,NA,"",   1.13543E+06,   1.13655E+06,   1.13655E+06
C:/temp/Job-1.odb,Step-1,Increment      1: Step Time =    1.000,"P-1-1",          1671,       55.5347,       36.1747,            0.,NA,NA,"",   1.50302E+06,   1.42593E+06,   1.42593E+06
C:/temp/Job-1.odb,Step-1,Increment      1: Step Time =    1.000,"P-1-1",          1672,       51.3041,       37.0765,            0.,NA,NA,"",   1.47283E+06,   1.39874E+06,   1.39874E+06
C:/temp/Job-1.odb,Step-1,Increment      1: Step Time =    1.000,"P-1-1",          1673,       44.1100,       25.5055,            0.,NA,NA,"",   1.44123E+06,   1.40212E+06,   1.40212E+06
C:/temp/Job-1.odb,Step-1,Increment      1: Step Time =    1.000,"P-1-1",          1674,       66.9623,       42.1980,            0.,NA,NA,"",   1.60056E+06,   1.52847E+06,   1.52847E+06
C:/temp/Job-1.odb,Step-1,Increment      1: Step Time =    1.000,"P-1-1",          1675,       84.2400,       161.460,            0.,NA,NA,"",   1.52178E+06,   1.56351E+06,   1.56351E+06
C:/temp/Job-1.odb,Step-1,Increment      1: Step Time =    1.000,"P-1-1",          1676,       87.4242,       36.6686,            0.,NA,NA,"",   1.46285E+06,   1.52060E+06,   1.52060E+06
C:/temp/Job-1.odb,Step-1,Increment      1: Step Time =    1.000,"P-1-1",          1677,       28.3769,       55.9497,            0.,NA,NA,"",   987.256E+03,   993.643E+03,   993.643E+03
C:/temp/Job-1.odb,Step-1,Increment      1: Step Time =    1.000,"P-1-1",          1678,       72.6164,       39.2865,            0.,NA,NA,"",   1.58625E+06,   1.55074E+06,   1.55074E+06
C:/temp/Job-1.odb,Step-1,Increment      1: Step Time =    1.000,"P-1-1",          1679,       31.2643,       113.562,            0.,NA,NA,"",   384.675E+03,   416.218E+03,   416.218E+03
C:/temp/Job-1.odb,Step-1,Increment      1: Step Time =    1.000,"P-1-1",          1680,       117.492,       163.019,            0.,NA,NA,"",   1.38587E+06,   1.45838E+06,   1.45838E+06
C:/temp/Job-1.odb,Step-1,Increment      1: Step Time =    1.000,"P-1-1",          1681,       165.937,       51.3853,            0.,NA,NA,"",   1.29545E+06,   1.22985E+06,   1.22985E+06
C:/temp/Job-1.odb,Step-1,Increment      1: Step Time =    1.000,"P-1-1",          1682,       165.201,       106.486,            0.,NA,NA,"",   602.173E+03,   633.781E+03,   633.781E+03
C:/temp/Job-1.odb,Step-1,Increment      1: Step Time =    1.000,"P-1-1",          1683,       167.223,       45.6662,            0.,NA,NA,"",   1.25742E+06,   1.20831E+06,   1.20831E+06
C:/temp/Job-1.odb,Step-1,Increment      1: Step Time =    1.000,"P-1-1",          1684,       154.348,       168.824,            0.,NA,NA,"",   1.27409E+06,   1.22451E+06,   1.22451E+06
C:/temp/Job-1.odb,Step-1,Increment      1: Step Time =    1.000,"P-1-1",          1685,       161.942,       142.693,            0.,NA,NA,"",   1.36385E+06,   1.25816E+06,   1.25816E+06
C:/temp/Job-1.odb,Step-1,Increment      1: Step Time =    1.000,"P-1-1",          1686,       138.191,       22.3109,            0.,NA,NA,"",   1.19092E+06,   1.17170E+06,   1.17170E+06
C:/temp/Job-1.odb,Step-1,Increment      1: Step Time =    1.000,"P-1-1",          1687,       177.610,       138.113,            0.,NA,NA,"",   1.10476E+06,   1.12469E+06,   1.12469E+06
C:/temp/Job-1.odb,Step-1,Increment      1: Step Time =    1.000,"P-1-1",          1688,       27.1163,       88.3385,            0.,NA,NA,"",   350.028E+03,   396.006E+03,   396.006E+03
C:/temp/Job-1.odb,Step-1,Increment      1: Step Time =    1.000,"P-1-1",          1689,       134.533,       23.2300,            0.,NA,NA,"",   1.20260E+06,   1.19020E+06,   1.19020E+06
C:/temp/Job-1.odb,Step-1,Increment      1: Step Time =    1.000,"P-1-1",          1690,       176.782,       134.531,            0.,NA,NA,"",   1.09486E+06,   1.11541E+06,   1.11541E+06
C:/temp/Job-1.odb,Step-1,Increment      1: Step Time =    1.000,"P-1-1",          1691,       99.1081,       165.593,            0.,NA,NA,"",   1.33533E+06,   1.43746E+06,   1.43746E+06
C:/temp/Job-1.odb,Step-1,Increment      1: Step Time =    1.000,"P-1-1",          1692,       34.2575,       83.9562,            0.,NA,NA,"",   441.724E+03,   453.633E+03,   453.633E+03
C:/temp/Job-1.odb,Step-1,Increment      1: Step Time =    1.000,"P-1-1",          1693,       169.071,       137.580,            0.,NA,NA,"",   1.23329E+06,   1.17880E+06,   1.17880E+06
C:/temp/Job-1.odb,Step-1,Increment      1: Step Time =    1.000,"P-1-1",          1694,       61.6800,       44.6476,            0.,NA,NA,"",   1.56584E+06,   1.47224E+06,   1.47224E+06
C:/temp/Job-1.odb,Step-1,Increment      1: Step Time =    1.000,"P-1-1",          1695,       169.677,       62.3385,            0.,NA,NA,"",   1.22600E+06,   1.17657E+06,   1.17657E+06
C:/temp/Job-1.odb,Step-1,Increment      1: Step Time =    1.000,"P-1-1",          1696,       138.735,       155.612,            0.,NA,NA,"",   1.55814E+06,   1.48271E+06,   1.48271E+06
C:/temp/Job-1.odb,Step-1,Increment      1: Step Time =    1.000,"P-1-1",          1697,       90.6699,       173.000,            0.,NA,NA,"",   1.27099E+06,   1.31981E+06,   1.31981E+06
C:/temp/Job-1.odb,Step-1,Increment      1: Step Time =    1.000,"P-1-1",          1698,       76.1235,       158.714,            0.,NA,NA,"",   1.60249E+06,   1.58540E+06,   1.58540E+06
C:/temp/Job-1.odb,Step-1,Increment      1: Step Time =    1.000,"P-1-1",          1699,       168.240,       34.0540,            0.,NA,NA,"",   1.17945E+06,   1.15198E+06,   1.15198E+06
C:/temp/Job-1.odb,Step-1,Increment      1: Step Time =    1.000,"P-1-1",          1700,       166.328,       166.566,            0.,NA,NA,"",   1.19749E+06,   1.16491E+06,   1.16491E+06
C:/temp/Job-1.odb,Step-1,Increment      1: Step Time =    1.000,"P-1-1",          1701,       29.0620,       77.3558,            0.,NA,NA,"",   563.814E+03,   590.258E+03,   590.258E+03
C:/temp/Job-1.odb,Step-1,Increment      1: Step Time =    1.000,"P-1-1",          1702,       136.776,       53.3269,            0.,NA,NA,"",   1.68036E+06,   1.57131E+06,   1.57131E+06
C:/temp/Job-1.odb,Step-1,Increment      1: Step Time =    1.000,"P-1-1",          1703,       30.1374,       106.516,            0.,NA,NA,"",   276.797E+03,   316.270E+03,   316.270E+03
C:/temp/Job-1.odb,Step-1,Increment      1: Step Time =    1.000,"P-1-1",          1704,       32.2411,       33.9158,            0.,NA,NA,"",   1.34002E+06,   1.32646E+06,   1.32646E+06
C:/temp/Job-1.odb,Step-1,Increment      1: Step Time =    1.000,"P-1-1",          1705,       74.8706,       167.803,            0.,NA,NA,"",   1.48620E+06,   1.46534E+06,   1.46534E+06
C:/temp/Job-1.odb,Step-1,Increment      1: Step Time =    1.000,"P-1-1",          1706,       78.4615,       164.810,            0.,NA,NA,"",   1.50390E+06,   1.50256E+06,   1.50256E+06
C:/temp/Job-1.odb,Step-1,Increment      1: Step Time =    1.000,"P-1-1",          1707,       43.7704,       161.647,            0.,NA,NA,"",   1.40169E+06,   1.34341E+06,   1.34341E+06
C:/temp/Job-1.odb,Step-1,Increment      1: Step Time =    1.000,"P-1-1",          1708,       131.419,       159.932,            0.,NA,NA,"",   1.49439E+06,   1.47569E+06,   1.47569E+06
C:/temp/Job-1.odb,Step-1,Increment      1: Step Time =    1.000,"P-1-1",          1709,       159.493,       88.8193,            0.,NA,NA,"",   703.842E+03,   630.510E+03,   630.510E+03
C:/temp/Job-1.odb,Step-1,Increment      1: Step Time =    1.000,"P-1-1",          1710,       137.060,       166.127,            0.,NA,NA,"",   1.38170E+06,   1.34736E+06,   1.34736E+06
C:/temp/Job-1.odb,Step-1,Increment      1: Step Time =    1.000,"P-1-1",          1711,       167.345,       39.9000,            0.,NA,NA,"",   1.22568E+06,   1.18630E+06,   1.18630E+06
C:/temp/Job-1.odb,Step-1,Increment      1: Step Time =    1.000,"P-1-1",          1712,       85.1338,       32.9561,            0.,NA,NA,"",   1.42512E+06,   1.46005E+06,   1.46005E+06
C:/temp/Job-1.odb,Step-1,Increment      1: Step Time =    1.000,"P-1-1",          1713,       156.808,       61.3952,            0.,NA,NA,"",   1.43888E+06,   1.28264E+06,   1.28264E+06
C:/temp/Job-1.odb,Step-1,Increment      1: Step Time =    1.000,"P-1-1",          1714,       160.055,       50.0367,            0.,NA,NA,"",   1.37877E+06,   1.28296E+06,   1.28296E+06
C:/temp/Job-1.odb,Step-1,Increment      1: Step Time =    1.000,"P-1-1",          1715,       40.7722,       26.9493,            0.,NA,NA,"",   1.43260E+06,   1.39682E+06,   1.39682E+06
C:/temp/Job-1.odb,Step-1,Increment      1: Step Time =    1.000,"P-1-1",          1716,       168.638,       97.3078,            0.,NA,NA,"",   581.852E+03,   649.636E+03,   649.636E+03
C:/temp/Job-1.odb,Step-1,Increment      1: Step Time =    1.000,"P-1-1",          1717,       33.9528,       79.0402,            0.,NA,NA,"",   554.181E+03,   558.442E+03,   558.442E+03
C:/temp/Job-1.odb,Step-1,Increment      1: Step Time =    1.000,"P-1-1",          1718,       25.2913,       126.953,            0.,NA,NA,"",   620.598E+03,   657.834E+03,   657.834E+03
C:/temp/Job-1.odb,Step-1,Increment      1: Step Time =    1.000,"P-1-1",          1719,       38.7871,       64.8681,            0.,NA,NA,"",   945.789E+03,   900.109E+03,   900.109E+03
C:/temp/Job-1.odb,Step-1,Increment      1: Step Time =    1.000,"P-1-1",          1720,       40.2285,       63.8359,            0.,NA,NA,"",   988.697E+03,   931.801E+03,   931.801E+03
C:/temp/Job-1.odb,Step-1,Increment      1: Step Time =    1.000,"P-1-1",          1721,       58.3061,       42.8642,            0.,NA,NA,"",   1.53397E+06,   1.44138E+06,   1.44138E+06
C:/temp/Job-1.odb,Step-1,Increment      1: Step Time =    1.000,"P-1-1",          1722,       26.7446,       122.261,            0.,NA,NA,"",   542.869E+03,   579.401E+03,   579.401E+03
C:/temp/Job-1.odb,Step-1,Increment      1: Step Time =    1.000,"P-1-1",          1723,       39.1798,       62.1783,            0.,NA,NA,"",   1.00201E+06,   952.536E+03,   952.536E+03
C:/temp/Job-1.odb,Step-1,Increment      1: Step Time =    1.000,"P-1-1",          1724,       36.5983,       33.7354,            0.,NA,NA,"",   1.37256E+06,   1.34311E+06,   1.34311E+06
C:/temp/Job-1.odb,Step-1,Increment      1: Step Time =    1.000,"P-1-1",          1725,       43.7441,       49.9315,            0.,NA,NA,"",   1.30108E+06,   1.22645E+06,   1.22645E+06
C:/temp/Job-1.odb,Step-1,Increment      1: Step Time =    1.000,"P-1-1",          1726,       104.687,       34.2490,            0.,NA,NA,"",   1.30123E+06,   1.40683E+06,   1.40683E+06
C:/temp/Job-1.odb,Step-1,Increment      1: Step Time =    1.000,"P-1-1",          1727,       135.158,       35.7382,            0.,NA,NA,"",   1.41611E+06,   1.38141E+06,   1.38141E+06
C:/temp/Job-1.odb,Step-1,Increment      1: Step Time =    1.000,"P-1-1",          1728,       134.140,       39.1484,            0.,NA,NA,"",   1.48259E+06,   1.44469E+06,   1.44469E+06
C:/temp/Job-1.odb,Step-1,Increment      1: Step Time =    1.000,"P-1-1",          1729,       60.1287,       161.148,            0.,NA,NA,"",   1.54175E+06,   1.46016E+06,   1.46016E+06
C:/temp/Job-1.odb,Step-1,Increment      1: Step Time =    1.000,"P-1-1",          1730,       24.1070,       90.3944,            0.,NA,NA,"",   332.500E+03,   382.212E+03,   382.212E+03
C:/temp/Job-1.odb,Step-1,Increment      1: Step Time =    1.000,"P-1-1",          1731,       45.8289,       155.199,            0.,NA,NA,"",   1.38401E+06,   1.30738E+06,   1.30738E+06
C:/temp/Job-1.odb,Step-1,Increment      1: Step Time =    1.000,"P-1-1",          1732,       29.2666,       91.6324,            0.,NA,NA,"",   300.569E+03,   342.822E+03,   342.822E+03
C:/temp/Job-1.odb,Step-1,Increment      1: Step Time =    1.000,"P-1-1",          1733,       112.932,       29.5499,            0.,NA,NA,"",   1.23097E+06,   1.30016E+06,   1.30016E+06
C:/temp/Job-1.odb,Step-1,Increment      1: Step Time =    1.000,"P-1-1",          1734,       167.669,       88.7627,            0.,NA,NA,"",   746.086E+03,   772.785E+03,   772.785E+03
C:/temp/Job-1.odb,Step-1,Increment      1: Step Time =    1.000,"P-1-1",          1735,       85.6589,       27.8091,            0.,NA,NA,"",   1.34064E+06,   1.36787E+06,   1.36787E+06
C:/temp/Job-1.odb,Step-1,Increment      1: Step Time =    1.000,"P-1-1",          1736,       156.111,       42.9985,            0.,NA,NA,"",   1.38345E+06,   1.29807E+06,   1.29807E+06
C:/temp/Job-1.odb,Step-1,Increment      1: Step Time =    1.000,"P-1-1",          1737,       161.758,       61.1719,            0.,NA,NA,"",   1.35919E+06,   1.24202E+06,   1.24202E+06
C:/temp/Job-1.odb,Step-1,Increment      1: Step Time =    1.000,"P-1-1",          1738,       108.060,       33.3573,            0.,NA,NA,"",   1.28374E+06,   1.37982E+06,   1.37982E+06
C:/temp/Job-1.odb,Step-1,Increment      1: Step Time =    1.000,"P-1-1",          1739,       43.4464,       39.0741,            0.,NA,NA,"",   1.39876E+06,   1.33853E+06,   1.33853E+06
C:/temp/Job-1.odb,Step-1,Increment      1: Step Time =    1.000,"P-1-1",          1740,       171.608,       84.7113,            0.,NA,NA,"",   848.154E+03,   887.695E+03,   887.695E+03
C:/temp/Job-1.odb,Step-1,Increment      1: Step Time =    1.000,"P-1-1",          1741,       136.996,       39.2171,            0.,NA,NA,"",   1.47191E+06,   1.41949E+06,   1.41949E+06
