ODB Name,Step,Frame,Part Instance Name,    Node Label,X,Y,Z,Section Name,Material Name,Section Point,       S-Mises,S-Max. In-Plane Principal (Abs),S-Max. Principal (Abs)
C:/temp/Job-7.odb,Step-1,Increment      1: Step Time =    1.000,"P-7-1",             1,       85.1672,       145.651,            0.,NA,NA,"",   2.95324E+06,   2.98762E+06,   2.98762E+06
C:/temp/Job-7.odb,Step-1,Increment      1: Step Time =    1.000,"P-7-1",             2,       71.7863,       138.833,            0.,NA,NA,"",   1.07291E+06,   1.06055E+06,   1.06055E+06
C:/temp/Job-7.odb,Step-1,Increment      1: Step Time =    1.000,"P-7-1",             3,       61.1672,       128.214,            0.,NA,NA,"",   404.614E+03,  -385.504E+03,  -385.504E+03
C:/temp/Job-7.odb,Step-1,Increment      1: Step Time =    1.000,"P-7-1",             4,       56.1498,       119.523,            0.,NA,NA,"",   712.456E+03,  -723.744E+03,  -723.744E+03
C:/temp/Job-7.odb,Step-1,Increment      1: Step Time =    1.000,"P-7-1",             5,       52.2630,       105.017,            0.,NA,NA,"",   881.693E+03,  -900.079E+03,  -900.079E+03
C:/temp/Job-7.odb,Step-1,Increment      1: Step Time =    1.000,"P-7-1",             6,       53.0489,       90.0202,            0.,NA,NA,"",   859.419E+03,  -876.374E+03,  -876.374E+03
C:/temp/Job-7.odb,Step-1,Increment      1: Step Time =    1.000,"P-7-1",             7,       58.4308,           76.,            0.,NA,NA,"",   605.583E+03,  -602.661E+03,  -602.661E+03
C:/temp/Job-7.odb,Step-1,Increment      1: Step Time =    1.000,"P-7-1",             8,       67.8817,       64.3290,            0.,NA,NA,"",   528.092E+03,   506.008E+03,   506.008E+03
C:/temp/Job-7.odb,Step-1,Increment      1: Step Time =    1.000,"P-7-1",             9,       80.4766,       56.1498,            0.,NA,NA,"",   2.27752E+06,   2.30311E+06,   2.30311E+06
C:/temp/Job-7.odb,Step-1,Increment      1: Step Time =    1.000,"P-7-1",            10,       94.9826,       52.2630,            0.,NA,NA,"",   3.81627E+06,   3.88691E+06,   3.88691E+06
C:/temp/Job-7.odb,Step-1,Increment      1: Step Time =    1.000,"P-7-1",            11,       105.017,       52.2630,            0.,NA,NA,"",   4.19056E+06,   4.26899E+06,   4.26899E+06
C:/temp/Job-7.odb,Step-1,Increment      1: Step Time =    1.000,"P-7-1",            12,       119.523,       56.1498,            0.,NA,NA,"",   3.58427E+06,   3.64320E+06,   3.64320E+06
C:/temp/Job-7.odb,Step-1,Increment      1: Step Time =    1.000,"P-7-1",            13,       132.118,       64.3290,            0.,NA,NA,"",   1.99181E+06,   2.01121E+06,   2.01121E+06
C:/temp/Job-7.odb,Step-1,Increment      1: Step Time =    1.000,"P-7-1",            14,       141.569,           76.,            0.,NA,NA,"",   717.842E+03,   26.4240E+03,   26.4240E+03
C:/temp/Job-7.odb,Step-1,Increment      1: Step Time =    1.000,"P-7-1",            15,       146.951,       90.0202,            0.,NA,NA,"",   1.65573E+06,  -1.67598E+06,  -1.67598E+06
C:/temp/Job-7.odb,Step-1,Increment      1: Step Time =    1.000,"P-7-1",            16,       147.737,       105.017,            0.,NA,NA,"",   1.87196E+06,  -1.89781E+06,  -1.89781E+06
C:/temp/Job-7.odb,Step-1,Increment      1: Step Time =    1.000,"P-7-1",            17,       143.850,       119.523,            0.,NA,NA,"",   819.190E+03,  -781.969E+03,  -781.969E+03
C:/temp/Job-7.odb,Step-1,Increment      1: Step Time =    1.000,"P-7-1",            18,       138.833,       128.214,            0.,NA,NA,"",   858.449E+03,   776.063E+03,   776.063E+03
C:/temp/Job-7.odb,Step-1,Increment      1: Step Time =    1.000,"P-7-1",            19,       128.214,       138.833,            0.,NA,NA,"",   2.39165E+06,   2.44533E+06,   2.44533E+06
C:/temp/Job-7.odb,Step-1,Increment      1: Step Time =    1.000,"P-7-1",            20,       114.833,       145.651,            0.,NA,NA,"",   3.95355E+06,   4.01343E+06,   4.01343E+06
C:/temp/Job-7.odb,Step-1,Increment      1: Step Time =    1.000,"P-7-1",            21,          100.,          148.,            0.,NA,NA,"",   4.11898E+06,   4.18985E+06,   4.18985E+06
C:/temp/Job-7.odb,Step-1,Increment      1: Step Time =    1.000,"P-7-1",            22,          190.,            0.,            0.,NA,NA,"",   991.451E+03,   991.413E+03,   991.413E+03
C:/temp/Job-7.odb,Step-1,Increment      1: Step Time =    1.000,"P-7-1",            23,          180.,            0.,            0.,NA,NA,"",   980.460E+03,   980.438E+03,   980.438E+03
C:/temp/Job-7.odb,Step-1,Increment      1: Step Time =    1.000,"P-7-1",            24,          170.,            0.,            0.,NA,NA,"",   965.816E+03,   965.144E+03,   965.144E+03
C:/temp/Job-7.odb,Step-1,Increment      1: Step Time =    1.000,"P-7-1",            25,          160.,            0.,            0.,NA,NA,"",   928.176E+03,   926.877E+03,   926.877E+03
C:/temp/Job-7.odb,Step-1,Increment      1: Step Time =    1.000,"P-7-1",            26,          150.,            0.,            0.,NA,NA,"",   844.749E+03,   842.595E+03,   842.595E+03
C:/temp/Job-7.odb,Step-1,Increment      1: Step Time =    1.000,"P-7-1",            27,          140.,            0.,            0.,NA,NA,"",   719.790E+03,   718.097E+03,   718.097E+03
C:/temp/Job-7.odb,Step-1,Increment      1: Step Time =    1.000,"P-7-1",            28,          130.,            0.,            0.,NA,NA,"",   575.974E+03,   575.751E+03,   575.751E+03
C:/temp/Job-7.odb,Step-1,Increment      1: Step Time =    1.000,"P-7-1",            29,          120.,            0.,            0.,NA,NA,"",   457.131E+03,   459.667E+03,   459.667E+03
C:/temp/Job-7.odb,Step-1,Increment      1: Step Time =    1.000,"P-7-1",            30,          110.,            0.,            0.,NA,NA,"",   429.559E+03,   433.693E+03,   433.693E+03
C:/temp/Job-7.odb,Step-1,Increment      1: Step Time =    1.000,"P-7-1",            31,          100.,            0.,            0.,NA,NA,"",   529.635E+03,   532.016E+03,   532.016E+03
C:/temp/Job-7.odb,Step-1,Increment      1: Step Time =    1.000,"P-7-1",            32,           90.,            0.,            0.,NA,NA,"",   749.904E+03,   749.257E+03,   749.257E+03
C:/temp/Job-7.odb,Step-1,Increment      1: Step Time =    1.000,"P-7-1",            33,           80.,            0.,            0.,NA,NA,"",   1.05223E+06,   1.04969E+06,   1.04969E+06
C:/temp/Job-7.odb,Step-1,Increment      1: Step Time =    1.000,"P-7-1",            34,           70.,            0.,            0.,NA,NA,"",   1.37418E+06,   1.37089E+06,   1.37089E+06
C:/temp/Job-7.odb,Step-1,Increment      1: Step Time =    1.000,"P-7-1",            35,           60.,            0.,            0.,NA,NA,"",   1.66045E+06,   1.65704E+06,   1.65704E+06
C:/temp/Job-7.odb,Step-1,Increment      1: Step Time =    1.000,"P-7-1",            36,           50.,            0.,            0.,NA,NA,"",   1.88111E+06,   1.87828E+06,   1.87828E+06
C:/temp/Job-7.odb,Step-1,Increment      1: Step Time =    1.000,"P-7-1",            37,           40.,            0.,            0.,NA,NA,"",   2.03108E+06,   2.02874E+06,   2.02874E+06
C:/temp/Job-7.odb,Step-1,Increment      1: Step Time =    1.000,"P-7-1",            38,           30.,            0.,            0.,NA,NA,"",   2.12019E+06,   2.11862E+06,   2.11862E+06
C:/temp/Job-7.odb,Step-1,Increment      1: Step Time =    1.000,"P-7-1",            39,           20.,            0.,            0.,NA,NA,"",   2.18311E+06,   2.18224E+06,   2.18224E+06
C:/temp/Job-7.odb,Step-1,Increment      1: Step Time =    1.000,"P-7-1",            40,           10.,            0.,            0.,NA,NA,"",   2.31189E+06,   2.31437E+06,   2.31437E+06
C:/temp/Job-7.odb,Step-1,Increment      1: Step Time =    1.000,"P-7-1",            41,          200.,            0.,            0.,NA,NA,"",   999.332E+03,   998.648E+03,   998.648E+03
C:/temp/Job-7.odb,Step-1,Increment      1: Step Time =    1.000,"P-7-1",            42,            0.,            0.,            0.,NA,NA,"",   2.72943E+06,   2.86403E+06,   2.86403E+06
C:/temp/Job-7.odb,Step-1,Increment      1: Step Time =    1.000,"P-7-1",            43,          200.,          190.,            0.,NA,NA,"",   1.00443E+06,   1.00038E+06,   1.00038E+06
C:/temp/Job-7.odb,Step-1,Increment      1: Step Time =    1.000,"P-7-1",            44,          200.,          180.,            0.,NA,NA,"",   1.00692E+06,   1.00287E+06,   1.00287E+06
C:/temp/Job-7.odb,Step-1,Increment      1: Step Time =    1.000,"P-7-1",            45,          200.,          170.,            0.,NA,NA,"",   988.277E+03,   1.00674E+06,   1.00674E+06
C:/temp/Job-7.odb,Step-1,Increment      1: Step Time =    1.000,"P-7-1",            46,          200.,          160.,            0.,NA,NA,"",   938.493E+03,   1.00771E+06,   1.00771E+06
C:/temp/Job-7.odb,Step-1,Increment      1: Step Time =    1.000,"P-7-1",            47,          200.,          150.,            0.,NA,NA,"",   887.138E+03,   1.01105E+06,   1.01105E+06
C:/temp/Job-7.odb,Step-1,Increment      1: Step Time =    1.000,"P-7-1",            48,          200.,          140.,            0.,NA,NA,"",   910.083E+03,   1.02750E+06,   1.02750E+06
C:/temp/Job-7.odb,Step-1,Increment      1: Step Time =    1.000,"P-7-1",            49,          200.,          130.,            0.,NA,NA,"",   1.06462E+06,   1.16021E+06,   1.16021E+06
C:/temp/Job-7.odb,Step-1,Increment      1: Step Time =    1.000,"P-7-1",            50,          200.,          120.,            0.,NA,NA,"",   1.29558E+06,   1.46832E+06,   1.46832E+06
C:/temp/Job-7.odb,Step-1,Increment      1: Step Time =    1.000,"P-7-1",            51,          200.,          110.,            0.,NA,NA,"",   1.49987E+06,   1.72598E+06,   1.72598E+06
C:/temp/Job-7.odb,Step-1,Increment      1: Step Time =    1.000,"P-7-1",            52,          200.,          100.,            0.,NA,NA,"",   1.58536E+06,   1.82873E+06,   1.82873E+06
C:/temp/Job-7.odb,Step-1,Increment      1: Step Time =    1.000,"P-7-1",            53,          200.,           90.,            0.,NA,NA,"",   1.50581E+06,   1.73306E+06,   1.73306E+06
C:/temp/Job-7.odb,Step-1,Increment      1: Step Time =    1.000,"P-7-1",            54,          200.,           80.,            0.,NA,NA,"",   1.30201E+06,   1.47626E+06,   1.47626E+06
C:/temp/Job-7.odb,Step-1,Increment      1: Step Time =    1.000,"P-7-1",            55,          200.,           70.,            0.,NA,NA,"",   1.06754E+06,   1.16353E+06,   1.16353E+06
C:/temp/Job-7.odb,Step-1,Increment      1: Step Time =    1.000,"P-7-1",            56,          200.,           60.,            0.,NA,NA,"",   910.831E+03,   1.02811E+06,   1.02811E+06
C:/temp/Job-7.odb,Step-1,Increment      1: Step Time =    1.000,"P-7-1",            57,          200.,           50.,            0.,NA,NA,"",   887.634E+03,   1.01254E+06,   1.01254E+06
C:/temp/Job-7.odb,Step-1,Increment      1: Step Time =    1.000,"P-7-1",            58,          200.,           40.,            0.,NA,NA,"",   937.866E+03,   1.00833E+06,   1.00833E+06
C:/temp/Job-7.odb,Step-1,Increment      1: Step Time =    1.000,"P-7-1",            59,          200.,           30.,            0.,NA,NA,"",   987.217E+03,   1.00584E+06,   1.00584E+06
C:/temp/Job-7.odb,Step-1,Increment      1: Step Time =    1.000,"P-7-1",            60,          200.,           20.,            0.,NA,NA,"",   1.00637E+06,   1.00310E+06,   1.00310E+06
C:/temp/Job-7.odb,Step-1,Increment      1: Step Time =    1.000,"P-7-1",            61,          200.,           10.,            0.,NA,NA,"",   1.00447E+06,   1.00054E+06,   1.00054E+06
C:/temp/Job-7.odb,Step-1,Increment      1: Step Time =    1.000,"P-7-1",            62,          200.,          200.,            0.,NA,NA,"",   999.340E+03,   998.682E+03,   998.682E+03
C:/temp/Job-7.odb,Step-1,Increment      1: Step Time =    1.000,"P-7-1",            63,           10.,          200.,            0.,NA,NA,"",   2.31487E+06,   2.31696E+06,   2.31696E+06
C:/temp/Job-7.odb,Step-1,Increment      1: Step Time =    1.000,"P-7-1",            64,           20.,          200.,            0.,NA,NA,"",   2.18445E+06,   2.18371E+06,   2.18371E+06
C:/temp/Job-7.odb,Step-1,Increment      1: Step Time =    1.000,"P-7-1",            65,           30.,          200.,            0.,NA,NA,"",   2.11879E+06,   2.11720E+06,   2.11720E+06
C:/temp/Job-7.odb,Step-1,Increment      1: Step Time =    1.000,"P-7-1",            66,           40.,          200.,            0.,NA,NA,"",   2.03140E+06,   2.02918E+06,   2.02918E+06
C:/temp/Job-7.odb,Step-1,Increment      1: Step Time =    1.000,"P-7-1",            67,           50.,          200.,            0.,NA,NA,"",   1.88660E+06,   1.88405E+06,   1.88405E+06
C:/temp/Job-7.odb,Step-1,Increment      1: Step Time =    1.000,"P-7-1",            68,           60.,          200.,            0.,NA,NA,"",   1.66596E+06,   1.66232E+06,   1.66232E+06
C:/temp/Job-7.odb,Step-1,Increment      1: Step Time =    1.000,"P-7-1",            69,           70.,          200.,            0.,NA,NA,"",   1.38024E+06,   1.37617E+06,   1.37617E+06
C:/temp/Job-7.odb,Step-1,Increment      1: Step Time =    1.000,"P-7-1",            70,           80.,          200.,            0.,NA,NA,"",   1.06222E+06,   1.05903E+06,   1.05903E+06
C:/temp/Job-7.odb,Step-1,Increment      1: Step Time =    1.000,"P-7-1",            71,           90.,          200.,            0.,NA,NA,"",   760.814E+03,   760.389E+03,   760.389E+03
C:/temp/Job-7.odb,Step-1,Increment      1: Step Time =    1.000,"P-7-1",            72,          100.,          200.,            0.,NA,NA,"",   533.125E+03,   535.702E+03,   535.702E+03
C:/temp/Job-7.odb,Step-1,Increment      1: Step Time =    1.000,"P-7-1",            73,          110.,          200.,            0.,NA,NA,"",   424.730E+03,   428.696E+03,   428.696E+03
C:/temp/Job-7.odb,Step-1,Increment      1: Step Time =    1.000,"P-7-1",            74,          120.,          200.,            0.,NA,NA,"",   450.724E+03,   452.686E+03,   452.686E+03
C:/temp/Job-7.odb,Step-1,Increment      1: Step Time =    1.000,"P-7-1",            75,          130.,          200.,            0.,NA,NA,"",   563.559E+03,   563.638E+03,   563.638E+03
C:/temp/Job-7.odb,Step-1,Increment      1: Step Time =    1.000,"P-7-1",            76,          140.,          200.,            0.,NA,NA,"",   708.345E+03,   707.080E+03,   707.080E+03
C:/temp/Job-7.odb,Step-1,Increment      1: Step Time =    1.000,"P-7-1",            77,          150.,          200.,            0.,NA,NA,"",   837.577E+03,   835.843E+03,   835.843E+03
C:/temp/Job-7.odb,Step-1,Increment      1: Step Time =    1.000,"P-7-1",            78,          160.,          200.,            0.,NA,NA,"",   924.207E+03,   922.621E+03,   922.621E+03
C:/temp/Job-7.odb,Step-1,Increment      1: Step Time =    1.000,"P-7-1",            79,          170.,          200.,            0.,NA,NA,"",   965.711E+03,   964.872E+03,   964.872E+03
C:/temp/Job-7.odb,Step-1,Increment      1: Step Time =    1.000,"P-7-1",            80,          180.,          200.,            0.,NA,NA,"",   980.687E+03,   980.563E+03,   980.563E+03
C:/temp/Job-7.odb,Step-1,Increment      1: Step Time =    1.000,"P-7-1",            81,          190.,          200.,            0.,NA,NA,"",   991.457E+03,   991.439E+03,   991.439E+03
C:/temp/Job-7.odb,Step-1,Increment      1: Step Time =    1.000,"P-7-1",            82,            0.,          200.,            0.,NA,NA,"",   2.72884E+06,   2.86559E+06,   2.86559E+06
C:/temp/Job-7.odb,Step-1,Increment      1: Step Time =    1.000,"P-7-1",            83,            0.,           10.,            0.,NA,NA,"",   1.94423E+06,   2.13103E+06,   2.13103E+06
C:/temp/Job-7.odb,Step-1,Increment      1: Step Time =    1.000,"P-7-1",            84,            0.,           20.,            0.,NA,NA,"",   1.55873E+06,   1.73229E+06,   1.73229E+06
C:/temp/Job-7.odb,Step-1,Increment      1: Step Time =    1.000,"P-7-1",            85,            0.,           30.,            0.,NA,NA,"",   1.28107E+06,   1.43058E+06,   1.43058E+06
C:/temp/Job-7.odb,Step-1,Increment      1: Step Time =    1.000,"P-7-1",            86,            0.,           40.,            0.,NA,NA,"",   1.03747E+06,   1.16064E+06,   1.16064E+06
C:/temp/Job-7.odb,Step-1,Increment      1: Step Time =    1.000,"P-7-1",            87,            0.,           50.,            0.,NA,NA,"",   812.534E+03,   906.428E+03,   906.428E+03
C:/temp/Job-7.odb,Step-1,Increment      1: Step Time =    1.000,"P-7-1",            88,            0.,           60.,            0.,NA,NA,"",   603.318E+03,   666.826E+03,   666.826E+03
C:/temp/Job-7.odb,Step-1,Increment      1: Step Time =    1.000,"P-7-1",            89,            0.,           70.,            0.,NA,NA,"",   412.447E+03,   446.663E+03,   446.663E+03
C:/temp/Job-7.odb,Step-1,Increment      1: Step Time =    1.000,"P-7-1",            90,            0.,           80.,            0.,NA,NA,"",   249.758E+03,   261.370E+03,   261.370E+03
C:/temp/Job-7.odb,Step-1,Increment      1: Step Time =    1.000,"P-7-1",            91,            0.,           90.,            0.,NA,NA,"",   119.719E+03,   122.458E+03,   122.458E+03
C:/temp/Job-7.odb,Step-1,Increment      1: Step Time =    1.000,"P-7-1",            92,            0.,          100.,            0.,NA,NA,"",   46.5951E+03,   52.8500E+03,   52.8500E+03
C:/temp/Job-7.odb,Step-1,Increment      1: Step Time =    1.000,"P-7-1",            93,            0.,          110.,            0.,NA,NA,"",   119.934E+03,   122.054E+03,   122.054E+03
C:/temp/Job-7.odb,Step-1,Increment      1: Step Time =    1.000,"P-7-1",            94,            0.,          120.,            0.,NA,NA,"",   249.602E+03,   260.886E+03,   260.886E+03
C:/temp/Job-7.odb,Step-1,Increment      1: Step Time =    1.000,"P-7-1",            95,            0.,          130.,            0.,NA,NA,"",   411.964E+03,   446.270E+03,   446.270E+03
C:/temp/Job-7.odb,Step-1,Increment      1: Step Time =    1.000,"P-7-1",            96,            0.,          140.,            0.,NA,NA,"",   604.127E+03,   667.527E+03,   667.527E+03
C:/temp/Job-7.odb,Step-1,Increment      1: Step Time =    1.000,"P-7-1",            97,            0.,          150.,            0.,NA,NA,"",   813.724E+03,   908.159E+03,   908.159E+03
C:/temp/Job-7.odb,Step-1,Increment      1: Step Time =    1.000,"P-7-1",            98,            0.,          160.,            0.,NA,NA,"",   1.03567E+06,   1.15993E+06,   1.15993E+06
C:/temp/Job-7.odb,Step-1,Increment      1: Step Time =    1.000,"P-7-1",            99,            0.,          170.,            0.,NA,NA,"",   1.27645E+06,   1.42737E+06,   1.42737E+06
C:/temp/Job-7.odb,Step-1,Increment      1: Step Time =    1.000,"P-7-1",           100,            0.,          180.,            0.,NA,NA,"",   1.55553E+06,   1.72997E+06,   1.72997E+06
C:/temp/Job-7.odb,Step-1,Increment      1: Step Time =    1.000,"P-7-1",           101,            0.,          190.,            0.,NA,NA,"",   1.94214E+06,   2.13006E+06,   2.13006E+06
C:/temp/Job-7.odb,Step-1,Increment      1: Step Time =    1.000,"P-7-1",           102,       94.8175,       43.2143,            0.,NA,NA,"",   2.79825E+06,   2.93954E+06,   2.93954E+06
C:/temp/Job-7.odb,Step-1,Increment      1: Step Time =    1.000,"P-7-1",           103,       188.701,       158.798,            0.,NA,NA,"",   1.04455E+06,   1.09895E+06,   1.09895E+06
C:/temp/Job-7.odb,Step-1,Increment      1: Step Time =    1.000,"P-7-1",           104,       181.049,       156.420,            0.,NA,NA,"",   1.21554E+06,   1.22278E+06,   1.22278E+06
C:/temp/Job-7.odb,Step-1,Increment      1: Step Time =    1.000,"P-7-1",           105,       171.227,       156.408,            0.,NA,NA,"",   1.45171E+06,   1.37193E+06,   1.37193E+06
C:/temp/Job-7.odb,Step-1,Increment      1: Step Time =    1.000,"P-7-1",           106,       154.227,       156.772,            0.,NA,NA,"",   1.79782E+06,   1.64319E+06,   1.64319E+06
C:/temp/Job-7.odb,Step-1,Increment      1: Step Time =    1.000,"P-7-1",           107,       146.732,       157.721,            0.,NA,NA,"",   1.88718E+06,   1.76938E+06,   1.76938E+06
C:/temp/Job-7.odb,Step-1,Increment      1: Step Time =    1.000,"P-7-1",           108,       138.458,       158.881,            0.,NA,NA,"",   1.95406E+06,   1.91652E+06,   1.91652E+06
C:/temp/Job-7.odb,Step-1,Increment      1: Step Time =    1.000,"P-7-1",           109,       127.427,       160.137,            0.,NA,NA,"",   2.05576E+06,   2.13980E+06,   2.13980E+06
C:/temp/Job-7.odb,Step-1,Increment      1: Step Time =    1.000,"P-7-1",           110,       116.781,       158.482,            0.,NA,NA,"",   2.45099E+06,   2.61208E+06,   2.61208E+06
C:/temp/Job-7.odb,Step-1,Increment      1: Step Time =    1.000,"P-7-1",           111,       105.207,       156.767,            0.,NA,NA,"",   2.91204E+06,   3.08766E+06,   3.08766E+06
C:/temp/Job-7.odb,Step-1,Increment      1: Step Time =    1.000,"P-7-1",           112,       94.2396,       156.488,            0.,NA,NA,"",   2.79670E+06,   2.93379E+06,   2.93379E+06
C:/temp/Job-7.odb,Step-1,Increment      1: Step Time =    1.000,"P-7-1",           113,       81.5701,       160.334,            0.,NA,NA,"",   2.26087E+06,   2.27686E+06,   2.27686E+06
C:/temp/Job-7.odb,Step-1,Increment      1: Step Time =    1.000,"P-7-1",           114,       72.0588,       160.109,            0.,NA,NA,"",   2.08096E+06,   1.99127E+06,   1.99127E+06
C:/temp/Job-7.odb,Step-1,Increment      1: Step Time =    1.000,"P-7-1",           115,       61.9245,       160.498,            0.,NA,NA,"",   1.93035E+06,   1.77306E+06,   1.77306E+06
C:/temp/Job-7.odb,Step-1,Increment      1: Step Time =    1.000,"P-7-1",           116,       52.8630,       159.326,            0.,NA,NA,"",   1.77274E+06,   1.60512E+06,   1.60512E+06
C:/temp/Job-7.odb,Step-1,Increment      1: Step Time =    1.000,"P-7-1",           117,       43.7795,       157.565,            0.,NA,NA,"",   1.55990E+06,   1.42305E+06,   1.42305E+06
C:/temp/Job-7.odb,Step-1,Increment      1: Step Time =    1.000,"P-7-1",           118,       31.9337,       158.653,            0.,NA,NA,"",   1.39513E+06,   1.33831E+06,   1.33831E+06
C:/temp/Job-7.odb,Step-1,Increment      1: Step Time =    1.000,"P-7-1",           119,       18.7545,       159.629,            0.,NA,NA,"",   1.22563E+06,   1.26418E+06,   1.26418E+06
C:/temp/Job-7.odb,Step-1,Increment      1: Step Time =    1.000,"P-7-1",           120,       9.43828,       159.527,            0.,NA,NA,"",   1.10332E+06,   1.19621E+06,   1.19621E+06
C:/temp/Job-7.odb,Step-1,Increment      1: Step Time =    1.000,"P-7-1",           121,       9.66459,       149.905,            0.,NA,NA,"",   863.665E+03,   936.408E+03,   936.408E+03
C:/temp/Job-7.odb,Step-1,Increment      1: Step Time =    1.000,"P-7-1",           122,       19.2307,       150.265,            0.,NA,NA,"",   973.276E+03,   1.00067E+06,   1.00067E+06
C:/temp/Job-7.odb,Step-1,Increment      1: Step Time =    1.000,"P-7-1",           123,       33.4289,       147.490,            0.,NA,NA,"",   1.07923E+06,   1.00310E+06,   1.00310E+06
C:/temp/Job-7.odb,Step-1,Increment      1: Step Time =    1.000,"P-7-1",           124,       42.3769,       146.068,            0.,NA,NA,"",   1.17907E+06,   1.03498E+06,   1.03498E+06
C:/temp/Job-7.odb,Step-1,Increment      1: Step Time =    1.000,"P-7-1",           125,       50.7677,       149.850,            0.,NA,NA,"",   1.46392E+06,   1.27985E+06,   1.27985E+06
C:/temp/Job-7.odb,Step-1,Increment      1: Step Time =    1.000,"P-7-1",           126,       61.4867,       152.796,            0.,NA,NA,"",   1.75525E+06,   1.59097E+06,   1.59097E+06
C:/temp/Job-7.odb,Step-1,Increment      1: Step Time =    1.000,"P-7-1",           127,       72.2955,       146.547,            0.,NA,NA,"",   1.72746E+06,   1.69466E+06,   1.69466E+06
C:/temp/Job-7.odb,Step-1,Increment      1: Step Time =    1.000,"P-7-1",           128,       129.017,       147.336,            0.,NA,NA,"",   2.52616E+06,   2.59077E+06,   2.59077E+06
C:/temp/Job-7.odb,Step-1,Increment      1: Step Time =    1.000,"P-7-1",           129,       138.367,       148.922,            0.,NA,NA,"",   2.08028E+06,   2.01841E+06,   2.01841E+06
C:/temp/Job-7.odb,Step-1,Increment      1: Step Time =    1.000,"P-7-1",           130,       146.865,       147.076,            0.,NA,NA,"",   1.96432E+06,   1.77875E+06,   1.77875E+06
C:/temp/Job-7.odb,Step-1,Increment      1: Step Time =    1.000,"P-7-1",           131,       159.385,       147.821,            0.,NA,NA,"",   1.80203E+06,   1.58347E+06,   1.58347E+06
C:/temp/Job-7.odb,Step-1,Increment      1: Step Time =    1.000,"P-7-1",           132,       172.820,       147.256,            0.,NA,NA,"",   1.50576E+06,   1.40371E+06,   1.40371E+06
C:/temp/Job-7.odb,Step-1,Increment      1: Step Time =    1.000,"P-7-1",           133,       178.032,       146.227,            0.,NA,NA,"",   1.35795E+06,   1.32930E+06,   1.32930E+06
C:/temp/Job-7.odb,Step-1,Increment      1: Step Time =    1.000,"P-7-1",           134,       186.868,       149.052,            0.,NA,NA,"",   1.09843E+06,   1.17299E+06,   1.17299E+06
C:/temp/Job-7.odb,Step-1,Increment      1: Step Time =    1.000,"P-7-1",           135,       138.131,       135.014,            0.,NA,NA,"",   1.46372E+06,   1.41620E+06,   1.41620E+06
C:/temp/Job-7.odb,Step-1,Increment      1: Step Time =    1.000,"P-7-1",           136,       147.952,       135.828,            0.,NA,NA,"",   1.68137E+06,   1.39808E+06,   1.39808E+06
C:/temp/Job-7.odb,Step-1,Increment      1: Step Time =    1.000,"P-7-1",           137,       159.271,       135.422,            0.,NA,NA,"",   1.72865E+06,   1.39481E+06,   1.39481E+06
C:/temp/Job-7.odb,Step-1,Increment      1: Step Time =    1.000,"P-7-1",           138,       168.645,       137.338,            0.,NA,NA,"",   1.60176E+06,   1.40161E+06,   1.40161E+06
C:/temp/Job-7.odb,Step-1,Increment      1: Step Time =    1.000,"P-7-1",           139,       180.622,       136.710,            0.,NA,NA,"",   1.28968E+06,   1.31135E+06,   1.31135E+06
C:/temp/Job-7.odb,Step-1,Increment      1: Step Time =    1.000,"P-7-1",           140,       190.392,       135.500,            0.,NA,NA,"",   1.05618E+06,   1.19934E+06,   1.19934E+06
C:/temp/Job-7.odb,Step-1,Increment      1: Step Time =    1.000,"P-7-1",           141,       146.413,       125.610,            0.,NA,NA,"",   890.786E+03,   32.6914E+03,   32.6914E+03
C:/temp/Job-7.odb,Step-1,Increment      1: Step Time =    1.000,"P-7-1",           142,       157.599,       123.836,            0.,NA,NA,"",   1.36303E+06,   533.745E+03,   533.745E+03
C:/temp/Job-7.odb,Step-1,Increment      1: Step Time =    1.000,"P-7-1",           143,       167.370,       126.811,            0.,NA,NA,"",   1.42284E+06,   1.17816E+06,   1.17816E+06
C:/temp/Job-7.odb,Step-1,Increment      1: Step Time =    1.000,"P-7-1",           144,       179.160,       127.132,            0.,NA,NA,"",   1.23765E+06,   1.25895E+06,   1.25895E+06
C:/temp/Job-7.odb,Step-1,Increment      1: Step Time =    1.000,"P-7-1",           145,       189.701,       125.663,            0.,NA,NA,"",   1.09815E+06,   1.25605E+06,   1.25605E+06
C:/temp/Job-7.odb,Step-1,Increment      1: Step Time =    1.000,"P-7-1",           146,       159.634,       114.269,            0.,NA,NA,"",   971.788E+03,  -341.461E+03,  -341.461E+03
C:/temp/Job-7.odb,Step-1,Increment      1: Step Time =    1.000,"P-7-1",           147,       168.516,       114.595,            0.,NA,NA,"",   937.819E+03,   780.608E+03,   780.608E+03
C:/temp/Job-7.odb,Step-1,Increment      1: Step Time =    1.000,"P-7-1",           148,       178.406,       112.305,            0.,NA,NA,"",   855.652E+03,   946.702E+03,   946.702E+03
C:/temp/Job-7.odb,Step-1,Increment      1: Step Time =    1.000,"P-7-1",           149,       189.181,       115.484,            0.,NA,NA,"",   1.10004E+06,   1.26115E+06,   1.26115E+06
C:/temp/Job-7.odb,Step-1,Increment      1: Step Time =    1.000,"P-7-1",           150,       156.886,       94.5969,            0.,NA,NA,"",   949.432E+03,  -934.483E+03,  -934.483E+03
C:/temp/Job-7.odb,Step-1,Increment      1: Step Time =    1.000,"P-7-1",           151,       167.367,       95.9806,            0.,NA,NA,"",   431.627E+03,   229.864E+03,   229.864E+03
C:/temp/Job-7.odb,Step-1,Increment      1: Step Time =    1.000,"P-7-1",           152,       180.711,       95.4810,            0.,NA,NA,"",   726.428E+03,   809.621E+03,   809.621E+03
C:/temp/Job-7.odb,Step-1,Increment      1: Step Time =    1.000,"P-7-1",           153,       190.061,       95.1526,            0.,NA,NA,"",   1.12153E+06,   1.26323E+06,   1.26323E+06
C:/temp/Job-7.odb,Step-1,Increment      1: Step Time =    1.000,"P-7-1",           154,       189.926,       105.192,            0.,NA,NA,"",   1.11328E+06,   1.25450E+06,   1.25450E+06
C:/temp/Job-7.odb,Step-1,Increment      1: Step Time =    1.000,"P-7-1",           155,       180.766,       104.544,            0.,NA,NA,"",   730.105E+03,   815.644E+03,   815.644E+03
C:/temp/Job-7.odb,Step-1,Increment      1: Step Time =    1.000,"P-7-1",           156,       167.649,       105.254,            0.,NA,NA,"",   467.951E+03,   265.317E+03,   265.317E+03
C:/temp/Job-7.odb,Step-1,Increment      1: Step Time =    1.000,"P-7-1",           157,       157.574,       106.963,            0.,NA,NA,"",   889.729E+03,  -834.628E+03,  -834.628E+03
C:/temp/Job-7.odb,Step-1,Increment      1: Step Time =    1.000,"P-7-1",           158,       158.255,       83.1234,            0.,NA,NA,"",   1.07392E+06,  -375.863E+03,  -375.863E+03
C:/temp/Job-7.odb,Step-1,Increment      1: Step Time =    1.000,"P-7-1",           159,       168.471,       84.4804,            0.,NA,NA,"",   967.787E+03,   803.577E+03,   803.577E+03
C:/temp/Job-7.odb,Step-1,Increment      1: Step Time =    1.000,"P-7-1",           160,       179.461,       84.8469,            0.,NA,NA,"",   955.354E+03,   1.04672E+06,   1.04672E+06
C:/temp/Job-7.odb,Step-1,Increment      1: Step Time =    1.000,"P-7-1",           161,       189.861,       84.9822,            0.,NA,NA,"",   1.11364E+06,   1.27574E+06,   1.27574E+06
C:/temp/Job-7.odb,Step-1,Increment      1: Step Time =    1.000,"P-7-1",           162,       147.342,       70.8897,            0.,NA,NA,"",   1.19620E+06,   698.779E+03,   698.779E+03
C:/temp/Job-7.odb,Step-1,Increment      1: Step Time =    1.000,"P-7-1",           163,       159.856,       72.6071,            0.,NA,NA,"",   1.50831E+06,   1.10948E+06,   1.10948E+06
C:/temp/Job-7.odb,Step-1,Increment      1: Step Time =    1.000,"P-7-1",           164,       169.268,       74.8912,            0.,NA,NA,"",   1.35089E+06,   1.15231E+06,   1.15231E+06
C:/temp/Job-7.odb,Step-1,Increment      1: Step Time =    1.000,"P-7-1",           165,       179.417,       73.9016,            0.,NA,NA,"",   1.21000E+06,   1.24084E+06,   1.24084E+06
C:/temp/Job-7.odb,Step-1,Increment      1: Step Time =    1.000,"P-7-1",           166,       189.982,       74.7139,            0.,NA,NA,"",   1.09851E+06,   1.25859E+06,   1.25859E+06
C:/temp/Job-7.odb,Step-1,Increment      1: Step Time =    1.000,"P-7-1",           167,       134.910,       61.8786,            0.,NA,NA,"",   1.92608E+06,   1.93458E+06,   1.93458E+06
C:/temp/Job-7.odb,Step-1,Increment      1: Step Time =    1.000,"P-7-1",           168,       148.835,       61.0249,            0.,NA,NA,"",   1.85041E+06,   1.56963E+06,   1.56963E+06
C:/temp/Job-7.odb,Step-1,Increment      1: Step Time =    1.000,"P-7-1",           169,       158.949,       61.2223,            0.,NA,NA,"",   1.77049E+06,   1.46674E+06,   1.46674E+06
C:/temp/Job-7.odb,Step-1,Increment      1: Step Time =    1.000,"P-7-1",           170,       169.852,       63.9730,            0.,NA,NA,"",   1.55012E+06,   1.36906E+06,   1.36906E+06
C:/temp/Job-7.odb,Step-1,Increment      1: Step Time =    1.000,"P-7-1",           171,       190.597,       64.9287,            0.,NA,NA,"",   1.05209E+06,   1.19781E+06,   1.19781E+06
C:/temp/Job-7.odb,Step-1,Increment      1: Step Time =    1.000,"P-7-1",           172,       125.552,       53.7959,            0.,NA,NA,"",   2.87001E+06,   2.94284E+06,   2.94284E+06
C:/temp/Job-7.odb,Step-1,Increment      1: Step Time =    1.000,"P-7-1",           173,       135.351,       52.2992,            0.,NA,NA,"",   2.14761E+06,   2.13801E+06,   2.13801E+06
C:/temp/Job-7.odb,Step-1,Increment      1: Step Time =    1.000,"P-7-1",           174,       145.353,       52.7675,            0.,NA,NA,"",   1.99404E+06,   1.82071E+06,   1.82071E+06
C:/temp/Job-7.odb,Step-1,Increment      1: Step Time =    1.000,"P-7-1",           175,       158.491,       52.2566,            0.,NA,NA,"",   1.81743E+06,   1.59093E+06,   1.59093E+06
C:/temp/Job-7.odb,Step-1,Increment      1: Step Time =    1.000,"P-7-1",           176,       168.437,       53.0101,            0.,NA,NA,"",   1.60811E+06,   1.45631E+06,   1.45631E+06
C:/temp/Job-7.odb,Step-1,Increment      1: Step Time =    1.000,"P-7-1",           177,       179.496,       51.7065,            0.,NA,NA,"",   1.30997E+06,   1.29961E+06,   1.29961E+06
C:/temp/Job-7.odb,Step-1,Increment      1: Step Time =    1.000,"P-7-1",           178,       190.274,       50.5130,            0.,NA,NA,"",   1.01809E+06,   1.11829E+06,   1.11829E+06
C:/temp/Job-7.odb,Step-1,Increment      1: Step Time =    1.000,"P-7-1",           179,       107.299,       42.7127,            0.,NA,NA,"",   2.79280E+06,   2.97206E+06,   2.97206E+06
C:/temp/Job-7.odb,Step-1,Increment      1: Step Time =    1.000,"P-7-1",           180,       11.0460,       41.1019,            0.,NA,NA,"",   1.11060E+06,   1.19170E+06,   1.19170E+06
C:/temp/Job-7.odb,Step-1,Increment      1: Step Time =    1.000,"P-7-1",           181,       28.2111,       40.4065,            0.,NA,NA,"",   1.36363E+06,   1.33335E+06,   1.33335E+06
C:/temp/Job-7.odb,Step-1,Increment      1: Step Time =    1.000,"P-7-1",           182,       44.3196,       41.2048,            0.,NA,NA,"",   1.60513E+06,   1.46721E+06,   1.46721E+06
C:/temp/Job-7.odb,Step-1,Increment      1: Step Time =    1.000,"P-7-1",           183,       52.1644,       41.3178,            0.,NA,NA,"",   1.73804E+06,   1.57183E+06,   1.57183E+06
C:/temp/Job-7.odb,Step-1,Increment      1: Step Time =    1.000,"P-7-1",           184,       61.0428,       41.0327,            0.,NA,NA,"",   1.89202E+06,   1.73395E+06,   1.73395E+06
C:/temp/Job-7.odb,Step-1,Increment      1: Step Time =    1.000,"P-7-1",           185,       72.5066,       39.9417,            0.,NA,NA,"",   2.08435E+06,   2.00199E+06,   2.00199E+06
C:/temp/Job-7.odb,Step-1,Increment      1: Step Time =    1.000,"P-7-1",           186,       83.2186,       41.5092,            0.,NA,NA,"",   2.32644E+06,   2.36948E+06,   2.36948E+06
C:/temp/Job-7.odb,Step-1,Increment      1: Step Time =    1.000,"P-7-1",           187,       114.826,       40.6688,            0.,NA,NA,"",   2.39843E+06,   2.57073E+06,   2.57073E+06
C:/temp/Job-7.odb,Step-1,Increment      1: Step Time =    1.000,"P-7-1",           188,       123.995,       43.2140,            0.,NA,NA,"",   2.30683E+06,   2.42456E+06,   2.42456E+06
C:/temp/Job-7.odb,Step-1,Increment      1: Step Time =    1.000,"P-7-1",           189,       134.585,       41.6590,            0.,NA,NA,"",   2.01627E+06,   2.01824E+06,   2.01824E+06
C:/temp/Job-7.odb,Step-1,Increment      1: Step Time =    1.000,"P-7-1",           190,       146.652,       40.1855,            0.,NA,NA,"",   1.84230E+06,   1.73627E+06,   1.73627E+06
C:/temp/Job-7.odb,Step-1,Increment      1: Step Time =    1.000,"P-7-1",           191,       158.295,       44.3691,            0.,NA,NA,"",   1.74371E+06,   1.58130E+06,   1.58130E+06
C:/temp/Job-7.odb,Step-1,Increment      1: Step Time =    1.000,"P-7-1",           192,       169.834,       42.5167,            0.,NA,NA,"",   1.47407E+06,   1.38826E+06,   1.38826E+06
C:/temp/Job-7.odb,Step-1,Increment      1: Step Time =    1.000,"P-7-1",           193,       181.136,       40.6539,            0.,NA,NA,"",   1.19879E+06,   1.20469E+06,   1.20469E+06
C:/temp/Job-7.odb,Step-1,Increment      1: Step Time =    1.000,"P-7-1",           194,       190.345,       40.6916,            0.,NA,NA,"",   1.01631E+06,   1.07669E+06,   1.07669E+06
C:/temp/Job-7.odb,Step-1,Increment      1: Step Time =    1.000,"P-7-1",           195,       70.8734,       52.6373,            0.,NA,NA,"",   1.69180E+06,   1.64842E+06,   1.64842E+06
C:/temp/Job-7.odb,Step-1,Increment      1: Step Time =    1.000,"P-7-1",           196,       61.0096,       51.1744,            0.,NA,NA,"",   1.59050E+06,   1.41977E+06,   1.41977E+06
C:/temp/Job-7.odb,Step-1,Increment      1: Step Time =    1.000,"P-7-1",           197,       52.7313,       54.6103,            0.,NA,NA,"",   1.32091E+06,   1.12481E+06,   1.12481E+06
C:/temp/Job-7.odb,Step-1,Increment      1: Step Time =    1.000,"P-7-1",           198,       40.0394,       52.9370,            0.,NA,NA,"",   1.17199E+06,   1.04630E+06,   1.04630E+06
C:/temp/Job-7.odb,Step-1,Increment      1: Step Time =    1.000,"P-7-1",           199,       31.6109,       51.5761,            0.,NA,NA,"",   1.07490E+06,   1.01480E+06,   1.01480E+06
C:/temp/Job-7.odb,Step-1,Increment      1: Step Time =    1.000,"P-7-1",           200,       22.1694,       53.2347,            0.,NA,NA,"",   898.010E+03,   906.887E+03,   906.887E+03
C:/temp/Job-7.odb,Step-1,Increment      1: Step Time =    1.000,"P-7-1",           201,       9.37374,       50.8261,            0.,NA,NA,"",   838.744E+03,   912.296E+03,   912.296E+03
C:/temp/Job-7.odb,Step-1,Increment      1: Step Time =    1.000,"P-7-1",           202,       61.8542,       65.0967,            0.,NA,NA,"",   495.649E+03,   273.884E+03,   273.884E+03
C:/temp/Job-7.odb,Step-1,Increment      1: Step Time =    1.000,"P-7-1",           203,       52.1517,       64.6591,            0.,NA,NA,"",   783.321E+03,   558.355E+03,   558.355E+03
C:/temp/Job-7.odb,Step-1,Increment      1: Step Time =    1.000,"P-7-1",           204,       41.1874,       65.2239,            0.,NA,NA,"",   727.875E+03,   575.226E+03,   575.226E+03
C:/temp/Job-7.odb,Step-1,Increment      1: Step Time =    1.000,"P-7-1",           205,       32.1018,       61.9667,            0.,NA,NA,"",   747.376E+03,   681.154E+03,   681.154E+03
C:/temp/Job-7.odb,Step-1,Increment      1: Step Time =    1.000,"P-7-1",           206,       20.2526,       62.8462,            0.,NA,NA,"",   603.719E+03,   620.576E+03,   620.576E+03
C:/temp/Job-7.odb,Step-1,Increment      1: Step Time =    1.000,"P-7-1",           207,       9.52363,       64.7925,            0.,NA,NA,"",   503.115E+03,   548.134E+03,   548.134E+03
C:/temp/Job-7.odb,Step-1,Increment      1: Step Time =    1.000,"P-7-1",           208,       53.5370,       74.5318,            0.,NA,NA,"",   540.188E+03,  -503.423E+03,  -503.423E+03
C:/temp/Job-7.odb,Step-1,Increment      1: Step Time =    1.000,"P-7-1",           209,       42.1491,       76.1891,            0.,NA,NA,"",   390.382E+03,  -151.215E+03,  -151.215E+03
C:/temp/Job-7.odb,Step-1,Increment      1: Step Time =    1.000,"P-7-1",           210,       32.5912,       72.8885,            0.,NA,NA,"",   401.045E+03,   324.874E+03,   324.874E+03
C:/temp/Job-7.odb,Step-1,Increment      1: Step Time =    1.000,"P-7-1",           211,       20.8592,       73.0081,            0.,NA,NA,"",   334.612E+03,   342.464E+03,   342.464E+03
C:/temp/Job-7.odb,Step-1,Increment      1: Step Time =    1.000,"P-7-1",           212,       10.3112,       74.4356,            0.,NA,NA,"",   304.605E+03,   332.908E+03,   332.908E+03
C:/temp/Job-7.odb,Step-1,Increment      1: Step Time =    1.000,"P-7-1",           213,       39.4516,       86.8123,            0.,NA,NA,"",   266.881E+03,  -285.321E+03,  -285.321E+03
C:/temp/Job-7.odb,Step-1,Increment      1: Step Time =    1.000,"P-7-1",           214,       27.3668,       85.7474,            0.,NA,NA,"",   114.866E+03,  -30.6236E+03,  -30.6236E+03
C:/temp/Job-7.odb,Step-1,Increment      1: Step Time =    1.000,"P-7-1",           215,       20.1400,       87.4666,            0.,NA,NA,"",   117.578E+03,   103.468E+03,   103.468E+03
C:/temp/Job-7.odb,Step-1,Increment      1: Step Time =    1.000,"P-7-1",           216,       10.9047,       84.7289,            0.,NA,NA,"",   158.410E+03,   169.829E+03,   169.829E+03
C:/temp/Job-7.odb,Step-1,Increment      1: Step Time =    1.000,"P-7-1",           217,       42.4831,       93.7713,            0.,NA,NA,"",   415.980E+03,  -456.420E+03,  -456.420E+03
C:/temp/Job-7.odb,Step-1,Increment      1: Step Time =    1.000,"P-7-1",           218,       29.4157,       95.1546,            0.,NA,NA,"",   96.5699E+03,  -104.480E+03,  -104.480E+03
C:/temp/Job-7.odb,Step-1,Increment      1: Step Time =    1.000,"P-7-1",           219,       20.1424,       95.8637,            0.,NA,NA,"",   107.256E+03,   39.1119E+03,   39.1119E+03
C:/temp/Job-7.odb,Step-1,Increment      1: Step Time =    1.000,"P-7-1",           220,       10.4113,       95.3517,            0.,NA,NA,"",   106.804E+03,   100.560E+03,   100.560E+03
C:/temp/Job-7.odb,Step-1,Increment      1: Step Time =    1.000,"P-7-1",           221,       43.3421,       105.625,            0.,NA,NA,"",   463.550E+03,  -504.178E+03,  -504.178E+03
C:/temp/Job-7.odb,Step-1,Increment      1: Step Time =    1.000,"P-7-1",           222,       34.2374,       103.527,            0.,NA,NA,"",   156.419E+03,  -177.795E+03,  -177.795E+03
C:/temp/Job-7.odb,Step-1,Increment      1: Step Time =    1.000,"P-7-1",           223,       21.0873,       107.268,            0.,NA,NA,"",   104.442E+03,   27.8917E+03,   27.8917E+03
C:/temp/Job-7.odb,Step-1,Increment      1: Step Time =    1.000,"P-7-1",           224,       10.1431,       105.455,            0.,NA,NA,"",   107.137E+03,   102.324E+03,   102.324E+03
C:/temp/Job-7.odb,Step-1,Increment      1: Step Time =    1.000,"P-7-1",           225,       54.3991,       126.414,            0.,NA,NA,"",   528.628E+03,  -487.770E+03,  -487.770E+03
C:/temp/Job-7.odb,Step-1,Increment      1: Step Time =    1.000,"P-7-1",           226,       42.6992,       128.669,            0.,NA,NA,"",   511.384E+03,   44.5151E+03,   44.5151E+03
C:/temp/Job-7.odb,Step-1,Increment      1: Step Time =    1.000,"P-7-1",           227,       33.5707,       126.865,            0.,NA,NA,"",   399.511E+03,   309.707E+03,   309.707E+03
C:/temp/Job-7.odb,Step-1,Increment      1: Step Time =    1.000,"P-7-1",           228,       20.1866,       126.546,            0.,NA,NA,"",   324.723E+03,   336.894E+03,   336.894E+03
C:/temp/Job-7.odb,Step-1,Increment      1: Step Time =    1.000,"P-7-1",           229,       9.97479,       125.256,            0.,NA,NA,"",   295.009E+03,   323.050E+03,   323.050E+03
C:/temp/Job-7.odb,Step-1,Increment      1: Step Time =    1.000,"P-7-1",           230,       10.0466,       115.416,            0.,NA,NA,"",   162.322E+03,   174.751E+03,   174.751E+03
C:/temp/Job-7.odb,Step-1,Increment      1: Step Time =    1.000,"P-7-1",           231,       19.9611,       114.992,            0.,NA,NA,"",   136.511E+03,   132.769E+03,   132.769E+03
C:/temp/Job-7.odb,Step-1,Increment      1: Step Time =    1.000,"P-7-1",           232,       30.7614,       115.673,            0.,NA,NA,"",   147.182E+03,  -58.0767E+03,  -58.0767E+03
C:/temp/Job-7.odb,Step-1,Increment      1: Step Time =    1.000,"P-7-1",           233,       41.9076,       117.322,            0.,NA,NA,"",   333.716E+03,  -331.142E+03,  -331.142E+03
C:/temp/Job-7.odb,Step-1,Increment      1: Step Time =    1.000,"P-7-1",           234,       63.0004,       137.581,            0.,NA,NA,"",   729.384E+03,   626.655E+03,   626.655E+03
C:/temp/Job-7.odb,Step-1,Increment      1: Step Time =    1.000,"P-7-1",           235,       51.9969,       137.282,            0.,NA,NA,"",   892.420E+03,   673.942E+03,   673.942E+03
C:/temp/Job-7.odb,Step-1,Increment      1: Step Time =    1.000,"P-7-1",           236,       44.0173,       139.310,            0.,NA,NA,"",   943.852E+03,   778.715E+03,   778.715E+03
C:/temp/Job-7.odb,Step-1,Increment      1: Step Time =    1.000,"P-7-1",           237,       31.3674,       140.120,            0.,NA,NA,"",   809.608E+03,   751.124E+03,   751.124E+03
C:/temp/Job-7.odb,Step-1,Increment      1: Step Time =    1.000,"P-7-1",           238,       21.2319,       134.530,            0.,NA,NA,"",   531.840E+03,   541.052E+03,   541.052E+03
C:/temp/Job-7.odb,Step-1,Increment      1: Step Time =    1.000,"P-7-1",           239,       9.90204,       135.091,            0.,NA,NA,"",   502.079E+03,   546.603E+03,   546.603E+03
C:/temp/Job-7.odb,Step-1,Increment      1: Step Time =    1.000,"P-7-1",           240,       189.590,       10.3016,            0.,NA,NA,"",   1.00527E+06,   1.00623E+06,   1.00623E+06
C:/temp/Job-7.odb,Step-1,Increment      1: Step Time =    1.000,"P-7-1",           241,       179.383,       10.0417,            0.,NA,NA,"",   1.01993E+06,   1.01934E+06,   1.01934E+06
C:/temp/Job-7.odb,Step-1,Increment      1: Step Time =    1.000,"P-7-1",           242,       169.161,       9.73462,            0.,NA,NA,"",   1.03709E+06,   1.03029E+06,   1.03029E+06
C:/temp/Job-7.odb,Step-1,Increment      1: Step Time =    1.000,"P-7-1",           243,       158.239,       9.98296,            0.,NA,NA,"",   1.04274E+06,   1.02996E+06,   1.02996E+06
C:/temp/Job-7.odb,Step-1,Increment      1: Step Time =    1.000,"P-7-1",           244,       151.231,       9.23376,            0.,NA,NA,"",   1.00515E+06,   992.707E+03,   992.707E+03
C:/temp/Job-7.odb,Step-1,Increment      1: Step Time =    1.000,"P-7-1",           245,       135.785,       10.4977,            0.,NA,NA,"",   969.551E+03,   962.041E+03,   962.041E+03
C:/temp/Job-7.odb,Step-1,Increment      1: Step Time =    1.000,"P-7-1",           246,       125.315,       10.4062,            0.,NA,NA,"",   890.706E+03,   901.788E+03,   901.788E+03
C:/temp/Job-7.odb,Step-1,Increment      1: Step Time =    1.000,"P-7-1",           247,       115.072,       10.2817,            0.,NA,NA,"",   843.945E+03,   871.062E+03,   871.062E+03
C:/temp/Job-7.odb,Step-1,Increment      1: Step Time =    1.000,"P-7-1",           248,       104.748,       10.2808,            0.,NA,NA,"",   897.810E+03,   924.993E+03,   924.993E+03
C:/temp/Job-7.odb,Step-1,Increment      1: Step Time =    1.000,"P-7-1",           249,       94.6519,       10.0964,            0.,NA,NA,"",   1.04720E+06,   1.05550E+06,   1.05550E+06
C:/temp/Job-7.odb,Step-1,Increment      1: Step Time =    1.000,"P-7-1",           250,       84.7838,       9.72804,            0.,NA,NA,"",   1.24629E+06,   1.23054E+06,   1.23054E+06
C:/temp/Job-7.odb,Step-1,Increment      1: Step Time =    1.000,"P-7-1",           251,       74.9731,       9.57943,            0.,NA,NA,"",   1.44905E+06,   1.42094E+06,   1.42094E+06
C:/temp/Job-7.odb,Step-1,Increment      1: Step Time =    1.000,"P-7-1",           252,       65.1401,       9.72610,            0.,NA,NA,"",   1.63304E+06,   1.60152E+06,   1.60152E+06
C:/temp/Job-7.odb,Step-1,Increment      1: Step Time =    1.000,"P-7-1",           253,       50.3983,       9.89113,            0.,NA,NA,"",   1.83944E+06,   1.81338E+06,   1.81338E+06
C:/temp/Job-7.odb,Step-1,Increment      1: Step Time =    1.000,"P-7-1",           254,       40.5635,       9.59555,            0.,NA,NA,"",   1.93208E+06,   1.91434E+06,   1.91434E+06
C:/temp/Job-7.odb,Step-1,Increment      1: Step Time =    1.000,"P-7-1",           255,       30.6775,       9.47962,            0.,NA,NA,"",   2.00126E+06,   1.99352E+06,   1.99352E+06
C:/temp/Job-7.odb,Step-1,Increment      1: Step Time =    1.000,"P-7-1",           256,       20.5779,       9.66862,            0.,NA,NA,"",   2.06201E+06,   2.06995E+06,   2.06995E+06
C:/temp/Job-7.odb,Step-1,Increment      1: Step Time =    1.000,"P-7-1",           257,       10.4509,       9.96560,            0.,NA,NA,"",   2.11905E+06,   2.18180E+06,   2.18180E+06
C:/temp/Job-7.odb,Step-1,Increment      1: Step Time =    1.000,"P-7-1",           258,       189.350,       20.7259,            0.,NA,NA,"",   1.01983E+06,   1.02797E+06,   1.02797E+06
C:/temp/Job-7.odb,Step-1,Increment      1: Step Time =    1.000,"P-7-1",           259,       176.330,       23.4359,            0.,NA,NA,"",   1.13313E+06,   1.12465E+06,   1.12465E+06
C:/temp/Job-7.odb,Step-1,Increment      1: Step Time =    1.000,"P-7-1",           260,       168.211,       23.3717,            0.,NA,NA,"",   1.22436E+06,   1.19306E+06,   1.19306E+06
C:/temp/Job-7.odb,Step-1,Increment      1: Step Time =    1.000,"P-7-1",           261,       158.915,       19.1751,            0.,NA,NA,"",   1.22477E+06,   1.18928E+06,   1.18928E+06
C:/temp/Job-7.odb,Step-1,Increment      1: Step Time =    1.000,"P-7-1",           262,       148.303,       20.9349,            0.,NA,NA,"",   1.32875E+06,   1.28885E+06,   1.28885E+06
C:/temp/Job-7.odb,Step-1,Increment      1: Step Time =    1.000,"P-7-1",           263,       136.458,       20.7658,            0.,NA,NA,"",   1.33193E+06,   1.32078E+06,   1.32078E+06
C:/temp/Job-7.odb,Step-1,Increment      1: Step Time =    1.000,"P-7-1",           264,       124.507,       21.9760,            0.,NA,NA,"",   1.35260E+06,   1.40171E+06,   1.40171E+06
C:/temp/Job-7.odb,Step-1,Increment      1: Step Time =    1.000,"P-7-1",           265,       115.464,       20.8865,            0.,NA,NA,"",   1.30187E+06,   1.38104E+06,   1.38104E+06
C:/temp/Job-7.odb,Step-1,Increment      1: Step Time =    1.000,"P-7-1",           266,       104.414,       20.0590,            0.,NA,NA,"",   1.33710E+06,   1.41517E+06,   1.41517E+06
C:/temp/Job-7.odb,Step-1,Increment      1: Step Time =    1.000,"P-7-1",           267,       92.9052,       21.1068,            0.,NA,NA,"",   1.55381E+06,   1.59205E+06,   1.59205E+06
C:/temp/Job-7.odb,Step-1,Increment      1: Step Time =    1.000,"P-7-1",           268,       84.5217,       19.8647,            0.,NA,NA,"",   1.64560E+06,   1.63047E+06,   1.63047E+06
C:/temp/Job-7.odb,Step-1,Increment      1: Step Time =    1.000,"P-7-1",           269,       75.3836,       18.5982,            0.,NA,NA,"",   1.72791E+06,   1.67126E+06,   1.67126E+06
C:/temp/Job-7.odb,Step-1,Increment      1: Step Time =    1.000,"P-7-1",           270,       65.0093,       20.1730,            0.,NA,NA,"",   1.84032E+06,   1.75755E+06,   1.75755E+06
C:/temp/Job-7.odb,Step-1,Increment      1: Step Time =    1.000,"P-7-1",           271,       50.4202,       20.2267,            0.,NA,NA,"",   1.85718E+06,   1.78074E+06,   1.78074E+06
C:/temp/Job-7.odb,Step-1,Increment      1: Step Time =    1.000,"P-7-1",           272,       40.5536,       18.9571,            0.,NA,NA,"",   1.85615E+06,   1.80581E+06,   1.80581E+06
C:/temp/Job-7.odb,Step-1,Increment      1: Step Time =    1.000,"P-7-1",           273,       31.4201,       18.1522,            0.,NA,NA,"",   1.86806E+06,   1.84634E+06,   1.84634E+06
C:/temp/Job-7.odb,Step-1,Increment      1: Step Time =    1.000,"P-7-1",           274,       20.9860,       19.7165,            0.,NA,NA,"",   1.81764E+06,   1.84087E+06,   1.84087E+06
C:/temp/Job-7.odb,Step-1,Increment      1: Step Time =    1.000,"P-7-1",           275,       12.2621,       20.6485,            0.,NA,NA,"",   1.70895E+06,   1.79733E+06,   1.79733E+06
C:/temp/Job-7.odb,Step-1,Increment      1: Step Time =    1.000,"P-7-1",           276,       190.354,       30.9050,            0.,NA,NA,"",   1.01894E+06,   1.04681E+06,   1.04681E+06
C:/temp/Job-7.odb,Step-1,Increment      1: Step Time =    1.000,"P-7-1",           277,       182.023,       32.0948,            0.,NA,NA,"",   1.12262E+06,   1.13110E+06,   1.13110E+06
C:/temp/Job-7.odb,Step-1,Increment      1: Step Time =    1.000,"P-7-1",           278,       169.206,       33.9100,            0.,NA,NA,"",   1.36197E+06,   1.30594E+06,   1.30594E+06
C:/temp/Job-7.odb,Step-1,Increment      1: Step Time =    1.000,"P-7-1",           279,       159.510,       29.2778,            0.,NA,NA,"",   1.43535E+06,   1.36441E+06,   1.36441E+06
C:/temp/Job-7.odb,Step-1,Increment      1: Step Time =    1.000,"P-7-1",           280,       147.693,       31.6004,            0.,NA,NA,"",   1.62952E+06,   1.55603E+06,   1.55603E+06
C:/temp/Job-7.odb,Step-1,Increment      1: Step Time =    1.000,"P-7-1",           281,       137.315,       33.1059,            0.,NA,NA,"",   1.73765E+06,   1.71718E+06,   1.71718E+06
C:/temp/Job-7.odb,Step-1,Increment      1: Step Time =    1.000,"P-7-1",           282,       126.720,       33.9345,            0.,NA,NA,"",   1.82607E+06,   1.90214E+06,   1.90214E+06
C:/temp/Job-7.odb,Step-1,Increment      1: Step Time =    1.000,"P-7-1",           283,       114.613,       31.2565,            0.,NA,NA,"",   1.78336E+06,   1.92422E+06,   1.92422E+06
C:/temp/Job-7.odb,Step-1,Increment      1: Step Time =    1.000,"P-7-1",           284,       105.462,       33.3306,            0.,NA,NA,"",   1.98603E+06,   2.14751E+06,   2.14751E+06
C:/temp/Job-7.odb,Step-1,Increment      1: Step Time =    1.000,"P-7-1",           285,       97.0607,       34.1656,            0.,NA,NA,"",   2.09841E+06,   2.23301E+06,   2.23301E+06
C:/temp/Job-7.odb,Step-1,Increment      1: Step Time =    1.000,"P-7-1",           286,       85.0167,       30.8032,            0.,NA,NA,"",   2.00064E+06,   2.01816E+06,   2.01816E+06
C:/temp/Job-7.odb,Step-1,Increment      1: Step Time =    1.000,"P-7-1",           287,       70.6582,       31.4150,            0.,NA,NA,"",   2.02453E+06,   1.92244E+06,   1.92244E+06
C:/temp/Job-7.odb,Step-1,Increment      1: Step Time =    1.000,"P-7-1",           288,       63.3331,       30.7424,            0.,NA,NA,"",   1.97540E+06,   1.84744E+06,   1.84744E+06
C:/temp/Job-7.odb,Step-1,Increment      1: Step Time =    1.000,"P-7-1",           289,       52.8985,       31.0957,            0.,NA,NA,"",   1.87370E+06,   1.73909E+06,   1.73909E+06
C:/temp/Job-7.odb,Step-1,Increment      1: Step Time =    1.000,"P-7-1",           290,       42.7168,       28.8864,            0.,NA,NA,"",   1.77862E+06,   1.68564E+06,   1.68564E+06
C:/temp/Job-7.odb,Step-1,Increment      1: Step Time =    1.000,"P-7-1",           291,       29.0698,       30.8827,            0.,NA,NA,"",   1.61240E+06,   1.58579E+06,   1.58579E+06
C:/temp/Job-7.odb,Step-1,Increment      1: Step Time =    1.000,"P-7-1",           292,       20.4768,       32.0485,            0.,NA,NA,"",   1.48298E+06,   1.51164E+06,   1.51164E+06
C:/temp/Job-7.odb,Step-1,Increment      1: Step Time =    1.000,"P-7-1",           293,       10.3977,       30.8791,            0.,NA,NA,"",   1.37187E+06,   1.47442E+06,   1.47442E+06
C:/temp/Job-7.odb,Step-1,Increment      1: Step Time =    1.000,"P-7-1",           294,       190.133,       169.733,            0.,NA,NA,"",   1.02054E+06,   1.04602E+06,   1.04602E+06
C:/temp/Job-7.odb,Step-1,Increment      1: Step Time =    1.000,"P-7-1",           295,       177.352,       170.720,            0.,NA,NA,"",   1.17376E+06,   1.16320E+06,   1.16320E+06
C:/temp/Job-7.odb,Step-1,Increment      1: Step Time =    1.000,"P-7-1",           296,       169.728,       173.266,            0.,NA,NA,"",   1.25189E+06,   1.21728E+06,   1.21728E+06
C:/temp/Job-7.odb,Step-1,Increment      1: Step Time =    1.000,"P-7-1",           297,       156.183,       170.445,            0.,NA,NA,"",   1.48500E+06,   1.40821E+06,   1.40821E+06
C:/temp/Job-7.odb,Step-1,Increment      1: Step Time =    1.000,"P-7-1",           298,       147.256,       167.952,            0.,NA,NA,"",   1.64455E+06,   1.57018E+06,   1.57018E+06
C:/temp/Job-7.odb,Step-1,Increment      1: Step Time =    1.000,"P-7-1",           299,       136.884,       169.828,            0.,NA,NA,"",   1.65359E+06,   1.64250E+06,   1.64250E+06
C:/temp/Job-7.odb,Step-1,Increment      1: Step Time =    1.000,"P-7-1",           300,       124.748,       170.234,            0.,NA,NA,"",   1.66226E+06,   1.74185E+06,   1.74185E+06
C:/temp/Job-7.odb,Step-1,Increment      1: Step Time =    1.000,"P-7-1",           301,       114.852,       168.957,            0.,NA,NA,"",   1.75736E+06,   1.89230E+06,   1.89230E+06
C:/temp/Job-7.odb,Step-1,Increment      1: Step Time =    1.000,"P-7-1",           302,       104.765,       169.379,            0.,NA,NA,"",   1.83973E+06,   1.98747E+06,   1.98747E+06
C:/temp/Job-7.odb,Step-1,Increment      1: Step Time =    1.000,"P-7-1",           303,       95.0794,       167.295,            0.,NA,NA,"",   2.03002E+06,   2.14217E+06,   2.14217E+06
C:/temp/Job-7.odb,Step-1,Increment      1: Step Time =    1.000,"P-7-1",           304,       84.9398,       168.952,            0.,NA,NA,"",   2.01725E+06,   2.03419E+06,   2.03419E+06
C:/temp/Job-7.odb,Step-1,Increment      1: Step Time =    1.000,"P-7-1",           305,       71.6793,       167.431,            0.,NA,NA,"",   2.03717E+06,   1.94196E+06,   1.94196E+06
C:/temp/Job-7.odb,Step-1,Increment      1: Step Time =    1.000,"P-7-1",           306,       62.8577,       170.990,            0.,NA,NA,"",   1.94514E+06,   1.81978E+06,   1.81978E+06
C:/temp/Job-7.odb,Step-1,Increment      1: Step Time =    1.000,"P-7-1",           307,       52.4692,       170.366,            0.,NA,NA,"",   1.86112E+06,   1.73539E+06,   1.73539E+06
C:/temp/Job-7.odb,Step-1,Increment      1: Step Time =    1.000,"P-7-1",           308,       40.0086,       170.159,            0.,NA,NA,"",   1.73618E+06,   1.65035E+06,   1.65035E+06
C:/temp/Job-7.odb,Step-1,Increment      1: Step Time =    1.000,"P-7-1",           309,       29.7624,       169.440,            0.,NA,NA,"",   1.62441E+06,   1.59301E+06,   1.59301E+06
C:/temp/Job-7.odb,Step-1,Increment      1: Step Time =    1.000,"P-7-1",           310,       17.9696,       167.855,            0.,NA,NA,"",   1.44694E+06,   1.49319E+06,   1.49319E+06
C:/temp/Job-7.odb,Step-1,Increment      1: Step Time =    1.000,"P-7-1",           311,       9.59886,       169.043,            0.,NA,NA,"",   1.35803E+06,   1.46531E+06,   1.46531E+06
C:/temp/Job-7.odb,Step-1,Increment      1: Step Time =    1.000,"P-7-1",           312,       190.134,       179.785,            0.,NA,NA,"",   1.01588E+06,   1.02318E+06,   1.02318E+06
C:/temp/Job-7.odb,Step-1,Increment      1: Step Time =    1.000,"P-7-1",           313,       177.423,       177.504,            0.,NA,NA,"",   1.11444E+06,   1.10798E+06,   1.10798E+06
C:/temp/Job-7.odb,Step-1,Increment      1: Step Time =    1.000,"P-7-1",           314,       168.438,       181.843,            0.,NA,NA,"",   1.14603E+06,   1.12578E+06,   1.12578E+06
C:/temp/Job-7.odb,Step-1,Increment      1: Step Time =    1.000,"P-7-1",           315,       159.690,       180.460,            0.,NA,NA,"",   1.23060E+06,   1.19384E+06,   1.19384E+06
C:/temp/Job-7.odb,Step-1,Increment      1: Step Time =    1.000,"P-7-1",           316,       149.031,       179.208,            0.,NA,NA,"",   1.32051E+06,   1.27991E+06,   1.27991E+06
C:/temp/Job-7.odb,Step-1,Increment      1: Step Time =    1.000,"P-7-1",           317,       135.376,       180.484,            0.,NA,NA,"",   1.28833E+06,   1.28447E+06,   1.28447E+06
C:/temp/Job-7.odb,Step-1,Increment      1: Step Time =    1.000,"P-7-1",           318,       126.013,       180.407,            0.,NA,NA,"",   1.25965E+06,   1.29362E+06,   1.29362E+06
C:/temp/Job-7.odb,Step-1,Increment      1: Step Time =    1.000,"P-7-1",           319,       115.752,       179.618,            0.,NA,NA,"",   1.28314E+06,   1.35935E+06,   1.35935E+06
C:/temp/Job-7.odb,Step-1,Increment      1: Step Time =    1.000,"P-7-1",           320,       107.424,       178.501,            0.,NA,NA,"",   1.36949E+06,   1.45975E+06,   1.45975E+06
C:/temp/Job-7.odb,Step-1,Increment      1: Step Time =    1.000,"P-7-1",           321,       95.8516,       178.543,            0.,NA,NA,"",   1.53030E+06,   1.58620E+06,   1.58620E+06
C:/temp/Job-7.odb,Step-1,Increment      1: Step Time =    1.000,"P-7-1",           322,       85.5347,       178.284,            0.,NA,NA,"",   1.70427E+06,   1.70073E+06,   1.70073E+06
C:/temp/Job-7.odb,Step-1,Increment      1: Step Time =    1.000,"P-7-1",           323,       74.3575,       178.335,            0.,NA,NA,"",   1.82532E+06,   1.75821E+06,   1.75821E+06
C:/temp/Job-7.odb,Step-1,Increment      1: Step Time =    1.000,"P-7-1",           324,       64.5951,       180.263,            0.,NA,NA,"",   1.83596E+06,   1.75243E+06,   1.75243E+06
C:/temp/Job-7.odb,Step-1,Increment      1: Step Time =    1.000,"P-7-1",           325,       54.5909,       179.681,            0.,NA,NA,"",   1.85623E+06,   1.77257E+06,   1.77257E+06
C:/temp/Job-7.odb,Step-1,Increment      1: Step Time =    1.000,"P-7-1",           326,       39.1374,       174.654,            0.,NA,NA,"",   1.78974E+06,   1.72264E+06,   1.72264E+06
C:/temp/Job-7.odb,Step-1,Increment      1: Step Time =    1.000,"P-7-1",           327,       30.6800,       179.887,            0.,NA,NA,"",   1.83700E+06,   1.81427E+06,   1.81427E+06
C:/temp/Job-7.odb,Step-1,Increment      1: Step Time =    1.000,"P-7-1",           328,       21.9498,       179.046,            0.,NA,NA,"",   1.79074E+06,   1.80721E+06,   1.80721E+06
C:/temp/Job-7.odb,Step-1,Increment      1: Step Time =    1.000,"P-7-1",           329,       11.2439,       179.252,            0.,NA,NA,"",   1.69238E+06,   1.78954E+06,   1.78954E+06
C:/temp/Job-7.odb,Step-1,Increment      1: Step Time =    1.000,"P-7-1",           330,       189.841,       189.749,            0.,NA,NA,"",   1.00432E+06,   1.00527E+06,   1.00527E+06
C:/temp/Job-7.odb,Step-1,Increment      1: Step Time =    1.000,"P-7-1",           331,       179.403,       189.562,            0.,NA,NA,"",   1.02135E+06,   1.02057E+06,   1.02057E+06
C:/temp/Job-7.odb,Step-1,Increment      1: Step Time =    1.000,"P-7-1",           332,       169.164,       190.370,            0.,NA,NA,"",   1.03621E+06,   1.02907E+06,   1.02907E+06
C:/temp/Job-7.odb,Step-1,Increment      1: Step Time =    1.000,"P-7-1",           333,       159.472,       190.224,            0.,NA,NA,"",   1.04061E+06,   1.02786E+06,   1.02786E+06
C:/temp/Job-7.odb,Step-1,Increment      1: Step Time =    1.000,"P-7-1",           334,       149.661,       190.084,            0.,NA,NA,"",   1.01903E+06,   1.00468E+06,   1.00468E+06
C:/temp/Job-7.odb,Step-1,Increment      1: Step Time =    1.000,"P-7-1",           335,       135.078,       190.383,            0.,NA,NA,"",   926.462E+03,   921.408E+03,   921.408E+03
C:/temp/Job-7.odb,Step-1,Increment      1: Step Time =    1.000,"P-7-1",           336,       125.367,       190.236,            0.,NA,NA,"",   858.900E+03,   868.381E+03,   868.381E+03
C:/temp/Job-7.odb,Step-1,Increment      1: Step Time =    1.000,"P-7-1",           337,       115.485,       190.006,            0.,NA,NA,"",   828.585E+03,   853.526E+03,   853.526E+03
C:/temp/Job-7.odb,Step-1,Increment      1: Step Time =    1.000,"P-7-1",           338,       105.489,       189.629,            0.,NA,NA,"",   896.100E+03,   924.941E+03,   924.941E+03
C:/temp/Job-7.odb,Step-1,Increment      1: Step Time =    1.000,"P-7-1",           339,       95.3480,       189.280,            0.,NA,NA,"",   1.06963E+06,   1.08078E+06,   1.08078E+06
C:/temp/Job-7.odb,Step-1,Increment      1: Step Time =    1.000,"P-7-1",           340,       85.1395,       189.245,            0.,NA,NA,"",   1.28414E+06,   1.26908E+06,   1.26908E+06
C:/temp/Job-7.odb,Step-1,Increment      1: Step Time =    1.000,"P-7-1",           341,       74.9326,       189.516,            0.,NA,NA,"",   1.48313E+06,   1.45136E+06,   1.45136E+06
C:/temp/Job-7.odb,Step-1,Increment      1: Step Time =    1.000,"P-7-1",           342,       64.9049,       190.116,            0.,NA,NA,"",   1.64938E+06,   1.61523E+06,   1.61523E+06
C:/temp/Job-7.odb,Step-1,Increment      1: Step Time =    1.000,"P-7-1",           343,       51.2199,       186.055,            0.,NA,NA,"",   1.83949E+06,   1.79357E+06,   1.79357E+06
C:/temp/Job-7.odb,Step-1,Increment      1: Step Time =    1.000,"P-7-1",           344,       40.9081,       188.809,            0.,NA,NA,"",   1.91412E+06,   1.89228E+06,   1.89228E+06
C:/temp/Job-7.odb,Step-1,Increment      1: Step Time =    1.000,"P-7-1",           345,       30.3690,       189.721,            0.,NA,NA,"",   1.99270E+06,   1.98449E+06,   1.98449E+06
C:/temp/Job-7.odb,Step-1,Increment      1: Step Time =    1.000,"P-7-1",           346,       20.3284,       189.579,            0.,NA,NA,"",   2.05012E+06,   2.05981E+06,   2.05981E+06
C:/temp/Job-7.odb,Step-1,Increment      1: Step Time =    1.000,"P-7-1",           347,       10.2043,       189.876,            0.,NA,NA,"",   2.11254E+06,   2.17956E+06,   2.17956E+06
C:/temp/Job-7.odb,Step-1,Increment      1: Step Time =    1.000,"P-7-1",           348,       94.9826,       147.737,            0.,NA,NA,"",   3.86781E+06,   3.93222E+06,   3.93222E+06
C:/temp/Job-7.odb,Step-1,Increment      1: Step Time =    1.000,"P-7-1",           349,       90.0202,       146.951,            0.,NA,NA,"",   3.47496E+06,   3.52794E+06,   3.52794E+06
C:/temp/Job-7.odb,Step-1,Increment      1: Step Time =    1.000,"P-7-1",           350,       80.4766,       143.850,            0.,NA,NA,"",   2.26379E+06,   2.29661E+06,   2.29661E+06
C:/temp/Job-7.odb,Step-1,Increment      1: Step Time =    1.000,"P-7-1",           351,           76.,       141.569,            0.,NA,NA,"",   1.64033E+06,   1.65690E+06,   1.65690E+06
C:/temp/Job-7.odb,Step-1,Increment      1: Step Time =    1.000,"P-7-1",           352,       67.8817,       135.671,            0.,NA,NA,"",   530.614E+03,   497.936E+03,   497.936E+03
C:/temp/Job-7.odb,Step-1,Increment      1: Step Time =    1.000,"P-7-1",           353,       64.3290,       132.118,            0.,NA,NA,"",   308.653E+03,  -5.12952E+03,  -5.12952E+03
C:/temp/Job-7.odb,Step-1,Increment      1: Step Time =    1.000,"P-7-1",           354,       58.4308,          124.,            0.,NA,NA,"",   580.465E+03,  -584.213E+03,  -584.213E+03
C:/temp/Job-7.odb,Step-1,Increment      1: Step Time =    1.000,"P-7-1",           355,       54.3493,       114.833,            0.,NA,NA,"",   853.500E+03,  -865.773E+03,  -865.773E+03
C:/temp/Job-7.odb,Step-1,Increment      1: Step Time =    1.000,"P-7-1",           356,       53.0489,       109.980,            0.,NA,NA,"",   880.947E+03,  -896.273E+03,  -896.273E+03
C:/temp/Job-7.odb,Step-1,Increment      1: Step Time =    1.000,"P-7-1",           357,           52.,          100.,            0.,NA,NA,"",   878.686E+03,  -897.518E+03,  -897.518E+03
C:/temp/Job-7.odb,Step-1,Increment      1: Step Time =    1.000,"P-7-1",           358,       52.2630,       94.9826,            0.,NA,NA,"",   873.431E+03,  -892.331E+03,  -892.331E+03
C:/temp/Job-7.odb,Step-1,Increment      1: Step Time =    1.000,"P-7-1",           359,       54.3493,       85.1672,            0.,NA,NA,"",   821.772E+03,  -835.845E+03,  -835.845E+03
C:/temp/Job-7.odb,Step-1,Increment      1: Step Time =    1.000,"P-7-1",           360,       56.1498,       80.4766,            0.,NA,NA,"",   742.309E+03,  -750.782E+03,  -750.782E+03
C:/temp/Job-7.odb,Step-1,Increment      1: Step Time =    1.000,"P-7-1",           361,       61.1672,       71.7863,            0.,NA,NA,"",   397.217E+03,  -361.865E+03,  -361.865E+03
C:/temp/Job-7.odb,Step-1,Increment      1: Step Time =    1.000,"P-7-1",           362,       64.3290,       67.8817,            0.,NA,NA,"",   302.831E+03,   15.8103E+03,   15.8103E+03
C:/temp/Job-7.odb,Step-1,Increment      1: Step Time =    1.000,"P-7-1",           363,       71.7863,       61.1672,            0.,NA,NA,"",   1.03282E+06,   1.04103E+06,   1.04103E+06
C:/temp/Job-7.odb,Step-1,Increment      1: Step Time =    1.000,"P-7-1",           364,           76.,       58.4308,            0.,NA,NA,"",   1.60626E+06,   1.63330E+06,   1.63330E+06
C:/temp/Job-7.odb,Step-1,Increment      1: Step Time =    1.000,"P-7-1",           365,       85.1672,       54.3493,            0.,NA,NA,"",   2.92127E+06,   2.95959E+06,   2.95959E+06
C:/temp/Job-7.odb,Step-1,Increment      1: Step Time =    1.000,"P-7-1",           366,       90.0202,       53.0489,            0.,NA,NA,"",   3.42823E+06,   3.48700E+06,   3.48700E+06
C:/temp/Job-7.odb,Step-1,Increment      1: Step Time =    1.000,"P-7-1",           367,          100.,           52.,            0.,NA,NA,"",   4.08083E+06,   4.15747E+06,   4.15747E+06
C:/temp/Job-7.odb,Step-1,Increment      1: Step Time =    1.000,"P-7-1",           368,       109.980,       53.0489,            0.,NA,NA,"",   4.13519E+06,   4.20948E+06,   4.20948E+06
C:/temp/Job-7.odb,Step-1,Increment      1: Step Time =    1.000,"P-7-1",           369,       114.833,       54.3493,            0.,NA,NA,"",   3.92619E+06,   3.99441E+06,   3.99441E+06
C:/temp/Job-7.odb,Step-1,Increment      1: Step Time =    1.000,"P-7-1",           370,          124.,       58.4308,            0.,NA,NA,"",   3.12961E+06,   3.17891E+06,   3.17891E+06
C:/temp/Job-7.odb,Step-1,Increment      1: Step Time =    1.000,"P-7-1",           371,       128.214,       61.1672,            0.,NA,NA,"",   2.50837E+06,   2.55558E+06,   2.55558E+06
C:/temp/Job-7.odb,Step-1,Increment      1: Step Time =    1.000,"P-7-1",           372,       135.671,       67.8817,            0.,NA,NA,"",   1.40741E+06,   1.40232E+06,   1.40232E+06
C:/temp/Job-7.odb,Step-1,Increment      1: Step Time =    1.000,"P-7-1",           373,       138.833,       71.7863,            0.,NA,NA,"",   921.658E+03,   837.014E+03,   837.014E+03
C:/temp/Job-7.odb,Step-1,Increment      1: Step Time =    1.000,"P-7-1",           374,       143.850,       80.4766,            0.,NA,NA,"",   910.154E+03,  -789.208E+03,  -789.208E+03
C:/temp/Job-7.odb,Step-1,Increment      1: Step Time =    1.000,"P-7-1",           375,       145.651,       85.1672,            0.,NA,NA,"",   1.28746E+06,  -1.28475E+06,  -1.28475E+06
C:/temp/Job-7.odb,Step-1,Increment      1: Step Time =    1.000,"P-7-1",           376,       147.737,       94.9826,            0.,NA,NA,"",   1.88051E+06,  -1.90796E+06,  -1.90796E+06
C:/temp/Job-7.odb,Step-1,Increment      1: Step Time =    1.000,"P-7-1",           377,          148.,          100.,            0.,NA,NA,"",   1.95589E+06,  -1.98507E+06,  -1.98507E+06
C:/temp/Job-7.odb,Step-1,Increment      1: Step Time =    1.000,"P-7-1",           378,       146.951,       109.980,            0.,NA,NA,"",   1.62765E+06,  -1.64482E+06,  -1.64482E+06
C:/temp/Job-7.odb,Step-1,Increment      1: Step Time =    1.000,"P-7-1",           379,       145.651,       114.833,            0.,NA,NA,"",   1.25043E+06,  -1.25133E+06,  -1.25133E+06
C:/temp/Job-7.odb,Step-1,Increment      1: Step Time =    1.000,"P-7-1",           380,       141.569,          124.,            0.,NA,NA,"",   581.917E+03,  -52.7602E+03,  -52.7602E+03
C:/temp/Job-7.odb,Step-1,Increment      1: Step Time =    1.000,"P-7-1",           381,       135.671,       132.118,            0.,NA,NA,"",   1.30555E+06,   1.30442E+06,   1.30442E+06
C:/temp/Job-7.odb,Step-1,Increment      1: Step Time =    1.000,"P-7-1",           382,       132.118,       135.671,            0.,NA,NA,"",   1.86167E+06,   1.88404E+06,   1.88404E+06
C:/temp/Job-7.odb,Step-1,Increment      1: Step Time =    1.000,"P-7-1",           383,          124.,       141.569,            0.,NA,NA,"",   2.88022E+06,   2.96631E+06,   2.96631E+06
C:/temp/Job-7.odb,Step-1,Increment      1: Step Time =    1.000,"P-7-1",           384,       119.523,       143.850,            0.,NA,NA,"",   3.39896E+06,   3.47690E+06,   3.47690E+06
C:/temp/Job-7.odb,Step-1,Increment      1: Step Time =    1.000,"P-7-1",           385,       109.980,       146.951,            0.,NA,NA,"",   4.17202E+06,   4.24279E+06,   4.24279E+06
C:/temp/Job-7.odb,Step-1,Increment      1: Step Time =    1.000,"P-7-1",           386,       105.017,       147.737,            0.,NA,NA,"",   4.21835E+06,   4.29431E+06,   4.29431E+06
C:/temp/Job-7.odb,Step-1,Increment      1: Step Time =    1.000,"P-7-1",           387,          195.,            0.,            0.,NA,NA,"",   996.938E+03,   996.521E+03,   996.521E+03
C:/temp/Job-7.odb,Step-1,Increment      1: Step Time =    1.000,"P-7-1",           388,          185.,            0.,            0.,NA,NA,"",   985.488E+03,   985.661E+03,   985.661E+03
C:/temp/Job-7.odb,Step-1,Increment      1: Step Time =    1.000,"P-7-1",           389,          175.,            0.,            0.,NA,NA,"",   975.062E+03,   974.510E+03,   974.510E+03
C:/temp/Job-7.odb,Step-1,Increment      1: Step Time =    1.000,"P-7-1",           390,          165.,            0.,            0.,NA,NA,"",   951.186E+03,   950.178E+03,   950.178E+03
C:/temp/Job-7.odb,Step-1,Increment      1: Step Time =    1.000,"P-7-1",           391,          155.,            0.,            0.,NA,NA,"",   892.122E+03,   891.110E+03,   891.110E+03
C:/temp/Job-7.odb,Step-1,Increment      1: Step Time =    1.000,"P-7-1",           392,          145.,            0.,            0.,NA,NA,"",   786.187E+03,   784.026E+03,   784.026E+03
C:/temp/Job-7.odb,Step-1,Increment      1: Step Time =    1.000,"P-7-1",           393,          135.,            0.,            0.,NA,NA,"",   649.279E+03,   647.514E+03,   647.514E+03
C:/temp/Job-7.odb,Step-1,Increment      1: Step Time =    1.000,"P-7-1",           394,          125.,            0.,            0.,NA,NA,"",   508.922E+03,   510.190E+03,   510.190E+03
C:/temp/Job-7.odb,Step-1,Increment      1: Step Time =    1.000,"P-7-1",           395,          115.,            0.,            0.,NA,NA,"",   428.207E+03,   432.007E+03,   432.007E+03
C:/temp/Job-7.odb,Step-1,Increment      1: Step Time =    1.000,"P-7-1",           396,          105.,            0.,            0.,NA,NA,"",   464.125E+03,   467.281E+03,   467.281E+03
C:/temp/Job-7.odb,Step-1,Increment      1: Step Time =    1.000,"P-7-1",           397,           95.,            0.,            0.,NA,NA,"",   625.970E+03,   626.984E+03,   626.984E+03
C:/temp/Job-7.odb,Step-1,Increment      1: Step Time =    1.000,"P-7-1",           398,           85.,            0.,            0.,NA,NA,"",   894.200E+03,   892.647E+03,   892.647E+03
C:/temp/Job-7.odb,Step-1,Increment      1: Step Time =    1.000,"P-7-1",           399,           75.,            0.,            0.,NA,NA,"",   1.21487E+06,   1.21196E+06,   1.21196E+06
C:/temp/Job-7.odb,Step-1,Increment      1: Step Time =    1.000,"P-7-1",           400,           65.,            0.,            0.,NA,NA,"",   1.52351E+06,   1.52060E+06,   1.52060E+06
C:/temp/Job-7.odb,Step-1,Increment      1: Step Time =    1.000,"P-7-1",           401,           55.,            0.,            0.,NA,NA,"",   1.77959E+06,   1.77671E+06,   1.77671E+06
C:/temp/Job-7.odb,Step-1,Increment      1: Step Time =    1.000,"P-7-1",           402,           45.,            0.,            0.,NA,NA,"",   1.96456E+06,   1.96215E+06,   1.96215E+06
C:/temp/Job-7.odb,Step-1,Increment      1: Step Time =    1.000,"P-7-1",           403,           35.,            0.,            0.,NA,NA,"",   2.08127E+06,   2.07998E+06,   2.07998E+06
C:/temp/Job-7.odb,Step-1,Increment      1: Step Time =    1.000,"P-7-1",           404,           25.,            0.,            0.,NA,NA,"",   2.14983E+06,   2.15074E+06,   2.15074E+06
C:/temp/Job-7.odb,Step-1,Increment      1: Step Time =    1.000,"P-7-1",           405,           15.,            0.,            0.,NA,NA,"",   2.22240E+06,   2.22962E+06,   2.22962E+06
C:/temp/Job-7.odb,Step-1,Increment      1: Step Time =    1.000,"P-7-1",           406,            5.,            0.,            0.,NA,NA,"",   2.55756E+06,   2.61578E+06,   2.61578E+06
C:/temp/Job-7.odb,Step-1,Increment      1: Step Time =    1.000,"P-7-1",           407,          200.,          195.,            0.,NA,NA,"",   1.00090E+06,   999.196E+03,   999.196E+03
C:/temp/Job-7.odb,Step-1,Increment      1: Step Time =    1.000,"P-7-1",           408,          200.,          185.,            0.,NA,NA,"",   1.00730E+06,   1.00164E+06,   1.00164E+06
C:/temp/Job-7.odb,Step-1,Increment      1: Step Time =    1.000,"P-7-1",           409,          200.,          175.,            0.,NA,NA,"",   1.00116E+06,   1.00445E+06,   1.00445E+06
C:/temp/Job-7.odb,Step-1,Increment      1: Step Time =    1.000,"P-7-1",           410,          200.,          165.,            0.,NA,NA,"",   965.324E+03,   1.00673E+06,   1.00673E+06
C:/temp/Job-7.odb,Step-1,Increment      1: Step Time =    1.000,"P-7-1",           411,          200.,          155.,            0.,NA,NA,"",   910.496E+03,   1.00936E+06,   1.00936E+06
C:/temp/Job-7.odb,Step-1,Increment      1: Step Time =    1.000,"P-7-1",           412,          200.,          145.,            0.,NA,NA,"",   883.354E+03,   1.01574E+06,   1.01574E+06
C:/temp/Job-7.odb,Step-1,Increment      1: Step Time =    1.000,"P-7-1",           413,          200.,          135.,            0.,NA,NA,"",   972.145E+03,   1.06475E+06,   1.06475E+06
C:/temp/Job-7.odb,Step-1,Increment      1: Step Time =    1.000,"P-7-1",           414,          200.,          125.,            0.,NA,NA,"",   1.17733E+06,   1.30970E+06,   1.30970E+06
C:/temp/Job-7.odb,Step-1,Increment      1: Step Time =    1.000,"P-7-1",           415,          200.,          115.,            0.,NA,NA,"",   1.40694E+06,   1.61097E+06,   1.61097E+06
C:/temp/Job-7.odb,Step-1,Increment      1: Step Time =    1.000,"P-7-1",           416,          200.,          105.,            0.,NA,NA,"",   1.56249E+06,   1.80155E+06,   1.80155E+06
C:/temp/Job-7.odb,Step-1,Increment      1: Step Time =    1.000,"P-7-1",           417,          200.,           95.,            0.,NA,NA,"",   1.56534E+06,   1.80487E+06,   1.80487E+06
C:/temp/Job-7.odb,Step-1,Increment      1: Step Time =    1.000,"P-7-1",           418,          200.,           85.,            0.,NA,NA,"",   1.41429E+06,   1.62042E+06,   1.62042E+06
C:/temp/Job-7.odb,Step-1,Increment      1: Step Time =    1.000,"P-7-1",           419,          200.,           75.,            0.,NA,NA,"",   1.18124E+06,   1.31440E+06,   1.31440E+06
C:/temp/Job-7.odb,Step-1,Increment      1: Step Time =    1.000,"P-7-1",           420,          200.,           65.,            0.,NA,NA,"",   973.766E+03,   1.06574E+06,   1.06574E+06
C:/temp/Job-7.odb,Step-1,Increment      1: Step Time =    1.000,"P-7-1",           421,          200.,           55.,            0.,NA,NA,"",   885.484E+03,   1.01839E+06,   1.01839E+06
C:/temp/Job-7.odb,Step-1,Increment      1: Step Time =    1.000,"P-7-1",           422,          200.,           45.,            0.,NA,NA,"",   909.299E+03,   1.01009E+06,   1.01009E+06
C:/temp/Job-7.odb,Step-1,Increment      1: Step Time =    1.000,"P-7-1",           423,          200.,           35.,            0.,NA,NA,"",   964.971E+03,   1.00636E+06,   1.00636E+06
C:/temp/Job-7.odb,Step-1,Increment      1: Step Time =    1.000,"P-7-1",           424,          200.,           25.,            0.,NA,NA,"",   999.916E+03,   1.00394E+06,   1.00394E+06
C:/temp/Job-7.odb,Step-1,Increment      1: Step Time =    1.000,"P-7-1",           425,          200.,           15.,            0.,NA,NA,"",   1.00715E+06,   1.00193E+06,   1.00193E+06
C:/temp/Job-7.odb,Step-1,Increment      1: Step Time =    1.000,"P-7-1",           426,          200.,            5.,            0.,NA,NA,"",   1.00095E+06,   999.227E+03,   999.227E+03
C:/temp/Job-7.odb,Step-1,Increment      1: Step Time =    1.000,"P-7-1",           427,            5.,          200.,            0.,NA,NA,"",   2.55873E+06,   2.61785E+06,   2.61785E+06
C:/temp/Job-7.odb,Step-1,Increment      1: Step Time =    1.000,"P-7-1",           428,           15.,          200.,            0.,NA,NA,"",   2.22434E+06,   2.23192E+06,   2.23192E+06
C:/temp/Job-7.odb,Step-1,Increment      1: Step Time =    1.000,"P-7-1",           429,           25.,          200.,            0.,NA,NA,"",   2.15043E+06,   2.15103E+06,   2.15103E+06
C:/temp/Job-7.odb,Step-1,Increment      1: Step Time =    1.000,"P-7-1",           430,           35.,          200.,            0.,NA,NA,"",   2.07908E+06,   2.07784E+06,   2.07784E+06
C:/temp/Job-7.odb,Step-1,Increment      1: Step Time =    1.000,"P-7-1",           431,           45.,          200.,            0.,NA,NA,"",   1.96835E+06,   1.96624E+06,   1.96624E+06
C:/temp/Job-7.odb,Step-1,Increment      1: Step Time =    1.000,"P-7-1",           432,           55.,          200.,            0.,NA,NA,"",   1.78511E+06,   1.78231E+06,   1.78231E+06
C:/temp/Job-7.odb,Step-1,Increment      1: Step Time =    1.000,"P-7-1",           433,           65.,          200.,            0.,NA,NA,"",   1.52966E+06,   1.52584E+06,   1.52584E+06
C:/temp/Job-7.odb,Step-1,Increment      1: Step Time =    1.000,"P-7-1",           434,           75.,          200.,            0.,NA,NA,"",   1.22226E+06,   1.21861E+06,   1.21861E+06
C:/temp/Job-7.odb,Step-1,Increment      1: Step Time =    1.000,"P-7-1",           435,           85.,          200.,            0.,NA,NA,"",   905.684E+03,   903.818E+03,   903.818E+03
C:/temp/Job-7.odb,Step-1,Increment      1: Step Time =    1.000,"P-7-1",           436,           95.,          200.,            0.,NA,NA,"",   635.044E+03,   635.872E+03,   635.872E+03
C:/temp/Job-7.odb,Step-1,Increment      1: Step Time =    1.000,"P-7-1",           437,          105.,          200.,            0.,NA,NA,"",   461.419E+03,   465.317E+03,   465.317E+03
C:/temp/Job-7.odb,Step-1,Increment      1: Step Time =    1.000,"P-7-1",           438,          115.,          200.,            0.,NA,NA,"",   422.196E+03,   425.862E+03,   425.862E+03
C:/temp/Job-7.odb,Step-1,Increment      1: Step Time =    1.000,"P-7-1",           439,          125.,          200.,            0.,NA,NA,"",   500.461E+03,   501.147E+03,   501.147E+03
C:/temp/Job-7.odb,Step-1,Increment      1: Step Time =    1.000,"P-7-1",           440,          135.,          200.,            0.,NA,NA,"",   635.207E+03,   634.400E+03,   634.400E+03
C:/temp/Job-7.odb,Step-1,Increment      1: Step Time =    1.000,"P-7-1",           441,          145.,          200.,            0.,NA,NA,"",   777.251E+03,   775.631E+03,   775.631E+03
C:/temp/Job-7.odb,Step-1,Increment      1: Step Time =    1.000,"P-7-1",           442,          155.,          200.,            0.,NA,NA,"",   887.000E+03,   885.194E+03,   885.194E+03
C:/temp/Job-7.odb,Step-1,Increment      1: Step Time =    1.000,"P-7-1",           443,          165.,          200.,            0.,NA,NA,"",   949.862E+03,    948.59E+03,    948.59E+03
C:/temp/Job-7.odb,Step-1,Increment      1: Step Time =    1.000,"P-7-1",           444,          175.,          200.,            0.,NA,NA,"",   974.881E+03,   974.472E+03,   974.472E+03
C:/temp/Job-7.odb,Step-1,Increment      1: Step Time =    1.000,"P-7-1",           445,          185.,          200.,            0.,NA,NA,"",   985.601E+03,   985.773E+03,   985.773E+03
C:/temp/Job-7.odb,Step-1,Increment      1: Step Time =    1.000,"P-7-1",           446,          195.,          200.,            0.,NA,NA,"",   997.000E+03,   996.558E+03,   996.558E+03
C:/temp/Job-7.odb,Step-1,Increment      1: Step Time =    1.000,"P-7-1",           447,            0.,            5.,            0.,NA,NA,"",   2.39419E+06,   2.55594E+06,   2.55594E+06
C:/temp/Job-7.odb,Step-1,Increment      1: Step Time =    1.000,"P-7-1",           448,            0.,           15.,            0.,NA,NA,"",   1.72884E+06,   1.91028E+06,   1.91028E+06
C:/temp/Job-7.odb,Step-1,Increment      1: Step Time =    1.000,"P-7-1",           449,            0.,           25.,            0.,NA,NA,"",   1.41703E+06,   1.57954E+06,   1.57954E+06
C:/temp/Job-7.odb,Step-1,Increment      1: Step Time =    1.000,"P-7-1",           450,            0.,           35.,            0.,NA,NA,"",   1.15499E+06,   1.29129E+06,   1.29129E+06
C:/temp/Job-7.odb,Step-1,Increment      1: Step Time =    1.000,"P-7-1",           451,            0.,           45.,            0.,NA,NA,"",   924.634E+03,   1.03364E+06,   1.03364E+06
C:/temp/Job-7.odb,Step-1,Increment      1: Step Time =    1.000,"P-7-1",           452,            0.,           55.,            0.,NA,NA,"",   705.793E+03,   784.659E+03,   784.659E+03
C:/temp/Job-7.odb,Step-1,Increment      1: Step Time =    1.000,"P-7-1",           453,            0.,           65.,            0.,NA,NA,"",   504.609E+03,   553.137E+03,   553.137E+03
C:/temp/Job-7.odb,Step-1,Increment      1: Step Time =    1.000,"P-7-1",           454,            0.,           75.,            0.,NA,NA,"",   327.429E+03,   348.976E+03,   348.976E+03
C:/temp/Job-7.odb,Step-1,Increment      1: Step Time =    1.000,"P-7-1",           455,            0.,           85.,            0.,NA,NA,"",   180.852E+03,   185.551E+03,   185.551E+03
C:/temp/Job-7.odb,Step-1,Increment      1: Step Time =    1.000,"P-7-1",           456,            0.,           95.,            0.,NA,NA,"",   68.4898E+03,   73.2227E+03,   73.2227E+03
C:/temp/Job-7.odb,Step-1,Increment      1: Step Time =    1.000,"P-7-1",           457,            0.,          105.,            0.,NA,NA,"",   69.3202E+03,   73.6253E+03,   73.6253E+03
C:/temp/Job-7.odb,Step-1,Increment      1: Step Time =    1.000,"P-7-1",           458,            0.,          115.,            0.,NA,NA,"",   180.736E+03,   185.214E+03,   185.214E+03
C:/temp/Job-7.odb,Step-1,Increment      1: Step Time =    1.000,"P-7-1",           459,            0.,          125.,            0.,NA,NA,"",   326.776E+03,   348.166E+03,   348.166E+03
C:/temp/Job-7.odb,Step-1,Increment      1: Step Time =    1.000,"P-7-1",           460,            0.,          135.,            0.,NA,NA,"",   505.497E+03,   553.953E+03,   553.953E+03
C:/temp/Job-7.odb,Step-1,Increment      1: Step Time =    1.000,"P-7-1",           461,            0.,          145.,            0.,NA,NA,"",   707.024E+03,   786.138E+03,   786.138E+03
C:/temp/Job-7.odb,Step-1,Increment      1: Step Time =    1.000,"P-7-1",           462,            0.,          155.,            0.,NA,NA,"",   923.558E+03,   1.03319E+06,   1.03319E+06
C:/temp/Job-7.odb,Step-1,Increment      1: Step Time =    1.000,"P-7-1",           463,            0.,          165.,            0.,NA,NA,"",   1.15278E+06,   1.29083E+06,   1.29083E+06
C:/temp/Job-7.odb,Step-1,Increment      1: Step Time =    1.000,"P-7-1",           464,            0.,          175.,            0.,NA,NA,"",   1.41222E+06,   1.57561E+06,   1.57561E+06
C:/temp/Job-7.odb,Step-1,Increment      1: Step Time =    1.000,"P-7-1",           465,            0.,          185.,            0.,NA,NA,"",   1.72730E+06,   1.91010E+06,   1.91010E+06
C:/temp/Job-7.odb,Step-1,Increment      1: Step Time =    1.000,"P-7-1",           466,            0.,          195.,            0.,NA,NA,"",   2.39208E+06,   2.55512E+06,   2.55512E+06
C:/temp/Job-7.odb,Step-1,Increment      1: Step Time =    1.000,"P-7-1",           467,       132.286,       59.7719,            0.,NA,NA,"",   2.20184E+06,   2.24193E+06,   2.24193E+06
C:/temp/Job-7.odb,Step-1,Increment      1: Step Time =    1.000,"P-7-1",           468,       135.029,       195.210,            0.,NA,NA,"",   733.623E+03,   731.053E+03,   731.053E+03
C:/temp/Job-7.odb,Step-1,Increment      1: Step Time =    1.000,"P-7-1",           469,       195.245,       135.153,            0.,NA,NA,"",   989.833E+03,   1.11382E+06,   1.11382E+06
C:/temp/Job-7.odb,Step-1,Increment      1: Step Time =    1.000,"P-7-1",           470,       195.560,       144.869,            0.,NA,NA,"",   918.118E+03,   1.05205E+06,   1.05205E+06
C:/temp/Job-7.odb,Step-1,Increment      1: Step Time =    1.000,"P-7-1",           471,       195.212,       154.655,            0.,NA,NA,"",   938.948E+03,   1.03478E+06,   1.03478E+06
C:/temp/Job-7.odb,Step-1,Increment      1: Step Time =    1.000,"P-7-1",           472,       144.908,       195.132,            0.,NA,NA,"",   847.797E+03,   842.745E+03,   842.745E+03
C:/temp/Job-7.odb,Step-1,Increment      1: Step Time =    1.000,"P-7-1",           473,       194.879,       125.255,            0.,NA,NA,"",   1.13412E+06,   1.28222E+06,   1.28222E+06
C:/temp/Job-7.odb,Step-1,Increment      1: Step Time =    1.000,"P-7-1",           474,       194.912,       84.9902,            0.,NA,NA,"",   1.29848E+06,   1.48438E+06,   1.48438E+06
C:/temp/Job-7.odb,Step-1,Increment      1: Step Time =    1.000,"P-7-1",           475,       104.896,       5.16438,            0.,NA,NA,"",   617.634E+03,   627.017E+03,   627.017E+03
C:/temp/Job-7.odb,Step-1,Increment      1: Step Time =    1.000,"P-7-1",           476,       115.041,       5.18106,            0.,NA,NA,"",   575.397E+03,   585.657E+03,   585.657E+03
C:/temp/Job-7.odb,Step-1,Increment      1: Step Time =    1.000,"P-7-1",           477,       195.278,       65.0164,            0.,NA,NA,"",   990.885E+03,   1.11446E+06,   1.11446E+06
C:/temp/Job-7.odb,Step-1,Increment      1: Step Time =    1.000,"P-7-1",           478,       195.010,       74.9182,            0.,NA,NA,"",   1.13919E+06,   1.28727E+06,   1.28727E+06
C:/temp/Job-7.odb,Step-1,Increment      1: Step Time =    1.000,"P-7-1",           479,       94.8762,       5.04426,            0.,NA,NA,"",   774.263E+03,   776.154E+03,   776.154E+03
C:/temp/Job-7.odb,Step-1,Increment      1: Step Time =    1.000,"P-7-1",           480,       5.01570,       115.199,            0.,NA,NA,"",   172.751E+03,   181.391E+03,   181.391E+03
C:/temp/Job-7.odb,Step-1,Increment      1: Step Time =    1.000,"P-7-1",           481,       15.1536,       194.873,            0.,NA,NA,"",   2.18828E+06,   2.19996E+06,   2.19996E+06
C:/temp/Job-7.odb,Step-1,Increment      1: Step Time =    1.000,"P-7-1",           482,       5.08766,       194.935,            0.,NA,NA,"",   2.37182E+06,   2.46695E+06,   2.46695E+06
C:/temp/Job-7.odb,Step-1,Increment      1: Step Time =    1.000,"P-7-1",           483,       105.187,       194.815,            0.,NA,NA,"",   615.684E+03,   626.102E+03,   626.102E+03
C:/temp/Job-7.odb,Step-1,Increment      1: Step Time =    1.000,"P-7-1",           484,       194.897,       105.162,            0.,NA,NA,"",   1.39740E+06,   1.60054E+06,   1.60054E+06
C:/temp/Job-7.odb,Step-1,Increment      1: Step Time =    1.000,"P-7-1",           485,       194.683,       115.259,            0.,NA,NA,"",   1.28822E+06,   1.47272E+06,   1.47272E+06
C:/temp/Job-7.odb,Step-1,Increment      1: Step Time =    1.000,"P-7-1",           486,       115.208,       194.991,            0.,NA,NA,"",   566.187E+03,   575.705E+03,   575.705E+03
C:/temp/Job-7.odb,Step-1,Increment      1: Step Time =    1.000,"P-7-1",           487,       194.974,       95.0721,            0.,NA,NA,"",   1.40391E+06,   1.60812E+06,   1.60812E+06
C:/temp/Job-7.odb,Step-1,Increment      1: Step Time =    1.000,"P-7-1",           488,       5.29306,       10.0812,            0.,NA,NA,"",   2.03048E+06,   2.17112E+06,   2.17112E+06
C:/temp/Job-7.odb,Step-1,Increment      1: Step Time =    1.000,"P-7-1",           489,       5.55978,       15.1856,            0.,NA,NA,"",   1.78549E+06,   1.93586E+06,   1.93586E+06
C:/temp/Job-7.odb,Step-1,Increment      1: Step Time =    1.000,"P-7-1",           490,       5.55452,       25.3337,            0.,NA,NA,"",   1.45373E+06,   1.59590E+06,   1.59590E+06
C:/temp/Job-7.odb,Step-1,Increment      1: Step Time =    1.000,"P-7-1",           491,       5.27387,       35.4219,            0.,NA,NA,"",   1.18401E+06,   1.30705E+06,   1.30705E+06
C:/temp/Job-7.odb,Step-1,Increment      1: Step Time =    1.000,"P-7-1",           492,       4.95898,       45.4269,            0.,NA,NA,"",   937.247E+03,   1.03689E+06,   1.03689E+06
C:/temp/Job-7.odb,Step-1,Increment      1: Step Time =    1.000,"P-7-1",           493,       5.08681,       105.186,            0.,NA,NA,"",   83.2149E+03,   85.7556E+03,   85.7556E+03
C:/temp/Job-7.odb,Step-1,Increment      1: Step Time =    1.000,"P-7-1",           494,       15.2330,       4.92824,            0.,NA,NA,"",   2.18851E+06,   2.19952E+06,   2.19952E+06
C:/temp/Job-7.odb,Step-1,Increment      1: Step Time =    1.000,"P-7-1",           495,       25.2985,       4.83240,            0.,NA,NA,"",   2.11121E+06,   2.11076E+06,   2.11076E+06
C:/temp/Job-7.odb,Step-1,Increment      1: Step Time =    1.000,"P-7-1",           496,       35.3410,       4.78311,            0.,NA,NA,"",   2.04072E+06,   2.03591E+06,   2.03591E+06
C:/temp/Job-7.odb,Step-1,Increment      1: Step Time =    1.000,"P-7-1",           497,       45.2579,       4.86037,            0.,NA,NA,"",   1.93381E+06,   1.92600E+06,   1.92600E+06
C:/temp/Job-7.odb,Step-1,Increment      1: Step Time =    1.000,"P-7-1",           498,       55.1319,       4.89038,            0.,NA,NA,"",   1.77409E+06,   1.76399E+06,   1.76399E+06
C:/temp/Job-7.odb,Step-1,Increment      1: Step Time =    1.000,"P-7-1",           499,       65.0605,       4.84525,            0.,NA,NA,"",   1.55612E+06,   1.54459E+06,   1.54459E+06
C:/temp/Job-7.odb,Step-1,Increment      1: Step Time =    1.000,"P-7-1",           500,       74.9811,       4.80388,            0.,NA,NA,"",   1.29190E+06,   1.28094E+06,   1.28094E+06
C:/temp/Job-7.odb,Step-1,Increment      1: Step Time =    1.000,"P-7-1",           501,       84.9203,       4.87984,            0.,NA,NA,"",   1.01522E+06,   1.00851E+06,   1.00851E+06
C:/temp/Job-7.odb,Step-1,Increment      1: Step Time =    1.000,"P-7-1",           502,       125.190,       5.22240,            0.,NA,NA,"",   642.334E+03,   645.773E+03,   645.773E+03
C:/temp/Job-7.odb,Step-1,Increment      1: Step Time =    1.000,"P-7-1",           503,       135.388,       5.26322,            0.,NA,NA,"",   757.985E+03,   754.073E+03,   754.073E+03
C:/temp/Job-7.odb,Step-1,Increment      1: Step Time =    1.000,"P-7-1",           504,       145.498,       4.93401,            0.,NA,NA,"",   858.487E+03,   852.684E+03,   852.684E+03
C:/temp/Job-7.odb,Step-1,Increment      1: Step Time =    1.000,"P-7-1",           505,       154.961,       4.19579,            0.,NA,NA,"",   928.909E+03,   925.149E+03,   925.149E+03
C:/temp/Job-7.odb,Step-1,Increment      1: Step Time =    1.000,"P-7-1",           506,       164.493,       4.92082,            0.,NA,NA,"",   977.916E+03,   974.534E+03,   974.534E+03
C:/temp/Job-7.odb,Step-1,Increment      1: Step Time =    1.000,"P-7-1",           507,       174.653,       4.98864,            0.,NA,NA,"",   992.069E+03,   990.754E+03,   990.754E+03
C:/temp/Job-7.odb,Step-1,Increment      1: Step Time =    1.000,"P-7-1",           508,       184.766,       5.12937,            0.,NA,NA,"",   993.927E+03,   994.333E+03,   994.333E+03
C:/temp/Job-7.odb,Step-1,Increment      1: Step Time =    1.000,"P-7-1",           509,       195.266,       55.1395,            0.,NA,NA,"",   924.381E+03,   1.05798E+06,   1.05798E+06
C:/temp/Job-7.odb,Step-1,Increment      1: Step Time =    1.000,"P-7-1",           510,       194.873,       5.10867,            0.,NA,NA,"",   999.169E+03,   998.188E+03,   998.188E+03
C:/temp/Job-7.odb,Step-1,Increment      1: Step Time =    1.000,"P-7-1",           511,       194.704,       15.2759,            0.,NA,NA,"",   1.00705E+06,   1.00582E+06,   1.00582E+06
C:/temp/Job-7.odb,Step-1,Increment      1: Step Time =    1.000,"P-7-1",           512,       194.906,       25.3401,            0.,NA,NA,"",   1.00287E+06,   1.01280E+06,   1.01280E+06
C:/temp/Job-7.odb,Step-1,Increment      1: Step Time =    1.000,"P-7-1",           513,       195.161,       35.4034,            0.,NA,NA,"",   976.669E+03,   1.02114E+06,   1.02114E+06
C:/temp/Job-7.odb,Step-1,Increment      1: Step Time =    1.000,"P-7-1",           514,       195.143,       45.3001,            0.,NA,NA,"",   938.054E+03,   1.03501E+06,   1.03501E+06
C:/temp/Job-7.odb,Step-1,Increment      1: Step Time =    1.000,"P-7-1",           515,       194.776,       164.645,            0.,NA,NA,"",   980.869E+03,   1.02416E+06,   1.02416E+06
C:/temp/Job-7.odb,Step-1,Increment      1: Step Time =    1.000,"P-7-1",           516,       154.762,       195.082,            0.,NA,NA,"",   932.466E+03,   927.194E+03,   927.194E+03
C:/temp/Job-7.odb,Step-1,Increment      1: Step Time =    1.000,"P-7-1",           517,       195.047,       174.860,            0.,NA,NA,"",   1.00350E+06,   1.01239E+06,   1.01239E+06
C:/temp/Job-7.odb,Step-1,Increment      1: Step Time =    1.000,"P-7-1",           518,       164.647,       195.150,            0.,NA,NA,"",   977.596E+03,   973.861E+03,   973.861E+03
C:/temp/Job-7.odb,Step-1,Increment      1: Step Time =    1.000,"P-7-1",           519,       194.975,       184.903,            0.,NA,NA,"",   1.00665E+06,   1.00479E+06,   1.00479E+06
C:/temp/Job-7.odb,Step-1,Increment      1: Step Time =    1.000,"P-7-1",           520,       174.671,       194.959,            0.,NA,NA,"",   991.894E+03,   990.647E+03,   990.647E+03
C:/temp/Job-7.odb,Step-1,Increment      1: Step Time =    1.000,"P-7-1",           521,       194.939,       194.916,            0.,NA,NA,"",   999.151E+03,   998.141E+03,   998.141E+03
C:/temp/Job-7.odb,Step-1,Increment      1: Step Time =    1.000,"P-7-1",           522,       184.803,       194.778,            0.,NA,NA,"",   994.152E+03,   994.532E+03,   994.532E+03
C:/temp/Job-7.odb,Step-1,Increment      1: Step Time =    1.000,"P-7-1",           523,       125.152,       195.130,            0.,NA,NA,"",   624.688E+03,   627.233E+03,   627.233E+03
C:/temp/Job-7.odb,Step-1,Increment      1: Step Time =    1.000,"P-7-1",           524,       95.1460,       194.655,            0.,NA,NA,"",   787.890E+03,   790.126E+03,   790.126E+03
C:/temp/Job-7.odb,Step-1,Increment      1: Step Time =    1.000,"P-7-1",           525,       85.0652,       194.642,            0.,NA,NA,"",   1.03644E+06,   1.02899E+06,   1.02899E+06
C:/temp/Job-7.odb,Step-1,Increment      1: Step Time =    1.000,"P-7-1",           526,       75.0060,       194.790,            0.,NA,NA,"",   1.30770E+06,   1.29510E+06,   1.29510E+06
C:/temp/Job-7.odb,Step-1,Increment      1: Step Time =    1.000,"P-7-1",           527,       65.0102,       195.086,            0.,NA,NA,"",   1.56442E+06,   1.55189E+06,   1.55189E+06
C:/temp/Job-7.odb,Step-1,Increment      1: Step Time =    1.000,"P-7-1",           528,       55.2082,       195.309,            0.,NA,NA,"",   1.77795E+06,   1.76823E+06,   1.76823E+06
C:/temp/Job-7.odb,Step-1,Increment      1: Step Time =    1.000,"P-7-1",           529,       25.1865,       194.823,            0.,NA,NA,"",   2.10881E+06,   2.10834E+06,   2.10834E+06
C:/temp/Job-7.odb,Step-1,Increment      1: Step Time =    1.000,"P-7-1",           530,       5.30321,       184.790,            0.,NA,NA,"",   1.77883E+06,   1.93247E+06,   1.93247E+06
C:/temp/Job-7.odb,Step-1,Increment      1: Step Time =    1.000,"P-7-1",           531,       5.16440,       174.610,            0.,NA,NA,"",   1.44597E+06,   1.59096E+06,   1.59096E+06
C:/temp/Job-7.odb,Step-1,Increment      1: Step Time =    1.000,"P-7-1",           532,       4.75001,       164.655,            0.,NA,NA,"",   1.17669E+06,   1.30327E+06,   1.30327E+06
C:/temp/Job-7.odb,Step-1,Increment      1: Step Time =    1.000,"P-7-1",           533,       4.75803,       154.843,            0.,NA,NA,"",   941.806E+03,   1.04335E+06,   1.04335E+06
C:/temp/Job-7.odb,Step-1,Increment      1: Step Time =    1.000,"P-7-1",           534,       4.87611,       144.945,            0.,NA,NA,"",   714.712E+03,   789.231E+03,   789.231E+03
C:/temp/Job-7.odb,Step-1,Increment      1: Step Time =    1.000,"P-7-1",           535,       4.91035,       135.039,            0.,NA,NA,"",   501.566E+03,   549.668E+03,   549.668E+03
C:/temp/Job-7.odb,Step-1,Increment      1: Step Time =    1.000,"P-7-1",           536,       4.95647,       125.108,            0.,NA,NA,"",   313.657E+03,   338.868E+03,   338.868E+03
C:/temp/Job-7.odb,Step-1,Increment      1: Step Time =    1.000,"P-7-1",           537,       5.26754,       95.1183,            0.,NA,NA,"",   83.0196E+03,   85.4295E+03,   85.4295E+03
C:/temp/Job-7.odb,Step-1,Increment      1: Step Time =    1.000,"P-7-1",           538,       5.41167,       84.8722,            0.,NA,NA,"",   171.562E+03,   180.515E+03,   180.515E+03
C:/temp/Job-7.odb,Step-1,Increment      1: Step Time =    1.000,"P-7-1",           539,       5.12665,       74.8126,            0.,NA,NA,"",   316.715E+03,   341.865E+03,   341.865E+03
C:/temp/Job-7.odb,Step-1,Increment      1: Step Time =    1.000,"P-7-1",           540,       4.71500,       64.9746,            0.,NA,NA,"",   500.746E+03,   549.092E+03,   549.092E+03
C:/temp/Job-7.odb,Step-1,Increment      1: Step Time =    1.000,"P-7-1",           541,       4.58001,       55.2198,            0.,NA,NA,"",   710.967E+03,   785.485E+03,   785.485E+03
C:/temp/Job-7.odb,Step-1,Increment      1: Step Time =    1.000,"P-7-1",           542,       45.3726,       195.029,            0.,NA,NA,"",   1.93359E+06,   1.92583E+06,   1.92583E+06
C:/temp/Job-7.odb,Step-1,Increment      1: Step Time =    1.000,"P-7-1",           543,       35.2946,       194.723,            0.,NA,NA,"",   2.03520E+06,   2.02996E+06,   2.02996E+06
C:/temp/Job-7.odb,Step-1,Increment      1: Step Time =    1.000,"P-7-1",           544,       189.799,       5.15004,            0.,NA,NA,"",   995.939E+03,   996.069E+03,   996.069E+03
C:/temp/Job-7.odb,Step-1,Increment      1: Step Time =    1.000,"P-7-1",           545,       179.723,       5.06003,            0.,NA,NA,"",   993.052E+03,    992.88E+03,    992.88E+03
C:/temp/Job-7.odb,Step-1,Increment      1: Step Time =    1.000,"P-7-1",           546,       169.569,       4.94067,            0.,NA,NA,"",   988.266E+03,   985.967E+03,   985.967E+03
C:/temp/Job-7.odb,Step-1,Increment      1: Step Time =    1.000,"P-7-1",           547,       159.535,       4.67312,            0.,NA,NA,"",   958.670E+03,   954.790E+03,   954.790E+03
C:/temp/Job-7.odb,Step-1,Increment      1: Step Time =    1.000,"P-7-1",           548,       150.303,       4.49537,            0.,NA,NA,"",   894.800E+03,   889.869E+03,   889.869E+03
C:/temp/Job-7.odb,Step-1,Increment      1: Step Time =    1.000,"P-7-1",           549,       140.490,       5.17519,            0.,NA,NA,"",   812.740E+03,   807.511E+03,   807.511E+03
C:/temp/Job-7.odb,Step-1,Increment      1: Step Time =    1.000,"P-7-1",           550,       130.269,       5.26901,            0.,NA,NA,"",   699.307E+03,   698.387E+03,   698.387E+03
C:/temp/Job-7.odb,Step-1,Increment      1: Step Time =    1.000,"P-7-1",           551,       120.123,       5.18841,            0.,NA,NA,"",   597.314E+03,   604.819E+03,   604.819E+03
C:/temp/Job-7.odb,Step-1,Increment      1: Step Time =    1.000,"P-7-1",           552,       109.966,       5.18190,            0.,NA,NA,"",   581.493E+03,   592.444E+03,   592.444E+03
C:/temp/Job-7.odb,Step-1,Increment      1: Step Time =    1.000,"P-7-1",           553,       99.8660,       5.11966,            0.,NA,NA,"",   683.553E+03,   689.719E+03,   689.719E+03
C:/temp/Job-7.odb,Step-1,Increment      1: Step Time =    1.000,"P-7-1",           554,       89.9031,       4.94487,            0.,NA,NA,"",   886.130E+03,   883.523E+03,   883.523E+03
C:/temp/Job-7.odb,Step-1,Increment      1: Step Time =    1.000,"P-7-1",           555,       79.9491,       4.81870,            0.,NA,NA,"",   1.15305E+06,   1.14332E+06,   1.14332E+06
C:/temp/Job-7.odb,Step-1,Increment      1: Step Time =    1.000,"P-7-1",           556,       70.0133,       4.81818,            0.,NA,NA,"",   1.42797E+06,   1.41652E+06,   1.41652E+06
C:/temp/Job-7.odb,Step-1,Increment      1: Step Time =    1.000,"P-7-1",           557,       60.0833,       4.86281,            0.,NA,NA,"",   1.67198E+06,   1.66102E+06,   1.66102E+06
C:/temp/Job-7.odb,Step-1,Increment      1: Step Time =    1.000,"P-7-1",           558,       50.2025,       4.88959,            0.,NA,NA,"",   1.86118E+06,   1.85218E+06,   1.85218E+06
C:/temp/Job-7.odb,Step-1,Increment      1: Step Time =    1.000,"P-7-1",           559,       40.3064,       4.79942,            0.,NA,NA,"",   1.99338E+06,   1.98706E+06,   1.98706E+06
C:/temp/Job-7.odb,Step-1,Increment      1: Step Time =    1.000,"P-7-1",           560,       30.3316,       4.78470,            0.,NA,NA,"",   2.07897E+06,   2.07613E+06,   2.07613E+06
C:/temp/Job-7.odb,Step-1,Increment      1: Step Time =    1.000,"P-7-1",           561,       20.2719,       4.86945,            0.,NA,NA,"",   2.14697E+06,   2.14947E+06,   2.14947E+06
C:/temp/Job-7.odb,Step-1,Increment      1: Step Time =    1.000,"P-7-1",           562,       10.1880,       5.00135,            0.,NA,NA,"",   2.28020E+06,   2.30166E+06,   2.30166E+06
C:/temp/Job-7.odb,Step-1,Increment      1: Step Time =    1.000,"P-7-1",           563,       194.938,       189.890,            0.,NA,NA,"",   1.00346E+06,   1.00147E+06,   1.00147E+06
C:/temp/Job-7.odb,Step-1,Increment      1: Step Time =    1.000,"P-7-1",           564,       195.031,       179.910,            0.,NA,NA,"",   1.00699E+06,   1.00813E+06,   1.00813E+06
C:/temp/Job-7.odb,Step-1,Increment      1: Step Time =    1.000,"P-7-1",           565,       194.957,       169.778,            0.,NA,NA,"",   995.100E+03,   1.01788E+06,   1.01788E+06
C:/temp/Job-7.odb,Step-1,Increment      1: Step Time =    1.000,"P-7-1",           566,       194.712,       159.563,            0.,NA,NA,"",   962.342E+03,   1.03059E+06,   1.03059E+06
C:/temp/Job-7.odb,Step-1,Increment      1: Step Time =    1.000,"P-7-1",           567,       195.523,       149.719,            0.,NA,NA,"",   918.875E+03,   1.03958E+06,   1.03958E+06
C:/temp/Job-7.odb,Step-1,Increment      1: Step Time =    1.000,"P-7-1",           568,       195.434,       140.029,            0.,NA,NA,"",   942.121E+03,   1.07461E+06,   1.07461E+06
C:/temp/Job-7.odb,Step-1,Increment      1: Step Time =    1.000,"P-7-1",           569,       195.058,       130.226,            0.,NA,NA,"",   1.05664E+06,   1.18472E+06,   1.18472E+06
C:/temp/Job-7.odb,Step-1,Increment      1: Step Time =    1.000,"P-7-1",           570,       194.734,       120.256,            0.,NA,NA,"",   1.21389E+06,   1.38292E+06,   1.38292E+06
C:/temp/Job-7.odb,Step-1,Increment      1: Step Time =    1.000,"P-7-1",           571,       194.769,       110.232,            0.,NA,NA,"",   1.35126E+06,   1.54688E+06,   1.54688E+06
C:/temp/Job-7.odb,Step-1,Increment      1: Step Time =    1.000,"P-7-1",           572,       194.972,       100.115,            0.,NA,NA,"",   1.41675E+06,   1.62298E+06,   1.62298E+06
C:/temp/Job-7.odb,Step-1,Increment      1: Step Time =    1.000,"P-7-1",           573,       194.941,       90.0335,            0.,NA,NA,"",   1.36217E+06,   1.55952E+06,   1.55952E+06
C:/temp/Job-7.odb,Step-1,Increment      1: Step Time =    1.000,"P-7-1",           574,       194.934,       79.9473,            0.,NA,NA,"",   1.22169E+06,   1.39101E+06,   1.39101E+06
C:/temp/Job-7.odb,Step-1,Increment      1: Step Time =    1.000,"P-7-1",           575,       195.150,       69.9508,            0.,NA,NA,"",   1.05883E+06,   1.18669E+06,   1.18669E+06
C:/temp/Job-7.odb,Step-1,Increment      1: Step Time =    1.000,"P-7-1",           576,       195.332,       60.0795,            0.,NA,NA,"",   944.466E+03,   1.07697E+06,   1.07697E+06
C:/temp/Job-7.odb,Step-1,Increment      1: Step Time =    1.000,"P-7-1",           577,       195.195,       50.2191,            0.,NA,NA,"",   925.052E+03,   1.04516E+06,   1.04516E+06
C:/temp/Job-7.odb,Step-1,Increment      1: Step Time =    1.000,"P-7-1",           578,       195.174,       40.3628,            0.,NA,NA,"",   957.060E+03,   1.02711E+06,   1.02711E+06
C:/temp/Job-7.odb,Step-1,Increment      1: Step Time =    1.000,"P-7-1",           579,       195.091,       30.4005,            0.,NA,NA,"",   993.085E+03,   1.01699E+06,   1.01699E+06
C:/temp/Job-7.odb,Step-1,Increment      1: Step Time =    1.000,"P-7-1",           580,       194.733,       20.3117,            0.,NA,NA,"",   1.00688E+06,   1.00904E+06,   1.00904E+06
C:/temp/Job-7.odb,Step-1,Increment      1: Step Time =    1.000,"P-7-1",           581,       194.768,       10.1941,            0.,NA,NA,"",   1.00382E+06,   1.00199E+06,   1.00199E+06
C:/temp/Job-7.odb,Step-1,Increment      1: Step Time =    1.000,"P-7-1",           582,       10.1130,       194.913,            0.,NA,NA,"",   2.28069E+06,   2.30321E+06,   2.30321E+06
C:/temp/Job-7.odb,Step-1,Increment      1: Step Time =    1.000,"P-7-1",           583,       20.1771,       194.818,            0.,NA,NA,"",   2.14544E+06,   2.14854E+06,   2.14854E+06
C:/temp/Job-7.odb,Step-1,Increment      1: Step Time =    1.000,"P-7-1",           584,       30.2150,       194.806,            0.,NA,NA,"",   2.07565E+06,   2.07251E+06,   2.07251E+06
C:/temp/Job-7.odb,Step-1,Increment      1: Step Time =    1.000,"P-7-1",           585,       40.3700,       194.658,            0.,NA,NA,"",   1.98849E+06,   1.98182E+06,   1.98182E+06
C:/temp/Job-7.odb,Step-1,Increment      1: Step Time =    1.000,"P-7-1",           586,       50.3475,       195.268,            0.,NA,NA,"",   1.86336E+06,   1.85504E+06,   1.85504E+06
C:/temp/Job-7.odb,Step-1,Increment      1: Step Time =    1.000,"P-7-1",           587,       60.0807,       195.218,            0.,NA,NA,"",   1.67798E+06,   1.66674E+06,   1.66674E+06
C:/temp/Job-7.odb,Step-1,Increment      1: Step Time =    1.000,"P-7-1",           588,       69.9950,       194.929,            0.,NA,NA,"",   1.43989E+06,   1.42671E+06,   1.42671E+06
C:/temp/Job-7.odb,Step-1,Increment      1: Step Time =    1.000,"P-7-1",           589,       80.0265,       194.686,            0.,NA,NA,"",   1.17212E+06,   1.16122E+06,   1.16122E+06
C:/temp/Job-7.odb,Step-1,Increment      1: Step Time =    1.000,"P-7-1",           590,       90.1065,       194.628,            0.,NA,NA,"",   905.710E+03,   903.123E+03,   903.123E+03
C:/temp/Job-7.odb,Step-1,Increment      1: Step Time =    1.000,"P-7-1",           591,       100.181,       194.714,            0.,NA,NA,"",   689.747E+03,   696.494E+03,   696.494E+03
C:/temp/Job-7.odb,Step-1,Increment      1: Step Time =    1.000,"P-7-1",           592,       110.195,       194.919,            0.,NA,NA,"",   573.332E+03,   584.759E+03,   584.759E+03
C:/temp/Job-7.odb,Step-1,Increment      1: Step Time =    1.000,"P-7-1",           593,       120.192,       195.065,            0.,NA,NA,"",   586.489E+03,   592.246E+03,   592.246E+03
C:/temp/Job-7.odb,Step-1,Increment      1: Step Time =    1.000,"P-7-1",           594,       130.098,       195.188,            0.,NA,NA,"",   675.785E+03,   675.641E+03,   675.641E+03
C:/temp/Job-7.odb,Step-1,Increment      1: Step Time =    1.000,"P-7-1",           595,       139.955,       195.194,            0.,NA,NA,"",   792.298E+03,   788.273E+03,   788.273E+03
C:/temp/Job-7.odb,Step-1,Increment      1: Step Time =    1.000,"P-7-1",           596,       149.842,       195.098,            0.,NA,NA,"",   895.292E+03,   889.830E+03,   889.830E+03
C:/temp/Job-7.odb,Step-1,Increment      1: Step Time =    1.000,"P-7-1",           597,       159.707,       195.129,            0.,NA,NA,"",   959.572E+03,   954.959E+03,   954.959E+03
C:/temp/Job-7.odb,Step-1,Increment      1: Step Time =    1.000,"P-7-1",           598,       169.621,       195.114,            0.,NA,NA,"",   987.637E+03,   985.086E+03,   985.086E+03
C:/temp/Job-7.odb,Step-1,Increment      1: Step Time =    1.000,"P-7-1",           599,       179.741,       194.805,            0.,NA,NA,"",   993.379E+03,   993.116E+03,   993.116E+03
C:/temp/Job-7.odb,Step-1,Increment      1: Step Time =    1.000,"P-7-1",           600,       189.882,       194.840,            0.,NA,NA,"",   995.993E+03,   996.125E+03,   996.125E+03
C:/temp/Job-7.odb,Step-1,Increment      1: Step Time =    1.000,"P-7-1",           601,       5.81763,       20.3114,            0.,NA,NA,"",   1.61258E+06,   1.75943E+06,   1.75943E+06
C:/temp/Job-7.odb,Step-1,Increment      1: Step Time =    1.000,"P-7-1",           602,       5.31535,       30.3791,            0.,NA,NA,"",   1.31385E+06,   1.44792E+06,   1.44792E+06
C:/temp/Job-7.odb,Step-1,Increment      1: Step Time =    1.000,"P-7-1",           603,       5.29727,       40.4810,            0.,NA,NA,"",   1.05949E+06,   1.17067E+06,   1.17067E+06
C:/temp/Job-7.odb,Step-1,Increment      1: Step Time =    1.000,"P-7-1",           604,       4.69432,       50.3407,            0.,NA,NA,"",   820.930E+03,   908.364E+03,   908.364E+03
C:/temp/Job-7.odb,Step-1,Increment      1: Step Time =    1.000,"P-7-1",           605,       4.59325,       60.1110,            0.,NA,NA,"",   603.393E+03,   664.683E+03,   664.683E+03
C:/temp/Job-7.odb,Step-1,Increment      1: Step Time =    1.000,"P-7-1",           606,       4.91357,       69.8613,            0.,NA,NA,"",   405.060E+03,   441.203E+03,   441.203E+03
C:/temp/Job-7.odb,Step-1,Increment      1: Step Time =    1.000,"P-7-1",           607,       5.31493,       79.8223,            0.,NA,NA,"",   237.523E+03,   253.525E+03,   253.525E+03
C:/temp/Job-7.odb,Step-1,Increment      1: Step Time =    1.000,"P-7-1",           608,       5.36755,       89.9895,            0.,NA,NA,"",   120.252E+03,   124.440E+03,   124.440E+03
C:/temp/Job-7.odb,Step-1,Increment      1: Step Time =    1.000,"P-7-1",           609,       5.17459,       100.179,            0.,NA,NA,"",   67.9181E+03,   70.3942E+03,   70.3942E+03
C:/temp/Job-7.odb,Step-1,Increment      1: Step Time =    1.000,"P-7-1",           610,       5.02776,       110.185,            0.,NA,NA,"",   121.267E+03,   125.314E+03,   125.314E+03
C:/temp/Job-7.odb,Step-1,Increment      1: Step Time =    1.000,"P-7-1",           611,       4.99858,       120.166,            0.,NA,NA,"",   236.752E+03,   252.682E+03,   252.682E+03
C:/temp/Job-7.odb,Step-1,Increment      1: Step Time =    1.000,"P-7-1",           612,       4.91938,       130.083,            0.,NA,NA,"",   403.278E+03,   439.256E+03,   439.256E+03
C:/temp/Job-7.odb,Step-1,Increment      1: Step Time =    1.000,"P-7-1",           613,       4.90458,       139.976,            0.,NA,NA,"",   605.288E+03,   666.457E+03,   666.457E+03
C:/temp/Job-7.odb,Step-1,Increment      1: Step Time =    1.000,"P-7-1",           614,       4.81054,       149.917,            0.,NA,NA,"",   827.962E+03,   915.989E+03,   915.989E+03
C:/temp/Job-7.odb,Step-1,Increment      1: Step Time =    1.000,"P-7-1",           615,       4.71060,       159.751,            0.,NA,NA,"",   1.05731E+06,   1.17186E+06,   1.17186E+06
C:/temp/Job-7.odb,Step-1,Increment      1: Step Time =    1.000,"P-7-1",           616,       4.87497,       169.601,            0.,NA,NA,"",   1.30516E+06,   1.44199E+06,   1.44199E+06
C:/temp/Job-7.odb,Step-1,Increment      1: Step Time =    1.000,"P-7-1",           617,       5.43434,       179.654,            0.,NA,NA,"",   1.60476E+06,   1.75508E+06,   1.75508E+06
C:/temp/Job-7.odb,Step-1,Increment      1: Step Time =    1.000,"P-7-1",           618,       5.16535,       189.894,            0.,NA,NA,"",   2.02600E+06,   2.16918E+06,   2.16918E+06
C:/temp/Job-7.odb,Step-1,Increment      1: Step Time =    1.000,"P-7-1",           619,       138.407,       64.7387,            0.,NA,NA,"",   1.52268E+06,   1.48040E+06,   1.48040E+06
C:/temp/Job-7.odb,Step-1,Increment      1: Step Time =    1.000,"P-7-1",           620,       149.762,       116.184,            0.,NA,NA,"",   1.15179E+06,  -1.08824E+06,  -1.08824E+06
C:/temp/Job-7.odb,Step-1,Increment      1: Step Time =    1.000,"P-7-1",           621,       148.858,       81.8797,            0.,NA,NA,"",   1.05475E+06,  -945.822E+03,  -945.822E+03
C:/temp/Job-7.odb,Step-1,Increment      1: Step Time =    1.000,"P-7-1",           622,       81.8963,       51.0908,            0.,NA,NA,"",   2.51195E+06,   2.54008E+06,   2.54008E+06
C:/temp/Job-7.odb,Step-1,Increment      1: Step Time =    1.000,"P-7-1",           623,       132.120,       142.342,            0.,NA,NA,"",   2.29534E+06,   2.32110E+06,   2.32110E+06
C:/temp/Job-7.odb,Step-1,Increment      1: Step Time =    1.000,"P-7-1",           624,       89.8183,       48.8538,            0.,NA,NA,"",   3.14238E+06,   3.22418E+06,   3.22418E+06
C:/temp/Job-7.odb,Step-1,Increment      1: Step Time =    1.000,"P-7-1",           625,       140.266,       132.415,            0.,NA,NA,"",   1.17788E+06,   1.09837E+06,   1.09837E+06
C:/temp/Job-7.odb,Step-1,Increment      1: Step Time =    1.000,"P-7-1",           626,       151.118,       89.7750,            0.,NA,NA,"",   1.39689E+06,  -1.39511E+06,  -1.39511E+06
C:/temp/Job-7.odb,Step-1,Increment      1: Step Time =    1.000,"P-7-1",           627,       116.240,       50.3957,            0.,NA,NA,"",   3.51364E+06,   3.62073E+06,   3.62073E+06
C:/temp/Job-7.odb,Step-1,Increment      1: Step Time =    1.000,"P-7-1",           628,       86.1585,       153.900,            0.,NA,NA,"",   2.60866E+06,   2.68847E+06,   2.68847E+06
C:/temp/Job-7.odb,Step-1,Increment      1: Step Time =    1.000,"P-7-1",           629,       111.226,       48.9561,            0.,NA,NA,"",   3.66510E+06,   3.78325E+06,   3.78325E+06
C:/temp/Job-7.odb,Step-1,Increment      1: Step Time =    1.000,"P-7-1",           630,       94.9743,       47.9059,            0.,NA,NA,"",   3.43143E+06,   3.53637E+06,   3.53637E+06
C:/temp/Job-7.odb,Step-1,Increment      1: Step Time =    1.000,"P-7-1",           631,       152.118,       94.8960,            0.,NA,NA,"",   1.51845E+06,  -1.54489E+06,  -1.54489E+06
C:/temp/Job-7.odb,Step-1,Increment      1: Step Time =    1.000,"P-7-1",           632,       118.106,       148.886,            0.,NA,NA,"",   3.41701E+06,   3.50503E+06,   3.50503E+06
C:/temp/Job-7.odb,Step-1,Increment      1: Step Time =    1.000,"P-7-1",           633,       110.204,       151.086,            0.,NA,NA,"",   3.70241E+06,   3.81789E+06,   3.81789E+06
C:/temp/Job-7.odb,Step-1,Increment      1: Step Time =    1.000,"P-7-1",           634,       67.7898,       57.6636,            0.,NA,NA,"",   1.18770E+06,   1.13825E+06,   1.13825E+06
C:/temp/Job-7.odb,Step-1,Increment      1: Step Time =    1.000,"P-7-1",           635,       152.556,       100.310,            0.,NA,NA,"",   1.54520E+06,  -1.57627E+06,  -1.57627E+06
C:/temp/Job-7.odb,Step-1,Increment      1: Step Time =    1.000,"P-7-1",           636,       85.2279,       50.1258,            0.,NA,NA,"",   2.79188E+06,   2.84110E+06,   2.84110E+06
C:/temp/Job-7.odb,Step-1,Increment      1: Step Time =    1.000,"P-7-1",           637,       100.426,       47.5251,            0.,NA,NA,"",   3.61133E+06,   3.73001E+06,   3.73001E+06
C:/temp/Job-7.odb,Step-1,Increment      1: Step Time =    1.000,"P-7-1",           638,       149.825,       85.1985,            0.,NA,NA,"",   1.21060E+06,  -1.15422E+06,  -1.15422E+06
C:/temp/Job-7.odb,Step-1,Increment      1: Step Time =    1.000,"P-7-1",           639,       114.776,       149.849,            0.,NA,NA,"",   3.56987E+06,   3.66865E+06,   3.66865E+06
C:/temp/Job-7.odb,Step-1,Increment      1: Step Time =    1.000,"P-7-1",           640,       151.175,       111.127,            0.,NA,NA,"",   1.35744E+06,  -1.34856E+06,  -1.34856E+06
C:/temp/Job-7.odb,Step-1,Increment      1: Step Time =    1.000,"P-7-1",           641,       129.560,       55.2824,            0.,NA,NA,"",   2.50162E+06,   2.55759E+06,   2.55759E+06
C:/temp/Job-7.odb,Step-1,Increment      1: Step Time =    1.000,"P-7-1",           642,       152.321,       105.835,            0.,NA,NA,"",   1.48797E+06,  -1.50782E+06,  -1.50782E+06
C:/temp/Job-7.odb,Step-1,Increment      1: Step Time =    1.000,"P-7-1",           643,       50.3530,       114.785,            0.,NA,NA,"",   709.506E+03,  -726.969E+03,  -726.969E+03
C:/temp/Job-7.odb,Step-1,Increment      1: Step Time =    1.000,"P-7-1",           644,       105.974,       47.8005,            0.,NA,NA,"",   3.68702E+06,   3.81097E+06,   3.81097E+06
C:/temp/Job-7.odb,Step-1,Increment      1: Step Time =    1.000,"P-7-1",           645,       144.906,       129.706,            0.,NA,NA,"",   1.08008E+06,   853.709E+03,   853.709E+03
C:/temp/Job-7.odb,Step-1,Increment      1: Step Time =    1.000,"P-7-1",           646,       105.105,       151.945,            0.,NA,NA,"",   3.73169E+06,   3.85295E+06,   3.85295E+06
C:/temp/Job-7.odb,Step-1,Increment      1: Step Time =    1.000,"P-7-1",           647,       142.328,       67.8014,            0.,NA,NA,"",   1.21728E+06,   1.07039E+06,   1.07039E+06
C:/temp/Job-7.odb,Step-1,Increment      1: Step Time =    1.000,"P-7-1",           648,       135.236,       138.472,            0.,NA,NA,"",   1.88476E+06,   1.87373E+06,   1.87373E+06
C:/temp/Job-7.odb,Step-1,Increment      1: Step Time =    1.000,"P-7-1",           649,       57.4260,       130.104,            0.,NA,NA,"",   468.199E+03,  -205.405E+03,  -205.405E+03
C:/temp/Job-7.odb,Step-1,Increment      1: Step Time =    1.000,"P-7-1",           650,       47.5858,       99.8702,            0.,NA,NA,"",   723.015E+03,  -753.418E+03,  -753.418E+03
C:/temp/Job-7.odb,Step-1,Increment      1: Step Time =    1.000,"P-7-1",           651,       68.8044,       144.621,            0.,NA,NA,"",   1.42925E+06,   1.37053E+06,   1.37053E+06
C:/temp/Job-7.odb,Step-1,Increment      1: Step Time =    1.000,"P-7-1",           652,       49.0129,       110.299,            0.,NA,NA,"",   728.733E+03,  -753.290E+03,  -753.290E+03
C:/temp/Job-7.odb,Step-1,Increment      1: Step Time =    1.000,"P-7-1",           653,       59.7393,       67.7337,            0.,NA,NA,"",   418.626E+03,  -53.4960E+03,  -53.4960E+03
C:/temp/Job-7.odb,Step-1,Increment      1: Step Time =    1.000,"P-7-1",           654,       47.6853,       94.4092,            0.,NA,NA,"",   711.648E+03,  -741.426E+03,  -741.426E+03
C:/temp/Job-7.odb,Step-1,Increment      1: Step Time =    1.000,"P-7-1",           655,       94.7636,       151.771,            0.,NA,NA,"",   3.46840E+06,   3.56907E+06,   3.56907E+06
C:/temp/Job-7.odb,Step-1,Increment      1: Step Time =    1.000,"P-7-1",           656,       64.7181,       61.5944,            0.,NA,NA,"",   746.681E+03,   672.633E+03,   672.633E+03
C:/temp/Job-7.odb,Step-1,Increment      1: Step Time =    1.000,"P-7-1",           657,       55.1164,       70.4847,            0.,NA,NA,"",   504.416E+03,  -212.829E+03,  -212.829E+03
C:/temp/Job-7.odb,Step-1,Increment      1: Step Time =    1.000,"P-7-1",           658,       60.3979,       133.983,            0.,NA,NA,"",   493.210E+03,   236.524E+03,   236.524E+03
C:/temp/Job-7.odb,Step-1,Increment      1: Step Time =    1.000,"P-7-1",           659,       51.3863,       118.020,            0.,NA,NA,"",   680.319E+03,  -693.416E+03,  -693.416E+03
C:/temp/Job-7.odb,Step-1,Increment      1: Step Time =    1.000,"P-7-1",           660,       48.0260,       105.226,            0.,NA,NA,"",   731.084E+03,  -760.195E+03,  -760.195E+03
C:/temp/Job-7.odb,Step-1,Increment      1: Step Time =    1.000,"P-7-1",           661,       48.6199,       89.0899,            0.,NA,NA,"",   699.082E+03,  -724.497E+03,  -724.497E+03
C:/temp/Job-7.odb,Step-1,Increment      1: Step Time =    1.000,"P-7-1",           662,       49.9767,       83.9731,            0.,NA,NA,"",   668.196E+03,  -686.040E+03,  -686.040E+03
C:/temp/Job-7.odb,Step-1,Increment      1: Step Time =    1.000,"P-7-1",           663,       64.7062,       140.615,            0.,NA,NA,"",   1.02952E+06,   942.973E+03,   942.973E+03
C:/temp/Job-7.odb,Step-1,Increment      1: Step Time =    1.000,"P-7-1",           664,       81.9207,       150.689,            0.,NA,NA,"",   2.44843E+06,   2.48836E+06,   2.48836E+06
C:/temp/Job-7.odb,Step-1,Increment      1: Step Time =    1.000,"P-7-1",           665,       99.8692,       152.155,            0.,NA,NA,"",   3.65263E+06,   3.76624E+06,   3.76624E+06
C:/temp/Job-7.odb,Step-1,Increment      1: Step Time =    1.000,"P-7-1",           666,       64.7414,       51.4732,            0.,NA,NA,"",   1.63444E+06,   1.49770E+06,   1.49770E+06
C:/temp/Job-7.odb,Step-1,Increment      1: Step Time =    1.000,"P-7-1",           667,       53.6445,       132.170,            0.,NA,NA,"",   620.668E+03,   225.494E+03,   225.494E+03
C:/temp/Job-7.odb,Step-1,Increment      1: Step Time =    1.000,"P-7-1",           668,       131.245,       50.6262,            0.,NA,NA,"",   2.30121E+06,   2.34788E+06,   2.34788E+06
C:/temp/Job-7.odb,Step-1,Increment      1: Step Time =    1.000,"P-7-1",           669,       50.3384,       68.7901,            0.,NA,NA,"",   603.082E+03,   208.296E+03,   208.296E+03
C:/temp/Job-7.odb,Step-1,Increment      1: Step Time =    1.000,"P-7-1",           670,       148.527,       64.7709,            0.,NA,NA,"",   1.69588E+06,   1.38492E+06,   1.38492E+06
C:/temp/Job-7.odb,Step-1,Increment      1: Step Time =    1.000,"P-7-1",           671,       134.888,       148.529,            0.,NA,NA,"",   2.17797E+06,   2.16838E+06,   2.16838E+06
C:/temp/Job-7.odb,Step-1,Increment      1: Step Time =    1.000,"P-7-1",           672,       149.743,       131.573,            0.,NA,NA,"",   1.51141E+06,   1.15049E+06,   1.15049E+06
C:/temp/Job-7.odb,Step-1,Increment      1: Step Time =    1.000,"P-7-1",           673,       68.6063,       151.048,            0.,NA,NA,"",   1.83504E+06,   1.73390E+06,   1.73390E+06
C:/temp/Job-7.odb,Step-1,Increment      1: Step Time =    1.000,"P-7-1",           674,       141.106,       10.3850,            0.,NA,NA,"",   996.678E+03,   983.635E+03,   983.635E+03
C:/temp/Job-7.odb,Step-1,Increment      1: Step Time =    1.000,"P-7-1",           675,       130.478,       10.5080,            0.,NA,NA,"",   931.857E+03,   932.383E+03,   932.383E+03
C:/temp/Job-7.odb,Step-1,Increment      1: Step Time =    1.000,"P-7-1",           676,       120.213,       10.2743,            0.,NA,NA,"",   856.168E+03,   878.047E+03,   878.047E+03
C:/temp/Job-7.odb,Step-1,Increment      1: Step Time =    1.000,"P-7-1",           677,       109.912,       10.2898,            0.,NA,NA,"",   857.183E+03,   886.191E+03,   886.191E+03
C:/temp/Job-7.odb,Step-1,Increment      1: Step Time =    1.000,"P-7-1",           678,       79.8743,       9.59026,            0.,NA,NA,"",   1.34741E+06,   1.32386E+06,   1.32386E+06
C:/temp/Job-7.odb,Step-1,Increment      1: Step Time =    1.000,"P-7-1",           679,       70.0516,       9.65966,            0.,NA,NA,"",   1.54604E+06,   1.51506E+06,   1.51506E+06
C:/temp/Job-7.odb,Step-1,Increment      1: Step Time =    1.000,"P-7-1",           680,       60.1856,       9.74648,            0.,NA,NA,"",   1.71346E+06,   1.68247E+06,   1.68247E+06
C:/temp/Job-7.odb,Step-1,Increment      1: Step Time =    1.000,"P-7-1",           681,       190.773,       140.225,            0.,NA,NA,"",   1.03027E+06,   1.16377E+06,   1.16377E+06
C:/temp/Job-7.odb,Step-1,Increment      1: Step Time =    1.000,"P-7-1",           682,       189.556,       110.318,            0.,NA,NA,"",   1.10226E+06,   1.25588E+06,   1.25588E+06
C:/temp/Job-7.odb,Step-1,Increment      1: Step Time =    1.000,"P-7-1",           683,       189.956,       90.0804,            0.,NA,NA,"",   1.11748E+06,   1.27172E+06,   1.27172E+06
C:/temp/Job-7.odb,Step-1,Increment      1: Step Time =    1.000,"P-7-1",           684,       190.275,       69.7451,            0.,NA,NA,"",   1.07742E+06,   1.23119E+06,   1.23119E+06
C:/temp/Job-7.odb,Step-1,Increment      1: Step Time =    1.000,"P-7-1",           685,       60.0682,       190.334,            0.,NA,NA,"",   1.71954E+06,   1.68832E+06,   1.68832E+06
C:/temp/Job-7.odb,Step-1,Increment      1: Step Time =    1.000,"P-7-1",           686,       69.8912,       189.820,            0.,NA,NA,"",   1.56968E+06,   1.53534E+06,   1.53534E+06
C:/temp/Job-7.odb,Step-1,Increment      1: Step Time =    1.000,"P-7-1",           687,       80.0275,       189.314,            0.,NA,NA,"",   1.38790E+06,   1.36263E+06,   1.36263E+06
C:/temp/Job-7.odb,Step-1,Increment      1: Step Time =    1.000,"P-7-1",           688,       90.2549,       189.225,            0.,NA,NA,"",   1.17636E+06,   1.17423E+06,   1.17423E+06
C:/temp/Job-7.odb,Step-1,Increment      1: Step Time =    1.000,"P-7-1",           689,       100.485,       189.389,            0.,NA,NA,"",   973.655E+03,   995.106E+03,   995.106E+03
C:/temp/Job-7.odb,Step-1,Increment      1: Step Time =    1.000,"P-7-1",           690,       130.249,       190.340,            0.,NA,NA,"",   890.294E+03,   891.832E+03,   891.832E+03
C:/temp/Job-7.odb,Step-1,Increment      1: Step Time =    1.000,"P-7-1",           691,       9.20843,       60.1614,            0.,NA,NA,"",   612.328E+03,   666.357E+03,   666.357E+03
C:/temp/Job-7.odb,Step-1,Increment      1: Step Time =    1.000,"P-7-1",           692,       9.91966,       69.5258,            0.,NA,NA,"",   400.400E+03,   437.099E+03,   437.099E+03
C:/temp/Job-7.odb,Step-1,Increment      1: Step Time =    1.000,"P-7-1",           693,       10.6853,       79.5095,            0.,NA,NA,"",   220.594E+03,   240.592E+03,   240.592E+03
C:/temp/Job-7.odb,Step-1,Increment      1: Step Time =    1.000,"P-7-1",           694,       10.6248,       90.0893,            0.,NA,NA,"",   122.632E+03,   124.415E+03,   124.415E+03
C:/temp/Job-7.odb,Step-1,Increment      1: Step Time =    1.000,"P-7-1",           695,       10.3002,       100.473,            0.,NA,NA,"",   102.546E+03,   94.1598E+03,   94.1598E+03
C:/temp/Job-7.odb,Step-1,Increment      1: Step Time =    1.000,"P-7-1",           696,       9.98500,       110.395,            0.,NA,NA,"",   125.568E+03,   128.389E+03,   128.389E+03
C:/temp/Job-7.odb,Step-1,Increment      1: Step Time =    1.000,"P-7-1",           697,       9.85682,       130.211,            0.,NA,NA,"",   394.399E+03,   430.197E+03,   430.197E+03
C:/temp/Job-7.odb,Step-1,Increment      1: Step Time =    1.000,"P-7-1",           698,       9.89287,       139.978,            0.,NA,NA,"",   615.163E+03,   668.538E+03,   668.538E+03
C:/temp/Job-7.odb,Step-1,Increment      1: Step Time =    1.000,"P-7-1",           699,       99.6362,       10.2411,            0.,NA,NA,"",   965.529E+03,   984.065E+03,   984.065E+03
C:/temp/Job-7.odb,Step-1,Increment      1: Step Time =    1.000,"P-7-1",           700,       89.7266,       9.83687,            0.,NA,NA,"",   1.14230E+06,   1.13912E+06,   1.13912E+06
C:/temp/Job-7.odb,Step-1,Increment      1: Step Time =    1.000,"P-7-1",           701,       190.043,       130.617,            0.,NA,NA,"",   1.08053E+06,   1.23201E+06,   1.23201E+06
C:/temp/Job-7.odb,Step-1,Increment      1: Step Time =    1.000,"P-7-1",           702,       189.360,       120.608,            0.,NA,NA,"",   1.10338E+06,   1.26494E+06,   1.26494E+06
C:/temp/Job-7.odb,Step-1,Increment      1: Step Time =    1.000,"P-7-1",           703,       190.088,       100.162,            0.,NA,NA,"",   1.12165E+06,   1.25643E+06,   1.25643E+06
C:/temp/Job-7.odb,Step-1,Increment      1: Step Time =    1.000,"P-7-1",           704,       189.887,       79.8500,            0.,NA,NA,"",   1.10923E+06,   1.27262E+06,   1.27262E+06
C:/temp/Job-7.odb,Step-1,Increment      1: Step Time =    1.000,"P-7-1",           705,       190.757,       60.1445,            0.,NA,NA,"",   1.03255E+06,   1.16699E+06,   1.16699E+06
C:/temp/Job-7.odb,Step-1,Increment      1: Step Time =    1.000,"P-7-1",           706,       110.482,       189.905,            0.,NA,NA,"",   844.796E+03,   875.834E+03,   875.834E+03
C:/temp/Job-7.odb,Step-1,Increment      1: Step Time =    1.000,"P-7-1",           707,       120.450,       190.122,            0.,NA,NA,"",   837.192E+03,   854.110E+03,   854.110E+03
C:/temp/Job-7.odb,Step-1,Increment      1: Step Time =    1.000,"P-7-1",           708,       139.928,       190.347,            0.,NA,NA,"",   962.786E+03,   952.995E+03,   952.995E+03
C:/temp/Job-7.odb,Step-1,Increment      1: Step Time =    1.000,"P-7-1",           709,       10.0991,       120.376,            0.,NA,NA,"",   217.593E+03,   238.518E+03,   238.518E+03
C:/temp/Job-7.odb,Step-1,Increment      1: Step Time =    1.000,"P-7-1",           710,       124.090,       149.672,            0.,NA,NA,"",   2.81053E+06,   2.91925E+06,   2.91925E+06
C:/temp/Job-7.odb,Step-1,Increment      1: Step Time =    1.000,"P-7-1",           711,       75.5107,       149.025,            0.,NA,NA,"",   1.99920E+06,   1.99657E+06,   1.99657E+06
C:/temp/Job-7.odb,Step-1,Increment      1: Step Time =    1.000,"P-7-1",           712,       149.644,       75.8857,            0.,NA,NA,"",   1.05757E+06,  -267.098E+03,  -267.098E+03
C:/temp/Job-7.odb,Step-1,Increment      1: Step Time =    1.000,"P-7-1",           713,       148.143,       121.018,            0.,NA,NA,"",   942.543E+03,  -769.699E+03,  -769.699E+03
C:/temp/Job-7.odb,Step-1,Increment      1: Step Time =    1.000,"P-7-1",           714,       121.026,       52.0637,            0.,NA,NA,"",   3.23121E+06,   3.32305E+06,   3.32305E+06
C:/temp/Job-7.odb,Step-1,Increment      1: Step Time =    1.000,"P-7-1",           715,       137.165,       58.3919,            0.,NA,NA,"",   1.91575E+06,   1.88634E+06,   1.88634E+06
C:/temp/Job-7.odb,Step-1,Increment      1: Step Time =    1.000,"P-7-1",           716,       58.1103,       139.390,            0.,NA,NA,"",   990.865E+03,   801.220E+03,   801.220E+03
C:/temp/Job-7.odb,Step-1,Increment      1: Step Time =    1.000,"P-7-1",           717,       141.645,       137.457,            0.,NA,NA,"",   1.70974E+06,   1.57206E+06,   1.57206E+06
C:/temp/Job-7.odb,Step-1,Increment      1: Step Time =    1.000,"P-7-1",           718,       139.021,       140.960,            0.,NA,NA,"",   1.94867E+06,   1.85967E+06,   1.85967E+06
C:/temp/Job-7.odb,Step-1,Increment      1: Step Time =    1.000,"P-7-1",           719,       58.3386,       62.8485,            0.,NA,NA,"",   809.911E+03,   633.164E+03,   633.164E+03
C:/temp/Job-7.odb,Step-1,Increment      1: Step Time =    1.000,"P-7-1",           720,       60.8546,       59.2732,            0.,NA,NA,"",   1.08456E+06,   929.499E+03,   929.499E+03
C:/temp/Job-7.odb,Step-1,Increment      1: Step Time =    1.000,"P-7-1",           721,       61.7685,       146.169,            0.,NA,NA,"",   1.44415E+06,   1.29085E+06,   1.29085E+06
C:/temp/Job-7.odb,Step-1,Increment      1: Step Time =    1.000,"P-7-1",           722,       140.734,       60.8824,            0.,NA,NA,"",   1.76057E+06,   1.64616E+06,   1.64616E+06
C:/temp/Job-7.odb,Step-1,Increment      1: Step Time =    1.000,"P-7-1",           723,       154.077,       84.2981,            0.,NA,NA,"",   1.09613E+06,  -914.813E+03,  -914.813E+03
C:/temp/Job-7.odb,Step-1,Increment      1: Step Time =    1.000,"P-7-1",           724,       155.440,       112.555,            0.,NA,NA,"",   1.02898E+06,  -911.179E+03,  -911.179E+03
C:/temp/Job-7.odb,Step-1,Increment      1: Step Time =    1.000,"P-7-1",           725,       89.3135,       44.3278,            0.,NA,NA,"",   2.68084E+06,   2.78180E+06,   2.78180E+06
C:/temp/Job-7.odb,Step-1,Increment      1: Step Time =    1.000,"P-7-1",           726,       115.635,       154.190,            0.,NA,NA,"",   2.92705E+06,   3.07561E+06,   3.07561E+06
C:/temp/Job-7.odb,Step-1,Increment      1: Step Time =    1.000,"P-7-1",           727,       112.797,       44.8265,            0.,NA,NA,"",   2.90558E+06,   3.07628E+06,   3.07628E+06
C:/temp/Job-7.odb,Step-1,Increment      1: Step Time =    1.000,"P-7-1",           728,       110.684,       155.689,            0.,NA,NA,"",   2.92778E+06,   3.09681E+06,   3.09681E+06
C:/temp/Job-7.odb,Step-1,Increment      1: Step Time =    1.000,"P-7-1",           729,       100.731,       42.9218,            0.,NA,NA,"",   2.85855E+06,   3.02590E+06,   3.02590E+06
C:/temp/Job-7.odb,Step-1,Increment      1: Step Time =    1.000,"P-7-1",           730,       84.3623,       45.8036,            0.,NA,NA,"",   2.53974E+06,   2.59743E+06,   2.59743E+06
C:/temp/Job-7.odb,Step-1,Increment      1: Step Time =    1.000,"P-7-1",           731,       89.6162,       155.214,            0.,NA,NA,"",   2.70050E+06,   2.80505E+06,   2.80505E+06
C:/temp/Job-7.odb,Step-1,Increment      1: Step Time =    1.000,"P-7-1",           732,       117.742,       46.2537,            0.,NA,NA,"",   2.83268E+06,   2.98519E+06,   2.98519E+06
C:/temp/Job-7.odb,Step-1,Increment      1: Step Time =    1.000,"P-7-1",           733,       157.351,       100.460,            0.,NA,NA,"",   898.554E+03,  -902.075E+03,  -902.075E+03
C:/temp/Job-7.odb,Step-1,Increment      1: Step Time =    1.000,"P-7-1",           734,       46.1885,       115.790,            0.,NA,NA,"",   478.369E+03,  -496.460E+03,  -496.460E+03
C:/temp/Job-7.odb,Step-1,Increment      1: Step Time =    1.000,"P-7-1",           735,       154.136,       117.586,            0.,NA,NA,"",   1.09592E+06,  -850.298E+03,  -850.298E+03
C:/temp/Job-7.odb,Step-1,Increment      1: Step Time =    1.000,"P-7-1",           736,       155.605,       89.1809,            0.,NA,NA,"",   1.02966E+06,  -942.469E+03,  -942.469E+03
C:/temp/Job-7.odb,Step-1,Increment      1: Step Time =    1.000,"P-7-1",           737,       44.0027,       88.0032,            0.,NA,NA,"",   434.889E+03,  -465.349E+03,  -465.349E+03
C:/temp/Job-7.odb,Step-1,Increment      1: Step Time =    1.000,"P-7-1",           738,       83.4950,       156.028,            0.,NA,NA,"",   2.41637E+06,   2.46434E+06,   2.46434E+06
C:/temp/Job-7.odb,Step-1,Increment      1: Step Time =    1.000,"P-7-1",           739,       44.5267,       110.997,            0.,NA,NA,"",   467.812E+03,  -499.776E+03,  -499.776E+03
C:/temp/Job-7.odb,Step-1,Increment      1: Step Time =    1.000,"P-7-1",           740,       45.2406,       82.7020,            0.,NA,NA,"",   427.492E+03,  -437.838E+03,  -437.838E+03
C:/temp/Job-7.odb,Step-1,Increment      1: Step Time =    1.000,"P-7-1",           741,       99.5527,       156.867,            0.,NA,NA,"",   2.87038E+06,   3.03279E+06,   3.03279E+06
C:/temp/Job-7.odb,Step-1,Increment      1: Step Time =    1.000,"P-7-1",           742,       60.3403,       14.5204,            0.,NA,NA,"",   1.77851E+06,   1.72175E+06,   1.72175E+06
C:/temp/Job-7.odb,Step-1,Increment      1: Step Time =    1.000,"P-7-1",           743,       13.7099,       60.0804,            0.,NA,NA,"",   638.974E+03,   681.930E+03,   681.930E+03
C:/temp/Job-7.odb,Step-1,Increment      1: Step Time =    1.000,"P-7-1",           744,       59.9523,       185.282,            0.,NA,NA,"",   1.78410E+06,   1.72609E+06,   1.72609E+06
C:/temp/Job-7.odb,Step-1,Increment      1: Step Time =    1.000,"P-7-1",           745,       186.502,       60.2013,            0.,NA,NA,"",   1.14202E+06,   1.23795E+06,   1.23795E+06
C:/temp/Job-7.odb,Step-1,Increment      1: Step Time =    1.000,"P-7-1",           746,       141.754,       15.5532,            0.,NA,NA,"",   1.17001E+06,   1.14902E+06,   1.14902E+06
C:/temp/Job-7.odb,Step-1,Increment      1: Step Time =    1.000,"P-7-1",           747,       15.0015,       140.049,            0.,NA,NA,"",   642.442E+03,   681.081E+03,   681.081E+03
C:/temp/Job-7.odb,Step-1,Increment      1: Step Time =    1.000,"P-7-1",           748,       185.977,       140.718,            0.,NA,NA,"",   1.15052E+06,   1.23909E+06,   1.23909E+06
C:/temp/Job-7.odb,Step-1,Increment      1: Step Time =    1.000,"P-7-1",           749,       139.923,       185.441,            0.,NA,NA,"",   1.13071E+06,   1.11582E+06,   1.11582E+06
C:/temp/Job-7.odb,Step-1,Increment      1: Step Time =    1.000,"P-7-1",           750,       126.154,       155.127,            0.,NA,NA,"",   2.29006E+06,   2.40020E+06,   2.40020E+06
C:/temp/Job-7.odb,Step-1,Increment      1: Step Time =    1.000,"P-7-1",           751,       155.010,       73.8309,            0.,NA,NA,"",   1.39032E+06,   591.872E+03,   591.872E+03
C:/temp/Job-7.odb,Step-1,Increment      1: Step Time =    1.000,"P-7-1",           752,       158.839,       118.982,            0.,NA,NA,"",   1.17247E+06,   6.18280E+03,   6.18280E+03
C:/temp/Job-7.odb,Step-1,Increment      1: Step Time =    1.000,"P-7-1",           753,       119.333,       41.9383,            0.,NA,NA,"",   2.36975E+06,   2.52062E+06,   2.52062E+06
C:/temp/Job-7.odb,Step-1,Increment      1: Step Time =    1.000,"P-7-1",           754,       156.581,       78.4130,            0.,NA,NA,"",   1.21642E+06,   42.2065E+03,   42.2065E+03
C:/temp/Job-7.odb,Step-1,Increment      1: Step Time =    1.000,"P-7-1",           755,       121.573,       156.749,            0.,NA,NA,"",   2.39847E+06,   2.54279E+06,   2.54279E+06
C:/temp/Job-7.odb,Step-1,Increment      1: Step Time =    1.000,"P-7-1",           756,       78.4133,       43.2391,            0.,NA,NA,"",   2.19598E+06,   2.19785E+06,   2.19785E+06
C:/temp/Job-7.odb,Step-1,Increment      1: Step Time =    1.000,"P-7-1",           757,       77.8999,       158.756,            0.,NA,NA,"",   2.20766E+06,   2.19230E+06,   2.19230E+06
C:/temp/Job-7.odb,Step-1,Increment      1: Step Time =    1.000,"P-7-1",           758,       44.2933,       121.891,            0.,NA,NA,"",   387.035E+03,  -343.434E+03,  -343.434E+03
C:/temp/Job-7.odb,Step-1,Increment      1: Step Time =    1.000,"P-7-1",           759,       39.9350,       81.2967,            0.,NA,NA,"",   293.168E+03,  -263.836E+03,  -263.836E+03
C:/temp/Job-7.odb,Step-1,Increment      1: Step Time =    1.000,"P-7-1",           760,       71.8255,       153.433,            0.,NA,NA,"",   1.96063E+06,   1.89030E+06,   1.89030E+06
C:/temp/Job-7.odb,Step-1,Increment      1: Step Time =    1.000,"P-7-1",           761,       152.769,       122.440,            0.,NA,NA,"",   1.18924E+06,  -341.489E+03,  -341.489E+03
C:/temp/Job-7.odb,Step-1,Increment      1: Step Time =    1.000,"P-7-1",           762,       122.498,       47.7084,            0.,NA,NA,"",   2.66541E+06,   2.79094E+06,   2.79094E+06
C:/temp/Job-7.odb,Step-1,Increment      1: Step Time =    1.000,"P-7-1",           763,       15.0352,       68.9520,            0.,NA,NA,"",   418.475E+03,   447.179E+03,   447.179E+03
C:/temp/Job-7.odb,Step-1,Increment      1: Step Time =    1.000,"P-7-1",           764,       130.593,       15.7457,            0.,NA,NA,"",   1.14456E+06,   1.15157E+06,   1.15157E+06
C:/temp/Job-7.odb,Step-1,Increment      1: Step Time =    1.000,"P-7-1",           765,       70.1805,       14.5434,            0.,NA,NA,"",   1.67041E+06,   1.61792E+06,   1.61792E+06
C:/temp/Job-7.odb,Step-1,Increment      1: Step Time =    1.000,"P-7-1",           766,       14.6593,       130.385,            0.,NA,NA,"",   398.838E+03,   427.157E+03,   427.157E+03
C:/temp/Job-7.odb,Step-1,Increment      1: Step Time =    1.000,"P-7-1",           767,       184.999,       131.151,            0.,NA,NA,"",   1.16685E+06,   1.27179E+06,   1.27179E+06
C:/temp/Job-7.odb,Step-1,Increment      1: Step Time =    1.000,"P-7-1",           768,       130.486,       185.475,            0.,NA,NA,"",   1.08794E+06,   1.09501E+06,   1.09501E+06
C:/temp/Job-7.odb,Step-1,Increment      1: Step Time =    1.000,"P-7-1",           769,       69.6593,       184.745,            0.,NA,NA,"",   1.70573E+06,   1.64790E+06,   1.64790E+06
C:/temp/Job-7.odb,Step-1,Increment      1: Step Time =    1.000,"P-7-1",           770,       185.344,       69.2437,            0.,NA,NA,"",   1.15029E+06,   1.26518E+06,   1.26518E+06
C:/temp/Job-7.odb,Step-1,Increment      1: Step Time =    1.000,"P-7-1",           771,       39.9126,       112.126,            0.,NA,NA,"",   289.943E+03,  -313.008E+03,  -313.008E+03
C:/temp/Job-7.odb,Step-1,Increment      1: Step Time =    1.000,"P-7-1",           772,       111.550,       160.266,            0.,NA,NA,"",   2.41775E+06,   2.59149E+06,   2.59149E+06
C:/temp/Job-7.odb,Step-1,Increment      1: Step Time =    1.000,"P-7-1",           773,       159.993,       88.1181,            0.,NA,NA,"",   896.175E+03,  -655.209E+03,  -655.209E+03
C:/temp/Job-7.odb,Step-1,Increment      1: Step Time =    1.000,"P-7-1",           774,       88.4257,       39.7780,            0.,NA,NA,"",   2.37846E+06,   2.46375E+06,   2.46375E+06
C:/temp/Job-7.odb,Step-1,Increment      1: Step Time =    1.000,"P-7-1",           775,       127.012,       49.1714,            0.,NA,NA,"",   2.47307E+06,   2.56418E+06,   2.56418E+06
C:/temp/Job-7.odb,Step-1,Increment      1: Step Time =    1.000,"P-7-1",           776,       48.6590,       73.0864,            0.,NA,NA,"",   486.969E+03,  -201.955E+03,  -201.955E+03
C:/temp/Job-7.odb,Step-1,Increment      1: Step Time =    1.000,"P-7-1",           777,       151.297,       127.143,            0.,NA,NA,"",   1.34047E+06,   571.413E+03,   571.413E+03
C:/temp/Job-7.odb,Step-1,Increment      1: Step Time =    1.000,"P-7-1",           778,       153.898,       69.0456,            0.,NA,NA,"",   1.58507E+06,   1.18603E+06,   1.18603E+06
C:/temp/Job-7.odb,Step-1,Increment      1: Step Time =    1.000,"P-7-1",           779,       144.423,       63.2741,            0.,NA,NA,"",   1.67902E+06,   1.45654E+06,   1.45654E+06
C:/temp/Job-7.odb,Step-1,Increment      1: Step Time =    1.000,"P-7-1",           780,       63.2545,       55.5785,            0.,NA,NA,"",   1.38935E+06,   1.24866E+06,   1.24866E+06
C:/temp/Job-7.odb,Step-1,Increment      1: Step Time =    1.000,"P-7-1",           781,       68.9872,       46.0551,            0.,NA,NA,"",   1.91741E+06,   1.81626E+06,   1.81626E+06
C:/temp/Job-7.odb,Step-1,Increment      1: Step Time =    1.000,"P-7-1",           782,       50.3909,       129.127,            0.,NA,NA,"",   531.332E+03,  -173.519E+03,  -173.519E+03
C:/temp/Job-7.odb,Step-1,Increment      1: Step Time =    1.000,"P-7-1",           783,       56.2011,       135.818,            0.,NA,NA,"",   775.437E+03,   560.747E+03,   560.747E+03
C:/temp/Job-7.odb,Step-1,Increment      1: Step Time =    1.000,"P-7-1",           784,       130.844,       153.967,            0.,NA,NA,"",   2.18956E+06,   2.24212E+06,   2.24212E+06
C:/temp/Job-7.odb,Step-1,Increment      1: Step Time =    1.000,"P-7-1",           785,       136.486,       144.505,            0.,NA,NA,"",   2.13326E+06,   2.09306E+06,   2.09306E+06
C:/temp/Job-7.odb,Step-1,Increment      1: Step Time =    1.000,"P-7-1",           786,       68.7439,       157.571,            0.,NA,NA,"",   1.99494E+06,   1.88083E+06,   1.88083E+06
C:/temp/Job-7.odb,Step-1,Increment      1: Step Time =    1.000,"P-7-1",           787,       16.0483,       78.9441,            0.,NA,NA,"",   219.183E+03,   235.167E+03,   235.167E+03
C:/temp/Job-7.odb,Step-1,Increment      1: Step Time =    1.000,"P-7-1",           788,       120.230,       15.1602,            0.,NA,NA,"",   1.08111E+06,   1.12272E+06,   1.12272E+06
C:/temp/Job-7.odb,Step-1,Increment      1: Step Time =    1.000,"P-7-1",           789,       79.7566,       14.2407,            0.,NA,NA,"",   1.52496E+06,   1.49097E+06,   1.49097E+06
C:/temp/Job-7.odb,Step-1,Increment      1: Step Time =    1.000,"P-7-1",           790,       15.4806,       120.638,            0.,NA,NA,"",   211.375E+03,   228.529E+03,   228.529E+03
C:/temp/Job-7.odb,Step-1,Increment      1: Step Time =    1.000,"P-7-1",           791,       183.961,       121.214,            0.,NA,NA,"",   1.08934E+06,   1.21522E+06,   1.21522E+06
C:/temp/Job-7.odb,Step-1,Increment      1: Step Time =    1.000,"P-7-1",           792,       80.0216,       183.848,            0.,NA,NA,"",   1.59181E+06,   1.55636E+06,   1.55636E+06
C:/temp/Job-7.odb,Step-1,Increment      1: Step Time =    1.000,"P-7-1",           793,       184.923,       79.7450,            0.,NA,NA,"",   1.07441E+06,   1.21293E+06,   1.21293E+06
C:/temp/Job-7.odb,Step-1,Increment      1: Step Time =    1.000,"P-7-1",           794,       120.766,       185.174,            0.,NA,NA,"",   1.05415E+06,   1.08859E+06,   1.08859E+06
C:/temp/Job-7.odb,Step-1,Increment      1: Step Time =    1.000,"P-7-1",           795,       46.9186,       77.7502,            0.,NA,NA,"",   434.168E+03,  -398.646E+03,  -398.646E+03
C:/temp/Job-7.odb,Step-1,Increment      1: Step Time =    1.000,"P-7-1",           796,       47.1783,       125.749,            0.,NA,NA,"",   454.079E+03,  -351.863E+03,  -351.863E+03
C:/temp/Job-7.odb,Step-1,Increment      1: Step Time =    1.000,"P-7-1",           797,       73.7848,       44.8650,            0.,NA,NA,"",   2.04429E+06,   1.99755E+06,   1.99755E+06
C:/temp/Job-7.odb,Step-1,Increment      1: Step Time =    1.000,"P-7-1",           798,       142.883,       56.8333,            0.,NA,NA,"",   1.93819E+06,   1.77806E+06,   1.77806E+06
C:/temp/Job-7.odb,Step-1,Increment      1: Step Time =    1.000,"P-7-1",           799,       142.949,       143.517,            0.,NA,NA,"",   1.98115E+06,   1.82483E+06,   1.82483E+06
C:/temp/Job-7.odb,Step-1,Increment      1: Step Time =    1.000,"P-7-1",           800,       56.8026,       57.1163,            0.,NA,NA,"",   1.24846E+06,   1.05636E+06,   1.05636E+06
C:/temp/Job-7.odb,Step-1,Increment      1: Step Time =    1.000,"P-7-1",           801,       55.0646,       144.898,            0.,NA,NA,"",   1.30969E+06,   1.11285E+06,   1.11285E+06
C:/temp/Job-7.odb,Step-1,Increment      1: Step Time =    1.000,"P-7-1",           802,       109.835,       15.2897,            0.,NA,NA,"",   1.08676E+06,   1.14086E+06,   1.14086E+06
C:/temp/Job-7.odb,Step-1,Increment      1: Step Time =    1.000,"P-7-1",           803,       15.5279,       90.4987,            0.,NA,NA,"",   119.833E+03,   112.216E+03,   112.216E+03
C:/temp/Job-7.odb,Step-1,Increment      1: Step Time =    1.000,"P-7-1",           804,       14.7023,       110.598,            0.,NA,NA,"",   124.668E+03,   120.147E+03,   120.147E+03
C:/temp/Job-7.odb,Step-1,Increment      1: Step Time =    1.000,"P-7-1",           805,       89.4372,       14.5380,            0.,NA,NA,"",   1.36643E+06,   1.36785E+06,   1.36785E+06
C:/temp/Job-7.odb,Step-1,Increment      1: Step Time =    1.000,"P-7-1",           806,       90.4579,       183.760,            0.,NA,NA,"",   1.40937E+06,   1.41765E+06,   1.41765E+06
C:/temp/Job-7.odb,Step-1,Increment      1: Step Time =    1.000,"P-7-1",           807,       184.555,       109.968,            0.,NA,NA,"",   927.743E+03,   1.06050E+06,   1.06050E+06
C:/temp/Job-7.odb,Step-1,Increment      1: Step Time =    1.000,"P-7-1",           808,       185.047,       90.1798,            0.,NA,NA,"",   943.964E+03,   1.07828E+06,   1.07828E+06
C:/temp/Job-7.odb,Step-1,Increment      1: Step Time =    1.000,"P-7-1",           809,       110.869,       185.099,            0.,NA,NA,"",   1.07331E+06,   1.12905E+06,   1.12905E+06
C:/temp/Job-7.odb,Step-1,Increment      1: Step Time =    1.000,"P-7-1",           810,       99.0749,       161.718,            0.,NA,NA,"",   2.37826E+06,   2.53933E+06,   2.53933E+06
C:/temp/Job-7.odb,Step-1,Increment      1: Step Time =    1.000,"P-7-1",           811,       162.889,       105.578,            0.,NA,NA,"",   580.492E+03,  -263.083E+03,  -263.083E+03
C:/temp/Job-7.odb,Step-1,Increment      1: Step Time =    1.000,"P-7-1",           812,       105.990,       37.7259,            0.,NA,NA,"",   2.30640E+06,   2.48655E+06,   2.48655E+06
C:/temp/Job-7.odb,Step-1,Increment      1: Step Time =    1.000,"P-7-1",           813,       15.4365,       100.872,            0.,NA,NA,"",   116.591E+03,   91.7462E+03,   91.7462E+03
C:/temp/Job-7.odb,Step-1,Increment      1: Step Time =    1.000,"P-7-1",           814,       99.2988,       15.3972,            0.,NA,NA,"",   1.21055E+06,   1.24985E+06,   1.24985E+06
C:/temp/Job-7.odb,Step-1,Increment      1: Step Time =    1.000,"P-7-1",           815,       100.883,       184.007,            0.,NA,NA,"",   1.21736E+06,   1.26462E+06,   1.26462E+06
C:/temp/Job-7.odb,Step-1,Increment      1: Step Time =    1.000,"P-7-1",           816,       185.399,       100.141,            0.,NA,NA,"",   894.251E+03,   972.852E+03,   972.852E+03
C:/temp/Job-7.odb,Step-1,Increment      1: Step Time =    1.000,"P-7-1",           817,       14.5097,       64.3126,            0.,NA,NA,"",   530.742E+03,   565.810E+03,   565.810E+03
C:/temp/Job-7.odb,Step-1,Increment      1: Step Time =    1.000,"P-7-1",           818,       65.2448,       14.6933,            0.,NA,NA,"",   1.72911E+06,   1.67379E+06,   1.67379E+06
C:/temp/Job-7.odb,Step-1,Increment      1: Step Time =    1.000,"P-7-1",           819,       186.067,       64.5592,            0.,NA,NA,"",   1.14881E+06,   1.25579E+06,   1.25579E+06
C:/temp/Job-7.odb,Step-1,Increment      1: Step Time =    1.000,"P-7-1",           820,       64.7480,       185.123,            0.,NA,NA,"",   1.74566E+06,   1.68631E+06,   1.68631E+06
C:/temp/Job-7.odb,Step-1,Increment      1: Step Time =    1.000,"P-7-1",           821,       15.1006,       135.130,            0.,NA,NA,"",   516.703E+03,   549.736E+03,   549.736E+03
C:/temp/Job-7.odb,Step-1,Increment      1: Step Time =    1.000,"P-7-1",           822,       136.147,       15.6941,            0.,NA,NA,"",   1.16242E+06,   1.15262E+06,   1.15262E+06
C:/temp/Job-7.odb,Step-1,Increment      1: Step Time =    1.000,"P-7-1",           823,       185.464,       136.055,            0.,NA,NA,"",   1.16862E+06,   1.26389E+06,   1.26389E+06
C:/temp/Job-7.odb,Step-1,Increment      1: Step Time =    1.000,"P-7-1",           824,       135.230,       185.480,            0.,NA,NA,"",   1.10948E+06,   1.10432E+06,   1.10432E+06
C:/temp/Job-7.odb,Step-1,Increment      1: Step Time =    1.000,"P-7-1",           825,       79.7307,       163.811,            0.,NA,NA,"",   2.14817E+06,   2.13337E+06,   2.13337E+06
C:/temp/Job-7.odb,Step-1,Increment      1: Step Time =    1.000,"P-7-1",           826,       37.3536,       119.131,            0.,NA,NA,"",   261.354E+03,  -121.174E+03,  -121.174E+03
C:/temp/Job-7.odb,Step-1,Increment      1: Step Time =    1.000,"P-7-1",           827,       164.147,       114.844,            0.,NA,NA,"",   963.624E+03,   403.727E+03,   403.727E+03
C:/temp/Job-7.odb,Step-1,Increment      1: Step Time =    1.000,"P-7-1",           828,       116.040,       35.8352,            0.,NA,NA,"",   2.01340E+06,   2.16518E+06,   2.16518E+06
C:/temp/Job-7.odb,Step-1,Increment      1: Step Time =    1.000,"P-7-1",           829,       162.485,       81.7844,            0.,NA,NA,"",   1.12417E+06,   449.109E+03,   449.109E+03
C:/temp/Job-7.odb,Step-1,Increment      1: Step Time =    1.000,"P-7-1",           830,       118.036,       162.830,            0.,NA,NA,"",   2.08345E+06,   2.23487E+06,   2.23487E+06
C:/temp/Job-7.odb,Step-1,Increment      1: Step Time =    1.000,"P-7-1",           831,       81.8823,       37.0771,            0.,NA,NA,"",   2.17927E+06,   2.19166E+06,   2.19166E+06
C:/temp/Job-7.odb,Step-1,Increment      1: Step Time =    1.000,"P-7-1",           832,       15.0687,       125.564,            0.,NA,NA,"",   293.093E+03,   316.314E+03,   316.314E+03
C:/temp/Job-7.odb,Step-1,Increment      1: Step Time =    1.000,"P-7-1",           833,       125.255,       15.7458,            0.,NA,NA,"",   1.11445E+06,   1.13981E+06,   1.13981E+06
C:/temp/Job-7.odb,Step-1,Increment      1: Step Time =    1.000,"P-7-1",           834,       15.5344,       73.8525,            0.,NA,NA,"",   310.261E+03,   333.073E+03,   333.073E+03
C:/temp/Job-7.odb,Step-1,Increment      1: Step Time =    1.000,"P-7-1",           835,       75.0551,       14.2112,            0.,NA,NA,"",   1.60103E+06,   1.55603E+06,   1.55603E+06
C:/temp/Job-7.odb,Step-1,Increment      1: Step Time =    1.000,"P-7-1",           836,       184.880,       74.3372,            0.,NA,NA,"",   1.12769E+06,   1.25371E+06,   1.25371E+06
C:/temp/Job-7.odb,Step-1,Increment      1: Step Time =    1.000,"P-7-1",           837,       74.8082,       184.103,            0.,NA,NA,"",   1.65871E+06,   1.60783E+06,   1.60783E+06
C:/temp/Job-7.odb,Step-1,Increment      1: Step Time =    1.000,"P-7-1",           838,       184.493,       126.261,            0.,NA,NA,"",   1.14254E+06,   1.25900E+06,   1.25900E+06
C:/temp/Job-7.odb,Step-1,Increment      1: Step Time =    1.000,"P-7-1",           839,       125.656,       185.332,            0.,NA,NA,"",   1.06752E+06,   1.08830E+06,   1.08830E+06
C:/temp/Job-7.odb,Step-1,Increment      1: Step Time =    1.000,"P-7-1",           840,       132.954,       46.1453,            0.,NA,NA,"",   2.15091E+06,   2.17426E+06,   2.17426E+06
C:/temp/Job-7.odb,Step-1,Increment      1: Step Time =    1.000,"P-7-1",           841,       45.7662,       67.0027,            0.,NA,NA,"",   683.071E+03,   482.466E+03,   482.466E+03
C:/temp/Job-7.odb,Step-1,Increment      1: Step Time =    1.000,"P-7-1",           842,       154.454,       133.513,            0.,NA,NA,"",   1.68973E+06,   1.31524E+06,   1.31524E+06
C:/temp/Job-7.odb,Step-1,Increment      1: Step Time =    1.000,"P-7-1",           843,       153.358,       63.7159,            0.,NA,NA,"",   1.75830E+06,   1.41704E+06,   1.41704E+06
C:/temp/Job-7.odb,Step-1,Increment      1: Step Time =    1.000,"P-7-1",           844,       50.8897,       134.191,            0.,NA,NA,"",   743.883E+03,   516.927E+03,   516.927E+03
C:/temp/Job-7.odb,Step-1,Increment      1: Step Time =    1.000,"P-7-1",           845,       63.6378,       46.6305,            0.,NA,NA,"",   1.80078E+06,   1.65248E+06,   1.65248E+06
C:/temp/Job-7.odb,Step-1,Increment      1: Step Time =    1.000,"P-7-1",           846,       135.857,       153.363,            0.,NA,NA,"",   2.10543E+06,   2.09172E+06,   2.09172E+06
C:/temp/Job-7.odb,Step-1,Increment      1: Step Time =    1.000,"P-7-1",           847,       65.1729,       155.428,            0.,NA,NA,"",   1.88762E+06,   1.75010E+06,   1.75010E+06
C:/temp/Job-7.odb,Step-1,Increment      1: Step Time =    1.000,"P-7-1",           848,       84.5898,       14.5234,            0.,NA,NA,"",   1.44760E+06,   1.42741E+06,   1.42741E+06
C:/temp/Job-7.odb,Step-1,Increment      1: Step Time =    1.000,"P-7-1",           849,       15.0756,       115.548,            0.,NA,NA,"",   153.815E+03,   162.451E+03,   162.451E+03
C:/temp/Job-7.odb,Step-1,Increment      1: Step Time =    1.000,"P-7-1",           850,       16.8156,       84.6929,            0.,NA,NA,"",   146.507E+03,   149.820E+03,   149.820E+03
C:/temp/Job-7.odb,Step-1,Increment      1: Step Time =    1.000,"P-7-1",           851,       115.107,       15.3675,            0.,NA,NA,"",   1.07060E+06,   1.12096E+06,   1.12096E+06
C:/temp/Job-7.odb,Step-1,Increment      1: Step Time =    1.000,"P-7-1",           852,       184.827,       84.9503,            0.,NA,NA,"",   1.00578E+06,   1.15034E+06,   1.15034E+06
C:/temp/Job-7.odb,Step-1,Increment      1: Step Time =    1.000,"P-7-1",           853,       115.790,       185.031,            0.,NA,NA,"",   1.05106E+06,   1.09757E+06,   1.09757E+06
C:/temp/Job-7.odb,Step-1,Increment      1: Step Time =    1.000,"P-7-1",           854,       183.023,       115.523,            0.,NA,NA,"",   990.715E+03,   1.11924E+06,   1.11924E+06
C:/temp/Job-7.odb,Step-1,Increment      1: Step Time =    1.000,"P-7-1",           855,       85.3106,       183.760,            0.,NA,NA,"",   1.50431E+06,   1.49043E+06,   1.49043E+06
C:/temp/Job-7.odb,Step-1,Increment      1: Step Time =    1.000,"P-7-1",           856,       51.5295,       123.077,            0.,NA,NA,"",   543.861E+03,  -531.265E+03,  -531.265E+03
C:/temp/Job-7.odb,Step-1,Increment      1: Step Time =    1.000,"P-7-1",           857,       75.8621,       50.2974,            0.,NA,NA,"",   2.05078E+06,   2.05335E+06,   2.05335E+06
C:/temp/Job-7.odb,Step-1,Increment      1: Step Time =    1.000,"P-7-1",           858,       15.2659,       105.942,            0.,NA,NA,"",   116.342E+03,   98.4660E+03,   98.4660E+03
C:/temp/Job-7.odb,Step-1,Increment      1: Step Time =    1.000,"P-7-1",           859,       94.1729,       15.2189,            0.,NA,NA,"",   1.28956E+06,   1.31203E+06,   1.31203E+06
C:/temp/Job-7.odb,Step-1,Increment      1: Step Time =    1.000,"P-7-1",           860,       185.314,       95.2335,            0.,NA,NA,"",   904.800E+03,   1.00530E+06,   1.00530E+06
C:/temp/Job-7.odb,Step-1,Increment      1: Step Time =    1.000,"P-7-1",           861,       106.053,       184.358,            0.,NA,NA,"",   1.13442E+06,   1.19023E+06,   1.19023E+06
C:/temp/Job-7.odb,Step-1,Increment      1: Step Time =    1.000,"P-7-1",           862,       92.9516,       162.288,            0.,NA,NA,"",   2.31943E+06,   2.43614E+06,   2.43614E+06
C:/temp/Job-7.odb,Step-1,Increment      1: Step Time =    1.000,"P-7-1",           863,       163.978,       110.147,            0.,NA,NA,"",   739.094E+03,  -26.1987E+03,  -26.1987E+03
C:/temp/Job-7.odb,Step-1,Increment      1: Step Time =    1.000,"P-7-1",           864,       162.253,       100.211,            0.,NA,NA,"",   527.681E+03,  -440.819E+03,  -440.819E+03
C:/temp/Job-7.odb,Step-1,Increment      1: Step Time =    1.000,"P-7-1",           865,       100.688,       38.3855,            0.,NA,NA,"",   2.38389E+06,   2.55168E+06,   2.55168E+06
C:/temp/Job-7.odb,Step-1,Increment      1: Step Time =    1.000,"P-7-1",           866,       110.693,       36.3835,            0.,NA,NA,"",   2.15679E+06,   2.33079E+06,   2.33079E+06
C:/temp/Job-7.odb,Step-1,Increment      1: Step Time =    1.000,"P-7-1",           867,       15.3750,       95.7046,            0.,NA,NA,"",   116.553E+03,   95.8057E+03,   95.8057E+03
C:/temp/Job-7.odb,Step-1,Increment      1: Step Time =    1.000,"P-7-1",           868,       104.530,       15.2898,            0.,NA,NA,"",   1.13231E+06,   1.18455E+06,   1.18455E+06
C:/temp/Job-7.odb,Step-1,Increment      1: Step Time =    1.000,"P-7-1",           869,       95.6018,       183.874,            0.,NA,NA,"",   1.31142E+06,   1.34201E+06,   1.34201E+06
C:/temp/Job-7.odb,Step-1,Increment      1: Step Time =    1.000,"P-7-1",           870,       185.217,       104.957,            0.,NA,NA,"",   901.290E+03,   1.00240E+06,   1.00240E+06
C:/temp/Job-7.odb,Step-1,Increment      1: Step Time =    1.000,"P-7-1",           871,       77.1701,       38.6402,            0.,NA,NA,"",   2.14604E+06,   2.11085E+06,   2.11085E+06
C:/temp/Job-7.odb,Step-1,Increment      1: Step Time =    1.000,"P-7-1",           872,       122.735,       161.337,            0.,NA,NA,"",   2.07811E+06,   2.20421E+06,   2.20421E+06
C:/temp/Job-7.odb,Step-1,Increment      1: Step Time =    1.000,"P-7-1",           873,       161.008,       77.2262,            0.,NA,NA,"",   1.32957E+06,   917.704E+03,   917.704E+03
C:/temp/Job-7.odb,Step-1,Increment      1: Step Time =    1.000,"P-7-1",           874,       120.845,       37.6227,            0.,NA,NA,"",   2.05409E+06,   2.18358E+06,   2.18358E+06
C:/temp/Job-7.odb,Step-1,Increment      1: Step Time =    1.000,"P-7-1",           875,       164.314,       120.108,            0.,NA,NA,"",   1.20716E+06,   887.559E+03,   887.559E+03
C:/temp/Job-7.odb,Step-1,Increment      1: Step Time =    1.000,"P-7-1",           876,       39.5173,       124.207,            0.,NA,NA,"",   371.168E+03,  -16.2004E+03,  -16.2004E+03
C:/temp/Job-7.odb,Step-1,Increment      1: Step Time =    1.000,"P-7-1",           877,       75.3443,       163.191,            0.,NA,NA,"",   2.12386E+06,   2.06589E+06,   2.06589E+06
C:/temp/Job-7.odb,Step-1,Increment      1: Step Time =    1.000,"P-7-1",           878,       36.0050,       78.5085,            0.,NA,NA,"",   283.428E+03,  -84.5676E+03,  -84.5676E+03
C:/temp/Job-7.odb,Step-1,Increment      1: Step Time =    1.000,"P-7-1",           879,       133.454,       56.3819,            0.,NA,NA,"",   2.16388E+06,   2.19055E+06,   2.19055E+06
C:/temp/Job-7.odb,Step-1,Increment      1: Step Time =    1.000,"P-7-1",           880,       56.2734,       66.5711,            0.,NA,NA,"",   597.466E+03,   260.076E+03,   260.076E+03
C:/temp/Job-7.odb,Step-1,Increment      1: Step Time =    1.000,"P-7-1",           881,       143.754,       133.705,            0.,NA,NA,"",   1.41355E+06,   1.23480E+06,   1.23480E+06
C:/temp/Job-7.odb,Step-1,Increment      1: Step Time =    1.000,"P-7-1",           882,       65.2501,       143.547,            0.,NA,NA,"",   1.26890E+06,   1.17759E+06,   1.17759E+06
C:/temp/Job-7.odb,Step-1,Increment      1: Step Time =    1.000,"P-7-1",           883,       146.188,       59.1939,            0.,NA,NA,"",   1.88967E+06,   1.65602E+06,   1.65602E+06
C:/temp/Job-7.odb,Step-1,Increment      1: Step Time =    1.000,"P-7-1",           884,       59.1786,       53.8126,            0.,NA,NA,"",   1.45636E+06,   1.27488E+06,   1.27488E+06
C:/temp/Job-7.odb,Step-1,Increment      1: Step Time =    1.000,"P-7-1",           885,       53.5430,       140.945,            0.,NA,NA,"",   1.08758E+06,   882.090E+03,   882.090E+03
C:/temp/Job-7.odb,Step-1,Increment      1: Step Time =    1.000,"P-7-1",           886,       140.242,       146.478,            0.,NA,NA,"",   2.04936E+06,   1.94916E+06,   1.94916E+06
C:/temp/Job-7.odb,Step-1,Increment      1: Step Time =    1.000,"P-7-1",           887,       94.5039,       37.9078,            0.,NA,NA,"",   2.33422E+06,   2.46537E+06,   2.46537E+06
C:/temp/Job-7.odb,Step-1,Increment      1: Step Time =    1.000,"P-7-1",           888,       162.307,       93.9273,            0.,NA,NA,"",   632.923E+03,  -349.679E+03,  -349.679E+03
C:/temp/Job-7.odb,Step-1,Increment      1: Step Time =    1.000,"P-7-1",           889,       105.397,       162.323,            0.,NA,NA,"",   2.31071E+06,   2.48582E+06,   2.48582E+06
C:/temp/Job-7.odb,Step-1,Increment      1: Step Time =    1.000,"P-7-1",           890,       37.9684,       106.137,            0.,NA,NA,"",   249.798E+03,  -282.337E+03,  -282.337E+03
C:/temp/Job-7.odb,Step-1,Increment      1: Step Time =    1.000,"P-7-1",           891,       42.9904,       99.9258,            0.,NA,NA,"",   456.675E+03,  -499.563E+03,  -499.563E+03
C:/temp/Job-7.odb,Step-1,Increment      1: Step Time =    1.000,"P-7-1",           892,       51.6866,       79.1191,            0.,NA,NA,"",   609.078E+03,  -611.357E+03,  -611.357E+03
C:/temp/Job-7.odb,Step-1,Increment      1: Step Time =    1.000,"P-7-1",           893,       66.3370,       161.557,            0.,NA,NA,"",   2.01217E+06,   1.87624E+06,   1.87624E+06
C:/temp/Job-7.odb,Step-1,Increment      1: Step Time =    1.000,"P-7-1",           894,       132.412,       159.386,            0.,NA,NA,"",   2.01365E+06,   2.04452E+06,   2.04452E+06
C:/temp/Job-7.odb,Step-1,Increment      1: Step Time =    1.000,"P-7-1",           895,       46.5210,       132.988,            0.,NA,NA,"",   691.426E+03,   362.893E+03,   362.893E+03
C:/temp/Job-7.odb,Step-1,Increment      1: Step Time =    1.000,"P-7-1",           896,       67.4243,       40.7223,            0.,NA,NA,"",   2.00228E+06,   1.87847E+06,   1.87847E+06
C:/temp/Job-7.odb,Step-1,Increment      1: Step Time =    1.000,"P-7-1",           897,       159.189,       67.5725,            0.,NA,NA,"",   1.65329E+06,   1.29151E+06,   1.29151E+06
C:/temp/Job-7.odb,Step-1,Increment      1: Step Time =    1.000,"P-7-1",           898,       156.117,       128.706,            0.,NA,NA,"",   1.53556E+06,   1.10709E+06,   1.10709E+06
C:/temp/Job-7.odb,Step-1,Increment      1: Step Time =    1.000,"P-7-1",           899,       43.9596,       71.5154,            0.,NA,NA,"",   515.634E+03,   178.042E+03,   178.042E+03
C:/temp/Job-7.odb,Step-1,Increment      1: Step Time =    1.000,"P-7-1",           900,       128.499,       44.6238,            0.,NA,NA,"",   2.22912E+06,   2.30509E+06,   2.30509E+06
C:/temp/Job-7.odb,Step-1,Increment      1: Step Time =    1.000,"P-7-1",           901,       163.971,       9.78442,            0.,NA,NA,"",   1.04030E+06,   1.03044E+06,   1.03044E+06
C:/temp/Job-7.odb,Step-1,Increment      1: Step Time =    1.000,"P-7-1",           902,       9.40114,       164.273,            0.,NA,NA,"",   1.22657E+06,   1.32795E+06,   1.32795E+06
C:/temp/Job-7.odb,Step-1,Increment      1: Step Time =    1.000,"P-7-1",           903,       35.6633,       9.47046,            0.,NA,NA,"",   1.96937E+06,   1.95628E+06,   1.95628E+06
C:/temp/Job-7.odb,Step-1,Increment      1: Step Time =    1.000,"P-7-1",           904,       10.3838,       35.7042,            0.,NA,NA,"",   1.24672E+06,   1.34207E+06,   1.34207E+06
C:/temp/Job-7.odb,Step-1,Increment      1: Step Time =    1.000,"P-7-1",           905,       189.630,       164.571,            0.,NA,NA,"",   1.02575E+06,   1.06500E+06,   1.06500E+06
C:/temp/Job-7.odb,Step-1,Increment      1: Step Time =    1.000,"P-7-1",           906,       164.322,       190.380,            0.,NA,NA,"",   1.04007E+06,   1.02985E+06,   1.02985E+06
C:/temp/Job-7.odb,Step-1,Increment      1: Step Time =    1.000,"P-7-1",           907,       190.464,       35.8148,            0.,NA,NA,"",   1.01684E+06,   1.05969E+06,   1.05969E+06
C:/temp/Job-7.odb,Step-1,Increment      1: Step Time =    1.000,"P-7-1",           908,       35.3888,       189.506,            0.,NA,NA,"",   1.96010E+06,   1.94592E+06,   1.94592E+06
C:/temp/Job-7.odb,Step-1,Increment      1: Step Time =    1.000,"P-7-1",           909,       49.3516,       141.905,            0.,NA,NA,"",   1.11867E+06,   926.951E+03,   926.951E+03
C:/temp/Job-7.odb,Step-1,Increment      1: Step Time =    1.000,"P-7-1",           910,       102.481,       166.856,            0.,NA,NA,"",   1.99792E+06,   2.15156E+06,   2.15156E+06
C:/temp/Job-7.odb,Step-1,Increment      1: Step Time =    1.000,"P-7-1",           911,       100.885,       34.0254,            0.,NA,NA,"",   2.06160E+06,   2.21009E+06,   2.21009E+06
C:/temp/Job-7.odb,Step-1,Increment      1: Step Time =    1.000,"P-7-1",           912,       167.150,       100.421,            0.,NA,NA,"",   371.689E+03,   66.5347E+03,   66.5347E+03
C:/temp/Job-7.odb,Step-1,Increment      1: Step Time =    1.000,"P-7-1",           913,       19.9187,       91.1722,            0.,NA,NA,"",   107.982E+03,   83.9849E+03,   83.9849E+03
C:/temp/Job-7.odb,Step-1,Increment      1: Step Time =    1.000,"P-7-1",           914,       109.598,       19.9545,            0.,NA,NA,"",   1.28435E+06,   1.36556E+06,   1.36556E+06
C:/temp/Job-7.odb,Step-1,Increment      1: Step Time =    1.000,"P-7-1",           915,       180.120,       108.775,            0.,NA,NA,"",   783.898E+03,   893.582E+03,   893.582E+03
C:/temp/Job-7.odb,Step-1,Increment      1: Step Time =    1.000,"P-7-1",           916,       20.5494,       101.152,            0.,NA,NA,"",   108.635E+03,   4.56205E+03,   4.56205E+03
C:/temp/Job-7.odb,Step-1,Increment      1: Step Time =    1.000,"P-7-1",           917,       99.0496,       20.4780,            0.,NA,NA,"",   1.42749E+06,   1.49298E+06,   1.49298E+06
C:/temp/Job-7.odb,Step-1,Increment      1: Step Time =    1.000,"P-7-1",           918,       101.311,       178.786,            0.,NA,NA,"",   1.43790E+06,   1.51381E+06,   1.51381E+06
C:/temp/Job-7.odb,Step-1,Increment      1: Step Time =    1.000,"P-7-1",           919,       180.870,       100.098,            0.,NA,NA,"",   704.466E+03,   762.372E+03,   762.372E+03
C:/temp/Job-7.odb,Step-1,Increment      1: Step Time =    1.000,"P-7-1",           920,       35.3226,       82.0702,            0.,NA,NA,"",   210.959E+03,  -171.542E+03,  -171.542E+03
C:/temp/Job-7.odb,Step-1,Increment      1: Step Time =    1.000,"P-7-1",           921,       32.7356,       120.661,            0.,NA,NA,"",   239.568E+03,   93.3294E+03,   93.3294E+03
C:/temp/Job-7.odb,Step-1,Increment      1: Step Time =    1.000,"P-7-1",           922,       80.6945,       167.801,            0.,NA,NA,"",   2.04289E+06,   2.02086E+06,   2.02086E+06
C:/temp/Job-7.odb,Step-1,Increment      1: Step Time =    1.000,"P-7-1",           923,       80.3597,       32.5826,            0.,NA,NA,"",   2.06698E+06,   2.04724E+06,   2.04724E+06
C:/temp/Job-7.odb,Step-1,Increment      1: Step Time =    1.000,"P-7-1",           924,       166.745,       80.3223,            0.,NA,NA,"",   1.17250E+06,   922.115E+03,   922.115E+03
C:/temp/Job-7.odb,Step-1,Increment      1: Step Time =    1.000,"P-7-1",           925,       119.349,       167.179,            0.,NA,NA,"",   1.81753E+06,   1.94473E+06,   1.94473E+06
C:/temp/Job-7.odb,Step-1,Increment      1: Step Time =    1.000,"P-7-1",           926,       118.988,       33.0393,            0.,NA,NA,"",   1.82759E+06,   1.95194E+06,   1.95194E+06
C:/temp/Job-7.odb,Step-1,Increment      1: Step Time =    1.000,"P-7-1",           927,       163.850,       14.3351,            0.,NA,NA,"",   1.11502E+06,   1.09620E+06,   1.09620E+06
C:/temp/Job-7.odb,Step-1,Increment      1: Step Time =    1.000,"P-7-1",           928,       13.9053,       163.948,            0.,NA,NA,"",   1.27862E+06,   1.35176E+06,   1.35176E+06
C:/temp/Job-7.odb,Step-1,Increment      1: Step Time =    1.000,"P-7-1",           929,       35.9340,       14.0179,            0.,NA,NA,"",   1.91228E+06,   1.88825E+06,   1.88825E+06
C:/temp/Job-7.odb,Step-1,Increment      1: Step Time =    1.000,"P-7-1",           930,       15.1260,       35.5154,            0.,NA,NA,"",   1.31382E+06,   1.37916E+06,   1.37916E+06
C:/temp/Job-7.odb,Step-1,Increment      1: Step Time =    1.000,"P-7-1",           931,       184.906,       165.261,            0.,NA,NA,"",   1.09064E+06,   1.11367E+06,   1.11367E+06
C:/temp/Job-7.odb,Step-1,Increment      1: Step Time =    1.000,"P-7-1",           932,       164.143,       185.710,            0.,NA,NA,"",   1.11205E+06,   1.09310E+06,   1.09310E+06
C:/temp/Job-7.odb,Step-1,Increment      1: Step Time =    1.000,"P-7-1",           933,       185.986,       36.1335,            0.,NA,NA,"",   1.08125E+06,   1.11027E+06,   1.11027E+06
C:/temp/Job-7.odb,Step-1,Increment      1: Step Time =    1.000,"P-7-1",           934,       34.9619,       184.476,            0.,NA,NA,"",   1.89850E+06,   1.87278E+06,   1.87278E+06
C:/temp/Job-7.odb,Step-1,Increment      1: Step Time =    1.000,"P-7-1",           935,       160.509,       110.514,            0.,NA,NA,"",   811.705E+03,  -607.952E+03,  -607.952E+03
C:/temp/Job-7.odb,Step-1,Increment      1: Step Time =    1.000,"P-7-1",           936,       111.039,       39.7497,            0.,NA,NA,"",   2.40506E+06,   2.58694E+06,   2.58694E+06
C:/temp/Job-7.odb,Step-1,Increment      1: Step Time =    1.000,"P-7-1",           937,       17.4632,       59.6591,            0.,NA,NA,"",   671.470E+03,   703.106E+03,   703.106E+03
C:/temp/Job-7.odb,Step-1,Increment      1: Step Time =    1.000,"P-7-1",           938,       60.5911,       18.4932,            0.,NA,NA,"",   1.83113E+06,   1.75445E+06,   1.75445E+06
C:/temp/Job-7.odb,Step-1,Increment      1: Step Time =    1.000,"P-7-1",           939,       59.9596,       180.162,            0.,NA,NA,"",   1.85002E+06,   1.76498E+06,   1.76498E+06
C:/temp/Job-7.odb,Step-1,Increment      1: Step Time =    1.000,"P-7-1",           940,       183.122,       60.2302,            0.,NA,NA,"",   1.22989E+06,   1.28183E+06,   1.28183E+06
C:/temp/Job-7.odb,Step-1,Increment      1: Step Time =    1.000,"P-7-1",           941,       142.193,       20.6822,            0.,NA,NA,"",   1.33060E+06,   1.30256E+06,   1.30256E+06
C:/temp/Job-7.odb,Step-1,Increment      1: Step Time =    1.000,"P-7-1",           942,       20.1114,       140.454,            0.,NA,NA,"",   694.895E+03,   712.260E+03,   712.260E+03
C:/temp/Job-7.odb,Step-1,Increment      1: Step Time =    1.000,"P-7-1",           943,       180.697,       142.018,            0.,NA,NA,"",   1.28899E+06,   1.30304E+06,   1.30304E+06
C:/temp/Job-7.odb,Step-1,Increment      1: Step Time =    1.000,"P-7-1",           944,       139.926,       180.513,            0.,NA,NA,"",   1.29222E+06,   1.27344E+06,   1.27344E+06
C:/temp/Job-7.odb,Step-1,Increment      1: Step Time =    1.000,"P-7-1",           945,       34.9917,       86.3329,            0.,NA,NA,"",   170.640E+03,  -170.796E+03,  -170.796E+03
C:/temp/Job-7.odb,Step-1,Increment      1: Step Time =    1.000,"P-7-1",           946,       130.757,       20.8086,            0.,NA,NA,"",   1.33540E+06,   1.34923E+06,   1.34923E+06
C:/temp/Job-7.odb,Step-1,Increment      1: Step Time =    1.000,"P-7-1",           947,       18.6615,       130.413,            0.,NA,NA,"",   406.995E+03,   425.643E+03,   425.643E+03
C:/temp/Job-7.odb,Step-1,Increment      1: Step Time =    1.000,"P-7-1",           948,       69.1471,       180.048,            0.,NA,NA,"",   1.82022E+06,   1.74239E+06,   1.74239E+06
C:/temp/Job-7.odb,Step-1,Increment      1: Step Time =    1.000,"P-7-1",           949,       180.345,       68.1849,            0.,NA,NA,"",   1.25956E+06,   1.29162E+06,   1.29162E+06
C:/temp/Job-7.odb,Step-1,Increment      1: Step Time =    1.000,"P-7-1",           950,       20.0750,       68.2842,            0.,NA,NA,"",   451.157E+03,   464.753E+03,   464.753E+03
C:/temp/Job-7.odb,Step-1,Increment      1: Step Time =    1.000,"P-7-1",           951,       70.6433,       19.4496,            0.,NA,NA,"",   1.78809E+06,   1.71755E+06,   1.71755E+06
C:/temp/Job-7.odb,Step-1,Increment      1: Step Time =    1.000,"P-7-1",           952,       180.047,       131.798,            0.,NA,NA,"",   1.27885E+06,   1.29971E+06,   1.29971E+06
C:/temp/Job-7.odb,Step-1,Increment      1: Step Time =    1.000,"P-7-1",           953,       130.782,       180.637,            0.,NA,NA,"",   1.27437E+06,   1.28868E+06,   1.28868E+06
C:/temp/Job-7.odb,Step-1,Increment      1: Step Time =    1.000,"P-7-1",           954,       22.1793,       82.4248,            0.,NA,NA,"",   157.973E+03,   150.603E+03,   150.603E+03
C:/temp/Job-7.odb,Step-1,Increment      1: Step Time =    1.000,"P-7-1",           955,       120.043,       19.2563,            0.,NA,NA,"",   1.24136E+06,   1.29908E+06,   1.29908E+06
C:/temp/Job-7.odb,Step-1,Increment      1: Step Time =    1.000,"P-7-1",           956,       177.876,       118.094,            0.,NA,NA,"",   1.03396E+06,   1.07677E+06,   1.07677E+06
C:/temp/Job-7.odb,Step-1,Increment      1: Step Time =    1.000,"P-7-1",           957,       80.1001,       178.376,            0.,NA,NA,"",   1.76956E+06,   1.73185E+06,   1.73185E+06
C:/temp/Job-7.odb,Step-1,Increment      1: Step Time =    1.000,"P-7-1",           958,       145.652,       139.884,            0.,NA,NA,"",   1.85227E+06,   1.63647E+06,   1.63647E+06
C:/temp/Job-7.odb,Step-1,Increment      1: Step Time =    1.000,"P-7-1",           959,       54.3528,       60.7589,            0.,NA,NA,"",   1.00933E+06,   804.975E+03,   804.975E+03
C:/temp/Job-7.odb,Step-1,Increment      1: Step Time =    1.000,"P-7-1",           960,       56.7675,       149.794,            0.,NA,NA,"",   1.56117E+06,   1.37465E+06,   1.37465E+06
C:/temp/Job-7.odb,Step-1,Increment      1: Step Time =    1.000,"P-7-1",           961,       139.237,       54.4352,            0.,NA,NA,"",   2.01715E+06,   1.93732E+06,   1.93732E+06
C:/temp/Job-7.odb,Step-1,Increment      1: Step Time =    1.000,"P-7-1",           962,       71.6015,       35.4476,            0.,NA,NA,"",   2.06398E+06,   1.96800E+06,   1.96800E+06
C:/temp/Job-7.odb,Step-1,Increment      1: Step Time =    1.000,"P-7-1",           963,       128.167,       164.793,            0.,NA,NA,"",   1.86220E+06,   1.92913E+06,   1.92913E+06
C:/temp/Job-7.odb,Step-1,Increment      1: Step Time =    1.000,"P-7-1",           964,       164.196,       71.8501,            0.,NA,NA,"",   1.50515E+06,   1.19240E+06,   1.19240E+06
C:/temp/Job-7.odb,Step-1,Increment      1: Step Time =    1.000,"P-7-1",           965,       125.421,       38.7459,            0.,NA,NA,"",   2.04934E+06,   2.14753E+06,   2.14753E+06
C:/temp/Job-7.odb,Step-1,Increment      1: Step Time =    1.000,"P-7-1",           966,       162.519,       125.231,            0.,NA,NA,"",   1.42729E+06,   1.06325E+06,   1.06325E+06
C:/temp/Job-7.odb,Step-1,Increment      1: Step Time =    1.000,"P-7-1",           967,       38.0672,       131.714,            0.,NA,NA,"",   592.952E+03,   466.063E+03,   466.063E+03
C:/temp/Job-7.odb,Step-1,Increment      1: Step Time =    1.000,"P-7-1",           968,       69.1973,       163.621,            0.,NA,NA,"",   2.05022E+06,   1.93396E+06,   1.93396E+06
C:/temp/Job-7.odb,Step-1,Increment      1: Step Time =    1.000,"P-7-1",           969,       37.5824,       74.3846,            0.,NA,NA,"",   393.740E+03,   159.407E+03,   159.407E+03
C:/temp/Job-7.odb,Step-1,Increment      1: Step Time =    1.000,"P-7-1",           970,       91.5761,       33.0960,            0.,NA,NA,"",   2.07152E+06,   2.16012E+06,   2.16012E+06
C:/temp/Job-7.odb,Step-1,Increment      1: Step Time =    1.000,"P-7-1",           971,       166.188,       90.3419,            0.,NA,NA,"",   691.171E+03,   275.918E+03,   275.918E+03
C:/temp/Job-7.odb,Step-1,Increment      1: Step Time =    1.000,"P-7-1",           972,       108.521,       166.862,            0.,NA,NA,"",   1.94727E+06,   2.10470E+06,   2.10470E+06
C:/temp/Job-7.odb,Step-1,Increment      1: Step Time =    1.000,"P-7-1",           973,       33.0847,       109.052,            0.,NA,NA,"",   140.359E+03,  -156.934E+03,  -156.934E+03
C:/temp/Job-7.odb,Step-1,Increment      1: Step Time =    1.000,"P-7-1",           974,       38.1654,       95.2137,            0.,NA,NA,"",   265.183E+03,  -302.246E+03,  -302.246E+03
C:/temp/Job-7.odb,Step-1,Increment      1: Step Time =    1.000,"P-7-1",           975,       86.7978,       35.2410,            0.,NA,NA,"",   2.15890E+06,   2.21274E+06,   2.21274E+06
C:/temp/Job-7.odb,Step-1,Increment      1: Step Time =    1.000,"P-7-1",           976,       113.140,       164.655,            0.,NA,NA,"",   2.04292E+06,   2.20199E+06,   2.20199E+06
C:/temp/Job-7.odb,Step-1,Increment      1: Step Time =    1.000,"P-7-1",           977,       164.178,       86.2884,            0.,NA,NA,"",   901.363E+03,   84.8793E+03,   84.8793E+03
C:/temp/Job-7.odb,Step-1,Increment      1: Step Time =    1.000,"P-7-1",           978,       35.2974,       113.914,            0.,NA,NA,"",   186.462E+03,  -187.300E+03,  -187.300E+03
C:/temp/Job-7.odb,Step-1,Increment      1: Step Time =    1.000,"P-7-1",           979,       132.868,       164.386,            0.,NA,NA,"",   1.84367E+06,   1.86603E+06,   1.86603E+06
C:/temp/Job-7.odb,Step-1,Increment      1: Step Time =    1.000,"P-7-1",           980,       163.950,       67.3619,            0.,NA,NA,"",   1.61273E+06,   1.32061E+06,   1.32061E+06
C:/temp/Job-7.odb,Step-1,Increment      1: Step Time =    1.000,"P-7-1",           981,       66.0309,       165.284,            0.,NA,NA,"",   2.01083E+06,   1.87603E+06,   1.87603E+06
C:/temp/Job-7.odb,Step-1,Increment      1: Step Time =    1.000,"P-7-1",           982,       160.915,       130.217,            0.,NA,NA,"",   1.59488E+06,   1.23414E+06,   1.23414E+06
C:/temp/Job-7.odb,Step-1,Increment      1: Step Time =    1.000,"P-7-1",           983,       129.960,       40.0826,            0.,NA,NA,"",   2.02994E+06,   2.08548E+06,   2.08548E+06
C:/temp/Job-7.odb,Step-1,Increment      1: Step Time =    1.000,"P-7-1",           984,       41.6235,       135.645,            0.,NA,NA,"",   772.366E+03,   620.151E+03,   620.151E+03
C:/temp/Job-7.odb,Step-1,Increment      1: Step Time =    1.000,"P-7-1",           985,       67.0644,       35.9888,            0.,NA,NA,"",   2.01881E+06,   1.89225E+06,   1.89225E+06
C:/temp/Job-7.odb,Step-1,Increment      1: Step Time =    1.000,"P-7-1",           986,       39.2944,       69.8653,            0.,NA,NA,"",   542.995E+03,   396.902E+03,   396.902E+03
C:/temp/Job-7.odb,Step-1,Increment      1: Step Time =    1.000,"P-7-1",           987,       24.1009,       112.834,            0.,NA,NA,"",   111.485E+03,   24.7268E+03,   24.7268E+03
C:/temp/Job-7.odb,Step-1,Increment      1: Step Time =    1.000,"P-7-1",           988,       87.6626,       24.2448,            0.,NA,NA,"",   1.75955E+06,   1.77651E+06,   1.77651E+06
C:/temp/Job-7.odb,Step-1,Increment      1: Step Time =    1.000,"P-7-1",           989,       174.552,       86.8170,            0.,NA,NA,"",   859.909E+03,   875.846E+03,   875.846E+03
C:/temp/Job-7.odb,Step-1,Increment      1: Step Time =    1.000,"P-7-1",           990,       112.467,       175.382,            0.,NA,NA,"",   1.47340E+06,   1.58085E+06,   1.58085E+06
C:/temp/Job-7.odb,Step-1,Increment      1: Step Time =    1.000,"P-7-1",           991,       58.5811,       156.981,            0.,NA,NA,"",   1.81404E+06,   1.63984E+06,   1.63984E+06
C:/temp/Job-7.odb,Step-1,Increment      1: Step Time =    1.000,"P-7-1",           992,       137.336,       47.9948,            0.,NA,NA,"",   2.08918E+06,   2.04847E+06,   2.04847E+06
C:/temp/Job-7.odb,Step-1,Increment      1: Step Time =    1.000,"P-7-1",           993,       47.7728,       62.6099,            0.,NA,NA,"",   893.481E+03,   695.359E+03,   695.359E+03
C:/temp/Job-7.odb,Step-1,Increment      1: Step Time =    1.000,"P-7-1",           994,       152.467,       138.122,            0.,NA,NA,"",   1.81956E+06,   1.50050E+06,   1.50050E+06
C:/temp/Job-7.odb,Step-1,Increment      1: Step Time =    1.000,"P-7-1",           995,       26.8319,       81.5820,            0.,NA,NA,"",   170.475E+03,   93.6344E+03,   93.6344E+03
C:/temp/Job-7.odb,Step-1,Increment      1: Step Time =    1.000,"P-7-1",           996,       118.979,       25.8690,            0.,NA,NA,"",   1.52239E+06,   1.61598E+06,   1.61598E+06
C:/temp/Job-7.odb,Step-1,Increment      1: Step Time =    1.000,"P-7-1",           997,       81.7804,       23.2133,            0.,NA,NA,"",   1.80176E+06,   1.77455E+06,   1.77455E+06
C:/temp/Job-7.odb,Step-1,Increment      1: Step Time =    1.000,"P-7-1",           998,       21.7591,       120.933,            0.,NA,NA,"",   215.791E+03,   215.515E+03,   215.515E+03
C:/temp/Job-7.odb,Step-1,Increment      1: Step Time =    1.000,"P-7-1",           999,       173.197,       118.787,            0.,NA,NA,"",   1.08573E+06,   1.01778E+06,   1.01778E+06
C:/temp/Job-7.odb,Step-1,Increment      1: Step Time =    1.000,"P-7-1",          1000,       80.4471,       172.962,            0.,NA,NA,"",   1.92264E+06,   1.89051E+06,   1.89051E+06
C:/temp/Job-7.odb,Step-1,Increment      1: Step Time =    1.000,"P-7-1",          1001,       174.955,       76.7309,            0.,NA,NA,"",   1.20703E+06,   1.15906E+06,   1.15906E+06
C:/temp/Job-7.odb,Step-1,Increment      1: Step Time =    1.000,"P-7-1",          1002,       117.954,       176.033,            0.,NA,NA,"",   1.42713E+06,   1.51753E+06,   1.51753E+06
C:/temp/Job-7.odb,Step-1,Increment      1: Step Time =    1.000,"P-7-1",          1003,       101.323,       174.125,            0.,NA,NA,"",   1.64041E+06,   1.74267E+06,   1.74267E+06
C:/temp/Job-7.odb,Step-1,Increment      1: Step Time =    1.000,"P-7-1",          1004,       176.223,       95.8381,            0.,NA,NA,"",   569.847E+03,   644.115E+03,   644.115E+03
C:/temp/Job-7.odb,Step-1,Increment      1: Step Time =    1.000,"P-7-1",          1005,       25.3451,       100.693,            0.,NA,NA,"",   91.2812E+03,  -83.6378E+03,  -83.6378E+03
C:/temp/Job-7.odb,Step-1,Increment      1: Step Time =    1.000,"P-7-1",          1006,       99.5510,       25.2007,            0.,NA,NA,"",   1.63044E+06,   1.72502E+06,   1.72502E+06
C:/temp/Job-7.odb,Step-1,Increment      1: Step Time =    1.000,"P-7-1",          1007,       23.2487,       57.3179,            0.,NA,NA,"",   794.638E+03,   796.077E+03,   796.077E+03
C:/temp/Job-7.odb,Step-1,Increment      1: Step Time =    1.000,"P-7-1",          1008,       61.2856,       24.3785,            0.,NA,NA,"",   1.90500E+06,   1.79895E+06,   1.79895E+06
C:/temp/Job-7.odb,Step-1,Increment      1: Step Time =    1.000,"P-7-1",          1009,       142.313,       25.5774,            0.,NA,NA,"",   1.49280E+06,   1.45539E+06,   1.45539E+06
C:/temp/Job-7.odb,Step-1,Increment      1: Step Time =    1.000,"P-7-1",          1010,       24.9005,       141.997,            0.,NA,NA,"",   786.567E+03,   778.252E+03,   778.252E+03
C:/temp/Job-7.odb,Step-1,Increment      1: Step Time =    1.000,"P-7-1",          1011,       175.911,       140.920,            0.,NA,NA,"",   1.42951E+06,   1.36303E+06,   1.36303E+06
C:/temp/Job-7.odb,Step-1,Increment      1: Step Time =    1.000,"P-7-1",          1012,       140.299,       175.768,            0.,NA,NA,"",   1.44909E+06,   1.42426E+06,   1.42426E+06
C:/temp/Job-7.odb,Step-1,Increment      1: Step Time =    1.000,"P-7-1",          1013,       60.8046,       175.339,            0.,NA,NA,"",   1.90219E+06,   1.79427E+06,   1.79427E+06
C:/temp/Job-7.odb,Step-1,Increment      1: Step Time =    1.000,"P-7-1",          1014,       177.030,       60.4770,            0.,NA,NA,"",   1.38942E+06,   1.34381E+06,   1.34381E+06
C:/temp/Job-7.odb,Step-1,Increment      1: Step Time =    1.000,"P-7-1",          1015,       67.1342,       23.9255,            0.,NA,NA,"",   1.90621E+06,   1.81000E+06,   1.81000E+06
C:/temp/Job-7.odb,Step-1,Increment      1: Step Time =    1.000,"P-7-1",          1016,       131.036,       176.238,            0.,NA,NA,"",   1.42884E+06,   1.44903E+06,   1.44903E+06
C:/temp/Job-7.odb,Step-1,Increment      1: Step Time =    1.000,"P-7-1",          1017,       24.8252,       129.357,            0.,NA,NA,"",   409.477E+03,   397.166E+03,   397.166E+03
C:/temp/Job-7.odb,Step-1,Increment      1: Step Time =    1.000,"P-7-1",          1018,       55.6673,       51.1647,            0.,NA,NA,"",   1.50338E+06,   1.31475E+06,   1.31475E+06
C:/temp/Job-7.odb,Step-1,Increment      1: Step Time =    1.000,"P-7-1",          1019,       142.965,       149.210,            0.,NA,NA,"",   2.00936E+06,   1.87862E+06,   1.87862E+06
C:/temp/Job-7.odb,Step-1,Increment      1: Step Time =    1.000,"P-7-1",          1020,       50.3905,       145.847,            0.,NA,NA,"",   1.31039E+06,   1.11885E+06,   1.11885E+06
C:/temp/Job-7.odb,Step-1,Increment      1: Step Time =    1.000,"P-7-1",          1021,       148.805,       55.6850,            0.,NA,NA,"",   1.93990E+06,   1.71074E+06,   1.71074E+06
C:/temp/Job-7.odb,Step-1,Increment      1: Step Time =    1.000,"P-7-1",          1022,       165.587,       131.543,            0.,NA,NA,"",   1.57425E+06,   1.30145E+06,   1.30145E+06
C:/temp/Job-7.odb,Step-1,Increment      1: Step Time =    1.000,"P-7-1",          1023,       131.386,       35.4285,            0.,NA,NA,"",   1.85031E+06,   1.88603E+06,   1.88603E+06
C:/temp/Job-7.odb,Step-1,Increment      1: Step Time =    1.000,"P-7-1",          1024,       67.2313,       31.8383,            0.,NA,NA,"",   2.01192E+06,   1.89238E+06,   1.89238E+06
C:/temp/Job-7.odb,Step-1,Increment      1: Step Time =    1.000,"P-7-1",          1025,       168.200,       67.8925,            0.,NA,NA,"",   1.53184E+06,   1.31197E+06,   1.31197E+06
C:/temp/Job-7.odb,Step-1,Increment      1: Step Time =    1.000,"P-7-1",          1026,       132.786,       169.020,            0.,NA,NA,"",   1.69124E+06,   1.71215E+06,   1.71215E+06
C:/temp/Job-7.odb,Step-1,Increment      1: Step Time =    1.000,"P-7-1",          1027,       34.2771,       135.690,            0.,NA,NA,"",   694.215E+03,   608.936E+03,   608.936E+03
C:/temp/Job-7.odb,Step-1,Increment      1: Step Time =    1.000,"P-7-1",          1028,       67.1227,       169.195,            0.,NA,NA,"",   1.98683E+06,   1.86753E+06,   1.86753E+06
C:/temp/Job-7.odb,Step-1,Increment      1: Step Time =    1.000,"P-7-1",          1029,       34.5098,       68.2440,            0.,NA,NA,"",   559.480E+03,   469.248E+03,   469.248E+03
C:/temp/Job-7.odb,Step-1,Increment      1: Step Time =    1.000,"P-7-1",          1030,       14.0058,       168.389,            0.,NA,NA,"",   1.40505E+06,   1.48147E+06,   1.48147E+06
C:/temp/Job-7.odb,Step-1,Increment      1: Step Time =    1.000,"P-7-1",          1031,       168.445,       18.7984,            0.,NA,NA,"",   1.15659E+06,   1.13515E+06,   1.13515E+06
C:/temp/Job-7.odb,Step-1,Increment      1: Step Time =    1.000,"P-7-1",          1032,       15.2393,       31.5175,            0.,NA,NA,"",   1.42349E+06,   1.49183E+06,   1.49183E+06
C:/temp/Job-7.odb,Step-1,Increment      1: Step Time =    1.000,"P-7-1",          1033,       31.0319,       13.9506,            0.,NA,NA,"",   1.93179E+06,   1.91694E+06,   1.91694E+06
C:/temp/Job-7.odb,Step-1,Increment      1: Step Time =    1.000,"P-7-1",          1034,       181.336,       170.240,            0.,NA,NA,"",   1.11960E+06,   1.12440E+06,   1.12440E+06
C:/temp/Job-7.odb,Step-1,Increment      1: Step Time =    1.000,"P-7-1",          1035,       168.694,       185.941,            0.,NA,NA,"",   1.09133E+06,   1.07782E+06,   1.07782E+06
C:/temp/Job-7.odb,Step-1,Increment      1: Step Time =    1.000,"P-7-1",          1036,       186.004,       31.5086,            0.,NA,NA,"",   1.06628E+06,   1.08737E+06,   1.08737E+06
C:/temp/Job-7.odb,Step-1,Increment      1: Step Time =    1.000,"P-7-1",          1037,       30.4657,       184.733,            0.,NA,NA,"",   1.91632E+06,   1.90067E+06,   1.90067E+06
C:/temp/Job-7.odb,Step-1,Increment      1: Step Time =    1.000,"P-7-1",          1038,       55.3608,       185.518,            0.,NA,NA,"",   1.81564E+06,   1.76206E+06,   1.76206E+06
C:/temp/Job-7.odb,Step-1,Increment      1: Step Time =    1.000,"P-7-1",          1039,       185.929,       55.7584,            0.,NA,NA,"",   1.14446E+06,   1.22232E+06,   1.22232E+06
C:/temp/Job-7.odb,Step-1,Increment      1: Step Time =    1.000,"P-7-1",          1040,       147.427,       15.1890,            0.,NA,NA,"",   1.16175E+06,   1.13672E+06,   1.13672E+06
C:/temp/Job-7.odb,Step-1,Increment      1: Step Time =    1.000,"P-7-1",          1041,       14.6787,       145.107,            0.,NA,NA,"",   778.711E+03,   824.251E+03,   824.251E+03
C:/temp/Job-7.odb,Step-1,Increment      1: Step Time =    1.000,"P-7-1",          1042,       13.7159,       55.7344,            0.,NA,NA,"",   744.495E+03,   794.407E+03,   794.407E+03
C:/temp/Job-7.odb,Step-1,Increment      1: Step Time =    1.000,"P-7-1",          1043,       55.5391,       15.0628,            0.,NA,NA,"",   1.81626E+06,   1.76078E+06,   1.76078E+06
C:/temp/Job-7.odb,Step-1,Increment      1: Step Time =    1.000,"P-7-1",          1044,       186.781,       145.004,            0.,NA,NA,"",   1.12316E+06,   1.20545E+06,   1.20545E+06
C:/temp/Job-7.odb,Step-1,Increment      1: Step Time =    1.000,"P-7-1",          1045,       144.690,       185.272,            0.,NA,NA,"",   1.15054E+06,   1.12885E+06,   1.12885E+06
C:/temp/Job-7.odb,Step-1,Increment      1: Step Time =    1.000,"P-7-1",          1046,       38.5632,       100.124,            0.,NA,NA,"",   274.555E+03,  -312.164E+03,  -312.164E+03
C:/temp/Job-7.odb,Step-1,Increment      1: Step Time =    1.000,"P-7-1",          1047,       38.4285,       91.4199,            0.,NA,NA,"",   258.258E+03,  -291.823E+03,  -291.823E+03
C:/temp/Job-7.odb,Step-1,Increment      1: Step Time =    1.000,"P-7-1",          1048,       137.675,       164.732,            0.,NA,NA,"",   1.80316E+06,   1.78228E+06,   1.78228E+06
C:/temp/Job-7.odb,Step-1,Increment      1: Step Time =    1.000,"P-7-1",          1049,       164.719,       62.5135,            0.,NA,NA,"",   1.66780E+06,   1.41414E+06,   1.41414E+06
C:/temp/Job-7.odb,Step-1,Increment      1: Step Time =    1.000,"P-7-1",          1050,       62.2026,       165.968,            0.,NA,NA,"",   1.96447E+06,   1.81909E+06,   1.81909E+06
C:/temp/Job-7.odb,Step-1,Increment      1: Step Time =    1.000,"P-7-1",          1051,       164.133,       136.908,            0.,NA,NA,"",   1.68404E+06,   1.41556E+06,   1.41556E+06
C:/temp/Job-7.odb,Step-1,Increment      1: Step Time =    1.000,"P-7-1",          1052,       135.973,       37.2850,            0.,NA,NA,"",   1.87636E+06,   1.86448E+06,   1.86448E+06
C:/temp/Job-7.odb,Step-1,Increment      1: Step Time =    1.000,"P-7-1",          1053,       37.9448,       138.914,            0.,NA,NA,"",   854.589E+03,   737.389E+03,   737.389E+03
C:/temp/Job-7.odb,Step-1,Increment      1: Step Time =    1.000,"P-7-1",          1054,       62.1534,       35.3701,            0.,NA,NA,"",   1.96567E+06,   1.82187E+06,   1.82187E+06
C:/temp/Job-7.odb,Step-1,Increment      1: Step Time =    1.000,"P-7-1",          1055,       36.6015,       63.6014,            0.,NA,NA,"",   742.115E+03,   635.603E+03,   635.603E+03
C:/temp/Job-7.odb,Step-1,Increment      1: Step Time =    1.000,"P-7-1",          1056,       101.453,       170.133,            0.,NA,NA,"",   1.81181E+06,   1.93932E+06,   1.93932E+06
C:/temp/Job-7.odb,Step-1,Increment      1: Step Time =    1.000,"P-7-1",          1057,       100.310,       29.6706,            0.,NA,NA,"",   1.83205E+06,   1.95457E+06,   1.95457E+06
C:/temp/Job-7.odb,Step-1,Increment      1: Step Time =    1.000,"P-7-1",          1058,       171.892,       100.414,            0.,NA,NA,"",   402.220E+03,   450.001E+03,   450.001E+03
C:/temp/Job-7.odb,Step-1,Increment      1: Step Time =    1.000,"P-7-1",          1059,       34.2329,       99.7153,            0.,NA,NA,"",   157.802E+03,  -177.481E+03,  -177.481E+03
C:/temp/Job-7.odb,Step-1,Increment      1: Step Time =    1.000,"P-7-1",          1060,       118.420,       30.0806,            0.,NA,NA,"",   1.70971E+06,   1.82658E+06,   1.82658E+06
C:/temp/Job-7.odb,Step-1,Increment      1: Step Time =    1.000,"P-7-1",          1061,       168.827,       118.845,            0.,NA,NA,"",   1.12156E+06,   941.657E+03,   941.657E+03
C:/temp/Job-7.odb,Step-1,Increment      1: Step Time =    1.000,"P-7-1",          1062,       78.6961,       27.9911,            0.,NA,NA,"",   1.96038E+06,   1.91807E+06,   1.91807E+06
C:/temp/Job-7.odb,Step-1,Increment      1: Step Time =    1.000,"P-7-1",          1063,       120.643,       171.440,            0.,NA,NA,"",   1.61482E+06,   1.71589E+06,   1.71589E+06
C:/temp/Job-7.odb,Step-1,Increment      1: Step Time =    1.000,"P-7-1",          1064,       170.902,       78.7042,            0.,NA,NA,"",   1.19236E+06,   1.05479E+06,   1.05479E+06
C:/temp/Job-7.odb,Step-1,Increment      1: Step Time =    1.000,"P-7-1",          1065,       28.7495,       121.122,            0.,NA,NA,"",   229.238E+03,   182.698E+03,   182.698E+03
C:/temp/Job-7.odb,Step-1,Increment      1: Step Time =    1.000,"P-7-1",          1066,       82.1113,       169.843,            0.,NA,NA,"",   1.99335E+06,   1.98104E+06,   1.98104E+06
C:/temp/Job-7.odb,Step-1,Increment      1: Step Time =    1.000,"P-7-1",          1067,       31.0882,       81.6039,            0.,NA,NA,"",   185.516E+03,  -47.8145E+03,  -47.8145E+03
C:/temp/Job-7.odb,Step-1,Increment      1: Step Time =    1.000,"P-7-1",          1068,       168.370,       109.944,            0.,NA,NA,"",   693.194E+03,   569.136E+03,   569.136E+03
C:/temp/Job-7.odb,Step-1,Increment      1: Step Time =    1.000,"P-7-1",          1069,       110.065,       32.3709,            0.,NA,NA,"",   1.88417E+06,   2.04167E+06,   2.04167E+06
C:/temp/Job-7.odb,Step-1,Increment      1: Step Time =    1.000,"P-7-1",          1070,       88.6645,       166.530,            0.,NA,NA,"",   2.10515E+06,   2.16646E+06,   2.16646E+06
C:/temp/Job-7.odb,Step-1,Increment      1: Step Time =    1.000,"P-7-1",          1071,       121.187,       180.351,            0.,NA,NA,"",   1.25117E+06,   1.30539E+06,   1.30539E+06
C:/temp/Job-7.odb,Step-1,Increment      1: Step Time =    1.000,"P-7-1",          1072,       79.4036,       18.5396,            0.,NA,NA,"",   1.67632E+06,   1.63562E+06,   1.63562E+06
C:/temp/Job-7.odb,Step-1,Increment      1: Step Time =    1.000,"P-7-1",          1073,       180.407,       79.7087,            0.,NA,NA,"",   1.08490E+06,   1.16669E+06,   1.16669E+06
C:/temp/Job-7.odb,Step-1,Increment      1: Step Time =    1.000,"P-7-1",          1074,       180.294,       90.4653,            0.,NA,NA,"",   811.670E+03,   924.262E+03,   924.262E+03
C:/temp/Job-7.odb,Step-1,Increment      1: Step Time =    1.000,"P-7-1",          1075,       111.305,       181.157,            0.,NA,NA,"",   1.23015E+06,   1.30557E+06,   1.30557E+06
C:/temp/Job-7.odb,Step-1,Increment      1: Step Time =    1.000,"P-7-1",          1076,       18.5257,       110.901,            0.,NA,NA,"",   116.670E+03,   105.550E+03,   105.550E+03
C:/temp/Job-7.odb,Step-1,Increment      1: Step Time =    1.000,"P-7-1",          1077,       88.9960,       18.4191,            0.,NA,NA,"",   1.52361E+06,   1.53024E+06,   1.53024E+06
C:/temp/Job-7.odb,Step-1,Increment      1: Step Time =    1.000,"P-7-1",          1078,       89.6750,       28.5618,            0.,NA,NA,"",   1.88993E+06,   1.94034E+06,   1.94034E+06
C:/temp/Job-7.odb,Step-1,Increment      1: Step Time =    1.000,"P-7-1",          1079,       110.483,       171.211,            0.,NA,NA,"",   1.68156E+06,   1.81494E+06,   1.81494E+06
C:/temp/Job-7.odb,Step-1,Increment      1: Step Time =    1.000,"P-7-1",          1080,       170.239,       88.3708,            0.,NA,NA,"",   779.305E+03,   701.687E+03,   701.687E+03
C:/temp/Job-7.odb,Step-1,Increment      1: Step Time =    1.000,"P-7-1",          1081,       28.5082,       110.910,            0.,NA,NA,"",   100.844E+03,  -87.9857E+03,  -87.9857E+03
C:/temp/Job-7.odb,Step-1,Increment      1: Step Time =    1.000,"P-7-1",          1082,       46.1842,       146.220,            0.,NA,NA,"",   1.25700E+06,   1.08786E+06,   1.08786E+06
C:/temp/Job-7.odb,Step-1,Increment      1: Step Time =    1.000,"P-7-1",          1083,       142.592,       155.046,            0.,NA,NA,"",   1.97570E+06,   1.87633E+06,   1.87633E+06
C:/temp/Job-7.odb,Step-1,Increment      1: Step Time =    1.000,"P-7-1",          1084,       56.2755,       44.6302,            0.,NA,NA,"",   1.72534E+06,   1.54768E+06,   1.54768E+06
C:/temp/Job-7.odb,Step-1,Increment      1: Step Time =    1.000,"P-7-1",          1085,       155.286,       56.3400,            0.,NA,NA,"",   1.87041E+06,   1.60359E+06,   1.60359E+06
C:/temp/Job-7.odb,Step-1,Increment      1: Step Time =    1.000,"P-7-1",          1086,       46.1110,       149.732,            0.,NA,NA,"",   1.37874E+06,   1.21212E+06,   1.21212E+06
C:/temp/Job-7.odb,Step-1,Increment      1: Step Time =    1.000,"P-7-1",          1087,       9.16955,       55.4685,            0.,NA,NA,"",   725.616E+03,   789.697E+03,   789.697E+03
C:/temp/Job-7.odb,Step-1,Increment      1: Step Time =    1.000,"P-7-1",          1088,       55.3895,       190.523,            0.,NA,NA,"",   1.78205E+06,   1.75460E+06,   1.75460E+06
C:/temp/Job-7.odb,Step-1,Increment      1: Step Time =    1.000,"P-7-1",          1089,       146.340,       10.0423,            0.,NA,NA,"",   1.00815E+06,   993.880E+03,   993.880E+03
C:/temp/Job-7.odb,Step-1,Increment      1: Step Time =    1.000,"P-7-1",          1090,       191.124,       144.821,            0.,NA,NA,"",   1.00784E+06,   1.12911E+06,   1.12911E+06
C:/temp/Job-7.odb,Step-1,Increment      1: Step Time =    1.000,"P-7-1",          1091,       26.4102,       105.960,            0.,NA,NA,"",   88.9333E+03,  -83.0288E+03,  -83.0288E+03
C:/temp/Job-7.odb,Step-1,Increment      1: Step Time =    1.000,"P-7-1",          1092,       94.4195,       26.3893,            0.,NA,NA,"",   1.75536E+06,   1.83286E+06,   1.83286E+06
C:/temp/Job-7.odb,Step-1,Increment      1: Step Time =    1.000,"P-7-1",          1093,       171.597,       92.2066,            0.,NA,NA,"",   593.676E+03,   589.990E+03,   589.990E+03
C:/temp/Job-7.odb,Step-1,Increment      1: Step Time =    1.000,"P-7-1",          1094,       106.057,       173.373,            0.,NA,NA,"",   1.62531E+06,   1.75011E+06,   1.75011E+06
C:/temp/Job-7.odb,Step-1,Increment      1: Step Time =    1.000,"P-7-1",          1095,       26.3310,       117.628,            0.,NA,NA,"",   162.254E+03,   95.2891E+03,   95.2891E+03
C:/temp/Job-7.odb,Step-1,Increment      1: Step Time =    1.000,"P-7-1",          1096,       83.2748,       26.6056,            0.,NA,NA,"",   1.88353E+06,   1.87276E+06,   1.87276E+06
C:/temp/Job-7.odb,Step-1,Increment      1: Step Time =    1.000,"P-7-1",          1097,       23.5199,       86.5351,            0.,NA,NA,"",   112.673E+03,   61.4618E+03,   61.4618E+03
C:/temp/Job-7.odb,Step-1,Increment      1: Step Time =    1.000,"P-7-1",          1098,       114.031,       27.4156,            0.,NA,NA,"",   1.59190E+06,   1.71458E+06,   1.71458E+06
C:/temp/Job-7.odb,Step-1,Increment      1: Step Time =    1.000,"P-7-1",          1099,       172.706,       82.7365,            0.,NA,NA,"",   1.03031E+06,   968.496E+03,   968.496E+03
C:/temp/Job-7.odb,Step-1,Increment      1: Step Time =    1.000,"P-7-1",          1100,       116.412,       172.934,            0.,NA,NA,"",   1.55534E+06,   1.66484E+06,   1.66484E+06
C:/temp/Job-7.odb,Step-1,Increment      1: Step Time =    1.000,"P-7-1",          1101,       85.7397,       173.035,            0.,NA,NA,"",   1.87705E+06,   1.88667E+06,   1.88667E+06
C:/temp/Job-7.odb,Step-1,Increment      1: Step Time =    1.000,"P-7-1",          1102,       172.875,       114.560,            0.,NA,NA,"",   920.312E+03,   891.457E+03,   891.457E+03
C:/temp/Job-7.odb,Step-1,Increment      1: Step Time =    1.000,"P-7-1",          1103,       25.5411,       64.2949,            0.,NA,NA,"",   597.811E+03,   583.888E+03,   583.888E+03
C:/temp/Job-7.odb,Step-1,Increment      1: Step Time =    1.000,"P-7-1",          1104,       65.0735,       26.8741,            0.,NA,NA,"",   1.94597E+06,   1.83545E+06,   1.83545E+06
C:/temp/Job-7.odb,Step-1,Increment      1: Step Time =    1.000,"P-7-1",          1105,       26.8482,       137.212,            0.,NA,NA,"",    663.45E+03,   640.360E+03,   640.360E+03
C:/temp/Job-7.odb,Step-1,Increment      1: Step Time =    1.000,"P-7-1",          1106,       136.449,       26.2333,            0.,NA,NA,"",   1.52812E+06,   1.51864E+06,   1.51864E+06
C:/temp/Job-7.odb,Step-1,Increment      1: Step Time =    1.000,"P-7-1",          1107,       172.469,       134.218,            0.,NA,NA,"",   1.47557E+06,   1.34727E+06,   1.34727E+06
C:/temp/Job-7.odb,Step-1,Increment      1: Step Time =    1.000,"P-7-1",          1108,       135.348,       175.055,            0.,NA,NA,"",   1.47717E+06,   1.47545E+06,   1.47545E+06
C:/temp/Job-7.odb,Step-1,Increment      1: Step Time =    1.000,"P-7-1",          1109,       64.9534,       175.311,            0.,NA,NA,"",   1.91503E+06,   1.80984E+06,   1.80984E+06
C:/temp/Job-7.odb,Step-1,Increment      1: Step Time =    1.000,"P-7-1",          1110,       174.984,       66.6412,            0.,NA,NA,"",   1.40062E+06,   1.31702E+06,   1.31702E+06
C:/temp/Job-7.odb,Step-1,Increment      1: Step Time =    1.000,"P-7-1",          1111,       18.1052,       163.924,            0.,NA,NA,"",   1.33590E+06,   1.38077E+06,   1.38077E+06
C:/temp/Job-7.odb,Step-1,Increment      1: Step Time =    1.000,"P-7-1",          1112,       163.755,       18.9310,            0.,NA,NA,"",   1.19102E+06,   1.16206E+06,   1.16206E+06
C:/temp/Job-7.odb,Step-1,Increment      1: Step Time =    1.000,"P-7-1",          1113,       14.6888,       172.674,            0.,NA,NA,"",   1.53975E+06,   1.61214E+06,   1.61214E+06
C:/temp/Job-7.odb,Step-1,Increment      1: Step Time =    1.000,"P-7-1",          1114,       36.0768,       18.3358,            0.,NA,NA,"",   1.86184E+06,   1.82663E+06,   1.82663E+06
C:/temp/Job-7.odb,Step-1,Increment      1: Step Time =    1.000,"P-7-1",          1115,       15.6426,       27.3869,            0.,NA,NA,"",   1.55030E+06,   1.61486E+06,   1.61486E+06
C:/temp/Job-7.odb,Step-1,Increment      1: Step Time =    1.000,"P-7-1",          1116,       25.9809,       14.1616,            0.,NA,NA,"",   1.94626E+06,   1.94409E+06,   1.94409E+06
C:/temp/Job-7.odb,Step-1,Increment      1: Step Time =    1.000,"P-7-1",          1117,       19.6570,       35.8477,            0.,NA,NA,"",   1.36196E+06,   1.39692E+06,   1.39692E+06
C:/temp/Job-7.odb,Step-1,Increment      1: Step Time =    1.000,"P-7-1",          1118,       173.443,       185.610,            0.,NA,NA,"",   1.07260E+06,   1.06477E+06,   1.06477E+06
C:/temp/Job-7.odb,Step-1,Increment      1: Step Time =    1.000,"P-7-1",          1119,       180.503,       166.190,            0.,NA,NA,"",   1.15974E+06,   1.16164E+06,   1.16164E+06
C:/temp/Job-7.odb,Step-1,Increment      1: Step Time =    1.000,"P-7-1",          1120,       164.332,       181.074,            0.,NA,NA,"",   1.18754E+06,   1.15853E+06,   1.15853E+06
C:/temp/Job-7.odb,Step-1,Increment      1: Step Time =    1.000,"P-7-1",          1121,       181.824,       36.1951,            0.,NA,NA,"",   1.15442E+06,   1.16316E+06,   1.16316E+06
C:/temp/Job-7.odb,Step-1,Increment      1: Step Time =    1.000,"P-7-1",          1122,       34.8202,       179.548,            0.,NA,NA,"",   1.83784E+06,   1.79996E+06,   1.79996E+06
C:/temp/Job-7.odb,Step-1,Increment      1: Step Time =    1.000,"P-7-1",          1123,       185.336,       26.7384,            0.,NA,NA,"",   1.05876E+06,   1.07188E+06,   1.07188E+06
C:/temp/Job-7.odb,Step-1,Increment      1: Step Time =    1.000,"P-7-1",          1124,       25.7003,       184.619,            0.,NA,NA,"",   1.92370E+06,   1.92277E+06,   1.92277E+06
C:/temp/Job-7.odb,Step-1,Increment      1: Step Time =    1.000,"P-7-1",          1125,       144.129,       161.722,            0.,NA,NA,"",   1.82892E+06,   1.74803E+06,   1.74803E+06
C:/temp/Job-7.odb,Step-1,Increment      1: Step Time =    1.000,"P-7-1",          1126,       162.188,       55.5898,            0.,NA,NA,"",   1.75221E+06,   1.52092E+06,   1.52092E+06
C:/temp/Job-7.odb,Step-1,Increment      1: Step Time =    1.000,"P-7-1",          1127,       57.0466,       163.038,            0.,NA,NA,"",   1.87917E+06,   1.71943E+06,   1.71943E+06
C:/temp/Job-7.odb,Step-1,Increment      1: Step Time =    1.000,"P-7-1",          1128,       163.250,       143.145,            0.,NA,NA,"",   1.73270E+06,   1.50244E+06,   1.50244E+06
C:/temp/Job-7.odb,Step-1,Increment      1: Step Time =    1.000,"P-7-1",          1129,       140.829,       38.9827,            0.,NA,NA,"",   1.88059E+06,   1.82121E+06,   1.82121E+06
C:/temp/Job-7.odb,Step-1,Increment      1: Step Time =    1.000,"P-7-1",          1130,       40.8569,       141.594,            0.,NA,NA,"",   995.879E+03,   856.568E+03,   856.568E+03
C:/temp/Job-7.odb,Step-1,Increment      1: Step Time =    1.000,"P-7-1",          1131,       55.3420,       37.6543,            0.,NA,NA,"",   1.85163E+06,   1.69237E+06,   1.69237E+06
C:/temp/Job-7.odb,Step-1,Increment      1: Step Time =    1.000,"P-7-1",          1132,       38.5797,       58.8112,            0.,NA,NA,"",   943.246E+03,   823.104E+03,   823.104E+03
C:/temp/Job-7.odb,Step-1,Increment      1: Step Time =    1.000,"P-7-1",          1133,       29.8560,       100.055,            0.,NA,NA,"",   97.5616E+03,  -106.865E+03,  -106.865E+03
C:/temp/Job-7.odb,Step-1,Increment      1: Step Time =    1.000,"P-7-1",          1134,       71.7129,       24.7201,            0.,NA,NA,"",   1.91157E+06,   1.82732E+06,   1.82732E+06
C:/temp/Job-7.odb,Step-1,Increment      1: Step Time =    1.000,"P-7-1",          1135,       121.588,       175.816,            0.,NA,NA,"",   1.43679E+06,   1.51262E+06,   1.51262E+06
C:/temp/Job-7.odb,Step-1,Increment      1: Step Time =    1.000,"P-7-1",          1136,       34.0558,       57.7392,            0.,NA,NA,"",   921.765E+03,   842.705E+03,   842.705E+03
C:/temp/Job-7.odb,Step-1,Increment      1: Step Time =    1.000,"P-7-1",          1137,       141.582,       34.5238,            0.,NA,NA,"",   1.75347E+06,   1.70066E+06,   1.70066E+06
C:/temp/Job-7.odb,Step-1,Increment      1: Step Time =    1.000,"P-7-1",          1138,       169.452,       142.134,            0.,NA,NA,"",   1.59053E+06,   1.43052E+06,   1.43052E+06
C:/temp/Job-7.odb,Step-1,Increment      1: Step Time =    1.000,"P-7-1",          1139,       57.3516,       33.3315,            0.,NA,NA,"",   1.91648E+06,   1.77081E+06,   1.77081E+06
C:/temp/Job-7.odb,Step-1,Increment      1: Step Time =    1.000,"P-7-1",          1140,       35.3503,       142.902,            0.,NA,NA,"",   957.134E+03,   863.662E+03,   863.662E+03
C:/temp/Job-7.odb,Step-1,Increment      1: Step Time =    1.000,"P-7-1",          1141,       166.553,       57.6760,            0.,NA,NA,"",   1.66206E+06,   1.45809E+06,   1.45809E+06
C:/temp/Job-7.odb,Step-1,Increment      1: Step Time =    1.000,"P-7-1",          1142,       57.7767,       167.416,            0.,NA,NA,"",   1.91631E+06,   1.77129E+06,   1.77129E+06
C:/temp/Job-7.odb,Step-1,Increment      1: Step Time =    1.000,"P-7-1",          1143,       142.564,       166.209,            0.,NA,NA,"",   1.73300E+06,   1.67821E+06,   1.67821E+06
C:/temp/Job-7.odb,Step-1,Increment      1: Step Time =    1.000,"P-7-1",          1144,       24.8437,       95.6000,            0.,NA,NA,"",   90.7763E+03,  -49.3184E+03,  -49.3184E+03
C:/temp/Job-7.odb,Step-1,Increment      1: Step Time =    1.000,"P-7-1",          1145,       176.432,       104.296,            0.,NA,NA,"",   588.982E+03,   667.426E+03,   667.426E+03
C:/temp/Job-7.odb,Step-1,Increment      1: Step Time =    1.000,"P-7-1",          1146,       96.4584,       173.558,            0.,NA,NA,"",   1.72226E+06,   1.80454E+06,   1.80454E+06
C:/temp/Job-7.odb,Step-1,Increment      1: Step Time =    1.000,"P-7-1",          1147,       171.144,       69.8032,            0.,NA,NA,"",   1.44712E+06,   1.28169E+06,   1.28169E+06
C:/temp/Job-7.odb,Step-1,Increment      1: Step Time =    1.000,"P-7-1",          1148,       129.079,       172.324,            0.,NA,NA,"",   1.58219E+06,   1.62359E+06,   1.62359E+06
C:/temp/Job-7.odb,Step-1,Increment      1: Step Time =    1.000,"P-7-1",          1149,       68.6107,       28.5905,            0.,NA,NA,"",   1.98604E+06,   1.87900E+06,   1.87900E+06
C:/temp/Job-7.odb,Step-1,Increment      1: Step Time =    1.000,"P-7-1",          1150,       29.8687,       132.282,            0.,NA,NA,"",   537.616E+03,   489.821E+03,   489.821E+03
C:/temp/Job-7.odb,Step-1,Increment      1: Step Time =    1.000,"P-7-1",          1151,       29.8916,       66.4759,            0.,NA,NA,"",   577.000E+03,   529.104E+03,   529.104E+03
C:/temp/Job-7.odb,Step-1,Increment      1: Step Time =    1.000,"P-7-1",          1152,       68.2079,       172.960,            0.,NA,NA,"",   1.95446E+06,   1.84947E+06,   1.84947E+06
C:/temp/Job-7.odb,Step-1,Increment      1: Step Time =    1.000,"P-7-1",          1153,       169.833,       132.770,            0.,NA,NA,"",   1.52166E+06,   1.33435E+06,   1.33435E+06
C:/temp/Job-7.odb,Step-1,Increment      1: Step Time =    1.000,"P-7-1",          1154,       133.093,       30.8596,            0.,NA,NA,"",   1.69015E+06,   1.70524E+06,   1.70524E+06
C:/temp/Job-7.odb,Step-1,Increment      1: Step Time =    1.000,"P-7-1",          1155,       24.1527,       67.9946,            0.,NA,NA,"",   481.778E+03,   478.204E+03,   478.204E+03
C:/temp/Job-7.odb,Step-1,Increment      1: Step Time =    1.000,"P-7-1",          1156,       175.537,       132.736,            0.,NA,NA,"",   1.38784E+06,   1.32296E+06,   1.32296E+06
C:/temp/Job-7.odb,Step-1,Increment      1: Step Time =    1.000,"P-7-1",          1157,       131.479,       24.8755,            0.,NA,NA,"",   1.47712E+06,   1.49414E+06,   1.49414E+06
C:/temp/Job-7.odb,Step-1,Increment      1: Step Time =    1.000,"P-7-1",          1158,       68.6116,       176.199,            0.,NA,NA,"",   1.90084E+06,   1.80863E+06,   1.80863E+06
C:/temp/Job-7.odb,Step-1,Increment      1: Step Time =    1.000,"P-7-1",          1159,       35.8902,       22.3010,            0.,NA,NA,"",   1.81679E+06,   1.77386E+06,   1.77386E+06
C:/temp/Job-7.odb,Step-1,Increment      1: Step Time =    1.000,"P-7-1",          1160,       23.8949,       37.7992,            0.,NA,NA,"",   1.37603E+06,   1.37851E+06,   1.37851E+06
C:/temp/Job-7.odb,Step-1,Increment      1: Step Time =    1.000,"P-7-1",          1161,       22.0510,       164.604,            0.,NA,NA,"",   1.40903E+06,   1.42711E+06,   1.42711E+06
C:/temp/Job-7.odb,Step-1,Increment      1: Step Time =    1.000,"P-7-1",          1162,       163.780,       23.7144,            0.,NA,NA,"",   1.27354E+06,   1.23195E+06,   1.23195E+06
C:/temp/Job-7.odb,Step-1,Increment      1: Step Time =    1.000,"P-7-1",          1163,       177.943,       35.8064,            0.,NA,NA,"",   1.22407E+06,   1.21129E+06,   1.21129E+06
C:/temp/Job-7.odb,Step-1,Increment      1: Step Time =    1.000,"P-7-1",          1164,       34.8117,       174.669,            0.,NA,NA,"",   1.76423E+06,   1.71589E+06,   1.71589E+06
C:/temp/Job-7.odb,Step-1,Increment      1: Step Time =    1.000,"P-7-1",          1165,       176.381,       167.240,            0.,NA,NA,"",   1.22282E+06,   1.20429E+06,   1.20429E+06
C:/temp/Job-7.odb,Step-1,Increment      1: Step Time =    1.000,"P-7-1",          1166,       165.435,       175.983,            0.,NA,NA,"",   1.26390E+06,   1.22375E+06,   1.22375E+06
C:/temp/Job-7.odb,Step-1,Increment      1: Step Time =    1.000,"P-7-1",          1167,       49.9431,       154.200,            0.,NA,NA,"",   1.58535E+06,   1.41340E+06,   1.41340E+06
C:/temp/Job-7.odb,Step-1,Increment      1: Step Time =    1.000,"P-7-1",          1168,       48.5742,       51.7966,            0.,NA,NA,"",   1.36516E+06,   1.18672E+06,   1.18672E+06
C:/temp/Job-7.odb,Step-1,Increment      1: Step Time =    1.000,"P-7-1",          1169,       151.986,       149.569,            0.,NA,NA,"",   1.90659E+06,   1.70282E+06,   1.70282E+06
C:/temp/Job-7.odb,Step-1,Increment      1: Step Time =    1.000,"P-7-1",          1170,       148.070,       48.6185,            0.,NA,NA,"",   1.95420E+06,   1.78404E+06,   1.78404E+06
C:/temp/Job-7.odb,Step-1,Increment      1: Step Time =    1.000,"P-7-1",          1171,       59.0792,       28.7410,            0.,NA,NA,"",   1.93179E+06,   1.80522E+06,   1.80522E+06
C:/temp/Job-7.odb,Step-1,Increment      1: Step Time =    1.000,"P-7-1",          1172,       27.6375,       59.9762,            0.,NA,NA,"",   759.984E+03,   729.273E+03,   729.273E+03
C:/temp/Job-7.odb,Step-1,Increment      1: Step Time =    1.000,"P-7-1",          1173,       138.776,       29.9253,            0.,NA,NA,"",   1.64162E+06,   1.61534E+06,   1.61534E+06
C:/temp/Job-7.odb,Step-1,Increment      1: Step Time =    1.000,"P-7-1",          1174,       29.2295,       144.569,            0.,NA,NA,"",    925.99E+03,   886.587E+03,   886.587E+03
C:/temp/Job-7.odb,Step-1,Increment      1: Step Time =    1.000,"P-7-1",          1175,       141.370,       170.971,            0.,NA,NA,"",   1.59949E+06,   1.56320E+06,   1.56320E+06
C:/temp/Job-7.odb,Step-1,Increment      1: Step Time =    1.000,"P-7-1",          1176,       172.398,       137.170,            0.,NA,NA,"",   1.50313E+06,   1.37546E+06,   1.37546E+06
C:/temp/Job-7.odb,Step-1,Increment      1: Step Time =    1.000,"P-7-1",          1177,       59.0798,       170.665,            0.,NA,NA,"",   1.92597E+06,   1.79480E+06,   1.79480E+06
C:/temp/Job-7.odb,Step-1,Increment      1: Step Time =    1.000,"P-7-1",          1178,       171.408,       59.2980,            0.,NA,NA,"",   1.54577E+06,   1.40296E+06,   1.40296E+06
C:/temp/Job-7.odb,Step-1,Increment      1: Step Time =    1.000,"P-7-1",          1179,       154.810,       7.79747,            0.,NA,NA,"",   993.276E+03,   983.893E+03,   983.893E+03
C:/temp/Job-7.odb,Step-1,Increment      1: Step Time =    1.000,"P-7-1",          1180,       190.693,       153.886,            0.,NA,NA,"",   1.00830E+06,   1.09248E+06,   1.09248E+06
C:/temp/Job-7.odb,Step-1,Increment      1: Step Time =    1.000,"P-7-1",          1181,       46.0877,       190.223,            0.,NA,NA,"",   1.88401E+06,   1.86145E+06,   1.86145E+06
C:/temp/Job-7.odb,Step-1,Increment      1: Step Time =    1.000,"P-7-1",          1182,       9.81761,       46.1804,            0.,NA,NA,"",   958.681E+03,   1.03878E+06,   1.03878E+06
C:/temp/Job-7.odb,Step-1,Increment      1: Step Time =    1.000,"P-7-1",          1183,       14.0821,       159.429,            0.,NA,NA,"",   1.15818E+06,   1.22508E+06,   1.22508E+06
C:/temp/Job-7.odb,Step-1,Increment      1: Step Time =    1.000,"P-7-1",          1184,       158.823,       14.5493,            0.,NA,NA,"",   1.13395E+06,   1.11088E+06,   1.11088E+06
C:/temp/Job-7.odb,Step-1,Increment      1: Step Time =    1.000,"P-7-1",          1185,       174.255,       9.81779,            0.,NA,NA,"",   1.02946E+06,   1.02588E+06,   1.02588E+06
C:/temp/Job-7.odb,Step-1,Increment      1: Step Time =    1.000,"P-7-1",          1186,       19.8157,       175.005,            0.,NA,NA,"",   1.66540E+06,   1.70073E+06,   1.70073E+06
C:/temp/Job-7.odb,Step-1,Increment      1: Step Time =    1.000,"P-7-1",          1187,       173.088,       18.8715,            0.,NA,NA,"",   1.12249E+06,   1.10944E+06,   1.10944E+06
C:/temp/Job-7.odb,Step-1,Increment      1: Step Time =    1.000,"P-7-1",          1188,       10.9325,       26.0123,            0.,NA,NA,"",   1.51512E+06,   1.61687E+06,   1.61687E+06
C:/temp/Job-7.odb,Step-1,Increment      1: Step Time =    1.000,"P-7-1",          1189,       18.9707,       38.6076,            0.,NA,NA,"",   1.28462E+06,   1.32268E+06,   1.32268E+06
C:/temp/Job-7.odb,Step-1,Increment      1: Step Time =    1.000,"P-7-1",          1190,       19.1312,       28.4730,            0.,NA,NA,"",   1.56210E+06,   1.60149E+06,   1.60149E+06
C:/temp/Job-7.odb,Step-1,Increment      1: Step Time =    1.000,"P-7-1",          1191,       40.6799,       14.2858,            0.,NA,NA,"",   1.89248E+06,   1.85917E+06,   1.85917E+06
C:/temp/Job-7.odb,Step-1,Increment      1: Step Time =    1.000,"P-7-1",          1192,       26.5629,       18.5139,            0.,NA,NA,"",   1.86031E+06,   1.85390E+06,   1.85390E+06
C:/temp/Job-7.odb,Step-1,Increment      1: Step Time =    1.000,"P-7-1",          1193,       190.268,       174.768,            0.,NA,NA,"",   1.01899E+06,   1.03361E+06,   1.03361E+06
C:/temp/Job-7.odb,Step-1,Increment      1: Step Time =    1.000,"P-7-1",          1194,       159.421,       185.357,            0.,NA,NA,"",   1.13404E+06,   1.11022E+06,   1.11022E+06
C:/temp/Job-7.odb,Step-1,Increment      1: Step Time =    1.000,"P-7-1",          1195,       183.525,       160.719,            0.,NA,NA,"",   1.13603E+06,   1.15789E+06,   1.15789E+06
C:/temp/Job-7.odb,Step-1,Increment      1: Step Time =    1.000,"P-7-1",          1196,       181.559,       174.406,            0.,NA,NA,"",   1.09280E+06,   1.09669E+06,   1.09669E+06
C:/temp/Job-7.odb,Step-1,Increment      1: Step Time =    1.000,"P-7-1",          1197,       175.555,       180.411,            0.,NA,NA,"",   1.10484E+06,   1.09679E+06,   1.09679E+06
C:/temp/Job-7.odb,Step-1,Increment      1: Step Time =    1.000,"P-7-1",          1198,       25.3626,       189.671,            0.,NA,NA,"",   2.02214E+06,   2.02104E+06,   2.02104E+06
C:/temp/Job-7.odb,Step-1,Increment      1: Step Time =    1.000,"P-7-1",          1199,       26.4326,       179.979,            0.,NA,NA,"",   1.82373E+06,   1.81868E+06,   1.81868E+06
C:/temp/Job-7.odb,Step-1,Increment      1: Step Time =    1.000,"P-7-1",          1200,       179.608,       25.2120,            0.,NA,NA,"",   1.10990E+06,   1.10945E+06,   1.10945E+06
C:/temp/Job-7.odb,Step-1,Increment      1: Step Time =    1.000,"P-7-1",          1201,       185.676,       40.8668,            0.,NA,NA,"",   1.10384E+06,   1.14047E+06,   1.14047E+06
C:/temp/Job-7.odb,Step-1,Increment      1: Step Time =    1.000,"P-7-1",          1202,       38.8929,       179.157,            0.,NA,NA,"",   1.84040E+06,   1.78920E+06,   1.78920E+06
C:/temp/Job-7.odb,Step-1,Increment      1: Step Time =    1.000,"P-7-1",          1203,       56.1172,       159.884,            0.,NA,NA,"",   1.83228E+06,   1.66219E+06,   1.66219E+06
C:/temp/Job-7.odb,Step-1,Increment      1: Step Time =    1.000,"P-7-1",          1204,       157.405,       140.474,            0.,NA,NA,"",   1.82326E+06,   1.52708E+06,   1.52708E+06
C:/temp/Job-7.odb,Step-1,Increment      1: Step Time =    1.000,"P-7-1",          1205,       139.279,       43.5146,            0.,NA,NA,"",   1.99829E+06,   1.94078E+06,   1.94078E+06
C:/temp/Job-7.odb,Step-1,Increment      1: Step Time =    1.000,"P-7-1",          1206,       43.2121,       60.5393,            0.,NA,NA,"",   941.067E+03,   779.647E+03,   779.647E+03
C:/temp/Job-7.odb,Step-1,Increment      1: Step Time =    1.000,"P-7-1",          1207,       24.4151,       90.8687,            0.,NA,NA,"",   94.5744E+03,  -4.23814E+03,  -4.23814E+03
C:/temp/Job-7.odb,Step-1,Increment      1: Step Time =    1.000,"P-7-1",          1208,       176.682,       107.595,            0.,NA,NA,"",   674.391E+03,   763.873E+03,   763.873E+03
C:/temp/Job-7.odb,Step-1,Increment      1: Step Time =    1.000,"P-7-1",          1209,       90.7632,       178.145,            0.,NA,NA,"",   1.62323E+06,   1.65309E+06,   1.65309E+06
C:/temp/Job-7.odb,Step-1,Increment      1: Step Time =    1.000,"P-7-1",          1210,       173.391,       123.068,            0.,NA,NA,"",   1.22623E+06,   1.13560E+06,   1.13560E+06
C:/temp/Job-7.odb,Step-1,Increment      1: Step Time =    1.000,"P-7-1",          1211,       122.016,       29.4078,            0.,NA,NA,"",   1.64734E+06,   1.73656E+06,   1.73656E+06
C:/temp/Job-7.odb,Step-1,Increment      1: Step Time =    1.000,"P-7-1",          1212,       75.5490,       173.119,            0.,NA,NA,"",   1.93749E+06,   1.87058E+06,   1.87058E+06
C:/temp/Job-7.odb,Step-1,Increment      1: Step Time =    1.000,"P-7-1",          1213,       26.6624,       77.0200,            0.,NA,NA,"",   260.449E+03,   232.988E+03,   232.988E+03
C:/temp/Job-7.odb,Step-1,Increment      1: Step Time =    1.000,"P-7-1",          1214,       29.2239,       89.8880,            0.,NA,NA,"",   100.703E+03,  -96.4719E+03,  -96.4719E+03
C:/temp/Job-7.odb,Step-1,Increment      1: Step Time =    1.000,"P-7-1",          1215,       109.464,       28.3112,            0.,NA,NA,"",   1.66636E+06,   1.80201E+06,   1.80201E+06
C:/temp/Job-7.odb,Step-1,Increment      1: Step Time =    1.000,"P-7-1",          1216,       173.574,       109.848,            0.,NA,NA,"",   709.086E+03,   739.053E+03,   739.053E+03
C:/temp/Job-7.odb,Step-1,Increment      1: Step Time =    1.000,"P-7-1",          1217,       91.2828,       171.718,            0.,NA,NA,"",   1.87091E+06,   1.93311E+06,   1.93311E+06
C:/temp/Job-7.odb,Step-1,Increment      1: Step Time =    1.000,"P-7-1",          1218,       149.621,       153.813,            0.,NA,NA,"",   1.91209E+06,   1.75129E+06,   1.75129E+06
C:/temp/Job-7.odb,Step-1,Increment      1: Step Time =    1.000,"P-7-1",          1219,       48.2952,       44.8172,            0.,NA,NA,"",   1.58450E+06,   1.42065E+06,   1.42065E+06
C:/temp/Job-7.odb,Step-1,Increment      1: Step Time =    1.000,"P-7-1",          1220,       45.4040,       153.587,            0.,NA,NA,"",   1.47513E+06,   1.31988E+06,   1.31988E+06
C:/temp/Job-7.odb,Step-1,Increment      1: Step Time =    1.000,"P-7-1",          1221,       154.931,       48.3228,            0.,NA,NA,"",   1.85318E+06,   1.65613E+06,   1.65613E+06
C:/temp/Job-7.odb,Step-1,Increment      1: Step Time =    1.000,"P-7-1",          1222,       33.9531,       95.1573,            0.,NA,NA,"",   156.716E+03,  -178.021E+03,  -178.021E+03
C:/temp/Job-7.odb,Step-1,Increment      1: Step Time =    1.000,"P-7-1",          1223,       50.8568,       181.651,            0.,NA,NA,"",   1.84831E+06,   1.78270E+06,   1.78270E+06
C:/temp/Job-7.odb,Step-1,Increment      1: Step Time =    1.000,"P-7-1",          1224,       185.214,       50.9406,            0.,NA,NA,"",   1.14474E+06,   1.20330E+06,   1.20330E+06
C:/temp/Job-7.odb,Step-1,Increment      1: Step Time =    1.000,"P-7-1",          1225,       182.001,       149.474,            0.,NA,NA,"",   1.22756E+06,   1.25118E+06,   1.25118E+06
C:/temp/Job-7.odb,Step-1,Increment      1: Step Time =    1.000,"P-7-1",          1226,       149.479,       184.927,            0.,NA,NA,"",   1.16139E+06,   1.13508E+06,   1.13508E+06
C:/temp/Job-7.odb,Step-1,Increment      1: Step Time =    1.000,"P-7-1",          1227,       18.6809,       52.1379,            0.,NA,NA,"",   886.501E+03,   914.298E+03,   914.298E+03
C:/temp/Job-7.odb,Step-1,Increment      1: Step Time =    1.000,"P-7-1",          1228,       50.5413,       15.0248,            0.,NA,NA,"",   1.84513E+06,   1.79459E+06,   1.79459E+06
C:/temp/Job-7.odb,Step-1,Increment      1: Step Time =    1.000,"P-7-1",          1229,       14.4750,       150.050,            0.,NA,NA,"",   912.826E+03,   965.761E+03,   965.761E+03
C:/temp/Job-7.odb,Step-1,Increment      1: Step Time =    1.000,"P-7-1",          1230,       21.3942,       77.8167,            0.,NA,NA,"",   236.205E+03,   237.304E+03,   237.304E+03
C:/temp/Job-7.odb,Step-1,Increment      1: Step Time =    1.000,"P-7-1",          1231,       178.664,       122.397,            0.,NA,NA,"",   1.14965E+06,   1.18098E+06,   1.18098E+06
C:/temp/Job-7.odb,Step-1,Increment      1: Step Time =    1.000,"P-7-1",          1232,       25.3865,       34.5026,            0.,NA,NA,"",   1.48471E+06,   1.47696E+06,   1.47696E+06
C:/temp/Job-7.odb,Step-1,Increment      1: Step Time =    1.000,"P-7-1",          1233,       29.2868,       26.0878,            0.,NA,NA,"",   1.70086E+06,   1.67977E+06,   1.67977E+06
C:/temp/Job-7.odb,Step-1,Increment      1: Step Time =    1.000,"P-7-1",          1234,       22.8899,       170.205,            0.,NA,NA,"",   1.57121E+06,   1.58298E+06,   1.58298E+06
C:/temp/Job-7.odb,Step-1,Increment      1: Step Time =    1.000,"P-7-1",          1235,       168.349,       28.3084,            0.,NA,NA,"",   1.29432E+06,   1.25137E+06,   1.25137E+06
C:/temp/Job-7.odb,Step-1,Increment      1: Step Time =    1.000,"P-7-1",          1236,       30.6667,       175.049,            0.,NA,NA,"",   1.74405E+06,   1.71521E+06,   1.71521E+06
C:/temp/Job-7.odb,Step-1,Increment      1: Step Time =    1.000,"P-7-1",          1237,       178.318,       32.2761,            0.,NA,NA,"",   1.17833E+06,   1.17205E+06,   1.17205E+06
C:/temp/Job-7.odb,Step-1,Increment      1: Step Time =    1.000,"P-7-1",          1238,       173.524,       171.631,            0.,NA,NA,"",   1.21956E+06,   1.19527E+06,   1.19527E+06
C:/temp/Job-7.odb,Step-1,Increment      1: Step Time =    1.000,"P-7-1",          1239,       169.133,       178.320,            0.,NA,NA,"",   1.18625E+06,   1.16144E+06,   1.16144E+06
C:/temp/Job-7.odb,Step-1,Increment      1: Step Time =    1.000,"P-7-1",          1240,       54.5700,       155.005,            0.,NA,NA,"",   1.69774E+06,   1.51798E+06,   1.51798E+06
C:/temp/Job-7.odb,Step-1,Increment      1: Step Time =    1.000,"P-7-1",          1241,       45.4719,       55.8960,            0.,NA,NA,"",   1.15944E+06,   989.134E+03,   989.134E+03
C:/temp/Job-7.odb,Step-1,Increment      1: Step Time =    1.000,"P-7-1",          1242,       154.729,       145.088,            0.,NA,NA,"",   1.87881E+06,   1.62791E+06,   1.62791E+06
C:/temp/Job-7.odb,Step-1,Increment      1: Step Time =    1.000,"P-7-1",          1243,       143.918,       45.6215,            0.,NA,NA,"",   1.97630E+06,   1.86042E+06,   1.86042E+06
C:/temp/Job-7.odb,Step-1,Increment      1: Step Time =    1.000,"P-7-1",          1244,       54.4949,       26.5252,            0.,NA,NA,"",   1.89082E+06,   1.77427E+06,   1.77427E+06
C:/temp/Job-7.odb,Step-1,Increment      1: Step Time =    1.000,"P-7-1",          1245,       27.2293,       53.8207,            0.,NA,NA,"",   945.910E+03,   918.437E+03,   918.437E+03
C:/temp/Job-7.odb,Step-1,Increment      1: Step Time =    1.000,"P-7-1",          1246,       147.083,       25.9204,            0.,NA,NA,"",   1.47705E+06,   1.42396E+06,   1.42396E+06
C:/temp/Job-7.odb,Step-1,Increment      1: Step Time =    1.000,"P-7-1",          1247,       23.5764,       146.224,            0.,NA,NA,"",   895.844E+03,   895.592E+03,   895.592E+03
C:/temp/Job-7.odb,Step-1,Increment      1: Step Time =    1.000,"P-7-1",          1248,       146.036,       172.389,            0.,NA,NA,"",   1.52993E+06,   1.47635E+06,   1.47635E+06
C:/temp/Job-7.odb,Step-1,Increment      1: Step Time =    1.000,"P-7-1",          1249,       174.266,       144.193,            0.,NA,NA,"",   1.47338E+06,   1.38522E+06,   1.38522E+06
C:/temp/Job-7.odb,Step-1,Increment      1: Step Time =    1.000,"P-7-1",          1250,       172.539,       54.3468,            0.,NA,NA,"",   1.50834E+06,   1.40354E+06,   1.40354E+06
C:/temp/Job-7.odb,Step-1,Increment      1: Step Time =    1.000,"P-7-1",          1251,       56.6586,       174.003,            0.,NA,NA,"",   1.89500E+06,   1.78084E+06,   1.78084E+06
C:/temp/Job-7.odb,Step-1,Increment      1: Step Time =    1.000,"P-7-1",          1252,       16.0168,       176.587,            0.,NA,NA,"",   1.67004E+06,   1.73142E+06,   1.73142E+06
C:/temp/Job-7.odb,Step-1,Increment      1: Step Time =    1.000,"P-7-1",          1253,       20.9027,       14.4264,            0.,NA,NA,"",   1.95817E+06,   1.97160E+06,   1.97160E+06
C:/temp/Job-7.odb,Step-1,Increment      1: Step Time =    1.000,"P-7-1",          1254,       17.4883,       23.5264,            0.,NA,NA,"",   1.67626E+06,   1.72682E+06,   1.72682E+06
C:/temp/Job-7.odb,Step-1,Increment      1: Step Time =    1.000,"P-7-1",          1255,       178.904,       183.948,            0.,NA,NA,"",   1.05746E+06,   1.05559E+06,   1.05559E+06
C:/temp/Job-7.odb,Step-1,Increment      1: Step Time =    1.000,"P-7-1",          1256,       20.3125,       183.991,            0.,NA,NA,"",   1.92073E+06,   1.93907E+06,   1.93907E+06
C:/temp/Job-7.odb,Step-1,Increment      1: Step Time =    1.000,"P-7-1",          1257,       183.372,       21.4013,            0.,NA,NA,"",   1.05815E+06,   1.06297E+06,   1.06297E+06
C:/temp/Job-7.odb,Step-1,Increment      1: Step Time =    1.000,"P-7-1",          1258,       150.745,       160.131,            0.,NA,NA,"",   1.78330E+06,   1.65967E+06,   1.65967E+06
C:/temp/Job-7.odb,Step-1,Increment      1: Step Time =    1.000,"P-7-1",          1259,       48.0596,       38.0896,            0.,NA,NA,"",   1.72862E+06,   1.58399E+06,   1.58399E+06
C:/temp/Job-7.odb,Step-1,Increment      1: Step Time =    1.000,"P-7-1",          1260,       41.9215,       149.312,            0.,NA,NA,"",   1.29339E+06,   1.15572E+06,   1.15572E+06
C:/temp/Job-7.odb,Step-1,Increment      1: Step Time =    1.000,"P-7-1",          1261,       161.499,       48.2286,            0.,NA,NA,"",   1.72736E+06,   1.54846E+06,   1.54846E+06
C:/temp/Job-7.odb,Step-1,Increment      1: Step Time =    1.000,"P-7-1",          1262,       190.254,       45.6021,            0.,NA,NA,"",   1.01642E+06,   1.09657E+06,   1.09657E+06
C:/temp/Job-7.odb,Step-1,Increment      1: Step Time =    1.000,"P-7-1",          1263,       154.567,       190.108,            0.,NA,NA,"",   1.03441E+06,   1.02008E+06,   1.02008E+06
C:/temp/Job-7.odb,Step-1,Increment      1: Step Time =    1.000,"P-7-1",          1264,       45.4615,       9.75084,            0.,NA,NA,"",   1.88966E+06,   1.86739E+06,   1.86739E+06
C:/temp/Job-7.odb,Step-1,Increment      1: Step Time =    1.000,"P-7-1",          1265,       9.52548,       154.759,            0.,NA,NA,"",   984.392E+03,   1.06746E+06,   1.06746E+06
C:/temp/Job-7.odb,Step-1,Increment      1: Step Time =    1.000,"P-7-1",          1266,       185.301,       45.8079,            0.,NA,NA,"",   1.12935E+06,   1.17446E+06,   1.17446E+06
C:/temp/Job-7.odb,Step-1,Increment      1: Step Time =    1.000,"P-7-1",          1267,       44.0883,       184.611,            0.,NA,NA,"",   1.86882E+06,   1.82782E+06,   1.82782E+06
C:/temp/Job-7.odb,Step-1,Increment      1: Step Time =    1.000,"P-7-1",          1268,       154.480,       185.036,            0.,NA,NA,"",   1.15391E+06,   1.12697E+06,   1.12697E+06
C:/temp/Job-7.odb,Step-1,Increment      1: Step Time =    1.000,"P-7-1",          1269,       184.644,       154.382,            0.,NA,NA,"",   1.13798E+06,   1.17980E+06,   1.17980E+06
C:/temp/Job-7.odb,Step-1,Increment      1: Step Time =    1.000,"P-7-1",          1270,       45.5048,       14.6505,            0.,NA,NA,"",   1.86984E+06,   1.82735E+06,   1.82735E+06
C:/temp/Job-7.odb,Step-1,Increment      1: Step Time =    1.000,"P-7-1",          1271,       14.6599,       43.9677,            0.,NA,NA,"",   1.07626E+06,   1.13363E+06,   1.13363E+06
C:/temp/Job-7.odb,Step-1,Increment      1: Step Time =    1.000,"P-7-1",          1272,       14.3207,       154.809,            0.,NA,NA,"",   1.03861E+06,   1.09857E+06,   1.09857E+06
C:/temp/Job-7.odb,Step-1,Increment      1: Step Time =    1.000,"P-7-1",          1273,       153.518,       13.9269,            0.,NA,NA,"",   1.12716E+06,   1.10391E+06,   1.10391E+06
C:/temp/Job-7.odb,Step-1,Increment      1: Step Time =    1.000,"P-7-1",          1274,       85.3338,       162.870,            0.,NA,NA,"",   2.22920E+06,   2.27519E+06,   2.27519E+06
C:/temp/Job-7.odb,Step-1,Increment      1: Step Time =    1.000,"P-7-1",          1275,       34.1629,       90.7181,            0.,NA,NA,"",   155.878E+03,  -175.622E+03,  -175.622E+03
C:/temp/Job-7.odb,Step-1,Increment      1: Step Time =    1.000,"P-7-1",          1276,       175.038,       176.618,            0.,NA,NA,"",   1.14856E+06,   1.13526E+06,   1.13526E+06
C:/temp/Job-7.odb,Step-1,Increment      1: Step Time =    1.000,"P-7-1",          1277,       174.485,       174.426,            0.,NA,NA,"",   1.17855E+06,   1.16090E+06,   1.16090E+06
C:/temp/Job-7.odb,Step-1,Increment      1: Step Time =    1.000,"P-7-1",          1278,       175.262,       26.3612,            0.,NA,NA,"",   1.17100E+06,   1.15782E+06,   1.15782E+06
C:/temp/Job-7.odb,Step-1,Increment      1: Step Time =    1.000,"P-7-1",          1279,       26.8523,       175.903,            0.,NA,NA,"",   1.73133E+06,   1.72168E+06,   1.72168E+06
C:/temp/Job-7.odb,Step-1,Increment      1: Step Time =    1.000,"P-7-1",          1280,       24.0259,       176.098,            0.,NA,NA,"",   1.72622E+06,   1.73229E+06,   1.73229E+06
C:/temp/Job-7.odb,Step-1,Increment      1: Step Time =    1.000,"P-7-1",          1281,       172.381,       27.2747,            0.,NA,NA,"",   1.22238E+06,   1.19687E+06,   1.19687E+06
C:/temp/Job-7.odb,Step-1,Increment      1: Step Time =    1.000,"P-7-1",          1282,       26.4913,       27.5399,            0.,NA,NA,"",   1.66246E+06,   1.65353E+06,   1.65353E+06
C:/temp/Job-7.odb,Step-1,Increment      1: Step Time =    1.000,"P-7-1",          1283,       23.5980,       29.3703,            0.,NA,NA,"",   1.59086E+06,   1.59492E+06,   1.59492E+06
C:/temp/Job-7.odb,Step-1,Increment      1: Step Time =    1.000,"P-7-1",          1284,       26.8801,       71.5804,            0.,NA,NA,"",   403.589E+03,   378.964E+03,   378.964E+03
C:/temp/Job-7.odb,Step-1,Increment      1: Step Time =    1.000,"P-7-1",          1285,       173.084,       128.320,            0.,NA,NA,"",   1.36833E+06,   1.25563E+06,   1.25563E+06
C:/temp/Job-7.odb,Step-1,Increment      1: Step Time =    1.000,"P-7-1",          1286,       127.538,       28.1413,            0.,NA,NA,"",   1.59640E+06,   1.64763E+06,   1.64763E+06
C:/temp/Job-7.odb,Step-1,Increment      1: Step Time =    1.000,"P-7-1",          1287,       71.8479,       172.342,            0.,NA,NA,"",   1.95615E+06,   1.86531E+06,   1.86531E+06
C:/temp/Job-7.odb,Step-1,Increment      1: Step Time =    1.000,"P-7-1",          1288,       52.3203,       164.077,            0.,NA,NA,"",   1.82045E+06,   1.66968E+06,   1.66968E+06
C:/temp/Job-7.odb,Step-1,Increment      1: Step Time =    1.000,"P-7-1",          1289,       145.239,       35.3396,            0.,NA,NA,"",   1.74956E+06,   1.67210E+06,   1.67210E+06
C:/temp/Job-7.odb,Step-1,Increment      1: Step Time =    1.000,"P-7-1",          1290,       35.1598,       54.1363,            0.,NA,NA,"",   1.05805E+06,   970.612E+03,   970.612E+03
C:/temp/Job-7.odb,Step-1,Increment      1: Step Time =    1.000,"P-7-1",          1291,       150.730,       25.2790,            0.,NA,NA,"",   1.44061E+06,   1.38264E+06,   1.38264E+06
C:/temp/Job-7.odb,Step-1,Increment      1: Step Time =    1.000,"P-7-1",          1292,       23.6997,       150.203,            0.,NA,NA,"",   1.02097E+06,   1.01992E+06,   1.01992E+06
C:/temp/Job-7.odb,Step-1,Increment      1: Step Time =    1.000,"P-7-1",          1293,       174.270,       49.4770,            0.,NA,NA,"",   1.43988E+06,   1.36891E+06,   1.36891E+06
C:/temp/Job-7.odb,Step-1,Increment      1: Step Time =    1.000,"P-7-1",          1294,       49.3984,       176.945,            0.,NA,NA,"",   1.85253E+06,   1.76511E+06,   1.76511E+06
C:/temp/Job-7.odb,Step-1,Increment      1: Step Time =    1.000,"P-7-1",          1295,       24.5936,       50.5414,            0.,NA,NA,"",   1.00120E+06,   993.621E+03,   993.621E+03
C:/temp/Job-7.odb,Step-1,Increment      1: Step Time =    1.000,"P-7-1",          1296,       49.4492,       25.0836,            0.,NA,NA,"",   1.85526E+06,   1.75603E+06,   1.75603E+06
C:/temp/Job-7.odb,Step-1,Increment      1: Step Time =    1.000,"P-7-1",          1297,       150.588,       174.013,            0.,NA,NA,"",   1.45378E+06,   1.39384E+06,   1.39384E+06
C:/temp/Job-7.odb,Step-1,Increment      1: Step Time =    1.000,"P-7-1",          1298,       175.578,       149.036,            0.,NA,NA,"",   1.40922E+06,   1.35209E+06,   1.35209E+06
C:/temp/Job-7.odb,Step-1,Increment      1: Step Time =    1.000,"P-7-1",          1299,       14.8726,       181.577,            0.,NA,NA,"",   1.80783E+06,   1.87175E+06,   1.87175E+06
C:/temp/Job-7.odb,Step-1,Increment      1: Step Time =    1.000,"P-7-1",          1300,       16.2865,       18.0714,            0.,NA,NA,"",   1.83454E+06,   1.88591E+06,   1.88591E+06
C:/temp/Job-7.odb,Step-1,Increment      1: Step Time =    1.000,"P-7-1",          1301,       178.849,       14.9279,            0.,NA,NA,"",   1.05211E+06,   1.05034E+06,   1.05034E+06
C:/temp/Job-7.odb,Step-1,Increment      1: Step Time =    1.000,"P-7-1",          1302,       15.0649,       185.129,            0.,NA,NA,"",   1.93368E+06,   1.98297E+06,   1.98297E+06
C:/temp/Job-7.odb,Step-1,Increment      1: Step Time =    1.000,"P-7-1",          1303,       185.347,       179.536,            0.,NA,NA,"",   1.03993E+06,   1.04642E+06,   1.04642E+06
C:/temp/Job-7.odb,Step-1,Increment      1: Step Time =    1.000,"P-7-1",          1304,       36.1457,       25.9365,            0.,NA,NA,"",   1.76886E+06,   1.71425E+06,   1.71425E+06
C:/temp/Job-7.odb,Step-1,Increment      1: Step Time =    1.000,"P-7-1",          1305,       163.971,       28.8872,            0.,NA,NA,"",   1.37185E+06,   1.31167E+06,   1.31167E+06
C:/temp/Job-7.odb,Step-1,Increment      1: Step Time =    1.000,"P-7-1",          1306,       25.5780,       166.567,            0.,NA,NA,"",   1.50624E+06,   1.49792E+06,   1.49792E+06
C:/temp/Job-7.odb,Step-1,Increment      1: Step Time =    1.000,"P-7-1",          1307,       34.8660,       169.802,            0.,NA,NA,"",   1.68103E+06,   1.62268E+06,   1.62268E+06
C:/temp/Job-7.odb,Step-1,Increment      1: Step Time =    1.000,"P-7-1",          1308,       174.843,       35.0324,            0.,NA,NA,"",   1.27097E+06,   1.24321E+06,   1.24321E+06
C:/temp/Job-7.odb,Step-1,Increment      1: Step Time =    1.000,"P-7-1",          1309,       171.043,       165.164,            0.,NA,NA,"",   1.34460E+06,   1.29319E+06,   1.29319E+06
C:/temp/Job-7.odb,Step-1,Increment      1: Step Time =    1.000,"P-7-1",          1310,       164.617,       171.370,            0.,NA,NA,"",   1.35701E+06,   1.29923E+06,   1.29923E+06
C:/temp/Job-7.odb,Step-1,Increment      1: Step Time =    1.000,"P-7-1",          1311,       148.628,       163.903,            0.,NA,NA,"",   1.73130E+06,   1.63413E+06,   1.63413E+06
C:/temp/Job-7.odb,Step-1,Increment      1: Step Time =    1.000,"P-7-1",          1312,       51.0335,       34.9650,            0.,NA,NA,"",   1.81813E+06,   1.67490E+06,   1.67490E+06
C:/temp/Job-7.odb,Step-1,Increment      1: Step Time =    1.000,"P-7-1",          1313,       38.9452,       144.912,            0.,NA,NA,"",   1.07846E+06,   958.739E+03,   958.739E+03
C:/temp/Job-7.odb,Step-1,Increment      1: Step Time =    1.000,"P-7-1",          1314,       164.670,       51.2348,            0.,NA,NA,"",   1.68179E+06,   1.50543E+06,   1.50543E+06
C:/temp/Job-7.odb,Step-1,Increment      1: Step Time =    1.000,"P-7-1",          1315,       48.0739,       182.642,            0.,NA,NA,"",   1.85211E+06,   1.79355E+06,   1.79355E+06
C:/temp/Job-7.odb,Step-1,Increment      1: Step Time =    1.000,"P-7-1",          1316,       180.341,       45.6172,            0.,NA,NA,"",   1.24991E+06,   1.25016E+06,   1.25016E+06
C:/temp/Job-7.odb,Step-1,Increment      1: Step Time =    1.000,"P-7-1",          1317,       154.650,       179.926,            0.,NA,NA,"",   1.27453E+06,   1.23287E+06,   1.23287E+06
C:/temp/Job-7.odb,Step-1,Increment      1: Step Time =    1.000,"P-7-1",          1318,       178.345,       152.335,            0.,NA,NA,"",   1.31647E+06,   1.29475E+06,   1.29475E+06
C:/temp/Job-7.odb,Step-1,Increment      1: Step Time =    1.000,"P-7-1",          1319,       45.2198,       19.4900,            0.,NA,NA,"",   1.85534E+06,   1.79146E+06,   1.79146E+06
C:/temp/Job-7.odb,Step-1,Increment      1: Step Time =    1.000,"P-7-1",          1320,       20.1965,       47.4117,            0.,NA,NA,"",   1.04521E+06,   1.06725E+06,   1.06725E+06
C:/temp/Job-7.odb,Step-1,Increment      1: Step Time =    1.000,"P-7-1",          1321,       19.3268,       155.039,            0.,NA,NA,"",   1.10630E+06,   1.13842E+06,   1.13842E+06
C:/temp/Job-7.odb,Step-1,Increment      1: Step Time =    1.000,"P-7-1",          1322,       153.888,       19.4949,            0.,NA,NA,"",   1.26471E+06,   1.22542E+06,   1.22542E+06
C:/temp/Job-7.odb,Step-1,Increment      1: Step Time =    1.000,"P-7-1",          1323,       26.0677,       31.7743,            0.,NA,NA,"",   1.55850E+06,   1.54680E+06,   1.54680E+06
C:/temp/Job-7.odb,Step-1,Increment      1: Step Time =    1.000,"P-7-1",          1324,       174.097,       31.4054,            0.,NA,NA,"",   1.23821E+06,   1.21437E+06,   1.21437E+06
C:/temp/Job-7.odb,Step-1,Increment      1: Step Time =    1.000,"P-7-1",          1325,       171.509,       175.859,            0.,NA,NA,"",   1.19804E+06,   1.17381E+06,   1.17381E+06
C:/temp/Job-7.odb,Step-1,Increment      1: Step Time =    1.000,"P-7-1",          1326,       47.6960,       163.526,            0.,NA,NA,"",   1.74799E+06,   1.61009E+06,   1.61009E+06
C:/temp/Job-7.odb,Step-1,Increment      1: Step Time =    1.000,"P-7-1",          1327,       163.101,       151.157,            0.,NA,NA,"",   1.70017E+06,   1.52723E+06,   1.52723E+06
C:/temp/Job-7.odb,Step-1,Increment      1: Step Time =    1.000,"P-7-1",          1328,       151.055,       36.3988,            0.,NA,NA,"",   1.70410E+06,   1.59818E+06,   1.59818E+06
C:/temp/Job-7.odb,Step-1,Increment      1: Step Time =    1.000,"P-7-1",          1329,       36.1538,       48.0904,            0.,NA,NA,"",   1.27035E+06,   1.17833E+06,   1.17833E+06
C:/temp/Job-7.odb,Step-1,Increment      1: Step Time =    1.000,"P-7-1",          1330,       175.370,       44.3675,            0.,NA,NA,"",   1.36198E+06,   1.31750E+06,   1.31750E+06
C:/temp/Job-7.odb,Step-1,Increment      1: Step Time =    1.000,"P-7-1",          1331,       25.1872,       155.418,            0.,NA,NA,"",   1.19772E+06,   1.18946E+06,   1.18946E+06
C:/temp/Job-7.odb,Step-1,Increment      1: Step Time =    1.000,"P-7-1",          1332,       44.5418,       24.1217,            0.,NA,NA,"",   1.83114E+06,   1.74904E+06,   1.74904E+06
C:/temp/Job-7.odb,Step-1,Increment      1: Step Time =    1.000,"P-7-1",          1333,       155.375,       175.072,            0.,NA,NA,"",   1.38509E+06,   1.32708E+06,   1.32708E+06
C:/temp/Job-7.odb,Step-1,Increment      1: Step Time =    1.000,"P-7-1",          1334,       177.896,       19.5044,            0.,NA,NA,"",   1.09015E+06,   1.08585E+06,   1.08585E+06
C:/temp/Job-7.odb,Step-1,Increment      1: Step Time =    1.000,"P-7-1",          1335,       180.947,       178.859,            0.,NA,NA,"",   1.07376E+06,   1.07509E+06,   1.07509E+06
C:/temp/Job-7.odb,Step-1,Increment      1: Step Time =    1.000,"P-7-1",          1336,       10.9400,       14.9904,            0.,NA,NA,"",   1.89396E+06,   1.98385E+06,   1.98385E+06
C:/temp/Job-7.odb,Step-1,Increment      1: Step Time =    1.000,"P-7-1",          1337,       184.469,       10.2645,            0.,NA,NA,"",   1.01120E+06,   1.01234E+06,   1.01234E+06
C:/temp/Job-7.odb,Step-1,Increment      1: Step Time =    1.000,"P-7-1",          1338,       15.2127,       189.837,            0.,NA,NA,"",   2.08840E+06,   2.11460E+06,   2.11460E+06
C:/temp/Job-7.odb,Step-1,Increment      1: Step Time =    1.000,"P-7-1",          1339,       189.928,       184.768,            0.,NA,NA,"",   1.01094E+06,   1.01402E+06,   1.01402E+06
C:/temp/Job-7.odb,Step-1,Increment      1: Step Time =    1.000,"P-7-1",          1340,       39.9286,       23.9383,            0.,NA,NA,"",   1.80826E+06,   1.74508E+06,   1.74508E+06
C:/temp/Job-7.odb,Step-1,Increment      1: Step Time =    1.000,"P-7-1",          1341,       23.1969,       160.555,            0.,NA,NA,"",   1.31162E+06,   1.32018E+06,   1.32018E+06
C:/temp/Job-7.odb,Step-1,Increment      1: Step Time =    1.000,"P-7-1",          1342,       176.785,       39.7941,            0.,NA,NA,"",   1.28796E+06,   1.26278E+06,   1.26278E+06
C:/temp/Job-7.odb,Step-1,Increment      1: Step Time =    1.000,"P-7-1",          1343,       160.234,       175.706,            0.,NA,NA,"",   1.32515E+06,   1.27358E+06,   1.27358E+06
C:/temp/Job-7.odb,Step-1,Increment      1: Step Time =    1.000,"P-7-1",          1344,       152.692,       165.519,            0.,NA,NA,"",   1.64517E+06,   1.54527E+06,   1.54527E+06
C:/temp/Job-7.odb,Step-1,Increment      1: Step Time =    1.000,"P-7-1",          1345,       47.8931,       32.7967,            0.,NA,NA,"",   1.79914E+06,   1.67286E+06,   1.67286E+06
C:/temp/Job-7.odb,Step-1,Increment      1: Step Time =    1.000,"P-7-1",          1346,       37.9137,       149.029,            0.,NA,NA,"",   1.19882E+06,   1.09143E+06,   1.09143E+06
C:/temp/Job-7.odb,Step-1,Increment      1: Step Time =    1.000,"P-7-1",          1347,       166.612,       48.0400,            0.,NA,NA,"",   1.61305E+06,   1.47245E+06,   1.47245E+06
C:/temp/Job-7.odb,Step-1,Increment      1: Step Time =    1.000,"P-7-1",          1348,       44.0352,       174.050,            0.,NA,NA,"",   1.81444E+06,   1.72767E+06,   1.72767E+06
C:/temp/Job-7.odb,Step-1,Increment      1: Step Time =    1.000,"P-7-1",          1349,       174.731,       154.444,            0.,NA,NA,"",   1.39118E+06,   1.33524E+06,   1.33524E+06
C:/temp/Job-7.odb,Step-1,Increment      1: Step Time =    1.000,"P-7-1",          1350,       24.5851,       44.0862,            0.,NA,NA,"",   1.20683E+06,   1.20114E+06,   1.20114E+06
C:/temp/Job-7.odb,Step-1,Increment      1: Step Time =    1.000,"P-7-1",          1351,       154.799,       24.3080,            0.,NA,NA,"",   1.38179E+06,   1.32545E+06,   1.32545E+06
C:/temp/Job-7.odb,Step-1,Increment      1: Step Time =    1.000,"P-7-1",          1352,       48.6201,       158.661,            0.,NA,NA,"",   1.68254E+06,   1.52596E+06,   1.52596E+06
C:/temp/Job-7.odb,Step-1,Increment      1: Step Time =    1.000,"P-7-1",          1353,       156.432,       152.103,            0.,NA,NA,"",   1.82095E+06,   1.63015E+06,   1.63015E+06
C:/temp/Job-7.odb,Step-1,Increment      1: Step Time =    1.000,"P-7-1",          1354,       151.133,       44.3377,            0.,NA,NA,"",   1.86038E+06,   1.70392E+06,   1.70392E+06
C:/temp/Job-7.odb,Step-1,Increment      1: Step Time =    1.000,"P-7-1",          1355,       44.2952,       48.5417,            0.,NA,NA,"",   1.40217E+06,   1.25185E+06,   1.25185E+06
C:/temp/Job-7.odb,Step-1,Increment      1: Step Time =    1.000,"P-7-1",          1356,       187.302,       152.502,            0.,NA,NA,"",   1.08027E+06,   1.14805E+06,   1.14805E+06
C:/temp/Job-7.odb,Step-1,Increment      1: Step Time =    1.000,"P-7-1",          1357,       47.3097,       185.953,            0.,NA,NA,"",   1.86108E+06,   1.81904E+06,   1.81904E+06
C:/temp/Job-7.odb,Step-1,Increment      1: Step Time =    1.000,"P-7-1",          1358,       14.4951,       47.2995,            0.,NA,NA,"",   987.009E+03,   1.04184E+06,   1.04184E+06
C:/temp/Job-7.odb,Step-1,Increment      1: Step Time =    1.000,"P-7-1",          1359,       25.8051,       172.326,            0.,NA,NA,"",   1.65315E+06,   1.64545E+06,   1.64545E+06
C:/temp/Job-7.odb,Step-1,Increment      1: Step Time =    1.000,"P-7-1",          1360,       35.4290,       164.777,            0.,NA,NA,"",   1.59751E+06,   1.52585E+06,   1.52585E+06
C:/temp/Job-7.odb,Step-1,Increment      1: Step Time =    1.000,"P-7-1",          1361,       166.185,       38.0882,            0.,NA,NA,"",   1.48355E+06,   1.39562E+06,   1.39562E+06
C:/temp/Job-7.odb,Step-1,Increment      1: Step Time =    1.000,"P-7-1",          1362,       167.350,       166.706,            0.,NA,NA,"",   1.38921E+06,   1.32480E+06,   1.32480E+06
C:/temp/Job-7.odb,Step-1,Increment      1: Step Time =    1.000,"P-7-1",          1363,       161.480,       166.273,            0.,NA,NA,"",   1.49876E+06,   1.41061E+06,   1.41061E+06
C:/temp/Job-7.odb,Step-1,Increment      1: Step Time =    1.000,"P-7-1",          1364,       36.6211,       31.4009,            0.,NA,NA,"",   1.68064E+06,   1.61042E+06,   1.61042E+06
C:/temp/Job-7.odb,Step-1,Increment      1: Step Time =    1.000,"P-7-1",          1365,       31.3652,       35.6925,            0.,NA,NA,"",   1.52533E+06,   1.47878E+06,   1.47878E+06
C:/temp/Job-7.odb,Step-1,Increment      1: Step Time =    1.000,"P-7-1",          1366,       164.379,       34.0673,            0.,NA,NA,"",   1.45113E+06,   1.37272E+06,   1.37272E+06
C:/temp/Job-7.odb,Step-1,Increment      1: Step Time =    1.000,"P-7-1",          1367,       31.1919,       163.854,            0.,NA,NA,"",   1.51972E+06,   1.47121E+06,   1.47121E+06
C:/temp/Job-7.odb,Step-1,Increment      1: Step Time =    1.000,"P-7-1",          1368,       156.748,       161.338,            0.,NA,NA,"",   1.67292E+06,   1.54821E+06,   1.54821E+06
C:/temp/Job-7.odb,Step-1,Increment      1: Step Time =    1.000,"P-7-1",          1369,       36.8818,       159.843,            0.,NA,NA,"",   1.49922E+06,   1.41120E+06,   1.41120E+06
C:/temp/Job-7.odb,Step-1,Increment      1: Step Time =    1.000,"P-7-1",          1370,       162.147,       40.7190,            0.,NA,NA,"",   1.61032E+06,   1.48750E+06,   1.48750E+06
C:/temp/Job-7.odb,Step-1,Increment      1: Step Time =    1.000,"P-7-1",          1371,       40.3314,       36.7794,            0.,NA,NA,"",   1.63208E+06,   1.52684E+06,   1.52684E+06
C:/temp/Job-7.odb,Step-1,Increment      1: Step Time =    1.000,"P-7-1",          1372,       151.830,       29.6729,            0.,NA,NA,"",   1.53616E+06,   1.45921E+06,   1.45921E+06
C:/temp/Job-7.odb,Step-1,Increment      1: Step Time =    1.000,"P-7-1",          1373,       172.026,       150.493,            0.,NA,NA,"",   1.49392E+06,   1.39907E+06,   1.39907E+06
C:/temp/Job-7.odb,Step-1,Increment      1: Step Time =    1.000,"P-7-1",          1374,       46.9653,       168.858,            0.,NA,NA,"",   1.79268E+06,   1.67772E+06,   1.67772E+06
C:/temp/Job-7.odb,Step-1,Increment      1: Step Time =    1.000,"P-7-1",          1375,       28.2506,       47.4977,            0.,NA,NA,"",   1.15648E+06,   1.12243E+06,   1.12243E+06
C:/temp/Job-7.odb,Step-1,Increment      1: Step Time =    1.000,"P-7-1",          1376,       164.956,       44.8058,            0.,NA,NA,"",   1.61718E+06,   1.48240E+06,   1.48240E+06
C:/temp/Job-7.odb,Step-1,Increment      1: Step Time =    1.000,"P-7-1",          1377,       38.2743,       154.536,            0.,NA,NA,"",   1.37696E+06,   1.27033E+06,   1.27033E+06
C:/temp/Job-7.odb,Step-1,Increment      1: Step Time =    1.000,"P-7-1",          1378,       44.5944,       34.2189,            0.,NA,NA,"",   1.73790E+06,   1.61848E+06,   1.61848E+06
C:/temp/Job-7.odb,Step-1,Increment      1: Step Time =    1.000,"P-7-1",          1379,       156.783,       166.057,            0.,NA,NA,"",   1.57192E+06,   1.47504E+06,   1.47504E+06
C:/temp/Job-7.odb,Step-1,Increment      1: Step Time =    1.000,"P-7-1",          1380,       159.264,       24.0019,            0.,NA,NA,"",   1.32470E+06,   1.27394E+06,   1.27394E+06
C:/temp/Job-7.odb,Step-1,Increment      1: Step Time =    1.000,"P-7-1",          1381,       177.132,       158.290,            0.,NA,NA,"",   1.29400E+06,   1.26818E+06,   1.26818E+06
C:/temp/Job-7.odb,Step-1,Increment      1: Step Time =    1.000,"P-7-1",          1382,       160.254,       154.371,            0.,NA,NA,"",   1.72014E+06,   1.55556E+06,   1.55556E+06
C:/temp/Job-7.odb,Step-1,Increment      1: Step Time =    1.000,"P-7-1",          1383,       154.801,       40.2530,            0.,NA,NA,"",   1.73450E+06,   1.59957E+06,   1.59957E+06
C:/temp/Job-7.odb,Step-1,Increment      1: Step Time =    1.000,"P-7-1",          1384,       40.2701,       44.5847,            0.,NA,NA,"",   1.44592E+06,   1.32686E+06,   1.32686E+06
C:/temp/Job-7.odb,Step-1,Increment      1: Step Time =    1.000,"P-7-1",          1385,       184.728,       184.530,            0.,NA,NA,"",   1.02682E+06,   1.02986E+06,   1.02986E+06
C:/temp/Job-7.odb,Step-1,Increment      1: Step Time =    1.000,"P-7-1",          1386,       184.052,       15.5390,            0.,NA,NA,"",   1.03088E+06,   1.03347E+06,   1.03347E+06
C:/temp/Job-7.odb,Step-1,Increment      1: Step Time =    1.000,"P-7-1",          1387,       15.8872,       14.3102,            0.,NA,NA,"",   1.95661E+06,   1.99703E+06,   1.99703E+06
C:/temp/Job-7.odb,Step-1,Increment      1: Step Time =    1.000,"P-7-1",          1388,       43.2446,       167.390,            0.,NA,NA,"",   1.73869E+06,   1.63121E+06,   1.63121E+06
C:/temp/Job-7.odb,Step-1,Increment      1: Step Time =    1.000,"P-7-1",          1389,       32.2436,       43.9664,            0.,NA,NA,"",   1.32680E+06,   1.26653E+06,   1.26653E+06
C:/temp/Job-7.odb,Step-1,Increment      1: Step Time =    1.000,"P-7-1",          1390,       154.316,       32.9968,            0.,NA,NA,"",   1.58133E+06,     1.489E+06,     1.489E+06
C:/temp/Job-7.odb,Step-1,Increment      1: Step Time =    1.000,"P-7-1",          1391,       189.380,       15.5170,            0.,NA,NA,"",   1.01402E+06,   1.01742E+06,   1.01742E+06
C:/temp/Job-7.odb,Step-1,Increment      1: Step Time =    1.000,"P-7-1",          1392,       184.664,       189.599,            0.,NA,NA,"",   1.01128E+06,   1.01248E+06,   1.01248E+06
C:/temp/Job-7.odb,Step-1,Increment      1: Step Time =    1.000,"P-7-1",          1393,       15.5243,       9.73258,            0.,NA,NA,"",   2.09712E+06,   2.11999E+06,   2.11999E+06
C:/temp/Job-7.odb,Step-1,Increment      1: Step Time =    1.000,"P-7-1",          1394,       10.3227,       184.855,            0.,NA,NA,"",   1.87887E+06,   1.97560E+06,   1.97560E+06
C:/temp/Job-7.odb,Step-1,Increment      1: Step Time =    1.000,"P-7-1",          1395,       36.0867,       40.1904,            0.,NA,NA,"",   1.48945E+06,   1.40518E+06,   1.40518E+06
C:/temp/Job-7.odb,Step-1,Increment      1: Step Time =    1.000,"P-7-1",          1396,       42.2289,       162.628,            0.,NA,NA,"",   1.64737E+06,   1.53341E+06,   1.53341E+06
C:/temp/Job-7.odb,Step-1,Increment      1: Step Time =    1.000,"P-7-1",          1397,       159.061,       35.5821,            0.,NA,NA,"",   1.56883E+06,   1.46766E+06,   1.46766E+06
C:/temp/Job-7.odb,Step-1,Increment      1: Step Time =    1.000,"P-7-1",          1398,       165.781,       154.642,            0.,NA,NA,"",   1.59565E+06,   1.46662E+06,   1.46662E+06
C:/temp/Job-7.odb,Step-1,Increment      1: Step Time =    1.000,"P-7-1",          1399,       25.6144,       9.55004,            0.,NA,NA,"",   2.03283E+06,   2.03117E+06,   2.03117E+06
C:/temp/Job-7.odb,Step-1,Increment      1: Step Time =    1.000,"P-7-1",          1400,       10.1068,       173.939,            0.,NA,NA,"",   1.50425E+06,   1.61226E+06,   1.61226E+06
C:/temp/Job-7.odb,Step-1,Increment      1: Step Time =    1.000,"P-7-1",          1401,       189.936,       25.8400,            0.,NA,NA,"",   1.02123E+06,   1.03731E+06,   1.03731E+06
C:/temp/Job-7.odb,Step-1,Increment      1: Step Time =    1.000,"P-7-1",          1402,       174.215,       190.081,            0.,NA,NA,"",   1.03011E+06,   1.02625E+06,   1.02625E+06
C:/temp/Job-7.odb,Step-1,Increment      1: Step Time =    1.000,"P-7-1",          1403,       48.3027,       29.3626,            0.,NA,NA,"",   1.83141E+06,   1.71550E+06,   1.71550E+06
C:/temp/Job-7.odb,Step-1,Increment      1: Step Time =    1.000,"P-7-1",          1404,       169.902,       48.2713,            0.,NA,NA,"",   1.54103E+06,   1.42798E+06,   1.42798E+06
C:/temp/Job-7.odb,Step-1,Increment      1: Step Time =    1.000,"P-7-1",          1405,       151.698,       169.501,            0.,NA,NA,"",   1.56058E+06,   1.48112E+06,   1.48112E+06
C:/temp/Job-7.odb,Step-1,Increment      1: Step Time =    1.000,"P-7-1",          1406,       31.2900,       152.889,            0.,NA,NA,"",   1.20939E+06,   1.15460E+06,   1.15460E+06
C:/temp/Job-7.odb,Step-1,Increment      1: Step Time =    1.000,"P-7-1",          1407,       190.577,       55.3294,            0.,NA,NA,"",   1.02238E+06,   1.14097E+06,   1.14097E+06
C:/temp/Job-7.odb,Step-1,Increment      1: Step Time =    1.000,"P-7-1",          1408,       55.2876,       9.87298,            0.,NA,NA,"",   1.78242E+06,   1.75326E+06,   1.75326E+06
C:/temp/Job-7.odb,Step-1,Increment      1: Step Time =    1.000,"P-7-1",          1409,       144.825,       190.230,            0.,NA,NA,"",   994.527E+03,   981.825E+03,   981.825E+03
C:/temp/Job-7.odb,Step-1,Increment      1: Step Time =    1.000,"P-7-1",          1410,       9.78287,       144.968,            0.,NA,NA,"",   738.540E+03,   801.225E+03,   801.225E+03
C:/temp/Job-7.odb,Step-1,Increment      1: Step Time =    1.000,"P-7-1",          1411,       5.12531,       5.04403,            0.,NA,NA,"",   2.37286E+06,   2.46638E+06,   2.46638E+06
C:/temp/Job-7.odb,Step-1,Increment      1: Step Time =    1.000,"P-7-1",          1412,       89.9780,       150.937,            0.,NA,NA,"",   3.18025E+06,   3.26199E+06,   3.26199E+06
C:/temp/Job-7.odb,Step-1,Increment      1: Step Time =    1.000,"P-7-1",          1413,       85.5751,       150.256,            0.,NA,NA,"",   2.80135E+06,   2.85932E+06,   2.85932E+06
C:/temp/Job-7.odb,Step-1,Increment      1: Step Time =    1.000,"P-7-1",          1414,       120.086,       152.257,            0.,NA,NA,"",   2.91216E+06,   3.03999E+06,   3.03999E+06
C:/temp/Job-7.odb,Step-1,Increment      1: Step Time =    1.000,"P-7-1",          1415,       152.180,       79.8906,            0.,NA,NA,"",   1.08961E+06,  -822.562E+03,  -822.562E+03
C:/temp/Job-7.odb,Step-1,Increment      1: Step Time =    1.000,"P-7-1",          1416,       79.9008,       47.7192,            0.,NA,NA,"",   2.33514E+06,   2.36181E+06,   2.36181E+06
C:/temp/Job-7.odb,Step-1,Increment      1: Step Time =    1.000,"P-7-1",          1417,       48.4657,       119.869,            0.,NA,NA,"",   509.186E+03,  -512.939E+03,  -512.939E+03
C:/temp/Job-7.odb,Step-1,Increment      1: Step Time =    1.000,"P-7-1",          1418,       78.1353,       152.670,            0.,NA,NA,"",   2.19149E+06,   2.20453E+06,   2.20453E+06
C:/temp/Job-7.odb,Step-1,Increment      1: Step Time =    1.000,"P-7-1",          1419,       191.180,       149.319,            0.,NA,NA,"",   996.692E+03,   1.10267E+06,   1.10267E+06
C:/temp/Job-7.odb,Step-1,Increment      1: Step Time =    1.000,"P-7-1",          1420,       50.8170,       190.592,            0.,NA,NA,"",   1.83789E+06,   1.81330E+06,   1.81330E+06
C:/temp/Job-7.odb,Step-1,Increment      1: Step Time =    1.000,"P-7-1",          1421,       79.8761,       155.781,            0.,NA,NA,"",   2.29084E+06,   2.30504E+06,   2.30504E+06
C:/temp/Job-7.odb,Step-1,Increment      1: Step Time =    1.000,"P-7-1",          1422,       74.8606,       156.209,            0.,NA,NA,"",   2.08881E+06,   2.04754E+06,   2.04754E+06
C:/temp/Job-7.odb,Step-1,Increment      1: Step Time =    1.000,"P-7-1",          1423,       65.1341,       148.808,            0.,NA,NA,"",   1.66974E+06,   1.54044E+06,   1.54044E+06
C:/temp/Job-7.odb,Step-1,Increment      1: Step Time =    1.000,"P-7-1",          1424,       59.7456,       142.837,            0.,NA,NA,"",   1.20978E+06,   1.03762E+06,   1.03762E+06
C:/temp/Job-7.odb,Step-1,Increment      1: Step Time =    1.000,"P-7-1",          1425,       87.9154,       159.237,            0.,NA,NA,"",   2.40838E+06,   2.49126E+06,   2.49126E+06
C:/temp/Job-7.odb,Step-1,Increment      1: Step Time =    1.000,"P-7-1",          1426,       39.0034,       183.778,            0.,NA,NA,"",   1.88173E+06,   1.84583E+06,   1.84583E+06
C:/temp/Job-7.odb,Step-1,Increment      1: Step Time =    1.000,"P-7-1",          1427,       173.742,       14.4549,            0.,NA,NA,"",   1.07361E+06,   1.06608E+06,   1.06608E+06
C:/temp/Job-7.odb,Step-1,Increment      1: Step Time =    1.000,"P-7-1",          1428,       168.792,       14.2844,            0.,NA,NA,"",   1.09342E+06,   1.08003E+06,   1.08003E+06
C:/temp/Job-7.odb,Step-1,Increment      1: Step Time =    1.000,"P-7-1",          1429,       185.739,       174.653,            0.,NA,NA,"",   1.05127E+06,   1.06308E+06,   1.06308E+06
C:/temp/Job-7.odb,Step-1,Increment      1: Step Time =    1.000,"P-7-1",          1430,       185.597,       169.929,            0.,NA,NA,"",   1.06510E+06,   1.08331E+06,   1.08331E+06
C:/temp/Job-7.odb,Step-1,Increment      1: Step Time =    1.000,"P-7-1",          1431,       50.0608,       58.4572,            0.,NA,NA,"",   1.11638E+06,   916.389E+03,   916.389E+03
C:/temp/Job-7.odb,Step-1,Increment      1: Step Time =    1.000,"P-7-1",          1432,       149.973,       142.548,            0.,NA,NA,"",   1.90858E+06,   1.65214E+06,   1.65214E+06
C:/temp/Job-7.odb,Step-1,Increment      1: Step Time =    1.000,"P-7-1",          1433,       141.478,       50.1834,            0.,NA,NA,"",   2.04432E+06,   1.93452E+06,   1.93452E+06
C:/temp/Job-7.odb,Step-1,Increment      1: Step Time =    1.000,"P-7-1",          1434,       41.9257,       182.698,            0.,NA,NA,"",   1.86512E+06,   1.82299E+06,   1.82299E+06
C:/temp/Job-7.odb,Step-1,Increment      1: Step Time =    1.000,"P-7-1",          1435,       98.8286,       166.079,            0.,NA,NA,"",   2.07444E+06,   2.21591E+06,   2.21591E+06
C:/temp/Job-7.odb,Step-1,Increment      1: Step Time =    1.000,"P-7-1",          1436,       42.7505,       179.144,            0.,NA,NA,"",   1.84468E+06,   1.78491E+06,   1.78491E+06
C:/temp/Job-7.odb,Step-1,Increment      1: Step Time =    1.000,"P-7-1",          1437,       15.7499,       39.4262,            0.,NA,NA,"",   1.22272E+06,   1.27964E+06,   1.27964E+06
C:/temp/Job-7.odb,Step-1,Increment      1: Step Time =    1.000,"P-7-1",          1438,       14.0611,       51.4297,            0.,NA,NA,"",   862.570E+03,   915.671E+03,   915.671E+03
C:/temp/Job-7.odb,Step-1,Increment      1: Step Time =    1.000,"P-7-1",          1439,       139.868,       151.778,            0.,NA,NA,"",   2.04597E+06,   1.96759E+06,   1.96759E+06
C:/temp/Job-7.odb,Step-1,Increment      1: Step Time =    1.000,"P-7-1",          1440,       151.732,       59.2512,            0.,NA,NA,"",   1.87473E+06,   1.59084E+06,   1.59084E+06
C:/temp/Job-7.odb,Step-1,Increment      1: Step Time =    1.000,"P-7-1",          1441,       59.2148,       48.2466,            0.,NA,NA,"",   1.66488E+06,   1.48814E+06,   1.48814E+06
C:/temp/Job-7.odb,Step-1,Increment      1: Step Time =    1.000,"P-7-1",          1442,       179.113,       162.221,            0.,NA,NA,"",   1.21716E+06,   1.20965E+06,   1.20965E+06
C:/temp/Job-7.odb,Step-1,Increment      1: Step Time =    1.000,"P-7-1",          1443,       82.7714,       165.753,            0.,NA,NA,"",   2.11321E+06,   2.12301E+06,   2.12301E+06
C:/temp/Job-7.odb,Step-1,Increment      1: Step Time =    1.000,"P-7-1",          1444,       123.733,       165.822,            0.,NA,NA,"",   1.85497E+06,   1.95839E+06,   1.95839E+06
C:/temp/Job-7.odb,Step-1,Increment      1: Step Time =    1.000,"P-7-1",          1445,       165.253,       76.1209,            0.,NA,NA,"",   1.35792E+06,   1.05555E+06,   1.05555E+06
C:/temp/Job-7.odb,Step-1,Increment      1: Step Time =    1.000,"P-7-1",          1446,       75.9280,       34.1179,            0.,NA,NA,"",   2.08477E+06,   2.02598E+06,   2.02598E+06
C:/temp/Job-7.odb,Step-1,Increment      1: Step Time =    1.000,"P-7-1",          1447,       18.0185,       180.128,            0.,NA,NA,"",   1.80716E+06,   1.84867E+06,   1.84867E+06
C:/temp/Job-7.odb,Step-1,Increment      1: Step Time =    1.000,"P-7-1",          1448,       18.0359,       42.8972,            0.,NA,NA,"",   1.14420E+06,   1.18523E+06,   1.18523E+06
C:/temp/Job-7.odb,Step-1,Increment      1: Step Time =    1.000,"P-7-1",          1449,       47.8833,       137.945,            0.,NA,NA,"",   918.937E+03,   725.809E+03,   725.809E+03
C:/temp/Job-7.odb,Step-1,Increment      1: Step Time =    1.000,"P-7-1",          1450,       183.221,       145.486,            0.,NA,NA,"",   1.21453E+06,   1.25733E+06,   1.25733E+06
C:/temp/Job-7.odb,Step-1,Increment      1: Step Time =    1.000,"P-7-1",          1451,       145.554,       151.514,            0.,NA,NA,"",   1.97128E+06,   1.82299E+06,   1.82299E+06
C:/temp/Job-7.odb,Step-1,Increment      1: Step Time =    1.000,"P-7-1",          1452,       151.788,       52.1950,            0.,NA,NA,"",   1.92165E+06,   1.70246E+06,   1.70246E+06
C:/temp/Job-7.odb,Step-1,Increment      1: Step Time =    1.000,"P-7-1",          1453,       52.1600,       48.0944,            0.,NA,NA,"",   1.55129E+06,   1.36943E+06,   1.36943E+06
C:/temp/Job-7.odb,Step-1,Increment      1: Step Time =    1.000,"P-7-1",          1454,       21.4252,       40.9096,            0.,NA,NA,"",   1.25106E+06,   1.27113E+06,   1.27113E+06
C:/temp/Job-7.odb,Step-1,Increment      1: Step Time =    1.000,"P-7-1",          1455,       21.1075,       26.2855,            0.,NA,NA,"",   1.63761E+06,   1.66199E+06,   1.66199E+06
C:/temp/Job-7.odb,Step-1,Increment      1: Step Time =    1.000,"P-7-1",          1456,       181.531,       28.3106,            0.,NA,NA,"",   1.10873E+06,   1.11337E+06,   1.11337E+06
C:/temp/Job-7.odb,Step-1,Increment      1: Step Time =    1.000,"P-7-1",          1457,       172.422,       23.1006,            0.,NA,NA,"",   1.17592E+06,   1.15596E+06,   1.15596E+06
C:/temp/Job-7.odb,Step-1,Increment      1: Step Time =    1.000,"P-7-1",          1458,       181.443,       57.0228,            0.,NA,NA,"",   1.26554E+06,   1.28985E+06,   1.28985E+06
C:/temp/Job-7.odb,Step-1,Increment      1: Step Time =    1.000,"P-7-1",          1459,       172.260,       181.941,            0.,NA,NA,"",   1.11517E+06,   1.10256E+06,   1.10256E+06
C:/temp/Job-7.odb,Step-1,Increment      1: Step Time =    1.000,"P-7-1",          1460,       177.833,       174.172,            0.,NA,NA,"",   1.13823E+06,   1.13120E+06,   1.13120E+06
C:/temp/Job-7.odb,Step-1,Increment      1: Step Time =    1.000,"P-7-1",          1461,       175.002,       163.665,            0.,NA,NA,"",   1.28663E+06,   1.25442E+06,   1.25442E+06
C:/temp/Job-7.odb,Step-1,Increment      1: Step Time =    1.000,"P-7-1",          1462,       173.250,       160.034,            0.,NA,NA,"",   1.36347E+06,   1.31122E+06,   1.31122E+06
C:/temp/Job-7.odb,Step-1,Increment      1: Step Time =    1.000,"P-7-1",          1463,       144.390,       180.587,            0.,NA,NA,"",   1.29060E+06,   1.26095E+06,   1.26095E+06
C:/temp/Job-7.odb,Step-1,Increment      1: Step Time =    1.000,"P-7-1",          1464,       46.0011,       180.736,            0.,NA,NA,"",   1.85063E+06,   1.78809E+06,   1.78809E+06
C:/temp/Job-7.odb,Step-1,Increment      1: Step Time =    1.000,"P-7-1",          1465,       78.8415,       166.561,            0.,NA,NA,"",   2.07095E+06,   2.03398E+06,   2.03398E+06
C:/temp/Job-7.odb,Step-1,Increment      1: Step Time =    1.000,"P-7-1",          1466,       97.9887,       169.434,            0.,NA,NA,"",   1.87755E+06,   1.98980E+06,   1.98980E+06
C:/temp/Job-7.odb,Step-1,Increment      1: Step Time =    1.000,"P-7-1",          1467,       45.6728,       142.717,            0.,NA,NA,"",   1.10924E+06,   940.202E+03,   940.202E+03
C:/temp/Job-7.odb,Step-1,Increment      1: Step Time =    1.000,"P-7-1",          1468,       168.068,       71.2777,            0.,NA,NA,"",   1.47414E+06,   1.24121E+06,   1.24121E+06
C:/temp/Job-7.odb,Step-1,Increment      1: Step Time =    1.000,"P-7-1",          1469,       128.590,       169.067,            0.,NA,NA,"",   1.69605E+06,   1.74814E+06,   1.74814E+06
C:/temp/Job-7.odb,Step-1,Increment      1: Step Time =    1.000,"P-7-1",          1470,       168.316,       92.8672,            0.,NA,NA,"",   547.464E+03,   454.148E+03,   454.148E+03
C:/temp/Job-7.odb,Step-1,Increment      1: Step Time =    1.000,"P-7-1",          1471,       175.746,       91.2809,            0.,NA,NA,"",   692.177E+03,   761.439E+03,   761.439E+03
C:/temp/Job-7.odb,Step-1,Increment      1: Step Time =    1.000,"P-7-1",          1472,       18.2898,       56.2521,            0.,NA,NA,"",   760.051E+03,   790.303E+03,   790.303E+03
C:/temp/Job-7.odb,Step-1,Increment      1: Step Time =    1.000,"P-7-1",          1473,       74.3703,       29.5313,            0.,NA,NA,"",   2.00523E+06,   1.93035E+06,   1.93035E+06
C:/temp/Job-7.odb,Step-1,Increment      1: Step Time =    1.000,"P-7-1",          1474,       176.495,       114.948,            0.,NA,NA,"",   929.973E+03,    977.51E+03,    977.51E+03
C:/temp/Job-7.odb,Step-1,Increment      1: Step Time =    1.000,"P-7-1",          1475,       24.0005,       23.9811,            0.,NA,NA,"",   1.72131E+06,   1.72725E+06,   1.72725E+06
C:/temp/Job-7.odb,Step-1,Increment      1: Step Time =    1.000,"P-7-1",          1476,       42.9532,       143.483,            0.,NA,NA,"",   1.09652E+06,   944.268E+03,   944.268E+03
C:/temp/Job-7.odb,Step-1,Increment      1: Step Time =    1.000,"P-7-1",          1477,       126.372,       175.077,            0.,NA,NA,"",   1.47096E+06,   1.52051E+06,   1.52051E+06
C:/temp/Job-7.odb,Step-1,Increment      1: Step Time =    1.000,"P-7-1",          1478,       168.955,       152.763,            0.,NA,NA,"",   1.54050E+06,   1.42898E+06,   1.42898E+06
C:/temp/Job-7.odb,Step-1,Increment      1: Step Time =    1.000,"P-7-1",          1479,       78.6590,       169.181,            0.,NA,NA,"",   2.01552E+06,   1.97118E+06,   1.97118E+06
C:/temp/Job-7.odb,Step-1,Increment      1: Step Time =    1.000,"P-7-1",          1480,       41.8532,       152.398,            0.,NA,NA,"",   1.38694E+06,   1.25113E+06,   1.25113E+06
C:/temp/Job-7.odb,Step-1,Increment      1: Step Time =    1.000,"P-7-1",          1481,       76.5750,       166.252,            0.,NA,NA,"",   2.07693E+06,   2.02218E+06,   2.02218E+06
C:/temp/Job-7.odb,Step-1,Increment      1: Step Time =    1.000,"P-7-1",          1482,       75.5071,       169.002,            0.,NA,NA,"",   2.02694E+06,   1.96317E+06,   1.96317E+06
C:/temp/Job-7.odb,Step-1,Increment      1: Step Time =    1.000,"P-7-1",          1483,       95.7247,       30.8363,            0.,NA,NA,"",   1.94412E+06,   2.05520E+06,   2.05520E+06
C:/temp/Job-7.odb,Step-1,Increment      1: Step Time =    1.000,"P-7-1",          1484,       171.870,       96.1805,            0.,NA,NA,"",   447.981E+03,   488.140E+03,   488.140E+03
C:/temp/Job-7.odb,Step-1,Increment      1: Step Time =    1.000,"P-7-1",          1485,       104.912,       28.9568,            0.,NA,NA,"",   1.74367E+06,   1.87669E+06,   1.87669E+06
C:/temp/Job-7.odb,Step-1,Increment      1: Step Time =    1.000,"P-7-1",          1486,       132.009,       173.026,            0.,NA,NA,"",   1.55863E+06,   1.58043E+06,   1.58043E+06
C:/temp/Job-7.odb,Step-1,Increment      1: Step Time =    1.000,"P-7-1",          1487,       172.265,       104.863,            0.,NA,NA,"",   489.221E+03,   530.021E+03,   530.021E+03
C:/temp/Job-7.odb,Step-1,Increment      1: Step Time =    1.000,"P-7-1",          1488,       56.4406,       21.0529,            0.,NA,NA,"",   1.86380E+06,   1.77586E+06,   1.77586E+06
C:/temp/Job-7.odb,Step-1,Increment      1: Step Time =    1.000,"P-7-1",          1489,       77.3005,       22.8017,            0.,NA,NA,"",   1.82530E+06,   1.77324E+06,   1.77324E+06
C:/temp/Job-7.odb,Step-1,Increment      1: Step Time =    1.000,"P-7-1",          1490,       176.304,       136.930,            0.,NA,NA,"",   1.39933E+06,   1.34651E+06,   1.34651E+06
C:/temp/Job-7.odb,Step-1,Increment      1: Step Time =    1.000,"P-7-1",          1491,       172.395,       168.530,            0.,NA,NA,"",   1.27374E+06,   1.23874E+06,   1.23874E+06
C:/temp/Job-7.odb,Step-1,Increment      1: Step Time =    1.000,"P-7-1",          1492,       169.326,       161.726,            0.,NA,NA,"",   1.42612E+06,   1.35300E+06,   1.35300E+06
C:/temp/Job-7.odb,Step-1,Increment      1: Step Time =    1.000,"P-7-1",          1493,       167.516,       158.208,            0.,NA,NA,"",   1.50809E+06,   1.41035E+06,   1.41035E+06
C:/temp/Job-7.odb,Step-1,Increment      1: Step Time =    1.000,"P-7-1",          1494,       173.395,       178.055,            0.,NA,NA,"",   1.14861E+06,   1.13348E+06,   1.13348E+06
C:/temp/Job-7.odb,Step-1,Increment      1: Step Time =    1.000,"P-7-1",          1495,       18.7284,       171.514,            0.,NA,NA,"",   1.55710E+06,   1.59941E+06,   1.59941E+06
C:/temp/Job-7.odb,Step-1,Increment      1: Step Time =    1.000,"P-7-1",          1496,       19.3440,       145.521,            0.,NA,NA,"",   832.922E+03,   856.049E+03,   856.049E+03
C:/temp/Job-7.odb,Step-1,Increment      1: Step Time =    1.000,"P-7-1",          1497,       27.1670,       124.705,            0.,NA,NA,"",   301.992E+03,   271.872E+03,   271.872E+03
C:/temp/Job-7.odb,Step-1,Increment      1: Step Time =    1.000,"P-7-1",          1498,       176.953,       28.0798,            0.,NA,NA,"",   1.16358E+06,   1.15485E+06,   1.15485E+06
C:/temp/Job-7.odb,Step-1,Increment      1: Step Time =    1.000,"P-7-1",          1499,       155.329,       28.9739,            0.,NA,NA,"",   1.47914E+06,   1.40434E+06,   1.40434E+06
C:/temp/Job-7.odb,Step-1,Increment      1: Step Time =    1.000,"P-7-1",          1500,       172.840,       73.2028,            0.,NA,NA,"",   1.33626E+06,   1.22771E+06,   1.22771E+06
C:/temp/Job-7.odb,Step-1,Increment      1: Step Time =    1.000,"P-7-1",          1501,       176.695,       80.8399,            0.,NA,NA,"",   1.07738E+06,   1.09316E+06,   1.09316E+06
C:/temp/Job-7.odb,Step-1,Increment      1: Step Time =    1.000,"P-7-1",          1502,       30.8893,       104.775,            0.,NA,NA,"",   109.987E+03,  -124.645E+03,  -124.645E+03
C:/temp/Job-7.odb,Step-1,Increment      1: Step Time =    1.000,"P-7-1",          1503,       158.687,       157.892,            0.,NA,NA,"",   1.70813E+06,   1.56171E+06,   1.56171E+06
C:/temp/Job-7.odb,Step-1,Increment      1: Step Time =    1.000,"P-7-1",          1504,       144.778,       176.728,            0.,NA,NA,"",   1.40892E+06,   1.37047E+06,   1.37047E+06
C:/temp/Job-7.odb,Step-1,Increment      1: Step Time =    1.000,"P-7-1",          1505,       176.170,       55.4328,            0.,NA,NA,"",   1.41850E+06,   1.36023E+06,   1.36023E+06
C:/temp/Job-7.odb,Step-1,Increment      1: Step Time =    1.000,"P-7-1",          1506,       122.187,       33.5755,            0.,NA,NA,"",   1.82300E+06,   1.92699E+06,   1.92699E+06
C:/temp/Job-7.odb,Step-1,Increment      1: Step Time =    1.000,"P-7-1",          1507,       31.5351,       77.4126,            0.,NA,NA,"",   276.098E+03,   136.546E+03,   136.546E+03
C:/temp/Job-7.odb,Step-1,Increment      1: Step Time =    1.000,"P-7-1",          1508,       167.007,       148.505,            0.,NA,NA,"",   1.62319E+06,   1.47098E+06,   1.47098E+06
C:/temp/Job-7.odb,Step-1,Increment      1: Step Time =    1.000,"P-7-1",          1509,       169.648,       145.968,            0.,NA,NA,"",   1.58978E+06,   1.44489E+06,   1.44489E+06
C:/temp/Job-7.odb,Step-1,Increment      1: Step Time =    1.000,"P-7-1",          1510,       168.589,       122.489,            0.,NA,NA,"",   1.26524E+06,   1.05841E+06,   1.05841E+06
C:/temp/Job-7.odb,Step-1,Increment      1: Step Time =    1.000,"P-7-1",          1511,       27.8217,       22.5244,            0.,NA,NA,"",   1.77753E+06,   1.76436E+06,   1.76436E+06
C:/temp/Job-7.odb,Step-1,Increment      1: Step Time =    1.000,"P-7-1",          1512,       22.9869,       173.597,            0.,NA,NA,"",   1.66526E+06,   1.67797E+06,   1.67797E+06
C:/temp/Job-7.odb,Step-1,Increment      1: Step Time =    1.000,"P-7-1",          1513,       171.653,       179.456,            0.,NA,NA,"",   1.14739E+06,   1.13060E+06,   1.13060E+06
C:/temp/Job-7.odb,Step-1,Increment      1: Step Time =    1.000,"P-7-1",          1514,       178.829,       29.5286,            0.,NA,NA,"",   1.15254E+06,   1.14868E+06,   1.14868E+06
C:/temp/Job-7.odb,Step-1,Increment      1: Step Time =    1.000,"P-7-1",          1515,       163.113,       156.248,            0.,NA,NA,"",   1.63880E+06,   1.49867E+06,   1.49867E+06
C:/temp/Job-7.odb,Step-1,Increment      1: Step Time =    1.000,"P-7-1",          1516,       163.102,       159.779,            0.,NA,NA,"",   1.58641E+06,   1.46865E+06,   1.46865E+06
C:/temp/Job-7.odb,Step-1,Increment      1: Step Time =    1.000,"P-7-1",          1517,       181.532,       63.4089,            0.,NA,NA,"",   1.25916E+06,   1.29831E+06,   1.29831E+06
C:/temp/Job-7.odb,Step-1,Increment      1: Step Time =    1.000,"P-7-1",          1518,       153.407,       162.328,            0.,NA,NA,"",   1.70148E+06,   1.58345E+06,   1.58345E+06
C:/temp/Job-7.odb,Step-1,Increment      1: Step Time =    1.000,"P-7-1",          1519,       176.366,       100.161,            0.,NA,NA,"",   534.699E+03,   598.325E+03,   598.325E+03
C:/temp/Job-7.odb,Step-1,Increment      1: Step Time =    1.000,"P-7-1",          1520,       175.721,       71.3699,            0.,NA,NA,"",   1.32264E+06,   1.26896E+06,   1.26896E+06
C:/temp/Job-7.odb,Step-1,Increment      1: Step Time =    1.000,"P-7-1",          1521,       172.581,       139.968,            0.,NA,NA,"",   1.51329E+06,   1.39249E+06,   1.39249E+06
C:/temp/Job-7.odb,Step-1,Increment      1: Step Time =    1.000,"P-7-1",          1522,       71.5559,       175.630,            0.,NA,NA,"",   1.90005E+06,   1.81491E+06,   1.81491E+06
C:/temp/Job-7.odb,Step-1,Increment      1: Step Time =    1.000,"P-7-1",          1523,       142.586,       30.2502,            0.,NA,NA,"",   1.63328E+06,   1.58716E+06,   1.58716E+06
C:/temp/Job-7.odb,Step-1,Increment      1: Step Time =    1.000,"P-7-1",          1524,       30.0620,       56.0592,            0.,NA,NA,"",   914.812E+03,   867.775E+03,   867.775E+03
C:/temp/Job-7.odb,Step-1,Increment      1: Step Time =    1.000,"P-7-1",          1525,       104.489,       24.5333,            0.,NA,NA,"",   1.53536E+06,   1.63927E+06,   1.63927E+06
C:/temp/Job-7.odb,Step-1,Increment      1: Step Time =    1.000,"P-7-1",          1526,       109.122,       24.1545,            0.,NA,NA,"",   1.47681E+06,   1.58611E+06,   1.58611E+06
C:/temp/Job-7.odb,Step-1,Increment      1: Step Time =    1.000,"P-7-1",          1527,       112.951,       24.2384,            0.,NA,NA,"",   1.45640E+06,   1.56498E+06,   1.56498E+06
C:/temp/Job-7.odb,Step-1,Increment      1: Step Time =    1.000,"P-7-1",          1528,       168.526,       170.089,            0.,NA,NA,"",   1.31264E+06,   1.26560E+06,   1.26560E+06
C:/temp/Job-7.odb,Step-1,Increment      1: Step Time =    1.000,"P-7-1",          1529,       165.421,       163.541,            0.,NA,NA,"",   1.47400E+06,   1.38803E+06,   1.38803E+06
C:/temp/Job-7.odb,Step-1,Increment      1: Step Time =    1.000,"P-7-1",          1530,       39.0349,       165.746,            0.,NA,NA,"",   1.65751E+06,   1.56653E+06,   1.56653E+06
C:/temp/Job-7.odb,Step-1,Increment      1: Step Time =    1.000,"P-7-1",          1531,       160.473,       162.458,            0.,NA,NA,"",   1.59204E+06,   1.48001E+06,   1.48001E+06
C:/temp/Job-7.odb,Step-1,Increment      1: Step Time =    1.000,"P-7-1",          1532,       31.8587,       22.0573,            0.,NA,NA,"",   1.80813E+06,   1.77683E+06,   1.77683E+06
C:/temp/Job-7.odb,Step-1,Increment      1: Step Time =    1.000,"P-7-1",          1533,       32.3306,       25.6405,            0.,NA,NA,"",   1.73522E+06,   1.69457E+06,   1.69457E+06
C:/temp/Job-7.odb,Step-1,Increment      1: Step Time =    1.000,"P-7-1",          1534,       31.6810,       28.7771,            0.,NA,NA,"",   1.66912E+06,   1.63006E+06,   1.63006E+06
C:/temp/Job-7.odb,Step-1,Increment      1: Step Time =    1.000,"P-7-1",          1535,       30.8439,       85.7183,            0.,NA,NA,"",   130.502E+03,  -107.084E+03,  -107.084E+03
C:/temp/Job-7.odb,Step-1,Increment      1: Step Time =    1.000,"P-7-1",          1536,       27.0974,       148.371,            0.,NA,NA,"",   1.00952E+06,   986.659E+03,   986.659E+03
C:/temp/Job-7.odb,Step-1,Increment      1: Step Time =    1.000,"P-7-1",          1537,       164.469,       168.134,            0.,NA,NA,"",   1.41409E+06,   1.34400E+06,   1.34400E+06
C:/temp/Job-7.odb,Step-1,Increment      1: Step Time =    1.000,"P-7-1",          1538,       20.9575,       167.551,            0.,NA,NA,"",   1.47315E+06,   1.49755E+06,   1.49755E+06
C:/temp/Job-7.odb,Step-1,Increment      1: Step Time =    1.000,"P-7-1",          1539,       172.572,       37.8084,            0.,NA,NA,"",   1.34555E+06,   1.29862E+06,   1.29862E+06
C:/temp/Job-7.odb,Step-1,Increment      1: Step Time =    1.000,"P-7-1",          1540,       160.545,       171.096,            0.,NA,NA,"",   1.41624E+06,   1.34754E+06,   1.34754E+06
C:/temp/Job-7.odb,Step-1,Increment      1: Step Time =    1.000,"P-7-1",          1541,       27.0782,       162.479,            0.,NA,NA,"",   1.42084E+06,   1.39826E+06,   1.39826E+06
C:/temp/Job-7.odb,Step-1,Increment      1: Step Time =    1.000,"P-7-1",          1542,       28.2032,       158.857,            0.,NA,NA,"",   1.33952E+06,   1.30734E+06,   1.30734E+06
