ODB Name,Step,Frame,Part Instance Name,    Node Label,X,Y,Z,Section Name,Material Name,Section Point,       S-Mises,S-Max. In-Plane Principal (Abs),S-Max. Principal (Abs)
C:/temp/Job-0.odb,Step-1,Increment      1: Step Time =    1.000,"P-0-1",             1,       95.2273,       109.911,            0.,NA,NA,"",   1.55196E+06,   1.60565E+06,   1.60565E+06
C:/temp/Job-0.odb,Step-1,Increment      1: Step Time =    1.000,"P-0-1",             2,       91.3999,       106.858,            0.,NA,NA,"",   847.582E+03,   756.289E+03,   756.289E+03
C:/temp/Job-0.odb,Step-1,Increment      1: Step Time =    1.000,"P-0-1",             3,       89.2758,       102.448,            0.,NA,NA,"",   451.479E+03,  -40.0419E+03,  -40.0419E+03
C:/temp/Job-0.odb,Step-1,Increment      1: Step Time =    1.000,"P-0-1",             4,       91.3999,       93.1416,            0.,NA,NA,"",   925.109E+03,   853.943E+03,   853.943E+03
C:/temp/Job-0.odb,Step-1,Increment      1: Step Time =    1.000,"P-0-1",             5,       95.2273,       90.0893,            0.,NA,NA,"",   1.57026E+06,   1.64416E+06,   1.64416E+06
C:/temp/Job-0.odb,Step-1,Increment      1: Step Time =    1.000,"P-0-1",             6,          100.,           89.,            0.,NA,NA,"",   1.98191E+06,   2.07606E+06,   2.07606E+06
C:/temp/Job-0.odb,Step-1,Increment      1: Step Time =    1.000,"P-0-1",             7,       104.773,       90.0893,            0.,NA,NA,"",   1.55892E+06,   1.61052E+06,   1.61052E+06
C:/temp/Job-0.odb,Step-1,Increment      1: Step Time =    1.000,"P-0-1",             8,       108.600,       93.1416,            0.,NA,NA,"",   859.297E+03,   756.730E+03,   756.730E+03
C:/temp/Job-0.odb,Step-1,Increment      1: Step Time =    1.000,"P-0-1",             9,       110.724,       97.5523,            0.,NA,NA,"",   475.869E+03,  -59.9547E+03,  -59.9547E+03
C:/temp/Job-0.odb,Step-1,Increment      1: Step Time =    1.000,"P-0-1",            10,       108.600,       106.858,            0.,NA,NA,"",   936.539E+03,   856.138E+03,   856.138E+03
C:/temp/Job-0.odb,Step-1,Increment      1: Step Time =    1.000,"P-0-1",            11,       104.773,       109.911,            0.,NA,NA,"",   1.57742E+06,   1.65001E+06,   1.65001E+06
C:/temp/Job-0.odb,Step-1,Increment      1: Step Time =    1.000,"P-0-1",            12,          100.,          111.,            0.,NA,NA,"",   1.98258E+06,   2.07676E+06,   2.07676E+06
C:/temp/Job-0.odb,Step-1,Increment      1: Step Time =    1.000,"P-0-1",            13,          190.,            0.,            0.,NA,NA,"",   999.738E+03,   999.716E+03,   999.716E+03
C:/temp/Job-0.odb,Step-1,Increment      1: Step Time =    1.000,"P-0-1",            14,          180.,            0.,            0.,NA,NA,"",   998.882E+03,   998.851E+03,   998.851E+03
C:/temp/Job-0.odb,Step-1,Increment      1: Step Time =    1.000,"P-0-1",            15,          170.,            0.,            0.,NA,NA,"",   997.067E+03,   997.000E+03,   997.000E+03
C:/temp/Job-0.odb,Step-1,Increment      1: Step Time =    1.000,"P-0-1",            16,          160.,            0.,            0.,NA,NA,"",   993.389E+03,   993.320E+03,   993.320E+03
C:/temp/Job-0.odb,Step-1,Increment      1: Step Time =    1.000,"P-0-1",            17,          150.,            0.,            0.,NA,NA,"",   986.850E+03,   986.773E+03,   986.773E+03
C:/temp/Job-0.odb,Step-1,Increment      1: Step Time =    1.000,"P-0-1",            18,          140.,            0.,            0.,NA,NA,"",   977.011E+03,   976.923E+03,   976.923E+03
C:/temp/Job-0.odb,Step-1,Increment      1: Step Time =    1.000,"P-0-1",            19,          130.,            0.,            0.,NA,NA,"",   964.790E+03,   964.751E+03,   964.751E+03
C:/temp/Job-0.odb,Step-1,Increment      1: Step Time =    1.000,"P-0-1",            20,          120.,            0.,            0.,NA,NA,"",   952.002E+03,   952.038E+03,   952.038E+03
C:/temp/Job-0.odb,Step-1,Increment      1: Step Time =    1.000,"P-0-1",            21,          110.,            0.,            0.,NA,NA,"",   941.080E+03,   941.203E+03,   941.203E+03
C:/temp/Job-0.odb,Step-1,Increment      1: Step Time =    1.000,"P-0-1",            22,          100.,            0.,            0.,NA,NA,"",   934.298E+03,   934.467E+03,   934.467E+03
C:/temp/Job-0.odb,Step-1,Increment      1: Step Time =    1.000,"P-0-1",            23,           90.,            0.,            0.,NA,NA,"",   932.928E+03,   933.070E+03,   933.070E+03
C:/temp/Job-0.odb,Step-1,Increment      1: Step Time =    1.000,"P-0-1",            24,           80.,            0.,            0.,NA,NA,"",   936.793E+03,   936.861E+03,   936.861E+03
C:/temp/Job-0.odb,Step-1,Increment      1: Step Time =    1.000,"P-0-1",            25,           70.,            0.,            0.,NA,NA,"",   944.723E+03,   944.794E+03,   944.794E+03
C:/temp/Job-0.odb,Step-1,Increment      1: Step Time =    1.000,"P-0-1",            26,           60.,            0.,            0.,NA,NA,"",   956.353E+03,   956.427E+03,   956.427E+03
C:/temp/Job-0.odb,Step-1,Increment      1: Step Time =    1.000,"P-0-1",            27,           50.,            0.,            0.,NA,NA,"",   967.731E+03,   967.463E+03,   967.463E+03
C:/temp/Job-0.odb,Step-1,Increment      1: Step Time =    1.000,"P-0-1",            28,           40.,            0.,            0.,NA,NA,"",   980.868E+03,   980.923E+03,   980.923E+03
C:/temp/Job-0.odb,Step-1,Increment      1: Step Time =    1.000,"P-0-1",            29,           30.,            0.,            0.,NA,NA,"",   1.00674E+06,   1.00691E+06,   1.00691E+06
C:/temp/Job-0.odb,Step-1,Increment      1: Step Time =    1.000,"P-0-1",            30,           20.,            0.,            0.,NA,NA,"",   1.06284E+06,   1.06369E+06,   1.06369E+06
C:/temp/Job-0.odb,Step-1,Increment      1: Step Time =    1.000,"P-0-1",            31,           10.,            0.,            0.,NA,NA,"",   1.20796E+06,   1.21042E+06,   1.21042E+06
C:/temp/Job-0.odb,Step-1,Increment      1: Step Time =    1.000,"P-0-1",            32,          200.,            0.,            0.,NA,NA,"",   999.986E+03,   999.972E+03,   999.972E+03
C:/temp/Job-0.odb,Step-1,Increment      1: Step Time =    1.000,"P-0-1",            33,            0.,            0.,            0.,NA,NA,"",   1.55248E+06,   1.62662E+06,   1.62662E+06
C:/temp/Job-0.odb,Step-1,Increment      1: Step Time =    1.000,"P-0-1",            34,          200.,          190.,            0.,NA,NA,"",   1.00010E+06,   999.970E+03,   999.970E+03
C:/temp/Job-0.odb,Step-1,Increment      1: Step Time =    1.000,"P-0-1",            35,          200.,          180.,            0.,NA,NA,"",   1.00041E+06,   1.00004E+06,   1.00004E+06
C:/temp/Job-0.odb,Step-1,Increment      1: Step Time =    1.000,"P-0-1",            36,          200.,          170.,            0.,NA,NA,"",   1.00036E+06,   1.00015E+06,   1.00015E+06
C:/temp/Job-0.odb,Step-1,Increment      1: Step Time =    1.000,"P-0-1",            37,          200.,          160.,            0.,NA,NA,"",   999.198E+03,   1.00018E+06,   1.00018E+06
C:/temp/Job-0.odb,Step-1,Increment      1: Step Time =    1.000,"P-0-1",            38,          200.,          150.,            0.,NA,NA,"",   996.357E+03,   1.00016E+06,   1.00016E+06
C:/temp/Job-0.odb,Step-1,Increment      1: Step Time =    1.000,"P-0-1",            39,          200.,          140.,            0.,NA,NA,"",    991.68E+03,   1.00017E+06,   1.00017E+06
C:/temp/Job-0.odb,Step-1,Increment      1: Step Time =    1.000,"P-0-1",            40,          200.,          130.,            0.,NA,NA,"",   985.737E+03,   1.00008E+06,   1.00008E+06
C:/temp/Job-0.odb,Step-1,Increment      1: Step Time =    1.000,"P-0-1",            41,          200.,          120.,            0.,NA,NA,"",   979.774E+03,   999.871E+03,   999.871E+03
C:/temp/Job-0.odb,Step-1,Increment      1: Step Time =    1.000,"P-0-1",            42,          200.,          110.,            0.,NA,NA,"",   975.309E+03,   999.637E+03,   999.637E+03
C:/temp/Job-0.odb,Step-1,Increment      1: Step Time =    1.000,"P-0-1",            43,          200.,          100.,            0.,NA,NA,"",   973.697E+03,   999.555E+03,   999.555E+03
C:/temp/Job-0.odb,Step-1,Increment      1: Step Time =    1.000,"P-0-1",            44,          200.,           90.,            0.,NA,NA,"",   975.414E+03,   999.661E+03,   999.661E+03
C:/temp/Job-0.odb,Step-1,Increment      1: Step Time =    1.000,"P-0-1",            45,          200.,           80.,            0.,NA,NA,"",   979.867E+03,   999.837E+03,   999.837E+03
C:/temp/Job-0.odb,Step-1,Increment      1: Step Time =    1.000,"P-0-1",            46,          200.,           70.,            0.,NA,NA,"",   985.799E+03,   999.925E+03,   999.925E+03
C:/temp/Job-0.odb,Step-1,Increment      1: Step Time =    1.000,"P-0-1",            47,          200.,           60.,            0.,NA,NA,"",   991.930E+03,   999.989E+03,   999.989E+03
C:/temp/Job-0.odb,Step-1,Increment      1: Step Time =    1.000,"P-0-1",            48,          200.,           50.,            0.,NA,NA,"",   997.157E+03,   1.00069E+06,   1.00069E+06
C:/temp/Job-0.odb,Step-1,Increment      1: Step Time =    1.000,"P-0-1",            49,          200.,           40.,            0.,NA,NA,"",   999.519E+03,   1.00019E+06,   1.00019E+06
C:/temp/Job-0.odb,Step-1,Increment      1: Step Time =    1.000,"P-0-1",            50,          200.,           30.,            0.,NA,NA,"",   1.00048E+06,   1.00008E+06,   1.00008E+06
C:/temp/Job-0.odb,Step-1,Increment      1: Step Time =    1.000,"P-0-1",            51,          200.,           20.,            0.,NA,NA,"",   1.00043E+06,   1.00002E+06,   1.00002E+06
C:/temp/Job-0.odb,Step-1,Increment      1: Step Time =    1.000,"P-0-1",            52,          200.,           10.,            0.,NA,NA,"",   1.00010E+06,   999.970E+03,   999.970E+03
C:/temp/Job-0.odb,Step-1,Increment      1: Step Time =    1.000,"P-0-1",            53,          200.,          200.,            0.,NA,NA,"",   999.985E+03,   999.972E+03,   999.972E+03
C:/temp/Job-0.odb,Step-1,Increment      1: Step Time =    1.000,"P-0-1",            54,           10.,          200.,            0.,NA,NA,"",   1.20871E+06,   1.21129E+06,   1.21129E+06
C:/temp/Job-0.odb,Step-1,Increment      1: Step Time =    1.000,"P-0-1",            55,           20.,          200.,            0.,NA,NA,"",   1.06592E+06,   1.06687E+06,   1.06687E+06
C:/temp/Job-0.odb,Step-1,Increment      1: Step Time =    1.000,"P-0-1",            56,           30.,          200.,            0.,NA,NA,"",   1.00914E+06,   1.00965E+06,   1.00965E+06
C:/temp/Job-0.odb,Step-1,Increment      1: Step Time =    1.000,"P-0-1",            57,           40.,          200.,            0.,NA,NA,"",   981.155E+03,   981.368E+03,   981.368E+03
C:/temp/Job-0.odb,Step-1,Increment      1: Step Time =    1.000,"P-0-1",            58,           50.,          200.,            0.,NA,NA,"",   964.362E+03,   964.453E+03,   964.453E+03
C:/temp/Job-0.odb,Step-1,Increment      1: Step Time =    1.000,"P-0-1",            59,           60.,          200.,            0.,NA,NA,"",   952.853E+03,   952.819E+03,   952.819E+03
C:/temp/Job-0.odb,Step-1,Increment      1: Step Time =    1.000,"P-0-1",            60,           70.,          200.,            0.,NA,NA,"",   943.837E+03,   943.849E+03,   943.849E+03
C:/temp/Job-0.odb,Step-1,Increment      1: Step Time =    1.000,"P-0-1",            61,           80.,          200.,            0.,NA,NA,"",   936.916E+03,   936.973E+03,   936.973E+03
C:/temp/Job-0.odb,Step-1,Increment      1: Step Time =    1.000,"P-0-1",            62,           90.,          200.,            0.,NA,NA,"",   933.133E+03,   933.266E+03,   933.266E+03
C:/temp/Job-0.odb,Step-1,Increment      1: Step Time =    1.000,"P-0-1",            63,          100.,          200.,            0.,NA,NA,"",   934.176E+03,   934.342E+03,   934.342E+03
C:/temp/Job-0.odb,Step-1,Increment      1: Step Time =    1.000,"P-0-1",            64,          110.,          200.,            0.,NA,NA,"",   940.847E+03,   940.969E+03,   940.969E+03
C:/temp/Job-0.odb,Step-1,Increment      1: Step Time =    1.000,"P-0-1",            65,          120.,          200.,            0.,NA,NA,"",   951.957E+03,   952.009E+03,   952.009E+03
C:/temp/Job-0.odb,Step-1,Increment      1: Step Time =    1.000,"P-0-1",            66,          130.,          200.,            0.,NA,NA,"",   965.201E+03,   965.233E+03,   965.233E+03
C:/temp/Job-0.odb,Step-1,Increment      1: Step Time =    1.000,"P-0-1",            67,          140.,          200.,            0.,NA,NA,"",   978.347E+03,   978.343E+03,   978.343E+03
C:/temp/Job-0.odb,Step-1,Increment      1: Step Time =    1.000,"P-0-1",            68,          150.,          200.,            0.,NA,NA,"",   988.189E+03,   987.843E+03,   987.843E+03
C:/temp/Job-0.odb,Step-1,Increment      1: Step Time =    1.000,"P-0-1",            69,          160.,          200.,            0.,NA,NA,"",   994.090E+03,   994.012E+03,   994.012E+03
C:/temp/Job-0.odb,Step-1,Increment      1: Step Time =    1.000,"P-0-1",            70,          170.,          200.,            0.,NA,NA,"",   997.341E+03,   997.306E+03,   997.306E+03
C:/temp/Job-0.odb,Step-1,Increment      1: Step Time =    1.000,"P-0-1",            71,          180.,          200.,            0.,NA,NA,"",   998.956E+03,   998.938E+03,   998.938E+03
C:/temp/Job-0.odb,Step-1,Increment      1: Step Time =    1.000,"P-0-1",            72,          190.,          200.,            0.,NA,NA,"",   999.746E+03,   999.728E+03,   999.728E+03
C:/temp/Job-0.odb,Step-1,Increment      1: Step Time =    1.000,"P-0-1",            73,            0.,          200.,            0.,NA,NA,"",   1.55202E+06,   1.62661E+06,   1.62661E+06
C:/temp/Job-0.odb,Step-1,Increment      1: Step Time =    1.000,"P-0-1",            74,            0.,           10.,            0.,NA,NA,"",   1.12803E+06,   1.22645E+06,   1.22645E+06
C:/temp/Job-0.odb,Step-1,Increment      1: Step Time =    1.000,"P-0-1",            75,            0.,           20.,            0.,NA,NA,"",   987.694E+03,   1.08952E+06,   1.08952E+06
C:/temp/Job-0.odb,Step-1,Increment      1: Step Time =    1.000,"P-0-1",            76,            0.,           30.,            0.,NA,NA,"",   921.977E+03,   1.02537E+06,   1.02537E+06
C:/temp/Job-0.odb,Step-1,Increment      1: Step Time =    1.000,"P-0-1",            77,            0.,           40.,            0.,NA,NA,"",   883.142E+03,   987.162E+03,   987.162E+03
C:/temp/Job-0.odb,Step-1,Increment      1: Step Time =    1.000,"P-0-1",            78,            0.,           50.,            0.,NA,NA,"",   856.526E+03,   960.415E+03,   960.415E+03
C:/temp/Job-0.odb,Step-1,Increment      1: Step Time =    1.000,"P-0-1",            79,            0.,           60.,            0.,NA,NA,"",   834.486E+03,   938.098E+03,   938.098E+03
C:/temp/Job-0.odb,Step-1,Increment      1: Step Time =    1.000,"P-0-1",            80,            0.,           70.,            0.,NA,NA,"",   816.749E+03,   919.659E+03,   919.659E+03
C:/temp/Job-0.odb,Step-1,Increment      1: Step Time =    1.000,"P-0-1",            81,            0.,           80.,            0.,NA,NA,"",   803.067E+03,   905.181E+03,   905.181E+03
C:/temp/Job-0.odb,Step-1,Increment      1: Step Time =    1.000,"P-0-1",            82,            0.,           90.,            0.,NA,NA,"",   794.360E+03,   895.900E+03,   895.900E+03
C:/temp/Job-0.odb,Step-1,Increment      1: Step Time =    1.000,"P-0-1",            83,            0.,          100.,            0.,NA,NA,"",   791.283E+03,   892.663E+03,   892.663E+03
C:/temp/Job-0.odb,Step-1,Increment      1: Step Time =    1.000,"P-0-1",            84,            0.,          110.,            0.,NA,NA,"",   794.388E+03,   896.041E+03,   896.041E+03
C:/temp/Job-0.odb,Step-1,Increment      1: Step Time =    1.000,"P-0-1",            85,            0.,          120.,            0.,NA,NA,"",   803.168E+03,   905.407E+03,   905.407E+03
C:/temp/Job-0.odb,Step-1,Increment      1: Step Time =    1.000,"P-0-1",            86,            0.,          130.,            0.,NA,NA,"",    816.93E+03,   919.854E+03,   919.854E+03
C:/temp/Job-0.odb,Step-1,Increment      1: Step Time =    1.000,"P-0-1",            87,            0.,          140.,            0.,NA,NA,"",   836.622E+03,   939.439E+03,   939.439E+03
C:/temp/Job-0.odb,Step-1,Increment      1: Step Time =    1.000,"P-0-1",            88,            0.,          150.,            0.,NA,NA,"",   858.356E+03,   962.030E+03,   962.030E+03
C:/temp/Job-0.odb,Step-1,Increment      1: Step Time =    1.000,"P-0-1",            89,            0.,          160.,            0.,NA,NA,"",   883.421E+03,   988.066E+03,   988.066E+03
C:/temp/Job-0.odb,Step-1,Increment      1: Step Time =    1.000,"P-0-1",            90,            0.,          170.,            0.,NA,NA,"",   921.218E+03,   1.02498E+06,   1.02498E+06
C:/temp/Job-0.odb,Step-1,Increment      1: Step Time =    1.000,"P-0-1",            91,            0.,          180.,            0.,NA,NA,"",   985.583E+03,   1.08784E+06,   1.08784E+06
C:/temp/Job-0.odb,Step-1,Increment      1: Step Time =    1.000,"P-0-1",            92,            0.,          190.,            0.,NA,NA,"",   1.12619E+06,   1.22495E+06,   1.22495E+06
C:/temp/Job-0.odb,Step-1,Increment      1: Step Time =    1.000,"P-0-1",            93,       104.882,       83.5628,            0.,NA,NA,"",   1.47513E+06,   1.56194E+06,   1.56194E+06
C:/temp/Job-0.odb,Step-1,Increment      1: Step Time =    1.000,"P-0-1",            94,       190.437,       85.2626,            0.,NA,NA,"",   981.381E+03,   997.906E+03,   997.906E+03
C:/temp/Job-0.odb,Step-1,Increment      1: Step Time =    1.000,"P-0-1",            95,       190.081,       115.232,            0.,NA,NA,"",   981.417E+03,   997.724E+03,   997.724E+03
C:/temp/Job-0.odb,Step-1,Increment      1: Step Time =    1.000,"P-0-1",            96,       180.358,       115.518,            0.,NA,NA,"",   982.535E+03,   992.814E+03,   992.814E+03
C:/temp/Job-0.odb,Step-1,Increment      1: Step Time =    1.000,"P-0-1",            97,       169.659,       115.794,            0.,NA,NA,"",   979.851E+03,   984.984E+03,   984.984E+03
C:/temp/Job-0.odb,Step-1,Increment      1: Step Time =    1.000,"P-0-1",            98,       146.092,       113.818,            0.,NA,NA,"",   956.025E+03,   950.433E+03,   950.433E+03
C:/temp/Job-0.odb,Step-1,Increment      1: Step Time =    1.000,"P-0-1",            99,       135.237,       113.851,            0.,NA,NA,"",   977.590E+03,   951.977E+03,   951.977E+03
C:/temp/Job-0.odb,Step-1,Increment      1: Step Time =    1.000,"P-0-1",           100,       127.154,       117.560,            0.,NA,NA,"",   1.08936E+06,   1.03388E+06,   1.03388E+06
C:/temp/Job-0.odb,Step-1,Increment      1: Step Time =    1.000,"P-0-1",           101,       116.054,       117.497,            0.,NA,NA,"",   1.27866E+06,   1.19243E+06,   1.19243E+06
C:/temp/Job-0.odb,Step-1,Increment      1: Step Time =    1.000,"P-0-1",           102,       103.871,       116.517,            0.,NA,NA,"",   1.48517E+06,   1.58440E+06,   1.58440E+06
C:/temp/Job-0.odb,Step-1,Increment      1: Step Time =    1.000,"P-0-1",           103,       95.1134,       116.430,            0.,NA,NA,"",   1.47255E+06,   1.56082E+06,   1.56082E+06
C:/temp/Job-0.odb,Step-1,Increment      1: Step Time =    1.000,"P-0-1",           104,       82.8334,       114.853,            0.,NA,NA,"",   1.22280E+06,   1.13098E+06,   1.13098E+06
C:/temp/Job-0.odb,Step-1,Increment      1: Step Time =    1.000,"P-0-1",           105,       70.5301,       114.642,            0.,NA,NA,"",   981.352E+03,   969.386E+03,   969.386E+03
C:/temp/Job-0.odb,Step-1,Increment      1: Step Time =    1.000,"P-0-1",           106,       64.0041,       117.814,            0.,NA,NA,"",   969.208E+03,   976.730E+03,   976.730E+03
C:/temp/Job-0.odb,Step-1,Increment      1: Step Time =    1.000,"P-0-1",           107,       53.2327,       115.534,            0.,NA,NA,"",   900.986E+03,   939.654E+03,   939.654E+03
C:/temp/Job-0.odb,Step-1,Increment      1: Step Time =    1.000,"P-0-1",           108,       43.5365,       116.962,            0.,NA,NA,"",   891.270E+03,   945.086E+03,   945.086E+03
C:/temp/Job-0.odb,Step-1,Increment      1: Step Time =    1.000,"P-0-1",           109,       29.6473,       115.224,            0.,NA,NA,"",   857.456E+03,   932.136E+03,   932.136E+03
C:/temp/Job-0.odb,Step-1,Increment      1: Step Time =    1.000,"P-0-1",           110,       19.6573,       115.180,            0.,NA,NA,"",   836.067E+03,   922.662E+03,   922.662E+03
C:/temp/Job-0.odb,Step-1,Increment      1: Step Time =    1.000,"P-0-1",           111,       9.75218,       115.009,            0.,NA,NA,"",   813.555E+03,   909.955E+03,   909.955E+03
C:/temp/Job-0.odb,Step-1,Increment      1: Step Time =    1.000,"P-0-1",           112,       9.90920,       105.147,            0.,NA,NA,"",   805.766E+03,   902.245E+03,   902.245E+03
C:/temp/Job-0.odb,Step-1,Increment      1: Step Time =    1.000,"P-0-1",           113,       19.7273,       105.385,            0.,NA,NA,"",   824.553E+03,   912.272E+03,   912.272E+03
C:/temp/Job-0.odb,Step-1,Increment      1: Step Time =    1.000,"P-0-1",           114,       29.6062,       105.471,            0.,NA,NA,"",   840.450E+03,   917.510E+03,   917.510E+03
C:/temp/Job-0.odb,Step-1,Increment      1: Step Time =    1.000,"P-0-1",           115,       41.6049,       105.881,            0.,NA,NA,"",   850.663E+03,   914.125E+03,   914.125E+03
C:/temp/Job-0.odb,Step-1,Increment      1: Step Time =    1.000,"P-0-1",           116,       54.1663,       109.274,            0.,NA,NA,"",   860.131E+03,   905.073E+03,   905.073E+03
C:/temp/Job-0.odb,Step-1,Increment      1: Step Time =    1.000,"P-0-1",           117,       62.0953,       105.811,            0.,NA,NA,"",   815.339E+03,   853.578E+03,   853.578E+03
C:/temp/Job-0.odb,Step-1,Increment      1: Step Time =    1.000,"P-0-1",           118,       72.4922,       104.818,            0.,NA,NA,"",   739.549E+03,   756.215E+03,   756.215E+03
C:/temp/Job-0.odb,Step-1,Increment      1: Step Time =    1.000,"P-0-1",           119,       84.7074,       104.141,            0.,NA,NA,"",   590.750E+03,   308.464E+03,   308.464E+03
C:/temp/Job-0.odb,Step-1,Increment      1: Step Time =    1.000,"P-0-1",           120,       115.588,       107.024,            0.,NA,NA,"",   853.290E+03,   688.023E+03,   688.023E+03
C:/temp/Job-0.odb,Step-1,Increment      1: Step Time =    1.000,"P-0-1",           121,       127.299,       106.500,            0.,NA,NA,"",   787.602E+03,   768.789E+03,   768.789E+03
C:/temp/Job-0.odb,Step-1,Increment      1: Step Time =    1.000,"P-0-1",           122,       136.605,       103.886,            0.,NA,NA,"",   816.572E+03,   827.010E+03,   827.010E+03
C:/temp/Job-0.odb,Step-1,Increment      1: Step Time =    1.000,"P-0-1",           123,       147.746,       105.848,            0.,NA,NA,"",   910.254E+03,   916.370E+03,   916.370E+03
C:/temp/Job-0.odb,Step-1,Increment      1: Step Time =    1.000,"P-0-1",           124,       158.090,       104.748,            0.,NA,NA,"",   942.313E+03,   949.220E+03,   949.220E+03
C:/temp/Job-0.odb,Step-1,Increment      1: Step Time =    1.000,"P-0-1",           125,       172.069,       105.202,            0.,NA,NA,"",   968.541E+03,   977.938E+03,   977.938E+03
C:/temp/Job-0.odb,Step-1,Increment      1: Step Time =    1.000,"P-0-1",           126,       180.483,       105.191,            0.,NA,NA,"",   975.699E+03,   988.331E+03,   988.331E+03
C:/temp/Job-0.odb,Step-1,Increment      1: Step Time =    1.000,"P-0-1",           127,       190.076,       105.139,            0.,NA,NA,"",   977.904E+03,   996.485E+03,   996.485E+03
C:/temp/Job-0.odb,Step-1,Increment      1: Step Time =    1.000,"P-0-1",           128,       115.289,       95.8640,            0.,NA,NA,"",   612.431E+03,   298.421E+03,   298.421E+03
C:/temp/Job-0.odb,Step-1,Increment      1: Step Time =    1.000,"P-0-1",           129,       127.480,       95.2252,            0.,NA,NA,"",   772.055E+03,   763.164E+03,   763.164E+03
C:/temp/Job-0.odb,Step-1,Increment      1: Step Time =    1.000,"P-0-1",           130,       137.763,       94.3289,            0.,NA,NA,"",   864.410E+03,   867.429E+03,   867.429E+03
C:/temp/Job-0.odb,Step-1,Increment      1: Step Time =    1.000,"P-0-1",           131,       145.127,       91.1362,            0.,NA,NA,"",   922.557E+03,   923.464E+03,   923.464E+03
C:/temp/Job-0.odb,Step-1,Increment      1: Step Time =    1.000,"P-0-1",           132,       156.623,       93.1199,            0.,NA,NA,"",   944.764E+03,   950.441E+03,   950.441E+03
C:/temp/Job-0.odb,Step-1,Increment      1: Step Time =    1.000,"P-0-1",           133,       169.873,       95.1005,            0.,NA,NA,"",   966.778E+03,   975.334E+03,   975.334E+03
C:/temp/Job-0.odb,Step-1,Increment      1: Step Time =    1.000,"P-0-1",           134,       180.505,       95.0927,            0.,NA,NA,"",   976.445E+03,   988.993E+03,   988.993E+03
C:/temp/Job-0.odb,Step-1,Increment      1: Step Time =    1.000,"P-0-1",           135,       190.218,       95.1267,            0.,NA,NA,"",   978.025E+03,   996.657E+03,   996.657E+03
C:/temp/Job-0.odb,Step-1,Increment      1: Step Time =    1.000,"P-0-1",           136,       10.3983,       84.8945,            0.,NA,NA,"",   814.462E+03,   910.288E+03,   910.288E+03
C:/temp/Job-0.odb,Step-1,Increment      1: Step Time =    1.000,"P-0-1",           137,       19.5578,       87.4846,            0.,NA,NA,"",   830.381E+03,   917.719E+03,   917.719E+03
C:/temp/Job-0.odb,Step-1,Increment      1: Step Time =    1.000,"P-0-1",           138,       53.5199,       86.0981,            0.,NA,NA,"",   888.411E+03,   928.722E+03,   928.722E+03
C:/temp/Job-0.odb,Step-1,Increment      1: Step Time =    1.000,"P-0-1",           139,       64.6622,       86.1077,            0.,NA,NA,"",   928.382E+03,   938.601E+03,   938.601E+03
C:/temp/Job-0.odb,Step-1,Increment      1: Step Time =    1.000,"P-0-1",           140,       72.8295,       82.4296,            0.,NA,NA,"",   1.05181E+06,   1.02508E+06,   1.02508E+06
C:/temp/Job-0.odb,Step-1,Increment      1: Step Time =    1.000,"P-0-1",           141,       83.9363,       82.5023,            0.,NA,NA,"",   1.25705E+06,   1.18728E+06,   1.18728E+06
C:/temp/Job-0.odb,Step-1,Increment      1: Step Time =    1.000,"P-0-1",           142,       96.1190,       83.4792,            0.,NA,NA,"",   1.48305E+06,   1.58291E+06,   1.58291E+06
C:/temp/Job-0.odb,Step-1,Increment      1: Step Time =    1.000,"P-0-1",           143,       117.169,       85.1734,            0.,NA,NA,"",   1.24773E+06,   1.13645E+06,   1.13645E+06
C:/temp/Job-0.odb,Step-1,Increment      1: Step Time =    1.000,"P-0-1",           144,       129.408,       85.5488,            0.,NA,NA,"",   1.01932E+06,   976.825E+03,   976.825E+03
C:/temp/Job-0.odb,Step-1,Increment      1: Step Time =    1.000,"P-0-1",           145,       135.820,       82.7208,            0.,NA,NA,"",   1.01339E+06,   984.972E+03,   984.972E+03
C:/temp/Job-0.odb,Step-1,Increment      1: Step Time =    1.000,"P-0-1",           146,       145.873,       85.2377,            0.,NA,NA,"",   963.775E+03,   956.640E+03,   956.640E+03
C:/temp/Job-0.odb,Step-1,Increment      1: Step Time =    1.000,"P-0-1",           147,       154.162,       85.5486,            0.,NA,NA,"",   967.998E+03,   966.511E+03,   966.511E+03
C:/temp/Job-0.odb,Step-1,Increment      1: Step Time =    1.000,"P-0-1",           148,       171.962,       84.6225,            0.,NA,NA,"",   981.199E+03,   987.290E+03,   987.290E+03
C:/temp/Job-0.odb,Step-1,Increment      1: Step Time =    1.000,"P-0-1",           149,       180.899,       85.2111,            0.,NA,NA,"",   982.543E+03,   993.075E+03,   993.075E+03
C:/temp/Job-0.odb,Step-1,Increment      1: Step Time =    1.000,"P-0-1",           150,       84.4081,       92.9757,            0.,NA,NA,"",   829.604E+03,   685.747E+03,   685.747E+03
C:/temp/Job-0.odb,Step-1,Increment      1: Step Time =    1.000,"P-0-1",           151,       72.6763,       93.5032,            0.,NA,NA,"",   752.976E+03,   760.901E+03,   760.901E+03
C:/temp/Job-0.odb,Step-1,Increment      1: Step Time =    1.000,"P-0-1",           152,       63.3054,       96.1639,            0.,NA,NA,"",   769.043E+03,   812.514E+03,   812.514E+03
C:/temp/Job-0.odb,Step-1,Increment      1: Step Time =    1.000,"P-0-1",           153,       51.9811,       94.2628,            0.,NA,NA,"",   839.135E+03,   891.184E+03,   891.184E+03
C:/temp/Job-0.odb,Step-1,Increment      1: Step Time =    1.000,"P-0-1",           154,       41.7624,       95.0881,            0.,NA,NA,"",   847.435E+03,   910.786E+03,   910.786E+03
C:/temp/Job-0.odb,Step-1,Increment      1: Step Time =    1.000,"P-0-1",           155,       29.0129,       95.2795,            0.,NA,NA,"",   838.769E+03,   916.599E+03,   916.599E+03
C:/temp/Job-0.odb,Step-1,Increment      1: Step Time =    1.000,"P-0-1",           156,       19.6117,       95.6668,            0.,NA,NA,"",   823.447E+03,   911.439E+03,   911.439E+03
C:/temp/Job-0.odb,Step-1,Increment      1: Step Time =    1.000,"P-0-1",           157,       10.0650,       95.1778,            0.,NA,NA,"",   805.722E+03,   902.072E+03,   902.072E+03
C:/temp/Job-0.odb,Step-1,Increment      1: Step Time =    1.000,"P-0-1",           158,       189.988,       10.1848,            0.,NA,NA,"",   999.973E+03,   999.836E+03,   999.836E+03
C:/temp/Job-0.odb,Step-1,Increment      1: Step Time =    1.000,"P-0-1",           159,       179.758,       10.4428,            0.,NA,NA,"",   999.747E+03,   999.495E+03,   999.495E+03
C:/temp/Job-0.odb,Step-1,Increment      1: Step Time =    1.000,"P-0-1",           160,       169.615,       10.3316,            0.,NA,NA,"",   999.089E+03,   998.576E+03,   998.576E+03
C:/temp/Job-0.odb,Step-1,Increment      1: Step Time =    1.000,"P-0-1",           161,       158.897,       10.7403,            0.,NA,NA,"",   997.387E+03,   996.510E+03,   996.510E+03
C:/temp/Job-0.odb,Step-1,Increment      1: Step Time =    1.000,"P-0-1",           162,       148.766,       13.2482,            0.,NA,NA,"",   996.878E+03,   995.428E+03,   995.428E+03
C:/temp/Job-0.odb,Step-1,Increment      1: Step Time =    1.000,"P-0-1",           163,       134.819,       9.43829,            0.,NA,NA,"",   982.061E+03,   981.598E+03,   981.598E+03
C:/temp/Job-0.odb,Step-1,Increment      1: Step Time =    1.000,"P-0-1",           164,       124.878,       9.72472,            0.,NA,NA,"",   973.519E+03,   973.619E+03,   973.619E+03
C:/temp/Job-0.odb,Step-1,Increment      1: Step Time =    1.000,"P-0-1",           165,       114.944,       9.95338,            0.,NA,NA,"",   965.482E+03,   966.258E+03,   966.258E+03
C:/temp/Job-0.odb,Step-1,Increment      1: Step Time =    1.000,"P-0-1",           166,       105.011,       9.98289,            0.,NA,NA,"",   959.485E+03,   960.816E+03,   960.816E+03
C:/temp/Job-0.odb,Step-1,Increment      1: Step Time =    1.000,"P-0-1",           167,       95.0817,       9.84607,            0.,NA,NA,"",   957.147E+03,   958.588E+03,   958.588E+03
C:/temp/Job-0.odb,Step-1,Increment      1: Step Time =    1.000,"P-0-1",           168,       85.2768,       9.59841,            0.,NA,NA,"",   958.948E+03,   960.075E+03,   960.075E+03
C:/temp/Job-0.odb,Step-1,Increment      1: Step Time =    1.000,"P-0-1",           169,       75.7058,       9.43359,            0.,NA,NA,"",   964.528E+03,   965.217E+03,   965.217E+03
C:/temp/Job-0.odb,Step-1,Increment      1: Step Time =    1.000,"P-0-1",           170,       66.4213,       10.1260,            0.,NA,NA,"",   975.347E+03,   975.868E+03,   975.868E+03
C:/temp/Job-0.odb,Step-1,Increment      1: Step Time =    1.000,"P-0-1",           171,       51.4697,       11.9253,            0.,NA,NA,"",   1.00069E+06,   1.00192E+06,   1.00192E+06
C:/temp/Job-0.odb,Step-1,Increment      1: Step Time =    1.000,"P-0-1",           172,       39.1891,       8.90278,            0.,NA,NA,"",   1.01290E+06,   1.01544E+06,   1.01544E+06
C:/temp/Job-0.odb,Step-1,Increment      1: Step Time =    1.000,"P-0-1",           173,       29.9656,       8.70596,            0.,NA,NA,"",   1.04241E+06,   1.04730E+06,   1.04730E+06
C:/temp/Job-0.odb,Step-1,Increment      1: Step Time =    1.000,"P-0-1",           174,       20.3185,       9.08867,            0.,NA,NA,"",   1.09609E+06,   1.10814E+06,   1.10814E+06
C:/temp/Job-0.odb,Step-1,Increment      1: Step Time =    1.000,"P-0-1",           175,       10.2947,       9.82774,            0.,NA,NA,"",   1.18179E+06,   1.21994E+06,   1.21994E+06
C:/temp/Job-0.odb,Step-1,Increment      1: Step Time =    1.000,"P-0-1",           176,       191.005,       24.7095,            0.,NA,NA,"",   1.00080E+06,   1.00055E+06,   1.00055E+06
C:/temp/Job-0.odb,Step-1,Increment      1: Step Time =    1.000,"P-0-1",           177,       179.610,       21.9916,            0.,NA,NA,"",   1.00266E+06,   1.00185E+06,   1.00185E+06
C:/temp/Job-0.odb,Step-1,Increment      1: Step Time =    1.000,"P-0-1",           178,       169.050,       20.3208,            0.,NA,NA,"",   1.00443E+06,   1.00275E+06,   1.00275E+06
C:/temp/Job-0.odb,Step-1,Increment      1: Step Time =    1.000,"P-0-1",           179,       159.406,       24.9163,            0.,NA,NA,"",   1.01053E+06,   1.00712E+06,   1.00712E+06
C:/temp/Job-0.odb,Step-1,Increment      1: Step Time =    1.000,"P-0-1",           180,       145.087,       19.4035,            0.,NA,NA,"",   1.00361E+06,   1.00105E+06,   1.00105E+06
C:/temp/Job-0.odb,Step-1,Increment      1: Step Time =    1.000,"P-0-1",           181,       134.579,       18.7713,            0.,NA,NA,"",   998.434E+03,   996.980E+03,   996.980E+03
C:/temp/Job-0.odb,Step-1,Increment      1: Step Time =    1.000,"P-0-1",           182,       124.866,       19.5299,            0.,NA,NA,"",   993.209E+03,   993.556E+03,   993.556E+03
C:/temp/Job-0.odb,Step-1,Increment      1: Step Time =    1.000,"P-0-1",           183,       114.839,       20.1577,            0.,NA,NA,"",   987.248E+03,   989.997E+03,   989.997E+03
C:/temp/Job-0.odb,Step-1,Increment      1: Step Time =    1.000,"P-0-1",           184,       104.802,       20.0951,            0.,NA,NA,"",   982.384E+03,   986.977E+03,   986.977E+03
C:/temp/Job-0.odb,Step-1,Increment      1: Step Time =    1.000,"P-0-1",           185,       94.8876,       19.8427,            0.,NA,NA,"",   981.849E+03,   986.798E+03,   986.798E+03
C:/temp/Job-0.odb,Step-1,Increment      1: Step Time =    1.000,"P-0-1",           186,       85.2403,       19.5270,            0.,NA,NA,"",   986.155E+03,   990.090E+03,   990.090E+03
C:/temp/Job-0.odb,Step-1,Increment      1: Step Time =    1.000,"P-0-1",           187,       76.0222,       19.0043,            0.,NA,NA,"",   993.146E+03,   995.632E+03,   995.632E+03
C:/temp/Job-0.odb,Step-1,Increment      1: Step Time =    1.000,"P-0-1",           188,       66.0801,       21.3878,            0.,NA,NA,"",   1.00877E+06,   1.01100E+06,   1.01100E+06
C:/temp/Job-0.odb,Step-1,Increment      1: Step Time =    1.000,"P-0-1",           189,       52.6845,       22.2563,            0.,NA,NA,"",   1.02424E+06,   1.02899E+06,   1.02899E+06
C:/temp/Job-0.odb,Step-1,Increment      1: Step Time =    1.000,"P-0-1",           190,       41.3428,       18.1640,            0.,NA,NA,"",   1.03127E+06,   1.03917E+06,   1.03917E+06
C:/temp/Job-0.odb,Step-1,Increment      1: Step Time =    1.000,"P-0-1",           191,       30.3232,       21.6182,            0.,NA,NA,"",   1.04867E+06,   1.07028E+06,   1.07028E+06
C:/temp/Job-0.odb,Step-1,Increment      1: Step Time =    1.000,"P-0-1",           192,       21.9503,       21.6250,            0.,NA,NA,"",   1.05090E+06,   1.08951E+06,   1.08951E+06
C:/temp/Job-0.odb,Step-1,Increment      1: Step Time =    1.000,"P-0-1",           193,       11.4880,       20.6306,            0.,NA,NA,"",   1.03527E+06,   1.10384E+06,   1.10384E+06
C:/temp/Job-0.odb,Step-1,Increment      1: Step Time =    1.000,"P-0-1",           194,       191.533,       33.7530,            0.,NA,NA,"",   1.00079E+06,   1.00099E+06,   1.00099E+06
C:/temp/Job-0.odb,Step-1,Increment      1: Step Time =    1.000,"P-0-1",           195,       180.200,       32.3448,            0.,NA,NA,"",   1.00508E+06,   1.00407E+06,   1.00407E+06
C:/temp/Job-0.odb,Step-1,Increment      1: Step Time =    1.000,"P-0-1",           196,       171.061,       34.8775,            0.,NA,NA,"",   1.01221E+06,   1.00904E+06,   1.00904E+06
C:/temp/Job-0.odb,Step-1,Increment      1: Step Time =    1.000,"P-0-1",           197,       160.194,       33.2823,            0.,NA,NA,"",   1.01909E+06,   1.01378E+06,   1.01378E+06
C:/temp/Job-0.odb,Step-1,Increment      1: Step Time =    1.000,"P-0-1",           198,       146.622,       32.9676,            0.,NA,NA,"",   1.02593E+06,   1.01939E+06,   1.01939E+06
C:/temp/Job-0.odb,Step-1,Increment      1: Step Time =    1.000,"P-0-1",           199,       138.216,       32.2323,            0.,NA,NA,"",   1.02617E+06,   1.02082E+06,   1.02082E+06
C:/temp/Job-0.odb,Step-1,Increment      1: Step Time =    1.000,"P-0-1",           200,       125.829,       30.1028,            0.,NA,NA,"",   1.01543E+06,   1.01529E+06,   1.01529E+06
C:/temp/Job-0.odb,Step-1,Increment      1: Step Time =    1.000,"P-0-1",           201,       114.838,       30.7182,            0.,NA,NA,"",   1.00651E+06,   1.01227E+06,   1.01227E+06
C:/temp/Job-0.odb,Step-1,Increment      1: Step Time =    1.000,"P-0-1",           202,       104.072,       29.6689,            0.,NA,NA,"",   998.006E+03,   1.00736E+06,   1.00736E+06
C:/temp/Job-0.odb,Step-1,Increment      1: Step Time =    1.000,"P-0-1",           203,       94.6281,       29.6014,            0.,NA,NA,"",   999.108E+03,   1.00916E+06,   1.00916E+06
C:/temp/Job-0.odb,Step-1,Increment      1: Step Time =    1.000,"P-0-1",           204,       84.5979,       29.7846,            0.,NA,NA,"",   1.00791E+06,   1.01603E+06,   1.01603E+06
C:/temp/Job-0.odb,Step-1,Increment      1: Step Time =    1.000,"P-0-1",           205,       74.4361,       33.6666,            0.,NA,NA,"",   1.02734E+06,   1.03333E+06,   1.03333E+06
C:/temp/Job-0.odb,Step-1,Increment      1: Step Time =    1.000,"P-0-1",           206,       64.7309,       32.6719,            0.,NA,NA,"",   1.03306E+06,   1.03815E+06,   1.03815E+06
C:/temp/Job-0.odb,Step-1,Increment      1: Step Time =    1.000,"P-0-1",           207,       54.4836,       32.2427,            0.,NA,NA,"",   1.03494E+06,   1.04323E+06,   1.04323E+06
C:/temp/Job-0.odb,Step-1,Increment      1: Step Time =    1.000,"P-0-1",           208,       42.5386,       27.9477,            0.,NA,NA,"",   1.03452E+06,   1.04955E+06,   1.04955E+06
C:/temp/Job-0.odb,Step-1,Increment      1: Step Time =    1.000,"P-0-1",           209,       30.7747,       29.6430,            0.,NA,NA,"",   1.02647E+06,   1.05959E+06,   1.05959E+06
C:/temp/Job-0.odb,Step-1,Increment      1: Step Time =    1.000,"P-0-1",           210,       22.0890,       31.2362,            0.,NA,NA,"",   1.00102E+06,   1.05487E+06,   1.05487E+06
C:/temp/Job-0.odb,Step-1,Increment      1: Step Time =    1.000,"P-0-1",           211,       9.55524,       35.4538,            0.,NA,NA,"",   933.538E+03,   1.02264E+06,   1.02264E+06
C:/temp/Job-0.odb,Step-1,Increment      1: Step Time =    1.000,"P-0-1",           212,       190.257,       42.4694,            0.,NA,NA,"",   1.00033E+06,   1.00167E+06,   1.00167E+06
C:/temp/Job-0.odb,Step-1,Increment      1: Step Time =    1.000,"P-0-1",           213,       177.246,       40.9422,            0.,NA,NA,"",   1.00913E+06,   1.00737E+06,   1.00737E+06
C:/temp/Job-0.odb,Step-1,Increment      1: Step Time =    1.000,"P-0-1",           214,       170.141,       44.9015,            0.,NA,NA,"",   1.01650E+06,   1.01242E+06,   1.01242E+06
C:/temp/Job-0.odb,Step-1,Increment      1: Step Time =    1.000,"P-0-1",           215,       159.864,       41.4233,            0.,NA,NA,"",   1.02677E+06,   1.01950E+06,   1.01950E+06
C:/temp/Job-0.odb,Step-1,Increment      1: Step Time =    1.000,"P-0-1",           216,       146.072,       39.3001,            0.,NA,NA,"",   1.03674E+06,   1.02785E+06,   1.02785E+06
C:/temp/Job-0.odb,Step-1,Increment      1: Step Time =    1.000,"P-0-1",           217,       136.830,       40.3291,            0.,NA,NA,"",   1.04342E+06,   1.03527E+06,   1.03527E+06
C:/temp/Job-0.odb,Step-1,Increment      1: Step Time =    1.000,"P-0-1",           218,       125.701,       39.4394,            0.,NA,NA,"",   1.03601E+06,   1.03478E+06,   1.03478E+06
C:/temp/Job-0.odb,Step-1,Increment      1: Step Time =    1.000,"P-0-1",           219,       116.502,       44.8514,            0.,NA,NA,"",   1.03624E+06,   1.04475E+06,   1.04475E+06
C:/temp/Job-0.odb,Step-1,Increment      1: Step Time =    1.000,"P-0-1",           220,       105.387,       38.4506,            0.,NA,NA,"",   1.00974E+06,   1.02486E+06,   1.02486E+06
C:/temp/Job-0.odb,Step-1,Increment      1: Step Time =    1.000,"P-0-1",           221,       86.2168,       40.5529,            0.,NA,NA,"",   1.02387E+06,   1.03842E+06,   1.03842E+06
C:/temp/Job-0.odb,Step-1,Increment      1: Step Time =    1.000,"P-0-1",           222,       71.6750,       44.2393,            0.,NA,NA,"",   1.05078E+06,   1.05745E+06,   1.05745E+06
C:/temp/Job-0.odb,Step-1,Increment      1: Step Time =    1.000,"P-0-1",           223,       63.8055,       43.4220,            0.,NA,NA,"",   1.04904E+06,   1.05604E+06,   1.05604E+06
C:/temp/Job-0.odb,Step-1,Increment      1: Step Time =    1.000,"P-0-1",           224,       50.3046,       42.5025,            0.,NA,NA,"",   1.03253E+06,   1.04946E+06,   1.04946E+06
C:/temp/Job-0.odb,Step-1,Increment      1: Step Time =    1.000,"P-0-1",           225,       40.4327,       39.5824,            0.,NA,NA,"",   1.01852E+06,   1.04641E+06,   1.04641E+06
C:/temp/Job-0.odb,Step-1,Increment      1: Step Time =    1.000,"P-0-1",           226,       30.3575,       40.5020,            0.,NA,NA,"",   992.552E+03,   1.03908E+06,   1.03908E+06
C:/temp/Job-0.odb,Step-1,Increment      1: Step Time =    1.000,"P-0-1",           227,       20.0633,       43.6661,            0.,NA,NA,"",   946.693E+03,   1.01734E+06,   1.01734E+06
C:/temp/Job-0.odb,Step-1,Increment      1: Step Time =    1.000,"P-0-1",           228,       10.9707,       45.5462,            0.,NA,NA,"",   903.263E+03,   992.925E+03,   992.925E+03
C:/temp/Job-0.odb,Step-1,Increment      1: Step Time =    1.000,"P-0-1",           229,       186.874,       50.5153,            0.,NA,NA,"",   1.00107E+06,   1.00323E+06,   1.00323E+06
C:/temp/Job-0.odb,Step-1,Increment      1: Step Time =    1.000,"P-0-1",           230,       176.332,       52.8382,            0.,NA,NA,"",   1.00969E+06,   1.00847E+06,   1.00847E+06
C:/temp/Job-0.odb,Step-1,Increment      1: Step Time =    1.000,"P-0-1",           231,       167.227,       55.3660,            0.,NA,NA,"",   1.02029E+06,   1.01491E+06,   1.01491E+06
C:/temp/Job-0.odb,Step-1,Increment      1: Step Time =    1.000,"P-0-1",           232,       156.957,       51.6988,            0.,NA,NA,"",   1.03712E+06,   1.02640E+06,   1.02640E+06
C:/temp/Job-0.odb,Step-1,Increment      1: Step Time =    1.000,"P-0-1",           233,       146.676,       52.3985,            0.,NA,NA,"",   1.05565E+06,   1.04054E+06,   1.04054E+06
C:/temp/Job-0.odb,Step-1,Increment      1: Step Time =    1.000,"P-0-1",           234,       135.699,       50.9585,            0.,NA,NA,"",   1.07021E+06,   1.05562E+06,   1.05562E+06
C:/temp/Job-0.odb,Step-1,Increment      1: Step Time =    1.000,"P-0-1",           235,       125.432,       53.8826,            0.,NA,NA,"",   1.08034E+06,   1.07222E+06,   1.07222E+06
C:/temp/Job-0.odb,Step-1,Increment      1: Step Time =    1.000,"P-0-1",           236,       115.467,       53.8083,            0.,NA,NA,"",   1.05674E+06,   1.06819E+06,   1.06819E+06
C:/temp/Job-0.odb,Step-1,Increment      1: Step Time =    1.000,"P-0-1",           237,       103.910,       52.7165,            0.,NA,NA,"",   1.02436E+06,   1.05441E+06,   1.05441E+06
C:/temp/Job-0.odb,Step-1,Increment      1: Step Time =    1.000,"P-0-1",           238,       96.7285,       53.7380,            0.,NA,NA,"",   1.02233E+06,   1.05727E+06,   1.05727E+06
C:/temp/Job-0.odb,Step-1,Increment      1: Step Time =    1.000,"P-0-1",           239,       85.7048,       51.7712,            0.,NA,NA,"",   1.04633E+06,   1.06613E+06,   1.06613E+06
C:/temp/Job-0.odb,Step-1,Increment      1: Step Time =    1.000,"P-0-1",           240,       72.7933,       49.3197,            0.,NA,NA,"",   1.06017E+06,   1.06686E+06,   1.06686E+06
C:/temp/Job-0.odb,Step-1,Increment      1: Step Time =    1.000,"P-0-1",           241,       61.2452,       52.1875,            0.,NA,NA,"",   1.05390E+06,   1.06234E+06,   1.06234E+06
C:/temp/Job-0.odb,Step-1,Increment      1: Step Time =    1.000,"P-0-1",           242,       55.2731,       51.8966,            0.,NA,NA,"",   1.03839E+06,   1.05290E+06,   1.05290E+06
C:/temp/Job-0.odb,Step-1,Increment      1: Step Time =    1.000,"P-0-1",           243,       42.6348,       52.4012,            0.,NA,NA,"",   999.131E+03,   1.03261E+06,   1.03261E+06
C:/temp/Job-0.odb,Step-1,Increment      1: Step Time =    1.000,"P-0-1",           244,       33.8776,       52.4873,            0.,NA,NA,"",   968.524E+03,   1.01810E+06,   1.01810E+06
C:/temp/Job-0.odb,Step-1,Increment      1: Step Time =    1.000,"P-0-1",           245,       20.5872,       52.5242,            0.,NA,NA,"",   919.417E+03,   994.050E+03,   994.050E+03
C:/temp/Job-0.odb,Step-1,Increment      1: Step Time =    1.000,"P-0-1",           246,       10.1564,       50.7441,            0.,NA,NA,"",   884.333E+03,   976.874E+03,   976.874E+03
C:/temp/Job-0.odb,Step-1,Increment      1: Step Time =    1.000,"P-0-1",           247,       189.761,       66.3368,            0.,NA,NA,"",   992.241E+03,   1.00072E+06,   1.00072E+06
C:/temp/Job-0.odb,Step-1,Increment      1: Step Time =    1.000,"P-0-1",           248,       178.665,       66.0605,            0.,NA,NA,"",   1.00038E+06,   1.00333E+06,   1.00333E+06
C:/temp/Job-0.odb,Step-1,Increment      1: Step Time =    1.000,"P-0-1",           249,       167.702,       65.0706,            0.,NA,NA,"",   1.01306E+06,   1.00924E+06,   1.00924E+06
C:/temp/Job-0.odb,Step-1,Increment      1: Step Time =    1.000,"P-0-1",           250,       157.985,       63.9298,            0.,NA,NA,"",   1.02991E+06,   1.01930E+06,   1.01930E+06
C:/temp/Job-0.odb,Step-1,Increment      1: Step Time =    1.000,"P-0-1",           251,       148.126,       61.4347,            0.,NA,NA,"",   1.05568E+06,   1.03767E+06,   1.03767E+06
C:/temp/Job-0.odb,Step-1,Increment      1: Step Time =    1.000,"P-0-1",           252,       140.963,       63.4116,            0.,NA,NA,"",   1.07564E+06,   1.05256E+06,   1.05256E+06
C:/temp/Job-0.odb,Step-1,Increment      1: Step Time =    1.000,"P-0-1",           253,       131.109,       66.6222,            0.,NA,NA,"",   1.11526E+06,   1.08451E+06,   1.08451E+06
C:/temp/Job-0.odb,Step-1,Increment      1: Step Time =    1.000,"P-0-1",           254,       111.816,       60.5746,            0.,NA,NA,"",   1.06703E+06,   1.09042E+06,   1.09042E+06
C:/temp/Job-0.odb,Step-1,Increment      1: Step Time =    1.000,"P-0-1",           255,       104.831,       62.9741,            0.,NA,NA,"",   1.04243E+06,   1.08895E+06,   1.08895E+06
C:/temp/Job-0.odb,Step-1,Increment      1: Step Time =    1.000,"P-0-1",           256,       96.0035,       62.5822,            0.,NA,NA,"",   1.03822E+06,   1.08813E+06,   1.08813E+06
C:/temp/Job-0.odb,Step-1,Increment      1: Step Time =    1.000,"P-0-1",           257,       83.9731,       63.5871,            0.,NA,NA,"",   1.10306E+06,   1.11705E+06,   1.11705E+06
C:/temp/Job-0.odb,Step-1,Increment      1: Step Time =    1.000,"P-0-1",           258,       73.3147,       61.2933,            0.,NA,NA,"",   1.09305E+06,   1.09288E+06,   1.09288E+06
C:/temp/Job-0.odb,Step-1,Increment      1: Step Time =    1.000,"P-0-1",           259,       64.3032,       63.5285,            0.,NA,NA,"",   1.06658E+06,   1.06919E+06,   1.06919E+06
C:/temp/Job-0.odb,Step-1,Increment      1: Step Time =    1.000,"P-0-1",           260,       51.7778,       65.3069,            0.,NA,NA,"",   1.00155E+06,   1.02572E+06,   1.02572E+06
C:/temp/Job-0.odb,Step-1,Increment      1: Step Time =    1.000,"P-0-1",           261,       33.0729,       60.2090,            0.,NA,NA,"",   940.779E+03,   997.579E+03,   997.579E+03
C:/temp/Job-0.odb,Step-1,Increment      1: Step Time =    1.000,"P-0-1",           262,       23.1718,       65.7503,            0.,NA,NA,"",   890.481E+03,   966.751E+03,   966.751E+03
C:/temp/Job-0.odb,Step-1,Increment      1: Step Time =    1.000,"P-0-1",           263,       9.45214,       65.1871,            0.,NA,NA,"",   846.547E+03,   942.041E+03,   942.041E+03
C:/temp/Job-0.odb,Step-1,Increment      1: Step Time =    1.000,"P-0-1",           264,       190.565,       75.6440,            0.,NA,NA,"",   986.482E+03,   999.401E+03,   999.401E+03
C:/temp/Job-0.odb,Step-1,Increment      1: Step Time =    1.000,"P-0-1",           265,       181.289,       75.8758,            0.,NA,NA,"",   990.686E+03,   998.259E+03,   998.259E+03
C:/temp/Job-0.odb,Step-1,Increment      1: Step Time =    1.000,"P-0-1",           266,       167.459,       74.8520,            0.,NA,NA,"",   998.384E+03,   997.862E+03,   997.862E+03
C:/temp/Job-0.odb,Step-1,Increment      1: Step Time =    1.000,"P-0-1",           267,       156.161,       73.2312,            0.,NA,NA,"",   1.01418E+06,   1.00488E+06,   1.00488E+06
C:/temp/Job-0.odb,Step-1,Increment      1: Step Time =    1.000,"P-0-1",           268,       148.198,       72.8124,            0.,NA,NA,"",   1.03413E+06,   1.01687E+06,   1.01687E+06
C:/temp/Job-0.odb,Step-1,Increment      1: Step Time =    1.000,"P-0-1",           269,       136.346,       76.9883,            0.,NA,NA,"",   1.06689E+06,   1.03363E+06,   1.03363E+06
C:/temp/Job-0.odb,Step-1,Increment      1: Step Time =    1.000,"P-0-1",           270,       127.390,       72.5390,            0.,NA,NA,"",   1.14081E+06,   1.09826E+06,   1.09826E+06
C:/temp/Job-0.odb,Step-1,Increment      1: Step Time =    1.000,"P-0-1",           271,       118.628,       74.2516,            0.,NA,NA,"",   1.21390E+06,   1.17418E+06,   1.17418E+06
C:/temp/Job-0.odb,Step-1,Increment      1: Step Time =    1.000,"P-0-1",           272,       104.859,       71.5832,            0.,NA,NA,"",   1.08041E+06,   1.14744E+06,   1.14744E+06
C:/temp/Job-0.odb,Step-1,Increment      1: Step Time =    1.000,"P-0-1",           273,       95.4079,       72.3093,            0.,NA,NA,"",   1.08159E+06,   1.15608E+06,   1.15608E+06
C:/temp/Job-0.odb,Step-1,Increment      1: Step Time =    1.000,"P-0-1",           274,       80.5883,       71.6526,            0.,NA,NA,"",   1.16118E+06,   1.14643E+06,   1.14643E+06
C:/temp/Job-0.odb,Step-1,Increment      1: Step Time =    1.000,"P-0-1",           275,       74.6306,       70.3271,            0.,NA,NA,"",   1.12358E+06,   1.11155E+06,   1.11155E+06
C:/temp/Job-0.odb,Step-1,Increment      1: Step Time =    1.000,"P-0-1",           276,       64.3651,       73.3568,            0.,NA,NA,"",   1.04492E+06,   1.04493E+06,   1.04493E+06
C:/temp/Job-0.odb,Step-1,Increment      1: Step Time =    1.000,"P-0-1",           277,       52.3345,       73.4983,            0.,NA,NA,"",   971.848E+03,   999.571E+03,   999.571E+03
C:/temp/Job-0.odb,Step-1,Increment      1: Step Time =    1.000,"P-0-1",           278,       41.5049,       72.3416,            0.,NA,NA,"",   929.761E+03,   979.168E+03,   979.168E+03
C:/temp/Job-0.odb,Step-1,Increment      1: Step Time =    1.000,"P-0-1",           279,       29.2851,       73.2126,            0.,NA,NA,"",   888.925E+03,   958.919E+03,   958.919E+03
C:/temp/Job-0.odb,Step-1,Increment      1: Step Time =    1.000,"P-0-1",           280,       19.2540,       74.3574,            0.,NA,NA,"",   855.415E+03,   940.266E+03,   940.266E+03
C:/temp/Job-0.odb,Step-1,Increment      1: Step Time =    1.000,"P-0-1",           281,       9.72501,       74.8438,            0.,NA,NA,"",   828.409E+03,   924.248E+03,   924.248E+03
C:/temp/Job-0.odb,Step-1,Increment      1: Step Time =    1.000,"P-0-1",           282,       190.356,       125.298,            0.,NA,NA,"",   986.859E+03,   999.499E+03,   999.499E+03
C:/temp/Job-0.odb,Step-1,Increment      1: Step Time =    1.000,"P-0-1",           283,       180.833,       126.001,            0.,NA,NA,"",   991.995E+03,   998.839E+03,   998.839E+03
C:/temp/Job-0.odb,Step-1,Increment      1: Step Time =    1.000,"P-0-1",           284,       167.961,       124.452,            0.,NA,NA,"",   996.609E+03,   996.771E+03,   996.771E+03
C:/temp/Job-0.odb,Step-1,Increment      1: Step Time =    1.000,"P-0-1",           285,       155.426,       126.858,            0.,NA,NA,"",   1.01553E+06,   1.00545E+06,   1.00545E+06
C:/temp/Job-0.odb,Step-1,Increment      1: Step Time =    1.000,"P-0-1",           286,       146.800,       126.162,            0.,NA,NA,"",   1.03389E+06,   1.01525E+06,   1.01525E+06
C:/temp/Job-0.odb,Step-1,Increment      1: Step Time =    1.000,"P-0-1",           287,       135.540,       126.598,            0.,NA,NA,"",   1.08793E+06,   1.05357E+06,   1.05357E+06
C:/temp/Job-0.odb,Step-1,Increment      1: Step Time =    1.000,"P-0-1",           288,       125.369,       129.680,            0.,NA,NA,"",   1.14693E+06,   1.11347E+06,   1.11347E+06
C:/temp/Job-0.odb,Step-1,Increment      1: Step Time =    1.000,"P-0-1",           289,       119.384,       128.353,            0.,NA,NA,"",   1.17927E+06,   1.14833E+06,   1.14833E+06
C:/temp/Job-0.odb,Step-1,Increment      1: Step Time =    1.000,"P-0-1",           290,       104.509,       127.655,            0.,NA,NA,"",   1.08261E+06,   1.15542E+06,   1.15542E+06
C:/temp/Job-0.odb,Step-1,Increment      1: Step Time =    1.000,"P-0-1",           291,       95.0879,       128.402,            0.,NA,NA,"",   1.07924E+06,   1.14879E+06,   1.14879E+06
C:/temp/Job-0.odb,Step-1,Increment      1: Step Time =    1.000,"P-0-1",           292,       81.4454,       125.763,            0.,NA,NA,"",   1.19651E+06,   1.17294E+06,   1.17294E+06
C:/temp/Job-0.odb,Step-1,Increment      1: Step Time =    1.000,"P-0-1",           293,       72.9927,       127.569,            0.,NA,NA,"",   1.11469E+06,   1.09711E+06,   1.09711E+06
C:/temp/Job-0.odb,Step-1,Increment      1: Step Time =    1.000,"P-0-1",           294,       63.7322,       123.947,            0.,NA,NA,"",   1.02775E+06,   1.02923E+06,   1.02923E+06
C:/temp/Job-0.odb,Step-1,Increment      1: Step Time =    1.000,"P-0-1",           295,       51.5751,       127.827,            0.,NA,NA,"",   975.964E+03,   1.00457E+06,   1.00457E+06
C:/temp/Job-0.odb,Step-1,Increment      1: Step Time =    1.000,"P-0-1",           296,       43.5017,       125.958,            0.,NA,NA,"",   930.061E+03,   977.255E+03,   977.255E+03
C:/temp/Job-0.odb,Step-1,Increment      1: Step Time =    1.000,"P-0-1",           297,       30.3244,       126.377,            0.,NA,NA,"",   890.833E+03,   959.561E+03,   959.561E+03
C:/temp/Job-0.odb,Step-1,Increment      1: Step Time =    1.000,"P-0-1",           298,       19.2462,       124.401,            0.,NA,NA,"",   852.781E+03,   938.049E+03,   938.049E+03
C:/temp/Job-0.odb,Step-1,Increment      1: Step Time =    1.000,"P-0-1",           299,       9.59032,       124.636,            0.,NA,NA,"",   827.168E+03,   923.316E+03,   923.316E+03
C:/temp/Job-0.odb,Step-1,Increment      1: Step Time =    1.000,"P-0-1",           300,       190.897,       135.122,            0.,NA,NA,"",   992.353E+03,   1.00087E+06,   1.00087E+06
C:/temp/Job-0.odb,Step-1,Increment      1: Step Time =    1.000,"P-0-1",           301,       182.412,       135.695,            0.,NA,NA,"",   998.435E+03,   1.00278E+06,   1.00278E+06
C:/temp/Job-0.odb,Step-1,Increment      1: Step Time =    1.000,"P-0-1",           302,       168.955,       134.377,            0.,NA,NA,"",   1.01039E+06,   1.00770E+06,   1.00770E+06
C:/temp/Job-0.odb,Step-1,Increment      1: Step Time =    1.000,"P-0-1",           303,       157.158,       133.562,            0.,NA,NA,"",   1.02688E+06,   1.01619E+06,   1.01619E+06
C:/temp/Job-0.odb,Step-1,Increment      1: Step Time =    1.000,"P-0-1",           304,       147.537,       134.368,            0.,NA,NA,"",   1.05296E+06,   1.03376E+06,   1.03376E+06
C:/temp/Job-0.odb,Step-1,Increment      1: Step Time =    1.000,"P-0-1",           305,       135.751,       136.356,            0.,NA,NA,"",   1.09520E+06,   1.06913E+06,   1.06913E+06
C:/temp/Job-0.odb,Step-1,Increment      1: Step Time =    1.000,"P-0-1",           306,       126.725,       138.699,            0.,NA,NA,"",   1.10911E+06,   1.08996E+06,   1.08996E+06
C:/temp/Job-0.odb,Step-1,Increment      1: Step Time =    1.000,"P-0-1",           307,       115.921,       136.414,            0.,NA,NA,"",   1.11023E+06,   1.11448E+06,   1.11448E+06
C:/temp/Job-0.odb,Step-1,Increment      1: Step Time =    1.000,"P-0-1",           308,       103.009,       137.695,            0.,NA,NA,"",   1.03481E+06,   1.08525E+06,   1.08525E+06
C:/temp/Job-0.odb,Step-1,Increment      1: Step Time =    1.000,"P-0-1",           309,       95.1850,       136.968,            0.,NA,NA,"",   1.04262E+06,   1.09064E+06,   1.09064E+06
C:/temp/Job-0.odb,Step-1,Increment      1: Step Time =    1.000,"P-0-1",           310,       88.0394,       139.021,            0.,NA,NA,"",   1.06520E+06,   1.09474E+06,   1.09474E+06
C:/temp/Job-0.odb,Step-1,Increment      1: Step Time =    1.000,"P-0-1",           311,       69.5489,       133.387,            0.,NA,NA,"",   1.09192E+06,   1.08619E+06,   1.08619E+06
C:/temp/Job-0.odb,Step-1,Increment      1: Step Time =    1.000,"P-0-1",           312,       59.4371,       135.635,            0.,NA,NA,"",   1.04086E+06,   1.05073E+06,   1.05073E+06
C:/temp/Job-0.odb,Step-1,Increment      1: Step Time =    1.000,"P-0-1",           313,       51.5953,       138.705,            0.,NA,NA,"",   1.01134E+06,   1.03444E+06,   1.03444E+06
C:/temp/Job-0.odb,Step-1,Increment      1: Step Time =    1.000,"P-0-1",           314,       43.5348,       136.490,            0.,NA,NA,"",   972.909E+03,   1.01157E+06,   1.01157E+06
C:/temp/Job-0.odb,Step-1,Increment      1: Step Time =    1.000,"P-0-1",           315,       33.7275,       136.206,            0.,NA,NA,"",   935.054E+03,   991.789E+03,   991.789E+03
C:/temp/Job-0.odb,Step-1,Increment      1: Step Time =    1.000,"P-0-1",           316,       19.1891,       132.432,            0.,NA,NA,"",   873.382E+03,   956.091E+03,   956.091E+03
C:/temp/Job-0.odb,Step-1,Increment      1: Step Time =    1.000,"P-0-1",           317,       10.0088,       133.975,            0.,NA,NA,"",   846.652E+03,   941.599E+03,   941.599E+03
C:/temp/Job-0.odb,Step-1,Increment      1: Step Time =    1.000,"P-0-1",           318,       186.908,       148.661,            0.,NA,NA,"",   1.00093E+06,   1.00327E+06,   1.00327E+06
C:/temp/Job-0.odb,Step-1,Increment      1: Step Time =    1.000,"P-0-1",           319,       180.960,       144.569,            0.,NA,NA,"",   1.00396E+06,   1.00541E+06,   1.00541E+06
C:/temp/Job-0.odb,Step-1,Increment      1: Step Time =    1.000,"P-0-1",           320,       165.909,       145.172,            0.,NA,NA,"",   1.02238E+06,   1.01619E+06,   1.01619E+06
C:/temp/Job-0.odb,Step-1,Increment      1: Step Time =    1.000,"P-0-1",           321,       159.276,       146.610,            0.,NA,NA,"",   1.03364E+06,   1.02388E+06,   1.02388E+06
C:/temp/Job-0.odb,Step-1,Increment      1: Step Time =    1.000,"P-0-1",           322,       145.810,       147.549,            0.,NA,NA,"",   1.05726E+06,   1.04199E+06,   1.04199E+06
C:/temp/Job-0.odb,Step-1,Increment      1: Step Time =    1.000,"P-0-1",           323,       139.138,       147.562,            0.,NA,NA,"",   1.06826E+06,   1.05233E+06,   1.05233E+06
C:/temp/Job-0.odb,Step-1,Increment      1: Step Time =    1.000,"P-0-1",           324,       127.108,       150.477,            0.,NA,NA,"",   1.06537E+06,   1.05850E+06,   1.05850E+06
C:/temp/Job-0.odb,Step-1,Increment      1: Step Time =    1.000,"P-0-1",           325,       114.296,       148.175,            0.,NA,NA,"",   1.04880E+06,   1.06189E+06,   1.06189E+06
C:/temp/Job-0.odb,Step-1,Increment      1: Step Time =    1.000,"P-0-1",           326,       103.590,       148.403,            0.,NA,NA,"",   1.02137E+06,   1.05140E+06,   1.05140E+06
C:/temp/Job-0.odb,Step-1,Increment      1: Step Time =    1.000,"P-0-1",           327,       94.9980,       145.851,            0.,NA,NA,"",   1.02683E+06,   1.06050E+06,   1.06050E+06
C:/temp/Job-0.odb,Step-1,Increment      1: Step Time =    1.000,"P-0-1",           328,       84.9322,       145.663,            0.,NA,NA,"",   1.05444E+06,   1.07473E+06,   1.07473E+06
C:/temp/Job-0.odb,Step-1,Increment      1: Step Time =    1.000,"P-0-1",           329,       74.9528,       145.788,            0.,NA,NA,"",   1.07330E+06,   1.07989E+06,   1.07989E+06
C:/temp/Job-0.odb,Step-1,Increment      1: Step Time =    1.000,"P-0-1",           330,       64.5014,       148.723,            0.,NA,NA,"",   1.05990E+06,   1.06613E+06,   1.06613E+06
C:/temp/Job-0.odb,Step-1,Increment      1: Step Time =    1.000,"P-0-1",           331,       43.3529,       147.248,            0.,NA,NA,"",   999.973E+03,   1.03284E+06,   1.03284E+06
C:/temp/Job-0.odb,Step-1,Increment      1: Step Time =    1.000,"P-0-1",           332,       32.0125,       147.321,            0.,NA,NA,"",   961.820E+03,   1.01504E+06,   1.01504E+06
C:/temp/Job-0.odb,Step-1,Increment      1: Step Time =    1.000,"P-0-1",           333,       21.1440,       147.960,            0.,NA,NA,"",   923.427E+03,   996.970E+03,   996.970E+03
C:/temp/Job-0.odb,Step-1,Increment      1: Step Time =    1.000,"P-0-1",           334,       11.3872,       148.820,            0.,NA,NA,"",   888.546E+03,   978.969E+03,   978.969E+03
C:/temp/Job-0.odb,Step-1,Increment      1: Step Time =    1.000,"P-0-1",           335,       189.220,       158.830,            0.,NA,NA,"",   1.00110E+06,   1.00206E+06,   1.00206E+06
C:/temp/Job-0.odb,Step-1,Increment      1: Step Time =    1.000,"P-0-1",           336,       174.744,       159.270,            0.,NA,NA,"",   1.01093E+06,   1.00858E+06,   1.00858E+06
C:/temp/Job-0.odb,Step-1,Increment      1: Step Time =    1.000,"P-0-1",           337,       165.643,       163.842,            0.,NA,NA,"",   1.01710E+06,   1.01248E+06,   1.01248E+06
C:/temp/Job-0.odb,Step-1,Increment      1: Step Time =    1.000,"P-0-1",           338,       160.186,       159.070,            0.,NA,NA,"",   1.02592E+06,   1.01883E+06,   1.01883E+06
C:/temp/Job-0.odb,Step-1,Increment      1: Step Time =    1.000,"P-0-1",           339,       149.156,       157.400,            0.,NA,NA,"",   1.03989E+06,   1.02957E+06,   1.02957E+06
C:/temp/Job-0.odb,Step-1,Increment      1: Step Time =    1.000,"P-0-1",           340,       136.066,       156.410,            0.,NA,NA,"",   1.05143E+06,   1.04175E+06,   1.04175E+06
C:/temp/Job-0.odb,Step-1,Increment      1: Step Time =    1.000,"P-0-1",           341,       128.078,       155.509,            0.,NA,NA,"",   1.05242E+06,   1.04696E+06,   1.04696E+06
C:/temp/Job-0.odb,Step-1,Increment      1: Step Time =    1.000,"P-0-1",           342,       113.950,       160.546,            0.,NA,NA,"",   1.02102E+06,   1.03061E+06,   1.03061E+06
C:/temp/Job-0.odb,Step-1,Increment      1: Step Time =    1.000,"P-0-1",           343,       103.033,       158.711,            0.,NA,NA,"",   1.01127E+06,   1.02993E+06,   1.02993E+06
C:/temp/Job-0.odb,Step-1,Increment      1: Step Time =    1.000,"P-0-1",           344,       95.1043,       155.448,            0.,NA,NA,"",   1.01644E+06,   1.03852E+06,   1.03852E+06
C:/temp/Job-0.odb,Step-1,Increment      1: Step Time =    1.000,"P-0-1",           345,       84.6660,       154.685,            0.,NA,NA,"",   1.03470E+06,   1.05080E+06,   1.05080E+06
C:/temp/Job-0.odb,Step-1,Increment      1: Step Time =    1.000,"P-0-1",           346,       75.1837,       159.524,            0.,NA,NA,"",   1.03933E+06,   1.04744E+06,   1.04744E+06
C:/temp/Job-0.odb,Step-1,Increment      1: Step Time =    1.000,"P-0-1",           347,       65.0410,       159.109,            0.,NA,NA,"",   1.04552E+06,   1.05218E+06,   1.05218E+06
C:/temp/Job-0.odb,Step-1,Increment      1: Step Time =    1.000,"P-0-1",           348,       52.0862,       158.428,            0.,NA,NA,"",   1.03674E+06,   1.05096E+06,   1.05096E+06
C:/temp/Job-0.odb,Step-1,Increment      1: Step Time =    1.000,"P-0-1",           349,       41.2515,       160.364,            0.,NA,NA,"",   1.01950E+06,   1.04669E+06,   1.04669E+06
C:/temp/Job-0.odb,Step-1,Increment      1: Step Time =    1.000,"P-0-1",           350,       31.4354,       158.703,            0.,NA,NA,"",   993.412E+03,   1.03829E+06,   1.03829E+06
C:/temp/Job-0.odb,Step-1,Increment      1: Step Time =    1.000,"P-0-1",           351,       17.2040,       161.029,            0.,NA,NA,"",   951.961E+03,   1.02563E+06,   1.02563E+06
C:/temp/Job-0.odb,Step-1,Increment      1: Step Time =    1.000,"P-0-1",           352,       8.82593,       160.659,            0.,NA,NA,"",   914.661E+03,   1.00688E+06,   1.00688E+06
C:/temp/Job-0.odb,Step-1,Increment      1: Step Time =    1.000,"P-0-1",           353,       189.648,       169.548,            0.,NA,NA,"",   1.00132E+06,   1.00125E+06,   1.00125E+06
C:/temp/Job-0.odb,Step-1,Increment      1: Step Time =    1.000,"P-0-1",           354,       179.602,       169.000,            0.,NA,NA,"",   1.00527E+06,   1.00415E+06,   1.00415E+06
C:/temp/Job-0.odb,Step-1,Increment      1: Step Time =    1.000,"P-0-1",           355,       166.331,       170.732,            0.,NA,NA,"",   1.01174E+06,   1.00839E+06,   1.00839E+06
C:/temp/Job-0.odb,Step-1,Increment      1: Step Time =    1.000,"P-0-1",           356,       155.918,       170.078,            0.,NA,NA,"",   1.01746E+06,   1.01245E+06,   1.01245E+06
C:/temp/Job-0.odb,Step-1,Increment      1: Step Time =    1.000,"P-0-1",           357,       144.946,       166.973,            0.,NA,NA,"",   1.02681E+06,   1.02017E+06,   1.02017E+06
C:/temp/Job-0.odb,Step-1,Increment      1: Step Time =    1.000,"P-0-1",           358,       134.938,       167.002,            0.,NA,NA,"",   1.02716E+06,   1.02245E+06,   1.02245E+06
C:/temp/Job-0.odb,Step-1,Increment      1: Step Time =    1.000,"P-0-1",           359,       124.844,       166.142,            0.,NA,NA,"",   1.02343E+06,   1.02323E+06,   1.02323E+06
C:/temp/Job-0.odb,Step-1,Increment      1: Step Time =    1.000,"P-0-1",           360,       114.905,       171.037,            0.,NA,NA,"",   1.00406E+06,   1.00905E+06,   1.00905E+06
C:/temp/Job-0.odb,Step-1,Increment      1: Step Time =    1.000,"P-0-1",           361,       104.467,       172.355,            0.,NA,NA,"",   995.071E+03,   1.00344E+06,   1.00344E+06
C:/temp/Job-0.odb,Step-1,Increment      1: Step Time =    1.000,"P-0-1",           362,       97.7137,       170.733,            0.,NA,NA,"",   997.264E+03,   1.00722E+06,   1.00722E+06
C:/temp/Job-0.odb,Step-1,Increment      1: Step Time =    1.000,"P-0-1",           363,       85.3315,       169.448,            0.,NA,NA,"",   1.00819E+06,   1.01680E+06,   1.01680E+06
C:/temp/Job-0.odb,Step-1,Increment      1: Step Time =    1.000,"P-0-1",           364,       74.0227,       169.500,            0.,NA,NA,"",   1.02109E+06,   1.02651E+06,   1.02651E+06
C:/temp/Job-0.odb,Step-1,Increment      1: Step Time =    1.000,"P-0-1",           365,       62.6074,       168.095,            0.,NA,NA,"",   1.03266E+06,   1.03816E+06,   1.03816E+06
C:/temp/Job-0.odb,Step-1,Increment      1: Step Time =    1.000,"P-0-1",           366,       50.4086,       166.647,            0.,NA,NA,"",   1.03505E+06,   1.04679E+06,   1.04679E+06
C:/temp/Job-0.odb,Step-1,Increment      1: Step Time =    1.000,"P-0-1",           367,       40.7551,       169.987,            0.,NA,NA,"",   1.03372E+06,   1.05230E+06,   1.05230E+06
C:/temp/Job-0.odb,Step-1,Increment      1: Step Time =    1.000,"P-0-1",           368,       32.5025,       169.325,            0.,NA,NA,"",   1.02592E+06,   1.05752E+06,   1.05752E+06
C:/temp/Job-0.odb,Step-1,Increment      1: Step Time =    1.000,"P-0-1",           369,       19.2493,       169.372,            0.,NA,NA,"",   999.177E+03,   1.05904E+06,   1.05904E+06
C:/temp/Job-0.odb,Step-1,Increment      1: Step Time =    1.000,"P-0-1",           370,       9.22367,       169.681,            0.,NA,NA,"",   955.767E+03,   1.04334E+06,   1.04334E+06
C:/temp/Job-0.odb,Step-1,Increment      1: Step Time =    1.000,"P-0-1",           371,       189.555,       179.724,            0.,NA,NA,"",   1.00071E+06,   1.00045E+06,   1.00045E+06
C:/temp/Job-0.odb,Step-1,Increment      1: Step Time =    1.000,"P-0-1",           372,       178.140,       179.654,            0.,NA,NA,"",   1.00242E+06,   1.00161E+06,   1.00161E+06
C:/temp/Job-0.odb,Step-1,Increment      1: Step Time =    1.000,"P-0-1",           373,       166.356,       179.204,            0.,NA,NA,"",   1.00523E+06,   1.00328E+06,   1.00328E+06
C:/temp/Job-0.odb,Step-1,Increment      1: Step Time =    1.000,"P-0-1",           374,       158.850,       177.527,            0.,NA,NA,"",   1.00847E+06,   1.00548E+06,   1.00548E+06
C:/temp/Job-0.odb,Step-1,Increment      1: Step Time =    1.000,"P-0-1",           375,       147.226,       176.218,            0.,NA,NA,"",   1.01110E+06,   1.00732E+06,   1.00732E+06
C:/temp/Job-0.odb,Step-1,Increment      1: Step Time =    1.000,"P-0-1",           376,       133.840,       178.367,            0.,NA,NA,"",   1.00332E+06,   1.00149E+06,   1.00149E+06
C:/temp/Job-0.odb,Step-1,Increment      1: Step Time =    1.000,"P-0-1",           377,       123.943,       180.990,            0.,NA,NA,"",   992.028E+03,     992.4E+03,     992.4E+03
C:/temp/Job-0.odb,Step-1,Increment      1: Step Time =    1.000,"P-0-1",           378,       114.725,       180.737,            0.,NA,NA,"",   985.616E+03,   988.149E+03,   988.149E+03
C:/temp/Job-0.odb,Step-1,Increment      1: Step Time =    1.000,"P-0-1",           379,       105.038,       180.810,            0.,NA,NA,"",   980.579E+03,   984.870E+03,   984.870E+03
C:/temp/Job-0.odb,Step-1,Increment      1: Step Time =    1.000,"P-0-1",           380,       95.1764,       180.387,            0.,NA,NA,"",   981.296E+03,   986.112E+03,   986.112E+03
C:/temp/Job-0.odb,Step-1,Increment      1: Step Time =    1.000,"P-0-1",           381,       85.1052,       179.866,            0.,NA,NA,"",   987.375E+03,   991.375E+03,   991.375E+03
C:/temp/Job-0.odb,Step-1,Increment      1: Step Time =    1.000,"P-0-1",           382,       74.9988,       180.334,            0.,NA,NA,"",   995.022E+03,   997.608E+03,   997.608E+03
C:/temp/Job-0.odb,Step-1,Increment      1: Step Time =    1.000,"P-0-1",           383,       65.1815,       180.959,            0.,NA,NA,"",   1.00365E+06,   1.00559E+06,   1.00559E+06
C:/temp/Job-0.odb,Step-1,Increment      1: Step Time =    1.000,"P-0-1",           384,       54.7395,       180.458,            0.,NA,NA,"",   1.01608E+06,   1.01935E+06,   1.01935E+06
C:/temp/Job-0.odb,Step-1,Increment      1: Step Time =    1.000,"P-0-1",           385,       40.7632,       175.123,            0.,NA,NA,"",   1.03639E+06,   1.05001E+06,   1.05001E+06
C:/temp/Job-0.odb,Step-1,Increment      1: Step Time =    1.000,"P-0-1",           386,       31.0614,       179.330,            0.,NA,NA,"",   1.04864E+06,   1.06797E+06,   1.06797E+06
C:/temp/Job-0.odb,Step-1,Increment      1: Step Time =    1.000,"P-0-1",           387,       21.3085,       177.535,            0.,NA,NA,"",   1.04761E+06,   1.08817E+06,   1.08817E+06
C:/temp/Job-0.odb,Step-1,Increment      1: Step Time =    1.000,"P-0-1",           388,       10.7225,       179.464,            0.,NA,NA,"",   1.03269E+06,   1.10346E+06,   1.10346E+06
C:/temp/Job-0.odb,Step-1,Increment      1: Step Time =    1.000,"P-0-1",           389,       189.831,       189.990,            0.,NA,NA,"",   999.960E+03,   999.837E+03,   999.837E+03
C:/temp/Job-0.odb,Step-1,Increment      1: Step Time =    1.000,"P-0-1",           390,       175.384,       190.940,            0.,NA,NA,"",   999.264E+03,   999.012E+03,   999.012E+03
C:/temp/Job-0.odb,Step-1,Increment      1: Step Time =    1.000,"P-0-1",           391,       166.327,       191.308,            0.,NA,NA,"",   997.904E+03,   997.496E+03,   997.496E+03
C:/temp/Job-0.odb,Step-1,Increment      1: Step Time =    1.000,"P-0-1",           392,       157.453,       190.238,            0.,NA,NA,"",   995.923E+03,   995.218E+03,   995.218E+03
C:/temp/Job-0.odb,Step-1,Increment      1: Step Time =    1.000,"P-0-1",           393,       149.373,       186.896,            0.,NA,NA,"",   996.897E+03,   995.452E+03,   995.452E+03
C:/temp/Job-0.odb,Step-1,Increment      1: Step Time =    1.000,"P-0-1",           394,       133.612,       189.694,            0.,NA,NA,"",   982.733E+03,   982.307E+03,   982.307E+03
C:/temp/Job-0.odb,Step-1,Increment      1: Step Time =    1.000,"P-0-1",           395,       124.303,       190.514,            0.,NA,NA,"",   972.760E+03,   972.882E+03,   972.882E+03
C:/temp/Job-0.odb,Step-1,Increment      1: Step Time =    1.000,"P-0-1",           396,       114.745,       190.431,            0.,NA,NA,"",   964.562E+03,   965.298E+03,   965.298E+03
C:/temp/Job-0.odb,Step-1,Increment      1: Step Time =    1.000,"P-0-1",           397,       104.912,       190.250,            0.,NA,NA,"",   958.763E+03,   960.089E+03,   960.089E+03
C:/temp/Job-0.odb,Step-1,Increment      1: Step Time =    1.000,"P-0-1",           398,       94.9171,       190.110,            0.,NA,NA,"",   957.212E+03,   958.665E+03,   958.665E+03
C:/temp/Job-0.odb,Step-1,Increment      1: Step Time =    1.000,"P-0-1",           399,       84.9827,       190.061,            0.,NA,NA,"",   960.123E+03,   961.197E+03,   961.197E+03
C:/temp/Job-0.odb,Step-1,Increment      1: Step Time =    1.000,"P-0-1",           400,       75.0533,       190.247,            0.,NA,NA,"",   965.948E+03,   966.634E+03,   966.634E+03
C:/temp/Job-0.odb,Step-1,Increment      1: Step Time =    1.000,"P-0-1",           401,       65.1075,       190.503,            0.,NA,NA,"",   974.418E+03,   974.883E+03,   974.883E+03
C:/temp/Job-0.odb,Step-1,Increment      1: Step Time =    1.000,"P-0-1",           402,       51.0952,       186.617,            0.,NA,NA,"",   1.00622E+06,   1.00822E+06,   1.00822E+06
C:/temp/Job-0.odb,Step-1,Increment      1: Step Time =    1.000,"P-0-1",           403,       40.8610,       189.336,            0.,NA,NA,"",   1.01554E+06,   1.01873E+06,   1.01873E+06
C:/temp/Job-0.odb,Step-1,Increment      1: Step Time =    1.000,"P-0-1",           404,       30.2818,       189.648,            0.,NA,NA,"",   1.04565E+06,   1.05236E+06,   1.05236E+06
C:/temp/Job-0.odb,Step-1,Increment      1: Step Time =    1.000,"P-0-1",           405,       20.2959,       189.338,            0.,NA,NA,"",   1.09668E+06,   1.11171E+06,   1.11171E+06
C:/temp/Job-0.odb,Step-1,Increment      1: Step Time =    1.000,"P-0-1",           406,       10.1246,       189.838,            0.,NA,NA,"",   1.17685E+06,   1.21828E+06,   1.21828E+06
C:/temp/Job-0.odb,Step-1,Increment      1: Step Time =    1.000,"P-0-1",           407,       89.2758,       97.5523,            0.,NA,NA,"",   493.891E+03,   114.456E+03,   114.456E+03
C:/temp/Job-0.odb,Step-1,Increment      1: Step Time =    1.000,"P-0-1",           408,       110.724,       102.448,            0.,NA,NA,"",   518.655E+03,   101.395E+03,   101.395E+03
C:/temp/Job-0.odb,Step-1,Increment      1: Step Time =    1.000,"P-0-1",           409,          195.,            0.,            0.,NA,NA,"",   999.928E+03,   999.911E+03,   999.911E+03
C:/temp/Job-0.odb,Step-1,Increment      1: Step Time =    1.000,"P-0-1",           410,          185.,            0.,            0.,NA,NA,"",   999.390E+03,   999.369E+03,   999.369E+03
C:/temp/Job-0.odb,Step-1,Increment      1: Step Time =    1.000,"P-0-1",           411,          175.,            0.,            0.,NA,NA,"",   998.146E+03,   998.099E+03,   998.099E+03
C:/temp/Job-0.odb,Step-1,Increment      1: Step Time =    1.000,"P-0-1",           412,          165.,            0.,            0.,NA,NA,"",   995.513E+03,   995.432E+03,   995.432E+03
C:/temp/Job-0.odb,Step-1,Increment      1: Step Time =    1.000,"P-0-1",           413,          155.,            0.,            0.,NA,NA,"",   990.587E+03,   990.497E+03,   990.497E+03
C:/temp/Job-0.odb,Step-1,Increment      1: Step Time =    1.000,"P-0-1",           414,          145.,            0.,            0.,NA,NA,"",   982.274E+03,   982.200E+03,   982.200E+03
C:/temp/Job-0.odb,Step-1,Increment      1: Step Time =    1.000,"P-0-1",           415,          135.,            0.,            0.,NA,NA,"",   971.108E+03,   971.048E+03,   971.048E+03
C:/temp/Job-0.odb,Step-1,Increment      1: Step Time =    1.000,"P-0-1",           416,          125.,            0.,            0.,NA,NA,"",   958.298E+03,   958.311E+03,   958.311E+03
C:/temp/Job-0.odb,Step-1,Increment      1: Step Time =    1.000,"P-0-1",           417,          115.,            0.,            0.,NA,NA,"",   946.140E+03,   946.234E+03,   946.234E+03
C:/temp/Job-0.odb,Step-1,Increment      1: Step Time =    1.000,"P-0-1",           418,          105.,            0.,            0.,NA,NA,"",   937.059E+03,   937.216E+03,   937.216E+03
C:/temp/Job-0.odb,Step-1,Increment      1: Step Time =    1.000,"P-0-1",           419,           95.,            0.,            0.,NA,NA,"",   932.910E+03,   933.083E+03,   933.083E+03
C:/temp/Job-0.odb,Step-1,Increment      1: Step Time =    1.000,"P-0-1",           420,           85.,            0.,            0.,NA,NA,"",   934.227E+03,   934.383E+03,   934.383E+03
C:/temp/Job-0.odb,Step-1,Increment      1: Step Time =    1.000,"P-0-1",           421,           75.,            0.,            0.,NA,NA,"",   940.218E+03,   940.366E+03,   940.366E+03
C:/temp/Job-0.odb,Step-1,Increment      1: Step Time =    1.000,"P-0-1",           422,           65.,            0.,            0.,NA,NA,"",   949.947E+03,   950.227E+03,   950.227E+03
C:/temp/Job-0.odb,Step-1,Increment      1: Step Time =    1.000,"P-0-1",           423,           55.,            0.,            0.,NA,NA,"",   962.219E+03,   962.091E+03,   962.091E+03
C:/temp/Job-0.odb,Step-1,Increment      1: Step Time =    1.000,"P-0-1",           424,           45.,            0.,            0.,NA,NA,"",   973.287E+03,   973.552E+03,   973.552E+03
C:/temp/Job-0.odb,Step-1,Increment      1: Step Time =    1.000,"P-0-1",           425,           35.,            0.,            0.,NA,NA,"",   990.800E+03,   991.520E+03,   991.520E+03
C:/temp/Job-0.odb,Step-1,Increment      1: Step Time =    1.000,"P-0-1",           426,           25.,            0.,            0.,NA,NA,"",   1.02816E+06,   1.02973E+06,   1.02973E+06
C:/temp/Job-0.odb,Step-1,Increment      1: Step Time =    1.000,"P-0-1",           427,           15.,            0.,            0.,NA,NA,"",   1.11432E+06,   1.11949E+06,   1.11949E+06
C:/temp/Job-0.odb,Step-1,Increment      1: Step Time =    1.000,"P-0-1",           428,            5.,            0.,            0.,NA,NA,"",   1.41373E+06,   1.44614E+06,   1.44614E+06
C:/temp/Job-0.odb,Step-1,Increment      1: Step Time =    1.000,"P-0-1",           429,          200.,          195.,            0.,NA,NA,"",   1.00001E+06,   999.968E+03,   999.968E+03
C:/temp/Job-0.odb,Step-1,Increment      1: Step Time =    1.000,"P-0-1",           430,          200.,          185.,            0.,NA,NA,"",   1.00027E+06,   1.00001E+06,   1.00001E+06
C:/temp/Job-0.odb,Step-1,Increment      1: Step Time =    1.000,"P-0-1",           431,          200.,          175.,            0.,NA,NA,"",   1.00049E+06,   1.00011E+06,   1.00011E+06
C:/temp/Job-0.odb,Step-1,Increment      1: Step Time =    1.000,"P-0-1",           432,          200.,          165.,            0.,NA,NA,"",   999.960E+03,   1.00018E+06,   1.00018E+06
C:/temp/Job-0.odb,Step-1,Increment      1: Step Time =    1.000,"P-0-1",           433,          200.,          155.,            0.,NA,NA,"",   998.068E+03,   1.00021E+06,   1.00021E+06
C:/temp/Job-0.odb,Step-1,Increment      1: Step Time =    1.000,"P-0-1",           434,          200.,          145.,            0.,NA,NA,"",   994.218E+03,   1.00017E+06,   1.00017E+06
C:/temp/Job-0.odb,Step-1,Increment      1: Step Time =    1.000,"P-0-1",           435,          200.,          135.,            0.,NA,NA,"",   988.769E+03,   1.00011E+06,   1.00011E+06
C:/temp/Job-0.odb,Step-1,Increment      1: Step Time =    1.000,"P-0-1",           436,          200.,          125.,            0.,NA,NA,"",   982.607E+03,   999.932E+03,   999.932E+03
C:/temp/Job-0.odb,Step-1,Increment      1: Step Time =    1.000,"P-0-1",           437,          200.,          115.,            0.,NA,NA,"",   977.218E+03,   999.708E+03,   999.708E+03
C:/temp/Job-0.odb,Step-1,Increment      1: Step Time =    1.000,"P-0-1",           438,          200.,          105.,            0.,NA,NA,"",   974.099E+03,   999.578E+03,   999.578E+03
C:/temp/Job-0.odb,Step-1,Increment      1: Step Time =    1.000,"P-0-1",           439,          200.,           95.,            0.,NA,NA,"",   974.178E+03,   999.613E+03,   999.613E+03
C:/temp/Job-0.odb,Step-1,Increment      1: Step Time =    1.000,"P-0-1",           440,          200.,           85.,            0.,NA,NA,"",   977.378E+03,   999.760E+03,   999.760E+03
C:/temp/Job-0.odb,Step-1,Increment      1: Step Time =    1.000,"P-0-1",           441,          200.,           75.,            0.,NA,NA,"",   982.725E+03,   999.888E+03,   999.888E+03
C:/temp/Job-0.odb,Step-1,Increment      1: Step Time =    1.000,"P-0-1",           442,          200.,           65.,            0.,NA,NA,"",   988.845E+03,   999.866E+03,   999.866E+03
C:/temp/Job-0.odb,Step-1,Increment      1: Step Time =    1.000,"P-0-1",           443,          200.,           55.,            0.,NA,NA,"",   994.933E+03,   1.00053E+06,   1.00053E+06
C:/temp/Job-0.odb,Step-1,Increment      1: Step Time =    1.000,"P-0-1",           444,          200.,           45.,            0.,NA,NA,"",   998.516E+03,   1.00034E+06,   1.00034E+06
C:/temp/Job-0.odb,Step-1,Increment      1: Step Time =    1.000,"P-0-1",           445,          200.,           35.,            0.,NA,NA,"",   1.00018E+06,   1.00014E+06,   1.00014E+06
C:/temp/Job-0.odb,Step-1,Increment      1: Step Time =    1.000,"P-0-1",           446,          200.,           25.,            0.,NA,NA,"",   1.00055E+06,   1.00007E+06,   1.00007E+06
C:/temp/Job-0.odb,Step-1,Increment      1: Step Time =    1.000,"P-0-1",           447,          200.,           15.,            0.,NA,NA,"",   1.00028E+06,   1.00001E+06,   1.00001E+06
C:/temp/Job-0.odb,Step-1,Increment      1: Step Time =    1.000,"P-0-1",           448,          200.,            5.,            0.,NA,NA,"",   1.00001E+06,   999.968E+03,   999.968E+03
C:/temp/Job-0.odb,Step-1,Increment      1: Step Time =    1.000,"P-0-1",           449,            5.,          200.,            0.,NA,NA,"",   1.41371E+06,   1.44646E+06,   1.44646E+06
C:/temp/Job-0.odb,Step-1,Increment      1: Step Time =    1.000,"P-0-1",           450,           15.,          200.,            0.,NA,NA,"",   1.11575E+06,   1.12134E+06,   1.12134E+06
C:/temp/Job-0.odb,Step-1,Increment      1: Step Time =    1.000,"P-0-1",           451,           25.,          200.,            0.,NA,NA,"",   1.03146E+06,   1.03323E+06,   1.03323E+06
C:/temp/Job-0.odb,Step-1,Increment      1: Step Time =    1.000,"P-0-1",           452,           35.,          200.,            0.,NA,NA,"",   992.461E+03,   993.244E+03,   993.244E+03
C:/temp/Job-0.odb,Step-1,Increment      1: Step Time =    1.000,"P-0-1",           453,           45.,          200.,            0.,NA,NA,"",   971.880E+03,   972.163E+03,   972.163E+03
C:/temp/Job-0.odb,Step-1,Increment      1: Step Time =    1.000,"P-0-1",           454,           55.,          200.,            0.,NA,NA,"",   957.945E+03,   958.115E+03,   958.115E+03
C:/temp/Job-0.odb,Step-1,Increment      1: Step Time =    1.000,"P-0-1",           455,           65.,          200.,            0.,NA,NA,"",   948.045E+03,   948.129E+03,   948.129E+03
C:/temp/Job-0.odb,Step-1,Increment      1: Step Time =    1.000,"P-0-1",           456,           75.,          200.,            0.,NA,NA,"",   939.996E+03,   940.097E+03,   940.097E+03
C:/temp/Job-0.odb,Step-1,Increment      1: Step Time =    1.000,"P-0-1",           457,           85.,          200.,            0.,NA,NA,"",   934.484E+03,   934.626E+03,   934.626E+03
C:/temp/Job-0.odb,Step-1,Increment      1: Step Time =    1.000,"P-0-1",           458,           95.,          200.,            0.,NA,NA,"",   932.934E+03,   933.117E+03,   933.117E+03
C:/temp/Job-0.odb,Step-1,Increment      1: Step Time =    1.000,"P-0-1",           459,          105.,          200.,            0.,NA,NA,"",   936.829E+03,   936.990E+03,   936.990E+03
C:/temp/Job-0.odb,Step-1,Increment      1: Step Time =    1.000,"P-0-1",           460,          115.,          200.,            0.,NA,NA,"",   945.986E+03,   946.071E+03,   946.071E+03
C:/temp/Job-0.odb,Step-1,Increment      1: Step Time =    1.000,"P-0-1",           461,          125.,          200.,            0.,NA,NA,"",   958.456E+03,   958.494E+03,   958.494E+03
C:/temp/Job-0.odb,Step-1,Increment      1: Step Time =    1.000,"P-0-1",           462,          135.,          200.,            0.,NA,NA,"",   971.912E+03,   971.983E+03,   971.983E+03
C:/temp/Job-0.odb,Step-1,Increment      1: Step Time =    1.000,"P-0-1",           463,          145.,          200.,            0.,NA,NA,"",   983.851E+03,   983.554E+03,   983.554E+03
C:/temp/Job-0.odb,Step-1,Increment      1: Step Time =    1.000,"P-0-1",           464,          155.,          200.,            0.,NA,NA,"",   991.557E+03,   991.417E+03,   991.417E+03
C:/temp/Job-0.odb,Step-1,Increment      1: Step Time =    1.000,"P-0-1",           465,          165.,          200.,            0.,NA,NA,"",   995.979E+03,   995.928E+03,   995.928E+03
C:/temp/Job-0.odb,Step-1,Increment      1: Step Time =    1.000,"P-0-1",           466,          175.,          200.,            0.,NA,NA,"",   998.295E+03,   998.270E+03,   998.270E+03
C:/temp/Job-0.odb,Step-1,Increment      1: Step Time =    1.000,"P-0-1",           467,          185.,          200.,            0.,NA,NA,"",   999.419E+03,   999.406E+03,   999.406E+03
C:/temp/Job-0.odb,Step-1,Increment      1: Step Time =    1.000,"P-0-1",           468,          195.,          200.,            0.,NA,NA,"",   999.930E+03,   999.914E+03,   999.914E+03
C:/temp/Job-0.odb,Step-1,Increment      1: Step Time =    1.000,"P-0-1",           469,            0.,            5.,            0.,NA,NA,"",   1.36634E+06,   1.45172E+06,   1.45172E+06
C:/temp/Job-0.odb,Step-1,Increment      1: Step Time =    1.000,"P-0-1",           470,            0.,           15.,            0.,NA,NA,"",   1.04169E+06,   1.14223E+06,   1.14223E+06
C:/temp/Job-0.odb,Step-1,Increment      1: Step Time =    1.000,"P-0-1",           471,            0.,           25.,            0.,NA,NA,"",   950.662E+03,   1.05346E+06,   1.05346E+06
C:/temp/Job-0.odb,Step-1,Increment      1: Step Time =    1.000,"P-0-1",           472,            0.,           35.,            0.,NA,NA,"",   900.567E+03,   1.00455E+06,   1.00455E+06
C:/temp/Job-0.odb,Step-1,Increment      1: Step Time =    1.000,"P-0-1",           473,            0.,           45.,            0.,NA,NA,"",   869.033E+03,   973.032E+03,   973.032E+03
C:/temp/Job-0.odb,Step-1,Increment      1: Step Time =    1.000,"P-0-1",           474,            0.,           55.,            0.,NA,NA,"",   845.020E+03,   948.784E+03,   948.784E+03
C:/temp/Job-0.odb,Step-1,Increment      1: Step Time =    1.000,"P-0-1",           475,            0.,           65.,            0.,NA,NA,"",   825.134E+03,   928.442E+03,   928.442E+03
C:/temp/Job-0.odb,Step-1,Increment      1: Step Time =    1.000,"P-0-1",           476,            0.,           75.,            0.,NA,NA,"",   809.319E+03,   911.824E+03,   911.824E+03
C:/temp/Job-0.odb,Step-1,Increment      1: Step Time =    1.000,"P-0-1",           477,            0.,           85.,            0.,NA,NA,"",   798.091E+03,   899.862E+03,   899.862E+03
C:/temp/Job-0.odb,Step-1,Increment      1: Step Time =    1.000,"P-0-1",           478,            0.,           95.,            0.,NA,NA,"",   792.044E+03,   893.451E+03,   893.451E+03
C:/temp/Job-0.odb,Step-1,Increment      1: Step Time =    1.000,"P-0-1",           479,            0.,          105.,            0.,NA,NA,"",   792.095E+03,   893.564E+03,   893.564E+03
C:/temp/Job-0.odb,Step-1,Increment      1: Step Time =    1.000,"P-0-1",           480,            0.,          115.,            0.,NA,NA,"",   798.132E+03,   900.045E+03,   900.045E+03
C:/temp/Job-0.odb,Step-1,Increment      1: Step Time =    1.000,"P-0-1",           481,            0.,          125.,            0.,NA,NA,"",   809.434E+03,   912.041E+03,   912.041E+03
C:/temp/Job-0.odb,Step-1,Increment      1: Step Time =    1.000,"P-0-1",           482,            0.,          135.,            0.,NA,NA,"",   825.874E+03,   928.968E+03,   928.968E+03
C:/temp/Job-0.odb,Step-1,Increment      1: Step Time =    1.000,"P-0-1",           483,            0.,          145.,            0.,NA,NA,"",   847.575E+03,   950.384E+03,   950.384E+03
C:/temp/Job-0.odb,Step-1,Increment      1: Step Time =    1.000,"P-0-1",           484,            0.,          155.,            0.,NA,NA,"",   870.003E+03,   974.499E+03,   974.499E+03
C:/temp/Job-0.odb,Step-1,Increment      1: Step Time =    1.000,"P-0-1",           485,            0.,          165.,            0.,NA,NA,"",   900.368E+03,   1.00488E+06,   1.00488E+06
C:/temp/Job-0.odb,Step-1,Increment      1: Step Time =    1.000,"P-0-1",           486,            0.,          175.,            0.,NA,NA,"",   949.073E+03,   1.05240E+06,   1.05240E+06
C:/temp/Job-0.odb,Step-1,Increment      1: Step Time =    1.000,"P-0-1",           487,            0.,          185.,            0.,NA,NA,"",   1.04037E+06,   1.14141E+06,   1.14141E+06
C:/temp/Job-0.odb,Step-1,Increment      1: Step Time =    1.000,"P-0-1",           488,            0.,          195.,            0.,NA,NA,"",   1.36461E+06,   1.45009E+06,   1.45009E+06
C:/temp/Job-0.odb,Step-1,Increment      1: Step Time =    1.000,"P-0-1",           489,       82.8559,       99.8827,            0.,NA,NA,"",   431.658E+03,   201.287E+03,   201.287E+03
C:/temp/Job-0.odb,Step-1,Increment      1: Step Time =    1.000,"P-0-1",           490,       117.140,       100.122,            0.,NA,NA,"",   454.879E+03,   191.658E+03,   191.658E+03
C:/temp/Job-0.odb,Step-1,Increment      1: Step Time =    1.000,"P-0-1",           491,       111.442,       87.0725,            0.,NA,NA,"",   1.33512E+06,   1.28254E+06,   1.28254E+06
C:/temp/Job-0.odb,Step-1,Increment      1: Step Time =    1.000,"P-0-1",           492,       88.5571,       112.935,            0.,NA,NA,"",   1.31975E+06,   1.27717E+06,   1.27717E+06
C:/temp/Job-0.odb,Step-1,Increment      1: Step Time =    1.000,"P-0-1",           493,       195.559,       24.7550,            0.,NA,NA,"",   1.00054E+06,   1.00018E+06,   1.00018E+06
C:/temp/Job-0.odb,Step-1,Increment      1: Step Time =    1.000,"P-0-1",           494,       195.720,       34.3933,            0.,NA,NA,"",   1.00026E+06,   1.00036E+06,   1.00036E+06
C:/temp/Job-0.odb,Step-1,Increment      1: Step Time =    1.000,"P-0-1",           495,       45.3701,       195.221,            0.,NA,NA,"",   982.283E+03,   982.886E+03,   982.886E+03
C:/temp/Job-0.odb,Step-1,Increment      1: Step Time =    1.000,"P-0-1",           496,       35.2103,       194.811,            0.,NA,NA,"",   1.00676E+06,   1.00829E+06,   1.00829E+06
C:/temp/Job-0.odb,Step-1,Increment      1: Step Time =    1.000,"P-0-1",           497,       25.1282,       194.767,            0.,NA,NA,"",   1.04786E+06,   1.05137E+06,   1.05137E+06
C:/temp/Job-0.odb,Step-1,Increment      1: Step Time =    1.000,"P-0-1",           498,       25.0574,       4.42337,            0.,NA,NA,"",   1.04384E+06,   1.04650E+06,   1.04650E+06
C:/temp/Job-0.odb,Step-1,Increment      1: Step Time =    1.000,"P-0-1",           499,       34.8269,       4.33732,            0.,NA,NA,"",   1.00378E+06,   1.00497E+06,   1.00497E+06
C:/temp/Job-0.odb,Step-1,Increment      1: Step Time =    1.000,"P-0-1",           500,       195.154,       15.0218,            0.,NA,NA,"",   1.00025E+06,   1.00001E+06,   1.00001E+06
C:/temp/Job-0.odb,Step-1,Increment      1: Step Time =    1.000,"P-0-1",           501,       5.19997,       10.0003,            0.,NA,NA,"",   1.16221E+06,   1.23830E+06,   1.23830E+06
C:/temp/Job-0.odb,Step-1,Increment      1: Step Time =    1.000,"P-0-1",           502,       5.49789,       20.2189,            0.,NA,NA,"",   1.00624E+06,   1.09754E+06,   1.09754E+06
C:/temp/Job-0.odb,Step-1,Increment      1: Step Time =    1.000,"P-0-1",           503,       4.84235,       30.3096,            0.,NA,NA,"",   933.924E+03,   1.03191E+06,   1.03191E+06
C:/temp/Job-0.odb,Step-1,Increment      1: Step Time =    1.000,"P-0-1",           504,       5.03091,       40.2473,            0.,NA,NA,"",   894.440E+03,   993.951E+03,   993.951E+03
C:/temp/Job-0.odb,Step-1,Increment      1: Step Time =    1.000,"P-0-1",           505,       5.06392,       194.936,            0.,NA,NA,"",   1.32390E+06,   1.37455E+06,   1.37455E+06
C:/temp/Job-0.odb,Step-1,Increment      1: Step Time =    1.000,"P-0-1",           506,       15.0880,       4.73935,            0.,NA,NA,"",   1.12866E+06,   1.13745E+06,   1.13745E+06
C:/temp/Job-0.odb,Step-1,Increment      1: Step Time =    1.000,"P-0-1",           507,       15.1502,       194.817,            0.,NA,NA,"",   1.12958E+06,   1.13938E+06,   1.13938E+06
C:/temp/Job-0.odb,Step-1,Increment      1: Step Time =    1.000,"P-0-1",           508,       44.4175,       4.70567,            0.,NA,NA,"",   983.860E+03,   984.385E+03,   984.385E+03
C:/temp/Job-0.odb,Step-1,Increment      1: Step Time =    1.000,"P-0-1",           509,       54.9215,       7.19280,            0.,NA,NA,"",   978.322E+03,   978.504E+03,   978.504E+03
C:/temp/Job-0.odb,Step-1,Increment      1: Step Time =    1.000,"P-0-1",           510,       65.5099,       5.20171,            0.,NA,NA,"",   958.506E+03,   958.841E+03,   958.841E+03
C:/temp/Job-0.odb,Step-1,Increment      1: Step Time =    1.000,"P-0-1",           511,       75.3414,       4.71473,            0.,NA,NA,"",   948.575E+03,   948.837E+03,   948.837E+03
C:/temp/Job-0.odb,Step-1,Increment      1: Step Time =    1.000,"P-0-1",           512,       85.1680,       4.76939,            0.,NA,NA,"",   942.785E+03,   943.179E+03,   943.179E+03
C:/temp/Job-0.odb,Step-1,Increment      1: Step Time =    1.000,"P-0-1",           513,       95.0684,       4.90426,            0.,NA,NA,"",   941.433E+03,   941.926E+03,   941.926E+03
C:/temp/Job-0.odb,Step-1,Increment      1: Step Time =    1.000,"P-0-1",           514,       105.019,       4.97434,            0.,NA,NA,"",   944.943E+03,   945.397E+03,   945.397E+03
C:/temp/Job-0.odb,Step-1,Increment      1: Step Time =    1.000,"P-0-1",           515,       114.969,       4.95641,            0.,NA,NA,"",   952.834E+03,   953.096E+03,   953.096E+03
C:/temp/Job-0.odb,Step-1,Increment      1: Step Time =    1.000,"P-0-1",           516,       124.924,       4.85214,            0.,NA,NA,"",   963.425E+03,   963.451E+03,   963.451E+03
C:/temp/Job-0.odb,Step-1,Increment      1: Step Time =    1.000,"P-0-1",           517,       134.887,       4.69759,            0.,NA,NA,"",   974.602E+03,   974.436E+03,   974.436E+03
C:/temp/Job-0.odb,Step-1,Increment      1: Step Time =    1.000,"P-0-1",           518,       144.723,       4.52432,            0.,NA,NA,"",   984.295E+03,   984.056E+03,   984.056E+03
C:/temp/Job-0.odb,Step-1,Increment      1: Step Time =    1.000,"P-0-1",           519,       154.567,       4.76182,            0.,NA,NA,"",   991.705E+03,   991.438E+03,   991.438E+03
C:/temp/Job-0.odb,Step-1,Increment      1: Step Time =    1.000,"P-0-1",           520,       164.681,       5.22662,            0.,NA,NA,"",   996.286E+03,   996.044E+03,   996.044E+03
C:/temp/Job-0.odb,Step-1,Increment      1: Step Time =    1.000,"P-0-1",           521,       174.848,       5.19933,            0.,NA,NA,"",   998.478E+03,   998.347E+03,   998.347E+03
C:/temp/Job-0.odb,Step-1,Increment      1: Step Time =    1.000,"P-0-1",           522,       184.905,       5.16919,            0.,NA,NA,"",   999.490E+03,   999.429E+03,   999.429E+03
C:/temp/Job-0.odb,Step-1,Increment      1: Step Time =    1.000,"P-0-1",           523,       194.994,       5.04286,            0.,NA,NA,"",   999.953E+03,   999.904E+03,   999.904E+03
C:/temp/Job-0.odb,Step-1,Increment      1: Step Time =    1.000,"P-0-1",           524,       194.947,       44.0197,            0.,NA,NA,"",   998.917E+03,   1.00069E+06,   1.00069E+06
C:/temp/Job-0.odb,Step-1,Increment      1: Step Time =    1.000,"P-0-1",           525,       55.2384,       195.442,            0.,NA,NA,"",   967.111E+03,   967.347E+03,   967.347E+03
C:/temp/Job-0.odb,Step-1,Increment      1: Step Time =    1.000,"P-0-1",           526,       192.315,       54.5081,            0.,NA,NA,"",   996.801E+03,   1.00143E+06,   1.00143E+06
C:/temp/Job-0.odb,Step-1,Increment      1: Step Time =    1.000,"P-0-1",           527,       65.0799,       195.278,            0.,NA,NA,"",   957.026E+03,   957.163E+03,   957.163E+03
C:/temp/Job-0.odb,Step-1,Increment      1: Step Time =    1.000,"P-0-1",           528,       194.675,       65.4447,            0.,NA,NA,"",   989.917E+03,   1.00012E+06,   1.00012E+06
C:/temp/Job-0.odb,Step-1,Increment      1: Step Time =    1.000,"P-0-1",           529,       75.0417,       195.138,            0.,NA,NA,"",   948.960E+03,   949.174E+03,   949.174E+03
C:/temp/Job-0.odb,Step-1,Increment      1: Step Time =    1.000,"P-0-1",           530,       195.261,       75.3087,            0.,NA,NA,"",   984.056E+03,   999.772E+03,   999.772E+03
C:/temp/Job-0.odb,Step-1,Increment      1: Step Time =    1.000,"P-0-1",           531,       84.9922,       195.050,            0.,NA,NA,"",   943.411E+03,   943.771E+03,   943.771E+03
C:/temp/Job-0.odb,Step-1,Increment      1: Step Time =    1.000,"P-0-1",           532,       195.231,       85.1592,            0.,NA,NA,"",   978.953E+03,   999.278E+03,   999.278E+03
C:/temp/Job-0.odb,Step-1,Increment      1: Step Time =    1.000,"P-0-1",           533,       195.109,       95.0873,            0.,NA,NA,"",   975.848E+03,   998.838E+03,   998.838E+03
C:/temp/Job-0.odb,Step-1,Increment      1: Step Time =    1.000,"P-0-1",           534,       195.025,       105.080,            0.,NA,NA,"",   975.787E+03,   998.774E+03,   998.774E+03
C:/temp/Job-0.odb,Step-1,Increment      1: Step Time =    1.000,"P-0-1",           535,       195.032,       115.103,            0.,NA,NA,"",   978.904E+03,   999.199E+03,   999.199E+03
C:/temp/Job-0.odb,Step-1,Increment      1: Step Time =    1.000,"P-0-1",           536,       195.181,       125.101,            0.,NA,NA,"",   984.114E+03,   999.835E+03,   999.835E+03
C:/temp/Job-0.odb,Step-1,Increment      1: Step Time =    1.000,"P-0-1",           537,       195.447,       135.014,            0.,NA,NA,"",    989.86E+03,   1.00031E+06,   1.00031E+06
C:/temp/Job-0.odb,Step-1,Increment      1: Step Time =    1.000,"P-0-1",           538,       195.594,       144.777,            0.,NA,NA,"",   994.839E+03,   1.00052E+06,   1.00052E+06
C:/temp/Job-0.odb,Step-1,Increment      1: Step Time =    1.000,"P-0-1",           539,       194.961,       194.993,            0.,NA,NA,"",   999.952E+03,   999.905E+03,   999.905E+03
C:/temp/Job-0.odb,Step-1,Increment      1: Step Time =    1.000,"P-0-1",           540,       185.000,       195.156,            0.,NA,NA,"",   999.498E+03,   999.452E+03,   999.452E+03
C:/temp/Job-0.odb,Step-1,Increment      1: Step Time =    1.000,"P-0-1",           541,       175.268,       195.519,            0.,NA,NA,"",   998.524E+03,   998.443E+03,   998.443E+03
C:/temp/Job-0.odb,Step-1,Increment      1: Step Time =    1.000,"P-0-1",           542,       165.637,       195.639,            0.,NA,NA,"",   996.486E+03,   996.343E+03,   996.343E+03
C:/temp/Job-0.odb,Step-1,Increment      1: Step Time =    1.000,"P-0-1",           543,       155.968,       194.929,            0.,NA,NA,"",   992.770E+03,   992.483E+03,   992.483E+03
C:/temp/Job-0.odb,Step-1,Increment      1: Step Time =    1.000,"P-0-1",           544,       145.437,       192.311,            0.,NA,NA,"",   988.559E+03,   987.862E+03,   987.862E+03
C:/temp/Job-0.odb,Step-1,Increment      1: Step Time =    1.000,"P-0-1",           545,       134.532,       194.652,            0.,NA,NA,"",   975.380E+03,   975.307E+03,   975.307E+03
C:/temp/Job-0.odb,Step-1,Increment      1: Step Time =    1.000,"P-0-1",           546,       124.671,       195.245,            0.,NA,NA,"",   963.258E+03,    963.31E+03,    963.31E+03
C:/temp/Job-0.odb,Step-1,Increment      1: Step Time =    1.000,"P-0-1",           547,       114.846,       195.233,            0.,NA,NA,"",   952.382E+03,   952.635E+03,   952.635E+03
C:/temp/Job-0.odb,Step-1,Increment      1: Step Time =    1.000,"P-0-1",           548,       104.930,       195.120,            0.,NA,NA,"",   944.576E+03,   945.034E+03,   945.034E+03
C:/temp/Job-0.odb,Step-1,Increment      1: Step Time =    1.000,"P-0-1",           549,       94.9455,       195.052,            0.,NA,NA,"",   941.505E+03,   942.008E+03,   942.008E+03
C:/temp/Job-0.odb,Step-1,Increment      1: Step Time =    1.000,"P-0-1",           550,       5.14233,       184.852,            0.,NA,NA,"",   1.05704E+06,   1.14522E+06,   1.14522E+06
C:/temp/Job-0.odb,Step-1,Increment      1: Step Time =    1.000,"P-0-1",           551,       4.86367,       174.837,            0.,NA,NA,"",   961.622E+03,   1.05783E+06,   1.05783E+06
C:/temp/Job-0.odb,Step-1,Increment      1: Step Time =    1.000,"P-0-1",           552,       4.43828,       165.100,            0.,NA,NA,"",   910.970E+03,   1.01104E+06,   1.01104E+06
C:/temp/Job-0.odb,Step-1,Increment      1: Step Time =    1.000,"P-0-1",           553,       4.54583,       155.582,            0.,NA,NA,"",   879.850E+03,   980.817E+03,   980.817E+03
C:/temp/Job-0.odb,Step-1,Increment      1: Step Time =    1.000,"P-0-1",           554,       6.81803,       145.278,            0.,NA,NA,"",   861.789E+03,   959.603E+03,   959.603E+03
C:/temp/Job-0.odb,Step-1,Increment      1: Step Time =    1.000,"P-0-1",           555,       5.10742,       134.650,            0.,NA,NA,"",   832.789E+03,   933.269E+03,   933.269E+03
C:/temp/Job-0.odb,Step-1,Increment      1: Step Time =    1.000,"P-0-1",           556,       4.79239,       124.827,            0.,NA,NA,"",   815.269E+03,   915.830E+03,   915.830E+03
C:/temp/Job-0.odb,Step-1,Increment      1: Step Time =    1.000,"P-0-1",           557,       4.86320,       114.983,            0.,NA,NA,"",   803.151E+03,   903.346E+03,   903.346E+03
C:/temp/Job-0.odb,Step-1,Increment      1: Step Time =    1.000,"P-0-1",           558,       4.96508,       105.052,            0.,NA,NA,"",   796.564E+03,   896.483E+03,   896.483E+03
C:/temp/Job-0.odb,Step-1,Increment      1: Step Time =    1.000,"P-0-1",           559,       5.07704,       95.0443,            0.,NA,NA,"",   796.624E+03,   896.423E+03,   896.423E+03
C:/temp/Job-0.odb,Step-1,Increment      1: Step Time =    1.000,"P-0-1",           560,       5.15116,       84.9615,            0.,NA,NA,"",   803.372E+03,   903.327E+03,   903.327E+03
C:/temp/Job-0.odb,Step-1,Increment      1: Step Time =    1.000,"P-0-1",           561,       4.87825,       74.9754,            0.,NA,NA,"",   815.569E+03,   915.958E+03,   915.958E+03
C:/temp/Job-0.odb,Step-1,Increment      1: Step Time =    1.000,"P-0-1",           562,       4.73408,       65.0814,            0.,NA,NA,"",   832.243E+03,   933.057E+03,   933.057E+03
C:/temp/Job-0.odb,Step-1,Increment      1: Step Time =    1.000,"P-0-1",           563,       4.88583,       55.1972,            0.,NA,NA,"",   853.295E+03,   953.938E+03,   953.938E+03
C:/temp/Job-0.odb,Step-1,Increment      1: Step Time =    1.000,"P-0-1",           564,       195.265,       154.569,            0.,NA,NA,"",   998.378E+03,   1.00061E+06,   1.00061E+06
C:/temp/Job-0.odb,Step-1,Increment      1: Step Time =    1.000,"P-0-1",           565,       194.766,       164.646,            0.,NA,NA,"",   1.00022E+06,   1.00057E+06,   1.00057E+06
C:/temp/Job-0.odb,Step-1,Increment      1: Step Time =    1.000,"P-0-1",           566,       194.792,       174.818,            0.,NA,NA,"",   1.00058E+06,   1.00029E+06,   1.00029E+06
C:/temp/Job-0.odb,Step-1,Increment      1: Step Time =    1.000,"P-0-1",           567,       194.828,       184.894,            0.,NA,NA,"",   1.00026E+06,   1.00003E+06,   1.00003E+06
C:/temp/Job-0.odb,Step-1,Increment      1: Step Time =    1.000,"P-0-1",           568,       189.959,       5.11248,            0.,NA,NA,"",   999.777E+03,   999.722E+03,   999.722E+03
C:/temp/Job-0.odb,Step-1,Increment      1: Step Time =    1.000,"P-0-1",           569,       179.874,       5.20744,            0.,NA,NA,"",   999.079E+03,   998.990E+03,   998.990E+03
C:/temp/Job-0.odb,Step-1,Increment      1: Step Time =    1.000,"P-0-1",           570,       169.791,       5.21040,            0.,NA,NA,"",   997.596E+03,   997.409E+03,   997.409E+03
C:/temp/Job-0.odb,Step-1,Increment      1: Step Time =    1.000,"P-0-1",           571,       159.581,       5.18397,            0.,NA,NA,"",   994.401E+03,   994.130E+03,   994.130E+03
C:/temp/Job-0.odb,Step-1,Increment      1: Step Time =    1.000,"P-0-1",           572,       149.594,       4.53908,            0.,NA,NA,"",   988.258E+03,   988.015E+03,   988.015E+03
C:/temp/Job-0.odb,Step-1,Increment      1: Step Time =    1.000,"P-0-1",           573,       139.836,       4.60440,            0.,NA,NA,"",   979.741E+03,   979.514E+03,   979.514E+03
C:/temp/Job-0.odb,Step-1,Increment      1: Step Time =    1.000,"P-0-1",           574,       129.907,       4.77744,            0.,NA,NA,"",   969.081E+03,   969.000E+03,   969.000E+03
C:/temp/Job-0.odb,Step-1,Increment      1: Step Time =    1.000,"P-0-1",           575,       119.945,       4.91089,            0.,NA,NA,"",   957.914E+03,   958.056E+03,   958.056E+03
C:/temp/Job-0.odb,Step-1,Increment      1: Step Time =    1.000,"P-0-1",           576,       109.995,       4.97379,            0.,NA,NA,"",   948.429E+03,   948.803E+03,   948.803E+03
C:/temp/Job-0.odb,Step-1,Increment      1: Step Time =    1.000,"P-0-1",           577,       100.042,       4.94654,            0.,NA,NA,"",   942.575E+03,   943.077E+03,   943.077E+03
C:/temp/Job-0.odb,Step-1,Increment      1: Step Time =    1.000,"P-0-1",           578,       90.1086,       4.83681,            0.,NA,NA,"",   941.531E+03,   941.984E+03,   941.984E+03
C:/temp/Job-0.odb,Step-1,Increment      1: Step Time =    1.000,"P-0-1",           579,       80.2420,       4.71254,            0.,NA,NA,"",   945.186E+03,   945.486E+03,   945.486E+03
C:/temp/Job-0.odb,Step-1,Increment      1: Step Time =    1.000,"P-0-1",           580,       70.4388,       4.84905,            0.,NA,NA,"",   953.056E+03,   953.302E+03,   953.302E+03
C:/temp/Job-0.odb,Step-1,Increment      1: Step Time =    1.000,"P-0-1",           581,       60.5083,       5.90641,            0.,NA,NA,"",   966.213E+03,   966.397E+03,   966.397E+03
C:/temp/Job-0.odb,Step-1,Increment      1: Step Time =    1.000,"P-0-1",           582,       49.3225,       5.41109,            0.,NA,NA,"",   979.086E+03,   979.310E+03,   979.310E+03
C:/temp/Job-0.odb,Step-1,Increment      1: Step Time =    1.000,"P-0-1",           583,       39.6418,       4.43009,            0.,NA,NA,"",   992.116E+03,   992.976E+03,   992.976E+03
C:/temp/Job-0.odb,Step-1,Increment      1: Step Time =    1.000,"P-0-1",           584,       29.9628,       4.33308,            0.,NA,NA,"",   1.02054E+06,   1.02219E+06,   1.02219E+06
C:/temp/Job-0.odb,Step-1,Increment      1: Step Time =    1.000,"P-0-1",           585,       20.0898,       4.56203,            0.,NA,NA,"",   1.07941E+06,   1.08370E+06,   1.08370E+06
C:/temp/Job-0.odb,Step-1,Increment      1: Step Time =    1.000,"P-0-1",           586,       10.0882,       4.89121,            0.,NA,NA,"",   1.22065E+06,   1.23385E+06,   1.23385E+06
C:/temp/Job-0.odb,Step-1,Increment      1: Step Time =    1.000,"P-0-1",           587,       194.890,       189.958,            0.,NA,NA,"",   1.00006E+06,   999.935E+03,   999.935E+03
C:/temp/Job-0.odb,Step-1,Increment      1: Step Time =    1.000,"P-0-1",           588,       194.786,       179.855,            0.,NA,NA,"",   1.00045E+06,   1.00015E+06,   1.00015E+06
C:/temp/Job-0.odb,Step-1,Increment      1: Step Time =    1.000,"P-0-1",           589,       194.780,       169.756,            0.,NA,NA,"",   1.00054E+06,   1.00044E+06,   1.00044E+06
C:/temp/Job-0.odb,Step-1,Increment      1: Step Time =    1.000,"P-0-1",           590,       194.817,       159.557,            0.,NA,NA,"",   999.538E+03,   1.00064E+06,   1.00064E+06
C:/temp/Job-0.odb,Step-1,Increment      1: Step Time =    1.000,"P-0-1",           591,       195.536,       149.623,            0.,NA,NA,"",   996.769E+03,   1.00054E+06,   1.00054E+06
C:/temp/Job-0.odb,Step-1,Increment      1: Step Time =    1.000,"P-0-1",           592,       195.555,       139.927,            0.,NA,NA,"",   992.536E+03,   1.00046E+06,   1.00046E+06
C:/temp/Job-0.odb,Step-1,Increment      1: Step Time =    1.000,"P-0-1",           593,       195.317,       130.070,            0.,NA,NA,"",   987.013E+03,   1.00011E+06,   1.00011E+06
C:/temp/Job-0.odb,Step-1,Increment      1: Step Time =    1.000,"P-0-1",           594,       195.090,       120.107,            0.,NA,NA,"",   981.348E+03,   999.523E+03,   999.523E+03
C:/temp/Job-0.odb,Step-1,Increment      1: Step Time =    1.000,"P-0-1",           595,       195.018,       110.092,            0.,NA,NA,"",   976.990E+03,   998.932E+03,   998.932E+03
C:/temp/Job-0.odb,Step-1,Increment      1: Step Time =    1.000,"P-0-1",           596,       195.063,       100.075,            0.,NA,NA,"",   975.390E+03,   998.733E+03,   998.733E+03
C:/temp/Job-0.odb,Step-1,Increment      1: Step Time =    1.000,"P-0-1",           597,       195.172,       90.1149,            0.,NA,NA,"",   977.073E+03,   999.027E+03,   999.027E+03
C:/temp/Job-0.odb,Step-1,Increment      1: Step Time =    1.000,"P-0-1",           598,       195.276,       80.2213,            0.,NA,NA,"",   981.333E+03,   999.537E+03,   999.537E+03
C:/temp/Job-0.odb,Step-1,Increment      1: Step Time =    1.000,"P-0-1",           599,       195.094,       70.3959,            0.,NA,NA,"",   986.982E+03,   999.975E+03,   999.975E+03
C:/temp/Job-0.odb,Step-1,Increment      1: Step Time =    1.000,"P-0-1",           600,       193.848,       60.3624,            0.,NA,NA,"",   993.044E+03,   1.00052E+06,   1.00052E+06
C:/temp/Job-0.odb,Step-1,Increment      1: Step Time =    1.000,"P-0-1",           601,       194.017,       48.9289,            0.,NA,NA,"",   998.011E+03,   1.00110E+06,   1.00110E+06
C:/temp/Job-0.odb,Step-1,Increment      1: Step Time =    1.000,"P-0-1",           602,       195.485,       39.2228,            0.,NA,NA,"",   999.704E+03,   1.00047E+06,   1.00047E+06
C:/temp/Job-0.odb,Step-1,Increment      1: Step Time =    1.000,"P-0-1",           603,       195.724,       29.5735,            0.,NA,NA,"",   1.00052E+06,   1.00026E+06,   1.00026E+06
C:/temp/Job-0.odb,Step-1,Increment      1: Step Time =    1.000,"P-0-1",           604,       195.345,       19.9224,            0.,NA,NA,"",   1.00043E+06,   1.00009E+06,   1.00009E+06
C:/temp/Job-0.odb,Step-1,Increment      1: Step Time =    1.000,"P-0-1",           605,       195.039,       10.0579,            0.,NA,NA,"",   1.00006E+06,   999.931E+03,   999.931E+03
C:/temp/Job-0.odb,Step-1,Increment      1: Step Time =    1.000,"P-0-1",           606,       10.0925,       194.887,            0.,NA,NA,"",   1.21954E+06,   1.23400E+06,   1.23400E+06
C:/temp/Job-0.odb,Step-1,Increment      1: Step Time =    1.000,"P-0-1",           607,       20.1608,       194.743,            0.,NA,NA,"",   1.08218E+06,   1.08749E+06,   1.08749E+06
C:/temp/Job-0.odb,Step-1,Increment      1: Step Time =    1.000,"P-0-1",           608,       30.1350,       194.799,            0.,NA,NA,"",   1.02435E+06,   1.02671E+06,   1.02671E+06
C:/temp/Job-0.odb,Step-1,Increment      1: Step Time =    1.000,"P-0-1",           609,       40.3194,       194.833,            0.,NA,NA,"",   993.404E+03,   994.413E+03,   994.413E+03
C:/temp/Job-0.odb,Step-1,Increment      1: Step Time =    1.000,"P-0-1",           610,       50.3545,       195.429,            0.,NA,NA,"",   973.527E+03,   973.897E+03,   973.897E+03
C:/temp/Job-0.odb,Step-1,Increment      1: Step Time =    1.000,"P-0-1",           611,       60.1327,       195.367,            0.,NA,NA,"",   961.827E+03,   961.955E+03,   961.955E+03
C:/temp/Job-0.odb,Step-1,Increment      1: Step Time =    1.000,"P-0-1",           612,       70.0597,       195.204,            0.,NA,NA,"",   952.738E+03,   952.907E+03,   952.907E+03
C:/temp/Job-0.odb,Step-1,Increment      1: Step Time =    1.000,"P-0-1",           613,       80.0174,       195.087,            0.,NA,NA,"",   945.806E+03,   946.085E+03,   946.085E+03
C:/temp/Job-0.odb,Step-1,Increment      1: Step Time =    1.000,"P-0-1",           614,       89.9637,       195.045,            0.,NA,NA,"",   941.919E+03,   942.359E+03,   942.359E+03
C:/temp/Job-0.odb,Step-1,Increment      1: Step Time =    1.000,"P-0-1",           615,       99.9358,       195.083,            0.,NA,NA,"",   942.374E+03,   942.888E+03,   942.888E+03
C:/temp/Job-0.odb,Step-1,Increment      1: Step Time =    1.000,"P-0-1",           616,       109.903,       195.180,            0.,NA,NA,"",   947.978E+03,   948.345E+03,   948.345E+03
C:/temp/Job-0.odb,Step-1,Increment      1: Step Time =    1.000,"P-0-1",           617,       119.770,       195.273,            0.,NA,NA,"",   957.555E+03,   957.698E+03,   957.698E+03
C:/temp/Job-0.odb,Step-1,Increment      1: Step Time =    1.000,"P-0-1",           618,       129.581,       195.070,            0.,NA,NA,"",   969.292E+03,   969.274E+03,   969.274E+03
C:/temp/Job-0.odb,Step-1,Increment      1: Step Time =    1.000,"P-0-1",           619,       139.609,       193.828,            0.,NA,NA,"",   981.557E+03,   981.289E+03,   981.289E+03
C:/temp/Job-0.odb,Step-1,Increment      1: Step Time =    1.000,"P-0-1",           620,       151.030,       194.019,            0.,NA,NA,"",   990.525E+03,   990.008E+03,   990.008E+03
C:/temp/Job-0.odb,Step-1,Increment      1: Step Time =    1.000,"P-0-1",           621,       160.801,       195.424,            0.,NA,NA,"",   994.852E+03,   994.665E+03,   994.665E+03
C:/temp/Job-0.odb,Step-1,Increment      1: Step Time =    1.000,"P-0-1",           622,       170.439,       195.649,            0.,NA,NA,"",   997.687E+03,   997.579E+03,   997.579E+03
C:/temp/Job-0.odb,Step-1,Increment      1: Step Time =    1.000,"P-0-1",           623,       180.112,       195.335,            0.,NA,NA,"",   999.100E+03,   999.041E+03,   999.041E+03
C:/temp/Job-0.odb,Step-1,Increment      1: Step Time =    1.000,"P-0-1",           624,       189.953,       195.043,            0.,NA,NA,"",   999.777E+03,   999.730E+03,   999.730E+03
C:/temp/Job-0.odb,Step-1,Increment      1: Step Time =    1.000,"P-0-1",           625,       5.39771,       15.0891,            0.,NA,NA,"",   1.05981E+06,   1.14667E+06,   1.14667E+06
C:/temp/Job-0.odb,Step-1,Increment      1: Step Time =    1.000,"P-0-1",           626,       5.11378,       25.3006,            0.,NA,NA,"",   963.142E+03,   1.05859E+06,   1.05859E+06
C:/temp/Job-0.odb,Step-1,Increment      1: Step Time =    1.000,"P-0-1",           627,       4.84553,       35.2873,            0.,NA,NA,"",   911.541E+03,   1.01073E+06,   1.01073E+06
C:/temp/Job-0.odb,Step-1,Increment      1: Step Time =    1.000,"P-0-1",           628,       5.24448,       45.2815,            0.,NA,NA,"",   879.670E+03,   979.435E+03,   979.435E+03
C:/temp/Job-0.odb,Step-1,Increment      1: Step Time =    1.000,"P-0-1",           629,       5.07749,       50.2485,            0.,NA,NA,"",   866.097E+03,   966.288E+03,   966.288E+03
C:/temp/Job-0.odb,Step-1,Increment      1: Step Time =    1.000,"P-0-1",           630,       4.77022,       60.1397,            0.,NA,NA,"",   842.153E+03,   942.994E+03,   942.994E+03
C:/temp/Job-0.odb,Step-1,Increment      1: Step Time =    1.000,"P-0-1",           631,       4.76812,       70.0213,            0.,NA,NA,"",   823.403E+03,   924.045E+03,   924.045E+03
C:/temp/Job-0.odb,Step-1,Increment      1: Step Time =    1.000,"P-0-1",           632,       5.02862,       79.9577,            0.,NA,NA,"",   808.825E+03,   908.970E+03,   908.970E+03
C:/temp/Job-0.odb,Step-1,Increment      1: Step Time =    1.000,"P-0-1",           633,       5.13703,       89.9928,            0.,NA,NA,"",   799.266E+03,   899.098E+03,   899.098E+03
C:/temp/Job-0.odb,Step-1,Increment      1: Step Time =    1.000,"P-0-1",           634,       5.00994,       100.062,            0.,NA,NA,"",   795.715E+03,   895.555E+03,   895.555E+03
C:/temp/Job-0.odb,Step-1,Increment      1: Step Time =    1.000,"P-0-1",           635,       4.91069,       110.026,            0.,NA,NA,"",   799.112E+03,   899.144E+03,   899.144E+03
C:/temp/Job-0.odb,Step-1,Increment      1: Step Time =    1.000,"P-0-1",           636,       4.80587,       119.917,            0.,NA,NA,"",   808.566E+03,   908.952E+03,   908.952E+03
C:/temp/Job-0.odb,Step-1,Increment      1: Step Time =    1.000,"P-0-1",           637,       4.86398,       129.736,            0.,NA,NA,"",   823.285E+03,   923.933E+03,   923.933E+03
C:/temp/Job-0.odb,Step-1,Increment      1: Step Time =    1.000,"P-0-1",           638,       5.66827,       139.672,            0.,NA,NA,"",   844.519E+03,   944.261E+03,   944.261E+03
C:/temp/Job-0.odb,Step-1,Increment      1: Step Time =    1.000,"P-0-1",           639,       5.15141,       150.729,            0.,NA,NA,"",   869.275E+03,   969.403E+03,   969.403E+03
C:/temp/Job-0.odb,Step-1,Increment      1: Step Time =    1.000,"P-0-1",           640,       4.38353,       160.333,            0.,NA,NA,"",   893.782E+03,   994.569E+03,   994.569E+03
C:/temp/Job-0.odb,Step-1,Increment      1: Step Time =    1.000,"P-0-1",           641,       4.59181,       169.930,            0.,NA,NA,"",   933.349E+03,   1.03193E+06,   1.03193E+06
C:/temp/Job-0.odb,Step-1,Increment      1: Step Time =    1.000,"P-0-1",           642,       5.16567,       179.807,            0.,NA,NA,"",   1.00367E+06,   1.09617E+06,   1.09617E+06
C:/temp/Job-0.odb,Step-1,Increment      1: Step Time =    1.000,"P-0-1",           643,       5.09082,       189.907,            0.,NA,NA,"",   1.15873E+06,   1.23612E+06,   1.23612E+06
C:/temp/Job-0.odb,Step-1,Increment      1: Step Time =    1.000,"P-0-1",           644,       110.395,       114.117,            0.,NA,NA,"",   1.36811E+06,   1.34758E+06,   1.34758E+06
C:/temp/Job-0.odb,Step-1,Increment      1: Step Time =    1.000,"P-0-1",           645,       89.5968,       85.8816,            0.,NA,NA,"",   1.35510E+06,   1.34220E+06,   1.34220E+06
C:/temp/Job-0.odb,Step-1,Increment      1: Step Time =    1.000,"P-0-1",           646,       139.726,       9.29162,            0.,NA,NA,"",   985.850E+03,   985.217E+03,   985.217E+03
C:/temp/Job-0.odb,Step-1,Increment      1: Step Time =    1.000,"P-0-1",           647,       129.834,       9.57322,            0.,NA,NA,"",   977.842E+03,   977.636E+03,   977.636E+03
C:/temp/Job-0.odb,Step-1,Increment      1: Step Time =    1.000,"P-0-1",           648,       119.901,       9.85481,            0.,NA,NA,"",   969.354E+03,   969.788E+03,   969.788E+03
C:/temp/Job-0.odb,Step-1,Increment      1: Step Time =    1.000,"P-0-1",           649,       109.972,       9.98783,            0.,NA,NA,"",   962.116E+03,   963.206E+03,   963.206E+03
C:/temp/Job-0.odb,Step-1,Increment      1: Step Time =    1.000,"P-0-1",           650,       100.035,       9.92559,            0.,NA,NA,"",   957.780E+03,   959.231E+03,   959.231E+03
C:/temp/Job-0.odb,Step-1,Increment      1: Step Time =    1.000,"P-0-1",           651,       90.1547,       9.72401,            0.,NA,NA,"",   957.560E+03,   958.878E+03,   958.878E+03
C:/temp/Job-0.odb,Step-1,Increment      1: Step Time =    1.000,"P-0-1",           652,       80.4546,       9.47922,            0.,NA,NA,"",   961.204E+03,   962.128E+03,   962.128E+03
C:/temp/Job-0.odb,Step-1,Increment      1: Step Time =    1.000,"P-0-1",           653,       71.0341,       9.59824,            0.,NA,NA,"",   968.979E+03,   969.599E+03,   969.599E+03
C:/temp/Job-0.odb,Step-1,Increment      1: Step Time =    1.000,"P-0-1",           654,       62.0347,       11.2392,            0.,NA,NA,"",   984.081E+03,   984.691E+03,   984.691E+03
C:/temp/Job-0.odb,Step-1,Increment      1: Step Time =    1.000,"P-0-1",           655,       191.075,       139.901,            0.,NA,NA,"",   994.713E+03,   1.00128E+06,   1.00128E+06
C:/temp/Job-0.odb,Step-1,Increment      1: Step Time =    1.000,"P-0-1",           656,       190.635,       130.245,            0.,NA,NA,"",   989.676E+03,   1.00026E+06,   1.00026E+06
C:/temp/Job-0.odb,Step-1,Increment      1: Step Time =    1.000,"P-0-1",           657,       190.191,       120.274,            0.,NA,NA,"",   984.051E+03,   998.624E+03,   998.624E+03
C:/temp/Job-0.odb,Step-1,Increment      1: Step Time =    1.000,"P-0-1",           658,       190.066,       110.187,            0.,NA,NA,"",   979.279E+03,   996.966E+03,   996.966E+03
C:/temp/Job-0.odb,Step-1,Increment      1: Step Time =    1.000,"P-0-1",           659,       190.146,       100.108,            0.,NA,NA,"",   977.483E+03,   996.390E+03,   996.390E+03
C:/temp/Job-0.odb,Step-1,Increment      1: Step Time =    1.000,"P-0-1",           660,       190.330,       90.1789,            0.,NA,NA,"",   979.392E+03,   997.208E+03,   997.208E+03
C:/temp/Job-0.odb,Step-1,Increment      1: Step Time =    1.000,"P-0-1",           661,       190.544,       80.4080,            0.,NA,NA,"",   983.802E+03,   998.665E+03,   998.665E+03
C:/temp/Job-0.odb,Step-1,Increment      1: Step Time =    1.000,"P-0-1",           662,       190.363,       70.9652,            0.,NA,NA,"",   989.281E+03,   1.00004E+06,   1.00004E+06
C:/temp/Job-0.odb,Step-1,Increment      1: Step Time =    1.000,"P-0-1",           663,       188.537,       61.8646,            0.,NA,NA,"",    995.48E+03,   1.00163E+06,   1.00163E+06
C:/temp/Job-0.odb,Step-1,Increment      1: Step Time =    1.000,"P-0-1",           664,       99.9118,       190.191,            0.,NA,NA,"",   957.355E+03,   958.829E+03,   958.829E+03
C:/temp/Job-0.odb,Step-1,Increment      1: Step Time =    1.000,"P-0-1",           665,       109.865,       190.348,            0.,NA,NA,"",   961.265E+03,   962.317E+03,   962.317E+03
C:/temp/Job-0.odb,Step-1,Increment      1: Step Time =    1.000,"P-0-1",           666,       119.565,       190.510,            0.,NA,NA,"",   968.414E+03,   968.835E+03,   968.835E+03
C:/temp/Job-0.odb,Step-1,Increment      1: Step Time =    1.000,"P-0-1",           667,       128.978,       190.295,            0.,NA,NA,"",   977.537E+03,   977.403E+03,   977.403E+03
C:/temp/Job-0.odb,Step-1,Increment      1: Step Time =    1.000,"P-0-1",           668,       138.080,       188.465,            0.,NA,NA,"",   988.371E+03,   987.533E+03,   987.533E+03
C:/temp/Job-0.odb,Step-1,Increment      1: Step Time =    1.000,"P-0-1",           669,       9.52386,       60.3782,            0.,NA,NA,"",   857.626E+03,   952.528E+03,   952.528E+03
C:/temp/Job-0.odb,Step-1,Increment      1: Step Time =    1.000,"P-0-1",           670,       9.51512,       70.0132,            0.,NA,NA,"",   836.895E+03,   932.679E+03,   932.679E+03
C:/temp/Job-0.odb,Step-1,Increment      1: Step Time =    1.000,"P-0-1",           671,       10.0611,       79.8102,            0.,NA,NA,"",   820.887E+03,   916.668E+03,   916.668E+03
C:/temp/Job-0.odb,Step-1,Increment      1: Step Time =    1.000,"P-0-1",           672,       10.2164,       90.0758,            0.,NA,NA,"",   809.160E+03,   905.239E+03,   905.239E+03
C:/temp/Job-0.odb,Step-1,Increment      1: Step Time =    1.000,"P-0-1",           673,       9.96131,       100.191,            0.,NA,NA,"",   804.683E+03,   901.148E+03,   901.148E+03
C:/temp/Job-0.odb,Step-1,Increment      1: Step Time =    1.000,"P-0-1",           674,       9.82816,       110.095,            0.,NA,NA,"",   808.791E+03,    905.25E+03,    905.25E+03
C:/temp/Job-0.odb,Step-1,Increment      1: Step Time =    1.000,"P-0-1",           675,       9.64137,       119.853,            0.,NA,NA,"",   819.727E+03,   916.042E+03,   916.042E+03
C:/temp/Job-0.odb,Step-1,Increment      1: Step Time =    1.000,"P-0-1",           676,       9.66615,       129.339,            0.,NA,NA,"",   836.093E+03,   931.841E+03,   931.841E+03
C:/temp/Job-0.odb,Step-1,Increment      1: Step Time =    1.000,"P-0-1",           677,       10.8115,       138.453,            0.,NA,NA,"",   859.555E+03,   952.841E+03,   952.841E+03
C:/temp/Job-0.odb,Step-1,Increment      1: Step Time =    1.000,"P-0-1",           678,       60.2012,       190.647,            0.,NA,NA,"",   979.308E+03,   979.779E+03,   979.779E+03
C:/temp/Job-0.odb,Step-1,Increment      1: Step Time =    1.000,"P-0-1",           679,       70.0920,       190.376,            0.,NA,NA,"",   969.884E+03,   970.429E+03,   970.429E+03
C:/temp/Job-0.odb,Step-1,Increment      1: Step Time =    1.000,"P-0-1",           680,       80.0217,       190.134,            0.,NA,NA,"",   962.703E+03,   963.575E+03,   963.575E+03
C:/temp/Job-0.odb,Step-1,Increment      1: Step Time =    1.000,"P-0-1",           681,       89.9501,       190.069,            0.,NA,NA,"",   958.217E+03,   959.508E+03,   959.508E+03
C:/temp/Job-0.odb,Step-1,Increment      1: Step Time =    1.000,"P-0-1",           682,       119.934,       104.408,            0.,NA,NA,"",   630.178E+03,   557.864E+03,   557.864E+03
C:/temp/Job-0.odb,Step-1,Increment      1: Step Time =    1.000,"P-0-1",           683,       80.0577,       95.5945,            0.,NA,NA,"",   604.932E+03,   555.344E+03,   555.344E+03
C:/temp/Job-0.odb,Step-1,Increment      1: Step Time =    1.000,"P-0-1",           684,       87.3676,       89.7009,            0.,NA,NA,"",   1.16292E+06,   1.04506E+06,   1.04506E+06
C:/temp/Job-0.odb,Step-1,Increment      1: Step Time =    1.000,"P-0-1",           685,       112.628,       110.298,            0.,NA,NA,"",   1.18195E+06,   1.04995E+06,   1.04995E+06
C:/temp/Job-0.odb,Step-1,Increment      1: Step Time =    1.000,"P-0-1",           686,       77.6484,       101.999,            0.,NA,NA,"",   547.880E+03,   562.078E+03,   562.078E+03
C:/temp/Job-0.odb,Step-1,Increment      1: Step Time =    1.000,"P-0-1",           687,       122.342,       98.0154,            0.,NA,NA,"",   569.952E+03,   564.443E+03,   564.443E+03
C:/temp/Job-0.odb,Step-1,Increment      1: Step Time =    1.000,"P-0-1",           688,       87.1579,       78.2031,            0.,NA,NA,"",   1.23976E+06,   1.23281E+06,   1.23281E+06
C:/temp/Job-0.odb,Step-1,Increment      1: Step Time =    1.000,"P-0-1",           689,       110.178,       82.2169,            0.,NA,NA,"",   1.33854E+06,   1.34734E+06,   1.34734E+06
C:/temp/Job-0.odb,Step-1,Increment      1: Step Time =    1.000,"P-0-1",           690,       89.8223,       117.783,            0.,NA,NA,"",   1.32919E+06,   1.34498E+06,   1.34498E+06
C:/temp/Job-0.odb,Step-1,Increment      1: Step Time =    1.000,"P-0-1",           691,       112.818,       121.794,            0.,NA,NA,"",   1.25106E+06,   1.23456E+06,   1.23456E+06
C:/temp/Job-0.odb,Step-1,Increment      1: Step Time =    1.000,"P-0-1",           692,       8.93510,       165.128,            0.,NA,NA,"",   932.968E+03,   1.02333E+06,   1.02333E+06
C:/temp/Job-0.odb,Step-1,Increment      1: Step Time =    1.000,"P-0-1",           693,       164.449,       10.4007,            0.,NA,NA,"",   998.368E+03,   997.700E+03,   997.700E+03
C:/temp/Job-0.odb,Step-1,Increment      1: Step Time =    1.000,"P-0-1",           694,       34.6179,       8.71374,            0.,NA,NA,"",   1.02569E+06,   1.02909E+06,   1.02909E+06
C:/temp/Job-0.odb,Step-1,Increment      1: Step Time =    1.000,"P-0-1",           695,       10.0011,       40.2609,            0.,NA,NA,"",   916.761E+03,   1.00678E+06,   1.00678E+06
C:/temp/Job-0.odb,Step-1,Increment      1: Step Time =    1.000,"P-0-1",           696,       161.817,       190.994,            0.,NA,NA,"",   996.885E+03,   996.370E+03,   996.370E+03
C:/temp/Job-0.odb,Step-1,Increment      1: Step Time =    1.000,"P-0-1",           697,       189.561,       164.374,            0.,NA,NA,"",   1.00131E+06,   1.00162E+06,   1.00162E+06
C:/temp/Job-0.odb,Step-1,Increment      1: Step Time =    1.000,"P-0-1",           698,       191.134,       38.2013,            0.,NA,NA,"",   1.00056E+06,   1.00126E+06,   1.00126E+06
C:/temp/Job-0.odb,Step-1,Increment      1: Step Time =    1.000,"P-0-1",           699,       35.3397,       189.689,            0.,NA,NA,"",   1.02923E+06,   1.03347E+06,   1.03347E+06
C:/temp/Job-0.odb,Step-1,Increment      1: Step Time =    1.000,"P-0-1",           700,       60.1023,       17.8012,            0.,NA,NA,"",   1.00660E+06,   1.00849E+06,   1.00849E+06
C:/temp/Job-0.odb,Step-1,Increment      1: Step Time =    1.000,"P-0-1",           701,       14.2308,       60.7317,            0.,NA,NA,"",   873.023E+03,   961.352E+03,   961.352E+03
C:/temp/Job-0.odb,Step-1,Increment      1: Step Time =    1.000,"P-0-1",           702,       181.835,       59.9537,            0.,NA,NA,"",   1.00166E+06,   1.00429E+06,   1.00429E+06
C:/temp/Job-0.odb,Step-1,Increment      1: Step Time =    1.000,"P-0-1",           703,       60.1750,       185.791,            0.,NA,NA,"",   995.570E+03,   996.735E+03,   996.735E+03
C:/temp/Job-0.odb,Step-1,Increment      1: Step Time =    1.000,"P-0-1",           704,       139.681,       14.0831,            0.,NA,NA,"",   993.208E+03,   991.921E+03,   991.921E+03
C:/temp/Job-0.odb,Step-1,Increment      1: Step Time =    1.000,"P-0-1",           705,       15.5750,       137.150,            0.,NA,NA,"",   872.860E+03,   959.664E+03,   959.664E+03
C:/temp/Job-0.odb,Step-1,Increment      1: Step Time =    1.000,"P-0-1",           706,       186.614,       139.881,            0.,NA,NA,"",   997.843E+03,   1.00264E+06,   1.00264E+06
C:/temp/Job-0.odb,Step-1,Increment      1: Step Time =    1.000,"P-0-1",           707,       139.980,       181.700,            0.,NA,NA,"",   1.00086E+06,   998.773E+03,   998.773E+03
C:/temp/Job-0.odb,Step-1,Increment      1: Step Time =    1.000,"P-0-1",           708,       75.1645,       97.7873,            0.,NA,NA,"",   582.159E+03,   607.081E+03,   607.081E+03
C:/temp/Job-0.odb,Step-1,Increment      1: Step Time =    1.000,"P-0-1",           709,       124.819,       102.225,            0.,NA,NA,"",   609.369E+03,   612.489E+03,   612.489E+03
C:/temp/Job-0.odb,Step-1,Increment      1: Step Time =    1.000,"P-0-1",           710,       13.4716,       165.017,            0.,NA,NA,"",   954.655E+03,   1.03387E+06,   1.03387E+06
C:/temp/Job-0.odb,Step-1,Increment      1: Step Time =    1.000,"P-0-1",           711,       164.580,       15.4568,            0.,NA,NA,"",   1.00151E+06,   1.00020E+06,   1.00020E+06
C:/temp/Job-0.odb,Step-1,Increment      1: Step Time =    1.000,"P-0-1",           712,       34.3968,       13.0619,            0.,NA,NA,"",   1.03910E+06,   1.04626E+06,   1.04626E+06
C:/temp/Job-0.odb,Step-1,Increment      1: Step Time =    1.000,"P-0-1",           713,       14.6941,       39.8292,            0.,NA,NA,"",   939.112E+03,   1.01866E+06,   1.01866E+06
C:/temp/Job-0.odb,Step-1,Increment      1: Step Time =    1.000,"P-0-1",           714,       162.931,       186.802,            0.,NA,NA,"",   999.632E+03,   998.637E+03,   998.637E+03
C:/temp/Job-0.odb,Step-1,Increment      1: Step Time =    1.000,"P-0-1",           715,       184.462,       164.481,            0.,NA,NA,"",   1.00346E+06,   1.00320E+06,   1.00320E+06
C:/temp/Job-0.odb,Step-1,Increment      1: Step Time =    1.000,"P-0-1",           716,       187.054,       36.9893,            0.,NA,NA,"",   1.00215E+06,   1.00237E+06,   1.00237E+06
C:/temp/Job-0.odb,Step-1,Increment      1: Step Time =    1.000,"P-0-1",           717,       35.1409,       184.647,            0.,NA,NA,"",   1.04008E+06,   1.04897E+06,   1.04897E+06
C:/temp/Job-0.odb,Step-1,Increment      1: Step Time =    1.000,"P-0-1",           718,       129.758,       14.3563,            0.,NA,NA,"",   986.807E+03,   986.412E+03,   986.412E+03
C:/temp/Job-0.odb,Step-1,Increment      1: Step Time =    1.000,"P-0-1",           719,       14.3864,       128.904,            0.,NA,NA,"",   849.068E+03,   939.334E+03,   939.334E+03
C:/temp/Job-0.odb,Step-1,Increment      1: Step Time =    1.000,"P-0-1",           720,       14.2245,       70.0021,            0.,NA,NA,"",   850.634E+03,   940.936E+03,   940.936E+03
C:/temp/Job-0.odb,Step-1,Increment      1: Step Time =    1.000,"P-0-1",           721,       71.6262,       14.1906,            0.,NA,NA,"",   983.287E+03,   984.394E+03,   984.394E+03
C:/temp/Job-0.odb,Step-1,Increment      1: Step Time =    1.000,"P-0-1",           722,       185.982,       130.566,            0.,NA,NA,"",   992.481E+03,   1.00056E+06,   1.00056E+06
C:/temp/Job-0.odb,Step-1,Increment      1: Step Time =    1.000,"P-0-1",           723,       70.1160,       185.533,            0.,NA,NA,"",   985.374E+03,   986.566E+03,   986.566E+03
C:/temp/Job-0.odb,Step-1,Increment      1: Step Time =    1.000,"P-0-1",           724,       185.851,       71.5298,            0.,NA,NA,"",   991.460E+03,   1.00005E+06,   1.00005E+06
C:/temp/Job-0.odb,Step-1,Increment      1: Step Time =    1.000,"P-0-1",           725,       128.364,       185.703,            0.,NA,NA,"",   985.782E+03,   985.510E+03,   985.510E+03
C:/temp/Job-0.odb,Step-1,Increment      1: Step Time =    1.000,"P-0-1",           726,       14.9482,       79.4152,            0.,NA,NA,"",   833.760E+03,   924.534E+03,   924.534E+03
C:/temp/Job-0.odb,Step-1,Increment      1: Step Time =    1.000,"P-0-1",           727,       119.873,       14.8452,            0.,NA,NA,"",   980.034E+03,   980.944E+03,   980.944E+03
C:/temp/Job-0.odb,Step-1,Increment      1: Step Time =    1.000,"P-0-1",           728,       80.5806,       14.3199,            0.,NA,NA,"",   975.937E+03,   977.828E+03,   977.828E+03
C:/temp/Job-0.odb,Step-1,Increment      1: Step Time =    1.000,"P-0-1",           729,       14.5222,       119.836,            0.,NA,NA,"",   831.559E+03,   923.080E+03,   923.080E+03
C:/temp/Job-0.odb,Step-1,Increment      1: Step Time =    1.000,"P-0-1",           730,       185.335,       120.487,            0.,NA,NA,"",   985.881E+03,   997.309E+03,   997.309E+03
C:/temp/Job-0.odb,Step-1,Increment      1: Step Time =    1.000,"P-0-1",           731,       80.0175,       185.122,            0.,NA,NA,"",   977.712E+03,   979.600E+03,   979.600E+03
C:/temp/Job-0.odb,Step-1,Increment      1: Step Time =    1.000,"P-0-1",           732,       185.819,       80.4936,            0.,NA,NA,"",   985.497E+03,   997.341E+03,   997.341E+03
C:/temp/Job-0.odb,Step-1,Increment      1: Step Time =    1.000,"P-0-1",           733,       119.435,       185.712,            0.,NA,NA,"",   978.769E+03,   979.649E+03,   979.649E+03
C:/temp/Job-0.odb,Step-1,Increment      1: Step Time =    1.000,"P-0-1",           734,       119.188,       111.116,            0.,NA,NA,"",   1.14443E+06,   1.03178E+06,   1.03178E+06
C:/temp/Job-0.odb,Step-1,Increment      1: Step Time =    1.000,"P-0-1",           735,       80.8045,       88.8835,            0.,NA,NA,"",   1.11581E+06,   1.02514E+06,   1.02514E+06
C:/temp/Job-0.odb,Step-1,Increment      1: Step Time =    1.000,"P-0-1",           736,       80.0876,       105.936,            0.,NA,NA,"",   777.689E+03,   725.692E+03,   725.692E+03
C:/temp/Job-0.odb,Step-1,Increment      1: Step Time =    1.000,"P-0-1",           737,       119.902,       94.0788,            0.,NA,NA,"",   801.596E+03,   727.943E+03,   727.943E+03
C:/temp/Job-0.odb,Step-1,Increment      1: Step Time =    1.000,"P-0-1",           738,       103.934,       77.3957,            0.,NA,NA,"",   1.15899E+06,   1.24644E+06,   1.24644E+06
C:/temp/Job-0.odb,Step-1,Increment      1: Step Time =    1.000,"P-0-1",           739,       93.4731,       76.5790,            0.,NA,NA,"",   1.17577E+06,   1.24837E+06,   1.24837E+06
C:/temp/Job-0.odb,Step-1,Increment      1: Step Time =    1.000,"P-0-1",           740,       96.0418,       122.575,            0.,NA,NA,"",   1.15925E+06,   1.24823E+06,   1.24823E+06
C:/temp/Job-0.odb,Step-1,Increment      1: Step Time =    1.000,"P-0-1",           741,       106.484,       123.408,            0.,NA,NA,"",   1.17735E+06,   1.24751E+06,   1.24751E+06
C:/temp/Job-0.odb,Step-1,Increment      1: Step Time =    1.000,"P-0-1",           742,       15.0207,       90.4476,            0.,NA,NA,"",   818.363E+03,   910.371E+03,   910.371E+03
C:/temp/Job-0.odb,Step-1,Increment      1: Step Time =    1.000,"P-0-1",           743,       109.915,       15.0573,            0.,NA,NA,"",   974.026E+03,   976.264E+03,   976.264E+03
C:/temp/Job-0.odb,Step-1,Increment      1: Step Time =    1.000,"P-0-1",           744,       90.1270,       14.6750,            0.,NA,NA,"",   971.454E+03,   974.144E+03,   974.144E+03
C:/temp/Job-0.odb,Step-1,Increment      1: Step Time =    1.000,"P-0-1",           745,       14.7545,       110.192,            0.,NA,NA,"",   818.937E+03,   911.117E+03,   911.117E+03
C:/temp/Job-0.odb,Step-1,Increment      1: Step Time =    1.000,"P-0-1",           746,       185.183,       110.285,            0.,NA,NA,"",   979.636E+03,   993.970E+03,   993.970E+03
C:/temp/Job-0.odb,Step-1,Increment      1: Step Time =    1.000,"P-0-1",           747,       90.0066,       185.066,            0.,NA,NA,"",   972.214E+03,   974.839E+03,   974.839E+03
C:/temp/Job-0.odb,Step-1,Increment      1: Step Time =    1.000,"P-0-1",           748,       185.492,       90.1917,            0.,NA,NA,"",   979.922E+03,   994.387E+03,   994.387E+03
C:/temp/Job-0.odb,Step-1,Increment      1: Step Time =    1.000,"P-0-1",           749,       109.885,       185.531,            0.,NA,NA,"",   972.789E+03,   974.886E+03,   974.886E+03
C:/temp/Job-0.odb,Step-1,Increment      1: Step Time =    1.000,"P-0-1",           750,       99.9642,       14.9362,            0.,NA,NA,"",   970.577E+03,   973.544E+03,   973.544E+03
C:/temp/Job-0.odb,Step-1,Increment      1: Step Time =    1.000,"P-0-1",           751,       14.8418,       100.363,            0.,NA,NA,"",   813.768E+03,   906.265E+03,   906.265E+03
C:/temp/Job-0.odb,Step-1,Increment      1: Step Time =    1.000,"P-0-1",           752,       185.281,       100.099,            0.,NA,NA,"",   977.259E+03,   992.761E+03,   992.761E+03
C:/temp/Job-0.odb,Step-1,Increment      1: Step Time =    1.000,"P-0-1",           753,       99.9439,       185.385,            0.,NA,NA,"",   969.687E+03,   972.651E+03,   972.651E+03
C:/temp/Job-0.odb,Step-1,Increment      1: Step Time =    1.000,"P-0-1",           754,       14.1257,       65.3810,            0.,NA,NA,"",   861.106E+03,   950.626E+03,   950.626E+03
C:/temp/Job-0.odb,Step-1,Increment      1: Step Time =    1.000,"P-0-1",           755,       63.7888,       16.1671,            0.,NA,NA,"",   997.663E+03,   998.898E+03,   998.898E+03
C:/temp/Job-0.odb,Step-1,Increment      1: Step Time =    1.000,"P-0-1",           756,       183.692,       63.6790,            0.,NA,NA,"",   997.871E+03,   1.00257E+06,   1.00257E+06
C:/temp/Job-0.odb,Step-1,Increment      1: Step Time =    1.000,"P-0-1",           757,       65.1395,       185.685,            0.,NA,NA,"",   990.127E+03,   991.234E+03,   991.234E+03
C:/temp/Job-0.odb,Step-1,Increment      1: Step Time =    1.000,"P-0-1",           758,       14.7479,       133.145,            0.,NA,NA,"",   860.227E+03,   949.145E+03,   949.145E+03
C:/temp/Job-0.odb,Step-1,Increment      1: Step Time =    1.000,"P-0-1",           759,       134.705,       14.1713,            0.,NA,NA,"",   990.163E+03,   989.260E+03,   989.260E+03
C:/temp/Job-0.odb,Step-1,Increment      1: Step Time =    1.000,"P-0-1",           760,       186.511,       135.296,            0.,NA,NA,"",   995.271E+03,   1.00170E+06,   1.00170E+06
C:/temp/Job-0.odb,Step-1,Increment      1: Step Time =    1.000,"P-0-1",           761,       136.247,       183.535,            0.,NA,NA,"",   995.362E+03,   993.997E+03,   993.997E+03
C:/temp/Job-0.odb,Step-1,Increment      1: Step Time =    1.000,"P-0-1",           762,       13.9454,       169.384,            0.,NA,NA,"",   977.242E+03,   1.05219E+06,   1.05219E+06
C:/temp/Job-0.odb,Step-1,Increment      1: Step Time =    1.000,"P-0-1",           763,       169.455,       15.4325,            0.,NA,NA,"",   1.00145E+06,   1.00043E+06,   1.00043E+06
C:/temp/Job-0.odb,Step-1,Increment      1: Step Time =    1.000,"P-0-1",           764,       30.0985,       17.3248,            0.,NA,NA,"",   1.05503E+06,   1.07043E+06,   1.07043E+06
C:/temp/Job-0.odb,Step-1,Increment      1: Step Time =    1.000,"P-0-1",           765,       18.1546,       31.5328,            0.,NA,NA,"",   991.898E+03,   1.05498E+06,   1.05498E+06
C:/temp/Job-0.odb,Step-1,Increment      1: Step Time =    1.000,"P-0-1",           766,       166.929,       187.231,            0.,NA,NA,"",   999.907E+03,   999.103E+03,   999.103E+03
C:/temp/Job-0.odb,Step-1,Increment      1: Step Time =    1.000,"P-0-1",           767,       184.524,       169.375,            0.,NA,NA,"",   1.00296E+06,   1.00251E+06,   1.00251E+06
C:/temp/Job-0.odb,Step-1,Increment      1: Step Time =    1.000,"P-0-1",           768,       30.5090,       184.451,            0.,NA,NA,"",   1.05264E+06,   1.06506E+06,   1.06506E+06
C:/temp/Job-0.odb,Step-1,Increment      1: Step Time =    1.000,"P-0-1",           769,       187.733,       33.2380,            0.,NA,NA,"",   1.00191E+06,   1.00187E+06,   1.00187E+06
C:/temp/Job-0.odb,Step-1,Increment      1: Step Time =    1.000,"P-0-1",           770,       14.4611,       74.6480,            0.,NA,NA,"",   841.655E+03,   932.391E+03,   932.391E+03
C:/temp/Job-0.odb,Step-1,Increment      1: Step Time =    1.000,"P-0-1",           771,       75.9971,       14.1873,            0.,NA,NA,"",   979.142E+03,   980.621E+03,   980.621E+03
C:/temp/Job-0.odb,Step-1,Increment      1: Step Time =    1.000,"P-0-1",           772,       14.3861,       124.426,            0.,NA,NA,"",   839.732E+03,   930.742E+03,   930.742E+03
C:/temp/Job-0.odb,Step-1,Increment      1: Step Time =    1.000,"P-0-1",           773,       124.816,       14.6062,            0.,NA,NA,"",   983.411E+03,   983.639E+03,   983.639E+03
C:/temp/Job-0.odb,Step-1,Increment      1: Step Time =    1.000,"P-0-1",           774,       185.925,       75.8842,            0.,NA,NA,"",   988.591E+03,   998.833E+03,   998.833E+03
C:/temp/Job-0.odb,Step-1,Increment      1: Step Time =    1.000,"P-0-1",           775,       75.0713,       185.317,            0.,NA,NA,"",   981.280E+03,   982.780E+03,   982.780E+03
C:/temp/Job-0.odb,Step-1,Increment      1: Step Time =    1.000,"P-0-1",           776,       185.601,       125.592,            0.,NA,NA,"",   989.370E+03,   999.083E+03,   999.083E+03
C:/temp/Job-0.odb,Step-1,Increment      1: Step Time =    1.000,"P-0-1",           777,       124.003,       185.778,            0.,NA,NA,"",   982.189E+03,   982.453E+03,   982.453E+03
C:/temp/Job-0.odb,Step-1,Increment      1: Step Time =    1.000,"P-0-1",           778,       85.3072,       14.5028,            0.,NA,NA,"",   973.338E+03,   975.651E+03,   975.651E+03
C:/temp/Job-0.odb,Step-1,Increment      1: Step Time =    1.000,"P-0-1",           779,       14.6556,       115.063,            0.,NA,NA,"",   824.538E+03,   916.435E+03,   916.435E+03
C:/temp/Job-0.odb,Step-1,Increment      1: Step Time =    1.000,"P-0-1",           780,       16.0168,       84.9029,            0.,NA,NA,"",   827.151E+03,   917.487E+03,   917.487E+03
C:/temp/Job-0.odb,Step-1,Increment      1: Step Time =    1.000,"P-0-1",           781,       114.881,       15.0004,            0.,NA,NA,"",   976.851E+03,   978.455E+03,   978.455E+03
C:/temp/Job-0.odb,Step-1,Increment      1: Step Time =    1.000,"P-0-1",           782,       185.662,       85.2909,            0.,NA,NA,"",   982.469E+03,   995.775E+03,   995.775E+03
C:/temp/Job-0.odb,Step-1,Increment      1: Step Time =    1.000,"P-0-1",           783,       114.708,       185.621,            0.,NA,NA,"",   975.574E+03,   977.064E+03,   977.064E+03
C:/temp/Job-0.odb,Step-1,Increment      1: Step Time =    1.000,"P-0-1",           784,       185.226,       115.377,            0.,NA,NA,"",   982.528E+03,   995.542E+03,   995.542E+03
C:/temp/Job-0.odb,Step-1,Increment      1: Step Time =    1.000,"P-0-1",           785,       85.0313,       185.025,            0.,NA,NA,"",   974.686E+03,   976.963E+03,   976.963E+03
C:/temp/Job-0.odb,Step-1,Increment      1: Step Time =    1.000,"P-0-1",           786,       81.6071,       110.412,            0.,NA,NA,"",   1.07774E+06,   970.901E+03,   970.901E+03
C:/temp/Job-0.odb,Step-1,Increment      1: Step Time =    1.000,"P-0-1",           787,       118.385,       89.6124,            0.,NA,NA,"",   1.10517E+06,   975.963E+03,   975.963E+03
C:/temp/Job-0.odb,Step-1,Increment      1: Step Time =    1.000,"P-0-1",           788,       85.8879,       124.322,            0.,NA,NA,"",   1.21769E+06,   1.21669E+06,   1.21669E+06
C:/temp/Job-0.odb,Step-1,Increment      1: Step Time =    1.000,"P-0-1",           789,       114.134,       75.6758,            0.,NA,NA,"",   1.22921E+06,   1.21722E+06,   1.21722E+06
C:/temp/Job-0.odb,Step-1,Increment      1: Step Time =    1.000,"P-0-1",           790,       83.6162,       74.6606,            0.,NA,NA,"",   1.20445E+06,   1.18366E+06,   1.18366E+06
C:/temp/Job-0.odb,Step-1,Increment      1: Step Time =    1.000,"P-0-1",           791,       116.354,       125.341,            0.,NA,NA,"",   1.21974E+06,   1.18535E+06,   1.18535E+06
C:/temp/Job-0.odb,Step-1,Increment      1: Step Time =    1.000,"P-0-1",           792,       97.3588,       78.5805,            0.,NA,NA,"",   1.17301E+06,   1.27678E+06,   1.27678E+06
C:/temp/Job-0.odb,Step-1,Increment      1: Step Time =    1.000,"P-0-1",           793,       100.494,       79.9297,            0.,NA,NA,"",   1.15911E+06,   1.28083E+06,   1.28083E+06
C:/temp/Job-0.odb,Step-1,Increment      1: Step Time =    1.000,"P-0-1",           794,       99.4942,       120.039,            0.,NA,NA,"",   1.15951E+06,   1.28134E+06,   1.28134E+06
C:/temp/Job-0.odb,Step-1,Increment      1: Step Time =    1.000,"P-0-1",           795,       102.610,       121.417,            0.,NA,NA,"",   1.17284E+06,   1.27600E+06,   1.27600E+06
C:/temp/Job-0.odb,Step-1,Increment      1: Step Time =    1.000,"P-0-1",           796,       116.142,       112.967,            0.,NA,NA,"",   1.32695E+06,   1.17915E+06,   1.17915E+06
C:/temp/Job-0.odb,Step-1,Increment      1: Step Time =    1.000,"P-0-1",           797,       83.8504,       87.0317,            0.,NA,NA,"",   1.30061E+06,   1.17203E+06,   1.17203E+06
C:/temp/Job-0.odb,Step-1,Increment      1: Step Time =    1.000,"P-0-1",           798,       95.0119,       14.8146,            0.,NA,NA,"",   970.473E+03,    973.41E+03,    973.41E+03
C:/temp/Job-0.odb,Step-1,Increment      1: Step Time =    1.000,"P-0-1",           799,       14.7982,       105.277,            0.,NA,NA,"",   815.213E+03,   907.616E+03,   907.616E+03
C:/temp/Job-0.odb,Step-1,Increment      1: Step Time =    1.000,"P-0-1",           800,       185.379,       95.1230,            0.,NA,NA,"",   978.099E+03,   993.327E+03,   993.327E+03
C:/temp/Job-0.odb,Step-1,Increment      1: Step Time =    1.000,"P-0-1",           801,       104.966,       185.490,            0.,NA,NA,"",   970.646E+03,   973.286E+03,   973.286E+03
C:/temp/Job-0.odb,Step-1,Increment      1: Step Time =    1.000,"P-0-1",           802,       104.930,       15.0157,            0.,NA,NA,"",   971.822E+03,   974.538E+03,   974.538E+03
C:/temp/Job-0.odb,Step-1,Increment      1: Step Time =    1.000,"P-0-1",           803,       14.8494,       95.4473,            0.,NA,NA,"",   814.642E+03,   907.097E+03,   907.097E+03
C:/temp/Job-0.odb,Step-1,Increment      1: Step Time =    1.000,"P-0-1",           804,       185.236,       105.177,            0.,NA,NA,"",   977.752E+03,   992.964E+03,   992.964E+03
C:/temp/Job-0.odb,Step-1,Increment      1: Step Time =    1.000,"P-0-1",           805,       94.9796,       185.240,            0.,NA,NA,"",   970.337E+03,   973.259E+03,   973.259E+03
C:/temp/Job-0.odb,Step-1,Increment      1: Step Time =    1.000,"P-0-1",           806,       70.2789,       99.6018,            0.,NA,NA,"",   669.378E+03,   709.603E+03,   709.603E+03
C:/temp/Job-0.odb,Step-1,Increment      1: Step Time =    1.000,"P-0-1",           807,       129.685,       100.434,            0.,NA,NA,"",   703.530E+03,   718.514E+03,   718.514E+03
C:/temp/Job-0.odb,Step-1,Increment      1: Step Time =    1.000,"P-0-1",           808,       123.536,       92.5966,            0.,NA,NA,"",   855.102E+03,   808.548E+03,   808.548E+03
C:/temp/Job-0.odb,Step-1,Increment      1: Step Time =    1.000,"P-0-1",           809,       76.4391,       107.437,            0.,NA,NA,"",   825.287E+03,   803.547E+03,   803.547E+03
C:/temp/Job-0.odb,Step-1,Increment      1: Step Time =    1.000,"P-0-1",           810,       74.4695,       87.6389,            0.,NA,NA,"",   1.00623E+06,   968.153E+03,   968.153E+03
C:/temp/Job-0.odb,Step-1,Increment      1: Step Time =    1.000,"P-0-1",           811,       125.513,       112.356,            0.,NA,NA,"",   1.04338E+06,   976.985E+03,   976.985E+03
C:/temp/Job-0.odb,Step-1,Increment      1: Step Time =    1.000,"P-0-1",           812,       109.801,       20.2091,            0.,NA,NA,"",   984.491E+03,   988.282E+03,   988.282E+03
C:/temp/Job-0.odb,Step-1,Increment      1: Step Time =    1.000,"P-0-1",           813,       19.4381,       91.1315,            0.,NA,NA,"",   826.643E+03,   914.343E+03,   914.343E+03
C:/temp/Job-0.odb,Step-1,Increment      1: Step Time =    1.000,"P-0-1",           814,       180.415,       110.380,            0.,NA,NA,"",   978.556E+03,   990.216E+03,   990.216E+03
C:/temp/Job-0.odb,Step-1,Increment      1: Step Time =    1.000,"P-0-1",           815,       90.2337,       179.997,            0.,NA,NA,"",   984.062E+03,   988.507E+03,   988.507E+03
C:/temp/Job-0.odb,Step-1,Increment      1: Step Time =    1.000,"P-0-1",           816,       99.8165,       19.9698,            0.,NA,NA,"",   981.444E+03,   986.417E+03,   986.417E+03
C:/temp/Job-0.odb,Step-1,Increment      1: Step Time =    1.000,"P-0-1",           817,       19.6938,       100.508,            0.,NA,NA,"",   822.623E+03,   910.594E+03,   910.594E+03
C:/temp/Job-0.odb,Step-1,Increment      1: Step Time =    1.000,"P-0-1",           818,       180.505,       100.069,            0.,NA,NA,"",   975.155E+03,   988.063E+03,   988.063E+03
C:/temp/Job-0.odb,Step-1,Increment      1: Step Time =    1.000,"P-0-1",           819,       100.059,       180.780,            0.,NA,NA,"",   979.859E+03,   984.721E+03,   984.721E+03
C:/temp/Job-0.odb,Step-1,Increment      1: Step Time =    1.000,"P-0-1",           820,       18.8513,       61.2221,            0.,NA,NA,"",   887.933E+03,   969.377E+03,   969.377E+03
C:/temp/Job-0.odb,Step-1,Increment      1: Step Time =    1.000,"P-0-1",           821,       62.0292,       21.6652,            0.,NA,NA,"",   1.01363E+06,   1.01616E+06,   1.01616E+06
C:/temp/Job-0.odb,Step-1,Increment      1: Step Time =    1.000,"P-0-1",           822,       60.1656,       180.870,            0.,NA,NA,"",   1.00916E+06,   1.01139E+06,   1.01139E+06
C:/temp/Job-0.odb,Step-1,Increment      1: Step Time =    1.000,"P-0-1",           823,       178.178,       62.0342,            0.,NA,NA,"",   1.00373E+06,   1.00524E+06,   1.00524E+06
C:/temp/Job-0.odb,Step-1,Increment      1: Step Time =    1.000,"P-0-1",           824,       139.545,       18.8429,            0.,NA,NA,"",   1.00103E+06,   998.936E+03,   998.936E+03
C:/temp/Job-0.odb,Step-1,Increment      1: Step Time =    1.000,"P-0-1",           825,       19.9974,       135.986,            0.,NA,NA,"",   884.779E+03,   965.475E+03,   965.475E+03
C:/temp/Job-0.odb,Step-1,Increment      1: Step Time =    1.000,"P-0-1",           826,       182.453,       139.551,            0.,NA,NA,"",   1.00079E+06,   1.00398E+06,   1.00398E+06
C:/temp/Job-0.odb,Step-1,Increment      1: Step Time =    1.000,"P-0-1",           827,       137.892,       177.923,            0.,NA,NA,"",   1.00618E+06,   1.00357E+06,   1.00357E+06
C:/temp/Job-0.odb,Step-1,Increment      1: Step Time =    1.000,"P-0-1",           828,       174.528,       15.6821,            0.,NA,NA,"",   1.00126E+06,   1.00051E+06,   1.00051E+06
C:/temp/Job-0.odb,Step-1,Increment      1: Step Time =    1.000,"P-0-1",           829,       13.9000,       173.581,            0.,NA,NA,"",   1.00243E+06,   1.07178E+06,   1.07178E+06
C:/temp/Job-0.odb,Step-1,Increment      1: Step Time =    1.000,"P-0-1",           830,       17.6458,       164.499,            0.,NA,NA,"",   969.603E+03,   1.03888E+06,   1.03888E+06
C:/temp/Job-0.odb,Step-1,Increment      1: Step Time =    1.000,"P-0-1",           831,       164.365,       20.2236,            0.,NA,NA,"",   1.00522E+06,   1.00314E+06,   1.00314E+06
C:/temp/Job-0.odb,Step-1,Increment      1: Step Time =    1.000,"P-0-1",           832,       25.4368,       13.1542,            0.,NA,NA,"",   1.07102E+06,   1.08489E+06,   1.08489E+06
C:/temp/Job-0.odb,Step-1,Increment      1: Step Time =    1.000,"P-0-1",           833,       14.2552,       27.3280,            0.,NA,NA,"",   1.00115E+06,   1.06991E+06,   1.06991E+06
C:/temp/Job-0.odb,Step-1,Increment      1: Step Time =    1.000,"P-0-1",           834,       34.2204,       17.2933,            0.,NA,NA,"",   1.04540E+06,   1.05680E+06,   1.05680E+06
C:/temp/Job-0.odb,Step-1,Increment      1: Step Time =    1.000,"P-0-1",           835,       18.7230,       35.4108,            0.,NA,NA,"",   974.693E+03,   1.04099E+06,   1.04099E+06
C:/temp/Job-0.odb,Step-1,Increment      1: Step Time =    1.000,"P-0-1",           836,       184.325,       174.456,            0.,NA,NA,"",   1.00225E+06,   1.00175E+06,   1.00175E+06
C:/temp/Job-0.odb,Step-1,Increment      1: Step Time =    1.000,"P-0-1",           837,       170.927,       186.816,            0.,NA,NA,"",   1.00030E+06,   999.623E+03,   999.623E+03
C:/temp/Job-0.odb,Step-1,Increment      1: Step Time =    1.000,"P-0-1",           838,       160.908,       181.886,            0.,NA,NA,"",   1.00359E+06,   1.00169E+06,   1.00169E+06
C:/temp/Job-0.odb,Step-1,Increment      1: Step Time =    1.000,"P-0-1",           839,       179.612,       164.290,            0.,NA,NA,"",   1.00633E+06,   1.00518E+06,   1.00518E+06
C:/temp/Job-0.odb,Step-1,Increment      1: Step Time =    1.000,"P-0-1",           840,       25.5832,       183.977,            0.,NA,NA,"",   1.06601E+06,   1.08569E+06,   1.08569E+06
C:/temp/Job-0.odb,Step-1,Increment      1: Step Time =    1.000,"P-0-1",           841,       187.323,       29.3259,            0.,NA,NA,"",   1.00173E+06,   1.00150E+06,   1.00150E+06
C:/temp/Job-0.odb,Step-1,Increment      1: Step Time =    1.000,"P-0-1",           842,       181.790,       38.4832,            0.,NA,NA,"",   1.00510E+06,   1.00453E+06,   1.00453E+06
C:/temp/Job-0.odb,Step-1,Increment      1: Step Time =    1.000,"P-0-1",           843,       35.3955,       179.615,            0.,NA,NA,"",   1.04228E+06,   1.05641E+06,   1.05641E+06
C:/temp/Job-0.odb,Step-1,Increment      1: Step Time =    1.000,"P-0-1",           844,       18.9627,       70.0437,            0.,NA,NA,"",   865.118E+03,   949.151E+03,   949.151E+03
C:/temp/Job-0.odb,Step-1,Increment      1: Step Time =    1.000,"P-0-1",           845,       68.5385,       18.3076,            0.,NA,NA,"",   998.439E+03,   1.00002E+06,   1.00002E+06
C:/temp/Job-0.odb,Step-1,Increment      1: Step Time =    1.000,"P-0-1",           846,       181.292,       131.190,            0.,NA,NA,"",   996.013E+03,   1.00136E+06,   1.00136E+06
C:/temp/Job-0.odb,Step-1,Increment      1: Step Time =    1.000,"P-0-1",           847,       131.414,       181.529,            0.,NA,NA,"",   995.810E+03,   994.808E+03,   994.808E+03
C:/temp/Job-0.odb,Step-1,Increment      1: Step Time =    1.000,"P-0-1",           848,       129.705,       19.0800,            0.,NA,NA,"",   995.863E+03,   995.226E+03,   995.226E+03
C:/temp/Job-0.odb,Step-1,Increment      1: Step Time =    1.000,"P-0-1",           849,       18.9677,       128.577,            0.,NA,NA,"",   862.390E+03,   946.610E+03,   946.610E+03
C:/temp/Job-0.odb,Step-1,Increment      1: Step Time =    1.000,"P-0-1",           850,       70.1240,       180.714,            0.,NA,NA,"",   998.976E+03,   1.00112E+06,   1.00112E+06
C:/temp/Job-0.odb,Step-1,Increment      1: Step Time =    1.000,"P-0-1",           851,       181.782,       68.4620,            0.,NA,NA,"",   996.205E+03,   1.00156E+06,   1.00156E+06
C:/temp/Job-0.odb,Step-1,Increment      1: Step Time =    1.000,"P-0-1",           852,       20.8150,       82.6116,            0.,NA,NA,"",   841.216E+03,   926.222E+03,   926.222E+03
C:/temp/Job-0.odb,Step-1,Increment      1: Step Time =    1.000,"P-0-1",           853,       119.889,       19.9116,            0.,NA,NA,"",   990.288E+03,   991.829E+03,   991.829E+03
C:/temp/Job-0.odb,Step-1,Increment      1: Step Time =    1.000,"P-0-1",           854,       180.587,       120.715,            0.,NA,NA,"",   987.045E+03,   995.678E+03,   995.678E+03
C:/temp/Job-0.odb,Step-1,Increment      1: Step Time =    1.000,"P-0-1",           855,       79.9910,       180.017,            0.,NA,NA,"",   991.158E+03,   994.467E+03,   994.467E+03
C:/temp/Job-0.odb,Step-1,Increment      1: Step Time =    1.000,"P-0-1",           856,       86.7035,       108.804,            0.,NA,NA,"",   1.01041E+06,   886.911E+03,   886.911E+03
C:/temp/Job-0.odb,Step-1,Increment      1: Step Time =    1.000,"P-0-1",           857,       113.293,       91.2049,            0.,NA,NA,"",   1.02936E+06,   889.765E+03,   889.765E+03
C:/temp/Job-0.odb,Step-1,Increment      1: Step Time =    1.000,"P-0-1",           858,       99.5620,       115.986,            0.,NA,NA,"",   1.57013E+06,   1.68558E+06,   1.68558E+06
C:/temp/Job-0.odb,Step-1,Increment      1: Step Time =    1.000,"P-0-1",           859,       100.434,       84.0035,            0.,NA,NA,"",   1.56973E+06,   1.68506E+06,   1.68506E+06
C:/temp/Job-0.odb,Step-1,Increment      1: Step Time =    1.000,"P-0-1",           860,       133.147,       90.6738,            0.,NA,NA,"",   892.969E+03,   881.543E+03,   881.543E+03
C:/temp/Job-0.odb,Step-1,Increment      1: Step Time =    1.000,"P-0-1",           861,       66.7733,       109.474,            0.,NA,NA,"",   850.514E+03,   871.382E+03,   871.382E+03
C:/temp/Job-0.odb,Step-1,Increment      1: Step Time =    1.000,"P-0-1",           862,       123.532,       88.8213,            0.,NA,NA,"",   979.689E+03,   917.515E+03,   917.515E+03
C:/temp/Job-0.odb,Step-1,Increment      1: Step Time =    1.000,"P-0-1",           863,       76.4439,       111.238,            0.,NA,NA,"",   948.654E+03,   911.940E+03,   911.940E+03
C:/temp/Job-0.odb,Step-1,Increment      1: Step Time =    1.000,"P-0-1",           864,       70.4293,       89.4401,            0.,NA,NA,"",   898.736E+03,   893.378E+03,   893.378E+03
C:/temp/Job-0.odb,Step-1,Increment      1: Step Time =    1.000,"P-0-1",           865,       129.529,       110.551,            0.,NA,NA,"",   939.574E+03,   903.585E+03,   903.585E+03
C:/temp/Job-0.odb,Step-1,Increment      1: Step Time =    1.000,"P-0-1",           866,       131.891,       105.028,            0.,NA,NA,"",   778.513E+03,   784.036E+03,   784.036E+03
C:/temp/Job-0.odb,Step-1,Increment      1: Step Time =    1.000,"P-0-1",           867,       68.0526,       94.9933,            0.,NA,NA,"",   738.739E+03,   773.159E+03,   773.159E+03
C:/temp/Job-0.odb,Step-1,Increment      1: Step Time =    1.000,"P-0-1",           868,       133.206,       94.9374,            0.,NA,NA,"",   826.317E+03,   828.173E+03,   828.173E+03
C:/temp/Job-0.odb,Step-1,Increment      1: Step Time =    1.000,"P-0-1",           869,       66.7191,       105.156,            0.,NA,NA,"",   784.726E+03,   817.249E+03,   817.249E+03
C:/temp/Job-0.odb,Step-1,Increment      1: Step Time =    1.000,"P-0-1",           870,       122.092,       116.007,            0.,NA,NA,"",   1.14090E+06,   1.06694E+06,   1.06694E+06
C:/temp/Job-0.odb,Step-1,Increment      1: Step Time =    1.000,"P-0-1",           871,       77.8960,       83.9900,            0.,NA,NA,"",   1.10968E+06,   1.05974E+06,   1.05974E+06
C:/temp/Job-0.odb,Step-1,Increment      1: Step Time =    1.000,"P-0-1",           872,       100.565,       125.350,            0.,NA,NA,"",   1.09841E+06,   1.18589E+06,   1.18589E+06
C:/temp/Job-0.odb,Step-1,Increment      1: Step Time =    1.000,"P-0-1",           873,       99.3628,       74.6011,            0.,NA,NA,"",   1.09779E+06,   1.18524E+06,   1.18524E+06
C:/temp/Job-0.odb,Step-1,Increment      1: Step Time =    1.000,"P-0-1",           874,       89.8977,       24.9407,            0.,NA,NA,"",   994.081E+03,   1.00106E+06,   1.00106E+06
C:/temp/Job-0.odb,Step-1,Increment      1: Step Time =    1.000,"P-0-1",           875,       24.6543,       110.331,            0.,NA,NA,"",   838.754E+03,   920.590E+03,   920.590E+03
C:/temp/Job-0.odb,Step-1,Increment      1: Step Time =    1.000,"P-0-1",           876,       175.901,       90.0247,            0.,NA,NA,"",   976.806E+03,   986.262E+03,   986.262E+03
C:/temp/Job-0.odb,Step-1,Increment      1: Step Time =    1.000,"P-0-1",           877,       109.880,       175.875,            0.,NA,NA,"",   991.503E+03,   996.812E+03,   996.812E+03
C:/temp/Job-0.odb,Step-1,Increment      1: Step Time =    1.000,"P-0-1",           878,       24.8373,       81.1510,            0.,NA,NA,"",   854.337E+03,   934.153E+03,   934.153E+03
C:/temp/Job-0.odb,Step-1,Increment      1: Step Time =    1.000,"P-0-1",           879,       120.028,       25.0851,            0.,NA,NA,"",   1.00056E+06,   1.00275E+06,   1.00275E+06
C:/temp/Job-0.odb,Step-1,Increment      1: Step Time =    1.000,"P-0-1",           880,       80.2386,       24.2761,            0.,NA,NA,"",   1.00169E+06,   1.00644E+06,   1.00644E+06
C:/temp/Job-0.odb,Step-1,Increment      1: Step Time =    1.000,"P-0-1",           881,       24.7271,       120.210,            0.,NA,NA,"",   858.430E+03,   937.659E+03,   937.659E+03
C:/temp/Job-0.odb,Step-1,Increment      1: Step Time =    1.000,"P-0-1",           882,       176.011,       120.983,            0.,NA,NA,"",   987.944E+03,   994.041E+03,   994.041E+03
C:/temp/Job-0.odb,Step-1,Increment      1: Step Time =    1.000,"P-0-1",           883,       79.8766,       174.800,            0.,NA,NA,"",   1.00344E+06,   1.00844E+06,   1.00844E+06
C:/temp/Job-0.odb,Step-1,Increment      1: Step Time =    1.000,"P-0-1",           884,       176.543,       80.1519,            0.,NA,NA,"",   987.592E+03,   994.159E+03,   994.159E+03
C:/temp/Job-0.odb,Step-1,Increment      1: Step Time =    1.000,"P-0-1",           885,       119.575,       175.961,            0.,NA,NA,"",   998.745E+03,   1.00075E+06,   1.00075E+06
C:/temp/Job-0.odb,Step-1,Increment      1: Step Time =    1.000,"P-0-1",           886,       175.818,       100.095,            0.,NA,NA,"",   971.264E+03,   982.227E+03,   982.227E+03
C:/temp/Job-0.odb,Step-1,Increment      1: Step Time =    1.000,"P-0-1",           887,       100.283,       176.557,            0.,NA,NA,"",   987.915E+03,   994.743E+03,   994.743E+03
C:/temp/Job-0.odb,Step-1,Increment      1: Step Time =    1.000,"P-0-1",           888,       99.6159,       25.0227,            0.,NA,NA,"",   990.413E+03,   997.855E+03,   997.855E+03
C:/temp/Job-0.odb,Step-1,Increment      1: Step Time =    1.000,"P-0-1",           889,       24.5872,       100.548,            0.,NA,NA,"",   830.758E+03,   913.723E+03,   913.723E+03
C:/temp/Job-0.odb,Step-1,Increment      1: Step Time =    1.000,"P-0-1",           890,       142.894,       24.4843,            0.,NA,NA,"",   1.01172E+06,   1.00801E+06,   1.00801E+06
C:/temp/Job-0.odb,Step-1,Increment      1: Step Time =    1.000,"P-0-1",           891,       25.2299,       138.144,            0.,NA,NA,"",   908.436E+03,   979.957E+03,   979.957E+03
C:/temp/Job-0.odb,Step-1,Increment      1: Step Time =    1.000,"P-0-1",           892,       59.5117,       25.7596,            0.,NA,NA,"",   1.02384E+06,   1.02789E+06,   1.02789E+06
C:/temp/Job-0.odb,Step-1,Increment      1: Step Time =    1.000,"P-0-1",           893,       23.2833,       61.7841,            0.,NA,NA,"",   902.381E+03,   976.722E+03,   976.722E+03
C:/temp/Job-0.odb,Step-1,Increment      1: Step Time =    1.000,"P-0-1",           894,       56.4548,       175.174,            0.,NA,NA,"",   1.02525E+06,   1.02992E+06,   1.02992E+06
C:/temp/Job-0.odb,Step-1,Increment      1: Step Time =    1.000,"P-0-1",           895,       173.942,       59.7591,            0.,NA,NA,"",   1.00951E+06,   1.00832E+06,   1.00832E+06
C:/temp/Job-0.odb,Step-1,Increment      1: Step Time =    1.000,"P-0-1",           896,       176.301,       141.102,            0.,NA,NA,"",   1.00722E+06,   1.00714E+06,   1.00714E+06
C:/temp/Job-0.odb,Step-1,Increment      1: Step Time =    1.000,"P-0-1",           897,       140.248,       173.626,            0.,NA,NA,"",   1.01466E+06,   1.01071E+06,   1.01071E+06
C:/temp/Job-0.odb,Step-1,Increment      1: Step Time =    1.000,"P-0-1",           898,       23.2575,       128.684,            0.,NA,NA,"",   876.632E+03,   954.686E+03,   954.686E+03
C:/temp/Job-0.odb,Step-1,Increment      1: Step Time =    1.000,"P-0-1",           899,       177.227,       70.9337,            0.,NA,NA,"",   997.396E+03,   1.00101E+06,   1.00101E+06
C:/temp/Job-0.odb,Step-1,Increment      1: Step Time =    1.000,"P-0-1",           900,       70.9975,       23.1044,            0.,NA,NA,"",   1.00868E+06,   1.01161E+06,   1.01161E+06
C:/temp/Job-0.odb,Step-1,Increment      1: Step Time =    1.000,"P-0-1",           901,       128.884,       176.769,            0.,NA,NA,"",   1.00394E+06,   1.00302E+06,   1.00302E+06
C:/temp/Job-0.odb,Step-1,Increment      1: Step Time =    1.000,"P-0-1",           902,       34.3833,       21.4808,            0.,NA,NA,"",   1.04505E+06,   1.06124E+06,   1.06124E+06
C:/temp/Job-0.odb,Step-1,Increment      1: Step Time =    1.000,"P-0-1",           903,       23.0512,       34.7708,            0.,NA,NA,"",   991.630E+03,   1.04734E+06,   1.04734E+06
C:/temp/Job-0.odb,Step-1,Increment      1: Step Time =    1.000,"P-0-1",           904,       23.4251,       166.227,            0.,NA,NA,"",   998.033E+03,   1.05110E+06,   1.05110E+06
C:/temp/Job-0.odb,Step-1,Increment      1: Step Time =    1.000,"P-0-1",           905,       163.937,       24.6497,            0.,NA,NA,"",   1.00890E+06,   1.00602E+06,   1.00602E+06
C:/temp/Job-0.odb,Step-1,Increment      1: Step Time =    1.000,"P-0-1",           906,       177.187,       36.2930,            0.,NA,NA,"",   1.00803E+06,   1.00632E+06,   1.00632E+06
C:/temp/Job-0.odb,Step-1,Increment      1: Step Time =    1.000,"P-0-1",           907,       36.1359,       174.718,            0.,NA,NA,"",   1.03834E+06,   1.05777E+06,   1.05777E+06
C:/temp/Job-0.odb,Step-1,Increment      1: Step Time =    1.000,"P-0-1",           908,       162.408,       177.916,            0.,NA,NA,"",   1.00713E+06,   1.00458E+06,   1.00458E+06
C:/temp/Job-0.odb,Step-1,Increment      1: Step Time =    1.000,"P-0-1",           909,       174.995,       163.952,            0.,NA,NA,"",   1.00945E+06,   1.00729E+06,   1.00729E+06
C:/temp/Job-0.odb,Step-1,Increment      1: Step Time =    1.000,"P-0-1",           910,       133.886,       109.481,            0.,NA,NA,"",   889.726E+03,   877.201E+03,   877.201E+03
C:/temp/Job-0.odb,Step-1,Increment      1: Step Time =    1.000,"P-0-1",           911,       66.0271,       90.5133,            0.,NA,NA,"",   844.016E+03,   864.687E+03,   864.687E+03
C:/temp/Job-0.odb,Step-1,Increment      1: Step Time =    1.000,"P-0-1",           912,       136.763,       91.2544,            0.,NA,NA,"",   891.542E+03,   887.122E+03,   887.122E+03
C:/temp/Job-0.odb,Step-1,Increment      1: Step Time =    1.000,"P-0-1",           913,       63.0911,       108.923,            0.,NA,NA,"",   843.941E+03,   874.651E+03,   874.651E+03
C:/temp/Job-0.odb,Step-1,Increment      1: Step Time =    1.000,"P-0-1",           914,       14.5859,       56.1512,            0.,NA,NA,"",   886.690E+03,   973.231E+03,   973.231E+03
C:/temp/Job-0.odb,Step-1,Increment      1: Step Time =    1.000,"P-0-1",           915,       54.3057,       15.7472,            0.,NA,NA,"",   1.00786E+06,   1.00967E+06,   1.00967E+06
C:/temp/Job-0.odb,Step-1,Increment      1: Step Time =    1.000,"P-0-1",           916,       186.526,       144.348,            0.,NA,NA,"",   999.655E+03,   1.00311E+06,   1.00311E+06
C:/temp/Job-0.odb,Step-1,Increment      1: Step Time =    1.000,"P-0-1",           917,       146.185,       183.238,            0.,NA,NA,"",   1.00045E+06,   998.349E+03,   998.349E+03
C:/temp/Job-0.odb,Step-1,Increment      1: Step Time =    1.000,"P-0-1",           918,       55.4825,       186.033,            0.,NA,NA,"",   1.00073E+06,   1.00219E+06,   1.00219E+06
C:/temp/Job-0.odb,Step-1,Increment      1: Step Time =    1.000,"P-0-1",           919,       183.293,       53.7328,            0.,NA,NA,"",   1.00287E+06,   1.00461E+06,   1.00461E+06
C:/temp/Job-0.odb,Step-1,Increment      1: Step Time =    1.000,"P-0-1",           920,       144.387,       13.8578,            0.,NA,NA,"",   995.404E+03,   993.946E+03,   993.946E+03
C:/temp/Job-0.odb,Step-1,Increment      1: Step Time =    1.000,"P-0-1",           921,       14.8606,       146.335,            0.,NA,NA,"",   894.296E+03,   979.847E+03,   979.847E+03
C:/temp/Job-0.odb,Step-1,Increment      1: Step Time =    1.000,"P-0-1",           922,       174.715,       10.4146,            0.,NA,NA,"",   999.521E+03,   999.148E+03,   999.148E+03
C:/temp/Job-0.odb,Step-1,Increment      1: Step Time =    1.000,"P-0-1",           923,       17.5466,       174.247,            0.,NA,NA,"",   1.01819E+06,   1.07582E+06,   1.07582E+06
C:/temp/Job-0.odb,Step-1,Increment      1: Step Time =    1.000,"P-0-1",           924,       174.072,       20.9516,            0.,NA,NA,"",   1.00360E+06,   1.00236E+06,   1.00236E+06
C:/temp/Job-0.odb,Step-1,Increment      1: Step Time =    1.000,"P-0-1",           925,       13.1943,       160.895,            0.,NA,NA,"",   934.630E+03,   1.01741E+06,   1.01741E+06
C:/temp/Job-0.odb,Step-1,Increment      1: Step Time =    1.000,"P-0-1",           926,       159.935,       20.4114,            0.,NA,NA,"",   1.00588E+06,   1.00343E+06,   1.00343E+06
C:/temp/Job-0.odb,Step-1,Increment      1: Step Time =    1.000,"P-0-1",           927,       9.49148,       30.7793,            0.,NA,NA,"",   955.470E+03,   1.04224E+06,   1.04224E+06
C:/temp/Job-0.odb,Step-1,Increment      1: Step Time =    1.000,"P-0-1",           928,       25.7349,       17.3879,            0.,NA,NA,"",   1.06519E+06,   1.08633E+06,   1.08633E+06
C:/temp/Job-0.odb,Step-1,Increment      1: Step Time =    1.000,"P-0-1",           929,       18.1765,       28.1170,            0.,NA,NA,"",   1.00855E+06,   1.06689E+06,   1.06689E+06
C:/temp/Job-0.odb,Step-1,Increment      1: Step Time =    1.000,"P-0-1",           930,       38.7084,       13.3083,            0.,NA,NA,"",   1.02825E+06,   1.03357E+06,   1.03357E+06
C:/temp/Job-0.odb,Step-1,Increment      1: Step Time =    1.000,"P-0-1",           931,       15.4373,       43.9395,            0.,NA,NA,"",   927.329E+03,   1.00773E+06,   1.00773E+06
C:/temp/Job-0.odb,Step-1,Increment      1: Step Time =    1.000,"P-0-1",           932,       189.576,       174.659,            0.,NA,NA,"",   1.00108E+06,   1.00084E+06,   1.00084E+06
C:/temp/Job-0.odb,Step-1,Increment      1: Step Time =    1.000,"P-0-1",           933,       159.165,       185.959,            0.,NA,NA,"",   999.826E+03,   998.544E+03,   998.544E+03
C:/temp/Job-0.odb,Step-1,Increment      1: Step Time =    1.000,"P-0-1",           934,       179.380,       159.776,            0.,NA,NA,"",   1.00704E+06,     1.006E+06,     1.006E+06
C:/temp/Job-0.odb,Step-1,Increment      1: Step Time =    1.000,"P-0-1",           935,       179.115,       174.036,            0.,NA,NA,"",   1.00404E+06,   1.00302E+06,   1.00302E+06
C:/temp/Job-0.odb,Step-1,Increment      1: Step Time =    1.000,"P-0-1",           936,       170.457,       181.784,            0.,NA,NA,"",   1.00271E+06,   1.00151E+06,   1.00151E+06
C:/temp/Job-0.odb,Step-1,Increment      1: Step Time =    1.000,"P-0-1",           937,       185.973,       40.5924,            0.,NA,NA,"",   1.00256E+06,   1.00301E+06,   1.00301E+06
C:/temp/Job-0.odb,Step-1,Increment      1: Step Time =    1.000,"P-0-1",           938,       39.2648,       179.853,            0.,NA,NA,"",   1.03714E+06,   1.04734E+06,   1.04734E+06
C:/temp/Job-0.odb,Step-1,Increment      1: Step Time =    1.000,"P-0-1",           939,       26.3758,       178.712,            0.,NA,NA,"",   1.04989E+06,   1.07793E+06,   1.07793E+06
C:/temp/Job-0.odb,Step-1,Increment      1: Step Time =    1.000,"P-0-1",           940,       183.480,       30.1674,            0.,NA,NA,"",   1.00311E+06,   1.00257E+06,   1.00257E+06
C:/temp/Job-0.odb,Step-1,Increment      1: Step Time =    1.000,"P-0-1",           941,       25.2650,       189.429,            0.,NA,NA,"",   1.06896E+06,   1.07887E+06,   1.07887E+06
C:/temp/Job-0.odb,Step-1,Increment      1: Step Time =    1.000,"P-0-1",           942,       123.090,       121.320,            0.,NA,NA,"",   1.18265E+06,   1.12327E+06,   1.12327E+06
C:/temp/Job-0.odb,Step-1,Increment      1: Step Time =    1.000,"P-0-1",           943,       76.9004,       78.6791,            0.,NA,NA,"",   1.15366E+06,   1.11730E+06,   1.11730E+06
C:/temp/Job-0.odb,Step-1,Increment      1: Step Time =    1.000,"P-0-1",           944,       134.608,       99.3448,            0.,NA,NA,"",   790.267E+03,   802.262E+03,   802.262E+03
C:/temp/Job-0.odb,Step-1,Increment      1: Step Time =    1.000,"P-0-1",           945,       65.3140,       100.737,            0.,NA,NA,"",   747.314E+03,   789.881E+03,   789.881E+03
C:/temp/Job-0.odb,Step-1,Increment      1: Step Time =    1.000,"P-0-1",           946,       138.643,       108.665,            0.,NA,NA,"",   887.365E+03,   886.157E+03,   886.157E+03
C:/temp/Job-0.odb,Step-1,Increment      1: Step Time =    1.000,"P-0-1",           947,       61.2037,       91.3407,            0.,NA,NA,"",   834.263E+03,   870.082E+03,   870.082E+03
C:/temp/Job-0.odb,Step-1,Increment      1: Step Time =    1.000,"P-0-1",           948,       139.139,       88.6771,            0.,NA,NA,"",   929.367E+03,   920.675E+03,   920.675E+03
C:/temp/Job-0.odb,Step-1,Increment      1: Step Time =    1.000,"P-0-1",           949,       60.5757,       111.642,            0.,NA,NA,"",   878.274E+03,   907.777E+03,   907.777E+03
C:/temp/Job-0.odb,Step-1,Increment      1: Step Time =    1.000,"P-0-1",           950,       9.75275,       55.5897,            0.,NA,NA,"",   869.912E+03,   963.923E+03,   963.923E+03
C:/temp/Job-0.odb,Step-1,Increment      1: Step Time =    1.000,"P-0-1",           951,       55.4540,       190.823,            0.,NA,NA,"",   984.512E+03,   985.177E+03,   985.177E+03
C:/temp/Job-0.odb,Step-1,Increment      1: Step Time =    1.000,"P-0-1",           952,       144.461,       9.11186,            0.,NA,NA,"",   989.083E+03,   988.377E+03,   988.377E+03
C:/temp/Job-0.odb,Step-1,Increment      1: Step Time =    1.000,"P-0-1",           953,       191.150,       144.529,            0.,NA,NA,"",   996.694E+03,   1.00153E+06,   1.00153E+06
C:/temp/Job-0.odb,Step-1,Increment      1: Step Time =    1.000,"P-0-1",           954,       94.7149,       24.8687,            0.,NA,NA,"",   991.421E+03,   998.910E+03,   998.910E+03
C:/temp/Job-0.odb,Step-1,Increment      1: Step Time =    1.000,"P-0-1",           955,       24.6367,       105.432,            0.,NA,NA,"",   833.048E+03,   915.686E+03,   915.686E+03
C:/temp/Job-0.odb,Step-1,Increment      1: Step Time =    1.000,"P-0-1",           956,       175.541,       95.0736,            0.,NA,NA,"",   972.886E+03,   983.356E+03,   983.356E+03
C:/temp/Job-0.odb,Step-1,Increment      1: Step Time =    1.000,"P-0-1",           957,       105.041,       176.406,            0.,NA,NA,"",   988.689E+03,   994.884E+03,   994.884E+03
C:/temp/Job-0.odb,Step-1,Increment      1: Step Time =    1.000,"P-0-1",           958,       26.8260,       85.2307,            0.,NA,NA,"",   849.216E+03,   927.809E+03,   927.809E+03
C:/temp/Job-0.odb,Step-1,Increment      1: Step Time =    1.000,"P-0-1",           959,       114.772,       25.4297,            0.,NA,NA,"",   997.061E+03,   1.00129E+06,   1.00129E+06
C:/temp/Job-0.odb,Step-1,Increment      1: Step Time =    1.000,"P-0-1",           960,       85.0299,       24.6733,            0.,NA,NA,"",   997.718E+03,   1.00368E+06,   1.00368E+06
C:/temp/Job-0.odb,Step-1,Increment      1: Step Time =    1.000,"P-0-1",           961,       24.7059,       115.271,            0.,NA,NA,"",   847.594E+03,   928.221E+03,   928.221E+03
C:/temp/Job-0.odb,Step-1,Increment      1: Step Time =    1.000,"P-0-1",           962,       175.442,       115.649,            0.,NA,NA,"",   981.674E+03,   989.510E+03,   989.510E+03
C:/temp/Job-0.odb,Step-1,Increment      1: Step Time =    1.000,"P-0-1",           963,       176.306,       84.9877,            0.,NA,NA,"",   982.068E+03,   990.181E+03,   990.181E+03
C:/temp/Job-0.odb,Step-1,Increment      1: Step Time =    1.000,"P-0-1",           964,       85.2913,       174.612,            0.,NA,NA,"",   998.540E+03,   1.00476E+06,   1.00476E+06
C:/temp/Job-0.odb,Step-1,Increment      1: Step Time =    1.000,"P-0-1",           965,       114.766,       175.863,            0.,NA,NA,"",   995.171E+03,   998.928E+03,   998.928E+03
C:/temp/Job-0.odb,Step-1,Increment      1: Step Time =    1.000,"P-0-1",           966,       137.667,       27.1502,            0.,NA,NA,"",   1.01580E+06,   1.01204E+06,   1.01204E+06
C:/temp/Job-0.odb,Step-1,Increment      1: Step Time =    1.000,"P-0-1",           967,       24.2540,       134.875,            0.,NA,NA,"",   895.477E+03,   970.132E+03,   970.132E+03
C:/temp/Job-0.odb,Step-1,Increment      1: Step Time =    1.000,"P-0-1",           968,       27.6344,       62.3718,            0.,NA,NA,"",   915.934E+03,   983.220E+03,   983.220E+03
C:/temp/Job-0.odb,Step-1,Increment      1: Step Time =    1.000,"P-0-1",           969,       65.1760,       27.0875,            0.,NA,NA,"",   1.02245E+06,   1.02615E+06,   1.02615E+06
C:/temp/Job-0.odb,Step-1,Increment      1: Step Time =    1.000,"P-0-1",           970,       173.087,       65.3291,            0.,NA,NA,"",   1.00627E+06,   1.00586E+06,   1.00586E+06
C:/temp/Job-0.odb,Step-1,Increment      1: Step Time =    1.000,"P-0-1",           971,       61.4823,       171.913,            0.,NA,NA,"",   1.02729E+06,   1.03182E+06,   1.03182E+06
C:/temp/Job-0.odb,Step-1,Increment      1: Step Time =    1.000,"P-0-1",           972,       172.541,       137.400,            0.,NA,NA,"",   1.00924E+06,   1.00781E+06,   1.00781E+06
C:/temp/Job-0.odb,Step-1,Increment      1: Step Time =    1.000,"P-0-1",           973,       134.602,       172.569,            0.,NA,NA,"",   1.01545E+06,   1.01231E+06,   1.01231E+06
C:/temp/Job-0.odb,Step-1,Increment      1: Step Time =    1.000,"P-0-1",           974,       30.6578,       25.7728,            0.,NA,NA,"",   1.03806E+06,   1.06581E+06,   1.06581E+06
C:/temp/Job-0.odb,Step-1,Increment      1: Step Time =    1.000,"P-0-1",           975,       25.7086,       29.6107,            0.,NA,NA,"",   1.01678E+06,   1.06045E+06,   1.06045E+06
C:/temp/Job-0.odb,Step-1,Increment      1: Step Time =    1.000,"P-0-1",           976,       25.1088,       169.304,            0.,NA,NA,"",   1.01328E+06,   1.05946E+06,   1.05946E+06
C:/temp/Job-0.odb,Step-1,Increment      1: Step Time =    1.000,"P-0-1",           977,       168.332,       24.8327,            0.,NA,NA,"",   1.00758E+06,   1.00520E+06,   1.00520E+06
C:/temp/Job-0.odb,Step-1,Increment      1: Step Time =    1.000,"P-0-1",           978,       31.8324,       174.341,            0.,NA,NA,"",   1.03836E+06,   1.06422E+06,   1.06422E+06
C:/temp/Job-0.odb,Step-1,Increment      1: Step Time =    1.000,"P-0-1",           979,       174.269,       32.1709,            0.,NA,NA,"",   1.00874E+06,   1.00653E+06,   1.00653E+06
C:/temp/Job-0.odb,Step-1,Increment      1: Step Time =    1.000,"P-0-1",           980,       174.874,       168.429,            0.,NA,NA,"",   1.00807E+06,   1.00607E+06,   1.00607E+06
C:/temp/Job-0.odb,Step-1,Increment      1: Step Time =    1.000,"P-0-1",           981,       168.172,       175.452,            0.,NA,NA,"",   1.00746E+06,   1.00514E+06,   1.00514E+06
C:/temp/Job-0.odb,Step-1,Increment      1: Step Time =    1.000,"P-0-1",           982,       127.846,       114.823,            0.,NA,NA,"",   1.05064E+06,   995.631E+03,   995.631E+03
C:/temp/Job-0.odb,Step-1,Increment      1: Step Time =    1.000,"P-0-1",           983,       72.1312,       85.1630,            0.,NA,NA,"",   1.01122E+06,   986.016E+03,   986.016E+03
C:/temp/Job-0.odb,Step-1,Increment      1: Step Time =    1.000,"P-0-1",           984,       65.5401,       113.490,            0.,NA,NA,"",   916.590E+03,   929.024E+03,   929.024E+03
C:/temp/Job-0.odb,Step-1,Increment      1: Step Time =    1.000,"P-0-1",           985,       134.311,       86.8123,            0.,NA,NA,"",   960.203E+03,   938.307E+03,   938.307E+03
C:/temp/Job-0.odb,Step-1,Increment      1: Step Time =    1.000,"P-0-1",           986,       14.9550,       176.807,            0.,NA,NA,"",   1.02813E+06,   1.08932E+06,   1.08932E+06
C:/temp/Job-0.odb,Step-1,Increment      1: Step Time =    1.000,"P-0-1",           987,       179.678,       15.9076,            0.,NA,NA,"",   1.00093E+06,   1.00043E+06,   1.00043E+06
C:/temp/Job-0.odb,Step-1,Increment      1: Step Time =    1.000,"P-0-1",           988,       15.4390,       23.9601,            0.,NA,NA,"",   1.02523E+06,   1.08556E+06,   1.08556E+06
C:/temp/Job-0.odb,Step-1,Increment      1: Step Time =    1.000,"P-0-1",           989,       175.206,       186.428,            0.,NA,NA,"",   1.00055E+06,   1.00001E+06,   1.00001E+06
C:/temp/Job-0.odb,Step-1,Increment      1: Step Time =    1.000,"P-0-1",           990,       184.135,       179.659,            0.,NA,NA,"",   1.00136E+06,   1.00093E+06,   1.00093E+06
C:/temp/Job-0.odb,Step-1,Increment      1: Step Time =    1.000,"P-0-1",           991,       186.410,       25.1066,            0.,NA,NA,"",   1.00160E+06,   1.00123E+06,   1.00123E+06
C:/temp/Job-0.odb,Step-1,Increment      1: Step Time =    1.000,"P-0-1",           992,       20.1909,       183.335,            0.,NA,NA,"",   1.08266E+06,   1.11238E+06,   1.11238E+06
C:/temp/Job-0.odb,Step-1,Increment      1: Step Time =    1.000,"P-0-1",           993,       91.0010,       128.484,            0.,NA,NA,"",   1.11362E+06,   1.16262E+06,   1.16262E+06
C:/temp/Job-0.odb,Step-1,Increment      1: Step Time =    1.000,"P-0-1",           994,       108.978,       71.4912,            0.,NA,NA,"",   1.11679E+06,   1.16083E+06,   1.16083E+06
C:/temp/Job-0.odb,Step-1,Increment      1: Step Time =    1.000,"P-0-1",           995,       80.7110,       77.4058,            0.,NA,NA,"",   1.20072E+06,   1.16297E+06,   1.16297E+06
C:/temp/Job-0.odb,Step-1,Increment      1: Step Time =    1.000,"P-0-1",           996,       119.274,       122.594,            0.,NA,NA,"",   1.22326E+06,   1.16707E+06,   1.16707E+06
C:/temp/Job-0.odb,Step-1,Increment      1: Step Time =    1.000,"P-0-1",           997,       75.5683,       23.8029,            0.,NA,NA,"",   1.00566E+06,   1.00932E+06,   1.00932E+06
C:/temp/Job-0.odb,Step-1,Increment      1: Step Time =    1.000,"P-0-1",           998,       124.251,       176.210,            0.,NA,NA,"",   1.00185E+06,   1.00226E+06,   1.00226E+06
C:/temp/Job-0.odb,Step-1,Increment      1: Step Time =    1.000,"P-0-1",           999,       24.3591,       124.769,            0.,NA,NA,"",   868.534E+03,   946.790E+03,   946.790E+03
C:/temp/Job-0.odb,Step-1,Increment      1: Step Time =    1.000,"P-0-1",          1000,       176.778,       75.4915,            0.,NA,NA,"",   992.827E+03,   997.798E+03,   997.798E+03
C:/temp/Job-0.odb,Step-1,Increment      1: Step Time =    1.000,"P-0-1",          1001,       43.7642,       186.231,            0.,NA,NA,"",   1.01839E+06,   1.02247E+06,   1.02247E+06
C:/temp/Job-0.odb,Step-1,Increment      1: Step Time =    1.000,"P-0-1",          1002,       186.265,       155.757,            0.,NA,NA,"",   1.00225E+06,   1.00322E+06,   1.00322E+06
C:/temp/Job-0.odb,Step-1,Increment      1: Step Time =    1.000,"P-0-1",          1003,       15.5493,       47.5468,            0.,NA,NA,"",   915.355E+03,   997.233E+03,   997.233E+03
C:/temp/Job-0.odb,Step-1,Increment      1: Step Time =    1.000,"P-0-1",          1004,       155.906,       13.6948,            0.,NA,NA,"",   999.027E+03,   997.656E+03,   997.656E+03
C:/temp/Job-0.odb,Step-1,Increment      1: Step Time =    1.000,"P-0-1",          1005,       104.534,       25.1073,            0.,NA,NA,"",   991.347E+03,   998.267E+03,   998.267E+03
C:/temp/Job-0.odb,Step-1,Increment      1: Step Time =    1.000,"P-0-1",          1006,       24.3499,       95.5937,            0.,NA,NA,"",   831.686E+03,   914.702E+03,   914.702E+03
C:/temp/Job-0.odb,Step-1,Increment      1: Step Time =    1.000,"P-0-1",          1007,       176.032,       105.212,            0.,NA,NA,"",   972.357E+03,   983.054E+03,   983.054E+03
C:/temp/Job-0.odb,Step-1,Increment      1: Step Time =    1.000,"P-0-1",          1008,       95.8173,       175.619,            0.,NA,NA,"",   990.134E+03,   997.308E+03,   997.308E+03
C:/temp/Job-0.odb,Step-1,Increment      1: Step Time =    1.000,"P-0-1",          1009,       181.122,       80.4174,            0.,NA,NA,"",   986.714E+03,   995.788E+03,   995.788E+03
C:/temp/Job-0.odb,Step-1,Increment      1: Step Time =    1.000,"P-0-1",          1010,       19.5158,       119.923,            0.,NA,NA,"",   844.322E+03,   930.244E+03,   930.244E+03
C:/temp/Job-0.odb,Step-1,Increment      1: Step Time =    1.000,"P-0-1",          1011,       119.427,       180.844,            0.,NA,NA,"",   988.905E+03,   990.339E+03,   990.339E+03
C:/temp/Job-0.odb,Step-1,Increment      1: Step Time =    1.000,"P-0-1",          1012,       80.5308,       19.2846,            0.,NA,NA,"",   989.494E+03,   992.698E+03,   992.698E+03
C:/temp/Job-0.odb,Step-1,Increment      1: Step Time =    1.000,"P-0-1",          1013,       89.5530,       73.8649,            0.,NA,NA,"",   1.16616E+06,   1.20288E+06,   1.20288E+06
C:/temp/Job-0.odb,Step-1,Increment      1: Step Time =    1.000,"P-0-1",          1014,       110.388,       126.129,            0.,NA,NA,"",   1.17101E+06,   1.20216E+06,   1.20216E+06
C:/temp/Job-0.odb,Step-1,Increment      1: Step Time =    1.000,"P-0-1",          1015,       100.928,       70.4192,            0.,NA,NA,"",   1.06083E+06,   1.13427E+06,   1.13427E+06
C:/temp/Job-0.odb,Step-1,Increment      1: Step Time =    1.000,"P-0-1",          1016,       98.9705,       129.477,            0.,NA,NA,"",   1.06105E+06,   1.13550E+06,   1.13550E+06
C:/temp/Job-0.odb,Step-1,Increment      1: Step Time =    1.000,"P-0-1",          1017,       180.874,       42.0993,            0.,NA,NA,"",   1.00625E+06,   1.00558E+06,   1.00558E+06
C:/temp/Job-0.odb,Step-1,Increment      1: Step Time =    1.000,"P-0-1",          1018,       157.564,       181.032,            0.,NA,NA,"",   1.00473E+06,   1.00243E+06,   1.00243E+06
C:/temp/Job-0.odb,Step-1,Increment      1: Step Time =    1.000,"P-0-1",          1019,       43.0988,       14.0341,            0.,NA,NA,"",   1.02099E+06,   1.02483E+06,   1.02483E+06
C:/temp/Job-0.odb,Step-1,Increment      1: Step Time =    1.000,"P-0-1",          1020,       13.4422,       156.738,            0.,NA,NA,"",   921.116E+03,   1.00527E+06,   1.00527E+06
C:/temp/Job-0.odb,Step-1,Increment      1: Step Time =    1.000,"P-0-1",          1021,       172.767,       177.326,            0.,NA,NA,"",   1.00478E+06,   1.00326E+06,   1.00326E+06
C:/temp/Job-0.odb,Step-1,Increment      1: Step Time =    1.000,"P-0-1",          1022,       174.198,       172.966,            0.,NA,NA,"",   1.00648E+06,   1.00471E+06,   1.00471E+06
C:/temp/Job-0.odb,Step-1,Increment      1: Step Time =    1.000,"P-0-1",          1023,       177.477,       27.8255,            0.,NA,NA,"",   1.00523E+06,   1.00390E+06,   1.00390E+06
C:/temp/Job-0.odb,Step-1,Increment      1: Step Time =    1.000,"P-0-1",          1024,       27.5630,       173.806,            0.,NA,NA,"",   1.03499E+06,   1.06885E+06,   1.06885E+06
C:/temp/Job-0.odb,Step-1,Increment      1: Step Time =    1.000,"P-0-1",          1025,       23.3397,       172.542,            0.,NA,NA,"",   1.02446E+06,   1.06898E+06,   1.06898E+06
C:/temp/Job-0.odb,Step-1,Increment      1: Step Time =    1.000,"P-0-1",          1026,       172.855,       25.7887,            0.,NA,NA,"",   1.00646E+06,   1.00457E+06,   1.00457E+06
C:/temp/Job-0.odb,Step-1,Increment      1: Step Time =    1.000,"P-0-1",          1027,       26.0640,       21.5458,            0.,NA,NA,"",   1.05239E+06,   1.08110E+06,   1.08110E+06
C:/temp/Job-0.odb,Step-1,Increment      1: Step Time =    1.000,"P-0-1",          1028,       22.2263,       25.1887,            0.,NA,NA,"",   1.03146E+06,   1.07668E+06,   1.07668E+06
C:/temp/Job-0.odb,Step-1,Increment      1: Step Time =    1.000,"P-0-1",          1029,       123.486,       83.5036,            0.,NA,NA,"",   1.12561E+06,   1.05549E+06,   1.05549E+06
C:/temp/Job-0.odb,Step-1,Increment      1: Step Time =    1.000,"P-0-1",          1030,       76.5118,       116.583,            0.,NA,NA,"",   1.09451E+06,   1.04966E+06,   1.04966E+06
C:/temp/Job-0.odb,Step-1,Increment      1: Step Time =    1.000,"P-0-1",          1031,       78.4901,       73.5622,            0.,NA,NA,"",   1.15826E+06,   1.13666E+06,   1.13666E+06
C:/temp/Job-0.odb,Step-1,Increment      1: Step Time =    1.000,"P-0-1",          1032,       121.494,       126.441,            0.,NA,NA,"",   1.18056E+06,   1.13986E+06,   1.13986E+06
C:/temp/Job-0.odb,Step-1,Increment      1: Step Time =    1.000,"P-0-1",          1033,       72.6344,       78.6064,            0.,NA,NA,"",   1.09643E+06,   1.07074E+06,   1.07074E+06
C:/temp/Job-0.odb,Step-1,Increment      1: Step Time =    1.000,"P-0-1",          1034,       127.348,       121.386,            0.,NA,NA,"",   1.13143E+06,   1.07818E+06,   1.07818E+06
C:/temp/Job-0.odb,Step-1,Increment      1: Step Time =    1.000,"P-0-1",          1035,       91.6406,       69.6369,            0.,NA,NA,"",   1.09437E+06,   1.14560E+06,   1.14560E+06
C:/temp/Job-0.odb,Step-1,Increment      1: Step Time =    1.000,"P-0-1",          1036,       91.1686,       133.447,            0.,NA,NA,"",   1.07515E+06,   1.11924E+06,   1.11924E+06
C:/temp/Job-0.odb,Step-1,Increment      1: Step Time =    1.000,"P-0-1",          1037,       108.755,       66.5052,            0.,NA,NA,"",   1.07718E+06,   1.11703E+06,   1.11703E+06
C:/temp/Job-0.odb,Step-1,Increment      1: Step Time =    1.000,"P-0-1",          1038,       108.203,       130.375,            0.,NA,NA,"",   1.09596E+06,   1.14362E+06,   1.14362E+06
C:/temp/Job-0.odb,Step-1,Increment      1: Step Time =    1.000,"P-0-1",          1039,       129.841,       23.7218,            0.,NA,NA,"",   1.00514E+06,   1.00408E+06,   1.00408E+06
C:/temp/Job-0.odb,Step-1,Increment      1: Step Time =    1.000,"P-0-1",          1040,       69.9880,       175.985,            0.,NA,NA,"",   1.01115E+06,   1.01434E+06,   1.01434E+06
C:/temp/Job-0.odb,Step-1,Increment      1: Step Time =    1.000,"P-0-1",          1041,       23.6754,       70.0252,            0.,NA,NA,"",   880.157E+03,   957.454E+03,   957.454E+03
C:/temp/Job-0.odb,Step-1,Increment      1: Step Time =    1.000,"P-0-1",          1042,       176.155,       132.543,            0.,NA,NA,"",   1.00137E+06,   1.00334E+06,   1.00334E+06
C:/temp/Job-0.odb,Step-1,Increment      1: Step Time =    1.000,"P-0-1",          1043,       20.6948,       13.4861,            0.,NA,NA,"",   1.09203E+06,   1.11258E+06,   1.11258E+06
C:/temp/Job-0.odb,Step-1,Increment      1: Step Time =    1.000,"P-0-1",          1044,       14.4714,       181.469,            0.,NA,NA,"",   1.06207E+06,   1.11606E+06,   1.11606E+06
C:/temp/Job-0.odb,Step-1,Increment      1: Step Time =    1.000,"P-0-1",          1045,       185.405,       20.6272,            0.,NA,NA,"",   1.00123E+06,   1.00083E+06,   1.00083E+06
C:/temp/Job-0.odb,Step-1,Increment      1: Step Time =    1.000,"P-0-1",          1046,       179.625,       185.462,            0.,NA,NA,"",   1.00061E+06,   1.00020E+06,   1.00020E+06
C:/temp/Job-0.odb,Step-1,Increment      1: Step Time =    1.000,"P-0-1",          1047,       141.191,       102.708,            0.,NA,NA,"",   856.666E+03,   866.615E+03,   866.615E+03
C:/temp/Job-0.odb,Step-1,Increment      1: Step Time =    1.000,"P-0-1",          1048,       58.6494,       97.4042,            0.,NA,NA,"",   800.478E+03,   848.309E+03,   848.309E+03
C:/temp/Job-0.odb,Step-1,Increment      1: Step Time =    1.000,"P-0-1",          1049,       143.442,       96.8540,            0.,NA,NA,"",   882.288E+03,   889.932E+03,   889.932E+03
C:/temp/Job-0.odb,Step-1,Increment      1: Step Time =    1.000,"P-0-1",          1050,       56.2412,       103.372,            0.,NA,NA,"",   822.562E+03,   870.913E+03,   870.913E+03
C:/temp/Job-0.odb,Step-1,Increment      1: Step Time =    1.000,"P-0-1",          1051,       89.8981,       30.6390,            0.,NA,NA,"",   1.00389E+06,   1.01394E+06,   1.01394E+06
C:/temp/Job-0.odb,Step-1,Increment      1: Step Time =    1.000,"P-0-1",          1052,       29.5020,       110.271,            0.,NA,NA,"",   847.258E+03,   923.519E+03,   923.519E+03
C:/temp/Job-0.odb,Step-1,Increment      1: Step Time =    1.000,"P-0-1",          1053,       171.421,       89.5730,            0.,NA,NA,"",   974.525E+03,   982.005E+03,   982.005E+03
C:/temp/Job-0.odb,Step-1,Increment      1: Step Time =    1.000,"P-0-1",          1054,       109.525,       170.661,            0.,NA,NA,"",   1.00034E+06,   1.00826E+06,   1.00826E+06
C:/temp/Job-0.odb,Step-1,Increment      1: Step Time =    1.000,"P-0-1",          1055,       30.7998,       83.6217,            0.,NA,NA,"",   862.106E+03,     934.8E+03,     934.8E+03
C:/temp/Job-0.odb,Step-1,Increment      1: Step Time =    1.000,"P-0-1",          1056,       120.240,       30.2287,            0.,NA,NA,"",   1.01067E+06,   1.01337E+06,   1.01337E+06
C:/temp/Job-0.odb,Step-1,Increment      1: Step Time =    1.000,"P-0-1",          1057,       79.7082,       29.1706,            0.,NA,NA,"",   1.01249E+06,   1.01882E+06,   1.01882E+06
C:/temp/Job-0.odb,Step-1,Increment      1: Step Time =    1.000,"P-0-1",          1058,       30.0028,       120.443,            0.,NA,NA,"",   871.686E+03,   943.773E+03,   943.773E+03
C:/temp/Job-0.odb,Step-1,Increment      1: Step Time =    1.000,"P-0-1",          1059,       171.767,       121.615,            0.,NA,NA,"",   990.194E+03,   993.666E+03,   993.666E+03
C:/temp/Job-0.odb,Step-1,Increment      1: Step Time =    1.000,"P-0-1",          1060,       79.7621,       169.625,            0.,NA,NA,"",   1.01399E+06,   1.02088E+06,   1.02088E+06
C:/temp/Job-0.odb,Step-1,Increment      1: Step Time =    1.000,"P-0-1",          1061,       172.118,       79.8217,            0.,NA,NA,"",   988.221E+03,   992.438E+03,   992.438E+03
C:/temp/Job-0.odb,Step-1,Increment      1: Step Time =    1.000,"P-0-1",          1062,       119.752,       171.088,            0.,NA,NA,"",   1.00820E+06,   1.01080E+06,   1.01080E+06
C:/temp/Job-0.odb,Step-1,Increment      1: Step Time =    1.000,"P-0-1",          1063,       29.5865,       142.657,            0.,NA,NA,"",   937.756E+03,   998.912E+03,   998.912E+03
C:/temp/Job-0.odb,Step-1,Increment      1: Step Time =    1.000,"P-0-1",          1064,       140.718,       28.6532,            0.,NA,NA,"",   1.01884E+06,   1.01420E+06,   1.01420E+06
C:/temp/Job-0.odb,Step-1,Increment      1: Step Time =    1.000,"P-0-1",          1065,       59.6010,       32.0778,            0.,NA,NA,"",   1.03414E+06,   1.04023E+06,   1.04023E+06
C:/temp/Job-0.odb,Step-1,Increment      1: Step Time =    1.000,"P-0-1",          1066,       28.3491,       59.0309,            0.,NA,NA,"",   927.529E+03,   992.058E+03,   992.058E+03
C:/temp/Job-0.odb,Step-1,Increment      1: Step Time =    1.000,"P-0-1",          1067,       57.8597,       170.688,            0.,NA,NA,"",   1.03106E+06,   1.03683E+06,   1.03683E+06
C:/temp/Job-0.odb,Step-1,Increment      1: Step Time =    1.000,"P-0-1",          1068,       167.876,       60.1384,            0.,NA,NA,"",   1.01732E+06,   1.01265E+06,   1.01265E+06
C:/temp/Job-0.odb,Step-1,Increment      1: Step Time =    1.000,"P-0-1",          1069,       169.175,       141.441,            0.,NA,NA,"",   1.01641E+06,   1.01228E+06,   1.01228E+06
C:/temp/Job-0.odb,Step-1,Increment      1: Step Time =    1.000,"P-0-1",          1070,       139.983,       167.397,            0.,NA,NA,"",   1.02706E+06,   1.02112E+06,   1.02112E+06
C:/temp/Job-0.odb,Step-1,Increment      1: Step Time =    1.000,"P-0-1",          1071,       27.4373,       36.5193,            0.,NA,NA,"",   997.512E+03,   1.04538E+06,   1.04538E+06
C:/temp/Job-0.odb,Step-1,Increment      1: Step Time =    1.000,"P-0-1",          1072,       35.2257,       25.6221,            0.,NA,NA,"",   1.03890E+06,   1.05951E+06,   1.05951E+06
C:/temp/Job-0.odb,Step-1,Increment      1: Step Time =    1.000,"P-0-1",          1073,       163.695,       28.7672,            0.,NA,NA,"",   1.01251E+06,   1.00884E+06,   1.00884E+06
C:/temp/Job-0.odb,Step-1,Increment      1: Step Time =    1.000,"P-0-1",          1074,       27.8958,       164.680,            0.,NA,NA,"",   1.00198E+06,   1.04808E+06,   1.04808E+06
C:/temp/Job-0.odb,Step-1,Increment      1: Step Time =    1.000,"P-0-1",          1075,       172.574,       38.3491,            0.,NA,NA,"",   1.01254E+06,   1.00946E+06,   1.00946E+06
C:/temp/Job-0.odb,Step-1,Increment      1: Step Time =    1.000,"P-0-1",          1076,       36.6232,       169.786,            0.,NA,NA,"",   1.03051E+06,   1.05498E+06,   1.05498E+06
C:/temp/Job-0.odb,Step-1,Increment      1: Step Time =    1.000,"P-0-1",          1077,       163.277,       173.253,            0.,NA,NA,"",   1.01116E+06,   1.00779E+06,   1.00779E+06
C:/temp/Job-0.odb,Step-1,Increment      1: Step Time =    1.000,"P-0-1",          1078,       170.461,       163.810,            0.,NA,NA,"",   1.01292E+06,   1.00963E+06,   1.00963E+06
C:/temp/Job-0.odb,Step-1,Increment      1: Step Time =    1.000,"P-0-1",          1079,       16.6419,       18.4979,            0.,NA,NA,"",   1.06654E+06,   1.11203E+06,   1.11203E+06
C:/temp/Job-0.odb,Step-1,Increment      1: Step Time =    1.000,"P-0-1",          1080,       14.8976,       184.915,            0.,NA,NA,"",   1.09864E+06,   1.14021E+06,   1.14021E+06
C:/temp/Job-0.odb,Step-1,Increment      1: Step Time =    1.000,"P-0-1",          1081,       153.793,       9.27299,            0.,NA,NA,"",   994.452E+03,   993.713E+03,   993.713E+03
C:/temp/Job-0.odb,Step-1,Increment      1: Step Time =    1.000,"P-0-1",          1082,       190.763,       153.753,            0.,NA,NA,"",   999.585E+03,   1.00169E+06,   1.00169E+06
C:/temp/Job-0.odb,Step-1,Increment      1: Step Time =    1.000,"P-0-1",          1083,       46.0718,       190.686,            0.,NA,NA,"",   1.00058E+06,   1.00194E+06,   1.00194E+06
C:/temp/Job-0.odb,Step-1,Increment      1: Step Time =    1.000,"P-0-1",          1084,       70.1631,       28.0281,            0.,NA,NA,"",   1.01994E+06,   1.02396E+06,   1.02396E+06
C:/temp/Job-0.odb,Step-1,Increment      1: Step Time =    1.000,"P-0-1",          1085,       129.547,       171.774,            0.,NA,NA,"",   1.01442E+06,   1.01273E+06,   1.01273E+06
C:/temp/Job-0.odb,Step-1,Increment      1: Step Time =    1.000,"P-0-1",          1086,       26.5892,       130.228,            0.,NA,NA,"",   890.292E+03,   963.289E+03,   963.289E+03
C:/temp/Job-0.odb,Step-1,Increment      1: Step Time =    1.000,"P-0-1",          1087,       172.492,       70.2684,            0.,NA,NA,"",   1.00145E+06,   1.00224E+06,   1.00224E+06
C:/temp/Job-0.odb,Step-1,Increment      1: Step Time =    1.000,"P-0-1",          1088,       109.595,       25.5256,            0.,NA,NA,"",   993.827E+03,   999.680E+03,   999.680E+03
C:/temp/Job-0.odb,Step-1,Increment      1: Step Time =    1.000,"P-0-1",          1089,       23.8724,       90.8668,            0.,NA,NA,"",   834.739E+03,   917.874E+03,   917.874E+03
C:/temp/Job-0.odb,Step-1,Increment      1: Step Time =    1.000,"P-0-1",          1090,       99.4569,       30.3182,            0.,NA,NA,"",   998.427E+03,   1.00898E+06,   1.00898E+06
C:/temp/Job-0.odb,Step-1,Increment      1: Step Time =    1.000,"P-0-1",          1091,       29.4819,       100.487,            0.,NA,NA,"",   837.516E+03,   915.097E+03,   915.097E+03
C:/temp/Job-0.odb,Step-1,Increment      1: Step Time =    1.000,"P-0-1",          1092,       175.758,       110.402,            0.,NA,NA,"",   976.078E+03,   985.592E+03,   985.592E+03
C:/temp/Job-0.odb,Step-1,Increment      1: Step Time =    1.000,"P-0-1",          1093,       90.7694,       174.723,            0.,NA,NA,"",    994.12E+03,   1.00106E+06,   1.00106E+06
C:/temp/Job-0.odb,Step-1,Increment      1: Step Time =    1.000,"P-0-1",          1094,       171.398,       100.515,            0.,NA,NA,"",   966.452E+03,   976.003E+03,   976.003E+03
C:/temp/Job-0.odb,Step-1,Increment      1: Step Time =    1.000,"P-0-1",          1095,       100.748,       173.349,            0.,NA,NA,"",   992.799E+03,   1.00117E+06,   1.00117E+06
C:/temp/Job-0.odb,Step-1,Increment      1: Step Time =    1.000,"P-0-1",          1096,       26.1789,       25.5460,            0.,NA,NA,"",   1.03598E+06,   1.07210E+06,   1.07210E+06
C:/temp/Job-0.odb,Step-1,Increment      1: Step Time =    1.000,"P-0-1",          1097,       171.146,       29.7747,            0.,NA,NA,"",   1.00943E+06,   1.00683E+06,   1.00683E+06
C:/temp/Job-0.odb,Step-1,Increment      1: Step Time =    1.000,"P-0-1",          1098,       169.785,       171.816,            0.,NA,NA,"",   1.00937E+06,   1.00672E+06,   1.00672E+06
C:/temp/Job-0.odb,Step-1,Increment      1: Step Time =    1.000,"P-0-1",          1099,       120.438,       78.6663,            0.,NA,NA,"",   1.21963E+06,   1.15378E+06,   1.15378E+06
C:/temp/Job-0.odb,Step-1,Increment      1: Step Time =    1.000,"P-0-1",          1100,       79.6197,       121.383,            0.,NA,NA,"",   1.19536E+06,   1.14996E+06,   1.14996E+06
C:/temp/Job-0.odb,Step-1,Increment      1: Step Time =    1.000,"P-0-1",          1101,       127.230,       79.3376,            0.,NA,NA,"",   1.11859E+06,   1.06607E+06,   1.06607E+06
C:/temp/Job-0.odb,Step-1,Increment      1: Step Time =    1.000,"P-0-1",          1102,       72.8531,       120.835,            0.,NA,NA,"",   1.08595E+06,   1.06101E+06,   1.06101E+06
C:/temp/Job-0.odb,Step-1,Increment      1: Step Time =    1.000,"P-0-1",          1103,       97.2170,       68.4052,            0.,NA,NA,"",   1.05334E+06,   1.12011E+06,   1.12011E+06
C:/temp/Job-0.odb,Step-1,Increment      1: Step Time =    1.000,"P-0-1",          1104,       105.251,       66.9594,            0.,NA,NA,"",   1.05995E+06,   1.11242E+06,   1.11242E+06
C:/temp/Job-0.odb,Step-1,Increment      1: Step Time =    1.000,"P-0-1",          1105,       102.557,       131.509,            0.,NA,NA,"",   1.05304E+06,   1.11965E+06,   1.11965E+06
C:/temp/Job-0.odb,Step-1,Increment      1: Step Time =    1.000,"P-0-1",          1106,       94.7428,       133.040,            0.,NA,NA,"",   1.05874E+06,   1.11406E+06,   1.11406E+06
C:/temp/Job-0.odb,Step-1,Increment      1: Step Time =    1.000,"P-0-1",          1107,       154.746,       179.737,            0.,NA,NA,"",   1.00654E+06,   1.00375E+06,   1.00375E+06
C:/temp/Job-0.odb,Step-1,Increment      1: Step Time =    1.000,"P-0-1",          1108,       181.904,       152.203,            0.,NA,NA,"",   1.00492E+06,   1.00536E+06,   1.00536E+06
C:/temp/Job-0.odb,Step-1,Increment      1: Step Time =    1.000,"P-0-1",          1109,       47.3111,       181.532,            0.,NA,NA,"",   1.02209E+06,   1.02717E+06,   1.02717E+06
C:/temp/Job-0.odb,Step-1,Increment      1: Step Time =    1.000,"P-0-1",          1110,       179.654,       45.1225,            0.,NA,NA,"",   1.00751E+06,   1.00664E+06,   1.00664E+06
C:/temp/Job-0.odb,Step-1,Increment      1: Step Time =    1.000,"P-0-1",          1111,       152.547,       18.0454,            0.,NA,NA,"",   1.00299E+06,   1.00072E+06,   1.00072E+06
C:/temp/Job-0.odb,Step-1,Increment      1: Step Time =    1.000,"P-0-1",          1112,       19.5994,       153.322,            0.,NA,NA,"",   934.672E+03,   1.00816E+06,   1.00816E+06
C:/temp/Job-0.odb,Step-1,Increment      1: Step Time =    1.000,"P-0-1",          1113,       47.6833,       20.1473,            0.,NA,NA,"",   1.02651E+06,   1.03244E+06,   1.03244E+06
C:/temp/Job-0.odb,Step-1,Increment      1: Step Time =    1.000,"P-0-1",          1114,       20.2793,       47.8574,            0.,NA,NA,"",   932.528E+03,   1.00558E+06,   1.00558E+06
C:/temp/Job-0.odb,Step-1,Increment      1: Step Time =    1.000,"P-0-1",          1115,       186.689,       152.623,            0.,NA,NA,"",   1.00181E+06,   1.00328E+06,   1.00328E+06
C:/temp/Job-0.odb,Step-1,Increment      1: Step Time =    1.000,"P-0-1",          1116,       155.557,       184.737,            0.,NA,NA,"",   1.00070E+06,   999.033E+03,   999.033E+03
C:/temp/Job-0.odb,Step-1,Increment      1: Step Time =    1.000,"P-0-1",          1117,       47.0520,       186.494,            0.,NA,NA,"",   1.01305E+06,   1.01585E+06,   1.01585E+06
C:/temp/Job-0.odb,Step-1,Increment      1: Step Time =    1.000,"P-0-1",          1118,       184.673,       44.2085,            0.,NA,NA,"",   1.00338E+06,   1.00392E+06,   1.00392E+06
C:/temp/Job-0.odb,Step-1,Increment      1: Step Time =    1.000,"P-0-1",          1119,       12.5062,       153.487,            0.,NA,NA,"",   906.468E+03,   993.758E+03,   993.758E+03
C:/temp/Job-0.odb,Step-1,Increment      1: Step Time =    1.000,"P-0-1",          1120,       152.780,       13.3341,            0.,NA,NA,"",   998.110E+03,   996.704E+03,   996.704E+03
C:/temp/Job-0.odb,Step-1,Increment      1: Step Time =    1.000,"P-0-1",          1121,       46.5671,       12.9941,            0.,NA,NA,"",   1.01218E+06,   1.01426E+06,   1.01426E+06
C:/temp/Job-0.odb,Step-1,Increment      1: Step Time =    1.000,"P-0-1",          1122,       108.029,       61.8253,            0.,NA,NA,"",   1.05275E+06,   1.08891E+06,   1.08891E+06
C:/temp/Job-0.odb,Step-1,Increment      1: Step Time =    1.000,"P-0-1",          1123,       91.7668,       137.878,            0.,NA,NA,"",   1.05219E+06,   1.09203E+06,   1.09203E+06
C:/temp/Job-0.odb,Step-1,Increment      1: Step Time =    1.000,"P-0-1",          1124,       131.515,       117.988,            0.,NA,NA,"",   1.05845E+06,   1.01648E+06,   1.01648E+06
C:/temp/Job-0.odb,Step-1,Increment      1: Step Time =    1.000,"P-0-1",          1125,       68.4408,       81.9868,            0.,NA,NA,"",   1.01515E+06,   1.00584E+06,   1.00584E+06
C:/temp/Job-0.odb,Step-1,Increment      1: Step Time =    1.000,"P-0-1",          1126,       114.039,       129.168,            0.,NA,NA,"",   1.16745E+06,   1.16689E+06,   1.16689E+06
C:/temp/Job-0.odb,Step-1,Increment      1: Step Time =    1.000,"P-0-1",          1127,       85.8956,       70.8449,            0.,NA,NA,"",   1.15870E+06,   1.16740E+06,   1.16740E+06
C:/temp/Job-0.odb,Step-1,Increment      1: Step Time =    1.000,"P-0-1",          1128,       24.7082,       74.8091,            0.,NA,NA,"",   869.482E+03,   947.209E+03,   947.209E+03
C:/temp/Job-0.odb,Step-1,Increment      1: Step Time =    1.000,"P-0-1",          1129,       176.416,       126.262,            0.,NA,NA,"",   994.561E+03,   998.761E+03,   998.761E+03
C:/temp/Job-0.odb,Step-1,Increment      1: Step Time =    1.000,"P-0-1",          1130,       125.084,       24.5819,            0.,NA,NA,"",   1.00340E+06,   1.00373E+06,   1.00373E+06
C:/temp/Job-0.odb,Step-1,Increment      1: Step Time =    1.000,"P-0-1",          1131,       74.7871,       175.186,            0.,NA,NA,"",   1.00778E+06,   1.01166E+06,   1.01166E+06
C:/temp/Job-0.odb,Step-1,Increment      1: Step Time =    1.000,"P-0-1",          1132,       21.2877,       17.6633,            0.,NA,NA,"",   1.07451E+06,   1.10440E+06,   1.10440E+06
C:/temp/Job-0.odb,Step-1,Increment      1: Step Time =    1.000,"P-0-1",          1133,       139.240,       98.2855,            0.,NA,NA,"",   846.933E+03,   856.458E+03,   856.458E+03
C:/temp/Job-0.odb,Step-1,Increment      1: Step Time =    1.000,"P-0-1",          1134,       143.453,       107.672,            0.,NA,NA,"",   897.927E+03,   901.789E+03,   901.789E+03
C:/temp/Job-0.odb,Step-1,Increment      1: Step Time =    1.000,"P-0-1",          1135,       56.3003,       92.3752,            0.,NA,NA,"",   836.019E+03,   881.362E+03,   881.362E+03
C:/temp/Job-0.odb,Step-1,Increment      1: Step Time =    1.000,"P-0-1",          1136,       60.6010,       101.859,            0.,NA,NA,"",   795.226E+03,   840.584E+03,   840.584E+03
C:/temp/Job-0.odb,Step-1,Increment      1: Step Time =    1.000,"P-0-1",          1137,       142.856,       87.4857,            0.,NA,NA,"",   943.744E+03,   937.487E+03,   937.487E+03
C:/temp/Job-0.odb,Step-1,Increment      1: Step Time =    1.000,"P-0-1",          1138,       56.5500,       112.979,            0.,NA,NA,"",   886.227E+03,   922.279E+03,   922.279E+03
C:/temp/Job-0.odb,Step-1,Increment      1: Step Time =    1.000,"P-0-1",          1139,       27.5364,       149.706,            0.,NA,NA,"",   952.825E+03,   1.01299E+06,   1.01299E+06
C:/temp/Job-0.odb,Step-1,Increment      1: Step Time =    1.000,"P-0-1",          1140,       146.561,       26.6642,            0.,NA,NA,"",   1.01534E+06,   1.01085E+06,   1.01085E+06
C:/temp/Job-0.odb,Step-1,Increment      1: Step Time =    1.000,"P-0-1",          1141,       53.9648,       27.0915,            0.,NA,NA,"",   1.02977E+06,   1.03628E+06,   1.03628E+06
C:/temp/Job-0.odb,Step-1,Increment      1: Step Time =    1.000,"P-0-1",          1142,       24.6003,       54.6924,            0.,NA,NA,"",   927.039E+03,   995.796E+03,   995.796E+03
C:/temp/Job-0.odb,Step-1,Increment      1: Step Time =    1.000,"P-0-1",          1143,       172.032,       54.6162,            0.,NA,NA,"",   1.01435E+06,   1.01131E+06,   1.01131E+06
C:/temp/Job-0.odb,Step-1,Increment      1: Step Time =    1.000,"P-0-1",          1144,       52.4879,       173.289,            0.,NA,NA,"",   1.03004E+06,   1.03719E+06,   1.03719E+06
C:/temp/Job-0.odb,Step-1,Increment      1: Step Time =    1.000,"P-0-1",          1145,       145.562,       171.814,            0.,NA,NA,"",   1.01838E+06,   1.01332E+06,   1.01332E+06
C:/temp/Job-0.odb,Step-1,Increment      1: Step Time =    1.000,"P-0-1",          1146,       173.201,       145.103,            0.,NA,NA,"",   1.01260E+06,   1.01023E+06,   1.01023E+06
C:/temp/Job-0.odb,Step-1,Increment      1: Step Time =    1.000,"P-0-1",          1147,       37.8807,       21.1055,            0.,NA,NA,"",   1.03989E+06,   1.05235E+06,   1.05235E+06
C:/temp/Job-0.odb,Step-1,Increment      1: Step Time =    1.000,"P-0-1",          1148,       26.5442,       160.290,            0.,NA,NA,"",   984.461E+03,   1.03737E+06,   1.03737E+06
C:/temp/Job-0.odb,Step-1,Increment      1: Step Time =    1.000,"P-0-1",          1149,       173.780,       42.0367,            0.,NA,NA,"",   1.01246E+06,   1.00962E+06,   1.00962E+06
C:/temp/Job-0.odb,Step-1,Increment      1: Step Time =    1.000,"P-0-1",          1150,       158.510,       173.967,            0.,NA,NA,"",   1.01247E+06,   1.00862E+06,   1.00862E+06
C:/temp/Job-0.odb,Step-1,Increment      1: Step Time =    1.000,"P-0-1",          1151,       10.6850,       14.9168,            0.,NA,NA,"",   1.09531E+06,   1.15420E+06,   1.15420E+06
C:/temp/Job-0.odb,Step-1,Increment      1: Step Time =    1.000,"P-0-1",          1152,       184.864,       10.3556,            0.,NA,NA,"",   999.870E+03,   999.700E+03,   999.700E+03
C:/temp/Job-0.odb,Step-1,Increment      1: Step Time =    1.000,"P-0-1",          1153,       15.1767,       189.689,            0.,NA,NA,"",   1.13598E+06,   1.15883E+06,   1.15883E+06
C:/temp/Job-0.odb,Step-1,Increment      1: Step Time =    1.000,"P-0-1",          1154,       189.661,       184.858,            0.,NA,NA,"",   1.00031E+06,   1.00010E+06,   1.00010E+06
C:/temp/Job-0.odb,Step-1,Increment      1: Step Time =    1.000,"P-0-1",          1155,       131.149,       81.8902,            0.,NA,NA,"",   1.05632E+06,   1.01414E+06,   1.01414E+06
C:/temp/Job-0.odb,Step-1,Increment      1: Step Time =    1.000,"P-0-1",          1156,       68.8187,       118.435,            0.,NA,NA,"",   1.01782E+06,   1.00735E+06,   1.00735E+06
C:/temp/Job-0.odb,Step-1,Increment      1: Step Time =    1.000,"P-0-1",          1157,       124.370,       76.1566,            0.,NA,NA,"",   1.16631E+06,   1.11302E+06,   1.11302E+06
C:/temp/Job-0.odb,Step-1,Increment      1: Step Time =    1.000,"P-0-1",          1158,       75.7949,       123.936,            0.,NA,NA,"",   1.13965E+06,   1.11012E+06,   1.11012E+06
C:/temp/Job-0.odb,Step-1,Increment      1: Step Time =    1.000,"P-0-1",          1159,       97.9720,       133.169,            0.,NA,NA,"",   1.04421E+06,   1.10500E+06,   1.10500E+06
C:/temp/Job-0.odb,Step-1,Increment      1: Step Time =    1.000,"P-0-1",          1160,       101.957,       66.6124,            0.,NA,NA,"",   1.04458E+06,   1.10406E+06,   1.10406E+06
C:/temp/Job-0.odb,Step-1,Increment      1: Step Time =    1.000,"P-0-1",          1161,       77.6926,       70.2827,            0.,NA,NA,"",   1.14377E+06,   1.12888E+06,   1.12888E+06
C:/temp/Job-0.odb,Step-1,Increment      1: Step Time =    1.000,"P-0-1",          1162,       122.290,       129.727,            0.,NA,NA,"",   1.16404E+06,   1.13063E+06,   1.13063E+06
C:/temp/Job-0.odb,Step-1,Increment      1: Step Time =    1.000,"P-0-1",          1163,       183.281,       148.588,            0.,NA,NA,"",   1.00344E+06,   1.00481E+06,   1.00481E+06
C:/temp/Job-0.odb,Step-1,Increment      1: Step Time =    1.000,"P-0-1",          1164,       152.326,       182.897,            0.,NA,NA,"",   1.00250E+06,   1.00033E+06,   1.00033E+06
C:/temp/Job-0.odb,Step-1,Increment      1: Step Time =    1.000,"P-0-1",          1165,       156.394,       177.472,            0.,NA,NA,"",   1.00921E+06,   1.00597E+06,   1.00597E+06
C:/temp/Job-0.odb,Step-1,Increment      1: Step Time =    1.000,"P-0-1",          1166,       174.266,       153.483,            0.,NA,NA,"",   1.01235E+06,   1.00984E+06,   1.00984E+06
C:/temp/Job-0.odb,Step-1,Increment      1: Step Time =    1.000,"P-0-1",          1167,       177.354,       43.6095,            0.,NA,NA,"",   1.00954E+06,   1.00784E+06,   1.00784E+06
C:/temp/Job-0.odb,Step-1,Increment      1: Step Time =    1.000,"P-0-1",          1168,       46.9425,       175.206,            0.,NA,NA,"",   1.03207E+06,   1.04140E+06,   1.04140E+06
C:/temp/Job-0.odb,Step-1,Increment      1: Step Time =    1.000,"P-0-1",          1169,       50.9843,       182.907,            0.,NA,NA,"",   1.01527E+06,   1.01855E+06,   1.01855E+06
C:/temp/Job-0.odb,Step-1,Increment      1: Step Time =    1.000,"P-0-1",          1170,       182.856,       47.5209,            0.,NA,NA,"",   1.00459E+06,   1.00501E+06,   1.00501E+06
C:/temp/Job-0.odb,Step-1,Increment      1: Step Time =    1.000,"P-0-1",          1171,       148.890,       16.8578,            0.,NA,NA,"",   1.00118E+06,   999.063E+03,   999.063E+03
C:/temp/Job-0.odb,Step-1,Increment      1: Step Time =    1.000,"P-0-1",          1172,       17.4814,       149.772,            0.,NA,NA,"",   915.516E+03,   994.859E+03,   994.859E+03
C:/temp/Job-0.odb,Step-1,Increment      1: Step Time =    1.000,"P-0-1",          1173,       20.9411,       157.147,            0.,NA,NA,"",   953.869E+03,   1.02191E+06,   1.02191E+06
C:/temp/Job-0.odb,Step-1,Increment      1: Step Time =    1.000,"P-0-1",          1174,       154.008,       25.3638,            0.,NA,NA,"",   1.01237E+06,   1.00841E+06,   1.00841E+06
C:/temp/Job-0.odb,Step-1,Increment      1: Step Time =    1.000,"P-0-1",          1175,       43.9001,       19.2115,            0.,NA,NA,"",   1.02833E+06,   1.03476E+06,   1.03476E+06
C:/temp/Job-0.odb,Step-1,Increment      1: Step Time =    1.000,"P-0-1",          1176,       24.8506,       47.7804,            0.,NA,NA,"",   950.086E+03,   1.01380E+06,   1.01380E+06
C:/temp/Job-0.odb,Step-1,Increment      1: Step Time =    1.000,"P-0-1",          1177,       15.0940,       51.7169,            0.,NA,NA,"",   901.367E+03,   985.541E+03,   985.541E+03
C:/temp/Job-0.odb,Step-1,Increment      1: Step Time =    1.000,"P-0-1",          1178,       48.7221,       15.1255,            0.,NA,NA,"",   1.01488E+06,   1.01780E+06,   1.01780E+06
C:/temp/Job-0.odb,Step-1,Increment      1: Step Time =    1.000,"P-0-1",          1179,       109.084,       31.4457,            0.,NA,NA,"",   1.00300E+06,   1.01184E+06,   1.01184E+06
C:/temp/Job-0.odb,Step-1,Increment      1: Step Time =    1.000,"P-0-1",          1180,       28.4012,       90.1118,            0.,NA,NA,"",   843.217E+03,   921.207E+03,   921.207E+03
C:/temp/Job-0.odb,Step-1,Increment      1: Step Time =    1.000,"P-0-1",          1181,       91.6701,       168.917,            0.,NA,NA,"",   1.00343E+06,   1.01394E+06,   1.01394E+06
C:/temp/Job-0.odb,Step-1,Increment      1: Step Time =    1.000,"P-0-1",          1182,       171.330,       109.997,            0.,NA,NA,"",   971.997E+03,   980.046E+03,   980.046E+03
C:/temp/Job-0.odb,Step-1,Increment      1: Step Time =    1.000,"P-0-1",          1183,       167.433,       102.158,            0.,NA,NA,"",   961.341E+03,   969.916E+03,   969.916E+03
C:/temp/Job-0.odb,Step-1,Increment      1: Step Time =    1.000,"P-0-1",          1184,       102.775,       169.159,            0.,NA,NA,"",   999.453E+03,   1.01014E+06,   1.01014E+06
C:/temp/Job-0.odb,Step-1,Increment      1: Step Time =    1.000,"P-0-1",          1185,       102.598,       32.8949,            0.,NA,NA,"",   1.00235E+06,   1.01442E+06,   1.01442E+06
C:/temp/Job-0.odb,Step-1,Increment      1: Step Time =    1.000,"P-0-1",          1186,       28.3801,       169.257,            0.,NA,NA,"",   1.01950E+06,   1.05912E+06,   1.05912E+06
C:/temp/Job-0.odb,Step-1,Increment      1: Step Time =    1.000,"P-0-1",          1187,       167.561,       88.4532,            0.,NA,NA,"",   971.778E+03,   977.936E+03,   977.936E+03
C:/temp/Job-0.odb,Step-1,Increment      1: Step Time =    1.000,"P-0-1",          1188,       106.490,       166.882,            0.,NA,NA,"",   1.00337E+06,   1.01457E+06,   1.01457E+06
C:/temp/Job-0.odb,Step-1,Increment      1: Step Time =    1.000,"P-0-1",          1189,       93.5779,       33.3225,            0.,NA,NA,"",   1.00490E+06,   1.01748E+06,   1.01748E+06
C:/temp/Job-0.odb,Step-1,Increment      1: Step Time =    1.000,"P-0-1",          1190,       34.1367,       110.231,            0.,NA,NA,"",   853.666E+03,   924.648E+03,   924.648E+03
C:/temp/Job-0.odb,Step-1,Increment      1: Step Time =    1.000,"P-0-1",          1191,       165.098,       119.372,            0.,NA,NA,"",   986.655E+03,   987.595E+03,   987.595E+03
C:/temp/Job-0.odb,Step-1,Increment      1: Step Time =    1.000,"P-0-1",          1192,       79.9530,       164.513,            0.,NA,NA,"",   1.02380E+06,    1.0327E+06,    1.0327E+06
C:/temp/Job-0.odb,Step-1,Increment      1: Step Time =    1.000,"P-0-1",          1193,       167.774,       79.6505,            0.,NA,NA,"",   988.570E+03,   990.535E+03,   990.535E+03
C:/temp/Job-0.odb,Step-1,Increment      1: Step Time =    1.000,"P-0-1",          1194,       119.797,       166.049,            0.,NA,NA,"",   1.01815E+06,   1.02152E+06,   1.02152E+06
C:/temp/Job-0.odb,Step-1,Increment      1: Step Time =    1.000,"P-0-1",          1195,       34.4203,       81.3078,            0.,NA,NA,"",   876.811E+03,   943.259E+03,   943.259E+03
C:/temp/Job-0.odb,Step-1,Increment      1: Step Time =    1.000,"P-0-1",          1196,       120.364,       35.1009,            0.,NA,NA,"",   1.02089E+06,   1.02397E+06,   1.02397E+06
C:/temp/Job-0.odb,Step-1,Increment      1: Step Time =    1.000,"P-0-1",          1197,       79.1524,       33.8703,            0.,NA,NA,"",   1.02233E+06,   1.03009E+06,   1.03009E+06
C:/temp/Job-0.odb,Step-1,Increment      1: Step Time =    1.000,"P-0-1",          1198,       35.0169,       119.774,            0.,NA,NA,"",   882.423E+03,   947.655E+03,   947.655E+03
C:/temp/Job-0.odb,Step-1,Increment      1: Step Time =    1.000,"P-0-1",          1199,       167.269,       70.0127,            0.,NA,NA,"",   1.00688E+06,   1.00433E+06,   1.00433E+06
C:/temp/Job-0.odb,Step-1,Increment      1: Step Time =    1.000,"P-0-1",          1200,       32.9808,       131.589,            0.,NA,NA,"",   915.682E+03,    977.19E+03,    977.19E+03
C:/temp/Job-0.odb,Step-1,Increment      1: Step Time =    1.000,"P-0-1",          1201,       129.849,       166.349,            0.,NA,NA,"",   1.02648E+06,   1.02355E+06,   1.02355E+06
C:/temp/Job-0.odb,Step-1,Increment      1: Step Time =    1.000,"P-0-1",          1202,       69.7026,       33.3911,            0.,NA,NA,"",   1.03104E+06,   1.03616E+06,   1.03616E+06
C:/temp/Job-0.odb,Step-1,Increment      1: Step Time =    1.000,"P-0-1",          1203,       37.2175,       165.176,            0.,NA,NA,"",   1.02203E+06,   1.05098E+06,   1.05098E+06
C:/temp/Job-0.odb,Step-1,Increment      1: Step Time =    1.000,"P-0-1",          1204,       167.582,       36.2969,            0.,NA,NA,"",   1.01579E+06,   1.01157E+06,   1.01157E+06
C:/temp/Job-0.odb,Step-1,Increment      1: Step Time =    1.000,"P-0-1",          1205,       161.347,       168.612,            0.,NA,NA,"",   1.01632E+06,   1.01169E+06,   1.01169E+06
C:/temp/Job-0.odb,Step-1,Increment      1: Step Time =    1.000,"P-0-1",          1206,       34.1076,       33.4879,            0.,NA,NA,"",   1.02082E+06,   1.05295E+06,   1.05295E+06
C:/temp/Job-0.odb,Step-1,Increment      1: Step Time =    1.000,"P-0-1",          1207,       36.4953,       30.3595,            0.,NA,NA,"",   1.02963E+06,   1.05478E+06,   1.05478E+06
C:/temp/Job-0.odb,Step-1,Increment      1: Step Time =    1.000,"P-0-1",          1208,       167.027,       32.5955,            0.,NA,NA,"",   1.01355E+06,   1.00982E+06,   1.00982E+06
C:/temp/Job-0.odb,Step-1,Increment      1: Step Time =    1.000,"P-0-1",          1209,       32.9977,       163.740,            0.,NA,NA,"",   1.01122E+06,   1.04830E+06,   1.04830E+06
C:/temp/Job-0.odb,Step-1,Increment      1: Step Time =    1.000,"P-0-1",          1210,       68.1574,       74.3567,            0.,NA,NA,"",   1.07601E+06,   1.06542E+06,   1.06542E+06
C:/temp/Job-0.odb,Step-1,Increment      1: Step Time =    1.000,"P-0-1",          1211,       131.803,       125.623,            0.,NA,NA,"",   1.11342E+06,   1.07247E+06,   1.07247E+06
C:/temp/Job-0.odb,Step-1,Increment      1: Step Time =    1.000,"P-0-1",          1212,       109.297,       137.681,            0.,NA,NA,"",   1.06287E+06,   1.09622E+06,   1.09622E+06
C:/temp/Job-0.odb,Step-1,Increment      1: Step Time =    1.000,"P-0-1",          1213,       89.3052,       143.494,            0.,NA,NA,"",   1.04600E+06,   1.07502E+06,   1.07502E+06
C:/temp/Job-0.odb,Step-1,Increment      1: Step Time =    1.000,"P-0-1",          1214,       90.4233,       62.6179,            0.,NA,NA,"",   1.06185E+06,   1.09984E+06,   1.09984E+06
C:/temp/Job-0.odb,Step-1,Increment      1: Step Time =    1.000,"P-0-1",          1215,       110.565,       55.6943,            0.,NA,NA,"",   1.04599E+06,    1.0695E+06,    1.0695E+06
C:/temp/Job-0.odb,Step-1,Increment      1: Step Time =    1.000,"P-0-1",          1216,       24.9677,       51.5594,            0.,NA,NA,"",   937.994E+03,   1.00427E+06,   1.00427E+06
C:/temp/Job-0.odb,Step-1,Increment      1: Step Time =    1.000,"P-0-1",          1217,       48.5933,       23.3444,            0.,NA,NA,"",   1.02999E+06,   1.03758E+06,   1.03758E+06
C:/temp/Job-0.odb,Step-1,Increment      1: Step Time =    1.000,"P-0-1",          1218,       177.410,       148.832,            0.,NA,NA,"",   1.00863E+06,   1.00782E+06,   1.00782E+06
C:/temp/Job-0.odb,Step-1,Increment      1: Step Time =    1.000,"P-0-1",          1219,       152.573,       177.440,            0.,NA,NA,"",   1.00940E+06,   1.00599E+06,   1.00599E+06
C:/temp/Job-0.odb,Step-1,Increment      1: Step Time =    1.000,"P-0-1",          1220,       149.596,       22.4984,            0.,NA,NA,"",   1.00885E+06,   1.00547E+06,   1.00547E+06
C:/temp/Job-0.odb,Step-1,Increment      1: Step Time =    1.000,"P-0-1",          1221,       23.3574,       151.723,            0.,NA,NA,"",   943.683E+03,   1.01080E+06,   1.01080E+06
C:/temp/Job-0.odb,Step-1,Increment      1: Step Time =    1.000,"P-0-1",          1222,       50.3916,       177.529,            0.,NA,NA,"",   1.02640E+06,   1.03245E+06,   1.03245E+06
C:/temp/Job-0.odb,Step-1,Increment      1: Step Time =    1.000,"P-0-1",          1223,       177.425,       47.4809,            0.,NA,NA,"",   1.00923E+06,   1.00789E+06,   1.00789E+06
C:/temp/Job-0.odb,Step-1,Increment      1: Step Time =    1.000,"P-0-1",          1224,       82.1959,       67.9667,            0.,NA,NA,"",   1.13993E+06,   1.13911E+06,   1.13911E+06
C:/temp/Job-0.odb,Step-1,Increment      1: Step Time =    1.000,"P-0-1",          1225,       117.742,       132.044,            0.,NA,NA,"",   1.15203E+06,   1.13837E+06,   1.13837E+06
C:/temp/Job-0.odb,Step-1,Increment      1: Step Time =    1.000,"P-0-1",          1226,       160.560,       164.230,            0.,NA,NA,"",   1.02101E+06,   1.01523E+06,   1.01523E+06
C:/temp/Job-0.odb,Step-1,Increment      1: Step Time =    1.000,"P-0-1",          1227,       164.550,       41.1687,            0.,NA,NA,"",   1.02148E+06,   1.01570E+06,   1.01570E+06
C:/temp/Job-0.odb,Step-1,Increment      1: Step Time =    1.000,"P-0-1",          1228,       36.9794,       161.529,            0.,NA,NA,"",   1.01300E+06,   1.04600E+06,   1.04600E+06
C:/temp/Job-0.odb,Step-1,Increment      1: Step Time =    1.000,"P-0-1",          1229,       39.1394,       35.0910,            0.,NA,NA,"",   1.02439E+06,   1.05029E+06,   1.05029E+06
C:/temp/Job-0.odb,Step-1,Increment      1: Step Time =    1.000,"P-0-1",          1230,       19.4434,       78.5402,            0.,NA,NA,"",   846.903E+03,   932.256E+03,   932.256E+03
C:/temp/Job-0.odb,Step-1,Increment      1: Step Time =    1.000,"P-0-1",          1231,       112.681,       65.6475,            0.,NA,NA,"",   1.09786E+06,   1.11947E+06,   1.11947E+06
C:/temp/Job-0.odb,Step-1,Increment      1: Step Time =    1.000,"P-0-1",          1232,       87.2789,       134.210,            0.,NA,NA,"",   1.09339E+06,   1.12227E+06,   1.12227E+06
C:/temp/Job-0.odb,Step-1,Increment      1: Step Time =    1.000,"P-0-1",          1233,       27.2715,       65.8169,            0.,NA,NA,"",   904.244E+03,   973.827E+03,   973.827E+03
C:/temp/Job-0.odb,Step-1,Increment      1: Step Time =    1.000,"P-0-1",          1234,       171.544,       130.416,            0.,NA,NA,"",   1.00309E+06,   1.00306E+06,   1.00306E+06
C:/temp/Job-0.odb,Step-1,Increment      1: Step Time =    1.000,"P-0-1",          1235,       135.700,       29.8617,            0.,NA,NA,"",   1.02079E+06,   1.01681E+06,   1.01681E+06
C:/temp/Job-0.odb,Step-1,Increment      1: Step Time =    1.000,"P-0-1",          1236,       65.1524,       169.455,            0.,NA,NA,"",   1.02919E+06,   1.03388E+06,   1.03388E+06
C:/temp/Job-0.odb,Step-1,Increment      1: Step Time =    1.000,"P-0-1",          1237,       140.096,       113.700,            0.,NA,NA,"",   957.200E+03,   943.866E+03,   943.866E+03
C:/temp/Job-0.odb,Step-1,Increment      1: Step Time =    1.000,"P-0-1",          1238,       59.6864,       86.2326,            0.,NA,NA,"",   900.735E+03,   927.333E+03,   927.333E+03
C:/temp/Job-0.odb,Step-1,Increment      1: Step Time =    1.000,"P-0-1",          1239,       140.242,       85.0572,            0.,NA,NA,"",   969.135E+03,   954.150E+03,   954.150E+03
C:/temp/Job-0.odb,Step-1,Increment      1: Step Time =    1.000,"P-0-1",          1240,       59.3606,       115.489,            0.,NA,NA,"",   917.256E+03,   942.185E+03,   942.185E+03
C:/temp/Job-0.odb,Step-1,Increment      1: Step Time =    1.000,"P-0-1",          1241,       69.8502,       124.042,            0.,NA,NA,"",   1.07714E+06,   1.06384E+06,   1.06384E+06
C:/temp/Job-0.odb,Step-1,Increment      1: Step Time =    1.000,"P-0-1",          1242,       130.431,       76.2163,            0.,NA,NA,"",   1.11061E+06,   1.06804E+06,   1.06804E+06
C:/temp/Job-0.odb,Step-1,Increment      1: Step Time =    1.000,"P-0-1",          1243,       125.936,       134.029,            0.,NA,NA,"",   1.12901E+06,   1.10318E+06,   1.10318E+06
C:/temp/Job-0.odb,Step-1,Increment      1: Step Time =    1.000,"P-0-1",          1244,       74.0763,       65.9771,            0.,NA,NA,"",   1.10912E+06,   1.10345E+06,   1.10345E+06
C:/temp/Job-0.odb,Step-1,Increment      1: Step Time =    1.000,"P-0-1",          1245,       170.264,       159.657,            0.,NA,NA,"",   1.01488E+06,   1.01117E+06,   1.01117E+06
C:/temp/Job-0.odb,Step-1,Increment      1: Step Time =    1.000,"P-0-1",          1246,       159.692,       29.1468,            0.,NA,NA,"",   1.01496E+06,   1.01059E+06,   1.01059E+06
C:/temp/Job-0.odb,Step-1,Increment      1: Step Time =    1.000,"P-0-1",          1247,       25.0222,       39.1313,            0.,NA,NA,"",   981.700E+03,   1.03749E+06,   1.03749E+06
C:/temp/Job-0.odb,Step-1,Increment      1: Step Time =    1.000,"P-0-1",          1248,       161.542,       115.221,            0.,NA,NA,"",   973.788E+03,   975.711E+03,   975.711E+03
C:/temp/Job-0.odb,Step-1,Increment      1: Step Time =    1.000,"P-0-1",          1249,       84.9469,       164.379,            0.,NA,NA,"",   1.01723E+06,   1.02844E+06,   1.02844E+06
C:/temp/Job-0.odb,Step-1,Increment      1: Step Time =    1.000,"P-0-1",          1250,       37.6891,       85.3208,            0.,NA,NA,"",   869.768E+03,   933.946E+03,   933.946E+03
C:/temp/Job-0.odb,Step-1,Increment      1: Step Time =    1.000,"P-0-1",          1251,       115.994,       40.4116,            0.,NA,NA,"",   1.02587E+06,   1.03380E+06,   1.03380E+06
C:/temp/Job-0.odb,Step-1,Increment      1: Step Time =    1.000,"P-0-1",          1252,       150.630,       110.511,            0.,NA,NA,"",   940.259E+03,   942.198E+03,   942.198E+03
C:/temp/Job-0.odb,Step-1,Increment      1: Step Time =    1.000,"P-0-1",          1253,       48.9676,       89.5001,            0.,NA,NA,"",   862.225E+03,   914.264E+03,   914.264E+03
C:/temp/Job-0.odb,Step-1,Increment      1: Step Time =    1.000,"P-0-1",          1254,       148.404,       89.0637,            0.,NA,NA,"",   942.621E+03,   942.397E+03,   942.397E+03
C:/temp/Job-0.odb,Step-1,Increment      1: Step Time =    1.000,"P-0-1",          1255,       50.2564,       111.692,            0.,NA,NA,"",   874.112E+03,   922.149E+03,   922.149E+03
C:/temp/Job-0.odb,Step-1,Increment      1: Step Time =    1.000,"P-0-1",          1256,       71.2796,       70.5962,            0.,NA,NA,"",   1.10405E+06,   1.09262E+06,   1.09262E+06
C:/temp/Job-0.odb,Step-1,Increment      1: Step Time =    1.000,"P-0-1",          1257,       128.717,       129.398,            0.,NA,NA,"",   1.13280E+06,   1.09599E+06,   1.09599E+06
C:/temp/Job-0.odb,Step-1,Increment      1: Step Time =    1.000,"P-0-1",          1258,       184.508,       184.977,            0.,NA,NA,"",   1.00048E+06,   1.00020E+06,   1.00020E+06
C:/temp/Job-0.odb,Step-1,Increment      1: Step Time =    1.000,"P-0-1",          1259,       184.956,       15.5793,            0.,NA,NA,"",   1.00055E+06,   1.00024E+06,   1.00024E+06
C:/temp/Job-0.odb,Step-1,Increment      1: Step Time =    1.000,"P-0-1",          1260,       15.7512,       14.1305,            0.,NA,NA,"",   1.10907E+06,   1.14328E+06,   1.14328E+06
C:/temp/Job-0.odb,Step-1,Increment      1: Step Time =    1.000,"P-0-1",          1261,       161.578,       94.2090,            0.,NA,NA,"",   954.893E+03,   961.340E+03,   961.340E+03
C:/temp/Job-0.odb,Step-1,Increment      1: Step Time =    1.000,"P-0-1",          1262,       103.916,       164.137,            0.,NA,NA,"",   1.00579E+06,   1.01955E+06,   1.01955E+06
C:/temp/Job-0.odb,Step-1,Increment      1: Step Time =    1.000,"P-0-1",          1263,       97.3351,       34.7738,            0.,NA,NA,"",   1.00471E+06,   1.01869E+06,   1.01869E+06
C:/temp/Job-0.odb,Step-1,Increment      1: Step Time =    1.000,"P-0-1",          1264,       38.1344,       103.171,            0.,NA,NA,"",   846.956E+03,   915.048E+03,   915.048E+03
C:/temp/Job-0.odb,Step-1,Increment      1: Step Time =    1.000,"P-0-1",          1265,       164.113,       84.3087,            0.,NA,NA,"",   977.423E+03,   980.011E+03,   980.011E+03
C:/temp/Job-0.odb,Step-1,Increment      1: Step Time =    1.000,"P-0-1",          1266,       115.134,       166.189,            0.,NA,NA,"",   1.01258E+06,   1.01918E+06,   1.01918E+06
C:/temp/Job-0.odb,Step-1,Increment      1: Step Time =    1.000,"P-0-1",          1267,       87.8696,       35.8593,            0.,NA,NA,"",   1.01382E+06,   1.02644E+06,   1.02644E+06
C:/temp/Job-0.odb,Step-1,Increment      1: Step Time =    1.000,"P-0-1",          1268,       54.3060,       99.0148,            0.,NA,NA,"",   822.212E+03,   873.684E+03,   873.684E+03
C:/temp/Job-0.odb,Step-1,Increment      1: Step Time =    1.000,"P-0-1",          1269,       145.412,       101.182,            0.,NA,NA,"",   886.985E+03,   895.790E+03,   895.790E+03
C:/temp/Job-0.odb,Step-1,Increment      1: Step Time =    1.000,"P-0-1",          1270,       124.722,       161.012,            0.,NA,NA,"",   1.03505E+06,   1.03412E+06,   1.03412E+06
C:/temp/Job-0.odb,Step-1,Increment      1: Step Time =    1.000,"P-0-1",          1271,       74.5410,       38.6565,            0.,NA,NA,"",   1.03681E+06,   1.04394E+06,   1.04394E+06
C:/temp/Job-0.odb,Step-1,Increment      1: Step Time =    1.000,"P-0-1",          1272,       36.5085,       124.885,            0.,NA,NA,"",   904.122E+03,   963.950E+03,   963.950E+03
C:/temp/Job-0.odb,Step-1,Increment      1: Step Time =    1.000,"P-0-1",          1273,       162.709,       75.2282,            0.,NA,NA,"",   1.00053E+06,   997.303E+03,   997.303E+03
C:/temp/Job-0.odb,Step-1,Increment      1: Step Time =    1.000,"P-0-1",          1274,       164.232,       105.055,            0.,NA,NA,"",   956.980E+03,   964.455E+03,   964.455E+03
C:/temp/Job-0.odb,Step-1,Increment      1: Step Time =    1.000,"P-0-1",          1275,       98.6984,       166.067,            0.,NA,NA,"",   1.00350E+06,   1.01680E+06,   1.01680E+06
C:/temp/Job-0.odb,Step-1,Increment      1: Step Time =    1.000,"P-0-1",          1276,       105.612,       34.2784,            0.,NA,NA,"",   1.00510E+06,   1.01721E+06,   1.01721E+06
C:/temp/Job-0.odb,Step-1,Increment      1: Step Time =    1.000,"P-0-1",          1277,       36.7125,       94.8188,            0.,NA,NA,"",   846.009E+03,   915.405E+03,   915.405E+03
C:/temp/Job-0.odb,Step-1,Increment      1: Step Time =    1.000,"P-0-1",          1278,       135.258,       161.491,            0.,NA,NA,"",   1.03914E+06,   1.03233E+06,   1.03233E+06
C:/temp/Job-0.odb,Step-1,Increment      1: Step Time =    1.000,"P-0-1",          1279,       64.4289,       38.2520,            0.,NA,NA,"",   1.04181E+06,   1.04807E+06,   1.04807E+06
C:/temp/Job-0.odb,Step-1,Increment      1: Step Time =    1.000,"P-0-1",          1280,       37.6968,       135.362,            0.,NA,NA,"",   946.383E+03,   996.998E+03,   996.998E+03
C:/temp/Job-0.odb,Step-1,Increment      1: Step Time =    1.000,"P-0-1",          1281,       162.463,       64.8131,            0.,NA,NA,"",   1.02103E+06,   1.01374E+06,   1.01374E+06
C:/temp/Job-0.odb,Step-1,Increment      1: Step Time =    1.000,"P-0-1",          1282,       35.6190,       75.0172,            0.,NA,NA,"",   902.024E+03,   962.962E+03,   962.962E+03
C:/temp/Job-0.odb,Step-1,Increment      1: Step Time =    1.000,"P-0-1",          1283,       125.015,       34.8856,            0.,NA,NA,"",   1.02485E+06,   1.02479E+06,   1.02479E+06
C:/temp/Job-0.odb,Step-1,Increment      1: Step Time =    1.000,"P-0-1",          1284,       75.4776,       164.243,            0.,NA,NA,"",   1.03014E+06,   1.03723E+06,   1.03723E+06
C:/temp/Job-0.odb,Step-1,Increment      1: Step Time =    1.000,"P-0-1",          1285,       98.2798,       136.174,            0.,NA,NA,"",   1.03739E+06,   1.08992E+06,   1.08992E+06
C:/temp/Job-0.odb,Step-1,Increment      1: Step Time =    1.000,"P-0-1",          1286,       102.517,       63.8008,            0.,NA,NA,"",   1.03991E+06,   1.09126E+06,   1.09126E+06
C:/temp/Job-0.odb,Step-1,Increment      1: Step Time =    1.000,"P-0-1",          1287,       66.6482,       121.230,            0.,NA,NA,"",   1.02821E+06,   1.02352E+06,   1.02352E+06
C:/temp/Job-0.odb,Step-1,Increment      1: Step Time =    1.000,"P-0-1",          1288,       133.387,       79.2738,            0.,NA,NA,"",   1.06745E+06,   1.02956E+06,   1.02956E+06
C:/temp/Job-0.odb,Step-1,Increment      1: Step Time =    1.000,"P-0-1",          1289,       66.6545,       126.494,            0.,NA,NA,"",   1.06157E+06,   1.05641E+06,   1.05641E+06
C:/temp/Job-0.odb,Step-1,Increment      1: Step Time =    1.000,"P-0-1",          1290,       134.127,       73.9088,            0.,NA,NA,"",   1.09396E+06,   1.05789E+06,   1.05789E+06
C:/temp/Job-0.odb,Step-1,Increment      1: Step Time =    1.000,"P-0-1",          1291,       170.043,       148.771,            0.,NA,NA,"",   1.01727E+06,   1.01309E+06,   1.01309E+06
C:/temp/Job-0.odb,Step-1,Increment      1: Step Time =    1.000,"P-0-1",          1292,       150.429,       170.441,            0.,NA,NA,"",   1.01937E+06,   1.01395E+06,   1.01395E+06
C:/temp/Job-0.odb,Step-1,Increment      1: Step Time =    1.000,"P-0-1",          1293,       29.4845,       48.1278,            0.,NA,NA,"",   965.792E+03,   1.02066E+06,   1.02066E+06
C:/temp/Job-0.odb,Step-1,Increment      1: Step Time =    1.000,"P-0-1",          1294,       48.6376,       27.8857,            0.,NA,NA,"",   1.03294E+06,   1.04259E+06,   1.04259E+06
C:/temp/Job-0.odb,Step-1,Increment      1: Step Time =    1.000,"P-0-1",          1295,       149.673,       29.3017,            0.,NA,NA,"",   1.01903E+06,   1.01374E+06,   1.01374E+06
C:/temp/Job-0.odb,Step-1,Increment      1: Step Time =    1.000,"P-0-1",          1296,       29.6535,       154.064,            0.,NA,NA,"",   974.020E+03,   1.02650E+06,   1.02650E+06
C:/temp/Job-0.odb,Step-1,Increment      1: Step Time =    1.000,"P-0-1",          1297,       48.7368,       171.307,            0.,NA,NA,"",   1.03309E+06,   1.04345E+06,   1.04345E+06
C:/temp/Job-0.odb,Step-1,Increment      1: Step Time =    1.000,"P-0-1",          1298,       170.601,       50.0153,            0.,NA,NA,"",   1.01669E+06,   1.01271E+06,   1.01271E+06
C:/temp/Job-0.odb,Step-1,Increment      1: Step Time =    1.000,"P-0-1",          1299,       190.518,       20.0767,            0.,NA,NA,"",   1.00058E+06,   1.00031E+06,   1.00031E+06
C:/temp/Job-0.odb,Step-1,Increment      1: Step Time =    1.000,"P-0-1",          1300,       180.042,       190.523,            0.,NA,NA,"",   999.611E+03,   999.427E+03,   999.427E+03
C:/temp/Job-0.odb,Step-1,Increment      1: Step Time =    1.000,"P-0-1",          1301,       15.3112,       9.45852,            0.,NA,NA,"",   1.13878E+06,   1.15817E+06,   1.15817E+06
C:/temp/Job-0.odb,Step-1,Increment      1: Step Time =    1.000,"P-0-1",          1302,       10.0974,       184.855,            0.,NA,NA,"",   1.08956E+06,   1.15201E+06,   1.15201E+06
C:/temp/Job-0.odb,Step-1,Increment      1: Step Time =    1.000,"P-0-1",          1303,       92.9476,       141.906,            0.,NA,NA,"",   1.03860E+06,   1.07520E+06,   1.07520E+06
C:/temp/Job-0.odb,Step-1,Increment      1: Step Time =    1.000,"P-0-1",          1304,       105.498,       142.533,            0.,NA,NA,"",   1.03306E+06,   1.06954E+06,   1.06954E+06
C:/temp/Job-0.odb,Step-1,Increment      1: Step Time =    1.000,"P-0-1",          1305,       106.419,       57.3435,            0.,NA,NA,"",   1.03694E+06,   1.07045E+06,   1.07045E+06
C:/temp/Job-0.odb,Step-1,Increment      1: Step Time =    1.000,"P-0-1",          1306,       93.8835,       58.5594,            0.,NA,NA,"",   1.03616E+06,   1.07562E+06,   1.07562E+06
C:/temp/Job-0.odb,Step-1,Increment      1: Step Time =    1.000,"P-0-1",          1307,       155.321,       165.292,            0.,NA,NA,"",   1.02396E+06,   1.01741E+06,   1.01741E+06
C:/temp/Job-0.odb,Step-1,Increment      1: Step Time =    1.000,"P-0-1",          1308,       165.459,       45.7639,            0.,NA,NA,"",   1.02258E+06,   1.01654E+06,   1.01654E+06
C:/temp/Job-0.odb,Step-1,Increment      1: Step Time =    1.000,"P-0-1",          1309,       36.6691,       157.035,            0.,NA,NA,"",   1.00266E+06,   1.03951E+06,   1.03951E+06
C:/temp/Job-0.odb,Step-1,Increment      1: Step Time =    1.000,"P-0-1",          1310,       43.9368,       33.4873,            0.,NA,NA,"",   1.03135E+06,   1.04980E+06,   1.04980E+06
C:/temp/Job-0.odb,Step-1,Increment      1: Step Time =    1.000,"P-0-1",          1311,       79.8921,       159.500,            0.,NA,NA,"",   1.03367E+06,   1.04433E+06,   1.04433E+06
C:/temp/Job-0.odb,Step-1,Increment      1: Step Time =    1.000,"P-0-1",          1312,       164.831,       111.941,            0.,NA,NA,"",    968.09E+03,   973.294E+03,   973.294E+03
C:/temp/Job-0.odb,Step-1,Increment      1: Step Time =    1.000,"P-0-1",          1313,       92.8665,       162.751,            0.,NA,NA,"",   1.01044E+06,   1.02532E+06,   1.02532E+06
C:/temp/Job-0.odb,Step-1,Increment      1: Step Time =    1.000,"P-0-1",          1314,       37.6988,       78.8907,            0.,NA,NA,"",   892.877E+03,   953.263E+03,   953.263E+03
C:/temp/Job-0.odb,Step-1,Increment      1: Step Time =    1.000,"P-0-1",          1315,       120.786,       39.8714,            0.,NA,NA,"",   1.03182E+06,   1.03490E+06,   1.03490E+06
C:/temp/Job-0.odb,Step-1,Increment      1: Step Time =    1.000,"P-0-1",          1316,       33.6969,       89.0400,            0.,NA,NA,"",   853.257E+03,   924.423E+03,   924.423E+03
C:/temp/Job-0.odb,Step-1,Increment      1: Step Time =    1.000,"P-0-1",          1317,       151.726,       103.606,            0.,NA,NA,"",   921.321E+03,   928.526E+03,   928.526E+03
C:/temp/Job-0.odb,Step-1,Increment      1: Step Time =    1.000,"P-0-1",          1318,       47.9357,       96.4686,            0.,NA,NA,"",   840.973E+03,   898.311E+03,   898.311E+03
C:/temp/Job-0.odb,Step-1,Increment      1: Step Time =    1.000,"P-0-1",          1319,       151.697,       92.9925,            0.,NA,NA,"",   933.423E+03,   937.762E+03,   937.762E+03
C:/temp/Job-0.odb,Step-1,Increment      1: Step Time =    1.000,"P-0-1",          1320,       46.7693,       107.427,            0.,NA,NA,"",   854.871E+03,   911.195E+03,   911.195E+03
C:/temp/Job-0.odb,Step-1,Increment      1: Step Time =    1.000,"P-0-1",          1321,       106.568,       160.904,            0.,NA,NA,"",   1.01132E+06,   1.02623E+06,   1.02623E+06
C:/temp/Job-0.odb,Step-1,Increment      1: Step Time =    1.000,"P-0-1",          1322,       160.777,       89.0628,            0.,NA,NA,"",   963.226E+03,   967.237E+03,   967.237E+03
C:/temp/Job-0.odb,Step-1,Increment      1: Step Time =    1.000,"P-0-1",          1323,       91.7219,       37.5659,            0.,NA,NA,"",   1.01139E+06,   1.02672E+06,   1.02672E+06
C:/temp/Job-0.odb,Step-1,Increment      1: Step Time =    1.000,"P-0-1",          1324,       38.8869,       109.414,            0.,NA,NA,"",   857.176E+03,   922.464E+03,   922.464E+03
C:/temp/Job-0.odb,Step-1,Increment      1: Step Time =    1.000,"P-0-1",          1325,       158.580,       76.6180,            0.,NA,NA,"",   1.00008E+06,   994.841E+03,   994.841E+03
C:/temp/Job-0.odb,Step-1,Increment      1: Step Time =    1.000,"P-0-1",          1326,       78.8977,       38.2593,            0.,NA,NA,"",   1.03169E+06,   1.04052E+06,   1.04052E+06
C:/temp/Job-0.odb,Step-1,Increment      1: Step Time =    1.000,"P-0-1",          1327,       100.736,       162.316,            0.,NA,NA,"",   1.00724E+06,   1.02351E+06,   1.02351E+06
C:/temp/Job-0.odb,Step-1,Increment      1: Step Time =    1.000,"P-0-1",          1328,       161.526,       101.585,            0.,NA,NA,"",   948.828E+03,   956.487E+03,   956.487E+03
C:/temp/Job-0.odb,Step-1,Increment      1: Step Time =    1.000,"P-0-1",          1329,       99.0107,       40.2908,            0.,NA,NA,"",   1.00975E+06,   1.02867E+06,   1.02867E+06
C:/temp/Job-0.odb,Step-1,Increment      1: Step Time =    1.000,"P-0-1",          1330,       38.5247,       97.7258,            0.,NA,NA,"",   844.571E+03,   912.277E+03,   912.277E+03
C:/temp/Job-0.odb,Step-1,Increment      1: Step Time =    1.000,"P-0-1",          1331,       129.962,       160.285,            0.,NA,NA,"",   1.04100E+06,   1.03617E+06,   1.03617E+06
C:/temp/Job-0.odb,Step-1,Increment      1: Step Time =    1.000,"P-0-1",          1332,       140.093,       162.092,            0.,NA,NA,"",   1.03775E+06,   1.02970E+06,   1.02970E+06
C:/temp/Job-0.odb,Step-1,Increment      1: Step Time =    1.000,"P-0-1",          1333,       59.5277,       37.5591,            0.,NA,NA,"",   1.04066E+06,   1.04833E+06,   1.04833E+06
C:/temp/Job-0.odb,Step-1,Increment      1: Step Time =    1.000,"P-0-1",          1334,       69.6279,       39.4574,            0.,NA,NA,"",   1.04273E+06,   1.04883E+06,   1.04883E+06
C:/temp/Job-0.odb,Step-1,Increment      1: Step Time =    1.000,"P-0-1",          1335,       34.9500,       140.835,            0.,NA,NA,"",   953.091E+03,   1.00523E+06,   1.00523E+06
C:/temp/Job-0.odb,Step-1,Increment      1: Step Time =    1.000,"P-0-1",          1336,       39.8953,       130.727,            0.,NA,NA,"",   937.855E+03,   987.523E+03,   987.523E+03
C:/temp/Job-0.odb,Step-1,Increment      1: Step Time =    1.000,"P-0-1",          1337,       162.706,       60.1768,            0.,NA,NA,"",   1.02494E+06,   1.01721E+06,   1.01721E+06
C:/temp/Job-0.odb,Step-1,Increment      1: Step Time =    1.000,"P-0-1",          1338,       161.125,       70.0671,            0.,NA,NA,"",   1.01484E+06,   1.00800E+06,   1.00800E+06
C:/temp/Job-0.odb,Step-1,Increment      1: Step Time =    1.000,"P-0-1",          1339,       56.4344,       118.831,            0.,NA,NA,"",   938.984E+03,   965.666E+03,   965.666E+03
C:/temp/Job-0.odb,Step-1,Increment      1: Step Time =    1.000,"P-0-1",          1340,       142.986,       82.0061,            0.,NA,NA,"",   994.111E+03,   978.103E+03,   978.103E+03
C:/temp/Job-0.odb,Step-1,Increment      1: Step Time =    1.000,"P-0-1",          1341,       59.6134,       81.4795,            0.,NA,NA,"",   954.702E+03,   973.128E+03,   973.128E+03
C:/temp/Job-0.odb,Step-1,Increment      1: Step Time =    1.000,"P-0-1",          1342,       140.143,       118.437,            0.,NA,NA,"",   1.01110E+06,   988.789E+03,   988.789E+03
C:/temp/Job-0.odb,Step-1,Increment      1: Step Time =    1.000,"P-0-1",          1343,       32.0805,       68.4409,            0.,NA,NA,"",   911.833E+03,   975.083E+03,   975.083E+03
C:/temp/Job-0.odb,Step-1,Increment      1: Step Time =    1.000,"P-0-1",          1344,       128.706,       33.9910,            0.,NA,NA,"",   1.02580E+06,   1.02370E+06,   1.02370E+06
C:/temp/Job-0.odb,Step-1,Increment      1: Step Time =    1.000,"P-0-1",          1345,       163.176,       126.904,            0.,NA,NA,"",   1.00575E+06,   1.00149E+06,   1.00149E+06
C:/temp/Job-0.odb,Step-1,Increment      1: Step Time =    1.000,"P-0-1",          1346,       70.2247,       165.844,            0.,NA,NA,"",   1.03247E+06,   1.03815E+06,   1.03815E+06
C:/temp/Job-0.odb,Step-1,Increment      1: Step Time =    1.000,"P-0-1",          1347,       69.9574,       66.6733,            0.,NA,NA,"",   1.09363E+06,   1.08846E+06,   1.08846E+06
C:/temp/Job-0.odb,Step-1,Increment      1: Step Time =    1.000,"P-0-1",          1348,       130.055,       133.306,            0.,NA,NA,"",   1.11912E+06,   1.08937E+06,   1.08937E+06
C:/temp/Job-0.odb,Step-1,Increment      1: Step Time =    1.000,"P-0-1",          1349,       35.5781,       41.1255,            0.,NA,NA,"",   1.00454E+06,   1.04179E+06,   1.04179E+06
C:/temp/Job-0.odb,Step-1,Increment      1: Step Time =    1.000,"P-0-1",          1350,       41.2482,       165.278,            0.,NA,NA,"",   1.02808E+06,   1.05071E+06,   1.05071E+06
C:/temp/Job-0.odb,Step-1,Increment      1: Step Time =    1.000,"P-0-1",          1351,       160.659,       37.2827,            0.,NA,NA,"",   1.02248E+06,   1.01638E+06,   1.01638E+06
C:/temp/Job-0.odb,Step-1,Increment      1: Step Time =    1.000,"P-0-1",          1352,       166.056,       156.810,            0.,NA,NA,"",   1.02103E+06,   1.01543E+06,   1.01543E+06
C:/temp/Job-0.odb,Step-1,Increment      1: Step Time =    1.000,"P-0-1",          1353,       78.1258,       66.0744,            0.,NA,NA,"",   1.11977E+06,   1.11685E+06,   1.11685E+06
C:/temp/Job-0.odb,Step-1,Increment      1: Step Time =    1.000,"P-0-1",          1354,       121.845,       133.938,            0.,NA,NA,"",   1.13535E+06,   1.11606E+06,   1.11606E+06
C:/temp/Job-0.odb,Step-1,Increment      1: Step Time =    1.000,"P-0-1",          1355,       135.720,       118.095,            0.,NA,NA,"",   1.02969E+06,   998.154E+03,   998.154E+03
C:/temp/Job-0.odb,Step-1,Increment      1: Step Time =    1.000,"P-0-1",          1356,       64.1603,       81.8540,            0.,NA,NA,"",   980.154E+03,   985.185E+03,   985.185E+03
C:/temp/Job-0.odb,Step-1,Increment      1: Step Time =    1.000,"P-0-1",          1357,       131.190,       137.456,            0.,NA,NA,"",   1.10553E+06,   1.08100E+06,   1.08100E+06
C:/temp/Job-0.odb,Step-1,Increment      1: Step Time =    1.000,"P-0-1",          1358,       68.8756,       62.4976,            0.,NA,NA,"",   1.08337E+06,   1.08259E+06,   1.08259E+06
C:/temp/Job-0.odb,Step-1,Increment      1: Step Time =    1.000,"P-0-1",          1359,       166.298,       50.5943,            0.,NA,NA,"",   1.02221E+06,   1.01630E+06,   1.01630E+06
C:/temp/Job-0.odb,Step-1,Increment      1: Step Time =    1.000,"P-0-1",          1360,       49.1982,       32.7374,            0.,NA,NA,"",   1.03489E+06,   1.04714E+06,   1.04714E+06
C:/temp/Job-0.odb,Step-1,Increment      1: Step Time =    1.000,"P-0-1",          1361,       150.034,       166.152,            0.,NA,NA,"",   1.02596E+06,   1.01908E+06,   1.01908E+06
C:/temp/Job-0.odb,Step-1,Increment      1: Step Time =    1.000,"P-0-1",          1362,       34.2502,       151.985,            0.,NA,NA,"",   982.495E+03,   1.02810E+06,   1.02810E+06
C:/temp/Job-0.odb,Step-1,Increment      1: Step Time =    1.000,"P-0-1",          1363,       132.395,       70.4633,            0.,NA,NA,"",   1.10991E+06,   1.07496E+06,   1.07496E+06
C:/temp/Job-0.odb,Step-1,Increment      1: Step Time =    1.000,"P-0-1",          1364,       68.5261,       129.692,            0.,NA,NA,"",   1.08303E+06,   1.07578E+06,   1.07578E+06
C:/temp/Job-0.odb,Step-1,Increment      1: Step Time =    1.000,"P-0-1",          1365,       110.179,       145.368,            0.,NA,NA,"",   1.04260E+06,   1.06569E+06,   1.06569E+06
C:/temp/Job-0.odb,Step-1,Increment      1: Step Time =    1.000,"P-0-1",          1366,       91.1588,       147.173,            0.,NA,NA,"",   1.03304E+06,   1.06106E+06,   1.06106E+06
C:/temp/Job-0.odb,Step-1,Increment      1: Step Time =    1.000,"P-0-1",          1367,       89.6964,       54.8009,            0.,NA,NA,"",   1.04175E+06,   1.06991E+06,   1.06991E+06
C:/temp/Job-0.odb,Step-1,Increment      1: Step Time =    1.000,"P-0-1",          1368,       109.061,       51.4129,            0.,NA,NA,"",   1.03237E+06,   1.05471E+06,   1.05471E+06
C:/temp/Job-0.odb,Step-1,Increment      1: Step Time =    1.000,"P-0-1",          1369,       110.420,       36.7861,            0.,NA,NA,"",   1.01241E+06,   1.02339E+06,   1.02339E+06
C:/temp/Job-0.odb,Step-1,Increment      1: Step Time =    1.000,"P-0-1",          1370,       33.3295,       94.8913,            0.,NA,NA,"",   843.806E+03,   916.931E+03,   916.931E+03
C:/temp/Job-0.odb,Step-1,Increment      1: Step Time =    1.000,"P-0-1",          1371,       167.327,       108.161,            0.,NA,NA,"",   965.536E+03,   972.937E+03,   972.937E+03
C:/temp/Job-0.odb,Step-1,Increment      1: Step Time =    1.000,"P-0-1",          1372,       157.872,       111.428,            0.,NA,NA,"",   956.931E+03,   960.387E+03,   960.387E+03
C:/temp/Job-0.odb,Step-1,Increment      1: Step Time =    1.000,"P-0-1",          1373,       89.4904,       158.981,            0.,NA,NA,"",   1.01936E+06,   1.03601E+06,   1.03601E+06
C:/temp/Job-0.odb,Step-1,Increment      1: Step Time =    1.000,"P-0-1",          1374,       41.5317,       88.7106,            0.,NA,NA,"",   861.710E+03,   923.042E+03,   923.042E+03
C:/temp/Job-0.odb,Step-1,Increment      1: Step Time =    1.000,"P-0-1",          1375,       149.389,       99.3547,            0.,NA,NA,"",   910.015E+03,   917.826E+03,   917.826E+03
C:/temp/Job-0.odb,Step-1,Increment      1: Step Time =    1.000,"P-0-1",          1376,       154.517,       107.611,            0.,NA,NA,"",   938.402E+03,   943.862E+03,   943.862E+03
C:/temp/Job-0.odb,Step-1,Increment      1: Step Time =    1.000,"P-0-1",          1377,       45.1164,       92.3967,            0.,NA,NA,"",   851.453E+03,   910.401E+03,   910.401E+03
C:/temp/Job-0.odb,Step-1,Increment      1: Step Time =    1.000,"P-0-1",          1378,       50.1159,       100.876,            0.,NA,NA,"",   836.093E+03,   891.527E+03,   891.527E+03
C:/temp/Job-0.odb,Step-1,Increment      1: Step Time =    1.000,"P-0-1",          1379,       153.188,       89.6160,            0.,NA,NA,"",   949.675E+03,   951.581E+03,   951.581E+03
C:/temp/Job-0.odb,Step-1,Increment      1: Step Time =    1.000,"P-0-1",          1380,       43.7081,       111.313,            0.,NA,NA,"",   868.676E+03,   926.301E+03,   926.301E+03
C:/temp/Job-0.odb,Step-1,Increment      1: Step Time =    1.000,"P-0-1",          1381,       140.560,       157.243,            0.,NA,NA,"",   1.04739E+06,   1.03697E+06,   1.03697E+06
C:/temp/Job-0.odb,Step-1,Increment      1: Step Time =    1.000,"P-0-1",          1382,       59.2592,       42.5595,            0.,NA,NA,"",   1.04476E+06,   1.05378E+06,   1.05378E+06
C:/temp/Job-0.odb,Step-1,Increment      1: Step Time =    1.000,"P-0-1",          1383,       39.6131,       138.877,            0.,NA,NA,"",   963.521E+03,   1.00865E+06,   1.00865E+06
C:/temp/Job-0.odb,Step-1,Increment      1: Step Time =    1.000,"P-0-1",          1384,       157.924,       60.0805,            0.,NA,NA,"",   1.03313E+06,   1.02234E+06,   1.02234E+06
C:/temp/Job-0.odb,Step-1,Increment      1: Step Time =    1.000,"P-0-1",          1385,       65.2508,       68.4346,            0.,NA,NA,"",   1.06746E+06,   1.06641E+06,   1.06641E+06
C:/temp/Job-0.odb,Step-1,Increment      1: Step Time =    1.000,"P-0-1",          1386,       134.709,       131.493,            0.,NA,NA,"",   1.10195E+06,   1.07035E+06,   1.07035E+06
C:/temp/Job-0.odb,Step-1,Increment      1: Step Time =    1.000,"P-0-1",          1387,       139.318,       79.5320,            0.,NA,NA,"",   1.03097E+06,   1.00518E+06,   1.00518E+06
C:/temp/Job-0.odb,Step-1,Increment      1: Step Time =    1.000,"P-0-1",          1388,       60.3790,       121.452,            0.,NA,NA,"",   984.647E+03,   997.610E+03,   997.610E+03
C:/temp/Job-0.odb,Step-1,Increment      1: Step Time =    1.000,"P-0-1",          1389,       36.9506,       71.0960,            0.,NA,NA,"",   919.738E+03,   975.964E+03,   975.964E+03
C:/temp/Job-0.odb,Step-1,Increment      1: Step Time =    1.000,"P-0-1",          1390,       72.2297,       163.541,            0.,NA,NA,"",   1.03455E+06,   1.04086E+06,   1.04086E+06
C:/temp/Job-0.odb,Step-1,Increment      1: Step Time =    1.000,"P-0-1",          1391,       158.034,       128.916,            0.,NA,NA,"",   1.01659E+06,   1.00794E+06,   1.00794E+06
C:/temp/Job-0.odb,Step-1,Increment      1: Step Time =    1.000,"P-0-1",          1392,       111.851,       133.375,            0.,NA,NA,"",   1.10664E+06,   1.12986E+06,   1.12986E+06
C:/temp/Job-0.odb,Step-1,Increment      1: Step Time =    1.000,"P-0-1",          1393,       88.0081,       66.6898,            0.,NA,NA,"",   1.10308E+06,   1.13247E+06,   1.13247E+06
C:/temp/Job-0.odb,Step-1,Increment      1: Step Time =    1.000,"P-0-1",          1394,       100.493,       143.175,            0.,NA,NA,"",   1.02394E+06,   1.06423E+06,   1.06423E+06
C:/temp/Job-0.odb,Step-1,Increment      1: Step Time =    1.000,"P-0-1",          1395,       100.317,       56.3546,            0.,NA,NA,"",   1.02474E+06,   1.06384E+06,   1.06384E+06
C:/temp/Job-0.odb,Step-1,Increment      1: Step Time =    1.000,"P-0-1",          1396,       60.1190,       77.1026,            0.,NA,NA,"",   994.316E+03,   1.00639E+06,   1.00639E+06
C:/temp/Job-0.odb,Step-1,Increment      1: Step Time =    1.000,"P-0-1",          1397,       139.631,       122.823,            0.,NA,NA,"",   1.04787E+06,   1.02011E+06,   1.02011E+06
C:/temp/Job-0.odb,Step-1,Increment      1: Step Time =    1.000,"P-0-1",          1398,       57.5414,       125.195,            0.,NA,NA,"",   993.443E+03,   1.01032E+06,   1.01032E+06
C:/temp/Job-0.odb,Step-1,Increment      1: Step Time =    1.000,"P-0-1",          1399,       141.927,       76.2397,            0.,NA,NA,"",   1.04161E+06,   1.01786E+06,   1.01786E+06
C:/temp/Job-0.odb,Step-1,Increment      1: Step Time =    1.000,"P-0-1",          1400,       67.6090,       162.366,            0.,NA,NA,"",   1.04047E+06,   1.04665E+06,   1.04665E+06
C:/temp/Job-0.odb,Step-1,Increment      1: Step Time =    1.000,"P-0-1",          1401,       165.819,       131.055,            0.,NA,NA,"",   1.00961E+06,   1.00591E+06,   1.00591E+06
C:/temp/Job-0.odb,Step-1,Increment      1: Step Time =    1.000,"P-0-1",          1402,       36.7464,       66.3290,            0.,NA,NA,"",   935.406E+03,   989.082E+03,   989.082E+03
C:/temp/Job-0.odb,Step-1,Increment      1: Step Time =    1.000,"P-0-1",          1403,       135.215,       36.0888,            0.,NA,NA,"",   1.03430E+06,   1.02844E+06,   1.02844E+06
C:/temp/Job-0.odb,Step-1,Increment      1: Step Time =    1.000,"P-0-1",          1404,       43.0527,       67.7794,            0.,NA,NA,"",   954.444E+03,   997.264E+03,   997.264E+03
C:/temp/Job-0.odb,Step-1,Increment      1: Step Time =    1.000,"P-0-1",          1405,       132.382,       43.8461,            0.,NA,NA,"",   1.05172E+06,   1.04396E+06,   1.04396E+06
C:/temp/Job-0.odb,Step-1,Increment      1: Step Time =    1.000,"P-0-1",          1406,       153.523,       130.348,            0.,NA,NA,"",   1.02883E+06,   1.01576E+06,   1.01576E+06
C:/temp/Job-0.odb,Step-1,Increment      1: Step Time =    1.000,"P-0-1",          1407,       68.7245,       155.312,            0.,NA,NA,"",   1.05169E+06,   1.05830E+06,   1.05830E+06
C:/temp/Job-0.odb,Step-1,Increment      1: Step Time =    1.000,"P-0-1",          1408,       54.6922,       37.4064,            0.,NA,NA,"",   1.03854E+06,   1.04890E+06,   1.04890E+06
C:/temp/Job-0.odb,Step-1,Increment      1: Step Time =    1.000,"P-0-1",          1409,       144.803,       162.143,            0.,NA,NA,"",   1.03556E+06,   1.02702E+06,   1.02702E+06
C:/temp/Job-0.odb,Step-1,Increment      1: Step Time =    1.000,"P-0-1",          1410,       36.7630,       145.169,            0.,NA,NA,"",   971.712E+03,   1.01788E+06,   1.01788E+06
C:/temp/Job-0.odb,Step-1,Increment      1: Step Time =    1.000,"P-0-1",          1411,       162.348,       55.7064,            0.,NA,NA,"",   1.02756E+06,   1.01948E+06,   1.01948E+06
C:/temp/Job-0.odb,Step-1,Increment      1: Step Time =    1.000,"P-0-1",          1412,       54.7986,       46.9919,            0.,NA,NA,"",   1.03883E+06,   1.05268E+06,   1.05268E+06
C:/temp/Job-0.odb,Step-1,Increment      1: Step Time =    1.000,"P-0-1",          1413,       145.255,       152.934,            0.,NA,NA,"",   1.05057E+06,   1.03783E+06,   1.03783E+06
C:/temp/Job-0.odb,Step-1,Increment      1: Step Time =    1.000,"P-0-1",          1414,       41.5410,       143.086,            0.,NA,NA,"",   983.508E+03,   1.02214E+06,   1.02214E+06
C:/temp/Job-0.odb,Step-1,Increment      1: Step Time =    1.000,"P-0-1",          1415,       152.685,       56.4509,            0.,NA,NA,"",   1.04620E+06,   1.03217E+06,   1.03217E+06
C:/temp/Job-0.odb,Step-1,Increment      1: Step Time =    1.000,"P-0-1",          1416,       112.293,       45.7362,            0.,NA,NA,"",   1.02927E+06,   1.04390E+06,   1.04390E+06
C:/temp/Job-0.odb,Step-1,Increment      1: Step Time =    1.000,"P-0-1",          1417,       90.0881,       153.765,            0.,NA,NA,"",   1.02560E+06,   1.04705E+06,   1.04705E+06
C:/temp/Job-0.odb,Step-1,Increment      1: Step Time =    1.000,"P-0-1",          1418,       56.0717,       75.9949,            0.,NA,NA,"",   979.638E+03,   1.00041E+06,   1.00041E+06
C:/temp/Job-0.odb,Step-1,Increment      1: Step Time =    1.000,"P-0-1",          1419,       143.428,       123.867,            0.,NA,NA,"",   1.03788E+06,   1.01556E+06,   1.01556E+06
C:/temp/Job-0.odb,Step-1,Increment      1: Step Time =    1.000,"P-0-1",          1420,       54.8108,       80.4001,            0.,NA,NA,"",   941.054E+03,   969.966E+03,   969.966E+03
C:/temp/Job-0.odb,Step-1,Increment      1: Step Time =    1.000,"P-0-1",          1421,       144.683,       119.442,            0.,NA,NA,"",   1.00446E+06,   988.258E+03,   988.258E+03
C:/temp/Job-0.odb,Step-1,Increment      1: Step Time =    1.000,"P-0-1",          1422,       128.865,       143.744,            0.,NA,NA,"",   1.08964E+06,   1.07470E+06,   1.07470E+06
C:/temp/Job-0.odb,Step-1,Increment      1: Step Time =    1.000,"P-0-1",          1423,       71.2127,       56.2085,            0.,NA,NA,"",   1.07708E+06,   1.08054E+06,   1.08054E+06
C:/temp/Job-0.odb,Step-1,Increment      1: Step Time =    1.000,"P-0-1",          1424,       38.5155,       91.8098,            0.,NA,NA,"",   851.472E+03,   917.843E+03,   917.843E+03
C:/temp/Job-0.odb,Step-1,Increment      1: Step Time =    1.000,"P-0-1",          1425,       111.396,       41.4277,            0.,NA,NA,"",   1.02038E+06,   1.03332E+06,   1.03332E+06
C:/temp/Job-0.odb,Step-1,Increment      1: Step Time =    1.000,"P-0-1",          1426,       161.150,       108.299,            0.,NA,NA,"",   955.196E+03,   961.118E+03,   961.118E+03
C:/temp/Job-0.odb,Step-1,Increment      1: Step Time =    1.000,"P-0-1",          1427,       93.6788,       159.397,            0.,NA,NA,"",   1.01364E+06,   1.03151E+06,   1.03151E+06
C:/temp/Job-0.odb,Step-1,Increment      1: Step Time =    1.000,"P-0-1",          1428,       122.820,       72.8081,            0.,NA,NA,"",   1.17951E+06,   1.13504E+06,   1.13504E+06
C:/temp/Job-0.odb,Step-1,Increment      1: Step Time =    1.000,"P-0-1",          1429,       77.3696,       127.224,            0.,NA,NA,"",   1.15792E+06,   1.13407E+06,   1.13407E+06
C:/temp/Job-0.odb,Step-1,Increment      1: Step Time =    1.000,"P-0-1",          1430,       135.888,       65.3474,            0.,NA,NA,"",   1.09436E+06,   1.06668E+06,   1.06668E+06
C:/temp/Job-0.odb,Step-1,Increment      1: Step Time =    1.000,"P-0-1",          1431,       64.9107,       134.395,            0.,NA,NA,"",   1.06654E+06,   1.06755E+06,   1.06755E+06
C:/temp/Job-0.odb,Step-1,Increment      1: Step Time =    1.000,"P-0-1",          1432,       113.249,       140.741,            0.,NA,NA,"",   1.07092E+06,   1.08813E+06,   1.08813E+06
C:/temp/Job-0.odb,Step-1,Increment      1: Step Time =    1.000,"P-0-1",          1433,       83.9208,       140.190,            0.,NA,NA,"",   1.07721E+06,   1.09601E+06,   1.09601E+06
C:/temp/Job-0.odb,Step-1,Increment      1: Step Time =    1.000,"P-0-1",          1434,       86.5635,       59.3237,            0.,NA,NA,"",   1.06773E+06,   1.09198E+06,   1.09198E+06
C:/temp/Job-0.odb,Step-1,Increment      1: Step Time =    1.000,"P-0-1",          1435,       116.183,       59.4668,            0.,NA,NA,"",   1.08201E+06,   1.09122E+06,   1.09122E+06
C:/temp/Job-0.odb,Step-1,Increment      1: Step Time =    1.000,"P-0-1",          1436,       151.217,       86.8826,            0.,NA,NA,"",   957.781E+03,   956.739E+03,   956.739E+03
C:/temp/Job-0.odb,Step-1,Increment      1: Step Time =    1.000,"P-0-1",          1437,       46.9510,       114.506,            0.,NA,NA,"",   884.801E+03,   935.328E+03,   935.328E+03
C:/temp/Job-0.odb,Step-1,Increment      1: Step Time =    1.000,"P-0-1",          1438,       107.681,       150.279,            0.,NA,NA,"",   1.02591E+06,   1.04941E+06,   1.04941E+06
C:/temp/Job-0.odb,Step-1,Increment      1: Step Time =    1.000,"P-0-1",          1439,       108.239,       47.0864,            0.,NA,NA,"",   1.02348E+06,   1.04351E+06,   1.04351E+06
C:/temp/Job-0.odb,Step-1,Increment      1: Step Time =    1.000,"P-0-1",          1440,       152.743,       81.6853,            0.,NA,NA,"",   986.374E+03,   980.473E+03,   980.473E+03
C:/temp/Job-0.odb,Step-1,Increment      1: Step Time =    1.000,"P-0-1",          1441,       45.4774,       120.434,            0.,NA,NA,"",    913.53E+03,   960.678E+03,   960.678E+03
C:/temp/Job-0.odb,Step-1,Increment      1: Step Time =    1.000,"P-0-1",          1442,       45.9595,       74.8042,            0.,NA,NA,"",   935.282E+03,   978.365E+03,   978.365E+03
C:/temp/Job-0.odb,Step-1,Increment      1: Step Time =    1.000,"P-0-1",          1443,       125.949,       49.0857,            0.,NA,NA,"",   1.06331E+06,   1.05841E+06,   1.05841E+06
C:/temp/Job-0.odb,Step-1,Increment      1: Step Time =    1.000,"P-0-1",          1444,       152.419,       124.605,            0.,NA,NA,"",   1.01226E+06,   1.00104E+06,   1.00104E+06
C:/temp/Job-0.odb,Step-1,Increment      1: Step Time =    1.000,"P-0-1",          1445,       74.6644,       150.372,            0.,NA,NA,"",   1.06030E+06,   1.06843E+06,   1.06843E+06
C:/temp/Job-0.odb,Step-1,Increment      1: Step Time =    1.000,"P-0-1",          1446,       58.8454,       47.0087,            0.,NA,NA,"",   1.04665E+06,   1.05670E+06,   1.05670E+06
C:/temp/Job-0.odb,Step-1,Increment      1: Step Time =    1.000,"P-0-1",          1447,       141.302,       152.806,            0.,NA,NA,"",   1.05573E+06,   1.04270E+06,   1.04270E+06
C:/temp/Job-0.odb,Step-1,Increment      1: Step Time =    1.000,"P-0-1",          1448,       47.7481,       134.588,            0.,NA,NA,"",   982.584E+03,   1.01497E+06,   1.01497E+06
C:/temp/Job-0.odb,Step-1,Increment      1: Step Time =    1.000,"P-0-1",          1449,       153.278,       60.4497,            0.,NA,NA,"",   1.04340E+06,   1.02913E+06,   1.02913E+06
C:/temp/Job-0.odb,Step-1,Increment      1: Step Time =    1.000,"P-0-1",          1450,       116.776,       49.2199,            0.,NA,NA,"",   1.04752E+06,   1.05579E+06,   1.05579E+06
C:/temp/Job-0.odb,Step-1,Increment      1: Step Time =    1.000,"P-0-1",          1451,       84.1573,       150.346,            0.,NA,NA,"",   1.04487E+06,   1.06238E+06,   1.06238E+06
C:/temp/Job-0.odb,Step-1,Increment      1: Step Time =    1.000,"P-0-1",          1452,       132.012,       149.282,            0.,NA,NA,"",   1.06985E+06,   1.05782E+06,   1.05782E+06
C:/temp/Job-0.odb,Step-1,Increment      1: Step Time =    1.000,"P-0-1",          1453,       121.297,       139.679,            0.,NA,NA,"",   1.10439E+06,   1.09623E+06,   1.09623E+06
C:/temp/Job-0.odb,Step-1,Increment      1: Step Time =    1.000,"P-0-1",          1454,       78.6681,       60.2962,            0.,NA,NA,"",   1.09403E+06,   1.09962E+06,   1.09962E+06
C:/temp/Job-0.odb,Step-1,Increment      1: Step Time =    1.000,"P-0-1",          1455,       68.0357,       50.5674,            0.,NA,NA,"",   1.06153E+06,   1.06734E+06,   1.06734E+06
C:/temp/Job-0.odb,Step-1,Increment      1: Step Time =    1.000,"P-0-1",          1456,       139.926,       131.482,            0.,NA,NA,"",   1.07721E+06,   1.04996E+06,   1.04996E+06
C:/temp/Job-0.odb,Step-1,Increment      1: Step Time =    1.000,"P-0-1",          1457,       59.8966,       68.3261,            0.,NA,NA,"",   1.03394E+06,   1.04323E+06,   1.04323E+06
C:/temp/Job-0.odb,Step-1,Increment      1: Step Time =    1.000,"P-0-1",          1458,       120.739,       58.9056,            0.,NA,NA,"",   1.09433E+06,   1.09062E+06,   1.09062E+06
C:/temp/Job-0.odb,Step-1,Increment      1: Step Time =    1.000,"P-0-1",          1459,       79.5080,       140.862,            0.,NA,NA,"",   1.08652E+06,   1.09580E+06,   1.09580E+06
C:/temp/Job-0.odb,Step-1,Increment      1: Step Time =    1.000,"P-0-1",          1460,       101.417,       152.960,            0.,NA,NA,"",   1.01582E+06,   1.04090E+06,   1.04090E+06
C:/temp/Job-0.odb,Step-1,Increment      1: Step Time =    1.000,"P-0-1",          1461,       93.4797,       149.728,            0.,NA,NA,"",   1.02439E+06,   1.05211E+06,   1.05211E+06
C:/temp/Job-0.odb,Step-1,Increment      1: Step Time =    1.000,"P-0-1",          1462,       96.8677,       48.1088,            0.,NA,NA,"",   1.01652E+06,   1.04358E+06,   1.04358E+06
C:/temp/Job-0.odb,Step-1,Increment      1: Step Time =    1.000,"P-0-1",          1463,       106.952,       43.0213,            0.,NA,NA,"",   1.01701E+06,   1.03446E+06,   1.03446E+06
C:/temp/Job-0.odb,Step-1,Increment      1: Step Time =    1.000,"P-0-1",          1464,       139.033,       37.4142,            0.,NA,NA,"",   1.03680E+06,   1.02918E+06,   1.02918E+06
C:/temp/Job-0.odb,Step-1,Increment      1: Step Time =    1.000,"P-0-1",          1465,       38.4771,       57.1109,            0.,NA,NA,"",   972.219E+03,   1.01619E+06,   1.01619E+06
C:/temp/Job-0.odb,Step-1,Increment      1: Step Time =    1.000,"P-0-1",          1466,       162.753,       134.270,            0.,NA,NA,"",   1.01853E+06,   1.01178E+06,   1.01178E+06
C:/temp/Job-0.odb,Step-1,Increment      1: Step Time =    1.000,"P-0-1",          1467,       61.2915,       161.821,            0.,NA,NA,"",   1.04124E+06,   1.04864E+06,   1.04864E+06
C:/temp/Job-0.odb,Step-1,Increment      1: Step Time =    1.000,"P-0-1",          1468,       49.8160,       37.7013,            0.,NA,NA,"",   1.03431E+06,   1.04916E+06,   1.04916E+06
C:/temp/Job-0.odb,Step-1,Increment      1: Step Time =    1.000,"P-0-1",          1469,       149.621,       161.706,            0.,NA,NA,"",   1.03301E+06,   1.02448E+06,   1.02448E+06
C:/temp/Job-0.odb,Step-1,Increment      1: Step Time =    1.000,"P-0-1",          1470,       161.679,       51.1336,            0.,NA,NA,"",   1.02905E+06,   1.02083E+06,   1.02083E+06
C:/temp/Job-0.odb,Step-1,Increment      1: Step Time =    1.000,"P-0-1",          1471,       38.8030,       149.523,            0.,NA,NA,"",   991.133E+03,   1.03013E+06,   1.03013E+06
C:/temp/Job-0.odb,Step-1,Increment      1: Step Time =    1.000,"P-0-1",          1472,       155.361,       101.244,            0.,NA,NA,"",   931.427E+03,   939.112E+03,   939.112E+03
C:/temp/Job-0.odb,Step-1,Increment      1: Step Time =    1.000,"P-0-1",          1473,       44.2447,       98.5281,            0.,NA,NA,"",   842.951E+03,   904.388E+03,   904.388E+03
C:/temp/Job-0.odb,Step-1,Increment      1: Step Time =    1.000,"P-0-1",          1474,       73.9438,       132.292,            0.,NA,NA,"",   1.11799E+06,   1.10762E+06,   1.10762E+06
C:/temp/Job-0.odb,Step-1,Increment      1: Step Time =    1.000,"P-0-1",          1475,       126.445,       67.7628,            0.,NA,NA,"",   1.13854E+06,   1.10660E+06,   1.10660E+06
C:/temp/Job-0.odb,Step-1,Increment      1: Step Time =    1.000,"P-0-1",          1476,       82.4709,       56.0065,            0.,NA,NA,"",   1.06887E+06,   1.08378E+06,   1.08378E+06
C:/temp/Job-0.odb,Step-1,Increment      1: Step Time =    1.000,"P-0-1",          1477,       117.463,       143.945,            0.,NA,NA,"",   1.07377E+06,   1.07923E+06,   1.07923E+06
C:/temp/Job-0.odb,Step-1,Increment      1: Step Time =    1.000,"P-0-1",          1478,       111.753,       152.767,            0.,NA,NA,"",   1.03118E+06,   1.04700E+06,   1.04700E+06
C:/temp/Job-0.odb,Step-1,Increment      1: Step Time =    1.000,"P-0-1",          1479,       88.3118,       47.2036,            0.,NA,NA,"",   1.03082E+06,   1.05110E+06,   1.05110E+06
C:/temp/Job-0.odb,Step-1,Increment      1: Step Time =    1.000,"P-0-1",          1480,       102.272,       45.4592,            0.,NA,NA,"",   1.01533E+06,   1.03816E+06,   1.03816E+06
C:/temp/Job-0.odb,Step-1,Increment      1: Step Time =    1.000,"P-0-1",          1481,       99.2699,       156.960,            0.,NA,NA,"",   1.01230E+06,   1.03354E+06,   1.03354E+06
C:/temp/Job-0.odb,Step-1,Increment      1: Step Time =    1.000,"P-0-1",          1482,       154.410,       114.508,            0.,NA,NA,"",   965.738E+03,   964.939E+03,   964.939E+03
C:/temp/Job-0.odb,Step-1,Increment      1: Step Time =    1.000,"P-0-1",          1483,       44.9493,       85.5007,            0.,NA,NA,"",    879.58E+03,   933.616E+03,   933.616E+03
C:/temp/Job-0.odb,Step-1,Increment      1: Step Time =    1.000,"P-0-1",          1484,       78.1993,       131.459,            0.,NA,NA,"",   1.14281E+06,   1.13193E+06,   1.13193E+06
C:/temp/Job-0.odb,Step-1,Increment      1: Step Time =    1.000,"P-0-1",          1485,       122.001,       68.5473,            0.,NA,NA,"",   1.15979E+06,   1.13123E+06,   1.13123E+06
C:/temp/Job-0.odb,Step-1,Increment      1: Step Time =    1.000,"P-0-1",          1486,       74.6047,       136.731,            0.,NA,NA,"",   1.10621E+06,   1.10323E+06,   1.10323E+06
C:/temp/Job-0.odb,Step-1,Increment      1: Step Time =    1.000,"P-0-1",          1487,       125.702,       63.2229,            0.,NA,NA,"",   1.12191E+06,   1.10005E+06,   1.10005E+06
C:/temp/Job-0.odb,Step-1,Increment      1: Step Time =    1.000,"P-0-1",          1488,       151.259,       117.804,            0.,NA,NA,"",   982.864E+03,   976.457E+03,   976.457E+03
C:/temp/Job-0.odb,Step-1,Increment      1: Step Time =    1.000,"P-0-1",          1489,       47.9860,       82.0084,            0.,NA,NA,"",   905.051E+03,   950.787E+03,   950.787E+03
C:/temp/Job-0.odb,Step-1,Increment      1: Step Time =    1.000,"P-0-1",          1490,       67.4985,       167.914,            0.,NA,NA,"",   1.03027E+06,   1.03531E+06,   1.03531E+06
C:/temp/Job-0.odb,Step-1,Increment      1: Step Time =    1.000,"P-0-1",          1491,       168.419,       128.799,            0.,NA,NA,"",   1.00361E+06,   1.00223E+06,   1.00223E+06
C:/temp/Job-0.odb,Step-1,Increment      1: Step Time =    1.000,"P-0-1",          1492,       132.431,       32.0711,            0.,NA,NA,"",   1.02396E+06,   1.02064E+06,   1.02064E+06
C:/temp/Job-0.odb,Step-1,Increment      1: Step Time =    1.000,"P-0-1",          1493,       32.0060,       63.4658,            0.,NA,NA,"",   927.071E+03,   987.722E+03,   987.722E+03
C:/temp/Job-0.odb,Step-1,Increment      1: Step Time =    1.000,"P-0-1",          1494,       75.3167,       54.4733,            0.,NA,NA,"",   1.07327E+06,   1.07969E+06,   1.07969E+06
C:/temp/Job-0.odb,Step-1,Increment      1: Step Time =    1.000,"P-0-1",          1495,       124.657,       145.420,            0.,NA,NA,"",   1.08133E+06,   1.07358E+06,   1.07358E+06
C:/temp/Job-0.odb,Step-1,Increment      1: Step Time =    1.000,"P-0-1",          1496,       146.693,       78.2751,            0.,NA,NA,"",   1.01296E+06,   997.389E+03,   997.389E+03
C:/temp/Job-0.odb,Step-1,Increment      1: Step Time =    1.000,"P-0-1",          1497,       52.5956,       122.782,            0.,NA,NA,"",   951.755E+03,   982.816E+03,   982.816E+03
C:/temp/Job-0.odb,Step-1,Increment      1: Step Time =    1.000,"P-0-1",          1498,       121.135,       44.4795,            0.,NA,NA,"",   1.04309E+06,   1.04562E+06,   1.04562E+06
C:/temp/Job-0.odb,Step-1,Increment      1: Step Time =    1.000,"P-0-1",          1499,       43.7222,       78.7717,            0.,NA,NA,"",   910.245E+03,   960.597E+03,   960.597E+03
C:/temp/Job-0.odb,Step-1,Increment      1: Step Time =    1.000,"P-0-1",          1500,       48.2957,       70.3372,            0.,NA,NA,"",   965.526E+03,   1.00010E+06,   1.00010E+06
C:/temp/Job-0.odb,Step-1,Increment      1: Step Time =    1.000,"P-0-1",          1501,       130.965,       49.4436,            0.,NA,NA,"",   1.06787E+06,   1.05743E+06,   1.05743E+06
C:/temp/Job-0.odb,Step-1,Increment      1: Step Time =    1.000,"P-0-1",          1502,       155.045,       121.059,            0.,NA,NA,"",   996.191E+03,   989.586E+03,   989.586E+03
C:/temp/Job-0.odb,Step-1,Increment      1: Step Time =    1.000,"P-0-1",          1503,       150.087,       128.820,            0.,NA,NA,"",   1.03219E+06,   1.01639E+06,   1.01639E+06
C:/temp/Job-0.odb,Step-1,Increment      1: Step Time =    1.000,"P-0-1",          1504,       69.5859,       150.040,            0.,NA,NA,"",   1.06259E+06,   1.06849E+06,   1.06849E+06
C:/temp/Job-0.odb,Step-1,Increment      1: Step Time =    1.000,"P-0-1",          1505,       79.6925,       154.884,            0.,NA,NA,"",   1.04301E+06,   1.05476E+06,   1.05476E+06
C:/temp/Job-0.odb,Step-1,Increment      1: Step Time =    1.000,"P-0-1",          1506,       58.4611,       50.3723,            0.,NA,NA,"",   1.04735E+06,   1.05797E+06,   1.05797E+06
C:/temp/Job-0.odb,Step-1,Increment      1: Step Time =    1.000,"P-0-1",          1507,       141.967,       149.309,            0.,NA,NA,"",   1.06124E+06,   1.04632E+06,   1.04632E+06
C:/temp/Job-0.odb,Step-1,Increment      1: Step Time =    1.000,"P-0-1",          1508,       46.2624,       130.884,            0.,NA,NA,"",   964.377E+03,   1.00151E+06,   1.00151E+06
C:/temp/Job-0.odb,Step-1,Increment      1: Step Time =    1.000,"P-0-1",          1509,       147.969,       57.0754,            0.,NA,NA,"",   1.05616E+06,   1.03949E+06,   1.03949E+06
C:/temp/Job-0.odb,Step-1,Increment      1: Step Time =    1.000,"P-0-1",          1510,       156.580,       67.1735,            0.,NA,NA,"",   1.02828E+06,   1.01707E+06,   1.01707E+06
C:/temp/Job-0.odb,Step-1,Increment      1: Step Time =    1.000,"P-0-1",          1511,       135.803,       139.882,            0.,NA,NA,"",   1.08905E+06,   1.06633E+06,   1.06633E+06
C:/temp/Job-0.odb,Step-1,Increment      1: Step Time =    1.000,"P-0-1",          1512,       64.3414,       59.9835,            0.,NA,NA,"",   1.06498E+06,   1.06925E+06,   1.06925E+06
C:/temp/Job-0.odb,Step-1,Increment      1: Step Time =    1.000,"P-0-1",          1513,       141.450,       136.802,            0.,NA,NA,"",   1.07672E+06,   1.05336E+06,   1.05336E+06
C:/temp/Job-0.odb,Step-1,Increment      1: Step Time =    1.000,"P-0-1",          1514,       58.6032,       62.8763,            0.,NA,NA,"",   1.04076E+06,   1.05171E+06,   1.05171E+06
C:/temp/Job-0.odb,Step-1,Increment      1: Step Time =    1.000,"P-0-1",          1515,       105.357,       154.775,            0.,NA,NA,"",   1.01681E+06,   1.03803E+06,   1.03803E+06
C:/temp/Job-0.odb,Step-1,Increment      1: Step Time =    1.000,"P-0-1",          1516,       99.8109,       50.1746,            0.,NA,NA,"",   1.01818E+06,   1.04707E+06,   1.04707E+06
C:/temp/Job-0.odb,Step-1,Increment      1: Step Time =    1.000,"P-0-1",          1517,       93.9119,       43.6707,            0.,NA,NA,"",   1.01574E+06,   1.03736E+06,   1.03736E+06
C:/temp/Job-0.odb,Step-1,Increment      1: Step Time =    1.000,"P-0-1",          1518,       142.174,       39.0680,            0.,NA,NA,"",   1.03876E+06,   1.03005E+06,   1.03005E+06
C:/temp/Job-0.odb,Step-1,Increment      1: Step Time =    1.000,"P-0-1",          1519,       43.1787,       56.9775,            0.,NA,NA,"",   989.236E+03,   1.02482E+06,   1.02482E+06
C:/temp/Job-0.odb,Step-1,Increment      1: Step Time =    1.000,"P-0-1",          1520,       158.889,       137.092,            0.,NA,NA,"",   1.02857E+06,   1.01850E+06,   1.01850E+06
C:/temp/Job-0.odb,Step-1,Increment      1: Step Time =    1.000,"P-0-1",          1521,       56.1878,       160.843,            0.,NA,NA,"",   1.04021E+06,   1.05017E+06,   1.05017E+06
C:/temp/Job-0.odb,Step-1,Increment      1: Step Time =    1.000,"P-0-1",          1522,       45.8608,       43.0258,            0.,NA,NA,"",   1.02390E+06,   1.04663E+06,   1.04663E+06
C:/temp/Job-0.odb,Step-1,Increment      1: Step Time =    1.000,"P-0-1",          1523,       153.379,       156.522,            0.,NA,NA,"",   1.03596E+06,   1.02624E+06,   1.02624E+06
C:/temp/Job-0.odb,Step-1,Increment      1: Step Time =    1.000,"P-0-1",          1524,       156.241,       47.2842,            0.,NA,NA,"",   1.03602E+06,   1.02602E+06,   1.02602E+06
C:/temp/Job-0.odb,Step-1,Increment      1: Step Time =    1.000,"P-0-1",          1525,       41.0339,       153.557,            0.,NA,NA,"",   1.00743E+06,   1.03941E+06,   1.03941E+06
C:/temp/Job-0.odb,Step-1,Increment      1: Step Time =    1.000,"P-0-1",          1526,       79.0038,       52.0239,            0.,NA,NA,"",   1.06290E+06,   1.07352E+06,   1.07352E+06
C:/temp/Job-0.odb,Step-1,Increment      1: Step Time =    1.000,"P-0-1",          1527,       120.935,       147.783,            0.,NA,NA,"",   1.06798E+06,   1.06789E+06,   1.06789E+06
C:/temp/Job-0.odb,Step-1,Increment      1: Step Time =    1.000,"P-0-1",          1528,       117.805,       150.949,            0.,NA,NA,"",   1.05134E+06,   1.05749E+06,   1.05749E+06
C:/temp/Job-0.odb,Step-1,Increment      1: Step Time =    1.000,"P-0-1",          1529,       82.2092,       48.8052,            0.,NA,NA,"",   1.04860E+06,   1.06263E+06,   1.06263E+06
C:/temp/Job-0.odb,Step-1,Increment      1: Step Time =    1.000,"P-0-1",          1530,       79.6092,       150.354,            0.,NA,NA,"",   1.05338E+06,   1.06589E+06,   1.06589E+06
C:/temp/Job-0.odb,Step-1,Increment      1: Step Time =    1.000,"P-0-1",          1531,       121.104,       49.2026,            0.,NA,NA,"",   1.05576E+06,   1.05779E+06,   1.05779E+06
C:/temp/Job-0.odb,Step-1,Increment      1: Step Time =    1.000,"P-0-1",          1532,       137.072,       151.546,            0.,NA,NA,"",   1.06213E+06,   1.04925E+06,   1.04925E+06
C:/temp/Job-0.odb,Step-1,Increment      1: Step Time =    1.000,"P-0-1",          1533,       63.0530,       48.2762,            0.,NA,NA,"",   1.05400E+06,   1.06145E+06,   1.06145E+06
C:/temp/Job-0.odb,Step-1,Increment      1: Step Time =    1.000,"P-0-1",          1534,       41.1598,       122.564,            0.,NA,NA,"",   910.949E+03,   964.108E+03,   964.108E+03
C:/temp/Job-0.odb,Step-1,Increment      1: Step Time =    1.000,"P-0-1",          1535,       155.727,       78.2354,            0.,NA,NA,"",   998.066E+03,   991.660E+03,   991.660E+03
C:/temp/Job-0.odb,Step-1,Increment      1: Step Time =    1.000,"P-0-1",          1536,       33.6621,       56.4304,            0.,NA,NA,"",   955.226E+03,   1.00817E+06,   1.00817E+06
C:/temp/Job-0.odb,Step-1,Increment      1: Step Time =    1.000,"P-0-1",          1537,       141.111,       34.1269,            0.,NA,NA,"",   1.02983E+06,   1.02319E+06,   1.02319E+06
C:/temp/Job-0.odb,Step-1,Increment      1: Step Time =    1.000,"P-0-1",          1538,       55.9171,       165.207,            0.,NA,NA,"",   1.03715E+06,   1.04586E+06,   1.04586E+06
C:/temp/Job-0.odb,Step-1,Increment      1: Step Time =    1.000,"P-0-1",          1539,       165.575,       137.980,            0.,NA,NA,"",   1.01858E+06,   1.01296E+06,   1.01296E+06
C:/temp/Job-0.odb,Step-1,Increment      1: Step Time =    1.000,"P-0-1",          1540,       42.8708,       103.060,            0.,NA,NA,"",   846.242E+03,   908.731E+03,   908.731E+03
C:/temp/Job-0.odb,Step-1,Increment      1: Step Time =    1.000,"P-0-1",          1541,       156.174,       96.3371,            0.,NA,NA,"",   938.183E+03,   945.049E+03,   945.049E+03
C:/temp/Job-0.odb,Step-1,Increment      1: Step Time =    1.000,"P-0-1",          1542,       76.5715,       47.7708,            0.,NA,NA,"",   1.05451E+06,   1.06342E+06,   1.06342E+06
C:/temp/Job-0.odb,Step-1,Increment      1: Step Time =    1.000,"P-0-1",          1543,       123.294,       151.838,            0.,NA,NA,"",   1.05834E+06,   1.05648E+06,   1.05648E+06
C:/temp/Job-0.odb,Step-1,Increment      1: Step Time =    1.000,"P-0-1",          1544,       125.340,       58.5844,            0.,NA,NA,"",   1.10002E+06,   1.08666E+06,   1.08666E+06
C:/temp/Job-0.odb,Step-1,Increment      1: Step Time =    1.000,"P-0-1",          1545,       74.9559,       141.231,            0.,NA,NA,"",   1.08881E+06,   1.09199E+06,   1.09199E+06
C:/temp/Job-0.odb,Step-1,Increment      1: Step Time =    1.000,"P-0-1",          1546,       158.086,       118.136,            0.,NA,NA,"",   983.296E+03,   981.184E+03,   981.184E+03
C:/temp/Job-0.odb,Step-1,Increment      1: Step Time =    1.000,"P-0-1",          1547,       41.0458,       82.1290,            0.,NA,NA,"",   888.454E+03,   945.773E+03,   945.773E+03
C:/temp/Job-0.odb,Step-1,Increment      1: Step Time =    1.000,"P-0-1",          1548,       61.4997,       58.1645,            0.,NA,NA,"",   1.05711E+06,   1.06430E+06,   1.06430E+06
C:/temp/Job-0.odb,Step-1,Increment      1: Step Time =    1.000,"P-0-1",          1549,       138.738,       141.606,            0.,NA,NA,"",   1.08133E+06,   1.06017E+06,   1.06017E+06
C:/temp/Job-0.odb,Step-1,Increment      1: Step Time =    1.000,"P-0-1",          1550,       50.2023,       77.7952,            0.,NA,NA,"",   937.019E+03,   973.805E+03,   973.805E+03
C:/temp/Job-0.odb,Step-1,Increment      1: Step Time =    1.000,"P-0-1",          1551,       148.864,       121.878,            0.,NA,NA,"",   1.00715E+06,   994.315E+03,   994.315E+03
C:/temp/Job-0.odb,Step-1,Increment      1: Step Time =    1.000,"P-0-1",          1552,       152.961,       134.496,            0.,NA,NA,"",   1.03784E+06,   1.02365E+06,   1.02365E+06
C:/temp/Job-0.odb,Step-1,Increment      1: Step Time =    1.000,"P-0-1",          1553,       143.892,       36.1476,            0.,NA,NA,"",   1.03214E+06,   1.02456E+06,   1.02456E+06
C:/temp/Job-0.odb,Step-1,Increment      1: Step Time =    1.000,"P-0-1",          1554,       140.486,       42.8926,            0.,NA,NA,"",   1.04769E+06,   1.03744E+06,   1.03744E+06
C:/temp/Job-0.odb,Step-1,Increment      1: Step Time =    1.000,"P-0-1",          1555,       38.3248,       52.6747,            0.,NA,NA,"",   984.241E+03,   1.02539E+06,   1.02539E+06
C:/temp/Job-0.odb,Step-1,Increment      1: Step Time =    1.000,"P-0-1",          1556,       44.8337,       62.5911,            0.,NA,NA,"",   980.275E+03,   1.01614E+06,   1.01614E+06
C:/temp/Job-0.odb,Step-1,Increment      1: Step Time =    1.000,"P-0-1",          1557,       161.210,       141.822,            0.,NA,NA,"",   1.02929E+06,   1.02024E+06,   1.02024E+06
C:/temp/Job-0.odb,Step-1,Increment      1: Step Time =    1.000,"P-0-1",          1558,       154.229,       138.826,            0.,NA,NA,"",   1.04056E+06,   1.02687E+06,   1.02687E+06
C:/temp/Job-0.odb,Step-1,Increment      1: Step Time =    1.000,"P-0-1",          1559,       53.2449,       163.716,            0.,NA,NA,"",   1.03767E+06,   1.04830E+06,   1.04830E+06
C:/temp/Job-0.odb,Step-1,Increment      1: Step Time =    1.000,"P-0-1",          1560,       61.7862,       157.210,            0.,NA,NA,"",   1.04646E+06,   1.05448E+06,   1.05448E+06
C:/temp/Job-0.odb,Step-1,Increment      1: Step Time =    1.000,"P-0-1",          1561,       46.3855,       47.5306,            0.,NA,NA,"",   1.01890E+06,   1.04363E+06,   1.04363E+06
C:/temp/Job-0.odb,Step-1,Increment      1: Step Time =    1.000,"P-0-1",          1562,       152.078,       152.590,            0.,NA,NA,"",   1.04155E+06,   1.03021E+06,   1.03021E+06
C:/temp/Job-0.odb,Step-1,Increment      1: Step Time =    1.000,"P-0-1",          1563,       151.705,       48.0033,            0.,NA,NA,"",   1.04379E+06,   1.03190E+06,   1.03190E+06
C:/temp/Job-0.odb,Step-1,Increment      1: Step Time =    1.000,"P-0-1",          1564,       45.2929,       151.436,            0.,NA,NA,"",   1.01433E+06,   1.04132E+06,   1.04132E+06
C:/temp/Job-0.odb,Step-1,Increment      1: Step Time =    1.000,"P-0-1",          1565,       97.3156,       151.396,            0.,NA,NA,"",   1.01842E+06,   1.04583E+06,   1.04583E+06
C:/temp/Job-0.odb,Step-1,Increment      1: Step Time =    1.000,"P-0-1",          1566,       104.819,       48.2769,            0.,NA,NA,"",   1.01976E+06,   1.04408E+06,   1.04408E+06
C:/temp/Job-0.odb,Step-1,Increment      1: Step Time =    1.000,"P-0-1",          1567,       160.852,       46.4214,            0.,NA,NA,"",   1.02891E+06,   1.02093E+06,   1.02093E+06
C:/temp/Job-0.odb,Step-1,Increment      1: Step Time =    1.000,"P-0-1",          1568,       154.626,       160.748,            0.,NA,NA,"",   1.02996E+06,   1.02189E+06,   1.02189E+06
C:/temp/Job-0.odb,Step-1,Increment      1: Step Time =    1.000,"P-0-1",          1569,       45.0379,       38.4047,            0.,NA,NA,"",   1.02762E+06,   1.04833E+06,   1.04833E+06
C:/temp/Job-0.odb,Step-1,Increment      1: Step Time =    1.000,"P-0-1",          1570,       47.2115,       123.896,            0.,NA,NA,"",   934.288E+03,   976.143E+03,   976.143E+03
C:/temp/Job-0.odb,Step-1,Increment      1: Step Time =    1.000,"P-0-1",          1571,       151.994,       76.7471,            0.,NA,NA,"",   1.00817E+06,   997.540E+03,   997.540E+03
C:/temp/Job-0.odb,Step-1,Increment      1: Step Time =    1.000,"P-0-1",          1572,       55.6868,       58.4537,            0.,NA,NA,"",   1.03347E+06,   1.04906E+06,   1.04906E+06
C:/temp/Job-0.odb,Step-1,Increment      1: Step Time =    1.000,"P-0-1",          1573,       144.297,       140.923,            0.,NA,NA,"",   1.06782E+06,   1.04785E+06,   1.04785E+06
C:/temp/Job-0.odb,Step-1,Increment      1: Step Time =    1.000,"P-0-1",          1574,       120.701,       53.9442,            0.,NA,NA,"",   1.07168E+06,   1.07242E+06,   1.07242E+06
C:/temp/Job-0.odb,Step-1,Increment      1: Step Time =    1.000,"P-0-1",          1575,       79.7657,       145.702,            0.,NA,NA,"",   1.06695E+06,   1.07921E+06,   1.07921E+06
C:/temp/Job-0.odb,Step-1,Increment      1: Step Time =    1.000,"P-0-1",          1576,       79.5703,       46.4470,            0.,NA,NA,"",   1.04821E+06,   1.05926E+06,   1.05926E+06
C:/temp/Job-0.odb,Step-1,Increment      1: Step Time =    1.000,"P-0-1",          1577,       120.394,       153.033,            0.,NA,NA,"",   1.05093E+06,   1.05323E+06,   1.05323E+06
C:/temp/Job-0.odb,Step-1,Increment      1: Step Time =    1.000,"P-0-1",          1578,       68.1179,       44.4748,            0.,NA,NA,"",   1.05171E+06,   1.05797E+06,   1.05797E+06
C:/temp/Job-0.odb,Step-1,Increment      1: Step Time =    1.000,"P-0-1",          1579,       131.728,       155.313,            0.,NA,NA,"",   1.05400E+06,   1.04583E+06,   1.04583E+06
C:/temp/Job-0.odb,Step-1,Increment      1: Step Time =    1.000,"P-0-1",          1580,       50.8387,       55.6455,            0.,NA,NA,"",   1.02327E+06,   1.04410E+06,   1.04410E+06
C:/temp/Job-0.odb,Step-1,Increment      1: Step Time =    1.000,"P-0-1",          1581,       153.889,       146.033,            0.,NA,NA,"",   1.04336E+06,   1.03066E+06,   1.03066E+06
C:/temp/Job-0.odb,Step-1,Increment      1: Step Time =    1.000,"P-0-1",          1582,       57.6541,       156.103,            0.,NA,NA,"",   1.04331E+06,   1.05412E+06,   1.05412E+06
C:/temp/Job-0.odb,Step-1,Increment      1: Step Time =    1.000,"P-0-1",          1583,       50.6207,       47.1498,            0.,NA,NA,"",   1.02997E+06,   1.04866E+06,   1.04866E+06
C:/temp/Job-0.odb,Step-1,Increment      1: Step Time =    1.000,"P-0-1",          1584,       148.915,       153.247,            0.,NA,NA,"",   1.04602E+06,   1.03393E+06,   1.03393E+06
C:/temp/Job-0.odb,Step-1,Increment      1: Step Time =    1.000,"P-0-1",          1585,       152.092,       52.2128,            0.,NA,NA,"",   1.04601E+06,   1.03287E+06,   1.03287E+06
C:/temp/Job-0.odb,Step-1,Increment      1: Step Time =    1.000,"P-0-1",          1586,       48.1029,       145.412,            0.,NA,NA,"",   1.01264E+06,   1.03848E+06,   1.03848E+06
C:/temp/Job-0.odb,Step-1,Increment      1: Step Time =    1.000,"P-0-1",          1587,       51.5823,       59.9585,            0.,NA,NA,"",   1.01666E+06,   1.03847E+06,   1.03847E+06
C:/temp/Job-0.odb,Step-1,Increment      1: Step Time =    1.000,"P-0-1",          1588,       149.160,       141.424,            0.,NA,NA,"",   1.05482E+06,   1.03794E+06,   1.03794E+06
C:/temp/Job-0.odb,Step-1,Increment      1: Step Time =    1.000,"P-0-1",          1589,       129.753,       58.3756,            0.,NA,NA,"",   1.09790E+06,   1.07907E+06,   1.07907E+06
C:/temp/Job-0.odb,Step-1,Increment      1: Step Time =    1.000,"P-0-1",          1590,       70.4790,       141.411,            0.,NA,NA,"",   1.08283E+06,   1.08420E+06,   1.08420E+06
C:/temp/Job-0.odb,Step-1,Increment      1: Step Time =    1.000,"P-0-1",          1591,       47.8655,       155.833,            0.,NA,NA,"",   1.02711E+06,   1.04798E+06,   1.04798E+06
C:/temp/Job-0.odb,Step-1,Increment      1: Step Time =    1.000,"P-0-1",          1592,       150.639,       43.8812,            0.,NA,NA,"",   1.03968E+06,   1.02930E+06,   1.02930E+06
C:/temp/Job-0.odb,Step-1,Increment      1: Step Time =    1.000,"P-0-1",          1593,       155.386,       150.834,            0.,NA,NA,"",   1.03758E+06,   1.02696E+06,   1.02696E+06
C:/temp/Job-0.odb,Step-1,Increment      1: Step Time =    1.000,"P-0-1",          1594,       42.2057,       48.0770,            0.,NA,NA,"",   1.00668E+06,   1.03812E+06,   1.03812E+06
C:/temp/Job-0.odb,Step-1,Increment      1: Step Time =    1.000,"P-0-1",          1595,       150.499,       65.9535,            0.,NA,NA,"",   1.04381E+06,   1.02749E+06,   1.02749E+06
C:/temp/Job-0.odb,Step-1,Increment      1: Step Time =    1.000,"P-0-1",          1596,       50.2159,       131.765,            0.,NA,NA,"",   985.866E+03,   1.01446E+06,   1.01446E+06
C:/temp/Job-0.odb,Step-1,Increment      1: Step Time =    1.000,"P-0-1",          1597,       58.2990,       151.558,            0.,NA,NA,"",   1.04553E+06,   1.05671E+06,   1.05671E+06
C:/temp/Job-0.odb,Step-1,Increment      1: Step Time =    1.000,"P-0-1",          1598,       142.249,       49.2111,            0.,NA,NA,"",   1.05873E+06,   1.04446E+06,   1.04446E+06
C:/temp/Job-0.odb,Step-1,Increment      1: Step Time =    1.000,"P-0-1",          1599,       52.6408,       151.191,            0.,NA,NA,"",   1.03366E+06,   1.05067E+06,   1.05067E+06
C:/temp/Job-0.odb,Step-1,Increment      1: Step Time =    1.000,"P-0-1",          1600,       46.7069,       51.8695,            0.,NA,NA,"",   1.01329E+06,   1.03971E+06,   1.03971E+06
C:/temp/Job-0.odb,Step-1,Increment      1: Step Time =    1.000,"P-0-1",          1601,       150.032,       149.524,            0.,NA,NA,"",   1.04800E+06,   1.03487E+06,   1.03487E+06
C:/temp/Job-0.odb,Step-1,Increment      1: Step Time =    1.000,"P-0-1",          1602,       145.323,       44.8609,            0.,NA,NA,"",   1.04734E+06,   1.03569E+06,   1.03569E+06
C:/temp/Job-0.odb,Step-1,Increment      1: Step Time =    1.000,"P-0-1",          1603,       152.960,       69.8996,            0.,NA,NA,"",   1.02966E+06,   1.01640E+06,   1.01640E+06
C:/temp/Job-0.odb,Step-1,Increment      1: Step Time =    1.000,"P-0-1",          1604,       47.2132,       127.253,            0.,NA,NA,"",    950.61E+03,   989.703E+03,   989.703E+03
C:/temp/Job-0.odb,Step-1,Increment      1: Step Time =    1.000,"P-0-1",          1605,       146.502,       67.7765,            0.,NA,NA,"",   1.05349E+06,   1.03363E+06,   1.03363E+06
C:/temp/Job-0.odb,Step-1,Increment      1: Step Time =    1.000,"P-0-1",          1606,       163.377,       154.852,            0.,NA,NA,"",   1.02480E+06,   1.01803E+06,   1.01803E+06
C:/temp/Job-0.odb,Step-1,Increment      1: Step Time =    1.000,"P-0-1",          1607,       37.5279,       44.7590,            0.,NA,NA,"",   1.00149E+06,   1.03801E+06,   1.03801E+06
C:/temp/Job-0.odb,Step-1,Increment      1: Step Time =    1.000,"P-0-1",          1608,       46.3591,       161.168,            0.,NA,NA,"",   1.03012E+06,   1.04922E+06,   1.04922E+06
C:/temp/Job-0.odb,Step-1,Increment      1: Step Time =    1.000,"P-0-1",          1609,       154.103,       39.0488,            0.,NA,NA,"",   1.03015E+06,   1.02212E+06,   1.02212E+06
C:/temp/Job-0.odb,Step-1,Increment      1: Step Time =    1.000,"P-0-1",          1610,       130.034,       54.1172,            0.,NA,NA,"",   1.08303E+06,   1.06910E+06,   1.06910E+06
C:/temp/Job-0.odb,Step-1,Increment      1: Step Time =    1.000,"P-0-1",          1611,       70.2494,       145.559,            0.,NA,NA,"",   1.07270E+06,   1.07695E+06,   1.07695E+06
C:/temp/Job-0.odb,Step-1,Increment      1: Step Time =    1.000,"P-0-1",          1612,       134.495,       61.7756,            0.,NA,NA,"",   1.09575E+06,   1.07128E+06,   1.07128E+06
C:/temp/Job-0.odb,Step-1,Increment      1: Step Time =    1.000,"P-0-1",          1613,       65.8160,       137.914,            0.,NA,NA,"",   1.07170E+06,   1.07344E+06,   1.07344E+06
C:/temp/Job-0.odb,Step-1,Increment      1: Step Time =    1.000,"P-0-1",          1614,       53.8321,       55.3538,            0.,NA,NA,"",   1.03129E+06,   1.04862E+06,   1.04862E+06
C:/temp/Job-0.odb,Step-1,Increment      1: Step Time =    1.000,"P-0-1",          1615,       45.6518,       165.752,            0.,NA,NA,"",   1.03271E+06,   1.04949E+06,   1.04949E+06
C:/temp/Job-0.odb,Step-1,Increment      1: Step Time =    1.000,"P-0-1",          1616,       34.0964,       44.8746,            0.,NA,NA,"",   991.199E+03,   1.03425E+06,   1.03425E+06
C:/temp/Job-0.odb,Step-1,Increment      1: Step Time =    1.000,"P-0-1",          1617,       166.688,       151.793,            0.,NA,NA,"",   1.02154E+06,   1.01584E+06,   1.01584E+06
C:/temp/Job-0.odb,Step-1,Increment      1: Step Time =    1.000,"P-0-1",          1618,       151.961,       32.2433,            0.,NA,NA,"",   1.02249E+06,   1.01642E+06,   1.01642E+06
C:/temp/Job-0.odb,Step-1,Increment      1: Step Time =    1.000,"P-0-1",          1619,       145.280,       64.2014,            0.,NA,NA,"",   1.06162E+06,   1.04124E+06,   1.04124E+06
C:/temp/Job-0.odb,Step-1,Increment      1: Step Time =    1.000,"P-0-1",          1620,       54.3022,       133.926,            0.,NA,NA,"",   1.00993E+06,   1.03019E+06,   1.03019E+06
C:/temp/Job-0.odb,Step-1,Increment      1: Step Time =    1.000,"P-0-1",          1621,       133.938,       58.2117,            0.,NA,NA,"",   1.09098E+06,   1.07041E+06,   1.07041E+06
C:/temp/Job-0.odb,Step-1,Increment      1: Step Time =    1.000,"P-0-1",          1622,       66.1073,       141.462,            0.,NA,NA,"",   1.07143E+06,   1.07462E+06,   1.07462E+06
C:/temp/Job-0.odb,Step-1,Increment      1: Step Time =    1.000,"P-0-1",          1623,       59.4545,       146.855,            0.,NA,NA,"",   1.04897E+06,   1.05911E+06,   1.05911E+06
C:/temp/Job-0.odb,Step-1,Increment      1: Step Time =    1.000,"P-0-1",          1624,       139.861,       52.9890,            0.,NA,NA,"",   1.06905E+06,   1.05196E+06,   1.05196E+06
C:/temp/Job-0.odb,Step-1,Increment      1: Step Time =    1.000,"P-0-1",          1625,       141.898,       68.2098,            0.,NA,NA,"",   1.06792E+06,   1.04357E+06,   1.04357E+06
C:/temp/Job-0.odb,Step-1,Increment      1: Step Time =    1.000,"P-0-1",          1626,       143.317,       54.7107,            0.,NA,NA,"",   1.06492E+06,   1.04750E+06,   1.04750E+06
C:/temp/Job-0.odb,Step-1,Increment      1: Step Time =    1.000,"P-0-1",          1627,       60.0844,       130.846,            0.,NA,NA,"",   1.03179E+06,   1.04093E+06,   1.04093E+06
C:/temp/Job-0.odb,Step-1,Increment      1: Step Time =    1.000,"P-0-1",          1628,       53.7576,       144.658,            0.,NA,NA,"",   1.02992E+06,   1.04754E+06,   1.04754E+06
C:/temp/Job-0.odb,Step-1,Increment      1: Step Time =    1.000,"P-0-1",          1629,       149.375,       35.6464,            0.,NA,NA,"",   1.02905E+06,   1.02162E+06,   1.02162E+06
C:/temp/Job-0.odb,Step-1,Increment      1: Step Time =    1.000,"P-0-1",          1630,       50.4364,       162.201,            0.,NA,NA,"",   1.03589E+06,   1.04970E+06,   1.04970E+06
C:/temp/Job-0.odb,Step-1,Increment      1: Step Time =    1.000,"P-0-1",          1631,       163.292,       148.818,            0.,NA,NA,"",   1.02678E+06,   1.01924E+06,   1.01924E+06
C:/temp/Job-0.odb,Step-1,Increment      1: Step Time =    1.000,"P-0-1",          1632,       38.0344,       48.5556,            0.,NA,NA,"",   994.074E+03,   1.03268E+06,   1.03268E+06
C:/temp/Job-0.odb,Step-1,Increment      1: Step Time =    1.000,"P-0-1",          1633,       138.150,       57.1134,            0.,NA,NA,"",   1.08011E+06,   1.05996E+06,   1.05996E+06
C:/temp/Job-0.odb,Step-1,Increment      1: Step Time =    1.000,"P-0-1",          1634,       61.5940,       142.475,            0.,NA,NA,"",   1.05638E+06,   1.06364E+06,   1.06364E+06
C:/temp/Job-0.odb,Step-1,Increment      1: Step Time =    1.000,"P-0-1",          1635,       138.743,       75.1388,            0.,NA,NA,"",   1.06290E+06,   1.03338E+06,   1.03338E+06
C:/temp/Job-0.odb,Step-1,Increment      1: Step Time =    1.000,"P-0-1",          1636,       61.3038,       127.041,            0.,NA,NA,"",   1.02682E+06,   1.03352E+06,   1.03352E+06
C:/temp/Job-0.odb,Step-1,Increment      1: Step Time =    1.000,"P-0-1",          1637,       137.156,       69.0337,            0.,NA,NA,"",   1.08700E+06,   1.05757E+06,   1.05757E+06
C:/temp/Job-0.odb,Step-1,Increment      1: Step Time =    1.000,"P-0-1",          1638,       64.4167,       130.957,            0.,NA,NA,"",   1.05775E+06,   1.05860E+06,   1.05860E+06
C:/temp/Job-0.odb,Step-1,Increment      1: Step Time =    1.000,"P-0-1",          1639,       90.0262,       19.7268,            0.,NA,NA,"",   983.515E+03,   988.077E+03,   988.077E+03
C:/temp/Job-0.odb,Step-1,Increment      1: Step Time =    1.000,"P-0-1",          1640,       19.6998,       110.283,            0.,NA,NA,"",   829.119E+03,   916.381E+03,   916.381E+03
C:/temp/Job-0.odb,Step-1,Increment      1: Step Time =    1.000,"P-0-1",          1641,       180.682,       90.1532,            0.,NA,NA,"",   978.917E+03,   990.666E+03,   990.666E+03
C:/temp/Job-0.odb,Step-1,Increment      1: Step Time =    1.000,"P-0-1",          1642,       109.925,       180.747,            0.,NA,NA,"",   982.751E+03,   986.204E+03,   986.204E+03
C:/temp/Job-0.odb,Step-1,Increment      1: Step Time =    1.000,"P-0-1",          1643,       25.1970,       8.81916,            0.,NA,NA,"",   1.06652E+06,   1.07340E+06,   1.07340E+06
C:/temp/Job-0.odb,Step-1,Increment      1: Step Time =    1.000,"P-0-1",          1644,       9.57419,       174.401,            0.,NA,NA,"",   984.857E+03,   1.06732E+06,   1.06732E+06
C:/temp/Job-0.odb,Step-1,Increment      1: Step Time =    1.000,"P-0-1",          1645,       191.448,       29.2796,            0.,NA,NA,"",   1.00088E+06,   1.00077E+06,   1.00077E+06
C:/temp/Job-0.odb,Step-1,Increment      1: Step Time =    1.000,"P-0-1",          1646,       170.792,       191.251,            0.,NA,NA,"",   998.700E+03,   998.374E+03,   998.374E+03
C:/temp/Job-0.odb,Step-1,Increment      1: Step Time =    1.000,"P-0-1",          1647,       58.5717,       55.3749,            0.,NA,NA,"",   1.04731E+06,   1.05817E+06,   1.05817E+06
C:/temp/Job-0.odb,Step-1,Increment      1: Step Time =    1.000,"P-0-1",          1648,       142.033,       144.269,            0.,NA,NA,"",   1.06977E+06,   1.05119E+06,   1.05119E+06
C:/temp/Job-0.odb,Step-1,Increment      1: Step Time =    1.000,"P-0-1",          1649,       153.068,       97.5422,            0.,NA,NA,"",   926.981E+03,   934.049E+03,   934.049E+03
C:/temp/Job-0.odb,Step-1,Increment      1: Step Time =    1.000,"P-0-1",          1650,       46.1170,       102.474,            0.,NA,NA,"",   843.295E+03,   902.615E+03,   902.615E+03
C:/temp/Job-0.odb,Step-1,Increment      1: Step Time =    1.000,"P-0-1",          1651,       113.326,       70.6715,            0.,NA,NA,"",   1.15231E+06,   1.16554E+06,   1.16554E+06
C:/temp/Job-0.odb,Step-1,Increment      1: Step Time =    1.000,"P-0-1",          1652,       86.6867,       129.285,            0.,NA,NA,"",   1.14520E+06,   1.16698E+06,   1.16698E+06
C:/temp/Job-0.odb,Step-1,Increment      1: Step Time =    1.000,"P-0-1",          1653,       186.555,       57.5751,            0.,NA,NA,"",   999.012E+03,   1.00291E+06,   1.00291E+06
C:/temp/Job-0.odb,Step-1,Increment      1: Step Time =    1.000,"P-0-1",          1654,       57.9470,       13.0002,            0.,NA,NA,"",   994.838E+03,   995.967E+03,   995.967E+03
C:/temp/Job-0.odb,Step-1,Increment      1: Step Time =    1.000,"P-0-1",          1655,       142.347,       186.482,            0.,NA,NA,"",   994.347E+03,   992.957E+03,   992.957E+03
C:/temp/Job-0.odb,Step-1,Increment      1: Step Time =    1.000,"P-0-1",          1656,       12.3081,       142.613,            0.,NA,NA,"",   875.053E+03,   965.403E+03,   965.403E+03
C:/temp/Job-0.odb,Step-1,Increment      1: Step Time =    1.000,"P-0-1",          1657,       47.7245,       9.81285,            0.,NA,NA,"",   998.917E+03,   1.00025E+06,   1.00025E+06
C:/temp/Job-0.odb,Step-1,Increment      1: Step Time =    1.000,"P-0-1",          1658,       188.952,       46.6506,            0.,NA,NA,"",   1.00038E+06,   1.00231E+06,   1.00231E+06
C:/temp/Job-0.odb,Step-1,Increment      1: Step Time =    1.000,"P-0-1",          1659,       153.230,       188.976,            0.,NA,NA,"",   995.676E+03,   994.661E+03,   994.661E+03
C:/temp/Job-0.odb,Step-1,Increment      1: Step Time =    1.000,"P-0-1",          1660,       9.42561,       152.321,            0.,NA,NA,"",   890.655E+03,   983.543E+03,   983.543E+03
C:/temp/Job-0.odb,Step-1,Increment      1: Step Time =    1.000,"P-0-1",          1661,       5.06699,       4.98793,            0.,NA,NA,"",   1.32601E+06,   1.37579E+06,   1.37579E+06
C:/temp/Job-0.odb,Step-1,Increment      1: Step Time =    1.000,"P-0-1",          1662,       108.426,       118.760,            0.,NA,NA,"",   1.31959E+06,   1.36498E+06,   1.36498E+06
C:/temp/Job-0.odb,Step-1,Increment      1: Step Time =    1.000,"P-0-1",          1663,       91.5524,       81.2343,            0.,NA,NA,"",   1.31387E+06,   1.36336E+06,   1.36336E+06
C:/temp/Job-0.odb,Step-1,Increment      1: Step Time =    1.000,"P-0-1",          1664,       43.5676,       9.21189,            0.,NA,NA,"",   1.00411E+06,   1.00586E+06,   1.00586E+06
C:/temp/Job-0.odb,Step-1,Increment      1: Step Time =    1.000,"P-0-1",          1665,       9.95204,       26.0110,            0.,NA,NA,"",   985.686E+03,   1.06719E+06,   1.06719E+06
C:/temp/Job-0.odb,Step-1,Increment      1: Step Time =    1.000,"P-0-1",          1666,       50.7929,       190.946,            0.,NA,NA,"",   990.888E+03,   991.895E+03,   991.895E+03
C:/temp/Job-0.odb,Step-1,Increment      1: Step Time =    1.000,"P-0-1",          1667,       149.098,       8.98767,            0.,NA,NA,"",   991.884E+03,   991.166E+03,   991.166E+03
C:/temp/Job-0.odb,Step-1,Increment      1: Step Time =    1.000,"P-0-1",          1668,       191.156,       149.103,            0.,NA,NA,"",   998.243E+03,   1.00161E+06,   1.00161E+06
C:/temp/Job-0.odb,Step-1,Increment      1: Step Time =    1.000,"P-0-1",          1669,       190.156,       15.2210,            0.,NA,NA,"",   1.00029E+06,   1.00006E+06,   1.00006E+06
C:/temp/Job-0.odb,Step-1,Increment      1: Step Time =    1.000,"P-0-1",          1670,       184.845,       190.177,            0.,NA,NA,"",   999.815E+03,   999.676E+03,   999.676E+03
C:/temp/Job-0.odb,Step-1,Increment      1: Step Time =    1.000,"P-0-1",          1671,       90.7363,       123.179,            0.,NA,NA,"",   1.21162E+06,   1.25457E+06,   1.25457E+06
C:/temp/Job-0.odb,Step-1,Increment      1: Step Time =    1.000,"P-0-1",          1672,       109.261,       76.8041,            0.,NA,NA,"",   1.21634E+06,   1.25380E+06,   1.25380E+06
C:/temp/Job-0.odb,Step-1,Increment      1: Step Time =    1.000,"P-0-1",          1673,       84.4581,       119.448,            0.,NA,NA,"",   1.25460E+06,   1.21100E+06,   1.21100E+06
C:/temp/Job-0.odb,Step-1,Increment      1: Step Time =    1.000,"P-0-1",          1674,       115.560,       80.5682,            0.,NA,NA,"",   1.27300E+06,   1.21442E+06,   1.21442E+06
C:/temp/Job-0.odb,Step-1,Increment      1: Step Time =    1.000,"P-0-1",          1675,       77.0824,       91.3535,            0.,NA,NA,"",   888.857E+03,   847.577E+03,   847.577E+03
C:/temp/Job-0.odb,Step-1,Increment      1: Step Time =    1.000,"P-0-1",          1676,       122.902,       108.647,            0.,NA,NA,"",   920.325E+03,   853.997E+03,   853.997E+03
C:/temp/Job-0.odb,Step-1,Increment      1: Step Time =    1.000,"P-0-1",          1677,       8.90200,       156.356,            0.,NA,NA,"",   900.432E+03,   993.654E+03,   993.654E+03
C:/temp/Job-0.odb,Step-1,Increment      1: Step Time =    1.000,"P-0-1",          1678,       39.3240,       184.311,            0.,NA,NA,"",   1.03157E+06,   1.03818E+06,   1.03818E+06
C:/temp/Job-0.odb,Step-1,Increment      1: Step Time =    1.000,"P-0-1",          1679,       160.138,       15.9527,            0.,NA,NA,"",   1.00148E+06,   999.913E+03,   999.913E+03
C:/temp/Job-0.odb,Step-1,Increment      1: Step Time =    1.000,"P-0-1",          1680,       183.934,       160.006,            0.,NA,NA,"",   1.00372E+06,   1.00377E+06,   1.00377E+06
C:/temp/Job-0.odb,Step-1,Increment      1: Step Time =    1.000,"P-0-1",          1681,       143.494,       178.747,            0.,NA,NA,"",   1.00657E+06,   1.00358E+06,   1.00358E+06
C:/temp/Job-0.odb,Step-1,Increment      1: Step Time =    1.000,"P-0-1",          1682,       132.526,       185.098,            0.,NA,NA,"",   990.292E+03,   989.498E+03,   989.498E+03
C:/temp/Job-0.odb,Step-1,Increment      1: Step Time =    1.000,"P-0-1",          1683,       56.5631,       20.3361,            0.,NA,NA,"",   1.01621E+06,   1.01919E+06,   1.01919E+06
C:/temp/Job-0.odb,Step-1,Increment      1: Step Time =    1.000,"P-0-1",          1684,       67.4786,       14.7155,            0.,NA,NA,"",   989.745E+03,   990.750E+03,   990.750E+03
C:/temp/Job-0.odb,Step-1,Increment      1: Step Time =    1.000,"P-0-1",          1685,       178.902,       56.4844,            0.,NA,NA,"",   1.00589E+06,   1.00644E+06,   1.00644E+06
C:/temp/Job-0.odb,Step-1,Increment      1: Step Time =    1.000,"P-0-1",          1686,       185.259,       67.3834,            0.,NA,NA,"",   994.565E+03,   1.00125E+06,   1.00125E+06
C:/temp/Job-0.odb,Step-1,Increment      1: Step Time =    1.000,"P-0-1",          1687,       82.4293,       130.380,            0.,NA,NA,"",   1.15506E+06,   1.15461E+06,   1.15461E+06
C:/temp/Job-0.odb,Step-1,Increment      1: Step Time =    1.000,"P-0-1",          1688,       117.650,       69.5870,            0.,NA,NA,"",   1.16721E+06,   1.15363E+06,   1.15363E+06
C:/temp/Job-0.odb,Step-1,Increment      1: Step Time =    1.000,"P-0-1",          1689,       13.9169,       31.2944,            0.,NA,NA,"",   974.782E+03,   1.04953E+06,   1.04953E+06
C:/temp/Job-0.odb,Step-1,Increment      1: Step Time =    1.000,"P-0-1",          1690,       14.1508,       35.5403,            0.,NA,NA,"",   954.962E+03,   1.03291E+06,   1.03291E+06
C:/temp/Job-0.odb,Step-1,Increment      1: Step Time =    1.000,"P-0-1",          1691,       50.9520,       18.2713,            0.,NA,NA,"",   1.01904E+06,   1.02247E+06,   1.02247E+06
C:/temp/Job-0.odb,Step-1,Increment      1: Step Time =    1.000,"P-0-1",          1692,       156.390,       16.7504,            0.,NA,NA,"",   1.00154E+06,   999.729E+03,   999.729E+03
C:/temp/Job-0.odb,Step-1,Increment      1: Step Time =    1.000,"P-0-1",          1693,       183.158,       156.174,            0.,NA,NA,"",   1.00387E+06,   1.00430E+06,   1.00430E+06
C:/temp/Job-0.odb,Step-1,Increment      1: Step Time =    1.000,"P-0-1",          1694,       18.1850,       22.1404,            0.,NA,NA,"",   1.04064E+06,   1.09077E+06,   1.09077E+06
C:/temp/Job-0.odb,Step-1,Increment      1: Step Time =    1.000,"P-0-1",          1695,       180.064,       50.4293,            0.,NA,NA,"",   1.00643E+06,   1.00638E+06,   1.00638E+06
C:/temp/Job-0.odb,Step-1,Increment      1: Step Time =    1.000,"P-0-1",          1696,       149.521,       180.033,            0.,NA,NA,"",   1.00569E+06,   1.00287E+06,   1.00287E+06
C:/temp/Job-0.odb,Step-1,Increment      1: Step Time =    1.000,"P-0-1",          1697,       45.9431,       17.2323,            0.,NA,NA,"",   1.02424E+06,   1.02914E+06,   1.02914E+06
C:/temp/Job-0.odb,Step-1,Increment      1: Step Time =    1.000,"P-0-1",          1698,       29.9898,       13.0131,            0.,NA,NA,"",   1.05407E+06,   1.06342E+06,   1.06342E+06
C:/temp/Job-0.odb,Step-1,Increment      1: Step Time =    1.000,"P-0-1",          1699,       155.922,       20.2093,            0.,NA,NA,"",   1.00568E+06,   1.00307E+06,   1.00307E+06
C:/temp/Job-0.odb,Step-1,Increment      1: Step Time =    1.000,"P-0-1",          1700,       179.609,       155.607,            0.,NA,NA,"",   1.00690E+06,   1.00628E+06,   1.00628E+06
C:/temp/Job-0.odb,Step-1,Increment      1: Step Time =    1.000,"P-0-1",          1701,       16.9301,       140.839,            0.,NA,NA,"",   886.787E+03,   970.540E+03,   970.540E+03
C:/temp/Job-0.odb,Step-1,Increment      1: Step Time =    1.000,"P-0-1",          1702,       18.8852,       144.456,            0.,NA,NA,"",   903.845E+03,   983.119E+03,   983.119E+03
C:/temp/Job-0.odb,Step-1,Increment      1: Step Time =    1.000,"P-0-1",          1703,       42.2042,       180.385,            0.,NA,NA,"",   1.03250E+06,   1.04017E+06,   1.04017E+06
C:/temp/Job-0.odb,Step-1,Increment      1: Step Time =    1.000,"P-0-1",          1704,       124.446,       125.671,            0.,NA,NA,"",   1.16742E+06,   1.12224E+06,   1.12224E+06
C:/temp/Job-0.odb,Step-1,Increment      1: Step Time =    1.000,"P-0-1",          1705,       83.1646,       135.181,            0.,NA,NA,"",   1.10906E+06,   1.12226E+06,   1.12226E+06
C:/temp/Job-0.odb,Step-1,Increment      1: Step Time =    1.000,"P-0-1",          1706,       116.908,       64.6675,            0.,NA,NA,"",   1.11715E+06,   1.11938E+06,   1.11938E+06
C:/temp/Job-0.odb,Step-1,Increment      1: Step Time =    1.000,"P-0-1",          1707,       75.5450,       74.3309,            0.,NA,NA,"",   1.14095E+06,   1.11817E+06,   1.11817E+06
C:/temp/Job-0.odb,Step-1,Increment      1: Step Time =    1.000,"P-0-1",          1708,       19.5855,       39.5684,            0.,NA,NA,"",   960.743E+03,   1.02904E+06,   1.02904E+06
C:/temp/Job-0.odb,Step-1,Increment      1: Step Time =    1.000,"P-0-1",          1709,       78.9168,       136.045,            0.,NA,NA,"",   1.11358E+06,   1.11554E+06,   1.11554E+06
C:/temp/Job-0.odb,Step-1,Increment      1: Step Time =    1.000,"P-0-1",          1710,       121.291,       63.8570,            0.,NA,NA,"",   1.12570E+06,   1.11258E+06,   1.11258E+06
C:/temp/Job-0.odb,Step-1,Increment      1: Step Time =    1.000,"P-0-1",          1711,       71.4977,       110.187,            0.,NA,NA,"",   886.843E+03,   885.327E+03,   885.327E+03
C:/temp/Job-0.odb,Step-1,Increment      1: Step Time =    1.000,"P-0-1",          1712,       128.445,       89.9243,            0.,NA,NA,"",   923.188E+03,   892.777E+03,   892.777E+03
C:/temp/Job-0.odb,Step-1,Increment      1: Step Time =    1.000,"P-0-1",          1713,       14.5014,       151.674,            0.,NA,NA,"",   909.860E+03,   993.920E+03,   993.920E+03
C:/temp/Job-0.odb,Step-1,Increment      1: Step Time =    1.000,"P-0-1",          1714,       93.7140,       65.7162,            0.,NA,NA,"",   1.05504E+06,   1.10837E+06,   1.10837E+06
C:/temp/Job-0.odb,Step-1,Increment      1: Step Time =    1.000,"P-0-1",          1715,       105.868,       134.402,            0.,NA,NA,"",   1.05426E+06,   1.10529E+06,   1.10529E+06
C:/temp/Job-0.odb,Step-1,Increment      1: Step Time =    1.000,"P-0-1",          1716,       131.066,       114.268,            0.,NA,NA,"",   1.01667E+06,   975.760E+03,   975.760E+03
C:/temp/Job-0.odb,Step-1,Increment      1: Step Time =    1.000,"P-0-1",          1717,       68.8815,       85.7078,            0.,NA,NA,"",   973.136E+03,   964.658E+03,   964.658E+03
C:/temp/Job-0.odb,Step-1,Increment      1: Step Time =    1.000,"P-0-1",          1718,       17.4541,       179.671,            0.,NA,NA,"",   1.06196E+06,   1.10938E+06,   1.10938E+06
C:/temp/Job-0.odb,Step-1,Increment      1: Step Time =    1.000,"P-0-1",          1719,       127.939,       125.405,            0.,NA,NA,"",   1.14452E+06,   1.09844E+06,   1.09844E+06
C:/temp/Job-0.odb,Step-1,Increment      1: Step Time =    1.000,"P-0-1",          1720,       72.0444,       74.5895,            0.,NA,NA,"",   1.11248E+06,   1.09275E+06,   1.09275E+06
C:/temp/Job-0.odb,Step-1,Increment      1: Step Time =    1.000,"P-0-1",          1721,       100.597,       134.600,            0.,NA,NA,"",   1.03764E+06,   1.09663E+06,   1.09663E+06
C:/temp/Job-0.odb,Step-1,Increment      1: Step Time =    1.000,"P-0-1",          1722,       98.8767,       64.9774,            0.,NA,NA,"",   1.03673E+06,   1.09550E+06,   1.09550E+06
C:/temp/Job-0.odb,Step-1,Increment      1: Step Time =    1.000,"P-0-1",          1723,       183.317,       35.2472,            0.,NA,NA,"",   1.00393E+06,   1.00348E+06,   1.00348E+06
C:/temp/Job-0.odb,Step-1,Increment      1: Step Time =    1.000,"P-0-1",          1724,       164.339,       182.832,            0.,NA,NA,"",   1.00255E+06,   1.00105E+06,   1.00105E+06
C:/temp/Job-0.odb,Step-1,Increment      1: Step Time =    1.000,"P-0-1",          1725,       184.828,       32.9457,            0.,NA,NA,"",   1.00303E+06,   1.00268E+06,   1.00268E+06
C:/temp/Job-0.odb,Step-1,Increment      1: Step Time =    1.000,"P-0-1",          1726,       167.124,       183.979,            0.,NA,NA,"",   1.00173E+06,   1.00056E+06,   1.00056E+06
C:/temp/Job-0.odb,Step-1,Increment      1: Step Time =    1.000,"P-0-1",          1727,       151.004,       174.214,            0.,NA,NA,"",   1.01370E+06,   1.00944E+06,   1.00944E+06
C:/temp/Job-0.odb,Step-1,Increment      1: Step Time =    1.000,"P-0-1",          1728,       18.5942,       25.0258,            0.,NA,NA,"",   1.02348E+06,   1.07705E+06,   1.07705E+06
C:/temp/Job-0.odb,Step-1,Increment      1: Step Time =    1.000,"P-0-1",          1729,       174.299,       49.2484,            0.,NA,NA,"",   1.01228E+06,   1.00987E+06,   1.00987E+06
C:/temp/Job-0.odb,Step-1,Increment      1: Step Time =    1.000,"P-0-1",          1730,       174.585,       182.679,            0.,NA,NA,"",   1.00184E+06,   1.00101E+06,   1.00101E+06
C:/temp/Job-0.odb,Step-1,Increment      1: Step Time =    1.000,"P-0-1",          1731,       181.986,       26.3217,            0.,NA,NA,"",   1.00296E+06,   1.00226E+06,   1.00226E+06
C:/temp/Job-0.odb,Step-1,Increment      1: Step Time =    1.000,"P-0-1",          1732,       19.3970,       56.9602,            0.,NA,NA,"",   902.152E+03,      981.E+03,      981.E+03
C:/temp/Job-0.odb,Step-1,Increment      1: Step Time =    1.000,"P-0-1",          1733,       16.4139,       154.675,            0.,NA,NA,"",   927.310E+03,   1.00629E+06,   1.00629E+06
C:/temp/Job-0.odb,Step-1,Increment      1: Step Time =    1.000,"P-0-1",          1734,       131.674,       121.773,            0.,NA,NA,"",   1.09090E+06,   1.04782E+06,   1.04782E+06
C:/temp/Job-0.odb,Step-1,Increment      1: Step Time =    1.000,"P-0-1",          1735,       68.2781,       78.2057,            0.,NA,NA,"",   1.04961E+06,   1.03852E+06,   1.03852E+06
C:/temp/Job-0.odb,Step-1,Increment      1: Step Time =    1.000,"P-0-1",          1736,       18.7465,       65.6148,            0.,NA,NA,"",   875.969E+03,   958.961E+03,   958.961E+03
C:/temp/Job-0.odb,Step-1,Increment      1: Step Time =    1.000,"P-0-1",          1737,       71.8423,       18.7255,            0.,NA,NA,"",   996.463E+03,   998.359E+03,   998.359E+03
C:/temp/Job-0.odb,Step-1,Increment      1: Step Time =    1.000,"P-0-1",          1738,       181.461,       71.7283,            0.,NA,NA,"",   994.058E+03,   1.00029E+06,   1.00029E+06
C:/temp/Job-0.odb,Step-1,Increment      1: Step Time =    1.000,"P-0-1",          1739,       128.106,       181.174,            0.,NA,NA,"",   994.432E+03,   993.943E+03,   993.943E+03
C:/temp/Job-0.odb,Step-1,Increment      1: Step Time =    1.000,"P-0-1",          1740,       43.0647,       183.177,            0.,NA,NA,"",   1.02519E+06,   1.03091E+06,   1.03091E+06
C:/temp/Job-0.odb,Step-1,Increment      1: Step Time =    1.000,"P-0-1",          1741,       38.0576,       17.4205,            0.,NA,NA,"",   1.03703E+06,   1.04652E+06,   1.04652E+06
C:/temp/Job-0.odb,Step-1,Increment      1: Step Time =    1.000,"P-0-1",          1742,       21.1473,       139.370,            0.,NA,NA,"",   897.001E+03,   974.884E+03,   974.884E+03
C:/temp/Job-0.odb,Step-1,Increment      1: Step Time =    1.000,"P-0-1",          1743,       22.8020,       142.789,            0.,NA,NA,"",   912.847E+03,   986.155E+03,   986.155E+03
C:/temp/Job-0.odb,Step-1,Increment      1: Step Time =    1.000,"P-0-1",          1744,       25.2235,       145.968,            0.,NA,NA,"",   932.033E+03,   999.199E+03,   999.199E+03
C:/temp/Job-0.odb,Step-1,Increment      1: Step Time =    1.000,"P-0-1",          1745,       44.3818,       178.076,            0.,NA,NA,"",   1.03208E+06,   1.04061E+06,   1.04061E+06
C:/temp/Job-0.odb,Step-1,Increment      1: Step Time =    1.000,"P-0-1",          1746,       24.8915,       43.6391,            0.,NA,NA,"",   964.215E+03,   1.02468E+06,   1.02468E+06
C:/temp/Job-0.odb,Step-1,Increment      1: Step Time =    1.000,"P-0-1",          1747,       22.7654,       86.4361,            0.,NA,NA,"",   838.011E+03,   921.904E+03,   921.904E+03
C:/temp/Job-0.odb,Step-1,Increment      1: Step Time =    1.000,"P-0-1",          1748,       44.5628,       22.5782,            0.,NA,NA,"",   1.03238E+06,   1.04124E+06,   1.04124E+06
C:/temp/Job-0.odb,Step-1,Increment      1: Step Time =    1.000,"P-0-1",          1749,       99.6415,       139.364,            0.,NA,NA,"",   1.02841E+06,   1.07618E+06,   1.07618E+06
C:/temp/Job-0.odb,Step-1,Increment      1: Step Time =    1.000,"P-0-1",          1750,       100.536,       61.9864,            0.,NA,NA,"",   1.03031E+06,   1.08060E+06,   1.08060E+06
C:/temp/Job-0.odb,Step-1,Increment      1: Step Time =    1.000,"P-0-1",          1751,       175.399,       44.8052,            0.,NA,NA,"",   1.01140E+06,   1.00911E+06,   1.00911E+06
C:/temp/Job-0.odb,Step-1,Increment      1: Step Time =    1.000,"P-0-1",          1752,       155.425,       175.474,            0.,NA,NA,"",   1.01184E+06,   1.00802E+06,   1.00802E+06
C:/temp/Job-0.odb,Step-1,Increment      1: Step Time =    1.000,"P-0-1",          1753,       64.1629,       77.7034,            0.,NA,NA,"",   1.01665E+06,   1.01866E+06,   1.01866E+06
C:/temp/Job-0.odb,Step-1,Increment      1: Step Time =    1.000,"P-0-1",          1754,       68.3702,       71.2052,            0.,NA,NA,"",   1.08710E+06,   1.07818E+06,   1.07818E+06
C:/temp/Job-0.odb,Step-1,Increment      1: Step Time =    1.000,"P-0-1",          1755,       135.712,       122.253,            0.,NA,NA,"",   1.06428E+06,   1.03020E+06,   1.03020E+06
C:/temp/Job-0.odb,Step-1,Increment      1: Step Time =    1.000,"P-0-1",          1756,       131.602,       128.770,            0.,NA,NA,"",   1.12057E+06,   1.08298E+06,   1.08298E+06
C:/temp/Job-0.odb,Step-1,Increment      1: Step Time =    1.000,"P-0-1",          1757,       21.9681,       28.3512,            0.,NA,NA,"",   1.01324E+06,   1.06375E+06,   1.06375E+06
C:/temp/Job-0.odb,Step-1,Increment      1: Step Time =    1.000,"P-0-1",          1758,       40.7796,       21.5452,            0.,NA,NA,"",   1.03534E+06,   1.04612E+06,   1.04612E+06
C:/temp/Job-0.odb,Step-1,Increment      1: Step Time =    1.000,"P-0-1",          1759,       141.507,       92.8129,            0.,NA,NA,"",   897.126E+03,   899.187E+03,   899.187E+03
C:/temp/Job-0.odb,Step-1,Increment      1: Step Time =    1.000,"P-0-1",          1760,       58.1314,       107.453,            0.,NA,NA,"",   841.441E+03,   883.024E+03,   883.024E+03
C:/temp/Job-0.odb,Step-1,Increment      1: Step Time =    1.000,"P-0-1",          1761,       96.2205,       140.380,            0.,NA,NA,"",   1.03228E+06,   1.07482E+06,   1.07482E+06
C:/temp/Job-0.odb,Step-1,Increment      1: Step Time =    1.000,"P-0-1",          1762,       103.077,       59.4539,            0.,NA,NA,"",   1.03150E+06,   1.07346E+06,   1.07346E+06
C:/temp/Job-0.odb,Step-1,Increment      1: Step Time =    1.000,"P-0-1",          1763,       170.372,       167.859,            0.,NA,NA,"",   1.01117E+06,   1.00821E+06,   1.00821E+06
C:/temp/Job-0.odb,Step-1,Increment      1: Step Time =    1.000,"P-0-1",          1764,       169.402,       155.408,            0.,NA,NA,"",   1.01767E+06,   1.01321E+06,   1.01321E+06
C:/temp/Job-0.odb,Step-1,Increment      1: Step Time =    1.000,"P-0-1",          1765,       17.2065,       157.579,            0.,NA,NA,"",   940.493E+03,   1.01631E+06,   1.01631E+06
C:/temp/Job-0.odb,Step-1,Increment      1: Step Time =    1.000,"P-0-1",          1766,       25.8282,       141.096,            0.,NA,NA,"",   918.600E+03,   987.715E+03,   987.715E+03
C:/temp/Job-0.odb,Step-1,Increment      1: Step Time =    1.000,"P-0-1",          1767,       23.0130,       78.1334,            0.,NA,NA,"",   856.640E+03,   937.724E+03,   937.724E+03
C:/temp/Job-0.odb,Step-1,Increment      1: Step Time =    1.000,"P-0-1",          1768,       23.8042,       58.0685,            0.,NA,NA,"",   915.218E+03,   986.813E+03,   986.813E+03
C:/temp/Job-0.odb,Step-1,Increment      1: Step Time =    1.000,"P-0-1",          1769,       167.511,       28.8715,            0.,NA,NA,"",   1.01067E+06,   1.00759E+06,   1.00759E+06
C:/temp/Job-0.odb,Step-1,Increment      1: Step Time =    1.000,"P-0-1",          1770,       155.658,       30.1114,            0.,NA,NA,"",   1.01822E+06,   1.01305E+06,   1.01305E+06
C:/temp/Job-0.odb,Step-1,Increment      1: Step Time =    1.000,"P-0-1",          1771,       130.212,       62.5767,            0.,NA,NA,"",   1.11011E+06,   1.08538E+06,   1.08538E+06
C:/temp/Job-0.odb,Step-1,Increment      1: Step Time =    1.000,"P-0-1",          1772,       70.1888,       137.317,            0.,NA,NA,"",   1.09059E+06,   1.08833E+06,   1.08833E+06
C:/temp/Job-0.odb,Step-1,Increment      1: Step Time =    1.000,"P-0-1",          1773,       26.6285,       33.5220,            0.,NA,NA,"",   1.00614E+06,   1.05217E+06,   1.05217E+06
C:/temp/Job-0.odb,Step-1,Increment      1: Step Time =    1.000,"P-0-1",          1774,       29.7343,       44.1973,            0.,NA,NA,"",   979.222E+03,   1.03017E+06,   1.03017E+06
C:/temp/Job-0.odb,Step-1,Increment      1: Step Time =    1.000,"P-0-1",          1775,       29.3605,       51.9639,            0.,NA,NA,"",   953.078E+03,   1.01126E+06,   1.01126E+06
C:/temp/Job-0.odb,Step-1,Increment      1: Step Time =    1.000,"P-0-1",          1776,       29.0053,       55.5679,            0.,NA,NA,"",   939.995E+03,   1.00147E+06,   1.00147E+06
C:/temp/Job-0.odb,Step-1,Increment      1: Step Time =    1.000,"P-0-1",          1777,       44.2305,       173.464,            0.,NA,NA,"",   1.03432E+06,   1.04655E+06,   1.04655E+06
C:/temp/Job-0.odb,Step-1,Increment      1: Step Time =    1.000,"P-0-1",          1778,       92.9739,       49.5952,            0.,NA,NA,"",   1.02379E+06,   1.05087E+06,   1.05087E+06
C:/temp/Job-0.odb,Step-1,Increment      1: Step Time =    1.000,"P-0-1",          1779,       25.1584,       155.879,            0.,NA,NA,"",   964.697E+03,   1.02478E+06,   1.02478E+06
C:/temp/Job-0.odb,Step-1,Increment      1: Step Time =    1.000,"P-0-1",          1780,       44.7846,       170.090,            0.,NA,NA,"",   1.03432E+06,   1.04842E+06,   1.04842E+06
C:/temp/Job-0.odb,Step-1,Increment      1: Step Time =    1.000,"P-0-1",          1781,       138.731,       23.2892,            0.,NA,NA,"",   1.00879E+06,   1.00583E+06,   1.00583E+06
C:/temp/Job-0.odb,Step-1,Increment      1: Step Time =    1.000,"P-0-1",          1782,       179.171,       137.291,            0.,NA,NA,"",   1.00227E+06,   1.00451E+06,   1.00451E+06
C:/temp/Job-0.odb,Step-1,Increment      1: Step Time =    1.000,"P-0-1",          1783,       134.373,       23.1072,            0.,NA,NA,"",   1.00664E+06,   1.00452E+06,   1.00452E+06
C:/temp/Job-0.odb,Step-1,Increment      1: Step Time =    1.000,"P-0-1",          1784,       30.8481,       36.9280,            0.,NA,NA,"",   1.00477E+06,   1.04688E+06,   1.04688E+06
C:/temp/Job-0.odb,Step-1,Increment      1: Step Time =    1.000,"P-0-1",          1785,       154.143,       173.342,            0.,NA,NA,"",   1.01444E+06,   1.01004E+06,   1.01004E+06
C:/temp/Job-0.odb,Step-1,Increment      1: Step Time =    1.000,"P-0-1",          1786,       169.725,       32.4708,            0.,NA,NA,"",   1.01174E+06,   1.00857E+06,   1.00857E+06
C:/temp/Job-0.odb,Step-1,Increment      1: Step Time =    1.000,"P-0-1",          1787,       97.8642,       59.8254,            0.,NA,NA,"",   1.02941E+06,   1.07458E+06,   1.07458E+06
C:/temp/Job-0.odb,Step-1,Increment      1: Step Time =    1.000,"P-0-1",          1788,       84.3700,       44.8113,            0.,NA,NA,"",   1.03501E+06,   1.05023E+06,   1.05023E+06
C:/temp/Job-0.odb,Step-1,Increment      1: Step Time =    1.000,"P-0-1",          1789,       115.750,       155.225,            0.,NA,NA,"",   1.03541E+06,   1.04457E+06,   1.04457E+06
C:/temp/Job-0.odb,Step-1,Increment      1: Step Time =    1.000,"P-0-1",          1790,       173.331,       46.2961,            0.,NA,NA,"",   1.01331E+06,   1.01040E+06,   1.01040E+06
C:/temp/Job-0.odb,Step-1,Increment      1: Step Time =    1.000,"P-0-1",          1791,       163.726,       32.8552,            0.,NA,NA,"",   1.01603E+06,   1.01157E+06,   1.01157E+06
C:/temp/Job-0.odb,Step-1,Increment      1: Step Time =    1.000,"P-0-1",          1792,       132.763,       141.663,            0.,NA,NA,"",   1.09149E+06,   1.07125E+06,   1.07125E+06
C:/temp/Job-0.odb,Step-1,Increment      1: Step Time =    1.000,"P-0-1",          1793,       67.3847,       58.2491,            0.,NA,NA,"",   1.07297E+06,   1.07589E+06,   1.07589E+06
C:/temp/Job-0.odb,Step-1,Increment      1: Step Time =    1.000,"P-0-1",          1794,       23.2694,       131.752,            0.,NA,NA,"",   884.712E+03,   961.897E+03,   961.897E+03
C:/temp/Job-0.odb,Step-1,Increment      1: Step Time =    1.000,"P-0-1",          1795,       60.7301,       176.172,            0.,NA,NA,"",   1.01982E+06,   1.02314E+06,   1.02314E+06
C:/temp/Job-0.odb,Step-1,Increment      1: Step Time =    1.000,"P-0-1",          1796,       65.3007,       176.446,            0.,NA,NA,"",   1.01485E+06,   1.01779E+06,   1.01779E+06
C:/temp/Job-0.odb,Step-1,Increment      1: Step Time =    1.000,"P-0-1",          1797,       29.3644,       137.480,            0.,NA,NA,"",   921.266E+03,   985.630E+03,   985.630E+03
C:/temp/Job-0.odb,Step-1,Increment      1: Step Time =    1.000,"P-0-1",          1798,       139.261,       127.075,            0.,NA,NA,"",   1.06948E+06,   1.04020E+06,   1.04020E+06
C:/temp/Job-0.odb,Step-1,Increment      1: Step Time =    1.000,"P-0-1",          1799,       156.742,       34.0761,            0.,NA,NA,"",   1.02268E+06,   1.01648E+06,   1.01648E+06
C:/temp/Job-0.odb,Step-1,Increment      1: Step Time =    1.000,"P-0-1",          1800,       153.257,       35.2798,            0.,NA,NA,"",   1.02628E+06,   1.01928E+06,   1.01928E+06
C:/temp/Job-0.odb,Step-1,Increment      1: Step Time =    1.000,"P-0-1",          1801,       60.4944,       72.8240,            0.,NA,NA,"",   1.02043E+06,   1.02939E+06,   1.02939E+06
C:/temp/Job-0.odb,Step-1,Increment      1: Step Time =    1.000,"P-0-1",          1802,       28.1396,       79.1712,            0.,NA,NA,"",   867.768E+03,   942.343E+03,   942.343E+03
C:/temp/Job-0.odb,Step-1,Increment      1: Step Time =    1.000,"P-0-1",          1803,       30.6254,       33.2287,            0.,NA,NA,"",   1.01628E+06,   1.05381E+06,   1.05381E+06
C:/temp/Job-0.odb,Step-1,Increment      1: Step Time =    1.000,"P-0-1",          1804,       165.879,       167.678,            0.,NA,NA,"",   1.01410E+06,   1.01020E+06,   1.01020E+06
C:/temp/Job-0.odb,Step-1,Increment      1: Step Time =    1.000,"P-0-1",          1805,       147.406,       95.1089,            0.,NA,NA,"",   909.538E+03,   915.438E+03,   915.438E+03
C:/temp/Job-0.odb,Step-1,Increment      1: Step Time =    1.000,"P-0-1",          1806,       51.8672,       105.228,            0.,NA,NA,"",   841.766E+03,   893.346E+03,   893.346E+03
C:/temp/Job-0.odb,Step-1,Increment      1: Step Time =    1.000,"P-0-1",          1807,       54.7570,       42.3175,            0.,NA,NA,"",   1.03943E+06,   1.05178E+06,   1.05178E+06
C:/temp/Job-0.odb,Step-1,Increment      1: Step Time =    1.000,"P-0-1",          1808,       157.525,       55.9850,            0.,NA,NA,"",   1.03607E+06,   1.02509E+06,   1.02509E+06
C:/temp/Job-0.odb,Step-1,Increment      1: Step Time =    1.000,"P-0-1",          1809,       144.904,       157.522,            0.,NA,NA,"",   1.04356E+06,   1.03301E+06,   1.03301E+06
C:/temp/Job-0.odb,Step-1,Increment      1: Step Time =    1.000,"P-0-1",          1810,       143.748,       30.5871,            0.,NA,NA,"",   1.02246E+06,   1.01687E+06,   1.01687E+06
C:/temp/Job-0.odb,Step-1,Increment      1: Step Time =    1.000,"P-0-1",          1811,       65.6994,       144.824,            0.,NA,NA,"",   1.06675E+06,   1.07149E+06,   1.07149E+06
C:/temp/Job-0.odb,Step-1,Increment      1: Step Time =    1.000,"P-0-1",          1812,       135.640,       145.153,            0.,NA,NA,"",   1.07842E+06,   1.06098E+06,   1.06098E+06
C:/temp/Job-0.odb,Step-1,Increment      1: Step Time =    1.000,"P-0-1",          1813,       134.302,       54.8726,            0.,NA,NA,"",   1.08202E+06,   1.06462E+06,   1.06462E+06
C:/temp/Job-0.odb,Step-1,Increment      1: Step Time =    1.000,"P-0-1",          1814,       64.5840,       54.6375,            0.,NA,NA,"",   1.06269E+06,   1.06855E+06,   1.06855E+06
C:/temp/Job-0.odb,Step-1,Increment      1: Step Time =    1.000,"P-0-1",          1815,       33.9167,       48.5499,            0.,NA,NA,"",   980.305E+03,   1.02680E+06,   1.02680E+06
C:/temp/Job-0.odb,Step-1,Increment      1: Step Time =    1.000,"P-0-1",          1816,       74.9337,       28.6558,            0.,NA,NA,"",   1.01671E+06,   1.02161E+06,   1.02161E+06
C:/temp/Job-0.odb,Step-1,Increment      1: Step Time =    1.000,"P-0-1",          1817,       75.5347,       43.2083,            0.,NA,NA,"",   1.04588E+06,   1.05396E+06,   1.05396E+06
C:/temp/Job-0.odb,Step-1,Increment      1: Step Time =    1.000,"P-0-1",          1818,       172.208,       75.0525,            0.,NA,NA,"",   995.332E+03,   997.684E+03,   997.684E+03
C:/temp/Job-0.odb,Step-1,Increment      1: Step Time =    1.000,"P-0-1",          1819,       124.620,       171.292,            0.,NA,NA,"",   1.01197E+06,   1.01229E+06,   1.01229E+06
C:/temp/Job-0.odb,Step-1,Increment      1: Step Time =    1.000,"P-0-1",          1820,       124.172,       156.333,            0.,NA,NA,"",   1.04710E+06,   1.04541E+06,   1.04541E+06
C:/temp/Job-0.odb,Step-1,Increment      1: Step Time =    1.000,"P-0-1",          1821,       49.6796,       118.272,            0.,NA,NA,"",   911.051E+03,   953.201E+03,   953.201E+03
C:/temp/Job-0.odb,Step-1,Increment      1: Step Time =    1.000,"P-0-1",          1822,       87.7798,       149.364,            0.,NA,NA,"",   1.03829E+06,   1.06091E+06,   1.06091E+06
C:/temp/Job-0.odb,Step-1,Increment      1: Step Time =    1.000,"P-0-1",          1823,       149.121,       82.9531,            0.,NA,NA,"",   979.322E+03,   972.087E+03,   972.087E+03
C:/temp/Job-0.odb,Step-1,Increment      1: Step Time =    1.000,"P-0-1",          1824,       113.231,       49.9045,            0.,NA,NA,"",   1.03986E+06,   1.05469E+06,   1.05469E+06
C:/temp/Job-0.odb,Step-1,Increment      1: Step Time =    1.000,"P-0-1",          1825,       21.3840,       161.857,            0.,NA,NA,"",   973.162E+03,   1.03599E+06,   1.03599E+06
C:/temp/Job-0.odb,Step-1,Increment      1: Step Time =    1.000,"P-0-1",          1826,       168.624,       40.2090,            0.,NA,NA,"",   1.01687E+06,   1.01249E+06,   1.01249E+06
C:/temp/Job-0.odb,Step-1,Increment      1: Step Time =    1.000,"P-0-1",          1827,       155.233,       42.9725,            0.,NA,NA,"",   1.03345E+06,   1.02442E+06,   1.02442E+06
C:/temp/Job-0.odb,Step-1,Increment      1: Step Time =    1.000,"P-0-1",          1828,       157.393,       154.801,            0.,NA,NA,"",   1.03246E+06,   1.02351E+06,   1.02351E+06
C:/temp/Job-0.odb,Step-1,Increment      1: Step Time =    1.000,"P-0-1",          1829,       41.5257,       43.7790,            0.,NA,NA,"",   1.01284E+06,   1.04251E+06,   1.04251E+06
C:/temp/Job-0.odb,Step-1,Increment      1: Step Time =    1.000,"P-0-1",          1830,       90.0933,       42.3206,            0.,NA,NA,"",   1.02005E+06,   1.03827E+06,   1.03827E+06
C:/temp/Job-0.odb,Step-1,Increment      1: Step Time =    1.000,"P-0-1",          1831,       109.386,       157.196,            0.,NA,NA,"",   1.01912E+06,   1.03507E+06,   1.03507E+06
C:/temp/Job-0.odb,Step-1,Increment      1: Step Time =    1.000,"P-0-1",          1832,       99.3036,       147.288,            0.,NA,NA,"",   1.02053E+06,   1.05420E+06,   1.05420E+06
C:/temp/Job-0.odb,Step-1,Increment      1: Step Time =    1.000,"P-0-1",          1833,       39.0169,       24.2587,            0.,NA,NA,"",   1.03794E+06,   1.05243E+06,   1.05243E+06
C:/temp/Job-0.odb,Step-1,Increment      1: Step Time =    1.000,"P-0-1",          1834,       57.3405,       72.9281,            0.,NA,NA,"",   1.00236E+06,   1.01822E+06,   1.01822E+06
C:/temp/Job-0.odb,Step-1,Increment      1: Step Time =    1.000,"P-0-1",          1835,       142.187,       126.948,            0.,NA,NA,"",   1.05606E+06,   1.03081E+06,   1.03081E+06
C:/temp/Job-0.odb,Step-1,Increment      1: Step Time =    1.000,"P-0-1",          1836,       80.1323,       42.4497,            0.,NA,NA,"",   1.03864E+06,   1.04932E+06,   1.04932E+06
C:/temp/Job-0.odb,Step-1,Increment      1: Step Time =    1.000,"P-0-1",          1837,       55.3014,       69.9312,            0.,NA,NA,"",   1.00404E+06,   1.02286E+06,   1.02286E+06
C:/temp/Job-0.odb,Step-1,Increment      1: Step Time =    1.000,"P-0-1",          1838,       119.938,       156.497,            0.,NA,NA,"",   1.04060E+06,   1.04390E+06,   1.04390E+06
C:/temp/Job-0.odb,Step-1,Increment      1: Step Time =    1.000,"P-0-1",          1839,       144.095,       129.834,            0.,NA,NA,"",   1.05680E+06,   1.03378E+06,   1.03378E+06
C:/temp/Job-0.odb,Step-1,Increment      1: Step Time =    1.000,"P-0-1",          1840,       82.4316,       38.8550,            0.,NA,NA,"",   1.02747E+06,   1.03866E+06,   1.03866E+06
C:/temp/Job-0.odb,Step-1,Increment      1: Step Time =    1.000,"P-0-1",          1841,       119.588,       161.041,            0.,NA,NA,"",   1.02889E+06,   1.03275E+06,   1.03275E+06
C:/temp/Job-0.odb,Step-1,Increment      1: Step Time =    1.000,"P-0-1",          1842,       164.111,       36.9925,            0.,NA,NA,"",   1.01918E+06,   1.01397E+06,   1.01397E+06
C:/temp/Job-0.odb,Step-1,Increment      1: Step Time =    1.000,"P-0-1",          1843,       27.9395,       69.4696,            0.,NA,NA,"",   894.840E+03,   965.507E+03,   965.507E+03
C:/temp/Job-0.odb,Step-1,Increment      1: Step Time =    1.000,"P-0-1",          1844,       64.1200,       128.250,            0.,NA,NA,"",   1.04960E+06,   1.05019E+06,   1.05019E+06
C:/temp/Job-0.odb,Step-1,Increment      1: Step Time =    1.000,"P-0-1",          1845,       138.169,       72.4920,            0.,NA,NA,"",   1.07536E+06,   1.04525E+06,   1.04525E+06
C:/temp/Job-0.odb,Step-1,Increment      1: Step Time =    1.000,"P-0-1",          1846,       28.3663,       133.474,            0.,NA,NA,"",   904.443E+03,   973.116E+03,   973.116E+03
C:/temp/Job-0.odb,Step-1,Increment      1: Step Time =    1.000,"P-0-1",          1847,       31.7089,       77.1978,            0.,NA,NA,"",   883.511E+03,   951.785E+03,   951.785E+03
C:/temp/Job-0.odb,Step-1,Increment      1: Step Time =    1.000,"P-0-1",          1848,       35.0602,       36.6769,            0.,NA,NA,"",   1.01505E+06,   1.04908E+06,   1.04908E+06
C:/temp/Job-0.odb,Step-1,Increment      1: Step Time =    1.000,"P-0-1",          1849,       54.1927,       169.043,            0.,NA,NA,"",   1.03367E+06,   1.04183E+06,   1.04183E+06
C:/temp/Job-0.odb,Step-1,Increment      1: Step Time =    1.000,"P-0-1",          1850,       165.592,       159.994,            0.,NA,NA,"",   1.01965E+06,   1.01438E+06,   1.01438E+06
C:/temp/Job-0.odb,Step-1,Increment      1: Step Time =    1.000,"P-0-1",          1851,       134.448,       26.9510,            0.,NA,NA,"",   1.01428E+06,   1.01137E+06,   1.01137E+06
C:/temp/Job-0.odb,Step-1,Increment      1: Step Time =    1.000,"P-0-1",          1852,       130.568,       28.1577,            0.,NA,NA,"",   1.01439E+06,   1.01255E+06,   1.01255E+06
C:/temp/Job-0.odb,Step-1,Increment      1: Step Time =    1.000,"P-0-1",          1853,       65.3009,       172.451,            0.,NA,NA,"",   1.02376E+06,   1.02764E+06,   1.02764E+06
C:/temp/Job-0.odb,Step-1,Increment      1: Step Time =    1.000,"P-0-1",          1854,       69.3372,       171.602,            0.,NA,NA,"",    1.0215E+06,   1.02565E+06,   1.02565E+06
C:/temp/Job-0.odb,Step-1,Increment      1: Step Time =    1.000,"P-0-1",          1855,       163.646,       79.9053,            0.,NA,NA,"",   988.467E+03,   988.346E+03,   988.346E+03
C:/temp/Job-0.odb,Step-1,Increment      1: Step Time =    1.000,"P-0-1",          1856,       159.867,       80.6080,            0.,NA,NA,"",   987.783E+03,   985.860E+03,   985.860E+03
C:/temp/Job-0.odb,Step-1,Increment      1: Step Time =    1.000,"P-0-1",          1857,       157.665,       37.8824,            0.,NA,NA,"",   1.02590E+06,   1.01891E+06,   1.01891E+06
C:/temp/Job-0.odb,Step-1,Increment      1: Step Time =    1.000,"P-0-1",          1858,       160.680,       152.166,            0.,NA,NA,"",   1.02983E+06,   1.02149E+06,   1.02149E+06
C:/temp/Job-0.odb,Step-1,Increment      1: Step Time =    1.000,"P-0-1",          1859,       97.2542,       143.086,            0.,NA,NA,"",   1.02541E+06,   1.06534E+06,   1.06534E+06
C:/temp/Job-0.odb,Step-1,Increment      1: Step Time =    1.000,"P-0-1",          1860,       172.353,       125.899,            0.,NA,NA,"",   996.637E+03,   998.692E+03,   998.692E+03
C:/temp/Job-0.odb,Step-1,Increment      1: Step Time =    1.000,"P-0-1",          1861,       62.2283,       138.711,            0.,NA,NA,"",   1.05764E+06,   1.06337E+06,   1.06337E+06
C:/temp/Job-0.odb,Step-1,Increment      1: Step Time =    1.000,"P-0-1",          1862,       38.2740,       61.6936,            0.,NA,NA,"",   957.053E+03,   1.00470E+06,   1.00470E+06
C:/temp/Job-0.odb,Step-1,Increment      1: Step Time =    1.000,"P-0-1",          1863,       137.909,       60.7027,            0.,NA,NA,"",   1.08484E+06,   1.06178E+06,   1.06178E+06
C:/temp/Job-0.odb,Step-1,Increment      1: Step Time =    1.000,"P-0-1",          1864,       97.8423,       44.3908,            0.,NA,NA,"",   1.01363E+06,   1.03712E+06,   1.03712E+06
C:/temp/Job-0.odb,Step-1,Increment      1: Step Time =    1.000,"P-0-1",          1865,       95.4629,       39.0278,            0.,NA,NA,"",   1.01001E+06,   1.02758E+06,   1.02758E+06
C:/temp/Job-0.odb,Step-1,Increment      1: Step Time =    1.000,"P-0-1",          1866,       158.406,       149.859,            0.,NA,NA,"",   1.03424E+06,   1.02452E+06,   1.02452E+06
C:/temp/Job-0.odb,Step-1,Increment      1: Step Time =    1.000,"P-0-1",          1867,       154.320,       64.2286,            0.,NA,NA,"",   1.03732E+06,   1.02384E+06,   1.02384E+06
C:/temp/Job-0.odb,Step-1,Increment      1: Step Time =    1.000,"P-0-1",          1868,       109.568,       163.742,            0.,NA,NA,"",   1.00993E+06,   1.02123E+06,   1.02123E+06
C:/temp/Job-0.odb,Step-1,Increment      1: Step Time =    1.000,"P-0-1",          1869,       150.189,       39.7078,            0.,NA,NA,"",   1.03473E+06,   1.02584E+06,   1.02584E+06
C:/temp/Job-0.odb,Step-1,Increment      1: Step Time =    1.000,"P-0-1",          1870,       55.8709,       129.452,            0.,NA,NA,"",   1.00365E+06,   1.02212E+06,   1.02212E+06
C:/temp/Job-0.odb,Step-1,Increment      1: Step Time =    1.000,"P-0-1",          1871,       142.625,       72.4200,            0.,NA,NA,"",   1.05476E+06,   1.03091E+06,   1.03091E+06
C:/temp/Job-0.odb,Step-1,Increment      1: Step Time =    1.000,"P-0-1",          1872,       126.263,       44.2044,            0.,NA,NA,"",   1.04872E+06,   1.04592E+06,   1.04592E+06
C:/temp/Job-0.odb,Step-1,Increment      1: Step Time =    1.000,"P-0-1",          1873,       137.742,       46.7872,            0.,NA,NA,"",   1.05804E+06,   1.04596E+06,   1.04596E+06
C:/temp/Job-0.odb,Step-1,Increment      1: Step Time =    1.000,"P-0-1",          1874,       74.6101,       154.948,            0.,NA,NA,"",   1.04918E+06,   1.05769E+06,   1.05769E+06
C:/temp/Job-0.odb,Step-1,Increment      1: Step Time =    1.000,"P-0-1",          1875,       63.3560,       153.065,            0.,NA,NA,"",   1.05257E+06,   1.06012E+06,   1.06012E+06
C:/temp/Job-0.odb,Step-1,Increment      1: Step Time =    1.000,"P-0-1",          1876,       39.8684,       76.1936,            0.,NA,NA,"",   909.357E+03,   964.481E+03,   964.481E+03
C:/temp/Job-0.odb,Step-1,Increment      1: Step Time =    1.000,"P-0-1",          1877,       157.979,       123.993,            0.,NA,NA,"",   1.00388E+06,   997.358E+03,   997.358E+03
C:/temp/Job-0.odb,Step-1,Increment      1: Step Time =    1.000,"P-0-1",          1878,       156.284,       81.3315,            0.,NA,NA,"",   987.581E+03,   983.817E+03,   983.817E+03
C:/temp/Job-0.odb,Step-1,Increment      1: Step Time =    1.000,"P-0-1",          1879,       83.6004,       34.5317,            0.,NA,NA,"",   1.01751E+06,   1.02761E+06,   1.02761E+06
C:/temp/Job-0.odb,Step-1,Increment      1: Step Time =    1.000,"P-0-1",          1880,       157.003,       84.9579,            0.,NA,NA,"",   972.758E+03,   972.097E+03,   972.097E+03
C:/temp/Job-0.odb,Step-1,Increment      1: Step Time =    1.000,"P-0-1",          1881,       30.6078,       65.8728,            0.,NA,NA,"",   915.318E+03,   979.386E+03,   979.386E+03
C:/temp/Job-0.odb,Step-1,Increment      1: Step Time =    1.000,"P-0-1",          1882,       33.2654,       71.7378,            0.,NA,NA,"",   906.104E+03,   969.060E+03,   969.060E+03
C:/temp/Job-0.odb,Step-1,Increment      1: Step Time =    1.000,"P-0-1",          1883,       161.190,       121.929,            0.,NA,NA,"",   994.682E+03,   991.774E+03,   991.774E+03
C:/temp/Job-0.odb,Step-1,Increment      1: Step Time =    1.000,"P-0-1",          1884,       167.891,       84.2313,            0.,NA,NA,"",   979.779E+03,   983.992E+03,   983.992E+03
C:/temp/Job-0.odb,Step-1,Increment      1: Step Time =    1.000,"P-0-1",          1885,       111.493,       166.728,            0.,NA,NA,"",   1.00794E+06,   1.01673E+06,   1.01673E+06
C:/temp/Job-0.odb,Step-1,Increment      1: Step Time =    1.000,"P-0-1",          1886,       50.8072,       51.5679,            0.,NA,NA,"",   1.02642E+06,   1.04652E+06,   1.04652E+06
C:/temp/Job-0.odb,Step-1,Increment      1: Step Time =    1.000,"P-0-1",          1887,       43.2401,       156.532,            0.,NA,NA,"",   1.01841E+06,   1.04508E+06,   1.04508E+06
C:/temp/Job-0.odb,Step-1,Increment      1: Step Time =    1.000,"P-0-1",          1888,       143.486,       58.7106,            0.,NA,NA,"",   1.06719E+06,   1.04784E+06,   1.04784E+06
C:/temp/Job-0.odb,Step-1,Increment      1: Step Time =    1.000,"P-0-1",          1889,       56.7694,       140.325,            0.,NA,NA,"",   1.03575E+06,   1.04971E+06,   1.04971E+06
C:/temp/Job-0.odb,Step-1,Increment      1: Step Time =    1.000,"P-0-1",          1890,       160.472,       84.7252,            0.,NA,NA,"",   975.191E+03,   976.278E+03,   976.278E+03
C:/temp/Job-0.odb,Step-1,Increment      1: Step Time =    1.000,"P-0-1",          1891,       147.920,       48.4863,            0.,NA,NA,"",   1.04977E+06,   1.03666E+06,   1.03666E+06
C:/temp/Job-0.odb,Step-1,Increment      1: Step Time =    1.000,"P-0-1",          1892,       158.728,       98.4213,            0.,NA,NA,"",   942.706E+03,   949.948E+03,   949.948E+03
C:/temp/Job-0.odb,Step-1,Increment      1: Step Time =    1.000,"P-0-1",          1893,       156.511,       88.8165,            0.,NA,NA,"",   957.314E+03,   959.741E+03,   959.741E+03
C:/temp/Job-0.odb,Step-1,Increment      1: Step Time =    1.000,"P-0-1",          1894,       130.468,       38.4256,            0.,NA,NA,"",   1.03702E+06,   1.03279E+06,   1.03279E+06
C:/temp/Job-0.odb,Step-1,Increment      1: Step Time =    1.000,"P-0-1",          1895,       47.8661,       59.5887,            0.,NA,NA,"",   1.00318E+06,   1.03061E+06,   1.03061E+06
C:/temp/Job-0.odb,Step-1,Increment      1: Step Time =    1.000,"P-0-1",          1896,       47.0697,       56.0510,            0.,NA,NA,"",   1.00767E+06,   1.03503E+06,   1.03503E+06
C:/temp/Job-0.odb,Step-1,Increment      1: Step Time =    1.000,"P-0-1",          1897,       156.245,       142.156,            0.,NA,NA,"",   1.03969E+06,   1.02721E+06,   1.02721E+06
C:/temp/Job-0.odb,Step-1,Increment      1: Step Time =    1.000,"P-0-1",          1898,       40.8795,       100.574,            0.,NA,NA,"",   845.174E+03,   910.035E+03,   910.035E+03
C:/temp/Job-0.odb,Step-1,Increment      1: Step Time =    1.000,"P-0-1",          1899,       97.3479,       160.758,            0.,NA,NA,"",   1.00918E+06,   1.02700E+06,   1.02700E+06
C:/temp/Job-0.odb,Step-1,Increment      1: Step Time =    1.000,"P-0-1",          1900,       84.7820,       159.301,            0.,NA,NA,"",   1.02613E+06,   1.04008E+06,   1.04008E+06
C:/temp/Job-0.odb,Step-1,Increment      1: Step Time =    1.000,"P-0-1",          1901,       70.9623,       160.135,            0.,NA,NA,"",   1.04159E+06,   1.04824E+06,   1.04824E+06
C:/temp/Job-0.odb,Step-1,Increment      1: Step Time =    1.000,"P-0-1",          1902,       59.3814,       166.419,            0.,NA,NA,"",   1.03611E+06,   1.04278E+06,   1.04278E+06
C:/temp/Job-0.odb,Step-1,Increment      1: Step Time =    1.000,"P-0-1",          1903,       39.5022,       118.557,            0.,NA,NA,"",   889.896E+03,   948.834E+03,   948.834E+03
C:/temp/Job-0.odb,Step-1,Increment      1: Step Time =    1.000,"P-0-1",          1904,       46.3296,       141.023,            0.,NA,NA,"",   996.943E+03,   1.02792E+06,   1.02792E+06
C:/temp/Job-0.odb,Step-1,Increment      1: Step Time =    1.000,"P-0-1",          1905,       48.7216,       149.321,            0.,NA,NA,"",   1.02113E+06,   1.04417E+06,   1.04417E+06
C:/temp/Job-0.odb,Step-1,Increment      1: Step Time =    1.000,"P-0-1",          1906,       159.736,       126.608,            0.,NA,NA,"",   1.00892E+06,   1.00228E+06,   1.00228E+06
C:/temp/Job-0.odb,Step-1,Increment      1: Step Time =    1.000,"P-0-1",          1907,       156.206,       130.988,            0.,NA,NA,"",   1.02463E+06,   1.01378E+06,   1.01378E+06
C:/temp/Job-0.odb,Step-1,Increment      1: Step Time =    1.000,"P-0-1",          1908,       100.948,       36.4865,            0.,NA,NA,"",   1.00593E+06,   1.02097E+06,   1.02097E+06
C:/temp/Job-0.odb,Step-1,Increment      1: Step Time =    1.000,"P-0-1",          1909,       115.368,       35.7019,            0.,NA,NA,"",   1.01608E+06,   1.02309E+06,   1.02309E+06
C:/temp/Job-0.odb,Step-1,Increment      1: Step Time =    1.000,"P-0-1",          1910,       101.776,       166.579,            0.,NA,NA,"",   1.00250E+06,   1.01505E+06,   1.01505E+06
C:/temp/Job-0.odb,Step-1,Increment      1: Step Time =    1.000,"P-0-1",          1911,       89.6134,       163.795,            0.,NA,NA,"",   1.01253E+06,   1.02580E+06,   1.02580E+06
C:/temp/Job-0.odb,Step-1,Increment      1: Step Time =    1.000,"P-0-1",          1912,       41.9499,       114.153,            0.,NA,NA,"",   876.421E+03,   934.942E+03,   934.942E+03
C:/temp/Job-0.odb,Step-1,Increment      1: Step Time =    1.000,"P-0-1",          1913,       38.5778,       114.243,            0.,NA,NA,"",   871.745E+03,   934.592E+03,   934.592E+03
C:/temp/Job-0.odb,Step-1,Increment      1: Step Time =    1.000,"P-0-1",          1914,       64.7674,       164.890,            0.,NA,NA,"",   1.03730E+06,   1.04326E+06,   1.04326E+06
C:/temp/Job-0.odb,Step-1,Increment      1: Step Time =    1.000,"P-0-1",          1915,       102.088,       41.4242,            0.,NA,NA,"",   1.01099E+06,   1.03020E+06,   1.03020E+06
C:/temp/Job-0.odb,Step-1,Increment      1: Step Time =    1.000,"P-0-1",          1916,       160.383,       131.054,            0.,NA,NA,"",   1.01735E+06,   1.00977E+06,   1.00977E+06
C:/temp/Job-0.odb,Step-1,Increment      1: Step Time =    1.000,"P-0-1",          1917,       164.389,       88.3504,            0.,NA,NA,"",   968.303E+03,   973.298E+03,   973.298E+03
C:/temp/Job-0.odb,Step-1,Increment      1: Step Time =    1.000,"P-0-1",          1918,       54.1497,       155.297,            0.,NA,NA,"",   1.03896E+06,   1.05268E+06,   1.05268E+06
C:/temp/Job-0.odb,Step-1,Increment      1: Step Time =    1.000,"P-0-1",          1919,       34.3242,       114.833,            0.,NA,NA,"",   865.263E+03,   933.991E+03,   933.991E+03
C:/temp/Job-0.odb,Step-1,Increment      1: Step Time =    1.000,"P-0-1",          1920,       169.037,       105.178,            0.,NA,NA,"",   964.944E+03,   973.548E+03,   973.548E+03
C:/temp/Job-0.odb,Step-1,Increment      1: Step Time =    1.000,"P-0-1",          1921,       165.107,       98.2787,            0.,NA,NA,"",   957.169E+03,   965.234E+03,   965.234E+03
C:/temp/Job-0.odb,Step-1,Increment      1: Step Time =    1.000,"P-0-1",          1922,       95.2168,       164.683,            0.,NA,NA,"",   1.00635E+06,   1.02070E+06,   1.02070E+06
C:/temp/Job-0.odb,Step-1,Increment      1: Step Time =    1.000,"P-0-1",          1923,       165.811,       91.7915,            0.,NA,NA,"",   964.974E+03,   971.772E+03,   971.772E+03
C:/temp/Job-0.odb,Step-1,Increment      1: Step Time =    1.000,"P-0-1",          1924,       34.8311,       105.635,            0.,NA,NA,"",   847.206E+03,   918.631E+03,   918.631E+03
C:/temp/Job-0.odb,Step-1,Increment      1: Step Time =    1.000,"P-0-1",          1925,       34.5734,       100.281,            0.,NA,NA,"",   842.685E+03,   915.025E+03,   915.025E+03
