ODB Name,Step,Frame,Part Instance Name,    Node Label,X,Y,Z,Section Name,Material Name,Section Point,       S-Mises,S-Max. In-Plane Principal (Abs),S-Max. Principal (Abs)
C:/temp/Job-6.odb,Step-1,Increment      1: Step Time =    1.000,"P-6-1",             1,     93.75E-03,   110.825E-03,            0.,NA,NA,"",   1.47682E+06,   1.50888E+06,   1.50888E+06
C:/temp/Job-6.odb,Step-1,Increment      1: Step Time =    1.000,"P-6-1",             2,   89.1747E-03,   106.250E-03,            0.,NA,NA,"",   812.376E+03,   497.687E+03,   497.687E+03
C:/temp/Job-6.odb,Step-1,Increment      1: Step Time =    1.000,"P-6-1",             3,   87.5000E-03,   100.000E-03,            0.,NA,NA,"",   448.970E+03,  -349.218E+03,  -349.218E+03
C:/temp/Job-6.odb,Step-1,Increment      1: Step Time =    1.000,"P-6-1",             4,   89.1747E-03,     93.75E-03,            0.,NA,NA,"",   861.463E+03,   550.576E+03,   550.576E+03
C:/temp/Job-6.odb,Step-1,Increment      1: Step Time =    1.000,"P-6-1",             5,     93.75E-03,   89.1747E-03,            0.,NA,NA,"",   1.56102E+06,   1.61722E+06,   1.61722E+06
C:/temp/Job-6.odb,Step-1,Increment      1: Step Time =    1.000,"P-6-1",             6,   100.000E-03,   87.5000E-03,            0.,NA,NA,"",   1.96629E+06,   2.06957E+06,   2.06957E+06
C:/temp/Job-6.odb,Step-1,Increment      1: Step Time =    1.000,"P-6-1",             7,   106.250E-03,   89.1747E-03,            0.,NA,NA,"",   1.50369E+06,   1.54590E+06,   1.54590E+06
C:/temp/Job-6.odb,Step-1,Increment      1: Step Time =    1.000,"P-6-1",             8,   110.825E-03,     93.75E-03,            0.,NA,NA,"",   838.126E+03,   330.841E+03,   330.841E+03
C:/temp/Job-6.odb,Step-1,Increment      1: Step Time =    1.000,"P-6-1",             9,   112.500E-03,   100.000E-03,            0.,NA,NA,"",   521.087E+03,  -412.514E+03,  -412.514E+03
C:/temp/Job-6.odb,Step-1,Increment      1: Step Time =    1.000,"P-6-1",            10,   110.825E-03,   106.250E-03,            0.,NA,NA,"",   787.957E+03,   428.800E+03,   428.800E+03
C:/temp/Job-6.odb,Step-1,Increment      1: Step Time =    1.000,"P-6-1",            11,   106.250E-03,   110.825E-03,            0.,NA,NA,"",   1.43339E+06,   1.46012E+06,   1.46012E+06
C:/temp/Job-6.odb,Step-1,Increment      1: Step Time =    1.000,"P-6-1",            12,   100.000E-03,   112.500E-03,            0.,NA,NA,"",   1.69496E+06,   1.81070E+06,   1.81070E+06
C:/temp/Job-6.odb,Step-1,Increment      1: Step Time =    1.000,"P-6-1",            13,   200.000E-03,            0.,            0.,NA,NA,"",   999.963E+03,   999.933E+03,   999.933E+03
C:/temp/Job-6.odb,Step-1,Increment      1: Step Time =    1.000,"P-6-1",            14,            0.,            0.,            0.,NA,NA,"",   1.45487E+06,   1.52609E+06,   1.52609E+06
C:/temp/Job-6.odb,Step-1,Increment      1: Step Time =    1.000,"P-6-1",            15,   200.000E-03,   200.000E-03,            0.,NA,NA,"",   999.962E+03,   999.928E+03,   999.928E+03
C:/temp/Job-6.odb,Step-1,Increment      1: Step Time =    1.000,"P-6-1",            16,            0.,   200.000E-03,            0.,NA,NA,"",   1.45522E+06,   1.52581E+06,   1.52581E+06
C:/temp/Job-6.odb,Step-1,Increment      1: Step Time =    1.000,"P-6-1",            17,   193.103E-03,            0.,            0.,NA,NA,"",   999.847E+03,   999.820E+03,   999.820E+03
C:/temp/Job-6.odb,Step-1,Increment      1: Step Time =    1.000,"P-6-1",            18,   186.207E-03,            0.,            0.,NA,NA,"",   999.508E+03,   999.482E+03,   999.482E+03
C:/temp/Job-6.odb,Step-1,Increment      1: Step Time =    1.000,"P-6-1",            19,   179.310E-03,            0.,            0.,NA,NA,"",   998.950E+03,   998.906E+03,   998.906E+03
C:/temp/Job-6.odb,Step-1,Increment      1: Step Time =    1.000,"P-6-1",            20,   172.414E-03,            0.,            0.,NA,NA,"",   998.010E+03,   997.896E+03,   997.896E+03
C:/temp/Job-6.odb,Step-1,Increment      1: Step Time =    1.000,"P-6-1",            21,   165.517E-03,            0.,            0.,NA,NA,"",   996.233E+03,   996.072E+03,   996.072E+03
C:/temp/Job-6.odb,Step-1,Increment      1: Step Time =    1.000,"P-6-1",            22,   158.621E-03,            0.,            0.,NA,NA,"",   993.278E+03,   993.073E+03,   993.073E+03
C:/temp/Job-6.odb,Step-1,Increment      1: Step Time =    1.000,"P-6-1",            23,   151.724E-03,            0.,            0.,NA,NA,"",   988.812E+03,   988.550E+03,   988.550E+03
C:/temp/Job-6.odb,Step-1,Increment      1: Step Time =    1.000,"P-6-1",            24,   144.828E-03,            0.,            0.,NA,NA,"",   982.397E+03,   982.248E+03,   982.248E+03
C:/temp/Job-6.odb,Step-1,Increment      1: Step Time =    1.000,"P-6-1",            25,   137.931E-03,            0.,            0.,NA,NA,"",   974.408E+03,   974.241E+03,   974.241E+03
C:/temp/Job-6.odb,Step-1,Increment      1: Step Time =    1.000,"P-6-1",            26,   131.034E-03,            0.,            0.,NA,NA,"",   964.889E+03,   964.912E+03,   964.912E+03
C:/temp/Job-6.odb,Step-1,Increment      1: Step Time =    1.000,"P-6-1",            27,   124.138E-03,            0.,            0.,NA,NA,"",   955.065E+03,   955.102E+03,   955.102E+03
C:/temp/Job-6.odb,Step-1,Increment      1: Step Time =    1.000,"P-6-1",            28,   117.241E-03,            0.,            0.,NA,NA,"",   945.667E+03,   945.886E+03,   945.886E+03
C:/temp/Job-6.odb,Step-1,Increment      1: Step Time =    1.000,"P-6-1",            29,   110.345E-03,            0.,            0.,NA,NA,"",   938.121E+03,   938.378E+03,   938.378E+03
C:/temp/Job-6.odb,Step-1,Increment      1: Step Time =    1.000,"P-6-1",            30,   103.448E-03,            0.,            0.,NA,NA,"",   933.237E+03,   933.553E+03,   933.553E+03
C:/temp/Job-6.odb,Step-1,Increment      1: Step Time =    1.000,"P-6-1",            31,   96.5517E-03,            0.,            0.,NA,NA,"",   931.529E+03,   931.822E+03,   931.822E+03
C:/temp/Job-6.odb,Step-1,Increment      1: Step Time =    1.000,"P-6-1",            32,   89.6552E-03,            0.,            0.,NA,NA,"",   932.915E+03,   933.174E+03,   933.174E+03
C:/temp/Job-6.odb,Step-1,Increment      1: Step Time =    1.000,"P-6-1",            33,   82.7586E-03,            0.,            0.,NA,NA,"",   937.017E+03,   937.191E+03,   937.191E+03
C:/temp/Job-6.odb,Step-1,Increment      1: Step Time =    1.000,"P-6-1",            34,   75.8621E-03,            0.,            0.,NA,NA,"",   943.150E+03,   943.310E+03,   943.310E+03
C:/temp/Job-6.odb,Step-1,Increment      1: Step Time =    1.000,"P-6-1",            35,   68.9655E-03,            0.,            0.,NA,NA,"",   950.894E+03,   950.912E+03,   950.912E+03
C:/temp/Job-6.odb,Step-1,Increment      1: Step Time =    1.000,"P-6-1",            36,   62.0690E-03,            0.,            0.,NA,NA,"",    959.35E+03,   959.498E+03,   959.498E+03
C:/temp/Job-6.odb,Step-1,Increment      1: Step Time =    1.000,"P-6-1",            37,   55.1724E-03,            0.,            0.,NA,NA,"",   968.914E+03,   968.872E+03,   968.872E+03
C:/temp/Job-6.odb,Step-1,Increment      1: Step Time =    1.000,"P-6-1",            38,   48.2759E-03,            0.,            0.,NA,NA,"",   978.984E+03,   979.406E+03,   979.406E+03
C:/temp/Job-6.odb,Step-1,Increment      1: Step Time =    1.000,"P-6-1",            39,   41.3793E-03,            0.,            0.,NA,NA,"",   992.103E+03,   992.238E+03,   992.238E+03
C:/temp/Job-6.odb,Step-1,Increment      1: Step Time =    1.000,"P-6-1",            40,   34.4828E-03,            0.,            0.,NA,NA,"",   1.00853E+06,   1.00993E+06,   1.00993E+06
C:/temp/Job-6.odb,Step-1,Increment      1: Step Time =    1.000,"P-6-1",            41,   27.5862E-03,            0.,            0.,NA,NA,"",   1.03541E+06,   1.03601E+06,   1.03601E+06
C:/temp/Job-6.odb,Step-1,Increment      1: Step Time =    1.000,"P-6-1",            42,   20.6897E-03,            0.,            0.,NA,NA,"",   1.07520E+06,   1.08014E+06,   1.08014E+06
C:/temp/Job-6.odb,Step-1,Increment      1: Step Time =    1.000,"P-6-1",            43,   13.7931E-03,            0.,            0.,NA,NA,"",   1.15359E+06,   1.15567E+06,   1.15567E+06
C:/temp/Job-6.odb,Step-1,Increment      1: Step Time =    1.000,"P-6-1",            44,   6.89655E-03,            0.,            0.,NA,NA,"",   1.33323E+06,   1.36435E+06,   1.36435E+06
C:/temp/Job-6.odb,Step-1,Increment      1: Step Time =    1.000,"P-6-1",            45,   200.000E-03,   193.103E-03,            0.,NA,NA,"",   1.00005E+06,   999.967E+03,   999.967E+03
C:/temp/Job-6.odb,Step-1,Increment      1: Step Time =    1.000,"P-6-1",            46,   200.000E-03,   186.207E-03,            0.,NA,NA,"",   1.00023E+06,   1.00005E+06,   1.00005E+06
C:/temp/Job-6.odb,Step-1,Increment      1: Step Time =    1.000,"P-6-1",            47,   200.000E-03,   179.310E-03,            0.,NA,NA,"",   1.00034E+06,   1.00018E+06,   1.00018E+06
C:/temp/Job-6.odb,Step-1,Increment      1: Step Time =    1.000,"P-6-1",            48,   200.000E-03,   172.414E-03,            0.,NA,NA,"",   1.00012E+06,   1.00033E+06,   1.00033E+06
C:/temp/Job-6.odb,Step-1,Increment      1: Step Time =    1.000,"P-6-1",            49,   200.000E-03,   165.517E-03,            0.,NA,NA,"",   999.254E+03,   1.00039E+06,   1.00039E+06
C:/temp/Job-6.odb,Step-1,Increment      1: Step Time =    1.000,"P-6-1",            50,   200.000E-03,   158.621E-03,            0.,NA,NA,"",   997.677E+03,   1.00052E+06,   1.00052E+06
C:/temp/Job-6.odb,Step-1,Increment      1: Step Time =    1.000,"P-6-1",            51,   200.000E-03,   151.724E-03,            0.,NA,NA,"",   994.914E+03,   1.00047E+06,   1.00047E+06
C:/temp/Job-6.odb,Step-1,Increment      1: Step Time =    1.000,"P-6-1",            52,   200.000E-03,   144.828E-03,            0.,NA,NA,"",   991.122E+03,   1.00043E+06,   1.00043E+06
C:/temp/Job-6.odb,Step-1,Increment      1: Step Time =    1.000,"P-6-1",            53,   200.000E-03,   137.931E-03,            0.,NA,NA,"",   986.262E+03,   1.00024E+06,   1.00024E+06
C:/temp/Job-6.odb,Step-1,Increment      1: Step Time =    1.000,"P-6-1",            54,   200.000E-03,   131.034E-03,            0.,NA,NA,"",   980.850E+03,   1.00003E+06,   1.00003E+06
C:/temp/Job-6.odb,Step-1,Increment      1: Step Time =    1.000,"P-6-1",            55,   200.000E-03,   124.138E-03,            0.,NA,NA,"",   975.425E+03,   999.777E+03,   999.777E+03
C:/temp/Job-6.odb,Step-1,Increment      1: Step Time =    1.000,"P-6-1",            56,   200.000E-03,   117.241E-03,            0.,NA,NA,"",   970.596E+03,   999.496E+03,   999.496E+03
C:/temp/Job-6.odb,Step-1,Increment      1: Step Time =    1.000,"P-6-1",            57,   200.000E-03,   110.345E-03,            0.,NA,NA,"",   967.039E+03,   999.295E+03,   999.295E+03
C:/temp/Job-6.odb,Step-1,Increment      1: Step Time =    1.000,"P-6-1",            58,   200.000E-03,   103.448E-03,            0.,NA,NA,"",   965.184E+03,   999.181E+03,   999.181E+03
C:/temp/Job-6.odb,Step-1,Increment      1: Step Time =    1.000,"P-6-1",            59,   200.000E-03,   96.5517E-03,            0.,NA,NA,"",   965.293E+03,   999.221E+03,   999.221E+03
C:/temp/Job-6.odb,Step-1,Increment      1: Step Time =    1.000,"P-6-1",            60,   200.000E-03,   89.6552E-03,            0.,NA,NA,"",   967.270E+03,   999.360E+03,   999.360E+03
C:/temp/Job-6.odb,Step-1,Increment      1: Step Time =    1.000,"P-6-1",            61,   200.000E-03,   82.7586E-03,            0.,NA,NA,"",   970.836E+03,    999.56E+03,    999.56E+03
C:/temp/Job-6.odb,Step-1,Increment      1: Step Time =    1.000,"P-6-1",            62,   200.000E-03,   75.8621E-03,            0.,NA,NA,"",   975.584E+03,   999.808E+03,   999.808E+03
C:/temp/Job-6.odb,Step-1,Increment      1: Step Time =    1.000,"P-6-1",            63,   200.000E-03,   68.9655E-03,            0.,NA,NA,"",   980.935E+03,   1.00005E+06,   1.00005E+06
C:/temp/Job-6.odb,Step-1,Increment      1: Step Time =    1.000,"P-6-1",            64,   200.000E-03,   62.0690E-03,            0.,NA,NA,"",   986.269E+03,   1.00023E+06,   1.00023E+06
C:/temp/Job-6.odb,Step-1,Increment      1: Step Time =    1.000,"P-6-1",            65,   200.000E-03,   55.1724E-03,            0.,NA,NA,"",   991.107E+03,   1.00040E+06,   1.00040E+06
C:/temp/Job-6.odb,Step-1,Increment      1: Step Time =    1.000,"P-6-1",            66,   200.000E-03,   48.2759E-03,            0.,NA,NA,"",   994.918E+03,   1.00042E+06,   1.00042E+06
C:/temp/Job-6.odb,Step-1,Increment      1: Step Time =    1.000,"P-6-1",            67,   200.000E-03,   41.3793E-03,            0.,NA,NA,"",   997.696E+03,   1.00045E+06,   1.00045E+06
C:/temp/Job-6.odb,Step-1,Increment      1: Step Time =    1.000,"P-6-1",            68,   200.000E-03,   34.4828E-03,            0.,NA,NA,"",   999.316E+03,   1.00035E+06,   1.00035E+06
C:/temp/Job-6.odb,Step-1,Increment      1: Step Time =    1.000,"P-6-1",            69,   200.000E-03,   27.5862E-03,            0.,NA,NA,"",   1.00015E+06,   1.00028E+06,   1.00028E+06
C:/temp/Job-6.odb,Step-1,Increment      1: Step Time =    1.000,"P-6-1",            70,   200.000E-03,   20.6897E-03,            0.,NA,NA,"",   1.00033E+06,   1.00015E+06,   1.00015E+06
C:/temp/Job-6.odb,Step-1,Increment      1: Step Time =    1.000,"P-6-1",            71,   200.000E-03,   13.7931E-03,            0.,NA,NA,"",   1.00022E+06,   1.00004E+06,   1.00004E+06
C:/temp/Job-6.odb,Step-1,Increment      1: Step Time =    1.000,"P-6-1",            72,   200.000E-03,   6.89655E-03,            0.,NA,NA,"",   1.00005E+06,   999.966E+03,   999.966E+03
C:/temp/Job-6.odb,Step-1,Increment      1: Step Time =    1.000,"P-6-1",            73,   6.89655E-03,   200.000E-03,            0.,NA,NA,"",   1.33344E+06,   1.36458E+06,   1.36458E+06
C:/temp/Job-6.odb,Step-1,Increment      1: Step Time =    1.000,"P-6-1",            74,   13.7931E-03,   200.000E-03,            0.,NA,NA,"",   1.15424E+06,   1.15674E+06,   1.15674E+06
C:/temp/Job-6.odb,Step-1,Increment      1: Step Time =    1.000,"P-6-1",            75,   20.6897E-03,   200.000E-03,            0.,NA,NA,"",   1.07676E+06,   1.08183E+06,   1.08183E+06
C:/temp/Job-6.odb,Step-1,Increment      1: Step Time =    1.000,"P-6-1",            76,   27.5862E-03,   200.000E-03,            0.,NA,NA,"",   1.03745E+06,   1.03817E+06,   1.03817E+06
C:/temp/Job-6.odb,Step-1,Increment      1: Step Time =    1.000,"P-6-1",            77,   34.4828E-03,   200.000E-03,            0.,NA,NA,"",   1.01062E+06,   1.01213E+06,   1.01213E+06
C:/temp/Job-6.odb,Step-1,Increment      1: Step Time =    1.000,"P-6-1",            78,   41.3793E-03,   200.000E-03,            0.,NA,NA,"",   993.986E+03,   994.192E+03,   994.192E+03
C:/temp/Job-6.odb,Step-1,Increment      1: Step Time =    1.000,"P-6-1",            79,   48.2759E-03,   200.000E-03,            0.,NA,NA,"",   980.612E+03,   981.072E+03,   981.072E+03
C:/temp/Job-6.odb,Step-1,Increment      1: Step Time =    1.000,"P-6-1",            80,   55.1724E-03,   200.000E-03,            0.,NA,NA,"",   970.206E+03,   970.216E+03,   970.216E+03
C:/temp/Job-6.odb,Step-1,Increment      1: Step Time =    1.000,"P-6-1",            81,   62.0690E-03,   200.000E-03,            0.,NA,NA,"",   960.413E+03,   960.540E+03,   960.540E+03
C:/temp/Job-6.odb,Step-1,Increment      1: Step Time =    1.000,"P-6-1",            82,   68.9655E-03,   200.000E-03,            0.,NA,NA,"",   951.429E+03,   951.420E+03,   951.420E+03
C:/temp/Job-6.odb,Step-1,Increment      1: Step Time =    1.000,"P-6-1",            83,   75.8621E-03,   200.000E-03,            0.,NA,NA,"",   942.973E+03,   943.174E+03,   943.174E+03
C:/temp/Job-6.odb,Step-1,Increment      1: Step Time =    1.000,"P-6-1",            84,   82.7586E-03,   200.000E-03,            0.,NA,NA,"",   936.384E+03,   936.539E+03,   936.539E+03
C:/temp/Job-6.odb,Step-1,Increment      1: Step Time =    1.000,"P-6-1",            85,   89.6552E-03,   200.000E-03,            0.,NA,NA,"",   931.915E+03,   932.240E+03,   932.240E+03
C:/temp/Job-6.odb,Step-1,Increment      1: Step Time =    1.000,"P-6-1",            86,   96.5517E-03,   200.000E-03,            0.,NA,NA,"",   930.583E+03,   930.885E+03,   930.885E+03
C:/temp/Job-6.odb,Step-1,Increment      1: Step Time =    1.000,"P-6-1",            87,   103.448E-03,   200.000E-03,            0.,NA,NA,"",   932.469E+03,   932.828E+03,   932.828E+03
C:/temp/Job-6.odb,Step-1,Increment      1: Step Time =    1.000,"P-6-1",            88,   110.345E-03,   200.000E-03,            0.,NA,NA,"",   937.688E+03,   937.930E+03,   937.930E+03
C:/temp/Job-6.odb,Step-1,Increment      1: Step Time =    1.000,"P-6-1",            89,   117.241E-03,   200.000E-03,            0.,NA,NA,"",   945.391E+03,   945.567E+03,   945.567E+03
C:/temp/Job-6.odb,Step-1,Increment      1: Step Time =    1.000,"P-6-1",            90,   124.138E-03,   200.000E-03,            0.,NA,NA,"",   954.778E+03,   954.810E+03,   954.810E+03
C:/temp/Job-6.odb,Step-1,Increment      1: Step Time =    1.000,"P-6-1",            91,   131.034E-03,   200.000E-03,            0.,NA,NA,"",   964.682E+03,   964.638E+03,   964.638E+03
C:/temp/Job-6.odb,Step-1,Increment      1: Step Time =    1.000,"P-6-1",            92,   137.931E-03,   200.000E-03,            0.,NA,NA,"",   974.184E+03,   974.043E+03,   974.043E+03
C:/temp/Job-6.odb,Step-1,Increment      1: Step Time =    1.000,"P-6-1",            93,   144.828E-03,   200.000E-03,            0.,NA,NA,"",   982.373E+03,   982.200E+03,   982.200E+03
C:/temp/Job-6.odb,Step-1,Increment      1: Step Time =    1.000,"P-6-1",            94,   151.724E-03,   200.000E-03,            0.,NA,NA,"",   988.786E+03,   988.578E+03,   988.578E+03
C:/temp/Job-6.odb,Step-1,Increment      1: Step Time =    1.000,"P-6-1",            95,   158.621E-03,   200.000E-03,            0.,NA,NA,"",   993.260E+03,   993.108E+03,   993.108E+03
C:/temp/Job-6.odb,Step-1,Increment      1: Step Time =    1.000,"P-6-1",            96,   165.517E-03,   200.000E-03,            0.,NA,NA,"",   996.217E+03,   996.068E+03,   996.068E+03
C:/temp/Job-6.odb,Step-1,Increment      1: Step Time =    1.000,"P-6-1",            97,   172.414E-03,   200.000E-03,            0.,NA,NA,"",   997.920E+03,   997.843E+03,   997.843E+03
C:/temp/Job-6.odb,Step-1,Increment      1: Step Time =    1.000,"P-6-1",            98,   179.310E-03,   200.000E-03,            0.,NA,NA,"",   998.914E+03,   998.862E+03,   998.862E+03
C:/temp/Job-6.odb,Step-1,Increment      1: Step Time =    1.000,"P-6-1",            99,   186.207E-03,   200.000E-03,            0.,NA,NA,"",   999.485E+03,   999.462E+03,   999.462E+03
C:/temp/Job-6.odb,Step-1,Increment      1: Step Time =    1.000,"P-6-1",           100,   193.103E-03,   200.000E-03,            0.,NA,NA,"",   999.837E+03,   999.809E+03,   999.809E+03
C:/temp/Job-6.odb,Step-1,Increment      1: Step Time =    1.000,"P-6-1",           101,            0.,   6.89655E-03,            0.,NA,NA,"",   1.28597E+06,   1.36922E+06,   1.36922E+06
C:/temp/Job-6.odb,Step-1,Increment      1: Step Time =    1.000,"P-6-1",           102,            0.,   13.7931E-03,            0.,NA,NA,"",   1.07055E+06,   1.16812E+06,   1.16812E+06
C:/temp/Job-6.odb,Step-1,Increment      1: Step Time =    1.000,"P-6-1",           103,            0.,   20.6897E-03,            0.,NA,NA,"",   993.646E+03,   1.09408E+06,   1.09408E+06
C:/temp/Job-6.odb,Step-1,Increment      1: Step Time =    1.000,"P-6-1",           104,            0.,   27.5862E-03,            0.,NA,NA,"",   944.484E+03,   1.04634E+06,   1.04634E+06
C:/temp/Job-6.odb,Step-1,Increment      1: Step Time =    1.000,"P-6-1",           105,            0.,   34.4828E-03,            0.,NA,NA,"",   910.965E+03,   1.01364E+06,   1.01364E+06
C:/temp/Job-6.odb,Step-1,Increment      1: Step Time =    1.000,"P-6-1",           106,            0.,   41.3793E-03,            0.,NA,NA,"",   885.100E+03,   988.086E+03,   988.086E+03
C:/temp/Job-6.odb,Step-1,Increment      1: Step Time =    1.000,"P-6-1",           107,            0.,   48.2759E-03,            0.,NA,NA,"",   863.688E+03,   966.817E+03,   966.817E+03
C:/temp/Job-6.odb,Step-1,Increment      1: Step Time =    1.000,"P-6-1",           108,            0.,   55.1724E-03,            0.,NA,NA,"",   845.385E+03,   948.268E+03,   948.268E+03
C:/temp/Job-6.odb,Step-1,Increment      1: Step Time =    1.000,"P-6-1",           109,            0.,   62.0690E-03,            0.,NA,NA,"",   829.519E+03,   932.008E+03,   932.008E+03
C:/temp/Job-6.odb,Step-1,Increment      1: Step Time =    1.000,"P-6-1",           110,            0.,   68.9655E-03,            0.,NA,NA,"",   815.565E+03,   917.534E+03,   917.534E+03
C:/temp/Job-6.odb,Step-1,Increment      1: Step Time =    1.000,"P-6-1",           111,            0.,   75.8621E-03,            0.,NA,NA,"",   803.681E+03,   905.051E+03,   905.051E+03
C:/temp/Job-6.odb,Step-1,Increment      1: Step Time =    1.000,"P-6-1",           112,            0.,   82.7586E-03,            0.,NA,NA,"",   793.808E+03,   894.641E+03,   894.641E+03
C:/temp/Job-6.odb,Step-1,Increment      1: Step Time =    1.000,"P-6-1",           113,            0.,   89.6552E-03,            0.,NA,NA,"",   786.602E+03,   886.994E+03,   886.994E+03
C:/temp/Job-6.odb,Step-1,Increment      1: Step Time =    1.000,"P-6-1",           114,            0.,   96.5517E-03,            0.,NA,NA,"",   782.538E+03,   882.682E+03,   882.682E+03
C:/temp/Job-6.odb,Step-1,Increment      1: Step Time =    1.000,"P-6-1",           115,            0.,   103.448E-03,            0.,NA,NA,"",   782.189E+03,   882.301E+03,   882.301E+03
C:/temp/Job-6.odb,Step-1,Increment      1: Step Time =    1.000,"P-6-1",           116,            0.,   110.345E-03,            0.,NA,NA,"",   785.627E+03,   885.941E+03,   885.941E+03
C:/temp/Job-6.odb,Step-1,Increment      1: Step Time =    1.000,"P-6-1",           117,            0.,   117.241E-03,            0.,NA,NA,"",   792.398E+03,   893.129E+03,   893.129E+03
C:/temp/Job-6.odb,Step-1,Increment      1: Step Time =    1.000,"P-6-1",           118,            0.,   124.138E-03,            0.,NA,NA,"",   802.067E+03,   903.331E+03,   903.331E+03
C:/temp/Job-6.odb,Step-1,Increment      1: Step Time =    1.000,"P-6-1",           119,            0.,   131.034E-03,            0.,NA,NA,"",   813.932E+03,   915.838E+03,   915.838E+03
C:/temp/Job-6.odb,Step-1,Increment      1: Step Time =    1.000,"P-6-1",           120,            0.,   137.931E-03,            0.,NA,NA,"",   828.086E+03,   930.559E+03,   930.559E+03
C:/temp/Job-6.odb,Step-1,Increment      1: Step Time =    1.000,"P-6-1",           121,            0.,   144.828E-03,            0.,NA,NA,"",   844.212E+03,   947.154E+03,   947.154E+03
C:/temp/Job-6.odb,Step-1,Increment      1: Step Time =    1.000,"P-6-1",           122,            0.,   151.724E-03,            0.,NA,NA,"",   862.674E+03,   965.908E+03,   965.908E+03
C:/temp/Job-6.odb,Step-1,Increment      1: Step Time =    1.000,"P-6-1",           123,            0.,   158.621E-03,            0.,NA,NA,"",   884.127E+03,   987.292E+03,   987.292E+03
C:/temp/Job-6.odb,Step-1,Increment      1: Step Time =    1.000,"P-6-1",           124,            0.,   165.517E-03,            0.,NA,NA,"",   910.247E+03,   1.01313E+06,   1.01313E+06
C:/temp/Job-6.odb,Step-1,Increment      1: Step Time =    1.000,"P-6-1",           125,            0.,   172.414E-03,            0.,NA,NA,"",   943.967E+03,   1.04597E+06,   1.04597E+06
C:/temp/Job-6.odb,Step-1,Increment      1: Step Time =    1.000,"P-6-1",           126,            0.,   179.310E-03,            0.,NA,NA,"",   993.605E+03,   1.09412E+06,   1.09412E+06
C:/temp/Job-6.odb,Step-1,Increment      1: Step Time =    1.000,"P-6-1",           127,            0.,   186.207E-03,            0.,NA,NA,"",   1.06986E+06,   1.16737E+06,   1.16737E+06
C:/temp/Job-6.odb,Step-1,Increment      1: Step Time =    1.000,"P-6-1",           128,            0.,   193.103E-03,            0.,NA,NA,"",   1.28520E+06,   1.36806E+06,   1.36806E+06
C:/temp/Job-6.odb,Step-1,Increment      1: Step Time =    1.000,"P-6-1",           129,   105.333E-03,   120.444E-03,            0.,NA,NA,"",   1.40879E+06,   1.49775E+06,   1.49775E+06
C:/temp/Job-6.odb,Step-1,Increment      1: Step Time =    1.000,"P-6-1",           130,   98.9008E-03,   82.0425E-03,            0.,NA,NA,"",   1.59448E+06,   1.70743E+06,   1.70743E+06
C:/temp/Job-6.odb,Step-1,Increment      1: Step Time =    1.000,"P-6-1",           131,   81.5011E-03,   98.7313E-03,            0.,NA,NA,"",   475.588E+03,   76.9029E+03,   76.9029E+03
C:/temp/Job-6.odb,Step-1,Increment      1: Step Time =    1.000,"P-6-1",           132,   117.980E-03,   98.7229E-03,            0.,NA,NA,"",   525.136E+03,   39.1086E+03,   39.1086E+03
C:/temp/Job-6.odb,Step-1,Increment      1: Step Time =    1.000,"P-6-1",           133,   113.909E-03,   111.378E-03,            0.,NA,NA,"",   1.12118E+06,   1.01375E+06,   1.01375E+06
C:/temp/Job-6.odb,Step-1,Increment      1: Step Time =    1.000,"P-6-1",           134,   87.6357E-03,   87.9808E-03,            0.,NA,NA,"",   1.20253E+06,   1.14082E+06,   1.14082E+06
C:/temp/Job-6.odb,Step-1,Increment      1: Step Time =    1.000,"P-6-1",           135,   105.496E-03,   81.5486E-03,            0.,NA,NA,"",   1.48395E+06,   1.56935E+06,   1.56935E+06
C:/temp/Job-6.odb,Step-1,Increment      1: Step Time =    1.000,"P-6-1",           136,   118.602E-03,   105.063E-03,            0.,NA,NA,"",   625.460E+03,   336.933E+03,   336.933E+03
C:/temp/Job-6.odb,Step-1,Increment      1: Step Time =    1.000,"P-6-1",           137,   85.0485E-03,   113.428E-03,            0.,NA,NA,"",   1.19093E+06,   1.10137E+06,   1.10137E+06
C:/temp/Job-6.odb,Step-1,Increment      1: Step Time =    1.000,"P-6-1",           138,   111.413E-03,   86.9747E-03,            0.,NA,NA,"",   1.28345E+06,   1.24438E+06,   1.24438E+06
C:/temp/Job-6.odb,Step-1,Increment      1: Step Time =    1.000,"P-6-1",           139,   82.4293E-03,   92.7281E-03,            0.,NA,NA,"",   793.544E+03,   508.122E+03,   508.122E+03
C:/temp/Job-6.odb,Step-1,Increment      1: Step Time =    1.000,"P-6-1",           140,   95.3367E-03,   120.254E-03,            0.,NA,NA,"",   1.41603E+06,   1.51050E+06,   1.51050E+06
C:/temp/Job-6.odb,Step-1,Increment      1: Step Time =    1.000,"P-6-1",           141,   144.156E-03,   6.83470E-03,            0.,NA,NA,"",   986.599E+03,   986.010E+03,   986.010E+03
C:/temp/Job-6.odb,Step-1,Increment      1: Step Time =    1.000,"P-6-1",           142,   137.057E-03,   6.55165E-03,            0.,NA,NA,"",   979.389E+03,   978.992E+03,   978.992E+03
C:/temp/Job-6.odb,Step-1,Increment      1: Step Time =    1.000,"P-6-1",           143,   193.752E-03,   137.549E-03,            0.,NA,NA,"",   988.153E+03,   1.00079E+06,   1.00079E+06
C:/temp/Job-6.odb,Step-1,Increment      1: Step Time =    1.000,"P-6-1",           144,   193.839E-03,   130.649E-03,            0.,NA,NA,"",   982.928E+03,   1.00015E+06,   1.00015E+06
C:/temp/Job-6.odb,Step-1,Increment      1: Step Time =    1.000,"P-6-1",           145,   123.194E-03,   6.19497E-03,            0.,NA,NA,"",   962.331E+03,   962.530E+03,   962.530E+03
C:/temp/Job-6.odb,Step-1,Increment      1: Step Time =    1.000,"P-6-1",           146,   116.346E-03,   6.10361E-03,            0.,NA,NA,"",   954.221E+03,   954.755E+03,   954.755E+03
C:/temp/Job-6.odb,Step-1,Increment      1: Step Time =    1.000,"P-6-1",           147,   109.503E-03,   6.05285E-03,            0.,NA,NA,"",   947.780E+03,   948.564E+03,   948.564E+03
C:/temp/Job-6.odb,Step-1,Increment      1: Step Time =    1.000,"P-6-1",           148,   102.666E-03,   6.03929E-03,            0.,NA,NA,"",   943.827E+03,   944.709E+03,   944.709E+03
C:/temp/Job-6.odb,Step-1,Increment      1: Step Time =    1.000,"P-6-1",           149,   95.8297E-03,   6.04068E-03,            0.,NA,NA,"",   942.787E+03,   943.655E+03,   943.655E+03
C:/temp/Job-6.odb,Step-1,Increment      1: Step Time =    1.000,"P-6-1",           150,   88.9803E-03,   6.04281E-03,            0.,NA,NA,"",   944.570E+03,   945.277E+03,   945.277E+03
C:/temp/Job-6.odb,Step-1,Increment      1: Step Time =    1.000,"P-6-1",           151,   82.1201E-03,   6.03127E-03,            0.,NA,NA,"",   948.728E+03,   949.295E+03,   949.295E+03
C:/temp/Job-6.odb,Step-1,Increment      1: Step Time =    1.000,"P-6-1",           152,   75.2548E-03,   6.01513E-03,            0.,NA,NA,"",   954.878E+03,   955.227E+03,   955.227E+03
C:/temp/Job-6.odb,Step-1,Increment      1: Step Time =    1.000,"P-6-1",           153,   193.907E-03,   116.969E-03,            0.,NA,NA,"",   972.848E+03,   998.586E+03,   998.586E+03
C:/temp/Job-6.odb,Step-1,Increment      1: Step Time =    1.000,"P-6-1",           154,   193.920E-03,   110.142E-03,            0.,NA,NA,"",   969.250E+03,   997.937E+03,   997.937E+03
C:/temp/Job-6.odb,Step-1,Increment      1: Step Time =    1.000,"P-6-1",           155,   193.927E-03,   103.317E-03,            0.,NA,NA,"",   967.424E+03,   997.636E+03,   997.636E+03
C:/temp/Job-6.odb,Step-1,Increment      1: Step Time =    1.000,"P-6-1",           156,   193.940E-03,   96.5119E-03,            0.,NA,NA,"",   967.572E+03,   997.721E+03,   997.721E+03
C:/temp/Job-6.odb,Step-1,Increment      1: Step Time =    1.000,"P-6-1",           157,   193.962E-03,   89.7142E-03,            0.,NA,NA,"",   969.581E+03,   998.128E+03,   998.128E+03
C:/temp/Job-6.odb,Step-1,Increment      1: Step Time =    1.000,"P-6-1",           158,   193.995E-03,   82.9275E-03,            0.,NA,NA,"",   973.110E+03,   998.727E+03,   998.727E+03
C:/temp/Job-6.odb,Step-1,Increment      1: Step Time =    1.000,"P-6-1",           159,   194.024E-03,   76.1257E-03,            0.,NA,NA,"",   977.742E+03,   999.447E+03,   999.447E+03
C:/temp/Job-6.odb,Step-1,Increment      1: Step Time =    1.000,"P-6-1",           160,   194.042E-03,   69.3123E-03,            0.,NA,NA,"",   982.903E+03,   1.00014E+06,   1.00014E+06
C:/temp/Job-6.odb,Step-1,Increment      1: Step Time =    1.000,"P-6-1",           161,   48.2069E-03,   193.545E-03,            0.,NA,NA,"",   993.567E+03,   994.320E+03,   994.320E+03
C:/temp/Job-6.odb,Step-1,Increment      1: Step Time =    1.000,"P-6-1",           162,   55.0948E-03,   193.809E-03,            0.,NA,NA,"",   981.883E+03,   982.192E+03,   982.192E+03
C:/temp/Job-6.odb,Step-1,Increment      1: Step Time =    1.000,"P-6-1",           163,   61.9680E-03,   194.006E-03,            0.,NA,NA,"",   971.638E+03,   971.732E+03,   971.732E+03
C:/temp/Job-6.odb,Step-1,Increment      1: Step Time =    1.000,"P-6-1",           164,   68.8327E-03,   194.098E-03,            0.,NA,NA,"",   962.451E+03,   962.621E+03,   962.621E+03
C:/temp/Job-6.odb,Step-1,Increment      1: Step Time =    1.000,"P-6-1",           165,   75.7136E-03,   194.093E-03,            0.,NA,NA,"",   954.325E+03,   954.688E+03,   954.688E+03
C:/temp/Job-6.odb,Step-1,Increment      1: Step Time =    1.000,"P-6-1",           166,   82.6264E-03,   194.012E-03,            0.,NA,NA,"",    947.82E+03,   948.446E+03,   948.446E+03
C:/temp/Job-6.odb,Step-1,Increment      1: Step Time =    1.000,"P-6-1",           167,   89.5196E-03,   193.926E-03,            0.,NA,NA,"",   943.656E+03,   944.462E+03,   944.462E+03
C:/temp/Job-6.odb,Step-1,Increment      1: Step Time =    1.000,"P-6-1",           168,   96.3853E-03,   193.865E-03,            0.,NA,NA,"",   942.087E+03,   943.058E+03,   943.058E+03
C:/temp/Job-6.odb,Step-1,Increment      1: Step Time =    1.000,"P-6-1",           169,   103.230E-03,   193.832E-03,            0.,NA,NA,"",   943.495E+03,   944.451E+03,   944.451E+03
C:/temp/Job-6.odb,Step-1,Increment      1: Step Time =    1.000,"P-6-1",           170,   110.108E-03,   193.801E-03,            0.,NA,NA,"",   947.847E+03,   948.626E+03,   948.626E+03
C:/temp/Job-6.odb,Step-1,Increment      1: Step Time =    1.000,"P-6-1",           171,   116.932E-03,   193.796E-03,            0.,NA,NA,"",   954.506E+03,   954.952E+03,   954.952E+03
C:/temp/Job-6.odb,Step-1,Increment      1: Step Time =    1.000,"P-6-1",           172,   123.757E-03,   193.826E-03,            0.,NA,NA,"",   962.415E+03,   962.560E+03,   962.560E+03
C:/temp/Job-6.odb,Step-1,Increment      1: Step Time =    1.000,"P-6-1",           173,   130.600E-03,   193.871E-03,            0.,NA,NA,"",   970.853E+03,   970.707E+03,   970.707E+03
C:/temp/Job-6.odb,Step-1,Increment      1: Step Time =    1.000,"P-6-1",           174,   6.35533E-03,   48.3776E-03,            0.,NA,NA,"",   876.195E+03,   974.278E+03,   974.278E+03
C:/temp/Job-6.odb,Step-1,Increment      1: Step Time =    1.000,"P-6-1",           175,   6.23032E-03,   55.3541E-03,            0.,NA,NA,"",   856.530E+03,   955.201E+03,   955.201E+03
C:/temp/Job-6.odb,Step-1,Increment      1: Step Time =    1.000,"P-6-1",           176,   6.16816E-03,   62.2918E-03,            0.,NA,NA,"",   838.957E+03,   937.898E+03,   937.898E+03
C:/temp/Job-6.odb,Step-1,Increment      1: Step Time =    1.000,"P-6-1",           177,   6.12949E-03,   69.1766E-03,            0.,NA,NA,"",   823.972E+03,   922.892E+03,   922.892E+03
C:/temp/Job-6.odb,Step-1,Increment      1: Step Time =    1.000,"P-6-1",           178,   6.06264E-03,   76.0593E-03,            0.,NA,NA,"",    810.68E+03,   909.493E+03,   909.493E+03
C:/temp/Job-6.odb,Step-1,Increment      1: Step Time =    1.000,"P-6-1",           179,   5.96698E-03,   82.9266E-03,            0.,NA,NA,"",   799.784E+03,   898.447E+03,   898.447E+03
C:/temp/Job-6.odb,Step-1,Increment      1: Step Time =    1.000,"P-6-1",           180,   5.86307E-03,   89.7816E-03,            0.,NA,NA,"",   791.641E+03,   890.181E+03,   890.181E+03
C:/temp/Job-6.odb,Step-1,Increment      1: Step Time =    1.000,"P-6-1",           181,   5.80471E-03,   96.6215E-03,            0.,NA,NA,"",   787.106E+03,   885.562E+03,   885.562E+03
C:/temp/Job-6.odb,Step-1,Increment      1: Step Time =    1.000,"P-6-1",           182,   5.80961E-03,   103.487E-03,            0.,NA,NA,"",   786.705E+03,   885.144E+03,   885.144E+03
C:/temp/Job-6.odb,Step-1,Increment      1: Step Time =    1.000,"P-6-1",           183,   5.88784E-03,   110.369E-03,            0.,NA,NA,"",   790.594E+03,   889.088E+03,   889.088E+03
C:/temp/Job-6.odb,Step-1,Increment      1: Step Time =    1.000,"P-6-1",           184,   5.96821E-03,   117.229E-03,            0.,NA,NA,"",   798.353E+03,   896.963E+03,   896.963E+03
C:/temp/Job-6.odb,Step-1,Increment      1: Step Time =    1.000,"P-6-1",           185,   6.02349E-03,   124.066E-03,            0.,NA,NA,"",   808.946E+03,   907.736E+03,   907.736E+03
C:/temp/Job-6.odb,Step-1,Increment      1: Step Time =    1.000,"P-6-1",           186,   6.03011E-03,   130.901E-03,            0.,NA,NA,"",   822.184E+03,   921.125E+03,   921.125E+03
C:/temp/Job-6.odb,Step-1,Increment      1: Step Time =    1.000,"P-6-1",           187,   158.542E-03,   7.15117E-03,            0.,NA,NA,"",   995.737E+03,   995.130E+03,   995.130E+03
C:/temp/Job-6.odb,Step-1,Increment      1: Step Time =    1.000,"P-6-1",           188,   151.352E-03,   7.09446E-03,            0.,NA,NA,"",   992.040E+03,   991.373E+03,   991.373E+03
C:/temp/Job-6.odb,Step-1,Increment      1: Step Time =    1.000,"P-6-1",           189,   130.089E-03,   6.34053E-03,            0.,NA,NA,"",   971.034E+03,   970.923E+03,   970.923E+03
C:/temp/Job-6.odb,Step-1,Increment      1: Step Time =    1.000,"P-6-1",           190,   68.4169E-03,   6.00765E-03,            0.,NA,NA,"",   962.469E+03,   962.713E+03,   962.713E+03
C:/temp/Job-6.odb,Step-1,Increment      1: Step Time =    1.000,"P-6-1",           191,   61.5757E-03,   6.03234E-03,            0.,NA,NA,"",   971.204E+03,   971.355E+03,   971.355E+03
C:/temp/Job-6.odb,Step-1,Increment      1: Step Time =    1.000,"P-6-1",           192,   54.7183E-03,   6.07917E-03,            0.,NA,NA,"",   980.921E+03,   981.227E+03,   981.227E+03
C:/temp/Job-6.odb,Step-1,Increment      1: Step Time =    1.000,"P-6-1",           193,   47.8294E-03,   6.15422E-03,            0.,NA,NA,"",   992.172E+03,   992.802E+03,   992.802E+03
C:/temp/Job-6.odb,Step-1,Increment      1: Step Time =    1.000,"P-6-1",           194,   40.9449E-03,   6.25748E-03,            0.,NA,NA,"",   1.00629E+06,   1.00761E+06,   1.00761E+06
C:/temp/Job-6.odb,Step-1,Increment      1: Step Time =    1.000,"P-6-1",           195,   34.0822E-03,   6.37579E-03,            0.,NA,NA,"",   1.02474E+06,   1.02723E+06,   1.02723E+06
C:/temp/Job-6.odb,Step-1,Increment      1: Step Time =    1.000,"P-6-1",           196,   27.2659E-03,   6.49464E-03,            0.,NA,NA,"",   1.05264E+06,   1.05686E+06,   1.05686E+06
C:/temp/Job-6.odb,Step-1,Increment      1: Step Time =    1.000,"P-6-1",           197,   20.4512E-03,   6.60409E-03,            0.,NA,NA,"",   1.09166E+06,   1.10024E+06,   1.10024E+06
C:/temp/Job-6.odb,Step-1,Increment      1: Step Time =    1.000,"P-6-1",           198,   193.359E-03,   151.495E-03,            0.,NA,NA,"",   996.375E+03,   1.00149E+06,   1.00149E+06
C:/temp/Job-6.odb,Step-1,Increment      1: Step Time =    1.000,"P-6-1",           199,   193.585E-03,   144.511E-03,            0.,NA,NA,"",   992.797E+03,   1.00128E+06,   1.00128E+06
C:/temp/Job-6.odb,Step-1,Increment      1: Step Time =    1.000,"P-6-1",           200,   193.883E-03,   123.799E-03,            0.,NA,NA,"",   977.639E+03,   999.394E+03,   999.394E+03
C:/temp/Job-6.odb,Step-1,Increment      1: Step Time =    1.000,"P-6-1",           201,   194.030E-03,   62.4513E-03,            0.,NA,NA,"",   988.012E+03,   1.00072E+06,   1.00072E+06
C:/temp/Job-6.odb,Step-1,Increment      1: Step Time =    1.000,"P-6-1",           202,   193.979E-03,   55.5612E-03,            0.,NA,NA,"",   992.546E+03,   1.00113E+06,   1.00113E+06
C:/temp/Job-6.odb,Step-1,Increment      1: Step Time =    1.000,"P-6-1",           203,   193.874E-03,   48.6211E-03,            0.,NA,NA,"",   996.115E+03,   1.00130E+06,   1.00130E+06
C:/temp/Job-6.odb,Step-1,Increment      1: Step Time =    1.000,"P-6-1",           204,   193.724E-03,   41.6488E-03,            0.,NA,NA,"",   998.564E+03,   1.00127E+06,   1.00127E+06
C:/temp/Job-6.odb,Step-1,Increment      1: Step Time =    1.000,"P-6-1",           205,   193.564E-03,   34.6578E-03,            0.,NA,NA,"",   999.949E+03,   1.00107E+06,   1.00107E+06
C:/temp/Job-6.odb,Step-1,Increment      1: Step Time =    1.000,"P-6-1",           206,   193.418E-03,   27.6889E-03,            0.,NA,NA,"",   1.00051E+06,   1.00078E+06,   1.00078E+06
C:/temp/Job-6.odb,Step-1,Increment      1: Step Time =    1.000,"P-6-1",           207,   193.308E-03,   20.7301E-03,            0.,NA,NA,"",   1.00052E+06,   1.00044E+06,   1.00044E+06
C:/temp/Job-6.odb,Step-1,Increment      1: Step Time =    1.000,"P-6-1",           208,   193.224E-03,   13.7912E-03,            0.,NA,NA,"",   1.00026E+06,   1.00013E+06,   1.00013E+06
C:/temp/Job-6.odb,Step-1,Increment      1: Step Time =    1.000,"P-6-1",           209,   193.161E-03,   6.87453E-03,            0.,NA,NA,"",   999.966E+03,   999.902E+03,   999.902E+03
C:/temp/Job-6.odb,Step-1,Increment      1: Step Time =    1.000,"P-6-1",           210,   137.499E-03,   193.875E-03,            0.,NA,NA,"",   979.036E+03,   978.639E+03,   978.639E+03
C:/temp/Job-6.odb,Step-1,Increment      1: Step Time =    1.000,"P-6-1",           211,   144.425E-03,   193.819E-03,            0.,NA,NA,"",   986.057E+03,   985.516E+03,   985.516E+03
C:/temp/Job-6.odb,Step-1,Increment      1: Step Time =    1.000,"P-6-1",           212,   151.383E-03,   193.698E-03,            0.,NA,NA,"",   991.479E+03,   990.916E+03,   990.916E+03
C:/temp/Job-6.odb,Step-1,Increment      1: Step Time =    1.000,"P-6-1",           213,   158.348E-03,   193.538E-03,            0.,NA,NA,"",   995.274E+03,   994.773E+03,   994.773E+03
C:/temp/Job-6.odb,Step-1,Increment      1: Step Time =    1.000,"P-6-1",           214,   165.313E-03,   193.382E-03,            0.,NA,NA,"",   997.631E+03,   997.231E+03,   997.231E+03
C:/temp/Job-6.odb,Step-1,Increment      1: Step Time =    1.000,"P-6-1",           215,   172.232E-03,   193.243E-03,            0.,NA,NA,"",   998.907E+03,   998.645E+03,   998.645E+03
C:/temp/Job-6.odb,Step-1,Increment      1: Step Time =    1.000,"P-6-1",           216,   179.160E-03,   193.143E-03,            0.,NA,NA,"",   999.510E+03,   999.370E+03,   999.370E+03
C:/temp/Job-6.odb,Step-1,Increment      1: Step Time =    1.000,"P-6-1",           217,   186.094E-03,   193.085E-03,            0.,NA,NA,"",   999.787E+03,   999.720E+03,   999.720E+03
C:/temp/Job-6.odb,Step-1,Increment      1: Step Time =    1.000,"P-6-1",           218,   193.043E-03,   193.074E-03,            0.,NA,NA,"",   999.971E+03,   999.904E+03,   999.904E+03
C:/temp/Job-6.odb,Step-1,Increment      1: Step Time =    1.000,"P-6-1",           219,   6.02481E-03,   137.766E-03,            0.,NA,NA,"",   837.361E+03,   936.393E+03,   936.393E+03
C:/temp/Job-6.odb,Step-1,Increment      1: Step Time =    1.000,"P-6-1",           220,   6.05906E-03,   144.661E-03,            0.,NA,NA,"",   855.130E+03,   953.994E+03,   953.994E+03
C:/temp/Job-6.odb,Step-1,Increment      1: Step Time =    1.000,"P-6-1",           221,   6.16419E-03,   151.578E-03,            0.,NA,NA,"",   874.758E+03,   973.155E+03,   973.155E+03
C:/temp/Job-6.odb,Step-1,Increment      1: Step Time =    1.000,"P-6-1",           222,   6.32864E-03,   158.497E-03,            0.,NA,NA,"",   898.356E+03,   995.700E+03,   995.700E+03
C:/temp/Job-6.odb,Step-1,Increment      1: Step Time =    1.000,"P-6-1",           223,   6.51104E-03,   165.417E-03,            0.,NA,NA,"",   925.565E+03,   1.02126E+06,   1.02126E+06
C:/temp/Job-6.odb,Step-1,Increment      1: Step Time =    1.000,"P-6-1",           224,   6.67687E-03,   172.314E-03,            0.,NA,NA,"",   963.537E+03,   1.05616E+06,   1.05616E+06
C:/temp/Job-6.odb,Step-1,Increment      1: Step Time =    1.000,"P-6-1",           225,   6.79774E-03,   179.225E-03,            0.,NA,NA,"",   1.01137E+06,   1.09957E+06,   1.09957E+06
C:/temp/Job-6.odb,Step-1,Increment      1: Step Time =    1.000,"P-6-1",           226,   6.87057E-03,   186.145E-03,            0.,NA,NA,"",   1.10326E+06,   1.18011E+06,   1.18011E+06
C:/temp/Job-6.odb,Step-1,Increment      1: Step Time =    1.000,"P-6-1",           227,   6.89919E-03,   193.071E-03,            0.,NA,NA,"",   1.25281E+06,   1.30221E+06,   1.30221E+06
C:/temp/Job-6.odb,Step-1,Increment      1: Step Time =    1.000,"P-6-1",           228,   6.53985E-03,   41.4266E-03,            0.,NA,NA,"",   899.956E+03,   996.865E+03,   996.865E+03
C:/temp/Job-6.odb,Step-1,Increment      1: Step Time =    1.000,"P-6-1",           229,   41.3499E-03,   193.282E-03,            0.,NA,NA,"",   1.00821E+06,   1.00967E+06,   1.00967E+06
C:/temp/Job-6.odb,Step-1,Increment      1: Step Time =    1.000,"P-6-1",           230,   193.118E-03,   158.419E-03,            0.,NA,NA,"",   998.757E+03,   1.00147E+06,   1.00147E+06
C:/temp/Job-6.odb,Step-1,Increment      1: Step Time =    1.000,"P-6-1",           231,   165.588E-03,   7.12869E-03,            0.,NA,NA,"",   997.945E+03,   997.484E+03,   997.484E+03
C:/temp/Job-6.odb,Step-1,Increment      1: Step Time =    1.000,"P-6-1",           232,   136.031E-03,   12.9073E-03,            0.,NA,NA,"",   990.321E+03,   989.269E+03,   989.269E+03
C:/temp/Job-6.odb,Step-1,Increment      1: Step Time =    1.000,"P-6-1",           233,   187.628E-03,   137.072E-03,            0.,NA,NA,"",   992.562E+03,   1.00219E+06,   1.00219E+06
C:/temp/Job-6.odb,Step-1,Increment      1: Step Time =    1.000,"P-6-1",           234,   172.525E-03,   7.06276E-03,            0.,NA,NA,"",   999.042E+03,   998.751E+03,   998.751E+03
C:/temp/Job-6.odb,Step-1,Increment      1: Step Time =    1.000,"P-6-1",           235,   115.423E-03,   12.1961E-03,            0.,NA,NA,"",   970.277E+03,   971.832E+03,   971.832E+03
C:/temp/Job-6.odb,Step-1,Increment      1: Step Time =    1.000,"P-6-1",           236,   192.921E-03,   165.284E-03,            0.,NA,NA,"",   1.00009E+06,   1.00125E+06,   1.00125E+06
C:/temp/Job-6.odb,Step-1,Increment      1: Step Time =    1.000,"P-6-1",           237,   187.765E-03,   116.693E-03,            0.,NA,NA,"",   975.955E+03,   995.915E+03,   995.915E+03
C:/temp/Job-6.odb,Step-1,Increment      1: Step Time =    1.000,"P-6-1",           238,   11.8649E-03,   83.2362E-03,            0.,NA,NA,"",   811.653E+03,   905.546E+03,   905.546E+03
C:/temp/Job-6.odb,Step-1,Increment      1: Step Time =    1.000,"P-6-1",           239,   82.3663E-03,   188.137E-03,            0.,NA,NA,"",   969.058E+03,   970.800E+03,   970.800E+03
C:/temp/Job-6.odb,Step-1,Increment      1: Step Time =    1.000,"P-6-1",           240,   101.907E-03,   12.0883E-03,            0.,NA,NA,"",   962.908E+03,   965.474E+03,   965.474E+03
C:/temp/Job-6.odb,Step-1,Increment      1: Step Time =    1.000,"P-6-1",           241,   88.3311E-03,   12.0636E-03,            0.,NA,NA,"",   965.783E+03,   967.847E+03,   967.847E+03
C:/temp/Job-6.odb,Step-1,Increment      1: Step Time =    1.000,"P-6-1",           242,   74.6877E-03,   11.9903E-03,            0.,NA,NA,"",   976.838E+03,   977.925E+03,   977.925E+03
C:/temp/Job-6.odb,Step-1,Increment      1: Step Time =    1.000,"P-6-1",           243,   187.779E-03,   103.210E-03,            0.,NA,NA,"",   969.552E+03,   993.145E+03,   993.145E+03
C:/temp/Job-6.odb,Step-1,Increment      1: Step Time =    1.000,"P-6-1",           244,   187.844E-03,   89.7977E-03,            0.,NA,NA,"",   972.323E+03,   994.550E+03,   994.550E+03
C:/temp/Job-6.odb,Step-1,Increment      1: Step Time =    1.000,"P-6-1",           245,   188.010E-03,   76.4407E-03,            0.,NA,NA,"",   981.469E+03,   998.336E+03,   998.336E+03
C:/temp/Job-6.odb,Step-1,Increment      1: Step Time =    1.000,"P-6-1",           246,   68.6906E-03,   188.366E-03,            0.,NA,NA,"",   983.305E+03,   983.778E+03,   983.778E+03
C:/temp/Job-6.odb,Step-1,Increment      1: Step Time =    1.000,"P-6-1",           247,   96.1121E-03,   187.698E-03,            0.,NA,NA,"",   962.664E+03,   965.399E+03,   965.399E+03
C:/temp/Job-6.odb,Step-1,Increment      1: Step Time =    1.000,"P-6-1",           248,   109.773E-03,   187.562E-03,            0.,NA,NA,"",   966.483E+03,   968.689E+03,   968.689E+03
C:/temp/Job-6.odb,Step-1,Increment      1: Step Time =    1.000,"P-6-1",           249,   123.322E-03,   187.613E-03,            0.,NA,NA,"",   977.350E+03,   977.841E+03,   977.841E+03
C:/temp/Job-6.odb,Step-1,Increment      1: Step Time =    1.000,"P-6-1",           250,   12.2344E-03,   69.4898E-03,            0.,NA,NA,"",   840.695E+03,   933.026E+03,   933.026E+03
C:/temp/Job-6.odb,Step-1,Increment      1: Step Time =    1.000,"P-6-1",           251,   11.4568E-03,   96.7477E-03,            0.,NA,NA,"",   796.266E+03,   890.976E+03,   890.976E+03
C:/temp/Job-6.odb,Step-1,Increment      1: Step Time =    1.000,"P-6-1",           252,   11.6596E-03,   110.325E-03,            0.,NA,NA,"",   800.687E+03,   895.105E+03,   895.105E+03
C:/temp/Job-6.odb,Step-1,Increment      1: Step Time =    1.000,"P-6-1",           253,   12.0618E-03,   123.937E-03,            0.,NA,NA,"",   823.306E+03,   916.567E+03,   916.567E+03
C:/temp/Job-6.odb,Step-1,Increment      1: Step Time =    1.000,"P-6-1",           254,   186.306E-03,   6.90922E-03,            0.,NA,NA,"",   999.802E+03,   999.737E+03,   999.737E+03
C:/temp/Job-6.odb,Step-1,Increment      1: Step Time =    1.000,"P-6-1",           255,   192.954E-03,   186.133E-03,            0.,NA,NA,"",   1.00030E+06,   1.00017E+06,   1.00017E+06
C:/temp/Job-6.odb,Step-1,Increment      1: Step Time =    1.000,"P-6-1",           256,   27.6676E-03,   192.965E-03,            0.,NA,NA,"",   1.05377E+06,   1.05833E+06,   1.05833E+06
C:/temp/Job-6.odb,Step-1,Increment      1: Step Time =    1.000,"P-6-1",           257,   34.5256E-03,   193.064E-03,            0.,NA,NA,"",   1.02669E+06,   1.02943E+06,   1.02943E+06
C:/temp/Job-6.odb,Step-1,Increment      1: Step Time =    1.000,"P-6-1",           258,   55.2270E-03,   187.770E-03,            0.,NA,NA,"",   1.00313E+06,   1.00399E+06,   1.00399E+06
C:/temp/Job-6.odb,Step-1,Increment      1: Step Time =    1.000,"P-6-1",           259,   6.77919E-03,   27.5615E-03,            0.,NA,NA,"",   964.761E+03,   1.05697E+06,   1.05697E+06
C:/temp/Job-6.odb,Step-1,Increment      1: Step Time =    1.000,"P-6-1",           260,   6.71563E-03,   34.5116E-03,            0.,NA,NA,"",    927.09E+03,   1.02230E+06,   1.02230E+06
C:/temp/Job-6.odb,Step-1,Increment      1: Step Time =    1.000,"P-6-1",           261,   12.3262E-03,   55.6940E-03,            0.,NA,NA,"",   878.011E+03,   967.775E+03,   967.775E+03
C:/temp/Job-6.odb,Step-1,Increment      1: Step Time =    1.000,"P-6-1",           262,   48.4130E-03,   187.151E-03,            0.,NA,NA,"",   1.01591E+06,   1.01796E+06,   1.01796E+06
C:/temp/Job-6.odb,Step-1,Increment      1: Step Time =    1.000,"P-6-1",           263,   12.6251E-03,   48.7081E-03,            0.,NA,NA,"",   901.462E+03,   988.746E+03,   988.746E+03
C:/temp/Job-6.odb,Step-1,Increment      1: Step Time =    1.000,"P-6-1",           264,   6.79170E-03,   20.5998E-03,            0.,NA,NA,"",   1.01235E+06,   1.10034E+06,   1.10034E+06
C:/temp/Job-6.odb,Step-1,Increment      1: Step Time =    1.000,"P-6-1",           265,   20.7528E-03,   192.960E-03,            0.,NA,NA,"",   1.09167E+06,   1.10075E+06,   1.10075E+06
C:/temp/Job-6.odb,Step-1,Increment      1: Step Time =    1.000,"P-6-1",           266,   6.78731E-03,   13.6659E-03,            0.,NA,NA,"",   1.10581E+06,   1.18240E+06,   1.18240E+06
C:/temp/Job-6.odb,Step-1,Increment      1: Step Time =    1.000,"P-6-1",           267,   13.8185E-03,   193.010E-03,            0.,NA,NA,"",   1.16656E+06,   1.18075E+06,   1.18075E+06
C:/temp/Job-6.odb,Step-1,Increment      1: Step Time =    1.000,"P-6-1",           268,   61.9674E-03,   188.192E-03,            0.,NA,NA,"",   992.517E+03,     992.9E+03,     992.9E+03
C:/temp/Job-6.odb,Step-1,Increment      1: Step Time =    1.000,"P-6-1",           269,   12.2634E-03,   62.6268E-03,            0.,NA,NA,"",   858.286E+03,   949.554E+03,   949.554E+03
C:/temp/Job-6.odb,Step-1,Increment      1: Step Time =    1.000,"P-6-1",           270,   13.6330E-03,   6.70181E-03,            0.,NA,NA,"",   1.16847E+06,   1.18187E+06,   1.18187E+06
C:/temp/Job-6.odb,Step-1,Increment      1: Step Time =    1.000,"P-6-1",           271,   186.576E-03,   20.9029E-03,            0.,NA,NA,"",   1.00142E+06,   1.00130E+06,   1.00130E+06
C:/temp/Job-6.odb,Step-1,Increment      1: Step Time =    1.000,"P-6-1",           272,   187.145E-03,   35.0074E-03,            0.,NA,NA,"",   1.00229E+06,   1.00308E+06,   1.00308E+06
C:/temp/Job-6.odb,Step-1,Increment      1: Step Time =    1.000,"P-6-1",           273,   81.5202E-03,   12.0081E-03,            0.,NA,NA,"",   970.416E+03,   971.987E+03,   971.987E+03
C:/temp/Job-6.odb,Step-1,Increment      1: Step Time =    1.000,"P-6-1",           274,   178.854E-03,   186.165E-03,            0.,NA,NA,"",   1.00119E+06,   1.00079E+06,   1.00079E+06
C:/temp/Job-6.odb,Step-1,Increment      1: Step Time =    1.000,"P-6-1",           275,   164.883E-03,   186.695E-03,            0.,NA,NA,"",   1.00156E+06,   1.00041E+06,   1.00041E+06
C:/temp/Job-6.odb,Step-1,Increment      1: Step Time =    1.000,"P-6-1",           276,   192.835E-03,   172.193E-03,            0.,NA,NA,"",   1.00062E+06,   1.00093E+06,   1.00093E+06
C:/temp/Job-6.odb,Step-1,Increment      1: Step Time =    1.000,"P-6-1",           277,   187.935E-03,   83.1357E-03,            0.,NA,NA,"",   976.362E+03,   996.292E+03,   996.292E+03
C:/temp/Job-6.odb,Step-1,Increment      1: Step Time =    1.000,"P-6-1",           278,   150.842E-03,   14.0709E-03,            0.,NA,NA,"",   1.00022E+06,   998.335E+03,   998.335E+03
C:/temp/Job-6.odb,Step-1,Increment      1: Step Time =    1.000,"P-6-1",           279,   188.096E-03,   62.9320E-03,            0.,NA,NA,"",   992.115E+03,   1.00199E+06,   1.00199E+06
C:/temp/Job-6.odb,Step-1,Increment      1: Step Time =    1.000,"P-6-1",           280,   13.6996E-03,   178.994E-03,            0.,NA,NA,"",   1.04694E+06,   1.10944E+06,   1.10944E+06
C:/temp/Job-6.odb,Step-1,Increment      1: Step Time =    1.000,"P-6-1",           281,   13.0748E-03,   165.098E-03,            0.,NA,NA,"",   956.470E+03,   1.03676E+06,   1.03676E+06
C:/temp/Job-6.odb,Step-1,Increment      1: Step Time =    1.000,"P-6-1",           282,   12.0366E-03,   130.735E-03,            0.,NA,NA,"",   838.593E+03,   931.137E+03,   931.137E+03
C:/temp/Job-6.odb,Step-1,Increment      1: Step Time =    1.000,"P-6-1",           283,   116.527E-03,   187.510E-03,            0.,NA,NA,"",   971.460E+03,   972.833E+03,   972.833E+03
C:/temp/Job-6.odb,Step-1,Increment      1: Step Time =    1.000,"P-6-1",           284,   186.774E-03,   151.015E-03,            0.,NA,NA,"",   1.00069E+06,   1.00430E+06,   1.00430E+06
C:/temp/Job-6.odb,Step-1,Increment      1: Step Time =    1.000,"P-6-1",           285,   136.967E-03,   187.858E-03,            0.,NA,NA,"",   989.583E+03,   988.469E+03,   988.469E+03
C:/temp/Job-6.odb,Step-1,Increment      1: Step Time =    1.000,"P-6-1",           286,   20.3577E-03,   13.3713E-03,            0.,NA,NA,"",   1.10355E+06,   1.12375E+06,   1.12375E+06
C:/temp/Job-6.odb,Step-1,Increment      1: Step Time =    1.000,"P-6-1",           287,   33.8558E-03,   12.8360E-03,            0.,NA,NA,"",   1.04849E+06,   1.05534E+06,   1.05534E+06
C:/temp/Job-6.odb,Step-1,Increment      1: Step Time =    1.000,"P-6-1",           288,   61.1865E-03,   12.0419E-03,            0.,NA,NA,"",   993.306E+03,   993.904E+03,   993.904E+03
C:/temp/Job-6.odb,Step-1,Increment      1: Step Time =    1.000,"P-6-1",           289,   11.8884E-03,   117.143E-03,            0.,NA,NA,"",   810.306E+03,   904.217E+03,   904.217E+03
C:/temp/Job-6.odb,Step-1,Increment      1: Step Time =    1.000,"P-6-1",           290,   108.671E-03,   12.0963E-03,            0.,NA,NA,"",   965.337E+03,   967.605E+03,   967.605E+03
C:/temp/Job-6.odb,Step-1,Increment      1: Step Time =    1.000,"P-6-1",           291,   95.1395E-03,   12.0759E-03,            0.,NA,NA,"",   963.178E+03,   965.590E+03,   965.590E+03
C:/temp/Job-6.odb,Step-1,Increment      1: Step Time =    1.000,"P-6-1",           292,   187.792E-03,   109.956E-03,            0.,NA,NA,"",   971.644E+03,   994.010E+03,   994.010E+03
C:/temp/Job-6.odb,Step-1,Increment      1: Step Time =    1.000,"P-6-1",           293,   187.798E-03,   96.5006E-03,            0.,NA,NA,"",    969.92E+03,   993.428E+03,   993.428E+03
C:/temp/Job-6.odb,Step-1,Increment      1: Step Time =    1.000,"P-6-1",           294,   143.264E-03,   13.4458E-03,            0.,NA,NA,"",   996.193E+03,   994.534E+03,   994.534E+03
C:/temp/Job-6.odb,Step-1,Increment      1: Step Time =    1.000,"P-6-1",           295,   75.4707E-03,   188.368E-03,            0.,NA,NA,"",   975.536E+03,   976.515E+03,   976.515E+03
C:/temp/Job-6.odb,Step-1,Increment      1: Step Time =    1.000,"P-6-1",           296,   89.2586E-03,   187.886E-03,            0.,NA,NA,"",   964.685E+03,   967.051E+03,   967.051E+03
C:/temp/Job-6.odb,Step-1,Increment      1: Step Time =    1.000,"P-6-1",           297,   102.885E-03,   187.665E-03,            0.,NA,NA,"",   963.186E+03,   965.977E+03,   965.977E+03
C:/temp/Job-6.odb,Step-1,Increment      1: Step Time =    1.000,"P-6-1",           298,   187.318E-03,   144.018E-03,            0.,NA,NA,"",   997.248E+03,   1.00355E+06,   1.00355E+06
C:/temp/Job-6.odb,Step-1,Increment      1: Step Time =    1.000,"P-6-1",           299,   12.0795E-03,   76.3873E-03,            0.,NA,NA,"",   825.060E+03,   918.231E+03,   918.231E+03
C:/temp/Job-6.odb,Step-1,Increment      1: Step Time =    1.000,"P-6-1",           300,   11.6041E-03,   90.0302E-03,            0.,NA,NA,"",   801.826E+03,   896.243E+03,   896.243E+03
C:/temp/Job-6.odb,Step-1,Increment      1: Step Time =    1.000,"P-6-1",           301,   11.4222E-03,   103.505E-03,            0.,NA,NA,"",   795.715E+03,   890.427E+03,   890.427E+03
C:/temp/Job-6.odb,Step-1,Increment      1: Step Time =    1.000,"P-6-1",           302,   129.049E-03,   12.5834E-03,            0.,NA,NA,"",   983.543E+03,   983.277E+03,   983.277E+03
C:/temp/Job-6.odb,Step-1,Increment      1: Step Time =    1.000,"P-6-1",           303,   122.191E-03,   12.3563E-03,            0.,NA,NA,"",   976.662E+03,   977.306E+03,   977.306E+03
C:/temp/Job-6.odb,Step-1,Increment      1: Step Time =    1.000,"P-6-1",           304,   67.9472E-03,   11.9788E-03,            0.,NA,NA,"",   984.502E+03,   985.184E+03,   985.184E+03
C:/temp/Job-6.odb,Step-1,Increment      1: Step Time =    1.000,"P-6-1",           305,   54.3938E-03,   12.1108E-03,            0.,NA,NA,"",   1.00325E+06,   1.00421E+06,   1.00421E+06
C:/temp/Job-6.odb,Step-1,Increment      1: Step Time =    1.000,"P-6-1",           306,   47.5330E-03,   12.2601E-03,            0.,NA,NA,"",   1.01519E+06,   1.01712E+06,   1.01712E+06
C:/temp/Job-6.odb,Step-1,Increment      1: Step Time =    1.000,"P-6-1",           307,   40.6867E-03,   12.5146E-03,            0.,NA,NA,"",   1.02928E+06,   1.03328E+06,   1.03328E+06
C:/temp/Job-6.odb,Step-1,Increment      1: Step Time =    1.000,"P-6-1",           308,   27.1180E-03,   13.1432E-03,            0.,NA,NA,"",   1.07078E+06,   1.08336E+06,   1.08336E+06
C:/temp/Job-6.odb,Step-1,Increment      1: Step Time =    1.000,"P-6-1",           309,   187.715E-03,   130.221E-03,            0.,NA,NA,"",   987.178E+03,   1.00040E+06,   1.00040E+06
C:/temp/Job-6.odb,Step-1,Increment      1: Step Time =    1.000,"P-6-1",           310,   187.738E-03,   123.438E-03,            0.,NA,NA,"",   981.474E+03,   998.242E+03,   998.242E+03
C:/temp/Job-6.odb,Step-1,Increment      1: Step Time =    1.000,"P-6-1",           311,   188.088E-03,   69.7346E-03,            0.,NA,NA,"",   986.934E+03,   1.00034E+06,   1.00034E+06
C:/temp/Job-6.odb,Step-1,Increment      1: Step Time =    1.000,"P-6-1",           312,   188.028E-03,   56.0830E-03,            0.,NA,NA,"",   996.503E+03,   1.00314E+06,   1.00314E+06
C:/temp/Job-6.odb,Step-1,Increment      1: Step Time =    1.000,"P-6-1",           313,   187.827E-03,   49.1310E-03,            0.,NA,NA,"",   999.713E+03,   1.00369E+06,   1.00369E+06
C:/temp/Job-6.odb,Step-1,Increment      1: Step Time =    1.000,"P-6-1",           314,   187.501E-03,   42.1026E-03,            0.,NA,NA,"",   1.00159E+06,   1.00361E+06,   1.00361E+06
C:/temp/Job-6.odb,Step-1,Increment      1: Step Time =    1.000,"P-6-1",           315,   186.795E-03,   27.9551E-03,            0.,NA,NA,"",   1.00212E+06,   1.00224E+06,   1.00224E+06
C:/temp/Job-6.odb,Step-1,Increment      1: Step Time =    1.000,"P-6-1",           316,   179.417E-03,   6.99237E-03,            0.,NA,NA,"",   999.545E+03,   999.410E+03,   999.410E+03
C:/temp/Job-6.odb,Step-1,Increment      1: Step Time =    1.000,"P-6-1",           317,   130.110E-03,   187.796E-03,            0.,NA,NA,"",   983.684E+03,   983.289E+03,   983.289E+03
C:/temp/Job-6.odb,Step-1,Increment      1: Step Time =    1.000,"P-6-1",           318,   143.858E-03,   187.758E-03,            0.,NA,NA,"",   994.486E+03,   993.007E+03,   993.007E+03
C:/temp/Job-6.odb,Step-1,Increment      1: Step Time =    1.000,"P-6-1",           319,   150.823E-03,   187.483E-03,            0.,NA,NA,"",    998.19E+03,   996.623E+03,   996.623E+03
C:/temp/Job-6.odb,Step-1,Increment      1: Step Time =    1.000,"P-6-1",           320,   157.831E-03,   187.085E-03,            0.,NA,NA,"",   1.00052E+06,   999.069E+03,   999.069E+03
C:/temp/Job-6.odb,Step-1,Increment      1: Step Time =    1.000,"P-6-1",           321,   171.836E-03,   186.342E-03,            0.,NA,NA,"",   1.00165E+06,   1.00087E+06,   1.00087E+06
C:/temp/Job-6.odb,Step-1,Increment      1: Step Time =    1.000,"P-6-1",           322,   192.852E-03,   179.150E-03,            0.,NA,NA,"",   1.00062E+06,   1.00055E+06,   1.00055E+06
C:/temp/Job-6.odb,Step-1,Increment      1: Step Time =    1.000,"P-6-1",           323,   11.9613E-03,   137.557E-03,            0.,NA,NA,"",   856.523E+03,   948.080E+03,   948.080E+03
C:/temp/Job-6.odb,Step-1,Increment      1: Step Time =    1.000,"P-6-1",           324,   11.9955E-03,   144.392E-03,            0.,NA,NA,"",   876.515E+03,   966.708E+03,   966.708E+03
C:/temp/Job-6.odb,Step-1,Increment      1: Step Time =    1.000,"P-6-1",           325,   12.2317E-03,   151.262E-03,            0.,NA,NA,"",   899.220E+03,   987.316E+03,   987.316E+03
C:/temp/Job-6.odb,Step-1,Increment      1: Step Time =    1.000,"P-6-1",           326,   12.6311E-03,   158.155E-03,            0.,NA,NA,"",   924.988E+03,   1.00997E+06,   1.00997E+06
C:/temp/Job-6.odb,Step-1,Increment      1: Step Time =    1.000,"P-6-1",           327,   13.4696E-03,   172.016E-03,            0.,NA,NA,"",   995.340E+03,   1.06869E+06,   1.06869E+06
C:/temp/Job-6.odb,Step-1,Increment      1: Step Time =    1.000,"P-6-1",           328,   186.407E-03,   13.8924E-03,            0.,NA,NA,"",   1.00054E+06,   1.00040E+06,   1.00040E+06
C:/temp/Job-6.odb,Step-1,Increment      1: Step Time =    1.000,"P-6-1",           329,   185.886E-03,   186.086E-03,            0.,NA,NA,"",   1.00063E+06,   1.00047E+06,   1.00047E+06
C:/temp/Job-6.odb,Step-1,Increment      1: Step Time =    1.000,"P-6-1",           330,   13.8133E-03,   185.998E-03,            0.,NA,NA,"",   1.12848E+06,   1.16925E+06,   1.16925E+06
C:/temp/Job-6.odb,Step-1,Increment      1: Step Time =    1.000,"P-6-1",           331,   186.119E-03,   157.950E-03,            0.,NA,NA,"",   1.00255E+06,   1.00428E+06,   1.00428E+06
C:/temp/Job-6.odb,Step-1,Increment      1: Step Time =    1.000,"P-6-1",           332,   158.429E-03,   14.1921E-03,            0.,NA,NA,"",   1.00195E+06,   1.00027E+06,   1.00027E+06
C:/temp/Job-6.odb,Step-1,Increment      1: Step Time =    1.000,"P-6-1",           333,   41.5915E-03,   186.450E-03,            0.,NA,NA,"",   1.03043E+06,   1.03484E+06,   1.03484E+06
C:/temp/Job-6.odb,Step-1,Increment      1: Step Time =    1.000,"P-6-1",           334,   13.1234E-03,   41.7117E-03,            0.,NA,NA,"",   928.165E+03,   1.01193E+06,   1.01193E+06
C:/temp/Job-6.odb,Step-1,Increment      1: Step Time =    1.000,"P-6-1",           335,   13.5829E-03,   13.5442E-03,            0.,NA,NA,"",   1.13349E+06,   1.17310E+06,   1.17310E+06
C:/temp/Job-6.odb,Step-1,Increment      1: Step Time =    1.000,"P-6-1",           336,   20.8166E-03,   185.823E-03,            0.,NA,NA,"",   1.09964E+06,   1.12121E+06,   1.12121E+06
C:/temp/Job-6.odb,Step-1,Increment      1: Step Time =    1.000,"P-6-1",           337,   13.6216E-03,   20.5238E-03,            0.,NA,NA,"",   1.05080E+06,   1.11231E+06,   1.11231E+06
C:/temp/Job-6.odb,Step-1,Increment      1: Step Time =    1.000,"P-6-1",           338,   13.6822E-03,   27.6236E-03,            0.,NA,NA,"",   997.830E+03,   1.07018E+06,   1.07018E+06
C:/temp/Job-6.odb,Step-1,Increment      1: Step Time =    1.000,"P-6-1",           339,   27.8444E-03,   185.725E-03,            0.,NA,NA,"",   1.06940E+06,   1.08279E+06,   1.08279E+06
C:/temp/Job-6.odb,Step-1,Increment      1: Step Time =    1.000,"P-6-1",           340,   172.620E-03,   14.2069E-03,            0.,NA,NA,"",   1.00185E+06,   1.00107E+06,   1.00107E+06
C:/temp/Job-6.odb,Step-1,Increment      1: Step Time =    1.000,"P-6-1",           341,   185.503E-03,   171.871E-03,            0.,NA,NA,"",   1.00275E+06,   1.00276E+06,   1.00276E+06
C:/temp/Job-6.odb,Step-1,Increment      1: Step Time =    1.000,"P-6-1",           342,   179.531E-03,   14.0647E-03,            0.,NA,NA,"",   1.00118E+06,   1.00080E+06,   1.00080E+06
C:/temp/Job-6.odb,Step-1,Increment      1: Step Time =    1.000,"P-6-1",           343,   185.638E-03,   178.992E-03,            0.,NA,NA,"",   1.00179E+06,   1.00159E+06,   1.00159E+06
C:/temp/Job-6.odb,Step-1,Increment      1: Step Time =    1.000,"P-6-1",           344,   109.260E-03,   181.331E-03,            0.,NA,NA,"",   981.507E+03,   986.043E+03,   986.043E+03
C:/temp/Job-6.odb,Step-1,Increment      1: Step Time =    1.000,"P-6-1",           345,   94.4671E-03,   18.1439E-03,            0.,NA,NA,"",   979.771E+03,   984.584E+03,   984.584E+03
C:/temp/Job-6.odb,Step-1,Increment      1: Step Time =    1.000,"P-6-1",           346,   17.2173E-03,   110.158E-03,            0.,NA,NA,"",   810.428E+03,   900.042E+03,   900.042E+03
C:/temp/Job-6.odb,Step-1,Increment      1: Step Time =    1.000,"P-6-1",           347,   101.204E-03,   18.1544E-03,            0.,NA,NA,"",   978.358E+03,   983.507E+03,   983.507E+03
C:/temp/Job-6.odb,Step-1,Increment      1: Step Time =    1.000,"P-6-1",           348,   181.514E-03,   96.5058E-03,            0.,NA,NA,"",   968.121E+03,   986.601E+03,   986.601E+03
C:/temp/Job-6.odb,Step-1,Increment      1: Step Time =    1.000,"P-6-1",           349,   107.862E-03,   18.1237E-03,            0.,NA,NA,"",   979.879E+03,   984.586E+03,   984.586E+03
C:/temp/Job-6.odb,Step-1,Increment      1: Step Time =    1.000,"P-6-1",           350,   181.525E-03,   103.154E-03,            0.,NA,NA,"",   967.339E+03,   985.976E+03,   985.976E+03
C:/temp/Job-6.odb,Step-1,Increment      1: Step Time =    1.000,"P-6-1",           351,   181.602E-03,   129.799E-03,            0.,NA,NA,"",   991.571E+03,   1.00064E+06,   1.00064E+06
C:/temp/Job-6.odb,Step-1,Increment      1: Step Time =    1.000,"P-6-1",           352,   114.470E-03,   18.3222E-03,            0.,NA,NA,"",   984.407E+03,   987.679E+03,   987.679E+03
C:/temp/Job-6.odb,Step-1,Increment      1: Step Time =    1.000,"P-6-1",           353,   181.670E-03,   136.522E-03,            0.,NA,NA,"",   998.069E+03,   1.00415E+06,   1.00415E+06
C:/temp/Job-6.odb,Step-1,Increment      1: Step Time =    1.000,"P-6-1",           354,   17.8167E-03,   116.933E-03,            0.,NA,NA,"",   822.370E+03,   910.665E+03,   910.665E+03
C:/temp/Job-6.odb,Step-1,Increment      1: Step Time =    1.000,"P-6-1",           355,   181.612E-03,   109.793E-03,            0.,NA,NA,"",   970.169E+03,   987.643E+03,   987.643E+03
C:/temp/Job-6.odb,Step-1,Increment      1: Step Time =    1.000,"P-6-1",           356,   87.7046E-03,   18.0510E-03,            0.,NA,NA,"",   983.312E+03,   987.408E+03,   987.408E+03
C:/temp/Job-6.odb,Step-1,Increment      1: Step Time =    1.000,"P-6-1",           357,   181.608E-03,   89.8907E-03,            0.,NA,NA,"",   971.614E+03,   988.854E+03,   988.854E+03
C:/temp/Job-6.odb,Step-1,Increment      1: Step Time =    1.000,"P-6-1",           358,   116.017E-03,   181.000E-03,            0.,NA,NA,"",   986.641E+03,   989.624E+03,   989.624E+03
C:/temp/Job-6.odb,Step-1,Increment      1: Step Time =    1.000,"P-6-1",           359,   181.521E-03,   123.058E-03,            0.,NA,NA,"",   984.286E+03,   996.417E+03,   996.417E+03
C:/temp/Job-6.odb,Step-1,Increment      1: Step Time =    1.000,"P-6-1",           360,   181.521E-03,   116.402E-03,            0.,NA,NA,"",   976.585E+03,   991.673E+03,   991.673E+03
C:/temp/Job-6.odb,Step-1,Increment      1: Step Time =    1.000,"P-6-1",           361,   121.112E-03,   18.5326E-03,            0.,NA,NA,"",   990.432E+03,   991.940E+03,   991.940E+03
C:/temp/Job-6.odb,Step-1,Increment      1: Step Time =    1.000,"P-6-1",           362,   127.945E-03,   18.7743E-03,            0.,NA,NA,"",   996.782E+03,   996.502E+03,   996.502E+03
C:/temp/Job-6.odb,Step-1,Increment      1: Step Time =    1.000,"P-6-1",           363,   80.9458E-03,   17.9394E-03,            0.,NA,NA,"",   988.938E+03,   992.062E+03,   992.062E+03
C:/temp/Job-6.odb,Step-1,Increment      1: Step Time =    1.000,"P-6-1",           364,   102.420E-03,   181.573E-03,            0.,NA,NA,"",   978.715E+03,   984.206E+03,   984.206E+03
C:/temp/Job-6.odb,Step-1,Increment      1: Step Time =    1.000,"P-6-1",           365,   134.862E-03,   19.1414E-03,            0.,NA,NA,"",   1.00252E+06,   1.00063E+06,   1.00063E+06
C:/temp/Job-6.odb,Step-1,Increment      1: Step Time =    1.000,"P-6-1",           366,   181.769E-03,   83.3444E-03,            0.,NA,NA,"",   977.275E+03,   992.387E+03,   992.387E+03
C:/temp/Job-6.odb,Step-1,Increment      1: Step Time =    1.000,"P-6-1",           367,   16.7571E-03,   103.500E-03,            0.,NA,NA,"",   804.282E+03,   894.656E+03,   894.656E+03
C:/temp/Job-6.odb,Step-1,Increment      1: Step Time =    1.000,"P-6-1",           368,   95.7313E-03,   181.416E-03,            0.,NA,NA,"",   979.073E+03,   984.738E+03,   984.738E+03
C:/temp/Job-6.odb,Step-1,Increment      1: Step Time =    1.000,"P-6-1",           369,   16.8917E-03,   97.0297E-03,            0.,NA,NA,"",   804.982E+03,   895.337E+03,   895.337E+03
C:/temp/Job-6.odb,Step-1,Increment      1: Step Time =    1.000,"P-6-1",           370,   88.8013E-03,   181.856E-03,            0.,NA,NA,"",   982.021E+03,   986.830E+03,   986.830E+03
C:/temp/Job-6.odb,Step-1,Increment      1: Step Time =    1.000,"P-6-1",           371,   17.2597E-03,   90.4962E-03,            0.,NA,NA,"",   811.508E+03,   901.126E+03,   901.126E+03
C:/temp/Job-6.odb,Step-1,Increment      1: Step Time =    1.000,"P-6-1",           372,   27.2183E-03,   20.0158E-03,            0.,NA,NA,"",   1.06478E+06,   1.08764E+06,   1.08764E+06
C:/temp/Job-6.odb,Step-1,Increment      1: Step Time =    1.000,"P-6-1",           373,   81.8854E-03,   182.473E-03,            0.,NA,NA,"",   987.296E+03,   990.475E+03,   990.475E+03
C:/temp/Job-6.odb,Step-1,Increment      1: Step Time =    1.000,"P-6-1",           374,   20.4455E-03,   171.484E-03,            0.,NA,NA,"",   1.01856E+06,   1.07279E+06,   1.07279E+06
C:/temp/Job-6.odb,Step-1,Increment      1: Step Time =    1.000,"P-6-1",           375,   180.058E-03,   28.4073E-03,            0.,NA,NA,"",   1.00528E+06,   1.00457E+06,   1.00457E+06
C:/temp/Job-6.odb,Step-1,Increment      1: Step Time =    1.000,"P-6-1",           376,   171.178E-03,   179.225E-03,            0.,NA,NA,"",   1.00587E+06,   1.00427E+06,   1.00427E+06
C:/temp/Job-6.odb,Step-1,Increment      1: Step Time =    1.000,"P-6-1",           377,   33.9316E-03,   19.3925E-03,            0.,NA,NA,"",   1.05322E+06,   1.06736E+06,   1.06736E+06
C:/temp/Job-6.odb,Step-1,Increment      1: Step Time =    1.000,"P-6-1",           378,   17.6814E-03,   83.7926E-03,            0.,NA,NA,"",   823.307E+03,   911.559E+03,   911.559E+03
C:/temp/Job-6.odb,Step-1,Increment      1: Step Time =    1.000,"P-6-1",           379,   75.1045E-03,   182.885E-03,            0.,NA,NA,"",   993.711E+03,   995.580E+03,   995.580E+03
C:/temp/Job-6.odb,Step-1,Increment      1: Step Time =    1.000,"P-6-1",           380,   19.7285E-03,   164.460E-03,            0.,NA,NA,"",   982.252E+03,   1.04635E+06,   1.04635E+06
C:/temp/Job-6.odb,Step-1,Increment      1: Step Time =    1.000,"P-6-1",           381,   180.687E-03,   35.6078E-03,            0.,NA,NA,"",   1.00662E+06,   1.00618E+06,   1.00618E+06
C:/temp/Job-6.odb,Step-1,Increment      1: Step Time =    1.000,"P-6-1",           382,   164.108E-03,   179.881E-03,            0.,NA,NA,"",   1.00743E+06,   1.00508E+06,   1.00508E+06
C:/temp/Job-6.odb,Step-1,Increment      1: Step Time =    1.000,"P-6-1",           383,   40.6794E-03,   18.7282E-03,            0.,NA,NA,"",   1.04242E+06,   1.05006E+06,   1.05006E+06
C:/temp/Job-6.odb,Step-1,Increment      1: Step Time =    1.000,"P-6-1",           384,   18.1092E-03,   76.9045E-03,            0.,NA,NA,"",   839.652E+03,   926.152E+03,   926.152E+03
C:/temp/Job-6.odb,Step-1,Increment      1: Step Time =    1.000,"P-6-1",           385,   68.5498E-03,   182.870E-03,            0.,NA,NA,"",   1.00174E+06,   1.00276E+06,   1.00276E+06
C:/temp/Job-6.odb,Step-1,Increment      1: Step Time =    1.000,"P-6-1",           386,   18.8753E-03,   157.513E-03,            0.,NA,NA,"",   949.365E+03,   1.02116E+06,   1.02116E+06
C:/temp/Job-6.odb,Step-1,Increment      1: Step Time =    1.000,"P-6-1",           387,   156.996E-03,   180.695E-03,            0.,NA,NA,"",   1.00797E+06,   1.00509E+06,   1.00509E+06
C:/temp/Job-6.odb,Step-1,Increment      1: Step Time =    1.000,"P-6-1",           388,   181.379E-03,   42.7853E-03,            0.,NA,NA,"",   1.00683E+06,   1.00718E+06,   1.00718E+06
C:/temp/Job-6.odb,Step-1,Increment      1: Step Time =    1.000,"P-6-1",           389,   18.3959E-03,   69.9407E-03,            0.,NA,NA,"",   858.130E+03,   942.780E+03,   942.780E+03
C:/temp/Job-6.odb,Step-1,Increment      1: Step Time =    1.000,"P-6-1",           390,   62.1074E-03,   182.544E-03,            0.,NA,NA,"",   1.01029E+06,   1.01118E+06,   1.01118E+06
C:/temp/Job-6.odb,Step-1,Increment      1: Step Time =    1.000,"P-6-1",           391,   149.987E-03,   181.408E-03,            0.,NA,NA,"",   1.00702E+06,   1.00396E+06,   1.00396E+06
C:/temp/Job-6.odb,Step-1,Increment      1: Step Time =    1.000,"P-6-1",           392,   181.910E-03,   49.8231E-03,            0.,NA,NA,"",   1.00535E+06,   1.00715E+06,   1.00715E+06
C:/temp/Job-6.odb,Step-1,Increment      1: Step Time =    1.000,"P-6-1",           393,   18.1539E-03,   150.718E-03,            0.,NA,NA,"",   921.843E+03,    998.99E+03,    998.99E+03
C:/temp/Job-6.odb,Step-1,Increment      1: Step Time =    1.000,"P-6-1",           394,   47.4303E-03,   18.2513E-03,            0.,NA,NA,"",   1.03099E+06,   1.03519E+06,   1.03519E+06
C:/temp/Job-6.odb,Step-1,Increment      1: Step Time =    1.000,"P-6-1",           395,   122.912E-03,   181.373E-03,            0.,NA,NA,"",   992.095E+03,   993.170E+03,   993.170E+03
C:/temp/Job-6.odb,Step-1,Increment      1: Step Time =    1.000,"P-6-1",           396,   18.1399E-03,   123.750E-03,            0.,NA,NA,"",   837.839E+03,   924.577E+03,   924.577E+03
C:/temp/Job-6.odb,Step-1,Increment      1: Step Time =    1.000,"P-6-1",           397,   181.952E-03,   76.7825E-03,            0.,NA,NA,"",   984.096E+03,   996.505E+03,   996.505E+03
C:/temp/Job-6.odb,Step-1,Increment      1: Step Time =    1.000,"P-6-1",           398,   18.3486E-03,   63.0329E-03,            0.,NA,NA,"",   877.398E+03,   960.061E+03,   960.061E+03
C:/temp/Job-6.odb,Step-1,Increment      1: Step Time =    1.000,"P-6-1",           399,   74.1828E-03,   17.8839E-03,            0.,NA,NA,"",   995.919E+03,   998.116E+03,   998.116E+03
C:/temp/Job-6.odb,Step-1,Increment      1: Step Time =    1.000,"P-6-1",           400,   55.6799E-03,   181.994E-03,            0.,NA,NA,"",   1.01992E+06,   1.02167E+06,   1.02167E+06
C:/temp/Job-6.odb,Step-1,Increment      1: Step Time =    1.000,"P-6-1",           401,   143.115E-03,   181.866E-03,            0.,NA,NA,"",   1.00458E+06,   1.00182E+06,   1.00182E+06
C:/temp/Job-6.odb,Step-1,Increment      1: Step Time =    1.000,"P-6-1",           402,   182.193E-03,   56.7258E-03,            0.,NA,NA,"",   1.00220E+06,   1.00608E+06,   1.00608E+06
C:/temp/Job-6.odb,Step-1,Increment      1: Step Time =    1.000,"P-6-1",           403,   17.7426E-03,   144.017E-03,            0.,NA,NA,"",   897.766E+03,   978.503E+03,   978.503E+03
C:/temp/Job-6.odb,Step-1,Increment      1: Step Time =    1.000,"P-6-1",           404,   54.2190E-03,   18.0487E-03,            0.,NA,NA,"",   1.02127E+06,   1.02346E+06,   1.02346E+06
C:/temp/Job-6.odb,Step-1,Increment      1: Step Time =    1.000,"P-6-1",           405,   181.285E-03,   143.305E-03,            0.,NA,NA,"",   1.00337E+06,   1.00673E+06,   1.00673E+06
C:/temp/Job-6.odb,Step-1,Increment      1: Step Time =    1.000,"P-6-1",           406,   142.005E-03,   19.7227E-03,            0.,NA,NA,"",   1.00751E+06,   1.00446E+06,   1.00446E+06
C:/temp/Job-6.odb,Step-1,Increment      1: Step Time =    1.000,"P-6-1",           407,   18.2556E-03,   56.2374E-03,            0.,NA,NA,"",   899.202E+03,   979.180E+03,   979.180E+03
C:/temp/Job-6.odb,Step-1,Increment      1: Step Time =    1.000,"P-6-1",           408,   49.0940E-03,   180.902E-03,            0.,NA,NA,"",   1.03047E+06,   1.03451E+06,   1.03451E+06
C:/temp/Job-6.odb,Step-1,Increment      1: Step Time =    1.000,"P-6-1",           409,   136.370E-03,   182.011E-03,            0.,NA,NA,"",   1.00127E+06,   999.164E+03,   999.164E+03
C:/temp/Job-6.odb,Step-1,Increment      1: Step Time =    1.000,"P-6-1",           410,   182.235E-03,   63.4846E-03,            0.,NA,NA,"",   997.381E+03,   1.00384E+06,   1.00384E+06
C:/temp/Job-6.odb,Step-1,Increment      1: Step Time =    1.000,"P-6-1",           411,   17.7589E-03,   137.368E-03,            0.,NA,NA,"",   876.216E+03,   959.291E+03,   959.291E+03
C:/temp/Job-6.odb,Step-1,Increment      1: Step Time =    1.000,"P-6-1",           412,   60.9357E-03,   18.0198E-03,            0.,NA,NA,"",   1.01246E+06,   1.01384E+06,   1.01384E+06
C:/temp/Job-6.odb,Step-1,Increment      1: Step Time =    1.000,"P-6-1",           413,   18.7724E-03,   49.3875E-03,            0.,NA,NA,"",   924.525E+03,   1.00039E+06,   1.00039E+06
C:/temp/Job-6.odb,Step-1,Increment      1: Step Time =    1.000,"P-6-1",           414,   129.687E-03,   181.827E-03,            0.,NA,NA,"",   997.146E+03,   996.289E+03,   996.289E+03
C:/temp/Job-6.odb,Step-1,Increment      1: Step Time =    1.000,"P-6-1",           415,   182.131E-03,   70.1806E-03,            0.,NA,NA,"",   991.077E+03,   1.00049E+06,   1.00049E+06
C:/temp/Job-6.odb,Step-1,Increment      1: Step Time =    1.000,"P-6-1",           416,   18.0230E-03,   130.594E-03,            0.,NA,NA,"",   856.159E+03,   941.112E+03,   941.112E+03
C:/temp/Job-6.odb,Step-1,Increment      1: Step Time =    1.000,"P-6-1",           417,   67.5662E-03,   17.9378E-03,            0.,NA,NA,"",   1.00409E+06,   1.00559E+06,   1.00559E+06
C:/temp/Job-6.odb,Step-1,Increment      1: Step Time =    1.000,"P-6-1",           418,   150.111E-03,   21.3364E-03,            0.,NA,NA,"",   1.01199E+06,   1.00809E+06,   1.00809E+06
C:/temp/Job-6.odb,Step-1,Increment      1: Step Time =    1.000,"P-6-1",           419,   180.281E-03,   150.114E-03,            0.,NA,NA,"",   1.00722E+06,   1.00831E+06,   1.00831E+06
C:/temp/Job-6.odb,Step-1,Increment      1: Step Time =    1.000,"P-6-1",           420,   13.5808E-03,   34.7216E-03,            0.,NA,NA,"",   959.659E+03,   1.03866E+06,   1.03866E+06
C:/temp/Job-6.odb,Step-1,Increment      1: Step Time =    1.000,"P-6-1",           421,   34.7690E-03,   185.893E-03,            0.,NA,NA,"",   1.04876E+06,   1.05622E+06,   1.05622E+06
C:/temp/Job-6.odb,Step-1,Increment      1: Step Time =    1.000,"P-6-1",           422,   165.635E-03,   14.2877E-03,            0.,NA,NA,"",   1.00220E+06,   1.00096E+06,   1.00096E+06
C:/temp/Job-6.odb,Step-1,Increment      1: Step Time =    1.000,"P-6-1",           423,   185.602E-03,   164.825E-03,            0.,NA,NA,"",   1.00307E+06,   1.00368E+06,   1.00368E+06
C:/temp/Job-6.odb,Step-1,Increment      1: Step Time =    1.000,"P-6-1",           424,   20.7806E-03,   178.613E-03,            0.,NA,NA,"",   1.06477E+06,   1.10424E+06,   1.10424E+06
C:/temp/Job-6.odb,Step-1,Increment      1: Step Time =    1.000,"P-6-1",           425,   179.692E-03,   21.2219E-03,            0.,NA,NA,"",   1.00332E+06,   1.00268E+06,   1.00268E+06
C:/temp/Job-6.odb,Step-1,Increment      1: Step Time =    1.000,"P-6-1",           426,   178.367E-03,   178.942E-03,            0.,NA,NA,"",   1.00381E+06,   1.00300E+06,   1.00300E+06
C:/temp/Job-6.odb,Step-1,Increment      1: Step Time =    1.000,"P-6-1",           427,   28.0421E-03,   178.225E-03,            0.,NA,NA,"",   1.05957E+06,   1.08423E+06,   1.08423E+06
C:/temp/Job-6.odb,Step-1,Increment      1: Step Time =    1.000,"P-6-1",           428,   172.678E-03,   21.5717E-03,            0.,NA,NA,"",   1.00591E+06,    1.0044E+06,    1.0044E+06
C:/temp/Job-6.odb,Step-1,Increment      1: Step Time =    1.000,"P-6-1",           429,   177.866E-03,   171.514E-03,            0.,NA,NA,"",   1.00690E+06,   1.00569E+06,   1.00569E+06
C:/temp/Job-6.odb,Step-1,Increment      1: Step Time =    1.000,"P-6-1",           430,   178.920E-03,   156.999E-03,            0.,NA,NA,"",   1.00930E+06,   1.00881E+06,   1.00881E+06
C:/temp/Job-6.odb,Step-1,Increment      1: Step Time =    1.000,"P-6-1",           431,   42.3485E-03,   179.480E-03,            0.,NA,NA,"",   1.04167E+06,   1.04978E+06,   1.04978E+06
C:/temp/Job-6.odb,Step-1,Increment      1: Step Time =    1.000,"P-6-1",           432,   19.8078E-03,   42.4116E-03,            0.,NA,NA,"",   953.774E+03,   1.02339E+06,   1.02339E+06
C:/temp/Job-6.odb,Step-1,Increment      1: Step Time =    1.000,"P-6-1",           433,   175.985E-03,   136.071E-03,            0.,NA,NA,"",   1.00447E+06,   1.00671E+06,   1.00671E+06
C:/temp/Job-6.odb,Step-1,Increment      1: Step Time =    1.000,"P-6-1",           434,   175.635E-03,   142.331E-03,            0.,NA,NA,"",   1.01013E+06,   1.01027E+06,   1.01027E+06
C:/temp/Job-6.odb,Step-1,Increment      1: Step Time =    1.000,"P-6-1",           435,   140.093E-03,   25.8439E-03,            0.,NA,NA,"",   1.02024E+06,   1.01552E+06,   1.01552E+06
C:/temp/Job-6.odb,Step-1,Increment      1: Step Time =    1.000,"P-6-1",           436,   20.4830E-03,   20.3824E-03,            0.,NA,NA,"",   1.07136E+06,   1.10869E+06,   1.10869E+06
C:/temp/Job-6.odb,Step-1,Increment      1: Step Time =    1.000,"P-6-1",           437,   73.7614E-03,   23.6798E-03,            0.,NA,NA,"",   1.01263E+06,   1.01622E+06,   1.01622E+06
C:/temp/Job-6.odb,Step-1,Increment      1: Step Time =    1.000,"P-6-1",           438,   24.0747E-03,   130.672E-03,            0.,NA,NA,"",   876.163E+03,   952.190E+03,   952.190E+03
C:/temp/Job-6.odb,Step-1,Increment      1: Step Time =    1.000,"P-6-1",           439,   24.5153E-03,   123.516E-03,            0.,NA,NA,"",   854.241E+03,   932.661E+03,   932.661E+03
C:/temp/Job-6.odb,Step-1,Increment      1: Step Time =    1.000,"P-6-1",           440,   80.4069E-03,   23.7873E-03,            0.,NA,NA,"",   1.00441E+06,   1.00945E+06,   1.00945E+06
C:/temp/Job-6.odb,Step-1,Increment      1: Step Time =    1.000,"P-6-1",           441,   129.506E-03,   176.059E-03,            0.,NA,NA,"",   1.01062E+06,   1.00904E+06,   1.00904E+06
C:/temp/Job-6.odb,Step-1,Increment      1: Step Time =    1.000,"P-6-1",           442,   122.912E-03,   175.313E-03,            0.,NA,NA,"",   1.00676E+06,   1.00812E+06,   1.00812E+06
C:/temp/Job-6.odb,Step-1,Increment      1: Step Time =    1.000,"P-6-1",           443,   176.158E-03,   70.5539E-03,            0.,NA,NA,"",   995.692E+03,   1.00089E+06,   1.00089E+06
C:/temp/Job-6.odb,Step-1,Increment      1: Step Time =    1.000,"P-6-1",           444,   175.792E-03,   77.0573E-03,            0.,NA,NA,"",   985.889E+03,   993.996E+03,   993.996E+03
C:/temp/Job-6.odb,Step-1,Increment      1: Step Time =    1.000,"P-6-1",           445,   23.8791E-03,   56.8498E-03,            0.,NA,NA,"",   920.363E+03,   990.104E+03,   990.104E+03
C:/temp/Job-6.odb,Step-1,Increment      1: Step Time =    1.000,"P-6-1",           446,   24.6116E-03,   63.3439E-03,            0.,NA,NA,"",   898.542E+03,   971.240E+03,   971.240E+03
C:/temp/Job-6.odb,Step-1,Increment      1: Step Time =    1.000,"P-6-1",           447,   56.4762E-03,   176.606E-03,            0.,NA,NA,"",   1.03170E+06,   1.03492E+06,   1.03492E+06
C:/temp/Job-6.odb,Step-1,Increment      1: Step Time =    1.000,"P-6-1",           448,   62.3838E-03,   176.876E-03,            0.,NA,NA,"",   1.02475E+06,   1.02663E+06,   1.02663E+06
C:/temp/Job-6.odb,Step-1,Increment      1: Step Time =    1.000,"P-6-1",           449,   24.8514E-03,   70.5571E-03,            0.,NA,NA,"",   876.769E+03,   952.326E+03,   952.326E+03
C:/temp/Job-6.odb,Step-1,Increment      1: Step Time =    1.000,"P-6-1",           450,   68.5217E-03,   177.555E-03,            0.,NA,NA,"",   1.01747E+06,   1.01928E+06,   1.01928E+06
C:/temp/Job-6.odb,Step-1,Increment      1: Step Time =    1.000,"P-6-1",           451,   24.1669E-03,   77.7523E-03,            0.,NA,NA,"",   853.656E+03,   932.593E+03,   932.593E+03
C:/temp/Job-6.odb,Step-1,Increment      1: Step Time =    1.000,"P-6-1",           452,   22.4528E-03,   109.688E-03,            0.,NA,NA,"",   818.095E+03,   902.790E+03,   902.790E+03
C:/temp/Job-6.odb,Step-1,Increment      1: Step Time =    1.000,"P-6-1",           453,   108.319E-03,   175.294E-03,            0.,NA,NA,"",   993.267E+03,   1.00077E+06,   1.00077E+06
C:/temp/Job-6.odb,Step-1,Increment      1: Step Time =    1.000,"P-6-1",           454,   22.8860E-03,   91.3198E-03,            0.,NA,NA,"",   820.044E+03,   904.239E+03,   904.239E+03
C:/temp/Job-6.odb,Step-1,Increment      1: Step Time =    1.000,"P-6-1",           455,   175.186E-03,   89.9248E-03,            0.,NA,NA,"",   967.914E+03,   981.138E+03,   981.138E+03
C:/temp/Job-6.odb,Step-1,Increment      1: Step Time =    1.000,"P-6-1",           456,   23.4454E-03,   84.6844E-03,            0.,NA,NA,"",   833.499E+03,   915.576E+03,   915.576E+03
C:/temp/Job-6.odb,Step-1,Increment      1: Step Time =    1.000,"P-6-1",           457,   74.6123E-03,   177.750E-03,            0.,NA,NA,"",   1.00931E+06,   1.01220E+06,   1.01220E+06
C:/temp/Job-6.odb,Step-1,Increment      1: Step Time =    1.000,"P-6-1",           458,   87.9204E-03,   175.953E-03,            0.,NA,NA,"",   997.424E+03,   1.00482E+06,   1.00482E+06
C:/temp/Job-6.odb,Step-1,Increment      1: Step Time =    1.000,"P-6-1",           459,   23.8418E-03,   116.417E-03,            0.,NA,NA,"",   833.264E+03,   914.992E+03,   914.992E+03
C:/temp/Job-6.odb,Step-1,Increment      1: Step Time =    1.000,"P-6-1",           460,   93.8121E-03,   24.2433E-03,            0.,NA,NA,"",   993.595E+03,   1.00158E+06,   1.00158E+06
C:/temp/Job-6.odb,Step-1,Increment      1: Step Time =    1.000,"P-6-1",           461,   115.373E-03,   173.789E-03,            0.,NA,NA,"",   1.00259E+06,   1.00833E+06,   1.00833E+06
C:/temp/Job-6.odb,Step-1,Increment      1: Step Time =    1.000,"P-6-1",           462,   22.2319E-03,   97.6832E-03,            0.,NA,NA,"",   812.670E+03,   898.209E+03,   898.209E+03
C:/temp/Job-6.odb,Step-1,Increment      1: Step Time =    1.000,"P-6-1",           463,   81.0843E-03,   177.086E-03,            0.,NA,NA,"",   1.00261E+06,   1.00728E+06,   1.00728E+06
C:/temp/Job-6.odb,Step-1,Increment      1: Step Time =    1.000,"P-6-1",           464,   175.440E-03,   83.5048E-03,            0.,NA,NA,"",   976.266E+03,   987.186E+03,   987.186E+03
C:/temp/Job-6.odb,Step-1,Increment      1: Step Time =    1.000,"P-6-1",           465,   95.5055E-03,   174.485E-03,            0.,NA,NA,"",   993.524E+03,   1.00386E+06,   1.00386E+06
C:/temp/Job-6.odb,Step-1,Increment      1: Step Time =    1.000,"P-6-1",           466,   21.5807E-03,   103.513E-03,            0.,NA,NA,"",   811.393E+03,   897.363E+03,   897.363E+03
C:/temp/Job-6.odb,Step-1,Increment      1: Step Time =    1.000,"P-6-1",           467,   87.0587E-03,   24.0384E-03,            0.,NA,NA,"",   998.136E+03,   1.00481E+06,   1.00481E+06
C:/temp/Job-6.odb,Step-1,Increment      1: Step Time =    1.000,"P-6-1",           468,   102.065E-03,   175.897E-03,            0.,NA,NA,"",   990.025E+03,   998.799E+03,   998.799E+03
C:/temp/Job-6.odb,Step-1,Increment      1: Step Time =    1.000,"P-6-1",           469,   119.933E-03,   24.8538E-03,            0.,NA,NA,"",   1.00366E+06,   1.00665E+06,   1.00665E+06
C:/temp/Job-6.odb,Step-1,Increment      1: Step Time =    1.000,"P-6-1",           470,   126.786E-03,   25.0077E-03,            0.,NA,NA,"",   1.01091E+06,   1.01063E+06,   1.01063E+06
C:/temp/Job-6.odb,Step-1,Increment      1: Step Time =    1.000,"P-6-1",           471,   175.500E-03,   109.662E-03,            0.,NA,NA,"",   965.210E+03,   978.884E+03,   978.884E+03
C:/temp/Job-6.odb,Step-1,Increment      1: Step Time =    1.000,"P-6-1",           472,   133.519E-03,   25.5790E-03,            0.,NA,NA,"",   1.01670E+06,   1.01375E+06,   1.01375E+06
C:/temp/Job-6.odb,Step-1,Increment      1: Step Time =    1.000,"P-6-1",           473,   175.053E-03,   103.223E-03,            0.,NA,NA,"",   960.767E+03,   975.798E+03,   975.798E+03
C:/temp/Job-6.odb,Step-1,Increment      1: Step Time =    1.000,"P-6-1",           474,   113.338E-03,   24.7213E-03,            0.,NA,NA,"",   996.949E+03,   1.00285E+06,   1.00285E+06
C:/temp/Job-6.odb,Step-1,Increment      1: Step Time =    1.000,"P-6-1",           475,   175.048E-03,   96.5269E-03,            0.,NA,NA,"",   962.487E+03,   977.143E+03,   977.143E+03
C:/temp/Job-6.odb,Step-1,Increment      1: Step Time =    1.000,"P-6-1",           476,   107.106E-03,   24.0399E-03,            0.,NA,NA,"",   992.016E+03,   1.00003E+06,   1.00003E+06
C:/temp/Job-6.odb,Step-1,Increment      1: Step Time =    1.000,"P-6-1",           477,   175.392E-03,   129.526E-03,            0.,NA,NA,"",   996.883E+03,   1.00146E+06,   1.00146E+06
C:/temp/Job-6.odb,Step-1,Increment      1: Step Time =    1.000,"P-6-1",           478,   100.609E-03,   24.3430E-03,            0.,NA,NA,"",   991.183E+03,   999.750E+03,   999.750E+03
C:/temp/Job-6.odb,Step-1,Increment      1: Step Time =    1.000,"P-6-1",           479,   20.7504E-03,   27.6929E-03,            0.,NA,NA,"",   1.02395E+06,   1.07578E+06,   1.07578E+06
C:/temp/Job-6.odb,Step-1,Increment      1: Step Time =    1.000,"P-6-1",           480,   175.017E-03,   116.013E-03,            0.,NA,NA,"",   975.171E+03,   985.979E+03,   985.979E+03
C:/temp/Job-6.odb,Step-1,Increment      1: Step Time =    1.000,"P-6-1",           481,   175.165E-03,   122.689E-03,            0.,NA,NA,"",   986.472E+03,   994.028E+03,   994.028E+03
C:/temp/Job-6.odb,Step-1,Increment      1: Step Time =    1.000,"P-6-1",           482,   162.841E-03,   172.978E-03,            0.,NA,NA,"",   1.01523E+06,   1.01118E+06,   1.01118E+06
C:/temp/Job-6.odb,Step-1,Increment      1: Step Time =    1.000,"P-6-1",           483,   174.255E-03,   36.5869E-03,            0.,NA,NA,"",   1.01280E+06,   1.01045E+06,   1.01045E+06
C:/temp/Job-6.odb,Step-1,Increment      1: Step Time =    1.000,"P-6-1",           484,   34.5181E-03,   26.0468E-03,            0.,NA,NA,"",   1.04591E+06,   1.06695E+06,   1.06695E+06
C:/temp/Job-6.odb,Step-1,Increment      1: Step Time =    1.000,"P-6-1",           485,   26.4463E-03,   163.348E-03,            0.,NA,NA,"",   1.00029E+06,   1.04983E+06,   1.04983E+06
C:/temp/Job-6.odb,Step-1,Increment      1: Step Time =    1.000,"P-6-1",           486,   27.8614E-03,   170.623E-03,            0.,NA,NA,"",   1.03282E+06,   1.07035E+06,   1.07035E+06
C:/temp/Job-6.odb,Step-1,Increment      1: Step Time =    1.000,"P-6-1",           487,   172.968E-03,   29.1388E-03,            0.,NA,NA,"",   1.01002E+06,   1.00786E+06,   1.00786E+06
C:/temp/Job-6.odb,Step-1,Increment      1: Step Time =    1.000,"P-6-1",           488,   170.108E-03,   171.601E-03,            0.,NA,NA,"",   1.01156E+06,   1.00881E+06,   1.00881E+06
C:/temp/Job-6.odb,Step-1,Increment      1: Step Time =    1.000,"P-6-1",           489,   41.0948E-03,   24.7844E-03,            0.,NA,NA,"",   1.04537E+06,   1.05743E+06,   1.05743E+06
C:/temp/Job-6.odb,Step-1,Increment      1: Step Time =    1.000,"P-6-1",           490,   155.708E-03,   174.474E-03,            0.,NA,NA,"",   1.01713E+06,   1.01232E+06,   1.01232E+06
C:/temp/Job-6.odb,Step-1,Increment      1: Step Time =    1.000,"P-6-1",           491,   175.445E-03,   43.7913E-03,            0.,NA,NA,"",   1.01347E+06,   1.01156E+06,   1.01156E+06
C:/temp/Job-6.odb,Step-1,Increment      1: Step Time =    1.000,"P-6-1",           492,   24.9793E-03,   156.411E-03,            0.,NA,NA,"",   969.523E+03,   1.02893E+06,   1.02893E+06
C:/temp/Job-6.odb,Step-1,Increment      1: Step Time =    1.000,"P-6-1",           493,   135.803E-03,   176.350E-03,            0.,NA,NA,"",    1.0134E+06,   1.01019E+06,   1.01019E+06
C:/temp/Job-6.odb,Step-1,Increment      1: Step Time =    1.000,"P-6-1",           494,   176.454E-03,   63.9722E-03,            0.,NA,NA,"",   1.00369E+06,   1.00630E+06,   1.00630E+06
C:/temp/Job-6.odb,Step-1,Increment      1: Step Time =    1.000,"P-6-1",           495,   23.3156E-03,   137.384E-03,            0.,NA,NA,"",   896.756E+03,   970.769E+03,   970.769E+03
C:/temp/Job-6.odb,Step-1,Increment      1: Step Time =    1.000,"P-6-1",           496,   67.3193E-03,   23.9860E-03,            0.,NA,NA,"",   1.02129E+06,   1.02380E+06,   1.02380E+06
C:/temp/Job-6.odb,Step-1,Increment      1: Step Time =    1.000,"P-6-1",           497,   47.5446E-03,   23.9980E-03,            0.,NA,NA,"",   1.04107E+06,   1.04771E+06,   1.04771E+06
C:/temp/Job-6.odb,Step-1,Increment      1: Step Time =    1.000,"P-6-1",           498,   148.866E-03,   175.568E-03,            0.,NA,NA,"",   1.01701E+06,   1.01220E+06,   1.01220E+06
C:/temp/Job-6.odb,Step-1,Increment      1: Step Time =    1.000,"P-6-1",           499,   176.213E-03,   50.6799E-03,            0.,NA,NA,"",   1.01235E+06,   1.01143E+06,   1.01143E+06
C:/temp/Job-6.odb,Step-1,Increment      1: Step Time =    1.000,"P-6-1",           500,   23.8502E-03,   149.863E-03,            0.,NA,NA,"",   941.660E+03,   1.00812E+06,   1.00812E+06
C:/temp/Job-6.odb,Step-1,Increment      1: Step Time =    1.000,"P-6-1",           501,   54.1258E-03,   23.8107E-03,            0.,NA,NA,"",   1.03430E+06,   1.03839E+06,   1.03839E+06
C:/temp/Job-6.odb,Step-1,Increment      1: Step Time =    1.000,"P-6-1",           502,   142.249E-03,   176.193E-03,            0.,NA,NA,"",   1.01574E+06,   1.01141E+06,   1.01141E+06
C:/temp/Job-6.odb,Step-1,Increment      1: Step Time =    1.000,"P-6-1",           503,   176.542E-03,   57.4044E-03,            0.,NA,NA,"",   1.00926E+06,   1.00980E+06,   1.00980E+06
C:/temp/Job-6.odb,Step-1,Increment      1: Step Time =    1.000,"P-6-1",           504,   23.1858E-03,   143.552E-03,            0.,NA,NA,"",   918.132E+03,   989.116E+03,   989.116E+03
C:/temp/Job-6.odb,Step-1,Increment      1: Step Time =    1.000,"P-6-1",           505,   60.7620E-03,   24.1139E-03,            0.,NA,NA,"",   1.02816E+06,   1.03083E+06,   1.03083E+06
C:/temp/Job-6.odb,Step-1,Increment      1: Step Time =    1.000,"P-6-1",           506,   165.604E-03,   21.6722E-03,            0.,NA,NA,"",   1.00827E+06,   1.00584E+06,   1.00584E+06
C:/temp/Job-6.odb,Step-1,Increment      1: Step Time =    1.000,"P-6-1",           507,   20.8255E-03,   35.1909E-03,            0.,NA,NA,"",   986.881E+03,   1.04841E+06,   1.04841E+06
C:/temp/Job-6.odb,Step-1,Increment      1: Step Time =    1.000,"P-6-1",           508,   35.3306E-03,   178.244E-03,            0.,NA,NA,"",   1.05124E+06,   1.06622E+06,   1.06622E+06
C:/temp/Job-6.odb,Step-1,Increment      1: Step Time =    1.000,"P-6-1",           509,   158.374E-03,   20.9889E-03,            0.,NA,NA,"",   1.00980E+06,   1.00664E+06,   1.00664E+06
C:/temp/Job-6.odb,Step-1,Increment      1: Step Time =    1.000,"P-6-1",           510,   177.759E-03,   164.047E-03,            0.,NA,NA,"",   1.00914E+06,   1.00791E+06,   1.00791E+06
C:/temp/Job-6.odb,Step-1,Increment      1: Step Time =    1.000,"P-6-1",           511,   174.059E-03,   148.538E-03,            0.,NA,NA,"",   1.01483E+06,   1.01294E+06,   1.01294E+06
C:/temp/Job-6.odb,Step-1,Increment      1: Step Time =    1.000,"P-6-1",           512,   50.5020E-03,   175.024E-03,            0.,NA,NA,"",   1.03966E+06,   1.04515E+06,   1.04515E+06
C:/temp/Job-6.odb,Step-1,Increment      1: Step Time =    1.000,"P-6-1",           513,   24.6949E-03,   50.5898E-03,            0.,NA,NA,"",   942.898E+03,   1.00828E+06,   1.00828E+06
C:/temp/Job-6.odb,Step-1,Increment      1: Step Time =    1.000,"P-6-1",           514,   170.617E-03,   141.009E-03,            0.,NA,NA,"",   1.01611E+06,   1.01334E+06,   1.01334E+06
C:/temp/Job-6.odb,Step-1,Increment      1: Step Time =    1.000,"P-6-1",           515,   143.568E-03,   32.2302E-03,            0.,NA,NA,"",   1.03277E+06,   1.02541E+06,   1.02541E+06
C:/temp/Job-6.odb,Step-1,Increment      1: Step Time =    1.000,"P-6-1",           516,   170.920E-03,   136.150E-03,            0.,NA,NA,"",   1.01098E+06,   1.00970E+06,   1.00970E+06
C:/temp/Job-6.odb,Step-1,Increment      1: Step Time =    1.000,"P-6-1",           517,   139.065E-03,   31.5011E-03,            0.,NA,NA,"",   1.03237E+06,   1.02595E+06,   1.02595E+06
C:/temp/Job-6.odb,Step-1,Increment      1: Step Time =    1.000,"P-6-1",           518,   30.0536E-03,   131.425E-03,            0.,NA,NA,"",   899.433E+03,   965.594E+03,   965.594E+03
C:/temp/Job-6.odb,Step-1,Increment      1: Step Time =    1.000,"P-6-1",           519,   73.5899E-03,   29.0754E-03,            0.,NA,NA,"",   1.02478E+06,   1.03014E+06,   1.03014E+06
C:/temp/Job-6.odb,Step-1,Increment      1: Step Time =    1.000,"P-6-1",           520,   129.584E-03,   170.421E-03,            0.,NA,NA,"",   1.02438E+06,   1.02172E+06,   1.02172E+06
C:/temp/Job-6.odb,Step-1,Increment      1: Step Time =    1.000,"P-6-1",           521,   170.185E-03,   70.7090E-03,            0.,NA,NA,"",   1.00143E+06,   1.00201E+06,   1.00201E+06
C:/temp/Job-6.odb,Step-1,Increment      1: Step Time =    1.000,"P-6-1",           522,   31.6062E-03,   123.372E-03,            0.,NA,NA,"",   874.244E+03,   942.249E+03,   942.249E+03
C:/temp/Job-6.odb,Step-1,Increment      1: Step Time =    1.000,"P-6-1",           523,   123.837E-03,   169.894E-03,            0.,NA,NA,"",   1.02113E+06,   1.02205E+06,   1.02205E+06
C:/temp/Job-6.odb,Step-1,Increment      1: Step Time =    1.000,"P-6-1",           524,   79.7644E-03,   29.6107E-03,            0.,NA,NA,"",   1.01870E+06,   1.02572E+06,   1.02572E+06
C:/temp/Job-6.odb,Step-1,Increment      1: Step Time =    1.000,"P-6-1",           525,   169.487E-03,   77.1168E-03,            0.,NA,NA,"",   987.981E+03,   991.630E+03,   991.630E+03
C:/temp/Job-6.odb,Step-1,Increment      1: Step Time =    1.000,"P-6-1",           526,   31.8946E-03,   71.5589E-03,            0.,NA,NA,"",   897.052E+03,   961.366E+03,   961.366E+03
C:/temp/Job-6.odb,Step-1,Increment      1: Step Time =    1.000,"P-6-1",           527,   68.9954E-03,   172.634E-03,            0.,NA,NA,"",   1.02842E+06,   1.03112E+06,   1.03112E+06
C:/temp/Job-6.odb,Step-1,Increment      1: Step Time =    1.000,"P-6-1",           528,   30.0361E-03,   79.1461E-03,            0.,NA,NA,"",   864.811E+03,   936.056E+03,   936.056E+03
C:/temp/Job-6.odb,Step-1,Increment      1: Step Time =    1.000,"P-6-1",           529,   73.9843E-03,   173.050E-03,            0.,NA,NA,"",   1.02123E+06,   1.02491E+06,   1.02491E+06
C:/temp/Job-6.odb,Step-1,Increment      1: Step Time =    1.000,"P-6-1",           530,   30.1950E-03,   115.135E-03,            0.,NA,NA,"",   842.376E+03,   916.701E+03,   916.701E+03
C:/temp/Job-6.odb,Step-1,Increment      1: Step Time =    1.000,"P-6-1",           531,   28.4901E-03,   137.890E-03,            0.,NA,NA,"",   918.100E+03,   982.334E+03,   982.334E+03
C:/temp/Job-6.odb,Step-1,Increment      1: Step Time =    1.000,"P-6-1",           532,   67.5424E-03,   30.2627E-03,            0.,NA,NA,"",   1.03673E+06,   1.04066E+06,   1.04066E+06
C:/temp/Job-6.odb,Step-1,Increment      1: Step Time =    1.000,"P-6-1",           533,   135.285E-03,   170.813E-03,            0.,NA,NA,"",   1.02657E+06,   1.02181E+06,   1.02181E+06
C:/temp/Job-6.odb,Step-1,Increment      1: Step Time =    1.000,"P-6-1",           534,   111.327E-03,   168.887E-03,            0.,NA,NA,"",   1.00762E+06,   1.01794E+06,   1.01794E+06
C:/temp/Job-6.odb,Step-1,Increment      1: Step Time =    1.000,"P-6-1",           535,   27.1349E-03,   108.387E-03,            0.,NA,NA,"",   822.695E+03,   902.827E+03,   902.827E+03
C:/temp/Job-6.odb,Step-1,Increment      1: Step Time =    1.000,"P-6-1",           536,   168.802E-03,   83.4931E-03,            0.,NA,NA,"",   973.758E+03,   980.615E+03,   980.615E+03
C:/temp/Job-6.odb,Step-1,Increment      1: Step Time =    1.000,"P-6-1",           537,   170.722E-03,   64.2082E-03,            0.,NA,NA,"",   1.01208E+06,   1.01022E+06,   1.01022E+06
C:/temp/Job-6.odb,Step-1,Increment      1: Step Time =    1.000,"P-6-1",           538,   106.413E-03,   169.337E-03,            0.,NA,NA,"",   1.00274E+06,   1.01511E+06,   1.01511E+06
C:/temp/Job-6.odb,Step-1,Increment      1: Step Time =    1.000,"P-6-1",           539,   86.3033E-03,   30.1596E-03,            0.,NA,NA,"",   1.01175E+06,   1.02140E+06,   1.02140E+06
C:/temp/Job-6.odb,Step-1,Increment      1: Step Time =    1.000,"P-6-1",           540,   93.0864E-03,   30.2475E-03,            0.,NA,NA,"",   1.00546E+06,   1.01715E+06,   1.01715E+06
C:/temp/Job-6.odb,Step-1,Increment      1: Step Time =    1.000,"P-6-1",           541,   29.0560E-03,   85.9089E-03,            0.,NA,NA,"",   841.448E+03,   917.178E+03,   917.178E+03
C:/temp/Job-6.odb,Step-1,Increment      1: Step Time =    1.000,"P-6-1",           542,   28.4021E-03,   92.4693E-03,            0.,NA,NA,"",   826.538E+03,   904.990E+03,   904.990E+03
C:/temp/Job-6.odb,Step-1,Increment      1: Step Time =    1.000,"P-6-1",           543,   27.9745E-03,   99.5233E-03,            0.,NA,NA,"",   819.019E+03,   898.950E+03,   898.950E+03
C:/temp/Job-6.odb,Step-1,Increment      1: Step Time =    1.000,"P-6-1",           544,   31.5398E-03,   62.6320E-03,            0.,NA,NA,"",   929.148E+03,   988.652E+03,   988.652E+03
C:/temp/Job-6.odb,Step-1,Increment      1: Step Time =    1.000,"P-6-1",           545,   79.7552E-03,   171.896E-03,            0.,NA,NA,"",   1.01729E+06,   1.02314E+06,   1.02314E+06
C:/temp/Job-6.odb,Step-1,Increment      1: Step Time =    1.000,"P-6-1",           546,   86.0409E-03,   170.272E-03,            0.,NA,NA,"",   1.01191E+06,   1.02157E+06,   1.02157E+06
C:/temp/Job-6.odb,Step-1,Increment      1: Step Time =    1.000,"P-6-1",           547,   92.3422E-03,   167.932E-03,            0.,NA,NA,"",   1.00811E+06,   1.02195E+06,   1.02195E+06
C:/temp/Job-6.odb,Step-1,Increment      1: Step Time =    1.000,"P-6-1",           548,   25.3268E-03,   103.701E-03,            0.,NA,NA,"",   815.607E+03,   898.280E+03,   898.280E+03
C:/temp/Job-6.odb,Step-1,Increment      1: Step Time =    1.000,"P-6-1",           549,   62.4423E-03,   170.172E-03,            0.,NA,NA,"",   1.04005E+06,   1.04336E+06,   1.04336E+06
C:/temp/Job-6.odb,Step-1,Increment      1: Step Time =    1.000,"P-6-1",           550,   100.851E-03,   170.801E-03,            0.,NA,NA,"",   998.416E+03,   1.01148E+06,   1.01148E+06
C:/temp/Job-6.odb,Step-1,Increment      1: Step Time =    1.000,"P-6-1",           551,   125.640E-03,   30.8487E-03,            0.,NA,NA,"",   1.02378E+06,   1.02361E+06,   1.02361E+06
C:/temp/Job-6.odb,Step-1,Increment      1: Step Time =    1.000,"P-6-1",           552,   167.757E-03,   103.964E-03,            0.,NA,NA,"",   949.816E+03,   961.650E+03,   961.650E+03
C:/temp/Job-6.odb,Step-1,Increment      1: Step Time =    1.000,"P-6-1",           553,   119.067E-03,   31.0982E-03,            0.,NA,NA,"",   1.01624E+06,   1.02072E+06,   1.02072E+06
C:/temp/Job-6.odb,Step-1,Increment      1: Step Time =    1.000,"P-6-1",           554,   168.584E-03,   96.3990E-03,            0.,NA,NA,"",   953.245E+03,   965.066E+03,   965.066E+03
C:/temp/Job-6.odb,Step-1,Increment      1: Step Time =    1.000,"P-6-1",           555,   111.518E-03,   32.2296E-03,            0.,NA,NA,"",   1.00921E+06,   1.01959E+06,   1.01959E+06
C:/temp/Job-6.odb,Step-1,Increment      1: Step Time =    1.000,"P-6-1",           556,   100.565E-03,   31.1868E-03,            0.,NA,NA,"",   1.00305E+06,   1.01637E+06,   1.01637E+06
C:/temp/Job-6.odb,Step-1,Increment      1: Step Time =    1.000,"P-6-1",           557,   132.379E-03,   32.9773E-03,            0.,NA,NA,"",   1.03397E+06,   1.02938E+06,   1.02938E+06
C:/temp/Job-6.odb,Step-1,Increment      1: Step Time =    1.000,"P-6-1",           558,   167.334E-03,   115.039E-03,            0.,NA,NA,"",   968.940E+03,   975.933E+03,   975.933E+03
C:/temp/Job-6.odb,Step-1,Increment      1: Step Time =    1.000,"P-6-1",           559,   168.665E-03,   129.786E-03,            0.,NA,NA,"",   1.00491E+06,   1.00407E+06,   1.00407E+06
C:/temp/Job-6.odb,Step-1,Increment      1: Step Time =    1.000,"P-6-1",           560,   169.064E-03,   122.502E-03,            0.,NA,NA,"",   988.522E+03,   991.795E+03,   991.795E+03
C:/temp/Job-6.odb,Step-1,Increment      1: Step Time =    1.000,"P-6-1",           561,   27.7916E-03,   27.3962E-03,            0.,NA,NA,"",   1.04162E+06,   1.07549E+06,   1.07549E+06
C:/temp/Job-6.odb,Step-1,Increment      1: Step Time =    1.000,"P-6-1",           562,   153.858E-03,   168.607E-03,            0.,NA,NA,"",   1.02727E+06,   1.02026E+06,   1.02026E+06
C:/temp/Job-6.odb,Step-1,Increment      1: Step Time =    1.000,"P-6-1",           563,   169.794E-03,   45.1858E-03,            0.,NA,NA,"",   1.02121E+06,   1.01667E+06,   1.01667E+06
C:/temp/Job-6.odb,Step-1,Increment      1: Step Time =    1.000,"P-6-1",           564,   30.8403E-03,   154.693E-03,            0.,NA,NA,"",   984.211E+03,   1.03306E+06,   1.03306E+06
C:/temp/Job-6.odb,Step-1,Increment      1: Step Time =    1.000,"P-6-1",           565,   47.9004E-03,   29.3857E-03,            0.,NA,NA,"",   1.04419E+06,   1.05385E+06,   1.05385E+06
C:/temp/Job-6.odb,Step-1,Increment      1: Step Time =    1.000,"P-6-1",           566,   141.322E-03,   170.733E-03,            0.,NA,NA,"",   1.02731E+06,   1.02133E+06,   1.02133E+06
C:/temp/Job-6.odb,Step-1,Increment      1: Step Time =    1.000,"P-6-1",           567,   171.109E-03,   57.9898E-03,            0.,NA,NA,"",   1.01775E+06,   1.01457E+06,   1.01457E+06
C:/temp/Job-6.odb,Step-1,Increment      1: Step Time =    1.000,"P-6-1",           568,   28.2993E-03,   142.929E-03,            0.,NA,NA,"",   936.450E+03,   997.936E+03,   997.936E+03
C:/temp/Job-6.odb,Step-1,Increment      1: Step Time =    1.000,"P-6-1",           569,   60.4214E-03,   30.7430E-03,            0.,NA,NA,"",   1.04328E+06,   1.04742E+06,   1.04742E+06
C:/temp/Job-6.odb,Step-1,Increment      1: Step Time =    1.000,"P-6-1",           570,   147.468E-03,   169.977E-03,            0.,NA,NA,"",   1.02782E+06,   1.02097E+06,   1.02097E+06
C:/temp/Job-6.odb,Step-1,Increment      1: Step Time =    1.000,"P-6-1",           571,   170.738E-03,   51.6589E-03,            0.,NA,NA,"",   1.01996E+06,   1.01604E+06,   1.01604E+06
C:/temp/Job-6.odb,Step-1,Increment      1: Step Time =    1.000,"P-6-1",           572,   29.3748E-03,   148.532E-03,            0.,NA,NA,"",   959.156E+03,   1.01550E+06,   1.01550E+06
C:/temp/Job-6.odb,Step-1,Increment      1: Step Time =    1.000,"P-6-1",           573,   53.8487E-03,   29.1215E-03,            0.,NA,NA,"",   1.04405E+06,   1.04988E+06,   1.04988E+06
C:/temp/Job-6.odb,Step-1,Increment      1: Step Time =    1.000,"P-6-1",           574,   36.4308E-03,   169.313E-03,            0.,NA,NA,"",   1.03860E+06,   1.06233E+06,   1.06233E+06
C:/temp/Job-6.odb,Step-1,Increment      1: Step Time =    1.000,"P-6-1",           575,   36.1787E-03,   32.4984E-03,            0.,NA,NA,"",   1.03690E+06,   1.06231E+06,   1.06231E+06
C:/temp/Job-6.odb,Step-1,Increment      1: Step Time =    1.000,"P-6-1",           576,   168.483E-03,   162.742E-03,            0.,NA,NA,"",   1.01929E+06,   1.01483E+06,   1.01483E+06
C:/temp/Job-6.odb,Step-1,Increment      1: Step Time =    1.000,"P-6-1",           577,   165.053E-03,   30.2603E-03,            0.,NA,NA,"",   1.01696E+06,   1.01271E+06,   1.01271E+06
C:/temp/Job-6.odb,Step-1,Increment      1: Step Time =    1.000,"P-6-1",           578,   32.9384E-03,   161.385E-03,            0.,NA,NA,"",   1.01313E+06,   1.05131E+06,   1.05131E+06
C:/temp/Job-6.odb,Step-1,Increment      1: Step Time =    1.000,"P-6-1",           579,   160.660E-03,   166.227E-03,            0.,NA,NA,"",   1.02485E+06,   1.01847E+06,   1.01847E+06
C:/temp/Job-6.odb,Step-1,Increment      1: Step Time =    1.000,"P-6-1",           580,   168.110E-03,   38.2584E-03,            0.,NA,NA,"",   1.02043E+06,   1.01574E+06,   1.01574E+06
C:/temp/Job-6.odb,Step-1,Increment      1: Step Time =    1.000,"P-6-1",           581,   42.1546E-03,   30.5180E-03,            0.,NA,NA,"",   1.04443E+06,   1.05972E+06,   1.05972E+06
C:/temp/Job-6.odb,Step-1,Increment      1: Step Time =    1.000,"P-6-1",           582,   29.1407E-03,   36.0434E-03,            0.,NA,NA,"",   1.01042E+06,   1.05338E+06,   1.05338E+06
C:/temp/Job-6.odb,Step-1,Increment      1: Step Time =    1.000,"P-6-1",           583,   157.936E-03,   27.2542E-03,            0.,NA,NA,"",   1.01823E+06,   1.01333E+06,   1.01333E+06
C:/temp/Job-6.odb,Step-1,Increment      1: Step Time =    1.000,"P-6-1",           584,   26.3968E-03,   43.9498E-03,            0.,NA,NA,"",   973.478E+03,   1.03027E+06,   1.03027E+06
C:/temp/Job-6.odb,Step-1,Increment      1: Step Time =    1.000,"P-6-1",           585,   44.1486E-03,   172.666E-03,            0.,NA,NA,"",   1.04388E+06,   1.05543E+06,   1.05543E+06
C:/temp/Job-6.odb,Step-1,Increment      1: Step Time =    1.000,"P-6-1",           586,   152.757E-03,   26.2537E-03,            0.,NA,NA,"",   1.01889E+06,   1.01368E+06,   1.01368E+06
C:/temp/Job-6.odb,Step-1,Increment      1: Step Time =    1.000,"P-6-1",           587,   171.739E-03,   155.049E-03,            0.,NA,NA,"",   1.01816E+06,   1.01465E+06,   1.01465E+06
C:/temp/Job-6.odb,Step-1,Increment      1: Step Time =    1.000,"P-6-1",           588,   168.163E-03,   145.864E-03,            0.,NA,NA,"",   1.02261E+06,   1.01749E+06,   1.01749E+06
C:/temp/Job-6.odb,Step-1,Increment      1: Step Time =    1.000,"P-6-1",           589,   147.452E-03,   34.7907E-03,            0.,NA,NA,"",   1.03559E+06,   1.02705E+06,   1.02705E+06
C:/temp/Job-6.odb,Step-1,Increment      1: Step Time =    1.000,"P-6-1",           590,   53.1413E-03,   169.521E-03,            0.,NA,NA,"",   1.04465E+06,   1.05095E+06,   1.05095E+06
C:/temp/Job-6.odb,Step-1,Increment      1: Step Time =    1.000,"P-6-1",           591,   28.5510E-03,   57.2406E-03,            0.,NA,NA,"",   935.693E+03,   997.578E+03,   997.578E+03
C:/temp/Job-6.odb,Step-1,Increment      1: Step Time =    1.000,"P-6-1",           592,   167.087E-03,   138.172E-03,            0.,NA,NA,"",   1.01918E+06,   1.01437E+06,   1.01437E+06
C:/temp/Job-6.odb,Step-1,Increment      1: Step Time =    1.000,"P-6-1",           593,   140.244E-03,   42.3083E-03,            0.,NA,NA,"",   1.05786E+06,   1.04579E+06,   1.04579E+06
C:/temp/Job-6.odb,Step-1,Increment      1: Step Time =    1.000,"P-6-1",           594,   164.398E-03,   133.883E-03,            0.,NA,NA,"",   1.01938E+06,   1.01298E+06,   1.01298E+06
C:/temp/Job-6.odb,Step-1,Increment      1: Step Time =    1.000,"P-6-1",           595,   78.5362E-03,   35.4199E-03,            0.,NA,NA,"",   1.03380E+06,   1.04273E+06,   1.04273E+06
C:/temp/Job-6.odb,Step-1,Increment      1: Step Time =    1.000,"P-6-1",           596,   38.3972E-03,   127.062E-03,            0.,NA,NA,"",   911.909E+03,   965.415E+03,   965.415E+03
C:/temp/Job-6.odb,Step-1,Increment      1: Step Time =    1.000,"P-6-1",           597,   124.694E-03,   165.664E-03,            0.,NA,NA,"",   1.03227E+06,   1.03274E+06,   1.03274E+06
C:/temp/Job-6.odb,Step-1,Increment      1: Step Time =    1.000,"P-6-1",           598,   164.354E-03,   70.5000E-03,            0.,NA,NA,"",   1.00975E+06,   1.00524E+06,   1.00524E+06
C:/temp/Job-6.odb,Step-1,Increment      1: Step Time =    1.000,"P-6-1",           599,   135.801E-03,   39.3871E-03,            0.,NA,NA,"",   1.05186E+06,   1.04286E+06,   1.04286E+06
C:/temp/Job-6.odb,Step-1,Increment      1: Step Time =    1.000,"P-6-1",           600,   35.8394E-03,   118.158E-03,            0.,NA,NA,"",   863.531E+03,   928.434E+03,   928.434E+03
C:/temp/Job-6.odb,Step-1,Increment      1: Step Time =    1.000,"P-6-1",           601,   120.750E-03,   162.762E-03,            0.,NA,NA,"",   1.03471E+06,   1.03793E+06,   1.03793E+06
C:/temp/Job-6.odb,Step-1,Increment      1: Step Time =    1.000,"P-6-1",           602,   70.9160E-03,   163.568E-03,            0.,NA,NA,"",   1.04819E+06,   1.05279E+06,   1.05279E+06
C:/temp/Job-6.odb,Step-1,Increment      1: Step Time =    1.000,"P-6-1",           603,   85.4856E-03,   36.8974E-03,            0.,NA,NA,"",   1.02697E+06,   1.04026E+06,   1.04026E+06
C:/temp/Job-6.odb,Step-1,Increment      1: Step Time =    1.000,"P-6-1",           604,   163.063E-03,   76.6815E-03,            0.,NA,NA,"",   992.962E+03,   991.331E+03,   991.331E+03
C:/temp/Job-6.odb,Step-1,Increment      1: Step Time =    1.000,"P-6-1",           605,   37.1046E-03,   75.3870E-03,            0.,NA,NA,"",   897.919E+03,   956.096E+03,   956.096E+03
C:/temp/Job-6.odb,Step-1,Increment      1: Step Time =    1.000,"P-6-1",           606,   35.6093E-03,   81.2779E-03,            0.,NA,NA,"",   871.329E+03,   935.159E+03,   935.159E+03
C:/temp/Job-6.odb,Step-1,Increment      1: Step Time =    1.000,"P-6-1",           607,   77.9013E-03,   167.037E-03,            0.,NA,NA,"",   1.03208E+06,   1.03873E+06,   1.03873E+06
C:/temp/Job-6.odb,Step-1,Increment      1: Step Time =    1.000,"P-6-1",           608,   36.0341E-03,   133.693E-03,            0.,NA,NA,"",   931.470E+03,   985.032E+03,   985.032E+03
C:/temp/Job-6.odb,Step-1,Increment      1: Step Time =    1.000,"P-6-1",           609,   72.5138E-03,   33.9661E-03,            0.,NA,NA,"",   1.03775E+06,   1.04349E+06,   1.04349E+06
C:/temp/Job-6.odb,Step-1,Increment      1: Step Time =    1.000,"P-6-1",           610,   135.004E-03,   165.453E-03,            0.,NA,NA,"",   1.03925E+06,   1.03335E+06,   1.03335E+06
C:/temp/Job-6.odb,Step-1,Increment      1: Step Time =    1.000,"P-6-1",           611,   160.219E-03,   65.3866E-03,            0.,NA,NA,"",   1.02982E+06,   1.01925E+06,   1.01925E+06
C:/temp/Job-6.odb,Step-1,Increment      1: Step Time =    1.000,"P-6-1",           612,   34.4151E-03,   109.888E-03,            0.,NA,NA,"",   833.282E+03,   904.495E+03,   904.495E+03
C:/temp/Job-6.odb,Step-1,Increment      1: Step Time =    1.000,"P-6-1",           613,   112.756E-03,   164.307E-03,            0.,NA,NA,"",   1.01782E+06,   1.02879E+06,   1.02879E+06
C:/temp/Job-6.odb,Step-1,Increment      1: Step Time =    1.000,"P-6-1",           614,   34.5616E-03,   87.4453E-03,            0.,NA,NA,"",   846.590E+03,   915.744E+03,   915.744E+03
C:/temp/Job-6.odb,Step-1,Increment      1: Step Time =    1.000,"P-6-1",           615,   168.423E-03,   89.8431E-03,            0.,NA,NA,"",   961.367E+03,   971.178E+03,   971.178E+03
C:/temp/Job-6.odb,Step-1,Increment      1: Step Time =    1.000,"P-6-1",           616,   92.4218E-03,   35.9300E-03,            0.,NA,NA,"",   1.01475E+06,   1.03098E+06,   1.03098E+06
C:/temp/Job-6.odb,Step-1,Increment      1: Step Time =    1.000,"P-6-1",           617,   164.390E-03,   122.693E-03,            0.,NA,NA,"",   990.855E+03,   990.584E+03,   990.584E+03
C:/temp/Job-6.odb,Step-1,Increment      1: Step Time =    1.000,"P-6-1",           618,   124.395E-03,   35.1798E-03,            0.,NA,NA,"",   1.03338E+06,   1.03348E+06,   1.03348E+06
C:/temp/Job-6.odb,Step-1,Increment      1: Step Time =    1.000,"P-6-1",           619,   37.7451E-03,   70.2175E-03,            0.,NA,NA,"",   924.778E+03,   977.558E+03,   977.558E+03
C:/temp/Job-6.odb,Step-1,Increment      1: Step Time =    1.000,"P-6-1",           620,   162.587E-03,   96.3110E-03,            0.,NA,NA,"",   939.348E+03,   949.418E+03,   949.418E+03
C:/temp/Job-6.odb,Step-1,Increment      1: Step Time =    1.000,"P-6-1",           621,   33.7870E-03,   93.4658E-03,            0.,NA,NA,"",   830.348E+03,   902.723E+03,   902.723E+03
C:/temp/Job-6.odb,Step-1,Increment      1: Step Time =    1.000,"P-6-1",           622,   66.4249E-03,   165.449E-03,            0.,NA,NA,"",   1.04713E+06,   1.05058E+06,   1.05058E+06
C:/temp/Job-6.odb,Step-1,Increment      1: Step Time =    1.000,"P-6-1",           623,   83.7063E-03,   165.077E-03,            0.,NA,NA,"",   1.02714E+06,   1.03808E+06,   1.03808E+06
C:/temp/Job-6.odb,Step-1,Increment      1: Step Time =    1.000,"P-6-1",           624,   97.5593E-03,   35.8088E-03,            0.,NA,NA,"",   1.01043E+06,   1.02761E+06,   1.02761E+06
C:/temp/Job-6.odb,Step-1,Increment      1: Step Time =    1.000,"P-6-1",           625,   89.3142E-03,   162.346E-03,            0.,NA,NA,"",   1.02191E+06,   1.03851E+06,   1.03851E+06
C:/temp/Job-6.odb,Step-1,Increment      1: Step Time =    1.000,"P-6-1",           626,   30.7992E-03,   105.444E-03,            0.,NA,NA,"",   824.316E+03,   900.356E+03,   900.356E+03
C:/temp/Job-6.odb,Step-1,Increment      1: Step Time =    1.000,"P-6-1",           627,   119.731E-03,   36.5862E-03,            0.,NA,NA,"",   1.03119E+06,   1.03566E+06,   1.03566E+06
C:/temp/Job-6.odb,Step-1,Increment      1: Step Time =    1.000,"P-6-1",           628,   105.322E-03,   161.628E-03,            0.,NA,NA,"",   1.01296E+06,   1.03227E+06,   1.03227E+06
C:/temp/Job-6.odb,Step-1,Increment      1: Step Time =    1.000,"P-6-1",           629,   33.7026E-03,   103.387E-03,            0.,NA,NA,"",   823.312E+03,   896.822E+03,   896.822E+03
C:/temp/Job-6.odb,Step-1,Increment      1: Step Time =    1.000,"P-6-1",           630,   98.2929E-03,   164.834E-03,            0.,NA,NA,"",   1.00695E+06,   1.02509E+06,   1.02509E+06
C:/temp/Job-6.odb,Step-1,Increment      1: Step Time =    1.000,"P-6-1",           631,   113.899E-03,   38.8628E-03,            0.,NA,NA,"",   1.02599E+06,   1.03791E+06,   1.03791E+06
C:/temp/Job-6.odb,Step-1,Increment      1: Step Time =    1.000,"P-6-1",           632,   163.068E-03,   101.194E-03,            0.,NA,NA,"",   936.957E+03,   948.019E+03,   948.019E+03
C:/temp/Job-6.odb,Step-1,Increment      1: Step Time =    1.000,"P-6-1",           633,   104.967E-03,   36.7619E-03,            0.,NA,NA,"",   1.01122E+06,   1.02852E+06,   1.02852E+06
C:/temp/Job-6.odb,Step-1,Increment      1: Step Time =    1.000,"P-6-1",           634,   161.436E-03,   109.210E-03,            0.,NA,NA,"",   944.464E+03,   952.292E+03,   952.292E+03
C:/temp/Job-6.odb,Step-1,Increment      1: Step Time =    1.000,"P-6-1",           635,   33.5608E-03,   140.574E-03,            0.,NA,NA,"",   947.463E+03,   1.00072E+06,   1.00072E+06
C:/temp/Job-6.odb,Step-1,Increment      1: Step Time =    1.000,"P-6-1",           636,   140.383E-03,   165.535E-03,            0.,NA,NA,"",   1.03923E+06,   1.03132E+06,   1.03132E+06
C:/temp/Job-6.odb,Step-1,Increment      1: Step Time =    1.000,"P-6-1",           637,   64.3530E-03,   35.4996E-03,            0.,NA,NA,"",   1.04987E+06,   1.05454E+06,   1.05454E+06
C:/temp/Job-6.odb,Step-1,Increment      1: Step Time =    1.000,"P-6-1",           638,   161.683E-03,   59.5182E-03,            0.,NA,NA,"",   1.03442E+06,   1.02413E+06,   1.02413E+06
C:/temp/Job-6.odb,Step-1,Increment      1: Step Time =    1.000,"P-6-1",           639,   161.465E-03,   118.725E-03,            0.,NA,NA,"",   978.461E+03,   978.659E+03,   978.659E+03
C:/temp/Job-6.odb,Step-1,Increment      1: Step Time =    1.000,"P-6-1",           640,   151.382E-03,   163.224E-03,            0.,NA,NA,"",   1.03793E+06,   1.02857E+06,   1.02857E+06
C:/temp/Job-6.odb,Step-1,Increment      1: Step Time =    1.000,"P-6-1",           641,   164.280E-03,   47.0364E-03,            0.,NA,NA,"",   1.03009E+06,   1.02254E+06,   1.02254E+06
C:/temp/Job-6.odb,Step-1,Increment      1: Step Time =    1.000,"P-6-1",           642,   36.5943E-03,   152.236E-03,            0.,NA,NA,"",   998.202E+03,   1.03714E+06,   1.03714E+06
C:/temp/Job-6.odb,Step-1,Increment      1: Step Time =    1.000,"P-6-1",           643,   48.8494E-03,   34.6827E-03,            0.,NA,NA,"",   1.04424E+06,   1.05655E+06,   1.05655E+06
C:/temp/Job-6.odb,Step-1,Increment      1: Step Time =    1.000,"P-6-1",           644,   145.746E-03,   164.501E-03,            0.,NA,NA,"",   1.03915E+06,   1.03016E+06,   1.03016E+06
C:/temp/Job-6.odb,Step-1,Increment      1: Step Time =    1.000,"P-6-1",           645,   165.344E-03,   52.8583E-03,            0.,NA,NA,"",   1.02903E+06,   1.02176E+06,   1.02176E+06
C:/temp/Job-6.odb,Step-1,Increment      1: Step Time =    1.000,"P-6-1",           646,   34.7033E-03,   146.608E-03,            0.,NA,NA,"",   972.167E+03,   1.01904E+06,   1.01904E+06
C:/temp/Job-6.odb,Step-1,Increment      1: Step Time =    1.000,"P-6-1",           647,   56.1610E-03,   36.2334E-03,            0.,NA,NA,"",   1.04951E+06,   1.05635E+06,   1.05635E+06
C:/temp/Job-6.odb,Step-1,Increment      1: Step Time =    1.000,"P-6-1",           648,   38.5587E-03,   158.076E-03,            0.,NA,NA,"",   1.02092E+06,   1.05071E+06,   1.05071E+06
C:/temp/Job-6.odb,Step-1,Increment      1: Step Time =    1.000,"P-6-1",           649,   156.748E-03,   160.243E-03,            0.,NA,NA,"",   1.03619E+06,   1.02689E+06,   1.02689E+06
C:/temp/Job-6.odb,Step-1,Increment      1: Step Time =    1.000,"P-6-1",           650,   162.575E-03,   41.0834E-03,            0.,NA,NA,"",   1.02988E+06,   1.02238E+06,   1.02238E+06
C:/temp/Job-6.odb,Step-1,Increment      1: Step Time =    1.000,"P-6-1",           651,   43.9741E-03,   36.0044E-03,            0.,NA,NA,"",   1.03935E+06,   1.05734E+06,   1.05734E+06
C:/temp/Job-6.odb,Step-1,Increment      1: Step Time =    1.000,"P-6-1",           652,   159.546E-03,   35.9545E-03,            0.,NA,NA,"",   1.02854E+06,   1.02137E+06,   1.02137E+06
C:/temp/Job-6.odb,Step-1,Increment      1: Step Time =    1.000,"P-6-1",           653,   39.6451E-03,   38.0491E-03,            0.,NA,NA,"",   1.02851E+06,   1.05488E+06,   1.05488E+06
C:/temp/Job-6.odb,Step-1,Increment      1: Step Time =    1.000,"P-6-1",           654,   155.052E-03,   32.7330E-03,            0.,NA,NA,"",   1.02700E+06,   1.02016E+06,   1.02016E+06
C:/temp/Job-6.odb,Step-1,Increment      1: Step Time =    1.000,"P-6-1",           655,   32.5205E-03,   47.0493E-03,            0.,NA,NA,"",   985.905E+03,   1.03202E+06,   1.03202E+06
C:/temp/Job-6.odb,Step-1,Increment      1: Step Time =    1.000,"P-6-1",           656,   150.294E-03,   30.1756E-03,            0.,NA,NA,"",   1.02542E+06,   1.01894E+06,   1.01894E+06
C:/temp/Job-6.odb,Step-1,Increment      1: Step Time =    1.000,"P-6-1",           657,   165.259E-03,   151.238E-03,            0.,NA,NA,"",   1.02930E+06,   1.02190E+06,   1.02190E+06
C:/temp/Job-6.odb,Step-1,Increment      1: Step Time =    1.000,"P-6-1",           658,   162.631E-03,   141.740E-03,            0.,NA,NA,"",   1.03162E+06,   1.02232E+06,   1.02232E+06
C:/temp/Job-6.odb,Step-1,Increment      1: Step Time =    1.000,"P-6-1",           659,   144.088E-03,   38.9788E-03,            0.,NA,NA,"",   1.04756E+06,   1.03690E+06,   1.03690E+06
C:/temp/Job-6.odb,Step-1,Increment      1: Step Time =    1.000,"P-6-1",           660,   57.3341E-03,   164.752E-03,            0.,NA,NA,"",   1.04937E+06,   1.05565E+06,   1.05565E+06
C:/temp/Job-6.odb,Step-1,Increment      1: Step Time =    1.000,"P-6-1",           661,   43.4205E-03,   57.0430E-03,            0.,NA,NA,"",   996.605E+03,   1.02913E+06,   1.02913E+06
C:/temp/Job-6.odb,Step-1,Increment      1: Step Time =    1.000,"P-6-1",           662,   161.544E-03,   136.745E-03,            0.,NA,NA,"",   1.02935E+06,   1.01959E+06,   1.01959E+06
C:/temp/Job-6.odb,Step-1,Increment      1: Step Time =    1.000,"P-6-1",           663,   35.4762E-03,   41.7502E-03,            0.,NA,NA,"",   1.01104E+06,   1.04686E+06,   1.04686E+06
C:/temp/Job-6.odb,Step-1,Increment      1: Step Time =    1.000,"P-6-1",           664,   136.751E-03,   44.6814E-03,            0.,NA,NA,"",   1.06647E+06,   1.05383E+06,   1.05383E+06
C:/temp/Job-6.odb,Step-1,Increment      1: Step Time =    1.000,"P-6-1",           665,   41.2385E-03,   121.367E-03,            0.,NA,NA,"",   891.439E+03,   944.902E+03,   944.902E+03
C:/temp/Job-6.odb,Step-1,Increment      1: Step Time =    1.000,"P-6-1",           666,   124.492E-03,   158.825E-03,            0.,NA,NA,"",   1.05078E+06,   1.04976E+06,   1.04976E+06
C:/temp/Job-6.odb,Step-1,Increment      1: Step Time =    1.000,"P-6-1",           667,   74.8994E-03,   158.212E-03,            0.,NA,NA,"",   1.05608E+06,   1.06333E+06,   1.06333E+06
C:/temp/Job-6.odb,Step-1,Increment      1: Step Time =    1.000,"P-6-1",           668,   38.8625E-03,   112.915E-03,            0.,NA,NA,"",   846.802E+03,   910.888E+03,   910.888E+03
C:/temp/Job-6.odb,Step-1,Increment      1: Step Time =    1.000,"P-6-1",           669,   115.530E-03,   159.251E-03,            0.,NA,NA,"",   1.03404E+06,   1.04406E+06,   1.04406E+06
C:/temp/Job-6.odb,Step-1,Increment      1: Step Time =    1.000,"P-6-1",           670,   44.5464E-03,   129.943E-03,            0.,NA,NA,"",    953.08E+03,   991.511E+03,   991.511E+03
C:/temp/Job-6.odb,Step-1,Increment      1: Step Time =    1.000,"P-6-1",           671,   129.495E-03,   164.055E-03,            0.,NA,NA,"",   1.04019E+06,   1.03686E+06,   1.03686E+06
C:/temp/Job-6.odb,Step-1,Increment      1: Step Time =    1.000,"P-6-1",           672,   76.6965E-03,   41.3263E-03,            0.,NA,NA,"",   1.04997E+06,   1.05968E+06,   1.05968E+06
C:/temp/Job-6.odb,Step-1,Increment      1: Step Time =    1.000,"P-6-1",           673,   82.7860E-03,   42.3301E-03,            0.,NA,NA,"",   1.04258E+06,   1.05674E+06,   1.05674E+06
C:/temp/Job-6.odb,Step-1,Increment      1: Step Time =    1.000,"P-6-1",           674,   42.3992E-03,   77.1751E-03,            0.,NA,NA,"",   907.554E+03,   957.345E+03,   957.345E+03
C:/temp/Job-6.odb,Step-1,Increment      1: Step Time =    1.000,"P-6-1",           675,   156.703E-03,   75.2681E-03,            0.,NA,NA,"",   1.00664E+06,   997.739E+03,   997.739E+03
C:/temp/Job-6.odb,Step-1,Increment      1: Step Time =    1.000,"P-6-1",           676,   158.809E-03,   69.6681E-03,            0.,NA,NA,"",   1.02277E+06,   1.01253E+06,   1.01253E+06
C:/temp/Job-6.odb,Step-1,Increment      1: Step Time =    1.000,"P-6-1",           677,   159.766E-03,   130.632E-03,            0.,NA,NA,"",   1.02008E+06,   1.01096E+06,   1.01096E+06
C:/temp/Job-6.odb,Step-1,Increment      1: Step Time =    1.000,"P-6-1",           678,   41.1995E-03,   83.3368E-03,            0.,NA,NA,"",   873.594E+03,   930.436E+03,   930.436E+03
C:/temp/Job-6.odb,Step-1,Increment      1: Step Time =    1.000,"P-6-1",           679,   161.694E-03,   83.0286E-03,            0.,NA,NA,"",   971.936E+03,   974.199E+03,   974.199E+03
C:/temp/Job-6.odb,Step-1,Increment      1: Step Time =    1.000,"P-6-1",           680,   87.7080E-03,   42.3209E-03,            0.,NA,NA,"",   1.03269E+06,   1.05115E+06,   1.05115E+06
C:/temp/Job-6.odb,Step-1,Increment      1: Step Time =    1.000,"P-6-1",           681,   130.049E-03,   42.4872E-03,            0.,NA,NA,"",   1.05987E+06,   1.05270E+06,   1.05270E+06
C:/temp/Job-6.odb,Step-1,Increment      1: Step Time =    1.000,"P-6-1",           682,   69.5890E-03,   158.489E-03,            0.,NA,NA,"",   1.05956E+06,   1.06406E+06,   1.06406E+06
C:/temp/Job-6.odb,Step-1,Increment      1: Step Time =    1.000,"P-6-1",           683,   81.2757E-03,   160.463E-03,            0.,NA,NA,"",   1.04235E+06,   1.05303E+06,   1.05303E+06
C:/temp/Job-6.odb,Step-1,Increment      1: Step Time =    1.000,"P-6-1",           684,   37.0925E-03,   105.318E-03,            0.,NA,NA,"",   825.908E+03,   895.574E+03,   895.574E+03
C:/temp/Job-6.odb,Step-1,Increment      1: Step Time =    1.000,"P-6-1",           685,   122.048E-03,   41.5206E-03,            0.,NA,NA,"",   1.04906E+06,   1.05086E+06,   1.05086E+06
C:/temp/Job-6.odb,Step-1,Increment      1: Step Time =    1.000,"P-6-1",           686,   109.827E-03,   155.396E-03,            0.,NA,NA,"",   1.03138E+06,   1.05147E+06,   1.05147E+06
C:/temp/Job-6.odb,Step-1,Increment      1: Step Time =    1.000,"P-6-1",           687,   160.711E-03,   89.9126E-03,            0.,NA,NA,"",   948.238E+03,   954.739E+03,   954.739E+03
C:/temp/Job-6.odb,Step-1,Increment      1: Step Time =    1.000,"P-6-1",           688,   93.4657E-03,   41.3954E-03,            0.,NA,NA,"",   1.02214E+06,   1.04390E+06,   1.04390E+06
C:/temp/Job-6.odb,Step-1,Increment      1: Step Time =    1.000,"P-6-1",           689,   43.3148E-03,   70.9153E-03,            0.,NA,NA,"",   943.893E+03,   986.065E+03,   986.065E+03
C:/temp/Job-6.odb,Step-1,Increment      1: Step Time =    1.000,"P-6-1",           690,   40.1192E-03,   89.2791E-03,            0.,NA,NA,"",   846.953E+03,   909.485E+03,   909.485E+03
C:/temp/Job-6.odb,Step-1,Increment      1: Step Time =    1.000,"P-6-1",           691,   116.770E-03,   44.5783E-03,            0.,NA,NA,"",   1.04648E+06,   1.05634E+06,   1.05634E+06
C:/temp/Job-6.odb,Step-1,Increment      1: Step Time =    1.000,"P-6-1",           692,   42.1447E-03,   136.217E-03,            0.,NA,NA,"",   969.537E+03,   1.00826E+06,   1.00826E+06
C:/temp/Job-6.odb,Step-1,Increment      1: Step Time =    1.000,"P-6-1",           693,   69.5072E-03,   40.1942E-03,            0.,NA,NA,"",   1.05546E+06,   1.06097E+06,   1.06097E+06
C:/temp/Job-6.odb,Step-1,Increment      1: Step Time =    1.000,"P-6-1",           694,   139.530E-03,   161.318E-03,            0.,NA,NA,"",   1.04956E+06,   1.03945E+06,   1.03945E+06
C:/temp/Job-6.odb,Step-1,Increment      1: Step Time =    1.000,"P-6-1",           695,   157.123E-03,   62.3110E-03,            0.,NA,NA,"",   1.04192E+06,   1.02805E+06,   1.02805E+06
C:/temp/Job-6.odb,Step-1,Increment      1: Step Time =    1.000,"P-6-1",           696,   86.0667E-03,   157.382E-03,            0.,NA,NA,"",   1.03839E+06,   1.05557E+06,   1.05557E+06
C:/temp/Job-6.odb,Step-1,Increment      1: Step Time =    1.000,"P-6-1",           697,   157.308E-03,   123.037E-03,            0.,NA,NA,"",   997.703E+03,   990.777E+03,   990.777E+03
C:/temp/Job-6.odb,Step-1,Increment      1: Step Time =    1.000,"P-6-1",           698,   39.1882E-03,   94.9941E-03,            0.,NA,NA,"",   829.432E+03,   895.928E+03,   895.928E+03
C:/temp/Job-6.odb,Step-1,Increment      1: Step Time =    1.000,"P-6-1",           699,   94.7434E-03,   159.027E-03,            0.,NA,NA,"",   1.01782E+06,   1.04091E+06,   1.04091E+06
C:/temp/Job-6.odb,Step-1,Increment      1: Step Time =    1.000,"P-6-1",           700,   38.3073E-03,   100.353E-03,            0.,NA,NA,"",   823.196E+03,   891.658E+03,   891.658E+03
C:/temp/Job-6.odb,Step-1,Increment      1: Step Time =    1.000,"P-6-1",           701,   157.167E-03,   97.9975E-03,            0.,NA,NA,"",   920.523E+03,   930.278E+03,   930.278E+03
C:/temp/Job-6.odb,Step-1,Increment      1: Step Time =    1.000,"P-6-1",           702,   100.048E-03,   155.198E-03,            0.,NA,NA,"",   1.01622E+06,   1.04619E+06,   1.04619E+06
C:/temp/Job-6.odb,Step-1,Increment      1: Step Time =    1.000,"P-6-1",           703,   155.789E-03,   108.294E-03,            0.,NA,NA,"",   926.957E+03,   934.106E+03,   934.106E+03
C:/temp/Job-6.odb,Step-1,Increment      1: Step Time =    1.000,"P-6-1",           704,   99.5123E-03,   40.0846E-03,            0.,NA,NA,"",   1.01473E+06,   1.03612E+06,   1.03612E+06
C:/temp/Job-6.odb,Step-1,Increment      1: Step Time =    1.000,"P-6-1",           705,   157.044E-03,   114.761E-03,            0.,NA,NA,"",   960.620E+03,   961.464E+03,   961.464E+03
C:/temp/Job-6.odb,Step-1,Increment      1: Step Time =    1.000,"P-6-1",           706,   107.968E-03,   42.3590E-03,            0.,NA,NA,"",   1.02234E+06,   1.04267E+06,   1.04267E+06
C:/temp/Job-6.odb,Step-1,Increment      1: Step Time =    1.000,"P-6-1",           707,   143.569E-03,   158.419E-03,            0.,NA,NA,"",   1.05369E+06,   1.04172E+06,   1.04172E+06
C:/temp/Job-6.odb,Step-1,Increment      1: Step Time =    1.000,"P-6-1",           708,   39.8986E-03,   143.234E-03,            0.,NA,NA,"",   984.192E+03,   1.02272E+06,   1.02272E+06
C:/temp/Job-6.odb,Step-1,Increment      1: Step Time =    1.000,"P-6-1",           709,   159.796E-03,   54.6611E-03,            0.,NA,NA,"",   1.04017E+06,   1.02881E+06,   1.02881E+06
C:/temp/Job-6.odb,Step-1,Increment      1: Step Time =    1.000,"P-6-1",           710,   59.9269E-03,   39.9941E-03,            0.,NA,NA,"",   1.05593E+06,   1.06199E+06,   1.06199E+06
C:/temp/Job-6.odb,Step-1,Increment      1: Step Time =    1.000,"P-6-1",           711,   149.163E-03,   159.032E-03,            0.,NA,NA,"",   1.04701E+06,   1.03541E+06,   1.03541E+06
C:/temp/Job-6.odb,Step-1,Increment      1: Step Time =    1.000,"P-6-1",           712,   158.758E-03,   48.9959E-03,            0.,NA,NA,"",   1.04126E+06,   1.03019E+06,   1.03019E+06
C:/temp/Job-6.odb,Step-1,Increment      1: Step Time =    1.000,"P-6-1",           713,   42.9324E-03,   149.697E-03,            0.,NA,NA,"",   1.01565E+06,   1.04419E+06,   1.04419E+06
C:/temp/Job-6.odb,Step-1,Increment      1: Step Time =    1.000,"P-6-1",           714,   51.1868E-03,   40.0201E-03,            0.,NA,NA,"",   1.04756E+06,   1.06014E+06,   1.06014E+06
C:/temp/Job-6.odb,Step-1,Increment      1: Step Time =    1.000,"P-6-1",           715,   42.8032E-03,   155.355E-03,            0.,NA,NA,"",   1.02674E+06,   1.05167E+06,   1.05167E+06
C:/temp/Job-6.odb,Step-1,Increment      1: Step Time =    1.000,"P-6-1",           716,   151.873E-03,   155.571E-03,            0.,NA,NA,"",   1.04961E+06,   1.03698E+06,   1.03698E+06
C:/temp/Job-6.odb,Step-1,Increment      1: Step Time =    1.000,"P-6-1",           717,   157.694E-03,   43.7083E-03,            0.,NA,NA,"",   1.03856E+06,   1.02855E+06,   1.02855E+06
C:/temp/Job-6.odb,Step-1,Increment      1: Step Time =    1.000,"P-6-1",           718,   44.9930E-03,   42.0612E-03,            0.,NA,NA,"",   1.03217E+06,   1.05382E+06,   1.05382E+06
C:/temp/Job-6.odb,Step-1,Increment      1: Step Time =    1.000,"P-6-1",           719,   155.379E-03,   40.1614E-03,            0.,NA,NA,"",   1.03769E+06,   1.02813E+06,   1.02813E+06
C:/temp/Job-6.odb,Step-1,Increment      1: Step Time =    1.000,"P-6-1",           720,   161.480E-03,   156.189E-03,            0.,NA,NA,"",   1.03385E+06,   1.02503E+06,   1.02503E+06
C:/temp/Job-6.odb,Step-1,Increment      1: Step Time =    1.000,"P-6-1",           721,   40.3669E-03,   45.8082E-03,            0.,NA,NA,"",   1.01585E+06,   1.04647E+06,   1.04647E+06
C:/temp/Job-6.odb,Step-1,Increment      1: Step Time =    1.000,"P-6-1",           722,   51.8728E-03,   161.102E-03,            0.,NA,NA,"",   1.04656E+06,   1.05824E+06,   1.05824E+06
C:/temp/Job-6.odb,Step-1,Increment      1: Step Time =    1.000,"P-6-1",           723,   151.528E-03,   37.6700E-03,            0.,NA,NA,"",   1.03844E+06,   1.02899E+06,   1.02899E+06
C:/temp/Job-6.odb,Step-1,Increment      1: Step Time =    1.000,"P-6-1",           724,   159.883E-03,   146.947E-03,            0.,NA,NA,"",   1.04038E+06,   1.02911E+06,   1.02911E+06
C:/temp/Job-6.odb,Step-1,Increment      1: Step Time =    1.000,"P-6-1",           725,   37.8763E-03,   50.0945E-03,            0.,NA,NA,"",   996.653E+03,   1.03456E+06,   1.03456E+06
C:/temp/Job-6.odb,Step-1,Increment      1: Step Time =    1.000,"P-6-1",           726,   142.933E-03,   45.9357E-03,            0.,NA,NA,"",   1.06513E+06,   1.04997E+06,   1.04997E+06
C:/temp/Job-6.odb,Step-1,Increment      1: Step Time =    1.000,"P-6-1",           727,   156.520E-03,   139.944E-03,            0.,NA,NA,"",   1.04626E+06,   1.03125E+06,   1.03125E+06
C:/temp/Job-6.odb,Step-1,Increment      1: Step Time =    1.000,"P-6-1",           728,   62.4712E-03,   159.170E-03,            0.,NA,NA,"",   1.05680E+06,   1.06202E+06,   1.06202E+06
C:/temp/Job-6.odb,Step-1,Increment      1: Step Time =    1.000,"P-6-1",           729,   43.8126E-03,   63.9295E-03,            0.,NA,NA,"",   974.393E+03,   1.01067E+06,   1.01067E+06
C:/temp/Job-6.odb,Step-1,Increment      1: Step Time =    1.000,"P-6-1",           730,   42.4246E-03,   163.106E-03,            0.,NA,NA,"",   1.03577E+06,   1.05655E+06,   1.05655E+06
C:/temp/Job-6.odb,Step-1,Increment      1: Step Time =    1.000,"P-6-1",           731,   157.524E-03,   135.036E-03,            0.,NA,NA,"",   1.03456E+06,   1.02176E+06,   1.02176E+06
C:/temp/Job-6.odb,Step-1,Increment      1: Step Time =    1.000,"P-6-1",           732,   46.9922E-03,   124.115E-03,            0.,NA,NA,"",   929.652E+03,   968.583E+03,   968.583E+03
C:/temp/Job-6.odb,Step-1,Increment      1: Step Time =    1.000,"P-6-1",           733,   128.466E-03,   154.895E-03,            0.,NA,NA,"",   1.06695E+06,   1.06000E+06,   1.06000E+06
C:/temp/Job-6.odb,Step-1,Increment      1: Step Time =    1.000,"P-6-1",           734,   43.9368E-03,   115.757E-03,            0.,NA,NA,"",   865.846E+03,   920.187E+03,   920.187E+03
C:/temp/Job-6.odb,Step-1,Increment      1: Step Time =    1.000,"P-6-1",           735,   119.282E-03,   154.526E-03,            0.,NA,NA,"",   1.05604E+06,   1.06124E+06,   1.06124E+06
C:/temp/Job-6.odb,Step-1,Increment      1: Step Time =    1.000,"P-6-1",           736,   76.1369E-03,   47.5476E-03,            0.,NA,NA,"",   1.06685E+06,   1.07626E+06,   1.07626E+06
C:/temp/Job-6.odb,Step-1,Increment      1: Step Time =    1.000,"P-6-1",           737,   70.4304E-03,   153.091E-03,            0.,NA,NA,"",   1.07077E+06,   1.07516E+06,   1.07516E+06
C:/temp/Job-6.odb,Step-1,Increment      1: Step Time =    1.000,"P-6-1",           738,   150.910E-03,   72.5387E-03,            0.,NA,NA,"",   1.03295E+06,   1.01486E+06,   1.01486E+06
C:/temp/Job-6.odb,Step-1,Increment      1: Step Time =    1.000,"P-6-1",           739,   41.3914E-03,   107.671E-03,            0.,NA,NA,"",   829.983E+03,   893.899E+03,   893.899E+03
C:/temp/Job-6.odb,Step-1,Increment      1: Step Time =    1.000,"P-6-1",           740,   132.438E-03,   46.9660E-03,            0.,NA,NA,"",   1.07431E+06,   1.06243E+06,   1.06243E+06
C:/temp/Job-6.odb,Step-1,Increment      1: Step Time =    1.000,"P-6-1",           741,   114.127E-03,   150.258E-03,            0.,NA,NA,"",   1.05571E+06,   1.07110E+06,   1.07110E+06
C:/temp/Job-6.odb,Step-1,Increment      1: Step Time =    1.000,"P-6-1",           742,   47.8027E-03,   79.0956E-03,            0.,NA,NA,"",   914.278E+03,   955.298E+03,   955.298E+03
C:/temp/Job-6.odb,Step-1,Increment      1: Step Time =    1.000,"P-6-1",           743,   75.4448E-03,   154.245E-03,            0.,NA,NA,"",   1.06619E+06,   1.07359E+06,   1.07359E+06
C:/temp/Job-6.odb,Step-1,Increment      1: Step Time =    1.000,"P-6-1",           744,   49.0539E-03,   72.4842E-03,            0.,NA,NA,"",   959.932E+03,   991.542E+03,   991.542E+03
C:/temp/Job-6.odb,Step-1,Increment      1: Step Time =    1.000,"P-6-1",           745,   153.890E-03,   81.5597E-03,            0.,NA,NA,"",   974.891E+03,   969.777E+03,   969.777E+03
C:/temp/Job-6.odb,Step-1,Increment      1: Step Time =    1.000,"P-6-1",           746,   82.4186E-03,   47.7100E-03,            0.,NA,NA,"",   1.05507E+06,   1.07140E+06,   1.07140E+06
C:/temp/Job-6.odb,Step-1,Increment      1: Step Time =    1.000,"P-6-1",           747,   124.926E-03,   46.0915E-03,            0.,NA,NA,"",   1.06792E+06,   1.06419E+06,   1.06419E+06
C:/temp/Job-6.odb,Step-1,Increment      1: Step Time =    1.000,"P-6-1",           748,   50.6585E-03,   132.418E-03,            0.,NA,NA,"",   996.286E+03,   1.01936E+06,   1.01936E+06
C:/temp/Job-6.odb,Step-1,Increment      1: Step Time =    1.000,"P-6-1",           749,   88.2645E-03,   47.5913E-03,            0.,NA,NA,"",   1.04050E+06,   1.06384E+06,   1.06384E+06
C:/temp/Job-6.odb,Step-1,Increment      1: Step Time =    1.000,"P-6-1",           750,   120.118E-03,   49.8597E-03,            0.,NA,NA,"",   1.07326E+06,   1.07612E+06,   1.07612E+06
C:/temp/Job-6.odb,Step-1,Increment      1: Step Time =    1.000,"P-6-1",           751,   153.589E-03,   88.1596E-03,            0.,NA,NA,"",   940.116E+03,   942.165E+03,   942.165E+03
C:/temp/Job-6.odb,Step-1,Increment      1: Step Time =    1.000,"P-6-1",           752,   134.121E-03,   159.795E-03,            0.,NA,NA,"",   1.05385E+06,   1.04570E+06,   1.04570E+06
C:/temp/Job-6.odb,Step-1,Increment      1: Step Time =    1.000,"P-6-1",           753,   69.6498E-03,   47.6953E-03,            0.,NA,NA,"",   1.07363E+06,   1.07815E+06,   1.07815E+06
C:/temp/Job-6.odb,Step-1,Increment      1: Step Time =    1.000,"P-6-1",           754,   153.708E-03,   67.0788E-03,            0.,NA,NA,"",   1.04224E+06,   1.02557E+06,   1.02557E+06
C:/temp/Job-6.odb,Step-1,Increment      1: Step Time =    1.000,"P-6-1",           755,   46.6438E-03,   85.3574E-03,            0.,NA,NA,"",   872.168E+03,   921.924E+03,   921.924E+03
C:/temp/Job-6.odb,Step-1,Increment      1: Step Time =    1.000,"P-6-1",           756,   154.182E-03,   127.534E-03,            0.,NA,NA,"",   1.02137E+06,   1.00811E+06,   1.00811E+06
C:/temp/Job-6.odb,Step-1,Increment      1: Step Time =    1.000,"P-6-1",           757,   43.0940E-03,   102.374E-03,            0.,NA,NA,"",   819.787E+03,   883.145E+03,   883.145E+03
C:/temp/Job-6.odb,Step-1,Increment      1: Step Time =    1.000,"P-6-1",           758,   82.4232E-03,   153.039E-03,            0.,NA,NA,"",   1.05762E+06,   1.07157E+06,   1.07157E+06
C:/temp/Job-6.odb,Step-1,Increment      1: Step Time =    1.000,"P-6-1",           759,   104.731E-03,   150.495E-03,            0.,NA,NA,"",   1.02596E+06,   1.05926E+06,   1.05926E+06
C:/temp/Job-6.odb,Step-1,Increment      1: Step Time =    1.000,"P-6-1",           760,   94.4167E-03,   46.9888E-03,            0.,NA,NA,"",   1.02770E+06,   1.05568E+06,   1.05568E+06
C:/temp/Job-6.odb,Step-1,Increment      1: Step Time =    1.000,"P-6-1",           761,   155.242E-03,   93.2372E-03,            0.,NA,NA,"",   924.359E+03,   931.549E+03,   931.549E+03
C:/temp/Job-6.odb,Step-1,Increment      1: Step Time =    1.000,"P-6-1",           762,   152.620E-03,   111.332E-03,            0.,NA,NA,"",   933.233E+03,   935.943E+03,   935.943E+03
C:/temp/Job-6.odb,Step-1,Increment      1: Step Time =    1.000,"P-6-1",           763,   151.761E-03,   100.102E-03,            0.,NA,NA,"",   896.628E+03,   906.549E+03,   906.549E+03
C:/temp/Job-6.odb,Step-1,Increment      1: Step Time =    1.000,"P-6-1",           764,   45.5241E-03,   91.2834E-03,            0.,NA,NA,"",   839.526E+03,   896.388E+03,   896.388E+03
C:/temp/Job-6.odb,Step-1,Increment      1: Step Time =    1.000,"P-6-1",           765,   111.494E-03,   47.9602E-03,            0.,NA,NA,"",   1.03977E+06,   1.06078E+06,   1.06078E+06
C:/temp/Job-6.odb,Step-1,Increment      1: Step Time =    1.000,"P-6-1",           766,   90.7834E-03,   153.745E-03,            0.,NA,NA,"",   1.03399E+06,   1.05929E+06,   1.05929E+06
C:/temp/Job-6.odb,Step-1,Increment      1: Step Time =    1.000,"P-6-1",           767,   152.411E-03,   119.149E-03,            0.,NA,NA,"",   984.658E+03,   976.568E+03,   976.568E+03
C:/temp/Job-6.odb,Step-1,Increment      1: Step Time =    1.000,"P-6-1",           768,   44.3758E-03,   96.9492E-03,            0.,NA,NA,"",   821.823E+03,   883.131E+03,   883.131E+03
C:/temp/Job-6.odb,Step-1,Increment      1: Step Time =    1.000,"P-6-1",           769,   101.607E-03,   46.3375E-03,            0.,NA,NA,"",   1.02238E+06,   1.05114E+06,   1.05114E+06
C:/temp/Job-6.odb,Step-1,Increment      1: Step Time =    1.000,"P-6-1",           770,   48.3498E-03,   138.382E-03,            0.,NA,NA,"",   1.00714E+06,   1.03146E+06,   1.03146E+06
C:/temp/Job-6.odb,Step-1,Increment      1: Step Time =    1.000,"P-6-1",           771,   63.9126E-03,   42.7232E-03,            0.,NA,NA,"",   1.06204E+06,   1.06748E+06,   1.06748E+06
C:/temp/Job-6.odb,Step-1,Increment      1: Step Time =    1.000,"P-6-1",           772,   137.624E-03,   154.781E-03,            0.,NA,NA,"",   1.06757E+06,   1.05452E+06,   1.05452E+06
C:/temp/Job-6.odb,Step-1,Increment      1: Step Time =    1.000,"P-6-1",           773,   153.042E-03,   57.3871E-03,            0.,NA,NA,"",   1.05652E+06,   1.03961E+06,   1.03961E+06
C:/temp/Job-6.odb,Step-1,Increment      1: Step Time =    1.000,"P-6-1",           774,   146.162E-03,   153.059E-03,            0.,NA,NA,"",   1.06300E+06,   1.04766E+06,   1.04766E+06
C:/temp/Job-6.odb,Step-1,Increment      1: Step Time =    1.000,"P-6-1",           775,   153.263E-03,   50.1384E-03,            0.,NA,NA,"",   1.05296E+06,   1.03874E+06,   1.03874E+06
C:/temp/Job-6.odb,Step-1,Increment      1: Step Time =    1.000,"P-6-1",           776,   46.1779E-03,   144.343E-03,            0.,NA,NA,"",   1.01465E+06,   1.04010E+06,   1.04010E+06
C:/temp/Job-6.odb,Step-1,Increment      1: Step Time =    1.000,"P-6-1",           777,   55.3060E-03,   46.3100E-03,            0.,NA,NA,"",   1.05392E+06,   1.06397E+06,   1.06397E+06
C:/temp/Job-6.odb,Step-1,Increment      1: Step Time =    1.000,"P-6-1",           778,   49.5411E-03,   152.398E-03,            0.,NA,NA,"",   1.03712E+06,   1.05480E+06,   1.05480E+06
C:/temp/Job-6.odb,Step-1,Increment      1: Step Time =    1.000,"P-6-1",           779,   148.492E-03,   148.243E-03,            0.,NA,NA,"",   1.06711E+06,   1.04909E+06,   1.04909E+06
C:/temp/Job-6.odb,Step-1,Increment      1: Step Time =    1.000,"P-6-1",           780,   153.337E-03,   44.4245E-03,            0.,NA,NA,"",   1.04486E+06,   1.03327E+06,   1.03327E+06
C:/temp/Job-6.odb,Step-1,Increment      1: Step Time =    1.000,"P-6-1",           781,   48.3694E-03,   48.8328E-03,            0.,NA,NA,"",   1.03100E+06,   1.05135E+06,   1.05135E+06
C:/temp/Job-6.odb,Step-1,Increment      1: Step Time =    1.000,"P-6-1",           782,   155.294E-03,   144.793E-03,            0.,NA,NA,"",   1.05212E+06,   1.03675E+06,   1.03675E+06
C:/temp/Job-6.odb,Step-1,Increment      1: Step Time =    1.000,"P-6-1",           783,   148.114E-03,   43.2237E-03,            0.,NA,NA,"",   1.05160E+06,   1.03894E+06,   1.03894E+06
C:/temp/Job-6.odb,Step-1,Increment      1: Step Time =    1.000,"P-6-1",           784,   55.5959E-03,   155.486E-03,            0.,NA,NA,"",   1.05244E+06,   1.06218E+06,   1.06218E+06
C:/temp/Job-6.odb,Step-1,Increment      1: Step Time =    1.000,"P-6-1",           785,   64.5136E-03,   151.754E-03,            0.,NA,NA,"",   1.07024E+06,   1.07421E+06,   1.07421E+06
C:/temp/Job-6.odb,Step-1,Increment      1: Step Time =    1.000,"P-6-1",           786,   151.013E-03,   137.964E-03,            0.,NA,NA,"",   1.06147E+06,   1.04067E+06,   1.04067E+06
C:/temp/Job-6.odb,Step-1,Increment      1: Step Time =    1.000,"P-6-1",           787,   139.068E-03,   48.9022E-03,            0.,NA,NA,"",   1.07729E+06,   1.06046E+06,   1.06046E+06
C:/temp/Job-6.odb,Step-1,Increment      1: Step Time =    1.000,"P-6-1",           788,   50.8165E-03,   64.9280E-03,            0.,NA,NA,"",   1.00608E+06,   1.02784E+06,   1.02784E+06
C:/temp/Job-6.odb,Step-1,Increment      1: Step Time =    1.000,"P-6-1",           789,   155.272E-03,   150.533E-03,            0.,NA,NA,"",   1.04963E+06,   1.03617E+06,   1.03617E+06
C:/temp/Job-6.odb,Step-1,Increment      1: Step Time =    1.000,"P-6-1",           790,   42.8521E-03,   50.5749E-03,            0.,NA,NA,"",   1.01118E+06,   1.04107E+06,   1.04107E+06
C:/temp/Job-6.odb,Step-1,Increment      1: Step Time =    1.000,"P-6-1",           791,   49.3558E-03,   118.350E-03,            0.,NA,NA,"",   895.444E+03,   936.624E+03,   936.624E+03
C:/temp/Job-6.odb,Step-1,Increment      1: Step Time =    1.000,"P-6-1",           792,   123.339E-03,   150.132E-03,            0.,NA,NA,"",   1.07970E+06,   1.07665E+06,   1.07665E+06
C:/temp/Job-6.odb,Step-1,Increment      1: Step Time =    1.000,"P-6-1",           793,   72.8836E-03,   147.593E-03,            0.,NA,NA,"",   1.08727E+06,   1.09068E+06,   1.09068E+06
C:/temp/Job-6.odb,Step-1,Increment      1: Step Time =    1.000,"P-6-1",           794,   52.8335E-03,   126.545E-03,            0.,NA,NA,"",   977.939E+03,   999.883E+03,   999.883E+03
C:/temp/Job-6.odb,Step-1,Increment      1: Step Time =    1.000,"P-6-1",           795,   82.6145E-03,   53.2644E-03,            0.,NA,NA,"",   1.07082E+06,   1.08884E+06,   1.08884E+06
C:/temp/Job-6.odb,Step-1,Increment      1: Step Time =    1.000,"P-6-1",           796,   46.2638E-03,   110.194E-03,            0.,NA,NA,"",   837.326E+03,   893.484E+03,   893.484E+03
C:/temp/Job-6.odb,Step-1,Increment      1: Step Time =    1.000,"P-6-1",           797,   132.276E-03,   150.823E-03,            0.,NA,NA,"",   1.08196E+06,   1.06857E+06,   1.06857E+06
C:/temp/Job-6.odb,Step-1,Increment      1: Step Time =    1.000,"P-6-1",           798,   118.436E-03,   145.466E-03,            0.,NA,NA,"",   1.08863E+06,   1.09300E+06,   1.09300E+06
C:/temp/Job-6.odb,Step-1,Increment      1: Step Time =    1.000,"P-6-1",           799,   54.9337E-03,   75.2104E-03,            0.,NA,NA,"",   974.453E+03,   994.463E+03,   994.463E+03
C:/temp/Job-6.odb,Step-1,Increment      1: Step Time =    1.000,"P-6-1",           800,   147.936E-03,   77.7193E-03,            0.,NA,NA,"",   1.01094E+06,   993.394E+03,   993.394E+03
C:/temp/Job-6.odb,Step-1,Increment      1: Step Time =    1.000,"P-6-1",           801,   128.069E-03,   50.1955E-03,            0.,NA,NA,"",   1.08593E+06,   1.07514E+06,   1.07514E+06
C:/temp/Job-6.odb,Step-1,Increment      1: Step Time =    1.000,"P-6-1",           802,   76.5268E-03,   53.5131E-03,            0.,NA,NA,"",   1.08501E+06,   1.09374E+06,   1.09374E+06
C:/temp/Job-6.odb,Step-1,Increment      1: Step Time =    1.000,"P-6-1",           803,   124.201E-03,   55.1068E-03,            0.,NA,NA,"",   1.10404E+06,   1.09422E+06,   1.09422E+06
C:/temp/Job-6.odb,Step-1,Increment      1: Step Time =    1.000,"P-6-1",           804,   145.499E-03,   69.5404E-03,            0.,NA,NA,"",   1.06659E+06,   1.03950E+06,   1.03950E+06
C:/temp/Job-6.odb,Step-1,Increment      1: Step Time =    1.000,"P-6-1",           805,   152.248E-03,   132.649E-03,            0.,NA,NA,"",   1.04462E+06,   1.02630E+06,   1.02630E+06
C:/temp/Job-6.odb,Step-1,Increment      1: Step Time =    1.000,"P-6-1",           806,   88.5945E-03,   53.1490E-03,            0.,NA,NA,"",   1.05322E+06,   1.08138E+06,   1.08138E+06
C:/temp/Job-6.odb,Step-1,Increment      1: Step Time =    1.000,"P-6-1",           807,   149.377E-03,   84.8986E-03,            0.,NA,NA,"",   951.206E+03,   946.146E+03,   946.146E+03
C:/temp/Job-6.odb,Step-1,Increment      1: Step Time =    1.000,"P-6-1",           808,   48.1091E-03,   104.700E-03,            0.,NA,NA,"",   813.719E+03,   871.368E+03,   871.368E+03
C:/temp/Job-6.odb,Step-1,Increment      1: Step Time =    1.000,"P-6-1",           809,   53.4492E-03,   81.4530E-03,            0.,NA,NA,"",   917.113E+03,   948.646E+03,   948.646E+03
C:/temp/Job-6.odb,Step-1,Increment      1: Step Time =    1.000,"P-6-1",           810,   109.177E-03,   145.668E-03,            0.,NA,NA,"",   1.05392E+06,   1.08329E+06,   1.08329E+06
C:/temp/Job-6.odb,Step-1,Increment      1: Step Time =    1.000,"P-6-1",           811,   94.8639E-03,   53.1581E-03,            0.,NA,NA,"",   1.03421E+06,   1.07123E+06,   1.07123E+06
C:/temp/Job-6.odb,Step-1,Increment      1: Step Time =    1.000,"P-6-1",           812,   78.1338E-03,   149.677E-03,            0.,NA,NA,"",   1.07476E+06,   1.08325E+06,   1.08325E+06
C:/temp/Job-6.odb,Step-1,Increment      1: Step Time =    1.000,"P-6-1",           813,   147.815E-03,   91.4067E-03,            0.,NA,NA,"",   911.082E+03,   914.499E+03,   914.499E+03
C:/temp/Job-6.odb,Step-1,Increment      1: Step Time =    1.000,"P-6-1",           814,   115.096E-03,   53.4446E-03,            0.,NA,NA,"",   1.07134E+06,   1.08619E+06,   1.08619E+06
C:/temp/Job-6.odb,Step-1,Increment      1: Step Time =    1.000,"P-6-1",           815,   149.616E-03,   95.6346E-03,            0.,NA,NA,"",   896.691E+03,   904.740E+03,   904.740E+03
C:/temp/Job-6.odb,Step-1,Increment      1: Step Time =    1.000,"P-6-1",           816,   52.1664E-03,   87.5684E-03,            0.,NA,NA,"",   862.111E+03,   905.208E+03,   905.208E+03
C:/temp/Job-6.odb,Step-1,Increment      1: Step Time =    1.000,"P-6-1",           817,   147.241E-03,   123.929E-03,            0.,NA,NA,"",   1.02126E+06,   1.00171E+06,   1.00171E+06
C:/temp/Job-6.odb,Step-1,Increment      1: Step Time =    1.000,"P-6-1",           818,   57.0248E-03,   134.646E-03,            0.,NA,NA,"",   1.04063E+06,   1.04933E+06,   1.04933E+06
C:/temp/Job-6.odb,Step-1,Increment      1: Step Time =    1.000,"P-6-1",           819,   149.066E-03,   107.113E-03,            0.,NA,NA,"",   897.451E+03,   903.951E+03,   903.951E+03
C:/temp/Job-6.odb,Step-1,Increment      1: Step Time =    1.000,"P-6-1",           820,   135.783E-03,   147.083E-03,            0.,NA,NA,"",   1.09123E+06,   1.07229E+06,   1.07229E+06
C:/temp/Job-6.odb,Step-1,Increment      1: Step Time =    1.000,"P-6-1",           821,   63.0377E-03,   47.7962E-03,            0.,NA,NA,"",   1.06951E+06,   1.07384E+06,   1.07384E+06
C:/temp/Job-6.odb,Step-1,Increment      1: Step Time =    1.000,"P-6-1",           822,   148.813E-03,   63.8401E-03,            0.,NA,NA,"",   1.06522E+06,   1.04286E+06,   1.04286E+06
C:/temp/Job-6.odb,Step-1,Increment      1: Step Time =    1.000,"P-6-1",           823,   86.5831E-03,   148.907E-03,            0.,NA,NA,"",   1.05955E+06,   1.08192E+06,   1.08192E+06
C:/temp/Job-6.odb,Step-1,Increment      1: Step Time =    1.000,"P-6-1",           824,   49.6062E-03,   99.1734E-03,            0.,NA,NA,"",   806.941E+03,   863.565E+03,   863.565E+03
C:/temp/Job-6.odb,Step-1,Increment      1: Step Time =    1.000,"P-6-1",           825,   99.6939E-03,   51.5815E-03,            0.,NA,NA,"",   1.02935E+06,   1.06626E+06,   1.06626E+06
C:/temp/Job-6.odb,Step-1,Increment      1: Step Time =    1.000,"P-6-1",           826,   148.349E-03,   114.729E-03,            0.,NA,NA,"",   957.022E+03,   950.448E+03,   950.448E+03
C:/temp/Job-6.odb,Step-1,Increment      1: Step Time =    1.000,"P-6-1",           827,   100.030E-03,   145.288E-03,            0.,NA,NA,"",   1.02586E+06,   1.07374E+06,   1.07374E+06
C:/temp/Job-6.odb,Step-1,Increment      1: Step Time =    1.000,"P-6-1",           828,   50.9268E-03,   93.4617E-03,            0.,NA,NA,"",   823.094E+03,   874.873E+03,   874.873E+03
C:/temp/Job-6.odb,Step-1,Increment      1: Step Time =    1.000,"P-6-1",           829,   91.1369E-03,   144.895E-03,            0.,NA,NA,"",   1.05774E+06,   1.09167E+06,   1.09167E+06
C:/temp/Job-6.odb,Step-1,Increment      1: Step Time =    1.000,"P-6-1",           830,   106.646E-03,   51.5989E-03,            0.,NA,NA,"",   1.03484E+06,   1.06721E+06,   1.06721E+06
C:/temp/Job-6.odb,Step-1,Increment      1: Step Time =    1.000,"P-6-1",           831,   54.7574E-03,   140.690E-03,            0.,NA,NA,"",   1.04272E+06,   1.05464E+06,   1.05464E+06
C:/temp/Job-6.odb,Step-1,Increment      1: Step Time =    1.000,"P-6-1",           832,   138.726E-03,   143.728E-03,            0.,NA,NA,"",   1.09846E+06,   1.07470E+06,   1.07470E+06
C:/temp/Job-6.odb,Step-1,Increment      1: Step Time =    1.000,"P-6-1",           833,   56.0094E-03,   54.3017E-03,            0.,NA,NA,"",   1.05110E+06,   1.06160E+06,   1.06160E+06
C:/temp/Job-6.odb,Step-1,Increment      1: Step Time =    1.000,"P-6-1",           834,   146.674E-03,   55.5137E-03,            0.,NA,NA,"",   1.07319E+06,   1.05292E+06,   1.05292E+06
C:/temp/Job-6.odb,Step-1,Increment      1: Step Time =    1.000,"P-6-1",           835,   52.2128E-03,   146.770E-03,            0.,NA,NA,"",   1.03962E+06,   1.05496E+06,   1.05496E+06
C:/temp/Job-6.odb,Step-1,Increment      1: Step Time =    1.000,"P-6-1",           836,   148.333E-03,   49.7472E-03,            0.,NA,NA,"",   1.06204E+06,   1.04584E+06,   1.04584E+06
C:/temp/Job-6.odb,Step-1,Increment      1: Step Time =    1.000,"P-6-1",           837,   143.119E-03,   146.025E-03,            0.,NA,NA,"",   1.08269E+06,   1.06153E+06,   1.06153E+06
C:/temp/Job-6.odb,Step-1,Increment      1: Step Time =    1.000,"P-6-1",           838,   50.2059E-03,   56.7867E-03,            0.,NA,NA,"",   1.02593E+06,   1.04559E+06,   1.04559E+06
C:/temp/Job-6.odb,Step-1,Increment      1: Step Time =    1.000,"P-6-1",           839,   149.848E-03,   143.195E-03,            0.,NA,NA,"",   1.06784E+06,   1.04771E+06,   1.04771E+06
C:/temp/Job-6.odb,Step-1,Increment      1: Step Time =    1.000,"P-6-1",           840,   144.551E-03,   49.4881E-03,            0.,NA,NA,"",   1.06837E+06,   1.05126E+06,   1.05126E+06
C:/temp/Job-6.odb,Step-1,Increment      1: Step Time =    1.000,"P-6-1",           841,   58.4158E-03,   149.365E-03,            0.,NA,NA,"",   1.06066E+06,   1.06802E+06,   1.06802E+06
C:/temp/Job-6.odb,Step-1,Increment      1: Step Time =    1.000,"P-6-1",           842,   145.539E-03,   136.327E-03,            0.,NA,NA,"",   1.08161E+06,   1.05452E+06,   1.05452E+06
C:/temp/Job-6.odb,Step-1,Increment      1: Step Time =    1.000,"P-6-1",           843,   57.0274E-03,   69.3404E-03,            0.,NA,NA,"",   1.02303E+06,   1.03330E+06,   1.03330E+06
C:/temp/Job-6.odb,Step-1,Increment      1: Step Time =    1.000,"P-6-1",           844,   67.1559E-03,   145.600E-03,            0.,NA,NA,"",   1.08622E+06,   1.08710E+06,   1.08710E+06
C:/temp/Job-6.odb,Step-1,Increment      1: Step Time =    1.000,"P-6-1",           845,   135.062E-03,   51.5343E-03,            0.,NA,NA,"",   1.08748E+06,   1.07004E+06,   1.07004E+06
C:/temp/Job-6.odb,Step-1,Increment      1: Step Time =    1.000,"P-6-1",           846,   46.8039E-03,   157.929E-03,            0.,NA,NA,"",   1.03629E+06,   1.05541E+06,   1.05541E+06
C:/temp/Job-6.odb,Step-1,Increment      1: Step Time =    1.000,"P-6-1",           847,   54.9702E-03,   120.698E-03,            0.,NA,NA,"",   941.708E+03,   965.093E+03,   965.093E+03
C:/temp/Job-6.odb,Step-1,Increment      1: Step Time =    1.000,"P-6-1",           848,   57.0319E-03,   115.006E-03,            0.,NA,NA,"",   883.075E+03,   912.196E+03,   912.196E+03
C:/temp/Job-6.odb,Step-1,Increment      1: Step Time =    1.000,"P-6-1",           849,   123.034E-03,   140.204E-03,            0.,NA,NA,"",   1.12405E+06,   1.11229E+06,   1.11229E+06
C:/temp/Job-6.odb,Step-1,Increment      1: Step Time =    1.000,"P-6-1",           850,   77.5331E-03,   59.0629E-03,            0.,NA,NA,"",   1.10789E+06,   1.11388E+06,   1.11388E+06
C:/temp/Job-6.odb,Step-1,Increment      1: Step Time =    1.000,"P-6-1",           851,   142.386E-03,   74.8620E-03,            0.,NA,NA,"",   1.05644E+06,   1.02563E+06,   1.02563E+06
C:/temp/Job-6.odb,Step-1,Increment      1: Step Time =    1.000,"P-6-1",           852,   144.817E-03,   82.2841E-03,            0.,NA,NA,"",   975.530E+03,   960.812E+03,   960.812E+03
C:/temp/Job-6.odb,Step-1,Increment      1: Step Time =    1.000,"P-6-1",           853,   125.091E-03,   60.1805E-03,            0.,NA,NA,"",   1.13075E+06,   1.11215E+06,   1.11215E+06
C:/temp/Job-6.odb,Step-1,Increment      1: Step Time =    1.000,"P-6-1",           854,   75.7536E-03,   142.014E-03,            0.,NA,NA,"",   1.10674E+06,   1.10895E+06,   1.10895E+06
C:/temp/Job-6.odb,Step-1,Increment      1: Step Time =    1.000,"P-6-1",           855,   60.7772E-03,   78.0731E-03,            0.,NA,NA,"",   989.828E+03,   995.880E+03,   995.880E+03
C:/temp/Job-6.odb,Step-1,Increment      1: Step Time =    1.000,"P-6-1",           856,   83.0610E-03,   58.9889E-03,            0.,NA,NA,"",   1.09392E+06,   1.11255E+06,   1.11255E+06
C:/temp/Job-6.odb,Step-1,Increment      1: Step Time =    1.000,"P-6-1",           857,   53.3858E-03,   107.073E-03,            0.,NA,NA,"",   808.779E+03,   858.784E+03,   858.784E+03
C:/temp/Job-6.odb,Step-1,Increment      1: Step Time =    1.000,"P-6-1",           858,   113.341E-03,   141.136E-03,            0.,NA,NA,"",   1.09164E+06,   1.11028E+06,   1.11028E+06
C:/temp/Job-6.odb,Step-1,Increment      1: Step Time =    1.000,"P-6-1",           859,   88.7777E-03,   58.8310E-03,            0.,NA,NA,"",   1.06935E+06,   1.10341E+06,   1.10341E+06
C:/temp/Job-6.odb,Step-1,Increment      1: Step Time =    1.000,"P-6-1",           860,   142.302E-03,   87.2173E-03,            0.,NA,NA,"",   927.121E+03,    918.47E+03,    918.47E+03
C:/temp/Job-6.odb,Step-1,Increment      1: Step Time =    1.000,"P-6-1",           861,   118.512E-03,   58.6410E-03,            0.,NA,NA,"",   1.11260E+06,   1.11362E+06,   1.11362E+06
C:/temp/Job-6.odb,Step-1,Increment      1: Step Time =    1.000,"P-6-1",           862,   69.6714E-03,   54.9955E-03,            0.,NA,NA,"",   1.09415E+06,   1.09466E+06,   1.09466E+06
C:/temp/Job-6.odb,Step-1,Increment      1: Step Time =    1.000,"P-6-1",           863,   58.6497E-03,   128.619E-03,            0.,NA,NA,"",   1.03082E+06,   1.03595E+06,   1.03595E+06
C:/temp/Job-6.odb,Step-1,Increment      1: Step Time =    1.000,"P-6-1",           864,   136.071E-03,   140.619E-03,            0.,NA,NA,"",   1.11269E+06,   1.08517E+06,   1.08517E+06
C:/temp/Job-6.odb,Step-1,Increment      1: Step Time =    1.000,"P-6-1",           865,   146.233E-03,   130.651E-03,            0.,NA,NA,"",   1.06314E+06,   1.03662E+06,   1.03662E+06
C:/temp/Job-6.odb,Step-1,Increment      1: Step Time =    1.000,"P-6-1",           866,   143.739E-03,   98.0759E-03,            0.,NA,NA,"",   855.469E+03,   864.269E+03,   864.269E+03
C:/temp/Job-6.odb,Step-1,Increment      1: Step Time =    1.000,"P-6-1",           867,   140.148E-03,   66.6396E-03,            0.,NA,NA,"",   1.09940E+06,   1.06658E+06,   1.06658E+06
C:/temp/Job-6.odb,Step-1,Increment      1: Step Time =    1.000,"P-6-1",           868,   59.1869E-03,   84.0005E-03,            0.,NA,NA,"",   912.283E+03,   933.556E+03,   933.556E+03
C:/temp/Job-6.odb,Step-1,Increment      1: Step Time =    1.000,"P-6-1",           869,   98.3039E-03,   57.5734E-03,            0.,NA,NA,"",   1.03541E+06,   1.08296E+06,   1.08296E+06
C:/temp/Job-6.odb,Step-1,Increment      1: Step Time =    1.000,"P-6-1",           870,   54.9835E-03,   101.495E-03,            0.,NA,NA,"",   783.173E+03,   835.062E+03,   835.062E+03
C:/temp/Job-6.odb,Step-1,Increment      1: Step Time =    1.000,"P-6-1",           871,   104.464E-03,   140.635E-03,            0.,NA,NA,"",   1.04338E+06,   1.09494E+06,   1.09494E+06
C:/temp/Job-6.odb,Step-1,Increment      1: Step Time =    1.000,"P-6-1",           872,   81.9490E-03,   144.017E-03,            0.,NA,NA,"",   1.09152E+06,   1.10279E+06,   1.10279E+06
C:/temp/Job-6.odb,Step-1,Increment      1: Step Time =    1.000,"P-6-1",           873,   146.214E-03,   102.717E-03,            0.,NA,NA,"",   866.656E+03,   876.666E+03,   876.666E+03
C:/temp/Job-6.odb,Step-1,Increment      1: Step Time =    1.000,"P-6-1",           874,   144.118E-03,   117.777E-03,            0.,NA,NA,"",   985.113E+03,   967.580E+03,   967.580E+03
C:/temp/Job-6.odb,Step-1,Increment      1: Step Time =    1.000,"P-6-1",           875,   144.361E-03,   110.335E-03,            0.,NA,NA,"",   904.539E+03,   903.026E+03,   903.026E+03
C:/temp/Job-6.odb,Step-1,Increment      1: Step Time =    1.000,"P-6-1",           876,   110.252E-03,   57.0231E-03,            0.,NA,NA,"",   1.06062E+06,   1.09279E+06,   1.09279E+06
C:/temp/Job-6.odb,Step-1,Increment      1: Step Time =    1.000,"P-6-1",           877,   57.7925E-03,   89.9447E-03,            0.,NA,NA,"",   840.567E+03,   876.837E+03,   876.837E+03
C:/temp/Job-6.odb,Step-1,Increment      1: Step Time =    1.000,"P-6-1",           878,   56.4310E-03,   95.7767E-03,            0.,NA,NA,"",   792.684E+03,   840.365E+03,   840.365E+03
C:/temp/Job-6.odb,Step-1,Increment      1: Step Time =    1.000,"P-6-1",           879,   102.583E-03,   55.1572E-03,            0.,NA,NA,"",   1.03388E+06,   1.07607E+06,   1.07607E+06
C:/temp/Job-6.odb,Step-1,Increment      1: Step Time =    1.000,"P-6-1",           880,   87.2459E-03,   140.605E-03,            0.,NA,NA,"",   1.09001E+06,   1.11464E+06,   1.11464E+06
C:/temp/Job-6.odb,Step-1,Increment      1: Step Time =    1.000,"P-6-1",           881,   95.6468E-03,   140.318E-03,            0.,NA,NA,"",   1.04464E+06,   1.09843E+06,   1.09843E+06
C:/temp/Job-6.odb,Step-1,Increment      1: Step Time =    1.000,"P-6-1",           882,   61.8935E-03,   59.4365E-03,            0.,NA,NA,"",   1.07547E+06,   1.07689E+06,   1.07689E+06
C:/temp/Job-6.odb,Step-1,Increment      1: Step Time =    1.000,"P-6-1",           883,   143.358E-03,   60.9505E-03,            0.,NA,NA,"",   1.08594E+06,   1.06037E+06,   1.06037E+06
C:/temp/Job-6.odb,Step-1,Increment      1: Step Time =    1.000,"P-6-1",           884,   61.1610E-03,   143.019E-03,            0.,NA,NA,"",   1.06983E+06,   1.07357E+06,   1.07357E+06
C:/temp/Job-6.odb,Step-1,Increment      1: Step Time =    1.000,"P-6-1",           885,   144.676E-03,   141.442E-03,            0.,NA,NA,"",   1.08459E+06,   1.06013E+06,   1.06013E+06
C:/temp/Job-6.odb,Step-1,Increment      1: Step Time =    1.000,"P-6-1",           886,   141.975E-03,   52.9654E-03,            0.,NA,NA,"",   1.07988E+06,   1.06001E+06,   1.06001E+06
C:/temp/Job-6.odb,Step-1,Increment      1: Step Time =    1.000,"P-6-1",           887,   57.9619E-03,   58.5199E-03,            0.,NA,NA,"",   1.05872E+06,   1.06524E+06,   1.06524E+06
C:/temp/Job-6.odb,Step-1,Increment      1: Step Time =    1.000,"P-6-1",           888,   62.7490E-03,   72.3863E-03,            0.,NA,NA,"",   1.04954E+06,   1.04598E+06,   1.04598E+06
C:/temp/Job-6.odb,Step-1,Increment      1: Step Time =    1.000,"P-6-1",           889,   70.0421E-03,   140.298E-03,            0.,NA,NA,"",   1.10076E+06,   1.09764E+06,   1.09764E+06
C:/temp/Job-6.odb,Step-1,Increment      1: Step Time =    1.000,"P-6-1",           890,   130.580E-03,   56.9760E-03,            0.,NA,NA,"",   1.10978E+06,   1.08933E+06,   1.08933E+06
C:/temp/Job-6.odb,Step-1,Increment      1: Step Time =    1.000,"P-6-1",           891,   140.067E-03,   135.571E-03,            0.,NA,NA,"",   1.10355E+06,   1.07142E+06,   1.07142E+06
C:/temp/Job-6.odb,Step-1,Increment      1: Step Time =    1.000,"P-6-1",           892,   62.6358E-03,   117.201E-03,            0.,NA,NA,"",   947.673E+03,   951.588E+03,   951.588E+03
C:/temp/Job-6.odb,Step-1,Increment      1: Step Time =    1.000,"P-6-1",           893,   118.872E-03,   133.544E-03,            0.,NA,NA,"",   1.16675E+06,   1.15432E+06,   1.15432E+06
C:/temp/Job-6.odb,Step-1,Increment      1: Step Time =    1.000,"P-6-1",           894,   133.828E-03,   77.7155E-03,            0.,NA,NA,"",   1.09248E+06,   1.04203E+06,   1.04203E+06
C:/temp/Job-6.odb,Step-1,Increment      1: Step Time =    1.000,"P-6-1",           895,   83.4677E-03,   64.9492E-03,            0.,NA,NA,"",   1.13076E+06,   1.14711E+06,   1.14711E+06
C:/temp/Job-6.odb,Step-1,Increment      1: Step Time =    1.000,"P-6-1",           896,   64.6336E-03,   111.687E-03,            0.,NA,NA,"",   846.279E+03,   860.734E+03,   860.734E+03
C:/temp/Job-6.odb,Step-1,Increment      1: Step Time =    1.000,"P-6-1",           897,   116.828E-03,   136.972E-03,            0.,NA,NA,"",   1.12800E+06,   1.13154E+06,   1.13154E+06
C:/temp/Job-6.odb,Step-1,Increment      1: Step Time =    1.000,"P-6-1",           898,   64.1252E-03,   129.957E-03,            0.,NA,NA,"",   1.07464E+06,   1.06749E+06,   1.06749E+06
C:/temp/Job-6.odb,Step-1,Increment      1: Step Time =    1.000,"P-6-1",           899,   122.995E-03,   133.514E-03,            0.,NA,NA,"",   1.16968E+06,   1.14544E+06,   1.14544E+06
C:/temp/Job-6.odb,Step-1,Increment      1: Step Time =    1.000,"P-6-1",           900,   71.7724E-03,   63.7783E-03,            0.,NA,NA,"",   1.12987E+06,   1.11985E+06,   1.11985E+06
C:/temp/Job-6.odb,Step-1,Increment      1: Step Time =    1.000,"P-6-1",           901,   136.925E-03,   85.5785E-03,            0.,NA,NA,"",   950.095E+03,   927.373E+03,   927.373E+03
C:/temp/Job-6.odb,Step-1,Increment      1: Step Time =    1.000,"P-6-1",           902,   89.4204E-03,   64.6586E-03,            0.,NA,NA,"",   1.09807E+06,   1.13886E+06,   1.13886E+06
C:/temp/Job-6.odb,Step-1,Increment      1: Step Time =    1.000,"P-6-1",           903,   121.858E-03,   63.2991E-03,            0.,NA,NA,"",   1.14601E+06,   1.12965E+06,   1.12965E+06
C:/temp/Job-6.odb,Step-1,Increment      1: Step Time =    1.000,"P-6-1",           904,   137.006E-03,   72.1741E-03,            0.,NA,NA,"",   1.10754E+06,   1.06596E+06,   1.06596E+06
C:/temp/Job-6.odb,Step-1,Increment      1: Step Time =    1.000,"P-6-1",           905,   66.4913E-03,   80.7337E-03,            0.,NA,NA,"",   1.00793E+06,   996.238E+03,   996.238E+03
C:/temp/Job-6.odb,Step-1,Increment      1: Step Time =    1.000,"P-6-1",           906,   77.8555E-03,   135.166E-03,            0.,NA,NA,"",   1.14098E+06,   1.13496E+06,   1.13496E+06
C:/temp/Job-6.odb,Step-1,Increment      1: Step Time =    1.000,"P-6-1",           907,   135.750E-03,   90.9784E-03,            0.,NA,NA,"",   863.091E+03,   855.439E+03,   855.439E+03
C:/temp/Job-6.odb,Step-1,Increment      1: Step Time =    1.000,"P-6-1",           908,   95.1663E-03,   64.0482E-03,            0.,NA,NA,"",   1.06452E+06,   1.12160E+06,   1.12160E+06
C:/temp/Job-6.odb,Step-1,Increment      1: Step Time =    1.000,"P-6-1",           909,   60.5715E-03,   103.811E-03,            0.,NA,NA,"",   752.947E+03,   798.405E+03,   798.405E+03
C:/temp/Job-6.odb,Step-1,Increment      1: Step Time =    1.000,"P-6-1",           910,   108.693E-03,   136.206E-03,            0.,NA,NA,"",   1.09575E+06,   1.13440E+06,   1.13440E+06
C:/temp/Job-6.odb,Step-1,Increment      1: Step Time =    1.000,"P-6-1",           911,   113.697E-03,   62.5415E-03,            0.,NA,NA,"",   1.11355E+06,   1.13251E+06,   1.13251E+06
C:/temp/Job-6.odb,Step-1,Increment      1: Step Time =    1.000,"P-6-1",           912,   139.402E-03,   124.283E-03,            0.,NA,NA,"",   1.06610E+06,   1.02882E+06,   1.02882E+06
C:/temp/Job-6.odb,Step-1,Increment      1: Step Time =    1.000,"P-6-1",           913,   64.8429E-03,   67.0311E-03,            0.,NA,NA,"",   1.08465E+06,   1.07803E+06,   1.07803E+06
C:/temp/Job-6.odb,Step-1,Increment      1: Step Time =    1.000,"P-6-1",           914,   64.9012E-03,   86.5100E-03,            0.,NA,NA,"",   901.219E+03,   908.860E+03,   908.860E+03
C:/temp/Job-6.odb,Step-1,Increment      1: Step Time =    1.000,"P-6-1",           915,   70.0100E-03,   133.213E-03,            0.,NA,NA,"",   1.12501E+06,   1.11166E+06,   1.11166E+06
C:/temp/Job-6.odb,Step-1,Increment      1: Step Time =    1.000,"P-6-1",           916,   100.501E-03,   62.6474E-03,            0.,NA,NA,"",   1.04867E+06,   1.10695E+06,   1.10695E+06
C:/temp/Job-6.odb,Step-1,Increment      1: Step Time =    1.000,"P-6-1",           917,   140.582E-03,   105.868E-03,            0.,NA,NA,"",   844.489E+03,   849.520E+03,   849.520E+03
C:/temp/Job-6.odb,Step-1,Increment      1: Step Time =    1.000,"P-6-1",           918,   134.738E-03,   136.112E-03,            0.,NA,NA,"",   1.12342E+06,   1.09012E+06,   1.09012E+06
C:/temp/Job-6.odb,Step-1,Increment      1: Step Time =    1.000,"P-6-1",           919,   62.0548E-03,   98.1112E-03,            0.,NA,NA,"",   742.236E+03,   786.153E+03,   786.153E+03
C:/temp/Job-6.odb,Step-1,Increment      1: Step Time =    1.000,"P-6-1",           920,   140.402E-03,   113.940E-03,            0.,NA,NA,"",   941.841E+03,   926.503E+03,   926.503E+03
C:/temp/Job-6.odb,Step-1,Increment      1: Step Time =    1.000,"P-6-1",           921,   83.3215E-03,   137.684E-03,            0.,NA,NA,"",   1.11751E+06,   1.12875E+06,   1.12875E+06
C:/temp/Job-6.odb,Step-1,Increment      1: Step Time =    1.000,"P-6-1",           922,   100.062E-03,   135.526E-03,            0.,NA,NA,"",   1.05073E+06,   1.12662E+06,   1.12662E+06
C:/temp/Job-6.odb,Step-1,Increment      1: Step Time =    1.000,"P-6-1",           923,   134.745E-03,   63.9343E-03,            0.,NA,NA,"",   1.12179E+06,   1.08925E+06,   1.08925E+06
C:/temp/Job-6.odb,Step-1,Increment      1: Step Time =    1.000,"P-6-1",           924,   105.543E-03,   60.2413E-03,            0.,NA,NA,"",   1.04961E+06,   1.09822E+06,   1.09822E+06
C:/temp/Job-6.odb,Step-1,Increment      1: Step Time =    1.000,"P-6-1",           925,   63.4755E-03,   92.3150E-03,            0.,NA,NA,"",   797.114E+03,   827.754E+03,   827.754E+03
C:/temp/Job-6.odb,Step-1,Increment      1: Step Time =    1.000,"P-6-1",           926,   91.3757E-03,   135.826E-03,            0.,NA,NA,"",   1.09727E+06,   1.14013E+06,   1.14013E+06
C:/temp/Job-6.odb,Step-1,Increment      1: Step Time =    1.000,"P-6-1",           927,   68.4428E-03,   75.0034E-03,            0.,NA,NA,"",   1.08940E+06,   1.06856E+06,   1.06856E+06
C:/temp/Job-6.odb,Step-1,Increment      1: Step Time =    1.000,"P-6-1",           928,   129.349E-03,   61.8687E-03,            0.,NA,NA,"",   1.13124E+06,   1.10477E+06,   1.10477E+06
C:/temp/Job-6.odb,Step-1,Increment      1: Step Time =    1.000,"P-6-1",           929,   72.4136E-03,   136.182E-03,            0.,NA,NA,"",   1.11616E+06,   1.10793E+06,   1.10793E+06
C:/temp/Job-6.odb,Step-1,Increment      1: Step Time =    1.000,"P-6-1",           930,   133.614E-03,   130.722E-03,            0.,NA,NA,"",   1.13845E+06,   1.09477E+06,   1.09477E+06
C:/temp/Job-6.odb,Step-1,Increment      1: Step Time =    1.000,"P-6-1",           931,   59.7432E-03,   64.6146E-03,            0.,NA,NA,"",   1.05857E+06,   1.06186E+06,   1.06186E+06
C:/temp/Job-6.odb,Step-1,Increment      1: Step Time =    1.000,"P-6-1",           932,   140.044E-03,   140.199E-03,            0.,NA,NA,"",   1.10207E+06,   1.07442E+06,   1.07442E+06
C:/temp/Job-6.odb,Step-1,Increment      1: Step Time =    1.000,"P-6-1",           933,   137.351E-03,   57.4620E-03,            0.,NA,NA,"",   1.09954E+06,   1.07534E+06,   1.07534E+06
C:/temp/Job-6.odb,Step-1,Increment      1: Step Time =    1.000,"P-6-1",           934,   70.4436E-03,   113.980E-03,            0.,NA,NA,"",   956.788E+03,   928.023E+03,   928.023E+03
C:/temp/Job-6.odb,Step-1,Increment      1: Step Time =    1.000,"P-6-1",           935,   65.8232E-03,   124.549E-03,            0.,NA,NA,"",   1.07322E+06,   1.05733E+06,   1.05733E+06
C:/temp/Job-6.odb,Step-1,Increment      1: Step Time =    1.000,"P-6-1",           936,   116.717E-03,   129.531E-03,            0.,NA,NA,"",   1.19472E+06,   1.18322E+06,   1.18322E+06
C:/temp/Job-6.odb,Step-1,Increment      1: Step Time =    1.000,"P-6-1",           937,   121.555E-03,   128.037E-03,            0.,NA,NA,"",   1.20689E+06,   1.16999E+06,   1.16999E+06
C:/temp/Job-6.odb,Step-1,Increment      1: Step Time =    1.000,"P-6-1",           938,   77.1291E-03,   71.6336E-03,            0.,NA,NA,"",   1.19067E+06,   1.16475E+06,   1.16475E+06
C:/temp/Job-6.odb,Step-1,Increment      1: Step Time =    1.000,"P-6-1",           939,   130.277E-03,   83.7501E-03,            0.,NA,NA,"",   1.03796E+06,   979.779E+03,   979.779E+03
C:/temp/Job-6.odb,Step-1,Increment      1: Step Time =    1.000,"P-6-1",           940,   84.1001E-03,   70.6759E-03,            0.,NA,NA,"",   1.18920E+06,   1.19812E+06,   1.19812E+06
C:/temp/Job-6.odb,Step-1,Increment      1: Step Time =    1.000,"P-6-1",           941,   128.595E-03,   74.7535E-03,            0.,NA,NA,"",   1.17418E+06,   1.11366E+06,   1.11366E+06
C:/temp/Job-6.odb,Step-1,Increment      1: Step Time =    1.000,"P-6-1",           942,   66.3767E-03,   106.054E-03,            0.,NA,NA,"",   725.129E+03,   757.686E+03,   757.686E+03
C:/temp/Job-6.odb,Step-1,Increment      1: Step Time =    1.000,"P-6-1",           943,   112.691E-03,   132.378E-03,            0.,NA,NA,"",   1.15921E+06,   1.17403E+06,   1.17403E+06
C:/temp/Job-6.odb,Step-1,Increment      1: Step Time =    1.000,"P-6-1",           944,   129.849E-03,   90.6551E-03,            0.,NA,NA,"",   852.255E+03,   826.403E+03,   826.403E+03
C:/temp/Job-6.odb,Step-1,Increment      1: Step Time =    1.000,"P-6-1",           945,   90.3096E-03,   70.4425E-03,            0.,NA,NA,"",   1.14021E+06,   1.19055E+06,   1.19055E+06
C:/temp/Job-6.odb,Step-1,Increment      1: Step Time =    1.000,"P-6-1",           946,   117.743E-03,   67.7463E-03,            0.,NA,NA,"",   1.18077E+06,   1.16980E+06,   1.16980E+06
C:/temp/Job-6.odb,Step-1,Increment      1: Step Time =    1.000,"P-6-1",           947,   68.2629E-03,   130.075E-03,            0.,NA,NA,"",   1.11338E+06,   1.09802E+06,   1.09802E+06
C:/temp/Job-6.odb,Step-1,Increment      1: Step Time =    1.000,"P-6-1",           948,   70.4757E-03,   69.3863E-03,            0.,NA,NA,"",   1.13035E+06,   1.11053E+06,   1.11053E+06
C:/temp/Job-6.odb,Step-1,Increment      1: Step Time =    1.000,"P-6-1",           949,   126.664E-03,   126.982E-03,            0.,NA,NA,"",   1.19570E+06,   1.14059E+06,   1.14059E+06
C:/temp/Job-6.odb,Step-1,Increment      1: Step Time =    1.000,"P-6-1",           950,   130.346E-03,   96.8632E-03,            0.,NA,NA,"",   718.397E+03,   721.618E+03,   721.618E+03
C:/temp/Job-6.odb,Step-1,Increment      1: Step Time =    1.000,"P-6-1",           951,   72.0558E-03,   83.1733E-03,            0.,NA,NA,"",   1.03849E+06,   1.00087E+06,   1.00087E+06
C:/temp/Job-6.odb,Step-1,Increment      1: Step Time =    1.000,"P-6-1",           952,   82.5115E-03,   128.850E-03,            0.,NA,NA,"",   1.18576E+06,   1.17928E+06,   1.17928E+06
C:/temp/Job-6.odb,Step-1,Increment      1: Step Time =    1.000,"P-6-1",           953,   131.744E-03,   69.4737E-03,            0.,NA,NA,"",   1.14874E+06,   1.10465E+06,   1.10465E+06
C:/temp/Job-6.odb,Step-1,Increment      1: Step Time =    1.000,"P-6-1",           954,   96.5390E-03,   69.7953E-03,            0.,NA,NA,"",   1.09510E+06,   1.17018E+06,   1.17018E+06
C:/temp/Job-6.odb,Step-1,Increment      1: Step Time =    1.000,"P-6-1",           955,   67.8856E-03,   100.373E-03,            0.,NA,NA,"",   663.534E+03,   703.195E+03,   703.195E+03
C:/temp/Job-6.odb,Step-1,Increment      1: Step Time =    1.000,"P-6-1",           956,   104.527E-03,   130.857E-03,            0.,NA,NA,"",   1.09837E+06,   1.17457E+06,   1.17457E+06
C:/temp/Job-6.odb,Step-1,Increment      1: Step Time =    1.000,"P-6-1",           957,   131.851E-03,   103.083E-03,            0.,NA,NA,"",   717.499E+03,   725.950E+03,   725.950E+03
C:/temp/Job-6.odb,Step-1,Increment      1: Step Time =    1.000,"P-6-1",           958,   108.629E-03,   66.1579E-03,            0.,NA,NA,"",   1.09632E+06,   1.14407E+06,   1.14407E+06
C:/temp/Job-6.odb,Step-1,Increment      1: Step Time =    1.000,"P-6-1",           959,   132.728E-03,   117.381E-03,            0.,NA,NA,"",   1.04439E+06,   993.163E+03,   993.163E+03
C:/temp/Job-6.odb,Step-1,Increment      1: Step Time =    1.000,"P-6-1",           960,   134.218E-03,   110.103E-03,            0.,NA,NA,"",   872.933E+03,   855.586E+03,   855.586E+03
C:/temp/Job-6.odb,Step-1,Increment      1: Step Time =    1.000,"P-6-1",           961,   70.6108E-03,   88.8654E-03,            0.,NA,NA,"",   872.736E+03,   864.238E+03,   864.238E+03
C:/temp/Job-6.odb,Step-1,Increment      1: Step Time =    1.000,"P-6-1",           962,   102.746E-03,   68.4370E-03,            0.,NA,NA,"",   1.08049E+06,   1.15365E+06,   1.15365E+06
C:/temp/Job-6.odb,Step-1,Increment      1: Step Time =    1.000,"P-6-1",           963,   86.9979E-03,   132.126E-03,            0.,NA,NA,"",   1.16046E+06,   1.17979E+06,   1.17979E+06
C:/temp/Job-6.odb,Step-1,Increment      1: Step Time =    1.000,"P-6-1",           964,   69.2669E-03,   94.6184E-03,            0.,NA,NA,"",   724.311E+03,   746.135E+03,   746.135E+03
C:/temp/Job-6.odb,Step-1,Increment      1: Step Time =    1.000,"P-6-1",           965,   95.6661E-03,   130.640E-03,            0.,NA,NA,"",   1.10034E+06,   1.17744E+06,   1.17744E+06
C:/temp/Job-6.odb,Step-1,Increment      1: Step Time =    1.000,"P-6-1",           966,   123.082E-03,   71.6190E-03,            0.,NA,NA,"",   1.21276E+06,   1.16785E+06,   1.16785E+06
C:/temp/Job-6.odb,Step-1,Increment      1: Step Time =    1.000,"P-6-1",           967,   73.9383E-03,   77.5390E-03,            0.,NA,NA,"",   1.15055E+06,   1.10532E+06,   1.10532E+06
C:/temp/Job-6.odb,Step-1,Increment      1: Step Time =    1.000,"P-6-1",           968,   70.5286E-03,   126.587E-03,            0.,NA,NA,"",   1.12114E+06,   1.09828E+06,   1.09828E+06
C:/temp/Job-6.odb,Step-1,Increment      1: Step Time =    1.000,"P-6-1",           969,   131.956E-03,   124.295E-03,            0.,NA,NA,"",   1.13942E+06,   1.08167E+06,   1.08167E+06
C:/temp/Job-6.odb,Step-1,Increment      1: Step Time =    1.000,"P-6-1",           970,   73.3455E-03,   121.957E-03,            0.,NA,NA,"",   1.15252E+06,   1.10940E+06,   1.10940E+06
C:/temp/Job-6.odb,Step-1,Increment      1: Step Time =    1.000,"P-6-1",           971,   120.132E-03,   122.660E-03,            0.,NA,NA,"",   1.26841E+06,   1.20400E+06,   1.20400E+06
C:/temp/Job-6.odb,Step-1,Increment      1: Step Time =    1.000,"P-6-1",           972,   80.3572E-03,   76.1035E-03,            0.,NA,NA,"",   1.24993E+06,   1.20913E+06,   1.20913E+06
C:/temp/Job-6.odb,Step-1,Increment      1: Step Time =    1.000,"P-6-1",           973,   72.4538E-03,   108.290E-03,            0.,NA,NA,"",   773.476E+03,   757.141E+03,   757.141E+03
C:/temp/Job-6.odb,Step-1,Increment      1: Step Time =    1.000,"P-6-1",           974,   125.551E-03,   79.6788E-03,            0.,NA,NA,"",   1.18754E+06,   1.10568E+06,   1.10568E+06
C:/temp/Job-6.odb,Step-1,Increment      1: Step Time =    1.000,"P-6-1",           975,   114.199E-03,   124.003E-03,            0.,NA,NA,"",   1.25285E+06,   1.23438E+06,   1.23438E+06
C:/temp/Job-6.odb,Step-1,Increment      1: Step Time =    1.000,"P-6-1",           976,   123.954E-03,   84.5211E-03,            0.,NA,NA,"",   1.12997E+06,   1.03096E+06,   1.03096E+06
C:/temp/Job-6.odb,Step-1,Increment      1: Step Time =    1.000,"P-6-1",           977,   85.0511E-03,   76.1403E-03,            0.,NA,NA,"",   1.27746E+06,   1.26376E+06,   1.26376E+06
C:/temp/Job-6.odb,Step-1,Increment      1: Step Time =    1.000,"P-6-1",           978,   123.544E-03,   90.8589E-03,            0.,NA,NA,"",   899.925E+03,   822.664E+03,   822.664E+03
C:/temp/Job-6.odb,Step-1,Increment      1: Step Time =    1.000,"P-6-1",           979,   91.1166E-03,   76.4727E-03,            0.,NA,NA,"",   1.24056E+06,   1.29194E+06,   1.29194E+06
C:/temp/Job-6.odb,Step-1,Increment      1: Step Time =    1.000,"P-6-1",           980,   74.0240E-03,   102.551E-03,            0.,NA,NA,"",   576.626E+03,   590.705E+03,   590.705E+03
C:/temp/Job-6.odb,Step-1,Increment      1: Step Time =    1.000,"P-6-1",           981,   109.179E-03,   126.845E-03,            0.,NA,NA,"",   1.17602E+06,   1.21581E+06,   1.21581E+06
C:/temp/Job-6.odb,Step-1,Increment      1: Step Time =    1.000,"P-6-1",           982,   112.538E-03,   73.4008E-03,            0.,NA,NA,"",   1.23592E+06,   1.24426E+06,   1.24426E+06
C:/temp/Job-6.odb,Step-1,Increment      1: Step Time =    1.000,"P-6-1",           983,   124.197E-03,   97.7136E-03,            0.,NA,NA,"",   601.105E+03,   582.397E+03,   582.397E+03
C:/temp/Job-6.odb,Step-1,Increment      1: Step Time =    1.000,"P-6-1",           984,   77.5444E-03,   85.3074E-03,            0.,NA,NA,"",   1.11776E+06,   1.03080E+06,   1.03080E+06
C:/temp/Job-6.odb,Step-1,Increment      1: Step Time =    1.000,"P-6-1",           985,   86.4418E-03,   122.919E-03,            0.,NA,NA,"",   1.28938E+06,   1.27128E+06,   1.27128E+06
C:/temp/Job-6.odb,Step-1,Increment      1: Step Time =    1.000,"P-6-1",           986,   97.8111E-03,   75.8731E-03,            0.,NA,NA,"",   1.17037E+06,   1.27426E+06,   1.27426E+06
C:/temp/Job-6.odb,Step-1,Increment      1: Step Time =    1.000,"P-6-1",           987,   125.315E-03,   104.212E-03,            0.,NA,NA,"",   645.314E+03,   618.593E+03,   618.593E+03
C:/temp/Job-6.odb,Step-1,Increment      1: Step Time =    1.000,"P-6-1",           988,   75.2497E-03,   96.7818E-03,            0.,NA,NA,"",   592.073E+03,   599.818E+03,   599.818E+03
C:/temp/Job-6.odb,Step-1,Increment      1: Step Time =    1.000,"P-6-1",           989,   100.236E-03,   125.302E-03,            0.,NA,NA,"",   1.20753E+06,   1.32054E+06,   1.32054E+06
C:/temp/Job-6.odb,Step-1,Increment      1: Step Time =    1.000,"P-6-1",           990,   104.692E-03,   74.8249E-03,            0.,NA,NA,"",   1.18852E+06,   1.27324E+06,   1.27324E+06
C:/temp/Job-6.odb,Step-1,Increment      1: Step Time =    1.000,"P-6-1",           991,   126.302E-03,   110.512E-03,            0.,NA,NA,"",   937.442E+03,   861.682E+03,   861.682E+03
C:/temp/Job-6.odb,Step-1,Increment      1: Step Time =    1.000,"P-6-1",           992,   76.4173E-03,   90.9619E-03,            0.,NA,NA,"",   862.165E+03,   805.967E+03,   805.967E+03
C:/temp/Job-6.odb,Step-1,Increment      1: Step Time =    1.000,"P-6-1",           993,   91.0806E-03,   126.418E-03,            0.,NA,NA,"",   1.18635E+06,   1.22838E+06,   1.22838E+06
C:/temp/Job-6.odb,Step-1,Increment      1: Step Time =    1.000,"P-6-1",           994,   78.9364E-03,   80.1073E-03,            0.,NA,NA,"",   1.22846E+06,   1.16511E+06,   1.16511E+06
C:/temp/Job-6.odb,Step-1,Increment      1: Step Time =    1.000,"P-6-1",           995,   119.815E-03,   76.9214E-03,            0.,NA,NA,"",   1.25374E+06,   1.19243E+06,   1.19243E+06
C:/temp/Job-6.odb,Step-1,Increment      1: Step Time =    1.000,"P-6-1",           996,   78.1124E-03,   125.227E-03,            0.,NA,NA,"",   1.18624E+06,   1.15479E+06,   1.15479E+06
C:/temp/Job-6.odb,Step-1,Increment      1: Step Time =    1.000,"P-6-1",           997,   126.277E-03,   116.684E-03,            0.,NA,NA,"",   1.12874E+06,   1.04470E+06,   1.04470E+06
C:/temp/Job-6.odb,Step-1,Increment      1: Step Time =    1.000,"P-6-1",           998,   81.5583E-03,   119.581E-03,            0.,NA,NA,"",   1.29603E+06,   1.22870E+06,   1.22870E+06
C:/temp/Job-6.odb,Step-1,Increment      1: Step Time =    1.000,"P-6-1",           999,   119.438E-03,   116.794E-03,            0.,NA,NA,"",   1.30419E+06,   1.20015E+06,   1.20015E+06
C:/temp/Job-6.odb,Step-1,Increment      1: Step Time =    1.000,"P-6-1",          1000,   84.5872E-03,   81.6226E-03,            0.,NA,NA,"",   1.34761E+06,   1.29222E+06,   1.29222E+06
C:/temp/Job-6.odb,Step-1,Increment      1: Step Time =    1.000,"P-6-1",          1001,   118.051E-03,   83.1488E-03,            0.,NA,NA,"",   1.25273E+06,   1.14776E+06,   1.14776E+06
C:/temp/Job-6.odb,Step-1,Increment      1: Step Time =    1.000,"P-6-1",          1002,   111.864E-03,   81.2660E-03,            0.,NA,NA,"",   1.34940E+06,   1.32681E+06,   1.32681E+06
C:/temp/Job-6.odb,Step-1,Increment      1: Step Time =    1.000,"P-6-1",          1003,   83.1121E-03,   86.9329E-03,            0.,NA,NA,"",   1.19996E+06,   1.08946E+06,   1.08946E+06
C:/temp/Job-6.odb,Step-1,Increment      1: Step Time =    1.000,"P-6-1",          1004,   90.2250E-03,   116.842E-03,            0.,NA,NA,"",   1.42670E+06,   1.42609E+06,   1.42609E+06
C:/temp/Job-6.odb,Step-1,Increment      1: Step Time =    1.000,"P-6-1",          1005,   119.526E-03,   110.964E-03,            0.,NA,NA,"",   1.07139E+06,   941.028E+03,   941.028E+03
C:/temp/Job-6.odb,Step-1,Increment      1: Step Time =    1.000,"P-6-1",          1006,   91.2456E-03,   83.4571E-03,            0.,NA,NA,"",   1.44836E+06,   1.47428E+06,   1.47428E+06
C:/temp/Job-6.odb,Step-1,Increment      1: Step Time =    1.000,"P-6-1",          1007,   80.7434E-03,   104.617E-03,            0.,NA,NA,"",   585.311E+03,   356.636E+03,   356.636E+03
C:/temp/Job-6.odb,Step-1,Increment      1: Step Time =    1.000,"P-6-1",          1008,   116.423E-03,   90.6626E-03,            0.,NA,NA,"",   980.394E+03,   703.189E+03,   703.189E+03
C:/temp/Job-6.odb,Step-1,Increment      1: Step Time =    1.000,"P-6-1",          1009,   111.468E-03,   116.809E-03,            0.,NA,NA,"",   1.39015E+06,   1.36146E+06,   1.36146E+06
C:/temp/Job-6.odb,Step-1,Increment      1: Step Time =    1.000,"P-6-1",          1010,   6.81689E-03,   6.79816E-03,            0.,NA,NA,"",   1.25477E+06,   1.30396E+06,   1.30396E+06
C:/temp/Job-6.odb,Step-1,Increment      1: Step Time =    1.000,"P-6-1",          1011,   78.8101E-03,   110.642E-03,            0.,NA,NA,"",   938.351E+03,   854.385E+03,   854.385E+03
C:/temp/Job-6.odb,Step-1,Increment      1: Step Time =    1.000,"P-6-1",          1012,   76.1528E-03,   116.521E-03,            0.,NA,NA,"",   1.14370E+06,   1.07505E+06,   1.07505E+06
C:/temp/Job-6.odb,Step-1,Increment      1: Step Time =    1.000,"P-6-1",          1013,   126.049E-03,   122.322E-03,            0.,NA,NA,"",   1.20843E+06,   1.13405E+06,   1.13405E+06
C:/temp/Job-6.odb,Step-1,Increment      1: Step Time =    1.000,"P-6-1",          1014,   68.0695E-03,   119.345E-03,            0.,NA,NA,"",   1.05337E+06,   1.02692E+06,   1.02692E+06
C:/temp/Job-6.odb,Step-1,Increment      1: Step Time =    1.000,"P-6-1",          1015,   60.5084E-03,   122.729E-03,            0.,NA,NA,"",   1.00693E+06,   1.00881E+06,   1.00881E+06
C:/temp/Job-6.odb,Step-1,Increment      1: Step Time =    1.000,"P-6-1",          1016,   126.549E-03,   66.7011E-03,            0.,NA,NA,"",   1.16196E+06,   1.12806E+06,   1.12806E+06
C:/temp/Job-6.odb,Step-1,Increment      1: Step Time =    1.000,"P-6-1",          1017,   138.990E-03,   118.549E-03,            0.,NA,NA,"",   1.00462E+06,   975.286E+03,   975.286E+03
C:/temp/Job-6.odb,Step-1,Increment      1: Step Time =    1.000,"P-6-1",          1018,   136.141E-03,   95.7117E-03,            0.,NA,NA,"",   797.642E+03,   804.478E+03,   804.478E+03
C:/temp/Job-6.odb,Step-1,Increment      1: Step Time =    1.000,"P-6-1",          1019,   138.032E-03,   100.802E-03,            0.,NA,NA,"",   796.380E+03,   806.851E+03,   806.851E+03
C:/temp/Job-6.odb,Step-1,Increment      1: Step Time =    1.000,"P-6-1",          1020,   95.4904E-03,   149.751E-03,            0.,NA,NA,"",   1.02805E+06,   1.06405E+06,   1.06405E+06
C:/temp/Job-6.odb,Step-1,Increment      1: Step Time =    1.000,"P-6-1",          1021,   139.849E-03,   130.136E-03,            0.,NA,NA,"",   1.09825E+06,   1.06122E+06,   1.06122E+06
C:/temp/Job-6.odb,Step-1,Increment      1: Step Time =    1.000,"P-6-1",          1022,   128.137E-03,   132.331E-03,            0.,NA,NA,"",   1.16248E+06,   1.12413E+06,   1.12413E+06
C:/temp/Job-6.odb,Step-1,Increment      1: Step Time =    1.000,"P-6-1",          1023,   77.5599E-03,   64.9726E-03,            0.,NA,NA,"",   1.14385E+06,   1.14064E+06,   1.14064E+06
C:/temp/Job-6.odb,Step-1,Increment      1: Step Time =    1.000,"P-6-1",          1024,   139.416E-03,   80.0542E-03,            0.,NA,NA,"",   1.02096E+06,   990.213E+03,   990.213E+03
C:/temp/Job-6.odb,Step-1,Increment      1: Step Time =    1.000,"P-6-1",          1025,   58.8887E-03,   109.357E-03,            0.,NA,NA,"",   810.207E+03,   848.910E+03,   848.910E+03
C:/temp/Job-6.odb,Step-1,Increment      1: Step Time =    1.000,"P-6-1",          1026,   74.3224E-03,   129.931E-03,            0.,NA,NA,"",   1.15446E+06,   1.13401E+06,   1.13401E+06
C:/temp/Job-6.odb,Step-1,Increment      1: Step Time =    1.000,"P-6-1",          1027,   141.378E-03,   92.8534E-03,            0.,NA,NA,"",   868.848E+03,   871.804E+03,   871.804E+03
C:/temp/Job-6.odb,Step-1,Increment      1: Step Time =    1.000,"P-6-1",          1028,   129.417E-03,   137.879E-03,            0.,NA,NA,"",   1.13482E+06,   1.10669E+06,   1.10669E+06
C:/temp/Job-6.odb,Step-1,Increment      1: Step Time =    1.000,"P-6-1",          1029,   73.0965E-03,   59.3650E-03,            0.,NA,NA,"",   1.11333E+06,   1.11197E+06,   1.11197E+06
C:/temp/Job-6.odb,Step-1,Increment      1: Step Time =    1.000,"P-6-1",          1030,   66.8929E-03,   61.3764E-03,            0.,NA,NA,"",   1.10043E+06,   1.09495E+06,   1.09495E+06
C:/temp/Job-6.odb,Step-1,Increment      1: Step Time =    1.000,"P-6-1",          1031,   94.1302E-03,   58.6545E-03,            0.,NA,NA,"",   1.04653E+06,   1.09121E+06,   1.09121E+06
C:/temp/Job-6.odb,Step-1,Increment      1: Step Time =    1.000,"P-6-1",          1032,   64.1962E-03,   136.450E-03,            0.,NA,NA,"",   1.08269E+06,   1.08007E+06,   1.08007E+06
C:/temp/Job-6.odb,Step-1,Increment      1: Step Time =    1.000,"P-6-1",          1033,   51.5000E-03,   112.637E-03,            0.,NA,NA,"",   851.283E+03,   896.880E+03,   896.880E+03
C:/temp/Job-6.odb,Step-1,Increment      1: Step Time =    1.000,"P-6-1",          1034,   146.555E-03,   87.9957E-03,            0.,NA,NA,"",   927.194E+03,   924.671E+03,   924.671E+03
C:/temp/Job-6.odb,Step-1,Increment      1: Step Time =    1.000,"P-6-1",          1035,   154.027E-03,   104.548E-03,            0.,NA,NA,"",   911.725E+03,   920.689E+03,   920.689E+03
C:/temp/Job-6.odb,Step-1,Increment      1: Step Time =    1.000,"P-6-1",          1036,   145.883E-03,   27.3580E-03,            0.,NA,NA,"",   1.02299E+06,   1.01714E+06,   1.01714E+06
C:/temp/Job-6.odb,Step-1,Increment      1: Step Time =    1.000,"P-6-1",          1037,   131.987E-03,   142.934E-03,            0.,NA,NA,"",   1.10947E+06,   1.08772E+06,   1.08772E+06
C:/temp/Job-6.odb,Step-1,Increment      1: Step Time =    1.000,"P-6-1",          1038,   127.549E-03,   146.079E-03,            0.,NA,NA,"",   1.09797E+06,   1.08549E+06,   1.08549E+06
C:/temp/Job-6.odb,Step-1,Increment      1: Step Time =    1.000,"P-6-1",          1039,   62.7753E-03,   53.9031E-03,            0.,NA,NA,"",   1.07589E+06,   1.07871E+06,   1.07871E+06
C:/temp/Job-6.odb,Step-1,Increment      1: Step Time =    1.000,"P-6-1",          1040,   140.621E-03,   35.7156E-03,            0.,NA,NA,"",   1.04192E+06,   1.03345E+06,   1.03345E+06
C:/temp/Job-6.odb,Step-1,Increment      1: Step Time =    1.000,"P-6-1",          1041,   118.197E-03,   167.712E-03,            0.,NA,NA,"",   1.01944E+06,   1.02469E+06,   1.02469E+06
C:/temp/Job-6.odb,Step-1,Increment      1: Step Time =    1.000,"P-6-1",          1042,   159.023E-03,   103.152E-03,            0.,NA,NA,"",   927.298E+03,   937.456E+03,   937.456E+03
C:/temp/Job-6.odb,Step-1,Increment      1: Step Time =    1.000,"P-6-1",          1043,   127.303E-03,   38.1807E-03,            0.,NA,NA,"",   1.04511E+06,   1.04220E+06,   1.04220E+06
C:/temp/Job-6.odb,Step-1,Increment      1: Step Time =    1.000,"P-6-1",          1044,   162.425E-03,   126.609E-03,            0.,NA,NA,"",   1.00435E+06,   999.884E+03,   999.884E+03
C:/temp/Job-6.odb,Step-1,Increment      1: Step Time =    1.000,"P-6-1",          1045,   131.242E-03,   52.9834E-03,            0.,NA,NA,"",   1.09566E+06,   1.07905E+06,   1.07905E+06
C:/temp/Job-6.odb,Step-1,Increment      1: Step Time =    1.000,"P-6-1",          1046,   47.7640E-03,   166.585E-03,            0.,NA,NA,"",   1.04360E+06,   1.05637E+06,   1.05637E+06
C:/temp/Job-6.odb,Step-1,Increment      1: Step Time =    1.000,"P-6-1",          1047,   166.058E-03,   58.3128E-03,            0.,NA,NA,"",   1.02586E+06,   1.01911E+06,   1.01911E+06
C:/temp/Job-6.odb,Step-1,Increment      1: Step Time =    1.000,"P-6-1",          1048,   55.5229E-03,   61.6166E-03,            0.,NA,NA,"",   1.04217E+06,   1.05313E+06,   1.05313E+06
C:/temp/Job-6.odb,Step-1,Increment      1: Step Time =    1.000,"P-6-1",          1049,   106.532E-03,   29.0424E-03,            0.,NA,NA,"",   1.00004E+06,   1.01095E+06,   1.01095E+06
C:/temp/Job-6.odb,Step-1,Increment      1: Step Time =    1.000,"P-6-1",          1050,   78.7978E-03,   156.544E-03,            0.,NA,NA,"",   1.05593E+06,   1.06578E+06,   1.06578E+06
C:/temp/Job-6.odb,Step-1,Increment      1: Step Time =    1.000,"P-6-1",          1051,   76.2483E-03,   162.439E-03,            0.,NA,NA,"",   1.04590E+06,   1.05282E+06,   1.05282E+06
C:/temp/Job-6.odb,Step-1,Increment      1: Step Time =    1.000,"P-6-1",          1052,   57.2682E-03,   172.166E-03,            0.,NA,NA,"",   1.04012E+06,   1.04408E+06,   1.04408E+06
C:/temp/Job-6.odb,Step-1,Increment      1: Step Time =    1.000,"P-6-1",          1053,   170.244E-03,   109.556E-03,            0.,NA,NA,"",   959.547E+03,   970.784E+03,   970.784E+03
C:/temp/Job-6.odb,Step-1,Increment      1: Step Time =    1.000,"P-6-1",          1054,   164.863E-03,   63.9130E-03,            0.,NA,NA,"",   1.02320E+06,   1.01619E+06,   1.01619E+06
C:/temp/Job-6.odb,Step-1,Increment      1: Step Time =    1.000,"P-6-1",          1055,   30.6067E-03,   52.9520E-03,            0.,NA,NA,"",   956.965E+03,   1.01262E+06,   1.01262E+06
C:/temp/Job-6.odb,Step-1,Increment      1: Step Time =    1.000,"P-6-1",          1056,   140.665E-03,   150.374E-03,            0.,NA,NA,"",   1.07673E+06,   1.05938E+06,   1.05938E+06
C:/temp/Job-6.odb,Step-1,Increment      1: Step Time =    1.000,"P-6-1",          1057,   71.7270E-03,   168.526E-03,            0.,NA,NA,"",   1.03596E+06,   1.03980E+06,   1.03980E+06
C:/temp/Job-6.odb,Step-1,Increment      1: Step Time =    1.000,"P-6-1",          1058,   53.0330E-03,   33.3438E-03,            0.,NA,NA,"",   1.04667E+06,   1.05484E+06,   1.05484E+06
C:/temp/Job-6.odb,Step-1,Increment      1: Step Time =    1.000,"P-6-1",          1059,   33.3998E-03,   99.0894E-03,            0.,NA,NA,"",   823.425E+03,   897.202E+03,   897.202E+03
C:/temp/Job-6.odb,Step-1,Increment      1: Step Time =    1.000,"P-6-1",          1060,   53.7898E-03,   57.9436E-03,            0.,NA,NA,"",   1.03663E+06,   1.05111E+06,   1.05111E+06
C:/temp/Job-6.odb,Step-1,Increment      1: Step Time =    1.000,"P-6-1",          1061,   36.4777E-03,   56.9222E-03,            0.,NA,NA,"",   968.375E+03,   1.01447E+06,   1.01447E+06
C:/temp/Job-6.odb,Step-1,Increment      1: Step Time =    1.000,"P-6-1",          1062,   37.6703E-03,   63.6606E-03,            0.,NA,NA,"",   949.917E+03,   997.972E+03,   997.972E+03
